generated by phonopy                    
   1.00000000000000     
    11.7777700938999992   -0.0000006592896312    0.0000118211769744
    -0.0000006477562692   11.7777479613999994   -0.0000130806483528
     0.0000177256125076   -0.0000204342245446   17.8544012557999991
   Bi   Zn   Cu   Se   O 
    36     1    35    36    36
Direct
  0.0000538880710437  0.1683443746016735  0.4310663493847571
  0.3344192824644594  0.1681187087163423  0.4302931361452238
  0.6656958930812777  0.1681170918335724  0.4302951587624690
  0.0000584062772901  0.4999243666732838  0.4301824409978536
  0.3335912861590060  0.4999261537910300  0.4298190346096078
  0.6665282117934979  0.4999222233395031  0.4298214624480039
  0.0000608370464903  0.8314996815277667  0.4310664564386499
  0.3344256321860470  0.8317293501392911  0.4302921788401264
  0.6657025172419040  0.8317284710477324  0.4302932142361016
  0.0000035860169660  0.1667755094432763  0.9286897236085991
  0.3335358108208624  0.1669517823432471  0.9278817422735699
  0.6664717277842698  0.1669504664471901  0.9278836946372948
  0.0000045797512271  0.4999536716112161  0.9285325231649040
  0.3340163299523837  0.4999525462639625  0.9276628696669604
  0.6659938185596701  0.4999572498587241  0.9276623544338491
  0.0000067397699794  0.8331307637206251  0.9286898950206819
  0.3335402507583538  0.8329559960160822  0.9278812098457294
  0.6664752338428386  0.8329570737342209  0.9278813489148803
  0.1684286545777312  0.9999518763886712  0.0690176626936889
  0.5000065288818334  0.9999539830155584  0.0699001678231710
  0.8315865594101624  0.9999535032646847  0.0690206996968641
  0.1681923034487056  0.3343109872043826  0.0697922379617992
  0.5000026406067803  0.3334838065187213  0.0702703084364558
  0.8318111190882362  0.3343116547152789  0.0697928826150900
  0.1682014724475920  0.6655923783748108  0.0697923242648884
  0.5000084320800653  0.6664249441665149  0.0702696009004171
  0.8318168990398505  0.6655931546523632  0.0697923535308860
  0.1668846498323617  0.9999223622943845  0.5713963765368817
  0.5000603546453277  0.9999237337198892  0.5715519277747703
  0.8332366637959439  0.9999243706222103  0.5713972943097261
  0.1670538069537528  0.3334558509433023  0.5722017592164406
  0.5000534949245150  0.3339347540574167  0.5724273023640194
  0.8330625893132293  0.3334579287072117  0.5722038448295166
  0.1670578621737207  0.6663915095604906  0.5722022939423042
  0.5000626794275860  0.6659136072099301  0.5724258063860077
  0.8330657020211376  0.6663925742537842  0.5722047522187594
  0.0000507450873002  0.9999277290618238  0.2500450628299191
  0.3367198651740466  0.9999344772735341  0.2485208444258760
  0.6633547668463251  0.9999441749653997  0.2485187427253095
  0.0000344307211932  0.3366300548473831  0.2515655163795785
  0.3345503149123132  0.3344606770391465  0.2500404791828572
  0.6655226977464608  0.3344628009516555  0.2500407130083602
  0.0000624354787462  0.6632428403952844  0.2515561527246959
  0.3345809163934916  0.6654182446621775  0.2500372915734133
  0.6655333689359395  0.6654097911857448  0.2500398418684640
  0.0000203894714659  0.9999363265540353  0.7500421007541860
  0.3330237864794796  0.9999385624147479  0.7501696319707634
  0.6670179066257447  0.9999364005992533  0.7501683240790058
  0.0000135419224989  0.3329398259670953  0.7499177511187298
  0.3328666607875590  0.3327904546528444  0.7500437642061755
  0.6671600463662912  0.3327995790447318  0.7500425001756312
  0.0000197354966645  0.6669332077973920  0.7499156055586980
  0.3328734187535005  0.6670826344589287  0.7500428862399176
  0.6671718698736555  0.6670822547874877  0.7500426219519767
  0.1740167539130155  0.1739464556131480  0.2500394088106859
  0.5000159886180882  0.1668889978460015  0.2502736117529736
  0.8259956321283326  0.1739391281382794  0.2500424617177401
  0.1669856721706466  0.4999296913156570  0.2498151365292856
  0.5000212980655618  0.4999195815539466  0.2500485125439909
  0.8330524152615055  0.4999207933522101  0.2498141317388090
  0.1740502154269024  0.8259039011087026  0.2500413769581300
  0.5000343427343310  0.8329615884028811  0.2502778745606378
  0.8260304328344290  0.8259032687500252  0.2500388132058902
  0.1664596846056838  0.1663731712375096  0.7500436682782592
  0.5000447621142783  0.1662064764278810  0.7497995638724078
  0.8336224761794355  0.1663768318095862  0.7500441916216403
  0.1662981961411276  0.4999488448709570  0.7502858213169219
  0.5000464940624667  0.4999542035672491  0.7500400971295349
  0.8337942672353620  0.4999526203579165  0.7502846928626568
  0.1664718084824344  0.8335231151884841  0.7500431902718887
  0.5000513300938465  0.8337011662205498  0.7497977483105487
  0.8336336956296932  0.8335319029207042  0.7500423478016103
  0.1673851022423136  0.3346914489211770  0.3384019166751600
  0.5000392704686618  0.3334113452651621  0.3377165974079546
  0.8326916617410163  0.3346983379165138  0.3383970246931938
  0.1674023754098855  0.6651470376901045  0.3383963347046191
  0.5000516544247589  0.6664513123060729  0.3377192730937466
  0.8327121030046172  0.6651547837891485  0.3384003888723797
  0.1678826689598054  0.9999234657669334  0.3344720350241204
  0.5000447612419805  0.9999274335547810  0.3374172802370055
  0.8322145551051534  0.9999183927979516  0.3344613150882267
  0.1664202584868661  0.3332256542041563  0.8372588656530198
  0.5000168971685639  0.3330889798722296  0.8369245403929710
  0.8336081450154111  0.3332225935664965  0.8372573487067569
  0.1664263407546827  0.6666745415139772  0.8372574006997269
  0.5000199096687652  0.6668110909673572  0.8369242365002592
  0.8336157851757164  0.6666725270365816  0.8372568521586885
  0.1665639450968186  0.9999496896266535  0.8373627872837801
  0.5000199572769830  0.9999508093857443  0.8372340447100441
  0.8334727602207579  0.9999499560133103  0.8373625858495757
  0.3347921025932337  0.1672905388719315  0.1616913679012981
  0.6652346977817771  0.1672929205669433  0.1616903057282713
  0.0000197590810060  0.1677692259009191  0.1656160988963293
  0.3334936361949872  0.4999488410421691  0.1623721505302811
  0.6665373145613600  0.4999391789898127  0.1623729844149580
  0.0000170187548321  0.4999419528439404  0.1626740220654455
  0.3348102852730648  0.8325913801431355  0.1616908679482094
  0.6652584144558489  0.8325885056093938  0.1616896788355717
  0.0000278397796905  0.8321044826851391  0.1656083948580331
  0.3333201104900283  0.1663416459388998  0.6628306150975192
  0.6667735124361229  0.1663407305671853  0.6628300034574011
  0.0000444155535391  0.1664810151728844  0.6627239045066489
  0.3331827233286333  0.4999356224690743  0.6631668967017745
  0.6669104059936970  0.4999348952760059  0.6631660297455610
  0.0000475719698443  0.4999330168220553  0.6628523820093974
  0.3333224237487045  0.8335282493372702  0.6628313038494014
  0.6667756635740361  0.8335268972622316  0.6628300668587670
  0.0000509850618968  0.8333878843797180  0.6627227107565616
  0.1666947140265052  0.1667949102678321  0.5003450499870183
  0.5000551215084172  0.1670362208998313  0.5005417832429941
  0.8334103343896828  0.1667944539969355  0.5003472963644029
  0.1669317611396650  0.4999231370273947  0.5009074816124794
  0.5000567397778752  0.4999272679596203  0.5012358590524002
  0.8331759567762731  0.4999278517684758  0.5009091008288706
  0.1666998497687402  0.8330533531260613  0.5003450189539365
  0.5000578975327201  0.8328180924250717  0.5005409328531059
  0.8334134739784957  0.8330571896739869  0.5003477895250299
  0.1668772089453086  0.1665938785924368  0.9997399887444729
  0.5000075951088050  0.1668265038568109  0.9991792550303060
  0.8331416714322586  0.1665939598469635  0.9997413179075707
  0.1671152431549245  0.4999528823895929  0.9995475817309796
  0.5000104517039503  0.4999490039861954  0.9988542665520725
  0.8329039888614815  0.4999488646594017  0.9995475860579930
  0.1668836802342568  0.8333084120705934  0.9997387421404369
  0.5000147738433682  0.8330784125819406  0.9991792608152821
  0.8331433861656734  0.8333088064022576  0.9997407231654307
  0.0000125985420993  0.9999530004241421  0.0000469262891798
  0.3333166993394983  0.9999547441533636  0.9991733114239949
  0.6667076023920160  0.9999526910645002  0.9991741904546814
  0.0000069587542342  0.3331302251110628  0.0000709582756002
  0.3330299633650782  0.3336302590339599  0.9992223902774100
  0.6669867295991523  0.3336298622706835  0.9992226393101902
  0.0000131278133253  0.6667732419527965  0.0000701445841287
  0.3330363562252217  0.6662736244845746  0.9992201090362585
  0.6669901221793495  0.6662715032986526  0.9992191601159348
  0.0000528399469530  0.9999226179555407  0.5000359237935612
  0.3332347451195474  0.9999246017534702  0.5000150334027396
  0.6668772029856385  0.9999298888089925  0.5000155674057964
  0.0000513185452320  0.3332341282703979  0.5009122853985204
  0.3337354871399612  0.3329474951075611  0.5008703121586962
  0.6663725702133476  0.3329467576789327  0.5008687234828457
  0.0000552837597425  0.6666143638724265  0.5009141728108233
  0.3337377443231802  0.6669021997202051  0.5008695525664137
  0.6663755122359589  0.6669032887383821  0.5008691626891348
 
  0.00000000E+00  0.00000000E+00  0.00000000E+00
  0.00000000E+00  0.00000000E+00  0.00000000E+00
  0.00000000E+00  0.00000000E+00  0.00000000E+00
  0.00000000E+00  0.00000000E+00  0.00000000E+00
  0.00000000E+00  0.00000000E+00  0.00000000E+00
  0.00000000E+00  0.00000000E+00  0.00000000E+00
  0.00000000E+00  0.00000000E+00  0.00000000E+00
  0.00000000E+00  0.00000000E+00  0.00000000E+00
  0.00000000E+00  0.00000000E+00  0.00000000E+00
  0.00000000E+00  0.00000000E+00  0.00000000E+00
  0.00000000E+00  0.00000000E+00  0.00000000E+00
  0.00000000E+00  0.00000000E+00  0.00000000E+00
  0.00000000E+00  0.00000000E+00  0.00000000E+00
  0.00000000E+00  0.00000000E+00  0.00000000E+00
  0.00000000E+00  0.00000000E+00  0.00000000E+00
  0.00000000E+00  0.00000000E+00  0.00000000E+00
  0.00000000E+00  0.00000000E+00  0.00000000E+00
  0.00000000E+00  0.00000000E+00  0.00000000E+00
  0.00000000E+00  0.00000000E+00  0.00000000E+00
  0.00000000E+00  0.00000000E+00  0.00000000E+00
  0.00000000E+00  0.00000000E+00  0.00000000E+00
  0.00000000E+00  0.00000000E+00  0.00000000E+00
  0.00000000E+00  0.00000000E+00  0.00000000E+00
  0.00000000E+00  0.00000000E+00  0.00000000E+00
  0.00000000E+00  0.00000000E+00  0.00000000E+00
  0.00000000E+00  0.00000000E+00  0.00000000E+00
  0.00000000E+00  0.00000000E+00  0.00000000E+00
  0.00000000E+00  0.00000000E+00  0.00000000E+00
  0.00000000E+00  0.00000000E+00  0.00000000E+00
  0.00000000E+00  0.00000000E+00  0.00000000E+00
  0.00000000E+00  0.00000000E+00  0.00000000E+00
  0.00000000E+00  0.00000000E+00  0.00000000E+00
  0.00000000E+00  0.00000000E+00  0.00000000E+00
  0.00000000E+00  0.00000000E+00  0.00000000E+00
  0.00000000E+00  0.00000000E+00  0.00000000E+00
  0.00000000E+00  0.00000000E+00  0.00000000E+00
  0.00000000E+00  0.00000000E+00  0.00000000E+00
  0.00000000E+00  0.00000000E+00  0.00000000E+00
  0.00000000E+00  0.00000000E+00  0.00000000E+00
  0.00000000E+00  0.00000000E+00  0.00000000E+00
  0.00000000E+00  0.00000000E+00  0.00000000E+00
  0.00000000E+00  0.00000000E+00  0.00000000E+00
  0.00000000E+00  0.00000000E+00  0.00000000E+00
  0.00000000E+00  0.00000000E+00  0.00000000E+00
  0.00000000E+00  0.00000000E+00  0.00000000E+00
  0.00000000E+00  0.00000000E+00  0.00000000E+00
  0.00000000E+00  0.00000000E+00  0.00000000E+00
  0.00000000E+00  0.00000000E+00  0.00000000E+00
  0.00000000E+00  0.00000000E+00  0.00000000E+00
  0.00000000E+00  0.00000000E+00  0.00000000E+00
  0.00000000E+00  0.00000000E+00  0.00000000E+00
  0.00000000E+00  0.00000000E+00  0.00000000E+00
  0.00000000E+00  0.00000000E+00  0.00000000E+00
  0.00000000E+00  0.00000000E+00  0.00000000E+00
  0.00000000E+00  0.00000000E+00  0.00000000E+00
  0.00000000E+00  0.00000000E+00  0.00000000E+00
  0.00000000E+00  0.00000000E+00  0.00000000E+00
  0.00000000E+00  0.00000000E+00  0.00000000E+00
  0.00000000E+00  0.00000000E+00  0.00000000E+00
  0.00000000E+00  0.00000000E+00  0.00000000E+00
  0.00000000E+00  0.00000000E+00  0.00000000E+00
  0.00000000E+00  0.00000000E+00  0.00000000E+00
  0.00000000E+00  0.00000000E+00  0.00000000E+00
  0.00000000E+00  0.00000000E+00  0.00000000E+00
  0.00000000E+00  0.00000000E+00  0.00000000E+00
  0.00000000E+00  0.00000000E+00  0.00000000E+00
  0.00000000E+00  0.00000000E+00  0.00000000E+00
  0.00000000E+00  0.00000000E+00  0.00000000E+00
  0.00000000E+00  0.00000000E+00  0.00000000E+00
  0.00000000E+00  0.00000000E+00  0.00000000E+00
  0.00000000E+00  0.00000000E+00  0.00000000E+00
  0.00000000E+00  0.00000000E+00  0.00000000E+00
  0.00000000E+00  0.00000000E+00  0.00000000E+00
  0.00000000E+00  0.00000000E+00  0.00000000E+00
  0.00000000E+00  0.00000000E+00  0.00000000E+00
  0.00000000E+00  0.00000000E+00  0.00000000E+00
  0.00000000E+00  0.00000000E+00  0.00000000E+00
  0.00000000E+00  0.00000000E+00  0.00000000E+00
  0.00000000E+00  0.00000000E+00  0.00000000E+00
  0.00000000E+00  0.00000000E+00  0.00000000E+00
  0.00000000E+00  0.00000000E+00  0.00000000E+00
  0.00000000E+00  0.00000000E+00  0.00000000E+00
  0.00000000E+00  0.00000000E+00  0.00000000E+00
  0.00000000E+00  0.00000000E+00  0.00000000E+00
  0.00000000E+00  0.00000000E+00  0.00000000E+00
  0.00000000E+00  0.00000000E+00  0.00000000E+00
  0.00000000E+00  0.00000000E+00  0.00000000E+00
  0.00000000E+00  0.00000000E+00  0.00000000E+00
  0.00000000E+00  0.00000000E+00  0.00000000E+00
  0.00000000E+00  0.00000000E+00  0.00000000E+00
  0.00000000E+00  0.00000000E+00  0.00000000E+00
  0.00000000E+00  0.00000000E+00  0.00000000E+00
  0.00000000E+00  0.00000000E+00  0.00000000E+00
  0.00000000E+00  0.00000000E+00  0.00000000E+00
  0.00000000E+00  0.00000000E+00  0.00000000E+00
  0.00000000E+00  0.00000000E+00  0.00000000E+00
  0.00000000E+00  0.00000000E+00  0.00000000E+00
  0.00000000E+00  0.00000000E+00  0.00000000E+00
  0.00000000E+00  0.00000000E+00  0.00000000E+00
  0.00000000E+00  0.00000000E+00  0.00000000E+00
  0.00000000E+00  0.00000000E+00  0.00000000E+00
  0.00000000E+00  0.00000000E+00  0.00000000E+00
  0.00000000E+00  0.00000000E+00  0.00000000E+00
  0.00000000E+00  0.00000000E+00  0.00000000E+00
  0.00000000E+00  0.00000000E+00  0.00000000E+00
  0.00000000E+00  0.00000000E+00  0.00000000E+00
  0.00000000E+00  0.00000000E+00  0.00000000E+00
  0.00000000E+00  0.00000000E+00  0.00000000E+00
  0.00000000E+00  0.00000000E+00  0.00000000E+00
  0.00000000E+00  0.00000000E+00  0.00000000E+00
  0.00000000E+00  0.00000000E+00  0.00000000E+00
  0.00000000E+00  0.00000000E+00  0.00000000E+00
  0.00000000E+00  0.00000000E+00  0.00000000E+00
  0.00000000E+00  0.00000000E+00  0.00000000E+00
  0.00000000E+00  0.00000000E+00  0.00000000E+00
  0.00000000E+00  0.00000000E+00  0.00000000E+00
  0.00000000E+00  0.00000000E+00  0.00000000E+00
  0.00000000E+00  0.00000000E+00  0.00000000E+00
  0.00000000E+00  0.00000000E+00  0.00000000E+00
  0.00000000E+00  0.00000000E+00  0.00000000E+00
  0.00000000E+00  0.00000000E+00  0.00000000E+00
  0.00000000E+00  0.00000000E+00  0.00000000E+00
  0.00000000E+00  0.00000000E+00  0.00000000E+00
  0.00000000E+00  0.00000000E+00  0.00000000E+00
  0.00000000E+00  0.00000000E+00  0.00000000E+00
  0.00000000E+00  0.00000000E+00  0.00000000E+00
  0.00000000E+00  0.00000000E+00  0.00000000E+00
  0.00000000E+00  0.00000000E+00  0.00000000E+00
  0.00000000E+00  0.00000000E+00  0.00000000E+00
  0.00000000E+00  0.00000000E+00  0.00000000E+00
  0.00000000E+00  0.00000000E+00  0.00000000E+00
  0.00000000E+00  0.00000000E+00  0.00000000E+00
  0.00000000E+00  0.00000000E+00  0.00000000E+00
  0.00000000E+00  0.00000000E+00  0.00000000E+00
  0.00000000E+00  0.00000000E+00  0.00000000E+00
  0.00000000E+00  0.00000000E+00  0.00000000E+00
  0.00000000E+00  0.00000000E+00  0.00000000E+00
  0.00000000E+00  0.00000000E+00  0.00000000E+00
  0.00000000E+00  0.00000000E+00  0.00000000E+00
  0.00000000E+00  0.00000000E+00  0.00000000E+00
  0.00000000E+00  0.00000000E+00  0.00000000E+00
  0.00000000E+00  0.00000000E+00  0.00000000E+00
  0.00000000E+00  0.00000000E+00  0.00000000E+00
  0.00000000E+00  0.00000000E+00  0.00000000E+00
