generated by phonopy                    
   1.00000000000000     
    10.0351470768999995   -0.0000022330999784   -0.0000001056124209
    -5.0175765436399997    8.6906901959899994    0.0000001395531216
    -0.0000001735893656    0.0000001431815548   14.9533752540999991
   O    Pb   P 
    51    19    12
Direct
  0.0156390714104830  0.8715200409492567  0.1213490193698732
  0.4842189797958127  0.6363726286732998  0.1241525010221807
  0.5003618174899955  0.6454045273131115  0.6238103734912173
  0.4738333587938541  0.3238945562984199  0.3750237158916576
  0.4736872565277608  0.3234406747126286  0.8738727001990654
  0.3644662736691373  0.8578710528571847  0.1236466096746298
  0.3570282768149866  0.8556907280236743  0.6237829242032831
  0.6853330369242698  0.1544481465834338  0.3746244154525584
  0.6859982524197292  0.1545908805657916  0.8738549370234239
  0.1452903406781090  0.4878358763577708  0.1237488657991008
  0.1468561921970704  0.4988733394445575  0.6238730360417080
  0.8527904445166357  0.5354092827664232  0.3741015277940889
  0.8531573083710953  0.5359730042118471  0.8750264284575735
  0.7003216175611584  0.6314811717724425  0.0353810139381849
  0.7287044143670727  0.6534989904757680  0.5392330392918794
  0.2603646680201877  0.3492439357607751  0.4579544816859809
  0.2618659569901354  0.3472378622801884  0.9588317287674784
  0.3520245063584042  0.0788947954144774  0.0392557710555508
  0.3458155239418232  0.0745927359178893  0.5392594401680810
  0.6492839868107083  0.9110877034272420  0.4572797225234737
  0.6542516992759602  0.9159187059589797  0.9593489660844909
  0.9266035412715894  0.2585454263876699  0.0400763798485855
  0.9271616556611733  0.2688844553667238  0.5396153444506524
  0.0919973461551038  0.7340075463362155  0.4628177975869789
  0.1066737683929659  0.7358837945173278  0.9534150864833677
  0.2596790391154897  0.3443720601067071  0.2904623651772340
  0.2584347332063857  0.3459642929062596  0.7912532426084908
  0.7037423080127923  0.6362482596374335  0.2116840919430913
  0.7297041640364270  0.6567647512615764  0.7088111206801671
  0.6567038141637198  0.9166536748484901  0.2897123268851018
  0.6521634843936539  0.9116552109623299  0.7918377400237020
  0.3493355361545056  0.0767516693648318  0.2088408737090006
  0.3424128253162948  0.0723086811777378  0.7086711761102009
  0.1044509002827496  0.7374177213098108  0.2951396947555693
  0.0907761409102790  0.7363791878710444  0.7860740709430658
  0.9283612331566360  0.2586321937191869  0.2085443721663438
  0.9292249790238429  0.2673735801911334  0.7080895298519323
  0.5279026519980619  0.4016451722814196  0.1255280546337403
  0.5428305094087165  0.4130651871935243  0.6252433218528424
  0.4698690839043351  0.5776777268418982  0.3737378818636969
  0.4699904919184661  0.5773698075711309  0.8722687429232820
  0.5905567793345270  0.1307476190056107  0.1251735935931961
  0.5871299277811843  0.1312349258632040  0.6253147619011941
  0.4264964108861022  0.9009858305550011  0.3709820325352311
  0.4267821477443690  0.9012466432042316  0.8753364290623296
  0.8722847513852656  0.4480867400166204  0.1249350113849346
  0.8711622173383162  0.4543897548440015  0.6253157613916756
  0.0983209401160181  0.5160598129494360  0.3786815492028310
  0.0980709312662285  0.5159064208441038  0.8668319846847794
  0.9992167689298626  0.0002875401093334  0.1133261239668997
  0.9988612810111377  0.9995125668345395  0.6195816512323447
  0.9949950485144754  0.7692105032297718  0.6231233106317546
  0.0021914770978739  0.2554360907965361  0.3760228079222188
  0.0018478232945469  0.2551811482152431  0.8708738076293656
  0.2463687468623377  0.2419795245417831  0.1228182974566892
  0.2293448331844132  0.2225330200400251  0.6229337272882276
  0.7336114055798362  0.7374757875139792  0.3626470555462404
  0.7335665101675275  0.7378512083521471  0.8841972912531375
  0.7459766124611633  0.9957950912089117  0.1230277919502925
  0.7737745497325434  0.0012278560915675  0.6227117892804301
  0.2567364481148928  0.9918152928678268  0.3643094946560055
  0.2564910721434046  0.9914024716866905  0.8832095014127361
  0.6770257053394744  0.3535100169029519  0.0027344569492271
  0.6642670084461741  0.3336458139349716  0.5011158548794086
  0.3154635917115982  0.6651088264330056  0.0044738588063638
  0.3361009830175803  0.6686361353491606  0.5039707930590680
  0.3155134341352479  0.6651524607186872  0.2430019176345368
  0.3365760899121923  0.6686954961033038  0.7435088019392992
  0.6762283481910316  0.3509681296540066  0.2462000838771772
  0.6642141858604873  0.3333684292681198  0.7479797504634647
  0.6073849626539456  0.5849016559500839  0.1242253772816397
  0.6242718471563649  0.5940743925259540  0.6243176299717845
  0.3678315868872986  0.3955850403368686  0.3741177109268747
  0.3678937130465556  0.3953397711301108  0.8742221799411709
  0.4090368260375925  0.0307072881889070  0.1242086261338855
  0.4063216523664437  0.0302097620463186  0.6243145016253280
  0.6079353182618021  0.9763804300963912  0.3737285690823242
  0.6082284587548585  0.9765339784786562  0.8745074287783865
  0.9690406607142137  0.3655529599861609  0.1243466873109114
  0.9720781510049790  0.3752974415430401  0.6242502617828265
  0.0312994152807988  0.6298978420235386  0.3779835072782021
  0.0316351752347543  0.6301603115128813  0.8700647198079281
 
  0.00000000E+00  0.00000000E+00  0.00000000E+00
  0.00000000E+00  0.00000000E+00  0.00000000E+00
  0.00000000E+00  0.00000000E+00  0.00000000E+00
  0.00000000E+00  0.00000000E+00  0.00000000E+00
  0.00000000E+00  0.00000000E+00  0.00000000E+00
  0.00000000E+00  0.00000000E+00  0.00000000E+00
  0.00000000E+00  0.00000000E+00  0.00000000E+00
  0.00000000E+00  0.00000000E+00  0.00000000E+00
  0.00000000E+00  0.00000000E+00  0.00000000E+00
  0.00000000E+00  0.00000000E+00  0.00000000E+00
  0.00000000E+00  0.00000000E+00  0.00000000E+00
  0.00000000E+00  0.00000000E+00  0.00000000E+00
  0.00000000E+00  0.00000000E+00  0.00000000E+00
  0.00000000E+00  0.00000000E+00  0.00000000E+00
  0.00000000E+00  0.00000000E+00  0.00000000E+00
  0.00000000E+00  0.00000000E+00  0.00000000E+00
  0.00000000E+00  0.00000000E+00  0.00000000E+00
  0.00000000E+00  0.00000000E+00  0.00000000E+00
  0.00000000E+00  0.00000000E+00  0.00000000E+00
  0.00000000E+00  0.00000000E+00  0.00000000E+00
  0.00000000E+00  0.00000000E+00  0.00000000E+00
  0.00000000E+00  0.00000000E+00  0.00000000E+00
  0.00000000E+00  0.00000000E+00  0.00000000E+00
  0.00000000E+00  0.00000000E+00  0.00000000E+00
  0.00000000E+00  0.00000000E+00  0.00000000E+00
  0.00000000E+00  0.00000000E+00  0.00000000E+00
  0.00000000E+00  0.00000000E+00  0.00000000E+00
  0.00000000E+00  0.00000000E+00  0.00000000E+00
  0.00000000E+00  0.00000000E+00  0.00000000E+00
  0.00000000E+00  0.00000000E+00  0.00000000E+00
  0.00000000E+00  0.00000000E+00  0.00000000E+00
  0.00000000E+00  0.00000000E+00  0.00000000E+00
  0.00000000E+00  0.00000000E+00  0.00000000E+00
  0.00000000E+00  0.00000000E+00  0.00000000E+00
  0.00000000E+00  0.00000000E+00  0.00000000E+00
  0.00000000E+00  0.00000000E+00  0.00000000E+00
  0.00000000E+00  0.00000000E+00  0.00000000E+00
  0.00000000E+00  0.00000000E+00  0.00000000E+00
  0.00000000E+00  0.00000000E+00  0.00000000E+00
  0.00000000E+00  0.00000000E+00  0.00000000E+00
  0.00000000E+00  0.00000000E+00  0.00000000E+00
  0.00000000E+00  0.00000000E+00  0.00000000E+00
  0.00000000E+00  0.00000000E+00  0.00000000E+00
  0.00000000E+00  0.00000000E+00  0.00000000E+00
  0.00000000E+00  0.00000000E+00  0.00000000E+00
  0.00000000E+00  0.00000000E+00  0.00000000E+00
  0.00000000E+00  0.00000000E+00  0.00000000E+00
  0.00000000E+00  0.00000000E+00  0.00000000E+00
  0.00000000E+00  0.00000000E+00  0.00000000E+00
  0.00000000E+00  0.00000000E+00  0.00000000E+00
  0.00000000E+00  0.00000000E+00  0.00000000E+00
  0.00000000E+00  0.00000000E+00  0.00000000E+00
  0.00000000E+00  0.00000000E+00  0.00000000E+00
  0.00000000E+00  0.00000000E+00  0.00000000E+00
  0.00000000E+00  0.00000000E+00  0.00000000E+00
  0.00000000E+00  0.00000000E+00  0.00000000E+00
  0.00000000E+00  0.00000000E+00  0.00000000E+00
  0.00000000E+00  0.00000000E+00  0.00000000E+00
  0.00000000E+00  0.00000000E+00  0.00000000E+00
  0.00000000E+00  0.00000000E+00  0.00000000E+00
  0.00000000E+00  0.00000000E+00  0.00000000E+00
  0.00000000E+00  0.00000000E+00  0.00000000E+00
  0.00000000E+00  0.00000000E+00  0.00000000E+00
  0.00000000E+00  0.00000000E+00  0.00000000E+00
  0.00000000E+00  0.00000000E+00  0.00000000E+00
  0.00000000E+00  0.00000000E+00  0.00000000E+00
  0.00000000E+00  0.00000000E+00  0.00000000E+00
  0.00000000E+00  0.00000000E+00  0.00000000E+00
  0.00000000E+00  0.00000000E+00  0.00000000E+00
  0.00000000E+00  0.00000000E+00  0.00000000E+00
  0.00000000E+00  0.00000000E+00  0.00000000E+00
  0.00000000E+00  0.00000000E+00  0.00000000E+00
  0.00000000E+00  0.00000000E+00  0.00000000E+00
  0.00000000E+00  0.00000000E+00  0.00000000E+00
  0.00000000E+00  0.00000000E+00  0.00000000E+00
  0.00000000E+00  0.00000000E+00  0.00000000E+00
  0.00000000E+00  0.00000000E+00  0.00000000E+00
  0.00000000E+00  0.00000000E+00  0.00000000E+00
  0.00000000E+00  0.00000000E+00  0.00000000E+00
  0.00000000E+00  0.00000000E+00  0.00000000E+00
  0.00000000E+00  0.00000000E+00  0.00000000E+00
  0.00000000E+00  0.00000000E+00  0.00000000E+00
