supercell of icsd_181358.cif            
   1.00000000000000     
    10.3187645888933037    0.0113629937888355   -0.0392288365035483
    -5.1497507250521073    8.7594571750454158    0.0239570171112973
    -0.0424610931258888    0.0054799312381015   10.8918952777364080
   N    Ga   La
    36    26    10
Direct
  0.2224928279642668  0.0547379561491610  0.3945840647754153
  0.0789507837375609  0.1838205810206048  0.1766940544278981
  0.9103604321508527  0.1050496396352329  0.9217787903895740
  0.7831758204618637  0.2309813920307349  0.7040230146906978
  0.5587826501506115  0.1050846083346002  0.4831256518489155
  0.4182121401309331  0.2444558939611525  0.1716396114382519
  0.2161918103638172  0.1064123391790588  0.9423087498270633
  0.1176419471480301  0.2284108730761787  0.7128183566289508
  0.8646778661533432  0.1248550960016672  0.4378713994326375
  0.7996820782568648  0.2288059389688897  0.1937010816293494
  0.5153133911603973  0.0958470811366823  0.9353002358031759
  0.4392265930260493  0.2289260111104099  0.7229947410844133
  0.2398074222187461  0.4112568506548229  0.4365970719896382
  0.0872784578920403  0.5493100142367098  0.1765237771750847
  0.9025326895478827  0.4732120707326999  0.9307172911530799
  0.7529432364703794  0.5155610746228376  0.6713968062154478
  0.5901244600653328  0.4598919656909430  0.4031304275067029
  0.5012410043954674  0.5958427578440961  0.1678507208146485
  0.2249966852773895  0.4425807814506157  0.9618364558640877
  0.1152346098972146  0.5578503498247116  0.7274142613050998
  0.8600448449634470  0.4187827317325201  0.4263276631005439
  0.7859144668164717  0.5548589616739932  0.1812367311879726
  0.5684599198768296  0.4531756818879771  0.9446359894241496
  0.4447511920719975  0.5550962886480661  0.7282722384101916
  0.2403141878411503  0.7747296952548126  0.4616212364012497
  0.0756985048506778  0.8889812617140720  0.1637852713965984
  0.8999912152460041  0.7629626755205763  0.9249760545545342
  0.7502579096943833  0.9115948967357284  0.6720407624944471
  0.5456657163587124  0.8089827222453039  0.4277617922937225
  0.4743707154663568  0.8923489381441811  0.1688335876123119
  0.2215529165784034  0.7820215759893330  0.9460140172230282
  0.1534589106583724  0.9169254911715825  0.6794251137234539
  0.9163279986550350  0.7594772385202191  0.4475919761419576
  0.7847336280372161  0.8898040696435388  0.2429334101557501
  0.5350985568217581  0.7772370325421960  0.9311467742970621
  0.4383233477095914  0.8869596538022577  0.7004998356869336
  0.2009506266270549  0.0975080567172810  0.2242702556671361
  0.1068415668232987  0.2084298673567062  0.9925796984224178
  0.8929617856216936  0.1213231654364009  0.7490623422363285
  0.7669361489209336  0.2269733632974109  0.5170850380560950
  0.4311406246943363  0.2239554149404768  0.9937568411023250
  0.2277217775673748  0.1170918629141511  0.7659415782431438
  0.8848186701087997  0.1119895895178971  0.2572818336107048
  0.5344305360845425  0.1057284612396074  0.7552873656206884
  0.1063415875690552  0.5636597396170373  0.9936642702217142
  0.8880694197854524  0.4499115240010667  0.7547098937917980
  0.7816402474361013  0.5420134598056023  0.4831682789703322
  0.5737603091964232  0.4650499534775676  0.2271405042812731
  0.4561181312110705  0.5655504470805681  0.9875703970640686
  0.2251165492925367  0.4443627430191128  0.7780475934857378
  0.8870387539849531  0.4420658733229459  0.2438851921912502
  0.7915343317759849  0.5619017179512724  0.9997053635487987
  0.5578049660567928  0.4419298501987043  0.7674154407079001
  0.1025226032105380  0.8821443983063304  0.9894902933293608
  0.7349538534734990  0.9295454338491425  0.4977065200165143
  0.5685135746211429  0.7922951567353920  0.2497164629590003
  0.4364675618091454  0.8843351802594626  0.9931114795672542
  0.2284647742454951  0.7831643537618902  0.7601582178266852
  0.1294044545211648  0.8731195205208166  0.4966749698828465
  0.8918276556265283  0.7770745026274071  0.2671302416799719
  0.5439729303399119  0.7836165211784802  0.7579649973465976
  0.4391334101861446  0.8934604794580352  0.5200912439376921
  0.5613146411335421  0.1332188688518698  0.2603365390718153
  0.0941379881101838  0.1641552095661964  0.5008507352121754
  0.7742964989269296  0.2188201704898916  0.9809185812565957
  0.4353661561943767  0.2321597433574354  0.5060955039610704
  0.2391301613495855  0.4405220689028582  0.2161489481098329
  0.1026798216149132  0.5235520854502269  0.5115910233658596
  0.4777531477313417  0.5735668857376197  0.5099371236513406
  0.2255474371868331  0.7975118238446370  0.2428505046040641
  0.8884674775236618  0.7812620609533667  0.7106091567764778
  0.7789888813231727  0.8701982553669581  0.0226365521191525
 
  0.00000000E+00  0.00000000E+00  0.00000000E+00
  0.00000000E+00  0.00000000E+00  0.00000000E+00
  0.00000000E+00  0.00000000E+00  0.00000000E+00
  0.00000000E+00  0.00000000E+00  0.00000000E+00
  0.00000000E+00  0.00000000E+00  0.00000000E+00
  0.00000000E+00  0.00000000E+00  0.00000000E+00
  0.00000000E+00  0.00000000E+00  0.00000000E+00
  0.00000000E+00  0.00000000E+00  0.00000000E+00
  0.00000000E+00  0.00000000E+00  0.00000000E+00
  0.00000000E+00  0.00000000E+00  0.00000000E+00
  0.00000000E+00  0.00000000E+00  0.00000000E+00
  0.00000000E+00  0.00000000E+00  0.00000000E+00
  0.00000000E+00  0.00000000E+00  0.00000000E+00
  0.00000000E+00  0.00000000E+00  0.00000000E+00
  0.00000000E+00  0.00000000E+00  0.00000000E+00
  0.00000000E+00  0.00000000E+00  0.00000000E+00
  0.00000000E+00  0.00000000E+00  0.00000000E+00
  0.00000000E+00  0.00000000E+00  0.00000000E+00
  0.00000000E+00  0.00000000E+00  0.00000000E+00
  0.00000000E+00  0.00000000E+00  0.00000000E+00
  0.00000000E+00  0.00000000E+00  0.00000000E+00
  0.00000000E+00  0.00000000E+00  0.00000000E+00
  0.00000000E+00  0.00000000E+00  0.00000000E+00
  0.00000000E+00  0.00000000E+00  0.00000000E+00
  0.00000000E+00  0.00000000E+00  0.00000000E+00
  0.00000000E+00  0.00000000E+00  0.00000000E+00
  0.00000000E+00  0.00000000E+00  0.00000000E+00
  0.00000000E+00  0.00000000E+00  0.00000000E+00
  0.00000000E+00  0.00000000E+00  0.00000000E+00
  0.00000000E+00  0.00000000E+00  0.00000000E+00
  0.00000000E+00  0.00000000E+00  0.00000000E+00
  0.00000000E+00  0.00000000E+00  0.00000000E+00
  0.00000000E+00  0.00000000E+00  0.00000000E+00
  0.00000000E+00  0.00000000E+00  0.00000000E+00
  0.00000000E+00  0.00000000E+00  0.00000000E+00
  0.00000000E+00  0.00000000E+00  0.00000000E+00
  0.00000000E+00  0.00000000E+00  0.00000000E+00
  0.00000000E+00  0.00000000E+00  0.00000000E+00
  0.00000000E+00  0.00000000E+00  0.00000000E+00
  0.00000000E+00  0.00000000E+00  0.00000000E+00
  0.00000000E+00  0.00000000E+00  0.00000000E+00
  0.00000000E+00  0.00000000E+00  0.00000000E+00
  0.00000000E+00  0.00000000E+00  0.00000000E+00
  0.00000000E+00  0.00000000E+00  0.00000000E+00
  0.00000000E+00  0.00000000E+00  0.00000000E+00
  0.00000000E+00  0.00000000E+00  0.00000000E+00
  0.00000000E+00  0.00000000E+00  0.00000000E+00
  0.00000000E+00  0.00000000E+00  0.00000000E+00
  0.00000000E+00  0.00000000E+00  0.00000000E+00
  0.00000000E+00  0.00000000E+00  0.00000000E+00
  0.00000000E+00  0.00000000E+00  0.00000000E+00
  0.00000000E+00  0.00000000E+00  0.00000000E+00
  0.00000000E+00  0.00000000E+00  0.00000000E+00
  0.00000000E+00  0.00000000E+00  0.00000000E+00
  0.00000000E+00  0.00000000E+00  0.00000000E+00
  0.00000000E+00  0.00000000E+00  0.00000000E+00
  0.00000000E+00  0.00000000E+00  0.00000000E+00
  0.00000000E+00  0.00000000E+00  0.00000000E+00
  0.00000000E+00  0.00000000E+00  0.00000000E+00
  0.00000000E+00  0.00000000E+00  0.00000000E+00
  0.00000000E+00  0.00000000E+00  0.00000000E+00
  0.00000000E+00  0.00000000E+00  0.00000000E+00
  0.00000000E+00  0.00000000E+00  0.00000000E+00
  0.00000000E+00  0.00000000E+00  0.00000000E+00
  0.00000000E+00  0.00000000E+00  0.00000000E+00
  0.00000000E+00  0.00000000E+00  0.00000000E+00
  0.00000000E+00  0.00000000E+00  0.00000000E+00
  0.00000000E+00  0.00000000E+00  0.00000000E+00
  0.00000000E+00  0.00000000E+00  0.00000000E+00
  0.00000000E+00  0.00000000E+00  0.00000000E+00
  0.00000000E+00  0.00000000E+00  0.00000000E+00
  0.00000000E+00  0.00000000E+00  0.00000000E+00
