supercell of icsd_181358.cif            
   1.00000000000000     
     8.9918672659143528   -0.0546377216670544   -0.0371504280994074
    -4.5435692938435066    7.7855912843064115    0.0561168155484841
    -0.0411045825687192    0.0475482993493030    9.7355572721898707
   N    Ga   B 
    36    24    12
Direct
  0.1985553993269988  0.0810280442525411  0.4524057149392959
  0.1223053191157177  0.2480670027821006  0.1985405385589374
  0.8730914210010212  0.0806030219274660  0.9232733001336726
  0.7966316409237137  0.2072489480065371  0.7045447348470830
  0.5360866085687448  0.0758165455654307  0.4549776953829792
  0.4339471658328335  0.2128937665021624  0.1869349024519451
  0.2147656960895503  0.1079230150731405  0.9138658785890499
  0.0932182122523955  0.1936878863821221  0.7059702834615962
  0.8722340077683270  0.0831691924222540  0.4466208515935008
  0.7759215000745883  0.2212095520180171  0.1942139259364524
  0.5401940147869837  0.0818782325415555  0.9426233111198741
  0.4249869614322535  0.2386300257820295  0.7087578214668753
  0.2144013352515586  0.4500086854654910  0.4304636769217964
  0.1283904197137673  0.5410042155330004  0.1991633427227981
  0.8942611076243878  0.4487771102148059  0.9430103532750920
  0.7445589663794721  0.5306756392280150  0.7025620292372281
  0.5580102720453652  0.4384540810595681  0.4405577291314557
  0.4149342552171618  0.5435653247575516  0.1975186925870105
  0.2196376329216392  0.4432601762865787  0.9326116568903871
  0.1182564937730035  0.5558460364005811  0.6597412952780815
  0.9247972020602901  0.4695217599534516  0.4507248044616290
  0.7886801169195863  0.5854624694361377  0.1911210836136732
  0.5483239432639948  0.4423979327853260  0.9192081663814449
  0.4793332247818824  0.5759515571145926  0.7049403070882292
  0.2642520799414640  0.7576919489702050  0.4538832897855229
  0.0771040312590117  0.8655602746892725  0.1897782839014610
  0.8697223146731332  0.7924853020339597  0.9307943071287283
  0.7604047201282000  0.9095546561702506  0.6877066841281376
  0.5840370724549899  0.8063171389406918  0.4507601204613607
  0.4456694925039173  0.8837829214806590  0.1568695530613766
  0.2537863512688148  0.7929968201662447  0.9341888021445257
  0.1285376710719035  0.9263255829362578  0.6833482700178735
  0.8940897647782933  0.8172114069990357  0.5001107699158638
  0.7909896706007942  0.8744764537781862  0.1561647148870691
  0.5714440825401610  0.8053068015691451  0.9245943671071117
  0.4650097310929908  0.8720600044038278  0.6727369156435543
  0.2045903201552690  0.0992194898127750  0.2571125048274894
  0.1046557190764972  0.2167025228459352  0.9960990891194470
  0.7805472900299506  0.2179238169602726  0.5065870898350937
  0.5453934662618565  0.0969046475105912  0.2536274817253457
  0.4378059608430362  0.2133948093596558  0.9890066885283915
  0.1017788162182995  0.2214576154978971  0.5080981351104015
  0.8875668233756073  0.0994287074856359  0.2516528197209809
  0.7742373273195113  0.2087948617187934  0.9975112084545898
  0.5531936710284384  0.1009565515708744  0.7482675737940951
  0.4327469080414517  0.2076237704291160  0.5146884052947271
  0.1256820898297590  0.5638724284219805  0.0061558574192873
  0.8942041995069019  0.4426073342112602  0.7463717743934808
  0.7901852869093631  0.5714939441878002  0.5063332041659265
  0.5474351778844522  0.4437947260925057  0.2493236249640702
  0.4480266129352870  0.5690519123687778  0.9938488322337875
  0.2302454823257847  0.4432022379333631  0.7430450301331604
  0.8991529541019503  0.4535124437742581  0.2556570191711529
  0.7731051307694869  0.5603894134566119  0.9870906618960475
  0.4539326030964048  0.5674224341473249  0.5052309086262170
  0.2287469755538325  0.7705163301406444  0.2634037133975085
  0.1090542909915726  0.8854981156775921  0.9866356090893760
  0.8731640070294020  0.7841022176791199  0.7337378566949582
  0.5616154198820311  0.7791877549331048  0.2485787600438698
  0.2342392065015275  0.7853256630449010  0.7289284825132896
  0.8776663264493294  0.0961305716919796  0.7550747779717497
  0.2155258349612339  0.1182936559342949  0.7539488385220778
  0.2203073747563025  0.4455542310410721  0.2532525333198166
  0.1345963059340178  0.5662517327718248  0.4970675227830412
  0.5520831423774055  0.4499012875879913  0.7564643233335246
  0.7746281838264437  0.9028862516567031  0.5155620756533636
  0.4504970261950518  0.8932435698092505  0.9918974559544793
  0.0780573461241403  0.9297962531993136  0.5348197065341580
  0.8848626968052216  0.7763477035618180  0.1908044886544857
  0.7748458622158125  0.8897816414149418  0.9785506127604080
  0.5698110984054878  0.7948006604251745  0.7478527402043014
  0.4552431628429474  0.8737791580166601  0.5064244189032578
 
  0.00000000E+00  0.00000000E+00  0.00000000E+00
  0.00000000E+00  0.00000000E+00  0.00000000E+00
  0.00000000E+00  0.00000000E+00  0.00000000E+00
  0.00000000E+00  0.00000000E+00  0.00000000E+00
  0.00000000E+00  0.00000000E+00  0.00000000E+00
  0.00000000E+00  0.00000000E+00  0.00000000E+00
  0.00000000E+00  0.00000000E+00  0.00000000E+00
  0.00000000E+00  0.00000000E+00  0.00000000E+00
  0.00000000E+00  0.00000000E+00  0.00000000E+00
  0.00000000E+00  0.00000000E+00  0.00000000E+00
  0.00000000E+00  0.00000000E+00  0.00000000E+00
  0.00000000E+00  0.00000000E+00  0.00000000E+00
  0.00000000E+00  0.00000000E+00  0.00000000E+00
  0.00000000E+00  0.00000000E+00  0.00000000E+00
  0.00000000E+00  0.00000000E+00  0.00000000E+00
  0.00000000E+00  0.00000000E+00  0.00000000E+00
  0.00000000E+00  0.00000000E+00  0.00000000E+00
  0.00000000E+00  0.00000000E+00  0.00000000E+00
  0.00000000E+00  0.00000000E+00  0.00000000E+00
  0.00000000E+00  0.00000000E+00  0.00000000E+00
  0.00000000E+00  0.00000000E+00  0.00000000E+00
  0.00000000E+00  0.00000000E+00  0.00000000E+00
  0.00000000E+00  0.00000000E+00  0.00000000E+00
  0.00000000E+00  0.00000000E+00  0.00000000E+00
  0.00000000E+00  0.00000000E+00  0.00000000E+00
  0.00000000E+00  0.00000000E+00  0.00000000E+00
  0.00000000E+00  0.00000000E+00  0.00000000E+00
  0.00000000E+00  0.00000000E+00  0.00000000E+00
  0.00000000E+00  0.00000000E+00  0.00000000E+00
  0.00000000E+00  0.00000000E+00  0.00000000E+00
  0.00000000E+00  0.00000000E+00  0.00000000E+00
  0.00000000E+00  0.00000000E+00  0.00000000E+00
  0.00000000E+00  0.00000000E+00  0.00000000E+00
  0.00000000E+00  0.00000000E+00  0.00000000E+00
  0.00000000E+00  0.00000000E+00  0.00000000E+00
  0.00000000E+00  0.00000000E+00  0.00000000E+00
  0.00000000E+00  0.00000000E+00  0.00000000E+00
  0.00000000E+00  0.00000000E+00  0.00000000E+00
  0.00000000E+00  0.00000000E+00  0.00000000E+00
  0.00000000E+00  0.00000000E+00  0.00000000E+00
  0.00000000E+00  0.00000000E+00  0.00000000E+00
  0.00000000E+00  0.00000000E+00  0.00000000E+00
  0.00000000E+00  0.00000000E+00  0.00000000E+00
  0.00000000E+00  0.00000000E+00  0.00000000E+00
  0.00000000E+00  0.00000000E+00  0.00000000E+00
  0.00000000E+00  0.00000000E+00  0.00000000E+00
  0.00000000E+00  0.00000000E+00  0.00000000E+00
  0.00000000E+00  0.00000000E+00  0.00000000E+00
  0.00000000E+00  0.00000000E+00  0.00000000E+00
  0.00000000E+00  0.00000000E+00  0.00000000E+00
  0.00000000E+00  0.00000000E+00  0.00000000E+00
  0.00000000E+00  0.00000000E+00  0.00000000E+00
  0.00000000E+00  0.00000000E+00  0.00000000E+00
  0.00000000E+00  0.00000000E+00  0.00000000E+00
  0.00000000E+00  0.00000000E+00  0.00000000E+00
  0.00000000E+00  0.00000000E+00  0.00000000E+00
  0.00000000E+00  0.00000000E+00  0.00000000E+00
  0.00000000E+00  0.00000000E+00  0.00000000E+00
  0.00000000E+00  0.00000000E+00  0.00000000E+00
  0.00000000E+00  0.00000000E+00  0.00000000E+00
  0.00000000E+00  0.00000000E+00  0.00000000E+00
  0.00000000E+00  0.00000000E+00  0.00000000E+00
  0.00000000E+00  0.00000000E+00  0.00000000E+00
  0.00000000E+00  0.00000000E+00  0.00000000E+00
  0.00000000E+00  0.00000000E+00  0.00000000E+00
  0.00000000E+00  0.00000000E+00  0.00000000E+00
  0.00000000E+00  0.00000000E+00  0.00000000E+00
  0.00000000E+00  0.00000000E+00  0.00000000E+00
  0.00000000E+00  0.00000000E+00  0.00000000E+00
  0.00000000E+00  0.00000000E+00  0.00000000E+00
  0.00000000E+00  0.00000000E+00  0.00000000E+00
  0.00000000E+00  0.00000000E+00  0.00000000E+00
