generated by phonopy                    
   1.00000000000000     
    11.7777700938999992   -0.0000006592896312    0.0000118211769744
    -0.0000006477562692   11.7777479613999994   -0.0000130806483528
     0.0000177256125076   -0.0000204342245446   17.8544012557999991
   Cu   Bi   Se   O 
    37    35    36    36
Direct
  0.0000033930216219  0.1666909827340461  0.4622765593889397
  0.0000072744415363  0.0021882307241938  0.2515142511269275
  0.3302424298389326  0.9983990325661267  0.2512982431509343
  0.6697696826275319  0.9984020789228012  0.2512989473025584
  0.0000059465720028  0.3312190818265890  0.2515106613895597
  0.3302417622229896  0.3350089205917612  0.2513010058015581
  0.6697701606917832  0.3350103916350022  0.2513012755454795
  0.0000074982221392  0.6667083692132394  0.2500309869470385
  0.3324438020593021  0.6667078223911815  0.2494891941684969
  0.6675699091384004  0.6667087623534584  0.2494894073232103
  0.0000010136110760  0.9991252567289521  0.7496352008161438
  0.3340925879570023  0.9992766089324689  0.7493998100975361
  0.6659091824433219  0.9992781127051771  0.7493995027124214
  0.9999995727285906  0.3342675254952141  0.7496343250981710
  0.3340920234307845  0.3341144946073200  0.7493989905785625
  0.6659080595503397  0.3341152477399589  0.7493986813081293
  0.0000018840820033  0.6666971041246441  0.7506087587499053
  0.3338980465907184  0.6666960316583115  0.7492419043069845
  0.6661054227139616  0.6666963834128978  0.7492417664498916
  0.1645239802666225  0.1666948813882811  0.2515078523987597
  0.4999991763278970  0.1666972056795899  0.2500314101269936
  0.8354768494984697  0.1666960744366506  0.2515075586103421
  0.1683066822334780  0.4969288050730540  0.2513021080720890
  0.5000007802682731  0.4991304871911169  0.2494915500948949
  0.8316956495970302  0.4969310369580882  0.2513013593206352
  0.1683094124476412  0.8364645474719978  0.2513007604687161
  0.4999995132614217  0.8342645161530697  0.2494894236148752
  0.8316906921355809  0.8364647446408284  0.2512994593751756
  0.1675739472269981  0.1667038326511516  0.7496365846560238
  0.5000063250670550  0.1667052407767855  0.7506125895155620
  0.8324386279622260  0.1667062017865533  0.7496352363708496
  0.1674225666899574  0.5007982942119469  0.7493979282436101
  0.5000065961843703  0.5006045186996957  0.7492401348459694
  0.8325908657632084  0.5007994720325044  0.7493979275506035
  0.1674226064131972  0.8326105717073489  0.7493986584275021
  0.5000064238505075  0.8328030341866111  0.7492405766873773
  0.8325921563674896  0.8326113358194718  0.7493984671180556
  0.3278902584820571  0.1666920205077886  0.4285209570649116
  0.6721237524322845  0.1666923615534373  0.4285217535821673
  0.0000090574422131  0.4945704192538187  0.4285182730846984
  0.3328952478514893  0.4995743524087075  0.4277009221391381
  0.6671255591979488  0.4995753161434493  0.4277024176628572
  0.0000088001898959  0.8388143812188389  0.4285183211880508
  0.3328943204285295  0.8338093286397950  0.4277016745911624
  0.6671273066066021  0.8338106917139712  0.4277014700322255
  0.9999967675385832  0.1667114622242423  0.9288972411593051
  0.3334383121288411  0.1667119048053394  0.9289850636605621
  0.6665558042420585  0.1667124791594077  0.9289849313086691
  0.9999965159203370  0.5001520317292290  0.9289866744982476
  0.3334362095006895  0.5001514006541186  0.9289663486093573
  0.6665574557364025  0.5001512777356965  0.9289665488201209
  0.9999960532368348  0.8332685569235991  0.9289859030392549
  0.3334369110498017  0.8332694033151427  0.9289656867508924
  0.6665568159431530  0.8332699753696673  0.9289656105777553
  0.1666489025636011  0.0000586677695509  0.0711129828956558
  0.4999965478142911  0.0000280223520051  0.0712105936158096
  0.8333431146264374  0.0000596383795823  0.0711131737392137
  0.1666491050707819  0.3333638264209995  0.0711146822506734
  0.4999967791129762  0.3333971571947032  0.0712125038159357
  0.8333438777236566  0.3333639351097943  0.0711144630694136
  0.1666799164355979  0.6667116476308763  0.0712150701103269
  0.4999967071862415  0.6667112295228321  0.0712257910335481
  0.8333118659053937  0.6667115684144278  0.0712152878196193
  0.1644924019696106  0.0022095038818577  0.5685273100491059
  0.5000108966690675  0.0010959327450522  0.5687625749082912
  0.8355251391823373  0.0022098401731654  0.5685278723700549
  0.1644929324245723  0.3311736863170154  0.5685257440310139
  0.5000076766545618  0.3322886009052937  0.5687630881548031
  0.8355244712640584  0.3311748785346325  0.5685280693151711
  0.1656041296204265  0.6666906001189190  0.5687576710173730
  0.5000097578136007  0.6666928536539487  0.5693983717984068
  0.8344140930971022  0.6666947959163920  0.5687589677256710
  0.1653918092800239  0.3320765969229598  0.3376443041874779
  0.5000062967282872  0.3337455990185845  0.3354698085080230
  0.8346211363980345  0.3320778501412818  0.3376439551604449
  0.1670581965076323  0.6666956792406751  0.3354673791031928
  0.5000067731370734  0.6666974870061111  0.3353240471320618
  0.8329553094867421  0.6666966124346274  0.3354671502493005
  0.1653934771832084  0.0013120942643852  0.3376445920778082
  0.5000057104838476  0.9996471243474971  0.3354685583308736
  0.8346199332420525  0.0013124018698676  0.3376436038077699
  0.1668312131507221  0.3335394835421539  0.8369562990422779
  0.5000001870998005  0.3341390467246583  0.8378455956660176
  0.8331683564375467  0.3335398765805095  0.8369562353656761
  0.1674303534365720  0.6667050350511019  0.8378463379244465
  0.5000010208779031  0.6667054721145931  0.8380321210842823
  0.8325715043771851  0.6667061158475533  0.8378461401943156
  0.1668317694841477  0.9998720369215590  0.8369569611100403
  0.5000005490080497  0.9992733837099834  0.8378453809242217
  0.8331687614167933  0.9998737296888791  0.8369563232731210
  0.3325299962079882  0.1667049892659165  0.1636769065861756
  0.6674698851528049  0.1667063799879784  0.1636775180730439
  0.0000008930679627  0.1667016691254020  0.1623070465995937
  0.3336125009524693  0.5003156743294213  0.1615125185845159
  0.6663886717093490  0.5003164181885893  0.1615126869315944
  0.0000010272919013  0.4992300945154895  0.1636807152927204
  0.3336114254805338  0.8330949909176795  0.1615096574613801
  0.6663867069901031  0.8330958524765961  0.1615103106789419
  0.9999999039219816  0.8341788611433856  0.1636797027000298
  0.3347121045796726  0.1666959896827933  0.6639413073477058
  0.6653005125806288  0.1666966098220257  0.6639409575210280
  0.0000072408860632  0.1666965149065831  0.6633807539933940
  0.3336709449611419  0.5003627435370603  0.6628625510469561
  0.6663427559985138  0.5003633130248701  0.6628624816770170
  0.0000072103497217  0.5014030794300837  0.6639380152665240
  0.3336708582026446  0.8330297637204751  0.6628627534253013
  0.6663431326912388  0.8330306211495540  0.6628631731726387
  0.0000074742687701  0.8319902320243528  0.6639383326824628
  0.1687129334523831  0.1666918689896235  0.5005914966656277
  0.5000080843365993  0.1666930324022999  0.4989380366629277
  0.8312993354930427  0.1666937850849095  0.5005928402328479
  0.1675650353287281  0.5002385132802587  0.4986746220836338
  0.5000091930475676  0.5001984624595721  0.4987929681545182
  0.8324516485293287  0.5002386353540516  0.4986772800496055
  0.1675649515260673  0.8331477010502510  0.4986756949871349
  0.5000091456298037  0.8331897528288863  0.4987927290622878
  0.8324524963642617  0.8331486722855175  0.4986762692944708
  0.1665473662517627  0.1667093755078000  0.9998642512708358
  0.4999976349085316  0.1667103220167121  0.9999796613277709
  0.8334487553368675  0.1667098028869773  0.9998642261186603
  0.1664156642554104  0.4999298969396264  0.0000990832745202
  0.4999981250362353  0.4997710745013535  0.0000137787199890
  0.8335799806113329  0.4999295848534615  0.0000993915604113
  0.1664152015630052  0.8334872399062405  0.0000981667826068
  0.4999982904988798  0.8336471646147814  0.0000132429247159
  0.8335795277754556  0.8334880234133593  0.0000988440313066
  0.9999974714359467  0.0001596433061266  0.9998640497340929
  0.3332177201278128  0.0002904088276452  0.0000963691898335
  0.6667781261617733  0.0002914227297808  0.0000963393980555
  0.9999982449847806  0.3332587056294827  0.9998652969820156
  0.3332175531270849  0.3331286425214515  0.0000979016096210
  0.6667784926349043  0.3331284915255566  0.0000979791327964
  0.9999972319817303  0.6667088616857839  0.9999830355466770
  0.3330578854431536  0.6667091773165197  0.0000156141936074
  0.6669383419563815  0.6667092397180312  0.0000154028149240
  0.0000085104669267  0.9979825742748574  0.5005957650199520
  0.3335563595687887  0.9991373088274500  0.4986782850964744
  0.6664610418868548  0.9991377836910829  0.4986781161017646
  0.0000071818580381  0.3354020025626951  0.5005943163993578
  0.3335569004039982  0.3342490566489857  0.4986772432296007
  0.6664598167424600  0.3342496287381138  0.4986789346948939
  0.0000079353236089  0.6666934300507563  0.4989311617738110
  0.3335125024312759  0.6666933815601368  0.4987923610938765
  0.6665062838120051  0.6666945530450334  0.4987916543225239
 
  0.00000000E+00  0.00000000E+00  0.00000000E+00
  0.00000000E+00  0.00000000E+00  0.00000000E+00
  0.00000000E+00  0.00000000E+00  0.00000000E+00
  0.00000000E+00  0.00000000E+00  0.00000000E+00
  0.00000000E+00  0.00000000E+00  0.00000000E+00
  0.00000000E+00  0.00000000E+00  0.00000000E+00
  0.00000000E+00  0.00000000E+00  0.00000000E+00
  0.00000000E+00  0.00000000E+00  0.00000000E+00
  0.00000000E+00  0.00000000E+00  0.00000000E+00
  0.00000000E+00  0.00000000E+00  0.00000000E+00
  0.00000000E+00  0.00000000E+00  0.00000000E+00
  0.00000000E+00  0.00000000E+00  0.00000000E+00
  0.00000000E+00  0.00000000E+00  0.00000000E+00
  0.00000000E+00  0.00000000E+00  0.00000000E+00
  0.00000000E+00  0.00000000E+00  0.00000000E+00
  0.00000000E+00  0.00000000E+00  0.00000000E+00
  0.00000000E+00  0.00000000E+00  0.00000000E+00
  0.00000000E+00  0.00000000E+00  0.00000000E+00
  0.00000000E+00  0.00000000E+00  0.00000000E+00
  0.00000000E+00  0.00000000E+00  0.00000000E+00
  0.00000000E+00  0.00000000E+00  0.00000000E+00
  0.00000000E+00  0.00000000E+00  0.00000000E+00
  0.00000000E+00  0.00000000E+00  0.00000000E+00
  0.00000000E+00  0.00000000E+00  0.00000000E+00
  0.00000000E+00  0.00000000E+00  0.00000000E+00
  0.00000000E+00  0.00000000E+00  0.00000000E+00
  0.00000000E+00  0.00000000E+00  0.00000000E+00
  0.00000000E+00  0.00000000E+00  0.00000000E+00
  0.00000000E+00  0.00000000E+00  0.00000000E+00
  0.00000000E+00  0.00000000E+00  0.00000000E+00
  0.00000000E+00  0.00000000E+00  0.00000000E+00
  0.00000000E+00  0.00000000E+00  0.00000000E+00
  0.00000000E+00  0.00000000E+00  0.00000000E+00
  0.00000000E+00  0.00000000E+00  0.00000000E+00
  0.00000000E+00  0.00000000E+00  0.00000000E+00
  0.00000000E+00  0.00000000E+00  0.00000000E+00
  0.00000000E+00  0.00000000E+00  0.00000000E+00
  0.00000000E+00  0.00000000E+00  0.00000000E+00
  0.00000000E+00  0.00000000E+00  0.00000000E+00
  0.00000000E+00  0.00000000E+00  0.00000000E+00
  0.00000000E+00  0.00000000E+00  0.00000000E+00
  0.00000000E+00  0.00000000E+00  0.00000000E+00
  0.00000000E+00  0.00000000E+00  0.00000000E+00
  0.00000000E+00  0.00000000E+00  0.00000000E+00
  0.00000000E+00  0.00000000E+00  0.00000000E+00
  0.00000000E+00  0.00000000E+00  0.00000000E+00
  0.00000000E+00  0.00000000E+00  0.00000000E+00
  0.00000000E+00  0.00000000E+00  0.00000000E+00
  0.00000000E+00  0.00000000E+00  0.00000000E+00
  0.00000000E+00  0.00000000E+00  0.00000000E+00
  0.00000000E+00  0.00000000E+00  0.00000000E+00
  0.00000000E+00  0.00000000E+00  0.00000000E+00
  0.00000000E+00  0.00000000E+00  0.00000000E+00
  0.00000000E+00  0.00000000E+00  0.00000000E+00
  0.00000000E+00  0.00000000E+00  0.00000000E+00
  0.00000000E+00  0.00000000E+00  0.00000000E+00
  0.00000000E+00  0.00000000E+00  0.00000000E+00
  0.00000000E+00  0.00000000E+00  0.00000000E+00
  0.00000000E+00  0.00000000E+00  0.00000000E+00
  0.00000000E+00  0.00000000E+00  0.00000000E+00
  0.00000000E+00  0.00000000E+00  0.00000000E+00
  0.00000000E+00  0.00000000E+00  0.00000000E+00
  0.00000000E+00  0.00000000E+00  0.00000000E+00
  0.00000000E+00  0.00000000E+00  0.00000000E+00
  0.00000000E+00  0.00000000E+00  0.00000000E+00
  0.00000000E+00  0.00000000E+00  0.00000000E+00
  0.00000000E+00  0.00000000E+00  0.00000000E+00
  0.00000000E+00  0.00000000E+00  0.00000000E+00
  0.00000000E+00  0.00000000E+00  0.00000000E+00
  0.00000000E+00  0.00000000E+00  0.00000000E+00
  0.00000000E+00  0.00000000E+00  0.00000000E+00
  0.00000000E+00  0.00000000E+00  0.00000000E+00
  0.00000000E+00  0.00000000E+00  0.00000000E+00
  0.00000000E+00  0.00000000E+00  0.00000000E+00
  0.00000000E+00  0.00000000E+00  0.00000000E+00
  0.00000000E+00  0.00000000E+00  0.00000000E+00
  0.00000000E+00  0.00000000E+00  0.00000000E+00
  0.00000000E+00  0.00000000E+00  0.00000000E+00
  0.00000000E+00  0.00000000E+00  0.00000000E+00
  0.00000000E+00  0.00000000E+00  0.00000000E+00
  0.00000000E+00  0.00000000E+00  0.00000000E+00
  0.00000000E+00  0.00000000E+00  0.00000000E+00
  0.00000000E+00  0.00000000E+00  0.00000000E+00
  0.00000000E+00  0.00000000E+00  0.00000000E+00
  0.00000000E+00  0.00000000E+00  0.00000000E+00
  0.00000000E+00  0.00000000E+00  0.00000000E+00
  0.00000000E+00  0.00000000E+00  0.00000000E+00
  0.00000000E+00  0.00000000E+00  0.00000000E+00
  0.00000000E+00  0.00000000E+00  0.00000000E+00
  0.00000000E+00  0.00000000E+00  0.00000000E+00
  0.00000000E+00  0.00000000E+00  0.00000000E+00
  0.00000000E+00  0.00000000E+00  0.00000000E+00
  0.00000000E+00  0.00000000E+00  0.00000000E+00
  0.00000000E+00  0.00000000E+00  0.00000000E+00
  0.00000000E+00  0.00000000E+00  0.00000000E+00
  0.00000000E+00  0.00000000E+00  0.00000000E+00
  0.00000000E+00  0.00000000E+00  0.00000000E+00
  0.00000000E+00  0.00000000E+00  0.00000000E+00
  0.00000000E+00  0.00000000E+00  0.00000000E+00
  0.00000000E+00  0.00000000E+00  0.00000000E+00
  0.00000000E+00  0.00000000E+00  0.00000000E+00
  0.00000000E+00  0.00000000E+00  0.00000000E+00
  0.00000000E+00  0.00000000E+00  0.00000000E+00
  0.00000000E+00  0.00000000E+00  0.00000000E+00
  0.00000000E+00  0.00000000E+00  0.00000000E+00
  0.00000000E+00  0.00000000E+00  0.00000000E+00
  0.00000000E+00  0.00000000E+00  0.00000000E+00
  0.00000000E+00  0.00000000E+00  0.00000000E+00
  0.00000000E+00  0.00000000E+00  0.00000000E+00
  0.00000000E+00  0.00000000E+00  0.00000000E+00
  0.00000000E+00  0.00000000E+00  0.00000000E+00
  0.00000000E+00  0.00000000E+00  0.00000000E+00
  0.00000000E+00  0.00000000E+00  0.00000000E+00
  0.00000000E+00  0.00000000E+00  0.00000000E+00
  0.00000000E+00  0.00000000E+00  0.00000000E+00
  0.00000000E+00  0.00000000E+00  0.00000000E+00
  0.00000000E+00  0.00000000E+00  0.00000000E+00
  0.00000000E+00  0.00000000E+00  0.00000000E+00
  0.00000000E+00  0.00000000E+00  0.00000000E+00
  0.00000000E+00  0.00000000E+00  0.00000000E+00
  0.00000000E+00  0.00000000E+00  0.00000000E+00
  0.00000000E+00  0.00000000E+00  0.00000000E+00
  0.00000000E+00  0.00000000E+00  0.00000000E+00
  0.00000000E+00  0.00000000E+00  0.00000000E+00
  0.00000000E+00  0.00000000E+00  0.00000000E+00
  0.00000000E+00  0.00000000E+00  0.00000000E+00
  0.00000000E+00  0.00000000E+00  0.00000000E+00
  0.00000000E+00  0.00000000E+00  0.00000000E+00
  0.00000000E+00  0.00000000E+00  0.00000000E+00
  0.00000000E+00  0.00000000E+00  0.00000000E+00
  0.00000000E+00  0.00000000E+00  0.00000000E+00
  0.00000000E+00  0.00000000E+00  0.00000000E+00
  0.00000000E+00  0.00000000E+00  0.00000000E+00
  0.00000000E+00  0.00000000E+00  0.00000000E+00
  0.00000000E+00  0.00000000E+00  0.00000000E+00
  0.00000000E+00  0.00000000E+00  0.00000000E+00
  0.00000000E+00  0.00000000E+00  0.00000000E+00
  0.00000000E+00  0.00000000E+00  0.00000000E+00
  0.00000000E+00  0.00000000E+00  0.00000000E+00
  0.00000000E+00  0.00000000E+00  0.00000000E+00
  0.00000000E+00  0.00000000E+00  0.00000000E+00
  0.00000000E+00  0.00000000E+00  0.00000000E+00
  0.00000000E+00  0.00000000E+00  0.00000000E+00
  0.00000000E+00  0.00000000E+00  0.00000000E+00
