generated by phonopy                    
   1.00000000000000     
    10.0351470768999995   -0.0000022330999784   -0.0000001056124209
    -5.0175765436399997    8.6906901959899994    0.0000001395531216
    -0.0000001735893656    0.0000001431815548   14.9533752540999991
   Pb   P    O 
    20    12    49
Direct
  0.9889477149993766  0.7690161153617296  0.1253210654307964
  0.9983376712107628  0.7726328639040858  0.6240467977846720
  0.0021624548051236  0.2456304910410125  0.3714855728992603
  0.0016119275548689  0.2593914159794437  0.8732326325017894
  0.2247863055416488  0.2242929205723598  0.1214688989737667
  0.2287989638914709  0.2267478034096300  0.6221797493256886
  0.7541827075400391  0.7570152634982890  0.3696607275602801
  0.7357029813347964  0.7374651712990357  0.8792338074036010
  0.7728009166419127  0.0016591102206505  0.1217574199043767
  0.7747474848304350  0.0019541932542850  0.6228091456519493
  0.2445736078791398  0.9979000922854055  0.3720761563162895
  0.2639470413060536  0.0009536938348376  0.8731739128633222
  0.6644075651639412  0.3417692666316583  0.0054107034277351
  0.6706256197443352  0.3343888481134343  0.4973937194304838
  0.3185202516663779  0.6724212152508500  0.0045212887605999
  0.3353276582273921  0.6700206567811762  0.5011177258326711
  0.3347577691563828  0.6622116963860663  0.2495968374877862
  0.3423526130987895  0.6661681077649959  0.7427654913718200
  0.6620962467654508  0.3385507106946548  0.2487893200517348
  0.6690029289500359  0.3340780234554543  0.7456218857327173
  0.6109961362634522  0.6021356488319825  0.1226027949269053
  0.6277444172093851  0.5943341010650371  0.6248035268288632
  0.3653662357903187  0.3998181890960026  0.3744581035659706
  0.3670316336312069  0.3942658378779740  0.8738956215485985
  0.4033185362500546  0.0317637221594183  0.1239527459716214
  0.4072708487448935  0.0299880971420947  0.6266476901496247
  0.5995730874675971  0.9652794412528181  0.3726546964072028
  0.6052103419868331  0.9726874330513411  0.8729728333672568
  0.9695788423239051  0.3725724591547674  0.1223894397828005
  0.9723175998927260  0.3746425432650540  0.6248570936689362
  0.0356936652354847  0.6362310994162428  0.3719077465415950
  0.0316092672304364  0.6307818487450305  0.8757646888481077
  0.5048783005547435  0.6464944014494307  0.6254097370202771
  0.4703023194712870  0.3272168467279641  0.3751048141639473
  0.4712451907466289  0.3202379067976722  0.8736826718910251
  0.3543142132599471  0.8577088522518395  0.1223495271590522
  0.3575563273465434  0.8559564288823367  0.6269304850057509
  0.6699827531080587  0.1422001388382128  0.3739770795621524
  0.6795699269863604  0.1500199485820772  0.8703037414081862
  0.1437491353565434  0.4979451330862332  0.1216564869908012
  0.1470611881514330  0.4961744351765205  0.6258569630306852
  0.8589488713136859  0.5275965073293634  0.3737997948095568
  0.8538958507634291  0.5310210317643396  0.8784852068317335
  0.7225509821123737  0.6441402960233731  0.0355039015257219
  0.7403112529129174  0.6673911048160548  0.5437567111466848
  0.2570648693708861  0.3509083585905657  0.4581948786075358
  0.2571732545323400  0.3430014957810812  0.9566509131054701
  0.3500149389728975  0.0805879346903566  0.0373328273016753
  0.3312495189863256  0.0680880384689928  0.5466827214650678
  0.6429194539765604  0.9041838228942822  0.4580175336920504
  0.6617481738224811  0.9168415774475136  0.9549166091028880
  0.9217298109635905  0.2737177544568041  0.0346727900668569
  0.9311093733542180  0.2621231942067794  0.5434494774762157
  0.0963340284155407  0.7394639792278141  0.4576699180968404
  0.1011964095216555  0.7317948175788800  0.9622803436079082
  0.2577236284810738  0.3502889811072762  0.2901255878019739
  0.2618497013066943  0.3500661535131684  0.7891111403759794
  0.7348712506556865  0.6694515819756859  0.2034859669606490
  0.7274046523055233  0.6447216621407534  0.7122718357468401
  0.6563885872804747  0.9102008802272223  0.2900431457972701
  0.6391604700161082  0.9046128149068267  0.7875812654018475
  0.3298398498215889  0.0698168115090567  0.2054619024457836
  0.3582369730605706  0.0785493584633841  0.7151846857766699
  0.0875320685363974  0.7487579174706056  0.2898652553673315
  0.0898913557016670  0.7430752905823539  0.7943800187530812
  0.9327887676177937  0.2590695076683858  0.2025610402998907
  0.9217577391959182  0.2731340751208577  0.7118669355639327
  0.5404649492840079  0.4180649467024864  0.1295249470248265
  0.5463512234973180  0.4141575270630895  0.6180576643014675
  0.4658394633240590  0.5814643084904461  0.3733454307092856
  0.4713006902685848  0.5758543835540451  0.8753849814701553
  0.5831254485176771  0.1330737813140175  0.1301154715406483
  0.5871541439817989  0.1318200061930455  0.6191093274128221
  0.4175829014722083  0.8813838931663014  0.3672924678170517
  0.4233533656001498  0.8957856577125298  0.8811499972881052
  0.8688145457569973  0.4515635724053269  0.1299947356744582
  0.8731932620891811  0.4557602857895588  0.6188117319912934
  0.1213581261209313  0.5400484079124226  0.3648304569075336
  0.1067269012952181  0.5242911278865421  0.8713693500668498
  0.9957046537563343  0.9982760581578489  0.1083098479514319
  0.0008906955713144  0.0004790151186995  0.6344932346437631
 
  0.00000000E+00  0.00000000E+00  0.00000000E+00
  0.00000000E+00  0.00000000E+00  0.00000000E+00
  0.00000000E+00  0.00000000E+00  0.00000000E+00
  0.00000000E+00  0.00000000E+00  0.00000000E+00
  0.00000000E+00  0.00000000E+00  0.00000000E+00
  0.00000000E+00  0.00000000E+00  0.00000000E+00
  0.00000000E+00  0.00000000E+00  0.00000000E+00
  0.00000000E+00  0.00000000E+00  0.00000000E+00
  0.00000000E+00  0.00000000E+00  0.00000000E+00
  0.00000000E+00  0.00000000E+00  0.00000000E+00
  0.00000000E+00  0.00000000E+00  0.00000000E+00
  0.00000000E+00  0.00000000E+00  0.00000000E+00
  0.00000000E+00  0.00000000E+00  0.00000000E+00
  0.00000000E+00  0.00000000E+00  0.00000000E+00
  0.00000000E+00  0.00000000E+00  0.00000000E+00
  0.00000000E+00  0.00000000E+00  0.00000000E+00
  0.00000000E+00  0.00000000E+00  0.00000000E+00
  0.00000000E+00  0.00000000E+00  0.00000000E+00
  0.00000000E+00  0.00000000E+00  0.00000000E+00
  0.00000000E+00  0.00000000E+00  0.00000000E+00
  0.00000000E+00  0.00000000E+00  0.00000000E+00
  0.00000000E+00  0.00000000E+00  0.00000000E+00
  0.00000000E+00  0.00000000E+00  0.00000000E+00
  0.00000000E+00  0.00000000E+00  0.00000000E+00
  0.00000000E+00  0.00000000E+00  0.00000000E+00
  0.00000000E+00  0.00000000E+00  0.00000000E+00
  0.00000000E+00  0.00000000E+00  0.00000000E+00
  0.00000000E+00  0.00000000E+00  0.00000000E+00
  0.00000000E+00  0.00000000E+00  0.00000000E+00
  0.00000000E+00  0.00000000E+00  0.00000000E+00
  0.00000000E+00  0.00000000E+00  0.00000000E+00
  0.00000000E+00  0.00000000E+00  0.00000000E+00
  0.00000000E+00  0.00000000E+00  0.00000000E+00
  0.00000000E+00  0.00000000E+00  0.00000000E+00
  0.00000000E+00  0.00000000E+00  0.00000000E+00
  0.00000000E+00  0.00000000E+00  0.00000000E+00
  0.00000000E+00  0.00000000E+00  0.00000000E+00
  0.00000000E+00  0.00000000E+00  0.00000000E+00
  0.00000000E+00  0.00000000E+00  0.00000000E+00
  0.00000000E+00  0.00000000E+00  0.00000000E+00
  0.00000000E+00  0.00000000E+00  0.00000000E+00
  0.00000000E+00  0.00000000E+00  0.00000000E+00
  0.00000000E+00  0.00000000E+00  0.00000000E+00
  0.00000000E+00  0.00000000E+00  0.00000000E+00
  0.00000000E+00  0.00000000E+00  0.00000000E+00
  0.00000000E+00  0.00000000E+00  0.00000000E+00
  0.00000000E+00  0.00000000E+00  0.00000000E+00
  0.00000000E+00  0.00000000E+00  0.00000000E+00
  0.00000000E+00  0.00000000E+00  0.00000000E+00
  0.00000000E+00  0.00000000E+00  0.00000000E+00
  0.00000000E+00  0.00000000E+00  0.00000000E+00
  0.00000000E+00  0.00000000E+00  0.00000000E+00
  0.00000000E+00  0.00000000E+00  0.00000000E+00
  0.00000000E+00  0.00000000E+00  0.00000000E+00
  0.00000000E+00  0.00000000E+00  0.00000000E+00
  0.00000000E+00  0.00000000E+00  0.00000000E+00
  0.00000000E+00  0.00000000E+00  0.00000000E+00
  0.00000000E+00  0.00000000E+00  0.00000000E+00
  0.00000000E+00  0.00000000E+00  0.00000000E+00
  0.00000000E+00  0.00000000E+00  0.00000000E+00
  0.00000000E+00  0.00000000E+00  0.00000000E+00
  0.00000000E+00  0.00000000E+00  0.00000000E+00
  0.00000000E+00  0.00000000E+00  0.00000000E+00
  0.00000000E+00  0.00000000E+00  0.00000000E+00
  0.00000000E+00  0.00000000E+00  0.00000000E+00
  0.00000000E+00  0.00000000E+00  0.00000000E+00
  0.00000000E+00  0.00000000E+00  0.00000000E+00
  0.00000000E+00  0.00000000E+00  0.00000000E+00
  0.00000000E+00  0.00000000E+00  0.00000000E+00
  0.00000000E+00  0.00000000E+00  0.00000000E+00
  0.00000000E+00  0.00000000E+00  0.00000000E+00
  0.00000000E+00  0.00000000E+00  0.00000000E+00
  0.00000000E+00  0.00000000E+00  0.00000000E+00
  0.00000000E+00  0.00000000E+00  0.00000000E+00
  0.00000000E+00  0.00000000E+00  0.00000000E+00
  0.00000000E+00  0.00000000E+00  0.00000000E+00
  0.00000000E+00  0.00000000E+00  0.00000000E+00
  0.00000000E+00  0.00000000E+00  0.00000000E+00
  0.00000000E+00  0.00000000E+00  0.00000000E+00
  0.00000000E+00  0.00000000E+00  0.00000000E+00
  0.00000000E+00  0.00000000E+00  0.00000000E+00
