S    Al   Li                            
   1.00000000000000     
     0.1049973676947140   -0.0000001619617964   -6.2454849468500004
     6.6282977318160556    0.0120520219488933   -0.0000002640858216
    -0.0144160691162868   -8.0554073938303628    0.0527658342620397
   S    Al   Li
     8     4     4
Direct
  0.8907172450918924  0.0615077207082174  0.8725159705491803
  0.9430239924181434  0.5990738286928585  0.1317094767463786
  0.9450475980336768  0.1010897318890219  0.3423087424617566
  0.4550767223025692  0.9417637085510152  0.1009652386794838
  0.9583605073025885  0.5629462460496432  0.5993704636641128
  0.4088050223426958  0.4069981537397487  0.8554761311513087
  0.4021312122280914  0.9171415520170043  0.6243210022837467
  0.4705044663268131  0.4396043751168466  0.3717024899808301
  0.8187491516585667  0.9223229534769806  0.1232593063504406
  0.5292775417774002  0.0804520628344007  0.8516208680614828
  0.8371688508452425  0.4308475481709621  0.3628169935592812
  0.3946908694336407  0.5784799013539242  0.6172606549471635
  0.9917991644190018  0.4100092414382577  0.8670033039374053
  0.9911739236229665  0.9172544047994184  0.6058594764917894
  0.3363746650545834  0.5990331287979425  0.1163845934581755
  0.3372624189587355  0.0983436508667038  0.3572491857041837
 
             NaN             NaN             NaN
             NaN             NaN             NaN
             NaN             NaN             NaN
             NaN             NaN             NaN
             NaN             NaN             NaN
             NaN             NaN             NaN
             NaN             NaN             NaN
             NaN             NaN             NaN
             NaN             NaN             NaN
             NaN             NaN             NaN
             NaN             NaN             NaN
             NaN             NaN             NaN
             NaN             NaN             NaN
             NaN             NaN             NaN
             NaN             NaN             NaN
             NaN             NaN             NaN
