Al   Hf   Mg   N                        
   1.00000000000000     
   -10.1096204033380950   -0.0088344162942661    0.0016549373831401
    -5.0678482275822025    8.7797160101909597    0.0194621943234789
    -0.0057191702285926    0.0085295378503820   -9.0916975956325459
   Al   Hf   Mg   N 
    26     5     5    36
Direct
  0.1088278776971195  0.0924991922748982  0.3758921653964518
  0.8744056396752911  0.2111570098386487  0.5890403943396081
  0.4551462496687922  0.0898803701467325  0.3428602029919482
  0.5605628612558182  0.1978540341551780  0.0802407001702301
  0.2311577077233554  0.2019673831218181  0.5893300312806103
  0.7753360865440843  0.0909522540395762  0.3484388583768746
  0.4505926971211668  0.0978294384489619  0.8256746515568183
  0.5584812004476769  0.2065644391351858  0.5856587860363071
  0.2199514165770418  0.5439253047983847  0.0769872438015257
  0.7762087633683233  0.4267488059520074  0.8217118733365951
  0.4405880167419811  0.4191069553808625  0.3407763710795835
  0.1121752438470084  0.4326798757905069  0.8246354162290281
  0.2314432511639914  0.5426547042891434  0.5949727078063721
  0.7848814907915896  0.4276845784263096  0.3506086286571432
  0.8837413795281475  0.5486876441556674  0.0780945312804165
  0.4443300844126309  0.4184990655991759  0.8292991346613872
  0.5549631804240116  0.5316701475845891  0.5744279139960990
  0.1088374115940307  0.7624267569398711  0.3580722546234980
  0.2208869460560510  0.8680293434859585  0.1346448687335904
  0.7762434542704186  0.7719962397556186  0.8290064005468966
  0.4449540307972371  0.7656920793079111  0.3610542668890385
  0.5642994917740675  0.8741721584642648  0.0938965282991923
  0.2238244948549090  0.8648501936024168  0.6013576655711090
  0.7765712166072154  0.7648685575356734  0.3388327275124576
  0.8857399421606638  0.8729223670008819  0.0956374039664587
  0.5589921927752427  0.8757121140362072  0.5766585652292653
  0.2277269114882706  0.2065242872940214  0.1029953117148178
  0.1048678001300621  0.0967263619417457  0.8466875517570246
  0.1024954964740402  0.4409513878224198  0.3624391981300297
  0.5593057095626129  0.5303209263020202  0.1105865841183958
  0.4523562114028108  0.7587623919007337  0.8441308558186830
  0.7731208181973913  0.0916298170998036  0.8386239863916760
  0.8848052008033308  0.2027289771159329  0.1071344954775924
  0.8749007271902594  0.5503412395861486  0.6052123030236122
  0.8870408605708173  0.8750666166763236  0.5922392425207896
  0.1041804924231397  0.7571591874147803  0.8412597890581041
  0.2286376091959388  0.1944472622819469  0.3595890742809887
  0.1229957754838667  0.0767510787617469  0.0928630104570764
  0.8766511051935724  0.2208992507195589  0.8504960998084049
  0.7694559944256474  0.1062720939938768  0.5956508747833358
  0.5479874547944112  0.2080143448482276  0.3763212288645505
  0.4607087236874057  0.0858670727491087  0.1293774846361672
  0.2293547682038496  0.2144340760996984  0.8616906230588028
  0.1155014723029882  0.0951947916906719  0.5983760196384769
  0.8933546712094345  0.2068779325064747  0.3679700602062794
  0.7661729910469942  0.0915391417185572  0.1306993332606562
  0.5409641854027973  0.2117547435991117  0.8688346772851655
  0.4448095546406299  0.0925888169297844  0.6134172931531815
  0.2320877135742863  0.5446855741720295  0.3762440165230187
  0.1007331900546251  0.4474220288266304  0.1206133546762193
  0.8871885538608779  0.5385718497315487  0.8609469433806076
  0.7640535973053584  0.4262459452322414  0.6079128765547990
  0.5506769322328869  0.5383963864915617  0.3594991160395835
  0.4345294277387955  0.4137755692390697  0.1265987646721645
  0.2304549960506972  0.5247543431785415  0.8636765207302188
  0.1277311205179975  0.4193007234134922  0.6099185614455412
  0.8711860236823484  0.5533508581594158  0.3747145228124144
  0.7898678392099194  0.4350615499586653  0.1317459710521063
  0.5612631766107126  0.5213883274076989  0.8714294077513622
  0.4476655829294028  0.4270693179159741  0.6170243850422856
  0.2250340261712221  0.8758751286072199  0.3561710194641367
  0.1198459200698642  0.7556463756039277  0.1240539935874685
  0.8827123779866455  0.8660983245168046  0.8819108514453552
  0.7584644123623004  0.7760037971068117  0.6231383708304328
  0.5537081072399462  0.8743138260018075  0.3652815800917627
  0.4409928652723185  0.7717837788068829  0.1072685114926934
  0.2252193192823943  0.8651096135688757  0.8274922999245112
  0.1230239959512577  0.7551902001824089  0.5922456053531047
  0.8901027201489344  0.8682783467077186  0.3518274617165050
  0.7753474658336552  0.7581311861519462  0.1248107530506042
  0.5572190998844235  0.8881476419472263  0.8773209409687270
  0.4506116054363923  0.7565753478312616  0.5979635770843208
 
             NaN             NaN             NaN
             NaN             NaN             NaN
             NaN             NaN             NaN
             NaN             NaN             NaN
             NaN             NaN             NaN
             NaN             NaN             NaN
             NaN             NaN             NaN
             NaN             NaN             NaN
             NaN             NaN             NaN
             NaN             NaN             NaN
             NaN             NaN             NaN
             NaN             NaN             NaN
             NaN             NaN             NaN
             NaN             NaN             NaN
             NaN             NaN             NaN
             NaN             NaN             NaN
             NaN             NaN             NaN
             NaN             NaN             NaN
             NaN             NaN             NaN
             NaN             NaN             NaN
             NaN             NaN             NaN
             NaN             NaN             NaN
             NaN             NaN             NaN
             NaN             NaN             NaN
             NaN             NaN             NaN
             NaN             NaN             NaN
             NaN             NaN             NaN
             NaN             NaN             NaN
             NaN             NaN             NaN
             NaN             NaN             NaN
             NaN             NaN             NaN
             NaN             NaN             NaN
             NaN             NaN             NaN
             NaN             NaN             NaN
             NaN             NaN             NaN
             NaN             NaN             NaN
             NaN             NaN             NaN
             NaN             NaN             NaN
             NaN             NaN             NaN
             NaN             NaN             NaN
             NaN             NaN             NaN
             NaN             NaN             NaN
             NaN             NaN             NaN
             NaN             NaN             NaN
             NaN             NaN             NaN
             NaN             NaN             NaN
             NaN             NaN             NaN
             NaN             NaN             NaN
             NaN             NaN             NaN
             NaN             NaN             NaN
             NaN             NaN             NaN
             NaN             NaN             NaN
             NaN             NaN             NaN
             NaN             NaN             NaN
             NaN             NaN             NaN
             NaN             NaN             NaN
             NaN             NaN             NaN
             NaN             NaN             NaN
             NaN             NaN             NaN
             NaN             NaN             NaN
             NaN             NaN             NaN
             NaN             NaN             NaN
             NaN             NaN             NaN
             NaN             NaN             NaN
             NaN             NaN             NaN
             NaN             NaN             NaN
             NaN             NaN             NaN
             NaN             NaN             NaN
             NaN             NaN             NaN
             NaN             NaN             NaN
             NaN             NaN             NaN
             NaN             NaN             NaN
