supercell of supercell of icsd_608626.c 
   1.00600000000000     
    18.8433725412000008    0.0042597715995000    0.0111656436851000
    -6.2786657403800001   10.8752831735999997   -0.0012954496991100
     0.0059525623905900    0.0022414031449000   10.0498800689000003
   Al   Gd   N    O 
    92     4    95     1
Direct
  0.1111059533689698  0.0828229314597806  0.2488118145167419
  0.0509799392202552  0.1615247814976613  0.9986815120953878
  0.4458206125573412  0.3363259696733536  0.7489421930547877
  0.3901349258871321  0.4176518397874247  0.4995437386078407
  0.2786901495729381  0.0848966064345618  0.2596130304809847
  0.2231458648590703  0.1700888776517999  0.9997217970503556
  0.1067334835772513  0.3297872207755574  0.7436543394992654
  0.0548119288863091  0.4172688881549718  0.4999892853020569
  0.4442603911586573  0.0826301980913158  0.2488185450302325
  0.3963671414134708  0.1761778789786703  0.9987176826741546
  0.2795746464299427  0.3326361363082313  0.7437786054063622
  0.2221013649427448  0.4168346591147980  0.5000340899591436
  0.1106795745015319  0.0825736983192371  0.7488709729627629
  0.0543976448205612  0.1641542290754714  0.4998953229847771
  0.4448286175776346  0.3341903567503408  0.2492318079965656
  0.3898356273619399  0.4156461507378140  0.9997601702226433
  0.2803292913845041  0.0888569470006360  0.7346544634568843
  0.2211707753300374  0.1665166763709323  0.5003488656039679
  0.1094141333924483  0.3314458196474632  0.2587473395534516
  0.0532863592241455  0.4157470146536895  0.9994539131911182
  0.4442900852617910  0.0821041193465817  0.7487885364723113
  0.3914027591046079  0.1689437941525824  0.4994911354162639
  0.2789669291372405  0.3330638995309059  0.2585011514020721
  0.6116804503419004  0.0836298880551141  0.2481627941973699
  0.5511576984629656  0.1612067172874418  0.9980832626954310
  0.9449159403570491  0.3342317123941498  0.7503730872077341
  0.8899317228598989  0.4168015626506190  0.5001217570005565
  0.7791007821738845  0.0856743161768208  0.2583082271126074
  0.7249817792022881  0.1685867009053226  0.9981058987625460
  0.6068914436184514  0.3299887344280066  0.7430437428505456
  0.5553565826230198  0.4181242578026811  0.4993624467423956
  0.9440237989327542  0.0826628001374772  0.2490234105502580
  0.8917988973696538  0.1715743441631332  0.9982076545379499
  0.7793069260754635  0.3315344006165901  0.7444024546177914
  0.7222813380857289  0.4165734876086304  0.4996907568441387
  0.6112706709515194  0.0832265082332455  0.7491969200204309
  0.5548065131780220  0.1642912512111110  0.4996113515983396
  0.9445951747423891  0.3331776501274462  0.2495031482091861
  0.8896830754464489  0.4145150135978497  0.9996210424045771
  0.7798265156463629  0.0876775030188952  0.7444051745761371
  0.7215934964466015  0.1659957453119816  0.5010269212370488
  0.6093228747779094  0.3316590837070024  0.2587639950927993
  0.5538518945680337  0.4174129769542958  0.9987398767694557
  0.9439678191893321  0.0820947603363464  0.7498606595942334
  0.8905759587618931  0.1681073187804714  0.5003289620497569
  0.7787125204721406  0.3322883681595670  0.2585274898298238
  0.1113784695256825  0.5829926752721306  0.2489594116812697
  0.0514207401477762  0.6607160980284164  0.9994533416242888
  0.4451704191194779  0.8347296111087346  0.7499223156949171
  0.3898425551844014  0.9168400559063556  0.4996982731724415
  0.2790752103950211  0.5857017579014681  0.2582855101252406
  0.2241719912460240  0.6688706426595061  0.9988609245601623
  0.1066728319296288  0.8295030366449083  0.7446403368464445
  0.0547606236995222  0.9170124589604853  0.5000791950271477
  0.4444583838916500  0.5836759430372496  0.2488598173453624
  0.3919403314952277  0.6725792086753657  0.9981179781071816
  0.2792788668928239  0.8313935582101664  0.7450555520029809
  0.2218889708015297  0.9156177077001999  0.4996082784630786
  0.1109390160997066  0.5827153879829083  0.7498512951698615
  0.0544387161306403  0.6637813651582505  0.5004012222920409
  0.4448337611109139  0.8335475581173668  0.2493654814675352
  0.3890904121162464  0.9141249553930635  0.0000828922254996
  0.2799740552492338  0.5886190498927846  0.7442893276252462
  0.2212928744689364  0.6657838715224784  0.5011085063735976
  0.1088802879780673  0.8306436548435343  0.2588501230701468
  0.0536086972253926  0.9156356795776404  0.0001679945199413
  0.4442375097916837  0.5830487260440549  0.7494473650965290
  0.3906679164795932  0.6684179322314279  0.5000488672932235
  0.2784578426939746  0.8316215944583121  0.2580593804567357
  0.6117288728666850  0.5839720869602729  0.2481105809606134
  0.5510574026722992  0.6618639579212271  0.9982444972432489
  0.9448087575388726  0.8341149852615501  0.7502999932248002
  0.8899784189593589  0.9169124064547702  0.5000166097370595
  0.7790264729501786  0.5855602863112921  0.2583081753185112
  0.7251647590861907  0.6686969414474930  0.9981159226751757
  0.6069018912529316  0.8301237719812562  0.7431502073683731
  0.5550361700996689  0.9177699682650271  0.4996784622048267
  0.9439421508645935  0.5824859114723964  0.2494573915038032
  0.8919664548425530  0.6714453281410684  0.9984154871238218
  0.7793718890408527  0.8316449226930089  0.7442959628783470
  0.7222613135323357  0.9166203935582118  0.4996605198853032
  0.6114374926874433  0.5837988680451502  0.7491390580831521
  0.5547296167535976  0.6644627216258741  0.4997551265302960
  0.9443828612440655  0.8329454004872758  0.2497202837481751
  0.8898568698298845  0.9143645976018604  0.9995383710142676
  0.7798362599755464  0.5876800747037549  0.7445160502873307
  0.7216600962382529  0.6660788572194889  0.5010109588959324
  0.6094648726452192  0.8318896504991500  0.2588733435544910
  0.5532421046863902  0.9163904432475505  0.9989849921985225
  0.9439781107759728  0.5820292138081626  0.7501266179789852
  0.8905279110659592  0.6679348354176611  0.5005209646430941
  0.7787671159427916  0.8323819166747697  0.2585522643711258
  0.2202604453608643  0.4165614337504806  0.9977999342435950
  0.7192527964525226  0.4147602130551604  0.9986052664604728
  0.2208215518606593  0.9206900603111876  0.9984353571907363
  0.7195414597445620  0.9148536995790693  0.9986853049814712
  0.1113004371215638  0.0831581906338599  0.4387059999210408
  0.0558982269439525  0.1667020068030070  0.1901408128699629
  0.4458621932547615  0.3376516908468759  0.9394682286386882
  0.3902219251271575  0.4177679786684223  0.6879196015525082
  0.2791389605313626  0.0855926677823433  0.4484227413097059
  0.2236568002965384  0.1664332556918140  0.1901050180073938
  0.0934820046074876  0.3188129145535683  0.9292177625320548
  0.0549048903541660  0.4180758851530157  0.6882760017079050
  0.4441528595179491  0.0829444287511620  0.4386024465870477
  0.3878273077454608  0.1659914482758822  0.1880924970244422
  0.2851965548931474  0.3239213988996781  0.9299770386611570
  0.2218534922307427  0.4167919649427603  0.6960802925001985
  0.1129366700081107  0.0835838135553075  0.9408429361556188
  0.0545345583230059  0.1632068697864710  0.6886072262882692
  0.4448581745643807  0.3338856804583159  0.4385414787431046
  0.3884716676706574  0.4163634176526756  0.1908933317131556
  0.2211000026504877  0.1659802307223117  0.6884564611123807
  0.1092999863836610  0.3315069133838335  0.4474615425940840
  0.0562816589813337  0.4160372250534863  0.1908833590996153
  0.4399820491565976  0.0786512508676012  0.9400763812429389
  0.3915875306083976  0.1695103996096989  0.6893435351998178
  0.2786751437612693  0.3324710157419091  0.4469269723215277
  0.2222746982677748  0.4164607318565388  0.2196254591316631
  0.6113327547993066  0.0835345841156396  0.4381629157142299
  0.5555208207482707  0.1670009518934634  0.1896188259811282
  0.9459889935213965  0.3366104605171572  0.9405312726216266
  0.8901635054577497  0.4172130397095231  0.6884249727922693
  0.7791306847748984  0.0857774780450242  0.4470451750014703
  0.7232847092183690  0.1672288481189952  0.1908500299488125
  0.5920404137420974  0.3182203739029177  0.9284062520320120
  0.5552245117485484  0.4187849770196763  0.6876332861183982
  0.9442099178349039  0.0826986912670264  0.4389249792323469
  0.8888141605638964  0.1664437222836028  0.1902486805414654
  0.7850205961377412  0.3259195150914991  0.9302454165145022
  0.7216293065328827  0.4162476876452388  0.6954751396327552
  0.6121197662022624  0.0843294411220867  0.9411822567339172
  0.5543040805204171  0.1632493573171629  0.6883101067864885
  0.9447827389137871  0.3335717852684681  0.4390220347737070
  0.8883282671015991  0.4158066768589563  0.1912081687439766
  0.7864306424222960  0.1030078929837259  0.9301415187813049
  0.7209230753771365  0.1655271098527322  0.6880160335273331
  0.6091468459669684  0.3315614587317626  0.4473127252999092
  0.5561654988016329  0.4164135529991810  0.1901508288792115
  0.9414123184783492  0.0788240601549433  0.9407779757939494
  0.8912673176316304  0.1684821981738622  0.6890760540408252
  0.7786694919161192  0.3322845639756338  0.4469587668409218
  0.7220789946461252  0.4163658446341572  0.2204285088294213
  0.1111973027690354  0.5831491272405600  0.4389100436269189
  0.0555685062722091  0.6664026677684660  0.1908316456503414
  0.4456779099390502  0.8375284527093427  0.9401389924918604
  0.3898339855082753  0.9172789342875944  0.6883365635285159
  0.2790718119537203  0.5857872791582608  0.4471424552448795
  0.2231028180044348  0.6668455612757356  0.1912807606754967
  0.0950319858760977  0.8192288764806719  0.9311481074348080
  0.0550514064403345  0.9178129238740524  0.6886446790888598
  0.4442988864971866  0.5830939877547578  0.4386488960045156
  0.3888200595461768  0.6668479657557853  0.1900960943961962
  0.2835856345656893  0.8274018607860043  0.9318178922557081
  0.2222611121972307  0.9178750386644481  0.6977027658170485
  0.1121432455846687  0.5834688060938191  0.9416684452034119
  0.0546199374301892  0.6635969605752763  0.6892398822137693
  0.4447975574881795  0.8339427678190034  0.4388042285621978
  0.3882353280800004  0.9159995646704004  0.1911212590934710
  0.2866159126309853  0.6050354477970998  0.9299491205694821
  0.2208183451301693  0.6660774030833849  0.6882690671263063
  0.1093600196281059  0.8314192243363721  0.4477132062466964
  0.0562195412436282  0.9160117549550080  0.1912297644279519
  0.4409317555913717  0.5792092165384872  0.9404493310088284
  0.3912813171875840  0.6690158922383773  0.6887661728977506
  0.2784955890765062  0.8323019001003118  0.4467868785934144
  0.2218878463510734  0.9159268303052031  0.2189536030354020
  0.6114009474350794  0.5836330963519671  0.4380968367658227
  0.5558703012629778  0.6673651543138703  0.1898348500813398
  0.9465522331183109  0.8366875934873690  0.9405214247789644
  0.8902529756149278  0.9172257220209943  0.6883054704331641
  0.7791096277569522  0.5856797938930285  0.4470572878586552
  0.7233470887838394  0.6672414719161708  0.1908526791932701
  0.5926192283754261  0.8188773364460573  0.9284221548493079
  0.5549236285350858  0.9185032260777106  0.6878886089028242
  0.9441987617784946  0.5826757081827054  0.4393691898868468
  0.8887650142171211  0.6663460489938871  0.1904365710155460
  0.7852857763607091  0.8258279450069566  0.9300711907226002
  0.7217275715089499  0.9163318713024964  0.6953588520325269
  0.6123501987886826  0.5846823406608124  0.9411508869416849
  0.5544478162808346  0.6634431250055286  0.6883374105315809
  0.9448216709673787  0.8335053370745555  0.4392141304433963
  0.8884246837143337  0.9158031039656223  0.1911121899674626
  0.7866075065151676  0.6029730759478156  0.9302928509550696
  0.7210484862883746  0.6656026433092492  0.6879862144098254
  0.6091946122168892  0.8317137960687546  0.4473983055960460
  0.5563189053336615  0.9165420062149749  0.1904367945247643
  0.9417212528240810  0.5792409605652651  0.9410304899790773
  0.8912479837639893  0.6684277137439665  0.6892371744451111
  0.7787351565949123  0.8323321262241379  0.4469471630350697
  0.7222370358205410  0.9165352681405565  0.2205483652066462
  0.2905393676598109  0.1107814982134485  0.9242383314461833
 
  0.00000000E+00  0.00000000E+00  0.00000000E+00
  0.00000000E+00  0.00000000E+00  0.00000000E+00
  0.00000000E+00  0.00000000E+00  0.00000000E+00
  0.00000000E+00  0.00000000E+00  0.00000000E+00
  0.00000000E+00  0.00000000E+00  0.00000000E+00
  0.00000000E+00  0.00000000E+00  0.00000000E+00
  0.00000000E+00  0.00000000E+00  0.00000000E+00
  0.00000000E+00  0.00000000E+00  0.00000000E+00
  0.00000000E+00  0.00000000E+00  0.00000000E+00
  0.00000000E+00  0.00000000E+00  0.00000000E+00
  0.00000000E+00  0.00000000E+00  0.00000000E+00
  0.00000000E+00  0.00000000E+00  0.00000000E+00
  0.00000000E+00  0.00000000E+00  0.00000000E+00
  0.00000000E+00  0.00000000E+00  0.00000000E+00
  0.00000000E+00  0.00000000E+00  0.00000000E+00
  0.00000000E+00  0.00000000E+00  0.00000000E+00
  0.00000000E+00  0.00000000E+00  0.00000000E+00
  0.00000000E+00  0.00000000E+00  0.00000000E+00
  0.00000000E+00  0.00000000E+00  0.00000000E+00
  0.00000000E+00  0.00000000E+00  0.00000000E+00
  0.00000000E+00  0.00000000E+00  0.00000000E+00
  0.00000000E+00  0.00000000E+00  0.00000000E+00
  0.00000000E+00  0.00000000E+00  0.00000000E+00
  0.00000000E+00  0.00000000E+00  0.00000000E+00
  0.00000000E+00  0.00000000E+00  0.00000000E+00
  0.00000000E+00  0.00000000E+00  0.00000000E+00
  0.00000000E+00  0.00000000E+00  0.00000000E+00
  0.00000000E+00  0.00000000E+00  0.00000000E+00
  0.00000000E+00  0.00000000E+00  0.00000000E+00
  0.00000000E+00  0.00000000E+00  0.00000000E+00
  0.00000000E+00  0.00000000E+00  0.00000000E+00
  0.00000000E+00  0.00000000E+00  0.00000000E+00
  0.00000000E+00  0.00000000E+00  0.00000000E+00
  0.00000000E+00  0.00000000E+00  0.00000000E+00
  0.00000000E+00  0.00000000E+00  0.00000000E+00
  0.00000000E+00  0.00000000E+00  0.00000000E+00
  0.00000000E+00  0.00000000E+00  0.00000000E+00
  0.00000000E+00  0.00000000E+00  0.00000000E+00
  0.00000000E+00  0.00000000E+00  0.00000000E+00
  0.00000000E+00  0.00000000E+00  0.00000000E+00
  0.00000000E+00  0.00000000E+00  0.00000000E+00
  0.00000000E+00  0.00000000E+00  0.00000000E+00
  0.00000000E+00  0.00000000E+00  0.00000000E+00
  0.00000000E+00  0.00000000E+00  0.00000000E+00
  0.00000000E+00  0.00000000E+00  0.00000000E+00
  0.00000000E+00  0.00000000E+00  0.00000000E+00
  0.00000000E+00  0.00000000E+00  0.00000000E+00
  0.00000000E+00  0.00000000E+00  0.00000000E+00
  0.00000000E+00  0.00000000E+00  0.00000000E+00
  0.00000000E+00  0.00000000E+00  0.00000000E+00
  0.00000000E+00  0.00000000E+00  0.00000000E+00
  0.00000000E+00  0.00000000E+00  0.00000000E+00
  0.00000000E+00  0.00000000E+00  0.00000000E+00
  0.00000000E+00  0.00000000E+00  0.00000000E+00
  0.00000000E+00  0.00000000E+00  0.00000000E+00
  0.00000000E+00  0.00000000E+00  0.00000000E+00
  0.00000000E+00  0.00000000E+00  0.00000000E+00
  0.00000000E+00  0.00000000E+00  0.00000000E+00
  0.00000000E+00  0.00000000E+00  0.00000000E+00
  0.00000000E+00  0.00000000E+00  0.00000000E+00
  0.00000000E+00  0.00000000E+00  0.00000000E+00
  0.00000000E+00  0.00000000E+00  0.00000000E+00
  0.00000000E+00  0.00000000E+00  0.00000000E+00
  0.00000000E+00  0.00000000E+00  0.00000000E+00
  0.00000000E+00  0.00000000E+00  0.00000000E+00
  0.00000000E+00  0.00000000E+00  0.00000000E+00
  0.00000000E+00  0.00000000E+00  0.00000000E+00
  0.00000000E+00  0.00000000E+00  0.00000000E+00
  0.00000000E+00  0.00000000E+00  0.00000000E+00
  0.00000000E+00  0.00000000E+00  0.00000000E+00
  0.00000000E+00  0.00000000E+00  0.00000000E+00
  0.00000000E+00  0.00000000E+00  0.00000000E+00
  0.00000000E+00  0.00000000E+00  0.00000000E+00
  0.00000000E+00  0.00000000E+00  0.00000000E+00
  0.00000000E+00  0.00000000E+00  0.00000000E+00
  0.00000000E+00  0.00000000E+00  0.00000000E+00
  0.00000000E+00  0.00000000E+00  0.00000000E+00
  0.00000000E+00  0.00000000E+00  0.00000000E+00
  0.00000000E+00  0.00000000E+00  0.00000000E+00
  0.00000000E+00  0.00000000E+00  0.00000000E+00
  0.00000000E+00  0.00000000E+00  0.00000000E+00
  0.00000000E+00  0.00000000E+00  0.00000000E+00
  0.00000000E+00  0.00000000E+00  0.00000000E+00
  0.00000000E+00  0.00000000E+00  0.00000000E+00
  0.00000000E+00  0.00000000E+00  0.00000000E+00
  0.00000000E+00  0.00000000E+00  0.00000000E+00
  0.00000000E+00  0.00000000E+00  0.00000000E+00
  0.00000000E+00  0.00000000E+00  0.00000000E+00
  0.00000000E+00  0.00000000E+00  0.00000000E+00
  0.00000000E+00  0.00000000E+00  0.00000000E+00
  0.00000000E+00  0.00000000E+00  0.00000000E+00
  0.00000000E+00  0.00000000E+00  0.00000000E+00
  0.00000000E+00  0.00000000E+00  0.00000000E+00
  0.00000000E+00  0.00000000E+00  0.00000000E+00
  0.00000000E+00  0.00000000E+00  0.00000000E+00
  0.00000000E+00  0.00000000E+00  0.00000000E+00
  0.00000000E+00  0.00000000E+00  0.00000000E+00
  0.00000000E+00  0.00000000E+00  0.00000000E+00
  0.00000000E+00  0.00000000E+00  0.00000000E+00
  0.00000000E+00  0.00000000E+00  0.00000000E+00
  0.00000000E+00  0.00000000E+00  0.00000000E+00
  0.00000000E+00  0.00000000E+00  0.00000000E+00
  0.00000000E+00  0.00000000E+00  0.00000000E+00
  0.00000000E+00  0.00000000E+00  0.00000000E+00
  0.00000000E+00  0.00000000E+00  0.00000000E+00
  0.00000000E+00  0.00000000E+00  0.00000000E+00
  0.00000000E+00  0.00000000E+00  0.00000000E+00
  0.00000000E+00  0.00000000E+00  0.00000000E+00
  0.00000000E+00  0.00000000E+00  0.00000000E+00
  0.00000000E+00  0.00000000E+00  0.00000000E+00
  0.00000000E+00  0.00000000E+00  0.00000000E+00
  0.00000000E+00  0.00000000E+00  0.00000000E+00
  0.00000000E+00  0.00000000E+00  0.00000000E+00
  0.00000000E+00  0.00000000E+00  0.00000000E+00
  0.00000000E+00  0.00000000E+00  0.00000000E+00
  0.00000000E+00  0.00000000E+00  0.00000000E+00
  0.00000000E+00  0.00000000E+00  0.00000000E+00
  0.00000000E+00  0.00000000E+00  0.00000000E+00
  0.00000000E+00  0.00000000E+00  0.00000000E+00
  0.00000000E+00  0.00000000E+00  0.00000000E+00
  0.00000000E+00  0.00000000E+00  0.00000000E+00
  0.00000000E+00  0.00000000E+00  0.00000000E+00
  0.00000000E+00  0.00000000E+00  0.00000000E+00
  0.00000000E+00  0.00000000E+00  0.00000000E+00
  0.00000000E+00  0.00000000E+00  0.00000000E+00
  0.00000000E+00  0.00000000E+00  0.00000000E+00
  0.00000000E+00  0.00000000E+00  0.00000000E+00
  0.00000000E+00  0.00000000E+00  0.00000000E+00
  0.00000000E+00  0.00000000E+00  0.00000000E+00
  0.00000000E+00  0.00000000E+00  0.00000000E+00
  0.00000000E+00  0.00000000E+00  0.00000000E+00
  0.00000000E+00  0.00000000E+00  0.00000000E+00
  0.00000000E+00  0.00000000E+00  0.00000000E+00
  0.00000000E+00  0.00000000E+00  0.00000000E+00
  0.00000000E+00  0.00000000E+00  0.00000000E+00
  0.00000000E+00  0.00000000E+00  0.00000000E+00
  0.00000000E+00  0.00000000E+00  0.00000000E+00
  0.00000000E+00  0.00000000E+00  0.00000000E+00
  0.00000000E+00  0.00000000E+00  0.00000000E+00
  0.00000000E+00  0.00000000E+00  0.00000000E+00
  0.00000000E+00  0.00000000E+00  0.00000000E+00
  0.00000000E+00  0.00000000E+00  0.00000000E+00
  0.00000000E+00  0.00000000E+00  0.00000000E+00
  0.00000000E+00  0.00000000E+00  0.00000000E+00
  0.00000000E+00  0.00000000E+00  0.00000000E+00
  0.00000000E+00  0.00000000E+00  0.00000000E+00
  0.00000000E+00  0.00000000E+00  0.00000000E+00
  0.00000000E+00  0.00000000E+00  0.00000000E+00
  0.00000000E+00  0.00000000E+00  0.00000000E+00
  0.00000000E+00  0.00000000E+00  0.00000000E+00
  0.00000000E+00  0.00000000E+00  0.00000000E+00
  0.00000000E+00  0.00000000E+00  0.00000000E+00
  0.00000000E+00  0.00000000E+00  0.00000000E+00
  0.00000000E+00  0.00000000E+00  0.00000000E+00
  0.00000000E+00  0.00000000E+00  0.00000000E+00
  0.00000000E+00  0.00000000E+00  0.00000000E+00
  0.00000000E+00  0.00000000E+00  0.00000000E+00
  0.00000000E+00  0.00000000E+00  0.00000000E+00
  0.00000000E+00  0.00000000E+00  0.00000000E+00
  0.00000000E+00  0.00000000E+00  0.00000000E+00
  0.00000000E+00  0.00000000E+00  0.00000000E+00
  0.00000000E+00  0.00000000E+00  0.00000000E+00
  0.00000000E+00  0.00000000E+00  0.00000000E+00
  0.00000000E+00  0.00000000E+00  0.00000000E+00
  0.00000000E+00  0.00000000E+00  0.00000000E+00
  0.00000000E+00  0.00000000E+00  0.00000000E+00
  0.00000000E+00  0.00000000E+00  0.00000000E+00
  0.00000000E+00  0.00000000E+00  0.00000000E+00
  0.00000000E+00  0.00000000E+00  0.00000000E+00
  0.00000000E+00  0.00000000E+00  0.00000000E+00
  0.00000000E+00  0.00000000E+00  0.00000000E+00
  0.00000000E+00  0.00000000E+00  0.00000000E+00
  0.00000000E+00  0.00000000E+00  0.00000000E+00
  0.00000000E+00  0.00000000E+00  0.00000000E+00
  0.00000000E+00  0.00000000E+00  0.00000000E+00
  0.00000000E+00  0.00000000E+00  0.00000000E+00
  0.00000000E+00  0.00000000E+00  0.00000000E+00
  0.00000000E+00  0.00000000E+00  0.00000000E+00
  0.00000000E+00  0.00000000E+00  0.00000000E+00
  0.00000000E+00  0.00000000E+00  0.00000000E+00
  0.00000000E+00  0.00000000E+00  0.00000000E+00
  0.00000000E+00  0.00000000E+00  0.00000000E+00
  0.00000000E+00  0.00000000E+00  0.00000000E+00
  0.00000000E+00  0.00000000E+00  0.00000000E+00
  0.00000000E+00  0.00000000E+00  0.00000000E+00
  0.00000000E+00  0.00000000E+00  0.00000000E+00
  0.00000000E+00  0.00000000E+00  0.00000000E+00
  0.00000000E+00  0.00000000E+00  0.00000000E+00
  0.00000000E+00  0.00000000E+00  0.00000000E+00
  0.00000000E+00  0.00000000E+00  0.00000000E+00
  0.00000000E+00  0.00000000E+00  0.00000000E+00
  0.00000000E+00  0.00000000E+00  0.00000000E+00
