supercell of icsd_191774.cif            
   1.00000000000000     
    11.0006317562376719   -0.0129854826732433    0.0098817393156308
    -5.5115615633392494    9.5435528944521746    0.0028116571987040
     0.0107751656564348    0.0099381267576325   11.2668190090355527
   N    In   Y 
    36    22    14
Direct
  0.2100050028367662  0.1055564070835544  0.4421596168686222
  0.1143256188793345  0.2238460247995420  0.1922824655446860
  0.8862386025010451  0.1133244373886413  0.9402611885487886
  0.7798099091379740  0.2311408559375536  0.6893334034612693
  0.5628591253595161  0.1139768443725089  0.4422896439599029
  0.4429031754405912  0.2218327370175714  0.2094490551203592
  0.2285698357405792  0.1126033781427154  0.9400665875625478
  0.1236874520567000  0.2291677119998283  0.6963744565378605
  0.8894757874986468  0.1116674370721569  0.4570320193740045
  0.7755162736349064  0.2249769917557245  0.1922637114411430
  0.5559923027183089  0.1054271068375314  0.9474421291447896
  0.4459593430519249  0.2234890713892312  0.6885568803925679
  0.2143554360542126  0.4369893864045764  0.4400183546609568
  0.1091006447562535  0.5542302292712620  0.1934874211328932
  0.8763259105511310  0.4382831531938294  0.9441009467480015
  0.7798247012736681  0.5486670423991313  0.6867323695214509
  0.5628269485088992  0.4492956845579030  0.4410458989526020
  0.4433432135239812  0.5556911851150659  0.1975194333153354
  0.2314473796848731  0.4511467928173403  0.9406470962798181
  0.1084528287047561  0.5544773788572499  0.7023590692431583
  0.8802421958489077  0.4400370507839142  0.4359853775999341
  0.7795339364391296  0.5590928705788230  0.1926982306742246
  0.5568264530499363  0.4507606439768139  0.9484560304586012
  0.4417421732805948  0.5600905024816498  0.6870619208184152
  0.2144975423579680  0.7769547486482438  0.4395943000778502
  0.1085014365827206  0.8883850334368546  0.1956396056198599
  0.8872542553319960  0.7704234092835804  0.9342700046436363
  0.7676450355506645  0.8833096283510784  0.6966754134875046
  0.5655418043255125  0.7828652603198876  0.4355926583666658
  0.4436875428146436  0.8880358866941549  0.1979684752622930
  0.2305514515503049  0.7810947835678377  0.9413719831281711
  0.1246277625391485  0.8947329453038790  0.6918964067861069
  0.8887079647780141  0.7773435497259413  0.4506611928168027
  0.7798074767210608  0.8860248101538915  0.1929148383553141
  0.5458987199473953  0.7729212357077557  0.9437591190121708
  0.4413105794848917  0.8809938205122876  0.6870474581957637
  0.2166339907258532  0.1089727813894115  0.2507632659679899
  0.1125468610442582  0.2224269562313452  0.5010413015426138
  0.7752673728885640  0.2197017667326406  0.9983511447563771
  0.5580122467433881  0.1121177528796267  0.2486770739223090
  0.2310661472560582  0.1145331344135485  0.7461517104981681
  0.7776603780568436  0.2262077873977546  0.4978015807548317
  0.2196497936156021  0.4423728157802600  0.2475577842560810
  0.8852750049918541  0.4431407578424427  0.7509423863177815
  0.7766614950272839  0.5570468202174084  0.9987905922731386
  0.5596537259252159  0.4488765837224307  0.2480609013638784
  0.2282972283091098  0.4502255865815101  0.7478696220267480
  0.8848752308266299  0.4444975289384985  0.2447423857909783
  0.7778231548338255  0.5521410531128126  0.4950343117271814
  0.4448003171033719  0.5573655434197349  0.0013291848037298
  0.2175962254720929  0.7759490082157328  0.2479350531573772
  0.1119998514707063  0.8898542978432289  0.4967337710258661
  0.5597762730714635  0.7784679661569740  0.2445316510365032
  0.2277619624942986  0.7787784601919370  0.7479670517847623
  0.8879963510095692  0.7769349280624454  0.2538758010721125
  0.7759725577865595  0.8875655794175970  0.5005704373687436
  0.5471496392687811  0.7735438007384516  0.7496820371751269
  0.4446662171546834  0.8872922661092701  0.0014691875028419
  0.8910250349265993  0.1157445259912819  0.7371565880345088
  0.4426172076691728  0.2216498822114730  0.4859423508216381
  0.1165485524728709  0.2260337236991106  0.9909386866227266
  0.8888227953023531  0.1117188223800767  0.2528553264063902
  0.5543828549595844  0.1066469828085062  0.7458919771610226
  0.4499140856562889  0.2246083005470325  0.0065671302452230
  0.1025358043519446  0.5512144152956608  0.4984681466614660
  0.4452916738563246  0.5580056741216453  0.4873535964625333
  0.1097481074639504  0.5549565161760555  0.9904782450825707
  0.5555105849443507  0.4484562518702475  0.7462878138446385
  0.8925455924208308  0.7750757685157055  0.7344770545009425
  0.7742904014843504  0.8837853346935489  0.9907574230812060
  0.4452114694422207  0.8872552359150419  0.4871743094624392
  0.1130179874562742  0.8879793544400840  0.9945583523734953
 
  0.00000000E+00  0.00000000E+00  0.00000000E+00
  0.00000000E+00  0.00000000E+00  0.00000000E+00
  0.00000000E+00  0.00000000E+00  0.00000000E+00
  0.00000000E+00  0.00000000E+00  0.00000000E+00
  0.00000000E+00  0.00000000E+00  0.00000000E+00
  0.00000000E+00  0.00000000E+00  0.00000000E+00
  0.00000000E+00  0.00000000E+00  0.00000000E+00
  0.00000000E+00  0.00000000E+00  0.00000000E+00
  0.00000000E+00  0.00000000E+00  0.00000000E+00
  0.00000000E+00  0.00000000E+00  0.00000000E+00
  0.00000000E+00  0.00000000E+00  0.00000000E+00
  0.00000000E+00  0.00000000E+00  0.00000000E+00
  0.00000000E+00  0.00000000E+00  0.00000000E+00
  0.00000000E+00  0.00000000E+00  0.00000000E+00
  0.00000000E+00  0.00000000E+00  0.00000000E+00
  0.00000000E+00  0.00000000E+00  0.00000000E+00
  0.00000000E+00  0.00000000E+00  0.00000000E+00
  0.00000000E+00  0.00000000E+00  0.00000000E+00
  0.00000000E+00  0.00000000E+00  0.00000000E+00
  0.00000000E+00  0.00000000E+00  0.00000000E+00
  0.00000000E+00  0.00000000E+00  0.00000000E+00
  0.00000000E+00  0.00000000E+00  0.00000000E+00
  0.00000000E+00  0.00000000E+00  0.00000000E+00
  0.00000000E+00  0.00000000E+00  0.00000000E+00
  0.00000000E+00  0.00000000E+00  0.00000000E+00
  0.00000000E+00  0.00000000E+00  0.00000000E+00
  0.00000000E+00  0.00000000E+00  0.00000000E+00
  0.00000000E+00  0.00000000E+00  0.00000000E+00
  0.00000000E+00  0.00000000E+00  0.00000000E+00
  0.00000000E+00  0.00000000E+00  0.00000000E+00
  0.00000000E+00  0.00000000E+00  0.00000000E+00
  0.00000000E+00  0.00000000E+00  0.00000000E+00
  0.00000000E+00  0.00000000E+00  0.00000000E+00
  0.00000000E+00  0.00000000E+00  0.00000000E+00
  0.00000000E+00  0.00000000E+00  0.00000000E+00
  0.00000000E+00  0.00000000E+00  0.00000000E+00
  0.00000000E+00  0.00000000E+00  0.00000000E+00
  0.00000000E+00  0.00000000E+00  0.00000000E+00
  0.00000000E+00  0.00000000E+00  0.00000000E+00
  0.00000000E+00  0.00000000E+00  0.00000000E+00
  0.00000000E+00  0.00000000E+00  0.00000000E+00
  0.00000000E+00  0.00000000E+00  0.00000000E+00
  0.00000000E+00  0.00000000E+00  0.00000000E+00
  0.00000000E+00  0.00000000E+00  0.00000000E+00
  0.00000000E+00  0.00000000E+00  0.00000000E+00
  0.00000000E+00  0.00000000E+00  0.00000000E+00
  0.00000000E+00  0.00000000E+00  0.00000000E+00
  0.00000000E+00  0.00000000E+00  0.00000000E+00
  0.00000000E+00  0.00000000E+00  0.00000000E+00
  0.00000000E+00  0.00000000E+00  0.00000000E+00
  0.00000000E+00  0.00000000E+00  0.00000000E+00
  0.00000000E+00  0.00000000E+00  0.00000000E+00
  0.00000000E+00  0.00000000E+00  0.00000000E+00
  0.00000000E+00  0.00000000E+00  0.00000000E+00
  0.00000000E+00  0.00000000E+00  0.00000000E+00
  0.00000000E+00  0.00000000E+00  0.00000000E+00
  0.00000000E+00  0.00000000E+00  0.00000000E+00
  0.00000000E+00  0.00000000E+00  0.00000000E+00
  0.00000000E+00  0.00000000E+00  0.00000000E+00
  0.00000000E+00  0.00000000E+00  0.00000000E+00
  0.00000000E+00  0.00000000E+00  0.00000000E+00
  0.00000000E+00  0.00000000E+00  0.00000000E+00
  0.00000000E+00  0.00000000E+00  0.00000000E+00
  0.00000000E+00  0.00000000E+00  0.00000000E+00
  0.00000000E+00  0.00000000E+00  0.00000000E+00
  0.00000000E+00  0.00000000E+00  0.00000000E+00
  0.00000000E+00  0.00000000E+00  0.00000000E+00
  0.00000000E+00  0.00000000E+00  0.00000000E+00
  0.00000000E+00  0.00000000E+00  0.00000000E+00
  0.00000000E+00  0.00000000E+00  0.00000000E+00
  0.00000000E+00  0.00000000E+00  0.00000000E+00
  0.00000000E+00  0.00000000E+00  0.00000000E+00
