generated by phonopy                    
   1.00000000000000     
    11.7777700938999992   -0.0000006592896312    0.0000118211769744
    -0.0000006477562692   11.7777479613999994   -0.0000130806483528
     0.0000177256125076   -0.0000204342245446   17.8544012557999991
   Ti   Bi   Cu   Se   O 
     1    35    36    36    36
Direct
  0.0001731602326629  0.1668310050862516  0.4512252407401789
  0.3314585244152681  0.1668064914463514  0.4274984546313618
  0.6688555791064275  0.1668197747532929  0.4274900939047370
  0.0001467186175859  0.4981335601323806  0.4274936323610845
  0.3326971457913785  0.4993642073960984  0.4281739401548776
  0.6676035774933666  0.4993703047084921  0.4281691062399631
  0.0001631223056151  0.8355032747718667  0.4274843762889020
  0.3327100368873559  0.8342630680292942  0.4281714055739130
  0.6676182827084958  0.8342715014967510  0.4281671621597170
  0.0000344106890680  0.1667016668948520  0.9290371528949564
  0.3336118273530886  0.1667002500670876  0.9292259470402655
  0.6664587247038440  0.1667040468699668  0.9292272962470136
  0.0000340841996973  0.5002770872445836  0.9292229961097931
  0.3333734232695917  0.5000360712394496  0.9292313609116221
  0.6666967448430938  0.5000363344900194  0.9292331373813170
  0.0000370897514443  0.8331275445943689  0.9292264610271275
  0.3333724344421753  0.8333644948938783  0.9292334797761370
  0.6667000123601809  0.8333685975631724  0.9292347795755802
  0.1666942073879198  0.0000423388976145  0.0711354534532802
  0.5000354895645032  0.9999185754717601  0.0715062395611099
  0.8333782784065988  0.0000474405091708  0.0711367272443368
  0.1666895813085318  0.3333580260862448  0.0711339607484405
  0.5000296415286911  0.3334895036808589  0.0715062697534137
  0.8333753338940184  0.3333632929027459  0.0711349928580560
  0.1668214077961352  0.6666952771756485  0.0715023809882993
  0.5000379957247532  0.6667048174170418  0.0713005049061977
  0.8332507686061277  0.6667034538694807  0.0715031805122592
  0.1666379840513557  0.0003240491951573  0.5703344419739764
  0.5001651002159022  0.0013734588479224  0.5697568243389242
  0.8336857852233308  0.0003344370028486  0.5703246959457218
  0.1666418565938983  0.3333098702423385  0.5703393686013030
  0.5001602075030789  0.3322484399800985  0.5697544856517851
  0.8336763787337702  0.3333095462374089  0.5703337219493818
  0.1655836748541191  0.6668198546662580  0.5697598389426020
  0.5001551911995961  0.6668158344345727  0.5694589304068387
  0.8347133906650228  0.6668226734627325  0.5697594580840573
  0.0001282713364859  0.0022267171403811  0.2499407873675992
  0.3293566426985635  0.0003089242524155  0.2519188688738865
  0.6708932882608778  0.0003369526810033  0.2519179145491250
  0.0001002647055159  0.3312173778256309  0.2499368021596879
  0.3292986715850716  0.3331131179586180  0.2519417903694716
  0.6708732335240555  0.3331404006499739  0.2519188988239662
  0.0001337406991908  0.6667164269719663  0.2498214789521640
  0.3333101788158288  0.6667156858592662  0.2501171636669994
  0.6669453716566736  0.6667344813073939  0.2501174201509855
  0.0000745072917923  0.9997941306617975  0.7501346042017829
  0.3333339642936011  0.9998442973054011  0.7494824135322702
  0.6668271158784762  0.9998531407894191  0.7494812297708933
  0.0000735932179623  0.3337955254387310  0.7501303649617483
  0.3333261691742706  0.3337243804246981  0.7494800695739201
  0.6668217119370325  0.3337293267709995  0.7494777973691882
  0.0000689935156686  0.6668002714765322  0.7496116500495944
  0.3333074876919326  0.6667906154081962  0.7492169008624927
  0.6668347967392592  0.6667952641290427  0.7492181877416186
  0.1645595725343085  0.1667589161664793  0.2499389702440169
  0.5000516624206313  0.1667939103060121  0.2498160690097535
  0.8355651306237135  0.1667870655013317  0.2499388401653988
  0.1664544622124495  0.4959533767675239  0.2519425283987360
  0.5000564020786840  0.4999731111522010  0.2501154337532583
  0.8336490233602944  0.4960120736720199  0.2519180733253208
  0.1664769929648671  0.8375328263330744  0.2519183244203020
  0.5000652210782164  0.8336015657049671  0.2501162915413317
  0.8336738027875583  0.8375549107139051  0.2519188496910729
  0.1671333185779744  0.1667318935254869  0.7501306526006175
  0.5001348782364161  0.1667294635041756  0.7496100256116023
  0.8331282171046013  0.1667380374402754  0.7501346128803732
  0.1670618942072792  0.4999891438630542  0.7494804716484609
  0.5001280277735418  0.4999627715452206  0.7492177689637600
  0.8331883947467134  0.4999973798395416  0.7494812764749454
  0.1670660486035231  0.8334902028732643  0.7494753073958194
  0.5001305983727349  0.8335055484865279  0.7492170867682759
  0.8331932444718788  0.8334935722853487  0.7494796099207193
  0.1625744863275429  0.3292335040643337  0.3399010473478228
  0.5001082053452919  0.3331103784085485  0.3369735662885063
  0.8376084160719870  0.3292908965197228  0.3398744478115958
  0.1664510537589834  0.6667656945413327  0.3369746972049512
  0.5001264615498471  0.6667839453225923  0.3374674961794497
  0.8338008166576216  0.6667823129340960  0.3369732249341482
  0.1626348543228815  0.0042651805614540  0.3398736153220696
  0.5001253408684789  0.0004600439510511  0.3369718513501496
  0.8376185556843794  0.0042779953176861  0.3398681138875546
  0.1670195534364751  0.3336831935710265  0.8371539406218957
  0.5000700421606439  0.3333937166280236  0.8367591167944042
  0.8331134705406029  0.3336880550812040  0.8371547206906200
  0.1667318067641830  0.6667363604262349  0.8367552766120738
  0.5000669752264670  0.6667318784533265  0.8365578090832884
  0.8333990688643453  0.6667379143126482  0.8367577106695379
  0.1670244772771170  0.9997770980989316  0.8371561001384364
  0.5000733270309610  0.0000634893850844  0.8367620771168305
  0.8331172922338297  0.9997799315313358  0.8371583577495514
  0.3326262235594939  0.1667238427448012  0.1636460983767307
  0.6674863848793322  0.1667296926351725  0.1636448842605702
  0.0000597542412351  0.1667191376294710  0.1612167108571612
  0.3326663354591730  0.4993320335766498  0.1636926156908913
  0.6674317407482562  0.4993550992543163  0.1636785223590209
  0.0000620677103313  0.4992924780872769  0.1636489472185048
  0.3326889544004672  0.8340889033074390  0.1636782079606860
  0.6674420137981940  0.8340999711363537  0.1636814557001571
  0.0000667179678047  0.8341454736702261  0.1636470731557509
  0.3330480195797492  0.1667838920108693  0.6620565916470085
  0.6672199437497639  0.1667877657782597  0.6620544670845305
  0.0001301167908210  0.1667919866384793  0.6632948771759786
  0.3333158854131639  0.4999764796425836  0.6618476143564465
  0.6669380689699196  0.4999804131630938  0.6618457835919997
  0.0001229952985682  0.4997097645762167  0.6620567859928457
  0.3333203920994592  0.8336004436071534  0.6618452105874155
  0.6669434995974797  0.8336052585733640  0.6618455043451021
  0.0001271294447491  0.8338824966807792  0.6620538901374360
  0.1603154837086720  0.1668054485307238  0.4971614563945366
  0.5001473477852869  0.1668005042176262  0.4985035996855842
  0.8400014145768822  0.1668125258635555  0.4971389729933122
  0.1655342831937929  0.4988510862098465  0.4997071483002955
  0.5001419045900803  0.4992699886391705  0.4988774381124443
  0.8347422243611788  0.4988490661728520  0.4997071120417758
  0.1655367787961453  0.8347646843023142  0.4997034543951955
  0.5001518119680526  0.8343446936688679  0.4988740626958403
  0.8347594875261848  0.8347720625886978  0.4997015059167254
  0.1668728041773093  0.1667070934493182  0.9999028132102268
  0.5000426537257283  0.1667095332621358  0.0004907340294693
  0.8332137450673898  0.1667100967814505  0.9999042103073279
  0.1668257983417121  0.5003333484942729  0.0001243129174213
  0.5000417152835723  0.5002186169276825  0.0004955585168176
  0.8332593683668179  0.5003362308149590  0.0001264324016645
  0.1668275210069297  0.8330811891699526  0.0001282206562436
  0.5000448711020127  0.8331978767286827  0.0004977198355007
  0.8332617572239158  0.8330830624105019  0.0001290596112540
  0.0000433542089979  0.9998810906645517  0.9999047597435649
  0.3336717306925010  0.9999261150009033  0.0001293872247814
  0.6664160970624806  0.9999280656432674  0.0001306597212718
  0.0000402272043658  0.3335398792728625  0.9999025310826468
  0.3336688960641823  0.3334930073200368  0.0001274932652464
  0.6664144011636139  0.3334942274498118  0.0001294507761926
  0.0000430947439298  0.6667079515882079  0.0004863899593062
  0.3335543180945422  0.6667065175849416  0.0004942071448468
  0.6665312005779711  0.6667104936822668  0.0004953340339142
  0.0001560031493000  0.0066552901967754  0.4971322243231810
  0.3321796026369839  0.0013954548556896  0.4997080333910304
  0.6681223087769084  0.0014094143436481  0.4997028357512932
  0.0001438795988449  0.3269822911734295  0.4971548041380629
  0.3321826402871721  0.3322040668391537  0.4997064369620077
  0.6681158216631076  0.3322042968415815  0.4997028052550760
  0.0001399065110377  0.6668079112649323  0.4985040754724963
  0.3326026806300177  0.6668059533235464  0.4988850101825761
  0.6676894834498270  0.6668101174712362  0.4988799869959948
 
  0.00000000E+00  0.00000000E+00  0.00000000E+00
  0.00000000E+00  0.00000000E+00  0.00000000E+00
  0.00000000E+00  0.00000000E+00  0.00000000E+00
  0.00000000E+00  0.00000000E+00  0.00000000E+00
  0.00000000E+00  0.00000000E+00  0.00000000E+00
  0.00000000E+00  0.00000000E+00  0.00000000E+00
  0.00000000E+00  0.00000000E+00  0.00000000E+00
  0.00000000E+00  0.00000000E+00  0.00000000E+00
  0.00000000E+00  0.00000000E+00  0.00000000E+00
  0.00000000E+00  0.00000000E+00  0.00000000E+00
  0.00000000E+00  0.00000000E+00  0.00000000E+00
  0.00000000E+00  0.00000000E+00  0.00000000E+00
  0.00000000E+00  0.00000000E+00  0.00000000E+00
  0.00000000E+00  0.00000000E+00  0.00000000E+00
  0.00000000E+00  0.00000000E+00  0.00000000E+00
  0.00000000E+00  0.00000000E+00  0.00000000E+00
  0.00000000E+00  0.00000000E+00  0.00000000E+00
  0.00000000E+00  0.00000000E+00  0.00000000E+00
  0.00000000E+00  0.00000000E+00  0.00000000E+00
  0.00000000E+00  0.00000000E+00  0.00000000E+00
  0.00000000E+00  0.00000000E+00  0.00000000E+00
  0.00000000E+00  0.00000000E+00  0.00000000E+00
  0.00000000E+00  0.00000000E+00  0.00000000E+00
  0.00000000E+00  0.00000000E+00  0.00000000E+00
  0.00000000E+00  0.00000000E+00  0.00000000E+00
  0.00000000E+00  0.00000000E+00  0.00000000E+00
  0.00000000E+00  0.00000000E+00  0.00000000E+00
  0.00000000E+00  0.00000000E+00  0.00000000E+00
  0.00000000E+00  0.00000000E+00  0.00000000E+00
  0.00000000E+00  0.00000000E+00  0.00000000E+00
  0.00000000E+00  0.00000000E+00  0.00000000E+00
  0.00000000E+00  0.00000000E+00  0.00000000E+00
  0.00000000E+00  0.00000000E+00  0.00000000E+00
  0.00000000E+00  0.00000000E+00  0.00000000E+00
  0.00000000E+00  0.00000000E+00  0.00000000E+00
  0.00000000E+00  0.00000000E+00  0.00000000E+00
  0.00000000E+00  0.00000000E+00  0.00000000E+00
  0.00000000E+00  0.00000000E+00  0.00000000E+00
  0.00000000E+00  0.00000000E+00  0.00000000E+00
  0.00000000E+00  0.00000000E+00  0.00000000E+00
  0.00000000E+00  0.00000000E+00  0.00000000E+00
  0.00000000E+00  0.00000000E+00  0.00000000E+00
  0.00000000E+00  0.00000000E+00  0.00000000E+00
  0.00000000E+00  0.00000000E+00  0.00000000E+00
  0.00000000E+00  0.00000000E+00  0.00000000E+00
  0.00000000E+00  0.00000000E+00  0.00000000E+00
  0.00000000E+00  0.00000000E+00  0.00000000E+00
  0.00000000E+00  0.00000000E+00  0.00000000E+00
  0.00000000E+00  0.00000000E+00  0.00000000E+00
  0.00000000E+00  0.00000000E+00  0.00000000E+00
  0.00000000E+00  0.00000000E+00  0.00000000E+00
  0.00000000E+00  0.00000000E+00  0.00000000E+00
  0.00000000E+00  0.00000000E+00  0.00000000E+00
  0.00000000E+00  0.00000000E+00  0.00000000E+00
  0.00000000E+00  0.00000000E+00  0.00000000E+00
  0.00000000E+00  0.00000000E+00  0.00000000E+00
  0.00000000E+00  0.00000000E+00  0.00000000E+00
  0.00000000E+00  0.00000000E+00  0.00000000E+00
  0.00000000E+00  0.00000000E+00  0.00000000E+00
  0.00000000E+00  0.00000000E+00  0.00000000E+00
  0.00000000E+00  0.00000000E+00  0.00000000E+00
  0.00000000E+00  0.00000000E+00  0.00000000E+00
  0.00000000E+00  0.00000000E+00  0.00000000E+00
  0.00000000E+00  0.00000000E+00  0.00000000E+00
  0.00000000E+00  0.00000000E+00  0.00000000E+00
  0.00000000E+00  0.00000000E+00  0.00000000E+00
  0.00000000E+00  0.00000000E+00  0.00000000E+00
  0.00000000E+00  0.00000000E+00  0.00000000E+00
  0.00000000E+00  0.00000000E+00  0.00000000E+00
  0.00000000E+00  0.00000000E+00  0.00000000E+00
  0.00000000E+00  0.00000000E+00  0.00000000E+00
  0.00000000E+00  0.00000000E+00  0.00000000E+00
  0.00000000E+00  0.00000000E+00  0.00000000E+00
  0.00000000E+00  0.00000000E+00  0.00000000E+00
  0.00000000E+00  0.00000000E+00  0.00000000E+00
  0.00000000E+00  0.00000000E+00  0.00000000E+00
  0.00000000E+00  0.00000000E+00  0.00000000E+00
  0.00000000E+00  0.00000000E+00  0.00000000E+00
  0.00000000E+00  0.00000000E+00  0.00000000E+00
  0.00000000E+00  0.00000000E+00  0.00000000E+00
  0.00000000E+00  0.00000000E+00  0.00000000E+00
  0.00000000E+00  0.00000000E+00  0.00000000E+00
  0.00000000E+00  0.00000000E+00  0.00000000E+00
  0.00000000E+00  0.00000000E+00  0.00000000E+00
  0.00000000E+00  0.00000000E+00  0.00000000E+00
  0.00000000E+00  0.00000000E+00  0.00000000E+00
  0.00000000E+00  0.00000000E+00  0.00000000E+00
  0.00000000E+00  0.00000000E+00  0.00000000E+00
  0.00000000E+00  0.00000000E+00  0.00000000E+00
  0.00000000E+00  0.00000000E+00  0.00000000E+00
  0.00000000E+00  0.00000000E+00  0.00000000E+00
  0.00000000E+00  0.00000000E+00  0.00000000E+00
  0.00000000E+00  0.00000000E+00  0.00000000E+00
  0.00000000E+00  0.00000000E+00  0.00000000E+00
  0.00000000E+00  0.00000000E+00  0.00000000E+00
  0.00000000E+00  0.00000000E+00  0.00000000E+00
  0.00000000E+00  0.00000000E+00  0.00000000E+00
  0.00000000E+00  0.00000000E+00  0.00000000E+00
  0.00000000E+00  0.00000000E+00  0.00000000E+00
  0.00000000E+00  0.00000000E+00  0.00000000E+00
  0.00000000E+00  0.00000000E+00  0.00000000E+00
  0.00000000E+00  0.00000000E+00  0.00000000E+00
  0.00000000E+00  0.00000000E+00  0.00000000E+00
  0.00000000E+00  0.00000000E+00  0.00000000E+00
  0.00000000E+00  0.00000000E+00  0.00000000E+00
  0.00000000E+00  0.00000000E+00  0.00000000E+00
  0.00000000E+00  0.00000000E+00  0.00000000E+00
  0.00000000E+00  0.00000000E+00  0.00000000E+00
  0.00000000E+00  0.00000000E+00  0.00000000E+00
  0.00000000E+00  0.00000000E+00  0.00000000E+00
  0.00000000E+00  0.00000000E+00  0.00000000E+00
  0.00000000E+00  0.00000000E+00  0.00000000E+00
  0.00000000E+00  0.00000000E+00  0.00000000E+00
  0.00000000E+00  0.00000000E+00  0.00000000E+00
  0.00000000E+00  0.00000000E+00  0.00000000E+00
  0.00000000E+00  0.00000000E+00  0.00000000E+00
  0.00000000E+00  0.00000000E+00  0.00000000E+00
  0.00000000E+00  0.00000000E+00  0.00000000E+00
  0.00000000E+00  0.00000000E+00  0.00000000E+00
  0.00000000E+00  0.00000000E+00  0.00000000E+00
  0.00000000E+00  0.00000000E+00  0.00000000E+00
  0.00000000E+00  0.00000000E+00  0.00000000E+00
  0.00000000E+00  0.00000000E+00  0.00000000E+00
  0.00000000E+00  0.00000000E+00  0.00000000E+00
  0.00000000E+00  0.00000000E+00  0.00000000E+00
  0.00000000E+00  0.00000000E+00  0.00000000E+00
  0.00000000E+00  0.00000000E+00  0.00000000E+00
  0.00000000E+00  0.00000000E+00  0.00000000E+00
  0.00000000E+00  0.00000000E+00  0.00000000E+00
  0.00000000E+00  0.00000000E+00  0.00000000E+00
  0.00000000E+00  0.00000000E+00  0.00000000E+00
  0.00000000E+00  0.00000000E+00  0.00000000E+00
  0.00000000E+00  0.00000000E+00  0.00000000E+00
  0.00000000E+00  0.00000000E+00  0.00000000E+00
  0.00000000E+00  0.00000000E+00  0.00000000E+00
  0.00000000E+00  0.00000000E+00  0.00000000E+00
  0.00000000E+00  0.00000000E+00  0.00000000E+00
  0.00000000E+00  0.00000000E+00  0.00000000E+00
  0.00000000E+00  0.00000000E+00  0.00000000E+00
  0.00000000E+00  0.00000000E+00  0.00000000E+00
  0.00000000E+00  0.00000000E+00  0.00000000E+00
  0.00000000E+00  0.00000000E+00  0.00000000E+00
  0.00000000E+00  0.00000000E+00  0.00000000E+00
  0.00000000E+00  0.00000000E+00  0.00000000E+00
