POSCAR                                  
   1.09300000000000     
    -5.0247750298499998    2.9143527848900002    0.0081476938997000
     1.6944951942099999    2.9624528026800001    4.7872252030000002
    18.5979346216999986   26.4733916723999982  -19.0328668567000001
   Al   Tb   N 
    18    36    54
Direct
  0.7113116771704995  0.6773165319074508  0.7812308979826668
  0.7528892828568132  0.9611292218511736  0.8585076233569566
  0.2905635174282253  0.4061342234479284  0.9732895114624682
  0.0852610054585270  0.5631193283576934  0.5125005456545608
  0.5442644941689139  0.1111047913231005  0.4036270138582196
  0.8390830858499143  0.5508569892254940  0.0063717277182533
  0.8809173206153957  0.8209508213741188  0.0752613117972913
  0.3429261496425156  0.9507985837920430  0.1060088377898296
  0.9144626734436798  0.0673073949576803  0.1449812029653046
  0.1512322797488892  0.9092886413163299  0.9728444208358482
  0.9443608843738502  0.3169310900030808  0.5814679954068325
  0.3525920898345518  0.3055343081852300  0.3307263452596132
  0.8876932083756941  0.7815519799031136  0.4446367804257889
  0.4843323153419448  0.9339934091149047  0.4732234915628268
  0.9236398802965269  0.0582489771920578  0.5151630857262930
  0.1628848253590860  0.1610388614776994  0.0382137409846166
  0.2667501026944805  0.7114762233577068  0.1809605235268208
  0.8164526607226463  0.8385271132618612  0.2162123201297703
  0.2230161814785134  0.8006483006936875  0.8228316398425264
  0.2817455863258331  0.1075502295043620  0.8977327155601884
  0.8017033885548557  0.2045862975699961  0.9380601943565807
  0.6084193144819068  0.6862518039631595  0.5469452820927501
  0.1063292190461951  0.7823896343870516  0.5874270715801515
  0.6497314634502018  0.9715194342549296  0.6266338259248769
  0.1479684980325828  0.1109713367687490  0.6629351047779437
  0.6646207414782950  0.2961706434057731  0.7081008550915300
  0.1863187176171763  0.4655473262211984  0.7467231434596613
  0.4849950820851987  0.4701565959127407  0.2548362731297829
  0.9916014509569138  0.6025431099994947  0.2950055410715180
  0.5034239451882101  0.7905080748905533  0.3364833862564041
  0.0412615608763716  0.9468907373063757  0.3740410114337891
  0.0694263625164098  0.2276294117791409  0.4487420855453337
  0.5975819628592589  0.3882531211584990  0.4830513478945022
  0.3387948859314278  0.6469232363553630  0.0407505383700482
  0.4526995393762476  0.1532994247822117  0.1824797377245702
  0.9714663031234920  0.3154651167662479  0.2177820429906134
  0.0552057519827116  0.3053975566583986  0.8229259143088115
  0.6028810606356743  0.4678534915423640  0.8587716808838692
  0.0960094538826439  0.6127697367197555  0.9015619451238237
  0.6209972770477350  0.7062225767354491  0.9388425042921114
  0.6551224211530453  0.0280169866974376  0.0095077679343305
  0.4065499882149837  0.1756216677827922  0.5513965433734498
  0.4834158158683479  0.4643887145752643  0.6252671393126050
  0.0037601810881540  0.5916403348752439  0.6659941479217437
  0.5228152509963166  0.7928068005601574  0.7067211092435031
  0.0394406367176927  0.9605818343800294  0.7445624021439201
  0.5634827954088877  0.1391894327997747  0.7870702039699538
  0.8361151703113734  0.1046312027048231  0.2967498129853610
  0.8673469315874414  0.4389009961253123  0.3725909538247478
  0.3898980523221383  0.5877664775496143  0.4121113142583894
  0.7030632712091816  0.2808168464889391  0.0792547752676995
  0.2041513186807791  0.4254026594609996  0.1148865758718571
  0.7319811017680351  0.6125450070316916  0.1498335139138760
  0.3173745365862288  0.9498265816424620  0.2579785738666374
  0.6928257061051326  0.9338464388741983  0.7510684710349551
  0.2091147865098577  0.1051507763936215  0.7886755558812126
  0.7336140935181419  0.2177909705442502  0.8331215774485088
  0.2571591025131923  0.4240688812979272  0.8657950343002767
  0.7758557758266562  0.4980867193320222  0.9069124528368278
  0.2711707101281888  0.6919682208764755  0.9497695428366555
  0.0509599947310946  0.8560274092586084  0.4854464322675085
  0.6098974141547089  0.0123195718914602  0.5137189417426882
  0.0545197769223620  0.0945663823990017  0.5576438162946928
  0.6525550510194194  0.2743783683778602  0.5913338598409084
  0.1228363756472532  0.3950099892554633  0.6224146979551435
  0.6528832327251095  0.5812521164742108  0.6716959488657963
  0.1735608280265879  0.7489957392215132  0.7096015893129817
  0.4882653933226422  0.7845993488620238  0.2162890006520115
  0.9556569156645622  0.9014268296743779  0.2577172642422170
  0.4764393381863457  0.1010507938609919  0.3045651837164058
  0.0531042191317965  0.2546726085779838  0.3377870397954936
  0.5107363693291660  0.3701854569813037  0.3724053366137881
  0.0291559993499320  0.5852180321883935  0.4187289859308692
  0.6029337083843131  0.7125372742273441  0.4542996915780719
  0.8522374184113843  0.8393968137423400  0.9769224599999120
  0.2973213564808148  0.9628110194345467  0.0131484106187472
  0.8907394077495994  0.0827525906166073  0.0499261702862626
  0.3433668826369356  0.2110879570004727  0.0773156484176596
  0.8753492957939031  0.3490244528536834  0.1256617766785837
  0.4021944463560772  0.5022922205649323  0.1591323641440781
  0.9835137347192600  0.6522831806640852  0.1931554032073208
  0.0137955859587464  0.6146074892415783  0.7877624065460296
  0.6029878936303135  0.7745226751860557  0.8238815280416958
  0.0567406435616178  0.9133995893649711  0.8660932827945516
  0.6227053700508307  0.9988068242546788  0.8992008312518038
  0.1664750867043452  0.1910587214494157  0.9465265846493907
  0.6204263152541785  0.3769072369633193  0.9808020961812076
  0.3774344684321491  0.4838870564772222  0.5205412908816527
  0.9439808369359213  0.5691884462183125  0.5520622459150957
  0.4646730477294483  0.7768551027108188  0.5920777563570425
  0.9845110130336678  0.8808651172552615  0.6336963647681344
  0.5024871274264484  0.0949103815051870  0.6711942422092179
  0.0210664658192101  0.2602811443430753  0.7088679584079145
  0.5548271416620452  0.4714485076954347  0.7557199520980404
  0.8204090473966517  0.3893726677545999  0.2628054825534392
  0.3463140407942547  0.5724358185715843  0.3012929057194071
  0.8584629304715605  0.7470170959810716  0.3388416955919169
  0.3921680637663982  0.8952042252130781  0.3836371436284338
  0.8454896422080935  0.0570650511941864  0.4139570203573584
  0.4310378761834102  0.1834904257560055  0.4441729226514965
  0.9440504557513520  0.3329171540464912  0.4926561983730195
  0.1239950663898597  0.4272766599058286  0.0104917148282979
  0.7218590980641437  0.6323536489650863  0.0462183960489213
  0.1804172031855558  0.7428589287533853  0.0849209123340842
  0.7178881388981537  0.9066434926378548  0.1125204982055692
  0.2192686647019855  0.9836724540856494  0.1468965607213661
  0.8047468440081502  0.0812962938460018  0.1858190379001456
  0.3094819264144419  0.2398663970794530  0.2272742624417248
 
  0.00000000E+00  0.00000000E+00  0.00000000E+00
  0.00000000E+00  0.00000000E+00  0.00000000E+00
  0.00000000E+00  0.00000000E+00  0.00000000E+00
  0.00000000E+00  0.00000000E+00  0.00000000E+00
  0.00000000E+00  0.00000000E+00  0.00000000E+00
  0.00000000E+00  0.00000000E+00  0.00000000E+00
  0.00000000E+00  0.00000000E+00  0.00000000E+00
  0.00000000E+00  0.00000000E+00  0.00000000E+00
  0.00000000E+00  0.00000000E+00  0.00000000E+00
  0.00000000E+00  0.00000000E+00  0.00000000E+00
  0.00000000E+00  0.00000000E+00  0.00000000E+00
  0.00000000E+00  0.00000000E+00  0.00000000E+00
  0.00000000E+00  0.00000000E+00  0.00000000E+00
  0.00000000E+00  0.00000000E+00  0.00000000E+00
  0.00000000E+00  0.00000000E+00  0.00000000E+00
  0.00000000E+00  0.00000000E+00  0.00000000E+00
  0.00000000E+00  0.00000000E+00  0.00000000E+00
  0.00000000E+00  0.00000000E+00  0.00000000E+00
  0.00000000E+00  0.00000000E+00  0.00000000E+00
  0.00000000E+00  0.00000000E+00  0.00000000E+00
  0.00000000E+00  0.00000000E+00  0.00000000E+00
  0.00000000E+00  0.00000000E+00  0.00000000E+00
  0.00000000E+00  0.00000000E+00  0.00000000E+00
  0.00000000E+00  0.00000000E+00  0.00000000E+00
  0.00000000E+00  0.00000000E+00  0.00000000E+00
  0.00000000E+00  0.00000000E+00  0.00000000E+00
  0.00000000E+00  0.00000000E+00  0.00000000E+00
  0.00000000E+00  0.00000000E+00  0.00000000E+00
  0.00000000E+00  0.00000000E+00  0.00000000E+00
  0.00000000E+00  0.00000000E+00  0.00000000E+00
  0.00000000E+00  0.00000000E+00  0.00000000E+00
  0.00000000E+00  0.00000000E+00  0.00000000E+00
  0.00000000E+00  0.00000000E+00  0.00000000E+00
  0.00000000E+00  0.00000000E+00  0.00000000E+00
  0.00000000E+00  0.00000000E+00  0.00000000E+00
  0.00000000E+00  0.00000000E+00  0.00000000E+00
  0.00000000E+00  0.00000000E+00  0.00000000E+00
  0.00000000E+00  0.00000000E+00  0.00000000E+00
  0.00000000E+00  0.00000000E+00  0.00000000E+00
  0.00000000E+00  0.00000000E+00  0.00000000E+00
  0.00000000E+00  0.00000000E+00  0.00000000E+00
  0.00000000E+00  0.00000000E+00  0.00000000E+00
  0.00000000E+00  0.00000000E+00  0.00000000E+00
  0.00000000E+00  0.00000000E+00  0.00000000E+00
  0.00000000E+00  0.00000000E+00  0.00000000E+00
  0.00000000E+00  0.00000000E+00  0.00000000E+00
  0.00000000E+00  0.00000000E+00  0.00000000E+00
  0.00000000E+00  0.00000000E+00  0.00000000E+00
  0.00000000E+00  0.00000000E+00  0.00000000E+00
  0.00000000E+00  0.00000000E+00  0.00000000E+00
  0.00000000E+00  0.00000000E+00  0.00000000E+00
  0.00000000E+00  0.00000000E+00  0.00000000E+00
  0.00000000E+00  0.00000000E+00  0.00000000E+00
  0.00000000E+00  0.00000000E+00  0.00000000E+00
  0.00000000E+00  0.00000000E+00  0.00000000E+00
  0.00000000E+00  0.00000000E+00  0.00000000E+00
  0.00000000E+00  0.00000000E+00  0.00000000E+00
  0.00000000E+00  0.00000000E+00  0.00000000E+00
  0.00000000E+00  0.00000000E+00  0.00000000E+00
  0.00000000E+00  0.00000000E+00  0.00000000E+00
  0.00000000E+00  0.00000000E+00  0.00000000E+00
  0.00000000E+00  0.00000000E+00  0.00000000E+00
  0.00000000E+00  0.00000000E+00  0.00000000E+00
  0.00000000E+00  0.00000000E+00  0.00000000E+00
  0.00000000E+00  0.00000000E+00  0.00000000E+00
  0.00000000E+00  0.00000000E+00  0.00000000E+00
  0.00000000E+00  0.00000000E+00  0.00000000E+00
  0.00000000E+00  0.00000000E+00  0.00000000E+00
  0.00000000E+00  0.00000000E+00  0.00000000E+00
  0.00000000E+00  0.00000000E+00  0.00000000E+00
  0.00000000E+00  0.00000000E+00  0.00000000E+00
  0.00000000E+00  0.00000000E+00  0.00000000E+00
  0.00000000E+00  0.00000000E+00  0.00000000E+00
  0.00000000E+00  0.00000000E+00  0.00000000E+00
  0.00000000E+00  0.00000000E+00  0.00000000E+00
  0.00000000E+00  0.00000000E+00  0.00000000E+00
  0.00000000E+00  0.00000000E+00  0.00000000E+00
  0.00000000E+00  0.00000000E+00  0.00000000E+00
  0.00000000E+00  0.00000000E+00  0.00000000E+00
  0.00000000E+00  0.00000000E+00  0.00000000E+00
  0.00000000E+00  0.00000000E+00  0.00000000E+00
  0.00000000E+00  0.00000000E+00  0.00000000E+00
  0.00000000E+00  0.00000000E+00  0.00000000E+00
  0.00000000E+00  0.00000000E+00  0.00000000E+00
  0.00000000E+00  0.00000000E+00  0.00000000E+00
  0.00000000E+00  0.00000000E+00  0.00000000E+00
  0.00000000E+00  0.00000000E+00  0.00000000E+00
  0.00000000E+00  0.00000000E+00  0.00000000E+00
  0.00000000E+00  0.00000000E+00  0.00000000E+00
  0.00000000E+00  0.00000000E+00  0.00000000E+00
  0.00000000E+00  0.00000000E+00  0.00000000E+00
  0.00000000E+00  0.00000000E+00  0.00000000E+00
  0.00000000E+00  0.00000000E+00  0.00000000E+00
  0.00000000E+00  0.00000000E+00  0.00000000E+00
  0.00000000E+00  0.00000000E+00  0.00000000E+00
  0.00000000E+00  0.00000000E+00  0.00000000E+00
  0.00000000E+00  0.00000000E+00  0.00000000E+00
  0.00000000E+00  0.00000000E+00  0.00000000E+00
  0.00000000E+00  0.00000000E+00  0.00000000E+00
  0.00000000E+00  0.00000000E+00  0.00000000E+00
  0.00000000E+00  0.00000000E+00  0.00000000E+00
  0.00000000E+00  0.00000000E+00  0.00000000E+00
  0.00000000E+00  0.00000000E+00  0.00000000E+00
  0.00000000E+00  0.00000000E+00  0.00000000E+00
  0.00000000E+00  0.00000000E+00  0.00000000E+00
  0.00000000E+00  0.00000000E+00  0.00000000E+00
  0.00000000E+00  0.00000000E+00  0.00000000E+00
  0.00000000E+00  0.00000000E+00  0.00000000E+00
