supercell of 100% icsd_608626.cif, 0% i 
   1.00000000000000     
    -9.6868683294523912   -0.0648791994394781   -0.0470266412081335
    -4.7875110198243052    8.3427314300793860    0.0001666801789711
    -0.0499949386401343   -0.0292854597798997  -10.1749840393713669
   Al   Sr   Ti   N 
    30     3     3    36
Direct
  0.1055134104877311  0.1015652796120747  0.2986356127661125
  0.2112202728682391  0.2115652981508021  0.0311330539301906
  0.7889626775661114  0.0882672167804159  0.7883256774891194
  0.8933254526549490  0.2060728032336314  0.5452380538344386
  0.1016385758123945  0.0988556016836881  0.7944178353063620
  0.2083696933309795  0.2127516629020079  0.5486303231569138
  0.8014770512682787  0.0812018424867418  0.3089138925892456
  0.9014817887293134  0.2009446840544911  0.0549651794293169
  0.4320509339412055  0.0976312802964401  0.8185079963162210
  0.0969588685599589  0.4354286818656163  0.2984164258849944
  0.2156115411825326  0.5472247424081971  0.0379131107602930
  0.7821189900120302  0.4245281587627758  0.7975361318853658
  0.8915503168041852  0.5350250935906544  0.5421392512831815
  0.5538376144358281  0.5480710304482486  0.0446494809944937
  0.1020106405674994  0.4332008674285817  0.7928400000343245
  0.2067089294154343  0.5481840259077870  0.5475282096707943
  0.7798476965720837  0.4293763668256005  0.2980738161727032
  0.8881684898323741  0.5396758708585097  0.0486225745527236
  0.4329227758692440  0.4361374189688050  0.7892794170073429
  0.5617011747926668  0.5359245337055114  0.5448522340688413
  0.1070066862053878  0.7611084008651758  0.2950496014635817
  0.2216377140955146  0.8748110476965820  0.0543467147012890
  0.7888563996657467  0.7551304796268781  0.7964215801572436
  0.8987300428492304  0.8669253073336236  0.5436852016336431
  0.4503184183736906  0.7542374018982443  0.2991481745714495
  0.5599759182684068  0.8644297845796700  0.0315527083144858
  0.1043694363200842  0.7651592591413490  0.7971587940465668
  0.2137546430109296  0.8760610081964018  0.5433131975086738
  0.7848212636344840  0.7548211942861016  0.3000437019422435
  0.8981041373316643  0.8697038870265601  0.0540670862146371
  0.4434542534945791  0.0893746886000883  0.2757061076646394
  0.5841532160147764  0.2054803370952740  0.0263390639551702
  0.4427264818241881  0.4186314664918385  0.3029497309647340
  0.5608202660753179  0.1987662183268242  0.5749554280532649
  0.4389632349869359  0.7592592820097721  0.7980520367792181
  0.5606635787944398  0.8674402230676748  0.5560546337860188
  0.1865928251194120  0.2274619312718258  0.3661530130710631
  0.1175279864044896  0.0970927430388002  0.1079267040534901
  0.8847361993048111  0.2057581154506920  0.8613615951286775
  0.8040133927739106  0.0805136326442550  0.6071932403029479
  0.6051209772424571  0.1655781682455313  0.3959474436720214
  0.4295912217312221  0.0819667933488049  0.0291060717283429
  0.2018210599913886  0.2164966955863719  0.8437071922895640
  0.1079519618416427  0.0926319498042147  0.6068177093024261
  0.8910449949978485  0.2097405135492991  0.3591611099168119
  0.8294846532195450  0.0701228828484233  0.1278545841777898
  0.5571242326698993  0.2061140064670113  0.7948477823722300
  0.4265757095906437  0.0910882917134046  0.6091342265665887
  0.1773553553331695  0.5608845766973616  0.3670610359007185
  0.1093240575260950  0.4296917770290065  0.1026176462205086
  0.8859811107277054  0.5403338766859775  0.8582022658415482
  0.7793834282981393  0.4262052846193427  0.6085644968671247
  0.5748447127356968  0.5510824064722613  0.3645635049755214
  0.4224996417324718  0.4689555254242705  0.0732351430111606
  0.2117301597385151  0.5446696189429900  0.8463245908039099
  0.1033819623895198  0.4318277982755063  0.6077130780314661
  0.8844601488327726  0.5402791768743000  0.3536614104280389
  0.7758513951093562  0.4279550413870297  0.1045256295788022
  0.5597068895517978  0.5360122835855776  0.8480300601775070
  0.4316880470537185  0.4443774254854560  0.5968059556157215
  0.2243038017323613  0.8725150988421007  0.3527508324634852
  0.1125917397512524  0.7602472056696072  0.1049638203146017
  0.8860469968323983  0.8749009897332343  0.8607251736336821
  0.7911504527950441  0.7553916023300218  0.6080565836693026
  0.5748528623724951  0.8390440506791847  0.3724214380156639
  0.4470715005210764  0.7668277617216219  0.1045615075415114
  0.2132512849979946  0.8782916044999141  0.8598765654641198
  0.1098177745190512  0.7653744456568248  0.6095302065385795
  0.8942511269163589  0.8649250247567295  0.3581727910726968
  0.7740305504498579  0.7655494969115182  0.1056440463562183
  0.5662062351035075  0.8583769832777364  0.8369772422498087
  0.4348009644439941  0.7587427742611936  0.6063422637564315
 
  0.00000000E+00  0.00000000E+00  0.00000000E+00
  0.00000000E+00  0.00000000E+00  0.00000000E+00
  0.00000000E+00  0.00000000E+00  0.00000000E+00
  0.00000000E+00  0.00000000E+00  0.00000000E+00
  0.00000000E+00  0.00000000E+00  0.00000000E+00
  0.00000000E+00  0.00000000E+00  0.00000000E+00
  0.00000000E+00  0.00000000E+00  0.00000000E+00
  0.00000000E+00  0.00000000E+00  0.00000000E+00
  0.00000000E+00  0.00000000E+00  0.00000000E+00
  0.00000000E+00  0.00000000E+00  0.00000000E+00
  0.00000000E+00  0.00000000E+00  0.00000000E+00
  0.00000000E+00  0.00000000E+00  0.00000000E+00
  0.00000000E+00  0.00000000E+00  0.00000000E+00
  0.00000000E+00  0.00000000E+00  0.00000000E+00
  0.00000000E+00  0.00000000E+00  0.00000000E+00
  0.00000000E+00  0.00000000E+00  0.00000000E+00
  0.00000000E+00  0.00000000E+00  0.00000000E+00
  0.00000000E+00  0.00000000E+00  0.00000000E+00
  0.00000000E+00  0.00000000E+00  0.00000000E+00
  0.00000000E+00  0.00000000E+00  0.00000000E+00
  0.00000000E+00  0.00000000E+00  0.00000000E+00
  0.00000000E+00  0.00000000E+00  0.00000000E+00
  0.00000000E+00  0.00000000E+00  0.00000000E+00
  0.00000000E+00  0.00000000E+00  0.00000000E+00
  0.00000000E+00  0.00000000E+00  0.00000000E+00
  0.00000000E+00  0.00000000E+00  0.00000000E+00
  0.00000000E+00  0.00000000E+00  0.00000000E+00
  0.00000000E+00  0.00000000E+00  0.00000000E+00
  0.00000000E+00  0.00000000E+00  0.00000000E+00
  0.00000000E+00  0.00000000E+00  0.00000000E+00
  0.00000000E+00  0.00000000E+00  0.00000000E+00
  0.00000000E+00  0.00000000E+00  0.00000000E+00
  0.00000000E+00  0.00000000E+00  0.00000000E+00
  0.00000000E+00  0.00000000E+00  0.00000000E+00
  0.00000000E+00  0.00000000E+00  0.00000000E+00
  0.00000000E+00  0.00000000E+00  0.00000000E+00
  0.00000000E+00  0.00000000E+00  0.00000000E+00
  0.00000000E+00  0.00000000E+00  0.00000000E+00
  0.00000000E+00  0.00000000E+00  0.00000000E+00
  0.00000000E+00  0.00000000E+00  0.00000000E+00
  0.00000000E+00  0.00000000E+00  0.00000000E+00
  0.00000000E+00  0.00000000E+00  0.00000000E+00
  0.00000000E+00  0.00000000E+00  0.00000000E+00
  0.00000000E+00  0.00000000E+00  0.00000000E+00
  0.00000000E+00  0.00000000E+00  0.00000000E+00
  0.00000000E+00  0.00000000E+00  0.00000000E+00
  0.00000000E+00  0.00000000E+00  0.00000000E+00
  0.00000000E+00  0.00000000E+00  0.00000000E+00
  0.00000000E+00  0.00000000E+00  0.00000000E+00
  0.00000000E+00  0.00000000E+00  0.00000000E+00
  0.00000000E+00  0.00000000E+00  0.00000000E+00
  0.00000000E+00  0.00000000E+00  0.00000000E+00
  0.00000000E+00  0.00000000E+00  0.00000000E+00
  0.00000000E+00  0.00000000E+00  0.00000000E+00
  0.00000000E+00  0.00000000E+00  0.00000000E+00
  0.00000000E+00  0.00000000E+00  0.00000000E+00
  0.00000000E+00  0.00000000E+00  0.00000000E+00
  0.00000000E+00  0.00000000E+00  0.00000000E+00
  0.00000000E+00  0.00000000E+00  0.00000000E+00
  0.00000000E+00  0.00000000E+00  0.00000000E+00
  0.00000000E+00  0.00000000E+00  0.00000000E+00
  0.00000000E+00  0.00000000E+00  0.00000000E+00
  0.00000000E+00  0.00000000E+00  0.00000000E+00
  0.00000000E+00  0.00000000E+00  0.00000000E+00
  0.00000000E+00  0.00000000E+00  0.00000000E+00
  0.00000000E+00  0.00000000E+00  0.00000000E+00
  0.00000000E+00  0.00000000E+00  0.00000000E+00
  0.00000000E+00  0.00000000E+00  0.00000000E+00
  0.00000000E+00  0.00000000E+00  0.00000000E+00
  0.00000000E+00  0.00000000E+00  0.00000000E+00
  0.00000000E+00  0.00000000E+00  0.00000000E+00
  0.00000000E+00  0.00000000E+00  0.00000000E+00
