supercell of 100% icsd_608626.cif, 0% i 
   1.00000000000000     
    -9.6443881754260694   -0.0060741726001914   -0.0073664304729522
    -4.8169508714732467    8.3825919306601104   -0.0334634577827242
    -0.0077654679461357    0.0364267114519768  -10.2340314323564598
   Al   Ti   Sr   N 
    30     3     3    36
Direct
  0.1063361076417095  0.0993962361994534  0.3021860898507285
  0.2163044366684090  0.2071259699414512  0.0557711330456456
  0.7770931656572202  0.1038754971759417  0.8013328310946264
  0.8782856104354266  0.2177113555354637  0.5464774318763830
  0.4474627622926945  0.0908587395450198  0.3009079970627937
  0.1087744672147721  0.0993673606403789  0.7852639073166046
  0.2209734461655799  0.2093116992236546  0.5336296309469759
  0.7779047158400729  0.0974717902682443  0.2906834300244867
  0.8898081534110105  0.2157860836877319  0.0478485165514044
  0.4397535377588042  0.0862456938046350  0.7995384162663299
  0.5509988458445179  0.2121468493822078  0.5505295551127318
  0.1123059520922283  0.4278645348343915  0.2982212127168680
  0.2219974842064261  0.5436978455260189  0.0513801882249538
  0.7727521220099831  0.4269747892359987  0.7945917358040475
  0.8842921303076849  0.5338568432504829  0.5351823896658132
  0.4474612989162949  0.4274866220457767  0.2978673434027854
  0.5636333577436687  0.5384836987958934  0.0473709489734304
  0.2297329034273474  0.5293227672304113  0.5304847943666147
  0.7753271114963383  0.4266447563836664  0.2945776688969346
  0.8852321069508164  0.5378393826811916  0.0566991348252017
  0.4446321592654385  0.4352619996871709  0.7962456408674825
  0.5602524228651404  0.5283747508639394  0.5447666339332713
  0.1105838862224431  0.7611663608263157  0.2887636294246576
  0.4517897784391778  0.7553621616115933  0.3024764025096118
  0.5594785593100653  0.8652423923987556  0.0519699619326914
  0.1213230734101600  0.7570464399155412  0.7899962408393435
  0.7761884395153658  0.7634166678041510  0.2835596012532164
  0.8935685161703759  0.8683936630632232  0.0546031541067293
  0.4518682337684581  0.7517378507850907  0.7837272809685558
  0.5539917335802187  0.8687681731454546  0.5458693352549275
  0.5523132937654296  0.2068356671822826  0.0503348205051992
  0.7696444772454640  0.7587005163915421  0.8105654007700593
  0.2260765042981632  0.8688013300610393  0.5656610879764159
  0.1167054621018480  0.4259920091683327  0.7960754019150684
  0.2287600007646802  0.8808227717799255  0.0269482476944560
  0.8769392814533461  0.8773860050064144  0.5461845051160736
  0.2283731135401084  0.2016497390184924  0.3495997173672123
  0.0877757346273569  0.1329356461708713  0.1243159861489858
  0.8928694665233579  0.2077259046293065  0.8581953718779900
  0.7538776618385796  0.1397067934612721  0.6219065761099216
  0.5567269688344254  0.2044055948393861  0.3554165683816066
  0.4459130463834242  0.0874287165169179  0.1107787615438767
  0.2385817344540158  0.1609271933152314  0.8742665450775533
  0.0998072004238324  0.1145875699955639  0.5975249557751852
  0.8830083177661336  0.2073941785964166  0.3590633774590728
  0.7791472805393624  0.0991670458236555  0.0977059324881608
  0.5477896521711187  0.2066333852620232  0.8577210540283247
  0.4428993636175775  0.0920048960442088  0.6071244242037679
  0.2275360652801695  0.5385431055963110  0.3453351801069857
  0.1132581205672594  0.4286928538513806  0.1013816806209320
  0.8521449172465552  0.5490965949660449  0.8735483414534215
  0.7774088874258140  0.4296031501585063  0.6052161857117682
  0.5580085253491447  0.5330892820591870  0.3591276600801265
  0.4485427809657949  0.4293887330670856  0.1085596117852958
  0.2454560584293120  0.5626217193844383  0.8717160008392995
  0.1078042545542175  0.4300890250264544  0.5617188667744841
  0.8824349832546972  0.5436456737318309  0.3445561444425280
  0.7756452644385732  0.4262311710035576  0.1086196596725486
  0.5575380055597279  0.5376317568450020  0.8540642567322436
  0.4399089741161006  0.4273117987219308  0.6056398423238392
  0.2232227838072660  0.8721837281084532  0.3567381731431851
  0.1010949720222953  0.7475746534923360  0.1101476498027623
  0.8962520303104711  0.8760929266035618  0.8517485389140731
  0.7569019492724749  0.7339152026015725  0.6252367936851897
  0.5612386089191830  0.8716739287437960  0.3593089530156064
  0.4845734019670687  0.7387464049551937  0.1220928104145784
  0.2251903255226253  0.8764177690244281  0.7878124208695709
  0.1452219615769934  0.7301270591990274  0.6052663859880312
  0.8847967641371923  0.8766427958686762  0.3169237020804161
  0.7770571788511234  0.7631520732229689  0.0953601638595316
  0.5432886496440901  0.8707866375646276  0.8613445748054502
  0.4581594578057846  0.7473980174515304  0.5966254313232753
 
  0.00000000E+00  0.00000000E+00  0.00000000E+00
  0.00000000E+00  0.00000000E+00  0.00000000E+00
  0.00000000E+00  0.00000000E+00  0.00000000E+00
  0.00000000E+00  0.00000000E+00  0.00000000E+00
  0.00000000E+00  0.00000000E+00  0.00000000E+00
  0.00000000E+00  0.00000000E+00  0.00000000E+00
  0.00000000E+00  0.00000000E+00  0.00000000E+00
  0.00000000E+00  0.00000000E+00  0.00000000E+00
  0.00000000E+00  0.00000000E+00  0.00000000E+00
  0.00000000E+00  0.00000000E+00  0.00000000E+00
  0.00000000E+00  0.00000000E+00  0.00000000E+00
  0.00000000E+00  0.00000000E+00  0.00000000E+00
  0.00000000E+00  0.00000000E+00  0.00000000E+00
  0.00000000E+00  0.00000000E+00  0.00000000E+00
  0.00000000E+00  0.00000000E+00  0.00000000E+00
  0.00000000E+00  0.00000000E+00  0.00000000E+00
  0.00000000E+00  0.00000000E+00  0.00000000E+00
  0.00000000E+00  0.00000000E+00  0.00000000E+00
  0.00000000E+00  0.00000000E+00  0.00000000E+00
  0.00000000E+00  0.00000000E+00  0.00000000E+00
  0.00000000E+00  0.00000000E+00  0.00000000E+00
  0.00000000E+00  0.00000000E+00  0.00000000E+00
  0.00000000E+00  0.00000000E+00  0.00000000E+00
  0.00000000E+00  0.00000000E+00  0.00000000E+00
  0.00000000E+00  0.00000000E+00  0.00000000E+00
  0.00000000E+00  0.00000000E+00  0.00000000E+00
  0.00000000E+00  0.00000000E+00  0.00000000E+00
  0.00000000E+00  0.00000000E+00  0.00000000E+00
  0.00000000E+00  0.00000000E+00  0.00000000E+00
  0.00000000E+00  0.00000000E+00  0.00000000E+00
  0.00000000E+00  0.00000000E+00  0.00000000E+00
  0.00000000E+00  0.00000000E+00  0.00000000E+00
  0.00000000E+00  0.00000000E+00  0.00000000E+00
  0.00000000E+00  0.00000000E+00  0.00000000E+00
  0.00000000E+00  0.00000000E+00  0.00000000E+00
  0.00000000E+00  0.00000000E+00  0.00000000E+00
  0.00000000E+00  0.00000000E+00  0.00000000E+00
  0.00000000E+00  0.00000000E+00  0.00000000E+00
  0.00000000E+00  0.00000000E+00  0.00000000E+00
  0.00000000E+00  0.00000000E+00  0.00000000E+00
  0.00000000E+00  0.00000000E+00  0.00000000E+00
  0.00000000E+00  0.00000000E+00  0.00000000E+00
  0.00000000E+00  0.00000000E+00  0.00000000E+00
  0.00000000E+00  0.00000000E+00  0.00000000E+00
  0.00000000E+00  0.00000000E+00  0.00000000E+00
  0.00000000E+00  0.00000000E+00  0.00000000E+00
  0.00000000E+00  0.00000000E+00  0.00000000E+00
  0.00000000E+00  0.00000000E+00  0.00000000E+00
  0.00000000E+00  0.00000000E+00  0.00000000E+00
  0.00000000E+00  0.00000000E+00  0.00000000E+00
  0.00000000E+00  0.00000000E+00  0.00000000E+00
  0.00000000E+00  0.00000000E+00  0.00000000E+00
  0.00000000E+00  0.00000000E+00  0.00000000E+00
  0.00000000E+00  0.00000000E+00  0.00000000E+00
  0.00000000E+00  0.00000000E+00  0.00000000E+00
  0.00000000E+00  0.00000000E+00  0.00000000E+00
  0.00000000E+00  0.00000000E+00  0.00000000E+00
  0.00000000E+00  0.00000000E+00  0.00000000E+00
  0.00000000E+00  0.00000000E+00  0.00000000E+00
  0.00000000E+00  0.00000000E+00  0.00000000E+00
  0.00000000E+00  0.00000000E+00  0.00000000E+00
  0.00000000E+00  0.00000000E+00  0.00000000E+00
  0.00000000E+00  0.00000000E+00  0.00000000E+00
  0.00000000E+00  0.00000000E+00  0.00000000E+00
  0.00000000E+00  0.00000000E+00  0.00000000E+00
  0.00000000E+00  0.00000000E+00  0.00000000E+00
  0.00000000E+00  0.00000000E+00  0.00000000E+00
  0.00000000E+00  0.00000000E+00  0.00000000E+00
  0.00000000E+00  0.00000000E+00  0.00000000E+00
  0.00000000E+00  0.00000000E+00  0.00000000E+00
  0.00000000E+00  0.00000000E+00  0.00000000E+00
  0.00000000E+00  0.00000000E+00  0.00000000E+00
