supercell of icsd_608626.cif            
   1.00000000000000     
    10.4988673806770532    0.0211157237781819    0.0032780420557380
    -5.2310885763649537    9.0977248282911667   -0.0042070650823576
     0.0026688591696149   -0.0040088386128854    8.9153440742733441
   Sc   Al   N 
    20    16    36
Direct
  0.2215202033982209  0.1071411760233829  0.2240235556016046
  0.1002880063680536  0.2156888250211111  0.4691768545121064
  0.5586000325361127  0.1063067118935521  0.2280996596121554
  0.2155639976738470  0.1084243829420544  0.7213204980731618
  0.4471069116019706  0.2190401412945135  0.9675151753451487
  0.2218411261986617  0.4464676453685996  0.2228357026714818
  0.1105057455869982  0.5598291081772331  0.4766529434191398
  0.7810831383253145  0.5553382548838286  0.9688895533757318
  0.5523588060936007  0.4412860282563358  0.2291183209743650
  0.2160573108265282  0.4400811673560128  0.7219487608048212
  0.1097921125391892  0.5589336213473786  0.9687933305059175
  0.8877206919481608  0.4341448544232662  0.2228572756005249
  0.7818922324378121  0.5562806420451167  0.4751583416082852
  0.5586652573588680  0.4445840930746243  0.7176345864261364
  0.4450474092962580  0.5578203123692234  0.9682562375647663
  0.7838888103035373  0.9006643214026226  0.9655041205073189
  0.5570152503411094  0.7825554620239998  0.2325606731494503
  0.1125838174928475  0.8864933764773042  0.9688308767293847
  0.8941886817093874  0.7864293185019591  0.2294712009343769
  0.4446324261856134  0.8892554778055199  0.9630728104791828
  0.8855671145196169  0.1150906219959751  0.7264607060791946
  0.7835943801533816  0.2187863386758764  0.9787038385945337
  0.4439387643114259  0.2138304735135961  0.4870280977538428
  0.0993709623913546  0.2194346243974081  0.9867245863597063
  0.8797553883222449  0.1066786710189831  0.2442857676838130
  0.7704383637123442  0.2148051164182334  0.4925339795925936
  0.5643867576606354  0.1115312969404272  0.7275328452921102
  0.8863277796124933  0.4377421573072482  0.7279992961139143
  0.4448946017037656  0.5587479167862384  0.4855588467371419
  0.2270517829952681  0.7833100262826562  0.2517084673363499
  0.1162196455016584  0.8940472102925625  0.4848528314576583
  0.8920112569471641  0.7800288703041005  0.7191892106407138
  0.4485074868570962  0.8952432597903623  0.4902677558966104
  0.2197503178762119  0.7789279130161617  0.7171638376028326
  0.7763317539579191  0.8926279185111810  0.4904318590690124
  0.5594586542414035  0.7827684263631483  0.7191635021517158
  0.2300447237903143  0.1062238836024036  0.4699466560717909
  0.0891012451478730  0.2117194514616898  0.2184121101473977
  0.8976654963554793  0.1286522741688998  0.9436378844336559
  0.7772706346877243  0.2225150732564245  0.7080687997648596
  0.5573522288474564  0.1105416918142126  0.4730046442012963
  0.4454487494693780  0.2179935675721723  0.2114290797294558
  0.2107843245988974  0.1186370635591203  0.9670744003438472
  0.0935490483146069  0.2141711007478193  0.7022643357648235
  0.8642685186468100  0.1000016540954505  0.4653187515418935
  0.7839602926059683  0.2096622060328741  0.2014399132563227
  0.5752393508663403  0.1167732144751810  0.9557594807885224
  0.4506353242182186  0.2112034278891031  0.7126407911701946
  0.2341053895917256  0.4519551869680072  0.4696279607622813
  0.1193720819007922  0.5753570113025788  0.2228057742273535
  0.8821874413732758  0.4274841957427213  0.9597794896013951
  0.7924080799342619  0.5617433801717979  0.7159667861140022
  0.5424731204062141  0.4353151243690476  0.4732162973489054
  0.4458782007917463  0.5584326066842209  0.2149504834410791
  0.2116510693522642  0.4295223708609797  0.9687638267167173
  0.1000387936745923  0.5571867978706919  0.7146209758358282
  0.8793583103490903  0.4238752758596647  0.4666043626870291
  0.7800016789975288  0.5570375036084485  0.2229118634060185
  0.5564685667373155  0.4432390796550507  0.9624922762603845
  0.4509887433815720  0.5696651440772129  0.7114144354909158
  0.2332089265284623  0.7962450539746513  0.4770734831944665
  0.1212909694055995  0.8809293813256360  0.2188442977010752
  0.8905306105134372  0.7800303372472968  0.9587323383697210
  0.7786713237644918  0.8909878216861529  0.7100796953083020
  0.5576184629057224  0.7792685931110910  0.4777248813834021
  0.4286204913755824  0.8805735016615728  0.2183843889238162
  0.2242003475958043  0.7786053552343333  0.9332381124170297
  0.1035297525187460  0.8784987465079510  0.7079967106759568
  0.8981285268807895  0.7963098766157231  0.4755290000333829
  0.7848917659424828  0.9045801208311914  0.2127723687532921
  0.5589730205137542  0.7812157504033621  0.9564557095537936
  0.4521274090296856  0.8934814132535394  0.7076917283230770
 
  0.00000000E+00  0.00000000E+00  0.00000000E+00
  0.00000000E+00  0.00000000E+00  0.00000000E+00
  0.00000000E+00  0.00000000E+00  0.00000000E+00
  0.00000000E+00  0.00000000E+00  0.00000000E+00
  0.00000000E+00  0.00000000E+00  0.00000000E+00
  0.00000000E+00  0.00000000E+00  0.00000000E+00
  0.00000000E+00  0.00000000E+00  0.00000000E+00
  0.00000000E+00  0.00000000E+00  0.00000000E+00
  0.00000000E+00  0.00000000E+00  0.00000000E+00
  0.00000000E+00  0.00000000E+00  0.00000000E+00
  0.00000000E+00  0.00000000E+00  0.00000000E+00
  0.00000000E+00  0.00000000E+00  0.00000000E+00
  0.00000000E+00  0.00000000E+00  0.00000000E+00
  0.00000000E+00  0.00000000E+00  0.00000000E+00
  0.00000000E+00  0.00000000E+00  0.00000000E+00
  0.00000000E+00  0.00000000E+00  0.00000000E+00
  0.00000000E+00  0.00000000E+00  0.00000000E+00
  0.00000000E+00  0.00000000E+00  0.00000000E+00
  0.00000000E+00  0.00000000E+00  0.00000000E+00
  0.00000000E+00  0.00000000E+00  0.00000000E+00
  0.00000000E+00  0.00000000E+00  0.00000000E+00
  0.00000000E+00  0.00000000E+00  0.00000000E+00
  0.00000000E+00  0.00000000E+00  0.00000000E+00
  0.00000000E+00  0.00000000E+00  0.00000000E+00
  0.00000000E+00  0.00000000E+00  0.00000000E+00
  0.00000000E+00  0.00000000E+00  0.00000000E+00
  0.00000000E+00  0.00000000E+00  0.00000000E+00
  0.00000000E+00  0.00000000E+00  0.00000000E+00
  0.00000000E+00  0.00000000E+00  0.00000000E+00
  0.00000000E+00  0.00000000E+00  0.00000000E+00
  0.00000000E+00  0.00000000E+00  0.00000000E+00
  0.00000000E+00  0.00000000E+00  0.00000000E+00
  0.00000000E+00  0.00000000E+00  0.00000000E+00
  0.00000000E+00  0.00000000E+00  0.00000000E+00
  0.00000000E+00  0.00000000E+00  0.00000000E+00
  0.00000000E+00  0.00000000E+00  0.00000000E+00
  0.00000000E+00  0.00000000E+00  0.00000000E+00
  0.00000000E+00  0.00000000E+00  0.00000000E+00
  0.00000000E+00  0.00000000E+00  0.00000000E+00
  0.00000000E+00  0.00000000E+00  0.00000000E+00
  0.00000000E+00  0.00000000E+00  0.00000000E+00
  0.00000000E+00  0.00000000E+00  0.00000000E+00
  0.00000000E+00  0.00000000E+00  0.00000000E+00
  0.00000000E+00  0.00000000E+00  0.00000000E+00
  0.00000000E+00  0.00000000E+00  0.00000000E+00
  0.00000000E+00  0.00000000E+00  0.00000000E+00
  0.00000000E+00  0.00000000E+00  0.00000000E+00
  0.00000000E+00  0.00000000E+00  0.00000000E+00
  0.00000000E+00  0.00000000E+00  0.00000000E+00
  0.00000000E+00  0.00000000E+00  0.00000000E+00
  0.00000000E+00  0.00000000E+00  0.00000000E+00
  0.00000000E+00  0.00000000E+00  0.00000000E+00
  0.00000000E+00  0.00000000E+00  0.00000000E+00
  0.00000000E+00  0.00000000E+00  0.00000000E+00
  0.00000000E+00  0.00000000E+00  0.00000000E+00
  0.00000000E+00  0.00000000E+00  0.00000000E+00
  0.00000000E+00  0.00000000E+00  0.00000000E+00
  0.00000000E+00  0.00000000E+00  0.00000000E+00
  0.00000000E+00  0.00000000E+00  0.00000000E+00
  0.00000000E+00  0.00000000E+00  0.00000000E+00
  0.00000000E+00  0.00000000E+00  0.00000000E+00
  0.00000000E+00  0.00000000E+00  0.00000000E+00
  0.00000000E+00  0.00000000E+00  0.00000000E+00
  0.00000000E+00  0.00000000E+00  0.00000000E+00
  0.00000000E+00  0.00000000E+00  0.00000000E+00
  0.00000000E+00  0.00000000E+00  0.00000000E+00
  0.00000000E+00  0.00000000E+00  0.00000000E+00
  0.00000000E+00  0.00000000E+00  0.00000000E+00
  0.00000000E+00  0.00000000E+00  0.00000000E+00
  0.00000000E+00  0.00000000E+00  0.00000000E+00
  0.00000000E+00  0.00000000E+00  0.00000000E+00
  0.00000000E+00  0.00000000E+00  0.00000000E+00
