supercell of icsd_191774.cif            
   1.00000000000000     
    10.8236629971194969    0.0117960082598973   -0.0083235931090063
    -5.4016300203283638    9.3887629803992461   -0.0002231040525778
    -0.0091274614619183   -0.0055404911223004   11.3361722282636350
   N    In   Y 
    36    28     8
Direct
  0.2223158059625732  0.1126690166697983  0.4460318650677308
  0.1101056872700568  0.2214196265144892  0.1917627135882398
  0.8949705870468421  0.1231707719468531  0.9384060015625124
  0.7707675995819727  0.2138640824242160  0.6868078832831515
  0.5586716048876639  0.1176880888063607  0.4367416602565797
  0.4424937735459267  0.2212131207644816  0.1929224760659096
  0.2257465056227232  0.1176310588648946  0.9403295668874279
  0.1061448908064833  0.2289569835996517  0.6871058954915412
  0.8873599468685924  0.1104420826891612  0.4399924039405718
  0.7775848325039547  0.2213031319835821  0.1921093312146454
  0.5558424972100653  0.1115509094835403  0.9438444869154523
  0.4507203205124810  0.2191722925873023  0.6871233569015516
  0.2227478737086841  0.4454985236459095  0.4391102128406246
  0.1113562572982474  0.5548213344660127  0.1918943586778852
  0.8890313731905195  0.4455503959022877  0.9468550652517393
  0.7773027868252953  0.5492756855354557  0.6839639421069634
  0.5540993130390248  0.4450138044323850  0.4411926719959993
  0.4381133020038348  0.5449104364626791  0.1901780015675243
  0.2221014048953975  0.4438037834697823  0.9395587123349927
  0.1192100557240678  0.5610142932538409  0.6874864269484462
  0.8900193069157680  0.4431271723528383  0.4407471043562055
  0.7780047084170008  0.5570153857810496  0.1968650699574042
  0.5581399769644761  0.4444690152789761  0.9465123915120444
  0.4418962386713545  0.5596437344249594  0.6894846692547034
  0.2159776189798990  0.7735496120343583  0.4394458773443475
  0.1097173464777228  0.8895697617623810  0.1993093622421966
  0.8886964987623358  0.7706688704540809  0.9365763571325516
  0.7718115442022153  0.8921065895555955  0.6952073869235775
  0.5573682507816429  0.7755561213505544  0.4403777665780808
  0.4395929204206368  0.8916519061843715  0.1926649141560475
  0.2237772208688611  0.7712778546990720  0.9415421828301547
  0.1187241745089764  0.8868725860778852  0.6898360009291125
  0.8875794581552725  0.7788023182203858  0.4490008246859247
  0.7858350738110715  0.8923793180303008  0.1899870514144553
  0.5489790243308477  0.7722117960647026  0.9470032591081434
  0.4448337608010533  0.8899111755917275  0.6969472181913687
  0.2217917628367729  0.1119587418198336  0.2526111924550491
  0.1086224994010223  0.2252822144475104  0.4965979843340520
  0.8873365449322961  0.1148785795607168  0.7464510817598864
  0.7790428312661959  0.2253004605400335  0.0013476195626652
  0.5553417526037308  0.1134716845865995  0.2463920757245006
  0.4483409017879652  0.2244717289414311  0.4964034392665226
  0.1140471048967342  0.2263995871123186  0.9991811858250372
  0.8901765955428118  0.1111147028921380  0.2489262992204360
  0.7763697946847969  0.2218187465760977  0.4959156821961344
  0.5559548211241108  0.1087849837284338  0.7511388447369569
  0.4448122778621837  0.2240083888713684  0.0018233260462353
  0.2201986601950523  0.4412243456093847  0.2486633917429728
  0.1113595031782708  0.5554461044158714  0.4967794903170244
  0.7788317652412502  0.5561186552808550  0.0041521655169703
  0.5534939355031838  0.4414349960553139  0.2486202139075928
  0.4439550059082862  0.5565911836308217  0.4981426496720758
  0.2227962962179717  0.4482406772888439  0.7473307088579730
  0.1122978771627743  0.5532134635897066  0.0008502036448021
  0.8895038197714484  0.4436485061796631  0.2484732507117613
  0.7767388678225657  0.5525831600273747  0.4942573907826713
  0.4405433126872467  0.5498370904292784  0.9995211763238956
  0.2185851335040141  0.7762292137860811  0.2494514955313321
  0.1117932336837626  0.8874712055056619  0.4967964995540299
  0.2258138201016138  0.7761003435368394  0.7500573599775180
  0.8899742920907272  0.7797231639202522  0.2550792795410288
  0.7749213558562431  0.8903022924106665  0.5009419429999937
  0.5501290452661678  0.7771603352158181  0.7520829170039747
  0.4421845728496763  0.8882318796554074  0.9988216023021081
  0.2242781558766040  0.1149811934235601  0.7399585197285248
  0.8920885806009338  0.4404256230938586  0.7469042919772519
  0.5555916039963833  0.4437364566857482  0.7468935691756471
  0.8891519816923648  0.7745177829250949  0.7372491474141967
  0.7819706501233341  0.8928377246877801  0.9911776942626460
  0.5559189998236320  0.7749369741492842  0.2418712891021784
  0.4441275087302188  0.8904666013421831  0.4979152356454293
  0.1142755936041553  0.8892685667122109  0.0000953136631168
 
  0.00000000E+00  0.00000000E+00  0.00000000E+00
  0.00000000E+00  0.00000000E+00  0.00000000E+00
  0.00000000E+00  0.00000000E+00  0.00000000E+00
  0.00000000E+00  0.00000000E+00  0.00000000E+00
  0.00000000E+00  0.00000000E+00  0.00000000E+00
  0.00000000E+00  0.00000000E+00  0.00000000E+00
  0.00000000E+00  0.00000000E+00  0.00000000E+00
  0.00000000E+00  0.00000000E+00  0.00000000E+00
  0.00000000E+00  0.00000000E+00  0.00000000E+00
  0.00000000E+00  0.00000000E+00  0.00000000E+00
  0.00000000E+00  0.00000000E+00  0.00000000E+00
  0.00000000E+00  0.00000000E+00  0.00000000E+00
  0.00000000E+00  0.00000000E+00  0.00000000E+00
  0.00000000E+00  0.00000000E+00  0.00000000E+00
  0.00000000E+00  0.00000000E+00  0.00000000E+00
  0.00000000E+00  0.00000000E+00  0.00000000E+00
  0.00000000E+00  0.00000000E+00  0.00000000E+00
  0.00000000E+00  0.00000000E+00  0.00000000E+00
  0.00000000E+00  0.00000000E+00  0.00000000E+00
  0.00000000E+00  0.00000000E+00  0.00000000E+00
  0.00000000E+00  0.00000000E+00  0.00000000E+00
  0.00000000E+00  0.00000000E+00  0.00000000E+00
  0.00000000E+00  0.00000000E+00  0.00000000E+00
  0.00000000E+00  0.00000000E+00  0.00000000E+00
  0.00000000E+00  0.00000000E+00  0.00000000E+00
  0.00000000E+00  0.00000000E+00  0.00000000E+00
  0.00000000E+00  0.00000000E+00  0.00000000E+00
  0.00000000E+00  0.00000000E+00  0.00000000E+00
  0.00000000E+00  0.00000000E+00  0.00000000E+00
  0.00000000E+00  0.00000000E+00  0.00000000E+00
  0.00000000E+00  0.00000000E+00  0.00000000E+00
  0.00000000E+00  0.00000000E+00  0.00000000E+00
  0.00000000E+00  0.00000000E+00  0.00000000E+00
  0.00000000E+00  0.00000000E+00  0.00000000E+00
  0.00000000E+00  0.00000000E+00  0.00000000E+00
  0.00000000E+00  0.00000000E+00  0.00000000E+00
  0.00000000E+00  0.00000000E+00  0.00000000E+00
  0.00000000E+00  0.00000000E+00  0.00000000E+00
  0.00000000E+00  0.00000000E+00  0.00000000E+00
  0.00000000E+00  0.00000000E+00  0.00000000E+00
  0.00000000E+00  0.00000000E+00  0.00000000E+00
  0.00000000E+00  0.00000000E+00  0.00000000E+00
  0.00000000E+00  0.00000000E+00  0.00000000E+00
  0.00000000E+00  0.00000000E+00  0.00000000E+00
  0.00000000E+00  0.00000000E+00  0.00000000E+00
  0.00000000E+00  0.00000000E+00  0.00000000E+00
  0.00000000E+00  0.00000000E+00  0.00000000E+00
  0.00000000E+00  0.00000000E+00  0.00000000E+00
  0.00000000E+00  0.00000000E+00  0.00000000E+00
  0.00000000E+00  0.00000000E+00  0.00000000E+00
  0.00000000E+00  0.00000000E+00  0.00000000E+00
  0.00000000E+00  0.00000000E+00  0.00000000E+00
  0.00000000E+00  0.00000000E+00  0.00000000E+00
  0.00000000E+00  0.00000000E+00  0.00000000E+00
  0.00000000E+00  0.00000000E+00  0.00000000E+00
  0.00000000E+00  0.00000000E+00  0.00000000E+00
  0.00000000E+00  0.00000000E+00  0.00000000E+00
  0.00000000E+00  0.00000000E+00  0.00000000E+00
  0.00000000E+00  0.00000000E+00  0.00000000E+00
  0.00000000E+00  0.00000000E+00  0.00000000E+00
  0.00000000E+00  0.00000000E+00  0.00000000E+00
  0.00000000E+00  0.00000000E+00  0.00000000E+00
  0.00000000E+00  0.00000000E+00  0.00000000E+00
  0.00000000E+00  0.00000000E+00  0.00000000E+00
  0.00000000E+00  0.00000000E+00  0.00000000E+00
  0.00000000E+00  0.00000000E+00  0.00000000E+00
  0.00000000E+00  0.00000000E+00  0.00000000E+00
  0.00000000E+00  0.00000000E+00  0.00000000E+00
  0.00000000E+00  0.00000000E+00  0.00000000E+00
  0.00000000E+00  0.00000000E+00  0.00000000E+00
  0.00000000E+00  0.00000000E+00  0.00000000E+00
  0.00000000E+00  0.00000000E+00  0.00000000E+00
