generated by phonopy                    
   1.00000000000000     
    10.0351470768999995   -0.0000022330999784   -0.0000001056124209
    -5.0175765436399997    8.6906901959899994    0.0000001395531216
    -0.0000001735893656    0.0000001431815548   14.9533752540999991
   Pb   P    O    Cu
    20    12    49     1
Direct
  0.0130544665941201  0.7890743551013983  0.1298368746101985
  0.9751358882493335  0.7496459722911055  0.6216625197794770
  0.0500338812257084  0.2124982361518519  0.4126975214234534
  0.9992907736461873  0.2589025566196597  0.8745349305101868
  0.2412953038591326  0.2389159443914366  0.1313592702318473
  0.1466125027338592  0.1624917522026124  0.6624286533204540
  0.7772987058312708  0.7672157087440183  0.3690128550677230
  0.7437324678788357  0.7467841321378188  0.8742384986801284
  0.7817768194870993  0.0076449152816025  0.1266376377577600
  0.7199065772837230  0.9745912712088725  0.6197780133501922
  0.2494472756667037  0.0182085310949915  0.3982592642694840
  0.2536419360187807  0.9964501120612255  0.8734130419584289
  0.6723540546580722  0.3372476005472151  0.0010824477199023
  0.6942228628129854  0.3381809753382257  0.4916090105489346
  0.3245441028026192  0.6725403282409133  0.0066587279704322
  0.2976453289453715  0.6462411439827349  0.4943975508191514
  0.3590022700313611  0.6603999226513366  0.2512977712636157
  0.3301102659437163  0.6628771760212118  0.7420785829019536
  0.6841676957660852  0.3254477614641615  0.2488706577263358
  0.6306768650385095  0.3271190142422995  0.7473827037351484
  0.6407811774860193  0.6098673485184918  0.1139341472267503
  0.5975690018254980  0.5747909719642195  0.6158465851599502
  0.4005749370014300  0.4076671816982582  0.3744740831423385
  0.3719305848061083  0.4119272848167199  0.8786756391654080
  0.4056721074846408  0.0357505397989044  0.1202966936272247
  0.3854485038323574  0.0083216403552058  0.6279703209987417
  0.6216865658092701  0.9712748710278376  0.3734817219077655
  0.6076669944150552  0.9771934269034190  0.8707805033672358
  0.9720644710564557  0.3804048842953023  0.1151537877954638
  0.9633893691486008  0.3735284555611855  0.6321237463055525
  0.0350005118205345  0.6501457126601693  0.3646927752895408
  0.0186387549608966  0.6305904760353727  0.8692874145991425
  0.5163305061445342  0.6589158426539328  0.1111728743781200
  0.5087759882391722  0.6664447795460475  0.6150291830149683
  0.5054643181607048  0.3334083840434658  0.3617329488690402
  0.4619167435172429  0.3230630183964962  0.8753143747973127
  0.3486686900743550  0.8599269764249513  0.1213607170912212
  0.3608025048550729  0.8423719125423617  0.6190877517018194
  0.6623599627517294  0.1423777803155204  0.3727508024907706
  0.6834362024686556  0.1550853867151574  0.8622476797096823
  0.1485444015065127  0.4924709482212464  0.1192358199872672
  0.1341350187250825  0.5074976227796384  0.6278453471857333
  0.8593668637533014  0.5300112821610483  0.3651130850083533
  0.8401781103339729  0.5295475460703827  0.8698436405596084
  0.7467533240539765  0.6662548021211165  0.0289377378656965
  0.7233031760348396  0.6344907403478857  0.5404379634639014
  0.2498957467361294  0.3482140873068076  0.9552670067653821
  0.3497555917918973  0.0852581661476464  0.0351697839855092
  0.2565561067970918  0.0161543461097793  0.5738815638837096
  0.7037253490447242  0.9389923138781882  0.4530401306940632
  0.6864179743825289  0.9351043786547564  0.9474724276761322
  0.9213543417499181  0.2837954856046139  0.0260686600791047
  0.9032761848171305  0.2860227020107402  0.5415936950760312
  0.0878230996290412  0.7256357634486150  0.4602078932950420
  0.0831001461568235  0.7330862894929737  0.9548801134103115
  0.2865003002197071  0.3662556734929723  0.2919022066734627
  0.2881055958111602  0.4017733985664904  0.7892553723703699
  0.7499784627514643  0.6854904646365796  0.1961887683418837
  0.6787836521442969  0.5963557387313330  0.7086762334735326
  0.6797927428347634  0.9261431224435270  0.2870388830080302
  0.6256209033493079  0.8997864743936006  0.7842607221125988
  0.3443030877944366  0.0826106495732404  0.2034011229825907
  0.3783780234727843  0.0487912736898721  0.7279132788354303
  0.0649654968329259  0.7834884763713674  0.2988881029988590
  0.0779822181665182  0.7442162506702559  0.7880275946078186
  0.9183937850068276  0.2641600369626573  0.1943468694969113
  0.9462206226719516  0.2550051812802536  0.7051786559710607
  0.5630460012084981  0.4306072103580547  0.1197821709166291
  0.4851037309314208  0.3989937433484911  0.6008048418166183
  0.5041264302955781  0.5916131442908821  0.3672743573708885
  0.4857530165832316  0.5882587705600315  0.8971560214989154
  0.5867761990324496  0.1293887927840700  0.1200447983568580
  0.5485701439499735  0.1273472614272322  0.5936244486312248
  0.4440354640727762  0.8619782720928626  0.3792088681902683
  0.4305007535698664  0.9031350652541335  0.8914400887845062
  0.8820459470413979  0.4709627999530639  0.1182492937144701
  0.8590341307997633  0.4443074331038090  0.6534544762745114
  0.1306541757595596  0.5721182191086527  0.3417255978681766
  0.0937876509581343  0.5250608864565507  0.8641709307991690
  0.0121762066969922  0.0152280152569375  0.1209200009947224
  0.9204711250632656  0.9398921493253809  0.6375603112824706
  0.2992030385552340  0.3279672628006622  0.5131084999724749
 
  0.00000000E+00  0.00000000E+00  0.00000000E+00
  0.00000000E+00  0.00000000E+00  0.00000000E+00
  0.00000000E+00  0.00000000E+00  0.00000000E+00
  0.00000000E+00  0.00000000E+00  0.00000000E+00
  0.00000000E+00  0.00000000E+00  0.00000000E+00
  0.00000000E+00  0.00000000E+00  0.00000000E+00
  0.00000000E+00  0.00000000E+00  0.00000000E+00
  0.00000000E+00  0.00000000E+00  0.00000000E+00
  0.00000000E+00  0.00000000E+00  0.00000000E+00
  0.00000000E+00  0.00000000E+00  0.00000000E+00
  0.00000000E+00  0.00000000E+00  0.00000000E+00
  0.00000000E+00  0.00000000E+00  0.00000000E+00
  0.00000000E+00  0.00000000E+00  0.00000000E+00
  0.00000000E+00  0.00000000E+00  0.00000000E+00
  0.00000000E+00  0.00000000E+00  0.00000000E+00
  0.00000000E+00  0.00000000E+00  0.00000000E+00
  0.00000000E+00  0.00000000E+00  0.00000000E+00
  0.00000000E+00  0.00000000E+00  0.00000000E+00
  0.00000000E+00  0.00000000E+00  0.00000000E+00
  0.00000000E+00  0.00000000E+00  0.00000000E+00
  0.00000000E+00  0.00000000E+00  0.00000000E+00
  0.00000000E+00  0.00000000E+00  0.00000000E+00
  0.00000000E+00  0.00000000E+00  0.00000000E+00
  0.00000000E+00  0.00000000E+00  0.00000000E+00
  0.00000000E+00  0.00000000E+00  0.00000000E+00
  0.00000000E+00  0.00000000E+00  0.00000000E+00
  0.00000000E+00  0.00000000E+00  0.00000000E+00
  0.00000000E+00  0.00000000E+00  0.00000000E+00
  0.00000000E+00  0.00000000E+00  0.00000000E+00
  0.00000000E+00  0.00000000E+00  0.00000000E+00
  0.00000000E+00  0.00000000E+00  0.00000000E+00
  0.00000000E+00  0.00000000E+00  0.00000000E+00
  0.00000000E+00  0.00000000E+00  0.00000000E+00
  0.00000000E+00  0.00000000E+00  0.00000000E+00
  0.00000000E+00  0.00000000E+00  0.00000000E+00
  0.00000000E+00  0.00000000E+00  0.00000000E+00
  0.00000000E+00  0.00000000E+00  0.00000000E+00
  0.00000000E+00  0.00000000E+00  0.00000000E+00
  0.00000000E+00  0.00000000E+00  0.00000000E+00
  0.00000000E+00  0.00000000E+00  0.00000000E+00
  0.00000000E+00  0.00000000E+00  0.00000000E+00
  0.00000000E+00  0.00000000E+00  0.00000000E+00
  0.00000000E+00  0.00000000E+00  0.00000000E+00
  0.00000000E+00  0.00000000E+00  0.00000000E+00
  0.00000000E+00  0.00000000E+00  0.00000000E+00
  0.00000000E+00  0.00000000E+00  0.00000000E+00
  0.00000000E+00  0.00000000E+00  0.00000000E+00
  0.00000000E+00  0.00000000E+00  0.00000000E+00
  0.00000000E+00  0.00000000E+00  0.00000000E+00
  0.00000000E+00  0.00000000E+00  0.00000000E+00
  0.00000000E+00  0.00000000E+00  0.00000000E+00
  0.00000000E+00  0.00000000E+00  0.00000000E+00
  0.00000000E+00  0.00000000E+00  0.00000000E+00
  0.00000000E+00  0.00000000E+00  0.00000000E+00
  0.00000000E+00  0.00000000E+00  0.00000000E+00
  0.00000000E+00  0.00000000E+00  0.00000000E+00
  0.00000000E+00  0.00000000E+00  0.00000000E+00
  0.00000000E+00  0.00000000E+00  0.00000000E+00
  0.00000000E+00  0.00000000E+00  0.00000000E+00
  0.00000000E+00  0.00000000E+00  0.00000000E+00
  0.00000000E+00  0.00000000E+00  0.00000000E+00
  0.00000000E+00  0.00000000E+00  0.00000000E+00
  0.00000000E+00  0.00000000E+00  0.00000000E+00
  0.00000000E+00  0.00000000E+00  0.00000000E+00
  0.00000000E+00  0.00000000E+00  0.00000000E+00
  0.00000000E+00  0.00000000E+00  0.00000000E+00
  0.00000000E+00  0.00000000E+00  0.00000000E+00
  0.00000000E+00  0.00000000E+00  0.00000000E+00
  0.00000000E+00  0.00000000E+00  0.00000000E+00
  0.00000000E+00  0.00000000E+00  0.00000000E+00
  0.00000000E+00  0.00000000E+00  0.00000000E+00
  0.00000000E+00  0.00000000E+00  0.00000000E+00
  0.00000000E+00  0.00000000E+00  0.00000000E+00
  0.00000000E+00  0.00000000E+00  0.00000000E+00
  0.00000000E+00  0.00000000E+00  0.00000000E+00
  0.00000000E+00  0.00000000E+00  0.00000000E+00
  0.00000000E+00  0.00000000E+00  0.00000000E+00
  0.00000000E+00  0.00000000E+00  0.00000000E+00
  0.00000000E+00  0.00000000E+00  0.00000000E+00
  0.00000000E+00  0.00000000E+00  0.00000000E+00
  0.00000000E+00  0.00000000E+00  0.00000000E+00
  0.00000000E+00  0.00000000E+00  0.00000000E+00
