supercell of supercell of icsd_608626.c 
   1.00600000000000     
    18.8433725412000008    0.0042597715995000    0.0111656436851000
    -6.2786657403800001   10.8752831735999997   -0.0012954496991100
     0.0059525623905900    0.0022414031449000   10.0498800689000003
   Al   Gd   N    O 
    92     4    95     1
Direct
  0.1110685579856394  0.0837201476585960  0.2462023037170269
  0.0510900622390196  0.1608361796114224  0.9909834128940744
  0.4462395322392823  0.3345217680929196  0.7522804829596481
  0.3908810778378324  0.4181203865703083  0.5018370052817431
  0.2788200324139183  0.0861177859394431  0.2603599235992533
  0.2247040055818843  0.1662855653405870  0.0004603525854563
  0.1119234414041586  0.3336377847486034  0.7313787686200683
  0.0560068151058104  0.4145921127635575  0.4972643830608945
  0.4441207185478149  0.0831765894222656  0.2500482061026048
  0.3918574408950590  0.1713589048856221  0.9993757573112418
  0.2833237418735663  0.3315818566427069  0.7514658027156855
  0.2213154694082888  0.4160235987349594  0.5196110563501506
  0.1115571609520742  0.0839199527400964  0.7474728413004854
  0.0558158317892818  0.1698542702619150  0.4973858897784424
  0.4443867474111940  0.3336801845440860  0.2512830809779985
  0.3907763185982276  0.4146347683754499  0.0037725432463560
  0.2797455466870176  0.0869880753953893  0.7451385126331758
  0.2216642657782302  0.1695786113920619  0.5018663988075716
  0.1034440575581854  0.3275198276835170  0.2370714257971613
  0.0535849965660375  0.4169946507280855  0.9913668238105231
  0.4443630928034423  0.0824862628570315  0.7508255350719963
  0.3903688661231328  0.1683750564127351  0.5016220346268270
  0.2767875594224734  0.3333132265072578  0.2609327377557307
  0.6120385678428377  0.0843230959060790  0.2486033695370296
  0.5515556648193183  0.1618655902985040  0.9990441644867474
  0.9447827579935222  0.3343460851657980  0.7471584162361751
  0.8890995567788025  0.4182261509444629  0.4998104088627002
  0.7799472454192937  0.0868863908695232  0.2579492950092614
  0.7254406069098209  0.1687686633064445  0.9980563669619613
  0.6075082225620179  0.3302003505924560  0.7438264795595160
  0.5551660422836235  0.4178456227845615  0.5006415339378805
  0.9447127360970669  0.0833064935642014  0.2501770268442343
  0.8928582551595170  0.1725564505425297  0.9970312558785821
  0.7794511895113772  0.3319158314852615  0.7439154358416005
  0.7220475684613064  0.4170935257624038  0.4992550118284740
  0.6118830760996588  0.0842321159644825  0.7498055753488302
  0.5545366753267302  0.1645206447710592  0.5003056221758513
  0.9453154439009239  0.3347001801295946  0.2503281828591426
  0.8898283061552092  0.4143660960482478  0.9983916522476406
  0.7803274479536597  0.0881829335426616  0.7440353412369376
  0.7217966402997931  0.1666721530511310  0.5006405793616011
  0.6093390257183557  0.3321780749249186  0.2591739719668524
  0.5540204751319351  0.4164491433129527  0.0004492663221001
  0.9436068069513226  0.0820649797795951  0.7468283947650889
  0.8907389569717239  0.1687893005022119  0.4977869990220540
  0.7790611032382202  0.3331036144320763  0.2582635095864205
  0.1111664884748294  0.5833031630334347  0.2459471023793540
  0.0510383536856125  0.6614681747833089  0.9972546700573730
  0.4463709902313795  0.8364005569330217  0.7520066989335916
  0.3898443489157088  0.9168840475090292  0.5010700490243067
  0.2771679934282503  0.5823038137793617  0.2603693585194762
  0.2248849323667557  0.6702352197988546  0.0002059039946261
  0.1066790421423249  0.8297922498250898  0.7418124398578598
  0.0549240059452671  0.9192588399545443  0.4984688985556005
  0.4443658543463727  0.5835570594182258  0.2517190839527572
  0.3930737748421720  0.6737457979760819  0.0022577787544407
  0.2792852614657946  0.8319386617108151  0.7446991379717502
  0.2221388911660895  0.9165765201407652  0.4994870978995607
  0.1116452270576715  0.5832750960584931  0.7473646071366176
  0.0545902966670013  0.6630890424365248  0.4984550000879295
  0.4445808851544939  0.8335125976306585  0.2511546557583060
  0.3896211164672181  0.9150561617776489  0.0005555457133681
  0.2838654352229426  0.5935904739719291  0.7514521226415809
  0.2216744532947956  0.6627296818696706  0.5015909884955434
  0.1091567725440115  0.8317930310567121  0.2596063994218696
  0.0533381150462873  0.9163043081682360  0.9979044706385594
  0.4447349326273127  0.5829316928411288  0.7519363821027483
  0.3915706799075167  0.6690944104969745  0.5020544536073501
  0.2785766365303601  0.8319699118688746  0.2606002922876414
  0.6115634542253900  0.5839848006793247  0.2488713544244092
  0.5512616626723812  0.6619260120901274  0.9995392059541501
  0.9453303458411568  0.8348782726176793  0.7494969759856147
  0.8891081375721228  0.9155034124651067  0.5000199922217448
  0.7791445824395211  0.5862800826364136  0.2579693594070420
  0.7248095637942740  0.6683606219615754  0.9982486257828569
  0.6074583347394622  0.8306152810200516  0.7439695020995174
  0.5556749835290731  0.9187838258248746  0.5004283255020852
  0.9441406568289707  0.5831824745630314  0.2478820021202353
  0.8920183842292744  0.6721161188029896  0.9973521826195437
  0.7792939876543770  0.8312770876914328  0.7444595503732003
  0.7226377251723477  0.9171128917337867  0.4995980338864925
  0.6114012469066665  0.5833370681385261  0.7500960737350439
  0.5554279953450560  0.6652340160261900  0.5011323592017263
  0.9445458509851861  0.8338794143410979  0.2483364249530524
  0.8896448588922183  0.9150991794109729  0.9985792477700812
  0.7801169606443992  0.5878265734934232  0.7439262777367404
  0.7213607572292347  0.6657518908677034  0.5009877514296051
  0.6097467952225486  0.8325167037264336  0.2594881023499340
  0.5541207153893595  0.9175545082982950  0.0003266025125654
  0.9443901076433718  0.5825516552010441  0.7490877490551711
  0.8909144217294980  0.6688306224272651  0.4996704692654461
  0.7789923609030680  0.8327943894581722  0.2584074159056655
  0.2217708200655508  0.4164800402449842  0.9897826014689102
  0.7201097665838390  0.4151668655695957  0.9992344786340439
  0.2179263682752079  0.9135500186157870  0.0015448778884704
  0.7198976958005048  0.9154981039745422  0.9993068415245219
  0.1114299951416342  0.0859025724787799  0.4363056922567665
  0.0540126103456089  0.1615934370297438  0.1801340060856091
  0.4467480474146797  0.3367865785245812  0.9425150574226535
  0.3926132797984252  0.4181005877462383  0.6904848295302060
  0.2788221611235357  0.0866522115796826  0.4488836624223822
  0.2231017096472527  0.1669735144061519  0.1925858439774188
  0.0939099402975216  0.3194354805041897  0.9237932516991378
  0.0541932158030463  0.4184378805164641  0.6865210673167255
  0.4439918262528337  0.0829183420223174  0.4399622361371058
  0.3886531794320547  0.1668762185403949  0.1916474575437874
  0.2873281842197741  0.3224764298418918  0.9361165860118632
  0.2314999120587444  0.4236607717199377  0.7202939047588615
  0.1129545192847843  0.0834692244928021  0.9388062619613393
  0.0535008164244246  0.1620060294128152  0.6872498847864321
  0.4453394635506314  0.3338739054008997  0.4404693298522631
  0.3879717242846397  0.4165932699832027  0.1944991402790990
  0.2864658895535683  0.1006733108898672  0.9311897045860533
  0.2220475475867261  0.1669278592686823  0.6890542107025865
  0.0546289982542874  0.4199269093103553  0.1802711353542108
  0.4418447305846485  0.0794815738846850  0.9417285106296163
  0.3915485395544351  0.1687326111802889  0.6905080951066296
  0.2808811339922173  0.3354598546464302  0.4489862759033940
  0.2175217962156850  0.4131652467763800  0.2175788844096544
  0.6115373579813053  0.0843359038868172  0.4385616186231545
  0.5558835565582783  0.1675213927705812  0.1906902867862641
  0.9454655111301875  0.3366448543382674  0.9366956878670507
  0.8897128412426909  0.4181599482487428  0.6878292951102267
  0.7786917519127670  0.0858734112603656  0.4463953799010483
  0.7237088859033705  0.1679095881837398  0.1906857623816478
  0.5934913016607766  0.3191253336976629  0.9291273359381407
  0.5557313222153937  0.4185183694786758  0.6889394694003670
  0.9413308724731664  0.0774786988072833  0.4400227225446613
  0.8896899406084344  0.1676567317446569  0.1894780410669625
  0.7850916196688473  0.3256185201863318  0.9293383577630365
  0.7219019533507307  0.4165950253942157  0.6948838808761337
  0.6129340730200994  0.0851465107782303  0.9417195440652932
  0.5546948709415531  0.1636612936456245  0.6889802481513598
  0.9419782267000656  0.3357616553435889  0.4398220625281866
  0.8881851072926565  0.4164919116648633  0.1897022817241520
  0.7870095063832068  0.1034271491684819  0.9298611118562974
  0.7213107653185773  0.1659709316810805  0.6877668582421563
  0.6091004460168037  0.3318891405674194  0.4476490600999412
  0.5561048969446603  0.4167703113683601  0.1916653699145385
  0.9404852554201568  0.0783827766195486  0.9372430918861241
  0.8908883194413022  0.1685907736931753  0.6867832709047121
  0.7778500910418984  0.3329258807193725  0.4465690253339005
  0.7220940927409174  0.4170527331721630  0.2207115470822032
  0.1114122945528848  0.5817221541602038  0.4360936591723501
  0.0559092013474896  0.6682113779963998  0.1891451900897465
  0.4468724047217663  0.8384635588391589  0.9423006789583113
  0.3905261597458605  0.9177407288806450  0.6894837649492800
  0.2814691613173181  0.5864242099721793  0.4487636299252173
  0.2231850483867603  0.6677016782114436  0.1922961940588408
  0.0920505826647755  0.8181148081238661  0.9267946394218214
  0.0551666026553050  0.9188095565031134  0.6864469782700979
  0.4455856000973810  0.5841186570658863  0.4412352957633559
  0.3884681575244073  0.6661806376580941  0.1933892289340733
  0.2850332369835087  0.8278690696402222  0.9307765858623114
  0.2215492684755560  0.9161371106926950  0.6948299502476942
  0.1130006451256094  0.5862143767016690  0.9386947712314466
  0.0546320425142710  0.6632220115487897  0.6868342849929618
  0.4456842577109370  0.8351214902137940  0.4403933471183237
  0.3882574966309988  0.9161331884993302  0.1923984345883127
  0.2887746484517066  0.6094162929200806  0.9361063494689645
  0.2220559049628648  0.6655476547542349  0.6888885632472821
  0.1089108809402930  0.8316639730345869  0.4475788866052355
  0.0563788234970772  0.9160874842377282  0.1897476971004224
  0.4410801485201361  0.5789350328864202  0.9431768349839373
  0.3937269689495437  0.6716396621957301  0.6911648386111580
  0.2784210402911569  0.8312115360383885  0.4487378047385064
  0.2223483971733557  0.9168276940010713  0.2234073595534696
  0.6113274141257250  0.5834827452994986  0.4389448228189607
  0.5558805418566166  0.6677346211664528  0.1910983905410362
  0.9459388962947202  0.8371301898729868  0.9396635893602223
  0.8895450168714092  0.9158011917604156  0.6880123449284170
  0.7792601493951778  0.5862587065030382  0.4468007811280330
  0.7231391763264270  0.6674400136666137  0.1909668277967000
  0.5930608373996336  0.8191674318319713  0.9293744222540425
  0.5559695237313846  0.9197038587763942  0.6887962505089646
  0.9441681211314901  0.5837336785097307  0.4377399118533845
  0.8887344028796207  0.6669197730150529  0.1892959032994526
  0.7846929574649977  0.8253431162658345  0.9300633790076276
  0.7221309313674880  0.9166410068252233  0.6954536698662750
  0.6121644815448590  0.5842356351207911  0.9419708652565220
  0.5551307209629144  0.6639919602057560  0.6897554175040597
  0.9447211216849425  0.8336482381443844  0.4378717775341201
  0.8881212831054341  0.9160284144005715  0.1899590949189047
  0.7865166593271127  0.6031222101008709  0.9295345424315968
  0.7209065047493084  0.6652173968318280  0.6880336359014692
  0.6096183653425484  0.8323279694977970  0.4480253306409665
  0.5564342479938276  0.9169640853784315  0.1916575359927606
  0.9412036152825465  0.5789549015466093  0.9399891130701548
  0.8915478691128484  0.6689248836098685  0.6884540435995277
  0.7778013895078359  0.8310708193733021  0.4467118351039119
  0.7225843617861543  0.9173144404461908  0.2208146352376232
  0.0631191195593246  0.2975124715241009  0.3988770186565347
 
  0.00000000E+00  0.00000000E+00  0.00000000E+00
  0.00000000E+00  0.00000000E+00  0.00000000E+00
  0.00000000E+00  0.00000000E+00  0.00000000E+00
  0.00000000E+00  0.00000000E+00  0.00000000E+00
  0.00000000E+00  0.00000000E+00  0.00000000E+00
  0.00000000E+00  0.00000000E+00  0.00000000E+00
  0.00000000E+00  0.00000000E+00  0.00000000E+00
  0.00000000E+00  0.00000000E+00  0.00000000E+00
  0.00000000E+00  0.00000000E+00  0.00000000E+00
  0.00000000E+00  0.00000000E+00  0.00000000E+00
  0.00000000E+00  0.00000000E+00  0.00000000E+00
  0.00000000E+00  0.00000000E+00  0.00000000E+00
  0.00000000E+00  0.00000000E+00  0.00000000E+00
  0.00000000E+00  0.00000000E+00  0.00000000E+00
  0.00000000E+00  0.00000000E+00  0.00000000E+00
  0.00000000E+00  0.00000000E+00  0.00000000E+00
  0.00000000E+00  0.00000000E+00  0.00000000E+00
  0.00000000E+00  0.00000000E+00  0.00000000E+00
  0.00000000E+00  0.00000000E+00  0.00000000E+00
  0.00000000E+00  0.00000000E+00  0.00000000E+00
  0.00000000E+00  0.00000000E+00  0.00000000E+00
  0.00000000E+00  0.00000000E+00  0.00000000E+00
  0.00000000E+00  0.00000000E+00  0.00000000E+00
  0.00000000E+00  0.00000000E+00  0.00000000E+00
  0.00000000E+00  0.00000000E+00  0.00000000E+00
  0.00000000E+00  0.00000000E+00  0.00000000E+00
  0.00000000E+00  0.00000000E+00  0.00000000E+00
  0.00000000E+00  0.00000000E+00  0.00000000E+00
  0.00000000E+00  0.00000000E+00  0.00000000E+00
  0.00000000E+00  0.00000000E+00  0.00000000E+00
  0.00000000E+00  0.00000000E+00  0.00000000E+00
  0.00000000E+00  0.00000000E+00  0.00000000E+00
  0.00000000E+00  0.00000000E+00  0.00000000E+00
  0.00000000E+00  0.00000000E+00  0.00000000E+00
  0.00000000E+00  0.00000000E+00  0.00000000E+00
  0.00000000E+00  0.00000000E+00  0.00000000E+00
  0.00000000E+00  0.00000000E+00  0.00000000E+00
  0.00000000E+00  0.00000000E+00  0.00000000E+00
  0.00000000E+00  0.00000000E+00  0.00000000E+00
  0.00000000E+00  0.00000000E+00  0.00000000E+00
  0.00000000E+00  0.00000000E+00  0.00000000E+00
  0.00000000E+00  0.00000000E+00  0.00000000E+00
  0.00000000E+00  0.00000000E+00  0.00000000E+00
  0.00000000E+00  0.00000000E+00  0.00000000E+00
  0.00000000E+00  0.00000000E+00  0.00000000E+00
  0.00000000E+00  0.00000000E+00  0.00000000E+00
  0.00000000E+00  0.00000000E+00  0.00000000E+00
  0.00000000E+00  0.00000000E+00  0.00000000E+00
  0.00000000E+00  0.00000000E+00  0.00000000E+00
  0.00000000E+00  0.00000000E+00  0.00000000E+00
  0.00000000E+00  0.00000000E+00  0.00000000E+00
  0.00000000E+00  0.00000000E+00  0.00000000E+00
  0.00000000E+00  0.00000000E+00  0.00000000E+00
  0.00000000E+00  0.00000000E+00  0.00000000E+00
  0.00000000E+00  0.00000000E+00  0.00000000E+00
  0.00000000E+00  0.00000000E+00  0.00000000E+00
  0.00000000E+00  0.00000000E+00  0.00000000E+00
  0.00000000E+00  0.00000000E+00  0.00000000E+00
  0.00000000E+00  0.00000000E+00  0.00000000E+00
  0.00000000E+00  0.00000000E+00  0.00000000E+00
  0.00000000E+00  0.00000000E+00  0.00000000E+00
  0.00000000E+00  0.00000000E+00  0.00000000E+00
  0.00000000E+00  0.00000000E+00  0.00000000E+00
  0.00000000E+00  0.00000000E+00  0.00000000E+00
  0.00000000E+00  0.00000000E+00  0.00000000E+00
  0.00000000E+00  0.00000000E+00  0.00000000E+00
  0.00000000E+00  0.00000000E+00  0.00000000E+00
  0.00000000E+00  0.00000000E+00  0.00000000E+00
  0.00000000E+00  0.00000000E+00  0.00000000E+00
  0.00000000E+00  0.00000000E+00  0.00000000E+00
  0.00000000E+00  0.00000000E+00  0.00000000E+00
  0.00000000E+00  0.00000000E+00  0.00000000E+00
  0.00000000E+00  0.00000000E+00  0.00000000E+00
  0.00000000E+00  0.00000000E+00  0.00000000E+00
  0.00000000E+00  0.00000000E+00  0.00000000E+00
  0.00000000E+00  0.00000000E+00  0.00000000E+00
  0.00000000E+00  0.00000000E+00  0.00000000E+00
  0.00000000E+00  0.00000000E+00  0.00000000E+00
  0.00000000E+00  0.00000000E+00  0.00000000E+00
  0.00000000E+00  0.00000000E+00  0.00000000E+00
  0.00000000E+00  0.00000000E+00  0.00000000E+00
  0.00000000E+00  0.00000000E+00  0.00000000E+00
  0.00000000E+00  0.00000000E+00  0.00000000E+00
  0.00000000E+00  0.00000000E+00  0.00000000E+00
  0.00000000E+00  0.00000000E+00  0.00000000E+00
  0.00000000E+00  0.00000000E+00  0.00000000E+00
  0.00000000E+00  0.00000000E+00  0.00000000E+00
  0.00000000E+00  0.00000000E+00  0.00000000E+00
  0.00000000E+00  0.00000000E+00  0.00000000E+00
  0.00000000E+00  0.00000000E+00  0.00000000E+00
  0.00000000E+00  0.00000000E+00  0.00000000E+00
  0.00000000E+00  0.00000000E+00  0.00000000E+00
  0.00000000E+00  0.00000000E+00  0.00000000E+00
  0.00000000E+00  0.00000000E+00  0.00000000E+00
  0.00000000E+00  0.00000000E+00  0.00000000E+00
  0.00000000E+00  0.00000000E+00  0.00000000E+00
  0.00000000E+00  0.00000000E+00  0.00000000E+00
  0.00000000E+00  0.00000000E+00  0.00000000E+00
  0.00000000E+00  0.00000000E+00  0.00000000E+00
  0.00000000E+00  0.00000000E+00  0.00000000E+00
  0.00000000E+00  0.00000000E+00  0.00000000E+00
  0.00000000E+00  0.00000000E+00  0.00000000E+00
  0.00000000E+00  0.00000000E+00  0.00000000E+00
  0.00000000E+00  0.00000000E+00  0.00000000E+00
  0.00000000E+00  0.00000000E+00  0.00000000E+00
  0.00000000E+00  0.00000000E+00  0.00000000E+00
  0.00000000E+00  0.00000000E+00  0.00000000E+00
  0.00000000E+00  0.00000000E+00  0.00000000E+00
  0.00000000E+00  0.00000000E+00  0.00000000E+00
  0.00000000E+00  0.00000000E+00  0.00000000E+00
  0.00000000E+00  0.00000000E+00  0.00000000E+00
  0.00000000E+00  0.00000000E+00  0.00000000E+00
  0.00000000E+00  0.00000000E+00  0.00000000E+00
  0.00000000E+00  0.00000000E+00  0.00000000E+00
  0.00000000E+00  0.00000000E+00  0.00000000E+00
  0.00000000E+00  0.00000000E+00  0.00000000E+00
  0.00000000E+00  0.00000000E+00  0.00000000E+00
  0.00000000E+00  0.00000000E+00  0.00000000E+00
  0.00000000E+00  0.00000000E+00  0.00000000E+00
  0.00000000E+00  0.00000000E+00  0.00000000E+00
  0.00000000E+00  0.00000000E+00  0.00000000E+00
  0.00000000E+00  0.00000000E+00  0.00000000E+00
  0.00000000E+00  0.00000000E+00  0.00000000E+00
  0.00000000E+00  0.00000000E+00  0.00000000E+00
  0.00000000E+00  0.00000000E+00  0.00000000E+00
  0.00000000E+00  0.00000000E+00  0.00000000E+00
  0.00000000E+00  0.00000000E+00  0.00000000E+00
  0.00000000E+00  0.00000000E+00  0.00000000E+00
  0.00000000E+00  0.00000000E+00  0.00000000E+00
  0.00000000E+00  0.00000000E+00  0.00000000E+00
  0.00000000E+00  0.00000000E+00  0.00000000E+00
  0.00000000E+00  0.00000000E+00  0.00000000E+00
  0.00000000E+00  0.00000000E+00  0.00000000E+00
  0.00000000E+00  0.00000000E+00  0.00000000E+00
  0.00000000E+00  0.00000000E+00  0.00000000E+00
  0.00000000E+00  0.00000000E+00  0.00000000E+00
  0.00000000E+00  0.00000000E+00  0.00000000E+00
  0.00000000E+00  0.00000000E+00  0.00000000E+00
  0.00000000E+00  0.00000000E+00  0.00000000E+00
  0.00000000E+00  0.00000000E+00  0.00000000E+00
  0.00000000E+00  0.00000000E+00  0.00000000E+00
  0.00000000E+00  0.00000000E+00  0.00000000E+00
  0.00000000E+00  0.00000000E+00  0.00000000E+00
  0.00000000E+00  0.00000000E+00  0.00000000E+00
  0.00000000E+00  0.00000000E+00  0.00000000E+00
  0.00000000E+00  0.00000000E+00  0.00000000E+00
  0.00000000E+00  0.00000000E+00  0.00000000E+00
  0.00000000E+00  0.00000000E+00  0.00000000E+00
  0.00000000E+00  0.00000000E+00  0.00000000E+00
  0.00000000E+00  0.00000000E+00  0.00000000E+00
  0.00000000E+00  0.00000000E+00  0.00000000E+00
  0.00000000E+00  0.00000000E+00  0.00000000E+00
  0.00000000E+00  0.00000000E+00  0.00000000E+00
  0.00000000E+00  0.00000000E+00  0.00000000E+00
  0.00000000E+00  0.00000000E+00  0.00000000E+00
  0.00000000E+00  0.00000000E+00  0.00000000E+00
  0.00000000E+00  0.00000000E+00  0.00000000E+00
  0.00000000E+00  0.00000000E+00  0.00000000E+00
  0.00000000E+00  0.00000000E+00  0.00000000E+00
  0.00000000E+00  0.00000000E+00  0.00000000E+00
  0.00000000E+00  0.00000000E+00  0.00000000E+00
  0.00000000E+00  0.00000000E+00  0.00000000E+00
  0.00000000E+00  0.00000000E+00  0.00000000E+00
  0.00000000E+00  0.00000000E+00  0.00000000E+00
  0.00000000E+00  0.00000000E+00  0.00000000E+00
  0.00000000E+00  0.00000000E+00  0.00000000E+00
  0.00000000E+00  0.00000000E+00  0.00000000E+00
  0.00000000E+00  0.00000000E+00  0.00000000E+00
  0.00000000E+00  0.00000000E+00  0.00000000E+00
  0.00000000E+00  0.00000000E+00  0.00000000E+00
  0.00000000E+00  0.00000000E+00  0.00000000E+00
  0.00000000E+00  0.00000000E+00  0.00000000E+00
  0.00000000E+00  0.00000000E+00  0.00000000E+00
  0.00000000E+00  0.00000000E+00  0.00000000E+00
  0.00000000E+00  0.00000000E+00  0.00000000E+00
  0.00000000E+00  0.00000000E+00  0.00000000E+00
  0.00000000E+00  0.00000000E+00  0.00000000E+00
  0.00000000E+00  0.00000000E+00  0.00000000E+00
  0.00000000E+00  0.00000000E+00  0.00000000E+00
  0.00000000E+00  0.00000000E+00  0.00000000E+00
  0.00000000E+00  0.00000000E+00  0.00000000E+00
  0.00000000E+00  0.00000000E+00  0.00000000E+00
  0.00000000E+00  0.00000000E+00  0.00000000E+00
  0.00000000E+00  0.00000000E+00  0.00000000E+00
  0.00000000E+00  0.00000000E+00  0.00000000E+00
  0.00000000E+00  0.00000000E+00  0.00000000E+00
  0.00000000E+00  0.00000000E+00  0.00000000E+00
  0.00000000E+00  0.00000000E+00  0.00000000E+00
  0.00000000E+00  0.00000000E+00  0.00000000E+00
  0.00000000E+00  0.00000000E+00  0.00000000E+00
  0.00000000E+00  0.00000000E+00  0.00000000E+00
  0.00000000E+00  0.00000000E+00  0.00000000E+00
