supercell of icsd_608626.cif            
   1.00000000000000     
     9.9917437501200244   -0.0402587727640929    0.0045797972219189
    -5.0306962150678594    8.7189945323753335   -0.0034092063553930
     0.0045731926471851   -0.0011879076599920    9.8224815829857679
   Al   Sc   N 
    20    16    36
Direct
  0.2291008997808817  0.1070250278929450  0.2553872354672819
  0.7742709006627280  0.2301164195016554  0.9984916099909640
  0.5597500403317994  0.1231685615017710  0.2457161892695581
  0.4531498674100831  0.2245127370292792  0.4926445199438447
  0.8848337539426794  0.1169146065387707  0.2529905690993886
  0.7750917075746813  0.2350100790287328  0.4954906457589061
  0.5586872221950898  0.1206365944473120  0.7490528951508182
  0.4505671331542729  0.2304736656976019  0.0013306793902998
  0.1066768133679190  0.5550086075283360  0.5014269736816033
  0.8809621898635172  0.4391166502317745  0.7449494326519428
  0.7653894087648894  0.5382008424195561  0.0037858930224317
  0.5524019475209556  0.4339530333557420  0.2516758228301583
  0.4380790295286729  0.5515704308232614  0.4959096987660345
  0.2223382549636526  0.4471130946545685  0.7481123709664459
  0.8858142299121070  0.4410023453007454  0.2489875772510430
  0.7802921585926015  0.5476561550496228  0.4912080097145122
  0.4501634719354541  0.5477162061681113  0.0001914363436839
  0.2171346553038518  0.7783247406047522  0.2540998696712577
  0.1116869649809544  0.8775711895078118  0.4961415138823781
  0.2259647522752317  0.7774375974033489  0.7404931992809622
  0.1165550862583089  0.2302135672570031  0.4794610206424466
  0.8848959484229297  0.1213601030006473  0.7320686888806733
  0.2289217637875396  0.1110144009736445  0.7267544554310561
  0.1149117300699558  0.2220464862956675  0.9938682806025980
  0.2201579293817133  0.4506050590095967  0.2352465154094929
  0.1033614291907909  0.5555840773856531  0.9790251338222618
  0.5546628927841084  0.4396329044035596  0.7345558934686593
  0.8904205426791449  0.7631930376835498  0.7421552513614955
  0.7798703221181995  0.8916507018987474  0.9925158107444503
  0.5508378224325199  0.7727430223673366  0.2391996646760717
  0.4443842120856871  0.8999494146744382  0.4839208189619413
  0.1211682531379239  0.8931913482555061  0.9920461527292446
  0.8920926881632525  0.7672348268236462  0.2358620159070384
  0.7805448707452669  0.8857827016787141  0.4848826236140269
  0.5455887362312097  0.7718941498773333  0.7399273821381556
  0.4477243873508101  0.8992931746578137  0.9933546802043693
  0.2320981789967007  0.0985026293281592  0.4528880884331343
  0.1066132837479614  0.2076612292111264  0.2186055951496897
  0.8804981675564463  0.1250193429467217  0.9454121828422331
  0.7663044969988064  0.2334707601311266  0.6871741538587202
  0.5692318287761111  0.1366932798386742  0.4348421876233530
  0.4433211895909821  0.2219217840007985  0.1971407776989906
  0.2420480940816390  0.1221505632577760  0.9407185783601051
  0.1194609596486416  0.2396007050456817  0.6964664927867616
  0.8773305791430275  0.1235714641321408  0.4506328017604559
  0.7805020211299194  0.2257221192312286  0.1933582876928384
  0.5636201169071811  0.1336054209479158  0.9444068248334361
  0.4560968151155365  0.2161642884841086  0.6818287227517246
  0.2266304762342699  0.4646054019233858  0.4444320282995164
  0.0989989616536349  0.5687812815719511  0.1924702587426310
  0.8664587259879468  0.4352348766257279  0.9373834601317270
  0.7835293657368254  0.5421190962752362  0.6811847612216440
  0.5520333396681139  0.4431646049422113  0.4488249672093048
  0.4528484561823021  0.5411571189927429  0.1929340927210319
  0.2379086120567493  0.4520284097358456  0.9489104206363663
  0.1084806500742062  0.5527117152539418  0.7028992419111049
  0.8921031049634820  0.4450684281112416  0.4423351187120517
  0.7629743851608239  0.5269012381402618  0.1976756919525116
  0.5547236502323898  0.4421058330076946  0.9495574571348655
  0.4265930478152740  0.5447701887011007  0.6873189027908211
  0.2067427852455666  0.7645014300014381  0.4470209859842242
  0.1298982295388242  0.8986514681016615  0.2032742989406557
  0.8810061539989604  0.7556391511626543  0.9647295304961858
  0.7799108758142808  0.8853261304536275  0.7030730124150182
  0.5458568080364614  0.7635666592090473  0.4545907281935087
  0.4376829051267279  0.9007220944861842  0.2133454257606360
  0.2270596532113984  0.7802304268814169  0.9306013035892846
  0.1185190279068067  0.8766835202088217  0.6907456192674246
  0.8962881746446101  0.7639523289460541  0.4512913004767185
  0.7879266374364846  0.9038018778335868  0.2123859652810367
  0.5465949271585657  0.7621844474340591  0.9617411273871141
  0.4436512975209936  0.9040911245161212  0.7028690762256673
 
  0.00000000E+00  0.00000000E+00  0.00000000E+00
  0.00000000E+00  0.00000000E+00  0.00000000E+00
  0.00000000E+00  0.00000000E+00  0.00000000E+00
  0.00000000E+00  0.00000000E+00  0.00000000E+00
  0.00000000E+00  0.00000000E+00  0.00000000E+00
  0.00000000E+00  0.00000000E+00  0.00000000E+00
  0.00000000E+00  0.00000000E+00  0.00000000E+00
  0.00000000E+00  0.00000000E+00  0.00000000E+00
  0.00000000E+00  0.00000000E+00  0.00000000E+00
  0.00000000E+00  0.00000000E+00  0.00000000E+00
  0.00000000E+00  0.00000000E+00  0.00000000E+00
  0.00000000E+00  0.00000000E+00  0.00000000E+00
  0.00000000E+00  0.00000000E+00  0.00000000E+00
  0.00000000E+00  0.00000000E+00  0.00000000E+00
  0.00000000E+00  0.00000000E+00  0.00000000E+00
  0.00000000E+00  0.00000000E+00  0.00000000E+00
  0.00000000E+00  0.00000000E+00  0.00000000E+00
  0.00000000E+00  0.00000000E+00  0.00000000E+00
  0.00000000E+00  0.00000000E+00  0.00000000E+00
  0.00000000E+00  0.00000000E+00  0.00000000E+00
  0.00000000E+00  0.00000000E+00  0.00000000E+00
  0.00000000E+00  0.00000000E+00  0.00000000E+00
  0.00000000E+00  0.00000000E+00  0.00000000E+00
  0.00000000E+00  0.00000000E+00  0.00000000E+00
  0.00000000E+00  0.00000000E+00  0.00000000E+00
  0.00000000E+00  0.00000000E+00  0.00000000E+00
  0.00000000E+00  0.00000000E+00  0.00000000E+00
  0.00000000E+00  0.00000000E+00  0.00000000E+00
  0.00000000E+00  0.00000000E+00  0.00000000E+00
  0.00000000E+00  0.00000000E+00  0.00000000E+00
  0.00000000E+00  0.00000000E+00  0.00000000E+00
  0.00000000E+00  0.00000000E+00  0.00000000E+00
  0.00000000E+00  0.00000000E+00  0.00000000E+00
  0.00000000E+00  0.00000000E+00  0.00000000E+00
  0.00000000E+00  0.00000000E+00  0.00000000E+00
  0.00000000E+00  0.00000000E+00  0.00000000E+00
  0.00000000E+00  0.00000000E+00  0.00000000E+00
  0.00000000E+00  0.00000000E+00  0.00000000E+00
  0.00000000E+00  0.00000000E+00  0.00000000E+00
  0.00000000E+00  0.00000000E+00  0.00000000E+00
  0.00000000E+00  0.00000000E+00  0.00000000E+00
  0.00000000E+00  0.00000000E+00  0.00000000E+00
  0.00000000E+00  0.00000000E+00  0.00000000E+00
  0.00000000E+00  0.00000000E+00  0.00000000E+00
  0.00000000E+00  0.00000000E+00  0.00000000E+00
  0.00000000E+00  0.00000000E+00  0.00000000E+00
  0.00000000E+00  0.00000000E+00  0.00000000E+00
  0.00000000E+00  0.00000000E+00  0.00000000E+00
  0.00000000E+00  0.00000000E+00  0.00000000E+00
  0.00000000E+00  0.00000000E+00  0.00000000E+00
  0.00000000E+00  0.00000000E+00  0.00000000E+00
  0.00000000E+00  0.00000000E+00  0.00000000E+00
  0.00000000E+00  0.00000000E+00  0.00000000E+00
  0.00000000E+00  0.00000000E+00  0.00000000E+00
  0.00000000E+00  0.00000000E+00  0.00000000E+00
  0.00000000E+00  0.00000000E+00  0.00000000E+00
  0.00000000E+00  0.00000000E+00  0.00000000E+00
  0.00000000E+00  0.00000000E+00  0.00000000E+00
  0.00000000E+00  0.00000000E+00  0.00000000E+00
  0.00000000E+00  0.00000000E+00  0.00000000E+00
  0.00000000E+00  0.00000000E+00  0.00000000E+00
  0.00000000E+00  0.00000000E+00  0.00000000E+00
  0.00000000E+00  0.00000000E+00  0.00000000E+00
  0.00000000E+00  0.00000000E+00  0.00000000E+00
  0.00000000E+00  0.00000000E+00  0.00000000E+00
  0.00000000E+00  0.00000000E+00  0.00000000E+00
  0.00000000E+00  0.00000000E+00  0.00000000E+00
  0.00000000E+00  0.00000000E+00  0.00000000E+00
  0.00000000E+00  0.00000000E+00  0.00000000E+00
  0.00000000E+00  0.00000000E+00  0.00000000E+00
  0.00000000E+00  0.00000000E+00  0.00000000E+00
  0.00000000E+00  0.00000000E+00  0.00000000E+00
