supercell of POSCAR                     
   1.01800000000000     
     3.1310994802600001   -5.4896946145000003   10.0244832682999991
    -9.4821132118399998   -5.5089477087900001    0.0170740616273000
     6.3359946057599998  -11.0114127993000004  -10.0652216442999993
   Al   Gd   N 
    84    12    95
Direct
  0.0849009587639955  0.5859017320507078  0.3357422415140761
  0.4995069099682112  0.3231654011435978  0.2558455485024709
  0.0828691427353121  0.0833163589976422  0.3340308478923859
  0.2484578448113837  0.5771176117512127  0.4927932528640682
  0.3315181479600540  0.3184520701089539  0.0783730800073172
  0.4173096344021943  0.0875486040358382  0.1679713576890762
  0.0053076635118003  0.8429894157206448  0.2541875524572603
  0.1162290659399332  0.3305976367633079  0.4323904562652743
  0.2463870381866613  0.0855860326310420  0.4965805782104766
  0.1603540223372875  0.8367654260153685  0.4164007814953408
  0.3368688045671675  0.6750831762035290  0.3393664032835062
  0.1543126588713406  0.6749245731402169  0.1636730932692103
  0.2402436908055634  0.4198825674974174  0.2378908581706654
  0.3425449376324394  0.1219900431794798  0.3284779253925905
  0.0050406511060999  0.6759781667612401  0.4950279181456310
  0.1670389306879798  0.1580682198171317  0.1691794401657489
  0.2490801136844780  0.9138687861704398  0.2541833826749809
  0.4363223705877175  0.4347549861221722  0.4263878328020851
  0.4995670149885072  0.1614406955794578  0.4963058474807056
  0.0827356621311850  0.9241441191136346  0.0791340980730695
  0.4209593876271640  0.9138416943983358  0.4145725139759122
  0.0909064912418387  0.5844718463046163  0.8360259512832044
  0.5004632924472219  0.3220386402153039  0.7553080227265099
  0.0873907676171797  0.0856311459966932  0.8344207424172367
  0.2528690644737068  0.5788555132200557  0.9956824767335348
  0.3308325047176837  0.3176459009842461  0.5765090989889714
  0.4177061017424251  0.0873126516621596  0.6704562177199449
  0.0085561712352344  0.8448224253493848  0.7554736716570645
  0.1692755388203437  0.3320184912030371  0.9127956220070956
  0.2479860351486991  0.0874870456895565  0.9955994755114617
  0.1633865404470569  0.8374821802076298  0.9161483845193459
  0.3373150196871464  0.6741872661697386  0.8408918249520312
  0.1528809944961225  0.6768440034828629  0.6687753107034382
  0.2518415777331739  0.4006008351464487  0.7540886799663298
  0.3355654654135662  0.1641556642016511  0.8342712007544648
  0.0077605457388472  0.6728577558254045  0.9941424792830418
  0.1682439681589116  0.1590750041368736  0.6696982832979685
  0.2543373329018834  0.9213118524764212  0.7562780497439903
  0.4142941911529050  0.4155980104960690  0.9157656888550534
  0.4989952394949739  0.1626550607459052  0.9963595869576949
  0.0831729238764680  0.9232941607552334  0.5808549318571110
  0.4206859445117459  0.9211321946906850  0.9115082314016831
  0.5912755616657535  0.5899757722929024  0.3332881342281908
  0.9956391166951448  0.3223066138534847  0.2559727937767420
  0.5888035510802609  0.0844732819004221  0.3351107291517437
  0.7518430300466434  0.5812242131981122  0.4942935372581161
  0.8314678193453631  0.3171780832030109  0.0768471096550485
  0.9162162686314232  0.0870276686952351  0.1701040328078491
  0.5069697535034976  0.8456036652396293  0.2551815577931364
  0.6700672520721653  0.3302836194475276  0.4121228714478278
  0.7471161779715914  0.0868463718969537  0.4965857122925854
  0.6630809136291518  0.8385456059733087  0.4162904642375267
  0.8363929805436570  0.6760151254378428  0.3390534115598385
  0.6565336706078071  0.6776696443694661  0.1661632006375910
  0.7491996544265049  0.4024210305979636  0.2508488770000952
  0.8337813386065562  0.1639222511440082  0.3337339713326060
  0.5093509214703431  0.6760851600615254  0.4973865225219924
  0.6666515752817546  0.1597018963380705  0.1689367943433595
  0.7527331670567321  0.9210619625090430  0.2548387787005808
  0.9028872645210555  0.4210663654897928  0.4154836570308618
  0.9966316194272906  0.1544357238114600  0.4992417691029232
  0.5832344387437658  0.9248063129254689  0.0798877950290873
  0.9187254948237893  0.9203538723535303  0.4114110943999449
  0.5903449858698622  0.5846402377531064  0.8341861395674783
  0.0016780575162798  0.3220969353097018  0.7567856437124618
  0.5864811515384361  0.0856494276151309  0.8336698108222151
  0.7530610461639853  0.5789529967407105  0.9930016166058309
  0.8404299101124906  0.3191576271300818  0.5771116316543967
  0.9182921587739585  0.0866340997658099  0.6718927286072685
  0.5074054862401880  0.8442504597284071  0.7548057780269914
  0.6689711784569283  0.3321496004346542  0.9105465476172299
  0.7472692962455127  0.0882277769263098  0.9950347663395860
  0.6626364171988115  0.8376612897503080  0.9148410162370624
  0.8377404508402861  0.6748865372601287  0.8414466426677407
  0.6530593690634277  0.6754389409976298  0.6668926543436982
  0.7524458127895031  0.4014599112214228  0.7521629869095392
  0.8353480330006562  0.1632797708684208  0.8339705203806460
  0.5080128495612684  0.6742062011904437  0.9927022643862387
  0.6693036317385150  0.1594417292346790  0.6691954683705106
  0.7533644589606681  0.9201768796053216  0.7558515735743896
  0.9131359856475711  0.4146433885076206  0.9144864657543721
  0.9986839542156218  0.1601362700799385  0.9958453096282156
  0.5827141150230233  0.9249580262390680  0.5812202939655222
  0.9211393767912455  0.9198714489802242  0.9114558409288662
  0.4057689855862137  0.5805932185349931  0.1767756386294224
  0.3329249927955757  0.8380339310405560  0.0833936551796910
  0.0783322457372719  0.4139632633160133  0.0828562521344196
  0.3968693992824015  0.5772395770853151  0.6797838870517836
  0.3281907742209000  0.8308511761190474  0.5852818312489063
  0.0876183808757247  0.4297795105884603  0.5934713451948639
  0.8981280564681242  0.5792004057380424  0.1770324980658984
  0.8306939337967236  0.8376274445393861  0.0813659590039819
  0.5860215480458919  0.4192563200708150  0.0829311397655488
  0.8944080834893384  0.5823741707003762  0.6815872636948370
  0.8313227396144356  0.8356649168907637  0.5838130162050703
  0.5896456883292700  0.4169819871232363  0.5866880092519722
  0.2169482270364540  0.5809305401796792  0.2694269456699274
  0.0351965768821429  0.6066345361929493  0.0996698525299493
  0.1300620979973388  0.3168889576127398  0.2047886443045641
  0.2093065727243584  0.0788532757064857  0.2716320930645395
  0.3814236891155858  0.5883205670166802  0.4382989268784101
  0.4493702796706458  0.3209055864152219  0.0123397645818741
  0.0407631502988863  0.0867619036910341  0.1039694548805556
  0.1304933886744593  0.8404552634941638  0.1850906417879941
  0.3766008396547136  0.0780918472889951  0.4358927105870194
  0.4769505846747677  0.8383679420147985  0.0079875341046005
  0.2917616918443002  0.8347638970656277  0.3566148892646552
  0.4702792018851198  0.6865347681283396  0.2861206813314254
  0.2677659042358655  0.6549511915164317  0.0973918847669282
  0.3699647708722793  0.3832366830671603  0.1908435096309375
  0.4616694398170225  0.1633968445986511  0.2741602634021234
  0.1325093278179708  0.6655526802641489  0.4332907604189202
  0.2241488442978863  0.4124038360264421  0.0109555505086547
  0.2897060032278276  0.1588826935116856  0.1027573296362263
  0.3829044595900513  0.9308914107609709  0.2035000202868460
  0.0340191611779304  0.4221734974609390  0.3508055184666361
  0.1237858116444244  0.1652104064965556  0.4343913639513985
  0.1973780431997199  0.9322344965285438  0.0108390929346669
  0.0473213469047735  0.9227297378352475  0.3519548484379840
  0.2186791263639734  0.5805570819668873  0.7670131678550334
  0.0281926682355476  0.6185152671268099  0.6026425253021515
  0.1317139410547981  0.3165816388886569  0.7019056452506049
  0.2137984610624244  0.0832500772732274  0.7722130408039405
  0.3832163740244638  0.5840230917388141  0.9380054436846166
  0.4485938926669064  0.3219295023583655  0.5075604888265630
  0.0413681645493398  0.0850909518582341  0.6046238026353663
  0.1341704464908346  0.8437829667730483  0.6861889869362514
  0.2981448575315540  0.3295951294050710  0.8536990550678425
  0.3773662775288287  0.0814931073186713  0.9356458987729823
  0.4744377857003315  0.8375703174214735  0.5113648751170601
  0.2939711724002905  0.8357233973506837  0.8565425440377012
  0.4721780355026794  0.6850677505143992  0.7864964884165175
  0.2582563362952968  0.6459048596894235  0.5953573093686941
  0.3739382183141728  0.3807272657428271  0.6837649927838854
  0.4622616985007753  0.1627851686823547  0.7733833608599596
  0.1364431838396101  0.6662173808695115  0.9342045171636855
  0.2206396021893866  0.4086991833568447  0.5039103462023888
  0.2903968940986275  0.1578846329757653  0.6004756260390067
  0.3849231612825648  0.9278347546266801  0.7003984747457395
  0.0442677531128552  0.4197043379095078  0.8527985792640251
  0.1274457206880655  0.1713006120487321  0.9348434826777137
  0.1970820804288422  0.9301963791413073  0.5107598118769943
  0.0498701274220110  0.9247105196020584  0.8528367805706267
  0.7177985025995852  0.5823265437671026  0.2662095162145803
  0.5378365128067486  0.6119956775775321  0.0989271805567213
  0.6272217521702856  0.3185024388748943  0.2003514951726757
  0.7117799908081324  0.0834187152028179  0.2718029680921816
  0.8806311393241728  0.5883601214434719  0.4370324248813446
  0.9472172287750595  0.3172733967534498  0.0089072877907341
  0.5403946097085566  0.0864430354521417  0.1035306923579569
  0.6311081731092543  0.8439432870106032  0.1859831181935760
  0.7944067744665162  0.3297324174248146  0.3509964098859015
  0.8749524406331375  0.0815196247650434  0.4351004165572050
  0.9763908661868186  0.8372881925347713  0.0081717454909054
  0.7917528336960089  0.8365874408169418  0.3556839920915635
  0.9699104320037719  0.6848451448468253  0.2854203017115822
  0.7634983082347517  0.6553421492209495  0.0941015330365715
  0.8729063976161271  0.3819579021625259  0.1841490082233435
  0.9608604856331766  0.1623322428053982  0.2737731411351731
  0.6331897292289952  0.6665792290816910  0.4332319189011571
  0.7261016101107387  0.4122877872975934  0.0074497122714945
  0.7888645299837549  0.1576401438718378  0.1017649516296544
  0.8836393287607507  0.9277879140639982  0.2005091150247083
  0.5426848333717871  0.4219032517063752  0.3520787681139055
  0.6263678272598128  0.1715873105486452  0.4343711166058242
  0.6950441625506443  0.9332522958779776  0.0093956291086528
  0.5472819018255635  0.9246214942755770  0.3535883810386622
  0.7200643940210441  0.5810112473373863  0.7662883983378990
  0.5328418667033645  0.6067178291630455  0.6010149078727807
  0.6316829524751526  0.3174533506065558  0.7008000192220081
  0.7133404347635448  0.0827755167401421  0.7714666695057630
  0.8837769399318134  0.5835813227330604  0.9373344530366481
  0.9660537667332036  0.3234940924163610  0.5062334186725650
  0.5415506852296161  0.0885408064031026  0.6029180844114350
  0.6322523508078675  0.8427936512240990  0.6858684206044643
  0.7978214125699452  0.3291399918849294  0.8512947470269623
  0.8766717485968485  0.0798262724127312  0.9351308489108305
  0.9754356064149050  0.8403282285072535  0.5078860553748967
  0.7936089110701374  0.8357266051595786  0.8564251188268557
  0.9738024035260224  0.6862289365138068  0.7884274032318359
  0.7607275567039409  0.6540215242481437  0.5949618573281938
  0.8791951251017309  0.3838345818543587  0.6834584827489181
  0.9627812689429831  0.1627140263613427  0.7742109111813704
  0.6358177067469342  0.6663406024126317  0.9321975715150899
  0.7323496567476155  0.4112515096012856  0.5072730269619043
  0.7935544870101765  0.1601875627095382  0.6007371481086139
  0.8850985303468377  0.9273982241896093  0.7015784811309445
  0.5433558241573735  0.4199450961754678  0.8513929053396438
  0.6266882425416540  0.1721614273554266  0.9339440208932430
  0.6957366719734921  0.9322551923305653  0.5108124194760393
  0.5488278358018874  0.9246979668625883  0.8520863993903234
 
  0.00000000E+00  0.00000000E+00  0.00000000E+00
  0.00000000E+00  0.00000000E+00  0.00000000E+00
  0.00000000E+00  0.00000000E+00  0.00000000E+00
  0.00000000E+00  0.00000000E+00  0.00000000E+00
  0.00000000E+00  0.00000000E+00  0.00000000E+00
  0.00000000E+00  0.00000000E+00  0.00000000E+00
  0.00000000E+00  0.00000000E+00  0.00000000E+00
  0.00000000E+00  0.00000000E+00  0.00000000E+00
  0.00000000E+00  0.00000000E+00  0.00000000E+00
  0.00000000E+00  0.00000000E+00  0.00000000E+00
  0.00000000E+00  0.00000000E+00  0.00000000E+00
  0.00000000E+00  0.00000000E+00  0.00000000E+00
  0.00000000E+00  0.00000000E+00  0.00000000E+00
  0.00000000E+00  0.00000000E+00  0.00000000E+00
  0.00000000E+00  0.00000000E+00  0.00000000E+00
  0.00000000E+00  0.00000000E+00  0.00000000E+00
  0.00000000E+00  0.00000000E+00  0.00000000E+00
  0.00000000E+00  0.00000000E+00  0.00000000E+00
  0.00000000E+00  0.00000000E+00  0.00000000E+00
  0.00000000E+00  0.00000000E+00  0.00000000E+00
  0.00000000E+00  0.00000000E+00  0.00000000E+00
  0.00000000E+00  0.00000000E+00  0.00000000E+00
  0.00000000E+00  0.00000000E+00  0.00000000E+00
  0.00000000E+00  0.00000000E+00  0.00000000E+00
  0.00000000E+00  0.00000000E+00  0.00000000E+00
  0.00000000E+00  0.00000000E+00  0.00000000E+00
  0.00000000E+00  0.00000000E+00  0.00000000E+00
  0.00000000E+00  0.00000000E+00  0.00000000E+00
  0.00000000E+00  0.00000000E+00  0.00000000E+00
  0.00000000E+00  0.00000000E+00  0.00000000E+00
  0.00000000E+00  0.00000000E+00  0.00000000E+00
  0.00000000E+00  0.00000000E+00  0.00000000E+00
  0.00000000E+00  0.00000000E+00  0.00000000E+00
  0.00000000E+00  0.00000000E+00  0.00000000E+00
  0.00000000E+00  0.00000000E+00  0.00000000E+00
  0.00000000E+00  0.00000000E+00  0.00000000E+00
  0.00000000E+00  0.00000000E+00  0.00000000E+00
  0.00000000E+00  0.00000000E+00  0.00000000E+00
  0.00000000E+00  0.00000000E+00  0.00000000E+00
  0.00000000E+00  0.00000000E+00  0.00000000E+00
  0.00000000E+00  0.00000000E+00  0.00000000E+00
  0.00000000E+00  0.00000000E+00  0.00000000E+00
  0.00000000E+00  0.00000000E+00  0.00000000E+00
  0.00000000E+00  0.00000000E+00  0.00000000E+00
  0.00000000E+00  0.00000000E+00  0.00000000E+00
  0.00000000E+00  0.00000000E+00  0.00000000E+00
  0.00000000E+00  0.00000000E+00  0.00000000E+00
  0.00000000E+00  0.00000000E+00  0.00000000E+00
  0.00000000E+00  0.00000000E+00  0.00000000E+00
  0.00000000E+00  0.00000000E+00  0.00000000E+00
  0.00000000E+00  0.00000000E+00  0.00000000E+00
  0.00000000E+00  0.00000000E+00  0.00000000E+00
  0.00000000E+00  0.00000000E+00  0.00000000E+00
  0.00000000E+00  0.00000000E+00  0.00000000E+00
  0.00000000E+00  0.00000000E+00  0.00000000E+00
  0.00000000E+00  0.00000000E+00  0.00000000E+00
  0.00000000E+00  0.00000000E+00  0.00000000E+00
  0.00000000E+00  0.00000000E+00  0.00000000E+00
  0.00000000E+00  0.00000000E+00  0.00000000E+00
  0.00000000E+00  0.00000000E+00  0.00000000E+00
  0.00000000E+00  0.00000000E+00  0.00000000E+00
  0.00000000E+00  0.00000000E+00  0.00000000E+00
  0.00000000E+00  0.00000000E+00  0.00000000E+00
  0.00000000E+00  0.00000000E+00  0.00000000E+00
  0.00000000E+00  0.00000000E+00  0.00000000E+00
  0.00000000E+00  0.00000000E+00  0.00000000E+00
  0.00000000E+00  0.00000000E+00  0.00000000E+00
  0.00000000E+00  0.00000000E+00  0.00000000E+00
  0.00000000E+00  0.00000000E+00  0.00000000E+00
  0.00000000E+00  0.00000000E+00  0.00000000E+00
  0.00000000E+00  0.00000000E+00  0.00000000E+00
  0.00000000E+00  0.00000000E+00  0.00000000E+00
  0.00000000E+00  0.00000000E+00  0.00000000E+00
  0.00000000E+00  0.00000000E+00  0.00000000E+00
  0.00000000E+00  0.00000000E+00  0.00000000E+00
  0.00000000E+00  0.00000000E+00  0.00000000E+00
  0.00000000E+00  0.00000000E+00  0.00000000E+00
  0.00000000E+00  0.00000000E+00  0.00000000E+00
  0.00000000E+00  0.00000000E+00  0.00000000E+00
  0.00000000E+00  0.00000000E+00  0.00000000E+00
  0.00000000E+00  0.00000000E+00  0.00000000E+00
  0.00000000E+00  0.00000000E+00  0.00000000E+00
  0.00000000E+00  0.00000000E+00  0.00000000E+00
  0.00000000E+00  0.00000000E+00  0.00000000E+00
  0.00000000E+00  0.00000000E+00  0.00000000E+00
  0.00000000E+00  0.00000000E+00  0.00000000E+00
  0.00000000E+00  0.00000000E+00  0.00000000E+00
  0.00000000E+00  0.00000000E+00  0.00000000E+00
  0.00000000E+00  0.00000000E+00  0.00000000E+00
  0.00000000E+00  0.00000000E+00  0.00000000E+00
  0.00000000E+00  0.00000000E+00  0.00000000E+00
  0.00000000E+00  0.00000000E+00  0.00000000E+00
  0.00000000E+00  0.00000000E+00  0.00000000E+00
  0.00000000E+00  0.00000000E+00  0.00000000E+00
  0.00000000E+00  0.00000000E+00  0.00000000E+00
  0.00000000E+00  0.00000000E+00  0.00000000E+00
  0.00000000E+00  0.00000000E+00  0.00000000E+00
  0.00000000E+00  0.00000000E+00  0.00000000E+00
  0.00000000E+00  0.00000000E+00  0.00000000E+00
  0.00000000E+00  0.00000000E+00  0.00000000E+00
  0.00000000E+00  0.00000000E+00  0.00000000E+00
  0.00000000E+00  0.00000000E+00  0.00000000E+00
  0.00000000E+00  0.00000000E+00  0.00000000E+00
  0.00000000E+00  0.00000000E+00  0.00000000E+00
  0.00000000E+00  0.00000000E+00  0.00000000E+00
  0.00000000E+00  0.00000000E+00  0.00000000E+00
  0.00000000E+00  0.00000000E+00  0.00000000E+00
  0.00000000E+00  0.00000000E+00  0.00000000E+00
  0.00000000E+00  0.00000000E+00  0.00000000E+00
  0.00000000E+00  0.00000000E+00  0.00000000E+00
  0.00000000E+00  0.00000000E+00  0.00000000E+00
  0.00000000E+00  0.00000000E+00  0.00000000E+00
  0.00000000E+00  0.00000000E+00  0.00000000E+00
  0.00000000E+00  0.00000000E+00  0.00000000E+00
  0.00000000E+00  0.00000000E+00  0.00000000E+00
  0.00000000E+00  0.00000000E+00  0.00000000E+00
  0.00000000E+00  0.00000000E+00  0.00000000E+00
  0.00000000E+00  0.00000000E+00  0.00000000E+00
  0.00000000E+00  0.00000000E+00  0.00000000E+00
  0.00000000E+00  0.00000000E+00  0.00000000E+00
  0.00000000E+00  0.00000000E+00  0.00000000E+00
  0.00000000E+00  0.00000000E+00  0.00000000E+00
  0.00000000E+00  0.00000000E+00  0.00000000E+00
  0.00000000E+00  0.00000000E+00  0.00000000E+00
  0.00000000E+00  0.00000000E+00  0.00000000E+00
  0.00000000E+00  0.00000000E+00  0.00000000E+00
  0.00000000E+00  0.00000000E+00  0.00000000E+00
  0.00000000E+00  0.00000000E+00  0.00000000E+00
  0.00000000E+00  0.00000000E+00  0.00000000E+00
  0.00000000E+00  0.00000000E+00  0.00000000E+00
  0.00000000E+00  0.00000000E+00  0.00000000E+00
  0.00000000E+00  0.00000000E+00  0.00000000E+00
  0.00000000E+00  0.00000000E+00  0.00000000E+00
  0.00000000E+00  0.00000000E+00  0.00000000E+00
  0.00000000E+00  0.00000000E+00  0.00000000E+00
  0.00000000E+00  0.00000000E+00  0.00000000E+00
  0.00000000E+00  0.00000000E+00  0.00000000E+00
  0.00000000E+00  0.00000000E+00  0.00000000E+00
  0.00000000E+00  0.00000000E+00  0.00000000E+00
  0.00000000E+00  0.00000000E+00  0.00000000E+00
  0.00000000E+00  0.00000000E+00  0.00000000E+00
  0.00000000E+00  0.00000000E+00  0.00000000E+00
  0.00000000E+00  0.00000000E+00  0.00000000E+00
  0.00000000E+00  0.00000000E+00  0.00000000E+00
  0.00000000E+00  0.00000000E+00  0.00000000E+00
  0.00000000E+00  0.00000000E+00  0.00000000E+00
  0.00000000E+00  0.00000000E+00  0.00000000E+00
  0.00000000E+00  0.00000000E+00  0.00000000E+00
  0.00000000E+00  0.00000000E+00  0.00000000E+00
  0.00000000E+00  0.00000000E+00  0.00000000E+00
  0.00000000E+00  0.00000000E+00  0.00000000E+00
  0.00000000E+00  0.00000000E+00  0.00000000E+00
  0.00000000E+00  0.00000000E+00  0.00000000E+00
  0.00000000E+00  0.00000000E+00  0.00000000E+00
  0.00000000E+00  0.00000000E+00  0.00000000E+00
  0.00000000E+00  0.00000000E+00  0.00000000E+00
  0.00000000E+00  0.00000000E+00  0.00000000E+00
  0.00000000E+00  0.00000000E+00  0.00000000E+00
  0.00000000E+00  0.00000000E+00  0.00000000E+00
  0.00000000E+00  0.00000000E+00  0.00000000E+00
  0.00000000E+00  0.00000000E+00  0.00000000E+00
  0.00000000E+00  0.00000000E+00  0.00000000E+00
  0.00000000E+00  0.00000000E+00  0.00000000E+00
  0.00000000E+00  0.00000000E+00  0.00000000E+00
  0.00000000E+00  0.00000000E+00  0.00000000E+00
  0.00000000E+00  0.00000000E+00  0.00000000E+00
  0.00000000E+00  0.00000000E+00  0.00000000E+00
  0.00000000E+00  0.00000000E+00  0.00000000E+00
  0.00000000E+00  0.00000000E+00  0.00000000E+00
  0.00000000E+00  0.00000000E+00  0.00000000E+00
  0.00000000E+00  0.00000000E+00  0.00000000E+00
  0.00000000E+00  0.00000000E+00  0.00000000E+00
  0.00000000E+00  0.00000000E+00  0.00000000E+00
  0.00000000E+00  0.00000000E+00  0.00000000E+00
  0.00000000E+00  0.00000000E+00  0.00000000E+00
  0.00000000E+00  0.00000000E+00  0.00000000E+00
  0.00000000E+00  0.00000000E+00  0.00000000E+00
  0.00000000E+00  0.00000000E+00  0.00000000E+00
  0.00000000E+00  0.00000000E+00  0.00000000E+00
  0.00000000E+00  0.00000000E+00  0.00000000E+00
  0.00000000E+00  0.00000000E+00  0.00000000E+00
  0.00000000E+00  0.00000000E+00  0.00000000E+00
  0.00000000E+00  0.00000000E+00  0.00000000E+00
  0.00000000E+00  0.00000000E+00  0.00000000E+00
  0.00000000E+00  0.00000000E+00  0.00000000E+00
  0.00000000E+00  0.00000000E+00  0.00000000E+00
  0.00000000E+00  0.00000000E+00  0.00000000E+00
  0.00000000E+00  0.00000000E+00  0.00000000E+00
  0.00000000E+00  0.00000000E+00  0.00000000E+00
  0.00000000E+00  0.00000000E+00  0.00000000E+00
  0.00000000E+00  0.00000000E+00  0.00000000E+00
