supercell of POSCAR                     
   1.01800000000000     
     3.1310994802600001   -5.4896946145000003   10.0244832682999991
    -9.4821132118399998   -5.5089477087900001    0.0170740616273000
     6.3359946057599998  -11.0114127993000004  -10.0652216442999993
   Al   Gd   N    O 
    84    12    95     1
Direct
  0.0886146683913580  0.5852521424505568  0.3346272559491084
  0.5005047524250799  0.3231692191608886  0.2548985180331655
  0.0850635205019330  0.0846604706886964  0.3340530298224849
  0.2509954123102531  0.5794268928298578  0.4941402529130769
  0.3318679339137134  0.3185469152977873  0.0786475884173115
  0.4174386260936203  0.0871308206939077  0.1702885982218305
  0.0071563255092713  0.8431907848657545  0.2548239844136617
  0.1608162176849035  0.3319947481537326  0.4142768009370528
  0.2476581467523786  0.0863618880886747  0.4964986300752656
  0.1619637272310399  0.8366804449288736  0.4161365303012019
  0.3369715108427016  0.6737179388239696  0.3395494832214325
  0.1548325146310745  0.6747018811765955  0.1657190125564014
  0.2485522366669812  0.4050387551824031  0.2510340329023109
  0.3352988543225024  0.1567694704785012  0.3333540216607176
  0.0060537317003053  0.6733925722995551  0.4945665916194244
  0.1672774217283006  0.1586366069605205  0.1690631777649187
  0.2527199104454994  0.9187114011125104  0.2554121574987107
  0.4155544161992353  0.4185532581584681  0.4168465014648888
  0.4991340082640150  0.1613861940756607  0.4968473660505310
  0.0833926491725592  0.9238312149193462  0.0795538584618143
  0.4202464456243078  0.9187986485986883  0.4119928809381435
  0.0897445219234214  0.5849024044476963  0.8345215125873153
  0.4999085689152807  0.3229451210781846  0.7554267686914571
  0.0864180832081800  0.0853791440465699  0.8343342642756397
  0.2519130492146644  0.5788455227049170  0.9947133635288168
  0.3315296593208288  0.3180021888184825  0.5781004985274976
  0.4175213731049894  0.0870558051560764  0.6709712201474787
  0.0078523837083182  0.8434395087762283  0.7550713388042425
  0.1682203396631792  0.3322268604852141  0.9124124977104273
  0.2481483562476825  0.0869013394609581  0.9959109668223505
  0.1626713304023113  0.8368918558072593  0.9160987904124482
  0.3368971699935557  0.6738876202095412  0.8401923515425551
  0.1547693491147086  0.6748788746877992  0.6663320185560551
  0.2502718263365296  0.4020833632819389  0.7523881570628603
  0.3347083397162649  0.1642203505654365  0.8341391199952994
  0.0069830460313369  0.6729105580949835  0.9940963488971093
  0.1672178407087870  0.1589583919567090  0.6694427211398661
  0.2532697530473556  0.9201982852052595  0.7558786954844194
  0.4130577949522802  0.4151923839374874  0.9154829545224246
  0.4989233382367146  0.1621344059361292  0.9969136683777080
  0.0831231241916939  0.9236147106882697  0.5799018713672055
  0.4204050860088131  0.9202486606390110  0.9117494010980138
  0.5895297148998893  0.5855393070011345  0.3340163715744211
  0.9987029290492302  0.3225998110211492  0.2553021908963871
  0.5864802653589010  0.0852337379943435  0.3345004320974425
  0.7514159924761117  0.5792034669355246  0.4945663699137626
  0.8320712723115520  0.3183408235020551  0.0779627706081811
  0.9172240971411441  0.0869494800682560  0.1705806667382532
  0.5076533338775846  0.8438312497297602  0.2547803637272779
  0.6680510492589136  0.3318855510134782  0.4124360834738923
  0.7479465305737492  0.0868640322808929  0.4961832723066522
  0.6623614212860147  0.8370313403258365  0.4160435562472102
  0.8363489087223428  0.6737239982358574  0.3398947421781457
  0.6552116287573568  0.6754511953746913  0.1657751742034961
  0.7501418116272873  0.4023303985678055  0.2520622504622168
  0.8341412220244848  0.1639179899481533  0.3340590991134107
  0.5071215925398960  0.6735160585830968  0.4948054736181504
  0.6673625777250010  0.1588854691165693  0.1689982468661668
  0.7529602546450320  0.9200354799147448  0.2555597946438652
  0.9112797893290079  0.4154240585838807  0.4157586361423000
  0.9982402972917157  0.1612570127303243  0.4973960925264151
  0.5833695795720573  0.9239577591712091  0.0795454628399810
  0.9199232849679362  0.9198239295486701  0.4117626044849700
  0.5896484803572335  0.5849576931795895  0.8343476641310801
  0.9999814242657266  0.3230243789507270  0.7555645673161777
  0.5862756183698536  0.0854459249294806  0.8343139448907877
  0.7522056273262550  0.5793733442534190  0.9941766202384059
  0.8325335197525519  0.3186549925927409  0.5785511942220793
  0.9176472102733513  0.0869914848682711  0.6710554194579714
  0.5076179774882306  0.8435015536811150  0.7550718466262936
  0.6683650921146267  0.3322965618112406  0.9119933208352293
  0.7479869589020467  0.0870338198441800  0.9957506383672410
  0.6625074729988043  0.8370031650269709  0.9159492163977347
  0.8370697186416152  0.6739813063626841  0.8400205430966352
  0.6547883173448454  0.6748357643046248  0.6661168076834443
  0.7503656768952780  0.4022205462442088  0.7522448649575111
  0.8347562715768646  0.1640585499607639  0.8340143609035593
  0.5068341029236265  0.6734541893045360  0.9940659753567189
  0.6675935354855582  0.1590033454712056  0.6693919573522322
  0.7531927051463185  0.9200336686041695  0.7558035859652108
  0.9130141718039368  0.4151556384110506  0.9152215141016384
  0.9989635998327557  0.1616088243202398  0.9966931012681783
  0.5830997126425430  0.9239959818095471  0.5800090656761441
  0.9205566960796503  0.9199697029408611  0.9116218767286099
  0.3997873682144899  0.5791616897244580  0.1785558847068813
  0.3325378554142091  0.8359837759803384  0.0836329185502720
  0.0819365542002402  0.4181067467979389  0.0851119000459519
  0.3984299493649104  0.5794373291281403  0.6791140985284230
  0.3316462972464720  0.8356170345510634  0.5838928958861231
  0.0827164253735191  0.4202658246521622  0.5858170324655347
  0.8986100474236522  0.5797728333220036  0.1785025313092703
  0.8323811858956986  0.8366088439341297  0.0831555466615015
  0.5833574993045971  0.4198342778763404  0.0844067694559243
  0.8978778429582590  0.5800390905083646  0.6789828574066661
  0.8319351499189978  0.8365968266297088  0.5835909742479330
  0.5820909488537822  0.4182806305288267  0.5851969387940770
  0.2184999970041872  0.5792313842501002  0.2679503403741634
  0.0335278954271416  0.6103763297512117  0.1002268507675694
  0.1306633623732054  0.3165345859043498  0.2022313545079086
  0.2121442153361812  0.0824087294477138  0.2723485898610392
  0.3817637590852954  0.5839535444633128  0.4371747069656422
  0.4491158970441944  0.3199451912914526  0.0111879186225963
  0.0408268328389596  0.0859935225271116  0.1036892601080694
  0.1321605328370055  0.8425194195313068  0.1857243841120422
  0.3764705530767785  0.0808742822631956  0.4350891725685173
  0.4760421108330277  0.8381578031588361  0.0079130134737682
  0.2926707100574930  0.8350457219207428  0.3565025449089134
  0.4713165998340330  0.6857441529505195  0.2864742597048249
  0.2644994098412141  0.6544809104917704  0.0956798088071054
  0.3719381698029665  0.3812539108757207  0.1875414540489047
  0.4610775437835102  0.1637776612322170  0.2745047530494418
  0.1338066837829146  0.6658061073518056  0.4330476321550520
  0.2242238946812734  0.4120140239659946  0.0096200292357693
  0.2901849830743615  0.1575040872042806  0.1021495420759138
  0.3846546001401592  0.9287869730032341  0.2021271709428873
  0.0423926976862816  0.4192898937932839  0.3519821034799406
  0.1272657080441775  0.1704236290779590  0.4341126832151616
  0.1972748006192333  0.9317256541393846  0.0103895724668845
  0.0485974631948736  0.9239170958996041  0.3524520942329445
  0.2187001072169252  0.5810210978556398  0.7667276227726916
  0.0326467064656342  0.6118698113748948  0.6007828102561561
  0.1300647540341942  0.3171432416017197  0.7002852399556545
  0.2127710323764660  0.0827796892497972  0.7721710425630448
  0.3823274359556592  0.5838929341823444  0.9374343259808740
  0.4473015419411794  0.3192021193810461  0.5086938468555857
  0.0408777271415701  0.0857012228404130  0.6035951011832168
  0.1328199406913839  0.8428586748286833  0.6857102057208166
  0.2965605380656271  0.3295197713649429  0.8524754544249831
  0.3771657385153944  0.0811060934700052  0.9352356783670572
  0.4755763048992279  0.8379671551207934  0.5083371150963245
  0.2931632317621577  0.8356072869730724  0.8565030256370676
  0.4715817917292782  0.6854943496022514  0.7868785234870614
  0.2634243338774596  0.6537904954811324  0.5950352693337209
  0.3740354472627061  0.3819383935890741  0.6847409217639537
  0.4620544277802452  0.1629235078528666  0.7739405698346715
  0.1350149867595150  0.6657882368277726  0.9330913913162036
  0.2244070729929390  0.4114311517031908  0.5071193728225154
  0.2901031190837031  0.1572363360068039  0.6017911205008701
  0.3848960611129897  0.9280911918920935  0.7018241503811069
  0.0432776885214210  0.4195741853685746  0.8522262371547100
  0.1272291887678350  0.1708572329312901  0.9346431395210786
  0.1967153790582188  0.9315640885185772  0.5101986213246548
  0.0492502039931608  0.9242854669255252  0.8525429983511685
  0.7180939878584240  0.5809241892125740  0.2666360321609602
  0.5334858067815418  0.6117886189094577  0.1003130491043720
  0.6296797587730225  0.3172265859038887  0.2000294744936184
  0.7120859268394071  0.0827450172240631  0.2720875928487061
  0.8818551366517724  0.5840223166812137  0.4372987286616166
  0.9491180474957659  0.3192526049788995  0.0103791467940724
  0.5406682383449848  0.0859652692828234  0.1036729833832339
  0.6322646659005997  0.8431587361628345  0.1856661796506884
  0.7957869990242088  0.3293297803897204  0.3522284567107832
  0.8768869104658492  0.0808637844386197  0.4351313508853067
  0.9763954296614585  0.8378052318178817  0.0078292517227752
  0.7926449896313486  0.8355059901259594  0.3563969084577465
  0.9710566985292814  0.6852664844894463  0.2867429321564146
  0.7641314771276555  0.6553408337221640  0.0949084768099411
  0.8738290541282367  0.3821619549187645  0.1850933763007205
  0.9615342031650584  0.1626148052948722  0.2739253898791532
  0.6340026400540353  0.6657439839212103  0.4328626243705713
  0.7249782099121802  0.4123552305781431  0.0087806785798321
  0.7901580149214453  0.1573829208654089  0.1018596197183257
  0.8846586418336955  0.9281436360879880  0.2018492624564487
  0.5410869335213206  0.4192039536595829  0.3520576575186283
  0.6268422847659991  0.1708392572617967  0.4346329513245237
  0.6968041780415533  0.9320336165933440  0.0100814609182791
  0.5484494527477892  0.9243846597145406  0.3526127864423074
  0.7186732187027687  0.5811622466803072  0.7666586868957808
  0.5330989703370435  0.6104352033533118  0.6005205423578772
  0.6300621446824195  0.3171531462632515  0.7002526446290460
  0.7126618419940343  0.0826552307933994  0.7721310438667786
  0.8825395907283635  0.5839584834992522  0.9371186732623684
  0.9501851299775481  0.3198332726026152  0.5105705101059712
  0.5406137203380297  0.0864051037897156  0.6034603333572974
  0.6323625201910303  0.8428674929239151  0.6857245212234773
  0.7965978043890090  0.3293295366711817  0.8521779619526626
  0.8771259672265259  0.0807258372934854  0.9350974210994067
  0.9758276595776323  0.8381806575860011  0.5079496312503053
  0.7931232986055079  0.8355264380836189  0.8564727310054820
  0.9719107503997932  0.6854664347789097  0.7868898944297840
  0.7634832692381579  0.6554403498476447  0.5949441573340692
  0.8744292799999371  0.3824559152206746  0.6852881929085513
  0.9622646270027602  0.1628815199774465  0.7739960759453126
  0.6346706250786767  0.6658919681805813  0.9328882525574684
  0.7244299065548532  0.4119420441238972  0.5091820320481872
  0.7905786943997413  0.1574552003379637  0.6019472132893640
  0.8850279769257696  0.9280426703133600  0.7020173320287668
  0.5430132608143978  0.4195893738994130  0.8521173390796690
  0.6270200398014723  0.1712023088935766  0.9345725991939062
  0.6963532143888003  0.9319748709891869  0.5101829099822837
  0.5489809252121560  0.9243834375981521  0.8525035299176693
  0.2938045014677471  0.3280367868036436  0.3524329556642414
 
  0.00000000E+00  0.00000000E+00  0.00000000E+00
  0.00000000E+00  0.00000000E+00  0.00000000E+00
  0.00000000E+00  0.00000000E+00  0.00000000E+00
  0.00000000E+00  0.00000000E+00  0.00000000E+00
  0.00000000E+00  0.00000000E+00  0.00000000E+00
  0.00000000E+00  0.00000000E+00  0.00000000E+00
  0.00000000E+00  0.00000000E+00  0.00000000E+00
  0.00000000E+00  0.00000000E+00  0.00000000E+00
  0.00000000E+00  0.00000000E+00  0.00000000E+00
  0.00000000E+00  0.00000000E+00  0.00000000E+00
  0.00000000E+00  0.00000000E+00  0.00000000E+00
  0.00000000E+00  0.00000000E+00  0.00000000E+00
  0.00000000E+00  0.00000000E+00  0.00000000E+00
  0.00000000E+00  0.00000000E+00  0.00000000E+00
  0.00000000E+00  0.00000000E+00  0.00000000E+00
  0.00000000E+00  0.00000000E+00  0.00000000E+00
  0.00000000E+00  0.00000000E+00  0.00000000E+00
  0.00000000E+00  0.00000000E+00  0.00000000E+00
  0.00000000E+00  0.00000000E+00  0.00000000E+00
  0.00000000E+00  0.00000000E+00  0.00000000E+00
  0.00000000E+00  0.00000000E+00  0.00000000E+00
  0.00000000E+00  0.00000000E+00  0.00000000E+00
  0.00000000E+00  0.00000000E+00  0.00000000E+00
  0.00000000E+00  0.00000000E+00  0.00000000E+00
  0.00000000E+00  0.00000000E+00  0.00000000E+00
  0.00000000E+00  0.00000000E+00  0.00000000E+00
  0.00000000E+00  0.00000000E+00  0.00000000E+00
  0.00000000E+00  0.00000000E+00  0.00000000E+00
  0.00000000E+00  0.00000000E+00  0.00000000E+00
  0.00000000E+00  0.00000000E+00  0.00000000E+00
  0.00000000E+00  0.00000000E+00  0.00000000E+00
  0.00000000E+00  0.00000000E+00  0.00000000E+00
  0.00000000E+00  0.00000000E+00  0.00000000E+00
  0.00000000E+00  0.00000000E+00  0.00000000E+00
  0.00000000E+00  0.00000000E+00  0.00000000E+00
  0.00000000E+00  0.00000000E+00  0.00000000E+00
  0.00000000E+00  0.00000000E+00  0.00000000E+00
  0.00000000E+00  0.00000000E+00  0.00000000E+00
  0.00000000E+00  0.00000000E+00  0.00000000E+00
  0.00000000E+00  0.00000000E+00  0.00000000E+00
  0.00000000E+00  0.00000000E+00  0.00000000E+00
  0.00000000E+00  0.00000000E+00  0.00000000E+00
  0.00000000E+00  0.00000000E+00  0.00000000E+00
  0.00000000E+00  0.00000000E+00  0.00000000E+00
  0.00000000E+00  0.00000000E+00  0.00000000E+00
  0.00000000E+00  0.00000000E+00  0.00000000E+00
  0.00000000E+00  0.00000000E+00  0.00000000E+00
  0.00000000E+00  0.00000000E+00  0.00000000E+00
  0.00000000E+00  0.00000000E+00  0.00000000E+00
  0.00000000E+00  0.00000000E+00  0.00000000E+00
  0.00000000E+00  0.00000000E+00  0.00000000E+00
  0.00000000E+00  0.00000000E+00  0.00000000E+00
  0.00000000E+00  0.00000000E+00  0.00000000E+00
  0.00000000E+00  0.00000000E+00  0.00000000E+00
  0.00000000E+00  0.00000000E+00  0.00000000E+00
  0.00000000E+00  0.00000000E+00  0.00000000E+00
  0.00000000E+00  0.00000000E+00  0.00000000E+00
  0.00000000E+00  0.00000000E+00  0.00000000E+00
  0.00000000E+00  0.00000000E+00  0.00000000E+00
  0.00000000E+00  0.00000000E+00  0.00000000E+00
  0.00000000E+00  0.00000000E+00  0.00000000E+00
  0.00000000E+00  0.00000000E+00  0.00000000E+00
  0.00000000E+00  0.00000000E+00  0.00000000E+00
  0.00000000E+00  0.00000000E+00  0.00000000E+00
  0.00000000E+00  0.00000000E+00  0.00000000E+00
  0.00000000E+00  0.00000000E+00  0.00000000E+00
  0.00000000E+00  0.00000000E+00  0.00000000E+00
  0.00000000E+00  0.00000000E+00  0.00000000E+00
  0.00000000E+00  0.00000000E+00  0.00000000E+00
  0.00000000E+00  0.00000000E+00  0.00000000E+00
  0.00000000E+00  0.00000000E+00  0.00000000E+00
  0.00000000E+00  0.00000000E+00  0.00000000E+00
  0.00000000E+00  0.00000000E+00  0.00000000E+00
  0.00000000E+00  0.00000000E+00  0.00000000E+00
  0.00000000E+00  0.00000000E+00  0.00000000E+00
  0.00000000E+00  0.00000000E+00  0.00000000E+00
  0.00000000E+00  0.00000000E+00  0.00000000E+00
  0.00000000E+00  0.00000000E+00  0.00000000E+00
  0.00000000E+00  0.00000000E+00  0.00000000E+00
  0.00000000E+00  0.00000000E+00  0.00000000E+00
  0.00000000E+00  0.00000000E+00  0.00000000E+00
  0.00000000E+00  0.00000000E+00  0.00000000E+00
  0.00000000E+00  0.00000000E+00  0.00000000E+00
  0.00000000E+00  0.00000000E+00  0.00000000E+00
  0.00000000E+00  0.00000000E+00  0.00000000E+00
  0.00000000E+00  0.00000000E+00  0.00000000E+00
  0.00000000E+00  0.00000000E+00  0.00000000E+00
  0.00000000E+00  0.00000000E+00  0.00000000E+00
  0.00000000E+00  0.00000000E+00  0.00000000E+00
  0.00000000E+00  0.00000000E+00  0.00000000E+00
  0.00000000E+00  0.00000000E+00  0.00000000E+00
  0.00000000E+00  0.00000000E+00  0.00000000E+00
  0.00000000E+00  0.00000000E+00  0.00000000E+00
  0.00000000E+00  0.00000000E+00  0.00000000E+00
  0.00000000E+00  0.00000000E+00  0.00000000E+00
  0.00000000E+00  0.00000000E+00  0.00000000E+00
  0.00000000E+00  0.00000000E+00  0.00000000E+00
  0.00000000E+00  0.00000000E+00  0.00000000E+00
  0.00000000E+00  0.00000000E+00  0.00000000E+00
  0.00000000E+00  0.00000000E+00  0.00000000E+00
  0.00000000E+00  0.00000000E+00  0.00000000E+00
  0.00000000E+00  0.00000000E+00  0.00000000E+00
  0.00000000E+00  0.00000000E+00  0.00000000E+00
  0.00000000E+00  0.00000000E+00  0.00000000E+00
  0.00000000E+00  0.00000000E+00  0.00000000E+00
  0.00000000E+00  0.00000000E+00  0.00000000E+00
  0.00000000E+00  0.00000000E+00  0.00000000E+00
  0.00000000E+00  0.00000000E+00  0.00000000E+00
  0.00000000E+00  0.00000000E+00  0.00000000E+00
  0.00000000E+00  0.00000000E+00  0.00000000E+00
  0.00000000E+00  0.00000000E+00  0.00000000E+00
  0.00000000E+00  0.00000000E+00  0.00000000E+00
  0.00000000E+00  0.00000000E+00  0.00000000E+00
  0.00000000E+00  0.00000000E+00  0.00000000E+00
  0.00000000E+00  0.00000000E+00  0.00000000E+00
  0.00000000E+00  0.00000000E+00  0.00000000E+00
  0.00000000E+00  0.00000000E+00  0.00000000E+00
  0.00000000E+00  0.00000000E+00  0.00000000E+00
  0.00000000E+00  0.00000000E+00  0.00000000E+00
  0.00000000E+00  0.00000000E+00  0.00000000E+00
  0.00000000E+00  0.00000000E+00  0.00000000E+00
  0.00000000E+00  0.00000000E+00  0.00000000E+00
  0.00000000E+00  0.00000000E+00  0.00000000E+00
  0.00000000E+00  0.00000000E+00  0.00000000E+00
  0.00000000E+00  0.00000000E+00  0.00000000E+00
  0.00000000E+00  0.00000000E+00  0.00000000E+00
  0.00000000E+00  0.00000000E+00  0.00000000E+00
  0.00000000E+00  0.00000000E+00  0.00000000E+00
  0.00000000E+00  0.00000000E+00  0.00000000E+00
  0.00000000E+00  0.00000000E+00  0.00000000E+00
  0.00000000E+00  0.00000000E+00  0.00000000E+00
  0.00000000E+00  0.00000000E+00  0.00000000E+00
  0.00000000E+00  0.00000000E+00  0.00000000E+00
  0.00000000E+00  0.00000000E+00  0.00000000E+00
  0.00000000E+00  0.00000000E+00  0.00000000E+00
  0.00000000E+00  0.00000000E+00  0.00000000E+00
  0.00000000E+00  0.00000000E+00  0.00000000E+00
  0.00000000E+00  0.00000000E+00  0.00000000E+00
  0.00000000E+00  0.00000000E+00  0.00000000E+00
  0.00000000E+00  0.00000000E+00  0.00000000E+00
  0.00000000E+00  0.00000000E+00  0.00000000E+00
  0.00000000E+00  0.00000000E+00  0.00000000E+00
  0.00000000E+00  0.00000000E+00  0.00000000E+00
  0.00000000E+00  0.00000000E+00  0.00000000E+00
  0.00000000E+00  0.00000000E+00  0.00000000E+00
  0.00000000E+00  0.00000000E+00  0.00000000E+00
  0.00000000E+00  0.00000000E+00  0.00000000E+00
  0.00000000E+00  0.00000000E+00  0.00000000E+00
  0.00000000E+00  0.00000000E+00  0.00000000E+00
  0.00000000E+00  0.00000000E+00  0.00000000E+00
  0.00000000E+00  0.00000000E+00  0.00000000E+00
  0.00000000E+00  0.00000000E+00  0.00000000E+00
  0.00000000E+00  0.00000000E+00  0.00000000E+00
  0.00000000E+00  0.00000000E+00  0.00000000E+00
  0.00000000E+00  0.00000000E+00  0.00000000E+00
  0.00000000E+00  0.00000000E+00  0.00000000E+00
  0.00000000E+00  0.00000000E+00  0.00000000E+00
  0.00000000E+00  0.00000000E+00  0.00000000E+00
  0.00000000E+00  0.00000000E+00  0.00000000E+00
  0.00000000E+00  0.00000000E+00  0.00000000E+00
  0.00000000E+00  0.00000000E+00  0.00000000E+00
  0.00000000E+00  0.00000000E+00  0.00000000E+00
  0.00000000E+00  0.00000000E+00  0.00000000E+00
  0.00000000E+00  0.00000000E+00  0.00000000E+00
  0.00000000E+00  0.00000000E+00  0.00000000E+00
  0.00000000E+00  0.00000000E+00  0.00000000E+00
  0.00000000E+00  0.00000000E+00  0.00000000E+00
  0.00000000E+00  0.00000000E+00  0.00000000E+00
  0.00000000E+00  0.00000000E+00  0.00000000E+00
  0.00000000E+00  0.00000000E+00  0.00000000E+00
  0.00000000E+00  0.00000000E+00  0.00000000E+00
  0.00000000E+00  0.00000000E+00  0.00000000E+00
  0.00000000E+00  0.00000000E+00  0.00000000E+00
  0.00000000E+00  0.00000000E+00  0.00000000E+00
  0.00000000E+00  0.00000000E+00  0.00000000E+00
  0.00000000E+00  0.00000000E+00  0.00000000E+00
  0.00000000E+00  0.00000000E+00  0.00000000E+00
  0.00000000E+00  0.00000000E+00  0.00000000E+00
  0.00000000E+00  0.00000000E+00  0.00000000E+00
  0.00000000E+00  0.00000000E+00  0.00000000E+00
  0.00000000E+00  0.00000000E+00  0.00000000E+00
  0.00000000E+00  0.00000000E+00  0.00000000E+00
  0.00000000E+00  0.00000000E+00  0.00000000E+00
  0.00000000E+00  0.00000000E+00  0.00000000E+00
  0.00000000E+00  0.00000000E+00  0.00000000E+00
  0.00000000E+00  0.00000000E+00  0.00000000E+00
  0.00000000E+00  0.00000000E+00  0.00000000E+00
  0.00000000E+00  0.00000000E+00  0.00000000E+00
  0.00000000E+00  0.00000000E+00  0.00000000E+00
  0.00000000E+00  0.00000000E+00  0.00000000E+00
  0.00000000E+00  0.00000000E+00  0.00000000E+00
  0.00000000E+00  0.00000000E+00  0.00000000E+00
