supercell of icsd_608626.cif            
   1.09562387392819     
     9.3905284543427854   -0.4536662384186195    0.0085679376688368
    -5.0708779749466064    8.4401130196113456   -0.0064351785286411
     0.0101733302829071   -0.0047388531057899    9.4016199464070489
   Al   La   N 
    26    10    36
Direct
  0.2291276653143797  0.0918054337248364  0.2556104106244135
  0.0943725652580198  0.1360349276085131  0.5093497548268715
  0.9386883450770327  0.0455544211766536  0.7677575154470446
  0.5511717909396125  0.1406125001366618  0.2401212742151770
  0.4284779855656353  0.2240196297505790  0.4963910486917911
  0.2353084646308616  0.0970322472889080  0.7400300023570736
  0.9254452972284000  0.0425372367298422  0.2742932058897765
  0.5658335834269650  0.1419827246498926  0.7421816378469970
  0.4494306021725762  0.2023946615203798  0.9890290703131015
  0.1182049054178123  0.5932621485681864  0.4954553682221956
  0.8799723647797180  0.4771606463706135  0.7602633636025331
  0.7729558944078008  0.5534419317536674  0.0014175114451263
  0.5219371735148002  0.4235664735555247  0.2388486378641375
  0.4350553733879536  0.5288687867219934  0.5137325698022224
  0.1087023206409583  0.5879773016986860  0.0106176795060762
  0.8823419160912920  0.4639108067084479  0.2380953740685285
  0.5499306879546992  0.4264226488516556  0.7560716594234052
  0.2151059394244896  0.7975747830280824  0.2354888639008053
  0.1059608417852118  0.8805667376745845  0.4952103164214989
  0.8852572619414119  0.7624123839126753  0.7601106165852016
  0.7900189717643542  0.8900808369682096  0.0083829125342945
  0.4165569135680798  0.9559625016246756  0.4813502481873471
  0.1116186837744380  0.8848652572856750  0.0064388669211013
  0.8925263963302754  0.7679514485042276  0.2394432917241076
  0.7996611127761213  0.8603572014316327  0.5041902771247209
  0.4493350173325581  0.9128414937769875  0.0204965406981543
  0.8048658355077976  0.2326483922814120  0.9738372385208152
  0.1723412811257816  0.2374681164871717  0.0078350705668200
  0.7898483724808614  0.2201527887006094  0.4894962441835844
  0.1667584599286513  0.4248022601469046  0.2695589964822886
  0.1550758901093872  0.4162535586190330  0.7176010363259877
  0.7608247397822936  0.5419866497391368  0.4844669677634883
  0.4564142090523688  0.5740731503584868  0.9670191911231854
  0.5387821609410537  0.7718540077840643  0.2615393542211635
  0.2411994194593490  0.8100257708685277  0.7563362887320793
  0.5523978885882954  0.7880844667104441  0.6997742433742857
  0.2219379988121091  0.0839364969227603  0.4422966961314643
  0.1169144288173882  0.1792271094802516  0.2233441902029867
  0.9159124906332607  0.0794081188801883  0.9324071799151241
  0.7807351938290665  0.2741105831192385  0.7192606659001299
  0.5339071831935129  0.1451553601591229  0.4213541791141537
  0.4301734894766085  0.2170210650243263  0.1760250652991928
  0.2360395213511879  0.0754199338963986  0.9204004425064340
  0.1176612084990865  0.1747175415871851  0.6821781241061302
  0.8977420399074063  0.0628768430506028  0.4454177882482639
  0.7652758308844980  0.2578330022857074  0.2003412215910387
  0.5295789810984175  0.0930974820313395  0.9250286075362624
  0.4479258638112142  0.2245476412027330  0.6829616204120583
  0.2415716767836997  0.5081527463941882  0.4831453318308689
  0.0974634275647119  0.5921421303153025  0.1906784925042615
  0.9075890915962219  0.5002748731311613  0.9426034892921535
  0.7664849274401462  0.5608939523608427  0.7146524829051089
  0.4882876615405749  0.4066456081425471  0.4261536024785855
  0.4233620762857484  0.5197400312634457  0.1879957493227380
  0.1835614973095474  0.4700409953826536  0.9513908071725297
  0.0728591998278816  0.5769590269508598  0.6719809685878246
  0.9259424324901389  0.4665082160432092  0.4164701621273181
  0.7625113159388448  0.5547568227078230  0.1980761650036769
  0.5585060217009854  0.4086206475210474  0.9398168004571517
  0.4370355433131863  0.5136840537621268  0.7050627984327562
  0.2196917043297049  0.7985844923408862  0.4363525172694125
  0.1090436591044437  0.8913477580080240  0.1903052782713246
  0.8800984322810521  0.7721430906899585  0.9485301839941584
  0.8094306617892428  0.8725354493225268  0.6885872697445024
  0.5902009330645157  0.7318172871096777  0.4807078809772989
  0.4375879066060122  0.9288356922754346  0.2048342866490671
  0.2292396161658772  0.7957453465513140  0.9814797186402515
  0.0957136368058187  0.8943561116822707  0.6789001045774654
  0.9110381233233014  0.7937815478317916  0.4233831005958208
  0.8008672667292345  0.8725895655686173  0.1886956388552150
  0.5759652120615399  0.8318671693570323  0.9866771347720160
  0.4906374141526015  0.9640798749298867  0.6426616050378655
 
  0.00000000E+00  0.00000000E+00  0.00000000E+00
  0.00000000E+00  0.00000000E+00  0.00000000E+00
  0.00000000E+00  0.00000000E+00  0.00000000E+00
  0.00000000E+00  0.00000000E+00  0.00000000E+00
  0.00000000E+00  0.00000000E+00  0.00000000E+00
  0.00000000E+00  0.00000000E+00  0.00000000E+00
  0.00000000E+00  0.00000000E+00  0.00000000E+00
  0.00000000E+00  0.00000000E+00  0.00000000E+00
  0.00000000E+00  0.00000000E+00  0.00000000E+00
  0.00000000E+00  0.00000000E+00  0.00000000E+00
  0.00000000E+00  0.00000000E+00  0.00000000E+00
  0.00000000E+00  0.00000000E+00  0.00000000E+00
  0.00000000E+00  0.00000000E+00  0.00000000E+00
  0.00000000E+00  0.00000000E+00  0.00000000E+00
  0.00000000E+00  0.00000000E+00  0.00000000E+00
  0.00000000E+00  0.00000000E+00  0.00000000E+00
  0.00000000E+00  0.00000000E+00  0.00000000E+00
  0.00000000E+00  0.00000000E+00  0.00000000E+00
  0.00000000E+00  0.00000000E+00  0.00000000E+00
  0.00000000E+00  0.00000000E+00  0.00000000E+00
  0.00000000E+00  0.00000000E+00  0.00000000E+00
  0.00000000E+00  0.00000000E+00  0.00000000E+00
  0.00000000E+00  0.00000000E+00  0.00000000E+00
  0.00000000E+00  0.00000000E+00  0.00000000E+00
  0.00000000E+00  0.00000000E+00  0.00000000E+00
  0.00000000E+00  0.00000000E+00  0.00000000E+00
  0.00000000E+00  0.00000000E+00  0.00000000E+00
  0.00000000E+00  0.00000000E+00  0.00000000E+00
  0.00000000E+00  0.00000000E+00  0.00000000E+00
  0.00000000E+00  0.00000000E+00  0.00000000E+00
  0.00000000E+00  0.00000000E+00  0.00000000E+00
  0.00000000E+00  0.00000000E+00  0.00000000E+00
  0.00000000E+00  0.00000000E+00  0.00000000E+00
  0.00000000E+00  0.00000000E+00  0.00000000E+00
  0.00000000E+00  0.00000000E+00  0.00000000E+00
  0.00000000E+00  0.00000000E+00  0.00000000E+00
  0.00000000E+00  0.00000000E+00  0.00000000E+00
  0.00000000E+00  0.00000000E+00  0.00000000E+00
  0.00000000E+00  0.00000000E+00  0.00000000E+00
  0.00000000E+00  0.00000000E+00  0.00000000E+00
  0.00000000E+00  0.00000000E+00  0.00000000E+00
  0.00000000E+00  0.00000000E+00  0.00000000E+00
  0.00000000E+00  0.00000000E+00  0.00000000E+00
  0.00000000E+00  0.00000000E+00  0.00000000E+00
  0.00000000E+00  0.00000000E+00  0.00000000E+00
  0.00000000E+00  0.00000000E+00  0.00000000E+00
  0.00000000E+00  0.00000000E+00  0.00000000E+00
  0.00000000E+00  0.00000000E+00  0.00000000E+00
  0.00000000E+00  0.00000000E+00  0.00000000E+00
  0.00000000E+00  0.00000000E+00  0.00000000E+00
  0.00000000E+00  0.00000000E+00  0.00000000E+00
  0.00000000E+00  0.00000000E+00  0.00000000E+00
  0.00000000E+00  0.00000000E+00  0.00000000E+00
  0.00000000E+00  0.00000000E+00  0.00000000E+00
  0.00000000E+00  0.00000000E+00  0.00000000E+00
  0.00000000E+00  0.00000000E+00  0.00000000E+00
  0.00000000E+00  0.00000000E+00  0.00000000E+00
  0.00000000E+00  0.00000000E+00  0.00000000E+00
  0.00000000E+00  0.00000000E+00  0.00000000E+00
  0.00000000E+00  0.00000000E+00  0.00000000E+00
  0.00000000E+00  0.00000000E+00  0.00000000E+00
  0.00000000E+00  0.00000000E+00  0.00000000E+00
  0.00000000E+00  0.00000000E+00  0.00000000E+00
  0.00000000E+00  0.00000000E+00  0.00000000E+00
  0.00000000E+00  0.00000000E+00  0.00000000E+00
  0.00000000E+00  0.00000000E+00  0.00000000E+00
  0.00000000E+00  0.00000000E+00  0.00000000E+00
  0.00000000E+00  0.00000000E+00  0.00000000E+00
  0.00000000E+00  0.00000000E+00  0.00000000E+00
  0.00000000E+00  0.00000000E+00  0.00000000E+00
  0.00000000E+00  0.00000000E+00  0.00000000E+00
  0.00000000E+00  0.00000000E+00  0.00000000E+00
