supercell of icsd_191774.cif            
   1.00000000000000     
    10.6067830633081552   -0.0094220185919167    0.0046033997788827
    -5.3115595336838348    9.1923854876926328   -0.0022649432615746
     0.0050510335927159    0.0000752749664641   11.0727423786350609
   N    In   Sc
    36    22    14
Direct
  0.2183878911417594  0.1086044672626230  0.4443627629606368
  0.1107888800509187  0.2215755617391295  0.1918377093100148
  0.8860707310311824  0.1072405385417383  0.9355627951612320
  0.7787394204310374  0.2195983047992129  0.6944969384368775
  0.5562487885788201  0.1114777447381954  0.4346555007835562
  0.4459157369617017  0.2191472420383320  0.1876749684387065
  0.2235013133586250  0.1090377838301748  0.9444710947904227
  0.1090305721546585  0.2242904065250073  0.6879281030643583
  0.8906861041924614  0.1072722505846073  0.4480605119502670
  0.7757317098261822  0.2201813540534374  0.1945972932874440
  0.5533788235377841  0.1139214628434004  0.9470333535597319
  0.4433923902989179  0.2217455109891375  0.6930122920222530
  0.2169426323583323  0.4416313530126743  0.4472887327144051
  0.1107559147302695  0.5553100648227343  0.1927473875823509
  0.8882136188349037  0.4461375725652346  0.9406038855596250
  0.7785560894393981  0.5609357750065058  0.6865560549019420
  0.5584917424802072  0.4461559577145877  0.4420957977509730
  0.4432525725018053  0.5544172001603513  0.1845549962734410
  0.2252716050395023  0.4467838669674080  0.9350059001136728
  0.1132749014742487  0.5539710578873240  0.6863452885229009
  0.8898595254602100  0.4477034897215333  0.4477406727391369
  0.7808428997915229  0.5610913928695069  0.1960856308463974
  0.5528508436199218  0.4437866076799892  0.9463886652781710
  0.4402537635806993  0.5535293633625571  0.6962864198740135
  0.2181835320213352  0.7760614966119093  0.4461520443623215
  0.1052130363882995  0.8851328356077914  0.1879702426139289
  0.8923144000818652  0.7844496415518734  0.9379752403701218
  0.7839500879772956  0.8910608388842647  0.6897358699231546
  0.5603552969180683  0.7790397602492050  0.4427509618764205
  0.4462496638038687  0.8914470568743269  0.1956178926078067
  0.2200349560478259  0.7804036218002040  0.9423605423223265
  0.1058152555050427  0.8862411414195819  0.6874497048002368
  0.8899701732247536  0.7786856315971562  0.4421845557097726
  0.7818250434988840  0.8862289965286863  0.1871144322218399
  0.5590925006778491  0.7765112229816964  0.9462383533942642
  0.4456295709715405  0.8886764299251340  0.6922338844339464
  0.2226016824014465  0.1093151056511985  0.2479449006329872
  0.7795592528472000  0.2226030830668080  0.9981675837982706
  0.4441684708933309  0.2214475056958989  0.4976705905409418
  0.2184522872251051  0.1101902995253781  0.7478255080871605
  0.1106123018174827  0.2227885930502893  0.9958296875155170
  0.8876913768976991  0.1084412088063189  0.2508898355180804
  0.7775636921915634  0.2213465312977902  0.4992006994230280
  0.5555653879886506  0.1111613403384908  0.7513095288265959
  0.2228723720808503  0.4445261553400215  0.2508031389048071
  0.8886371767807191  0.4463497232189368  0.7451172334396290
  0.7790106303830839  0.5601663509514978  0.9991910093432423
  0.5537938530717454  0.4428456338618432  0.2467778283359650
  0.4435451748290120  0.5548146229729625  0.5004027600537384
  0.1122265375879365  0.5556119065497995  0.9971806846512905
  0.8878076111191149  0.4435126871810482  0.2516222247127047
  0.5569329901183906  0.4456941719862471  0.7502632017372761
  0.2216020797606717  0.7786098996605588  0.2501143000824726
  0.5570780543416944  0.7766326805422779  0.2470029895030166
  0.4449060557725346  0.8889922395626471  0.4969290239946886
  0.2208443034055065  0.7771528219076345  0.7465424017768214
  0.5594175501116183  0.7792561912870752  0.7502632893816497
  0.4444998460603529  0.8875600757551894  0.9997556909844647
  0.1116578285978065  0.2209791412308704  0.4970731345767163
  0.8901085940589368  0.1118240827715553  0.7446165849185249
  0.5557085851359318  0.1112562818183918  0.2449781662492256
  0.4434541001808654  0.2227692142924056  0.9974927187397711
  0.1106187069784212  0.5562301134578860  0.4968227475540274
  0.2198064661783050  0.4438564800571427  0.7442740646826564
  0.7776154165194171  0.5570185738020967  0.4961157527957027
  0.4431459478489828  0.5546963489437715  0.9948547404688384
  0.1109324835538033  0.8888760217358325  0.4970379687410045
  0.8893467095128358  0.7783205466353778  0.7458705246559205
  0.7801864150715403  0.8904726711263748  0.9959769812739410
  0.1110868809879193  0.8894098257061103  0.9970033017320645
  0.8894630586823382  0.7787794998100566  0.2484998906431244
  0.7784081310155884  0.8870073666549771  0.4992028311654835
 
  0.00000000E+00  0.00000000E+00  0.00000000E+00
  0.00000000E+00  0.00000000E+00  0.00000000E+00
  0.00000000E+00  0.00000000E+00  0.00000000E+00
  0.00000000E+00  0.00000000E+00  0.00000000E+00
  0.00000000E+00  0.00000000E+00  0.00000000E+00
  0.00000000E+00  0.00000000E+00  0.00000000E+00
  0.00000000E+00  0.00000000E+00  0.00000000E+00
  0.00000000E+00  0.00000000E+00  0.00000000E+00
  0.00000000E+00  0.00000000E+00  0.00000000E+00
  0.00000000E+00  0.00000000E+00  0.00000000E+00
  0.00000000E+00  0.00000000E+00  0.00000000E+00
  0.00000000E+00  0.00000000E+00  0.00000000E+00
  0.00000000E+00  0.00000000E+00  0.00000000E+00
  0.00000000E+00  0.00000000E+00  0.00000000E+00
  0.00000000E+00  0.00000000E+00  0.00000000E+00
  0.00000000E+00  0.00000000E+00  0.00000000E+00
  0.00000000E+00  0.00000000E+00  0.00000000E+00
  0.00000000E+00  0.00000000E+00  0.00000000E+00
  0.00000000E+00  0.00000000E+00  0.00000000E+00
  0.00000000E+00  0.00000000E+00  0.00000000E+00
  0.00000000E+00  0.00000000E+00  0.00000000E+00
  0.00000000E+00  0.00000000E+00  0.00000000E+00
  0.00000000E+00  0.00000000E+00  0.00000000E+00
  0.00000000E+00  0.00000000E+00  0.00000000E+00
  0.00000000E+00  0.00000000E+00  0.00000000E+00
  0.00000000E+00  0.00000000E+00  0.00000000E+00
  0.00000000E+00  0.00000000E+00  0.00000000E+00
  0.00000000E+00  0.00000000E+00  0.00000000E+00
  0.00000000E+00  0.00000000E+00  0.00000000E+00
  0.00000000E+00  0.00000000E+00  0.00000000E+00
  0.00000000E+00  0.00000000E+00  0.00000000E+00
  0.00000000E+00  0.00000000E+00  0.00000000E+00
  0.00000000E+00  0.00000000E+00  0.00000000E+00
  0.00000000E+00  0.00000000E+00  0.00000000E+00
  0.00000000E+00  0.00000000E+00  0.00000000E+00
  0.00000000E+00  0.00000000E+00  0.00000000E+00
  0.00000000E+00  0.00000000E+00  0.00000000E+00
  0.00000000E+00  0.00000000E+00  0.00000000E+00
  0.00000000E+00  0.00000000E+00  0.00000000E+00
  0.00000000E+00  0.00000000E+00  0.00000000E+00
  0.00000000E+00  0.00000000E+00  0.00000000E+00
  0.00000000E+00  0.00000000E+00  0.00000000E+00
  0.00000000E+00  0.00000000E+00  0.00000000E+00
  0.00000000E+00  0.00000000E+00  0.00000000E+00
  0.00000000E+00  0.00000000E+00  0.00000000E+00
  0.00000000E+00  0.00000000E+00  0.00000000E+00
  0.00000000E+00  0.00000000E+00  0.00000000E+00
  0.00000000E+00  0.00000000E+00  0.00000000E+00
  0.00000000E+00  0.00000000E+00  0.00000000E+00
  0.00000000E+00  0.00000000E+00  0.00000000E+00
  0.00000000E+00  0.00000000E+00  0.00000000E+00
  0.00000000E+00  0.00000000E+00  0.00000000E+00
  0.00000000E+00  0.00000000E+00  0.00000000E+00
  0.00000000E+00  0.00000000E+00  0.00000000E+00
  0.00000000E+00  0.00000000E+00  0.00000000E+00
  0.00000000E+00  0.00000000E+00  0.00000000E+00
  0.00000000E+00  0.00000000E+00  0.00000000E+00
  0.00000000E+00  0.00000000E+00  0.00000000E+00
  0.00000000E+00  0.00000000E+00  0.00000000E+00
  0.00000000E+00  0.00000000E+00  0.00000000E+00
  0.00000000E+00  0.00000000E+00  0.00000000E+00
  0.00000000E+00  0.00000000E+00  0.00000000E+00
  0.00000000E+00  0.00000000E+00  0.00000000E+00
  0.00000000E+00  0.00000000E+00  0.00000000E+00
  0.00000000E+00  0.00000000E+00  0.00000000E+00
  0.00000000E+00  0.00000000E+00  0.00000000E+00
  0.00000000E+00  0.00000000E+00  0.00000000E+00
  0.00000000E+00  0.00000000E+00  0.00000000E+00
  0.00000000E+00  0.00000000E+00  0.00000000E+00
  0.00000000E+00  0.00000000E+00  0.00000000E+00
  0.00000000E+00  0.00000000E+00  0.00000000E+00
  0.00000000E+00  0.00000000E+00  0.00000000E+00
