generated by phonopy                    
   1.00000000000000     
    10.0351470768999995   -0.0000022330999784   -0.0000001056124209
    -5.0175765436399997    8.6906901959899994    0.0000001395531216
    -0.0000001735893656    0.0000001431815548   14.9533752540999991
   Pb   P    O 
    20    13    49
Direct
  0.9858375971675173  0.7854137744844536  0.1538935023968477
  0.9986434975030321  0.7769044365671576  0.6295955735617866
  0.9972520903993711  0.2493327265187872  0.3773544895945165
  0.9812827099919517  0.2456852521350541  0.8898257335507651
  0.2107374370276176  0.2027494775733700  0.1419673715904679
  0.2212435561233974  0.2267825309572871  0.6297949546333399
  0.7377036837418558  0.7444130495194585  0.3757648385507935
  0.7251497753542253  0.7224302764067190  0.8895266908573873
  0.7749124267269565  0.9960275086220918  0.1453743330184736
  0.7705673449244372  0.0051853993582682  0.6209089094765616
  0.2528591991917324  0.9917714254140861  0.3766467514432392
  0.2845365070784922  0.0200368827199497  0.8704180081319635
  0.6362804867082801  0.3169845315504745  0.0057306762467277
  0.6596731260152211  0.3396011095397355  0.4993443839416116
  0.3298950788016057  0.6369198959308306  0.9984843480956087
  0.3223734973000205  0.6578354489327296  0.5037349496186465
  0.3381728955057426  0.6535811926508330  0.2400943944029805
  0.3496823281588846  0.6954709608547631  0.7438431288434160
  0.6808533227766063  0.3416981285124194  0.2474695280251140
  0.6736936194242062  0.3386361556372606  0.7445279977286674
  0.5586018283732699  0.5811378564126173  0.1373183696777716
  0.6242322566586935  0.5999727048341867  0.6199687213374645
  0.3661046272717741  0.3906600728695437  0.3711124407906681
  0.3353410803347074  0.3690263845971558  0.8725886459668644
  0.4133317481605161  0.0179190183658378  0.1234693023084148
  0.4056053853573900  0.0349061570519993  0.6138872571273382
  0.6024008599301993  0.9750846345690363  0.3746473863328887
  0.6069263768845161  0.9741127613175919  0.8675921361755741
  0.9671511328063929  0.3721532517342467  0.1288151278979228
  0.9671532899868609  0.3773752652153561  0.6233397391784976
  0.0289427940774942  0.6275316419163133  0.3801985421558101
  0.0201086440948615  0.6306134915617037  0.8753479854351411
  0.0112307261127711  0.8845324455375447  0.9718533922972838
  0.5880908799453834  0.6447686267648365  0.0373612141483193
  0.5027305782440692  0.6536722554493366  0.6220174690920786
  0.4645844169659128  0.3111729086316970  0.3677352878133888
  0.4631384691015157  0.3245470540991988  0.8844038544558543
  0.3740031517642777  0.8477551847024145  0.1201240945532192
  0.3574344136292780  0.8617962635971281  0.6112079289318615
  0.6827993772276102  0.1532577220470657  0.3738422702449995
  0.6473493144928213  0.1462412486022160  0.8682046116095137
  0.1433964790496631  0.4865396157000390  0.1312529956105948
  0.1427273375277309  0.4964915522116087  0.6239207839272041
  0.8502725178784232  0.5378341448196764  0.3768998474830738
  0.8424979061326070  0.5324334486973896  0.8742141565563912
  0.7195910318758294  0.6491626794452401  0.5305168274094854
  0.2585954296656965  0.3435759546531187  0.4543802154428676
  0.2409380228955129  0.3444386434522926  0.9610193345657549
  0.3865709752448439  0.0782531279079137  0.0323023762552097
  0.3559787514548134  0.0872076904952337  0.5276593183768910
  0.6604674891915039  0.9151128926236751  0.4539331101177240
  0.7197167045404029  0.9577066528278237  0.9324593029644106
  0.9271921840445287  0.2558051175012324  0.0497072456533800
  0.9229686133580444  0.2681705134363597  0.5399620505004563
  0.0933699051209089  0.7361311325473707  0.4636490854937634
  0.0722037632779475  0.7424898524692978  0.9622593801918100
  0.2579475302582992  0.3485784555037199  0.2869426232701144
  0.2165177238994289  0.2601764059616443  0.8013027475186334
  0.7129501938611185  0.6773672797168331  0.1947230350815801
  0.7411450238287998  0.6719407349291728  0.6986876271903668
  0.6366288519799070  0.9085077811601963  0.2881315932380346
  0.6195971786166794  0.9170850241723869  0.7724328206956059
  0.3144465702973491  0.0412918452414530  0.1968629938908251
  0.3277912825909794  0.0676963840977649  0.6950336202184033
  0.0991008248206100  0.7331929120453964  0.2967507056141869
  0.0899757518539772  0.7355366602548159  0.7927241109619274
  0.9117055678645585  0.2717953628107352  0.2168052547649140
  0.9163910837988496  0.2740018396274593  0.7092340615405988
  0.5318816949017062  0.4094640931578155  0.1321584045388562
  0.5422739492312019  0.4196452049475141  0.6259293626935118
  0.4738824361648568  0.5716390597921190  0.3721815587210884
  0.4100021234406697  0.5424076247514833  0.8473144340816887
  0.5894346616954067  0.1261622323175260  0.1444360139183658
  0.5851114673487388  0.1375578319783628  0.6225487705488106
  0.4232686902906977  0.9011775429769102  0.3822219664610813
  0.4333621915853385  0.8677022980086875  0.8958792536176503
  0.8733366046296425  0.4574196302644680  0.1205406082872997
  0.8699399234455143  0.4611823010037170  0.6200873068316568
  0.0925131028051140  0.5121904336273602  0.3832141829510007
  0.0954358009789402  0.5291690500106867  0.8904977420317266
  0.9910752758409487  0.0061936476371045  0.2072387583197610
  0.9982188066512450  0.0026011946062425  0.6153384183821302
 
  0.00000000E+00  0.00000000E+00  0.00000000E+00
  0.00000000E+00  0.00000000E+00  0.00000000E+00
  0.00000000E+00  0.00000000E+00  0.00000000E+00
  0.00000000E+00  0.00000000E+00  0.00000000E+00
  0.00000000E+00  0.00000000E+00  0.00000000E+00
  0.00000000E+00  0.00000000E+00  0.00000000E+00
  0.00000000E+00  0.00000000E+00  0.00000000E+00
  0.00000000E+00  0.00000000E+00  0.00000000E+00
  0.00000000E+00  0.00000000E+00  0.00000000E+00
  0.00000000E+00  0.00000000E+00  0.00000000E+00
  0.00000000E+00  0.00000000E+00  0.00000000E+00
  0.00000000E+00  0.00000000E+00  0.00000000E+00
  0.00000000E+00  0.00000000E+00  0.00000000E+00
  0.00000000E+00  0.00000000E+00  0.00000000E+00
  0.00000000E+00  0.00000000E+00  0.00000000E+00
  0.00000000E+00  0.00000000E+00  0.00000000E+00
  0.00000000E+00  0.00000000E+00  0.00000000E+00
  0.00000000E+00  0.00000000E+00  0.00000000E+00
  0.00000000E+00  0.00000000E+00  0.00000000E+00
  0.00000000E+00  0.00000000E+00  0.00000000E+00
  0.00000000E+00  0.00000000E+00  0.00000000E+00
  0.00000000E+00  0.00000000E+00  0.00000000E+00
  0.00000000E+00  0.00000000E+00  0.00000000E+00
  0.00000000E+00  0.00000000E+00  0.00000000E+00
  0.00000000E+00  0.00000000E+00  0.00000000E+00
  0.00000000E+00  0.00000000E+00  0.00000000E+00
  0.00000000E+00  0.00000000E+00  0.00000000E+00
  0.00000000E+00  0.00000000E+00  0.00000000E+00
  0.00000000E+00  0.00000000E+00  0.00000000E+00
  0.00000000E+00  0.00000000E+00  0.00000000E+00
  0.00000000E+00  0.00000000E+00  0.00000000E+00
  0.00000000E+00  0.00000000E+00  0.00000000E+00
  0.00000000E+00  0.00000000E+00  0.00000000E+00
  0.00000000E+00  0.00000000E+00  0.00000000E+00
  0.00000000E+00  0.00000000E+00  0.00000000E+00
  0.00000000E+00  0.00000000E+00  0.00000000E+00
  0.00000000E+00  0.00000000E+00  0.00000000E+00
  0.00000000E+00  0.00000000E+00  0.00000000E+00
  0.00000000E+00  0.00000000E+00  0.00000000E+00
  0.00000000E+00  0.00000000E+00  0.00000000E+00
  0.00000000E+00  0.00000000E+00  0.00000000E+00
  0.00000000E+00  0.00000000E+00  0.00000000E+00
  0.00000000E+00  0.00000000E+00  0.00000000E+00
  0.00000000E+00  0.00000000E+00  0.00000000E+00
  0.00000000E+00  0.00000000E+00  0.00000000E+00
  0.00000000E+00  0.00000000E+00  0.00000000E+00
  0.00000000E+00  0.00000000E+00  0.00000000E+00
  0.00000000E+00  0.00000000E+00  0.00000000E+00
  0.00000000E+00  0.00000000E+00  0.00000000E+00
  0.00000000E+00  0.00000000E+00  0.00000000E+00
  0.00000000E+00  0.00000000E+00  0.00000000E+00
  0.00000000E+00  0.00000000E+00  0.00000000E+00
  0.00000000E+00  0.00000000E+00  0.00000000E+00
  0.00000000E+00  0.00000000E+00  0.00000000E+00
  0.00000000E+00  0.00000000E+00  0.00000000E+00
  0.00000000E+00  0.00000000E+00  0.00000000E+00
  0.00000000E+00  0.00000000E+00  0.00000000E+00
  0.00000000E+00  0.00000000E+00  0.00000000E+00
  0.00000000E+00  0.00000000E+00  0.00000000E+00
  0.00000000E+00  0.00000000E+00  0.00000000E+00
  0.00000000E+00  0.00000000E+00  0.00000000E+00
  0.00000000E+00  0.00000000E+00  0.00000000E+00
  0.00000000E+00  0.00000000E+00  0.00000000E+00
  0.00000000E+00  0.00000000E+00  0.00000000E+00
  0.00000000E+00  0.00000000E+00  0.00000000E+00
  0.00000000E+00  0.00000000E+00  0.00000000E+00
  0.00000000E+00  0.00000000E+00  0.00000000E+00
  0.00000000E+00  0.00000000E+00  0.00000000E+00
  0.00000000E+00  0.00000000E+00  0.00000000E+00
  0.00000000E+00  0.00000000E+00  0.00000000E+00
  0.00000000E+00  0.00000000E+00  0.00000000E+00
  0.00000000E+00  0.00000000E+00  0.00000000E+00
  0.00000000E+00  0.00000000E+00  0.00000000E+00
  0.00000000E+00  0.00000000E+00  0.00000000E+00
  0.00000000E+00  0.00000000E+00  0.00000000E+00
  0.00000000E+00  0.00000000E+00  0.00000000E+00
  0.00000000E+00  0.00000000E+00  0.00000000E+00
  0.00000000E+00  0.00000000E+00  0.00000000E+00
  0.00000000E+00  0.00000000E+00  0.00000000E+00
  0.00000000E+00  0.00000000E+00  0.00000000E+00
  0.00000000E+00  0.00000000E+00  0.00000000E+00
  0.00000000E+00  0.00000000E+00  0.00000000E+00
