supercell of icsd_181358.cif            
   1.00000000000000     
     9.9587514429641057   -0.0039565442885033   -0.0030536386325846
    -4.9828012395561139    8.6397177312924889   -0.0034402634491047
    -0.0032526193593500   -0.0061323040224311   10.6254072182555177
   N    Ga   Sc
    36    26    10
Direct
  0.2261152967657836  0.1009356601705633  0.4425016343032908
  0.1117482279766477  0.2234842866721323  0.1953247797627924
  0.8961304334263005  0.1065066856706096  0.9374619281551020
  0.7792884770152426  0.2201466526408353  0.6932585619797891
  0.5394958223241133  0.0997547479074399  0.4423297417732996
  0.4446207335427346  0.2232280751557312  0.2029939786789541
  0.2112758180218037  0.1075669187538466  0.9425827007506768
  0.1040933739849805  0.2288617765144920  0.6877000702280043
  0.8808550146728749  0.0932288462336857  0.4333359615982673
  0.7761071202231093  0.2239330197788050  0.2100272210288381
  0.5572737670019166  0.1144272792262910  0.9304506485706483
  0.4577102198487211  0.2287762637657522  0.6856442958052043
  0.2313380915174932  0.4629272661418469  0.4347651483405954
  0.1031772687456254  0.5436035950244573  0.1903432821119466
  0.8866969784356726  0.4408616667963869  0.9281622905468296
  0.7776080024832055  0.5562137316581044  0.6925170031709200
  0.5556294968828013  0.4452594366896037  0.4429335249560680
  0.4466348357661332  0.5572536613427772  0.1881995749612670
  0.2305322063078705  0.4354215040983718  0.9358753879999426
  0.1130661180310852  0.5543571757084820  0.6937071175870813
  0.8982479621786084  0.4620847434646791  0.4434819562677959
  0.7702658974314005  0.5429676657556328  0.1924374497404884
  0.5471265298298960  0.4478000746579553  0.9286170300412806
  0.4438704786290799  0.5553285737865963  0.6846835526870549
  0.2232334453071445  0.7776554919381908  0.4527622350916474
  0.1159647783451163  0.9007105094204704  0.1851912063466159
  0.8951079162831945  0.7915147801011244  0.9362346446992973
  0.7782502634876352  0.8896328613212461  0.6896044319449146
  0.5565727047288078  0.7783274900917405  0.4401602686527397
  0.4558933507350815  0.8954641760735811  0.1918262387183631
  0.2145681690369869  0.7859339849713294  0.9346339483050699
  0.1031975592533954  0.8749757240068234  0.6878271988123146
  0.8871782391189242  0.7770260782056155  0.4493678914077677
  0.7699131545705598  0.8957419584131330  0.1815585863428950
  0.5634630950719739  0.7688433825710916  0.9323878334510027
  0.4453535471205754  0.8871981404818499  0.6941867760103690
  0.2244509240609176  0.1120874137683074  0.2533136188215863
  0.1115486588177603  0.2192809845698775  0.0021642429415039
  0.8893045255529302  0.1115241466461470  0.7510208744808651
  0.5522911847567542  0.1092670777221727  0.2574790648872920
  0.8850769284254341  0.1078288515500816  0.2497440918274805
  0.5601321545840960  0.1135529278506766  0.7463308634837063
  0.4453494442041261  0.2207680653699882  0.4991531646300800
  0.2242858796167368  0.4478848183720885  0.2486360013433995
  0.8881249281851993  0.4420459742633298  0.7450645500997553
  0.7787226354149865  0.5593613986905339  0.5043553712031539
  0.5543136965025113  0.4430474003199336  0.2556801328463294
  0.4467055019439599  0.5545421113442188  0.9974757990484378
  0.2243967725697829  0.4434189664109169  0.7488281626979472
  0.1156761060852745  0.5614151037470450  0.5046136965026804
  0.8886436210068922  0.4459219130271705  0.2567079870168527
  0.5554244116655269  0.4466677897217934  0.7443524858615973
  0.4465653281319462  0.5598405102429638  0.4980518750201242
  0.1088663794892710  0.8947230958341521  0.9982202981919528
  0.8881641511699101  0.7781818401176039  0.7486408497278205
  0.7751790250581791  0.8845913680141777  0.5029645390735311
  0.5569839456201464  0.7808540950233365  0.2506624564247772
  0.2190487777985268  0.7759714445521695  0.7477813424873787
  0.1088750683801294  0.8824542296513513  0.5037929730306629
  0.7797671330774776  0.8903342471833042  0.9948597751252919
  0.5577732147899681  0.7740043353150341  0.7473701685924752
  0.4421432422744687  0.8853919432581350  0.5053476692912611
  0.7756073484888120  0.2212218691440242  0.4914353912051936
  0.4410298735369977  0.2237842688527323  0.0016066165837074
  0.2202222878002331  0.1102163907151663  0.7446862462465234
  0.1128105081833937  0.2253547352224388  0.4892445145490925
  0.7802284685894776  0.2203411688078631  0.0040790268751039
  0.1125345786900027  0.5529278830825888  0.9906215874249824
  0.7757516422904658  0.5577057358563593  0.9910389567807840
  0.2240352998689730  0.7782370116055475  0.2530919693272295
  0.4477511429907608  0.8877085531408468  0.9909732267397473
  0.8846108162754689  0.7795864457946422  0.2495343087805892
 
  0.00000000E+00  0.00000000E+00  0.00000000E+00
  0.00000000E+00  0.00000000E+00  0.00000000E+00
  0.00000000E+00  0.00000000E+00  0.00000000E+00
  0.00000000E+00  0.00000000E+00  0.00000000E+00
  0.00000000E+00  0.00000000E+00  0.00000000E+00
  0.00000000E+00  0.00000000E+00  0.00000000E+00
  0.00000000E+00  0.00000000E+00  0.00000000E+00
  0.00000000E+00  0.00000000E+00  0.00000000E+00
  0.00000000E+00  0.00000000E+00  0.00000000E+00
  0.00000000E+00  0.00000000E+00  0.00000000E+00
  0.00000000E+00  0.00000000E+00  0.00000000E+00
  0.00000000E+00  0.00000000E+00  0.00000000E+00
  0.00000000E+00  0.00000000E+00  0.00000000E+00
  0.00000000E+00  0.00000000E+00  0.00000000E+00
  0.00000000E+00  0.00000000E+00  0.00000000E+00
  0.00000000E+00  0.00000000E+00  0.00000000E+00
  0.00000000E+00  0.00000000E+00  0.00000000E+00
  0.00000000E+00  0.00000000E+00  0.00000000E+00
  0.00000000E+00  0.00000000E+00  0.00000000E+00
  0.00000000E+00  0.00000000E+00  0.00000000E+00
  0.00000000E+00  0.00000000E+00  0.00000000E+00
  0.00000000E+00  0.00000000E+00  0.00000000E+00
  0.00000000E+00  0.00000000E+00  0.00000000E+00
  0.00000000E+00  0.00000000E+00  0.00000000E+00
  0.00000000E+00  0.00000000E+00  0.00000000E+00
  0.00000000E+00  0.00000000E+00  0.00000000E+00
  0.00000000E+00  0.00000000E+00  0.00000000E+00
  0.00000000E+00  0.00000000E+00  0.00000000E+00
  0.00000000E+00  0.00000000E+00  0.00000000E+00
  0.00000000E+00  0.00000000E+00  0.00000000E+00
  0.00000000E+00  0.00000000E+00  0.00000000E+00
  0.00000000E+00  0.00000000E+00  0.00000000E+00
  0.00000000E+00  0.00000000E+00  0.00000000E+00
  0.00000000E+00  0.00000000E+00  0.00000000E+00
  0.00000000E+00  0.00000000E+00  0.00000000E+00
  0.00000000E+00  0.00000000E+00  0.00000000E+00
  0.00000000E+00  0.00000000E+00  0.00000000E+00
  0.00000000E+00  0.00000000E+00  0.00000000E+00
  0.00000000E+00  0.00000000E+00  0.00000000E+00
  0.00000000E+00  0.00000000E+00  0.00000000E+00
  0.00000000E+00  0.00000000E+00  0.00000000E+00
  0.00000000E+00  0.00000000E+00  0.00000000E+00
  0.00000000E+00  0.00000000E+00  0.00000000E+00
  0.00000000E+00  0.00000000E+00  0.00000000E+00
  0.00000000E+00  0.00000000E+00  0.00000000E+00
  0.00000000E+00  0.00000000E+00  0.00000000E+00
  0.00000000E+00  0.00000000E+00  0.00000000E+00
  0.00000000E+00  0.00000000E+00  0.00000000E+00
  0.00000000E+00  0.00000000E+00  0.00000000E+00
  0.00000000E+00  0.00000000E+00  0.00000000E+00
  0.00000000E+00  0.00000000E+00  0.00000000E+00
  0.00000000E+00  0.00000000E+00  0.00000000E+00
  0.00000000E+00  0.00000000E+00  0.00000000E+00
  0.00000000E+00  0.00000000E+00  0.00000000E+00
  0.00000000E+00  0.00000000E+00  0.00000000E+00
  0.00000000E+00  0.00000000E+00  0.00000000E+00
  0.00000000E+00  0.00000000E+00  0.00000000E+00
  0.00000000E+00  0.00000000E+00  0.00000000E+00
  0.00000000E+00  0.00000000E+00  0.00000000E+00
  0.00000000E+00  0.00000000E+00  0.00000000E+00
  0.00000000E+00  0.00000000E+00  0.00000000E+00
  0.00000000E+00  0.00000000E+00  0.00000000E+00
  0.00000000E+00  0.00000000E+00  0.00000000E+00
  0.00000000E+00  0.00000000E+00  0.00000000E+00
  0.00000000E+00  0.00000000E+00  0.00000000E+00
  0.00000000E+00  0.00000000E+00  0.00000000E+00
  0.00000000E+00  0.00000000E+00  0.00000000E+00
  0.00000000E+00  0.00000000E+00  0.00000000E+00
  0.00000000E+00  0.00000000E+00  0.00000000E+00
  0.00000000E+00  0.00000000E+00  0.00000000E+00
  0.00000000E+00  0.00000000E+00  0.00000000E+00
  0.00000000E+00  0.00000000E+00  0.00000000E+00
