supercell of POSCAR                     
   1.01800000000000     
     3.1310994802600001   -5.4896946145000003   10.0244832682999991
    -9.4821132118399998   -5.5089477087900001    0.0170740616273000
     6.3359946057599998  -11.0114127993000004  -10.0652216442999993
   Al   Gd   N 
    84    11    96
Direct
  0.0880708392936569  0.5853258826608041  0.3355725726011229
  0.4990693613441977  0.3265886764766677  0.2542654086090437
  0.0862360258783852  0.0850207360358368  0.3346249742642087
  0.2518215717285486  0.5786429008451179  0.4943093232454956
  0.3334417498618834  0.3225738448083248  0.0785170437123099
  0.4157452870937632  0.0872397847871156  0.1674412558300702
  0.0039595899685523  0.8450247546684935  0.2570445729940829
  0.1690262939282619  0.3326594748101286  0.4113904016515733
  0.2478036543368844  0.0869772341555333  0.4957668053203292
  0.1620783177781888  0.8369791274677709  0.4159913840453768
  0.3363832700446281  0.6729999914591360  0.3398729320120779
  0.1504773083716913  0.6817114395496660  0.1719814976757519
  0.2535007935458466  0.4076900202352363  0.2504781924358426
  0.3339211481260804  0.1650065504298865  0.3332133678592157
  0.0061372461426856  0.6730458935737715  0.4950220360382716
  0.1677266117704690  0.1605175593987411  0.1697517442118510
  0.2504885146396347  0.9190393302067434  0.2538816382121283
  0.4135328235396969  0.4146692022482981  0.4150386172652603
  0.4985257827954399  0.1612673906280833  0.4965460222029492
  0.0899549065646923  0.9198280287318497  0.0840606423087991
  0.4187862700468798  0.9201755597769932  0.4112019421252313
  0.0891734501133996  0.5822959382329174  0.8328189787211215
  0.5002429572554732  0.3214832395322702  0.7553142248301157
  0.0874295227060955  0.0833871318893387  0.8353861338516140
  0.2500029509663335  0.5772853605955959  0.9887751264496956
  0.3323757592977614  0.3176586623213851  0.5779254773521885
  0.4172823955092326  0.0865006100786729  0.6709099299862160
  0.0091770860603049  0.8422890766661411  0.7561748071436867
  0.1684358328735769  0.3291876364809028  0.9121047860918168
  0.2524575254529111  0.0853812284946613  0.9990324406161761
  0.1679157286183042  0.8329209010100129  0.9181919961716716
  0.3379455677536214  0.6729532984789941  0.8388995312121779
  0.1550512879933450  0.6743902946476581  0.6654286909882288
  0.2507973659426312  0.4004978648605757  0.7518224670594620
  0.3347076078113602  0.1632033958097807  0.8341737755719691
  0.0067497594673540  0.6747600075734255  0.9928454935459214
  0.1674011162617859  0.1581458875693826  0.6695271073238516
  0.2532693809567661  0.9194358501879520  0.7557607418805148
  0.4136839927822962  0.4133771488384284  0.9147497364006156
  0.4990516186002054  0.1616324373650357  0.9968955384731260
  0.0833399366375573  0.9232277813193122  0.5799468890119925
  0.4162572340530843  0.9199168413107088  0.9136819996007191
  0.5892667291494860  0.5823453836308445  0.3331215512559211
  0.0014724667828077  0.3231034843387732  0.2551837340428875
  0.5845867175089339  0.0863766977300529  0.3331683766776123
  0.7513787185803835  0.5785566627821765  0.4940628515466230
  0.8320093805393682  0.3177355072154313  0.0782916517367838
  0.9182888600398016  0.0866655602462458  0.1711741044993573
  0.5084948427097160  0.8405136420768784  0.2532084671135379
  0.6684664533308222  0.3315357643515782  0.4121121043370835
  0.7473276526123414  0.0869087926166756  0.4955986050776673
  0.6611957662144263  0.8361355186758885  0.4153649569021667
  0.8363634875961878  0.6732195552983882  0.3401360649450211
  0.6566020855508512  0.6752370938177990  0.1653443723258263
  0.7513636260691854  0.4010370933976262  0.2520049386642924
  0.8348469933883180  0.1640432712047257  0.3340464962704957
  0.5066602605083546  0.6726670716133114  0.4938653960149253
  0.6671395864936045  0.1590709308843756  0.1697710716308478
  0.7522157282933648  0.9206169754592182  0.2563749236718280
  0.9130247578556308  0.4143626359565147  0.4155019168594691
  0.9990335321834465  0.1613086055364477  0.4969299785832533
  0.5766958424465400  0.9234445676947445  0.0839182838367023
  0.9194045873448715  0.9200453896295997  0.4128828729825216
  0.5893756987968999  0.5843362330963089  0.8344656149230900
  0.0000190513733145  0.3209492568705627  0.7555449955775160
  0.5852410968237862  0.0840535586957856  0.8350088592568312
  0.7512362145794427  0.5788648074552967  0.9950210885169284
  0.8324462531130763  0.3172812691607660  0.5784523113704978
  0.9179082009643906  0.0861477889000852  0.6717730326711262
  0.5070371454532463  0.8428797015833780  0.7554581314291369
  0.6680907500054900  0.3323127150428036  0.9129334167340204
  0.7452235635642950  0.0866457014360833  0.9963539415632425
  0.6619507866866030  0.8355729054238523  0.9158521368098178
  0.8366948815647248  0.6723999602933475  0.8403063185541342
  0.6545356978832189  0.6749090817421930  0.6655051162924082
  0.7506584494798716  0.4005715906468978  0.7525303563921781
  0.8342799261144194  0.1627825337022486  0.8351085878778548
  0.5047468582136432  0.6726959684484228  0.9947394203058622
  0.6671391718750357  0.1578280035947301  0.6698300320445867
  0.7535710113847500  0.9194447285131844  0.7567948152220225
  0.9132463258459325  0.4133949756055060  0.9156537941572935
  0.9992947880847467  0.1591656010036502  0.9983069833255840
  0.5827459738564542  0.9236109724243562  0.5793980708928217
  0.9225131307186700  0.9192913641758054  0.9125916958471976
  0.3897229544868352  0.6027892243143214  0.1688593576214501
  0.0830512022597460  0.4195149389696766  0.0840413341711113
  0.3982924658571818  0.5784775984280373  0.6776692099584736
  0.3323171942544008  0.8362254953143307  0.5832036174270954
  0.0827296575422025  0.4179732976172730  0.5847811123271782
  0.8982092884164743  0.5795936477671688  0.1780027194369964
  0.8310590507065641  0.8409343966919138  0.0823292814660803
  0.5800485534224578  0.4190359202803862  0.0863936884703236
  0.8971566731374594  0.5790056836548843  0.6780264826025757
  0.8311353248046345  0.8378311618766290  0.5841541350300972
  0.5824647442407453  0.4176929973775572  0.5848454964751042
  0.2176497372280295  0.5850579685063693  0.2661772184154501
  0.0363902281262725  0.6143320900533595  0.1003357533957043
  0.1323944060126081  0.3202053884254070  0.1997454345954353
  0.2126314266621208  0.0823824268482056  0.2718277621580540
  0.3822167213220240  0.5837290986611450  0.4365198005685258
  0.4492154403665154  0.3193826739079526  0.0101278116144954
  0.0428730333485561  0.0837725857518237  0.1045517031031622
  0.1273975224639372  0.8445804590508459  0.1899157444896034
  0.2970900338904414  0.3316444384498922  0.3502596483457481
  0.3765662877804345  0.0811724138243335  0.4343049418572846
  0.4774660900466827  0.8381236305388100  0.0083684460718843
  0.2927695162169570  0.8349759403485351  0.3551558230742771
  0.4708442655082266  0.6815598893508863  0.2841308061419667
  0.2413785517510973  0.6552667828133281  0.0879190852148639
  0.3783126543955788  0.3989314434970126  0.1829337668305939
  0.4599050272651297  0.1640158247853236  0.2714692815144915
  0.1341670435461211  0.6659691354394397  0.4333161510761698
  0.2245478949375652  0.4119982194499343  0.0082054245567775
  0.2908234970802681  0.1622666571390994  0.1028944472731297
  0.3853119029545624  0.9281355926934225  0.2019853835406664
  0.0433345096965709  0.4199994723572971  0.3517901177462903
  0.1274379138894304  0.1715027184212943  0.4342569900015363
  0.2003752461980994  0.9288062496563327  0.0120664601688816
  0.0476423244197690  0.9246164779164516  0.3538731163462074
  0.2187587826240289  0.5800221801703742  0.7663335438338592
  0.0331976484802468  0.6100218683408798  0.6008718310718493
  0.1299741172564595  0.3163072113685246  0.7003870139292516
  0.2127728583840138  0.0817351161038999  0.7725022596124802
  0.3823378265362578  0.5830116628584534  0.9368490235584161
  0.4490295639507167  0.3190200810971504  0.5100013114204671
  0.0406881573535998  0.0850321321033078  0.6039316599728224
  0.1327225059603165  0.8417537289211481  0.6861577387536286
  0.2964458796073259  0.3285516141489850  0.8522394024149804
  0.3772617168704926  0.0810638721116703  0.9355821381561569
  0.4758835636996821  0.8375870860981536  0.5070449932870531
  0.2938150567619360  0.8336583684805419  0.8560448754618264
  0.4718721865198177  0.6838296674458562  0.7859758124312179
  0.2639566426095499  0.6550406216845772  0.5946958205257999
  0.3745819677971340  0.3811351092699127  0.6851632364624365
  0.4619943332700416  0.1617825135364015  0.7741781700381622
  0.1327566104203726  0.6643187422545012  0.9308427628726221
  0.2249863717887663  0.4118183495727550  0.5086767887402672
  0.2901370732247486  0.1568374783824282  0.6019373598064419
  0.3848647827702578  0.9273006898594360  0.7019238279362483
  0.0433626459937386  0.4175469651998753  0.8523459396412463
  0.1283602513559714  0.1671881344032826  0.9366133390739790
  0.1967550710340547  0.9316361356789571  0.5100581492285414
  0.0521881775404296  0.9217488888787528  0.8548489778445401
  0.7196442995754140  0.5806647845567454  0.2653266034028903
  0.5353916128268494  0.6116212414524540  0.1002173597174973
  0.6305201306577217  0.3170176248168559  0.2007238507093092
  0.7119346269301658  0.0827842139761756  0.2724332264355311
  0.8822079427344178  0.5834722347658001  0.4370671727469571
  0.9498573705549873  0.3179642743548499  0.0109664188739274
  0.5405201580058119  0.0870137805939706  0.1039033626466264
  0.6322709755829550  0.8418321392691794  0.1866051824868293
  0.7968746304742211  0.3293233296285152  0.3521960023540345
  0.8766606029432324  0.0809120216472508  0.4352380096996740
  0.9794726724777050  0.8388275335961737  0.0096442722854135
  0.7924188781005981  0.8348570212887694  0.3563660764729732
  0.9708871415840221  0.6847426955641254  0.2861124672292163
  0.7664844400188997  0.6586586047977221  0.0946832941901832
  0.8754024296607525  0.3824483140200172  0.1850141856594902
  0.9628095040048095  0.1632040964975161  0.2737539972319070
  0.6336108282450823  0.6648288928441772  0.4314043845544404
  0.7238471299980631  0.4122922641266271  0.0103759466338147
  0.7903039522152469  0.1562445003455295  0.1022281801105791
  0.8827256455925792  0.9283001712147296  0.2021363805959240
  0.5439651106610697  0.4186587363110448  0.3522481479255717
  0.6262604779786045  0.1704049213961909  0.4339028135712084
  0.6893997583673865  0.9309145369691336  0.0109227240200411
  0.5461163794709805  0.9238814229151657  0.3504452118105803
  0.7186326780697883  0.5807227542726565  0.7668420558705691
  0.5334905118750086  0.6103980400818116  0.5999104355704219
  0.6303437888696521  0.3163336985155070  0.7004896611031697
  0.7120608188849360  0.0813963669671267  0.7730874892020907
  0.8825627083944241  0.5831150603288577  0.9381339973020602
  0.9491958421090985  0.3188878659553254  0.5105445225276810
  0.5404537691886802  0.0852863991833459  0.6035001356209264
  0.6326854616094479  0.8425028415711111  0.6861696147422265
  0.7963996654247794  0.3287052912590340  0.8530101793824798
  0.8760156762399163  0.0785666376946281  0.9366557902422414
  0.9751068949786514  0.8375140265697141  0.5089177533232885
  0.7938366039640385  0.8342997214480974  0.8579687036937074
  0.9712868494137084  0.6835758829957967  0.7867776468591856
  0.7635375381780989  0.6560128455830565  0.5943111637476619
  0.8744655483989874  0.3813157586224349  0.6856313560093241
  0.9624477431359182  0.1611578135130927  0.7754069180274996
  0.6333626604368021  0.6654006878142624  0.9334513267208280
  0.7248269293299430  0.4114266353898159  0.5092568835639995
  0.7901646510010281  0.1559197503613916  0.6023881555740616
  0.8859413598077097  0.9269504513163511  0.7038059075946563
  0.5432162432515781  0.4191370575591833  0.8518785141291687
  0.6264943350176253  0.1710693496308053  0.9346650356101449
  0.6955864718760694  0.9315333970927924  0.5090139326611975
  0.5471086257017461  0.9224210579362406  0.8540137491206181
 
  0.00000000E+00  0.00000000E+00  0.00000000E+00
  0.00000000E+00  0.00000000E+00  0.00000000E+00
  0.00000000E+00  0.00000000E+00  0.00000000E+00
  0.00000000E+00  0.00000000E+00  0.00000000E+00
  0.00000000E+00  0.00000000E+00  0.00000000E+00
  0.00000000E+00  0.00000000E+00  0.00000000E+00
  0.00000000E+00  0.00000000E+00  0.00000000E+00
  0.00000000E+00  0.00000000E+00  0.00000000E+00
  0.00000000E+00  0.00000000E+00  0.00000000E+00
  0.00000000E+00  0.00000000E+00  0.00000000E+00
  0.00000000E+00  0.00000000E+00  0.00000000E+00
  0.00000000E+00  0.00000000E+00  0.00000000E+00
  0.00000000E+00  0.00000000E+00  0.00000000E+00
  0.00000000E+00  0.00000000E+00  0.00000000E+00
  0.00000000E+00  0.00000000E+00  0.00000000E+00
  0.00000000E+00  0.00000000E+00  0.00000000E+00
  0.00000000E+00  0.00000000E+00  0.00000000E+00
  0.00000000E+00  0.00000000E+00  0.00000000E+00
  0.00000000E+00  0.00000000E+00  0.00000000E+00
  0.00000000E+00  0.00000000E+00  0.00000000E+00
  0.00000000E+00  0.00000000E+00  0.00000000E+00
  0.00000000E+00  0.00000000E+00  0.00000000E+00
  0.00000000E+00  0.00000000E+00  0.00000000E+00
  0.00000000E+00  0.00000000E+00  0.00000000E+00
  0.00000000E+00  0.00000000E+00  0.00000000E+00
  0.00000000E+00  0.00000000E+00  0.00000000E+00
  0.00000000E+00  0.00000000E+00  0.00000000E+00
  0.00000000E+00  0.00000000E+00  0.00000000E+00
  0.00000000E+00  0.00000000E+00  0.00000000E+00
  0.00000000E+00  0.00000000E+00  0.00000000E+00
  0.00000000E+00  0.00000000E+00  0.00000000E+00
  0.00000000E+00  0.00000000E+00  0.00000000E+00
  0.00000000E+00  0.00000000E+00  0.00000000E+00
  0.00000000E+00  0.00000000E+00  0.00000000E+00
  0.00000000E+00  0.00000000E+00  0.00000000E+00
  0.00000000E+00  0.00000000E+00  0.00000000E+00
  0.00000000E+00  0.00000000E+00  0.00000000E+00
  0.00000000E+00  0.00000000E+00  0.00000000E+00
  0.00000000E+00  0.00000000E+00  0.00000000E+00
  0.00000000E+00  0.00000000E+00  0.00000000E+00
  0.00000000E+00  0.00000000E+00  0.00000000E+00
  0.00000000E+00  0.00000000E+00  0.00000000E+00
  0.00000000E+00  0.00000000E+00  0.00000000E+00
  0.00000000E+00  0.00000000E+00  0.00000000E+00
  0.00000000E+00  0.00000000E+00  0.00000000E+00
  0.00000000E+00  0.00000000E+00  0.00000000E+00
  0.00000000E+00  0.00000000E+00  0.00000000E+00
  0.00000000E+00  0.00000000E+00  0.00000000E+00
  0.00000000E+00  0.00000000E+00  0.00000000E+00
  0.00000000E+00  0.00000000E+00  0.00000000E+00
  0.00000000E+00  0.00000000E+00  0.00000000E+00
  0.00000000E+00  0.00000000E+00  0.00000000E+00
  0.00000000E+00  0.00000000E+00  0.00000000E+00
  0.00000000E+00  0.00000000E+00  0.00000000E+00
  0.00000000E+00  0.00000000E+00  0.00000000E+00
  0.00000000E+00  0.00000000E+00  0.00000000E+00
  0.00000000E+00  0.00000000E+00  0.00000000E+00
  0.00000000E+00  0.00000000E+00  0.00000000E+00
  0.00000000E+00  0.00000000E+00  0.00000000E+00
  0.00000000E+00  0.00000000E+00  0.00000000E+00
  0.00000000E+00  0.00000000E+00  0.00000000E+00
  0.00000000E+00  0.00000000E+00  0.00000000E+00
  0.00000000E+00  0.00000000E+00  0.00000000E+00
  0.00000000E+00  0.00000000E+00  0.00000000E+00
  0.00000000E+00  0.00000000E+00  0.00000000E+00
  0.00000000E+00  0.00000000E+00  0.00000000E+00
  0.00000000E+00  0.00000000E+00  0.00000000E+00
  0.00000000E+00  0.00000000E+00  0.00000000E+00
  0.00000000E+00  0.00000000E+00  0.00000000E+00
  0.00000000E+00  0.00000000E+00  0.00000000E+00
  0.00000000E+00  0.00000000E+00  0.00000000E+00
  0.00000000E+00  0.00000000E+00  0.00000000E+00
  0.00000000E+00  0.00000000E+00  0.00000000E+00
  0.00000000E+00  0.00000000E+00  0.00000000E+00
  0.00000000E+00  0.00000000E+00  0.00000000E+00
  0.00000000E+00  0.00000000E+00  0.00000000E+00
  0.00000000E+00  0.00000000E+00  0.00000000E+00
  0.00000000E+00  0.00000000E+00  0.00000000E+00
  0.00000000E+00  0.00000000E+00  0.00000000E+00
  0.00000000E+00  0.00000000E+00  0.00000000E+00
  0.00000000E+00  0.00000000E+00  0.00000000E+00
  0.00000000E+00  0.00000000E+00  0.00000000E+00
  0.00000000E+00  0.00000000E+00  0.00000000E+00
  0.00000000E+00  0.00000000E+00  0.00000000E+00
  0.00000000E+00  0.00000000E+00  0.00000000E+00
  0.00000000E+00  0.00000000E+00  0.00000000E+00
  0.00000000E+00  0.00000000E+00  0.00000000E+00
  0.00000000E+00  0.00000000E+00  0.00000000E+00
  0.00000000E+00  0.00000000E+00  0.00000000E+00
  0.00000000E+00  0.00000000E+00  0.00000000E+00
  0.00000000E+00  0.00000000E+00  0.00000000E+00
  0.00000000E+00  0.00000000E+00  0.00000000E+00
  0.00000000E+00  0.00000000E+00  0.00000000E+00
  0.00000000E+00  0.00000000E+00  0.00000000E+00
  0.00000000E+00  0.00000000E+00  0.00000000E+00
  0.00000000E+00  0.00000000E+00  0.00000000E+00
  0.00000000E+00  0.00000000E+00  0.00000000E+00
  0.00000000E+00  0.00000000E+00  0.00000000E+00
  0.00000000E+00  0.00000000E+00  0.00000000E+00
  0.00000000E+00  0.00000000E+00  0.00000000E+00
  0.00000000E+00  0.00000000E+00  0.00000000E+00
  0.00000000E+00  0.00000000E+00  0.00000000E+00
  0.00000000E+00  0.00000000E+00  0.00000000E+00
  0.00000000E+00  0.00000000E+00  0.00000000E+00
  0.00000000E+00  0.00000000E+00  0.00000000E+00
  0.00000000E+00  0.00000000E+00  0.00000000E+00
  0.00000000E+00  0.00000000E+00  0.00000000E+00
  0.00000000E+00  0.00000000E+00  0.00000000E+00
  0.00000000E+00  0.00000000E+00  0.00000000E+00
  0.00000000E+00  0.00000000E+00  0.00000000E+00
  0.00000000E+00  0.00000000E+00  0.00000000E+00
  0.00000000E+00  0.00000000E+00  0.00000000E+00
  0.00000000E+00  0.00000000E+00  0.00000000E+00
  0.00000000E+00  0.00000000E+00  0.00000000E+00
  0.00000000E+00  0.00000000E+00  0.00000000E+00
  0.00000000E+00  0.00000000E+00  0.00000000E+00
  0.00000000E+00  0.00000000E+00  0.00000000E+00
  0.00000000E+00  0.00000000E+00  0.00000000E+00
  0.00000000E+00  0.00000000E+00  0.00000000E+00
  0.00000000E+00  0.00000000E+00  0.00000000E+00
  0.00000000E+00  0.00000000E+00  0.00000000E+00
  0.00000000E+00  0.00000000E+00  0.00000000E+00
  0.00000000E+00  0.00000000E+00  0.00000000E+00
  0.00000000E+00  0.00000000E+00  0.00000000E+00
  0.00000000E+00  0.00000000E+00  0.00000000E+00
  0.00000000E+00  0.00000000E+00  0.00000000E+00
  0.00000000E+00  0.00000000E+00  0.00000000E+00
  0.00000000E+00  0.00000000E+00  0.00000000E+00
  0.00000000E+00  0.00000000E+00  0.00000000E+00
  0.00000000E+00  0.00000000E+00  0.00000000E+00
  0.00000000E+00  0.00000000E+00  0.00000000E+00
  0.00000000E+00  0.00000000E+00  0.00000000E+00
  0.00000000E+00  0.00000000E+00  0.00000000E+00
  0.00000000E+00  0.00000000E+00  0.00000000E+00
  0.00000000E+00  0.00000000E+00  0.00000000E+00
  0.00000000E+00  0.00000000E+00  0.00000000E+00
  0.00000000E+00  0.00000000E+00  0.00000000E+00
  0.00000000E+00  0.00000000E+00  0.00000000E+00
  0.00000000E+00  0.00000000E+00  0.00000000E+00
  0.00000000E+00  0.00000000E+00  0.00000000E+00
  0.00000000E+00  0.00000000E+00  0.00000000E+00
  0.00000000E+00  0.00000000E+00  0.00000000E+00
  0.00000000E+00  0.00000000E+00  0.00000000E+00
  0.00000000E+00  0.00000000E+00  0.00000000E+00
  0.00000000E+00  0.00000000E+00  0.00000000E+00
  0.00000000E+00  0.00000000E+00  0.00000000E+00
  0.00000000E+00  0.00000000E+00  0.00000000E+00
  0.00000000E+00  0.00000000E+00  0.00000000E+00
  0.00000000E+00  0.00000000E+00  0.00000000E+00
  0.00000000E+00  0.00000000E+00  0.00000000E+00
  0.00000000E+00  0.00000000E+00  0.00000000E+00
  0.00000000E+00  0.00000000E+00  0.00000000E+00
  0.00000000E+00  0.00000000E+00  0.00000000E+00
  0.00000000E+00  0.00000000E+00  0.00000000E+00
  0.00000000E+00  0.00000000E+00  0.00000000E+00
  0.00000000E+00  0.00000000E+00  0.00000000E+00
  0.00000000E+00  0.00000000E+00  0.00000000E+00
  0.00000000E+00  0.00000000E+00  0.00000000E+00
  0.00000000E+00  0.00000000E+00  0.00000000E+00
  0.00000000E+00  0.00000000E+00  0.00000000E+00
  0.00000000E+00  0.00000000E+00  0.00000000E+00
  0.00000000E+00  0.00000000E+00  0.00000000E+00
  0.00000000E+00  0.00000000E+00  0.00000000E+00
  0.00000000E+00  0.00000000E+00  0.00000000E+00
  0.00000000E+00  0.00000000E+00  0.00000000E+00
  0.00000000E+00  0.00000000E+00  0.00000000E+00
  0.00000000E+00  0.00000000E+00  0.00000000E+00
  0.00000000E+00  0.00000000E+00  0.00000000E+00
  0.00000000E+00  0.00000000E+00  0.00000000E+00
  0.00000000E+00  0.00000000E+00  0.00000000E+00
  0.00000000E+00  0.00000000E+00  0.00000000E+00
  0.00000000E+00  0.00000000E+00  0.00000000E+00
  0.00000000E+00  0.00000000E+00  0.00000000E+00
  0.00000000E+00  0.00000000E+00  0.00000000E+00
  0.00000000E+00  0.00000000E+00  0.00000000E+00
  0.00000000E+00  0.00000000E+00  0.00000000E+00
  0.00000000E+00  0.00000000E+00  0.00000000E+00
  0.00000000E+00  0.00000000E+00  0.00000000E+00
  0.00000000E+00  0.00000000E+00  0.00000000E+00
  0.00000000E+00  0.00000000E+00  0.00000000E+00
  0.00000000E+00  0.00000000E+00  0.00000000E+00
  0.00000000E+00  0.00000000E+00  0.00000000E+00
  0.00000000E+00  0.00000000E+00  0.00000000E+00
  0.00000000E+00  0.00000000E+00  0.00000000E+00
  0.00000000E+00  0.00000000E+00  0.00000000E+00
  0.00000000E+00  0.00000000E+00  0.00000000E+00
  0.00000000E+00  0.00000000E+00  0.00000000E+00
  0.00000000E+00  0.00000000E+00  0.00000000E+00
  0.00000000E+00  0.00000000E+00  0.00000000E+00
  0.00000000E+00  0.00000000E+00  0.00000000E+00
  0.00000000E+00  0.00000000E+00  0.00000000E+00
