supercell of POSCAR                     
   1.03600000000000     
     9.6051007291200001   -5.6678653607799996   -9.9907275475200006
     9.5551777488200003    5.5783510108199996    9.9928581731800001
    -1.5573508785200001   -8.3719044994900003    4.9655686364999996
   Al   Gd   N 
    71    24    96
Direct
  0.2982048451886996  0.2872853736940471  0.5418630545225867
  0.1421568587322710  0.2432493145356744  0.3115628527365217
  0.3071262974437730  0.4106270605209730  0.3080936576259248
  0.4632204593866334  0.3204831113388309  0.7893418655341549
  0.1426189289049020  0.4985573248466366  0.7845442194037489
  0.2977275864961726  0.1649260674794917  0.7807029957309837
  0.4726582256158949  0.4452053453673415  0.5310662624162248
  0.1434438633879580  0.1183116459291469  0.5392481975627916
  0.4866840269647739  0.0609318805953549  0.2870435506781206
  0.2683209276791771  0.1010610828873837  0.3288027997568221
  0.1102212642288407  0.0681919918737250  0.0990055872842959
  0.1156224350344672  0.1956348542299580  0.8169269861536392
  0.2736110321281302  0.3551822236663327  0.8155365355383779
  0.1108563495784978  0.3243927916384308  0.5904591966364734
  0.2709443166524537  0.4837433653123782  0.5753901183321375
  0.1114701356203014  0.4457408073781437  0.3404463072064559
  0.4488700139710602  0.4083683396945190  0.1090589774460540
  0.8023973918272134  0.2885267445049493  0.5395759143175383
  0.6471833346172318  0.2442271981381552  0.3122929766269067
  0.8095155069422191  0.4096480725164824  0.3101336116242308
  0.9631160923415010  0.3250039211040558  0.7895693445782399
  0.6425111960832339  0.4984027264635671  0.7846856584792121
  0.7948564033878895  0.1648510716138105  0.7783300996700646
  0.9698409585822034  0.4465409711440529  0.5338022494720960
  0.6437917671451672  0.1193789124828442  0.5383748291011869
  0.9777281969399425  0.0716041629556514  0.2985339164633629
  0.7773358367851202  0.1082314306661658  0.3355727892470242
  0.6174434940913258  0.0716266662478091  0.0972589990805588
  0.6126665813904637  0.1950408048971326  0.8171943876382812
  0.7752452250641539  0.3553544270470326  0.8143016329416639
  0.6144359768096095  0.3251268251206412  0.5927785548104652
  0.7716650215491754  0.4850840027457934  0.5766472100839621
  0.9484952153977275  0.2794631045937521  0.3368025134320618
  0.6138892272327396  0.4475834359585917  0.3400491433888462
  0.9486373643553279  0.4047673195601362  0.1052841756711587
  0.3017851721389775  0.7888504918817745  0.5397066906593366
  0.1428075228855619  0.7430015821761558  0.3122549312941771
  0.3067161601048340  0.9069471009265158  0.3122283177821217
  0.4640889983921639  0.8282999041409056  0.7869774772843527
  0.1424896013675010  0.9983705370462275  0.7853614721048814
  0.2963397350425296  0.6656517633688708  0.7791814001349522
  0.4697321351302080  0.9487660765780959  0.5322469093443516
  0.1442039557436630  0.6194038210845818  0.5392067008142547
  0.4785815042813581  0.5742332008855868  0.2996701656491325
  0.2767007364433596  0.6096310047921563  0.3367870550455052
  0.1155562086330164  0.5710882101270869  0.1030129703240874
  0.1163127407111304  0.6969199142849405  0.8180467074440188
  0.2762067223009339  0.8574501677822184  0.8131719267326574
  0.1129291201070188  0.8248620240216624  0.5899109119008230
  0.2717983840628477  0.9866802156577066  0.5762631236044911
  0.4490982706657718  0.7806508006959874  0.3362611368228059
  0.1089374417417375  0.9432543290746480  0.3402458804241562
  0.4486867000724715  0.9018501044087515  0.0962006886882207
  0.8014383191299927  0.7883383256659187  0.5389364487209107
  0.6435713877321376  0.7434394982270689  0.3108670410279686
  0.8088756681748777  0.9088786933919195  0.3101044144698974
  0.9633747047904464  0.8250620071839805  0.7896462524151389
  0.6417798686554690  0.9975682831584862  0.7828897156951200
  0.7958299352649902  0.6646874192820533  0.7790791310449805
  0.9695565350769968  0.9456146348430252  0.5332523242209533
  0.6439330186208281  0.6198087439969768  0.5384899207942695
  0.9787733665797447  0.5721039117679325  0.2988330317365921
  0.7776542024288062  0.6096243139817332  0.3364082060775146
  0.6156269856038037  0.5708937045761928  0.1030196191453498
  0.6147050274734127  0.6967445525348168  0.8159787283928779
  0.7742504189783332  0.8548727939544136  0.8117100811610030
  0.6117692325060915  0.8247173436673876  0.5877701741094299
  0.7709274672194724  0.9848029387166832  0.5759705082806192
  0.9478521588763300  0.7788648072746653  0.3370317318217033
  0.6139058957886618  0.9438788486330196  0.3404252469911810
  0.9471122599075485  0.9031448321451307  0.1043809262739543
  0.4801749551312042  0.1991287647261188  0.0577495451287646
  0.1351480480522014  0.3658421163079524  0.0331234144828656
  0.3100866884130369  0.0226142452589428  0.0448419849633694
  0.2813265451682554  0.2314294692107595  0.0879346179707667
  0.4483426018084771  0.0279884709876228  0.8169938916320731
  0.4419216081346633  0.1598412450016866  0.5415348217270406
  0.9825827362347681  0.1953705367369167  0.0382584508974304
  0.6355105996316510  0.3646331584461819  0.0323803042123743
  0.8088030133165276  0.0207710326142916  0.0382781945103332
  0.7850988809386195  0.2333457788195261  0.0806618325156521
  0.9474022970221654  0.0188101770831679  0.8181779823313491
  0.9439035150255606  0.1548210227026772  0.5733599723595972
  0.4836215179551928  0.6939035871096735  0.0357734763923006
  0.1369029791356127  0.8667247621750249  0.0330113164209322
  0.3078653936296476  0.5231083333645259  0.0391145442549927
  0.2843554536756869  0.7344286763643879  0.0840157682207021
  0.4485752040715738  0.5159095435076395  0.8172559166656228
  0.4435360313876515  0.6549977342998403  0.5746713976438969
  0.9828092690392367  0.6957015159322921  0.0399944182323182
  0.6352881574190263  0.8671289051653162  0.0329758772274928
  0.8078978560783554  0.5216736900275336  0.0406793110639470
  0.7831968587227323  0.7339989232496436  0.0816795780674369
  0.9490888241754618  0.5194572488954421  0.8204931481292377
  0.9448962834400803  0.6553718738425260  0.5737428439696330
  0.2360952509071410  0.3674328152567057  0.6296224192875144
  0.0749803788600119  0.3248408408714809  0.4015213490810723
  0.2378520088632285  0.4913347700332906  0.3906535106104911
  0.4191579929711864  0.2970825515324904  0.1530984903147186
  0.0698046852182586  0.4576221168638384  0.1528385499824765
  0.2280075805932995  0.0982340588911583  0.1513928581736508
  0.4002400259300742  0.3917940830626776  0.9084822551378551
  0.0911505719866383  0.0825328631139755  0.9003824934516729
  0.2344005870771682  0.2435739151821323  0.8684854452965851
  0.3969510769526039  0.0241829691274944  0.6036239948513469
  0.0905553267435621  0.2029826368309173  0.6317450195486884
  0.3932727409294827  0.1237260632092898  0.3181536510655789
  0.2199002676235864  0.1887328092368250  0.4333200739520890
  0.0599959127577492  0.1452087331270917  0.2087109117363752
  0.2133522121653328  0.3209178906274346  0.2111535756175513
  0.3666191976921596  0.1200925237078749  0.9158715003577598
  0.0424290810343706  0.2686864663794850  0.8849093943274795
  0.2099801872498830  0.4357494959283059  0.8903532335154196
  0.3685437154288422  0.2426237622408465  0.6775698963672596
  0.0395886197437889  0.4069235340058626  0.6842815910640638
  0.2126018867071764  0.0681711623986558  0.6723097499862902
  0.3728340266571308  0.3625299713008090  0.4450968664531274
  0.0483320692969542  0.0254435821808059  0.4401365668545267
  0.3902439069741774  0.4792249893200449  0.2108122848434206
  0.7400898287599631  0.3682419650484050  0.6294802075790784
  0.5951340525590609  0.3328683554495555  0.4063785676465130
  0.7413645713989752  0.4916749816198234  0.3908310119804810
  0.9282799074543533  0.2926322228757243  0.1570854548072020
  0.5707784866524150  0.4575472984332691  0.1528071990835542
  0.7369921435840254  0.1026661545832042  0.1548623520637094
  0.9000969464902155  0.3930071707494136  0.9099290251497152
  0.5947522334235060  0.0813899604511903  0.9001882832024251
  0.7320929459650216  0.2437390749311845  0.8653948734002768
  0.8950785227605991  0.0155254338590041  0.6084427468805416
  0.5865063027446524  0.2023374581232460  0.6302656002692189
  0.9045489790007579  0.1554931498633181  0.3564115415258513
  0.7211717708460128  0.1903097363860908  0.4361846030983116
  0.5673287623320817  0.1451336780935364  0.2102020866429584
  0.7185283514247800  0.3203451193857347  0.2078388235940807
  0.8654656304643211  0.1176317622031817  0.9077233064350310
  0.5399160361261011  0.2651289919310784  0.8921486926566189
  0.7099081490442103  0.4352772595987844  0.8895992234652539
  0.8675902037216900  0.2461261351569703  0.6825552578203258
  0.5403938940252857  0.4054455501970295  0.6840517278059011
  0.7121182680926736  0.0678070922215852  0.6700418377506097
  0.8824000369086420  0.3528578209460136  0.4336229522965382
  0.5515738391650231  0.0244231543781908  0.4386390625756249
  0.8912724191559604  0.4756850772170438  0.2100221563396829
  0.2390770746513624  0.8694084775792348  0.6272448179987222
  0.0741671356673166  0.8238643364753884  0.4011391247513529
  0.2350998688280370  0.9861113426269839  0.3904949333764804
  0.4288383406859637  0.7913634460694539  0.1544922546693144
  0.0674869083321852  0.9549768717779870  0.1521067972144863
  0.2353562306186205  0.6042442814225097  0.1566314122534251
  0.4022834676038940  0.8976218731707561  0.9050003338764512
  0.0942669739105213  0.5837717230513420  0.9024286451439778
  0.2353188148081387  0.7456859054784530  0.8682079165642591
  0.3956415214518429  0.5143207044616247  0.6073199687469781
  0.0914477989840705  0.7039062450341262  0.6332806730157969
  0.4046080045570122  0.6574901059939862  0.3580412765591561
  0.2195130339431302  0.6915348667770189  0.4358858635915723
  0.0614715403512847  0.6457453148277708  0.2094473450803989
  0.2146914971967249  0.8188462063809752  0.2106290019676393
  0.3669082852890355  0.6158501718953175  0.9050647206467204
  0.0428360986859175  0.7694921636001055  0.8867824935812649
  0.2122033651945543  0.9373659239046930  0.8907301140184174
  0.3677051061235233  0.7473131657787704  0.6825504958481829
  0.0399201273350940  0.9065158809813596  0.6839189503487475
  0.2129738587647125  0.5679647706972730  0.6710918562649084
  0.3821887363247782  0.8533634476088920  0.4344256707608309
  0.0488568718919993  0.5263166721744454  0.4408725273332621
  0.3900757295343524  0.9665171138362041  0.2091067500731114
  0.7374415921384525  0.8677314763466129  0.6259915179626461
  0.5756764736213427  0.8246735844898652  0.3989735953931728
  0.7399036761511653  0.9894770298231137  0.3901294675989675
  0.9260326334043114  0.7914382798090429  0.1574342616704030
  0.5682583416531983  0.9593171882167013  0.1530980123878862
  0.7353610214927215  0.6040914339118046  0.1563854828493021
  0.8994160082710394  0.8926873203619152  0.9089007761463321
  0.5925264213972881  0.5835740464549133  0.9017649137739951
  0.7334208197993632  0.7437263021269445  0.8658515688169999
  0.8960009855084010  0.5164707328295250  0.6108995319799533
  0.5898917096835632  0.7037043902838462  0.6311685477582145
  0.9048156199888453  0.6554525819163999  0.3567509559911173
  0.7195991266018638  0.6911751756398488  0.4348419831733068
  0.5616744956811957  0.6462525156729626  0.2087979105040887
  0.7151219770614574  0.8208157487737680  0.2095103199769639
  0.8659233722360966  0.6172265538544792  0.9090859034732262
  0.5421964604539795  0.7707337834271897  0.8847346250480967
  0.7099653774147328  0.9348650534145762  0.8881550668972338
  0.8673630823555527  0.7461773627266055  0.6821210176912302
  0.5396754108890178  0.9074297047718076  0.6804036731658485
  0.7121822073581967  0.5678626766167483  0.6708154532490340
  0.8817873399098985  0.8521200798313942  0.4332726612177638
  0.5496663409661267  0.5267167609079522  0.4394814155857247
  0.8902386275235372  0.9746977864454820  0.2098413846034290
 
  0.00000000E+00  0.00000000E+00  0.00000000E+00
  0.00000000E+00  0.00000000E+00  0.00000000E+00
  0.00000000E+00  0.00000000E+00  0.00000000E+00
  0.00000000E+00  0.00000000E+00  0.00000000E+00
  0.00000000E+00  0.00000000E+00  0.00000000E+00
  0.00000000E+00  0.00000000E+00  0.00000000E+00
  0.00000000E+00  0.00000000E+00  0.00000000E+00
  0.00000000E+00  0.00000000E+00  0.00000000E+00
  0.00000000E+00  0.00000000E+00  0.00000000E+00
  0.00000000E+00  0.00000000E+00  0.00000000E+00
  0.00000000E+00  0.00000000E+00  0.00000000E+00
  0.00000000E+00  0.00000000E+00  0.00000000E+00
  0.00000000E+00  0.00000000E+00  0.00000000E+00
  0.00000000E+00  0.00000000E+00  0.00000000E+00
  0.00000000E+00  0.00000000E+00  0.00000000E+00
  0.00000000E+00  0.00000000E+00  0.00000000E+00
  0.00000000E+00  0.00000000E+00  0.00000000E+00
  0.00000000E+00  0.00000000E+00  0.00000000E+00
  0.00000000E+00  0.00000000E+00  0.00000000E+00
  0.00000000E+00  0.00000000E+00  0.00000000E+00
  0.00000000E+00  0.00000000E+00  0.00000000E+00
  0.00000000E+00  0.00000000E+00  0.00000000E+00
  0.00000000E+00  0.00000000E+00  0.00000000E+00
  0.00000000E+00  0.00000000E+00  0.00000000E+00
  0.00000000E+00  0.00000000E+00  0.00000000E+00
  0.00000000E+00  0.00000000E+00  0.00000000E+00
  0.00000000E+00  0.00000000E+00  0.00000000E+00
  0.00000000E+00  0.00000000E+00  0.00000000E+00
  0.00000000E+00  0.00000000E+00  0.00000000E+00
  0.00000000E+00  0.00000000E+00  0.00000000E+00
  0.00000000E+00  0.00000000E+00  0.00000000E+00
  0.00000000E+00  0.00000000E+00  0.00000000E+00
  0.00000000E+00  0.00000000E+00  0.00000000E+00
  0.00000000E+00  0.00000000E+00  0.00000000E+00
  0.00000000E+00  0.00000000E+00  0.00000000E+00
  0.00000000E+00  0.00000000E+00  0.00000000E+00
  0.00000000E+00  0.00000000E+00  0.00000000E+00
  0.00000000E+00  0.00000000E+00  0.00000000E+00
  0.00000000E+00  0.00000000E+00  0.00000000E+00
  0.00000000E+00  0.00000000E+00  0.00000000E+00
  0.00000000E+00  0.00000000E+00  0.00000000E+00
  0.00000000E+00  0.00000000E+00  0.00000000E+00
  0.00000000E+00  0.00000000E+00  0.00000000E+00
  0.00000000E+00  0.00000000E+00  0.00000000E+00
  0.00000000E+00  0.00000000E+00  0.00000000E+00
  0.00000000E+00  0.00000000E+00  0.00000000E+00
  0.00000000E+00  0.00000000E+00  0.00000000E+00
  0.00000000E+00  0.00000000E+00  0.00000000E+00
  0.00000000E+00  0.00000000E+00  0.00000000E+00
  0.00000000E+00  0.00000000E+00  0.00000000E+00
  0.00000000E+00  0.00000000E+00  0.00000000E+00
  0.00000000E+00  0.00000000E+00  0.00000000E+00
  0.00000000E+00  0.00000000E+00  0.00000000E+00
  0.00000000E+00  0.00000000E+00  0.00000000E+00
  0.00000000E+00  0.00000000E+00  0.00000000E+00
  0.00000000E+00  0.00000000E+00  0.00000000E+00
  0.00000000E+00  0.00000000E+00  0.00000000E+00
  0.00000000E+00  0.00000000E+00  0.00000000E+00
  0.00000000E+00  0.00000000E+00  0.00000000E+00
  0.00000000E+00  0.00000000E+00  0.00000000E+00
  0.00000000E+00  0.00000000E+00  0.00000000E+00
  0.00000000E+00  0.00000000E+00  0.00000000E+00
  0.00000000E+00  0.00000000E+00  0.00000000E+00
  0.00000000E+00  0.00000000E+00  0.00000000E+00
  0.00000000E+00  0.00000000E+00  0.00000000E+00
  0.00000000E+00  0.00000000E+00  0.00000000E+00
  0.00000000E+00  0.00000000E+00  0.00000000E+00
  0.00000000E+00  0.00000000E+00  0.00000000E+00
  0.00000000E+00  0.00000000E+00  0.00000000E+00
  0.00000000E+00  0.00000000E+00  0.00000000E+00
  0.00000000E+00  0.00000000E+00  0.00000000E+00
  0.00000000E+00  0.00000000E+00  0.00000000E+00
  0.00000000E+00  0.00000000E+00  0.00000000E+00
  0.00000000E+00  0.00000000E+00  0.00000000E+00
  0.00000000E+00  0.00000000E+00  0.00000000E+00
  0.00000000E+00  0.00000000E+00  0.00000000E+00
  0.00000000E+00  0.00000000E+00  0.00000000E+00
  0.00000000E+00  0.00000000E+00  0.00000000E+00
  0.00000000E+00  0.00000000E+00  0.00000000E+00
  0.00000000E+00  0.00000000E+00  0.00000000E+00
  0.00000000E+00  0.00000000E+00  0.00000000E+00
  0.00000000E+00  0.00000000E+00  0.00000000E+00
  0.00000000E+00  0.00000000E+00  0.00000000E+00
  0.00000000E+00  0.00000000E+00  0.00000000E+00
  0.00000000E+00  0.00000000E+00  0.00000000E+00
  0.00000000E+00  0.00000000E+00  0.00000000E+00
  0.00000000E+00  0.00000000E+00  0.00000000E+00
  0.00000000E+00  0.00000000E+00  0.00000000E+00
  0.00000000E+00  0.00000000E+00  0.00000000E+00
  0.00000000E+00  0.00000000E+00  0.00000000E+00
  0.00000000E+00  0.00000000E+00  0.00000000E+00
  0.00000000E+00  0.00000000E+00  0.00000000E+00
  0.00000000E+00  0.00000000E+00  0.00000000E+00
  0.00000000E+00  0.00000000E+00  0.00000000E+00
  0.00000000E+00  0.00000000E+00  0.00000000E+00
  0.00000000E+00  0.00000000E+00  0.00000000E+00
  0.00000000E+00  0.00000000E+00  0.00000000E+00
  0.00000000E+00  0.00000000E+00  0.00000000E+00
  0.00000000E+00  0.00000000E+00  0.00000000E+00
  0.00000000E+00  0.00000000E+00  0.00000000E+00
  0.00000000E+00  0.00000000E+00  0.00000000E+00
  0.00000000E+00  0.00000000E+00  0.00000000E+00
  0.00000000E+00  0.00000000E+00  0.00000000E+00
  0.00000000E+00  0.00000000E+00  0.00000000E+00
  0.00000000E+00  0.00000000E+00  0.00000000E+00
  0.00000000E+00  0.00000000E+00  0.00000000E+00
  0.00000000E+00  0.00000000E+00  0.00000000E+00
  0.00000000E+00  0.00000000E+00  0.00000000E+00
  0.00000000E+00  0.00000000E+00  0.00000000E+00
  0.00000000E+00  0.00000000E+00  0.00000000E+00
  0.00000000E+00  0.00000000E+00  0.00000000E+00
  0.00000000E+00  0.00000000E+00  0.00000000E+00
  0.00000000E+00  0.00000000E+00  0.00000000E+00
  0.00000000E+00  0.00000000E+00  0.00000000E+00
  0.00000000E+00  0.00000000E+00  0.00000000E+00
  0.00000000E+00  0.00000000E+00  0.00000000E+00
  0.00000000E+00  0.00000000E+00  0.00000000E+00
  0.00000000E+00  0.00000000E+00  0.00000000E+00
  0.00000000E+00  0.00000000E+00  0.00000000E+00
  0.00000000E+00  0.00000000E+00  0.00000000E+00
  0.00000000E+00  0.00000000E+00  0.00000000E+00
  0.00000000E+00  0.00000000E+00  0.00000000E+00
  0.00000000E+00  0.00000000E+00  0.00000000E+00
  0.00000000E+00  0.00000000E+00  0.00000000E+00
  0.00000000E+00  0.00000000E+00  0.00000000E+00
  0.00000000E+00  0.00000000E+00  0.00000000E+00
  0.00000000E+00  0.00000000E+00  0.00000000E+00
  0.00000000E+00  0.00000000E+00  0.00000000E+00
  0.00000000E+00  0.00000000E+00  0.00000000E+00
  0.00000000E+00  0.00000000E+00  0.00000000E+00
  0.00000000E+00  0.00000000E+00  0.00000000E+00
  0.00000000E+00  0.00000000E+00  0.00000000E+00
  0.00000000E+00  0.00000000E+00  0.00000000E+00
  0.00000000E+00  0.00000000E+00  0.00000000E+00
  0.00000000E+00  0.00000000E+00  0.00000000E+00
  0.00000000E+00  0.00000000E+00  0.00000000E+00
  0.00000000E+00  0.00000000E+00  0.00000000E+00
  0.00000000E+00  0.00000000E+00  0.00000000E+00
  0.00000000E+00  0.00000000E+00  0.00000000E+00
  0.00000000E+00  0.00000000E+00  0.00000000E+00
  0.00000000E+00  0.00000000E+00  0.00000000E+00
  0.00000000E+00  0.00000000E+00  0.00000000E+00
  0.00000000E+00  0.00000000E+00  0.00000000E+00
  0.00000000E+00  0.00000000E+00  0.00000000E+00
  0.00000000E+00  0.00000000E+00  0.00000000E+00
  0.00000000E+00  0.00000000E+00  0.00000000E+00
  0.00000000E+00  0.00000000E+00  0.00000000E+00
  0.00000000E+00  0.00000000E+00  0.00000000E+00
  0.00000000E+00  0.00000000E+00  0.00000000E+00
  0.00000000E+00  0.00000000E+00  0.00000000E+00
  0.00000000E+00  0.00000000E+00  0.00000000E+00
  0.00000000E+00  0.00000000E+00  0.00000000E+00
  0.00000000E+00  0.00000000E+00  0.00000000E+00
  0.00000000E+00  0.00000000E+00  0.00000000E+00
  0.00000000E+00  0.00000000E+00  0.00000000E+00
  0.00000000E+00  0.00000000E+00  0.00000000E+00
  0.00000000E+00  0.00000000E+00  0.00000000E+00
  0.00000000E+00  0.00000000E+00  0.00000000E+00
  0.00000000E+00  0.00000000E+00  0.00000000E+00
  0.00000000E+00  0.00000000E+00  0.00000000E+00
  0.00000000E+00  0.00000000E+00  0.00000000E+00
  0.00000000E+00  0.00000000E+00  0.00000000E+00
  0.00000000E+00  0.00000000E+00  0.00000000E+00
  0.00000000E+00  0.00000000E+00  0.00000000E+00
  0.00000000E+00  0.00000000E+00  0.00000000E+00
  0.00000000E+00  0.00000000E+00  0.00000000E+00
  0.00000000E+00  0.00000000E+00  0.00000000E+00
  0.00000000E+00  0.00000000E+00  0.00000000E+00
  0.00000000E+00  0.00000000E+00  0.00000000E+00
  0.00000000E+00  0.00000000E+00  0.00000000E+00
  0.00000000E+00  0.00000000E+00  0.00000000E+00
  0.00000000E+00  0.00000000E+00  0.00000000E+00
  0.00000000E+00  0.00000000E+00  0.00000000E+00
  0.00000000E+00  0.00000000E+00  0.00000000E+00
  0.00000000E+00  0.00000000E+00  0.00000000E+00
  0.00000000E+00  0.00000000E+00  0.00000000E+00
  0.00000000E+00  0.00000000E+00  0.00000000E+00
  0.00000000E+00  0.00000000E+00  0.00000000E+00
  0.00000000E+00  0.00000000E+00  0.00000000E+00
  0.00000000E+00  0.00000000E+00  0.00000000E+00
  0.00000000E+00  0.00000000E+00  0.00000000E+00
  0.00000000E+00  0.00000000E+00  0.00000000E+00
  0.00000000E+00  0.00000000E+00  0.00000000E+00
  0.00000000E+00  0.00000000E+00  0.00000000E+00
  0.00000000E+00  0.00000000E+00  0.00000000E+00
  0.00000000E+00  0.00000000E+00  0.00000000E+00
  0.00000000E+00  0.00000000E+00  0.00000000E+00
  0.00000000E+00  0.00000000E+00  0.00000000E+00
  0.00000000E+00  0.00000000E+00  0.00000000E+00
  0.00000000E+00  0.00000000E+00  0.00000000E+00
  0.00000000E+00  0.00000000E+00  0.00000000E+00
