supercell of 100% icsd_608626.cif, 0% i 
   1.00000000000000     
    -9.4561024942448615    0.0093256704135295   -0.0025938202662593
    -4.7361255322863016    8.1865303595580627   -0.0024441275209476
    -0.0027696133326624    0.0014161469252444  -10.0766832769029993
   Al   Mg   Zr   N 
    34     1     1    36
Direct
  0.1045598281915616  0.0985889923666576  0.2958072341383584
  0.2212798878300646  0.2060351332885446  0.0460821994193452
  0.7776634151564537  0.0941436480816620  0.7955210817778351
  0.8891106361460359  0.2043363267972609  0.5453233300034768
  0.4446376435174813  0.0998984600226578  0.2953728962148290
  0.5562734768152495  0.2052623388107548  0.0458112767359182
  0.1103227918187315  0.0960325635696861  0.7951896418599915
  0.2216801425320440  0.2059824229177920  0.5456778162337770
  0.7792638442805995  0.0942956976177953  0.2965828526601086
  0.8875470508418246  0.2066190246653932  0.0437091675816177
  0.4432573979338983  0.0967560680333435  0.7956889034420129
  0.5556059328023082  0.2057393686140756  0.5457086762187018
  0.1095866387598861  0.4293295219838882  0.2962424282682008
  0.2216363415492140  0.5384103050331319  0.0457776657537678
  0.7799589376936495  0.4267560345355932  0.7964209258214012
  0.8900143761109334  0.5397262659390378  0.5452873822958679
  0.4432514541690722  0.4233631411562513  0.2952609530469417
  0.5582885766868202  0.5340693146434816  0.0370349548971731
  0.1114177142627852  0.4276937732348358  0.7953169126077384
  0.2220283375673660  0.5379647257136142  0.5450488941150340
  0.8883879064776110  0.5383055136988091  0.0438063709147229
  0.4427844780271286  0.4266178639626190  0.7954161717885739
  0.5573736494136767  0.5330406115425532  0.5523875428343814
  0.1061083499295066  0.7603497529416643  0.2957883923642299
  0.2177977623450857  0.8742417480758675  0.0397068874538107
  0.7801113383771323  0.7606177545260806  0.7955066957263597
  0.8885180274713420  0.8728410181713144  0.5452052108701153
  0.5577843373361659  0.8739994603776822  0.0395959011925342
  0.1100249983654251  0.7600492897874105  0.7953998389290291
  0.2163780812999860  0.8751352671479680  0.5509835575783697
  0.7855571541220954  0.7609760761585491  0.2959038295602099
  0.8883119548564906  0.8731533335892152  0.0457256329441336
  0.4440528443392324  0.7617406527633435  0.7931130632535712
  0.5594509633460447  0.8757755617904408  0.5519775978524422
  0.7840531539997997  0.4224347951840173  0.2951607707371977
  0.4467237124817700  0.7601445778189131  0.3005628224555750
  0.2225227019633635  0.2041487857189708  0.3540199471268082
  0.1112268326022630  0.0935144063668218  0.1041789216597735
  0.8895334916228137  0.2035180643172225  0.8531362552359170
  0.7767999020359042  0.0941406470203106  0.6058079764698761
  0.5558993720370609  0.2053256118852360  0.3549129968081246
  0.4445985301807553  0.0936964394674717  0.1045345462181828
  0.2219450905891023  0.2056394004560147  0.8557029263053479
  0.1113376317657924  0.0958274123324898  0.6063921578412419
  0.8944394810638840  0.1916518972926013  0.3596987710944646
  0.7776710365807844  0.0945646925498451  0.1048223787278033
  0.5555137707584166  0.2052847039309711  0.8558272240765064
  0.4431307297503224  0.0971001420440416  0.6061091980839777
  0.2225197535097507  0.5382534740607099  0.3539361688953377
  0.1108213102660329  0.4277530601343997  0.1049272242485344
  0.8900794677215771  0.5396677392460418  0.8531421488221511
  0.7800511257749889  0.4269701504635890  0.6055983804673772
  0.5505994428472718  0.5260345780259641  0.3655535190367232
  0.4444216670231569  0.4281890039347900  0.1038057499967380
  0.2216265089165930  0.5388586497166088  0.8555881552384719
  0.1123639739137730  0.4269009609917376  0.6053289131190880
  0.8949578916740464  0.5472610010685273  0.3585509060125176
  0.7765947140806233  0.4285933455250159  0.0902610589523931
  0.5538775683238057  0.5389013355405226  0.8475590159506723
  0.4425204837500303  0.4260606379403526  0.6068715615875888
  0.2047678468930272  0.8794478152745313  0.3605329957759764
  0.1113997723202260  0.7612606942310620  0.1046274266796487
  0.8890061436734200  0.8724350835789565  0.8557533461520137
  0.7798232247351962  0.7614430662272511  0.6071082638118455
  0.5671178928329681  0.8831800695792680  0.3618744395781164
  0.4443103988549311  0.7607768722832517  0.0899778068423771
  0.2211306313031969  0.8723705133708179  0.8505102154188080
  0.1103287922482750  0.7598312641745224  0.6055827985351101
  0.8889289805488048  0.8736069171054339  0.3550265500328678
  0.7770862133110583  0.7617721142568783  0.1040751323476314
  0.5558229038236391  0.8728849048915563  0.8505904066291023
  0.4444215838486869  0.7627081404343841  0.5989690366734663
 
  0.00000000E+00  0.00000000E+00  0.00000000E+00
  0.00000000E+00  0.00000000E+00  0.00000000E+00
  0.00000000E+00  0.00000000E+00  0.00000000E+00
  0.00000000E+00  0.00000000E+00  0.00000000E+00
  0.00000000E+00  0.00000000E+00  0.00000000E+00
  0.00000000E+00  0.00000000E+00  0.00000000E+00
  0.00000000E+00  0.00000000E+00  0.00000000E+00
  0.00000000E+00  0.00000000E+00  0.00000000E+00
  0.00000000E+00  0.00000000E+00  0.00000000E+00
  0.00000000E+00  0.00000000E+00  0.00000000E+00
  0.00000000E+00  0.00000000E+00  0.00000000E+00
  0.00000000E+00  0.00000000E+00  0.00000000E+00
  0.00000000E+00  0.00000000E+00  0.00000000E+00
  0.00000000E+00  0.00000000E+00  0.00000000E+00
  0.00000000E+00  0.00000000E+00  0.00000000E+00
  0.00000000E+00  0.00000000E+00  0.00000000E+00
  0.00000000E+00  0.00000000E+00  0.00000000E+00
  0.00000000E+00  0.00000000E+00  0.00000000E+00
  0.00000000E+00  0.00000000E+00  0.00000000E+00
  0.00000000E+00  0.00000000E+00  0.00000000E+00
  0.00000000E+00  0.00000000E+00  0.00000000E+00
  0.00000000E+00  0.00000000E+00  0.00000000E+00
  0.00000000E+00  0.00000000E+00  0.00000000E+00
  0.00000000E+00  0.00000000E+00  0.00000000E+00
  0.00000000E+00  0.00000000E+00  0.00000000E+00
  0.00000000E+00  0.00000000E+00  0.00000000E+00
  0.00000000E+00  0.00000000E+00  0.00000000E+00
  0.00000000E+00  0.00000000E+00  0.00000000E+00
  0.00000000E+00  0.00000000E+00  0.00000000E+00
  0.00000000E+00  0.00000000E+00  0.00000000E+00
  0.00000000E+00  0.00000000E+00  0.00000000E+00
  0.00000000E+00  0.00000000E+00  0.00000000E+00
  0.00000000E+00  0.00000000E+00  0.00000000E+00
  0.00000000E+00  0.00000000E+00  0.00000000E+00
  0.00000000E+00  0.00000000E+00  0.00000000E+00
  0.00000000E+00  0.00000000E+00  0.00000000E+00
  0.00000000E+00  0.00000000E+00  0.00000000E+00
  0.00000000E+00  0.00000000E+00  0.00000000E+00
  0.00000000E+00  0.00000000E+00  0.00000000E+00
  0.00000000E+00  0.00000000E+00  0.00000000E+00
  0.00000000E+00  0.00000000E+00  0.00000000E+00
  0.00000000E+00  0.00000000E+00  0.00000000E+00
  0.00000000E+00  0.00000000E+00  0.00000000E+00
  0.00000000E+00  0.00000000E+00  0.00000000E+00
  0.00000000E+00  0.00000000E+00  0.00000000E+00
  0.00000000E+00  0.00000000E+00  0.00000000E+00
  0.00000000E+00  0.00000000E+00  0.00000000E+00
  0.00000000E+00  0.00000000E+00  0.00000000E+00
  0.00000000E+00  0.00000000E+00  0.00000000E+00
  0.00000000E+00  0.00000000E+00  0.00000000E+00
  0.00000000E+00  0.00000000E+00  0.00000000E+00
  0.00000000E+00  0.00000000E+00  0.00000000E+00
  0.00000000E+00  0.00000000E+00  0.00000000E+00
  0.00000000E+00  0.00000000E+00  0.00000000E+00
  0.00000000E+00  0.00000000E+00  0.00000000E+00
  0.00000000E+00  0.00000000E+00  0.00000000E+00
  0.00000000E+00  0.00000000E+00  0.00000000E+00
  0.00000000E+00  0.00000000E+00  0.00000000E+00
  0.00000000E+00  0.00000000E+00  0.00000000E+00
  0.00000000E+00  0.00000000E+00  0.00000000E+00
  0.00000000E+00  0.00000000E+00  0.00000000E+00
  0.00000000E+00  0.00000000E+00  0.00000000E+00
  0.00000000E+00  0.00000000E+00  0.00000000E+00
  0.00000000E+00  0.00000000E+00  0.00000000E+00
  0.00000000E+00  0.00000000E+00  0.00000000E+00
  0.00000000E+00  0.00000000E+00  0.00000000E+00
  0.00000000E+00  0.00000000E+00  0.00000000E+00
  0.00000000E+00  0.00000000E+00  0.00000000E+00
  0.00000000E+00  0.00000000E+00  0.00000000E+00
  0.00000000E+00  0.00000000E+00  0.00000000E+00
  0.00000000E+00  0.00000000E+00  0.00000000E+00
  0.00000000E+00  0.00000000E+00  0.00000000E+00
