supercell of 100% icsd_608626.cif, 0% i 
   1.00000000000000     
    -9.4416543775038164    0.0009808306086978    0.0001496576543875
    -4.7216786113655029    8.1948696305888475   -0.0024447468398927
     0.0001583414993147    0.0031073662239799  -10.0766842652467385
   Al   Zr   Mg   N 
    34     1     1    36
Direct
  0.1155360875830098  0.0920394248673020  0.2897066918064581
  0.2230112327330573  0.2063554206743277  0.0451897372085313
  0.7759602939957446  0.0904145903464908  0.8023874547087217
  0.4457868373525855  0.0941660021031581  0.2937091395228819
  0.5533748497739239  0.2067151016585811  0.0464208768050725
  0.1169562902207346  0.0915130255967540  0.8009836222363020
  0.2287738053880588  0.2031485783942628  0.5458072215091576
  0.7750451027608349  0.0923584817156708  0.2870351866840579
  0.8892809863095863  0.2057936257939019  0.0431129456294812
  0.4442233272161076  0.0934470225186388  0.7953233011308214
  0.1120528586832492  0.4273150177347276  0.2960821914131415
  0.2219151497360912  0.5391118292232164  0.0453169986250117
  0.7738819676630797  0.4352266383182766  0.8019776004682839
  0.8886950756465950  0.5445359083333088  0.5453729539675720
  0.4449446750818424  0.4266934844062433  0.2938064204700339
  0.5532218381300140  0.5407288939044648  0.0455066799263477
  0.1116527994938963  0.4276625650143728  0.7956777840572755
  0.2237460178337543  0.5389160977854672  0.5462424218513746
  0.7755484695220005  0.4317841075541722  0.2895958614712626
  0.8900758115869962  0.5400136504173005  0.0456888498220565
  0.4433183207926916  0.4297407736540748  0.7952874241934182
  0.5477756605912987  0.5465328438710273  0.5459036898838576
  0.1116965029437793  0.7600467740918475  0.2957777396541204
  0.2233086361255587  0.8700741530236229  0.0453998291131867
  0.7777275131256332  0.7613453710642872  0.7957088077159895
  0.8900813604482138  0.8666146133379442  0.5452609889040545
  0.4450212547994070  0.7614653123475463  0.2957256344610570
  0.5556703070831048  0.8718068475790304  0.0455210150545042
  0.1113046788907539  0.7599930782567270  0.7950487991566888
  0.2272249097721897  0.8664576513963951  0.5457883125282237
  0.7770599408885062  0.7615359852917436  0.2958112114956890
  0.8905488045921004  0.8694028441392234  0.0454162046887774
  0.4448153463930780  0.7613590057046125  0.7952050687360739
  0.5540695669511280  0.8735591800930109  0.5465827926525364
  0.8866102538372687  0.2068679494126400  0.5505629258497606
  0.5492804091079933  0.2064877928052695  0.5451608411639697
  0.2221069115022232  0.2047412421894705  0.3541788725956962
  0.1122032378262432  0.0935011298920543  0.1005100117364535
  0.8889126096975417  0.2071297519912036  0.8489689379716978
  0.7827340921917880  0.0766340349370651  0.6155534899383710
  0.5567389922462525  0.2051881658303643  0.3402612029464294
  0.4438006829720251  0.0930513988282229  0.1031362177226853
  0.2219964023262762  0.2071651612721368  0.8563922226635654
  0.1285661110711516  0.0842151416526846  0.6105330675131029
  0.8890234791376486  0.2050875927175255  0.3399778797287709
  0.7794560512263544  0.0927792721511764  0.0975592388261646
  0.5532828191508301  0.2070214230580802  0.8555983700153433
  0.4388941982457482  0.0860910605501815  0.6096987400387022
  0.2225112339833828  0.5385744490941349  0.3549272625769220
  0.1113880052461909  0.4275846560378724  0.1057029616700262
  0.8902023223722253  0.5402309684029092  0.8561092004804394
  0.7662148498097565  0.4502976882851897  0.6118744250817016
  0.5562465292439782  0.5388582708944227  0.3540750377304320
  0.4432534033468229  0.4297472504027695  0.1031422120836467
  0.2209687478888824  0.5392650613144099  0.8553290182033635
  0.1108100478801362  0.4266712920019415  0.6040199363116940
  0.8887343100027678  0.5382952123882632  0.3545346262961289
  0.7775102843375876  0.4287079400163663  0.1005903356999198
  0.5535096548916343  0.5412662620065589  0.8571082207906642
  0.4383746670284623  0.4422187153268453  0.6085509619018836
  0.2219333341000507  0.8726603772983310  0.3546273364506050
  0.1117065986778698  0.7604854431264556  0.1055882485325981
  0.8908127256759784  0.8685815064938609  0.8568716799805784
  0.7774338552055653  0.7612246571593744  0.6049131926411917
  0.5556625312964627  0.8722356319149469  0.3548223108848703
  0.4443275117693162  0.7614409791550898  0.1057533198739762
  0.2230046665069096  0.8701597070544622  0.8555827481184792
  0.1108130123254085  0.7607730972507483  0.6039361112878225
  0.8889112842564160  0.8726111570588984  0.3538058667634019
  0.7778199201029281  0.7607986200319630  0.1058272294601323
  0.5565336225407975  0.8709405406390474  0.8558079110755443
  0.4444043508625128  0.7625354991454429  0.6050263698411911
 
  0.00000000E+00  0.00000000E+00  0.00000000E+00
  0.00000000E+00  0.00000000E+00  0.00000000E+00
  0.00000000E+00  0.00000000E+00  0.00000000E+00
  0.00000000E+00  0.00000000E+00  0.00000000E+00
  0.00000000E+00  0.00000000E+00  0.00000000E+00
  0.00000000E+00  0.00000000E+00  0.00000000E+00
  0.00000000E+00  0.00000000E+00  0.00000000E+00
  0.00000000E+00  0.00000000E+00  0.00000000E+00
  0.00000000E+00  0.00000000E+00  0.00000000E+00
  0.00000000E+00  0.00000000E+00  0.00000000E+00
  0.00000000E+00  0.00000000E+00  0.00000000E+00
  0.00000000E+00  0.00000000E+00  0.00000000E+00
  0.00000000E+00  0.00000000E+00  0.00000000E+00
  0.00000000E+00  0.00000000E+00  0.00000000E+00
  0.00000000E+00  0.00000000E+00  0.00000000E+00
  0.00000000E+00  0.00000000E+00  0.00000000E+00
  0.00000000E+00  0.00000000E+00  0.00000000E+00
  0.00000000E+00  0.00000000E+00  0.00000000E+00
  0.00000000E+00  0.00000000E+00  0.00000000E+00
  0.00000000E+00  0.00000000E+00  0.00000000E+00
  0.00000000E+00  0.00000000E+00  0.00000000E+00
  0.00000000E+00  0.00000000E+00  0.00000000E+00
  0.00000000E+00  0.00000000E+00  0.00000000E+00
  0.00000000E+00  0.00000000E+00  0.00000000E+00
  0.00000000E+00  0.00000000E+00  0.00000000E+00
  0.00000000E+00  0.00000000E+00  0.00000000E+00
  0.00000000E+00  0.00000000E+00  0.00000000E+00
  0.00000000E+00  0.00000000E+00  0.00000000E+00
  0.00000000E+00  0.00000000E+00  0.00000000E+00
  0.00000000E+00  0.00000000E+00  0.00000000E+00
  0.00000000E+00  0.00000000E+00  0.00000000E+00
  0.00000000E+00  0.00000000E+00  0.00000000E+00
  0.00000000E+00  0.00000000E+00  0.00000000E+00
  0.00000000E+00  0.00000000E+00  0.00000000E+00
  0.00000000E+00  0.00000000E+00  0.00000000E+00
  0.00000000E+00  0.00000000E+00  0.00000000E+00
  0.00000000E+00  0.00000000E+00  0.00000000E+00
  0.00000000E+00  0.00000000E+00  0.00000000E+00
  0.00000000E+00  0.00000000E+00  0.00000000E+00
  0.00000000E+00  0.00000000E+00  0.00000000E+00
  0.00000000E+00  0.00000000E+00  0.00000000E+00
  0.00000000E+00  0.00000000E+00  0.00000000E+00
  0.00000000E+00  0.00000000E+00  0.00000000E+00
  0.00000000E+00  0.00000000E+00  0.00000000E+00
  0.00000000E+00  0.00000000E+00  0.00000000E+00
  0.00000000E+00  0.00000000E+00  0.00000000E+00
  0.00000000E+00  0.00000000E+00  0.00000000E+00
  0.00000000E+00  0.00000000E+00  0.00000000E+00
  0.00000000E+00  0.00000000E+00  0.00000000E+00
  0.00000000E+00  0.00000000E+00  0.00000000E+00
  0.00000000E+00  0.00000000E+00  0.00000000E+00
  0.00000000E+00  0.00000000E+00  0.00000000E+00
  0.00000000E+00  0.00000000E+00  0.00000000E+00
  0.00000000E+00  0.00000000E+00  0.00000000E+00
  0.00000000E+00  0.00000000E+00  0.00000000E+00
  0.00000000E+00  0.00000000E+00  0.00000000E+00
  0.00000000E+00  0.00000000E+00  0.00000000E+00
  0.00000000E+00  0.00000000E+00  0.00000000E+00
  0.00000000E+00  0.00000000E+00  0.00000000E+00
  0.00000000E+00  0.00000000E+00  0.00000000E+00
  0.00000000E+00  0.00000000E+00  0.00000000E+00
  0.00000000E+00  0.00000000E+00  0.00000000E+00
  0.00000000E+00  0.00000000E+00  0.00000000E+00
  0.00000000E+00  0.00000000E+00  0.00000000E+00
  0.00000000E+00  0.00000000E+00  0.00000000E+00
  0.00000000E+00  0.00000000E+00  0.00000000E+00
  0.00000000E+00  0.00000000E+00  0.00000000E+00
  0.00000000E+00  0.00000000E+00  0.00000000E+00
  0.00000000E+00  0.00000000E+00  0.00000000E+00
  0.00000000E+00  0.00000000E+00  0.00000000E+00
  0.00000000E+00  0.00000000E+00  0.00000000E+00
  0.00000000E+00  0.00000000E+00  0.00000000E+00
