generated by phonopy                    
   1.00000000000000     
    10.0351470768999995   -0.0000022330999784   -0.0000001056124209
    -5.0175765436399997    8.6906901959899994    0.0000001395531216
    -0.0000001735893656    0.0000001431815548   14.9533752540999991
   Pb   P    O 
    19    13    50
Direct
  0.9918543026227837  0.7677742541520374  0.1224557165088029
  0.9954278906735539  0.7700720157199967  0.6238377154864310
  0.0002615531929777  0.2631160681071165  0.3769417500530992
  0.9961955204072197  0.2715315378450072  0.8729412557584482
  0.2332196338640671  0.2219641807116730  0.1181919341661057
  0.2286721855934957  0.2261881815207829  0.6239696231909875
  0.7370222221484255  0.7401997098722930  0.3728524094865833
  0.7342167913498159  0.7265260412987473  0.8768065483803298
  0.7692641602935524  0.9844509500576777  0.1182191881995678
  0.7736977149173043  0.0021799658744683  0.6231136503868058
  0.2537065257131417  0.9958781958171130  0.3764250247221526
  0.2793143354427770  0.0104507036260770  0.8804393825458163
  0.6653495130973894  0.3366918251711937  0.5008102347821577
  0.3317105947549308  0.6637898424730864  0.0062175783349332
  0.3333379691762133  0.6674359561263756  0.5051270100393879
  0.3308708132572136  0.6701653531005434  0.2485203548099548
  0.3372165668676033  0.6721742185830166  0.7458043546417059
  0.6448660693771586  0.3138339497262450  0.2422741482344719
  0.6616360631125318  0.3313064121409823  0.7505987420183828
  0.7475123678698239  0.3601514011746687  0.0013252329737341
  0.6200233985928918  0.5977645927472324  0.1288413662214296
  0.6218818314503878  0.5960331650820549  0.6216867703782469
  0.3634827494570061  0.3928544155082321  0.3730565300131801
  0.3622758921216089  0.3919392078838939  0.8729928649534457
  0.4052782870638012  0.0222888730662447  0.1279164924971354
  0.4076571086144725  0.0308438673946227  0.6220043408170071
  0.6008003856670783  0.9716561058515296  0.3760288263996046
  0.6111073102376636  0.9704043071649195  0.8714547158890298
  0.9759604773700374  0.3670895911160770  0.1270361723876263
  0.9720616342034347  0.3772572791409274  0.6228266449982840
  0.0220371079291795  0.6323043839224809  0.3765311094272548
  0.0356267625011100  0.6483221631537646  0.8651025547241815
  0.4968013770813187  0.6512980828926516  0.1287061952191095
  0.4983424419461855  0.6472224224400804  0.6204197506212310
  0.4617103236267042  0.3124740189933561  0.3704298594231972
  0.4643868403611791  0.3179715621105572  0.8641768279753848
  0.3408076097783734  0.8441212399865563  0.1279426551650076
  0.3546166120685754  0.8556132743546243  0.6224555414898632
  0.6780418786092994  0.1496455515134940  0.3744330680985826
  0.6829999191734046  0.1447431481111821  0.8559612559089302
  0.1377736697552336  0.5108575297964180  0.1272882051470461
  0.1463909144210618  0.5012404821098713  0.6227669216369733
  0.8441754515783302  0.5338524282873465  0.3745898470742262
  0.8625662325483034  0.5544427165198442  0.8430649091950428
  0.7285523525797899  0.6728790743118935  0.0460544215238414
  0.7304493477072072  0.6583684809999895  0.5380181028812530
  0.2561042611270210  0.3437557749550777  0.4572272092311778
  0.2532351497356657  0.3332684741859779  0.9563664736381412
  0.3334925389980512  0.0623445440170585  0.0464508018062588
  0.3399532696343357  0.0733600402759862  0.5390722928332679
  0.6481466576230304  0.9115060874315262  0.4598237463934893
  0.6834468159362501  0.9306841978981666  0.9527655012617657
  0.9601363234506337  0.2475425026932214  0.0565762216641730
  0.9297297918896490  0.2657013641899795  0.5405846882624203
  0.0829142888079488  0.7442030427920443  0.4588733168505144
  0.0703505184276096  0.7551089419049788  0.9483579684466292
  0.2562888587657284  0.3547795748875586  0.2897149337385514
  0.2549292634921869  0.3608776404077503  0.7898558363156454
  0.7290222783333817  0.6638391353802362  0.2125176530830757
  0.7259733360096732  0.6596567540647271  0.7063934453320684
  0.6405276533312829  0.9053415076125191  0.2919833556172975
  0.6304143004110614  0.8868986292864989  0.7881370395648588
  0.3533687508529439  0.0762693731527548  0.2138878898775403
  0.3518703986993543  0.0785960758355273  0.7076038568963057
  0.0892472100176889  0.7362278986421771  0.2915494822174409
  0.1289437967957596  0.7544277465222251  0.7848208564949388
  0.9183290754572226  0.2947969483811477  0.2195283826450165
  0.9288871537123029  0.2743086535603894  0.7087477550296768
  0.5403318973393851  0.4200543063582742  0.1299566152117748
  0.5416834977093146  0.4158778069201929  0.6210928324778848
  0.4735810130575047  0.5736893120762048  0.3770871667210756
  0.4672539035337593  0.5733606461252805  0.8824847927135195
  0.5836937084689851  0.1101284066567700  0.1288519589951136
  0.5875876315298498  0.1294384667391952  0.6178684702492916
  0.4189821752451337  0.8978543020237026  0.3780442547936005
  0.4315860255452506  0.8953542155570773  0.8893386852223486
  0.8562237683252505  0.4261458970199996  0.0964925954902043
  0.8705071408961516  0.4552114258122515  0.6188634421838728
  0.0954767239482024  0.5246911906395368  0.3824990313446506
  0.1041206243031212  0.5380338044938426  0.8837067361848128
  0.0028836044932206  0.9930114470398976  0.1293064939933899
  0.0003565088454351  0.9998289312813213  0.6208141535995821
 
  0.00000000E+00  0.00000000E+00  0.00000000E+00
  0.00000000E+00  0.00000000E+00  0.00000000E+00
  0.00000000E+00  0.00000000E+00  0.00000000E+00
  0.00000000E+00  0.00000000E+00  0.00000000E+00
  0.00000000E+00  0.00000000E+00  0.00000000E+00
  0.00000000E+00  0.00000000E+00  0.00000000E+00
  0.00000000E+00  0.00000000E+00  0.00000000E+00
  0.00000000E+00  0.00000000E+00  0.00000000E+00
  0.00000000E+00  0.00000000E+00  0.00000000E+00
  0.00000000E+00  0.00000000E+00  0.00000000E+00
  0.00000000E+00  0.00000000E+00  0.00000000E+00
  0.00000000E+00  0.00000000E+00  0.00000000E+00
  0.00000000E+00  0.00000000E+00  0.00000000E+00
  0.00000000E+00  0.00000000E+00  0.00000000E+00
  0.00000000E+00  0.00000000E+00  0.00000000E+00
  0.00000000E+00  0.00000000E+00  0.00000000E+00
  0.00000000E+00  0.00000000E+00  0.00000000E+00
  0.00000000E+00  0.00000000E+00  0.00000000E+00
  0.00000000E+00  0.00000000E+00  0.00000000E+00
  0.00000000E+00  0.00000000E+00  0.00000000E+00
  0.00000000E+00  0.00000000E+00  0.00000000E+00
  0.00000000E+00  0.00000000E+00  0.00000000E+00
  0.00000000E+00  0.00000000E+00  0.00000000E+00
  0.00000000E+00  0.00000000E+00  0.00000000E+00
  0.00000000E+00  0.00000000E+00  0.00000000E+00
  0.00000000E+00  0.00000000E+00  0.00000000E+00
  0.00000000E+00  0.00000000E+00  0.00000000E+00
  0.00000000E+00  0.00000000E+00  0.00000000E+00
  0.00000000E+00  0.00000000E+00  0.00000000E+00
  0.00000000E+00  0.00000000E+00  0.00000000E+00
  0.00000000E+00  0.00000000E+00  0.00000000E+00
  0.00000000E+00  0.00000000E+00  0.00000000E+00
  0.00000000E+00  0.00000000E+00  0.00000000E+00
  0.00000000E+00  0.00000000E+00  0.00000000E+00
  0.00000000E+00  0.00000000E+00  0.00000000E+00
  0.00000000E+00  0.00000000E+00  0.00000000E+00
  0.00000000E+00  0.00000000E+00  0.00000000E+00
  0.00000000E+00  0.00000000E+00  0.00000000E+00
  0.00000000E+00  0.00000000E+00  0.00000000E+00
  0.00000000E+00  0.00000000E+00  0.00000000E+00
  0.00000000E+00  0.00000000E+00  0.00000000E+00
  0.00000000E+00  0.00000000E+00  0.00000000E+00
  0.00000000E+00  0.00000000E+00  0.00000000E+00
  0.00000000E+00  0.00000000E+00  0.00000000E+00
  0.00000000E+00  0.00000000E+00  0.00000000E+00
  0.00000000E+00  0.00000000E+00  0.00000000E+00
  0.00000000E+00  0.00000000E+00  0.00000000E+00
  0.00000000E+00  0.00000000E+00  0.00000000E+00
  0.00000000E+00  0.00000000E+00  0.00000000E+00
  0.00000000E+00  0.00000000E+00  0.00000000E+00
  0.00000000E+00  0.00000000E+00  0.00000000E+00
  0.00000000E+00  0.00000000E+00  0.00000000E+00
  0.00000000E+00  0.00000000E+00  0.00000000E+00
  0.00000000E+00  0.00000000E+00  0.00000000E+00
  0.00000000E+00  0.00000000E+00  0.00000000E+00
  0.00000000E+00  0.00000000E+00  0.00000000E+00
  0.00000000E+00  0.00000000E+00  0.00000000E+00
  0.00000000E+00  0.00000000E+00  0.00000000E+00
  0.00000000E+00  0.00000000E+00  0.00000000E+00
  0.00000000E+00  0.00000000E+00  0.00000000E+00
  0.00000000E+00  0.00000000E+00  0.00000000E+00
  0.00000000E+00  0.00000000E+00  0.00000000E+00
  0.00000000E+00  0.00000000E+00  0.00000000E+00
  0.00000000E+00  0.00000000E+00  0.00000000E+00
  0.00000000E+00  0.00000000E+00  0.00000000E+00
  0.00000000E+00  0.00000000E+00  0.00000000E+00
  0.00000000E+00  0.00000000E+00  0.00000000E+00
  0.00000000E+00  0.00000000E+00  0.00000000E+00
  0.00000000E+00  0.00000000E+00  0.00000000E+00
  0.00000000E+00  0.00000000E+00  0.00000000E+00
  0.00000000E+00  0.00000000E+00  0.00000000E+00
  0.00000000E+00  0.00000000E+00  0.00000000E+00
  0.00000000E+00  0.00000000E+00  0.00000000E+00
  0.00000000E+00  0.00000000E+00  0.00000000E+00
  0.00000000E+00  0.00000000E+00  0.00000000E+00
  0.00000000E+00  0.00000000E+00  0.00000000E+00
  0.00000000E+00  0.00000000E+00  0.00000000E+00
  0.00000000E+00  0.00000000E+00  0.00000000E+00
  0.00000000E+00  0.00000000E+00  0.00000000E+00
  0.00000000E+00  0.00000000E+00  0.00000000E+00
  0.00000000E+00  0.00000000E+00  0.00000000E+00
  0.00000000E+00  0.00000000E+00  0.00000000E+00
