Al   Sc   N                             
   1.00000000000000     
    -9.8467080160584484   -0.0000001121502450    0.0000002757269612
    -4.9233535020303147    8.5243158445472229   -0.0021712772825937
    -0.0000003310852251   -0.0064511525194056   -8.9639849804937537
   Al   Sc   N 
    34     2    36
Direct
  0.1086243214265750  0.0994179823165950  0.3472775591443948
  0.2245653837665529  0.2114251938968721  0.0917300481176753
  0.7728958866049709  0.0961467791769977  0.8355506664615291
  0.8848519520857963  0.2075304934170887  0.5847825764955061
  0.4465072336503084  0.0930871493033223  0.3386122641082920
  0.5561996504894609  0.2042673757488558  0.0890373020543223
  0.2242842442196817  0.2075304988803737  0.5847825818106642
  0.7770723061230100  0.0930871272463776  0.3386122784151837
  0.8806760984453064  0.2114252002210151  0.0917300522794307
  0.4476239741825978  0.0961468163939756  0.8355506665002821
  0.5547539524119216  0.2071587733703311  0.5848437589464552
  0.1109716464837973  0.4292815979650584  0.3387440025646313
  0.2199921631350676  0.5365612412454226  0.0857563880424905
  0.7744307138017206  0.4313306507090289  0.8348828327025259
  0.8882753327283268  0.5401160091525981  0.5856437735076767
  0.4442861224165000  0.4280944803775597  0.3346452794385755
  0.5601132605828028  0.5365612535397588  0.0857563580031098
  0.1109053220751051  0.4313306123524043  0.8348828431888791
  0.2248341372729357  0.5358839138136133  0.5880951070443459
  0.7764134364530619  0.4292816133492963  0.3387440058548421
  0.8892896377028521  0.5380873965689972  0.0890437966619544
  0.4448883844345559  0.4268899008472502  0.8402660515478928
  0.5559486015412176  0.5358839554626442  0.5880951292796368
  0.1068982682280648  0.7568652095016901  0.3456387280156008
  0.7784752980125234  0.7597160514000763  0.8390875981052801
  0.8859399667157035  0.8726790787583738  0.5889806384150802
  0.4529032148536203  0.7568652168103540  0.3456386895632733
  0.5585884175359368  0.8715852294231397  0.0854346089432809
  0.1108780443212964  0.7570983628488648  0.8316321114060088
  0.2232652752171091  0.8701361501262284  0.5885379917569509
  0.7773465949692948  0.7619735481527883  0.3349262527110071
  0.8864930719252442  0.8715851896844811  0.0854345966698489
  0.4486902193722457  0.7570984318455984  0.8316321384099723
  0.5580476416400941  0.8726791005226389  0.5889806079933351
  0.1090502390845671  0.0985662075780169  0.8485504155460077
  0.2255595312383960  0.8655475299385103  0.1062534453044250
  0.2241764935062491  0.2069224564382850  0.3686962238898417
  0.1018182879349396  0.1130300757604559  0.1168721421969323
  0.8668080690220776  0.2168227416790458  0.8724372014616506
  0.7758900292010935  0.0952429464400666  0.6187794961915429
  0.5548137893402014  0.2070390978312417  0.3687760099711568
  0.4464718229387472  0.0922992882317502  0.1228472633990023
  0.2330358446948466  0.2168227095599207  0.8724372148390245
  0.1103484521826985  0.0959697471383976  0.6040320349569441
  0.8855677088392611  0.2069224833061085  0.3686962225465962
  0.7778955759814821  0.0922992662200528  0.1228472583528983
  0.5558498012594129  0.2049670813452593  0.8728929512313428
  0.4455336924684943  0.0952429486656499  0.6187795010896409
  0.2253194637305782  0.5352592340683557  0.3736959920030074
  0.1101109933127091  0.4295166077693011  0.1235068969438089
  0.8897010172344721  0.5372646552609481  0.8715747430078409
  0.7781085824646468  0.4287452334675876  0.6183519494377947
  0.5560879998766097  0.5352592643800094  0.3736959929035635
  0.4437932609101338  0.4290801486533979  0.1172277823027130
  0.2214084169455717  0.5394404486369453  0.8683820301859768
  0.1098128455841163  0.4287452292300173  0.6183519490495897
  0.8880774771380331  0.5405117470270966  0.3696379123290683
  0.7770390527704336  0.4295166183101955  0.1235068844675169
  0.5558177845954333  0.5394404886616400  0.8683820066676304
  0.4451450305586704  0.4263766215014968  0.6241752037342607
  0.2230580231910153  0.8705506862185786  0.3654050043383421
  0.0994740522268245  0.7497639891145340  0.1279825701758028
  0.8892010444678888  0.8730710144282838  0.8673527918193216
  0.7784709375526546  0.7597247964793041  0.6239411883547348
  0.5584961009620386  0.8728215470354286  0.3743358696971555
  0.4674286315002831  0.7497640046271812  0.1279825273915876
  0.2314892906635180  0.8536880513452161  0.8602039825512264
  0.1099853404265616  0.7598859937971625  0.6137287907184117
  0.8853490721642814  0.8728215467155422  0.3743358995406538
  0.7775841248206135  0.7614984255748425  0.1175543569979354
  0.5543946029856315  0.8730710584014503  0.8673528133945965
  0.4467953441589003  0.7598860243087628  0.6137288086648169
 
  0.00000000E+00  0.00000000E+00  0.00000000E+00
  0.00000000E+00  0.00000000E+00  0.00000000E+00
  0.00000000E+00  0.00000000E+00  0.00000000E+00
  0.00000000E+00  0.00000000E+00  0.00000000E+00
  0.00000000E+00  0.00000000E+00  0.00000000E+00
  0.00000000E+00  0.00000000E+00  0.00000000E+00
  0.00000000E+00  0.00000000E+00  0.00000000E+00
  0.00000000E+00  0.00000000E+00  0.00000000E+00
  0.00000000E+00  0.00000000E+00  0.00000000E+00
  0.00000000E+00  0.00000000E+00  0.00000000E+00
  0.00000000E+00  0.00000000E+00  0.00000000E+00
  0.00000000E+00  0.00000000E+00  0.00000000E+00
  0.00000000E+00  0.00000000E+00  0.00000000E+00
  0.00000000E+00  0.00000000E+00  0.00000000E+00
  0.00000000E+00  0.00000000E+00  0.00000000E+00
  0.00000000E+00  0.00000000E+00  0.00000000E+00
  0.00000000E+00  0.00000000E+00  0.00000000E+00
  0.00000000E+00  0.00000000E+00  0.00000000E+00
  0.00000000E+00  0.00000000E+00  0.00000000E+00
  0.00000000E+00  0.00000000E+00  0.00000000E+00
  0.00000000E+00  0.00000000E+00  0.00000000E+00
  0.00000000E+00  0.00000000E+00  0.00000000E+00
  0.00000000E+00  0.00000000E+00  0.00000000E+00
  0.00000000E+00  0.00000000E+00  0.00000000E+00
  0.00000000E+00  0.00000000E+00  0.00000000E+00
  0.00000000E+00  0.00000000E+00  0.00000000E+00
  0.00000000E+00  0.00000000E+00  0.00000000E+00
  0.00000000E+00  0.00000000E+00  0.00000000E+00
  0.00000000E+00  0.00000000E+00  0.00000000E+00
  0.00000000E+00  0.00000000E+00  0.00000000E+00
  0.00000000E+00  0.00000000E+00  0.00000000E+00
  0.00000000E+00  0.00000000E+00  0.00000000E+00
  0.00000000E+00  0.00000000E+00  0.00000000E+00
  0.00000000E+00  0.00000000E+00  0.00000000E+00
  0.00000000E+00  0.00000000E+00  0.00000000E+00
  0.00000000E+00  0.00000000E+00  0.00000000E+00
  0.00000000E+00  0.00000000E+00  0.00000000E+00
  0.00000000E+00  0.00000000E+00  0.00000000E+00
  0.00000000E+00  0.00000000E+00  0.00000000E+00
  0.00000000E+00  0.00000000E+00  0.00000000E+00
  0.00000000E+00  0.00000000E+00  0.00000000E+00
  0.00000000E+00  0.00000000E+00  0.00000000E+00
  0.00000000E+00  0.00000000E+00  0.00000000E+00
  0.00000000E+00  0.00000000E+00  0.00000000E+00
  0.00000000E+00  0.00000000E+00  0.00000000E+00
  0.00000000E+00  0.00000000E+00  0.00000000E+00
  0.00000000E+00  0.00000000E+00  0.00000000E+00
  0.00000000E+00  0.00000000E+00  0.00000000E+00
  0.00000000E+00  0.00000000E+00  0.00000000E+00
  0.00000000E+00  0.00000000E+00  0.00000000E+00
  0.00000000E+00  0.00000000E+00  0.00000000E+00
  0.00000000E+00  0.00000000E+00  0.00000000E+00
  0.00000000E+00  0.00000000E+00  0.00000000E+00
  0.00000000E+00  0.00000000E+00  0.00000000E+00
  0.00000000E+00  0.00000000E+00  0.00000000E+00
  0.00000000E+00  0.00000000E+00  0.00000000E+00
  0.00000000E+00  0.00000000E+00  0.00000000E+00
  0.00000000E+00  0.00000000E+00  0.00000000E+00
  0.00000000E+00  0.00000000E+00  0.00000000E+00
  0.00000000E+00  0.00000000E+00  0.00000000E+00
  0.00000000E+00  0.00000000E+00  0.00000000E+00
  0.00000000E+00  0.00000000E+00  0.00000000E+00
  0.00000000E+00  0.00000000E+00  0.00000000E+00
  0.00000000E+00  0.00000000E+00  0.00000000E+00
  0.00000000E+00  0.00000000E+00  0.00000000E+00
  0.00000000E+00  0.00000000E+00  0.00000000E+00
  0.00000000E+00  0.00000000E+00  0.00000000E+00
  0.00000000E+00  0.00000000E+00  0.00000000E+00
  0.00000000E+00  0.00000000E+00  0.00000000E+00
  0.00000000E+00  0.00000000E+00  0.00000000E+00
  0.00000000E+00  0.00000000E+00  0.00000000E+00
  0.00000000E+00  0.00000000E+00  0.00000000E+00
