Al   Sc   N                             
   1.00000000000000     
    -9.5004041115314912   -0.0000001229878423    0.0000004165909435
    -4.7502023058498422    8.2236987448692123   -0.0021825123721219
    -0.0000018521653226    0.0002179025370796   -9.9918222631757114
   Al   Sc   N 
    34     2    36
Direct
  0.1078293957807617  0.1010078738502358  0.3081160402085743
  0.2239240693032158  0.2116097664161529  0.0589868721263116
  0.7736525567454606  0.0958286139610536  0.8061066974040756
  0.8861894861715172  0.2066907812405177  0.5518065948468234
  0.4461069577768413  0.0939084663705074  0.3061834800164647
  0.5556656659315706  0.2053354305573407  0.0560339993839563
  0.2237863880764124  0.2066908019063405  0.5518066107073594
  0.7766512657242686  0.0939084425485177  0.3061835121080065
  0.8811328396849589  0.2116097415993110  0.0589868636891779
  0.4471855355430989  0.0958286959752783  0.8061067187003843
  0.5553522005678673  0.2059623079576909  0.5559796587269901
  0.1108366836353696  0.4291691547987639  0.3058322369207929
  0.2206547153974228  0.5360645854051853  0.0552418763100562
  0.7740321270842543  0.4307458099461670  0.8058828565621354
  0.8889196209319721  0.5388274266039801  0.5560713811289375
  0.4444882143905815  0.4276902058196370  0.3060654740885624
  0.5599473979792720  0.5360645553274068  0.0552418748732535
  0.1118886943402515  0.4307458638898751  0.8058828770589983
  0.2232747693808577  0.5371428602719845  0.5565055892110351
  0.7766608329657885  0.4291691158639850  0.3058322471555286
  0.8889484258268183  0.5387697866619234  0.0570270473639951
  0.4444056728808832  0.4278553283544042  0.8070169328978949
  0.5562490331543870  0.5371428394947557  0.5565055418655760
  0.1070330133643367  0.7568977327232602  0.3090687105622862
  0.7780696155953919  0.7605274584427875  0.8061146438581801
  0.8874861225736836  0.8726216055321032  0.5567080539692313
  0.4527359003595137  0.7568977428784081  0.3090687032412163
  0.5597871485637143  0.8710146647346590  0.0555610774780888
  0.1116444958912197  0.7575531910449840  0.8026153778909659
  0.2231865501296895  0.8702935336703277  0.5490880716165520
  0.7776409293490616  0.7613847963638989  0.3056879305646021
  0.8858648538993634  0.8710146793360281  0.0555611167320436
  0.4474689578595488  0.7575531491406053  0.8026153781311081
  0.5565589369015314  0.8726216199918184  0.5567080718612303
  0.1099030011221487  0.0968608688592596  0.8084613670469736
  0.2247199043959469  0.8672271345547884  0.0710349759277165
  0.2241858118159001  0.2073310876219097  0.3612576919709767
  0.1003957825307040  0.1158751804324254  0.1142431040623322
  0.8679477042713302  0.2160325268924694  0.8689700295670946
  0.7774288323482992  0.0948138616872995  0.6135288637657581
  0.5553244002022666  0.2060178317730035  0.3637936956159891
  0.4463287842690420  0.0929133026356865  0.1145306741511689
  0.2326865391489932  0.2160325125520970  0.8689699634664265
  0.1112108950915953  0.0942449637906222  0.5949751814386417
  0.8851497709008100  0.2073310956658574  0.3612577938502781
  0.7774245814243272  0.0929132983512773  0.1145307256059240
  0.5553712095950800  0.2059242255098610  0.8641550846644321
  0.4444239209406504  0.0948138831828373  0.6135288732125375
  0.2238139484648656  0.5364976291681529  0.3657268439543273
  0.1099730768135245  0.4295601901277877  0.1151110173359982
  0.8892816856094967  0.5381033168608553  0.8636445032163564
  0.7784109386722093  0.4273314672425883  0.6134401382542549
  0.5563550485719801  0.5364976561004582  0.3657267930285215
  0.4439771866768396  0.4287122577794662  0.1127054506788099
  0.2220798490014317  0.5394035437539131  0.8627890170045163
  0.1109242594853512  0.4273314227762341  0.6134401865622223
  0.8887207340373422  0.5392252030535047  0.3637407710966869
  0.7771333988430982  0.4295602195757269  0.1151110006820204
  0.5551832414840092  0.5394035679412639  0.8627890540194301
  0.4446951383994744  0.4272763638140091  0.6147243082099791
  0.2230503090560632  0.8705660567992055  0.3517843743593048
  0.0986953593516375  0.7489456166097668  0.1204510493274498
  0.8891763149833665  0.8724428726772899  0.8621748172611206
  0.7781222808487769  0.7604220349008912  0.6144679316179591
  0.5570291155130747  0.8731338580842234  0.3657910835961644
  0.4690256738742349  0.7489456639251983  0.1204509884377956
  0.2314495190818278  0.8537676979370943  0.8589808077607017
  0.1109129859336804  0.7606546561759657  0.6095476831338615
  0.8865036288552446  0.8731338458442153  0.3657911289885192
  0.7778823488513424  0.7609018478060676  0.1133275118707147
  0.5550473692478803  0.8724429396155742  0.8621747236736397
  0.4450989773717495  0.7606547072910104  0.6095476493149548
 
  0.00000000E+00  0.00000000E+00  0.00000000E+00
  0.00000000E+00  0.00000000E+00  0.00000000E+00
  0.00000000E+00  0.00000000E+00  0.00000000E+00
  0.00000000E+00  0.00000000E+00  0.00000000E+00
  0.00000000E+00  0.00000000E+00  0.00000000E+00
  0.00000000E+00  0.00000000E+00  0.00000000E+00
  0.00000000E+00  0.00000000E+00  0.00000000E+00
  0.00000000E+00  0.00000000E+00  0.00000000E+00
  0.00000000E+00  0.00000000E+00  0.00000000E+00
  0.00000000E+00  0.00000000E+00  0.00000000E+00
  0.00000000E+00  0.00000000E+00  0.00000000E+00
  0.00000000E+00  0.00000000E+00  0.00000000E+00
  0.00000000E+00  0.00000000E+00  0.00000000E+00
  0.00000000E+00  0.00000000E+00  0.00000000E+00
  0.00000000E+00  0.00000000E+00  0.00000000E+00
  0.00000000E+00  0.00000000E+00  0.00000000E+00
  0.00000000E+00  0.00000000E+00  0.00000000E+00
  0.00000000E+00  0.00000000E+00  0.00000000E+00
  0.00000000E+00  0.00000000E+00  0.00000000E+00
  0.00000000E+00  0.00000000E+00  0.00000000E+00
  0.00000000E+00  0.00000000E+00  0.00000000E+00
  0.00000000E+00  0.00000000E+00  0.00000000E+00
  0.00000000E+00  0.00000000E+00  0.00000000E+00
  0.00000000E+00  0.00000000E+00  0.00000000E+00
  0.00000000E+00  0.00000000E+00  0.00000000E+00
  0.00000000E+00  0.00000000E+00  0.00000000E+00
  0.00000000E+00  0.00000000E+00  0.00000000E+00
  0.00000000E+00  0.00000000E+00  0.00000000E+00
  0.00000000E+00  0.00000000E+00  0.00000000E+00
  0.00000000E+00  0.00000000E+00  0.00000000E+00
  0.00000000E+00  0.00000000E+00  0.00000000E+00
  0.00000000E+00  0.00000000E+00  0.00000000E+00
  0.00000000E+00  0.00000000E+00  0.00000000E+00
  0.00000000E+00  0.00000000E+00  0.00000000E+00
  0.00000000E+00  0.00000000E+00  0.00000000E+00
  0.00000000E+00  0.00000000E+00  0.00000000E+00
  0.00000000E+00  0.00000000E+00  0.00000000E+00
  0.00000000E+00  0.00000000E+00  0.00000000E+00
  0.00000000E+00  0.00000000E+00  0.00000000E+00
  0.00000000E+00  0.00000000E+00  0.00000000E+00
  0.00000000E+00  0.00000000E+00  0.00000000E+00
  0.00000000E+00  0.00000000E+00  0.00000000E+00
  0.00000000E+00  0.00000000E+00  0.00000000E+00
  0.00000000E+00  0.00000000E+00  0.00000000E+00
  0.00000000E+00  0.00000000E+00  0.00000000E+00
  0.00000000E+00  0.00000000E+00  0.00000000E+00
  0.00000000E+00  0.00000000E+00  0.00000000E+00
  0.00000000E+00  0.00000000E+00  0.00000000E+00
  0.00000000E+00  0.00000000E+00  0.00000000E+00
  0.00000000E+00  0.00000000E+00  0.00000000E+00
  0.00000000E+00  0.00000000E+00  0.00000000E+00
  0.00000000E+00  0.00000000E+00  0.00000000E+00
  0.00000000E+00  0.00000000E+00  0.00000000E+00
  0.00000000E+00  0.00000000E+00  0.00000000E+00
  0.00000000E+00  0.00000000E+00  0.00000000E+00
  0.00000000E+00  0.00000000E+00  0.00000000E+00
  0.00000000E+00  0.00000000E+00  0.00000000E+00
  0.00000000E+00  0.00000000E+00  0.00000000E+00
  0.00000000E+00  0.00000000E+00  0.00000000E+00
  0.00000000E+00  0.00000000E+00  0.00000000E+00
  0.00000000E+00  0.00000000E+00  0.00000000E+00
  0.00000000E+00  0.00000000E+00  0.00000000E+00
  0.00000000E+00  0.00000000E+00  0.00000000E+00
  0.00000000E+00  0.00000000E+00  0.00000000E+00
  0.00000000E+00  0.00000000E+00  0.00000000E+00
  0.00000000E+00  0.00000000E+00  0.00000000E+00
  0.00000000E+00  0.00000000E+00  0.00000000E+00
  0.00000000E+00  0.00000000E+00  0.00000000E+00
  0.00000000E+00  0.00000000E+00  0.00000000E+00
  0.00000000E+00  0.00000000E+00  0.00000000E+00
  0.00000000E+00  0.00000000E+00  0.00000000E+00
  0.00000000E+00  0.00000000E+00  0.00000000E+00
