Al   Hf   Mg   N                        
   1.00000000000000     
    -9.4610778903320121   -0.0003403127110847   -0.0000148210524490
    -4.7301727349489902    8.1966453887429420   -0.0009374534290593
     0.0000474156315608    0.0026423067932473  -10.0383342415414472
   Al   Hf   Mg   N 
    34     1     1    36
Direct
  0.1112225351985087  0.0944624704498691  0.3248331196605401
  0.2223822053913496  0.2050967121956829  0.0740236201303648
  0.7778312563526142  0.0935191324087645  0.8223179442159089
  0.8898338958432883  0.2035303028979343  0.5748860314380867
  0.4441723090360400  0.0947924907028973  0.3248872308056583
  0.5560676642910530  0.1995527082070121  0.0725356600425713
  0.1121142909380046  0.0945358145568886  0.8221061504475037
  0.2204304192904827  0.2065991107344853  0.5742478563040438
  0.7779660790747003  0.0939229568462531  0.3246379304567645
  0.8945144983515615  0.1999109283080264  0.0725519191278511
  0.4435412797797147  0.0950345831951245  0.8226683706193185
  0.5572067983502159  0.2046377170796163  0.5743534930048330
  0.1118304395010429  0.4283362467982597  0.3232619485561982
  0.2168622808951331  0.5388389634481450  0.0736591563053236
  0.7813991489572056  0.4263851688594799  0.8175438055437192
  0.8909036042652954  0.5381060258537473  0.5745111145885176
  0.4396619981189709  0.4247819616435272  0.3286583091244168
  0.1106999527244563  0.4260685117753151  0.8225164725349424
  0.7849815746527402  0.4241631837988851  0.3301773898043729
  0.8941398212477968  0.5387472489145129  0.0728530771671008
  0.4439661877286384  0.4251404877015750  0.8175556667471322
  0.5562114416089255  0.5372042733217511  0.5714050949612532
  0.1112576558065926  0.7600940906743529  0.3231909512550909
  0.2166812032669582  0.8782585786690406  0.0728240991873621
  0.7782868289670473  0.7612490040088887  0.8230576426308708
  0.8899205226184675  0.8729522485466039  0.5742139914740058
  0.4406515820098915  0.7681474738034901  0.3302733043266013
  0.5554386514269175  0.8778436336364492  0.0728255816424581
  0.1096430636548299  0.7631105343703565  0.8227037829174799
  0.2184664918531383  0.8739123394472870  0.5745043698287503
  0.7783581416452094  0.7611437880641650  0.3249060053484973
  0.8885665441020872  0.8724763360963704  0.0737904829554664
  0.4424221020712438  0.7647994434151788  0.8182186329730937
  0.5565927512015065  0.8731574729250929  0.5741998457483464
  0.5560173624116603  0.5393131881967015  0.0821001096903748
  0.2197586455683265  0.5401693170994104  0.5757966312433472
  0.2221793264929396  0.2054703032033758  0.3817304901387649
  0.1111254655309621  0.0949541012570160  0.1334186699119493
  0.8887073620152778  0.2060006080745728  0.8815152745140390
  0.7776783432900521  0.0938398022367501  0.6323480065089053
  0.5566862599566906  0.2034186819386701  0.3829041301543288
  0.4440855565472435  0.0945079859715118  0.1334368146376191
  0.2231147547347978  0.2040982311430566  0.8840433964729499
  0.1117069270219475  0.0943412411473687  0.6323514305029696
  0.8899021361407646  0.2034240634647237  0.3838878728737722
  0.7776035397089964  0.0953383101022004  0.1323454777719165
  0.5558040904337939  0.2047551304089794  0.8826671591854793
  0.4441636278152762  0.0944660601816082  0.6323605001986514
  0.2200106987578058  0.5401307632203428  0.3707505532096099
  0.1109036008665961  0.4261130157103930  0.1311322378128437
  0.8871878238911086  0.5394495947288527  0.8831295173220877
  0.7776071908620976  0.4280831959017359  0.6280013646836020
  0.5558106053585022  0.5389138342138554  0.3728884856372233
  0.4370556618010243  0.4171926312260362  0.1354301141516872
  0.2226562121783383  0.5386697136317460  0.8814949813949402
  0.1037052317795718  0.4197493501928271  0.6369858933803600
  0.8898496854390119  0.5398872486375739  0.3830830690588150
  0.7972018998425683  0.4175359878145172  0.1381699125516597
  0.5561604087758160  0.5397609026301672  0.8750515186182857
  0.4589946926967259  0.4203554795356130  0.6320193828713604
  0.2200331372291944  0.8734444449560880  0.3831405134587464
  0.1111555739130251  0.7623912958293265  0.1301884032813076
  0.8874256036941904  0.8727932322480502  0.8841668616114603
  0.7779573617140079  0.7612477083383438  0.6324783036537703
  0.5566126780168743  0.8732538117185740  0.3836474214426487
  0.4347118495635023  0.7807303865870834  0.1383145040037332
  0.2235539657506862  0.8725547190617223  0.8830414949275229
  0.1030888137191907  0.7763860096904551  0.6369759825440332
  0.8887241609284950  0.8724293407596752  0.3814422351346461
  0.7770589393665471  0.7606177904988619  0.1325790550841390
  0.5552940302459261  0.8720285070748829  0.8818971729019949
  0.4444635525747757  0.7611709404812684  0.6281634694033627
