Al   Hf   Mg   N                        
   1.00000000000000     
    -9.4539121006797036   -0.0003386025945321   -0.0000225220062439
    -4.7266343047037394    8.1904391812818780   -0.0011733238188566
    -0.0001015504746206    0.0024383562144067  -10.0570142422812161
   Al   Hf   Mg   N 
    34     1     1    36
Direct
  0.1112454820735652  0.0944724363830382  0.3134142214953595
  0.2223933024901924  0.2050880290502872  0.0624962454828179
  0.7778242306793980  0.0935516119246067  0.8108271979603265
  0.8898263991602768  0.2035418819089380  0.5633397621572851
  0.4441372181743121  0.0948281194918751  0.3134558541903640
  0.5561027931649737  0.1995574088722050  0.0610899811810490
  0.1120730823279052  0.0945345692569327  0.8106496508466843
  0.2204170210667181  0.2066410458562362  0.5628860421800697
  0.7779725008625019  0.0938992789549165  0.3132040425651013
  0.8944998478621629  0.1999262996618337  0.0611777468782931
  0.4435793086430886  0.0950091717612580  0.8112198060436266
  0.5571532751546255  0.2046744925518867  0.5628508747246431
  0.1118302071714087  0.4282940948910767  0.3117018171665588
  0.2168836768758225  0.5388660588703270  0.0622091013758007
  0.7815692989078069  0.4262909046400637  0.8059345152442829
  0.8909386419577378  0.5380706171057341  0.5630263315787774
  0.4398493225931071  0.4249002973531226  0.3170346997229782
  0.1107048567672597  0.4261270925324829  0.8110939174242993
  0.7846949088532473  0.4243189605139653  0.3186993184407847
  0.8941189287184601  0.5387790397761082  0.0614049123904278
  0.4438399785995901  0.4250813567209165  0.8059847632570953
  0.5561591235821958  0.5371874452378644  0.5602350943260985
  0.1112375770181709  0.7601354506227795  0.3116220395112282
  0.2166928113057705  0.8782665184187476  0.0613767415152387
  0.7782596854668374  0.7612491273901101  0.8115767840660664
  0.8899621539112642  0.8729074918840678  0.5628352215313805
  0.4407730985436485  0.7678625323431969  0.3187887598889357
  0.5554543235333058  0.8778468945870769  0.0614504314879093
  0.1096851389184649  0.7630574078487758  0.8112435647910724
  0.2184679133871215  0.8738844177563995  0.5630166223086616
  0.7783900381934472  0.7611325786736411  0.3134708321853847
  0.8885540646839505  0.8724965876953846  0.0622388448050504
  0.4423376081220113  0.7649770883568201  0.8066106158536362
  0.5565648120372317  0.8731560747089558  0.5626501731439043
  0.5560497769677307  0.5393576508343247  0.0696898345448232
  0.2197670674471776  0.5401435213957072  0.5639577761134547
  0.2221603017762004  0.2055059656841703  0.3706144134426452
  0.1111570135025426  0.0949725534744240  0.1222458887927850
  0.8886888980142925  0.2060154795808691  0.8703941062941507
  0.7776631273046050  0.0938653777436212  0.6211287159231327
  0.5566582602763092  0.2034916736488499  0.3716537889005460
  0.4440537395665843  0.0945557212852515  0.1222548460840100
  0.2231090416109466  0.2041000095456985  0.8727992251496139
  0.1116731525085841  0.0943356878310118  0.6211600479509797
  0.8898700659128225  0.2034747685054225  0.3726145940337284
  0.7776233118406489  0.0952987954939247  0.1211599460782334
  0.5558098202975167  0.2047623075696378  0.8714975801409884
  0.4441933295058072  0.0944304228388834  0.6211752415655810
  0.2200792949335563  0.5400995693334436  0.3592702757263896
  0.1109208603276076  0.4260877118735354  0.1198696453087275
  0.8871712178874124  0.5394533645721644  0.8719569502565712
  0.7777110052437267  0.4280072033989528  0.6167972189165564
  0.5557945737464876  0.5388995662448209  0.3622288566825178
  0.4372406952657110  0.4173441490640941  0.1241088556204765
  0.2226647247216483  0.5386758803787841  0.8703925124718337
  0.1037261163700270  0.4198267701536358  0.6258637560998492
  0.8898606308710665  0.5398422398397039  0.3718495946651368
  0.7969356342669129  0.4177007826566960  0.1269505330991390
  0.5561572565602767  0.5397705018336080  0.8631376904167981
  0.4588332891773788  0.4203187492238223  0.6208637945439152
  0.2200603040415005  0.8734072162342765  0.3719044189977324
  0.1111159984236841  0.7624380498042199  0.1189186531466829
  0.8874243726982964  0.8727974807346687  0.8728944638899201
  0.7779191625435373  0.7612279513690087  0.6212699972003531
  0.5565913143243000  0.8732245512891836  0.3723709119270211
  0.4348389934749242  0.7804709335068309  0.1270921551715177
  0.2235529080759603  0.8725522367908822  0.8718676491242632
  0.1031755098000025  0.7762677207135921  0.6258169893536334
  0.8887636815428771  0.8724055878437406  0.3703136038908085
  0.7770972178778093  0.7606367490686865  0.1213880784259667
  0.5552926057961087  0.8720194978182564  0.8707776924005652
  0.4443935179812057  0.7612992447101077  0.6169635054352592
