Al   O    N                             
   1.00000000000000     
    -9.3919977845908047   -0.0000093367569781    0.0000044693012573
    -4.6960034111272275    8.1336999865026254   -0.0000397671202666
    -0.0000013737063118   -0.0000464364475922   -9.8719001672635720
   Al   O    N 
    36     1    35
Direct
  0.1073773761580838  0.0906253527082370  0.3841026556802234
  0.2221338892648177  0.2053820619975539  0.1236227712918989
  0.7778087475035562  0.0940322998083403  0.8827436358493514
  0.8884466402767544  0.2058070949175317  0.6333130450380366
  0.4516472964067688  0.0906250312017320  0.3841026833888677
  0.5560154239542001  0.2061955433864284  0.1323941013323520
  0.1103728331553526  0.0936205048542078  0.8838261343121303
  0.2221336908490272  0.2053820483945614  0.6366761417956255
  0.7777991596814644  0.0940513729655379  0.3831399720842228
  0.8874394052612971  0.2061954934492789  0.1323941015240067
  0.4456562522719452  0.0936207453130677  0.8838262373340413
  0.5553961883800582  0.2058070709836102  0.6333130726009202
  0.1073770182976901  0.4348954052789296  0.3841026291450973
  0.2229473318668553  0.5392634621569812  0.1323941309128713
  0.7776142962323931  0.4276417180382026  0.8826794771538076
  0.8884465077389763  0.5386441492015379  0.6333131874672731
  0.4449382944553761  0.4281868176081574  0.3838543431206531
  0.5554673071187395  0.5387153699865550  0.1322296434495271
  0.1103727973993429  0.4289045284660205  0.8838262310387179
  0.2225588542240686  0.5386443695664909  0.6333130888688814
  0.7765239441426672  0.4281868866821625  0.3838542723525649
  0.8874393014099127  0.5392631323733497  0.1323941558384760
  0.4443934581249849  0.4276418298845073  0.8826794821692161
  0.5554672738934272  0.5387153329374073  0.6336931956062486
  0.1108036956800902  0.7610470522914810  0.3831399190860623
  0.2229474959811029  0.8706870478428002  0.1323941224053726
  0.7778087442436927  0.7610566473357707  0.8827437557254640
  0.8888008092254012  0.8720483394736789  0.6332166956002823
  0.4449384066823754  0.7597723763742792  0.3838543468773921
  0.5560154863872171  0.8706867326188856  0.1323941377136180
  0.1107846293664494  0.7610565622762095  0.8827437201218729
  0.2225590099649253  0.8716945257483459  0.6333129807737237
  0.7777991079787654  0.7610471652889075  0.3831400027433460
  0.8888009481000196  0.8720482584054920  0.1325761759117796
  0.4443934920525976  0.7608623739839047  0.8826795265075802
  0.5553962021145864  0.8716943050274324  0.6333131044367590
  0.2221340061908990  0.2053819761731575  0.3233966001288380
  0.1110849247970975  0.0943330623406169  0.0781151635174524
  0.8893472017823214  0.2050073901415885  0.8258100117441245
  0.7776089304880145  0.0944318968885725  0.5753840873929690
  0.5541546085253088  0.2061242001843908  0.3253905885725317
  0.4442319604861353  0.0943330255155530  0.0781152586755525
  0.2221339315559945  0.2053818318725078  0.8288690205533342
  0.1121485808145906  0.0953968961870189  0.5740298042601708
  0.8893709547540567  0.2061242776592564  0.3253905641212782
  0.7776646873554611  0.0943207109606661  0.0757716736683776
  0.5552952171751286  0.2050074644203264  0.8258100597528468
  0.4421041083767889  0.0953968831234207  0.5740298904434198
  0.2228762626938590  0.5374023831092458  0.3253906522105794
  0.1110851496814007  0.4274795949524588  0.0781152313362199
  0.8893471646541187  0.5385429056729194  0.8258100934666786
  0.7776470432665619  0.4276251970270621  0.5759008469058671
  0.5554670912701809  0.5387150762523163  0.3252534243147664
  0.4443462876172433  0.4275940159921205  0.0754478286453661
  0.2217596714795889  0.5385430698629747  0.8258099919521698
  0.1121486700422309  0.4253522729768733  0.5740298845974081
  0.8893708782058525  0.5374023439626541  0.3253906775230604
  0.7777094982222792  0.4275939601080267  0.0754477968120995
  0.5554672849669302  0.5387150910634659  0.8258943493322164
  0.4443773335741454  0.4276252368942366  0.5759009558958113
  0.2228760888892296  0.8726193415036505  0.3253906326327254
  0.1110725718479628  0.7609128367423210  0.0757716621960043
  0.8888006662866204  0.8720487070399514  0.8257036587511308
  0.7776088882305672  0.7608570979183753  0.5753841575540406
  0.5541544268995438  0.8726190284597521  0.3253906734429108
  0.4443460419230618  0.7609575826771859  0.0754477971430347
  0.2217594891444321  0.8725952346682817  0.8258099599654614
  0.1111836935929702  0.7608571646370876  0.5753840634189729
  0.8888006342763290  0.8720487256570166  0.3254853081917659
  0.7776646013008630  0.7609126978605545  0.0757717115353387
  0.5552949796134214  0.8725951879745821  0.8258101044229065
  0.4443771575246132  0.7608951802299018  0.5759009488414790
 
  0.00000000E+00  0.00000000E+00  0.00000000E+00
  0.00000000E+00  0.00000000E+00  0.00000000E+00
  0.00000000E+00  0.00000000E+00  0.00000000E+00
  0.00000000E+00  0.00000000E+00  0.00000000E+00
  0.00000000E+00  0.00000000E+00  0.00000000E+00
  0.00000000E+00  0.00000000E+00  0.00000000E+00
  0.00000000E+00  0.00000000E+00  0.00000000E+00
  0.00000000E+00  0.00000000E+00  0.00000000E+00
  0.00000000E+00  0.00000000E+00  0.00000000E+00
  0.00000000E+00  0.00000000E+00  0.00000000E+00
  0.00000000E+00  0.00000000E+00  0.00000000E+00
  0.00000000E+00  0.00000000E+00  0.00000000E+00
  0.00000000E+00  0.00000000E+00  0.00000000E+00
  0.00000000E+00  0.00000000E+00  0.00000000E+00
  0.00000000E+00  0.00000000E+00  0.00000000E+00
  0.00000000E+00  0.00000000E+00  0.00000000E+00
  0.00000000E+00  0.00000000E+00  0.00000000E+00
  0.00000000E+00  0.00000000E+00  0.00000000E+00
  0.00000000E+00  0.00000000E+00  0.00000000E+00
  0.00000000E+00  0.00000000E+00  0.00000000E+00
  0.00000000E+00  0.00000000E+00  0.00000000E+00
  0.00000000E+00  0.00000000E+00  0.00000000E+00
  0.00000000E+00  0.00000000E+00  0.00000000E+00
  0.00000000E+00  0.00000000E+00  0.00000000E+00
  0.00000000E+00  0.00000000E+00  0.00000000E+00
  0.00000000E+00  0.00000000E+00  0.00000000E+00
  0.00000000E+00  0.00000000E+00  0.00000000E+00
  0.00000000E+00  0.00000000E+00  0.00000000E+00
  0.00000000E+00  0.00000000E+00  0.00000000E+00
  0.00000000E+00  0.00000000E+00  0.00000000E+00
  0.00000000E+00  0.00000000E+00  0.00000000E+00
  0.00000000E+00  0.00000000E+00  0.00000000E+00
  0.00000000E+00  0.00000000E+00  0.00000000E+00
  0.00000000E+00  0.00000000E+00  0.00000000E+00
  0.00000000E+00  0.00000000E+00  0.00000000E+00
  0.00000000E+00  0.00000000E+00  0.00000000E+00
  0.00000000E+00  0.00000000E+00  0.00000000E+00
  0.00000000E+00  0.00000000E+00  0.00000000E+00
  0.00000000E+00  0.00000000E+00  0.00000000E+00
  0.00000000E+00  0.00000000E+00  0.00000000E+00
  0.00000000E+00  0.00000000E+00  0.00000000E+00
  0.00000000E+00  0.00000000E+00  0.00000000E+00
  0.00000000E+00  0.00000000E+00  0.00000000E+00
  0.00000000E+00  0.00000000E+00  0.00000000E+00
  0.00000000E+00  0.00000000E+00  0.00000000E+00
  0.00000000E+00  0.00000000E+00  0.00000000E+00
  0.00000000E+00  0.00000000E+00  0.00000000E+00
  0.00000000E+00  0.00000000E+00  0.00000000E+00
  0.00000000E+00  0.00000000E+00  0.00000000E+00
  0.00000000E+00  0.00000000E+00  0.00000000E+00
  0.00000000E+00  0.00000000E+00  0.00000000E+00
  0.00000000E+00  0.00000000E+00  0.00000000E+00
  0.00000000E+00  0.00000000E+00  0.00000000E+00
  0.00000000E+00  0.00000000E+00  0.00000000E+00
  0.00000000E+00  0.00000000E+00  0.00000000E+00
  0.00000000E+00  0.00000000E+00  0.00000000E+00
  0.00000000E+00  0.00000000E+00  0.00000000E+00
  0.00000000E+00  0.00000000E+00  0.00000000E+00
  0.00000000E+00  0.00000000E+00  0.00000000E+00
  0.00000000E+00  0.00000000E+00  0.00000000E+00
  0.00000000E+00  0.00000000E+00  0.00000000E+00
  0.00000000E+00  0.00000000E+00  0.00000000E+00
  0.00000000E+00  0.00000000E+00  0.00000000E+00
  0.00000000E+00  0.00000000E+00  0.00000000E+00
  0.00000000E+00  0.00000000E+00  0.00000000E+00
  0.00000000E+00  0.00000000E+00  0.00000000E+00
  0.00000000E+00  0.00000000E+00  0.00000000E+00
  0.00000000E+00  0.00000000E+00  0.00000000E+00
  0.00000000E+00  0.00000000E+00  0.00000000E+00
  0.00000000E+00  0.00000000E+00  0.00000000E+00
  0.00000000E+00  0.00000000E+00  0.00000000E+00
  0.00000000E+00  0.00000000E+00  0.00000000E+00
