Al   O    N                             
   1.00000000000000     
    -9.8732314397495067   -0.0000053056421317   -0.0000143983549170
    -4.9366186071390032    8.5504676786864078   -0.0000317174404846
     0.0000116931123734   -0.0000245405236462   -8.3974608076516137
   Al   O    N 
    36     1    35
Direct
  0.1089496553832561  0.0921975179279428  0.3553240836967930
  0.2221339923207495  0.2053820779503965  0.0950127227592219
  0.7779152921562300  0.0938192582411475  0.8559598324692104
  0.8888780739379456  0.2058845542920480  0.6059357342797540
  0.4485028320087636  0.0921971993439712  0.3553240324124758
  0.5558262693890370  0.2063665171312508  0.1072492140298920
  0.1094757419945438  0.0927236230743631  0.8599032838587419
  0.2221339678245684  0.2053820355967773  0.6233028467163422
  0.7778147134824636  0.0940203612644552  0.3567777759509312
  0.8874571463656551  0.2063664758598520  0.1072492448100064
  0.4474506113397396  0.0927234067767841  0.8599033028061669
  0.5548872629771893  0.2058844185821656  0.6059357556568088
  0.1089492681821795  0.4317509201139700  0.3553240245112548
  0.2231186538610999  0.5390742504658519  0.1072491972638190
  0.7778299962238577  0.4275337320471166  0.8559826735482616
  0.8888778365012584  0.5381352506634656  0.6059358099745324
  0.4449224499075655  0.4281703407107429  0.3570212683233294
  0.5554672669865894  0.5387150920578847  0.1053708265765465
  0.1094754783101877  0.4306986725401458  0.8599033028021026
  0.2226365240889621  0.5381352786187250  0.6059357690737599
  0.7765566771490597  0.4281704815907688  0.3570212178293417
  0.8874569312777894  0.5390740778832779  0.1072491612779345
  0.4442858682328463  0.4275337236322798  0.8559826203614875
  0.5554672629846422  0.5387150866081072  0.6074647220646270
  0.1107724490433029  0.7610626911455682  0.3567777602075211
  0.2231186214922829  0.8707050826944780  0.1072492386863217
  0.7779151954553711  0.7611631610387732  0.8559599226090953
  0.8888006195595040  0.8720485593818523  0.6064309028911694
  0.4449226414855687  0.7598044652231621  0.3570212092965690
  0.5558260937409187  0.8707048976853855  0.1072491719063322
  0.1105713531079289  0.7611632687345065  0.8559598477115244
  0.2226367028124088  0.8721259761505067  0.6059357404063732
  0.7778146662635450  0.7610626235903197  0.3567776879428024
  0.8888006100915646  0.8720485391847390  0.1061652018387989
  0.4442858973285055  0.7610778075066165  0.8559826830140338
  0.5548872621696219  0.8721257721952824  0.6059358025816906
  0.2221339452845896  0.2053820119037866  0.3446752104481661
  0.1119771091708301  0.0952250336046134  0.1066160740534983
  0.8901474223330510  0.2044737821169491  0.8519224470848243
  0.7774996544372712  0.0946505235044484  0.6021481500559318
  0.5549617386622927  0.2060225027960598  0.3522056989740676
  0.4424478626404422  0.0952248840069672  0.1066160537984118
  0.2221339731985310  0.2053820250174141  0.8556944660250636
  0.1132537023360030  0.0965016037228992  0.5964854966540969
  0.8886654326576746  0.2060226218697636  0.3522057068399249
  0.7775465473289813  0.0945567389829947  0.1022362013417251
  0.5550286261932911  0.2044737341503122  0.8519224407284867
  0.4398946107295032  0.0965014163225391  0.5964854821894079
  0.2227746285543475  0.5382097386668079  0.3522056902162234
  0.1119769300803313  0.4256959338286848  0.1066160458295400
  0.8901472031922992  0.5382765150328552  0.8519224747166945
  0.7777433149371831  0.4275771409189488  0.6027633093532927
  0.5554672290206781  0.5387150223838120  0.3521562208799480
  0.4443786484470067  0.4276265032283177  0.1015657878825138
  0.2212258693620797  0.5382766115796329  0.8519224453447976
  0.1132534835752210  0.4231426633785205  0.5964854833309872
  0.8886651983297540  0.5382097305513014  0.3522056488215597
  0.7776444523454344  0.4276264994651200  0.1015657943300283
  0.5554672561391456  0.5387150654269277  0.8522414185465195
  0.4443291752326033  0.4275770570574551  0.6027633151345952
  0.2227747915957110  0.8719133166817130  0.3522056987862712
  0.1113088340749187  0.7607945233013069  0.1022361989145608
  0.8888005947635662  0.8720485008281216  0.8522367830825175
  0.7774995974066030  0.7607475677937714  0.6021481466301424
  0.5549617657083985  0.8719131146418846  0.3522056505775097
  0.4443786634468125  0.7608922638165296  0.1015657953489679
  0.2212259477221252  0.8733953203602027  0.8519224528869458
  0.1114025999457837  0.7607476424947706  0.6021481483150879
  0.8888005995668564  0.8720485101826796  0.3522326900828077
  0.7775464476431111  0.7607944120475381  0.1022361775920615
  0.5550285480127002  0.8733951337362598  0.8519224756392063
  0.4443292938066818  0.7609911198094323  0.6027633085168631
 
  0.00000000E+00  0.00000000E+00  0.00000000E+00
  0.00000000E+00  0.00000000E+00  0.00000000E+00
  0.00000000E+00  0.00000000E+00  0.00000000E+00
  0.00000000E+00  0.00000000E+00  0.00000000E+00
  0.00000000E+00  0.00000000E+00  0.00000000E+00
  0.00000000E+00  0.00000000E+00  0.00000000E+00
  0.00000000E+00  0.00000000E+00  0.00000000E+00
  0.00000000E+00  0.00000000E+00  0.00000000E+00
  0.00000000E+00  0.00000000E+00  0.00000000E+00
  0.00000000E+00  0.00000000E+00  0.00000000E+00
  0.00000000E+00  0.00000000E+00  0.00000000E+00
  0.00000000E+00  0.00000000E+00  0.00000000E+00
  0.00000000E+00  0.00000000E+00  0.00000000E+00
  0.00000000E+00  0.00000000E+00  0.00000000E+00
  0.00000000E+00  0.00000000E+00  0.00000000E+00
  0.00000000E+00  0.00000000E+00  0.00000000E+00
  0.00000000E+00  0.00000000E+00  0.00000000E+00
  0.00000000E+00  0.00000000E+00  0.00000000E+00
  0.00000000E+00  0.00000000E+00  0.00000000E+00
  0.00000000E+00  0.00000000E+00  0.00000000E+00
  0.00000000E+00  0.00000000E+00  0.00000000E+00
  0.00000000E+00  0.00000000E+00  0.00000000E+00
  0.00000000E+00  0.00000000E+00  0.00000000E+00
  0.00000000E+00  0.00000000E+00  0.00000000E+00
  0.00000000E+00  0.00000000E+00  0.00000000E+00
  0.00000000E+00  0.00000000E+00  0.00000000E+00
  0.00000000E+00  0.00000000E+00  0.00000000E+00
  0.00000000E+00  0.00000000E+00  0.00000000E+00
  0.00000000E+00  0.00000000E+00  0.00000000E+00
  0.00000000E+00  0.00000000E+00  0.00000000E+00
  0.00000000E+00  0.00000000E+00  0.00000000E+00
  0.00000000E+00  0.00000000E+00  0.00000000E+00
  0.00000000E+00  0.00000000E+00  0.00000000E+00
  0.00000000E+00  0.00000000E+00  0.00000000E+00
  0.00000000E+00  0.00000000E+00  0.00000000E+00
  0.00000000E+00  0.00000000E+00  0.00000000E+00
  0.00000000E+00  0.00000000E+00  0.00000000E+00
  0.00000000E+00  0.00000000E+00  0.00000000E+00
  0.00000000E+00  0.00000000E+00  0.00000000E+00
  0.00000000E+00  0.00000000E+00  0.00000000E+00
  0.00000000E+00  0.00000000E+00  0.00000000E+00
  0.00000000E+00  0.00000000E+00  0.00000000E+00
  0.00000000E+00  0.00000000E+00  0.00000000E+00
  0.00000000E+00  0.00000000E+00  0.00000000E+00
  0.00000000E+00  0.00000000E+00  0.00000000E+00
  0.00000000E+00  0.00000000E+00  0.00000000E+00
  0.00000000E+00  0.00000000E+00  0.00000000E+00
  0.00000000E+00  0.00000000E+00  0.00000000E+00
  0.00000000E+00  0.00000000E+00  0.00000000E+00
  0.00000000E+00  0.00000000E+00  0.00000000E+00
  0.00000000E+00  0.00000000E+00  0.00000000E+00
  0.00000000E+00  0.00000000E+00  0.00000000E+00
  0.00000000E+00  0.00000000E+00  0.00000000E+00
  0.00000000E+00  0.00000000E+00  0.00000000E+00
  0.00000000E+00  0.00000000E+00  0.00000000E+00
  0.00000000E+00  0.00000000E+00  0.00000000E+00
  0.00000000E+00  0.00000000E+00  0.00000000E+00
  0.00000000E+00  0.00000000E+00  0.00000000E+00
  0.00000000E+00  0.00000000E+00  0.00000000E+00
  0.00000000E+00  0.00000000E+00  0.00000000E+00
  0.00000000E+00  0.00000000E+00  0.00000000E+00
  0.00000000E+00  0.00000000E+00  0.00000000E+00
  0.00000000E+00  0.00000000E+00  0.00000000E+00
  0.00000000E+00  0.00000000E+00  0.00000000E+00
  0.00000000E+00  0.00000000E+00  0.00000000E+00
  0.00000000E+00  0.00000000E+00  0.00000000E+00
  0.00000000E+00  0.00000000E+00  0.00000000E+00
  0.00000000E+00  0.00000000E+00  0.00000000E+00
  0.00000000E+00  0.00000000E+00  0.00000000E+00
  0.00000000E+00  0.00000000E+00  0.00000000E+00
  0.00000000E+00  0.00000000E+00  0.00000000E+00
  0.00000000E+00  0.00000000E+00  0.00000000E+00
