Al   O    N                             
   1.00000000000000     
    -9.3540996040013002   -0.0000004683043161   -0.0000370395423263
    -4.6770507052537322    8.1008902457387997   -0.0000220578247461
     0.0000388893690055   -0.0000046311370059   -9.9730738543523589
   Al   O    N 
    36     1    35
Direct
  0.1072282253716850  0.0904864426542744  0.3199087362747122
  0.2221312590320537  0.2053892279100324  0.0686688796688131
  0.7778210022200369  0.0940098747907356  0.8218289230248814
  0.8876183282076155  0.2061050457512650  0.5723512898805865
  0.4519373952173851  0.0904860102329650  0.3199087310811635
  0.5555256240340896  0.2058834442077355  0.0711793367175630
  0.1105277770004847  0.0937852974896174  0.8212543006856308
  0.2221315409478137  0.2053890653240487  0.5802009519635547
  0.7777634078466917  0.0941248808247579  0.3215710681092929
  0.8882430452833461  0.2058835971794224  0.0711792863103327
  0.4453387872662518  0.0937855532181402  0.8212541575602259
  0.5559293504581646  0.2061050370411834  0.5723512387527094
  0.1072279827432681  0.4351952649886428  0.3199087697438827
  0.2226256110998293  0.5387833405916354  0.0711794061981053
  0.7775223717324309  0.4276935565763154  0.8218583699925048
  0.8876181977393784  0.5391865756965259  0.5723512860518056
  0.4448922777632234  0.4281502302332143  0.3208458029562919
  0.5554648125576662  0.5387225237959328  0.0710809827344647
  0.1105279313533529  0.4285965511764331  0.8212541976960495
  0.2228474106183782  0.5391868299350193  0.5723512634136227
  0.7766084353728075  0.4281504584048008  0.3208458496485207
  0.8882429373258276  0.5387831961084402  0.0711792384503340
  0.4444358215275912  0.4276935176587600  0.8218583929714924
  0.5554649772107325  0.5387225018564905  0.5722717497352079
  0.1108671803291728  0.7610212699596275  0.3215711050900367
  0.2226257090007948  0.8715008552306216  0.0711794048986505
  0.7778210705091695  0.7610789081466507  0.8218289580704479
  0.8887983152194465  0.8720557391730637  0.5719868042894660
  0.4448923418705490  0.7598666897629229  0.3208458644152401
  0.5555255714439298  0.8715005916279779  0.0711792920644356
  0.1107523375039463  0.7610787026390824  0.8218289927018958
  0.2228474004920997  0.8708758147917806  0.5723512856487218
  0.7777634549023844  0.7610214683316272  0.3215710609882834
  0.8887981572909638  0.8720557838580518  0.0715156932576662
  0.4444357682054090  0.7607802272478068  0.8218584020970923
  0.5559292553136572  0.8708755149322229  0.5723512640036716
  0.2221315507887738  0.2053892444121033  0.3817659724397160
  0.1119511647643066  0.0952089788388690  0.1318256759905339
  0.8892218441940472  0.2050990968850925  0.8803903176032577
  0.7776832132178129  0.0942861430172997  0.6304463370442477
  0.5540193581088388  0.2060603040518174  0.3809146978467695
  0.4424918290397244  0.0952088738098738  0.1318256133185614
  0.2221313525336868  0.2053892142885374  0.8783236384503468
  0.1111700907092938  0.0944274722869167  0.6285314095184802
  0.8895720708176569  0.2060604871477452  0.3809147470667256
  0.7775968500774084  0.0944585151603903  0.1309535541101496
  0.5553310139975522  0.2050991443566659  0.8803903751926967
  0.4440548026628051  0.0944274954499207  0.6285312029487784
  0.2228023070407872  0.5372772584810974  0.3809147196885405
  0.1119510967632564  0.4257496066759074  0.1318256882362121
  0.8892218838557682  0.5385887367455879  0.8803902661468044
  0.7776902820258726  0.4276097454281569  0.6307293398621781
  0.5554642921613606  0.5387225240759079  0.3809110700685281
  0.4443571286777654  0.4276148748451973  0.1304436301155647
  0.2218413599904778  0.5385888365399083  0.8803904441356138
  0.1111701038525013  0.4273122171530233  0.6285312669741714
  0.8895718356115054  0.5372772801788912  0.3809147364012802
  0.7776798883916598  0.4276149026697098  0.1304436693465121
  0.5554646164527384  0.5387225140782164  0.8804759044158814
  0.4443522275215841  0.4276097891119832  0.6307293185053311
  0.2228023718316763  0.8728301970733554  0.3809147469492942
  0.1112008710670338  0.7608544767751013  0.1309536048422615
  0.8887982413265547  0.8720558217039169  0.8806465094989591
  0.7776831443454029  0.7609404731461353  0.6304463972080612
  0.5540193777030851  0.8728298253365949  0.3809147222039044
  0.4443571267022719  0.7609376484120034  0.1304436884492191
  0.2218413355198336  0.8724795968662846  0.8803904501451498
  0.1110287287501421  0.7609405946235697  0.6304464024296550
  0.8887981512881566  0.8720558406176835  0.3807248486038404
  0.7775967818307734  0.7608543725195389  0.1309535604030359
  0.5553309540281006  0.8724796161454620  0.8803903300525704
  0.4443521770148280  0.7609478135226340  0.6307293379562537
 
  0.00000000E+00  0.00000000E+00  0.00000000E+00
  0.00000000E+00  0.00000000E+00  0.00000000E+00
  0.00000000E+00  0.00000000E+00  0.00000000E+00
  0.00000000E+00  0.00000000E+00  0.00000000E+00
  0.00000000E+00  0.00000000E+00  0.00000000E+00
  0.00000000E+00  0.00000000E+00  0.00000000E+00
  0.00000000E+00  0.00000000E+00  0.00000000E+00
  0.00000000E+00  0.00000000E+00  0.00000000E+00
  0.00000000E+00  0.00000000E+00  0.00000000E+00
  0.00000000E+00  0.00000000E+00  0.00000000E+00
  0.00000000E+00  0.00000000E+00  0.00000000E+00
  0.00000000E+00  0.00000000E+00  0.00000000E+00
  0.00000000E+00  0.00000000E+00  0.00000000E+00
  0.00000000E+00  0.00000000E+00  0.00000000E+00
  0.00000000E+00  0.00000000E+00  0.00000000E+00
  0.00000000E+00  0.00000000E+00  0.00000000E+00
  0.00000000E+00  0.00000000E+00  0.00000000E+00
  0.00000000E+00  0.00000000E+00  0.00000000E+00
  0.00000000E+00  0.00000000E+00  0.00000000E+00
  0.00000000E+00  0.00000000E+00  0.00000000E+00
  0.00000000E+00  0.00000000E+00  0.00000000E+00
  0.00000000E+00  0.00000000E+00  0.00000000E+00
  0.00000000E+00  0.00000000E+00  0.00000000E+00
  0.00000000E+00  0.00000000E+00  0.00000000E+00
  0.00000000E+00  0.00000000E+00  0.00000000E+00
  0.00000000E+00  0.00000000E+00  0.00000000E+00
  0.00000000E+00  0.00000000E+00  0.00000000E+00
  0.00000000E+00  0.00000000E+00  0.00000000E+00
  0.00000000E+00  0.00000000E+00  0.00000000E+00
  0.00000000E+00  0.00000000E+00  0.00000000E+00
  0.00000000E+00  0.00000000E+00  0.00000000E+00
  0.00000000E+00  0.00000000E+00  0.00000000E+00
  0.00000000E+00  0.00000000E+00  0.00000000E+00
  0.00000000E+00  0.00000000E+00  0.00000000E+00
  0.00000000E+00  0.00000000E+00  0.00000000E+00
  0.00000000E+00  0.00000000E+00  0.00000000E+00
  0.00000000E+00  0.00000000E+00  0.00000000E+00
  0.00000000E+00  0.00000000E+00  0.00000000E+00
  0.00000000E+00  0.00000000E+00  0.00000000E+00
  0.00000000E+00  0.00000000E+00  0.00000000E+00
  0.00000000E+00  0.00000000E+00  0.00000000E+00
  0.00000000E+00  0.00000000E+00  0.00000000E+00
  0.00000000E+00  0.00000000E+00  0.00000000E+00
  0.00000000E+00  0.00000000E+00  0.00000000E+00
  0.00000000E+00  0.00000000E+00  0.00000000E+00
  0.00000000E+00  0.00000000E+00  0.00000000E+00
  0.00000000E+00  0.00000000E+00  0.00000000E+00
  0.00000000E+00  0.00000000E+00  0.00000000E+00
  0.00000000E+00  0.00000000E+00  0.00000000E+00
  0.00000000E+00  0.00000000E+00  0.00000000E+00
  0.00000000E+00  0.00000000E+00  0.00000000E+00
  0.00000000E+00  0.00000000E+00  0.00000000E+00
  0.00000000E+00  0.00000000E+00  0.00000000E+00
  0.00000000E+00  0.00000000E+00  0.00000000E+00
  0.00000000E+00  0.00000000E+00  0.00000000E+00
  0.00000000E+00  0.00000000E+00  0.00000000E+00
  0.00000000E+00  0.00000000E+00  0.00000000E+00
  0.00000000E+00  0.00000000E+00  0.00000000E+00
  0.00000000E+00  0.00000000E+00  0.00000000E+00
  0.00000000E+00  0.00000000E+00  0.00000000E+00
  0.00000000E+00  0.00000000E+00  0.00000000E+00
  0.00000000E+00  0.00000000E+00  0.00000000E+00
  0.00000000E+00  0.00000000E+00  0.00000000E+00
  0.00000000E+00  0.00000000E+00  0.00000000E+00
  0.00000000E+00  0.00000000E+00  0.00000000E+00
  0.00000000E+00  0.00000000E+00  0.00000000E+00
  0.00000000E+00  0.00000000E+00  0.00000000E+00
  0.00000000E+00  0.00000000E+00  0.00000000E+00
  0.00000000E+00  0.00000000E+00  0.00000000E+00
  0.00000000E+00  0.00000000E+00  0.00000000E+00
  0.00000000E+00  0.00000000E+00  0.00000000E+00
  0.00000000E+00  0.00000000E+00  0.00000000E+00
