Al   O    N                             
   1.00000000000000     
    -9.3518151560951104   -0.0000101429799474    0.0000082428324922
    -4.6759163260325547    8.0989049299803053   -0.0000413770562230
    -0.0000086582940809   -0.0000553597486929   -9.9790927903066660
   Al   O    N 
    36     1    35
Direct
  0.1072313563176337  0.0904575078407674  0.3930386126875050
  0.2221397357422106  0.2053652290160599  0.1327363499192060
  0.7778288435305285  0.0939868302784888  0.8910862230919463
  0.8882414952635713  0.2058637744834897  0.6417399715867589
  0.4519557960357190  0.0904570850848003  0.3930386132751735
  0.5559310776444093  0.2060750947852910  0.1405566215977672
  0.1105450504924619  0.0937705290376201  0.8916250262754843
  0.2221394690311556  0.2053654049024729  0.6442011379114732
  0.7777697071207044  0.0941049169749917  0.3913399337917696
  0.8876391824167911  0.2060750926676036  0.1405565451347428
  0.4453288628573020  0.0937707973539119  0.8916252144552317
  0.5555395912240115  0.2058636314564808  0.6417399328146161
  0.1072311160371200  0.4351816208972892  0.3930385852230600
  0.2228495071534979  0.5391565117587760  0.1405565889157359
  0.7775268624965435  0.4276715942209535  0.8910593657465924
  0.8882413852306215  0.5387651342492106  0.6417400534526436
  0.4448972621316045  0.4281231721277052  0.3920637887028064
  0.5554731936373969  0.5386986574930788  0.1406484283224714
  0.1105451952334420  0.4285546070538899  0.8916251708324197
  0.2226378300705250  0.5387652748105936  0.6417398583282576
  0.7766231190782804  0.4281233963804354  0.3920637463559586
  0.8876390375264123  0.5391562356914150  0.1405565475698296
  0.4444458597167440  0.4276715761790371  0.8910593371199340
  0.5554730034456554  0.5386986997862522  0.6418237002324219
  0.1108792872737752  0.7609954923145281  0.3913398964189554
  0.2228495074260906  0.8708645981659728  0.1405565596694984
  0.7778289133490901  0.7610547039368072  0.8910861964183070
  0.8888064007086740  0.8720319508271572  0.6413940947524850
  0.4448973541709620  0.7598492848193743  0.3920637258040642
  0.5559309810910165  0.8708642811965461  0.1405565858434343
  0.1107613284305557  0.7610545057933464  0.8910861352193820
  0.2226379419760462  0.8714672417063980  0.6417398286489018
  0.7777697765487801  0.7609956907318391  0.3913399696967161
  0.8888065693433091  0.8720318968100642  0.1409301453731260
  0.4444458181510953  0.7607527023644138  0.8910593281863797
  0.5555395454685197  0.8714669988477155  0.6417399846726468
  0.2221398092903826  0.2053653780974543  0.3311152363000147
  0.1111803902112740  0.0944057829884812  0.0842674964029513
  0.8892189600633245  0.2050810393779514  0.8324337207530732
  0.7776054131005097  0.0944339538546046  0.5818634783573486
  0.5540214841097111  0.2060322788550693  0.3319077110857052
  0.4440588059015766  0.0944057905956228  0.0842677099478379
  0.2221396056294722  0.2053653452599136  0.8344452776732183
  0.1119467071231099  0.0951725594802824  0.5810149924860752
  0.8895905560348965  0.2060325124410980  0.3319076384117707
  0.7776928322289223  0.0942594707170343  0.0823824191837872
  0.5553445688431466  0.2050810664960565  0.8324336818176192
  0.4425253068230646  0.0951724384009296  0.5810150606523266
  0.2228064301592951  0.5372472376532045  0.3319076965277716
  0.1111803965472618  0.4272842069069398  0.0842676456938278
  0.8892189977993041  0.5385702195483617  0.8324338022535258
  0.7776876142077001  0.4275913497455548  0.5823712908278793
  0.5554725571925729  0.5386986354171412  0.3319179310720699
  0.4443612922810871  0.4275868456293566  0.0821022586886926
  0.2218553738260951  0.5385702944620334  0.8324336007151985
  0.1119466247404333  0.4257511036133081  0.5810149991505043
  0.8895903228325679  0.5372472839138069  0.3319076387813240
  0.7776967398938126  0.4275868218516976  0.0821022645791700
  0.5554728457825817  0.5386986568138994  0.8323412946456656
  0.4443655429747864  0.4275912919834752  0.5823712999349979
  0.2228065290357435  0.8728165749913472  0.3319076620351638
  0.1110340545884085  0.7609182399130034  0.0823823474342547
  0.8888064582805555  0.8720319823028859  0.8321735037922409
  0.7776053571316410  0.7608309834757847  0.5818634770875803
  0.5540215138403184  0.8728161977592990  0.3319076697400760
  0.4443612558965810  0.7609222888364755  0.0821022518516159
  0.2218553812307533  0.8724446220297466  0.8324335626855444
  0.1112082729264401  0.7608310805087584  0.5818634280842332
  0.8888063783169002  0.8720319797023990  0.3321019192133434
  0.7776927719038227  0.7609181355245553  0.0823823518584987
  0.5553445258950589  0.8724446515503459  0.8324337341183892
  0.4443655711651573  0.7609133986756618  0.5823712228139115
 
  0.00000000E+00  0.00000000E+00  0.00000000E+00
  0.00000000E+00  0.00000000E+00  0.00000000E+00
  0.00000000E+00  0.00000000E+00  0.00000000E+00
  0.00000000E+00  0.00000000E+00  0.00000000E+00
  0.00000000E+00  0.00000000E+00  0.00000000E+00
  0.00000000E+00  0.00000000E+00  0.00000000E+00
  0.00000000E+00  0.00000000E+00  0.00000000E+00
  0.00000000E+00  0.00000000E+00  0.00000000E+00
  0.00000000E+00  0.00000000E+00  0.00000000E+00
  0.00000000E+00  0.00000000E+00  0.00000000E+00
  0.00000000E+00  0.00000000E+00  0.00000000E+00
  0.00000000E+00  0.00000000E+00  0.00000000E+00
  0.00000000E+00  0.00000000E+00  0.00000000E+00
  0.00000000E+00  0.00000000E+00  0.00000000E+00
  0.00000000E+00  0.00000000E+00  0.00000000E+00
  0.00000000E+00  0.00000000E+00  0.00000000E+00
  0.00000000E+00  0.00000000E+00  0.00000000E+00
  0.00000000E+00  0.00000000E+00  0.00000000E+00
  0.00000000E+00  0.00000000E+00  0.00000000E+00
  0.00000000E+00  0.00000000E+00  0.00000000E+00
  0.00000000E+00  0.00000000E+00  0.00000000E+00
  0.00000000E+00  0.00000000E+00  0.00000000E+00
  0.00000000E+00  0.00000000E+00  0.00000000E+00
  0.00000000E+00  0.00000000E+00  0.00000000E+00
  0.00000000E+00  0.00000000E+00  0.00000000E+00
  0.00000000E+00  0.00000000E+00  0.00000000E+00
  0.00000000E+00  0.00000000E+00  0.00000000E+00
  0.00000000E+00  0.00000000E+00  0.00000000E+00
  0.00000000E+00  0.00000000E+00  0.00000000E+00
  0.00000000E+00  0.00000000E+00  0.00000000E+00
  0.00000000E+00  0.00000000E+00  0.00000000E+00
  0.00000000E+00  0.00000000E+00  0.00000000E+00
  0.00000000E+00  0.00000000E+00  0.00000000E+00
  0.00000000E+00  0.00000000E+00  0.00000000E+00
  0.00000000E+00  0.00000000E+00  0.00000000E+00
  0.00000000E+00  0.00000000E+00  0.00000000E+00
  0.00000000E+00  0.00000000E+00  0.00000000E+00
  0.00000000E+00  0.00000000E+00  0.00000000E+00
  0.00000000E+00  0.00000000E+00  0.00000000E+00
  0.00000000E+00  0.00000000E+00  0.00000000E+00
  0.00000000E+00  0.00000000E+00  0.00000000E+00
  0.00000000E+00  0.00000000E+00  0.00000000E+00
  0.00000000E+00  0.00000000E+00  0.00000000E+00
  0.00000000E+00  0.00000000E+00  0.00000000E+00
  0.00000000E+00  0.00000000E+00  0.00000000E+00
  0.00000000E+00  0.00000000E+00  0.00000000E+00
  0.00000000E+00  0.00000000E+00  0.00000000E+00
  0.00000000E+00  0.00000000E+00  0.00000000E+00
  0.00000000E+00  0.00000000E+00  0.00000000E+00
  0.00000000E+00  0.00000000E+00  0.00000000E+00
  0.00000000E+00  0.00000000E+00  0.00000000E+00
  0.00000000E+00  0.00000000E+00  0.00000000E+00
  0.00000000E+00  0.00000000E+00  0.00000000E+00
  0.00000000E+00  0.00000000E+00  0.00000000E+00
  0.00000000E+00  0.00000000E+00  0.00000000E+00
  0.00000000E+00  0.00000000E+00  0.00000000E+00
  0.00000000E+00  0.00000000E+00  0.00000000E+00
  0.00000000E+00  0.00000000E+00  0.00000000E+00
  0.00000000E+00  0.00000000E+00  0.00000000E+00
  0.00000000E+00  0.00000000E+00  0.00000000E+00
  0.00000000E+00  0.00000000E+00  0.00000000E+00
  0.00000000E+00  0.00000000E+00  0.00000000E+00
  0.00000000E+00  0.00000000E+00  0.00000000E+00
  0.00000000E+00  0.00000000E+00  0.00000000E+00
  0.00000000E+00  0.00000000E+00  0.00000000E+00
  0.00000000E+00  0.00000000E+00  0.00000000E+00
  0.00000000E+00  0.00000000E+00  0.00000000E+00
  0.00000000E+00  0.00000000E+00  0.00000000E+00
  0.00000000E+00  0.00000000E+00  0.00000000E+00
  0.00000000E+00  0.00000000E+00  0.00000000E+00
  0.00000000E+00  0.00000000E+00  0.00000000E+00
  0.00000000E+00  0.00000000E+00  0.00000000E+00
