Al   O    N                             
   1.00000000000000     
    -9.3516651518972260   -0.0000117554258859    0.0000157898949619
    -4.6758426724543218    8.0987742043786053   -0.0000445969281358
    -0.0000169763893327   -0.0000637818534334   -9.9794635649417085
   Al   O    N 
    36     1    35
Direct
  0.1072423806878575  0.0904227097871413  0.4082137074490291
  0.2221515273737467  0.2053311975202092  0.1479114226047358
  0.7778414062793146  0.0939511582886468  0.9062652581351074
  0.8882512076907148  0.2058299069758505  0.6569165776176078
  0.4519690305002939  0.0904222760787832  0.4082137313862830
  0.5559443895376930  0.2060412937305500  0.1557347188668388
  0.1105553294066866  0.0937350043501510  0.9068035381777335
  0.2221512241947465  0.2053312278591122  0.6593746622999177
  0.7777816892017952  0.0940703506051435  0.4065165064456551
  0.8876491244490907  0.2060412960944973  0.1557346841565845
  0.4453435881483756  0.0937352413806920  0.9068036660847980
  0.5555530956587376  0.2058297544909138  0.6569165828301706
  0.1072421449509591  0.4351490125279653  0.4082137122525396
  0.2228615076213813  0.5391240284779073  0.1557347449218724
  0.7775373494549456  0.4276381377364302  0.9062377656007570
  0.8882511203812484  0.5387327396215937  0.6569166822005812
  0.4449096726753439  0.4280897624396331  0.4072406592120288
  0.5554849417830070  0.5386646568882441  0.1558273168238316
  0.1105555147425079  0.4285234430130131  0.9068036358285312
  0.2226498474048668  0.5387328933244007  0.6569165341598833
  0.7766335512489988  0.4280899803039873  0.4072405952585498
  0.8876490055852742  0.5391237328331471  0.1557346899808891
  0.4444582823936898  0.4276381232413087  0.9062377674674877
  0.5554847650474315  0.5386645863227102  0.6570013864641950
  0.1108905511951335  0.7609616579989620  0.4065165015273777
  0.2228615055898615  0.8708287534813266  0.1557347333008963
  0.7778414681498589  0.7610213580695699  0.9062652739509787
  0.8888181443024763  0.8719977992939150  0.6565707709622046
  0.4449097351730913  0.7598139348692001  0.4072406224752854
  0.5559442683115847  0.8708284523466929  0.1557347157617599
  0.1107715245773164  0.7610211841688894  0.9062652406136351
  0.2226499283384129  0.8714311018629388  0.6569165079772858
  0.7777817452453206  0.7609618460634735  0.4065165570273095
  0.8888182943836824  0.8719978354813094  0.1561087029630244
  0.4444581996075669  0.7607173534118488  0.9062377558350079
  0.5555530630666965  0.8714308175336001  0.6569166545360048
  0.2221515680553878  0.2053313446465097  0.3462863523660999
  0.1111930476783201  0.0943726478247484  0.0994353750888806
  0.8892328897845800  0.2050468202871869  0.8476041277747939
  0.7776167052419467  0.0944007045909601  0.5970361706275611
  0.5540313992411683  0.2059978599476153  0.3470784349836649
  0.4440687635048590  0.0943726604294781  0.0994354864579918
  0.2221513871959431  0.2053312400071832  0.8496139287878179
  0.1119595284142321  0.0951394952555304  0.5961882931757927
  0.8896044957687650  0.2059980561686601  0.3470783971864932
  0.7777042427739644  0.0942261871574601  0.0975511545768413
  0.5553543259133420  0.2050468539676444  0.8476041311183238
  0.4425348416455819  0.0951393774126572  0.5961883867008666
  0.2228178275218298  0.5372113300610550  0.3470784659347217
  0.1111930662293830  0.4272483683322008  0.0994354466788252
  0.8892329359185851  0.5385340439392152  0.8476042396314583
  0.7777011793460247  0.4275562984399883  0.5975443592645036
  0.5554842935119879  0.5386645917601740  0.3470889838623705
  0.4443724499143329  0.4275522228890054  0.0972705675289305
  0.2218670470375770  0.5385341560824273  0.8476040854347673
  0.1119594935943056  0.4257147180889902  0.5961883276792435
  0.8896043031331615  0.5372113523064925  0.3470784336913724
  0.7777097050317465  0.4275521586596440  0.0972704989575988
  0.5554846197704464  0.5386645741064484  0.8475122795424070
  0.4443764008056661  0.4275562777587680  0.5975444504418235
  0.2228178917755841  0.8727847182533139  0.3470784505400104
  0.1110465528455578  0.7608838413389520  0.0975511494639960
  0.8888182307280559  0.8719978652217719  0.8473439673939609
  0.7776166621250482  0.7607963899315848  0.5970362266366394
  0.5540313967220172  0.8727843640111246  0.3470784598797607
  0.4443723723296671  0.7608894660207994  0.0972705307888333
  0.2218669715636850  0.8724127324824025  0.8476040651717724
  0.1112209381891134  0.7607964751969902  0.5970361576017496
  0.8888181264393111  0.8719979051954283  0.3472727924170300
  0.7777041340984638  0.7608836843629945  0.0975511551750543
  0.5553542588825451  0.8724127110553681  0.8476042117061624
  0.4443763778915937  0.7608810927833360  0.5975444042409563
 
  0.00000000E+00  0.00000000E+00  0.00000000E+00
  0.00000000E+00  0.00000000E+00  0.00000000E+00
  0.00000000E+00  0.00000000E+00  0.00000000E+00
  0.00000000E+00  0.00000000E+00  0.00000000E+00
  0.00000000E+00  0.00000000E+00  0.00000000E+00
  0.00000000E+00  0.00000000E+00  0.00000000E+00
  0.00000000E+00  0.00000000E+00  0.00000000E+00
  0.00000000E+00  0.00000000E+00  0.00000000E+00
  0.00000000E+00  0.00000000E+00  0.00000000E+00
  0.00000000E+00  0.00000000E+00  0.00000000E+00
  0.00000000E+00  0.00000000E+00  0.00000000E+00
  0.00000000E+00  0.00000000E+00  0.00000000E+00
  0.00000000E+00  0.00000000E+00  0.00000000E+00
  0.00000000E+00  0.00000000E+00  0.00000000E+00
  0.00000000E+00  0.00000000E+00  0.00000000E+00
  0.00000000E+00  0.00000000E+00  0.00000000E+00
  0.00000000E+00  0.00000000E+00  0.00000000E+00
  0.00000000E+00  0.00000000E+00  0.00000000E+00
  0.00000000E+00  0.00000000E+00  0.00000000E+00
  0.00000000E+00  0.00000000E+00  0.00000000E+00
  0.00000000E+00  0.00000000E+00  0.00000000E+00
  0.00000000E+00  0.00000000E+00  0.00000000E+00
  0.00000000E+00  0.00000000E+00  0.00000000E+00
  0.00000000E+00  0.00000000E+00  0.00000000E+00
  0.00000000E+00  0.00000000E+00  0.00000000E+00
  0.00000000E+00  0.00000000E+00  0.00000000E+00
  0.00000000E+00  0.00000000E+00  0.00000000E+00
  0.00000000E+00  0.00000000E+00  0.00000000E+00
  0.00000000E+00  0.00000000E+00  0.00000000E+00
  0.00000000E+00  0.00000000E+00  0.00000000E+00
  0.00000000E+00  0.00000000E+00  0.00000000E+00
  0.00000000E+00  0.00000000E+00  0.00000000E+00
  0.00000000E+00  0.00000000E+00  0.00000000E+00
  0.00000000E+00  0.00000000E+00  0.00000000E+00
  0.00000000E+00  0.00000000E+00  0.00000000E+00
  0.00000000E+00  0.00000000E+00  0.00000000E+00
  0.00000000E+00  0.00000000E+00  0.00000000E+00
  0.00000000E+00  0.00000000E+00  0.00000000E+00
  0.00000000E+00  0.00000000E+00  0.00000000E+00
  0.00000000E+00  0.00000000E+00  0.00000000E+00
  0.00000000E+00  0.00000000E+00  0.00000000E+00
  0.00000000E+00  0.00000000E+00  0.00000000E+00
  0.00000000E+00  0.00000000E+00  0.00000000E+00
  0.00000000E+00  0.00000000E+00  0.00000000E+00
  0.00000000E+00  0.00000000E+00  0.00000000E+00
  0.00000000E+00  0.00000000E+00  0.00000000E+00
  0.00000000E+00  0.00000000E+00  0.00000000E+00
  0.00000000E+00  0.00000000E+00  0.00000000E+00
  0.00000000E+00  0.00000000E+00  0.00000000E+00
  0.00000000E+00  0.00000000E+00  0.00000000E+00
  0.00000000E+00  0.00000000E+00  0.00000000E+00
  0.00000000E+00  0.00000000E+00  0.00000000E+00
  0.00000000E+00  0.00000000E+00  0.00000000E+00
  0.00000000E+00  0.00000000E+00  0.00000000E+00
  0.00000000E+00  0.00000000E+00  0.00000000E+00
  0.00000000E+00  0.00000000E+00  0.00000000E+00
  0.00000000E+00  0.00000000E+00  0.00000000E+00
  0.00000000E+00  0.00000000E+00  0.00000000E+00
  0.00000000E+00  0.00000000E+00  0.00000000E+00
  0.00000000E+00  0.00000000E+00  0.00000000E+00
  0.00000000E+00  0.00000000E+00  0.00000000E+00
  0.00000000E+00  0.00000000E+00  0.00000000E+00
  0.00000000E+00  0.00000000E+00  0.00000000E+00
  0.00000000E+00  0.00000000E+00  0.00000000E+00
  0.00000000E+00  0.00000000E+00  0.00000000E+00
  0.00000000E+00  0.00000000E+00  0.00000000E+00
  0.00000000E+00  0.00000000E+00  0.00000000E+00
  0.00000000E+00  0.00000000E+00  0.00000000E+00
  0.00000000E+00  0.00000000E+00  0.00000000E+00
  0.00000000E+00  0.00000000E+00  0.00000000E+00
  0.00000000E+00  0.00000000E+00  0.00000000E+00
  0.00000000E+00  0.00000000E+00  0.00000000E+00
