Al   O    N                             
   1.00000000000000     
    -9.3516737481695458   -0.0000121585373706    0.0000176766605794
    -4.6758489376742443    8.0987818429885312   -0.0000454018961140
    -0.0000224028043587   -0.0000767415436813   -9.9794613852904011
   Al   O    N 
    36     1    35
Direct
  0.1072445994246394  0.0904144226446704  0.4117144148079603
  0.2221542926123021  0.2053233280839919  0.1514210813522681
  0.7778439999250537  0.0939435547575798  0.9097603345408487
  0.8882547079055527  0.2058216135762478  0.6604127969080338
  0.4519723472487911  0.0904138815507807  0.4117147299038564
  0.5559473485876438  0.2060339129884881  0.1592313907665357
  0.1105581171243060  0.0937274602516709  0.9103031206092993
  0.2221539358297377  0.2053236343185176  0.6628790598780725
  0.7777843003934137  0.0940625594961446  0.4100114185777741
  0.8876511263954043  0.2060338693455392  0.1592313809868813
  0.4453460134992042  0.0937277597960318  0.9103031887099107
  0.5555554881248028  0.2058214339217557  0.6604129637570963
  0.1072445025146891  0.4351419279303812  0.4117147423861098
  0.2228646602363398  0.5391163388887605  0.1592315789410321
  0.7775401440315193  0.4276302899202733  0.9097332277924934
  0.8882546327067828  0.5387248995159624  0.6604129770056915
  0.4449122965133441  0.4280820572869004  0.4107370497460963
  0.5554877221994516  0.5386567211997999  0.1593228718410060
  0.1105584422211905  0.4285153339667573  0.9103032555305361
  0.2226519788281323  0.5387247880413426  0.6604128715062529
  0.7766360932669016  0.4280823117453352  0.4107368677801446
  0.8876508535401939  0.5391161040586780  0.1592316085492413
  0.4444610543538872  0.4276302260326048  0.9097332410464389
  0.5554875420592964  0.5386566895264622  0.6604965450361604
  0.1108933494390598  0.7609537038309853  0.4100113918134340
  0.2228647098816907  0.8708201745745754  0.1592314864992446
  0.7778441964513689  0.7610135678109557  0.9097605222560645
  0.8888208480981277  0.8719899639694333  0.6600649130088740
  0.4449123558777046  0.7598061146230606  0.4107368832399203
  0.5559471398784126  0.8708197873648515  0.1592316135492311
  0.1107743645080319  0.7610132802195295  0.9097604441722851
  0.2226522141182130  0.8714240206013812  0.6604126672379351
  0.7777842978888785  0.7609539355485992  0.4100115246689953
  0.8888210805021473  0.8719899944877341  0.1596036399308929
  0.4444610614418707  0.7607094431995947  0.9097332095765296
  0.5555556257552681  0.8714239369421080  0.6604128501011033
  0.2221541752637677  0.2053234409760378  0.3497896764994977
  0.1111968820283238  0.0943656253313065  0.1029359877972951
  0.8892363444399578  0.2050386242654554  0.8511021762434510
  0.7776194676673995  0.0943930420185453  0.6005323251154877
  0.5540336359467872  0.2059899931563365  0.3505751770820567
  0.4440691554431737  0.0943659019085388  0.1029361824501578
  0.2221540767518704  0.2053233512813009  0.8531184132328065
  0.1119625359860024  0.0951317514196788  0.5996887139544285
  0.8896075113977275  0.2059901246436979  0.3505752560340198
  0.7777068977105444  0.0942183270943673  0.1010472075836759
  0.5553567625808782  0.2050386641778772  0.8511023572787479
  0.4425371450214897  0.0951317590669163  0.5996888428345670
  0.2228204986930606  0.5372028440431578  0.3505753111494627
  0.1111969059405311  0.4272381855507632  0.1029361911694551
  0.8892361993369917  0.5385261421126231  0.8511025426588574
  0.7777035163888826  0.4275486653296809  0.6010417866190281
  0.5554869137838878  0.5386566385103961  0.3505851616130542
  0.4443748475916465  0.4275438153256417  0.1007668111890752
  0.2218693797520928  0.5385261478279517  0.8511024060560857
  0.1119623607035294  0.4257065463139256  0.5996888695363509
  0.8896072359549407  0.5372030906977230  0.3505751982990191
  0.7777130287693552  0.4275439653239275  0.1007666321326326
  0.5554873853215625  0.5386568086482839  0.8510087294730795
  0.4443794151762859  0.4275487269594791  0.6010418363804746
  0.2228205025056269  0.8727772071761208  0.3505752835485723
  0.1110493643875969  0.7608757663763299  0.1010471484790330
  0.8888210659889424  0.8719898845163883  0.8508397580714799
  0.7776192911656352  0.7607885871650453  0.6005325682264058
  0.5540336092249234  0.8727770524714558  0.3505752370141906
  0.4443749266178614  0.7608821397706151  0.1007665946334697
  0.2218694956271889  0.8724054221233004  0.8511021597744772
  0.1112239555774224  0.7607886331548528  0.6005324598942394
  0.8888207102060122  0.8719900976332440  0.3507682980661144
  0.7777068228417363  0.7608756938095169  0.1010472343143363
  0.5553568040298060  0.8724053880814822  0.8511024436572967
  0.4443793806060938  0.7608727830142286  0.6010419047197502
 
  0.00000000E+00  0.00000000E+00  0.00000000E+00
  0.00000000E+00  0.00000000E+00  0.00000000E+00
  0.00000000E+00  0.00000000E+00  0.00000000E+00
  0.00000000E+00  0.00000000E+00  0.00000000E+00
  0.00000000E+00  0.00000000E+00  0.00000000E+00
  0.00000000E+00  0.00000000E+00  0.00000000E+00
  0.00000000E+00  0.00000000E+00  0.00000000E+00
  0.00000000E+00  0.00000000E+00  0.00000000E+00
  0.00000000E+00  0.00000000E+00  0.00000000E+00
  0.00000000E+00  0.00000000E+00  0.00000000E+00
  0.00000000E+00  0.00000000E+00  0.00000000E+00
  0.00000000E+00  0.00000000E+00  0.00000000E+00
  0.00000000E+00  0.00000000E+00  0.00000000E+00
  0.00000000E+00  0.00000000E+00  0.00000000E+00
  0.00000000E+00  0.00000000E+00  0.00000000E+00
  0.00000000E+00  0.00000000E+00  0.00000000E+00
  0.00000000E+00  0.00000000E+00  0.00000000E+00
  0.00000000E+00  0.00000000E+00  0.00000000E+00
  0.00000000E+00  0.00000000E+00  0.00000000E+00
  0.00000000E+00  0.00000000E+00  0.00000000E+00
  0.00000000E+00  0.00000000E+00  0.00000000E+00
  0.00000000E+00  0.00000000E+00  0.00000000E+00
  0.00000000E+00  0.00000000E+00  0.00000000E+00
  0.00000000E+00  0.00000000E+00  0.00000000E+00
  0.00000000E+00  0.00000000E+00  0.00000000E+00
  0.00000000E+00  0.00000000E+00  0.00000000E+00
  0.00000000E+00  0.00000000E+00  0.00000000E+00
  0.00000000E+00  0.00000000E+00  0.00000000E+00
  0.00000000E+00  0.00000000E+00  0.00000000E+00
  0.00000000E+00  0.00000000E+00  0.00000000E+00
  0.00000000E+00  0.00000000E+00  0.00000000E+00
  0.00000000E+00  0.00000000E+00  0.00000000E+00
  0.00000000E+00  0.00000000E+00  0.00000000E+00
  0.00000000E+00  0.00000000E+00  0.00000000E+00
  0.00000000E+00  0.00000000E+00  0.00000000E+00
  0.00000000E+00  0.00000000E+00  0.00000000E+00
  0.00000000E+00  0.00000000E+00  0.00000000E+00
  0.00000000E+00  0.00000000E+00  0.00000000E+00
  0.00000000E+00  0.00000000E+00  0.00000000E+00
  0.00000000E+00  0.00000000E+00  0.00000000E+00
  0.00000000E+00  0.00000000E+00  0.00000000E+00
  0.00000000E+00  0.00000000E+00  0.00000000E+00
  0.00000000E+00  0.00000000E+00  0.00000000E+00
  0.00000000E+00  0.00000000E+00  0.00000000E+00
  0.00000000E+00  0.00000000E+00  0.00000000E+00
  0.00000000E+00  0.00000000E+00  0.00000000E+00
  0.00000000E+00  0.00000000E+00  0.00000000E+00
  0.00000000E+00  0.00000000E+00  0.00000000E+00
  0.00000000E+00  0.00000000E+00  0.00000000E+00
  0.00000000E+00  0.00000000E+00  0.00000000E+00
  0.00000000E+00  0.00000000E+00  0.00000000E+00
  0.00000000E+00  0.00000000E+00  0.00000000E+00
  0.00000000E+00  0.00000000E+00  0.00000000E+00
  0.00000000E+00  0.00000000E+00  0.00000000E+00
  0.00000000E+00  0.00000000E+00  0.00000000E+00
  0.00000000E+00  0.00000000E+00  0.00000000E+00
  0.00000000E+00  0.00000000E+00  0.00000000E+00
  0.00000000E+00  0.00000000E+00  0.00000000E+00
  0.00000000E+00  0.00000000E+00  0.00000000E+00
  0.00000000E+00  0.00000000E+00  0.00000000E+00
  0.00000000E+00  0.00000000E+00  0.00000000E+00
  0.00000000E+00  0.00000000E+00  0.00000000E+00
  0.00000000E+00  0.00000000E+00  0.00000000E+00
  0.00000000E+00  0.00000000E+00  0.00000000E+00
  0.00000000E+00  0.00000000E+00  0.00000000E+00
  0.00000000E+00  0.00000000E+00  0.00000000E+00
  0.00000000E+00  0.00000000E+00  0.00000000E+00
  0.00000000E+00  0.00000000E+00  0.00000000E+00
  0.00000000E+00  0.00000000E+00  0.00000000E+00
  0.00000000E+00  0.00000000E+00  0.00000000E+00
  0.00000000E+00  0.00000000E+00  0.00000000E+00
  0.00000000E+00  0.00000000E+00  0.00000000E+00
