Al   O    N                             
   1.00000000000000     
    -9.4500905506154638   -0.0000012745272853   -0.0000332660110914
    -4.7250467316577609    8.1840190136757922   -0.0000236677607025
     0.0000286174338430   -0.0000142945275930   -9.7102859702431150
   Al   O    N 
    36     1    35
Direct
  0.1076644840877776  0.0909125710708665  0.3270165188313356
  0.2221339289076809  0.2053820090855183  0.0721272965380280
  0.7777877873484016  0.0940741816570494  0.8274586468892764
  0.8871386214391279  0.2063593915842645  0.5774745103023164
  0.4510727098024532  0.0909126037095973  0.3270165143712092
  0.5551890530335228  0.2056912529733097  0.0770244217784892
  0.1100792817880460  0.0933273712554410  0.8255162661612232
  0.2221338856227391  0.2053819294598398  0.5880950260077213
  0.7778449676686989  0.0939598266226156  0.3268218296803624
  0.8887695088792071  0.2056912224294933  0.0770244132143532
  0.4462430952189180  0.0933273990056165  0.8255162657429480
  0.5561517565193341  0.2063593712858349  0.5774744976578816
  0.1076645510237100  0.4343207927561963  0.3270165445173205
  0.2224432276265276  0.5384371275702620  0.0770244096206341
  0.7777462236615449  0.4275757774347042  0.8275830108248243
  0.8871386210734826  0.5393998468557655  0.5774745030334856
  0.4450065282538773  0.4282545389840564  0.3260955565756802
  0.5554672652103037  0.5387152826744739  0.0761681690122273
  0.1100793525664017  0.4294911790859501  0.8255162263441775
  0.2231113224456678  0.5393998551625288  0.5774745032467692
  0.7763887831187475  0.4282544992775570  0.3260955712094145
  0.8887695361762766  0.5384370831243572  0.0770244158458624
  0.4443277593463009  0.4275757961769102  0.8275830138840377
  0.5554672720572000  0.5387152493756346  0.5780729343343438
  0.1107117212545958  0.7610931021555913  0.3268218180911688
  0.2224432002197574  0.8720175930400984  0.0770243948335008
  0.7777877890435789  0.7610358661702890  0.8274586815425451
  0.8888005786614954  0.8720486679933259  0.5776233702566458
  0.4450064830026790  0.7596367953002954  0.3260955830025480
  0.5551890106142920  0.8720175935508294  0.0770244289497768
  0.1108261064739580  0.7610358925937248  0.8274586562172601
  0.2231113363528863  0.8703866900754349  0.5774745224351605
  0.7778449847756619  0.7610930622693601  0.3268217978316841
  0.8888005557733010  0.8720486735151241  0.0767434397649325
  0.4443277539416357  0.7609942438601109  0.8275830060005376
  0.5561517990993821  0.8703866639627407  0.5774744895768933
  0.2221338929386292  0.2053820246911329  0.3854909975785006
  0.1124699913687124  0.0957180381490161  0.1338494947439912
  0.8895378933040448  0.2048744036718659  0.8815349229109302
  0.7776308545438440  0.0943880003723692  0.6315385464438208
  0.5543406903788011  0.2062325487240173  0.3817195024472184
  0.4414617591339578  0.0957180305227183  0.1338495200449756
  0.2221338381412679  0.2053820472805867  0.8766770777760158
  0.1109339981039028  0.0941820204111536  0.6284349430872993
  0.8890765039869564  0.2062325211530123  0.3817194916689886
  0.7776227910079854  0.0944041775726774  0.1317137384834552
  0.5552374079165929  0.2048744113977463  0.8815349132049235
  0.4445337272621899  0.0941819902857191  0.6284349354378520
  0.2229843684989916  0.5375889480255864  0.3817194724153126
  0.1124699840956112  0.4247098709340023  0.1338495164645650
  0.8895379174674716  0.5384855725976436  0.8815349093971037
  0.7777403693169234  0.4275787443353565  0.6319381616965458
  0.5554672053159067  0.5387153599478083  0.3821233641411723
  0.4444007247240265  0.4276487817786148  0.1311599446216931
  0.2216262419798127  0.5384856163790204  0.8815349295156594
  0.1109340000690935  0.4277817677226636  0.6284348957742907
  0.8890765004105390  0.5375889012837405  0.3817194809244882
  0.7776003020061282  0.4276487663194644  0.1311599388627442
  0.5554671989027824  0.5387153408542602  0.8811612288880539
  0.4443306525967898  0.4275787216299065  0.6319381613297992
  0.2229843715073940  0.8723246491923433  0.3817194877559231
  0.1111561435725648  0.7608708616799404  0.1317137117253964
  0.8888004981346924  0.8720486683451298  0.8813966819074324
  0.7776308806585703  0.7608789248837482  0.6315385745260045
  0.5543407250086432  0.8723246421509856  0.3817194872476719
  0.4444007296143866  0.7608483015793794  0.1311599552228202
  0.2216262623969385  0.8727860718925911  0.8815349217443327
  0.1111399535214730  0.7608789288345932  0.6315385627024455
  0.8888005193803252  0.8720486628589299  0.3818294341738309
  0.7776227796731803  0.7608708098164598  0.1317137028383826
  0.5552373936305273  0.8727860632842734  0.8815349121849962
  0.4443307082707619  0.7609883748909567  0.6319381479839805
 
  0.00000000E+00  0.00000000E+00  0.00000000E+00
  0.00000000E+00  0.00000000E+00  0.00000000E+00
  0.00000000E+00  0.00000000E+00  0.00000000E+00
  0.00000000E+00  0.00000000E+00  0.00000000E+00
  0.00000000E+00  0.00000000E+00  0.00000000E+00
  0.00000000E+00  0.00000000E+00  0.00000000E+00
  0.00000000E+00  0.00000000E+00  0.00000000E+00
  0.00000000E+00  0.00000000E+00  0.00000000E+00
  0.00000000E+00  0.00000000E+00  0.00000000E+00
  0.00000000E+00  0.00000000E+00  0.00000000E+00
  0.00000000E+00  0.00000000E+00  0.00000000E+00
  0.00000000E+00  0.00000000E+00  0.00000000E+00
  0.00000000E+00  0.00000000E+00  0.00000000E+00
  0.00000000E+00  0.00000000E+00  0.00000000E+00
  0.00000000E+00  0.00000000E+00  0.00000000E+00
  0.00000000E+00  0.00000000E+00  0.00000000E+00
  0.00000000E+00  0.00000000E+00  0.00000000E+00
  0.00000000E+00  0.00000000E+00  0.00000000E+00
  0.00000000E+00  0.00000000E+00  0.00000000E+00
  0.00000000E+00  0.00000000E+00  0.00000000E+00
  0.00000000E+00  0.00000000E+00  0.00000000E+00
  0.00000000E+00  0.00000000E+00  0.00000000E+00
  0.00000000E+00  0.00000000E+00  0.00000000E+00
  0.00000000E+00  0.00000000E+00  0.00000000E+00
  0.00000000E+00  0.00000000E+00  0.00000000E+00
  0.00000000E+00  0.00000000E+00  0.00000000E+00
  0.00000000E+00  0.00000000E+00  0.00000000E+00
  0.00000000E+00  0.00000000E+00  0.00000000E+00
  0.00000000E+00  0.00000000E+00  0.00000000E+00
  0.00000000E+00  0.00000000E+00  0.00000000E+00
  0.00000000E+00  0.00000000E+00  0.00000000E+00
  0.00000000E+00  0.00000000E+00  0.00000000E+00
  0.00000000E+00  0.00000000E+00  0.00000000E+00
  0.00000000E+00  0.00000000E+00  0.00000000E+00
  0.00000000E+00  0.00000000E+00  0.00000000E+00
  0.00000000E+00  0.00000000E+00  0.00000000E+00
  0.00000000E+00  0.00000000E+00  0.00000000E+00
  0.00000000E+00  0.00000000E+00  0.00000000E+00
  0.00000000E+00  0.00000000E+00  0.00000000E+00
  0.00000000E+00  0.00000000E+00  0.00000000E+00
  0.00000000E+00  0.00000000E+00  0.00000000E+00
  0.00000000E+00  0.00000000E+00  0.00000000E+00
  0.00000000E+00  0.00000000E+00  0.00000000E+00
  0.00000000E+00  0.00000000E+00  0.00000000E+00
  0.00000000E+00  0.00000000E+00  0.00000000E+00
  0.00000000E+00  0.00000000E+00  0.00000000E+00
  0.00000000E+00  0.00000000E+00  0.00000000E+00
  0.00000000E+00  0.00000000E+00  0.00000000E+00
  0.00000000E+00  0.00000000E+00  0.00000000E+00
  0.00000000E+00  0.00000000E+00  0.00000000E+00
  0.00000000E+00  0.00000000E+00  0.00000000E+00
  0.00000000E+00  0.00000000E+00  0.00000000E+00
  0.00000000E+00  0.00000000E+00  0.00000000E+00
  0.00000000E+00  0.00000000E+00  0.00000000E+00
  0.00000000E+00  0.00000000E+00  0.00000000E+00
  0.00000000E+00  0.00000000E+00  0.00000000E+00
  0.00000000E+00  0.00000000E+00  0.00000000E+00
  0.00000000E+00  0.00000000E+00  0.00000000E+00
  0.00000000E+00  0.00000000E+00  0.00000000E+00
  0.00000000E+00  0.00000000E+00  0.00000000E+00
  0.00000000E+00  0.00000000E+00  0.00000000E+00
  0.00000000E+00  0.00000000E+00  0.00000000E+00
  0.00000000E+00  0.00000000E+00  0.00000000E+00
  0.00000000E+00  0.00000000E+00  0.00000000E+00
  0.00000000E+00  0.00000000E+00  0.00000000E+00
  0.00000000E+00  0.00000000E+00  0.00000000E+00
  0.00000000E+00  0.00000000E+00  0.00000000E+00
  0.00000000E+00  0.00000000E+00  0.00000000E+00
  0.00000000E+00  0.00000000E+00  0.00000000E+00
  0.00000000E+00  0.00000000E+00  0.00000000E+00
  0.00000000E+00  0.00000000E+00  0.00000000E+00
  0.00000000E+00  0.00000000E+00  0.00000000E+00
