Al   O    N                             
   1.00000000000000     
    -9.3919129314024037   -0.0000008714158007   -0.0000351527767088
    -4.6959578442361130    8.1336381184910795   -0.0000228627927243
     0.0000333080470737   -0.0000107338807549   -9.8721132466371131
   Al   O    N 
    36     1    35
Direct
  0.1073756745718129  0.0906242217086088  0.3245944821445264
  0.2221338227471321  0.2053819177994498  0.0720273067749275
  0.7778095922903390  0.0940305457527231  0.8259509781889278
  0.8874380365358405  0.2061943150586316  0.5763005971670978
  0.4516501917071452  0.0906237594113577  0.3245944282927482
  0.5553985882214008  0.2058065883948572  0.0753838077264248
  0.1103714225670629  0.0936193177359712  0.8248720914727556
  0.2221340842247344  0.2053817371253714  0.5850737271617348
  0.7778001134080696  0.0940494493034905  0.3255560244929541
  0.8884446206662773  0.2058066966147791  0.0753838564165790
  0.4456589390796921  0.0936194813753843  0.8248720272113843
  0.5560179680274757  0.2061942540668866  0.5763005751240300
  0.1073755544159170  0.4348980936794149  0.3245944567531609
  0.2225586235592303  0.5386465249380237  0.0753838733776320
  0.7776140643431901  0.4276415843156229  0.8260160786469086
  0.8874378737106028  0.5392654687921308  0.5763006102367001
  0.4449386008008744  0.4281864031904945  0.3248426347590296
  0.5554673523166969  0.5387152268032338  0.0750036536327698
  0.1103716098999783  0.4289068417153032  0.8248720198331441
  0.2229463664382081  0.5392657151105809  0.5763006821544252
  0.7765241235565483  0.4281865562150529  0.3248426948999281
  0.8884444999997640  0.5386464077540793  0.0753838184982030
  0.4443939167276838  0.4276416218579584  0.8260161353629485
  0.5554674433834634  0.5387152142504448  0.5764644160207268
  0.1108013942395090  0.7610482539146446  0.3255561170607280
  0.2225586058176532  0.8716927887301651  0.0753838785759768
  0.7778095986413049  0.7610577216760035  0.8259510036063489
  0.8888006096948473  0.8720487158749393  0.5761177488982057
  0.4449385389032869  0.7597723488011425  0.3248427170475807
  0.5553984248661763  0.8716925870715144  0.0753837747739965
  0.1107826517714159  0.7610576279287287  0.8259510617128356
  0.2229462788846135  0.8706861091790827  0.5763006426274018
  0.7778001357042186  0.7610483148265246  0.3255560080389870
  0.8888005271370005  0.8720486993562773  0.0754792117726524
  0.4443937350669174  0.7608620603217986  0.8260161613346639
  0.5560177259048658  0.8706857746467307  0.5763005507653460
  0.2221339305837731  0.2053820530113981  0.3853061985540904
  0.1121495397810008  0.0953974136160980  0.1346712631662186
  0.8893478168767714  0.2050086745257076  0.8828951752534877
  0.7776639680496800  0.0943222498768748  0.6329339647858205
  0.5541509927435442  0.2061245583320925  0.3833149068975743
  0.4421026502366061  0.0953974794910195  0.1346711900059177
  0.2221337274161641  0.2053820889117262  0.8798388373460710
  0.1110863591591098  0.0943339775585841  0.6305944922427429
  0.8893742596457628  0.2061244861666935  0.3833148926870891
  0.7776085496034852  0.0944328385130433  0.1333202598424279
  0.5552932284899512  0.2050088210400034  0.8828951152216362
  0.4442295341771896  0.0943340648671906  0.6305943965080871
  0.2228761798431407  0.5373993477839747  0.3833149243139076
  0.1121494501046527  0.4253508850314702  0.1346712434587189
  0.8893477935516572  0.5385413266949755  0.8828950606326558
  0.7777098587838438  0.4275939715497472  0.6332578833006295
  0.5554667793568271  0.5387154536207319  0.3834520439407072
  0.4443770226052024  0.4276253012472253  0.1328039748003818
  0.2217605597148662  0.5385415495811472  0.8828951664360289
  0.1110863045235533  0.4274774503628365  0.6305944247309441
  0.8893740942893231  0.5373992058200940  0.3833148960671835
  0.7776473756016458  0.4276251708210879  0.1328040353386015
  0.5554670655451304  0.5387153747677047  0.8828104710358033
  0.4443458561828919  0.4275941304689681  0.6332578492492758
  0.2228762574520999  0.8726223424876736  0.3833149070898614
  0.1111851275387963  0.7608563007406204  0.1333203383670210
  0.8888008263366700  0.8720484641621837  0.8830012752460803
  0.7776639350186230  0.7609114438447335  0.6329339563285288
  0.5541510387971584  0.8726220997669003  0.3833148879647084
  0.4443770429365301  0.7608953133778726  0.1328040325758835
  0.2217606045416858  0.8725957424731661  0.8828952337931000
  0.1110746551433550  0.7609115507298796  0.6329339980759272
  0.8888008384260218  0.8720484538748252  0.3832195345922287
  0.7776084825158378  0.7608562262574665  0.1333202331070851
  0.5552932131725825  0.8725957040538930  0.8828950577756061
  0.4443458948534271  0.7609577367214229  0.6332578552988224
 
  0.00000000E+00  0.00000000E+00  0.00000000E+00
  0.00000000E+00  0.00000000E+00  0.00000000E+00
  0.00000000E+00  0.00000000E+00  0.00000000E+00
  0.00000000E+00  0.00000000E+00  0.00000000E+00
  0.00000000E+00  0.00000000E+00  0.00000000E+00
  0.00000000E+00  0.00000000E+00  0.00000000E+00
  0.00000000E+00  0.00000000E+00  0.00000000E+00
  0.00000000E+00  0.00000000E+00  0.00000000E+00
  0.00000000E+00  0.00000000E+00  0.00000000E+00
  0.00000000E+00  0.00000000E+00  0.00000000E+00
  0.00000000E+00  0.00000000E+00  0.00000000E+00
  0.00000000E+00  0.00000000E+00  0.00000000E+00
  0.00000000E+00  0.00000000E+00  0.00000000E+00
  0.00000000E+00  0.00000000E+00  0.00000000E+00
  0.00000000E+00  0.00000000E+00  0.00000000E+00
  0.00000000E+00  0.00000000E+00  0.00000000E+00
  0.00000000E+00  0.00000000E+00  0.00000000E+00
  0.00000000E+00  0.00000000E+00  0.00000000E+00
  0.00000000E+00  0.00000000E+00  0.00000000E+00
  0.00000000E+00  0.00000000E+00  0.00000000E+00
  0.00000000E+00  0.00000000E+00  0.00000000E+00
  0.00000000E+00  0.00000000E+00  0.00000000E+00
  0.00000000E+00  0.00000000E+00  0.00000000E+00
  0.00000000E+00  0.00000000E+00  0.00000000E+00
  0.00000000E+00  0.00000000E+00  0.00000000E+00
  0.00000000E+00  0.00000000E+00  0.00000000E+00
  0.00000000E+00  0.00000000E+00  0.00000000E+00
  0.00000000E+00  0.00000000E+00  0.00000000E+00
  0.00000000E+00  0.00000000E+00  0.00000000E+00
  0.00000000E+00  0.00000000E+00  0.00000000E+00
  0.00000000E+00  0.00000000E+00  0.00000000E+00
  0.00000000E+00  0.00000000E+00  0.00000000E+00
  0.00000000E+00  0.00000000E+00  0.00000000E+00
  0.00000000E+00  0.00000000E+00  0.00000000E+00
  0.00000000E+00  0.00000000E+00  0.00000000E+00
  0.00000000E+00  0.00000000E+00  0.00000000E+00
  0.00000000E+00  0.00000000E+00  0.00000000E+00
  0.00000000E+00  0.00000000E+00  0.00000000E+00
  0.00000000E+00  0.00000000E+00  0.00000000E+00
  0.00000000E+00  0.00000000E+00  0.00000000E+00
  0.00000000E+00  0.00000000E+00  0.00000000E+00
  0.00000000E+00  0.00000000E+00  0.00000000E+00
  0.00000000E+00  0.00000000E+00  0.00000000E+00
  0.00000000E+00  0.00000000E+00  0.00000000E+00
  0.00000000E+00  0.00000000E+00  0.00000000E+00
  0.00000000E+00  0.00000000E+00  0.00000000E+00
  0.00000000E+00  0.00000000E+00  0.00000000E+00
  0.00000000E+00  0.00000000E+00  0.00000000E+00
  0.00000000E+00  0.00000000E+00  0.00000000E+00
  0.00000000E+00  0.00000000E+00  0.00000000E+00
  0.00000000E+00  0.00000000E+00  0.00000000E+00
  0.00000000E+00  0.00000000E+00  0.00000000E+00
  0.00000000E+00  0.00000000E+00  0.00000000E+00
  0.00000000E+00  0.00000000E+00  0.00000000E+00
  0.00000000E+00  0.00000000E+00  0.00000000E+00
  0.00000000E+00  0.00000000E+00  0.00000000E+00
  0.00000000E+00  0.00000000E+00  0.00000000E+00
  0.00000000E+00  0.00000000E+00  0.00000000E+00
  0.00000000E+00  0.00000000E+00  0.00000000E+00
  0.00000000E+00  0.00000000E+00  0.00000000E+00
  0.00000000E+00  0.00000000E+00  0.00000000E+00
  0.00000000E+00  0.00000000E+00  0.00000000E+00
  0.00000000E+00  0.00000000E+00  0.00000000E+00
  0.00000000E+00  0.00000000E+00  0.00000000E+00
  0.00000000E+00  0.00000000E+00  0.00000000E+00
  0.00000000E+00  0.00000000E+00  0.00000000E+00
  0.00000000E+00  0.00000000E+00  0.00000000E+00
  0.00000000E+00  0.00000000E+00  0.00000000E+00
  0.00000000E+00  0.00000000E+00  0.00000000E+00
  0.00000000E+00  0.00000000E+00  0.00000000E+00
  0.00000000E+00  0.00000000E+00  0.00000000E+00
  0.00000000E+00  0.00000000E+00  0.00000000E+00
