Al   O    N                             
   1.00000000000000     
    -9.3516804377203968   -0.0000105460914320    0.0000101295981096
    -4.6758493723347057    8.0987880953706597   -0.0000421820242012
    -0.0000106821894384   -0.0000578826818685   -9.9794320346028655
   Al   O    N 
    36     1    35
Direct
  0.1072330931768093  0.0904470970909088  0.3970590920937980
  0.2221428633497950  0.2053562005579792  0.1367656313443604
  0.7778328689780594  0.0939759229125627  0.8951045741760737
  0.8882426854022896  0.2058546556946084  0.6457587177969870
  0.4519616449892041  0.0904466766989884  0.3970591121062483
  0.5559356231164827  0.2060666244985754  0.1445743268038129
  0.1105469358105111  0.0937602784402145  0.8956494646354471
  0.2221425831180852  0.2053563726803276  0.6482247460318717
  0.7777728427028663  0.0940957945543204  0.3953552915170633
  0.8876402616147772  0.2060666399920734  0.1445742648524160
  0.4453344245604640  0.0937605513954836  0.8956496111240639
  0.5555447366655741  0.2058544999452465  0.6457586665879234
  0.1072328363086257  0.4351753505750793  0.3970590717177203
  0.2228532087392878  0.5391488994169293  0.1445743057702558
  0.7775286981165408  0.4276632223187988  0.8950770861086070
  0.8882425749305014  0.5387581376637982  0.6457587759840209
  0.4449010890334648  0.4281148621447457  0.3960821525091518
  0.5554763148767989  0.5386896454164614  0.1446657310261088
  0.1105470965390865  0.4285480307288125  0.8956495704347418
  0.2226408574077539  0.5387582655663508  0.6457586070256127
  0.7766247696566992  0.4281150969295595  0.3960821054633712
  0.8876401438745845  0.5391486631813507  0.1445742712506117
  0.4444496319819464  0.4276631737562795  0.8950770729531641
  0.5554761380607616  0.5386896796517533  0.6458422255004734
  0.1108823088585638  0.7609864981862984  0.3953552647129541
  0.2228532117627466  0.8708535294680786  0.1445742761607676
  0.7778329529950767  0.7610466203631958  0.8951045400960496
  0.8888095056201024  0.8720229119246241  0.6454092258333546
  0.4449011700986247  0.7598388268211949  0.3960820855058671
  0.5559355482998143  0.8708532465336773  0.1445742966858319
  0.1107625636111464  0.7610463936954162  0.8951045024154922
  0.2226409713334192  0.8714562925211951  0.6457585969054094
  0.7777728979783660  0.7609867118354856  0.3953552947786676
  0.8888096778596903  0.8720228480175791  0.1449469850229903
  0.4444495938155555  0.7607423873386878  0.8950770618682355
  0.5555446975734100  0.8714560358884924  0.6457587066527566
  0.2221429029132409  0.2053563637747615  0.3351348515527306
  0.1111852534608815  0.0943985102378946  0.0882813994222786
  0.8892252043864062  0.2050713164334681  0.8364472762883253
  0.7776078687607537  0.0944262678886645  0.5858772120806535
  0.5540221514632790  0.2060230185046308  0.3359201703240302
  0.4440583899179060  0.0943985301730237  0.0882816077049569
  0.2221427011406263  0.2053563161220282  0.8384624303089510
  0.1119514033441646  0.0951650999362670  0.5850342458632767
  0.8895963337275390  0.2060232281124641  0.3359201033726720
  0.7776955292233154  0.0942512886906073  0.0863916151776962
  0.5553452251373798  0.2050713575975038  0.8364472066422763
  0.4425252660852479  0.0951649919337072  0.5850343202575914
  0.2228093041700490  0.5372357647568862  0.3359201516482457
  0.1111852838445770  0.4272716448290765  0.0882815373581920
  0.8892252561282490  0.5385587333598068  0.8364473230721217
  0.7776928891488097  0.4275812411102180  0.5863875415906392
  0.5554756573512094  0.5386896008157009  0.3359298352922266
  0.4443638211677268  0.4275771946075153  0.0861107931770917
  0.2218578227470616  0.5385588022833474  0.8364471433008447
  0.1119513376706749  0.4257389106619272  0.5850342547360299
  0.8895961123152674  0.5372358084382043  0.3359201190767962
  0.7777010889005496  0.4275771742644210  0.0861107703582462
  0.5554759649114374  0.5386896208808736  0.8363535978971157
  0.4443676092494329  0.4275811928742499  0.5863875744593230
  0.2228093741819350  0.8728102274066245  0.3359201116013395
  0.1110380307962942  0.7609087716126766  0.0863915400301707
  0.8888095772591740  0.8720229535854997  0.8361839330439338
  0.7776078071739647  0.7608212799626060  0.5858771959347990
  0.5540221643809531  0.8728098657018890  0.3359201404366416
  0.4443637667525806  0.7609144840950393  0.0861107723222929
  0.2218577973676616  0.8724387328980043  0.8364471353408618
  0.1112127527931932  0.7608213747603472  0.5858771693772411
  0.8888094975742149  0.8720229485974613  0.3361127643319080
  0.7776954676777876  0.7609086726365675  0.0863915447612555
  0.5553451743765123  0.8724387725501046  0.8364472478805638
  0.4443676112394215  0.7609065222343503  0.5863875023149347
 
  0.00000000E+00  0.00000000E+00  0.00000000E+00
  0.00000000E+00  0.00000000E+00  0.00000000E+00
  0.00000000E+00  0.00000000E+00  0.00000000E+00
  0.00000000E+00  0.00000000E+00  0.00000000E+00
  0.00000000E+00  0.00000000E+00  0.00000000E+00
  0.00000000E+00  0.00000000E+00  0.00000000E+00
  0.00000000E+00  0.00000000E+00  0.00000000E+00
  0.00000000E+00  0.00000000E+00  0.00000000E+00
  0.00000000E+00  0.00000000E+00  0.00000000E+00
  0.00000000E+00  0.00000000E+00  0.00000000E+00
  0.00000000E+00  0.00000000E+00  0.00000000E+00
  0.00000000E+00  0.00000000E+00  0.00000000E+00
  0.00000000E+00  0.00000000E+00  0.00000000E+00
  0.00000000E+00  0.00000000E+00  0.00000000E+00
  0.00000000E+00  0.00000000E+00  0.00000000E+00
  0.00000000E+00  0.00000000E+00  0.00000000E+00
  0.00000000E+00  0.00000000E+00  0.00000000E+00
  0.00000000E+00  0.00000000E+00  0.00000000E+00
  0.00000000E+00  0.00000000E+00  0.00000000E+00
  0.00000000E+00  0.00000000E+00  0.00000000E+00
  0.00000000E+00  0.00000000E+00  0.00000000E+00
  0.00000000E+00  0.00000000E+00  0.00000000E+00
  0.00000000E+00  0.00000000E+00  0.00000000E+00
  0.00000000E+00  0.00000000E+00  0.00000000E+00
  0.00000000E+00  0.00000000E+00  0.00000000E+00
  0.00000000E+00  0.00000000E+00  0.00000000E+00
  0.00000000E+00  0.00000000E+00  0.00000000E+00
  0.00000000E+00  0.00000000E+00  0.00000000E+00
  0.00000000E+00  0.00000000E+00  0.00000000E+00
  0.00000000E+00  0.00000000E+00  0.00000000E+00
  0.00000000E+00  0.00000000E+00  0.00000000E+00
  0.00000000E+00  0.00000000E+00  0.00000000E+00
  0.00000000E+00  0.00000000E+00  0.00000000E+00
  0.00000000E+00  0.00000000E+00  0.00000000E+00
  0.00000000E+00  0.00000000E+00  0.00000000E+00
  0.00000000E+00  0.00000000E+00  0.00000000E+00
  0.00000000E+00  0.00000000E+00  0.00000000E+00
  0.00000000E+00  0.00000000E+00  0.00000000E+00
  0.00000000E+00  0.00000000E+00  0.00000000E+00
  0.00000000E+00  0.00000000E+00  0.00000000E+00
  0.00000000E+00  0.00000000E+00  0.00000000E+00
  0.00000000E+00  0.00000000E+00  0.00000000E+00
  0.00000000E+00  0.00000000E+00  0.00000000E+00
  0.00000000E+00  0.00000000E+00  0.00000000E+00
  0.00000000E+00  0.00000000E+00  0.00000000E+00
  0.00000000E+00  0.00000000E+00  0.00000000E+00
  0.00000000E+00  0.00000000E+00  0.00000000E+00
  0.00000000E+00  0.00000000E+00  0.00000000E+00
  0.00000000E+00  0.00000000E+00  0.00000000E+00
  0.00000000E+00  0.00000000E+00  0.00000000E+00
  0.00000000E+00  0.00000000E+00  0.00000000E+00
  0.00000000E+00  0.00000000E+00  0.00000000E+00
  0.00000000E+00  0.00000000E+00  0.00000000E+00
  0.00000000E+00  0.00000000E+00  0.00000000E+00
  0.00000000E+00  0.00000000E+00  0.00000000E+00
  0.00000000E+00  0.00000000E+00  0.00000000E+00
  0.00000000E+00  0.00000000E+00  0.00000000E+00
  0.00000000E+00  0.00000000E+00  0.00000000E+00
  0.00000000E+00  0.00000000E+00  0.00000000E+00
  0.00000000E+00  0.00000000E+00  0.00000000E+00
  0.00000000E+00  0.00000000E+00  0.00000000E+00
  0.00000000E+00  0.00000000E+00  0.00000000E+00
  0.00000000E+00  0.00000000E+00  0.00000000E+00
  0.00000000E+00  0.00000000E+00  0.00000000E+00
  0.00000000E+00  0.00000000E+00  0.00000000E+00
  0.00000000E+00  0.00000000E+00  0.00000000E+00
  0.00000000E+00  0.00000000E+00  0.00000000E+00
  0.00000000E+00  0.00000000E+00  0.00000000E+00
  0.00000000E+00  0.00000000E+00  0.00000000E+00
  0.00000000E+00  0.00000000E+00  0.00000000E+00
  0.00000000E+00  0.00000000E+00  0.00000000E+00
  0.00000000E+00  0.00000000E+00  0.00000000E+00
