Al   O    N                             
   1.00000000000000     
    -9.3516721754537091    0.0000019503645918   -0.0000483601360309
    -4.6758346502887580    8.0987879601371766   -0.0000172280168769
     0.0000600652610540    0.0000098626326262   -9.9794660356868903
   Al   O    N 
    36     1    35
Direct
  0.1072044133874570  0.0905316014990660  0.2969900667819303
  0.2221134318182507  0.2054404906822569  0.0458263135013226
  0.7778036685197094  0.0940603009654737  0.7989435689102891
  0.8876108628584447  0.2061508926899478  0.5494724718216020
  0.4519318811590551  0.0905314829873092  0.2969902471435333
  0.5555149716105419  0.2059385407726424  0.0482915483263611
  0.1105179218700627  0.0938441873087470  0.7984015383187284
  0.2221139168858528  0.2054401832307917  0.5572843993321044
  0.7777441016762694  0.0941796753983652  0.2986925063238672
  0.8882142063060599  0.2059386832847068  0.0482914718624414
  0.4453058232270095  0.0938444587937610  0.7984014448193832
  0.5559071750892386  0.2061508682598543  0.5494724779425866
  0.1072040680970048  0.4352588999140110  0.2969902425903257
  0.2226114472634180  0.5388419136938936  0.0482916438887315
  0.7774996583619327  0.4277472154787532  0.7989706610408120
  0.8876107057123690  0.5392331125647587  0.5494724805486513
  0.4448719220159063  0.4281991147335305  0.2979674539607160
  0.5554469187601825  0.5387740329284867  0.0482079009208292
  0.1105178588538180  0.4286322695375731  0.7984014861076574
  0.2228245439950314  0.5392331825030254  0.5494725462586061
  0.7765959197685106  0.4281991438059194  0.2979676823658082
  0.8882140787986330  0.5388419174754944  0.0482915318994515
  0.4444208433143757  0.4277469977544328  0.7989708707699847
  0.5554475272332269  0.5387736926203317  0.5493810568462933
  0.1108531009642277  0.7610708641390005  0.2986926276510502
  0.2226115653838008  0.8715412936941149  0.0482916433402636
  0.7778036705806031  0.7611305319809105  0.7989436068741114
  0.8887807095086373  0.8721069846730174  0.5491002633160562
  0.4448719760933599  0.7599232576230364  0.2979674944440873
  0.5555148040632858  0.8715412795229653  0.0482913414315220
  0.1107339537073813  0.7611301991867450  0.7989435582952922
  0.2228245434950935  0.8709370674506474  0.5494723100628462
  0.7777439934900130  0.7610711409230646  0.2986925231499455
  0.8887802682687109  0.8721073110210327  0.0486391003379225
  0.4444207901119199  0.7608263323048021  0.7989707456447803
  0.5559070379450972  0.8709368824739556  0.5494725283763060
  0.2221138636380502  0.2054406425418023  0.3589150701419612
  0.1119218083102709  0.0952489712426683  0.1090157211775349
  0.8891959230557944  0.2051556201236266  0.8576020974319931
  0.7776666767126343  0.0943352826821595  0.6076570063533424
  0.5539934141434912  0.2061069199513170  0.3581290398279720
  0.4424967289799682  0.0952489670702548  0.1090158808475721
  0.2221136458284789  0.2054404336410087  0.8555865556413877
  0.1111566632378143  0.0944826006513750  0.6057687424121454
  0.8895670442085262  0.2061073860570914  0.3581290959381391
  0.7775788585583996  0.0945102345575535  0.1081717698954634
  0.5553164524016196  0.2051556689033234  0.8576021757357495
  0.4440291992236567  0.0944828238069988  0.6057684614941365
  0.2227802311938447  0.5373201964185768  0.3581291092187229
  0.1119217286434804  0.4258239289345909  0.1090159651383757
  0.8891957644730653  0.5386429382024431  0.8576021941913794
  0.7776728454690698  0.4276609683386283  0.6079375705377714
  0.5554465157876081  0.5387739381533834  0.3581190787327060
  0.4443387606348352  0.4276660824498393  0.1076626881955676
  0.2218290266882832  0.5386430680673300  0.8576021736095853
  0.1111565206870537  0.4273554606054333  0.6057686704025684
  0.8895668111470840  0.5373204677450047  0.3581290183224652
  0.7776628809559156  0.4276660028985901  0.1076627548203817
  0.5554469676053628  0.5387737127949208  0.8576957905416975
  0.4443345838367065  0.4276610321543544  0.6079375575534058
  0.2227802865223083  0.8728942820930641  0.3581289813601671
  0.1111833299376954  0.7609055984486304  0.1081717788746843
  0.8887808442896272  0.8721068141717723  0.8578645064385952
  0.7776666634003746  0.7609927710772055  0.6076570451380618
  0.5539935355065921  0.8728939764249972  0.3581291328113565
  0.4443389130371926  0.7609899019339039  0.1076626618360592
  0.2218291341168026  0.8725222026136024  0.8576021417146009
  0.1110091662970234  0.7609927551512499  0.6076570818934002
  0.8887804175626925  0.8721071166138330  0.3579357901964002
  0.7775788148598011  0.7609056754229115  0.1081717603279984
  0.5553163001475596  0.8725223471792134  0.8576020317260387
  0.4443345532738263  0.7609991946680665  0.6079374755744311
 
  0.00000000E+00  0.00000000E+00  0.00000000E+00
  0.00000000E+00  0.00000000E+00  0.00000000E+00
  0.00000000E+00  0.00000000E+00  0.00000000E+00
  0.00000000E+00  0.00000000E+00  0.00000000E+00
  0.00000000E+00  0.00000000E+00  0.00000000E+00
  0.00000000E+00  0.00000000E+00  0.00000000E+00
  0.00000000E+00  0.00000000E+00  0.00000000E+00
  0.00000000E+00  0.00000000E+00  0.00000000E+00
  0.00000000E+00  0.00000000E+00  0.00000000E+00
  0.00000000E+00  0.00000000E+00  0.00000000E+00
  0.00000000E+00  0.00000000E+00  0.00000000E+00
  0.00000000E+00  0.00000000E+00  0.00000000E+00
  0.00000000E+00  0.00000000E+00  0.00000000E+00
  0.00000000E+00  0.00000000E+00  0.00000000E+00
  0.00000000E+00  0.00000000E+00  0.00000000E+00
  0.00000000E+00  0.00000000E+00  0.00000000E+00
  0.00000000E+00  0.00000000E+00  0.00000000E+00
  0.00000000E+00  0.00000000E+00  0.00000000E+00
  0.00000000E+00  0.00000000E+00  0.00000000E+00
  0.00000000E+00  0.00000000E+00  0.00000000E+00
  0.00000000E+00  0.00000000E+00  0.00000000E+00
  0.00000000E+00  0.00000000E+00  0.00000000E+00
  0.00000000E+00  0.00000000E+00  0.00000000E+00
  0.00000000E+00  0.00000000E+00  0.00000000E+00
  0.00000000E+00  0.00000000E+00  0.00000000E+00
  0.00000000E+00  0.00000000E+00  0.00000000E+00
  0.00000000E+00  0.00000000E+00  0.00000000E+00
  0.00000000E+00  0.00000000E+00  0.00000000E+00
  0.00000000E+00  0.00000000E+00  0.00000000E+00
  0.00000000E+00  0.00000000E+00  0.00000000E+00
  0.00000000E+00  0.00000000E+00  0.00000000E+00
  0.00000000E+00  0.00000000E+00  0.00000000E+00
  0.00000000E+00  0.00000000E+00  0.00000000E+00
  0.00000000E+00  0.00000000E+00  0.00000000E+00
  0.00000000E+00  0.00000000E+00  0.00000000E+00
  0.00000000E+00  0.00000000E+00  0.00000000E+00
  0.00000000E+00  0.00000000E+00  0.00000000E+00
  0.00000000E+00  0.00000000E+00  0.00000000E+00
  0.00000000E+00  0.00000000E+00  0.00000000E+00
  0.00000000E+00  0.00000000E+00  0.00000000E+00
  0.00000000E+00  0.00000000E+00  0.00000000E+00
  0.00000000E+00  0.00000000E+00  0.00000000E+00
  0.00000000E+00  0.00000000E+00  0.00000000E+00
  0.00000000E+00  0.00000000E+00  0.00000000E+00
  0.00000000E+00  0.00000000E+00  0.00000000E+00
  0.00000000E+00  0.00000000E+00  0.00000000E+00
  0.00000000E+00  0.00000000E+00  0.00000000E+00
  0.00000000E+00  0.00000000E+00  0.00000000E+00
  0.00000000E+00  0.00000000E+00  0.00000000E+00
  0.00000000E+00  0.00000000E+00  0.00000000E+00
  0.00000000E+00  0.00000000E+00  0.00000000E+00
  0.00000000E+00  0.00000000E+00  0.00000000E+00
  0.00000000E+00  0.00000000E+00  0.00000000E+00
  0.00000000E+00  0.00000000E+00  0.00000000E+00
  0.00000000E+00  0.00000000E+00  0.00000000E+00
  0.00000000E+00  0.00000000E+00  0.00000000E+00
  0.00000000E+00  0.00000000E+00  0.00000000E+00
  0.00000000E+00  0.00000000E+00  0.00000000E+00
  0.00000000E+00  0.00000000E+00  0.00000000E+00
  0.00000000E+00  0.00000000E+00  0.00000000E+00
  0.00000000E+00  0.00000000E+00  0.00000000E+00
  0.00000000E+00  0.00000000E+00  0.00000000E+00
  0.00000000E+00  0.00000000E+00  0.00000000E+00
  0.00000000E+00  0.00000000E+00  0.00000000E+00
  0.00000000E+00  0.00000000E+00  0.00000000E+00
  0.00000000E+00  0.00000000E+00  0.00000000E+00
  0.00000000E+00  0.00000000E+00  0.00000000E+00
  0.00000000E+00  0.00000000E+00  0.00000000E+00
  0.00000000E+00  0.00000000E+00  0.00000000E+00
  0.00000000E+00  0.00000000E+00  0.00000000E+00
  0.00000000E+00  0.00000000E+00  0.00000000E+00
  0.00000000E+00  0.00000000E+00  0.00000000E+00
