Al   O    N                             
   1.00000000000000     
    -9.3516851344454288    0.0000003379186532   -0.0000408130735611
    -4.6758425064201141    8.0987973363335044   -0.0000204478887897
     0.0000433511953902   -0.0000001841224148   -9.9794205323878789
   Al   O    N 
    36     1    35
Direct
  0.1072152072404151  0.0904982012648716  0.3116383218241765
  0.2221249094573139  0.2054076255874833  0.0604721951419478
  0.7778152562515359  0.0940270862192776  0.8135929441698977
  0.8876224033057412  0.2061179577427268  0.5641231218619112
  0.4519443119330830  0.0904977905097795  0.3116383150815381
  0.5555272223644181  0.2059058965323288  0.0629390384902635
  0.1105291155393999  0.0938113905819122  0.8130478214150969
  0.2221251956861394  0.2054074655272657  0.5719304834674261
  0.7777551725451417  0.0941470219890945  0.3133424360665273
  0.8882247064231663  0.2059060478937411  0.0629389898516948
  0.4453170824183275  0.0938116470055661  0.8130476747032205
  0.5559180721184589  0.2061179636114190  0.5641230694533448
  0.1072149761448884  0.4352269650132001  0.3116383558594435
  0.2226233206443737  0.5388096754045861  0.0629391138337922
  0.7775107995566160  0.4277145860844271  0.8136204099522573
  0.8876222727874605  0.5392000375612156  0.5641231184683591
  0.4448835235560509  0.4281662481086954  0.3126156433792673
  0.5554584730885637  0.5387409138845030  0.0628555466210585
  0.1105292655717349  0.4285996094471969  0.8130477256404873
  0.2228356039366091  0.5392002920687489  0.5641230878080066
  0.7766068591307089  0.4281664744487088  0.3126156948483043
  0.8882246013730111  0.5388095315563817  0.0629389443524175
  0.4444320884651844  0.4277145467460173  0.8136204250472332
  0.5554586454955910  0.5387408934243325  0.5640316984726894
  0.1108645592523558  0.7610378063326380  0.3133424754044114
  0.2226234137066214  0.8715072527383327  0.0629391033930560
  0.7778153227447859  0.7610979236362283  0.8135929780074278
  0.8887919731337206  0.8720741399896994  0.5637506409133053
  0.4448835834334730  0.7598898937768865  0.3126156969553762
  0.5555271706102829  0.8715069933733162  0.0629389889270868
  0.1107447920410110  0.7610977144187032  0.8135930066197119
  0.2228355961576938  0.8709046048539051  0.5641231143392886
  0.7777552168173401  0.7610380216494406  0.3133424271281342
  0.8887918200154488  0.8720741775209859  0.0632885880314262
  0.4444320364874770  0.7607934158743248  0.8136204399710962
  0.5559179749768646  0.8709043208711194  0.5641230975903824
  0.2221252113890344  0.2054076198232835  0.3735616813684715
  0.1119339013421694  0.0952165249205663  0.1236624853998265
  0.8892078565600272  0.2051224855302181  0.8722499929548491
  0.7776778348477791  0.0943026101850961  0.6223057030771386
  0.5540043106927826  0.2060741361838581  0.3727769373544376
  0.4425072462707718  0.0952164141316416  0.1236624167340494
  0.2221250441535929  0.2054075872714165  0.8702343655702123
  0.1111678289482185  0.0944499930822218  0.6204156508905996
  0.8895789643398757  0.2060743248216710  0.3727769897023094
  0.7775901833396901  0.0944775432893152  0.1228200224017115
  0.5553273487913231  0.2051225241544543  0.8722500456732618
  0.4440402591647725  0.0944500221997160  0.6204154535548128
  0.2227914422349926  0.5372868984981949  0.3727769566596777
  0.1119338252772550  0.4257898289412978  0.1236624969962676
  0.8892078940060415  0.5386097659768438  0.8722499417612397
  0.7776836862259842  0.4276283088689112  0.6225864979041660
  0.5554579638519215  0.5387408944980976  0.3727674034373436
  0.4443497910720282  0.4276323386127174  0.1223096755294009
  0.2218400555992659  0.5386098563009369  0.8722501166476633
  0.1111678236179543  0.4273224979183965  0.6204155212414122
  0.8895787301448905  0.5372869454520597  0.3727769773304459
  0.7776754707910172  0.4276323714483752  0.1223097262140058
  0.5554583056094415  0.5387408846508634  0.8723437231959252
  0.4443459940813241  0.4276283599320649  0.6225864668022751
  0.2227915137046352  0.8728618039526310  0.3727769856998435
  0.1111950932711849  0.7608726155770853  0.1228200747075476
  0.8887919183445305  0.8720741853931955  0.8725134373969823
  0.7776777652556035  0.7609598975497818  0.6223057579116187
  0.5540043259909666  0.8728614414768359  0.3727769603236410
  0.4443497932196792  0.7609580338633535  0.1223097282662948
  0.2218400340825042  0.8724902994869694  0.8722501165678551
  0.1110203811893626  0.7609600234425926  0.6223057579190439
  0.8887918074231678  0.8720742027572683  0.3725845480467953
  0.7775901102628140  0.7608725190460675  0.1228200260359458
  0.5553272952202093  0.8724903188017379  0.8722499984206848
  0.4443459539602799  0.7609659956414632  0.6225864999241111
 
  0.00000000E+00  0.00000000E+00  0.00000000E+00
  0.00000000E+00  0.00000000E+00  0.00000000E+00
  0.00000000E+00  0.00000000E+00  0.00000000E+00
  0.00000000E+00  0.00000000E+00  0.00000000E+00
  0.00000000E+00  0.00000000E+00  0.00000000E+00
  0.00000000E+00  0.00000000E+00  0.00000000E+00
  0.00000000E+00  0.00000000E+00  0.00000000E+00
  0.00000000E+00  0.00000000E+00  0.00000000E+00
  0.00000000E+00  0.00000000E+00  0.00000000E+00
  0.00000000E+00  0.00000000E+00  0.00000000E+00
  0.00000000E+00  0.00000000E+00  0.00000000E+00
  0.00000000E+00  0.00000000E+00  0.00000000E+00
  0.00000000E+00  0.00000000E+00  0.00000000E+00
  0.00000000E+00  0.00000000E+00  0.00000000E+00
  0.00000000E+00  0.00000000E+00  0.00000000E+00
  0.00000000E+00  0.00000000E+00  0.00000000E+00
  0.00000000E+00  0.00000000E+00  0.00000000E+00
  0.00000000E+00  0.00000000E+00  0.00000000E+00
  0.00000000E+00  0.00000000E+00  0.00000000E+00
  0.00000000E+00  0.00000000E+00  0.00000000E+00
  0.00000000E+00  0.00000000E+00  0.00000000E+00
  0.00000000E+00  0.00000000E+00  0.00000000E+00
  0.00000000E+00  0.00000000E+00  0.00000000E+00
  0.00000000E+00  0.00000000E+00  0.00000000E+00
  0.00000000E+00  0.00000000E+00  0.00000000E+00
  0.00000000E+00  0.00000000E+00  0.00000000E+00
  0.00000000E+00  0.00000000E+00  0.00000000E+00
  0.00000000E+00  0.00000000E+00  0.00000000E+00
  0.00000000E+00  0.00000000E+00  0.00000000E+00
  0.00000000E+00  0.00000000E+00  0.00000000E+00
  0.00000000E+00  0.00000000E+00  0.00000000E+00
  0.00000000E+00  0.00000000E+00  0.00000000E+00
  0.00000000E+00  0.00000000E+00  0.00000000E+00
  0.00000000E+00  0.00000000E+00  0.00000000E+00
  0.00000000E+00  0.00000000E+00  0.00000000E+00
  0.00000000E+00  0.00000000E+00  0.00000000E+00
  0.00000000E+00  0.00000000E+00  0.00000000E+00
  0.00000000E+00  0.00000000E+00  0.00000000E+00
  0.00000000E+00  0.00000000E+00  0.00000000E+00
  0.00000000E+00  0.00000000E+00  0.00000000E+00
  0.00000000E+00  0.00000000E+00  0.00000000E+00
  0.00000000E+00  0.00000000E+00  0.00000000E+00
  0.00000000E+00  0.00000000E+00  0.00000000E+00
  0.00000000E+00  0.00000000E+00  0.00000000E+00
  0.00000000E+00  0.00000000E+00  0.00000000E+00
  0.00000000E+00  0.00000000E+00  0.00000000E+00
  0.00000000E+00  0.00000000E+00  0.00000000E+00
  0.00000000E+00  0.00000000E+00  0.00000000E+00
  0.00000000E+00  0.00000000E+00  0.00000000E+00
  0.00000000E+00  0.00000000E+00  0.00000000E+00
  0.00000000E+00  0.00000000E+00  0.00000000E+00
  0.00000000E+00  0.00000000E+00  0.00000000E+00
  0.00000000E+00  0.00000000E+00  0.00000000E+00
  0.00000000E+00  0.00000000E+00  0.00000000E+00
  0.00000000E+00  0.00000000E+00  0.00000000E+00
  0.00000000E+00  0.00000000E+00  0.00000000E+00
  0.00000000E+00  0.00000000E+00  0.00000000E+00
  0.00000000E+00  0.00000000E+00  0.00000000E+00
  0.00000000E+00  0.00000000E+00  0.00000000E+00
  0.00000000E+00  0.00000000E+00  0.00000000E+00
  0.00000000E+00  0.00000000E+00  0.00000000E+00
  0.00000000E+00  0.00000000E+00  0.00000000E+00
  0.00000000E+00  0.00000000E+00  0.00000000E+00
  0.00000000E+00  0.00000000E+00  0.00000000E+00
  0.00000000E+00  0.00000000E+00  0.00000000E+00
  0.00000000E+00  0.00000000E+00  0.00000000E+00
  0.00000000E+00  0.00000000E+00  0.00000000E+00
  0.00000000E+00  0.00000000E+00  0.00000000E+00
  0.00000000E+00  0.00000000E+00  0.00000000E+00
  0.00000000E+00  0.00000000E+00  0.00000000E+00
  0.00000000E+00  0.00000000E+00  0.00000000E+00
  0.00000000E+00  0.00000000E+00  0.00000000E+00
