Al   O    N                             
   1.00000000000000     
    -9.7942823928346474   -0.0000040963076778   -0.0000200586517693
    -4.8971428592743642    8.4820948889579277   -0.0000293025365499
     0.0000173369929111   -0.0000204782637857   -8.6410306754618063
   Al   O    N 
    36     1    35
Direct
  0.1092018593196329  0.0924497769312325  0.3485936699097749
  0.2221339302504717  0.2053821023537310  0.0789360387456455
  0.7778355126546188  0.0939788412678624  0.8453975240763683
  0.8865257968739826  0.2067850352483021  0.5933498570163493
  0.4479983539952315  0.0924496232400642  0.3485936893967292
  0.5544053133364315  0.2054006988202843  0.0954505984966829
  0.1090708586269216  0.0923187775184360  0.8388598968654719
  0.2221339613892965  0.2053821494114345  0.6098336503353963
  0.7778612087538548  0.0939274078254613  0.3435337620400318
  0.8898437913061770  0.2054007859495144  0.0954506460291853
  0.4482603684706419  0.0923186521113379  0.8388598783873746
  0.5563390172406386  0.2067852208361884  0.5933499177068811
  0.1092015723142623  0.4312465761470037  0.3485936975900259
  0.2221525761518066  0.5376535353251697  0.0954505749058470
  0.7780672908256321  0.4274151928326759  0.8456016539041045
  0.8865256271117445  0.5395869179603991  0.5933499538005265
  0.4450754286108847  0.4283236782771951  0.3427658805499405
  0.5554671391645272  0.5387152707760876  0.0925574802493543
  0.1090705824497746  0.4315086260194221  0.8388598760765902
  0.2235371452805595  0.5395871747798893  0.5933499227424974
  0.7762504125356244  0.4283237620193177  0.3427659700700900
  0.8898435800374358  0.5376534997132083  0.0954505441966518
  0.4441670721956896  0.4274152535068581  0.8456017408779459
  0.5554671379455840  0.5387152669310282  0.5960202379326844
  0.1106794037625107  0.7611092915071254  0.3435337839916102
  0.2221527912851684  0.8730917508058837  0.0954506339479479
  0.7778353901705586  0.7610835373972762  0.8453973768967131
  0.8888006402705315  0.8720485401278424  0.5950933208707099
  0.4450755882195594  0.7594985092192843  0.3427659798515066
  0.5544053464196992  0.8730916000115130  0.0954505590979622
  0.1107308388316071  0.7610836042031863  0.8453974870750756
  0.2235370318048311  0.8697738154089834  0.5933498582081498
  0.7778611402032709  0.7611092628839131  0.3435339008699003
  0.8888006542022140  0.8720485735160679  0.0938927178231097
  0.4441670498307317  0.7613153957414696  0.8456016236109392
  0.5563387778767321  0.8697736881227129  0.5933499461089013
  0.2221339784445107  0.2053821501816202  0.3751557215709269
  0.1137695248904862  0.0970177278336237  0.1206437001459264
  0.8904038517354138  0.2043405038540342  0.8648438325725110
  0.7775307854295335  0.0945882688532649  0.6146483038293198
  0.5550167827918031  0.2063324787953889  0.3638840687509912
  0.4388627424525708  0.0970174937796102  0.1206436917183638
  0.2221339719784510  0.2053821355140855  0.8547655853731158
  0.1112446735229398  0.0944929310839129  0.6079898534795518
  0.8883004980812430  0.2063326172021931  0.3638840412529589
  0.7775448495627231  0.0945601743883557  0.1139701298294682
  0.5549055721090497  0.2043404074136959  0.8648438041783422
  0.4439124866943587  0.0944927378233089  0.6079898670363946
  0.2230844988394196  0.5382647804866139  0.3638840870921101
  0.1137693260464019  0.4221109134511423  0.1206436831714086
  0.8904036531530650  0.5381535176267107  0.8648437521140977
  0.7777407378742822  0.4275784302185457  0.6155326233986074
  0.5554673014078162  0.5387151282768983  0.3650371651101736
  0.4443835606264486  0.4276315559498443  0.1132121649678410
  0.2210924246174244  0.5381535663815455  0.8648437859810088
  0.1112445385969565  0.4271606685158673  0.6079898766704517
  0.8883003590202989  0.5382648086334214  0.3638841617392572
  0.7776345030898426  0.4276316861443235  0.1132122309571741
  0.5554673206158967  0.5387151859622037  0.8637785294223903
  0.4443305044358326  0.4275784323225267  0.6155326734158422
  0.2230845671614006  0.8715486300590953  0.3638840577971507
  0.1113119366706883  0.7607930877590121  0.1139701410746383
  0.8888004920556014  0.8720486556911951  0.8640280964645513
  0.7775306568456841  0.7607788434646139  0.6146482701760263
  0.5550167679185947  0.8715484676220413  0.3638841563285737
  0.4443836637224905  0.7608825480341253  0.1132122454965980
  0.2210924526211571  0.8736519991060305  0.8648438148336623
  0.1113400643694789  0.7607789987903288  0.6146482955756625
  0.8888005038836653  0.8720486842593402  0.3646061959877400
  0.7775447780341409  0.7607929789840071  0.1139701983536909
  0.5549054630898169  0.8736517721774177  0.8648437560558833
  0.4443304379256077  0.7609887936171731  0.6155326057790660
 
  0.00000000E+00  0.00000000E+00  0.00000000E+00
  0.00000000E+00  0.00000000E+00  0.00000000E+00
  0.00000000E+00  0.00000000E+00  0.00000000E+00
  0.00000000E+00  0.00000000E+00  0.00000000E+00
  0.00000000E+00  0.00000000E+00  0.00000000E+00
  0.00000000E+00  0.00000000E+00  0.00000000E+00
  0.00000000E+00  0.00000000E+00  0.00000000E+00
  0.00000000E+00  0.00000000E+00  0.00000000E+00
  0.00000000E+00  0.00000000E+00  0.00000000E+00
  0.00000000E+00  0.00000000E+00  0.00000000E+00
  0.00000000E+00  0.00000000E+00  0.00000000E+00
  0.00000000E+00  0.00000000E+00  0.00000000E+00
  0.00000000E+00  0.00000000E+00  0.00000000E+00
  0.00000000E+00  0.00000000E+00  0.00000000E+00
  0.00000000E+00  0.00000000E+00  0.00000000E+00
  0.00000000E+00  0.00000000E+00  0.00000000E+00
  0.00000000E+00  0.00000000E+00  0.00000000E+00
  0.00000000E+00  0.00000000E+00  0.00000000E+00
  0.00000000E+00  0.00000000E+00  0.00000000E+00
  0.00000000E+00  0.00000000E+00  0.00000000E+00
  0.00000000E+00  0.00000000E+00  0.00000000E+00
  0.00000000E+00  0.00000000E+00  0.00000000E+00
  0.00000000E+00  0.00000000E+00  0.00000000E+00
  0.00000000E+00  0.00000000E+00  0.00000000E+00
  0.00000000E+00  0.00000000E+00  0.00000000E+00
  0.00000000E+00  0.00000000E+00  0.00000000E+00
  0.00000000E+00  0.00000000E+00  0.00000000E+00
  0.00000000E+00  0.00000000E+00  0.00000000E+00
  0.00000000E+00  0.00000000E+00  0.00000000E+00
  0.00000000E+00  0.00000000E+00  0.00000000E+00
  0.00000000E+00  0.00000000E+00  0.00000000E+00
  0.00000000E+00  0.00000000E+00  0.00000000E+00
  0.00000000E+00  0.00000000E+00  0.00000000E+00
  0.00000000E+00  0.00000000E+00  0.00000000E+00
  0.00000000E+00  0.00000000E+00  0.00000000E+00
  0.00000000E+00  0.00000000E+00  0.00000000E+00
  0.00000000E+00  0.00000000E+00  0.00000000E+00
  0.00000000E+00  0.00000000E+00  0.00000000E+00
  0.00000000E+00  0.00000000E+00  0.00000000E+00
  0.00000000E+00  0.00000000E+00  0.00000000E+00
  0.00000000E+00  0.00000000E+00  0.00000000E+00
  0.00000000E+00  0.00000000E+00  0.00000000E+00
  0.00000000E+00  0.00000000E+00  0.00000000E+00
  0.00000000E+00  0.00000000E+00  0.00000000E+00
  0.00000000E+00  0.00000000E+00  0.00000000E+00
  0.00000000E+00  0.00000000E+00  0.00000000E+00
  0.00000000E+00  0.00000000E+00  0.00000000E+00
  0.00000000E+00  0.00000000E+00  0.00000000E+00
  0.00000000E+00  0.00000000E+00  0.00000000E+00
  0.00000000E+00  0.00000000E+00  0.00000000E+00
  0.00000000E+00  0.00000000E+00  0.00000000E+00
  0.00000000E+00  0.00000000E+00  0.00000000E+00
  0.00000000E+00  0.00000000E+00  0.00000000E+00
  0.00000000E+00  0.00000000E+00  0.00000000E+00
  0.00000000E+00  0.00000000E+00  0.00000000E+00
  0.00000000E+00  0.00000000E+00  0.00000000E+00
  0.00000000E+00  0.00000000E+00  0.00000000E+00
  0.00000000E+00  0.00000000E+00  0.00000000E+00
  0.00000000E+00  0.00000000E+00  0.00000000E+00
  0.00000000E+00  0.00000000E+00  0.00000000E+00
  0.00000000E+00  0.00000000E+00  0.00000000E+00
  0.00000000E+00  0.00000000E+00  0.00000000E+00
  0.00000000E+00  0.00000000E+00  0.00000000E+00
  0.00000000E+00  0.00000000E+00  0.00000000E+00
  0.00000000E+00  0.00000000E+00  0.00000000E+00
  0.00000000E+00  0.00000000E+00  0.00000000E+00
  0.00000000E+00  0.00000000E+00  0.00000000E+00
  0.00000000E+00  0.00000000E+00  0.00000000E+00
  0.00000000E+00  0.00000000E+00  0.00000000E+00
  0.00000000E+00  0.00000000E+00  0.00000000E+00
  0.00000000E+00  0.00000000E+00  0.00000000E+00
  0.00000000E+00  0.00000000E+00  0.00000000E+00
