Al   O    N                             
   1.00000000000000     
    -9.3516655670314286    0.0000015472531071   -0.0000464733704134
    -4.6758316150200736    8.0987811817306543   -0.0000180329848551
     0.0000497814005933    0.0000062006751453   -9.9794602016293101
   Al   O    N 
    36     1    35
Direct
  0.1072073143311627  0.0905239792952344  0.3004893438377820
  0.2221162383462953  0.2054326509025586  0.0493282461731326
  0.7778065004994730  0.0940524616812723  0.8024382693823782
  0.8876141537094568  0.2061426815487195  0.5529689923262211
  0.4519341750742498  0.0905236047135602  0.3004893293929527
  0.5555181769509545  0.2059310886388488  0.0517866040491413
  0.1105204795471337  0.0938363889381577  0.8018993962631953
  0.2221165746335245  0.2054325445469658  0.5607910650234302
  0.7777466702674829  0.0941717700000595  0.3021871210627154
  0.8882162853931419  0.2059312398137578  0.0517866078075073
  0.4453085302416326  0.0938366581068806  0.8018993017364551
  0.5559094019095667  0.2061426760076728  0.5529689745196080
  0.1072070776896226  0.4352505285955601  0.3004893744058492
  0.2226148341534966  0.5388342936886801  0.0517866479198759
  0.7775024257434993  0.4277395108193076  0.8024658151416233
  0.8876140237486396  0.5392250438770461  0.5529690061942532
  0.4448746942077904  0.4281911336193431  0.3014625640658437
  0.5554498177486238  0.5387659478074198  0.0517018559756437
  0.1105206000938850  0.4286247252600006  0.8018993316115797
  0.2228265960793649  0.5392253078830436  0.5529689512353357
  0.7765985654247061  0.4281913658770193  0.3014626379719587
  0.8882161804398265  0.5388341815239315  0.0517865243493887
  0.4444233360929033  0.4277394878203040  0.8024658072842215
  0.5554499951667964  0.5387659522958046  0.5528763749478429
  0.1108556574695072  0.7610629634808674  0.3021871215065417
  0.2226149320832178  0.8715324863054832  0.0517866644063147
  0.7778065375969518  0.7611227835581289  0.8024382526184866
  0.8887833576724873  0.8720991777478133  0.5525949283249432
  0.4448747733507901  0.7599153180620775  0.3014625859963829
  0.5555181340236146  0.8715322511297714  0.0517865283425891
  0.1107365254793962  0.7611225825014003  0.8024382773740584
  0.2228266237521481  0.8709300250798151  0.5529689230527381
  0.7777466999949780  0.7610632086200937  0.3021870829000832
  0.8887832080962426  0.8720991866495709  0.0521328478688687
  0.4444232831819264  0.7608187140123590  0.8024657966476099
  0.5559093009553422  0.8709297584756328  0.5529689654367189
  0.2221165724517249  0.2054326889502818  0.3624167838751333
  0.1119246063743020  0.0952408902811470  0.1125148349535152
  0.8891980693792121  0.2051481060166651  0.8610991015240685
  0.7776693008124909  0.0943275088989637  0.6111523981736653
  0.5539963438918392  0.2060992573762803  0.3616251025410691
  0.4424998221161545  0.0952408188894793  0.1125147512205800
  0.2221164188498506  0.2054326219550191  0.8590891834104610
  0.1111581955935534  0.0944740417572092  0.6092677959455983
  0.8895695401188846  0.2060994457695671  0.3616251165927622
  0.7775817193208070  0.0945021504728771  0.1116673065806140
  0.5553193615206737  0.2051481491422038  0.8610991051950805
  0.4440336566703635  0.0944740728249585  0.6092677316158799
  0.2227828977828139  0.5373125901676659  0.3616250724859285
  0.1119245401102091  0.4258160876637902  0.1125148327799934
  0.8891980667278929  0.5386354284046035  0.8610990058134078
  0.7776747329190243  0.4276535073492909  0.6114331347118593
  0.5554492980574963  0.5387659675418348  0.3616144934583261
  0.4443414222754072  0.4276576365085063  0.1111586914685176
  0.2218320233443123  0.5386355088860242  0.8610991282712419
  0.1111581732803302  0.4273495381075705  0.6092677608277413
  0.8895693440367367  0.5373126662026877  0.3616251103979238
  0.7776662579755893  0.4276576795406157  0.1111588013556997
  0.5554496823506767  0.5387659339917761  0.8611910864414867
  0.4443374998284568  0.4276535544111653  0.6114330645203125
  0.2227829703483053  0.8728860829144054  0.3616250377336314
  0.1111860695128613  0.7608977941205879  0.1116673059566082
  0.8887832874739274  0.8720992329364350  0.8613596077982137
  0.7776692090362900  0.7609850440060271  0.6111523877345277
  0.5539963253476401  0.8728858034534142  0.3616250618333794
  0.4443414336604619  0.7609825006750626  0.1111587359573747
  0.2218319935009134  0.8725141627740598  0.8610991463243707
  0.1110116002985961  0.7609851609555278  0.6111523901516733
  0.8887831517474254  0.8720992550876261  0.3614307764743074
  0.7775816691244302  0.7608977802854540  0.1116672578150997
  0.5553192843708885  0.8725141782582782  0.8610990126030629
  0.4443374638889779  0.7609907524522086  0.6114330667218653
 
  0.00000000E+00  0.00000000E+00  0.00000000E+00
  0.00000000E+00  0.00000000E+00  0.00000000E+00
  0.00000000E+00  0.00000000E+00  0.00000000E+00
  0.00000000E+00  0.00000000E+00  0.00000000E+00
  0.00000000E+00  0.00000000E+00  0.00000000E+00
  0.00000000E+00  0.00000000E+00  0.00000000E+00
  0.00000000E+00  0.00000000E+00  0.00000000E+00
  0.00000000E+00  0.00000000E+00  0.00000000E+00
  0.00000000E+00  0.00000000E+00  0.00000000E+00
  0.00000000E+00  0.00000000E+00  0.00000000E+00
  0.00000000E+00  0.00000000E+00  0.00000000E+00
  0.00000000E+00  0.00000000E+00  0.00000000E+00
  0.00000000E+00  0.00000000E+00  0.00000000E+00
  0.00000000E+00  0.00000000E+00  0.00000000E+00
  0.00000000E+00  0.00000000E+00  0.00000000E+00
  0.00000000E+00  0.00000000E+00  0.00000000E+00
  0.00000000E+00  0.00000000E+00  0.00000000E+00
  0.00000000E+00  0.00000000E+00  0.00000000E+00
  0.00000000E+00  0.00000000E+00  0.00000000E+00
  0.00000000E+00  0.00000000E+00  0.00000000E+00
  0.00000000E+00  0.00000000E+00  0.00000000E+00
  0.00000000E+00  0.00000000E+00  0.00000000E+00
  0.00000000E+00  0.00000000E+00  0.00000000E+00
  0.00000000E+00  0.00000000E+00  0.00000000E+00
  0.00000000E+00  0.00000000E+00  0.00000000E+00
  0.00000000E+00  0.00000000E+00  0.00000000E+00
  0.00000000E+00  0.00000000E+00  0.00000000E+00
  0.00000000E+00  0.00000000E+00  0.00000000E+00
  0.00000000E+00  0.00000000E+00  0.00000000E+00
  0.00000000E+00  0.00000000E+00  0.00000000E+00
  0.00000000E+00  0.00000000E+00  0.00000000E+00
  0.00000000E+00  0.00000000E+00  0.00000000E+00
  0.00000000E+00  0.00000000E+00  0.00000000E+00
  0.00000000E+00  0.00000000E+00  0.00000000E+00
  0.00000000E+00  0.00000000E+00  0.00000000E+00
  0.00000000E+00  0.00000000E+00  0.00000000E+00
  0.00000000E+00  0.00000000E+00  0.00000000E+00
  0.00000000E+00  0.00000000E+00  0.00000000E+00
  0.00000000E+00  0.00000000E+00  0.00000000E+00
  0.00000000E+00  0.00000000E+00  0.00000000E+00
  0.00000000E+00  0.00000000E+00  0.00000000E+00
  0.00000000E+00  0.00000000E+00  0.00000000E+00
  0.00000000E+00  0.00000000E+00  0.00000000E+00
  0.00000000E+00  0.00000000E+00  0.00000000E+00
  0.00000000E+00  0.00000000E+00  0.00000000E+00
  0.00000000E+00  0.00000000E+00  0.00000000E+00
  0.00000000E+00  0.00000000E+00  0.00000000E+00
  0.00000000E+00  0.00000000E+00  0.00000000E+00
  0.00000000E+00  0.00000000E+00  0.00000000E+00
  0.00000000E+00  0.00000000E+00  0.00000000E+00
  0.00000000E+00  0.00000000E+00  0.00000000E+00
  0.00000000E+00  0.00000000E+00  0.00000000E+00
  0.00000000E+00  0.00000000E+00  0.00000000E+00
  0.00000000E+00  0.00000000E+00  0.00000000E+00
  0.00000000E+00  0.00000000E+00  0.00000000E+00
  0.00000000E+00  0.00000000E+00  0.00000000E+00
  0.00000000E+00  0.00000000E+00  0.00000000E+00
  0.00000000E+00  0.00000000E+00  0.00000000E+00
  0.00000000E+00  0.00000000E+00  0.00000000E+00
  0.00000000E+00  0.00000000E+00  0.00000000E+00
  0.00000000E+00  0.00000000E+00  0.00000000E+00
  0.00000000E+00  0.00000000E+00  0.00000000E+00
  0.00000000E+00  0.00000000E+00  0.00000000E+00
  0.00000000E+00  0.00000000E+00  0.00000000E+00
  0.00000000E+00  0.00000000E+00  0.00000000E+00
  0.00000000E+00  0.00000000E+00  0.00000000E+00
  0.00000000E+00  0.00000000E+00  0.00000000E+00
  0.00000000E+00  0.00000000E+00  0.00000000E+00
  0.00000000E+00  0.00000000E+00  0.00000000E+00
  0.00000000E+00  0.00000000E+00  0.00000000E+00
  0.00000000E+00  0.00000000E+00  0.00000000E+00
  0.00000000E+00  0.00000000E+00  0.00000000E+00
