Al   O    N                             
   1.00000000000000     
    -9.3516652031330114    0.0000007410301378   -0.0000426998391786
    -4.6758320141731620    8.0987804080171220   -0.0000196429208115
     0.0000455863491637    0.0000020259760774   -9.9794690674691644
   Al   O    N 
    36     1    35
Direct
  0.1072130830321925  0.0905076880447595  0.3077849690162964
  0.2221219310883100  0.2054162780014366  0.0566236659160353
  0.7778120570145575  0.0940362517506017  0.8097332656518930
  0.8876197968648682  0.2061262134393473  0.5602634668374478
  0.4519396200230617  0.0905072766493689  0.3077849659568273
  0.5555237996309756  0.2059148445486585  0.0590823124216939
  0.1105259733649362  0.0938199130362847  0.8091952298869529
  0.2221221601074319  0.2054161868213029  0.5680869535593160
  0.7777524226364037  0.0941552131063119  0.3094819458511751
  0.8882218733375282  0.2059149987057793  0.0590822951733116
  0.4453144358444092  0.0938201609682139  0.8091950690660497
  0.5559150771750438  0.2061262343421291  0.5602634141125833
  0.1072128403482182  0.4352339069628499  0.3077850060707448
  0.2226206564972344  0.5388178741214702  0.0590823914588299
  0.7775080198961248  0.4277231771515417  0.8097606682445218
  0.8876196562880807  0.5392087630346083  0.5602634641824977
  0.4448803792860190  0.4281747536448961  0.3087583044461368
  0.5554554961498681  0.5387495527001676  0.0589976145746078
  0.1105261043417798  0.4286086503952120  0.8091951172008862
  0.2228321309441412  0.5392090472267839  0.5602634201526016
  0.7766041877201886  0.4281749733374696  0.3087583502412699
  0.8882217636229868  0.5388177312593143  0.0590822199430221
  0.4444289864773836  0.4277231547769915  0.8097606892277867
  0.5554556209797568  0.5387495862411882  0.5601710089505403
  0.1108611395763290  0.7610466717508118  0.3094819837114002
  0.2226207574350312  0.8715160241983710  0.0590824142707831
  0.7778121110183420  0.7611063600923416  0.8097332688984977
  0.8887889656958237  0.8720828187959953  0.5598897939219256
  0.4448804600619241  0.7598988305016263  0.3087583527724718
  0.5555237504579367  0.8715157616470890  0.0590822578047892
  0.1107423054346555  0.7611061687974328  0.8097333249317060
  0.2228321413772321  0.8709136896212968  0.5602634405652580
  0.7777524580473596  0.7610468737942497  0.3094819110431928
  0.8887888755546527  0.8720828054846663  0.0594277717561127
  0.4444289377752568  0.7608023136977238  0.8097606980516829
  0.5559149836382034  0.8709133978930694  0.5602634332149137
  0.2221222142118933  0.2054162742877068  0.3697114685041214
  0.1119303069792039  0.0952245564489189  0.1198101613062477
  0.8892035751573886  0.2051318861883544  0.8683945945613374
  0.7776748605684887  0.0943112290489907  0.6184472660066263
  0.5540021172549814  0.2060827282564048  0.3689198281261241
  0.4425054798616941  0.0952244391774997  0.1198100803568423
  0.2221220759526403  0.2054162747344108  0.8663842413799969
  0.1111637220110211  0.0944575778258994  0.6165629684313174
  0.8895752416524587  0.2060829155881692  0.3689198736397756
  0.7775874750380041  0.0944856477465308  0.1189623639544308
  0.5553249846012207  0.2051319139440011  0.8683946267187181
  0.4440394387608038  0.0944576162160260  0.6165627829104778
  0.2227884103885955  0.5372963313619579  0.3689198261217683
  0.1119302310950445  0.4257996825299912  0.1198101573234496
  0.8892035978975841  0.5386190470449037  0.8683945143553942
  0.7776804734869742  0.4276370728862062  0.6187278102637777
  0.5554549949068388  0.5387495231039807  0.3689095591408673
  0.4443471226062812  0.4276412558880764  0.1184544665438594
  0.2218377910395759  0.5386191460890188  0.8683946866845105
  0.1111637145175806  0.4273333858514050  0.6165628480761995
  0.8895750059681404  0.5372963748005830  0.3689198587061995
  0.7776719228988327  0.4276412801664620  0.1184545371535464
  0.5554553324529223  0.5387495651756211  0.8684864803547114
  0.4443430725694739  0.4276371539027579  0.6187277671003173
  0.2227884775581330  0.8728697256433549  0.3689198432050134
  0.1111915899383291  0.7608815229266384  0.1189624066369461
  0.8887889347143130  0.8720828909698213  0.8686545599873270
  0.7776747737341267  0.7609686465007783  0.6184472960576670
  0.5540021202437728  0.8728693620196282  0.3689198261904636
  0.4443471210689580  0.7609660733927157  0.1184545324997899
  0.2218377601306187  0.8724977027788867  0.8683947163381518
  0.1110172691604063  0.7609687885602767  0.6184473175482879
  0.8887888103548818  0.8720828675767649  0.3687256881931802
  0.7775874035755450  0.7608814364363923  0.1189623388223495
  0.5553249187553106  0.8724976976636896  0.8683945626278984
  0.4443430203870307  0.7609744862142946  0.6187277970067555
 
  0.00000000E+00  0.00000000E+00  0.00000000E+00
  0.00000000E+00  0.00000000E+00  0.00000000E+00
  0.00000000E+00  0.00000000E+00  0.00000000E+00
  0.00000000E+00  0.00000000E+00  0.00000000E+00
  0.00000000E+00  0.00000000E+00  0.00000000E+00
  0.00000000E+00  0.00000000E+00  0.00000000E+00
  0.00000000E+00  0.00000000E+00  0.00000000E+00
  0.00000000E+00  0.00000000E+00  0.00000000E+00
  0.00000000E+00  0.00000000E+00  0.00000000E+00
  0.00000000E+00  0.00000000E+00  0.00000000E+00
  0.00000000E+00  0.00000000E+00  0.00000000E+00
  0.00000000E+00  0.00000000E+00  0.00000000E+00
  0.00000000E+00  0.00000000E+00  0.00000000E+00
  0.00000000E+00  0.00000000E+00  0.00000000E+00
  0.00000000E+00  0.00000000E+00  0.00000000E+00
  0.00000000E+00  0.00000000E+00  0.00000000E+00
  0.00000000E+00  0.00000000E+00  0.00000000E+00
  0.00000000E+00  0.00000000E+00  0.00000000E+00
  0.00000000E+00  0.00000000E+00  0.00000000E+00
  0.00000000E+00  0.00000000E+00  0.00000000E+00
  0.00000000E+00  0.00000000E+00  0.00000000E+00
  0.00000000E+00  0.00000000E+00  0.00000000E+00
  0.00000000E+00  0.00000000E+00  0.00000000E+00
  0.00000000E+00  0.00000000E+00  0.00000000E+00
  0.00000000E+00  0.00000000E+00  0.00000000E+00
  0.00000000E+00  0.00000000E+00  0.00000000E+00
  0.00000000E+00  0.00000000E+00  0.00000000E+00
  0.00000000E+00  0.00000000E+00  0.00000000E+00
  0.00000000E+00  0.00000000E+00  0.00000000E+00
  0.00000000E+00  0.00000000E+00  0.00000000E+00
  0.00000000E+00  0.00000000E+00  0.00000000E+00
  0.00000000E+00  0.00000000E+00  0.00000000E+00
  0.00000000E+00  0.00000000E+00  0.00000000E+00
  0.00000000E+00  0.00000000E+00  0.00000000E+00
  0.00000000E+00  0.00000000E+00  0.00000000E+00
  0.00000000E+00  0.00000000E+00  0.00000000E+00
  0.00000000E+00  0.00000000E+00  0.00000000E+00
  0.00000000E+00  0.00000000E+00  0.00000000E+00
  0.00000000E+00  0.00000000E+00  0.00000000E+00
  0.00000000E+00  0.00000000E+00  0.00000000E+00
  0.00000000E+00  0.00000000E+00  0.00000000E+00
  0.00000000E+00  0.00000000E+00  0.00000000E+00
  0.00000000E+00  0.00000000E+00  0.00000000E+00
  0.00000000E+00  0.00000000E+00  0.00000000E+00
  0.00000000E+00  0.00000000E+00  0.00000000E+00
  0.00000000E+00  0.00000000E+00  0.00000000E+00
  0.00000000E+00  0.00000000E+00  0.00000000E+00
  0.00000000E+00  0.00000000E+00  0.00000000E+00
  0.00000000E+00  0.00000000E+00  0.00000000E+00
  0.00000000E+00  0.00000000E+00  0.00000000E+00
  0.00000000E+00  0.00000000E+00  0.00000000E+00
  0.00000000E+00  0.00000000E+00  0.00000000E+00
  0.00000000E+00  0.00000000E+00  0.00000000E+00
  0.00000000E+00  0.00000000E+00  0.00000000E+00
  0.00000000E+00  0.00000000E+00  0.00000000E+00
  0.00000000E+00  0.00000000E+00  0.00000000E+00
  0.00000000E+00  0.00000000E+00  0.00000000E+00
  0.00000000E+00  0.00000000E+00  0.00000000E+00
  0.00000000E+00  0.00000000E+00  0.00000000E+00
  0.00000000E+00  0.00000000E+00  0.00000000E+00
  0.00000000E+00  0.00000000E+00  0.00000000E+00
  0.00000000E+00  0.00000000E+00  0.00000000E+00
  0.00000000E+00  0.00000000E+00  0.00000000E+00
  0.00000000E+00  0.00000000E+00  0.00000000E+00
  0.00000000E+00  0.00000000E+00  0.00000000E+00
  0.00000000E+00  0.00000000E+00  0.00000000E+00
  0.00000000E+00  0.00000000E+00  0.00000000E+00
  0.00000000E+00  0.00000000E+00  0.00000000E+00
  0.00000000E+00  0.00000000E+00  0.00000000E+00
  0.00000000E+00  0.00000000E+00  0.00000000E+00
  0.00000000E+00  0.00000000E+00  0.00000000E+00
  0.00000000E+00  0.00000000E+00  0.00000000E+00
