Al   O    N                             
   1.00000000000000     
    -9.3516898906815360   -0.0000113523144013    0.0000139031293445
    -4.6758549813820913    8.0987959601321595   -0.0000437919601576
    -0.0000147158918902   -0.0000629684819115   -9.9794122377429115
   Al   O    N 
    36     1    35
Direct
  0.1072386949006798  0.0904297591328316  0.4046592593073441
  0.2221487499452337  0.2053391625419749  0.1443683432678569
  0.7778387681436598  0.0939589023706517  0.9027046429040340
  0.8882484038175349  0.2058377056776735  0.6533585641027102
  0.4519680646452358  0.0904293447762754  0.4046592969671892
  0.5559415974289692  0.2060496068624289  0.1521748574580073
  0.1105527463688887  0.0937431044219394  0.9032500542368567
  0.2221484415672705  0.2053392900965036  0.6558260995355027
  0.7777787549991473  0.0940786548165917  0.4029552561437058
  0.8876460633794423  0.2060495803989753  0.1521748078558858
  0.4453405842147049  0.0937433582489646  0.9032501907385537
  0.5555506478767214  0.2058375559387784  0.6533585315820361
  0.1072384153997987  0.4351588667689867  0.4046592486928233
  0.2228591110665192  0.5391319637900125  0.1521748533701981
  0.7775345559558460  0.4276461558314111  0.9026772773272498
  0.8882482664296560  0.5387410885643575  0.6533586455039213
  0.4449070626354867  0.4280979066666859  0.4036819188570249
  0.5554822251560907  0.5386725656846210  0.1522660921387882
  0.1105528862814538  0.4285311922952246  0.9032501547467433
  0.2226468718927563  0.5387412197560479  0.6533584953338050
  0.7766304608358894  0.4280981131317034  0.4036818402353788
  0.8876458928356215  0.5391316959678178  0.1521748173404944
  0.4444555840073647  0.4276461263791589  0.9026772820614894
  0.5554820529605138  0.5386725797575167  0.6534418534328807
  0.1108880725147401  0.7609694981769195  0.4029552528973142
  0.2228591362437271  0.8708363307363456  0.1521748452197400
  0.7778388335970305  0.7610295066284039  0.9027046402942460
  0.8888153749742642  0.8720058394237071  0.6530091228265960
  0.4449071482317706  0.7598215420452590  0.4036818567658216
  0.5559414877184352  0.8708360690791395  0.1521748573073367
  0.1107685085849042  0.7610293152697452  0.9027046027566499
  0.2226469922835577  0.8714390346842151  0.6533584707817894
  0.7777787955448687  0.7609697007171192  0.4029552902423532
  0.8888155275383696  0.8720058036666458  0.1525470155436608
  0.4444555361863038  0.7607252285239881  0.9026772742833771
  0.5555505980832294  0.8714387735439857  0.6533586077548961
  0.2221487630894643  0.2053393214058161  0.3427369723923448
  0.1111913320581266  0.0943815498441296  0.0958829716902443
  0.8892312404675877  0.2050541941857915  0.8440482947401193
  0.7776137826654974  0.0944091087310994  0.5934783188715755
  0.5540278000267023  0.2060057019524066  0.3435218405446108
  0.4440640116407479  0.0943815970047126  0.0958831472197161
  0.2221486396944456  0.2053392404949861  0.8460646944733696
  0.1119574972929058  0.0951482128715142  0.5926363788672830
  0.8896026944666744  0.2060058777439053  0.3435217727631468
  0.7777014108188993  0.0942342756365235  0.0939928430940853
  0.5553510939818977  0.2050542359914616  0.8440482576446513
  0.4425306970265197  0.0951481121570836  0.5926364659490133
  0.2228149245444087  0.5372184970082117  0.3435218423012998
  0.1111913076810040  0.4272543202581573  0.0958830901146968
  0.8892312557247664  0.5385415660110837  0.8440483824389915
  0.7776989033452324  0.4275640757386654  0.5939885657857857
  0.5554815538696971  0.5386725131332000  0.3435311582863747
  0.4443696112686979  0.4275600573228218  0.0937122151262884
  0.2218637118206246  0.5385416595185433  0.8440482288669244
  0.1119574159665717  0.4257213887670019  0.5926363973279152
  0.8896024317427518  0.5372185442084003  0.3435217998367932
  0.7777071993386997  0.4275599740103004  0.0937121592825250
  0.5554819048397803  0.5386725207501115  0.8439545892079821
  0.4443734393556653  0.4275640648388617  0.5939886558547656
  0.2228149963598156  0.8727936178984876  0.3435218212513433
  0.1110439209851322  0.7608917255939431  0.0939928085030530
  0.8888154749370543  0.8720058722860671  0.8437849238427830
  0.7776137046435991  0.7608042433747357  0.5934783553387319
  0.5540278035283279  0.8727932682669177  0.3435218522630237
  0.4443695622838391  0.7608975701946790  0.0937121934871854
  0.2218636756123331  0.8724217646774264  0.8440481944753984
  0.1112185518449422  0.7608043236861661  0.5934783113081536
  0.8888153428235768  0.8720058926290761  0.3437140314650051
  0.7777013019901133  0.7608915877250126  0.0939928201482871
  0.5553510226174154  0.8724217694206402  0.8440483396452834
  0.4443734428705426  0.7608895221687817  0.5939885832747152
 
  0.00000000E+00  0.00000000E+00  0.00000000E+00
  0.00000000E+00  0.00000000E+00  0.00000000E+00
  0.00000000E+00  0.00000000E+00  0.00000000E+00
  0.00000000E+00  0.00000000E+00  0.00000000E+00
  0.00000000E+00  0.00000000E+00  0.00000000E+00
  0.00000000E+00  0.00000000E+00  0.00000000E+00
  0.00000000E+00  0.00000000E+00  0.00000000E+00
  0.00000000E+00  0.00000000E+00  0.00000000E+00
  0.00000000E+00  0.00000000E+00  0.00000000E+00
  0.00000000E+00  0.00000000E+00  0.00000000E+00
  0.00000000E+00  0.00000000E+00  0.00000000E+00
  0.00000000E+00  0.00000000E+00  0.00000000E+00
  0.00000000E+00  0.00000000E+00  0.00000000E+00
  0.00000000E+00  0.00000000E+00  0.00000000E+00
  0.00000000E+00  0.00000000E+00  0.00000000E+00
  0.00000000E+00  0.00000000E+00  0.00000000E+00
  0.00000000E+00  0.00000000E+00  0.00000000E+00
  0.00000000E+00  0.00000000E+00  0.00000000E+00
  0.00000000E+00  0.00000000E+00  0.00000000E+00
  0.00000000E+00  0.00000000E+00  0.00000000E+00
  0.00000000E+00  0.00000000E+00  0.00000000E+00
  0.00000000E+00  0.00000000E+00  0.00000000E+00
  0.00000000E+00  0.00000000E+00  0.00000000E+00
  0.00000000E+00  0.00000000E+00  0.00000000E+00
  0.00000000E+00  0.00000000E+00  0.00000000E+00
  0.00000000E+00  0.00000000E+00  0.00000000E+00
  0.00000000E+00  0.00000000E+00  0.00000000E+00
  0.00000000E+00  0.00000000E+00  0.00000000E+00
  0.00000000E+00  0.00000000E+00  0.00000000E+00
  0.00000000E+00  0.00000000E+00  0.00000000E+00
  0.00000000E+00  0.00000000E+00  0.00000000E+00
  0.00000000E+00  0.00000000E+00  0.00000000E+00
  0.00000000E+00  0.00000000E+00  0.00000000E+00
  0.00000000E+00  0.00000000E+00  0.00000000E+00
  0.00000000E+00  0.00000000E+00  0.00000000E+00
  0.00000000E+00  0.00000000E+00  0.00000000E+00
  0.00000000E+00  0.00000000E+00  0.00000000E+00
  0.00000000E+00  0.00000000E+00  0.00000000E+00
  0.00000000E+00  0.00000000E+00  0.00000000E+00
  0.00000000E+00  0.00000000E+00  0.00000000E+00
  0.00000000E+00  0.00000000E+00  0.00000000E+00
  0.00000000E+00  0.00000000E+00  0.00000000E+00
  0.00000000E+00  0.00000000E+00  0.00000000E+00
  0.00000000E+00  0.00000000E+00  0.00000000E+00
  0.00000000E+00  0.00000000E+00  0.00000000E+00
  0.00000000E+00  0.00000000E+00  0.00000000E+00
  0.00000000E+00  0.00000000E+00  0.00000000E+00
  0.00000000E+00  0.00000000E+00  0.00000000E+00
  0.00000000E+00  0.00000000E+00  0.00000000E+00
  0.00000000E+00  0.00000000E+00  0.00000000E+00
  0.00000000E+00  0.00000000E+00  0.00000000E+00
  0.00000000E+00  0.00000000E+00  0.00000000E+00
  0.00000000E+00  0.00000000E+00  0.00000000E+00
  0.00000000E+00  0.00000000E+00  0.00000000E+00
  0.00000000E+00  0.00000000E+00  0.00000000E+00
  0.00000000E+00  0.00000000E+00  0.00000000E+00
  0.00000000E+00  0.00000000E+00  0.00000000E+00
  0.00000000E+00  0.00000000E+00  0.00000000E+00
  0.00000000E+00  0.00000000E+00  0.00000000E+00
  0.00000000E+00  0.00000000E+00  0.00000000E+00
  0.00000000E+00  0.00000000E+00  0.00000000E+00
  0.00000000E+00  0.00000000E+00  0.00000000E+00
  0.00000000E+00  0.00000000E+00  0.00000000E+00
  0.00000000E+00  0.00000000E+00  0.00000000E+00
  0.00000000E+00  0.00000000E+00  0.00000000E+00
  0.00000000E+00  0.00000000E+00  0.00000000E+00
  0.00000000E+00  0.00000000E+00  0.00000000E+00
  0.00000000E+00  0.00000000E+00  0.00000000E+00
  0.00000000E+00  0.00000000E+00  0.00000000E+00
  0.00000000E+00  0.00000000E+00  0.00000000E+00
  0.00000000E+00  0.00000000E+00  0.00000000E+00
  0.00000000E+00  0.00000000E+00  0.00000000E+00
