Al   O    N                             
   1.00000000000000     
    -9.6108869360530491   -0.0000077243110395   -0.0000030777612124
    -4.8054481396613804    8.3232693116519592   -0.0000365472483538
     0.0000065181789400   -0.0000337068347798   -9.2282282585024120
   Al   O    N 
    36     1    35
Direct
  0.1086159162333118  0.0918638293076484  0.3728199876765501
  0.2221339933348645  0.2053819435887405  0.1095234821250273
  0.7777645210825028  0.0941206914270509  0.8752369527706065
  0.8896669316967944  0.2053611546773695  0.6253106406252229
  0.4491700921522508  0.0918637798496178  0.3728199848112439
  0.5564803077166545  0.2067934689800097  0.1264242855743021
  0.1092064863656006  0.0924544108384069  0.8799505098947549
  0.2221339816491366  0.2053819146196361  0.6352869384055211
  0.7779164106407990  0.0938168827041395  0.3767304075417570
  0.8863761019865990  0.2067934237472002  0.1264242757219591
  0.4479890982490886  0.0924542932058969  0.8799505157470193
  0.5546217048901738  0.2053611581979524  0.6253106222615230
  0.1086158752340936  0.4324180294824345  0.3728200177469958
  0.2235455947100249  0.5397282101082155  0.1264242825105129
  0.7780468242087792  0.4274253011766547  0.8749418904201747
  0.8896668278122633  0.5378695380441556  0.6253106629361938
  0.4451483543124866  0.4283962249361650  0.3775679194300281
  0.5554672775378293  0.5387151326042101  0.1244492539653024
  0.1092063527248328  0.4312370929174421  0.8799504953728245
  0.2221132986496528  0.5378696260802158  0.6253106340677519
  0.7761051320308425  0.4283961750410228  0.3775678698032507
  0.8863760505812053  0.5397281019210354  0.1264242558544808
  0.4441774587528116  0.4274253230932672  0.8749418418529942
  0.5554672797604994  0.5387151211032872  0.6276260552245390
  0.1105690153175445  0.7611643129647518  0.3767303913232070
  0.2235455488032869  0.8696240210834389  0.1264242787813501
  0.7777644011354923  0.7610123229486518  0.8752370052139753
  0.8888005918769437  0.8720484508888191  0.6266677687697921
  0.4451483043146780  0.7593530034225040  0.3775678706494077
  0.5564801902872958  0.8696239572065778  0.1264242611019597
  0.1108728276977331  0.7610124324602978  0.8752369733732550
  0.2221132976540829  0.8729148220863934  0.6253106441849070
  0.7779163336218673  0.7611642311534652  0.3767303543969760
  0.8888005971849253  0.8720484675954339  0.1252245292839405
  0.4441774402083709  0.7612946804846388  0.8749418908212547
  0.5546216188078290  0.8729147391994090  0.6253106559027017
  0.2221339807880724  0.2053819519590974  0.3246979213684540
  0.1106798757557996  0.0939278370670849  0.0882911709221972
  0.8900921652654574  0.2045161187752882  0.8324011561332938
  0.7776347675466582  0.0943802128311191  0.5830241135232654
  0.5548056509397838  0.2064889637560725  0.3330881131238002
  0.4450422132230614  0.0939277674144776  0.0882911611825321
  0.2221340007494987  0.2053820069080956  0.8428723322381941
  0.1133390327628447  0.0965869656421958  0.5783837853165608
  0.8883552074694734  0.2064889148865063  0.3330881092585898
  0.7775483794576985  0.0945530333665943  0.0824663893034980
  0.5550415348179456  0.2045161403374962  0.8324011236122502
  0.4397238234828862  0.0965868982504787  0.5783837760538759
  0.2232410683744703  0.5380535804930631  0.3330881125480545
  0.1106798169003156  0.4282901936083405  0.0882911492999980
  0.8900920431353327  0.5382893780033626  0.8324011786254104
  0.7775137242356465  0.4276919114521078  0.5837500912783185
  0.5554672726475616  0.5387151609649337  0.3318256120380241
  0.4442953355987314  0.4275432436464612  0.0818006985378048
  0.2212682461974467  0.5382894905318594  0.8324011306614025
  0.1133389554592199  0.4229718183502698  0.5783838152779595
  0.8883551631983906  0.5380534859716519  0.3330880847387192
  0.7778111137428496  0.4275432192333852  0.0818007445850313
  0.5554672632894508  0.5387151388424485  0.8335615654975896
  0.4444440117848316  0.4276919131567070  0.5837501205953117
  0.2232410213936475  0.8716031423616286  0.3330881097652707
  0.1113051127747653  0.7607963386032068  0.0824664061481357
  0.8888005704590611  0.8720484681851062  0.8331799358959699
  0.7776346862563486  0.7608826338921446  0.5830240802598325
  0.5548055562516296  0.8716030890676905  0.3330880842692636
  0.4442953114763668  0.7610590173033316  0.0818007455071310
  0.2212682209195052  0.8733401036665356  0.8324011602229788
  0.1111322977241471  0.7608827175707447  0.5830241011006834
  0.8888005804052810  0.8720484970562126  0.3322812448088541
  0.7775482799913718  0.7607962410197260  0.0824664241224724
  0.5550414186309567  0.8733400027924461  0.8324011766650870
  0.4444440144650486  0.7607616134456094  0.5837500926472430
 
  0.00000000E+00  0.00000000E+00  0.00000000E+00
  0.00000000E+00  0.00000000E+00  0.00000000E+00
  0.00000000E+00  0.00000000E+00  0.00000000E+00
  0.00000000E+00  0.00000000E+00  0.00000000E+00
  0.00000000E+00  0.00000000E+00  0.00000000E+00
  0.00000000E+00  0.00000000E+00  0.00000000E+00
  0.00000000E+00  0.00000000E+00  0.00000000E+00
  0.00000000E+00  0.00000000E+00  0.00000000E+00
  0.00000000E+00  0.00000000E+00  0.00000000E+00
  0.00000000E+00  0.00000000E+00  0.00000000E+00
  0.00000000E+00  0.00000000E+00  0.00000000E+00
  0.00000000E+00  0.00000000E+00  0.00000000E+00
  0.00000000E+00  0.00000000E+00  0.00000000E+00
  0.00000000E+00  0.00000000E+00  0.00000000E+00
  0.00000000E+00  0.00000000E+00  0.00000000E+00
  0.00000000E+00  0.00000000E+00  0.00000000E+00
  0.00000000E+00  0.00000000E+00  0.00000000E+00
  0.00000000E+00  0.00000000E+00  0.00000000E+00
  0.00000000E+00  0.00000000E+00  0.00000000E+00
  0.00000000E+00  0.00000000E+00  0.00000000E+00
  0.00000000E+00  0.00000000E+00  0.00000000E+00
  0.00000000E+00  0.00000000E+00  0.00000000E+00
  0.00000000E+00  0.00000000E+00  0.00000000E+00
  0.00000000E+00  0.00000000E+00  0.00000000E+00
  0.00000000E+00  0.00000000E+00  0.00000000E+00
  0.00000000E+00  0.00000000E+00  0.00000000E+00
  0.00000000E+00  0.00000000E+00  0.00000000E+00
  0.00000000E+00  0.00000000E+00  0.00000000E+00
  0.00000000E+00  0.00000000E+00  0.00000000E+00
  0.00000000E+00  0.00000000E+00  0.00000000E+00
  0.00000000E+00  0.00000000E+00  0.00000000E+00
  0.00000000E+00  0.00000000E+00  0.00000000E+00
  0.00000000E+00  0.00000000E+00  0.00000000E+00
  0.00000000E+00  0.00000000E+00  0.00000000E+00
  0.00000000E+00  0.00000000E+00  0.00000000E+00
  0.00000000E+00  0.00000000E+00  0.00000000E+00
  0.00000000E+00  0.00000000E+00  0.00000000E+00
  0.00000000E+00  0.00000000E+00  0.00000000E+00
  0.00000000E+00  0.00000000E+00  0.00000000E+00
  0.00000000E+00  0.00000000E+00  0.00000000E+00
  0.00000000E+00  0.00000000E+00  0.00000000E+00
  0.00000000E+00  0.00000000E+00  0.00000000E+00
  0.00000000E+00  0.00000000E+00  0.00000000E+00
  0.00000000E+00  0.00000000E+00  0.00000000E+00
  0.00000000E+00  0.00000000E+00  0.00000000E+00
  0.00000000E+00  0.00000000E+00  0.00000000E+00
  0.00000000E+00  0.00000000E+00  0.00000000E+00
  0.00000000E+00  0.00000000E+00  0.00000000E+00
  0.00000000E+00  0.00000000E+00  0.00000000E+00
  0.00000000E+00  0.00000000E+00  0.00000000E+00
  0.00000000E+00  0.00000000E+00  0.00000000E+00
  0.00000000E+00  0.00000000E+00  0.00000000E+00
  0.00000000E+00  0.00000000E+00  0.00000000E+00
  0.00000000E+00  0.00000000E+00  0.00000000E+00
  0.00000000E+00  0.00000000E+00  0.00000000E+00
  0.00000000E+00  0.00000000E+00  0.00000000E+00
  0.00000000E+00  0.00000000E+00  0.00000000E+00
  0.00000000E+00  0.00000000E+00  0.00000000E+00
  0.00000000E+00  0.00000000E+00  0.00000000E+00
  0.00000000E+00  0.00000000E+00  0.00000000E+00
  0.00000000E+00  0.00000000E+00  0.00000000E+00
  0.00000000E+00  0.00000000E+00  0.00000000E+00
  0.00000000E+00  0.00000000E+00  0.00000000E+00
  0.00000000E+00  0.00000000E+00  0.00000000E+00
  0.00000000E+00  0.00000000E+00  0.00000000E+00
  0.00000000E+00  0.00000000E+00  0.00000000E+00
  0.00000000E+00  0.00000000E+00  0.00000000E+00
  0.00000000E+00  0.00000000E+00  0.00000000E+00
  0.00000000E+00  0.00000000E+00  0.00000000E+00
  0.00000000E+00  0.00000000E+00  0.00000000E+00
  0.00000000E+00  0.00000000E+00  0.00000000E+00
  0.00000000E+00  0.00000000E+00  0.00000000E+00
