Al   O    N                             
   1.00000000000000     
    -9.3518101186008487   -0.0000000651928314   -0.0000389263079437
    -4.6759053180540802    8.0989077904691342   -0.0000212528567679
     0.0000413167711297   -0.0000025226273074   -9.9790899618886346
   Al   O    N 
    36     1    35
Direct
  0.1072157931682867  0.0904867887527345  0.3156645197252175
  0.2221280480881447  0.2053985206542919  0.0645095740398318
  0.7778189737148296  0.0940170193290513  0.8176087170244486
  0.8876249495654065  0.2061088601495698  0.5681425908806119
  0.4519523192610535  0.0904863967219143  0.3156644944676685
  0.5555328980006706  0.2058998126254465  0.0669614558515406
  0.1105311110923992  0.0938013249518193  0.8170781740868378
  0.2221283570079748  0.2053983515431312  0.5759594517717304
  0.7777587040733138  0.0941371435269716  0.3173628291648143
  0.8882222687991543  0.2058999708344800  0.0669614973055843
  0.4453224696759932  0.0938015522533391  0.8170779886838844
  0.5559217862950021  0.2061089356817973  0.5681425638316782
  0.1072156786502845  0.4352227603080578  0.3156645092310768
  0.2226295214490719  0.5388030833713557  0.0669616161025246
  0.7775105621085814  0.4277070838216659  0.8176365491412625
  0.8876247477271448  0.5391915484458707  0.5681426027029630
  0.4448877834357461  0.4281580485139074  0.3166401274241650
  0.5554616011624347  0.5387317688527204  0.0668773939098273
  0.1105313765810934  0.4285926733805852  0.8170780798172075
  0.2228388277787943  0.5391918245745373  0.5681425760855987
  0.7766079877414001  0.4281582828245476  0.3166401740447071
  0.8882221289846868  0.5388029391619611  0.0669614545989248
  0.4444370958216481  0.4277070719175740  0.8176365600967443
  0.5554618086955259  0.5387318102660146  0.5680462660474177
  0.1108666914101448  0.7610293149782592  0.3173629188979916
  0.2226294688672468  0.8714927630808731  0.0669615383901601
  0.7778189916959874  0.7610894393913838  0.8176087617133376
  0.8887949223339149  0.8720653530419398  0.5677673491214605
  0.4448877202930461  0.7598788089721751  0.3166401569239667
  0.5555326979263526  0.8714924904498176  0.0669613556875461
  0.1107468448931215  0.7610892879912257  0.8176087843413455
  0.2228386893140168  0.8708951558415166  0.5681425869308754
  0.7777587172153630  0.7610295172804911  0.3173628073621728
  0.8887948622955477  0.8720652412496719  0.0673077538702245
  0.4444368876794016  0.7607809249757267  0.8176366278825000
  0.5559214720700680  0.8708948792623801  0.5681426013655795
  0.2221282857518858  0.2053986271608608  0.3775804382781871
  0.1119361699248884  0.0952065511104934  0.1276778899064013
  0.8892105039227474  0.2051144468936599  0.8762662783596653
  0.7776809654858994  0.0942935525361435  0.6263184983802930
  0.5540072711053767  0.2060634595431523  0.3767915242848545
  0.4425121086230561  0.0952064502773595  0.1276777230074018
  0.2221281980081216  0.2053986136762944  0.8742642494906434
  0.1111726214449149  0.0944425915623555  0.6244393348801793
  0.8895838552616055  0.2060636106290943  0.3767915447866841
  0.7775934739033943  0.0944680943854976  0.1268330378666960
  0.5553300770212815  0.2051144965268463  0.8762662573790436
  0.4440400940984688  0.0944426416044450  0.6244390776761648
  0.2227928527249432  0.5372778066897013  0.3767915423368251
  0.1119360313019939  0.4257825886834112  0.1276778852722487
  0.8892105042179139  0.5386002876317377  0.8762661756851742
  0.7776884469898349  0.4276185413873748  0.6265993531865774
  0.5554610558289923  0.5387319332735956  0.3767793947611082
  0.4443521682878142  0.4276226354756929  0.1263254613467879
  0.2218441871792436  0.5386004134176332  0.8762663251855329
  0.1111725084860069  0.4273103793355801  0.6244392094576980
  0.8895835682264703  0.5372778822287145  0.3767915105685091
  0.7776799013276303  0.4276226938681589  0.1263255772101957
  0.5554614704168657  0.5387318601475073  0.8763581417657278
  0.4443482063117656  0.4276186409166414  0.6265992719894484
  0.2227930029915086  0.8728544672779535  0.3767915578099732
  0.1111978721552944  0.7608637000468974  0.1268331733994970
  0.8887951527822580  0.8720650094542393  0.8765262584107134
  0.7776808602777905  0.7609508223258672  0.6263184900813386
  0.5540073054890655  0.8728541072420057  0.3767915272211582
  0.4443522070517574  0.7609503048922051  0.1263254780838992
  0.2218441834179004  0.8724806850865008  0.8762663270627158
  0.1110234711706255  0.7609509981958809  0.6263185400400602
  0.8887949257315313  0.8720650897727893  0.3765963208998926
  0.7775933417881760  0.7608636125740063  0.1268329981901104
  0.5553300414301319  0.8724806333351793  0.8762661695137410
  0.4443482569396693  0.7609585504858103  0.6265993334405024
 
  0.00000000E+00  0.00000000E+00  0.00000000E+00
  0.00000000E+00  0.00000000E+00  0.00000000E+00
  0.00000000E+00  0.00000000E+00  0.00000000E+00
  0.00000000E+00  0.00000000E+00  0.00000000E+00
  0.00000000E+00  0.00000000E+00  0.00000000E+00
  0.00000000E+00  0.00000000E+00  0.00000000E+00
  0.00000000E+00  0.00000000E+00  0.00000000E+00
  0.00000000E+00  0.00000000E+00  0.00000000E+00
  0.00000000E+00  0.00000000E+00  0.00000000E+00
  0.00000000E+00  0.00000000E+00  0.00000000E+00
  0.00000000E+00  0.00000000E+00  0.00000000E+00
  0.00000000E+00  0.00000000E+00  0.00000000E+00
  0.00000000E+00  0.00000000E+00  0.00000000E+00
  0.00000000E+00  0.00000000E+00  0.00000000E+00
  0.00000000E+00  0.00000000E+00  0.00000000E+00
  0.00000000E+00  0.00000000E+00  0.00000000E+00
  0.00000000E+00  0.00000000E+00  0.00000000E+00
  0.00000000E+00  0.00000000E+00  0.00000000E+00
  0.00000000E+00  0.00000000E+00  0.00000000E+00
  0.00000000E+00  0.00000000E+00  0.00000000E+00
  0.00000000E+00  0.00000000E+00  0.00000000E+00
  0.00000000E+00  0.00000000E+00  0.00000000E+00
  0.00000000E+00  0.00000000E+00  0.00000000E+00
  0.00000000E+00  0.00000000E+00  0.00000000E+00
  0.00000000E+00  0.00000000E+00  0.00000000E+00
  0.00000000E+00  0.00000000E+00  0.00000000E+00
  0.00000000E+00  0.00000000E+00  0.00000000E+00
  0.00000000E+00  0.00000000E+00  0.00000000E+00
  0.00000000E+00  0.00000000E+00  0.00000000E+00
  0.00000000E+00  0.00000000E+00  0.00000000E+00
  0.00000000E+00  0.00000000E+00  0.00000000E+00
  0.00000000E+00  0.00000000E+00  0.00000000E+00
  0.00000000E+00  0.00000000E+00  0.00000000E+00
  0.00000000E+00  0.00000000E+00  0.00000000E+00
  0.00000000E+00  0.00000000E+00  0.00000000E+00
  0.00000000E+00  0.00000000E+00  0.00000000E+00
  0.00000000E+00  0.00000000E+00  0.00000000E+00
  0.00000000E+00  0.00000000E+00  0.00000000E+00
  0.00000000E+00  0.00000000E+00  0.00000000E+00
  0.00000000E+00  0.00000000E+00  0.00000000E+00
  0.00000000E+00  0.00000000E+00  0.00000000E+00
  0.00000000E+00  0.00000000E+00  0.00000000E+00
  0.00000000E+00  0.00000000E+00  0.00000000E+00
  0.00000000E+00  0.00000000E+00  0.00000000E+00
  0.00000000E+00  0.00000000E+00  0.00000000E+00
  0.00000000E+00  0.00000000E+00  0.00000000E+00
  0.00000000E+00  0.00000000E+00  0.00000000E+00
  0.00000000E+00  0.00000000E+00  0.00000000E+00
  0.00000000E+00  0.00000000E+00  0.00000000E+00
  0.00000000E+00  0.00000000E+00  0.00000000E+00
  0.00000000E+00  0.00000000E+00  0.00000000E+00
  0.00000000E+00  0.00000000E+00  0.00000000E+00
  0.00000000E+00  0.00000000E+00  0.00000000E+00
  0.00000000E+00  0.00000000E+00  0.00000000E+00
  0.00000000E+00  0.00000000E+00  0.00000000E+00
  0.00000000E+00  0.00000000E+00  0.00000000E+00
  0.00000000E+00  0.00000000E+00  0.00000000E+00
  0.00000000E+00  0.00000000E+00  0.00000000E+00
  0.00000000E+00  0.00000000E+00  0.00000000E+00
  0.00000000E+00  0.00000000E+00  0.00000000E+00
  0.00000000E+00  0.00000000E+00  0.00000000E+00
  0.00000000E+00  0.00000000E+00  0.00000000E+00
  0.00000000E+00  0.00000000E+00  0.00000000E+00
  0.00000000E+00  0.00000000E+00  0.00000000E+00
  0.00000000E+00  0.00000000E+00  0.00000000E+00
  0.00000000E+00  0.00000000E+00  0.00000000E+00
  0.00000000E+00  0.00000000E+00  0.00000000E+00
  0.00000000E+00  0.00000000E+00  0.00000000E+00
  0.00000000E+00  0.00000000E+00  0.00000000E+00
  0.00000000E+00  0.00000000E+00  0.00000000E+00
  0.00000000E+00  0.00000000E+00  0.00000000E+00
  0.00000000E+00  0.00000000E+00  0.00000000E+00
