Al   O    N                             
   1.00000000000000     
    -9.6602883208041526   -0.0000073211995549   -0.0000049645268299
    -4.8301485773134409    8.3660525031021233   -0.0000357422803756
     0.0000074094243016   -0.0000319047488464   -9.0724589308500274
   Al   O    N 
    36     1    35
Direct
  0.1088608769116988  0.0921087773041478  0.3695452415760911
  0.2221340034495398  0.2053819784785134  0.1060935178339975
  0.7777725812665537  0.0941045767324908  0.8727194443819499
  0.8898600536997279  0.2052991820885595  0.6227073420732196
  0.4486802033023878  0.0921086858602891  0.3695452436923929
  0.5565204598174915  0.2068744599685459  0.1242620027515144
  0.1090351099449762  0.0922830221923476  0.8782067273525911
  0.2221339761177816  0.2053819248161162  0.6343422103146636
  0.7779156698166787  0.0938183693123236  0.3744577512255702
  0.8862549933629182  0.2068743816777001  0.1242620054876511
  0.4483319007643374  0.0922828634998609  0.8782067280803147
  0.5544905724136058  0.2052991531336517  0.6227073366053091
  0.1088607865829232  0.4319281484724797  0.3695452783083510
  0.2236265915444520  0.5397683667681221  0.1242619951884620
  0.7780967540793853  0.4274003103664938  0.8723929606614860
  0.8898599150337390  0.5377384371103773  0.6227073804982197
  0.4451621398558174  0.4284100039363992  0.3753245629142512
  0.5554672662903144  0.5387151219100019  0.1219267625986760
  0.1090349261221419  0.4315799074365785  0.8782067048621869
  0.2220512821604359  0.5377385148638467  0.6227073489900476
  0.7760775177921388  0.4284099902259513  0.3753245025259346
  0.8862549244222535  0.5397682110167210  0.1242619653887473
  0.4441524937161745  0.4274003393424550  0.8723928930791445
  0.5554672674088295  0.5387151089246274  0.6254109359815061
  0.1105704992134591  0.7611635778952603  0.3744577285039625
  0.2236265041593981  0.8695029327683415  0.1242620066816187
  0.7777724550634062  0.7610203775000883  0.8727195272168515
  0.8888005845812401  0.8720484652084295  0.6243263997521069
  0.4451621316911059  0.7593253711988837  0.3753244987758109
  0.5565202828113769  0.8695028551587924  0.1242619734636889
  0.1108567162358227  0.7610204942247165  0.8727194696369480
  0.2220513216812563  0.8731079480083395  0.6227073468168882
  0.7779155941288707  0.7611634947540580  0.3744576706200249
  0.8888005832838530  0.8720484694519328  0.1227916085287291
  0.4441524656199292  0.7613445963212797  0.8723929644198734
  0.5544905012966410  0.8731078340877403  0.6227073741642997
  0.2221339958701023  0.2053819783039188  0.3260956031922362
  0.1107298682539835  0.0939778307698091  0.0913549651066745
  0.8902406667574851  0.2044296742827569  0.8346918738195725
  0.7776243823400222  0.0944010118092748  0.5855153986752981
  0.5549117516053883  0.2065162043075119  0.3356044397427098
  0.4449422711086086  0.0939777509319057  0.0913549426214502
  0.2221340105294232  0.2053820300797398  0.8463159589278177
  0.1135449308890060  0.0967928493009680  0.5801342608480908
  0.8882218545801237  0.2065161800408859  0.3356044416195871
  0.7775329615988156  0.0945838896320339  0.0847659836719714
  0.5549794968423996  0.2044296823515097  0.8346918480039420
  0.4393120747670736  0.0967927513427114  0.5801342665413500
  0.2232683056072275  0.5381596900397341  0.3356044324597818
  0.1107297961860993  0.4281902667705211  0.0913549265132758
  0.8902404997970876  0.5382273412129166  0.8346919107403110
  0.7775129598250032  0.4276923066101901  0.5862883926764439
  0.5554672690420119  0.5387151499204492  0.3341497139609757
  0.4442917943315123  0.4275396926984172  0.0840147161346749
  0.2211817961044744  0.5382274568026020  0.8346918575380542
  0.1135448170782212  0.4225600731928694  0.5801343046683698
  0.8882217958170457  0.5381596062388496  0.3356043908790980
  0.7778182050959543  0.4275396562653668  0.0840147757932428
  0.5554672661806279  0.5387151351351633  0.8359986044610110
  0.4444443816491628  0.4276922859621308  0.5862884371637733
  0.2232682921911220  0.8714697803138876  0.3356044372063351
  0.1113359832957102  0.7607809111189212  0.0847660048257524
  0.8888005748642982  0.8720484647703302  0.8355935961701633
  0.7776242971971996  0.7608722437254727  0.5855153440316272
  0.5549116774195184  0.8714697114644139  0.3356043928747781
  0.4442917604523728  0.7610660938214835  0.0840147785687293
  0.2211817898393491  0.8734885942550363  0.8346918803434704
  0.1111530992304495  0.7608723332820873  0.5855153802401887
  0.8888005899952773  0.8720485032548311  0.3346410801290531
  0.7775328435759761  0.7607807936054698  0.0847660363030798
  0.5549793805051522  0.8734884549991477  0.8346919087713900
  0.4444444166278743  0.7607608318392494  0.5862883917589912
 
  0.00000000E+00  0.00000000E+00  0.00000000E+00
  0.00000000E+00  0.00000000E+00  0.00000000E+00
  0.00000000E+00  0.00000000E+00  0.00000000E+00
  0.00000000E+00  0.00000000E+00  0.00000000E+00
  0.00000000E+00  0.00000000E+00  0.00000000E+00
  0.00000000E+00  0.00000000E+00  0.00000000E+00
  0.00000000E+00  0.00000000E+00  0.00000000E+00
  0.00000000E+00  0.00000000E+00  0.00000000E+00
  0.00000000E+00  0.00000000E+00  0.00000000E+00
  0.00000000E+00  0.00000000E+00  0.00000000E+00
  0.00000000E+00  0.00000000E+00  0.00000000E+00
  0.00000000E+00  0.00000000E+00  0.00000000E+00
  0.00000000E+00  0.00000000E+00  0.00000000E+00
  0.00000000E+00  0.00000000E+00  0.00000000E+00
  0.00000000E+00  0.00000000E+00  0.00000000E+00
  0.00000000E+00  0.00000000E+00  0.00000000E+00
  0.00000000E+00  0.00000000E+00  0.00000000E+00
  0.00000000E+00  0.00000000E+00  0.00000000E+00
  0.00000000E+00  0.00000000E+00  0.00000000E+00
  0.00000000E+00  0.00000000E+00  0.00000000E+00
  0.00000000E+00  0.00000000E+00  0.00000000E+00
  0.00000000E+00  0.00000000E+00  0.00000000E+00
  0.00000000E+00  0.00000000E+00  0.00000000E+00
  0.00000000E+00  0.00000000E+00  0.00000000E+00
  0.00000000E+00  0.00000000E+00  0.00000000E+00
  0.00000000E+00  0.00000000E+00  0.00000000E+00
  0.00000000E+00  0.00000000E+00  0.00000000E+00
  0.00000000E+00  0.00000000E+00  0.00000000E+00
  0.00000000E+00  0.00000000E+00  0.00000000E+00
  0.00000000E+00  0.00000000E+00  0.00000000E+00
  0.00000000E+00  0.00000000E+00  0.00000000E+00
  0.00000000E+00  0.00000000E+00  0.00000000E+00
  0.00000000E+00  0.00000000E+00  0.00000000E+00
  0.00000000E+00  0.00000000E+00  0.00000000E+00
  0.00000000E+00  0.00000000E+00  0.00000000E+00
  0.00000000E+00  0.00000000E+00  0.00000000E+00
  0.00000000E+00  0.00000000E+00  0.00000000E+00
  0.00000000E+00  0.00000000E+00  0.00000000E+00
  0.00000000E+00  0.00000000E+00  0.00000000E+00
  0.00000000E+00  0.00000000E+00  0.00000000E+00
  0.00000000E+00  0.00000000E+00  0.00000000E+00
  0.00000000E+00  0.00000000E+00  0.00000000E+00
  0.00000000E+00  0.00000000E+00  0.00000000E+00
  0.00000000E+00  0.00000000E+00  0.00000000E+00
  0.00000000E+00  0.00000000E+00  0.00000000E+00
  0.00000000E+00  0.00000000E+00  0.00000000E+00
  0.00000000E+00  0.00000000E+00  0.00000000E+00
  0.00000000E+00  0.00000000E+00  0.00000000E+00
  0.00000000E+00  0.00000000E+00  0.00000000E+00
  0.00000000E+00  0.00000000E+00  0.00000000E+00
  0.00000000E+00  0.00000000E+00  0.00000000E+00
  0.00000000E+00  0.00000000E+00  0.00000000E+00
  0.00000000E+00  0.00000000E+00  0.00000000E+00
  0.00000000E+00  0.00000000E+00  0.00000000E+00
  0.00000000E+00  0.00000000E+00  0.00000000E+00
  0.00000000E+00  0.00000000E+00  0.00000000E+00
  0.00000000E+00  0.00000000E+00  0.00000000E+00
  0.00000000E+00  0.00000000E+00  0.00000000E+00
  0.00000000E+00  0.00000000E+00  0.00000000E+00
  0.00000000E+00  0.00000000E+00  0.00000000E+00
  0.00000000E+00  0.00000000E+00  0.00000000E+00
  0.00000000E+00  0.00000000E+00  0.00000000E+00
  0.00000000E+00  0.00000000E+00  0.00000000E+00
  0.00000000E+00  0.00000000E+00  0.00000000E+00
  0.00000000E+00  0.00000000E+00  0.00000000E+00
  0.00000000E+00  0.00000000E+00  0.00000000E+00
  0.00000000E+00  0.00000000E+00  0.00000000E+00
  0.00000000E+00  0.00000000E+00  0.00000000E+00
  0.00000000E+00  0.00000000E+00  0.00000000E+00
  0.00000000E+00  0.00000000E+00  0.00000000E+00
  0.00000000E+00  0.00000000E+00  0.00000000E+00
  0.00000000E+00  0.00000000E+00  0.00000000E+00
