Al   O    N                             
   1.00000000000000     
    -9.8731113102917902   -0.0000049025306471   -0.0000162851205345
    -4.9365574514144370    8.5503632435314785   -0.0000309124725063
     0.0000144221703551   -0.0000219338009584   -8.3978127689320026
   Al   O    N 
    36     1    35
Direct
  0.1089505987095905  0.0921986189508246  0.3533688697583131
  0.2221339355804091  0.2053821547153021  0.0853856005281912
  0.7779152134466827  0.0938194566048551  0.8527363469006630
  0.8874572830527470  0.2063663497388788  0.6014467043017291
  0.4485008149653638  0.0921983074167159  0.3533689146855963
  0.5548869325462675  0.2058844134563103  0.1027595973811515
  0.1094750340385175  0.0927230734361331  0.8487883946997812
  0.2221339536221834  0.2053821803612621  0.6136852863892699
  0.7778145792657725  0.0940206763280855  0.3519190670082537
  0.8888784598266000  0.2058845472984885  0.1027596175615955
  0.4474519036906983  0.0927228619523603  0.8487883587114240
  0.5558263056896777  0.2063663886947253  0.6014467303957289
  0.1089502116689829  0.4317490572528513  0.3533689233098158
  0.2226363548877970  0.5381350965070624  0.1027595844970079
  0.7778295222214098  0.4275340775057401  0.8527132185766249
  0.8874570628008271  0.5390742708097562  0.6014467697305292
  0.4449221339583502  0.4281702006417305  0.3516755426849514
  0.5554672164344510  0.5387152132405006  0.1012336216692233
  0.1094747680305161  0.4307001218269590  0.8487883452611342
  0.2231183631856055  0.5390744370594405  0.6014467401323955
  0.7765571525089356  0.4281703454378345  0.3516755840116161
  0.8888782232498045  0.5381350719099416  0.1027595513597390
  0.4442860322771907  0.4275340667355252  0.8527132653103138
  0.5554672214877598  0.5387152185597088  0.6033249741998716
  0.1107725998248412  0.7610627132169725  0.3519190790371738
  0.2226365343835752  0.8721265130125744  0.1027596125466630
  0.7779151145192529  0.7611632437198423  0.8527362574187762
  0.8888005786237940  0.8720486565826064  0.6025317412407247
  0.4449223289465039  0.7598051172201252  0.3516755927232751
  0.5548869306192685  0.8721263111149895  0.1027595594237880
  0.1105713885595776  0.7611633449260253  0.8527363304424256
  0.2231183338214180  0.8707053684311035  0.6014467089492896
  0.7778145329711919  0.7610626559322569  0.3519191371116079
  0.8888005887278396  0.8720486783344583  0.1022659437092486
  0.4442860632976675  0.7610775141990231  0.8527132089481881
  0.5558261330931416  0.8707051840241036  0.6014467634205047
  0.2221339129606648  0.2053821081784335  0.3640396508450152
  0.1132542780216568  0.0965023549361774  0.1122238939262559
  0.8901472801286374  0.2044740695435223  0.8567875634790383
  0.7775464755713912  0.0945569187667559  0.6064742290888461
  0.5549615582146075  0.2060226983411440  0.3565040942071533
  0.4398933258163567  0.0965021665831927  0.1122239030029348
  0.2221339450058508  0.2053821369915170  0.8530073568098473
  0.1119763318479059  0.0952244280566958  0.6020918767980774
  0.8886654681289059  0.2060228233048420  0.3565040920277056
  0.7774996379479759  0.0946505944426690  0.1065615685335715
  0.5550285355226734  0.2044740154283460  0.8567875443846305
  0.4424492635286228  0.0952242791809041  0.6020918674895128
  0.2227746740173728  0.5382096920960180  0.3565041035216936
  0.1132540596219442  0.4231415348657706  0.1122239081715861
  0.8901470668037632  0.5382765700964001  0.8567875387988337
  0.7776444811459697  0.4276265886798001  0.6071445371866204
  0.5554671905928075  0.5387151395958583  0.3565544070113660
  0.4443291814315131  0.4275772335945192  0.1059466493242311
  0.2212259957808129  0.5382766576494191  0.8567875409024168
  0.1119761537095272  0.4256974884022782  0.6020918728977733
  0.8886652281401055  0.5382096920880173  0.3565041320619358
  0.7777431495929363  0.4275773193921921  0.1059466639433069
  0.5554672201811783  0.5387151888019872  0.8564686361280707
  0.4443785634456603  0.4276265882067563  0.6071445377820837
  0.2227748338363256  0.8719135056687648  0.3565040985237147
  0.1114024947484253  0.7607477912998917  0.1065615709082905
  0.8888005586803374  0.8720486203439748  0.8564731187137582
  0.7775463746265174  0.7607945113891645  0.6064742458249199
  0.5549615807604695  0.8719133001376136  0.3565041287493642
  0.4443292967880481  0.7609911366262665  0.1059466676863323
  0.2212260746214341  0.8733953322923327  0.8567875608816280
  0.1113088384979548  0.7607946169603750  0.6064742310087325
  0.8888005653787587  0.8720486326521879  0.3564777413658149
  0.7774995817251309  0.7607477224800689  0.1065615690299282
  0.5550284571718436  0.8733951499828763  0.8567875405425411
  0.4443785756698233  0.7608924779390236  0.6071445344298994
 
  0.00000000E+00  0.00000000E+00  0.00000000E+00
  0.00000000E+00  0.00000000E+00  0.00000000E+00
  0.00000000E+00  0.00000000E+00  0.00000000E+00
  0.00000000E+00  0.00000000E+00  0.00000000E+00
  0.00000000E+00  0.00000000E+00  0.00000000E+00
  0.00000000E+00  0.00000000E+00  0.00000000E+00
  0.00000000E+00  0.00000000E+00  0.00000000E+00
  0.00000000E+00  0.00000000E+00  0.00000000E+00
  0.00000000E+00  0.00000000E+00  0.00000000E+00
  0.00000000E+00  0.00000000E+00  0.00000000E+00
  0.00000000E+00  0.00000000E+00  0.00000000E+00
  0.00000000E+00  0.00000000E+00  0.00000000E+00
  0.00000000E+00  0.00000000E+00  0.00000000E+00
  0.00000000E+00  0.00000000E+00  0.00000000E+00
  0.00000000E+00  0.00000000E+00  0.00000000E+00
  0.00000000E+00  0.00000000E+00  0.00000000E+00
  0.00000000E+00  0.00000000E+00  0.00000000E+00
  0.00000000E+00  0.00000000E+00  0.00000000E+00
  0.00000000E+00  0.00000000E+00  0.00000000E+00
  0.00000000E+00  0.00000000E+00  0.00000000E+00
  0.00000000E+00  0.00000000E+00  0.00000000E+00
  0.00000000E+00  0.00000000E+00  0.00000000E+00
  0.00000000E+00  0.00000000E+00  0.00000000E+00
  0.00000000E+00  0.00000000E+00  0.00000000E+00
  0.00000000E+00  0.00000000E+00  0.00000000E+00
  0.00000000E+00  0.00000000E+00  0.00000000E+00
  0.00000000E+00  0.00000000E+00  0.00000000E+00
  0.00000000E+00  0.00000000E+00  0.00000000E+00
  0.00000000E+00  0.00000000E+00  0.00000000E+00
  0.00000000E+00  0.00000000E+00  0.00000000E+00
  0.00000000E+00  0.00000000E+00  0.00000000E+00
  0.00000000E+00  0.00000000E+00  0.00000000E+00
  0.00000000E+00  0.00000000E+00  0.00000000E+00
  0.00000000E+00  0.00000000E+00  0.00000000E+00
  0.00000000E+00  0.00000000E+00  0.00000000E+00
  0.00000000E+00  0.00000000E+00  0.00000000E+00
  0.00000000E+00  0.00000000E+00  0.00000000E+00
  0.00000000E+00  0.00000000E+00  0.00000000E+00
  0.00000000E+00  0.00000000E+00  0.00000000E+00
  0.00000000E+00  0.00000000E+00  0.00000000E+00
  0.00000000E+00  0.00000000E+00  0.00000000E+00
  0.00000000E+00  0.00000000E+00  0.00000000E+00
  0.00000000E+00  0.00000000E+00  0.00000000E+00
  0.00000000E+00  0.00000000E+00  0.00000000E+00
  0.00000000E+00  0.00000000E+00  0.00000000E+00
  0.00000000E+00  0.00000000E+00  0.00000000E+00
  0.00000000E+00  0.00000000E+00  0.00000000E+00
  0.00000000E+00  0.00000000E+00  0.00000000E+00
  0.00000000E+00  0.00000000E+00  0.00000000E+00
  0.00000000E+00  0.00000000E+00  0.00000000E+00
  0.00000000E+00  0.00000000E+00  0.00000000E+00
  0.00000000E+00  0.00000000E+00  0.00000000E+00
  0.00000000E+00  0.00000000E+00  0.00000000E+00
  0.00000000E+00  0.00000000E+00  0.00000000E+00
  0.00000000E+00  0.00000000E+00  0.00000000E+00
  0.00000000E+00  0.00000000E+00  0.00000000E+00
  0.00000000E+00  0.00000000E+00  0.00000000E+00
  0.00000000E+00  0.00000000E+00  0.00000000E+00
  0.00000000E+00  0.00000000E+00  0.00000000E+00
  0.00000000E+00  0.00000000E+00  0.00000000E+00
  0.00000000E+00  0.00000000E+00  0.00000000E+00
  0.00000000E+00  0.00000000E+00  0.00000000E+00
  0.00000000E+00  0.00000000E+00  0.00000000E+00
  0.00000000E+00  0.00000000E+00  0.00000000E+00
  0.00000000E+00  0.00000000E+00  0.00000000E+00
  0.00000000E+00  0.00000000E+00  0.00000000E+00
  0.00000000E+00  0.00000000E+00  0.00000000E+00
  0.00000000E+00  0.00000000E+00  0.00000000E+00
  0.00000000E+00  0.00000000E+00  0.00000000E+00
  0.00000000E+00  0.00000000E+00  0.00000000E+00
  0.00000000E+00  0.00000000E+00  0.00000000E+00
  0.00000000E+00  0.00000000E+00  0.00000000E+00
