Al   O    N                             
   1.00000000000000     
    -9.3540643312495693   -0.0000097398684627    0.0000063560668748
    -4.6770399483592833    8.1008527249686768   -0.0000405720882448
    -0.0000065106462706   -0.0000521508715011   -9.9731680785232548
   Al   O    N 
    36     1    35
Direct
  0.1072333953354132  0.0904721660446342  0.3887893419825090
  0.2221365266946549  0.2053745786021679  0.1284956135941826
  0.7778258445272144  0.0939956710902763  0.8868697343039713
  0.8882480922364380  0.2058692276541265  0.6375191853389026
  0.4519420093061655  0.0904717479457489  0.3887893680471137
  0.5559341953616013  0.2060907626684099  0.1363473978108942
  0.1105327522745441  0.0937708500715146  0.8874441079960107
  0.2221362347588567  0.2053747696609136  0.6400291294398386
  0.7777683414561380  0.0941105324049971  0.3871276863623621
  0.8876232514643334  0.2060907776747740  0.1363473392815777
  0.4453437253408268  0.0937711280011939  0.8874442527223820
  0.5555304696438270  0.2058690730611303  0.6375191390425172
  0.1072331614364117  0.4351804389433838  0.3887893324538254
  0.2228526184310553  0.5391721911802136  0.1363473730383333
  0.7775272723911186  0.4276791495107588  0.8868403032863128
  0.8882479772370502  0.5387685995143769  0.6375192418542213
  0.4448973961695089  0.4281358833088120  0.3878529718884849
  0.5554699615241603  0.5387080372092896  0.1364269603650854
  0.1105329207296322  0.4285820839383589  0.8874442055819998
  0.2226307089029120  0.5387687256246991  0.6375190712297609
  0.7766131742814366  0.4281361163897657  0.3878529191048727
  0.8876231385934545  0.5391719565070900  0.1363473433008195
  0.4444408342543369  0.4276790992276105  0.8868402861447819
  0.5554697975154212  0.5387080678264340  0.6376177833369638
  0.1108723183112374  0.7610067308081483  0.3871276522509106
  0.2228526092115644  0.8708612796382909  0.1363473435603666
  0.7778259224509725  0.7610643521489067  0.8868697044762897
  0.8888031706793456  0.8720413089506565  0.6371828990492858
  0.4448974606397158  0.7598519743911538  0.3878529012242780
  0.5559341003721343  0.8708609983898015  0.1363473666180184
  0.1107575719192724  0.7610641195646437  0.8868696571326709
  0.2226308049105299  0.8714864470934955  0.6375190627610365
  0.7777683885137705  0.7610069412209555  0.3871276827982086
  0.8888033304895373  0.8720412568326168  0.1367119775815766
  0.4444407808808748  0.7607657125849769  0.8868402655689067
  0.5555304157973069  0.8714861903516606  0.6375191784079561
  0.2221365600491225  0.2053747644849224  0.3269310264169150
  0.1111747978242263  0.0944128248569811  0.0801660533025554
  0.8892268170797806  0.2050844488336949  0.8283072896444423
  0.7776018918991880  0.0944439202945020  0.5777443134790232
  0.5540245220169950  0.2060457015316146  0.3277829269057335
  0.4440602206009103  0.0944128400297117  0.0801662597192347
  0.2221363400856262  0.2053747242459991  0.8303736615721107
  0.1119560873672683  0.0951945420319689  0.5768713880167766
  0.8895770246689807  0.2060459083030821  0.3277828562464364
  0.7776882831570404  0.0942714665347424  0.0782512391634071
  0.5553361876330030  0.2050844898794821  0.8283072167522718
  0.4424968315819555  0.0951944410740850  0.5768714697099284
  0.2228072584581824  0.5372628659510852  0.3277829023122436
  0.1111748098026268  0.4272982666250300  0.0801661816998376
  0.8892268616197683  0.5385744590721515  0.8283073402465391
  0.7776849737449822  0.4276004371399935  0.5782542024526336
  0.5554693166149463  0.5387080168795322  0.3277866404700873
  0.4443571392318759  0.4275953046455854  0.0779681928739677
  0.2218462095891240  0.5385745208590365  0.8283071535012141
  0.1119560144514438  0.4257352643472530  0.5768714063828710
  0.8895768059916875  0.5372629061609331  0.3277828658108533
  0.7776953355436120  0.4275952891847368  0.0779681819668738
  0.5554696154492618  0.5387080299008815  0.8282218981132772
  0.4443620315842338  0.4276003821851191  0.5782542341388748
  0.2228073425309773  0.8728156281118444  0.3277828565912060
  0.1110334680629137  0.7609262698404535  0.0782511589623240
  0.8888032496468696  0.8720413262529050  0.8280513273104262
  0.7776018252880235  0.7608400549902541  0.5777442894323528
  0.5540245339318872  0.8728152714567301  0.3277828886935978
  0.4443570967239197  0.7609335092058416  0.0779681676301394
  0.2218461945889985  0.8724650703677170  0.8283071415804812
  0.1112056700764299  0.7608401419582265  0.5777442608794701
  0.8888031806647874  0.8720413253866255  0.3279728233467551
  0.7776882246862016  0.7609261796761331  0.0782511783673741
  0.5553361494824927  0.8724651113719801  0.8283072625085879
  0.4443620372851171  0.7609233687200359  0.5782541538385146
 
  0.00000000E+00  0.00000000E+00  0.00000000E+00
  0.00000000E+00  0.00000000E+00  0.00000000E+00
  0.00000000E+00  0.00000000E+00  0.00000000E+00
  0.00000000E+00  0.00000000E+00  0.00000000E+00
  0.00000000E+00  0.00000000E+00  0.00000000E+00
  0.00000000E+00  0.00000000E+00  0.00000000E+00
  0.00000000E+00  0.00000000E+00  0.00000000E+00
  0.00000000E+00  0.00000000E+00  0.00000000E+00
  0.00000000E+00  0.00000000E+00  0.00000000E+00
  0.00000000E+00  0.00000000E+00  0.00000000E+00
  0.00000000E+00  0.00000000E+00  0.00000000E+00
  0.00000000E+00  0.00000000E+00  0.00000000E+00
  0.00000000E+00  0.00000000E+00  0.00000000E+00
  0.00000000E+00  0.00000000E+00  0.00000000E+00
  0.00000000E+00  0.00000000E+00  0.00000000E+00
  0.00000000E+00  0.00000000E+00  0.00000000E+00
  0.00000000E+00  0.00000000E+00  0.00000000E+00
  0.00000000E+00  0.00000000E+00  0.00000000E+00
  0.00000000E+00  0.00000000E+00  0.00000000E+00
  0.00000000E+00  0.00000000E+00  0.00000000E+00
  0.00000000E+00  0.00000000E+00  0.00000000E+00
  0.00000000E+00  0.00000000E+00  0.00000000E+00
  0.00000000E+00  0.00000000E+00  0.00000000E+00
  0.00000000E+00  0.00000000E+00  0.00000000E+00
  0.00000000E+00  0.00000000E+00  0.00000000E+00
  0.00000000E+00  0.00000000E+00  0.00000000E+00
  0.00000000E+00  0.00000000E+00  0.00000000E+00
  0.00000000E+00  0.00000000E+00  0.00000000E+00
  0.00000000E+00  0.00000000E+00  0.00000000E+00
  0.00000000E+00  0.00000000E+00  0.00000000E+00
  0.00000000E+00  0.00000000E+00  0.00000000E+00
  0.00000000E+00  0.00000000E+00  0.00000000E+00
  0.00000000E+00  0.00000000E+00  0.00000000E+00
  0.00000000E+00  0.00000000E+00  0.00000000E+00
  0.00000000E+00  0.00000000E+00  0.00000000E+00
  0.00000000E+00  0.00000000E+00  0.00000000E+00
  0.00000000E+00  0.00000000E+00  0.00000000E+00
  0.00000000E+00  0.00000000E+00  0.00000000E+00
  0.00000000E+00  0.00000000E+00  0.00000000E+00
  0.00000000E+00  0.00000000E+00  0.00000000E+00
  0.00000000E+00  0.00000000E+00  0.00000000E+00
  0.00000000E+00  0.00000000E+00  0.00000000E+00
  0.00000000E+00  0.00000000E+00  0.00000000E+00
  0.00000000E+00  0.00000000E+00  0.00000000E+00
  0.00000000E+00  0.00000000E+00  0.00000000E+00
  0.00000000E+00  0.00000000E+00  0.00000000E+00
  0.00000000E+00  0.00000000E+00  0.00000000E+00
  0.00000000E+00  0.00000000E+00  0.00000000E+00
  0.00000000E+00  0.00000000E+00  0.00000000E+00
  0.00000000E+00  0.00000000E+00  0.00000000E+00
  0.00000000E+00  0.00000000E+00  0.00000000E+00
  0.00000000E+00  0.00000000E+00  0.00000000E+00
  0.00000000E+00  0.00000000E+00  0.00000000E+00
  0.00000000E+00  0.00000000E+00  0.00000000E+00
  0.00000000E+00  0.00000000E+00  0.00000000E+00
  0.00000000E+00  0.00000000E+00  0.00000000E+00
  0.00000000E+00  0.00000000E+00  0.00000000E+00
  0.00000000E+00  0.00000000E+00  0.00000000E+00
  0.00000000E+00  0.00000000E+00  0.00000000E+00
  0.00000000E+00  0.00000000E+00  0.00000000E+00
  0.00000000E+00  0.00000000E+00  0.00000000E+00
  0.00000000E+00  0.00000000E+00  0.00000000E+00
  0.00000000E+00  0.00000000E+00  0.00000000E+00
  0.00000000E+00  0.00000000E+00  0.00000000E+00
  0.00000000E+00  0.00000000E+00  0.00000000E+00
  0.00000000E+00  0.00000000E+00  0.00000000E+00
  0.00000000E+00  0.00000000E+00  0.00000000E+00
  0.00000000E+00  0.00000000E+00  0.00000000E+00
  0.00000000E+00  0.00000000E+00  0.00000000E+00
  0.00000000E+00  0.00000000E+00  0.00000000E+00
  0.00000000E+00  0.00000000E+00  0.00000000E+00
  0.00000000E+00  0.00000000E+00  0.00000000E+00
