Al   O    N                             
   1.00000000000000     
    -9.5592986394523738   -0.0000020807502546   -0.0000294924798565
    -4.7796510086190773    8.2785953716430640   -0.0000252776966589
     0.0000241026748129   -0.0000179825312293   -9.3876060731094828
   Al   O    N 
    36     1    35
Direct
  0.1083201051413809  0.0915680713968001  0.3327147887684561
  0.2221339213433922  0.2053820863343816  0.0727534823185110
  0.7777649695487838  0.0941198134073247  0.8312105151733462
  0.8865789525781693  0.2066713973859322  0.5804258193025831
  0.4497617119609316  0.0915680069480729  0.3327148203171433
  0.5547899900517308  0.2054544661196687  0.0810323557214758
  0.1094568003126852  0.0927048262928025  0.8274012221604892
  0.2221339192247953  0.2053820899012067  0.5954369400206261
  0.7779057846755606  0.0938381672923043  0.3300033463322194
  0.8894053410671177  0.2054544836910637  0.0810323499866641
  0.4474883554136184  0.0927047081119241  0.8274011889582624
  0.5563994894067221  0.2066713686170942  0.5804258009452639
  0.1083199802681065  0.4330098570069083  0.3327148441601437
  0.2222063873705196  0.5380381307040949  0.0810323349305762
  0.7779702610006893  0.4274638121093446  0.8314571358611218
  0.8865789060009988  0.5396476504154180  0.5804257928385184
  0.4451150075958097  0.4283631603565041  0.3292075564180479
  0.5554672349523031  0.5387153242732765  0.0791783792051604
  0.1094566325804394  0.4307365482991443  0.8274011652486237
  0.2234232490746280  0.5396476618911734  0.5804257779195723
  0.7761716507555860  0.4283631197542661  0.3292075860938439
  0.8894052867364337  0.5380380653238106  0.0810323195214764
  0.4442156410009801  0.4274637964057248  0.8314571868085281
  0.5554672383179096  0.5387153193171912  0.5819667948078404
  0.1105901917787335  0.7611538359449170  0.3300033256326316
  0.2222064694121855  0.8726533693274945  0.0810323369833057
  0.7777648621952480  0.7610129238530092  0.8312104810926471
  0.8888005833766428  0.8720484980452738  0.5812943438156211
  0.4451150067464908  0.7594197176087150  0.3292075903127909
  0.5547899631262112  0.8726533130003844  0.0810323415698733
  0.1108718259762256  0.7610130209706654  0.8312104978238395
  0.2234233427761012  0.8698269688743352  0.5804258160621600
  0.7779056860851483  0.7611537422059840  0.3300033233436395
  0.8888005622263861  0.8720485174163173  0.0800019332592683
  0.4442157196358352  0.7612182972809833  0.8314571006667677
  0.5563995695157402  0.8698269111144299  0.5804257980265319
  0.2221339097684165  0.2053820329943150  0.3849308863738727
  0.1130830701363124  0.0963312373047671  0.1317426945533811
  0.8899160038800176  0.2046242529267985  0.8782937641305253
  0.7775697425285060  0.0945103464552446  0.6282383428243037
  0.5546695673769335  0.2064265807435817  0.3778868147251018
  0.4402355264741260  0.0963312308048856  0.1317427206414763
  0.2221339115224055  0.2053820890810769  0.8695054481769162
  0.1107033360519765  0.0939515206043779  0.6233303312018634
  0.8885537155495200  0.2064264790372974  0.3778868173357424
  0.7776369368577107  0.0943759184123323  0.1279226019371436
  0.5551095293188837  0.2046242991305860  0.8782937922937251
  0.4449949873325210  0.0939515009605429  0.6233303297593622
  0.2231785295272886  0.5379176578530362  0.3778867871706240
  0.1130831094225471  0.4234836576109231  0.1317427074196402
  0.8899159707681221  0.5383574973084109  0.8782937633618175
  0.7777932629210724  0.4275521854891053  0.6288138999159401
  0.5554672363252280  0.5387152193309106  0.3788863386922827
  0.4444362060590095  0.4276841802489173  0.1272560210488720
  0.2213762435989679  0.5383576225647744  0.8782937961136739
  0.1107034119194239  0.4282430476964976  0.6233303019897107
  0.8885537085896402  0.5379175293632485  0.3778867839042306
  0.7775293346213985  0.4276841397282638  0.1272560399075715
  0.5554672118834887  0.5387152117811524  0.8773535851109315
  0.4443042659955196  0.4275522296797334  0.6288139368985028
  0.2231783560247536  0.8718019226131517  0.3778868103252009
  0.1111277741061087  0.7608851112527972  0.1279225718706272
  0.8888004966762821  0.8720487133799182  0.8776919619196804
  0.7775697036064884  0.7608178778191146  0.6282383566701810
  0.5546694169818522  0.8718018903746056  0.3778867896387439
  0.4444361291800263  0.7607773735505177  0.1272560469147237
  0.2213761526718372  0.8731642031835634  0.8782937526814152
  0.1112621824463105  0.7608179379158102  0.6282383564445482
  0.8888005050396615  0.8720487152050396  0.3784769625261859
  0.7776369018642981  0.7608850414327861  0.1279225656518079
  0.5551093601454866  0.8731641498174696  0.8782937627881182
  0.4443041771315990  0.7610413201000412  0.6288138828826604
 
  0.00000000E+00  0.00000000E+00  0.00000000E+00
  0.00000000E+00  0.00000000E+00  0.00000000E+00
  0.00000000E+00  0.00000000E+00  0.00000000E+00
  0.00000000E+00  0.00000000E+00  0.00000000E+00
  0.00000000E+00  0.00000000E+00  0.00000000E+00
  0.00000000E+00  0.00000000E+00  0.00000000E+00
  0.00000000E+00  0.00000000E+00  0.00000000E+00
  0.00000000E+00  0.00000000E+00  0.00000000E+00
  0.00000000E+00  0.00000000E+00  0.00000000E+00
  0.00000000E+00  0.00000000E+00  0.00000000E+00
  0.00000000E+00  0.00000000E+00  0.00000000E+00
  0.00000000E+00  0.00000000E+00  0.00000000E+00
  0.00000000E+00  0.00000000E+00  0.00000000E+00
  0.00000000E+00  0.00000000E+00  0.00000000E+00
  0.00000000E+00  0.00000000E+00  0.00000000E+00
  0.00000000E+00  0.00000000E+00  0.00000000E+00
  0.00000000E+00  0.00000000E+00  0.00000000E+00
  0.00000000E+00  0.00000000E+00  0.00000000E+00
  0.00000000E+00  0.00000000E+00  0.00000000E+00
  0.00000000E+00  0.00000000E+00  0.00000000E+00
  0.00000000E+00  0.00000000E+00  0.00000000E+00
  0.00000000E+00  0.00000000E+00  0.00000000E+00
  0.00000000E+00  0.00000000E+00  0.00000000E+00
  0.00000000E+00  0.00000000E+00  0.00000000E+00
  0.00000000E+00  0.00000000E+00  0.00000000E+00
  0.00000000E+00  0.00000000E+00  0.00000000E+00
  0.00000000E+00  0.00000000E+00  0.00000000E+00
  0.00000000E+00  0.00000000E+00  0.00000000E+00
  0.00000000E+00  0.00000000E+00  0.00000000E+00
  0.00000000E+00  0.00000000E+00  0.00000000E+00
  0.00000000E+00  0.00000000E+00  0.00000000E+00
  0.00000000E+00  0.00000000E+00  0.00000000E+00
  0.00000000E+00  0.00000000E+00  0.00000000E+00
  0.00000000E+00  0.00000000E+00  0.00000000E+00
  0.00000000E+00  0.00000000E+00  0.00000000E+00
  0.00000000E+00  0.00000000E+00  0.00000000E+00
  0.00000000E+00  0.00000000E+00  0.00000000E+00
  0.00000000E+00  0.00000000E+00  0.00000000E+00
  0.00000000E+00  0.00000000E+00  0.00000000E+00
  0.00000000E+00  0.00000000E+00  0.00000000E+00
  0.00000000E+00  0.00000000E+00  0.00000000E+00
  0.00000000E+00  0.00000000E+00  0.00000000E+00
  0.00000000E+00  0.00000000E+00  0.00000000E+00
  0.00000000E+00  0.00000000E+00  0.00000000E+00
  0.00000000E+00  0.00000000E+00  0.00000000E+00
  0.00000000E+00  0.00000000E+00  0.00000000E+00
  0.00000000E+00  0.00000000E+00  0.00000000E+00
  0.00000000E+00  0.00000000E+00  0.00000000E+00
  0.00000000E+00  0.00000000E+00  0.00000000E+00
  0.00000000E+00  0.00000000E+00  0.00000000E+00
  0.00000000E+00  0.00000000E+00  0.00000000E+00
  0.00000000E+00  0.00000000E+00  0.00000000E+00
  0.00000000E+00  0.00000000E+00  0.00000000E+00
  0.00000000E+00  0.00000000E+00  0.00000000E+00
  0.00000000E+00  0.00000000E+00  0.00000000E+00
  0.00000000E+00  0.00000000E+00  0.00000000E+00
  0.00000000E+00  0.00000000E+00  0.00000000E+00
  0.00000000E+00  0.00000000E+00  0.00000000E+00
  0.00000000E+00  0.00000000E+00  0.00000000E+00
  0.00000000E+00  0.00000000E+00  0.00000000E+00
  0.00000000E+00  0.00000000E+00  0.00000000E+00
  0.00000000E+00  0.00000000E+00  0.00000000E+00
  0.00000000E+00  0.00000000E+00  0.00000000E+00
  0.00000000E+00  0.00000000E+00  0.00000000E+00
  0.00000000E+00  0.00000000E+00  0.00000000E+00
  0.00000000E+00  0.00000000E+00  0.00000000E+00
  0.00000000E+00  0.00000000E+00  0.00000000E+00
  0.00000000E+00  0.00000000E+00  0.00000000E+00
  0.00000000E+00  0.00000000E+00  0.00000000E+00
  0.00000000E+00  0.00000000E+00  0.00000000E+00
  0.00000000E+00  0.00000000E+00  0.00000000E+00
  0.00000000E+00  0.00000000E+00  0.00000000E+00
