Al   O    N                             
   1.00000000000000     
    -9.8341398787215812   -0.0000044994191624   -0.0000181718861519
    -4.9170709029009751    8.5166108994641405   -0.0000301075045281
     0.0000160961611955   -0.0000210015222707   -8.5140079592478344
   Al   O    N 
    36     1    35
Direct
  0.1091513908728032  0.0923994345808623  0.3512143879273140
  0.2221339268602236  0.2053821250760137  0.0812251957709620
  0.7778696917516257  0.0939104922249641  0.8491319471848016
  0.8868638592624976  0.2066228171697233  0.5972257221653976
  0.4480991907053848  0.0923991853635329  0.3512144404969959
  0.5545317939355812  0.2055750417223408  0.0990997789154449
  0.1092343127063842  0.0924823534767327  0.8429859060206226
  0.2221339602101438  0.2053821557462214  0.6114280482155436
  0.7778350913783569  0.0939796554497931  0.3475963353705964
  0.8895429470816936  0.2055751964992609  0.0990998231306079
  0.4479333329775343  0.0924821669988702  0.8429858644747767
  0.5561632138243695  0.2066229318053630  0.5972257763568507
  0.1091510720538906  0.4313474186298834  0.3512144495834875
  0.2223269571707149  0.5377799614246896  0.0990997602154309
  0.7779794805882645  0.4274590978568398  0.8492035267898288
  0.8868636812259396  0.5394111075565249  0.5972258105076307
  0.4450070231165242  0.4282551496793232  0.3470063480191072
  0.5554672073059521  0.5387152406650770  0.0967478369269443
  0.1092340538114698  0.4311815645714745  0.8429858527138592
  0.2233749045084394  0.5394113166635108  0.5972257892197348
  0.7763873663713241  0.4282552731441811  0.3470064243219326
  0.8895427262019666  0.5377799646247823  0.0990997280968386
  0.4442110416573541  0.4274591261234164  0.8492036101644871
  0.5554672050514640  0.5387152321305422  0.5996619200278630
  0.1107315686620609  0.7610832223021831  0.3475963632343806
  0.2223271747819169  0.8727909754256160  0.0990998121008388
  0.7778695866983085  0.7611177332702965  0.8491317919808239
  0.8888005737515883  0.8720486182725864  0.5988155160970692
  0.4450071990569739  0.7596353863623975  0.3470064402805448
  0.5545318325885233  0.8727907906514076  0.0990997378771041
  0.1106624107795824  0.7611178269939316  0.8491319138880726
  0.2233747933012822  0.8701119399445290  0.5972257288271976
  0.7778350398631417  0.7610831691462181  0.3475964742279984
  0.8888005930892149  0.8720486550457451  0.0980389250431344
  0.4442110304219682  0.7612275303205749  0.8492035056044074
  0.5561629900012761  0.8701117900516806  0.5972258011528879
  0.2221339514280416  0.2053820966038771  0.3711523521965887
  0.1136594051773940  0.0969075283707141  0.1168874569749008
  0.8903219900558668  0.2043842415283805  0.8609482781549787
  0.7775429321977469  0.0945639654136201  0.6106493510065505
  0.5549847138287518  0.2061849300098473  0.3602676948620953
  0.4390830377191079  0.0969073280670756  0.1168874684840020
  0.2221339684216375  0.2053821241767579  0.8533346177274979
  0.1115189509691632  0.0947671125803282  0.6050653823939953
  0.8884801283673553  0.2061850323334227  0.3602676762086858
  0.7775090713418535  0.0946317136587140  0.1103088198919409
  0.5549436688898837  0.2043841923857173  0.8609482523836576
  0.4433639459133190  0.0947669853524289  0.6050653975558973
  0.2229369190545967  0.5382327923169115  0.3602677196679167
  0.1136591804823510  0.4223312566519652  0.1168874693469988
  0.8903217911920578  0.5381916697462401  0.8609482185208535
  0.7776819546447342  0.4276078358125659  0.6114783944804856
  0.5554672182632459  0.5387151641736452  0.3608723288713520
  0.4443423464306235  0.4275904526432655  0.1096227650602373
  0.2211361879858202  0.5381917439686319  0.8609482405221982
  0.1115188176055000  0.4266121690199043  0.6050654081073716
  0.8884799544183082  0.5382328062310791  0.3602677882831316
  0.7777167818560358  0.4275905619596614  0.1096228169502851
  0.5554672530614795  0.5387152139847089  0.8602185486268326
  0.4443598253277514  0.4276078708302933  0.6114784279800816
  0.2229370325314122  0.8717281736123184  0.3602676959587328
  0.1113835522012607  0.7607572709249197  0.1103088380414761
  0.8888005547304729  0.8720486115174353  0.8603226978575478
  0.7775428147137902  0.7607909885147564  0.6106493436529448
  0.5549847286487832  0.8717280187896534  0.3602677802001111
  0.4443424766265949  0.7609648416632311  0.1096228314609604
  0.2211362407799200  0.8735700444062715  0.8609482680558997
  0.1113158384076485  0.7607911044744995  0.6106493443153838
  0.8888005681187749  0.8720486336550266  0.3605772484111895
  0.7775090109576794  0.7607572025707583  0.1103088787515247
  0.5549435846275586  0.8735698688383522  0.8609482235835202
  0.4443597787623261  0.7609300211624372  0.6114783826328676
 
  0.00000000E+00  0.00000000E+00  0.00000000E+00
  0.00000000E+00  0.00000000E+00  0.00000000E+00
  0.00000000E+00  0.00000000E+00  0.00000000E+00
  0.00000000E+00  0.00000000E+00  0.00000000E+00
  0.00000000E+00  0.00000000E+00  0.00000000E+00
  0.00000000E+00  0.00000000E+00  0.00000000E+00
  0.00000000E+00  0.00000000E+00  0.00000000E+00
  0.00000000E+00  0.00000000E+00  0.00000000E+00
  0.00000000E+00  0.00000000E+00  0.00000000E+00
  0.00000000E+00  0.00000000E+00  0.00000000E+00
  0.00000000E+00  0.00000000E+00  0.00000000E+00
  0.00000000E+00  0.00000000E+00  0.00000000E+00
  0.00000000E+00  0.00000000E+00  0.00000000E+00
  0.00000000E+00  0.00000000E+00  0.00000000E+00
  0.00000000E+00  0.00000000E+00  0.00000000E+00
  0.00000000E+00  0.00000000E+00  0.00000000E+00
  0.00000000E+00  0.00000000E+00  0.00000000E+00
  0.00000000E+00  0.00000000E+00  0.00000000E+00
  0.00000000E+00  0.00000000E+00  0.00000000E+00
  0.00000000E+00  0.00000000E+00  0.00000000E+00
  0.00000000E+00  0.00000000E+00  0.00000000E+00
  0.00000000E+00  0.00000000E+00  0.00000000E+00
  0.00000000E+00  0.00000000E+00  0.00000000E+00
  0.00000000E+00  0.00000000E+00  0.00000000E+00
  0.00000000E+00  0.00000000E+00  0.00000000E+00
  0.00000000E+00  0.00000000E+00  0.00000000E+00
  0.00000000E+00  0.00000000E+00  0.00000000E+00
  0.00000000E+00  0.00000000E+00  0.00000000E+00
  0.00000000E+00  0.00000000E+00  0.00000000E+00
  0.00000000E+00  0.00000000E+00  0.00000000E+00
  0.00000000E+00  0.00000000E+00  0.00000000E+00
  0.00000000E+00  0.00000000E+00  0.00000000E+00
  0.00000000E+00  0.00000000E+00  0.00000000E+00
  0.00000000E+00  0.00000000E+00  0.00000000E+00
  0.00000000E+00  0.00000000E+00  0.00000000E+00
  0.00000000E+00  0.00000000E+00  0.00000000E+00
  0.00000000E+00  0.00000000E+00  0.00000000E+00
  0.00000000E+00  0.00000000E+00  0.00000000E+00
  0.00000000E+00  0.00000000E+00  0.00000000E+00
  0.00000000E+00  0.00000000E+00  0.00000000E+00
  0.00000000E+00  0.00000000E+00  0.00000000E+00
  0.00000000E+00  0.00000000E+00  0.00000000E+00
  0.00000000E+00  0.00000000E+00  0.00000000E+00
  0.00000000E+00  0.00000000E+00  0.00000000E+00
  0.00000000E+00  0.00000000E+00  0.00000000E+00
  0.00000000E+00  0.00000000E+00  0.00000000E+00
  0.00000000E+00  0.00000000E+00  0.00000000E+00
  0.00000000E+00  0.00000000E+00  0.00000000E+00
  0.00000000E+00  0.00000000E+00  0.00000000E+00
  0.00000000E+00  0.00000000E+00  0.00000000E+00
  0.00000000E+00  0.00000000E+00  0.00000000E+00
  0.00000000E+00  0.00000000E+00  0.00000000E+00
  0.00000000E+00  0.00000000E+00  0.00000000E+00
  0.00000000E+00  0.00000000E+00  0.00000000E+00
  0.00000000E+00  0.00000000E+00  0.00000000E+00
  0.00000000E+00  0.00000000E+00  0.00000000E+00
  0.00000000E+00  0.00000000E+00  0.00000000E+00
  0.00000000E+00  0.00000000E+00  0.00000000E+00
  0.00000000E+00  0.00000000E+00  0.00000000E+00
  0.00000000E+00  0.00000000E+00  0.00000000E+00
  0.00000000E+00  0.00000000E+00  0.00000000E+00
  0.00000000E+00  0.00000000E+00  0.00000000E+00
  0.00000000E+00  0.00000000E+00  0.00000000E+00
  0.00000000E+00  0.00000000E+00  0.00000000E+00
  0.00000000E+00  0.00000000E+00  0.00000000E+00
  0.00000000E+00  0.00000000E+00  0.00000000E+00
  0.00000000E+00  0.00000000E+00  0.00000000E+00
  0.00000000E+00  0.00000000E+00  0.00000000E+00
  0.00000000E+00  0.00000000E+00  0.00000000E+00
  0.00000000E+00  0.00000000E+00  0.00000000E+00
  0.00000000E+00  0.00000000E+00  0.00000000E+00
  0.00000000E+00  0.00000000E+00  0.00000000E+00
