Al   O    N                             
   1.00000000000000     
    -9.7944053722872102   -0.0000061118651010   -0.0000106248236822
    -4.8972065305318289    8.4822018670406898   -0.0000333273764410
     0.0000097202456137   -0.0000275682486023   -8.6406249721218042
   Al   O    N 
    36     1    35
Direct
  0.1091984650191336  0.0924463246384946  0.3601011589553593
  0.2221340157440750  0.2053820430621798  0.0988666990960567
  0.7778363049687300  0.0939772122050826  0.8632995114403599
  0.8898385849892492  0.2054034965571745  0.6132460639923920
  0.4480051947565187  0.0924460949982304  0.3601011232640445
  0.5563394819562788  0.2067851329790571  0.1153378536160119
  0.1090718859013720  0.0923197493329866  0.8698278243055384
  0.2221339692033908  0.2053819691403547  0.6297567097734884
  0.7778611104539408  0.0939275759415352  0.3651564670658161
  0.8865253267485187  0.2067850241443878  0.1153379013998332
  0.4482583675878544  0.0923195387846434  0.8698278387953167
  0.5544077954858153  0.2054033442985599  0.6132461035779784
  0.1091981902616652  0.4312531819190326  0.3601011258713456
  0.2235372737628083  0.5395874008240256  0.1153378380750709
  0.7780637405851536  0.4274168205091584  0.8630958867826948
  0.8898383711282065  0.5376557791234191  0.6132461574335224
  0.4450764509736942  0.4283243391124216  0.3659196931989754
  0.5554672402435159  0.5387150985763967  0.1126827000953767
  0.1090716244680436  0.4315063685926006  0.8698278323904134
  0.2221554288550394  0.5376557840871641  0.6132461212216924
  0.7762487507091791  0.4283244522312017  0.3659196141663230
  0.8865251649955468  0.5395871867165312  0.1153378128799289
  0.4441690135874836  0.4274168527845461  0.8630957911121442
  0.5554672459967733  0.5387151084051780  0.6161237796656422
  0.1106796897619660  0.7611090292443450  0.3651564380194330
  0.2235371490451072  0.8697732693148836  0.1153378976921502
  0.7778361903809596  0.7610841172751250  0.8632996603818484
  0.8888005976706452  0.8720485237260149  0.6147955720377922
  0.4450766004709479  0.7594965669283056  0.3659195983992660
  0.5563392346903200  0.8697731288040487  0.1153378247581642
  0.1107293397814360  0.7610842221576846  0.8632995429659189
  0.2221556240283888  0.8730864707779205  0.6132460725447046
  0.7778610507120689  0.7611089657886012  0.3651563232042392
  0.8888005767489489  0.8720484854469177  0.1136070148986192
  0.4441689834854969  0.7613115750984107  0.8630959053086400
  0.5544078104621732  0.8730862932361418  0.6132461488509477
  0.2221340158464216  0.2053820238696957  0.3335620804880648
  0.1112474758381197  0.0944954003339760  0.1007204218282496
  0.8904042185992651  0.2043404425161981  0.8438734844088174
  0.7775442674158128  0.0945613144399502  0.5947430905880609
  0.5550144524150511  0.2063295804244945  0.3448255034547358
  0.4439071479622427  0.0944952683668774  0.1007204013474308
  0.2221340093096273  0.2053820196556231  0.8539381366725465
  0.1137695692498113  0.0970174479394572  0.5880708850584071
  0.8883057245762060  0.2063296453241179  0.3448255218017664
  0.7775315393888320  0.0945867578426487  0.0940661534414815
  0.5549051851673994  0.2043404165329363  0.8438734854111587
  0.4388629099907106  0.0970172727461431  0.5880708904072733
  0.2230816829513032  0.5382624070853836  0.3448254835067743
  0.1112473254196900  0.4271551484857028  0.1007203916275614
  0.8904039981831602  0.5381530336191105  0.8438735476314321
  0.7776385226619595  0.4276295599969941  0.5954991597549011
  0.5554672415461681  0.5387150913939891  0.3436802831171164
  0.4443298154391897  0.4275776676700431  0.0931830153008519
  0.2210925454399302  0.5381531332961202  0.8438734975683744
  0.1137693568600397  0.4221109007886952  0.5880709042664591
  0.8883055818046941  0.5382623915760334  0.3448254148441237
  0.7777421394437170  0.4275776128208406  0.0931830732404606
  0.5554672666650973  0.5387151283933562  0.8449315046865919
  0.4443815657304953  0.4276294709494337  0.5954992211371817
  0.2230817723198939  0.8715536213264272  0.3448255058047067
  0.1113388786295602  0.7607794656570448  0.0940661659932758
  0.8888005935001146  0.8720484874177856  0.8446837534166605
  0.7775441853787370  0.7607921426485476  0.5947430215167699
  0.5550144509617141  0.8715534964335205  0.3448254189911850
  0.4443297597273315  0.7609899909770874  0.0931830835215948
  0.2210925855484547  0.8736521151960019  0.8438734941770321
  0.1113133994879050  0.7607922211836140  0.5947430727515624
  0.8888006135017434  0.8720485248391654  0.3441099056765751
  0.7775313911601245  0.7607793294664020  0.0940661939647356
  0.5549050806437066  0.8736519350955234  0.8438735448378409
  0.4443816829775784  0.7608863688660392  0.5954991470230055
 
  0.00000000E+00  0.00000000E+00  0.00000000E+00
  0.00000000E+00  0.00000000E+00  0.00000000E+00
  0.00000000E+00  0.00000000E+00  0.00000000E+00
  0.00000000E+00  0.00000000E+00  0.00000000E+00
  0.00000000E+00  0.00000000E+00  0.00000000E+00
  0.00000000E+00  0.00000000E+00  0.00000000E+00
  0.00000000E+00  0.00000000E+00  0.00000000E+00
  0.00000000E+00  0.00000000E+00  0.00000000E+00
  0.00000000E+00  0.00000000E+00  0.00000000E+00
  0.00000000E+00  0.00000000E+00  0.00000000E+00
  0.00000000E+00  0.00000000E+00  0.00000000E+00
  0.00000000E+00  0.00000000E+00  0.00000000E+00
  0.00000000E+00  0.00000000E+00  0.00000000E+00
  0.00000000E+00  0.00000000E+00  0.00000000E+00
  0.00000000E+00  0.00000000E+00  0.00000000E+00
  0.00000000E+00  0.00000000E+00  0.00000000E+00
  0.00000000E+00  0.00000000E+00  0.00000000E+00
  0.00000000E+00  0.00000000E+00  0.00000000E+00
  0.00000000E+00  0.00000000E+00  0.00000000E+00
  0.00000000E+00  0.00000000E+00  0.00000000E+00
  0.00000000E+00  0.00000000E+00  0.00000000E+00
  0.00000000E+00  0.00000000E+00  0.00000000E+00
  0.00000000E+00  0.00000000E+00  0.00000000E+00
  0.00000000E+00  0.00000000E+00  0.00000000E+00
  0.00000000E+00  0.00000000E+00  0.00000000E+00
  0.00000000E+00  0.00000000E+00  0.00000000E+00
  0.00000000E+00  0.00000000E+00  0.00000000E+00
  0.00000000E+00  0.00000000E+00  0.00000000E+00
  0.00000000E+00  0.00000000E+00  0.00000000E+00
  0.00000000E+00  0.00000000E+00  0.00000000E+00
  0.00000000E+00  0.00000000E+00  0.00000000E+00
  0.00000000E+00  0.00000000E+00  0.00000000E+00
  0.00000000E+00  0.00000000E+00  0.00000000E+00
  0.00000000E+00  0.00000000E+00  0.00000000E+00
  0.00000000E+00  0.00000000E+00  0.00000000E+00
  0.00000000E+00  0.00000000E+00  0.00000000E+00
  0.00000000E+00  0.00000000E+00  0.00000000E+00
  0.00000000E+00  0.00000000E+00  0.00000000E+00
  0.00000000E+00  0.00000000E+00  0.00000000E+00
  0.00000000E+00  0.00000000E+00  0.00000000E+00
  0.00000000E+00  0.00000000E+00  0.00000000E+00
  0.00000000E+00  0.00000000E+00  0.00000000E+00
  0.00000000E+00  0.00000000E+00  0.00000000E+00
  0.00000000E+00  0.00000000E+00  0.00000000E+00
  0.00000000E+00  0.00000000E+00  0.00000000E+00
  0.00000000E+00  0.00000000E+00  0.00000000E+00
  0.00000000E+00  0.00000000E+00  0.00000000E+00
  0.00000000E+00  0.00000000E+00  0.00000000E+00
  0.00000000E+00  0.00000000E+00  0.00000000E+00
  0.00000000E+00  0.00000000E+00  0.00000000E+00
  0.00000000E+00  0.00000000E+00  0.00000000E+00
  0.00000000E+00  0.00000000E+00  0.00000000E+00
  0.00000000E+00  0.00000000E+00  0.00000000E+00
  0.00000000E+00  0.00000000E+00  0.00000000E+00
  0.00000000E+00  0.00000000E+00  0.00000000E+00
  0.00000000E+00  0.00000000E+00  0.00000000E+00
  0.00000000E+00  0.00000000E+00  0.00000000E+00
  0.00000000E+00  0.00000000E+00  0.00000000E+00
  0.00000000E+00  0.00000000E+00  0.00000000E+00
  0.00000000E+00  0.00000000E+00  0.00000000E+00
  0.00000000E+00  0.00000000E+00  0.00000000E+00
  0.00000000E+00  0.00000000E+00  0.00000000E+00
  0.00000000E+00  0.00000000E+00  0.00000000E+00
  0.00000000E+00  0.00000000E+00  0.00000000E+00
  0.00000000E+00  0.00000000E+00  0.00000000E+00
  0.00000000E+00  0.00000000E+00  0.00000000E+00
  0.00000000E+00  0.00000000E+00  0.00000000E+00
  0.00000000E+00  0.00000000E+00  0.00000000E+00
  0.00000000E+00  0.00000000E+00  0.00000000E+00
  0.00000000E+00  0.00000000E+00  0.00000000E+00
  0.00000000E+00  0.00000000E+00  0.00000000E+00
  0.00000000E+00  0.00000000E+00  0.00000000E+00
