Al   O    N                             
   1.00000000000000     
    -9.7074619363362764   -0.0000069180880703   -0.0000068512924473
    -4.8537351769220329    8.4069065641925462   -0.0000349373123974
     0.0000082212798367   -0.0000303334559073   -8.9215266579444474
   Al   O    N 
    36     1    35
Direct
  0.1090442391776847  0.0922921006468300  0.3662459826602884
  0.2221340155033786  0.2053820129618487  0.1031603000242569
  0.7777878514814773  0.0940740585127031  0.8698939320983001
  0.8899703286814074  0.2052767051156366  0.6198277183331768
  0.4483135588968068  0.0922919717654693  0.3662459805352754
  0.5565154088512614  0.2069057610420018  0.1217218312325343
  0.1089579641093579  0.0922058382093525  0.8759917311606600
  0.2221339751243150  0.2053819438535598  0.6331110877414332
  0.7779054020710205  0.0938389336469001  0.3718095532971333
  0.8862287756462379  0.2069056527490005  0.1217218523526284
  0.4484862341089269  0.0922056574224683  0.8759917312353309
  0.5544028064796791  0.2052766349499748  0.6198277296063992
  0.1090440791932750  0.4315615084706508  0.3662460007571582
  0.2236578839150241  0.5397633238230313  0.1217218222436927
  0.7781200231108727  0.4273886598824461  0.8695657877699148
  0.8899701596353893  0.5376507085485471  0.6198277755525154
  0.4451553238109653  0.4284031937497446  0.3726850688751497
  0.5554672451239426  0.5387151269602697  0.1191294908864649
  0.1089577362208871  0.4317342286030055  0.8759917164693434
  0.2220287365167195  0.5376507640545825  0.6198277428233894
  0.7760910945145483  0.4284032253768260  0.3726849940741275
  0.8862286707342548  0.5397631361709685  0.1217217954473711
  0.4441408618997471  0.4273886987316189  0.8695656987398195
  0.5554672456823297  0.5387151206883090  0.6228030547347956
  0.1105910736964830  0.7611532942606871  0.3718095326747601
  0.2236577624632403  0.8694767228478710  0.1217218533756608
  0.7777877145219207  0.7610356290000482  0.8698940320359796
  0.8888005851948719  0.8720484829349573  0.6216056539755428
  0.4451553669862918  0.7593389403882753  0.3726849820240687
  0.5565151874674896  0.8694766297624881  0.1217218058000284
  0.1108262136257991  0.7610357430456816  0.8698939558575489
  0.2220288329811524  0.8732182200065921  0.6198277254167763
  0.7779053214345595  0.7611532209466532  0.3718094567969743
  0.8888005730059305  0.8720484631470029  0.1200566586979761
  0.4441408195281582  0.7613678662633490  0.8695658026285713
  0.5544027538852987  0.8732180846385731  0.6198277688518630
  0.2221340276674297  0.2053820187430091  0.3280054998298993
  0.1108482759274878  0.0940962254847335  0.0945159475588682
  0.8903525127194172  0.2043680821970568  0.8373437558637420
  0.7776049745238680  0.0944398667167476  0.5882932727283645
  0.5549837877504231  0.2065018004233252  0.3383964258876873
  0.4447055153849959  0.0940961217638829  0.0945159149794677
  0.2221340142420232  0.2053820284081525  0.8493775832414556
  0.1136931807372008  0.0969410847678134  0.5822868809661657
  0.8881642217542804  0.2065018024126815  0.3383964370471020
  0.7775246022513329  0.0946006232737062  0.0874305914952842
  0.5549292596237052  0.2043680816944899  0.8373437356115332
  0.4390156392985887  0.0969409566527091  0.5822868910322185
  0.2232538880733657  0.5382317221413828  0.3383964154090648
  0.1108481694227237  0.4279534959319733  0.0945159012660852
  0.8903523148593493  0.5381770812915860  0.8373438015473198
  0.7775313968822744  0.4276830920122805  0.5890925020280946
  0.5554672608150781  0.5387151434924391  0.3368621323196450
  0.4442958421472696  0.4275437114153107  0.0866067100866985
  0.2211201983235469  0.5381772005071923  0.8373437456823538
  0.1136930271505960  0.4222636206782866  0.5822869175823087
  0.8881641496829431  0.5382316710970017  0.3383963750632972
  0.7778101222658123  0.4275436650559499  0.0866067829325274
  0.5554672658812621  0.5387151462625610  0.8386961717989081
  0.4444351569000489  0.4276830508622638  0.5890925621732137
  0.2232538944036548  0.8714121552014973  0.3383964303965783
  0.1113527397323395  0.7607725215052668  0.0874306069385682
  0.8888005755653694  0.8720484735433587  0.8382979189561510
  0.7776048766093666  0.7608528202773286  0.5882932174013646
  0.5549837375433881  0.8714120781231358  0.3383963793705291
  0.4442957894219006  0.7610580024357745  0.0866067934640853
  0.2211201931224664  0.8736004446734356  0.8373437660758469
  0.1111919607148195  0.7608529111630702  0.5882932580096778
  0.8888005942784716  0.8720485096186081  0.3373691937262251
  0.7775244584442191  0.7607723907882260  0.0874306419277815
  0.5549291208419902  0.8736002793695690  0.8373438007601237
  0.4444352127930316  0.7607792603191186  0.5890924942458824
 
  0.00000000E+00  0.00000000E+00  0.00000000E+00
  0.00000000E+00  0.00000000E+00  0.00000000E+00
  0.00000000E+00  0.00000000E+00  0.00000000E+00
  0.00000000E+00  0.00000000E+00  0.00000000E+00
  0.00000000E+00  0.00000000E+00  0.00000000E+00
  0.00000000E+00  0.00000000E+00  0.00000000E+00
  0.00000000E+00  0.00000000E+00  0.00000000E+00
  0.00000000E+00  0.00000000E+00  0.00000000E+00
  0.00000000E+00  0.00000000E+00  0.00000000E+00
  0.00000000E+00  0.00000000E+00  0.00000000E+00
  0.00000000E+00  0.00000000E+00  0.00000000E+00
  0.00000000E+00  0.00000000E+00  0.00000000E+00
  0.00000000E+00  0.00000000E+00  0.00000000E+00
  0.00000000E+00  0.00000000E+00  0.00000000E+00
  0.00000000E+00  0.00000000E+00  0.00000000E+00
  0.00000000E+00  0.00000000E+00  0.00000000E+00
  0.00000000E+00  0.00000000E+00  0.00000000E+00
  0.00000000E+00  0.00000000E+00  0.00000000E+00
  0.00000000E+00  0.00000000E+00  0.00000000E+00
  0.00000000E+00  0.00000000E+00  0.00000000E+00
  0.00000000E+00  0.00000000E+00  0.00000000E+00
  0.00000000E+00  0.00000000E+00  0.00000000E+00
  0.00000000E+00  0.00000000E+00  0.00000000E+00
  0.00000000E+00  0.00000000E+00  0.00000000E+00
  0.00000000E+00  0.00000000E+00  0.00000000E+00
  0.00000000E+00  0.00000000E+00  0.00000000E+00
  0.00000000E+00  0.00000000E+00  0.00000000E+00
  0.00000000E+00  0.00000000E+00  0.00000000E+00
  0.00000000E+00  0.00000000E+00  0.00000000E+00
  0.00000000E+00  0.00000000E+00  0.00000000E+00
  0.00000000E+00  0.00000000E+00  0.00000000E+00
  0.00000000E+00  0.00000000E+00  0.00000000E+00
  0.00000000E+00  0.00000000E+00  0.00000000E+00
  0.00000000E+00  0.00000000E+00  0.00000000E+00
  0.00000000E+00  0.00000000E+00  0.00000000E+00
  0.00000000E+00  0.00000000E+00  0.00000000E+00
  0.00000000E+00  0.00000000E+00  0.00000000E+00
  0.00000000E+00  0.00000000E+00  0.00000000E+00
  0.00000000E+00  0.00000000E+00  0.00000000E+00
  0.00000000E+00  0.00000000E+00  0.00000000E+00
  0.00000000E+00  0.00000000E+00  0.00000000E+00
  0.00000000E+00  0.00000000E+00  0.00000000E+00
  0.00000000E+00  0.00000000E+00  0.00000000E+00
  0.00000000E+00  0.00000000E+00  0.00000000E+00
  0.00000000E+00  0.00000000E+00  0.00000000E+00
  0.00000000E+00  0.00000000E+00  0.00000000E+00
  0.00000000E+00  0.00000000E+00  0.00000000E+00
  0.00000000E+00  0.00000000E+00  0.00000000E+00
  0.00000000E+00  0.00000000E+00  0.00000000E+00
  0.00000000E+00  0.00000000E+00  0.00000000E+00
  0.00000000E+00  0.00000000E+00  0.00000000E+00
  0.00000000E+00  0.00000000E+00  0.00000000E+00
  0.00000000E+00  0.00000000E+00  0.00000000E+00
  0.00000000E+00  0.00000000E+00  0.00000000E+00
  0.00000000E+00  0.00000000E+00  0.00000000E+00
  0.00000000E+00  0.00000000E+00  0.00000000E+00
  0.00000000E+00  0.00000000E+00  0.00000000E+00
  0.00000000E+00  0.00000000E+00  0.00000000E+00
  0.00000000E+00  0.00000000E+00  0.00000000E+00
  0.00000000E+00  0.00000000E+00  0.00000000E+00
  0.00000000E+00  0.00000000E+00  0.00000000E+00
  0.00000000E+00  0.00000000E+00  0.00000000E+00
  0.00000000E+00  0.00000000E+00  0.00000000E+00
  0.00000000E+00  0.00000000E+00  0.00000000E+00
  0.00000000E+00  0.00000000E+00  0.00000000E+00
  0.00000000E+00  0.00000000E+00  0.00000000E+00
  0.00000000E+00  0.00000000E+00  0.00000000E+00
  0.00000000E+00  0.00000000E+00  0.00000000E+00
  0.00000000E+00  0.00000000E+00  0.00000000E+00
  0.00000000E+00  0.00000000E+00  0.00000000E+00
  0.00000000E+00  0.00000000E+00  0.00000000E+00
  0.00000000E+00  0.00000000E+00  0.00000000E+00
