Al   O    N                             
   1.00000000000000     
    -9.5594885074943203   -0.0000081274225242   -0.0000011909955950
    -4.7797492092841463    8.2787570074167380   -0.0000373522163320
     0.0000054706328981   -0.0000357809487886   -9.3870376391433314
   Al   O    N 
    36     1    35
Direct
  0.1083206361957991  0.0915686294083145  0.3759641868953025
  0.2221340066204505  0.2053818260636433  0.1132553903844595
  0.7777644779826502  0.0941207697499848  0.8774709282156223
  0.8894084243692149  0.2054538167779256  0.6276524098960437
  0.4497605495700654  0.0915686212685500  0.3759641773838354
  0.5564011095338373  0.2066747543690255  0.1282624924272966
  0.1094558472450942  0.0927038321786284  0.8813029948885855
  0.2221339943346763  0.2053818847103628  0.6359449728757340
  0.7779053974974914  0.0938389274999523  0.3786844191068468
  0.8865739728957323  0.2066747366053789  0.1282624824153089
  0.4474902294739920  0.0927037672577242  0.8813030053319864
  0.5547875432658671  0.2054538460556969  0.6276523896152568
  0.1083206894797897  0.4330084587020124  0.3759642205598439
  0.2234269302208318  0.5396489637377258  0.1282624835563055
  0.7779692822815463  0.4274640852759006  0.8772253052381558
  0.8894083540576148  0.5380353328988932  0.6276524104635186
  0.4451166550725603  0.4283644837987950  0.3794832389891667
  0.5554673002476349  0.5387151250310396  0.1267171573407282
  0.1094558119301183  0.4307381892491122  0.8813029728496957
  0.2222060221540545  0.5380354209239613  0.6276523962845175
  0.7761686182025400  0.4283644020743509  0.3794832071039238
  0.8865739285536449  0.5396489022073823  0.1282624691364660
  0.4442162515205723  0.4274640979321305  0.8772252770248627
  0.5554673051163590  0.5387151058132957  0.6295111404836007
  0.1105910188564749  0.7611533368702581  0.3786844065742585
  0.2234268903462251  0.8698218836658498  0.1282624865366273
  0.7777643874543827  0.7610123371666049  0.8774709440195423
  0.8888005940478152  0.8720484804169359  0.6286826897160651
  0.4451165372804340  0.7594165192286511  0.3794832041767080
  0.5564010151186594  0.8698218326561857  0.1282624816134401
  0.1108728616520480  0.7610124242839049  0.8774709331103452
  0.2222059670754604  0.8726563309699173  0.6276524104277499
  0.7779053257246105  0.7611532590920405  0.3786843888261586
  0.8888006021959285  0.8720485110559721  0.1273877678109372
  0.4442162229578273  0.7612171590981447  0.8772252996373950
  0.5547874303903200  0.8726562773548565  0.6276524053222730
  0.2221339565166716  0.2053819067082898  0.3237841765149199
  0.1107045643790556  0.0939525141942354  0.0854023781228221
  0.8899219582316817  0.2046206985069503  0.8304246384674059
  0.7776371947721543  0.0943753388994679  0.5807979546233355
  0.5546714705806224  0.2064263295168658  0.3308320374750195
  0.4449927799484286  0.0939524514106793  0.0854023803587012
  0.2221339752546996  0.2053819776766304  0.8392262374114452
  0.1130855191737865  0.0963334540867962  0.5769691966874007
  0.8885520138997691  0.2064262789092552  0.3308320324925020
  0.7775705591076090  0.0945086438987275  0.0804748263041475
  0.5551071264125511  0.2046207129052320  0.8304246081751927
  0.4402308196182929  0.0963334204729165  0.5769691719960477
  0.2231784224035849  0.5379194218525569  0.3308320353244341
  0.1107044787553733  0.4282408140342682  0.0854023811340383
  0.8899218707727172  0.5383550121157228  0.8304246470743379
  0.7775315226146162  0.4276830385588397  0.5814663940596745
  0.5554672742766442  0.5387151870985676  0.3298314012208365
  0.4443033832840797  0.4275513800380040  0.0798995993338352
  0.2213728007025537  0.5383550992372292  0.8304246145866756
  0.1130854605206579  0.4234788448367723  0.5769691989319909
  0.8885519660215451  0.5379193306424668  0.3308320281223729
  0.7777949348836657  0.4275513766554297  0.0798996280050943
  0.5554672551898818  0.5387151559173162  0.8313645146306072
  0.4444350908592369  0.4276830491650614  0.5814664035048693
  0.2231784083979136  0.8717998934119109  0.3308320367948667
  0.1112607140592843  0.7608185127764102  0.0804748408160236
  0.8888005867778119  0.8720484442869463  0.8310240943626326
  0.7776371284902552  0.7608850621794403  0.5807979336517448
  0.5546714087525402  0.8717998497348702  0.3308320327377885
  0.4443034146569715  0.7610428582576603  0.0798996237197471
  0.2213728121646028  0.8731698522935218  0.8304246339427550
  0.1111274277279932  0.7608851348559966  0.5807979435398707
  0.8888005923415179  0.8720484588368151  0.3302388537011396
  0.7775705002228435  0.7608184432018064  0.0804748490207032
  0.5551070664458990  0.8731697870383854  0.8304246372024267
  0.4444350989061121  0.7607794391670666  0.5814663984805364
 
  0.00000000E+00  0.00000000E+00  0.00000000E+00
  0.00000000E+00  0.00000000E+00  0.00000000E+00
  0.00000000E+00  0.00000000E+00  0.00000000E+00
  0.00000000E+00  0.00000000E+00  0.00000000E+00
  0.00000000E+00  0.00000000E+00  0.00000000E+00
  0.00000000E+00  0.00000000E+00  0.00000000E+00
  0.00000000E+00  0.00000000E+00  0.00000000E+00
  0.00000000E+00  0.00000000E+00  0.00000000E+00
  0.00000000E+00  0.00000000E+00  0.00000000E+00
  0.00000000E+00  0.00000000E+00  0.00000000E+00
  0.00000000E+00  0.00000000E+00  0.00000000E+00
  0.00000000E+00  0.00000000E+00  0.00000000E+00
  0.00000000E+00  0.00000000E+00  0.00000000E+00
  0.00000000E+00  0.00000000E+00  0.00000000E+00
  0.00000000E+00  0.00000000E+00  0.00000000E+00
  0.00000000E+00  0.00000000E+00  0.00000000E+00
  0.00000000E+00  0.00000000E+00  0.00000000E+00
  0.00000000E+00  0.00000000E+00  0.00000000E+00
  0.00000000E+00  0.00000000E+00  0.00000000E+00
  0.00000000E+00  0.00000000E+00  0.00000000E+00
  0.00000000E+00  0.00000000E+00  0.00000000E+00
  0.00000000E+00  0.00000000E+00  0.00000000E+00
  0.00000000E+00  0.00000000E+00  0.00000000E+00
  0.00000000E+00  0.00000000E+00  0.00000000E+00
  0.00000000E+00  0.00000000E+00  0.00000000E+00
  0.00000000E+00  0.00000000E+00  0.00000000E+00
  0.00000000E+00  0.00000000E+00  0.00000000E+00
  0.00000000E+00  0.00000000E+00  0.00000000E+00
  0.00000000E+00  0.00000000E+00  0.00000000E+00
  0.00000000E+00  0.00000000E+00  0.00000000E+00
  0.00000000E+00  0.00000000E+00  0.00000000E+00
  0.00000000E+00  0.00000000E+00  0.00000000E+00
  0.00000000E+00  0.00000000E+00  0.00000000E+00
  0.00000000E+00  0.00000000E+00  0.00000000E+00
  0.00000000E+00  0.00000000E+00  0.00000000E+00
  0.00000000E+00  0.00000000E+00  0.00000000E+00
  0.00000000E+00  0.00000000E+00  0.00000000E+00
  0.00000000E+00  0.00000000E+00  0.00000000E+00
  0.00000000E+00  0.00000000E+00  0.00000000E+00
  0.00000000E+00  0.00000000E+00  0.00000000E+00
  0.00000000E+00  0.00000000E+00  0.00000000E+00
  0.00000000E+00  0.00000000E+00  0.00000000E+00
  0.00000000E+00  0.00000000E+00  0.00000000E+00
  0.00000000E+00  0.00000000E+00  0.00000000E+00
  0.00000000E+00  0.00000000E+00  0.00000000E+00
  0.00000000E+00  0.00000000E+00  0.00000000E+00
  0.00000000E+00  0.00000000E+00  0.00000000E+00
  0.00000000E+00  0.00000000E+00  0.00000000E+00
  0.00000000E+00  0.00000000E+00  0.00000000E+00
  0.00000000E+00  0.00000000E+00  0.00000000E+00
  0.00000000E+00  0.00000000E+00  0.00000000E+00
  0.00000000E+00  0.00000000E+00  0.00000000E+00
  0.00000000E+00  0.00000000E+00  0.00000000E+00
  0.00000000E+00  0.00000000E+00  0.00000000E+00
  0.00000000E+00  0.00000000E+00  0.00000000E+00
  0.00000000E+00  0.00000000E+00  0.00000000E+00
  0.00000000E+00  0.00000000E+00  0.00000000E+00
  0.00000000E+00  0.00000000E+00  0.00000000E+00
  0.00000000E+00  0.00000000E+00  0.00000000E+00
  0.00000000E+00  0.00000000E+00  0.00000000E+00
  0.00000000E+00  0.00000000E+00  0.00000000E+00
  0.00000000E+00  0.00000000E+00  0.00000000E+00
  0.00000000E+00  0.00000000E+00  0.00000000E+00
  0.00000000E+00  0.00000000E+00  0.00000000E+00
  0.00000000E+00  0.00000000E+00  0.00000000E+00
  0.00000000E+00  0.00000000E+00  0.00000000E+00
  0.00000000E+00  0.00000000E+00  0.00000000E+00
  0.00000000E+00  0.00000000E+00  0.00000000E+00
  0.00000000E+00  0.00000000E+00  0.00000000E+00
  0.00000000E+00  0.00000000E+00  0.00000000E+00
  0.00000000E+00  0.00000000E+00  0.00000000E+00
  0.00000000E+00  0.00000000E+00  0.00000000E+00
