supercell of 100% icsd_608626.cif, 0% i 
   1.00000000000000     
    -9.4483492286985005   -0.0010704783880122    0.0002900891622516
    -4.7232479150713758    8.1705501951060295    0.0052359775269701
     0.0003088739540389   -0.0062731534800038  -10.0882063667604935
   Al   Si   Sr   N 
    34     1     1    36
Direct
  0.1113487629172099  0.0945789576062097  0.2976751846863124
  0.2226692882414270  0.2020433746208070  0.0431564867107213
  0.7775342437245882  0.0940251710359874  0.7932135698834344
  0.8890642693389239  0.2057383160922370  0.5474597650074884
  0.4434892531517463  0.0957491678236266  0.2978662996133323
  0.5599104198369815  0.2007761541747044  0.0440111259221894
  0.1117340388204795  0.0940794331892789  0.7931743806027853
  0.2185931233987475  0.2043774782172179  0.5482844245163889
  0.7781531898595091  0.0942551971284331  0.2977909826576308
  0.8886519195875451  0.2037430078674944  0.0450981724541037
  0.4442076624629010  0.0944083964647149  0.7950664902049454
  0.5608618532963305  0.2046833038970064  0.5490259118126843
  0.1087195505255707  0.4246912144632162  0.2829856033224445
  0.2197178228971239  0.5410978608862678  0.0561318494609964
  0.7798653701325335  0.4269196467939693  0.7942954365180341
  0.8875140958134864  0.5357227317951399  0.5481959159497904
  0.4505493396337599  0.4259446783918435  0.2846025320136789
  0.1085162335082188  0.4252922443819287  0.8014216502409255
  0.7761911090433031  0.4286722551209152  0.2988607349708445
  0.8840552354961915  0.5425798101957966  0.0429782628417215
  0.4477816116453539  0.4241930609129980  0.8032817204740255
  0.5608493312827889  0.5355408078260950  0.5492096545385508
  0.1085946207238919  0.7658133365361763  0.2829971793064416
  0.2215080761862609  0.8741234027859548  0.0430918585041127
  0.7774568770503123  0.7616718659687010  0.7943389928880649
  0.8879962956952312  0.8767116623116351  0.5480400425681324
  0.4450210116233535  0.7588333669873890  0.2987705977092716
  0.5575090950682267  0.8720201640258125  0.0450952107104143
  0.1083006779548370  0.7656967987443792  0.8011033875571059
  0.2190113695838676  0.8764679665061976  0.5483016649114489
  0.7785100097339708  0.7610218234095782  0.2973268926806441
  0.8848327438713568  0.8752456296896440  0.0436795787046194
  0.4435617692918683  0.7633965247202354  0.7960887705232551
  0.5555412295635378  0.8724367155760717  0.5460176117506492
  0.5583767859082940  0.5391743237985338  0.0431085724664513
  0.2243361594491233  0.5371392977704872  0.5345862474581722
  0.2213649967480649  0.2076408120656481  0.3551499987268940
  0.1107840913256979  0.0943888882834472  0.1068812608316136
  0.8888346269566583  0.2054911264871109  0.8551840201691689
  0.7782273339794799  0.0945969854330286  0.6037954993787338
  0.5540717369569279  0.2085450902743986  0.3547180931745046
  0.4440399793761003  0.0946563371942659  0.1067752034738945
  0.2248481329416450  0.2005226737628476  0.8564981690321147
  0.1111167207775452  0.0942223666347175  0.6037167043812133
  0.8885992904649385  0.2066218473675931  0.3548623569558202
  0.7776318349201006  0.0952013281088568  0.1073960648771788
  0.5575937760255840  0.2006541988199331  0.8579814663063630
  0.4443856223629794  0.0954307257791882  0.6038833737833826
  0.2240374568841190  0.5373149057761566  0.2969322391817144
  0.1047926707813218  0.4233777092602224  0.0950240374640288
  0.8833224528337666  0.5421287625339062  0.8568750620918095
  0.7774532978400188  0.4283814453561305  0.6055926715792310
  0.5544170856333750  0.5378862340474626  0.3568343360194248
  0.4596236489084120  0.4300695132432608  0.0935345108969727
  0.2223228108057427  0.5386123532082934  0.8578167463173614
  0.0917524350084093  0.4093355129443026  0.6198692513615214
  0.8902907228157915  0.5377402869552270  0.3538688724406072
  0.7650244168527962  0.4343283453982423  0.1034279899075230
  0.5579151875386614  0.5414119432844089  0.8672212998289410
  0.4842254347893515  0.4093549448713176  0.6232260306642488
  0.2226006405993459  0.8702216257553914  0.3539559161247254
  0.1057593646279571  0.7706838549342265  0.0953287951034909
  0.8838193641821022  0.8744316547738933  0.8566938587549444
  0.7778940391246820  0.7612721826869944  0.6034026543057749
  0.5548396070324060  0.8718495296571263  0.3544845455484520
  0.4514557035692377  0.7477482469405956  0.1032790294499364
  0.2251069463375686  0.8738983027312699  0.8570329295718793
  0.0926809442853198  0.7981550785570022  0.6195555892402496
  0.8912493454850079  0.8707167363939234  0.3549176592420480
  0.7769504118107236  0.7619672677814293  0.1067825669969480
  0.5555384927483402  0.8721132643192675  0.8554109738180387
  0.4448949303509622  0.7601627706622907  0.6057574608573759
 
  0.00000000E+00  0.00000000E+00  0.00000000E+00
  0.00000000E+00  0.00000000E+00  0.00000000E+00
  0.00000000E+00  0.00000000E+00  0.00000000E+00
  0.00000000E+00  0.00000000E+00  0.00000000E+00
  0.00000000E+00  0.00000000E+00  0.00000000E+00
  0.00000000E+00  0.00000000E+00  0.00000000E+00
  0.00000000E+00  0.00000000E+00  0.00000000E+00
  0.00000000E+00  0.00000000E+00  0.00000000E+00
  0.00000000E+00  0.00000000E+00  0.00000000E+00
  0.00000000E+00  0.00000000E+00  0.00000000E+00
  0.00000000E+00  0.00000000E+00  0.00000000E+00
  0.00000000E+00  0.00000000E+00  0.00000000E+00
  0.00000000E+00  0.00000000E+00  0.00000000E+00
  0.00000000E+00  0.00000000E+00  0.00000000E+00
  0.00000000E+00  0.00000000E+00  0.00000000E+00
  0.00000000E+00  0.00000000E+00  0.00000000E+00
  0.00000000E+00  0.00000000E+00  0.00000000E+00
  0.00000000E+00  0.00000000E+00  0.00000000E+00
  0.00000000E+00  0.00000000E+00  0.00000000E+00
  0.00000000E+00  0.00000000E+00  0.00000000E+00
  0.00000000E+00  0.00000000E+00  0.00000000E+00
  0.00000000E+00  0.00000000E+00  0.00000000E+00
  0.00000000E+00  0.00000000E+00  0.00000000E+00
  0.00000000E+00  0.00000000E+00  0.00000000E+00
  0.00000000E+00  0.00000000E+00  0.00000000E+00
  0.00000000E+00  0.00000000E+00  0.00000000E+00
  0.00000000E+00  0.00000000E+00  0.00000000E+00
  0.00000000E+00  0.00000000E+00  0.00000000E+00
  0.00000000E+00  0.00000000E+00  0.00000000E+00
  0.00000000E+00  0.00000000E+00  0.00000000E+00
  0.00000000E+00  0.00000000E+00  0.00000000E+00
  0.00000000E+00  0.00000000E+00  0.00000000E+00
  0.00000000E+00  0.00000000E+00  0.00000000E+00
  0.00000000E+00  0.00000000E+00  0.00000000E+00
  0.00000000E+00  0.00000000E+00  0.00000000E+00
  0.00000000E+00  0.00000000E+00  0.00000000E+00
  0.00000000E+00  0.00000000E+00  0.00000000E+00
  0.00000000E+00  0.00000000E+00  0.00000000E+00
  0.00000000E+00  0.00000000E+00  0.00000000E+00
  0.00000000E+00  0.00000000E+00  0.00000000E+00
  0.00000000E+00  0.00000000E+00  0.00000000E+00
  0.00000000E+00  0.00000000E+00  0.00000000E+00
  0.00000000E+00  0.00000000E+00  0.00000000E+00
  0.00000000E+00  0.00000000E+00  0.00000000E+00
  0.00000000E+00  0.00000000E+00  0.00000000E+00
  0.00000000E+00  0.00000000E+00  0.00000000E+00
  0.00000000E+00  0.00000000E+00  0.00000000E+00
  0.00000000E+00  0.00000000E+00  0.00000000E+00
  0.00000000E+00  0.00000000E+00  0.00000000E+00
  0.00000000E+00  0.00000000E+00  0.00000000E+00
  0.00000000E+00  0.00000000E+00  0.00000000E+00
  0.00000000E+00  0.00000000E+00  0.00000000E+00
  0.00000000E+00  0.00000000E+00  0.00000000E+00
  0.00000000E+00  0.00000000E+00  0.00000000E+00
  0.00000000E+00  0.00000000E+00  0.00000000E+00
  0.00000000E+00  0.00000000E+00  0.00000000E+00
  0.00000000E+00  0.00000000E+00  0.00000000E+00
  0.00000000E+00  0.00000000E+00  0.00000000E+00
  0.00000000E+00  0.00000000E+00  0.00000000E+00
  0.00000000E+00  0.00000000E+00  0.00000000E+00
  0.00000000E+00  0.00000000E+00  0.00000000E+00
  0.00000000E+00  0.00000000E+00  0.00000000E+00
  0.00000000E+00  0.00000000E+00  0.00000000E+00
  0.00000000E+00  0.00000000E+00  0.00000000E+00
  0.00000000E+00  0.00000000E+00  0.00000000E+00
  0.00000000E+00  0.00000000E+00  0.00000000E+00
  0.00000000E+00  0.00000000E+00  0.00000000E+00
  0.00000000E+00  0.00000000E+00  0.00000000E+00
  0.00000000E+00  0.00000000E+00  0.00000000E+00
  0.00000000E+00  0.00000000E+00  0.00000000E+00
  0.00000000E+00  0.00000000E+00  0.00000000E+00
  0.00000000E+00  0.00000000E+00  0.00000000E+00
