supercell of icsd_608626.cif            
  0.975047790010989     
     9.3211599214834386    0.0013710624052258   -0.0043430155656271
    -4.6593979757166339    8.0691304699140893    0.0194906070473209
    -0.0046949986969291    0.0217773220515168    9.8380145875732623
   Al   B    N 
    30     6    36
Direct
  0.2238490612991484  0.1125095474081519  0.2546439804380185
  0.8782507011928047  0.1107859554274242  0.7349836711176252
  0.7755312976154940  0.2229254614459748  0.9997370670186783
  0.4490587360366689  0.2192155294400635  0.4965503866920074
  0.2260043915826202  0.1107262242877596  0.7432685333542750
  0.1100601092105009  0.2215791978236297  0.9974003146704078
  0.8866281643217562  0.1193045962975958  0.2590169336092245
  0.4493025232080328  0.2164695949286184  0.9980911955589136
  0.2157976849514469  0.4373561908201822  0.2547485652374846
  0.1022459582629978  0.5446502000641260  0.4912546184759989
  0.8810988275485485  0.4366749940540444  0.7429616218677211
  0.7808619062606326  0.5504059870031242  0.0058912517518621
  0.5575235185028973  0.4389878580170503  0.2496751565628159
  0.4425313074780419  0.5564492552912910  0.5046201417717882
  0.2227245874176731  0.4490599264043738  0.7443710823614467
  0.1051297482800564  0.5503607560152446  0.0057760827743181
  0.7753841215848638  0.5484072451005204  0.4935611853092823
  0.5569511829998888  0.4427648900235397  0.7496088310180440
  0.4445413017356827  0.5581783764392156  0.9919621986078866
  0.2273104739859733  0.7823377205644277  0.2487235103943064
  0.1088258798037458  0.8921339886119100  0.5012906072249095
  0.8810922069971809  0.7730789246734986  0.7507089157529805
  0.7784647414946164  0.8920785829606928  0.9933002069706447
  0.5578237201037695  0.7856267215135020  0.2478108247122819
  0.4566496655882872  0.8985938154025988  0.5025618678702770
  0.2289735302099416  0.7790144637434224  0.7490303761221782
  0.1126182768873463  0.8897172614101621  0.9992270404590542
  0.8900122203557714  0.7750681475616403  0.2497688280996968
  0.7743831185969228  0.8917299564256211  0.5034762465424549
  0.4533244386740520  0.8983340608193657  0.9898212920373339
  0.1118102022074154  0.2285232199039910  0.5080433226369578
  0.5691087357646580  0.1227168170374426  0.2554067393128889
  0.7740625746864183  0.2220846398893030  0.4955894738772031
  0.5603108073462408  0.1099951997776287  0.7447739866158187
  0.8739399065927742  0.4299495140823382  0.2598288220640725
  0.5615362563994637  0.7866854665885157  0.7556951114893309
  0.2096887555043310  0.1239128984913549  0.4516828673911490
  0.1084824302842193  0.2192794710445582  0.1904343209892829
  0.8893336375431034  0.1156466604004791  0.9331789024188097
  0.7525605538122662  0.2126728899248320  0.6688764834195311
  0.5812432037950686  0.1219571844964307  0.4251814627950168
  0.4574306391972485  0.2077529970558558  0.2005474325393450
  0.2252669655253499  0.1134213081699684  0.9393395337125128
  0.1120981607616685  0.2235965498093293  0.6733892844015230
  0.8957261830577892  0.1310949749096082  0.4584963802794491
  0.7662300111218130  0.2331216932511566  0.1998440566282795
  0.5634138682305689  0.1161754378615640  0.9129024902650755
  0.4565707462307032  0.2056652882948882  0.6925515175660237
  0.2112502510090053  0.4198875724430735  0.4519720353561141
  0.0850266134483277  0.5394077201032772  0.2064574093859264
  0.8883985520768718  0.4419603579682558  0.9365364108325451
  0.7761627846477666  0.5535225894848210  0.6872933728723183
  0.5506768423628614  0.4429311700668492  0.4437468404696432
  0.4430402314876645  0.5577006756070517  0.1897645509050392
  0.2197005987787151  0.4442185353201396  0.9395698305446274
  0.1063643100985843  0.5548524319746377  0.6857066470984847
  0.8719856536619588  0.4163658946956872  0.4299822196644527
  0.7897609916604011  0.5406068849789349  0.2048210757966871
  0.5569694189156493  0.4426835256945836  0.9463642991851913
  0.4561098287754888  0.5811245729699692  0.7010401715282057
  0.2273339901866649  0.7819626098686570  0.4444792124722241
  0.1131013946436639  0.8910397757375392  0.1938774176186726
  0.8873217562696780  0.7740152732126404  0.9463743828241746
  0.7525220774710490  0.8762107893502460  0.6998260966588106
  0.5534499267547304  0.7771051074041253  0.4391556214188128
  0.4647506216432618  0.9203034734603435  0.1909018356964864
  0.2244563647054392  0.7755596968951295  0.9468958362639910
  0.1077098868601141  0.8857864717419375  0.6950752454935483
  0.8861637336159873  0.7776410415257544  0.4439276243015868
  0.7806370087552992  0.8933167396822697  0.1906024630381467
  0.5575869274948317  0.7805930038262758  0.9223658332194660
  0.4677531944275160  0.9024264450197634  0.7016588445686622
 
  0.00000000E+00  0.00000000E+00  0.00000000E+00
  0.00000000E+00  0.00000000E+00  0.00000000E+00
  0.00000000E+00  0.00000000E+00  0.00000000E+00
  0.00000000E+00  0.00000000E+00  0.00000000E+00
  0.00000000E+00  0.00000000E+00  0.00000000E+00
  0.00000000E+00  0.00000000E+00  0.00000000E+00
  0.00000000E+00  0.00000000E+00  0.00000000E+00
  0.00000000E+00  0.00000000E+00  0.00000000E+00
  0.00000000E+00  0.00000000E+00  0.00000000E+00
  0.00000000E+00  0.00000000E+00  0.00000000E+00
  0.00000000E+00  0.00000000E+00  0.00000000E+00
  0.00000000E+00  0.00000000E+00  0.00000000E+00
  0.00000000E+00  0.00000000E+00  0.00000000E+00
  0.00000000E+00  0.00000000E+00  0.00000000E+00
  0.00000000E+00  0.00000000E+00  0.00000000E+00
  0.00000000E+00  0.00000000E+00  0.00000000E+00
  0.00000000E+00  0.00000000E+00  0.00000000E+00
  0.00000000E+00  0.00000000E+00  0.00000000E+00
  0.00000000E+00  0.00000000E+00  0.00000000E+00
  0.00000000E+00  0.00000000E+00  0.00000000E+00
  0.00000000E+00  0.00000000E+00  0.00000000E+00
  0.00000000E+00  0.00000000E+00  0.00000000E+00
  0.00000000E+00  0.00000000E+00  0.00000000E+00
  0.00000000E+00  0.00000000E+00  0.00000000E+00
  0.00000000E+00  0.00000000E+00  0.00000000E+00
  0.00000000E+00  0.00000000E+00  0.00000000E+00
  0.00000000E+00  0.00000000E+00  0.00000000E+00
  0.00000000E+00  0.00000000E+00  0.00000000E+00
  0.00000000E+00  0.00000000E+00  0.00000000E+00
  0.00000000E+00  0.00000000E+00  0.00000000E+00
  0.00000000E+00  0.00000000E+00  0.00000000E+00
  0.00000000E+00  0.00000000E+00  0.00000000E+00
  0.00000000E+00  0.00000000E+00  0.00000000E+00
  0.00000000E+00  0.00000000E+00  0.00000000E+00
  0.00000000E+00  0.00000000E+00  0.00000000E+00
  0.00000000E+00  0.00000000E+00  0.00000000E+00
  0.00000000E+00  0.00000000E+00  0.00000000E+00
  0.00000000E+00  0.00000000E+00  0.00000000E+00
  0.00000000E+00  0.00000000E+00  0.00000000E+00
  0.00000000E+00  0.00000000E+00  0.00000000E+00
  0.00000000E+00  0.00000000E+00  0.00000000E+00
  0.00000000E+00  0.00000000E+00  0.00000000E+00
  0.00000000E+00  0.00000000E+00  0.00000000E+00
  0.00000000E+00  0.00000000E+00  0.00000000E+00
  0.00000000E+00  0.00000000E+00  0.00000000E+00
  0.00000000E+00  0.00000000E+00  0.00000000E+00
  0.00000000E+00  0.00000000E+00  0.00000000E+00
  0.00000000E+00  0.00000000E+00  0.00000000E+00
  0.00000000E+00  0.00000000E+00  0.00000000E+00
  0.00000000E+00  0.00000000E+00  0.00000000E+00
  0.00000000E+00  0.00000000E+00  0.00000000E+00
  0.00000000E+00  0.00000000E+00  0.00000000E+00
  0.00000000E+00  0.00000000E+00  0.00000000E+00
  0.00000000E+00  0.00000000E+00  0.00000000E+00
  0.00000000E+00  0.00000000E+00  0.00000000E+00
  0.00000000E+00  0.00000000E+00  0.00000000E+00
  0.00000000E+00  0.00000000E+00  0.00000000E+00
  0.00000000E+00  0.00000000E+00  0.00000000E+00
  0.00000000E+00  0.00000000E+00  0.00000000E+00
  0.00000000E+00  0.00000000E+00  0.00000000E+00
  0.00000000E+00  0.00000000E+00  0.00000000E+00
  0.00000000E+00  0.00000000E+00  0.00000000E+00
  0.00000000E+00  0.00000000E+00  0.00000000E+00
  0.00000000E+00  0.00000000E+00  0.00000000E+00
  0.00000000E+00  0.00000000E+00  0.00000000E+00
  0.00000000E+00  0.00000000E+00  0.00000000E+00
  0.00000000E+00  0.00000000E+00  0.00000000E+00
  0.00000000E+00  0.00000000E+00  0.00000000E+00
  0.00000000E+00  0.00000000E+00  0.00000000E+00
  0.00000000E+00  0.00000000E+00  0.00000000E+00
  0.00000000E+00  0.00000000E+00  0.00000000E+00
  0.00000000E+00  0.00000000E+00  0.00000000E+00
