Al   B    N                             
   1.00000000000000     
    -9.2616759678674505    0.0008691492384206    0.0039431388222166
    -4.6263665778834602    8.0300099273757208    0.0061756996057003
    -0.0758144004704743   -0.0066663598990896  -10.0736040453344007
   Al   B    N 
    33     3    36
Direct
  0.0916456046921610  0.1064254721593301  0.3981385947132949
  0.2211035449274803  0.1963697934021766  0.1366471294080682
  0.7790965114026349  0.0917183671359183  0.8174944057451512
  0.4562496260973461  0.0851802423934487  0.3193258554529521
  0.5565006188933026  0.1983761069912191  0.0740504156801620
  0.1093216377808659  0.0997075208139648  0.8889574998434000
  0.2188669270891523  0.2019891472259872  0.6407131294357029
  0.8894320712995452  0.1974828772975101  0.1455985003567477
  0.4546482526751205  0.0884785917751785  0.8291101003843195
  0.5687606034013086  0.2039082113637889  0.5650805182382825
  0.1071808312755422  0.4349081861659272  0.3206096165994410
  0.2221984550814753  0.5386279715787836  0.0700218115889015
  0.7778826670601262  0.4318551459317632  0.8165011153316399
  0.8903804271119498  0.5362181254927521  0.5704045222555223
  0.4487017690801594  0.4247616109690213  0.3196665270471186
  0.5580801675132605  0.5404362330893804  0.0698847756239402
  0.1087800716126353  0.4352843568948543  0.8222291063151133
  0.2235138158002457  0.5384866474611059  0.5692799963464950
  0.7714836849017885  0.4304117900745013  0.3250818580499910
  0.8818219792514341  0.5416091468863087  0.0697689427461725
  0.4472069393369651  0.4258249200013324  0.8200634442049974
  0.5604579315889353  0.5346742129752400  0.5709080470649965
  0.1067637883447219  0.7697990303101179  0.3208827187963124
  0.2292257304381522  0.8655562674717245  0.0696201529303622
  0.7766470554582909  0.7638689861570285  0.8260400567671269
  0.8877961689551910  0.8833443737046380  0.5659231008577521
  0.4429725043246719  0.7670198015560103  0.3181784835150978
  0.1111235759760660  0.7622422704107166  0.8198430934049483
  0.2232014389306940  0.8698842677591259  0.5765015419965636
  0.7710408709615209  0.7688041594041337  0.3158918076101429
  0.8821915849967894  0.8726892880123174  0.0742881660701968
  0.4482697182758528  0.7614508007930567  0.8266172177267421
  0.5588904908156138  0.8718948127856905  0.5715951606237155
  0.8955559337169916  0.2027090088874388  0.6528618468792473
  0.7738390993443574  0.0914339492808836  0.3142169139397524
  0.5558256009312501  0.8715822697752458  0.0693890743474270
  0.2191682846141703  0.2016855638824850  0.3340262409112427
  0.1022742773639180  0.0987308693263458  0.0776501216981202
  0.9000560348961173  0.2015203802627283  0.8168092657506065
  0.7900450737430589  0.1054227168263040  0.6291751863086787
  0.5792638137140145  0.1928764505749214  0.3720642307658153
  0.4586833433692306  0.0653074330091812  0.1237732412417074
  0.2239740702277189  0.2037802904527695  0.8356823550417261
  0.0826244873935380  0.1113176628292862  0.5901323357653467
  0.8749784856061851  0.1925900392074453  0.3347133826955684
  0.7695589735066477  0.0859076443825657  0.1489492229541511
  0.5611008787700555  0.2046842151329429  0.8854206579475914
  0.4564764561730357  0.0913750384790646  0.6324989110416084
  0.2219254640464499  0.5410744138926660  0.3802569448703039
  0.1057836376295072  0.4336663885458236  0.1285692336644431
  0.8878021284187056  0.5401830460345423  0.8813735943913841
  0.7878212015917114  0.4102170589167002  0.6258150751018121
  0.5505042399867861  0.5439480477965191  0.3815579309739974
  0.4446075716055944  0.4265230045092920  0.1305972729617864
  0.2242405858536287  0.5397365047918541  0.8811806397755433
  0.1091264957166231  0.4337183330119245  0.6301797493594847
  0.8853352828703152  0.5433844418129539  0.3805305667652092
  0.7752984637975402  0.4294784308476451  0.1323238928141279
  0.5587535916496051  0.5365180733978150  0.8809775965476661
  0.4464224045495158  0.4256447755649262  0.6294601146894436
  0.2234712642577747  0.8719472544131435  0.3842825632747875
  0.1100016493012461  0.7618529040070001  0.1320379143218275
  0.8893928120086585  0.8743873991391666  0.8849932123887498
  0.7799641008503002  0.7634700606911053  0.6337212130183332
  0.5556948076476402  0.8708127973360220  0.3854808084360428
  0.4556531244694355  0.7727974084963165  0.1251598159416858
  0.2267206629975220  0.8655994580748043  0.8794069537133566
  0.1091850784485260  0.7616247127022433  0.6304220119730530
  0.8740266313799765  0.8970864422594076  0.3722615028049034
  0.7519051729440349  0.7712635217709334  0.1241612002233694
  0.5573848560955525  0.8707635213732914  0.9033883626975694
  0.4484016529076627  0.7609857565325768  0.6363082412977761
 
  0.00000000E+00  0.00000000E+00  0.00000000E+00
  0.00000000E+00  0.00000000E+00  0.00000000E+00
  0.00000000E+00  0.00000000E+00  0.00000000E+00
  0.00000000E+00  0.00000000E+00  0.00000000E+00
  0.00000000E+00  0.00000000E+00  0.00000000E+00
  0.00000000E+00  0.00000000E+00  0.00000000E+00
  0.00000000E+00  0.00000000E+00  0.00000000E+00
  0.00000000E+00  0.00000000E+00  0.00000000E+00
  0.00000000E+00  0.00000000E+00  0.00000000E+00
  0.00000000E+00  0.00000000E+00  0.00000000E+00
  0.00000000E+00  0.00000000E+00  0.00000000E+00
  0.00000000E+00  0.00000000E+00  0.00000000E+00
  0.00000000E+00  0.00000000E+00  0.00000000E+00
  0.00000000E+00  0.00000000E+00  0.00000000E+00
  0.00000000E+00  0.00000000E+00  0.00000000E+00
  0.00000000E+00  0.00000000E+00  0.00000000E+00
  0.00000000E+00  0.00000000E+00  0.00000000E+00
  0.00000000E+00  0.00000000E+00  0.00000000E+00
  0.00000000E+00  0.00000000E+00  0.00000000E+00
  0.00000000E+00  0.00000000E+00  0.00000000E+00
  0.00000000E+00  0.00000000E+00  0.00000000E+00
  0.00000000E+00  0.00000000E+00  0.00000000E+00
  0.00000000E+00  0.00000000E+00  0.00000000E+00
  0.00000000E+00  0.00000000E+00  0.00000000E+00
  0.00000000E+00  0.00000000E+00  0.00000000E+00
  0.00000000E+00  0.00000000E+00  0.00000000E+00
  0.00000000E+00  0.00000000E+00  0.00000000E+00
  0.00000000E+00  0.00000000E+00  0.00000000E+00
  0.00000000E+00  0.00000000E+00  0.00000000E+00
  0.00000000E+00  0.00000000E+00  0.00000000E+00
  0.00000000E+00  0.00000000E+00  0.00000000E+00
  0.00000000E+00  0.00000000E+00  0.00000000E+00
  0.00000000E+00  0.00000000E+00  0.00000000E+00
  0.00000000E+00  0.00000000E+00  0.00000000E+00
  0.00000000E+00  0.00000000E+00  0.00000000E+00
  0.00000000E+00  0.00000000E+00  0.00000000E+00
  0.00000000E+00  0.00000000E+00  0.00000000E+00
  0.00000000E+00  0.00000000E+00  0.00000000E+00
  0.00000000E+00  0.00000000E+00  0.00000000E+00
  0.00000000E+00  0.00000000E+00  0.00000000E+00
  0.00000000E+00  0.00000000E+00  0.00000000E+00
  0.00000000E+00  0.00000000E+00  0.00000000E+00
  0.00000000E+00  0.00000000E+00  0.00000000E+00
  0.00000000E+00  0.00000000E+00  0.00000000E+00
  0.00000000E+00  0.00000000E+00  0.00000000E+00
  0.00000000E+00  0.00000000E+00  0.00000000E+00
  0.00000000E+00  0.00000000E+00  0.00000000E+00
  0.00000000E+00  0.00000000E+00  0.00000000E+00
  0.00000000E+00  0.00000000E+00  0.00000000E+00
  0.00000000E+00  0.00000000E+00  0.00000000E+00
  0.00000000E+00  0.00000000E+00  0.00000000E+00
  0.00000000E+00  0.00000000E+00  0.00000000E+00
  0.00000000E+00  0.00000000E+00  0.00000000E+00
  0.00000000E+00  0.00000000E+00  0.00000000E+00
  0.00000000E+00  0.00000000E+00  0.00000000E+00
  0.00000000E+00  0.00000000E+00  0.00000000E+00
  0.00000000E+00  0.00000000E+00  0.00000000E+00
  0.00000000E+00  0.00000000E+00  0.00000000E+00
  0.00000000E+00  0.00000000E+00  0.00000000E+00
  0.00000000E+00  0.00000000E+00  0.00000000E+00
  0.00000000E+00  0.00000000E+00  0.00000000E+00
  0.00000000E+00  0.00000000E+00  0.00000000E+00
  0.00000000E+00  0.00000000E+00  0.00000000E+00
  0.00000000E+00  0.00000000E+00  0.00000000E+00
  0.00000000E+00  0.00000000E+00  0.00000000E+00
  0.00000000E+00  0.00000000E+00  0.00000000E+00
  0.00000000E+00  0.00000000E+00  0.00000000E+00
  0.00000000E+00  0.00000000E+00  0.00000000E+00
  0.00000000E+00  0.00000000E+00  0.00000000E+00
  0.00000000E+00  0.00000000E+00  0.00000000E+00
  0.00000000E+00  0.00000000E+00  0.00000000E+00
  0.00000000E+00  0.00000000E+00  0.00000000E+00
