Al   B    N                             
   1.00000000000000     
    -9.3210608181510590   -0.0004542396132825    0.0055757965470860
    -4.6517248145550694    8.0453753853143670    0.0065122551853861
    -0.0737134076517807    0.0336704060175466  -10.0460192966887867
   Al   B    N 
    33     3    36
Direct
  0.1021715967774099  0.0922237671467627  0.3946277562023823
  0.2181258176294847  0.2010769313136009  0.1376322798725909
  0.7783410067043306  0.0952937493733401  0.8134139701741105
  0.4577067594404127  0.0841375644765208  0.3159021202842567
  0.5570640674068557  0.1982108926770962  0.0728109335436997
  0.1075283041235124  0.0986608047155215  0.8854286242932758
  0.2155239133324969  0.2099720008259283  0.6411097412003670
  0.8864177599055765  0.2039577424756374  0.1449771514244702
  0.4540195978244057  0.0903219391785726  0.8267362347424196
  0.5679953839152674  0.2039289264036341  0.5633971484879012
  0.1145248309657987  0.4214692965664213  0.3847706148294492
  0.2257890568082033  0.5402725722409158  0.0717731604359813
  0.7802181223022160  0.4222485700442036  0.8788916435539136
  0.8862823048381330  0.5414848071787901  0.5789190417781711
  0.4515085489183974  0.4241285514948814  0.3186173926784832
  0.5509208486048465  0.5432111296930771  0.0677560869978677
  0.1147209625700825  0.4229810872825155  0.8867342261572233
  0.2268283906884463  0.5432960119104422  0.5677919602824204
  0.7824196062800155  0.4092349057319353  0.3913499079670899
  0.8786394597767284  0.5467011999452183  0.0727477080365588
  0.4452280726350040  0.4267820504833821  0.8176656427194331
  0.5538427506634349  0.5394572701006055  0.5751696173699727
  0.1060938253797943  0.7659937917155517  0.3175200952813171
  0.2253980889066085  0.8738830426117516  0.1050115479148133
  0.7754009058056042  0.7667180580046775  0.8225165314042329
  0.8876122044703081  0.8853333802922734  0.5620844429821972
  0.4504791677301938  0.7612778280119770  0.3174222189908420
  0.1061936414871028  0.7595965228987467  0.8211962330343496
  0.2170580444689918  0.8814562712965710  0.6282313679643039
  0.7722301840693788  0.7652680485702490  0.3148478345931949
  0.8799780202747556  0.8750550704363391  0.0718427742650150
  0.4500870043956766  0.7627834175971415  0.8276408344096922
  0.5571964660210682  0.8751721592411741  0.5690170064446605
  0.8902127186885593  0.2114482029835756  0.6468832634098192
  0.7751521127851930  0.0884818839711627  0.3106890915541882
  0.5553703533428092  0.8729480441831257  0.0661775108926790
  0.2198386371428711  0.2014858066032090  0.3295875495166882
  0.1017947507882155  0.0994352614023200  0.0741572065448253
  0.8958117037388007  0.2108319053761036  0.8089753152424493
  0.7894586560997183  0.1064833999228014  0.6255632817704608
  0.5806702925827452  0.1914672072494241  0.3699705595099871
  0.4575642891630807  0.0661951499136109  0.1211365988504838
  0.2218512461651585  0.2056566833399032  0.8311322819795350
  0.0854917379477413  0.1106099921814732  0.5873012943115441
  0.8793020853764233  0.1898602825014777  0.3318343969274054
  0.7700781727557668  0.0870726188550961  0.1477315103552783
  0.5610732033188484  0.2057677902872115  0.8834096885343925
  0.4545356951281292  0.0935655465524263  0.6312059560401835
  0.2267291234296849  0.5413574428180397  0.3754268162528192
  0.1115013788291606  0.4235723452314986  0.0848206414890029
  0.8862381862194084  0.5461414272718343  0.8726513395475592
  0.7915308245994694  0.3994187548265913  0.5897418855605991
  0.5525672560668440  0.5412952882437239  0.3814395884527428
  0.4457674768902393  0.4259617759253729  0.1302819661643539
  0.2269438809048481  0.5406969668098327  0.8792360960284782
  0.1151917308429660  0.4251262364896604  0.5822603507997570
  0.8829627542098706  0.5430331458529878  0.3755811308972667
  0.7796556990613013  0.4164963118828808  0.0775487298919231
  0.5496685532072192  0.5411528295494037  0.8763417500959676
  0.4459414582829666  0.4254177123593337  0.6284724451170050
  0.2243709888515895  0.8727727828995384  0.3460521726262442
  0.1058957573482644  0.7610818058177813  0.1262103468450135
  0.8858973339807719  0.8784952869403284  0.8828098939592834
  0.7780628009866604  0.7682252218305834  0.6311166322041544
  0.5568923421506966  0.8706013462134834  0.3831892066340288
  0.4602999335572378  0.7708294639094433  0.1206919909710109
  0.2206487039803307  0.8740451595125549  0.8476292254867346
  0.1060680077107605  0.7620107158395442  0.6283038516624515
  0.8747201103543105  0.8953893664553405  0.3690955994734040
  0.7508956875460129  0.7730649796450138  0.1229140897670007
  0.5570918990376654  0.8729727125989939  0.9015501616715582
  0.4513762460285946  0.7624602195050443  0.6349958106999338
 
  0.00000000E+00  0.00000000E+00  0.00000000E+00
  0.00000000E+00  0.00000000E+00  0.00000000E+00
  0.00000000E+00  0.00000000E+00  0.00000000E+00
  0.00000000E+00  0.00000000E+00  0.00000000E+00
  0.00000000E+00  0.00000000E+00  0.00000000E+00
  0.00000000E+00  0.00000000E+00  0.00000000E+00
  0.00000000E+00  0.00000000E+00  0.00000000E+00
  0.00000000E+00  0.00000000E+00  0.00000000E+00
  0.00000000E+00  0.00000000E+00  0.00000000E+00
  0.00000000E+00  0.00000000E+00  0.00000000E+00
  0.00000000E+00  0.00000000E+00  0.00000000E+00
  0.00000000E+00  0.00000000E+00  0.00000000E+00
  0.00000000E+00  0.00000000E+00  0.00000000E+00
  0.00000000E+00  0.00000000E+00  0.00000000E+00
  0.00000000E+00  0.00000000E+00  0.00000000E+00
  0.00000000E+00  0.00000000E+00  0.00000000E+00
  0.00000000E+00  0.00000000E+00  0.00000000E+00
  0.00000000E+00  0.00000000E+00  0.00000000E+00
  0.00000000E+00  0.00000000E+00  0.00000000E+00
  0.00000000E+00  0.00000000E+00  0.00000000E+00
  0.00000000E+00  0.00000000E+00  0.00000000E+00
  0.00000000E+00  0.00000000E+00  0.00000000E+00
  0.00000000E+00  0.00000000E+00  0.00000000E+00
  0.00000000E+00  0.00000000E+00  0.00000000E+00
  0.00000000E+00  0.00000000E+00  0.00000000E+00
  0.00000000E+00  0.00000000E+00  0.00000000E+00
  0.00000000E+00  0.00000000E+00  0.00000000E+00
  0.00000000E+00  0.00000000E+00  0.00000000E+00
  0.00000000E+00  0.00000000E+00  0.00000000E+00
  0.00000000E+00  0.00000000E+00  0.00000000E+00
  0.00000000E+00  0.00000000E+00  0.00000000E+00
  0.00000000E+00  0.00000000E+00  0.00000000E+00
  0.00000000E+00  0.00000000E+00  0.00000000E+00
  0.00000000E+00  0.00000000E+00  0.00000000E+00
  0.00000000E+00  0.00000000E+00  0.00000000E+00
  0.00000000E+00  0.00000000E+00  0.00000000E+00
  0.00000000E+00  0.00000000E+00  0.00000000E+00
  0.00000000E+00  0.00000000E+00  0.00000000E+00
  0.00000000E+00  0.00000000E+00  0.00000000E+00
  0.00000000E+00  0.00000000E+00  0.00000000E+00
  0.00000000E+00  0.00000000E+00  0.00000000E+00
  0.00000000E+00  0.00000000E+00  0.00000000E+00
  0.00000000E+00  0.00000000E+00  0.00000000E+00
  0.00000000E+00  0.00000000E+00  0.00000000E+00
  0.00000000E+00  0.00000000E+00  0.00000000E+00
  0.00000000E+00  0.00000000E+00  0.00000000E+00
  0.00000000E+00  0.00000000E+00  0.00000000E+00
  0.00000000E+00  0.00000000E+00  0.00000000E+00
  0.00000000E+00  0.00000000E+00  0.00000000E+00
  0.00000000E+00  0.00000000E+00  0.00000000E+00
  0.00000000E+00  0.00000000E+00  0.00000000E+00
  0.00000000E+00  0.00000000E+00  0.00000000E+00
  0.00000000E+00  0.00000000E+00  0.00000000E+00
  0.00000000E+00  0.00000000E+00  0.00000000E+00
  0.00000000E+00  0.00000000E+00  0.00000000E+00
  0.00000000E+00  0.00000000E+00  0.00000000E+00
  0.00000000E+00  0.00000000E+00  0.00000000E+00
  0.00000000E+00  0.00000000E+00  0.00000000E+00
  0.00000000E+00  0.00000000E+00  0.00000000E+00
  0.00000000E+00  0.00000000E+00  0.00000000E+00
  0.00000000E+00  0.00000000E+00  0.00000000E+00
  0.00000000E+00  0.00000000E+00  0.00000000E+00
  0.00000000E+00  0.00000000E+00  0.00000000E+00
  0.00000000E+00  0.00000000E+00  0.00000000E+00
  0.00000000E+00  0.00000000E+00  0.00000000E+00
  0.00000000E+00  0.00000000E+00  0.00000000E+00
  0.00000000E+00  0.00000000E+00  0.00000000E+00
  0.00000000E+00  0.00000000E+00  0.00000000E+00
  0.00000000E+00  0.00000000E+00  0.00000000E+00
  0.00000000E+00  0.00000000E+00  0.00000000E+00
  0.00000000E+00  0.00000000E+00  0.00000000E+00
  0.00000000E+00  0.00000000E+00  0.00000000E+00
