Al   B    N                             
   1.00000000000000     
    -9.2748873940131062   -0.0006576329677324    0.0050813885550429
    -4.6367762519063369    8.0334606653951450    0.0061420794103669
    -0.0719794436111057   -0.0003973918526203   -9.9522933001262999
   Al   B    N 
    33     3    36
Direct
  0.0967727112929921  0.0979771073660132  0.3486108633859573
  0.2304265459518859  0.2024035080551414  0.0678946196293353
  0.7805910591644576  0.0970860441453283  0.8142621448908116
  0.4530687154796880  0.0875549349659011  0.3080199879745180
  0.5586521334947179  0.1980503921208339  0.0638420719395540
  0.1064868104456806  0.0966950341658546  0.8787332988392649
  0.2195867210045748  0.2079180582442390  0.5631246103077672
  0.8822447026022004  0.2051389222291107  0.0907569355488533
  0.4472186350266014  0.0918119797400152  0.8165356237699370
  0.5672690141326555  0.2047924249312203  0.5559873051115929
  0.1104312873791002  0.4289146447571142  0.3114640416212779
  0.2225356667583256  0.5385220182809363  0.0606406829783950
  0.7810342547275084  0.4214269658253329  0.8152112006959342
  0.8908038932695987  0.5352835475856139  0.5622083757961818
  0.4500439993916601  0.4240288958233478  0.3106433944589995
  0.5577683417216122  0.5421869863808766  0.0589692151492045
  0.1113788186198050  0.4280171299680475  0.8111422242661490
  0.2231454019035510  0.5392004333540541  0.5601920041287372
  0.7745252761139838  0.4244240743563878  0.3112814931857244
  0.8828190146007699  0.5428810217511426  0.0602943035153203
  0.4454128054258248  0.4260387125112075  0.8109236485240743
  0.5598355071177892  0.5342817346274629  0.5623972831868826
  0.1064970393394020  0.7664950836489695  0.3110221053735813
  0.2307744919025865  0.8652013991240892  0.0664016916068775
  0.7756026242385019  0.7636876782715660  0.8169259945357439
  0.8884739009276785  0.8831096800952452  0.5562841011682096
  0.4479528313826933  0.7634031733013771  0.3081914609398950
  0.1096878454293488  0.7618291533911119  0.8109931278358999
  0.2191745494320827  0.8742518869445348  0.5634255172267757
  0.7721274095113841  0.7680075412937910  0.3072130183518027
  0.8819227507946223  0.8744908028349627  0.0646193337427121
  0.4463381985208557  0.7627659936658446  0.8168867815287797
  0.5571701626213752  0.8727425671310272  0.5618476626683488
  0.8917765219891152  0.2047525302905626  0.5952671575942858
  0.7760220559950710  0.0959907230868282  0.3015470608858166
  0.5563581443591517  0.8712252739110085  0.0586689034624399
  0.2257427621036854  0.2050784061360744  0.3683324718852532
  0.1140568847420980  0.0917600657763842  0.0968238149749041
  0.8794962682150924  0.2087485769233339  0.8871955142972752
  0.7943267434646160  0.1104528027322402  0.6204962170143915
  0.5787896250822868  0.1926123756683680  0.3622981761973918
  0.4584381670991746  0.0677264310233312  0.1151285151469210
  0.2247442405588131  0.2081186300634741  0.8721237051282671
  0.0785618653515385  0.1118107610210473  0.5851934629833835
  0.8696117818435738  0.1940758188691163  0.3327128698688284
  0.7716656332816854  0.0885840744217958  0.1385391645033351
  0.5579087595813448  0.2039914502583144  0.8722704026983479
  0.4480447709475115  0.0948925707137960  0.6227149515452410
  0.2225462704072569  0.5395621935911876  0.3697931848917264
  0.1093719311481891  0.4292504611186274  0.1209385583625391
  0.8882533361675513  0.5385003141951046  0.8688142432615962
  0.7936247574869668  0.3985188851929706  0.6182275205437406
  0.5536721353365479  0.5418263616801582  0.3721290539865763
  0.4456104420812537  0.4270020405424049  0.1193630456101928
  0.2222262999920730  0.5391672447753919  0.8698571204013348
  0.1116689581870105  0.4288083937024538  0.6210024696138206
  0.8864685119188991  0.5403371216946411  0.3707720793301874
  0.7738450876990939  0.4343238298893581  0.1216737170800144
  0.5563321153357492  0.5382801443254266  0.8680848735286020
  0.4458133699479276  0.4257053112489686  0.6190458082846391
  0.2260829012211900  0.8682724461101117  0.3698984190203021
  0.1096576965254243  0.7603233872269684  0.1210320479410711
  0.8877351445867134  0.8749373914565126  0.8728322787257810
  0.7786967171377910  0.7640462043453340  0.6231150831390195
  0.5558758009999707  0.8716353628594362  0.3745880691586621
  0.4588303634504243  0.7714002452409048  0.1144540966792533
  0.2241585254260414  0.8670691341351002  0.8719567947904494
  0.1092117769252923  0.7620528359726819  0.6195781838204866
  0.8753057213980355  0.8960026490838615  0.3626019931036311
  0.7527430878049586  0.7724224951575067  0.1132966212937134
  0.5555253195818963  0.8723172305980142  0.8920406039313136
  0.4460996256524652  0.7620932020315507  0.6248997376898231
 
  0.00000000E+00  0.00000000E+00  0.00000000E+00
  0.00000000E+00  0.00000000E+00  0.00000000E+00
  0.00000000E+00  0.00000000E+00  0.00000000E+00
  0.00000000E+00  0.00000000E+00  0.00000000E+00
  0.00000000E+00  0.00000000E+00  0.00000000E+00
  0.00000000E+00  0.00000000E+00  0.00000000E+00
  0.00000000E+00  0.00000000E+00  0.00000000E+00
  0.00000000E+00  0.00000000E+00  0.00000000E+00
  0.00000000E+00  0.00000000E+00  0.00000000E+00
  0.00000000E+00  0.00000000E+00  0.00000000E+00
  0.00000000E+00  0.00000000E+00  0.00000000E+00
  0.00000000E+00  0.00000000E+00  0.00000000E+00
  0.00000000E+00  0.00000000E+00  0.00000000E+00
  0.00000000E+00  0.00000000E+00  0.00000000E+00
  0.00000000E+00  0.00000000E+00  0.00000000E+00
  0.00000000E+00  0.00000000E+00  0.00000000E+00
  0.00000000E+00  0.00000000E+00  0.00000000E+00
  0.00000000E+00  0.00000000E+00  0.00000000E+00
  0.00000000E+00  0.00000000E+00  0.00000000E+00
  0.00000000E+00  0.00000000E+00  0.00000000E+00
  0.00000000E+00  0.00000000E+00  0.00000000E+00
  0.00000000E+00  0.00000000E+00  0.00000000E+00
  0.00000000E+00  0.00000000E+00  0.00000000E+00
  0.00000000E+00  0.00000000E+00  0.00000000E+00
  0.00000000E+00  0.00000000E+00  0.00000000E+00
  0.00000000E+00  0.00000000E+00  0.00000000E+00
  0.00000000E+00  0.00000000E+00  0.00000000E+00
  0.00000000E+00  0.00000000E+00  0.00000000E+00
  0.00000000E+00  0.00000000E+00  0.00000000E+00
  0.00000000E+00  0.00000000E+00  0.00000000E+00
  0.00000000E+00  0.00000000E+00  0.00000000E+00
  0.00000000E+00  0.00000000E+00  0.00000000E+00
  0.00000000E+00  0.00000000E+00  0.00000000E+00
  0.00000000E+00  0.00000000E+00  0.00000000E+00
  0.00000000E+00  0.00000000E+00  0.00000000E+00
  0.00000000E+00  0.00000000E+00  0.00000000E+00
  0.00000000E+00  0.00000000E+00  0.00000000E+00
  0.00000000E+00  0.00000000E+00  0.00000000E+00
  0.00000000E+00  0.00000000E+00  0.00000000E+00
  0.00000000E+00  0.00000000E+00  0.00000000E+00
  0.00000000E+00  0.00000000E+00  0.00000000E+00
  0.00000000E+00  0.00000000E+00  0.00000000E+00
  0.00000000E+00  0.00000000E+00  0.00000000E+00
  0.00000000E+00  0.00000000E+00  0.00000000E+00
  0.00000000E+00  0.00000000E+00  0.00000000E+00
  0.00000000E+00  0.00000000E+00  0.00000000E+00
  0.00000000E+00  0.00000000E+00  0.00000000E+00
  0.00000000E+00  0.00000000E+00  0.00000000E+00
  0.00000000E+00  0.00000000E+00  0.00000000E+00
  0.00000000E+00  0.00000000E+00  0.00000000E+00
  0.00000000E+00  0.00000000E+00  0.00000000E+00
  0.00000000E+00  0.00000000E+00  0.00000000E+00
  0.00000000E+00  0.00000000E+00  0.00000000E+00
  0.00000000E+00  0.00000000E+00  0.00000000E+00
  0.00000000E+00  0.00000000E+00  0.00000000E+00
  0.00000000E+00  0.00000000E+00  0.00000000E+00
  0.00000000E+00  0.00000000E+00  0.00000000E+00
  0.00000000E+00  0.00000000E+00  0.00000000E+00
  0.00000000E+00  0.00000000E+00  0.00000000E+00
  0.00000000E+00  0.00000000E+00  0.00000000E+00
  0.00000000E+00  0.00000000E+00  0.00000000E+00
  0.00000000E+00  0.00000000E+00  0.00000000E+00
  0.00000000E+00  0.00000000E+00  0.00000000E+00
  0.00000000E+00  0.00000000E+00  0.00000000E+00
  0.00000000E+00  0.00000000E+00  0.00000000E+00
  0.00000000E+00  0.00000000E+00  0.00000000E+00
  0.00000000E+00  0.00000000E+00  0.00000000E+00
  0.00000000E+00  0.00000000E+00  0.00000000E+00
  0.00000000E+00  0.00000000E+00  0.00000000E+00
  0.00000000E+00  0.00000000E+00  0.00000000E+00
  0.00000000E+00  0.00000000E+00  0.00000000E+00
  0.00000000E+00  0.00000000E+00  0.00000000E+00
