Al   B    N                             
   1.00000000000000     
    -9.2852200295252878   -0.0024469295611703    0.0083727771167657
    -4.6228437932094977    8.0527505433425226    0.0066189160837386
    -0.0254317669906075    0.0213440937023180  -10.1421476438478937
   Al   B    N 
    33     3    36
Direct
  0.0987657178279449  0.0946075840961598  0.3957277125569760
  0.2194989913861107  0.1994008868563171  0.1415219617534618
  0.7790543290445129  0.0953219778292436  0.8139810988030334
  0.4529500519307703  0.0862147477007795  0.3348798689229753
  0.5574943708138491  0.1939474571021478  0.0723088656629116
  0.1111221420655468  0.0978656322200706  0.8865061229630200
  0.2123127462109480  0.2115041765811370  0.6366309912774710
  0.8871426583340849  0.2033331707590520  0.1435836029426625
  0.4513741130594724  0.0952593139620319  0.8108142868454422
  0.5695185455858081  0.2082575934722186  0.5613274064070097
  0.1096761236063628  0.4279481832049896  0.3900227448480393
  0.2188783732904582  0.5350722494951086  0.1341716126878296
  0.7813507734318463  0.4270726455195089  0.8864813170739225
  0.8946492682294007  0.5294172524343637  0.6378923617909678
  0.4538828234516643  0.4170020237852725  0.3185469942732411
  0.5623814112224537  0.5443079903132215  0.1364322247346692
  0.1111439914928098  0.4267967347635135  0.8911331522657520
  0.2205327284853240  0.5372354039752167  0.6356626683578313
  0.7781388802312321  0.4162146873196448  0.3953174315850774
  0.8841717026017619  0.5343289888409757  0.1397282455455198
  0.4492624098110696  0.4212356445654351  0.8271491917756393
  0.5637830216100781  0.5378330976980905  0.6443149528547565
  0.1004310711488685  0.7702339729998116  0.3187064066302980
  0.2279494084880795  0.8787568353896447  0.1366731352876300
  0.7784409186492667  0.7680468471479571  0.8121521597376855
  0.8910559819481350  0.8849992949152465  0.5605967424674461
  0.4407004690108707  0.7570430663568075  0.3960896123158690
  0.1043141879013163  0.7659696796300537  0.8266969391232948
  0.2212183066606030  0.8802471884896050  0.6441286887272355
  0.7679383884646995  0.7711736188007805  0.3272988752912198
  0.8780152604154310  0.8745566745634221  0.0721282059006114
  0.4497954406254507  0.7666489261795348  0.8887418718307174
  0.5589060784752391  0.8738656875284150  0.5899315270335137
  0.8918903412369801  0.2078274767080686  0.6471306902874048
  0.7748938626308188  0.0915700610042762  0.3099781711843477
  0.5545936993034104  0.8725185729491898  0.1084322042802555
  0.2160828103994348  0.2053178754793592  0.3320714063164587
  0.1045560569163300  0.0969575245262035  0.0748949659193627
  0.8960574335568623  0.2122981684546446  0.8108175523898353
  0.7905059564620132  0.1061518108421424  0.6270602518023338
  0.5835693166170515  0.1916843464049549  0.3707023112000769
  0.4590682478845167  0.0602120242501769  0.1297469981929353
  0.2200049683549565  0.2093879457495618  0.8272751794965814
  0.0854273190735455  0.1076868175907393  0.5861812338041688
  0.8772690794476645  0.1941801343602663  0.3303359569180273
  0.7701143095475373  0.0868416982784481  0.1479056621323167
  0.5619657139530716  0.2007782656233985  0.8848221164817360
  0.4462806440781080  0.1055066301406171  0.6164267969922577
  0.2204774133406602  0.5367677080261686  0.3320938793761883
  0.1089910983650455  0.4238090274736450  0.0794170612974696
  0.8929056496782479  0.5363560366547446  0.8288075077981460
  0.7911921944047933  0.4023499263069681  0.5861538652360281
  0.5609850269914318  0.5415639853133101  0.3280943463603734
  0.4492146072059668  0.4199163300181539  0.1232737507210828
  0.2200887901982398  0.5368421533520689  0.8355911250036527
  0.1109845135681340  0.4285301143712346  0.5752612219102673
  0.8882188276622145  0.5335243810125831  0.3300662924665829
  0.7803842277518669  0.4204575778520407  0.0745645771764458
  0.5592055063704890  0.5430502195039395  0.8355463093816411
  0.4505791848721330  0.4214589504548059  0.6279636515289084
  0.2248294100106349  0.8776615385310294  0.3283809300638225
  0.1037078094489630  0.7654820509646569  0.1234408661989193
  0.8844011971937249  0.8785950424717797  0.8852446011281785
  0.7892894744703369  0.7630898993493958  0.6194752215613804
  0.5572584149232540  0.8720962960455907  0.3926595965851121
  0.4597249401992940  0.7763998603346707  0.0838481172885537
  0.2262323847910821  0.8757876649896801  0.8353749782473443
  0.1047799456106944  0.7671870280937299  0.6272855176175938
  0.8744696102487239  0.8997431887892233  0.3696755284011246
  0.7435788111393862  0.7757854374175182  0.1287590243350110
  0.5555987438006298  0.8727741521192200  0.8288974643923979
  0.4396454646327825  0.7561786888486637  0.5829833869919199
 
  0.00000000E+00  0.00000000E+00  0.00000000E+00
  0.00000000E+00  0.00000000E+00  0.00000000E+00
  0.00000000E+00  0.00000000E+00  0.00000000E+00
  0.00000000E+00  0.00000000E+00  0.00000000E+00
  0.00000000E+00  0.00000000E+00  0.00000000E+00
  0.00000000E+00  0.00000000E+00  0.00000000E+00
  0.00000000E+00  0.00000000E+00  0.00000000E+00
  0.00000000E+00  0.00000000E+00  0.00000000E+00
  0.00000000E+00  0.00000000E+00  0.00000000E+00
  0.00000000E+00  0.00000000E+00  0.00000000E+00
  0.00000000E+00  0.00000000E+00  0.00000000E+00
  0.00000000E+00  0.00000000E+00  0.00000000E+00
  0.00000000E+00  0.00000000E+00  0.00000000E+00
  0.00000000E+00  0.00000000E+00  0.00000000E+00
  0.00000000E+00  0.00000000E+00  0.00000000E+00
  0.00000000E+00  0.00000000E+00  0.00000000E+00
  0.00000000E+00  0.00000000E+00  0.00000000E+00
  0.00000000E+00  0.00000000E+00  0.00000000E+00
  0.00000000E+00  0.00000000E+00  0.00000000E+00
  0.00000000E+00  0.00000000E+00  0.00000000E+00
  0.00000000E+00  0.00000000E+00  0.00000000E+00
  0.00000000E+00  0.00000000E+00  0.00000000E+00
  0.00000000E+00  0.00000000E+00  0.00000000E+00
  0.00000000E+00  0.00000000E+00  0.00000000E+00
  0.00000000E+00  0.00000000E+00  0.00000000E+00
  0.00000000E+00  0.00000000E+00  0.00000000E+00
  0.00000000E+00  0.00000000E+00  0.00000000E+00
  0.00000000E+00  0.00000000E+00  0.00000000E+00
  0.00000000E+00  0.00000000E+00  0.00000000E+00
  0.00000000E+00  0.00000000E+00  0.00000000E+00
  0.00000000E+00  0.00000000E+00  0.00000000E+00
  0.00000000E+00  0.00000000E+00  0.00000000E+00
  0.00000000E+00  0.00000000E+00  0.00000000E+00
  0.00000000E+00  0.00000000E+00  0.00000000E+00
  0.00000000E+00  0.00000000E+00  0.00000000E+00
  0.00000000E+00  0.00000000E+00  0.00000000E+00
  0.00000000E+00  0.00000000E+00  0.00000000E+00
  0.00000000E+00  0.00000000E+00  0.00000000E+00
  0.00000000E+00  0.00000000E+00  0.00000000E+00
  0.00000000E+00  0.00000000E+00  0.00000000E+00
  0.00000000E+00  0.00000000E+00  0.00000000E+00
  0.00000000E+00  0.00000000E+00  0.00000000E+00
  0.00000000E+00  0.00000000E+00  0.00000000E+00
  0.00000000E+00  0.00000000E+00  0.00000000E+00
  0.00000000E+00  0.00000000E+00  0.00000000E+00
  0.00000000E+00  0.00000000E+00  0.00000000E+00
  0.00000000E+00  0.00000000E+00  0.00000000E+00
  0.00000000E+00  0.00000000E+00  0.00000000E+00
  0.00000000E+00  0.00000000E+00  0.00000000E+00
  0.00000000E+00  0.00000000E+00  0.00000000E+00
  0.00000000E+00  0.00000000E+00  0.00000000E+00
  0.00000000E+00  0.00000000E+00  0.00000000E+00
  0.00000000E+00  0.00000000E+00  0.00000000E+00
  0.00000000E+00  0.00000000E+00  0.00000000E+00
  0.00000000E+00  0.00000000E+00  0.00000000E+00
  0.00000000E+00  0.00000000E+00  0.00000000E+00
  0.00000000E+00  0.00000000E+00  0.00000000E+00
  0.00000000E+00  0.00000000E+00  0.00000000E+00
  0.00000000E+00  0.00000000E+00  0.00000000E+00
  0.00000000E+00  0.00000000E+00  0.00000000E+00
  0.00000000E+00  0.00000000E+00  0.00000000E+00
  0.00000000E+00  0.00000000E+00  0.00000000E+00
  0.00000000E+00  0.00000000E+00  0.00000000E+00
  0.00000000E+00  0.00000000E+00  0.00000000E+00
  0.00000000E+00  0.00000000E+00  0.00000000E+00
  0.00000000E+00  0.00000000E+00  0.00000000E+00
  0.00000000E+00  0.00000000E+00  0.00000000E+00
  0.00000000E+00  0.00000000E+00  0.00000000E+00
  0.00000000E+00  0.00000000E+00  0.00000000E+00
  0.00000000E+00  0.00000000E+00  0.00000000E+00
  0.00000000E+00  0.00000000E+00  0.00000000E+00
  0.00000000E+00  0.00000000E+00  0.00000000E+00
