Al   B    N                             
   1.00000000000000     
    -9.2551034871539333   -0.0021668604801924    0.0076886477204463
    -4.6093074427253917    8.0303083539808142    0.0069477977002736
    -0.0467975908513759    0.0277110160414596  -10.1670074413416032
   Al   B    N 
    33     3    36
Direct
  0.0996872924996808  0.0942144682177002  0.3934091984756520
  0.2180542494882189  0.2015295049483967  0.1343483290125604
  0.7797044731589580  0.0965700411245507  0.8115860898410006
  0.4557953279714724  0.0832640906012188  0.3120976675379907
  0.5571556823908281  0.1975528549525336  0.0698227375125029
  0.1100120104696458  0.0960327753138657  0.8853342155258019
  0.2146683791103214  0.2106019898823703  0.6393330824365933
  0.8871539457994118  0.2024746289525368  0.1428245055844144
  0.4534986995512540  0.0930772291664681  0.8221790340205430
  0.5680385782117909  0.2047474689725348  0.5606540167687086
  0.1073154892739296  0.4234561056175963  0.3855949070451459
  0.2251296355146124  0.5423542793993263  0.0685433374302420
  0.7799452155677713  0.4265187520226803  0.8831322231836154
  0.8937774535840859  0.5320059167721922  0.6391515804243966
  0.4477688639441553  0.4190555984527080  0.3160314737685539
  0.5601237552729899  0.5435688029858881  0.1323174350576792
  0.1087870415294958  0.4254357349670244  0.8893059771590472
  0.2265520130544800  0.5435003049596361  0.5651185278844508
  0.7789754967425964  0.4150682036856637  0.3933740782284900
  0.8845716040529723  0.5345788844647501  0.1341746990397397
  0.4431154810906079  0.4254244215367464  0.8175559940248078
  0.5635108884165945  0.5375015882114837  0.6362567950297517
  0.1020628990141432  0.7630064281437967  0.3160240675628714
  0.2287552919808391  0.8768771029141078  0.1388402125587405
  0.7751874960889609  0.7707813182932668  0.8221233233082117
  0.8881260931454520  0.8846995887633966  0.5609220919454145
  0.4399832453690991  0.7564992357716775  0.3902300923422644
  0.1077848313418457  0.7596315657140664  0.8177845522214540
  0.2205222379544125  0.8811691211295098  0.6396403604406373
  0.7662546948390698  0.7721167920733123  0.3120688985166566
  0.8815255070305952  0.8734297133010145  0.0699932697432502
  0.4438039164256438  0.7626639300081521  0.8916173647987264
  0.5598234519174738  0.8775655080328448  0.5672559955836576
  0.8930281432916516  0.2086934966581495  0.6443350374343737
  0.7741084795420008  0.0903501441968757  0.3095678890608582
  0.5586352084644233  0.8755228169036755  0.0606066591394097
  0.2177657359051821  0.2034104647542065  0.3255502604635723
  0.1042139670356690  0.0940536172652671  0.0725743567366450
  0.8972213562356899  0.2128640838684888  0.8071400065647438
  0.7902174766105645  0.1068313218112209  0.6248124110492483
  0.5801344415155469  0.1904044579316420  0.3691847724359789
  0.4571628829724688  0.0654328028240982  0.1196234650404122
  0.2207235381102848  0.2085544117483664  0.8285430990411626
  0.0866540467884178  0.1079445475434753  0.5836807945695242
  0.8774454203189421  0.1928212196839212  0.3292573826847018
  0.7698038852520881  0.0860809108164204  0.1473568549209077
  0.5625088782065575  0.2066967297393774  0.8826946669436140
  0.4534337681967955  0.0944514019086213  0.6302648661332171
  0.2255906826467040  0.5414748295523637  0.3761108607731387
  0.1075423206214623  0.4242408985204378  0.0778241958328749
  0.8920137797450352  0.5380656618490391  0.8281224689272051
  0.7923614670277388  0.4025864111675190  0.5840652059661906
  0.5604342586436459  0.5382199020159106  0.3317823733292897
  0.4435280996286224  0.4219517167113480  0.1275607901353979
  0.2260498760527412  0.5427985246254678  0.8796715558726760
  0.1092083936447779  0.4259560339434074  0.5744339844782118
  0.8871702045831142  0.5340552855518439  0.3252951687273864
  0.7793940532057277  0.4189187137540742  0.0708806196528613
  0.5586788570030805  0.5445528499935222  0.8284488413746587
  0.4443843534674343  0.4224496227590180  0.6267769075992788
  0.2225135848640036  0.8766339090414661  0.3289011879005059
  0.1056863933277299  0.7601416792151667  0.1280017105614704
  0.8892017000636869  0.8794218922358823  0.8827635056731111
  0.7769200193266883  0.7706888297711814  0.6301497651257719
  0.5564445091253276  0.8735384591257755  0.3823317108598872
  0.4530635858276142  0.7701182717090092  0.0803067554255961
  0.2264515306028159  0.8763823874631242  0.8277980855238027
  0.1059677106949763  0.7612602756878459  0.6268397250607975
  0.8739022681565203  0.8962789913896216  0.3694772507534267
  0.7486548716727626  0.7737440345313757  0.1194776023414903
  0.5620675933975434  0.8799622327640861  0.8981819468498031
  0.4412960194708049  0.7599439440680484  0.5799026585020286
 
  0.00000000E+00  0.00000000E+00  0.00000000E+00
  0.00000000E+00  0.00000000E+00  0.00000000E+00
  0.00000000E+00  0.00000000E+00  0.00000000E+00
  0.00000000E+00  0.00000000E+00  0.00000000E+00
  0.00000000E+00  0.00000000E+00  0.00000000E+00
  0.00000000E+00  0.00000000E+00  0.00000000E+00
  0.00000000E+00  0.00000000E+00  0.00000000E+00
  0.00000000E+00  0.00000000E+00  0.00000000E+00
  0.00000000E+00  0.00000000E+00  0.00000000E+00
  0.00000000E+00  0.00000000E+00  0.00000000E+00
  0.00000000E+00  0.00000000E+00  0.00000000E+00
  0.00000000E+00  0.00000000E+00  0.00000000E+00
  0.00000000E+00  0.00000000E+00  0.00000000E+00
  0.00000000E+00  0.00000000E+00  0.00000000E+00
  0.00000000E+00  0.00000000E+00  0.00000000E+00
  0.00000000E+00  0.00000000E+00  0.00000000E+00
  0.00000000E+00  0.00000000E+00  0.00000000E+00
  0.00000000E+00  0.00000000E+00  0.00000000E+00
  0.00000000E+00  0.00000000E+00  0.00000000E+00
  0.00000000E+00  0.00000000E+00  0.00000000E+00
  0.00000000E+00  0.00000000E+00  0.00000000E+00
  0.00000000E+00  0.00000000E+00  0.00000000E+00
  0.00000000E+00  0.00000000E+00  0.00000000E+00
  0.00000000E+00  0.00000000E+00  0.00000000E+00
  0.00000000E+00  0.00000000E+00  0.00000000E+00
  0.00000000E+00  0.00000000E+00  0.00000000E+00
  0.00000000E+00  0.00000000E+00  0.00000000E+00
  0.00000000E+00  0.00000000E+00  0.00000000E+00
  0.00000000E+00  0.00000000E+00  0.00000000E+00
  0.00000000E+00  0.00000000E+00  0.00000000E+00
  0.00000000E+00  0.00000000E+00  0.00000000E+00
  0.00000000E+00  0.00000000E+00  0.00000000E+00
  0.00000000E+00  0.00000000E+00  0.00000000E+00
  0.00000000E+00  0.00000000E+00  0.00000000E+00
  0.00000000E+00  0.00000000E+00  0.00000000E+00
  0.00000000E+00  0.00000000E+00  0.00000000E+00
  0.00000000E+00  0.00000000E+00  0.00000000E+00
  0.00000000E+00  0.00000000E+00  0.00000000E+00
  0.00000000E+00  0.00000000E+00  0.00000000E+00
  0.00000000E+00  0.00000000E+00  0.00000000E+00
  0.00000000E+00  0.00000000E+00  0.00000000E+00
  0.00000000E+00  0.00000000E+00  0.00000000E+00
  0.00000000E+00  0.00000000E+00  0.00000000E+00
  0.00000000E+00  0.00000000E+00  0.00000000E+00
  0.00000000E+00  0.00000000E+00  0.00000000E+00
  0.00000000E+00  0.00000000E+00  0.00000000E+00
  0.00000000E+00  0.00000000E+00  0.00000000E+00
  0.00000000E+00  0.00000000E+00  0.00000000E+00
  0.00000000E+00  0.00000000E+00  0.00000000E+00
  0.00000000E+00  0.00000000E+00  0.00000000E+00
  0.00000000E+00  0.00000000E+00  0.00000000E+00
  0.00000000E+00  0.00000000E+00  0.00000000E+00
  0.00000000E+00  0.00000000E+00  0.00000000E+00
  0.00000000E+00  0.00000000E+00  0.00000000E+00
  0.00000000E+00  0.00000000E+00  0.00000000E+00
  0.00000000E+00  0.00000000E+00  0.00000000E+00
  0.00000000E+00  0.00000000E+00  0.00000000E+00
  0.00000000E+00  0.00000000E+00  0.00000000E+00
  0.00000000E+00  0.00000000E+00  0.00000000E+00
  0.00000000E+00  0.00000000E+00  0.00000000E+00
  0.00000000E+00  0.00000000E+00  0.00000000E+00
  0.00000000E+00  0.00000000E+00  0.00000000E+00
  0.00000000E+00  0.00000000E+00  0.00000000E+00
  0.00000000E+00  0.00000000E+00  0.00000000E+00
  0.00000000E+00  0.00000000E+00  0.00000000E+00
  0.00000000E+00  0.00000000E+00  0.00000000E+00
  0.00000000E+00  0.00000000E+00  0.00000000E+00
  0.00000000E+00  0.00000000E+00  0.00000000E+00
  0.00000000E+00  0.00000000E+00  0.00000000E+00
  0.00000000E+00  0.00000000E+00  0.00000000E+00
  0.00000000E+00  0.00000000E+00  0.00000000E+00
  0.00000000E+00  0.00000000E+00  0.00000000E+00
