Al   B    N                             
   1.00000000000000     
    -9.2568046571394831   -0.0016630300978782    0.0069244955614401
    -4.6272042392043984    8.0173196021178210    0.0065301249599645
     0.0067502697577179   -0.0043857413406431   -9.8899610940178899
   Al   B    N 
    33     3    36
Direct
  0.1019295621630789  0.0958089574021983  0.4120016432664357
  0.2247315436011448  0.2001672113236523  0.1575915627147282
  0.7784667998876813  0.0951081913189569  0.8991348912846036
  0.4508827410285221  0.0909751830401717  0.4013997868348156
  0.5640564796319794  0.1977370715066371  0.1620253374632412
  0.1069952854650609  0.0962222191998165  0.9007964660294974
  0.2193279161722188  0.2060430520465317  0.6571398533065320
  0.8863048604725918  0.2029456503876332  0.1596277429914181
  0.4479920623475380  0.0903458140121813  0.9114345532796335
  0.5614508193312062  0.2047275223269978  0.6502386542802796
  0.1109675006012552  0.4276075736634297  0.4080024400351832
  0.2222775935319987  0.5389192056453993  0.1583597335382976
  0.7795806302059347  0.4236371061796760  0.9007963081608779
  0.8894001366841309  0.5359706079441224  0.6571399159617144
  0.4501059954410493  0.4246179454219217  0.4075015953175054
  0.5591085968136724  0.5415229884994446  0.1572681748613221
  0.1112079350119970  0.4278488573720622  0.9080211611101916
  0.2226963446614150  0.5393385134997644  0.6578829444256016
  0.7791680402202488  0.4185702666786213  0.4120018378279511
  0.8835269776129238  0.5413712693035961  0.1575915396318308
  0.4454885305974159  0.4259608240999881  0.9076214483399880
  0.5586902725995273  0.5355841353790893  0.6577542090232313
  0.1079761548820812  0.7667469681068084  0.4075015818336709
  0.2248817059277215  0.8757500436476136  0.1572682188383965
  0.7737041181450977  0.7646334486099633  0.9114347678479930
  0.8880852778296671  0.8780926212098237  0.6502383889369341
  0.4463286645864315  0.7629708560853743  0.4015688000986728
  0.1093186114375158  0.7621307866623184  0.9076214366745532
  0.2189405648309588  0.8753338382202571  0.6577540781997229
  0.7743343745053650  0.7675226809146807  0.4013995382210709
  0.8810951860497127  0.8806975942610649  0.1620254470703912
  0.4473093337125391  0.7639516683498897  0.9117808034982744
  0.5559157108989652  0.8725578019828930  0.6568093496251919
  0.8893016445583868  0.2059441224654677  0.6548563111329386
  0.7824512872957214  0.0990927770440493  0.4129548698385648
  0.5561309127259619  0.8727718365898482  0.1624029111158407
  0.2207786633554818  0.2038146336589648  0.3498501978988884
  0.1065931750073119  0.0968980824743397  0.0945457740258746
  0.8873413169248892  0.2039831572386603  0.8220775670330980
  0.7899468588940124  0.1065888358943567  0.5849777642884746
  0.5831721031497281  0.1930702601700602  0.3573122213601607
  0.4578473130103120  0.0711960838058161  0.1079939195022348
  0.2245200871952804  0.2044366866274672  0.8498168933810035
  0.0864962126595969  0.1071919735464490  0.6052790446809624
  0.8763026338106599  0.1929435529731549  0.3520838217386739
  0.7787193189268606  0.0953603983945968  0.0895908315154585
  0.5551181247277412  0.2042305359160181  0.8442167498765158
  0.4446278128059618  0.0930819229153386  0.5934916794246732
  0.2227216328506003  0.5393626850995261  0.3494432692647038
  0.1106925615183840  0.4273330166482694  0.0997974136701600
  0.8877953776568503  0.5411615899849096  0.8498170447220659
  0.7905490133273219  0.4031388353006733  0.6052793220929544
  0.5584601724930778  0.5382754269476138  0.3487834518997488
  0.4466154995271694  0.4250298335208456  0.1011173223013415
  0.2224810541340361  0.5391231822042073  0.8497589616454846
  0.1114494629974772  0.4280920680934486  0.5990706172612690
  0.8871743851251708  0.5374186481353220  0.3498501690072970
  0.7802567301409269  0.4232340814629438  0.0945457283440518
  0.5541096477422016  0.5410430606614867  0.8501031110247581
  0.4443748835110313  0.4286621777639681  0.5980228178708273
  0.2216336098467480  0.8751013531181968  0.3487833168925079
  0.1083880574864438  0.7632571953332317  0.1011173607430891
  0.8875885028873256  0.8717597606575964  0.8442165608762622
  0.7764395739992835  0.7612697988212247  0.5934914064593855
  0.5558804068951915  0.8725214088318580  0.3266878585849042
  0.4572635766277955  0.7739050105490719  0.1061538983233987
  0.2244008139870886  0.8707516875210715  0.8501029018098833
  0.1120199029183553  0.7610170786872175  0.5980227979100690
  0.8764285511987424  0.8998131550712145  0.3573122563870399
  0.7545550450790657  0.7744877387795199  0.1079941029556437
  0.5559364339247637  0.8725780689698084  0.8458711942722204
  0.4451886268924881  0.7618318586893196  0.5948176371159661
 
  0.00000000E+00  0.00000000E+00  0.00000000E+00
  0.00000000E+00  0.00000000E+00  0.00000000E+00
  0.00000000E+00  0.00000000E+00  0.00000000E+00
  0.00000000E+00  0.00000000E+00  0.00000000E+00
  0.00000000E+00  0.00000000E+00  0.00000000E+00
  0.00000000E+00  0.00000000E+00  0.00000000E+00
  0.00000000E+00  0.00000000E+00  0.00000000E+00
  0.00000000E+00  0.00000000E+00  0.00000000E+00
  0.00000000E+00  0.00000000E+00  0.00000000E+00
  0.00000000E+00  0.00000000E+00  0.00000000E+00
  0.00000000E+00  0.00000000E+00  0.00000000E+00
  0.00000000E+00  0.00000000E+00  0.00000000E+00
  0.00000000E+00  0.00000000E+00  0.00000000E+00
  0.00000000E+00  0.00000000E+00  0.00000000E+00
  0.00000000E+00  0.00000000E+00  0.00000000E+00
  0.00000000E+00  0.00000000E+00  0.00000000E+00
  0.00000000E+00  0.00000000E+00  0.00000000E+00
  0.00000000E+00  0.00000000E+00  0.00000000E+00
  0.00000000E+00  0.00000000E+00  0.00000000E+00
  0.00000000E+00  0.00000000E+00  0.00000000E+00
  0.00000000E+00  0.00000000E+00  0.00000000E+00
  0.00000000E+00  0.00000000E+00  0.00000000E+00
  0.00000000E+00  0.00000000E+00  0.00000000E+00
  0.00000000E+00  0.00000000E+00  0.00000000E+00
  0.00000000E+00  0.00000000E+00  0.00000000E+00
  0.00000000E+00  0.00000000E+00  0.00000000E+00
  0.00000000E+00  0.00000000E+00  0.00000000E+00
  0.00000000E+00  0.00000000E+00  0.00000000E+00
  0.00000000E+00  0.00000000E+00  0.00000000E+00
  0.00000000E+00  0.00000000E+00  0.00000000E+00
  0.00000000E+00  0.00000000E+00  0.00000000E+00
  0.00000000E+00  0.00000000E+00  0.00000000E+00
  0.00000000E+00  0.00000000E+00  0.00000000E+00
  0.00000000E+00  0.00000000E+00  0.00000000E+00
  0.00000000E+00  0.00000000E+00  0.00000000E+00
  0.00000000E+00  0.00000000E+00  0.00000000E+00
  0.00000000E+00  0.00000000E+00  0.00000000E+00
  0.00000000E+00  0.00000000E+00  0.00000000E+00
  0.00000000E+00  0.00000000E+00  0.00000000E+00
  0.00000000E+00  0.00000000E+00  0.00000000E+00
  0.00000000E+00  0.00000000E+00  0.00000000E+00
  0.00000000E+00  0.00000000E+00  0.00000000E+00
  0.00000000E+00  0.00000000E+00  0.00000000E+00
  0.00000000E+00  0.00000000E+00  0.00000000E+00
  0.00000000E+00  0.00000000E+00  0.00000000E+00
  0.00000000E+00  0.00000000E+00  0.00000000E+00
  0.00000000E+00  0.00000000E+00  0.00000000E+00
  0.00000000E+00  0.00000000E+00  0.00000000E+00
  0.00000000E+00  0.00000000E+00  0.00000000E+00
  0.00000000E+00  0.00000000E+00  0.00000000E+00
  0.00000000E+00  0.00000000E+00  0.00000000E+00
  0.00000000E+00  0.00000000E+00  0.00000000E+00
  0.00000000E+00  0.00000000E+00  0.00000000E+00
  0.00000000E+00  0.00000000E+00  0.00000000E+00
  0.00000000E+00  0.00000000E+00  0.00000000E+00
  0.00000000E+00  0.00000000E+00  0.00000000E+00
  0.00000000E+00  0.00000000E+00  0.00000000E+00
  0.00000000E+00  0.00000000E+00  0.00000000E+00
  0.00000000E+00  0.00000000E+00  0.00000000E+00
  0.00000000E+00  0.00000000E+00  0.00000000E+00
  0.00000000E+00  0.00000000E+00  0.00000000E+00
  0.00000000E+00  0.00000000E+00  0.00000000E+00
  0.00000000E+00  0.00000000E+00  0.00000000E+00
  0.00000000E+00  0.00000000E+00  0.00000000E+00
  0.00000000E+00  0.00000000E+00  0.00000000E+00
  0.00000000E+00  0.00000000E+00  0.00000000E+00
  0.00000000E+00  0.00000000E+00  0.00000000E+00
  0.00000000E+00  0.00000000E+00  0.00000000E+00
  0.00000000E+00  0.00000000E+00  0.00000000E+00
  0.00000000E+00  0.00000000E+00  0.00000000E+00
  0.00000000E+00  0.00000000E+00  0.00000000E+00
  0.00000000E+00  0.00000000E+00  0.00000000E+00
