generated by phonopy                    
   1.00000000000000     
    10.0351470768999995   -0.0000022330999784   -0.0000001056124209
    -5.0175765436399997    8.6906901959899994    0.0000001395531216
    -0.0000001735893656    0.0000001431815548   14.9533752540999991
   O    Pb   P 
    51    19    12
Direct
  0.0118802692370963  0.8124392408803303  0.1253844659170866
  0.4915745100289968  0.6516805443177702  0.1240642175818465
  0.5101022569168308  0.6593782017430811  0.6239708681527318
  0.4793642671017224  0.3294941784501475  0.3725235829898921
  0.4794379548508161  0.3293787627195428  0.8757062343770841
  0.3570929343177625  0.8551614423043929  0.1237552036902159
  0.3445063030663746  0.8554912040760527  0.6238385402266076
  0.6837720208119720  0.1584630506786766  0.3757145071607368
  0.6840702533790264  0.1582750899019700  0.8723648446848742
  0.1488098800968203  0.4826193462831725  0.1239687443671258
  0.1529932942967420  0.4946359963235523  0.6239385613085702
  0.8504728022380945  0.5339137327947725  0.3766830167970667
  0.8504493169906056  0.5338789331205192  0.8718162233971825
  0.7011693579938623  0.6313129432624294  0.0361352770052150
  0.7296652109951580  0.6486715092040356  0.5395820236072879
  0.2595371729619558  0.3434210833166773  0.4554333917348430
  0.2662190645364362  0.3514015870177047  0.9611865415832739
  0.3443080515620025  0.0759690308157275  0.0395540785902000
  0.3602963389720415  0.0885569919851719  0.5392774903358912
  0.6541330196955286  0.9162791498255913  0.4572703133330194
  0.6524015261340494  0.9200708587983613  0.9588834264545127
  0.9221978611707442  0.2601178824969850  0.0398376764274673
  0.9281568328775478  0.2672234721182889  0.5402810879006097
  0.0863175202208311  0.7316280021603561  0.4694724237262307
  0.1029698169867359  0.7414535187127029  0.9464752718167944
  0.2644785017460833  0.3487159477817698  0.2872839761215786
  0.2583865959651419  0.3409436476944592  0.7930361966684387
  0.7044934940963330  0.6352266696738837  0.2106836266938075
  0.7301478214955566  0.6498473107544385  0.7084694456885359
  0.6543065098588698  0.9211003352645193  0.2893955285206502
  0.6554661726279960  0.9165314317793545  0.7909605670414379
  0.3408408816238264  0.0742858228456740  0.2077020102129623
  0.3592708126370283  0.0880590124374194  0.7084088732556282
  0.1023136873035639  0.7418943565808718  0.3017877768557327
  0.0854733352774772  0.7326199355681027  0.7789070404661516
  0.9222584634905928  0.2606133802013701  0.2084973806474579
  0.9287404919953346  0.2666717652947455  0.7075581484135398
  0.5150453876547516  0.4041981887532842  0.1252842427606566
  0.5308343992920683  0.4128908808176988  0.6245112395947601
  0.4678906733257691  0.5795083551401774  0.3748644307507547
  0.4680898067783019  0.5793972639225586  0.8712453337389476
  0.5845562530520567  0.1267874774087829  0.1252569157751253
  0.5933925469008443  0.1201890741153662  0.6243522398515395
  0.4261648754270198  0.9027131034067466  0.3745077714235450
  0.4261612927690948  0.9027482915640235  0.8721133005188264
  0.8805831860710640  0.4581578156736015  0.1239865487068030
  0.8823881610018987  0.4627319577598286  0.6244583442081648
  0.0989170156072987  0.5192739789150238  0.3822154324695362
  0.0988648440996016  0.5193887581317043  0.8648180599270177
  0.9919380280797654  0.9282290873384369  0.1095340293850882
  0.0095735104985124  0.9828291967253904  0.6235384505045403
  0.9844179645058304  0.7494056093223662  0.6239474462009298
  0.0018125138678542  0.2574033250021088  0.3782478215078626
  0.0017245948224129  0.2574041065085027  0.8696333934015854
  0.2527927300298742  0.2502028680988104  0.1243872757642279
  0.2381552542383076  0.2227928203622795  0.6242009998642928
  0.7312994148046670  0.7402083419590753  0.3660663345125741
  0.7314510261179734  0.7404374547273846  0.8810044933769632
  0.7335673138926140  0.0077815646859918  0.1243002776215647
  0.7710866355166388  0.0024750064927375  0.6238091610147123
  0.2604086378581201  0.9981492009380446  0.3669176664080851
  0.2602652298097610  0.9979951561107825  0.8810550962251256
  0.6846379831132339  0.3635051360103176  0.0006231601916653
  0.6586818910435923  0.3305402014402787  0.4983158571690041
  0.3156286339030672  0.6648161532860968  0.0029485730446126
  0.3355471082202897  0.6702668989748020  0.5037222252461433
  0.3149249148085573  0.6653892801912136  0.2446994234706423
  0.3357311648055941  0.6710459457380225  0.7441443541691015
  0.6855243851945900  0.3631660572518172  0.2473131303384690
  0.6586435865586822  0.3300059889592362  0.7498551719390605
  0.6055514350675963  0.5886406525231891  0.1240205922815463
  0.6223625909720880  0.5941197703567198  0.6241418637231533
  0.3694555139230715  0.3970693075106340  0.3724840595827104
  0.3696028771886617  0.3970644398335281  0.8754276514655146
  0.4019556804607163  0.0278458120451219  0.1240101996882146
  0.4123546218163483  0.0331783934898979  0.6239499998039122
  0.6078383959023839  0.9802499568619751  0.3746950352893066
  0.6078021733993637  0.9800270523352239  0.8732483182452597
  0.9702982991493769  0.3682753413367124  0.1240147755785230
  0.9773947723421514  0.3758024006574061  0.6240547889835497
  0.0290378115848213  0.6305482682590551  0.3827744508763615
  0.0290152453431318  0.6306917604446767  0.8653524035925884
 
  0.00000000E+00  0.00000000E+00  0.00000000E+00
  0.00000000E+00  0.00000000E+00  0.00000000E+00
  0.00000000E+00  0.00000000E+00  0.00000000E+00
  0.00000000E+00  0.00000000E+00  0.00000000E+00
  0.00000000E+00  0.00000000E+00  0.00000000E+00
  0.00000000E+00  0.00000000E+00  0.00000000E+00
  0.00000000E+00  0.00000000E+00  0.00000000E+00
  0.00000000E+00  0.00000000E+00  0.00000000E+00
  0.00000000E+00  0.00000000E+00  0.00000000E+00
  0.00000000E+00  0.00000000E+00  0.00000000E+00
  0.00000000E+00  0.00000000E+00  0.00000000E+00
  0.00000000E+00  0.00000000E+00  0.00000000E+00
  0.00000000E+00  0.00000000E+00  0.00000000E+00
  0.00000000E+00  0.00000000E+00  0.00000000E+00
  0.00000000E+00  0.00000000E+00  0.00000000E+00
  0.00000000E+00  0.00000000E+00  0.00000000E+00
  0.00000000E+00  0.00000000E+00  0.00000000E+00
  0.00000000E+00  0.00000000E+00  0.00000000E+00
  0.00000000E+00  0.00000000E+00  0.00000000E+00
  0.00000000E+00  0.00000000E+00  0.00000000E+00
  0.00000000E+00  0.00000000E+00  0.00000000E+00
  0.00000000E+00  0.00000000E+00  0.00000000E+00
  0.00000000E+00  0.00000000E+00  0.00000000E+00
  0.00000000E+00  0.00000000E+00  0.00000000E+00
  0.00000000E+00  0.00000000E+00  0.00000000E+00
  0.00000000E+00  0.00000000E+00  0.00000000E+00
  0.00000000E+00  0.00000000E+00  0.00000000E+00
  0.00000000E+00  0.00000000E+00  0.00000000E+00
  0.00000000E+00  0.00000000E+00  0.00000000E+00
  0.00000000E+00  0.00000000E+00  0.00000000E+00
  0.00000000E+00  0.00000000E+00  0.00000000E+00
  0.00000000E+00  0.00000000E+00  0.00000000E+00
  0.00000000E+00  0.00000000E+00  0.00000000E+00
  0.00000000E+00  0.00000000E+00  0.00000000E+00
  0.00000000E+00  0.00000000E+00  0.00000000E+00
  0.00000000E+00  0.00000000E+00  0.00000000E+00
  0.00000000E+00  0.00000000E+00  0.00000000E+00
  0.00000000E+00  0.00000000E+00  0.00000000E+00
  0.00000000E+00  0.00000000E+00  0.00000000E+00
  0.00000000E+00  0.00000000E+00  0.00000000E+00
  0.00000000E+00  0.00000000E+00  0.00000000E+00
  0.00000000E+00  0.00000000E+00  0.00000000E+00
  0.00000000E+00  0.00000000E+00  0.00000000E+00
  0.00000000E+00  0.00000000E+00  0.00000000E+00
  0.00000000E+00  0.00000000E+00  0.00000000E+00
  0.00000000E+00  0.00000000E+00  0.00000000E+00
  0.00000000E+00  0.00000000E+00  0.00000000E+00
  0.00000000E+00  0.00000000E+00  0.00000000E+00
  0.00000000E+00  0.00000000E+00  0.00000000E+00
  0.00000000E+00  0.00000000E+00  0.00000000E+00
  0.00000000E+00  0.00000000E+00  0.00000000E+00
  0.00000000E+00  0.00000000E+00  0.00000000E+00
  0.00000000E+00  0.00000000E+00  0.00000000E+00
  0.00000000E+00  0.00000000E+00  0.00000000E+00
  0.00000000E+00  0.00000000E+00  0.00000000E+00
  0.00000000E+00  0.00000000E+00  0.00000000E+00
  0.00000000E+00  0.00000000E+00  0.00000000E+00
  0.00000000E+00  0.00000000E+00  0.00000000E+00
  0.00000000E+00  0.00000000E+00  0.00000000E+00
  0.00000000E+00  0.00000000E+00  0.00000000E+00
  0.00000000E+00  0.00000000E+00  0.00000000E+00
  0.00000000E+00  0.00000000E+00  0.00000000E+00
  0.00000000E+00  0.00000000E+00  0.00000000E+00
  0.00000000E+00  0.00000000E+00  0.00000000E+00
  0.00000000E+00  0.00000000E+00  0.00000000E+00
  0.00000000E+00  0.00000000E+00  0.00000000E+00
  0.00000000E+00  0.00000000E+00  0.00000000E+00
  0.00000000E+00  0.00000000E+00  0.00000000E+00
  0.00000000E+00  0.00000000E+00  0.00000000E+00
  0.00000000E+00  0.00000000E+00  0.00000000E+00
  0.00000000E+00  0.00000000E+00  0.00000000E+00
  0.00000000E+00  0.00000000E+00  0.00000000E+00
  0.00000000E+00  0.00000000E+00  0.00000000E+00
  0.00000000E+00  0.00000000E+00  0.00000000E+00
  0.00000000E+00  0.00000000E+00  0.00000000E+00
  0.00000000E+00  0.00000000E+00  0.00000000E+00
  0.00000000E+00  0.00000000E+00  0.00000000E+00
  0.00000000E+00  0.00000000E+00  0.00000000E+00
  0.00000000E+00  0.00000000E+00  0.00000000E+00
  0.00000000E+00  0.00000000E+00  0.00000000E+00
  0.00000000E+00  0.00000000E+00  0.00000000E+00
  0.00000000E+00  0.00000000E+00  0.00000000E+00
