generated by phonopy                    
   1.00000000000000     
    10.0351470768999995   -0.0000022330999784   -0.0000001056124209
    -5.0175765436399997    8.6906901959899994    0.0000001395531216
    -0.0000001735893656    0.0000001431815548   14.9533752540999991
   Pb   P    O    Cu
    20    12    49     1
Direct
  0.0012851668646192  0.7689508847639601  0.1269851102566903
  0.0013932322052881  0.7691449279942617  0.6211047542090782
  0.9909464772925247  0.2624961656224940  0.3737030894183775
  0.9999747529453913  0.2609490822407281  0.8738654951044538
  0.2173143118161605  0.2246371450159401  0.1261091333094626
  0.2174015578460384  0.2248771156714398  0.6216402845312672
  0.8397956289193900  0.8349998333949813  0.3747238487906515
  0.7348237242805951  0.7412293841320476  0.8740135233749413
  0.7667820748459846  0.0005293032485412  0.1257265104098053
  0.7667348460957797  0.0007440384321669  0.6223624194152961
  0.2330752279265482  0.9837140776848159  0.3743387782933567
  0.2541717094504534  0.9982769009673049  0.8739247698482373
  0.6600615058945181  0.3313497673467793  0.0008286687709287
  0.6667141815788185  0.3421449177308133  0.4984505528776779
  0.3299415649333355  0.6717882388666467  0.0114432654840968
  0.3651935341593813  0.6477426110828759  0.4827731436482665
  0.3634415352542106  0.6468782659229504  0.2641073548763160
  0.3298796269914561  0.6714275089705097  0.7359309705380426
  0.6664175431849131  0.3421868857735575  0.2494491784274686
  0.6602060214402101  0.3316882879532912  0.7470633631679249
  0.6284418378446617  0.5955473925476866  0.1154249953641795
  0.6285964192691793  0.5957161027029443  0.6324237051349328
  0.3131669624048854  0.2903465552626301  0.3739982945062437
  0.3640089196388061  0.3952007626524363  0.8738432878534397
  0.3979034510265151  0.0326660294977330  0.1210470489970916
  0.3979519620836669  0.0327689063570631  0.6268791248983590
  0.6210653816764520  0.9852129224596524  0.3738054781297890
  0.5988215374132224  0.9724941694163576  0.8738276744802747
  0.9650906411184650  0.3723149484906116  0.1173593184270203
  0.9652497168299021  0.3724101746379063  0.6301679172482579
  0.0207020493667400  0.6161630143349228  0.3739934338698632
  0.0255673662016065  0.6301880763599996  0.8739279091462748
  0.5166831254308306  0.6608114528522862  0.1165480894074875
  0.5167408021440920  0.6608233551614688  0.6310484424848468
  0.4990128318271161  0.3812974800181124  0.3736956460114840
  0.4643798577540963  0.3165922332976905  0.8738511313449919
  0.3448833746327509  0.8592679251693056  0.1187740699562454
  0.3448311334735692  0.8593931651676101  0.6289699374441611
  0.6602166923149397  0.1562405604798087  0.3742974961829546
  0.6778012931809627  0.1507715541489958  0.8738143404950449
  0.1394276587447294  0.4879740379759383  0.1132471398065320
  0.1396048647799191  0.4879720763432402  0.6338637040352921
  0.8621031406052566  0.4642623911375878  0.3738763457002392
  0.8474653792135740  0.5303210833384782  0.8740040696382252
  0.7265019309769301  0.6402159938098606  0.0273663940436535
  0.7427337423625673  0.6608686886244683  0.5518977491321806
  0.2543232368469717  0.3455418138073583  0.4586251153692587
  0.2561479246893867  0.3481789941224775  0.9573298441421727
  0.3491120047513618  0.0856492276739544  0.0338515448954055
  0.3238349939698963  0.0717910606187928  0.5456530613363881
  0.6941807609161685  0.9520364168489692  0.4576534325717674
  0.6428532044333721  0.9098220056156165  0.9575772758426453
  0.9080663859183673  0.2648811405619185  0.0325820315194960
  0.9242185549148090  0.2647828759547366  0.5465056193823798
  0.0406071623865074  0.7136962492132639  0.4584623444260103
  0.0886106703844902  0.7378125134540099  0.9575915950059510
  0.2533649771200217  0.3443241654283398  0.2892334043911049
  0.2563042559782502  0.3484030291484643  0.7902704336538804
  0.7424656050315406  0.6607260956977612  0.1959745107329880
  0.7266198253248390  0.6406449859757188  0.7204911852001601
  0.6984089003296603  0.9549944665265215  0.2909331488062605
  0.6430233895500450  0.9098156047480259  0.7901662504576734
  0.3231883075191746  0.0712997176957799  0.2020958645018780
  0.3486392243221275  0.0855434644648767  0.7139354095677106
  0.0406300920301916  0.7142880638589801  0.2897654418286280
  0.0883078729699847  0.7381313986206877  0.7903909194573444
  0.9249641455987714  0.2646552635701198  0.2009227043261319
  0.9088317974348712  0.2648364033301362  0.7149120247980960
  0.5365046246671312  0.4155034695764641  0.1215058325345666
  0.5367521149564851  0.4156922057118493  0.6264793833865241
  0.4722840315943557  0.5756013830114952  0.8738908575331763
  0.5777603537816560  0.1319506450320276  0.1288067254773253
  0.5778696213925514  0.1320895014201753  0.6194257909586014
  0.4424336778918487  0.8801639194352191  0.3724637671823317
  0.4179345189135972  0.9013494512307005  0.8737696794060099
  0.8685852106590488  0.4562622070942410  0.1223298677688121
  0.8687647471697701  0.4564393291027500  0.6257629924768651
  0.1437693071525743  0.5602544454416716  0.3738604041859901
  0.0984953868171488  0.5223315402907147  0.8737031248197766
  0.9919043747592724  0.9950879566425073  0.1203952748503170
  0.9920187818668111  0.9953039350346558  0.6271299208958752
  0.5602725380425468  0.6065962883231322  0.3728608590489983
 
  0.00000000E+00  0.00000000E+00  0.00000000E+00
  0.00000000E+00  0.00000000E+00  0.00000000E+00
  0.00000000E+00  0.00000000E+00  0.00000000E+00
  0.00000000E+00  0.00000000E+00  0.00000000E+00
  0.00000000E+00  0.00000000E+00  0.00000000E+00
  0.00000000E+00  0.00000000E+00  0.00000000E+00
  0.00000000E+00  0.00000000E+00  0.00000000E+00
  0.00000000E+00  0.00000000E+00  0.00000000E+00
  0.00000000E+00  0.00000000E+00  0.00000000E+00
  0.00000000E+00  0.00000000E+00  0.00000000E+00
  0.00000000E+00  0.00000000E+00  0.00000000E+00
  0.00000000E+00  0.00000000E+00  0.00000000E+00
  0.00000000E+00  0.00000000E+00  0.00000000E+00
  0.00000000E+00  0.00000000E+00  0.00000000E+00
  0.00000000E+00  0.00000000E+00  0.00000000E+00
  0.00000000E+00  0.00000000E+00  0.00000000E+00
  0.00000000E+00  0.00000000E+00  0.00000000E+00
  0.00000000E+00  0.00000000E+00  0.00000000E+00
  0.00000000E+00  0.00000000E+00  0.00000000E+00
  0.00000000E+00  0.00000000E+00  0.00000000E+00
  0.00000000E+00  0.00000000E+00  0.00000000E+00
  0.00000000E+00  0.00000000E+00  0.00000000E+00
  0.00000000E+00  0.00000000E+00  0.00000000E+00
  0.00000000E+00  0.00000000E+00  0.00000000E+00
  0.00000000E+00  0.00000000E+00  0.00000000E+00
  0.00000000E+00  0.00000000E+00  0.00000000E+00
  0.00000000E+00  0.00000000E+00  0.00000000E+00
  0.00000000E+00  0.00000000E+00  0.00000000E+00
  0.00000000E+00  0.00000000E+00  0.00000000E+00
  0.00000000E+00  0.00000000E+00  0.00000000E+00
  0.00000000E+00  0.00000000E+00  0.00000000E+00
  0.00000000E+00  0.00000000E+00  0.00000000E+00
  0.00000000E+00  0.00000000E+00  0.00000000E+00
  0.00000000E+00  0.00000000E+00  0.00000000E+00
  0.00000000E+00  0.00000000E+00  0.00000000E+00
  0.00000000E+00  0.00000000E+00  0.00000000E+00
  0.00000000E+00  0.00000000E+00  0.00000000E+00
  0.00000000E+00  0.00000000E+00  0.00000000E+00
  0.00000000E+00  0.00000000E+00  0.00000000E+00
  0.00000000E+00  0.00000000E+00  0.00000000E+00
  0.00000000E+00  0.00000000E+00  0.00000000E+00
  0.00000000E+00  0.00000000E+00  0.00000000E+00
  0.00000000E+00  0.00000000E+00  0.00000000E+00
  0.00000000E+00  0.00000000E+00  0.00000000E+00
  0.00000000E+00  0.00000000E+00  0.00000000E+00
  0.00000000E+00  0.00000000E+00  0.00000000E+00
  0.00000000E+00  0.00000000E+00  0.00000000E+00
  0.00000000E+00  0.00000000E+00  0.00000000E+00
  0.00000000E+00  0.00000000E+00  0.00000000E+00
  0.00000000E+00  0.00000000E+00  0.00000000E+00
  0.00000000E+00  0.00000000E+00  0.00000000E+00
  0.00000000E+00  0.00000000E+00  0.00000000E+00
  0.00000000E+00  0.00000000E+00  0.00000000E+00
  0.00000000E+00  0.00000000E+00  0.00000000E+00
  0.00000000E+00  0.00000000E+00  0.00000000E+00
  0.00000000E+00  0.00000000E+00  0.00000000E+00
  0.00000000E+00  0.00000000E+00  0.00000000E+00
  0.00000000E+00  0.00000000E+00  0.00000000E+00
  0.00000000E+00  0.00000000E+00  0.00000000E+00
  0.00000000E+00  0.00000000E+00  0.00000000E+00
  0.00000000E+00  0.00000000E+00  0.00000000E+00
  0.00000000E+00  0.00000000E+00  0.00000000E+00
  0.00000000E+00  0.00000000E+00  0.00000000E+00
  0.00000000E+00  0.00000000E+00  0.00000000E+00
  0.00000000E+00  0.00000000E+00  0.00000000E+00
  0.00000000E+00  0.00000000E+00  0.00000000E+00
  0.00000000E+00  0.00000000E+00  0.00000000E+00
  0.00000000E+00  0.00000000E+00  0.00000000E+00
  0.00000000E+00  0.00000000E+00  0.00000000E+00
  0.00000000E+00  0.00000000E+00  0.00000000E+00
  0.00000000E+00  0.00000000E+00  0.00000000E+00
  0.00000000E+00  0.00000000E+00  0.00000000E+00
  0.00000000E+00  0.00000000E+00  0.00000000E+00
  0.00000000E+00  0.00000000E+00  0.00000000E+00
  0.00000000E+00  0.00000000E+00  0.00000000E+00
  0.00000000E+00  0.00000000E+00  0.00000000E+00
  0.00000000E+00  0.00000000E+00  0.00000000E+00
  0.00000000E+00  0.00000000E+00  0.00000000E+00
  0.00000000E+00  0.00000000E+00  0.00000000E+00
  0.00000000E+00  0.00000000E+00  0.00000000E+00
  0.00000000E+00  0.00000000E+00  0.00000000E+00
  0.00000000E+00  0.00000000E+00  0.00000000E+00
