supercell of icsd_191774.cif            
   1.00000000000000     
    10.6855475286901829   -0.0000008212109537    0.0000004254245111
    -5.3427744648855784    9.2534910280325224    0.0000493286526178
     0.0000004065264386    0.0000546056873386   11.3526795727454157
   N    In   Y 
    36    34     2
Direct
  0.2208976497741872  0.1106681401244813  0.4390541283795670
  0.1112575045579405  0.2225149991447637  0.1892726453092237
  0.8888963670945103  0.1113345000588666  0.9404600030638193
  0.7853769103544721  0.2250860679396425  0.6875889754986417
  0.5554068325249517  0.1108136894089569  0.4433800345945187
  0.4443879220860723  0.2225901843440496  0.1925598382262663
  0.2224381860632718  0.1113346880946438  0.9404599589543992
  0.1111407956894226  0.2222816962420211  0.6902104422346156
  0.8897702992207570  0.1106680310712562  0.4390541413348004
  0.7782023074542863  0.2225900253072552  0.1925598053463418
  0.5558859902821709  0.1117718775586809  0.9439196093224069
  0.4397093886213739  0.2250862907119711  0.6875891268368335
  0.2220598276609920  0.4441196626654715  0.4400238744542975
  0.1110572886752479  0.5552825110835187  0.1902729670285694
  0.8929688440262282  0.4401181306021300  0.9388979284298742
  0.7774905491752477  0.5549809451050791  0.6943029631810305
  0.5559356217702600  0.4454927035134943  0.4412019008111869
  0.4442252550260122  0.5552825991930064  0.1902731118739212
  0.2221599265372731  0.4443196883034801  0.9394507322847829
  0.1123214240580452  0.5560265855033677  0.6891687069922909
  0.8895569247094173  0.4454925679245747  0.4412018267771387
  0.7779700781920624  0.5559403015653785  0.1927969737955451
  0.5471490770586911  0.4401182472366401  0.9388979439942062
  0.4437053316231854  0.5560268989914263  0.6891687564775140
  0.2213757467848225  0.7773409992687448  0.4388800431029338
  0.1105760236405828  0.8886525366724953  0.1901252534231404
  0.8931082028472019  0.7862164250763115  0.9377762955261773
  0.7769026860226091  0.8896889636744305  0.6896083985160502
  0.5559651570214541  0.7773409591439631  0.4388799464481821
  0.4443387073951186  0.8886771742248669  0.1915272004500039
  0.2219693820828894  0.7776331921146848  0.9408484935847810
  0.1127863379207881  0.8896889271708162  0.6896084648440208
  0.8889825924287535  0.7779654538121434  0.4423240400034558
  0.7780765433747803  0.8886524915071732  0.1901254853679006
  0.5556640202993464  0.7776332209996824  0.9408486844513391
  0.4403279703469707  0.8806555934078730  0.6885690813523908
  0.2212430178315898  0.1108354084522816  0.2490981714998881
  0.1110654453234261  0.2221310177357694  0.4996454148869063
  0.8909373344318396  0.1118997171519638  0.7496319994632401
  0.7788468688630843  0.2210850040545367  0.0017493826305781
  0.5554725364533937  0.1109450803360161  0.2507182655435614
  0.4423151491273956  0.2231620995473165  0.4976073553548517
  0.2209624292766463  0.1118998744565260  0.7496318892321199
  0.1112529883010041  0.2225059943380430  0.9988827599011358
  0.8895924120736112  0.1108353531986666  0.2490982230872447
  0.7808468902310111  0.2231620527436107  0.4976072606858821
  0.4422382919841610  0.2210850240795992  0.0017493954435110
  0.2220672700289015  0.4441347296549978  0.2495616326662642
  0.1118609328299769  0.5559869978603018  0.4990726724338330
  0.8928248193481139  0.4438629500950242  0.7481777367982261
  0.5559649649597063  0.4452823316701497  0.2511183325745989
  0.4441260728358927  0.5559870955565884  0.4990727609236885
  0.2222290731686414  0.4444581235411462  0.7489477385773498
  0.1125663443154181  0.5545471128538537  0.9995689773039800
  0.8893172379080170  0.4452822543063277  0.2511181764298911
  0.7777571243527959  0.5555142566507385  0.5012724206250212
  0.5510382181218461  0.4438633483482519  0.7481777162387573
  0.4419808464307877  0.5545472510723854  0.9995691800609734
  0.2216333290349368  0.7775173184592816  0.2487363671431595
  0.1119166412769701  0.8892458146347053  0.4991980786413492
  0.8906635765381310  0.7813271899700283  0.7475091148402342
  0.7787616839889111  0.8909383988183208  0.9992303458875256
  0.5558839153650297  0.7775173265700133  0.2487363489242185
  0.4426927520054562  0.8853854129266097  0.4979997036862969
  0.2209574739775277  0.7756313199533338  0.7496745386805017
  0.1121768915488701  0.8909383755909914  0.9992300436867154
  0.8889227960937589  0.7778454259707175  0.2515855838423207
  0.7773289254354907  0.8892456965387368  0.4991980803484637
  0.5546740299834170  0.7756315136527547  0.7496747516966593
  0.4444187966217541  0.8888373967540275  0.0011430649177626
  0.5554906398799915  0.1109812821561462  0.7453576435718290
  0.7779286076511269  0.5558574815328967  0.9945610894992925
 
  0.00000000E+00  0.00000000E+00  0.00000000E+00
  0.00000000E+00  0.00000000E+00  0.00000000E+00
  0.00000000E+00  0.00000000E+00  0.00000000E+00
  0.00000000E+00  0.00000000E+00  0.00000000E+00
  0.00000000E+00  0.00000000E+00  0.00000000E+00
  0.00000000E+00  0.00000000E+00  0.00000000E+00
  0.00000000E+00  0.00000000E+00  0.00000000E+00
  0.00000000E+00  0.00000000E+00  0.00000000E+00
  0.00000000E+00  0.00000000E+00  0.00000000E+00
  0.00000000E+00  0.00000000E+00  0.00000000E+00
  0.00000000E+00  0.00000000E+00  0.00000000E+00
  0.00000000E+00  0.00000000E+00  0.00000000E+00
  0.00000000E+00  0.00000000E+00  0.00000000E+00
  0.00000000E+00  0.00000000E+00  0.00000000E+00
  0.00000000E+00  0.00000000E+00  0.00000000E+00
  0.00000000E+00  0.00000000E+00  0.00000000E+00
  0.00000000E+00  0.00000000E+00  0.00000000E+00
  0.00000000E+00  0.00000000E+00  0.00000000E+00
  0.00000000E+00  0.00000000E+00  0.00000000E+00
  0.00000000E+00  0.00000000E+00  0.00000000E+00
  0.00000000E+00  0.00000000E+00  0.00000000E+00
  0.00000000E+00  0.00000000E+00  0.00000000E+00
  0.00000000E+00  0.00000000E+00  0.00000000E+00
  0.00000000E+00  0.00000000E+00  0.00000000E+00
  0.00000000E+00  0.00000000E+00  0.00000000E+00
  0.00000000E+00  0.00000000E+00  0.00000000E+00
  0.00000000E+00  0.00000000E+00  0.00000000E+00
  0.00000000E+00  0.00000000E+00  0.00000000E+00
  0.00000000E+00  0.00000000E+00  0.00000000E+00
  0.00000000E+00  0.00000000E+00  0.00000000E+00
  0.00000000E+00  0.00000000E+00  0.00000000E+00
  0.00000000E+00  0.00000000E+00  0.00000000E+00
  0.00000000E+00  0.00000000E+00  0.00000000E+00
  0.00000000E+00  0.00000000E+00  0.00000000E+00
  0.00000000E+00  0.00000000E+00  0.00000000E+00
  0.00000000E+00  0.00000000E+00  0.00000000E+00
  0.00000000E+00  0.00000000E+00  0.00000000E+00
  0.00000000E+00  0.00000000E+00  0.00000000E+00
  0.00000000E+00  0.00000000E+00  0.00000000E+00
  0.00000000E+00  0.00000000E+00  0.00000000E+00
  0.00000000E+00  0.00000000E+00  0.00000000E+00
  0.00000000E+00  0.00000000E+00  0.00000000E+00
  0.00000000E+00  0.00000000E+00  0.00000000E+00
  0.00000000E+00  0.00000000E+00  0.00000000E+00
  0.00000000E+00  0.00000000E+00  0.00000000E+00
  0.00000000E+00  0.00000000E+00  0.00000000E+00
  0.00000000E+00  0.00000000E+00  0.00000000E+00
  0.00000000E+00  0.00000000E+00  0.00000000E+00
  0.00000000E+00  0.00000000E+00  0.00000000E+00
  0.00000000E+00  0.00000000E+00  0.00000000E+00
  0.00000000E+00  0.00000000E+00  0.00000000E+00
  0.00000000E+00  0.00000000E+00  0.00000000E+00
  0.00000000E+00  0.00000000E+00  0.00000000E+00
  0.00000000E+00  0.00000000E+00  0.00000000E+00
  0.00000000E+00  0.00000000E+00  0.00000000E+00
  0.00000000E+00  0.00000000E+00  0.00000000E+00
  0.00000000E+00  0.00000000E+00  0.00000000E+00
  0.00000000E+00  0.00000000E+00  0.00000000E+00
  0.00000000E+00  0.00000000E+00  0.00000000E+00
  0.00000000E+00  0.00000000E+00  0.00000000E+00
  0.00000000E+00  0.00000000E+00  0.00000000E+00
  0.00000000E+00  0.00000000E+00  0.00000000E+00
  0.00000000E+00  0.00000000E+00  0.00000000E+00
  0.00000000E+00  0.00000000E+00  0.00000000E+00
  0.00000000E+00  0.00000000E+00  0.00000000E+00
  0.00000000E+00  0.00000000E+00  0.00000000E+00
  0.00000000E+00  0.00000000E+00  0.00000000E+00
  0.00000000E+00  0.00000000E+00  0.00000000E+00
  0.00000000E+00  0.00000000E+00  0.00000000E+00
  0.00000000E+00  0.00000000E+00  0.00000000E+00
  0.00000000E+00  0.00000000E+00  0.00000000E+00
  0.00000000E+00  0.00000000E+00  0.00000000E+00
