Al   Sc   N                             
   1.00000000000000     
    -9.8520664689353428   -0.0021759268089769    0.0025624787062460
    -4.9250077605594491    8.5219493745488393   -0.0059879303643070
     0.0003295968364917    0.0094280404134266  -10.0892727892360305
   Al   Sc   N 
    26    10    36
Direct
  0.1074592652951125  0.0934387404236503  0.3180051650221927
  0.7712236539293826  0.0945733064881011  0.8246881161227435
  0.4529872202990930  0.0892341554517628  0.3231770872990865
  0.5595102431564385  0.2026247811742437  0.0667224931207642
  0.2310285310382838  0.1979707575287293  0.5608300166870208
  0.7748592867566799  0.0959851597530488  0.3143476440755748
  0.8819741280253268  0.2045269200475133  0.0712503819793895
  0.4522224566603654  0.0948202806649618  0.8179642656832371
  0.5594479277837081  0.1969687769312145  0.5729310446332292
  0.1072035116277590  0.4277539879509575  0.3123107439484443
  0.2245047175621480  0.5456550996034721  0.0612931633753462
  0.7666680287848280  0.4277258092767440  0.8260642192816547
  0.5563898673490399  0.5345915674275901  0.0712225293296314
  0.7805899175266973  0.4256490092178282  0.3126557365498854
  0.8778760948723630  0.5466830234076951  0.0660790755673517
  0.4557466890466415  0.4208084978891620  0.8193214225078549
  0.5562430237698450  0.5434732722456204  0.5680929411717557
  0.2183307809376558  0.8681989401041648  0.0718688840746751
  0.7736811480944397  0.7706939759125220  0.8193604931624208
  0.8791787984722674  0.8842818501295966  0.5754178746679841
  0.4458981121903562  0.7673287453925042  0.3172705522196608
  0.5639831659184509  0.8747197067523231  0.0674567972100775
  0.1059085964463193  0.7696668208976405  0.8189976475080059
  0.2287867109394810  0.8749534327649258  0.5651190699603745
  0.8890468894477905  0.8714242285866263  0.0641951241767771
  0.5480997311318347  0.8782993040806062  0.5712166850575287
  0.2320729634641907  0.1965629853586179  0.0943039916901469
  0.8852833905821456  0.2021794396638228  0.5727966355455507
  0.1127025295890576  0.0932373393778150  0.8261003950492736
  0.8870486181393531  0.5355750723755577  0.5809839740832956
  0.4474565288450805  0.4242120973893506  0.3290034376660742
  0.1121942720701909  0.4233279030351653  0.8427562203086154
  0.2223832996629298  0.5375674722827313  0.5905124579063070
  0.1083949120308674  0.7648764266920125  0.3265775226263230
  0.7743254731683962  0.7626655909693625  0.3269919512414035
  0.4496101842901368  0.7582856132374189  0.8319138229667402
  0.2242459158268346  0.2046948804250590  0.3570459635376366
  0.0983395373423477  0.0830995886053287  0.1264687253261343
  0.8710659342426794  0.2119049774021633  0.8788884438304336
  0.7652616487068471  0.0891779241499862  0.6383474025007061
  0.5664272617439181  0.1869280490201035  0.3834672477261662
  0.4741198195335130  0.0810497067443450  0.1362762723330917
  0.2497218212456573  0.1867433557296607  0.8885167992532246
  0.1303295153258759  0.0870835836328325  0.6139982112194815
  0.8840596420257754  0.2068218657378722  0.3612473670650118
  0.7764892168977653  0.0923414373946230  0.1228758208320002
  0.5546456169553338  0.2057617608416749  0.8766668838853633
  0.4436422918797547  0.0952764727838868  0.6250296507763835
  0.2106251467976747  0.5284673991206503  0.3804149682086333
  0.1002555155728331  0.4485609800596180  0.1119049186441643
  0.8623077258750058  0.5519725008176550  0.8734025509469845
  0.7579995875610521  0.4339615610404053  0.6387558097975514
  0.5666615031537532  0.5508276817190989  0.3761493242984102
  0.4427668492963761  0.4260068554815675  0.1173195763429078
  0.2336675923103471  0.5487756672305579  0.8636743162951248
  0.1219984519600814  0.3999991410783466  0.6343844917001462
  0.8987252604498011  0.5173844242623886  0.3690885790409268
  0.7764865268133789  0.4277503301141650  0.1227698059656817
  0.5603762982078635  0.5212706754047716  0.8850566089533842
  0.4663797458680463  0.4161652491339041  0.6231177597787010
  0.2329867116394198  0.8796798275690918  0.3748668582875752
  0.1091005704860635  0.7593352288094124  0.1159652278678678
  0.8893255592722866  0.8720902273733842  0.8746030919461987
  0.7666186962642456  0.7797119659253369  0.6255801587308838
  0.5376711246926789  0.8819147321479619  0.3828237447687357
  0.4466131211439333  0.7627256330713976  0.1198892416782513
  0.2145880407536609  0.8635286884335329  0.8858747481165565
  0.0988267787010173  0.7876831316564150  0.6257104206148227
  0.8774228302906195  0.8940599435424517  0.3869900325343707
  0.7798215974591756  0.7614939832927377  0.1166189174591921
  0.5658598176777261  0.8855580747261911  0.8791733976148635
  0.4442829889292952  0.7605397340786340  0.6203280751226004
 
  0.00000000E+00  0.00000000E+00  0.00000000E+00
  0.00000000E+00  0.00000000E+00  0.00000000E+00
  0.00000000E+00  0.00000000E+00  0.00000000E+00
  0.00000000E+00  0.00000000E+00  0.00000000E+00
  0.00000000E+00  0.00000000E+00  0.00000000E+00
  0.00000000E+00  0.00000000E+00  0.00000000E+00
  0.00000000E+00  0.00000000E+00  0.00000000E+00
  0.00000000E+00  0.00000000E+00  0.00000000E+00
  0.00000000E+00  0.00000000E+00  0.00000000E+00
  0.00000000E+00  0.00000000E+00  0.00000000E+00
  0.00000000E+00  0.00000000E+00  0.00000000E+00
  0.00000000E+00  0.00000000E+00  0.00000000E+00
  0.00000000E+00  0.00000000E+00  0.00000000E+00
  0.00000000E+00  0.00000000E+00  0.00000000E+00
  0.00000000E+00  0.00000000E+00  0.00000000E+00
  0.00000000E+00  0.00000000E+00  0.00000000E+00
  0.00000000E+00  0.00000000E+00  0.00000000E+00
  0.00000000E+00  0.00000000E+00  0.00000000E+00
  0.00000000E+00  0.00000000E+00  0.00000000E+00
  0.00000000E+00  0.00000000E+00  0.00000000E+00
  0.00000000E+00  0.00000000E+00  0.00000000E+00
  0.00000000E+00  0.00000000E+00  0.00000000E+00
  0.00000000E+00  0.00000000E+00  0.00000000E+00
  0.00000000E+00  0.00000000E+00  0.00000000E+00
  0.00000000E+00  0.00000000E+00  0.00000000E+00
  0.00000000E+00  0.00000000E+00  0.00000000E+00
  0.00000000E+00  0.00000000E+00  0.00000000E+00
  0.00000000E+00  0.00000000E+00  0.00000000E+00
  0.00000000E+00  0.00000000E+00  0.00000000E+00
  0.00000000E+00  0.00000000E+00  0.00000000E+00
  0.00000000E+00  0.00000000E+00  0.00000000E+00
  0.00000000E+00  0.00000000E+00  0.00000000E+00
  0.00000000E+00  0.00000000E+00  0.00000000E+00
  0.00000000E+00  0.00000000E+00  0.00000000E+00
  0.00000000E+00  0.00000000E+00  0.00000000E+00
  0.00000000E+00  0.00000000E+00  0.00000000E+00
  0.00000000E+00  0.00000000E+00  0.00000000E+00
  0.00000000E+00  0.00000000E+00  0.00000000E+00
  0.00000000E+00  0.00000000E+00  0.00000000E+00
  0.00000000E+00  0.00000000E+00  0.00000000E+00
  0.00000000E+00  0.00000000E+00  0.00000000E+00
  0.00000000E+00  0.00000000E+00  0.00000000E+00
  0.00000000E+00  0.00000000E+00  0.00000000E+00
  0.00000000E+00  0.00000000E+00  0.00000000E+00
  0.00000000E+00  0.00000000E+00  0.00000000E+00
  0.00000000E+00  0.00000000E+00  0.00000000E+00
  0.00000000E+00  0.00000000E+00  0.00000000E+00
  0.00000000E+00  0.00000000E+00  0.00000000E+00
  0.00000000E+00  0.00000000E+00  0.00000000E+00
  0.00000000E+00  0.00000000E+00  0.00000000E+00
  0.00000000E+00  0.00000000E+00  0.00000000E+00
  0.00000000E+00  0.00000000E+00  0.00000000E+00
  0.00000000E+00  0.00000000E+00  0.00000000E+00
  0.00000000E+00  0.00000000E+00  0.00000000E+00
  0.00000000E+00  0.00000000E+00  0.00000000E+00
  0.00000000E+00  0.00000000E+00  0.00000000E+00
  0.00000000E+00  0.00000000E+00  0.00000000E+00
  0.00000000E+00  0.00000000E+00  0.00000000E+00
  0.00000000E+00  0.00000000E+00  0.00000000E+00
  0.00000000E+00  0.00000000E+00  0.00000000E+00
  0.00000000E+00  0.00000000E+00  0.00000000E+00
  0.00000000E+00  0.00000000E+00  0.00000000E+00
  0.00000000E+00  0.00000000E+00  0.00000000E+00
  0.00000000E+00  0.00000000E+00  0.00000000E+00
  0.00000000E+00  0.00000000E+00  0.00000000E+00
  0.00000000E+00  0.00000000E+00  0.00000000E+00
  0.00000000E+00  0.00000000E+00  0.00000000E+00
  0.00000000E+00  0.00000000E+00  0.00000000E+00
  0.00000000E+00  0.00000000E+00  0.00000000E+00
  0.00000000E+00  0.00000000E+00  0.00000000E+00
  0.00000000E+00  0.00000000E+00  0.00000000E+00
  0.00000000E+00  0.00000000E+00  0.00000000E+00
