Al   Sc   N                             
   1.00000000000000     
    -9.8513679403522065   -0.0017541818356024    0.0033568911195407
    -4.9250878249468526    8.5209058197226337   -0.0020464236459329
     0.0029037911302821    0.0031222206363517  -10.1039746318066506
   Al   Sc   N 
    26    10    36
Direct
  0.1190280457740727  0.0927787147052399  0.3985339726072468
  0.7727352405188910  0.0982093543535285  0.8968549911013781
  0.4444904001938639  0.0929962103297797  0.3993388544337080
  0.5638571580077425  0.1958638405378395  0.1436065874685184
  0.2361470453401537  0.1939522729911758  0.6444901579739977
  0.7716447878227441  0.0922804941143198  0.3954856320467925
  0.8851761279032644  0.2023694455800396  0.1527955734366699
  0.4582436854875738  0.0914305660583139  0.8937146787531915
  0.5560581068505783  0.2022305941863465  0.6484476276200013
  0.1124163273581615  0.4168541820414902  0.3993129916384035
  0.2185334197284234  0.5399158318650166  0.1457641906622982
  0.7704533573017827  0.4254085539418639  0.9020673771303578
  0.5570466925274005  0.5447979921482045  0.1451399872675694
  0.7756925234744187  0.4290794245768694  0.3890838957813116
  0.8889190364106412  0.5350210631074930  0.1464584339560489
  0.4502533571520502  0.4231250626676939  0.9021841193592479
  0.5558560998597315  0.5337721808394704  0.6466161434673339
  0.2256582452108589  0.8716031783802549  0.1489844027113136
  0.7748218135314744  0.7654605883439558  0.9030649163262083
  0.8815059816769235  0.8782382882311595  0.6520211731626162
  0.4457635693347157  0.7670724837638616  0.3984964841598497
  0.5529293048433743  0.8736090632219273  0.1459262053050807
  0.1105847480301492  0.7611132424867861  0.9020655970914575
  0.2214990695886669  0.8719143996527094  0.6436588229296376
  0.8858408000533942  0.8790005707478699  0.1383194638897294
  0.5580773479936667  0.8799924675395800  0.6457425715978928
  0.2277975967775276  0.2014277069953962  0.1448643800043925
  0.8836629330425367  0.2041550409842543  0.6289649983365777
  0.1053207943641752  0.0924191617101044  0.8891531402164858
  0.8773740243435952  0.5450666994283040  0.6401520070092843
  0.4531020363413987  0.4221750615039781  0.3794051483430536
  0.1091292969504210  0.4304883268558086  0.8879035956765762
  0.2269737635243629  0.5425051325084382  0.6408755423898924
  0.1064835430716187  0.7700929694966376  0.3828740117057947
  0.7735043537440944  0.7646806020237662  0.3789299880438293
  0.4491170588347302  0.7593598095028682  0.8814978857379501
  0.2258406774385691  0.2027642001170662  0.3531058461362662
  0.0997618606687425  0.0868458848694686  0.0994987988154392
  0.8677643870882008  0.2154932666468454  0.8393011714657206
  0.7638814532668903  0.0846804691280454  0.5848175373531035
  0.5630757781593374  0.1839466285051898  0.3315319771555849
  0.4660627418636167  0.0832967595458456  0.0817761255302756
  0.2461259933293292  0.1907171850753784  0.8370477181360272
  0.1316050687483710  0.0842675731675868  0.5905992739671220
  0.8867952223404245  0.2032552498936013  0.3496903566524594
  0.7774340133824040  0.0973347137088680  0.0861378602218181
  0.5564424416268210  0.2071259677173103  0.8406031950824087
  0.4483822924303027  0.0943544600192823  0.5889231856474311
  0.2117625209733447  0.5285839914606001  0.3386414437473704
  0.1025361623421475  0.4421586816458714  0.0946490564149869
  0.8626307121851227  0.5499788405553758  0.8507961049973289
  0.7557739903358680  0.4392626230632786  0.5744692205562743
  0.5632755352608640  0.5558216191274283  0.3319892998929177
  0.4470865688377472  0.4258893569831770  0.1001654080854522
  0.2342310940701182  0.5464615649244848  0.8518838526031445
  0.1191016697374110  0.4092097740928793  0.5938128435843382
  0.9006652173276350  0.5165178980340528  0.3387323682752097
  0.7777902277211481  0.4240057104638169  0.0942002724766411
  0.5629686305595953  0.5187836642910710  0.8378646122332825
  0.4631942289168478  0.4152926530470893  0.5897111359332357
  0.2345985767852241  0.8812759936672165  0.3377886353575121
  0.1127429085697926  0.7619210124554101  0.0974213229847578
  0.8891555774473190  0.8712791182215227  0.8481083673461214
  0.7694282935665839  0.7809678571404746  0.5885742717472695
  0.5338998353360012  0.8858257540656140  0.3347979634714946
  0.4435576176177847  0.7638102034299976  0.0922330348534999
  0.2124843144902684  0.8614989797180286  0.8308093526051579
  0.0943832741204176  0.7848035847942612  0.5916227992402057
  0.8777885216001522  0.8936602603327373  0.3225137100249640
  0.7763766756897610  0.7599574867666661  0.0992655456583478
  0.5694176891561966  0.8823736174105008  0.8340574104766105
  0.4461803441423342  0.7601655774569522  0.5975376866171089
 
  0.00000000E+00  0.00000000E+00  0.00000000E+00
  0.00000000E+00  0.00000000E+00  0.00000000E+00
  0.00000000E+00  0.00000000E+00  0.00000000E+00
  0.00000000E+00  0.00000000E+00  0.00000000E+00
  0.00000000E+00  0.00000000E+00  0.00000000E+00
  0.00000000E+00  0.00000000E+00  0.00000000E+00
  0.00000000E+00  0.00000000E+00  0.00000000E+00
  0.00000000E+00  0.00000000E+00  0.00000000E+00
  0.00000000E+00  0.00000000E+00  0.00000000E+00
  0.00000000E+00  0.00000000E+00  0.00000000E+00
  0.00000000E+00  0.00000000E+00  0.00000000E+00
  0.00000000E+00  0.00000000E+00  0.00000000E+00
  0.00000000E+00  0.00000000E+00  0.00000000E+00
  0.00000000E+00  0.00000000E+00  0.00000000E+00
  0.00000000E+00  0.00000000E+00  0.00000000E+00
  0.00000000E+00  0.00000000E+00  0.00000000E+00
  0.00000000E+00  0.00000000E+00  0.00000000E+00
  0.00000000E+00  0.00000000E+00  0.00000000E+00
  0.00000000E+00  0.00000000E+00  0.00000000E+00
  0.00000000E+00  0.00000000E+00  0.00000000E+00
  0.00000000E+00  0.00000000E+00  0.00000000E+00
  0.00000000E+00  0.00000000E+00  0.00000000E+00
  0.00000000E+00  0.00000000E+00  0.00000000E+00
  0.00000000E+00  0.00000000E+00  0.00000000E+00
  0.00000000E+00  0.00000000E+00  0.00000000E+00
  0.00000000E+00  0.00000000E+00  0.00000000E+00
  0.00000000E+00  0.00000000E+00  0.00000000E+00
  0.00000000E+00  0.00000000E+00  0.00000000E+00
  0.00000000E+00  0.00000000E+00  0.00000000E+00
  0.00000000E+00  0.00000000E+00  0.00000000E+00
  0.00000000E+00  0.00000000E+00  0.00000000E+00
  0.00000000E+00  0.00000000E+00  0.00000000E+00
  0.00000000E+00  0.00000000E+00  0.00000000E+00
  0.00000000E+00  0.00000000E+00  0.00000000E+00
  0.00000000E+00  0.00000000E+00  0.00000000E+00
  0.00000000E+00  0.00000000E+00  0.00000000E+00
  0.00000000E+00  0.00000000E+00  0.00000000E+00
  0.00000000E+00  0.00000000E+00  0.00000000E+00
  0.00000000E+00  0.00000000E+00  0.00000000E+00
  0.00000000E+00  0.00000000E+00  0.00000000E+00
  0.00000000E+00  0.00000000E+00  0.00000000E+00
  0.00000000E+00  0.00000000E+00  0.00000000E+00
  0.00000000E+00  0.00000000E+00  0.00000000E+00
  0.00000000E+00  0.00000000E+00  0.00000000E+00
  0.00000000E+00  0.00000000E+00  0.00000000E+00
  0.00000000E+00  0.00000000E+00  0.00000000E+00
  0.00000000E+00  0.00000000E+00  0.00000000E+00
  0.00000000E+00  0.00000000E+00  0.00000000E+00
  0.00000000E+00  0.00000000E+00  0.00000000E+00
  0.00000000E+00  0.00000000E+00  0.00000000E+00
  0.00000000E+00  0.00000000E+00  0.00000000E+00
  0.00000000E+00  0.00000000E+00  0.00000000E+00
  0.00000000E+00  0.00000000E+00  0.00000000E+00
  0.00000000E+00  0.00000000E+00  0.00000000E+00
  0.00000000E+00  0.00000000E+00  0.00000000E+00
  0.00000000E+00  0.00000000E+00  0.00000000E+00
  0.00000000E+00  0.00000000E+00  0.00000000E+00
  0.00000000E+00  0.00000000E+00  0.00000000E+00
  0.00000000E+00  0.00000000E+00  0.00000000E+00
  0.00000000E+00  0.00000000E+00  0.00000000E+00
  0.00000000E+00  0.00000000E+00  0.00000000E+00
  0.00000000E+00  0.00000000E+00  0.00000000E+00
  0.00000000E+00  0.00000000E+00  0.00000000E+00
  0.00000000E+00  0.00000000E+00  0.00000000E+00
  0.00000000E+00  0.00000000E+00  0.00000000E+00
  0.00000000E+00  0.00000000E+00  0.00000000E+00
  0.00000000E+00  0.00000000E+00  0.00000000E+00
  0.00000000E+00  0.00000000E+00  0.00000000E+00
  0.00000000E+00  0.00000000E+00  0.00000000E+00
  0.00000000E+00  0.00000000E+00  0.00000000E+00
  0.00000000E+00  0.00000000E+00  0.00000000E+00
  0.00000000E+00  0.00000000E+00  0.00000000E+00
