Al   Sc   N                             
   1.00000000000000     
    -9.8520358491105160   -0.0017843064765577    0.0033001473757339
    -4.9254856601391337    8.5214142230264933   -0.0023279598401025
     0.0028304173415880    0.0027148604837020  -10.1022043314004648
   Al   Sc   N 
    26    10    36
Direct
  0.1190546286818019  0.0928153599778554  0.3904443628316159
  0.7727281869891627  0.0982652858685427  0.8887509070655142
  0.4444835107866538  0.0930446783017729  0.3912424857621772
  0.5638652658198708  0.1958969959757511  0.1355241586956382
  0.2361657381421338  0.1939758623578243  0.6364405432486464
  0.7716340737452754  0.0923216715141706  0.3874133515748497
  0.8851791028111222  0.2024054512224112  0.1447172857212351
  0.4582629777873777  0.0914666887441768  0.8856415713696535
  0.5560486644975313  0.2022869335926885  0.6403585536854308
  0.1124239137031111  0.4168704242909556  0.3912428693661809
  0.2185173119513451  0.5399515240029871  0.1376887181341147
  0.7704498721262212  0.4254481493141355  0.8939689925891798
  0.5570465040068271  0.5448585633213270  0.1370347971445938
  0.7756811676193252  0.4291304670003981  0.3809916207395361
  0.8889301836374415  0.5350478695540701  0.1383688489269375
  0.4502354515266447  0.4231761013180773  0.8941061864561917
  0.5558516248267225  0.5337998551477270  0.6385365069132263
  0.2256730845955417  0.8716480326938054  0.1408811724262975
  0.7748245524498145  0.7654945135491076  0.8949861374740564
  0.8815082125841229  0.8782790761353141  0.6439326611465077
  0.4457712208745548  0.7671162526696378  0.3904308796886511
  0.5529187868292738  0.8736508478552878  0.1378416853655580
  0.1105927736965597  0.7611394520970549  0.8939826642252910
  0.2214915227967253  0.8719512846638651  0.6355684855508485
  0.8858352121794297  0.8790573663287375  0.1302150676375504
  0.5580972057679290  0.8800452791163096  0.6376478812835131
  0.2277874848251074  0.2014757841432697  0.1367075921410432
  0.8836628890362519  0.2041993134003803  0.6208284322266664
  0.1052965047441532  0.0924595270169704  0.8810294428259837
  0.8773552183584812  0.5451234717390676  0.6320230816974046
  0.4531058994297013  0.4222235115467896  0.3712673108755240
  0.1091171164800286  0.4305455110759411  0.8797501695540646
  0.2269723775055965  0.5425569032777204  0.6327230524445753
  0.1064778065978160  0.7701543175741463  0.3747386457038004
  0.7735102082040584  0.7647279207052478  0.3707942122863059
  0.4491189118864938  0.7594122283788138  0.8733579025655587
  0.2258445454451277  0.2028053064856934  0.3449983674402972
  0.0997506462409277  0.0868824988448083  0.0914134389590515
  0.8677471897737519  0.2155447887664792  0.8311993490741969
  0.7638734898549870  0.0847234414534412  0.5767676108750521
  0.5630786889798287  0.1839872211250650  0.3234720621888698
  0.4660794089798088  0.0833309326964766  0.0737244944159556
  0.2461375447495442  0.1907412245632116  0.8290367664342710
  0.1316231608093545  0.0843066194527680  0.5825518453599514
  0.8867987368943275  0.2032938396577038  0.3416469876672963
  0.7774315480018430  0.0973885171292608  0.0780606721905031
  0.5564308189702487  0.2071810505560094  0.8325400488488413
  0.4483776680035092  0.0944057047234423  0.5808574793049033
  0.2117486972195621  0.5286236075295108  0.3306130773959310
  0.1025271263425296  0.4422162497324678  0.0865453352302197
  0.8626086488707045  0.5500299210114008  0.8427055128145113
  0.7557573454472646  0.4393110597207937  0.5664034511006619
  0.5632757837548397  0.5558822994683723  0.3239123549795337
  0.4470748222748782  0.4259374454389686  0.0921245913665558
  0.2342340679717267  0.5465049450890831  0.8437792495740624
  0.1191058090565562  0.4092285969079015  0.5857934879185720
  0.9006766910603758  0.5165462860552168  0.3306847260381218
  0.7777984751084261  0.4240396015181673  0.0861339432683721
  0.5629577898166573  0.5188227170762261  0.8298138465786167
  0.4631988272168286  0.4153333835559678  0.5816127342483242
  0.2346183180163806  0.8813189918395352  0.3297194369381131
  0.1127513567493565  0.7619542654872546  0.0893753365186072
  0.8891607833302899  0.8713118063729866  0.8400530608603063
  0.7694326564424188  0.7810224057988933  0.5804754366645426
  0.5338978054650312  0.8858674744065098  0.3267417805517212
  0.4435611791082508  0.7638604996562890  0.0841318346392512
  0.2124782044158593  0.8615309625433483  0.8227482633622856
  0.0943720994026975  0.7848655336103434  0.5835248298856897
  0.8777801669117054  0.8937227149772369  0.3144358289385778
  0.7763773802742477  0.7599922027441082  0.0912213162741153
  0.5694351138364695  0.8824229612232699  0.8259896082008851
  0.4461846858067489  0.7602063606170617  0.5894995838927812
 
  0.00000000E+00  0.00000000E+00  0.00000000E+00
  0.00000000E+00  0.00000000E+00  0.00000000E+00
  0.00000000E+00  0.00000000E+00  0.00000000E+00
  0.00000000E+00  0.00000000E+00  0.00000000E+00
  0.00000000E+00  0.00000000E+00  0.00000000E+00
  0.00000000E+00  0.00000000E+00  0.00000000E+00
  0.00000000E+00  0.00000000E+00  0.00000000E+00
  0.00000000E+00  0.00000000E+00  0.00000000E+00
  0.00000000E+00  0.00000000E+00  0.00000000E+00
  0.00000000E+00  0.00000000E+00  0.00000000E+00
  0.00000000E+00  0.00000000E+00  0.00000000E+00
  0.00000000E+00  0.00000000E+00  0.00000000E+00
  0.00000000E+00  0.00000000E+00  0.00000000E+00
  0.00000000E+00  0.00000000E+00  0.00000000E+00
  0.00000000E+00  0.00000000E+00  0.00000000E+00
  0.00000000E+00  0.00000000E+00  0.00000000E+00
  0.00000000E+00  0.00000000E+00  0.00000000E+00
  0.00000000E+00  0.00000000E+00  0.00000000E+00
  0.00000000E+00  0.00000000E+00  0.00000000E+00
  0.00000000E+00  0.00000000E+00  0.00000000E+00
  0.00000000E+00  0.00000000E+00  0.00000000E+00
  0.00000000E+00  0.00000000E+00  0.00000000E+00
  0.00000000E+00  0.00000000E+00  0.00000000E+00
  0.00000000E+00  0.00000000E+00  0.00000000E+00
  0.00000000E+00  0.00000000E+00  0.00000000E+00
  0.00000000E+00  0.00000000E+00  0.00000000E+00
  0.00000000E+00  0.00000000E+00  0.00000000E+00
  0.00000000E+00  0.00000000E+00  0.00000000E+00
  0.00000000E+00  0.00000000E+00  0.00000000E+00
  0.00000000E+00  0.00000000E+00  0.00000000E+00
  0.00000000E+00  0.00000000E+00  0.00000000E+00
  0.00000000E+00  0.00000000E+00  0.00000000E+00
  0.00000000E+00  0.00000000E+00  0.00000000E+00
  0.00000000E+00  0.00000000E+00  0.00000000E+00
  0.00000000E+00  0.00000000E+00  0.00000000E+00
  0.00000000E+00  0.00000000E+00  0.00000000E+00
  0.00000000E+00  0.00000000E+00  0.00000000E+00
  0.00000000E+00  0.00000000E+00  0.00000000E+00
  0.00000000E+00  0.00000000E+00  0.00000000E+00
  0.00000000E+00  0.00000000E+00  0.00000000E+00
  0.00000000E+00  0.00000000E+00  0.00000000E+00
  0.00000000E+00  0.00000000E+00  0.00000000E+00
  0.00000000E+00  0.00000000E+00  0.00000000E+00
  0.00000000E+00  0.00000000E+00  0.00000000E+00
  0.00000000E+00  0.00000000E+00  0.00000000E+00
  0.00000000E+00  0.00000000E+00  0.00000000E+00
  0.00000000E+00  0.00000000E+00  0.00000000E+00
  0.00000000E+00  0.00000000E+00  0.00000000E+00
  0.00000000E+00  0.00000000E+00  0.00000000E+00
  0.00000000E+00  0.00000000E+00  0.00000000E+00
  0.00000000E+00  0.00000000E+00  0.00000000E+00
  0.00000000E+00  0.00000000E+00  0.00000000E+00
  0.00000000E+00  0.00000000E+00  0.00000000E+00
  0.00000000E+00  0.00000000E+00  0.00000000E+00
  0.00000000E+00  0.00000000E+00  0.00000000E+00
  0.00000000E+00  0.00000000E+00  0.00000000E+00
  0.00000000E+00  0.00000000E+00  0.00000000E+00
  0.00000000E+00  0.00000000E+00  0.00000000E+00
  0.00000000E+00  0.00000000E+00  0.00000000E+00
  0.00000000E+00  0.00000000E+00  0.00000000E+00
  0.00000000E+00  0.00000000E+00  0.00000000E+00
  0.00000000E+00  0.00000000E+00  0.00000000E+00
  0.00000000E+00  0.00000000E+00  0.00000000E+00
  0.00000000E+00  0.00000000E+00  0.00000000E+00
  0.00000000E+00  0.00000000E+00  0.00000000E+00
  0.00000000E+00  0.00000000E+00  0.00000000E+00
  0.00000000E+00  0.00000000E+00  0.00000000E+00
  0.00000000E+00  0.00000000E+00  0.00000000E+00
  0.00000000E+00  0.00000000E+00  0.00000000E+00
  0.00000000E+00  0.00000000E+00  0.00000000E+00
  0.00000000E+00  0.00000000E+00  0.00000000E+00
  0.00000000E+00  0.00000000E+00  0.00000000E+00
