Al   Sc   N                             
   1.00000000000000     
    -9.8442432455184292   -0.0022663007318429    0.0023922474748257
    -4.9201574776187798    8.5160251685860899   -0.0068325389468158
     0.0027646649789986    0.0099550531410686  -10.1094599853723999
   Al   Sc   N 
    26    10    36
Direct
  0.1076217913798914  0.0935503723877034  0.2941361416028130
  0.7712586380074598  0.0947592373834709  0.8007707793006702
  0.4527931666963028  0.0894361139110984  0.2993252003087008
  0.5596125402054994  0.2025500967868936  0.0428273643028518
  0.2309747027731532  0.1981871403134861  0.5369308900481258
  0.7748742145722645  0.0960187602014884  0.2906458595393460
  0.8820609220651363  0.2045575356271385  0.0475827144052658
  0.4521591577174391  0.0948751753324331  0.7941209190488578
  0.5593735894135534  0.1971815137126640  0.5491961523557833
  0.1073204129913634  0.4278459545810307  0.2884154754285291
  0.2244755644960108  0.5456307041025497  0.0373786732844081
  0.7668382890945225  0.4277882173747685  0.8022948879314598
  0.5564289288868451  0.5347936865922804  0.0471651720806960
  0.7805704616543707  0.4258345631941509  0.2886455862844244
  0.8780864285366903  0.5466621749029272  0.0422606926525759
  0.4556553779908015  0.4209129173500443  0.7957028832306889
  0.5563224983956303  0.5433534732983318  0.5443760831441651
  0.2185452089758186  0.8683094836737411  0.0479029027290778
  0.7736237390974523  0.7707510130442827  0.7957750815236935
  0.8792386452832872  0.8843089348214335  0.5518220766506587
  0.4459120491863686  0.7673153541329043  0.2937495973407778
  0.5637612501012512  0.8747186422986104  0.0436255795214038
  0.1060064441974760  0.7696658460023045  0.7953810980467395
  0.2285920962091126  0.8750660298015518  0.5412012472497025
  0.8890165258694083  0.8716248429245397  0.0401198462298780
  0.5481934714201486  0.8784347023715213  0.5473061391084926
  0.2319177024851058  0.1968101099122919  0.0699422664123475
  0.8851575552666588  0.2024470748195881  0.5484562835379663
  0.1124906023038719  0.0933690848178372  0.8017956073151140
  0.8868120540846931  0.5360279263466552  0.5565197163795261
  0.4476300567179976  0.4242419433911593  0.3045234367273082
  0.1120830382818312  0.4236217304856922  0.8181164750917276
  0.2225060731972022  0.5378951766245237  0.5660112590452755
  0.1082910771741652  0.7651386345179674  0.3020488622617847
  0.7742382011664262  0.7630424061849084  0.3025242477352350
  0.4495860331833512  0.7583396824066568  0.8074350127479306
  0.2242456134831770  0.2048625307738092  0.3336287472898363
  0.0984985604565480  0.0831079317977768  0.1030530969066561
  0.8710933596765358  0.2119998718895957  0.8556135712295259
  0.7653331724524293  0.0893933080082405  0.6147319869647276
  0.5663679734422473  0.1870986010087492  0.3599656690105206
  0.4739640396591867  0.0811409980362399  0.1126854317178072
  0.2494102331703445  0.1870738362017761  0.8645190402653853
  0.1301361472363141  0.0873098081670776  0.5901457876045271
  0.8841160772482937  0.2069802053412531  0.3373644722608802
  0.7765292793712817  0.0923230804507327  0.0994466047706055
  0.5547046157526836  0.2057190328851632  0.8530862042574583
  0.4435939005672438  0.0953909809835594  0.6014701913618765
  0.2108424469311245  0.5287543977528486  0.3563970194682469
  0.1003167637272071  0.4486402677949002  0.0886463392721808
  0.8624525312852569  0.5520068745387974  0.8500586461477866
  0.7582089672336849  0.4340727127183541  0.6152795231239097
  0.5667868086918944  0.5507020510631264  0.3527506890748171
  0.4429148078560203  0.4259998148372119  0.0933418097580301
  0.2336592580358641  0.5488406545757769  0.8403798568401868
  0.1218492442949994  0.4005122104816721  0.6101983551404260
  0.8986228690319962  0.5178147937030744  0.3451187863290528
  0.7764772546206515  0.4278788260930568  0.0991466892142299
  0.5604319672760667  0.5214704052176842  0.8613618752395809
  0.4663690022187339  0.4162521079183037  0.5999361772747989
  0.2328910300852272  0.8797419187213862  0.3513577389755156
  0.1091224340851582  0.7594780942259405  0.0919342157104808
  0.8892790509717585  0.8723108582284596  0.8509389074280591
  0.7665312050461353  0.7798824958339310  0.6024143138490885
  0.5377735651644642  0.8820197127064588  0.3592490617518465
  0.4466314546836614  0.7626988854167109  0.0966465635648461
  0.2147208896350890  0.8637396008741689  0.8622687103916746
  0.0988620396465976  0.7877648516495057  0.6025106852580890
  0.8775426879197354  0.8940611619912033  0.3636621013792407
  0.7798005705035749  0.7616595939505899  0.0926486349549052
  0.5656394672576965  0.8856054355030096  0.8556765723399167
  0.4442522022025486  0.7606258330293088  0.5963337132692459
 
  0.00000000E+00  0.00000000E+00  0.00000000E+00
  0.00000000E+00  0.00000000E+00  0.00000000E+00
  0.00000000E+00  0.00000000E+00  0.00000000E+00
  0.00000000E+00  0.00000000E+00  0.00000000E+00
  0.00000000E+00  0.00000000E+00  0.00000000E+00
  0.00000000E+00  0.00000000E+00  0.00000000E+00
  0.00000000E+00  0.00000000E+00  0.00000000E+00
  0.00000000E+00  0.00000000E+00  0.00000000E+00
  0.00000000E+00  0.00000000E+00  0.00000000E+00
  0.00000000E+00  0.00000000E+00  0.00000000E+00
  0.00000000E+00  0.00000000E+00  0.00000000E+00
  0.00000000E+00  0.00000000E+00  0.00000000E+00
  0.00000000E+00  0.00000000E+00  0.00000000E+00
  0.00000000E+00  0.00000000E+00  0.00000000E+00
  0.00000000E+00  0.00000000E+00  0.00000000E+00
  0.00000000E+00  0.00000000E+00  0.00000000E+00
  0.00000000E+00  0.00000000E+00  0.00000000E+00
  0.00000000E+00  0.00000000E+00  0.00000000E+00
  0.00000000E+00  0.00000000E+00  0.00000000E+00
  0.00000000E+00  0.00000000E+00  0.00000000E+00
  0.00000000E+00  0.00000000E+00  0.00000000E+00
  0.00000000E+00  0.00000000E+00  0.00000000E+00
  0.00000000E+00  0.00000000E+00  0.00000000E+00
  0.00000000E+00  0.00000000E+00  0.00000000E+00
  0.00000000E+00  0.00000000E+00  0.00000000E+00
  0.00000000E+00  0.00000000E+00  0.00000000E+00
  0.00000000E+00  0.00000000E+00  0.00000000E+00
  0.00000000E+00  0.00000000E+00  0.00000000E+00
  0.00000000E+00  0.00000000E+00  0.00000000E+00
  0.00000000E+00  0.00000000E+00  0.00000000E+00
  0.00000000E+00  0.00000000E+00  0.00000000E+00
  0.00000000E+00  0.00000000E+00  0.00000000E+00
  0.00000000E+00  0.00000000E+00  0.00000000E+00
  0.00000000E+00  0.00000000E+00  0.00000000E+00
  0.00000000E+00  0.00000000E+00  0.00000000E+00
  0.00000000E+00  0.00000000E+00  0.00000000E+00
  0.00000000E+00  0.00000000E+00  0.00000000E+00
  0.00000000E+00  0.00000000E+00  0.00000000E+00
  0.00000000E+00  0.00000000E+00  0.00000000E+00
  0.00000000E+00  0.00000000E+00  0.00000000E+00
  0.00000000E+00  0.00000000E+00  0.00000000E+00
  0.00000000E+00  0.00000000E+00  0.00000000E+00
  0.00000000E+00  0.00000000E+00  0.00000000E+00
  0.00000000E+00  0.00000000E+00  0.00000000E+00
  0.00000000E+00  0.00000000E+00  0.00000000E+00
  0.00000000E+00  0.00000000E+00  0.00000000E+00
  0.00000000E+00  0.00000000E+00  0.00000000E+00
  0.00000000E+00  0.00000000E+00  0.00000000E+00
  0.00000000E+00  0.00000000E+00  0.00000000E+00
  0.00000000E+00  0.00000000E+00  0.00000000E+00
  0.00000000E+00  0.00000000E+00  0.00000000E+00
  0.00000000E+00  0.00000000E+00  0.00000000E+00
  0.00000000E+00  0.00000000E+00  0.00000000E+00
  0.00000000E+00  0.00000000E+00  0.00000000E+00
  0.00000000E+00  0.00000000E+00  0.00000000E+00
  0.00000000E+00  0.00000000E+00  0.00000000E+00
  0.00000000E+00  0.00000000E+00  0.00000000E+00
  0.00000000E+00  0.00000000E+00  0.00000000E+00
  0.00000000E+00  0.00000000E+00  0.00000000E+00
  0.00000000E+00  0.00000000E+00  0.00000000E+00
  0.00000000E+00  0.00000000E+00  0.00000000E+00
  0.00000000E+00  0.00000000E+00  0.00000000E+00
  0.00000000E+00  0.00000000E+00  0.00000000E+00
  0.00000000E+00  0.00000000E+00  0.00000000E+00
  0.00000000E+00  0.00000000E+00  0.00000000E+00
  0.00000000E+00  0.00000000E+00  0.00000000E+00
  0.00000000E+00  0.00000000E+00  0.00000000E+00
  0.00000000E+00  0.00000000E+00  0.00000000E+00
  0.00000000E+00  0.00000000E+00  0.00000000E+00
  0.00000000E+00  0.00000000E+00  0.00000000E+00
  0.00000000E+00  0.00000000E+00  0.00000000E+00
  0.00000000E+00  0.00000000E+00  0.00000000E+00
