Al   Sc   N                             
   1.00000000000000     
   -10.2226647154612120   -0.0019198673608567    0.0030448005286035
    -5.1003862102046336    8.8435954302686834   -0.0035948727138656
    -0.0036266721176684   -0.0175751551799377   -9.0295199521228202
   Al   Sc   N 
    26    10    36
Direct
  0.1174408170299586  0.0927234592020056  0.3626225257393116
  0.7709179277527980  0.1020903367944257  0.8692420548120552
  0.4467506818869467  0.0932345489851016  0.3715491147014731
  0.5647127351142771  0.1962567426175141  0.1168935972475751
  0.2353299510001747  0.1947324196202800  0.6102830808335824
  0.7719905216637741  0.0918138351894200  0.3709586138048664
  0.8851817216426738  0.2014016269321104  0.1239119347520088
  0.4588232427865933  0.0904051012452740  0.8708357750680378
  0.5557989901601701  0.2022552300848304  0.6242449445588107
  0.1118559993429500  0.4191287281792455  0.3587001375674745
  0.2208037065311430  0.5403861892291246  0.1075365793147043
  0.7716838384764486  0.4250508076144541  0.8813011624676506
  0.5544206865006416  0.5453732346431650  0.1134517531259220
  0.7726121430911377  0.4308103824913729  0.3547329488374942
  0.8870805878285708  0.5374461389027871  0.1126246636966570
  0.4500226296816408  0.4225082691172304  0.8727732640360273
  0.5554304835258179  0.5345487826725233  0.6236130001037310
  0.2262061296301070  0.8710786527884622  0.1204599384621901
  0.7733170348297875  0.7640279208251428  0.8733836774074533
  0.8825010171651968  0.8777374732567012  0.6339470068684392
  0.4463024133096170  0.7652262676013564  0.3712997520690706
  0.5534927594098988  0.8731812646766528  0.1216231881427277
  0.1113759208782881  0.7610751078784190  0.8716217890203595
  0.2215442247370802  0.8717915059552581  0.6130101742178269
  0.8844411401866594  0.8810921019264484  0.1023668176698251
  0.5584431989610863  0.8803262155869689  0.6167762018406506
  0.2307387625877837  0.1992766997646527  0.1083165198326341
  0.8819913498672349  0.2068486266599550  0.5987376324898150
  0.1063212741119273  0.0925117312972290  0.8553969589649952
  0.8790596048714576  0.5416756715625723  0.6047365915014211
  0.4532403399579721  0.4224700731525530  0.3498660705332597
  0.1098808628816030  0.4281133038529390  0.8554057750333826
  0.2254438544780157  0.5406995468585052  0.6051500156552123
  0.1043355267061585  0.7706658116738936  0.3510309956688928
  0.7752554810773660  0.7669354554990591  0.3501381982563387
  0.4481277675548938  0.7616218263071985  0.8529474107184924
  0.2272395840624881  0.2024469169860978  0.3494387988454264
  0.1010028374648186  0.0867575570265089  0.1015002234643561
  0.8693619386166134  0.2164318528205555  0.8397339760802112
  0.7657972974550944  0.0843777164295716  0.5884754513938333
  0.5642759366865988  0.1864506771086809  0.3307264750896906
  0.4682734899864656  0.0819984063770320  0.0847493371554506
  0.2466234325623518  0.1902284905003100  0.8458584614760909
  0.1281307126593845  0.0864242502717545  0.5898201582195384
  0.8855244183545139  0.2028601764461015  0.3428029581599290
  0.7759021656662526  0.0996832859521817  0.0803222628681937
  0.5555431756833897  0.2066954499045011  0.8395104318445021
  0.4483434791100862  0.0954793110124257  0.5860466062740244
  0.2142832978763707  0.5304542334443312  0.3433416292967735
  0.1035275504055804  0.4407035313014944  0.0980011493263717
  0.8653085321282887  0.5468371362254487  0.8522879481212371
  0.7548454969987972  0.4380164140247800  0.5712090102121365
  0.5594289336027174  0.5552557717736946  0.3259938463846126
  0.4469910669489110  0.4243578288698728  0.0930831841248576
  0.2326247294301638  0.5453051639599735  0.8532187621945440
  0.1186446107884578  0.4086482782961482  0.5983727487803634
  0.8974705228078719  0.5213636371950443  0.3390172356449668
  0.7780751823310084  0.4235553093403368  0.0976653206923856
  0.5628692336098595  0.5217675091581526  0.8444490011370434
  0.4626205163146579  0.4162111793760772  0.5924171024664489
  0.2342841507321580  0.8787800231983383  0.3399012599106896
  0.1142491641802792  0.7617696744098410  0.0918833332338735
  0.8883197851758169  0.8719095872936222  0.8537586727211206
  0.7725849919596115  0.7788964128733298  0.5917853216472295
  0.5376537529790824  0.8832152060896235  0.3385700474422038
  0.4432912327939107  0.7663883077805025  0.0902605809821253
  0.2149188396209354  0.8622009802734567  0.8323974305604054
  0.0939118933210850  0.7829574745197618  0.5935653565442536
  0.8776405343295011  0.8936013623293348  0.3152530760140024
  0.7741057461690701  0.7601007036377112  0.0925152803347800
  0.5668003674326272  0.8824003470846975  0.8316468169155158
  0.4465980833227547  0.7586782697406989  0.5930915421752729
 
  0.00000000E+00  0.00000000E+00  0.00000000E+00
  0.00000000E+00  0.00000000E+00  0.00000000E+00
  0.00000000E+00  0.00000000E+00  0.00000000E+00
  0.00000000E+00  0.00000000E+00  0.00000000E+00
  0.00000000E+00  0.00000000E+00  0.00000000E+00
  0.00000000E+00  0.00000000E+00  0.00000000E+00
  0.00000000E+00  0.00000000E+00  0.00000000E+00
  0.00000000E+00  0.00000000E+00  0.00000000E+00
  0.00000000E+00  0.00000000E+00  0.00000000E+00
  0.00000000E+00  0.00000000E+00  0.00000000E+00
  0.00000000E+00  0.00000000E+00  0.00000000E+00
  0.00000000E+00  0.00000000E+00  0.00000000E+00
  0.00000000E+00  0.00000000E+00  0.00000000E+00
  0.00000000E+00  0.00000000E+00  0.00000000E+00
  0.00000000E+00  0.00000000E+00  0.00000000E+00
  0.00000000E+00  0.00000000E+00  0.00000000E+00
  0.00000000E+00  0.00000000E+00  0.00000000E+00
  0.00000000E+00  0.00000000E+00  0.00000000E+00
  0.00000000E+00  0.00000000E+00  0.00000000E+00
  0.00000000E+00  0.00000000E+00  0.00000000E+00
  0.00000000E+00  0.00000000E+00  0.00000000E+00
  0.00000000E+00  0.00000000E+00  0.00000000E+00
  0.00000000E+00  0.00000000E+00  0.00000000E+00
  0.00000000E+00  0.00000000E+00  0.00000000E+00
  0.00000000E+00  0.00000000E+00  0.00000000E+00
  0.00000000E+00  0.00000000E+00  0.00000000E+00
  0.00000000E+00  0.00000000E+00  0.00000000E+00
  0.00000000E+00  0.00000000E+00  0.00000000E+00
  0.00000000E+00  0.00000000E+00  0.00000000E+00
  0.00000000E+00  0.00000000E+00  0.00000000E+00
  0.00000000E+00  0.00000000E+00  0.00000000E+00
  0.00000000E+00  0.00000000E+00  0.00000000E+00
  0.00000000E+00  0.00000000E+00  0.00000000E+00
  0.00000000E+00  0.00000000E+00  0.00000000E+00
  0.00000000E+00  0.00000000E+00  0.00000000E+00
  0.00000000E+00  0.00000000E+00  0.00000000E+00
  0.00000000E+00  0.00000000E+00  0.00000000E+00
  0.00000000E+00  0.00000000E+00  0.00000000E+00
  0.00000000E+00  0.00000000E+00  0.00000000E+00
  0.00000000E+00  0.00000000E+00  0.00000000E+00
  0.00000000E+00  0.00000000E+00  0.00000000E+00
  0.00000000E+00  0.00000000E+00  0.00000000E+00
  0.00000000E+00  0.00000000E+00  0.00000000E+00
  0.00000000E+00  0.00000000E+00  0.00000000E+00
  0.00000000E+00  0.00000000E+00  0.00000000E+00
  0.00000000E+00  0.00000000E+00  0.00000000E+00
  0.00000000E+00  0.00000000E+00  0.00000000E+00
  0.00000000E+00  0.00000000E+00  0.00000000E+00
  0.00000000E+00  0.00000000E+00  0.00000000E+00
  0.00000000E+00  0.00000000E+00  0.00000000E+00
  0.00000000E+00  0.00000000E+00  0.00000000E+00
  0.00000000E+00  0.00000000E+00  0.00000000E+00
  0.00000000E+00  0.00000000E+00  0.00000000E+00
  0.00000000E+00  0.00000000E+00  0.00000000E+00
  0.00000000E+00  0.00000000E+00  0.00000000E+00
  0.00000000E+00  0.00000000E+00  0.00000000E+00
  0.00000000E+00  0.00000000E+00  0.00000000E+00
  0.00000000E+00  0.00000000E+00  0.00000000E+00
  0.00000000E+00  0.00000000E+00  0.00000000E+00
  0.00000000E+00  0.00000000E+00  0.00000000E+00
  0.00000000E+00  0.00000000E+00  0.00000000E+00
  0.00000000E+00  0.00000000E+00  0.00000000E+00
  0.00000000E+00  0.00000000E+00  0.00000000E+00
  0.00000000E+00  0.00000000E+00  0.00000000E+00
  0.00000000E+00  0.00000000E+00  0.00000000E+00
  0.00000000E+00  0.00000000E+00  0.00000000E+00
  0.00000000E+00  0.00000000E+00  0.00000000E+00
  0.00000000E+00  0.00000000E+00  0.00000000E+00
  0.00000000E+00  0.00000000E+00  0.00000000E+00
  0.00000000E+00  0.00000000E+00  0.00000000E+00
  0.00000000E+00  0.00000000E+00  0.00000000E+00
  0.00000000E+00  0.00000000E+00  0.00000000E+00
