generated by phonopy                    
   1.00000000000000     
    10.0351470768999995   -0.0000022330999784   -0.0000001056124209
    -5.0175765436399997    8.6906901959899994    0.0000001395531216
    -0.0000001735893656    0.0000001431815548   14.9533752540999991
   Pb   P    O 
    20    13    49
Direct
  0.0089983406707503  0.7610090209807794  0.1237170581328400
  0.9970086172687616  0.7720190627623680  0.6230749909756881
  0.9985574612025943  0.2577244579921540  0.3761485470251529
  0.0013289048642662  0.2446351923228320  0.8721421568937160
  0.2173129654972783  0.2155313546025326  0.1231381577513204
  0.2265230656110901  0.2280577107348094  0.6240128841992956
  0.7403955035916994  0.7387625558514586  0.3732652347386249
  0.7551996178099216  0.7575001020811101  0.8721874400615022
  0.7761044170365068  0.0011105106021319  0.1244255261509508
  0.7756650891523122  0.0026757196013563  0.6235767699147843
  0.2598524178147770  0.9980467220186497  0.3724811948078752
  0.2385882504451047  0.9954740312624679  0.8741251136865458
  0.6679603592080809  0.3338819487635618  0.9980378400732306
  0.6641498442706748  0.3324793496881142  0.5035172750985453
  0.3087914848791868  0.6516250811973521  0.9970351004260607
  0.3346593820688213  0.6689782880073238  0.5053142637324157
  0.3179608945470207  0.6577394263445129  0.2495324988148369
  0.3387319573719267  0.6734235840416005  0.7488759991393152
  0.6651978011621011  0.3284551876997668  0.2462149503601267
  0.6599185307022708  0.3321747245173583  0.7505247183615040
  0.6404555369308156  0.5795460843677347  0.1248212051787618
  0.6227658129752029  0.5990097224636273  0.6223993757682109
  0.3690493681968903  0.3962985510611432  0.3745187558962968
  0.3670790761417351  0.4012108264592982  0.8732653098698862
  0.3952570484163687  0.0264371628495326  0.1247755065794678
  0.4037158201950888  0.0306191077333864  0.6217963763446974
  0.6132308116844527  0.9805524343126351  0.3792641996242523
  0.6117085273859146  0.9752079882641169  0.8698425818542361
  0.9739072717750545  0.3762116639924145  0.1269864310395974
  0.9729408502973413  0.3742155063463315  0.6240377250963931
  0.0179570312695532  0.6301900277573154  0.3810528585205617
  0.0222346840594270  0.6312934177597640  0.8646015282204829
  0.5225938094778186  0.6991340172736997  0.1218832987662637
  0.4995563282554940  0.6506822686869498  0.6218515142011398
  0.4673457612218570  0.3158759054045177  0.3738581516764157
  0.4703236202179752  0.3264613763749509  0.8765010015038470
  0.3307747465001469  0.8499893539655829  0.1264522936218526
  0.3475817119705127  0.8550390055345929  0.6211420283442806
  0.6929019390971121  0.1594406431409041  0.3859735185278765
  0.6811706851857551  0.1528086175359604  0.8624448390950477
  0.1431073803860343  0.5115429066445998  0.1290041293686315
  0.1469419873663682  0.4988758211111914  0.6220645749075331
  0.8389399476845156  0.5347681903648578  0.3828515455195358
  0.8435581326218866  0.5322942957700718  0.8646104744490870
  0.7497181638909041  0.6278102384775792  0.0403980891774225
  0.7247334628527113  0.6533983089657767  0.5360150132956178
  0.2637052043041521  0.3535853489519241  0.4590141409812816
  0.2598885171043079  0.3575202538250863  0.9574713356265008
  0.3284575190439440  0.0719787681231097  0.0426059929691931
  0.3545606372922450  0.0814945565209015  0.5343801388487819
  0.6380699079391547  0.9050267883856193  0.4643920422737580
  0.6874436905036561  0.9382726310168152  0.9501378778329581
  0.9480490894843925  0.2762171226592898  0.0424056567353617
  0.9236618887391543  0.2714386365266108  0.5377156840234605
  0.0880430567446382  0.7422236563684237  0.4625332676295741
  0.0807776087943779  0.7337035584189593  0.9508654329439779
  0.2616760229963475  0.3535242022519185  0.2910927679121187
  0.2582866508942487  0.3465419696963465  0.7896563562199574
  0.7411925686138332  0.6213350156900361  0.2131112342987080
  0.7336711004246723  0.6700109821880531  0.7041022626383935
  0.6792546985021559  0.9336050473025423  0.2988723738340937
  0.6476630386927837  0.9059524040993381  0.7847474762168574
  0.3436046521751521  0.0794798874741218  0.2109852843355640
  0.3330433308630276  0.0728880766752695  0.7029050322032688
  0.0776826888801665  0.7348642478241274  0.2962625562482657
  0.0864373792966049  0.7478704150647175  0.7845164212229037
  0.9363286239408026  0.2791502351784558  0.2144908701141190
  0.9362110208415046  0.2615213916860526  0.7047224126159506
  0.5401972457841495  0.3976527043327849  0.1228170908342747
  0.5417061283788343  0.4192211261773124  0.6270331789442594
  0.4788373641768260  0.5773619621264956  0.3748448610151058
  0.4685665985852907  0.5820900866754357  0.8690427544517689
  0.5750434207303172  0.1185101996449447  0.1204910247732371
  0.5836714996245931  0.1269497262003867  0.6281864486539419
  0.4339541961274378  0.9119797893884183  0.3680883541458968
  0.4318482692100289  0.8923077811522049  0.8791410223849425
  0.8611663413132788  0.4419464635128989  0.1228601752753633
  0.8707640865962247  0.4517423132956964  0.6304054941403834
  0.0826851171705769  0.5161856049008549  0.3841471000430801
  0.0934163163857704  0.5236592631101757  0.8574642067485101
  0.9975756059908321  0.9815609024685585  0.1303924291310992
  0.0021602094414348  0.0008757719759913  0.6099499097575816
 
  0.00000000E+00  0.00000000E+00  0.00000000E+00
  0.00000000E+00  0.00000000E+00  0.00000000E+00
  0.00000000E+00  0.00000000E+00  0.00000000E+00
  0.00000000E+00  0.00000000E+00  0.00000000E+00
  0.00000000E+00  0.00000000E+00  0.00000000E+00
  0.00000000E+00  0.00000000E+00  0.00000000E+00
  0.00000000E+00  0.00000000E+00  0.00000000E+00
  0.00000000E+00  0.00000000E+00  0.00000000E+00
  0.00000000E+00  0.00000000E+00  0.00000000E+00
  0.00000000E+00  0.00000000E+00  0.00000000E+00
  0.00000000E+00  0.00000000E+00  0.00000000E+00
  0.00000000E+00  0.00000000E+00  0.00000000E+00
  0.00000000E+00  0.00000000E+00  0.00000000E+00
  0.00000000E+00  0.00000000E+00  0.00000000E+00
  0.00000000E+00  0.00000000E+00  0.00000000E+00
  0.00000000E+00  0.00000000E+00  0.00000000E+00
  0.00000000E+00  0.00000000E+00  0.00000000E+00
  0.00000000E+00  0.00000000E+00  0.00000000E+00
  0.00000000E+00  0.00000000E+00  0.00000000E+00
  0.00000000E+00  0.00000000E+00  0.00000000E+00
  0.00000000E+00  0.00000000E+00  0.00000000E+00
  0.00000000E+00  0.00000000E+00  0.00000000E+00
  0.00000000E+00  0.00000000E+00  0.00000000E+00
  0.00000000E+00  0.00000000E+00  0.00000000E+00
  0.00000000E+00  0.00000000E+00  0.00000000E+00
  0.00000000E+00  0.00000000E+00  0.00000000E+00
  0.00000000E+00  0.00000000E+00  0.00000000E+00
  0.00000000E+00  0.00000000E+00  0.00000000E+00
  0.00000000E+00  0.00000000E+00  0.00000000E+00
  0.00000000E+00  0.00000000E+00  0.00000000E+00
  0.00000000E+00  0.00000000E+00  0.00000000E+00
  0.00000000E+00  0.00000000E+00  0.00000000E+00
  0.00000000E+00  0.00000000E+00  0.00000000E+00
  0.00000000E+00  0.00000000E+00  0.00000000E+00
  0.00000000E+00  0.00000000E+00  0.00000000E+00
  0.00000000E+00  0.00000000E+00  0.00000000E+00
  0.00000000E+00  0.00000000E+00  0.00000000E+00
  0.00000000E+00  0.00000000E+00  0.00000000E+00
  0.00000000E+00  0.00000000E+00  0.00000000E+00
  0.00000000E+00  0.00000000E+00  0.00000000E+00
  0.00000000E+00  0.00000000E+00  0.00000000E+00
  0.00000000E+00  0.00000000E+00  0.00000000E+00
  0.00000000E+00  0.00000000E+00  0.00000000E+00
  0.00000000E+00  0.00000000E+00  0.00000000E+00
  0.00000000E+00  0.00000000E+00  0.00000000E+00
  0.00000000E+00  0.00000000E+00  0.00000000E+00
  0.00000000E+00  0.00000000E+00  0.00000000E+00
  0.00000000E+00  0.00000000E+00  0.00000000E+00
  0.00000000E+00  0.00000000E+00  0.00000000E+00
  0.00000000E+00  0.00000000E+00  0.00000000E+00
  0.00000000E+00  0.00000000E+00  0.00000000E+00
  0.00000000E+00  0.00000000E+00  0.00000000E+00
  0.00000000E+00  0.00000000E+00  0.00000000E+00
  0.00000000E+00  0.00000000E+00  0.00000000E+00
  0.00000000E+00  0.00000000E+00  0.00000000E+00
  0.00000000E+00  0.00000000E+00  0.00000000E+00
  0.00000000E+00  0.00000000E+00  0.00000000E+00
  0.00000000E+00  0.00000000E+00  0.00000000E+00
  0.00000000E+00  0.00000000E+00  0.00000000E+00
  0.00000000E+00  0.00000000E+00  0.00000000E+00
  0.00000000E+00  0.00000000E+00  0.00000000E+00
  0.00000000E+00  0.00000000E+00  0.00000000E+00
  0.00000000E+00  0.00000000E+00  0.00000000E+00
  0.00000000E+00  0.00000000E+00  0.00000000E+00
  0.00000000E+00  0.00000000E+00  0.00000000E+00
  0.00000000E+00  0.00000000E+00  0.00000000E+00
  0.00000000E+00  0.00000000E+00  0.00000000E+00
  0.00000000E+00  0.00000000E+00  0.00000000E+00
  0.00000000E+00  0.00000000E+00  0.00000000E+00
  0.00000000E+00  0.00000000E+00  0.00000000E+00
  0.00000000E+00  0.00000000E+00  0.00000000E+00
  0.00000000E+00  0.00000000E+00  0.00000000E+00
  0.00000000E+00  0.00000000E+00  0.00000000E+00
  0.00000000E+00  0.00000000E+00  0.00000000E+00
  0.00000000E+00  0.00000000E+00  0.00000000E+00
  0.00000000E+00  0.00000000E+00  0.00000000E+00
  0.00000000E+00  0.00000000E+00  0.00000000E+00
  0.00000000E+00  0.00000000E+00  0.00000000E+00
  0.00000000E+00  0.00000000E+00  0.00000000E+00
  0.00000000E+00  0.00000000E+00  0.00000000E+00
  0.00000000E+00  0.00000000E+00  0.00000000E+00
  0.00000000E+00  0.00000000E+00  0.00000000E+00
