generated by phonopy                    
   1.00000000000000     
    10.0351470768999995   -0.0000022330999784   -0.0000001056124209
    -5.0175765436399997    8.6906901959899994    0.0000001395531216
    -0.0000001735893656    0.0000001431815548   14.9533752540999991
   Pb   P    O 
    19    12    50
Direct
  0.9994819059876221  0.7760921438253661  0.1279652829259561
  0.9991510769862373  0.7760554120408543  0.6187182004321130
  0.0047731460114235  0.2634796520755671  0.8736471179916165
  0.2320850827609391  0.2284910596240195  0.1308481267969981
  0.2318636573354524  0.2285835509985930  0.6150607910197365
  0.7477448782487599  0.7523883645037586  0.3738218049984283
  0.7374956046973509  0.7421525272444782  0.8736483725265316
  0.7719442309724514  0.0007383824220284  0.1325500207004424
  0.7723408724897354  0.0015366670569463  0.6141959800544683
  0.2711351516838079  0.9978265901180805  0.3735472595184604
  0.2566177751560588  0.9954795065707032  0.8736788468537213
  0.6658004503245323  0.3320054944999953  0.0013686874742831
  0.6824757772169079  0.3302608920027907  0.4987271437352945
  0.3367791268756903  0.6691132903437520  0.0059844813209793
  0.3143363605328702  0.6319878548869866  0.4975876699056982
  0.3142536571019150  0.6301708228327456  0.2495149321283208
  0.3367566605759720  0.6686815223600107  0.7412792207274705
  0.6828080764282021  0.3303938887758875  0.2498940330056456
  0.6647579880775041  0.3316244722661921  0.7472467241715464
  0.6248620566103327  0.5933674393188326  0.1230622729200590
  0.6245023048442135  0.5935436016362772  0.6251119042490529
  0.3822782741018784  0.4027464060434909  0.3737965669267496
  0.3688713242529644  0.3969175253756347  0.8740447069295385
  0.4035616565523057  0.0261739619753030  0.1223501185996980
  0.4033827253480382  0.0263503498401221  0.6260311352778274
  0.5990713447570712  0.9669144549049449  0.3739108818224040
  0.6005293300439334  0.9693736592163944  0.8738873671053256
  0.9648881157395195  0.3736762658534332  0.1163005319896584
  0.9646955203788963  0.3736202423371395  0.6314243687956846
  0.0280987360899374  0.6433722460482585  0.3741296386000457
  0.0280521382351751  0.6333694557570553  0.8739739975584513
  0.4969219524001289  0.6383885582635429  0.1227114634915694
  0.4968683945716421  0.6390280182413974  0.6242896549196146
  0.4853087498912529  0.3278875558133691  0.3737968583959628
  0.4702784460246292  0.3200668931606003  0.8743690771348369
  0.3496439723790985  0.8516344839307877  0.1220125670355543
  0.3495513621271229  0.8517996922948043  0.6256048404794541
  0.6497177588765481  0.1400482508666201  0.3744960967882207
  0.6781204100277876  0.1471398523960517  0.8740409902825306
  0.1424317571313765  0.4879789732051307  0.1196789570797492
  0.1421293598011104  0.4881931616259578  0.6271588060553768
  0.8498758103593431  0.5342814792202120  0.3747320613908514
  0.8496587084735410  0.5314092461741637  0.8742257610039132
  0.7264116655734298  0.6512992827944615  0.0365379658454472
  0.7344040061429169  0.6650187162277135  0.5424866685325895
  0.2842151812629155  0.3654537386105758  0.4603805391891740
  0.2632324917223130  0.3535960268556124  0.9583306609801383
  0.3478940771787933  0.0758813645947853  0.0370953023538760
  0.3390996261410137  0.0703436417022658  0.5421416717694001
  0.6544046371720924  0.9142815025679880  0.4575508628396463
  0.6426308738125641  0.9053232752088363  0.9580798974931284
  0.9173035043400120  0.2781902530087734  0.0276319259104483
  0.9099696631861747  0.2621597854162871  0.5497663521655269
  0.0809980239246286  0.7525415782328650  0.4581166643492480
  0.0901298943025211  0.7404106411202278  0.9579379906713115
  0.2835627041210458  0.3649314195568749  0.2874700522102671
  0.2622478583701238  0.3516153525408896  0.7901641818336032
  0.7353425281258907  0.6679883633856107  0.2051452327166459
  0.7267699423753555  0.6542985370387981  0.7112192780964364
  0.6573426235242579  0.9162202224534539  0.2908214789160013
  0.6447194814419461  0.9059622984674860  0.7902679821780296
  0.3366671859043038  0.0685280344061070  0.2056925283608422
  0.3452458922533950  0.0744395574077430  0.7108594476735064
  0.0781090905116599  0.7550121593998185  0.2912544818683855
  0.0889620870275252  0.7422306775780001  0.7907159102461918
  0.9122276479147331  0.2602606216382526  0.1968698629220214
  0.9193832596286171  0.2754099667792005  0.7189841734910658
  0.5505693707033714  0.4140723847588532  0.1282699394188995
  0.5497184204691408  0.4140845134349860  0.6218847024712488
  0.4865928333296594  0.5874346471498910  0.3736083357941240
  0.4764685206319115  0.5786432835870485  0.8733125031692879
  0.5838786729541141  0.1257907762512218  0.1257428589597183
  0.5837641142825163  0.1259859309569222  0.6242322575417418
  0.4161219459017289  0.8738735931413402  0.3729641024651116
  0.4188893001476899  0.8960711059378923  0.8730898161080844
  0.8751375039038152  0.4646390359903307  0.1206898792491700
  0.8747266291569247  0.4644704055810678  0.6297261880499363
  0.1140532519502457  0.5502436287984054  0.3726141980318474
  0.1036297465515474  0.5274720376758495  0.8728703371458550
  0.0018363180192722  0.0047665541484818  0.1282593949229849
  0.0016945304951435  0.0046822111455356  0.6129275996617451
 
  0.00000000E+00  0.00000000E+00  0.00000000E+00
  0.00000000E+00  0.00000000E+00  0.00000000E+00
  0.00000000E+00  0.00000000E+00  0.00000000E+00
  0.00000000E+00  0.00000000E+00  0.00000000E+00
  0.00000000E+00  0.00000000E+00  0.00000000E+00
  0.00000000E+00  0.00000000E+00  0.00000000E+00
  0.00000000E+00  0.00000000E+00  0.00000000E+00
  0.00000000E+00  0.00000000E+00  0.00000000E+00
  0.00000000E+00  0.00000000E+00  0.00000000E+00
  0.00000000E+00  0.00000000E+00  0.00000000E+00
  0.00000000E+00  0.00000000E+00  0.00000000E+00
  0.00000000E+00  0.00000000E+00  0.00000000E+00
  0.00000000E+00  0.00000000E+00  0.00000000E+00
  0.00000000E+00  0.00000000E+00  0.00000000E+00
  0.00000000E+00  0.00000000E+00  0.00000000E+00
  0.00000000E+00  0.00000000E+00  0.00000000E+00
  0.00000000E+00  0.00000000E+00  0.00000000E+00
  0.00000000E+00  0.00000000E+00  0.00000000E+00
  0.00000000E+00  0.00000000E+00  0.00000000E+00
  0.00000000E+00  0.00000000E+00  0.00000000E+00
  0.00000000E+00  0.00000000E+00  0.00000000E+00
  0.00000000E+00  0.00000000E+00  0.00000000E+00
  0.00000000E+00  0.00000000E+00  0.00000000E+00
  0.00000000E+00  0.00000000E+00  0.00000000E+00
  0.00000000E+00  0.00000000E+00  0.00000000E+00
  0.00000000E+00  0.00000000E+00  0.00000000E+00
  0.00000000E+00  0.00000000E+00  0.00000000E+00
  0.00000000E+00  0.00000000E+00  0.00000000E+00
  0.00000000E+00  0.00000000E+00  0.00000000E+00
  0.00000000E+00  0.00000000E+00  0.00000000E+00
  0.00000000E+00  0.00000000E+00  0.00000000E+00
  0.00000000E+00  0.00000000E+00  0.00000000E+00
  0.00000000E+00  0.00000000E+00  0.00000000E+00
  0.00000000E+00  0.00000000E+00  0.00000000E+00
  0.00000000E+00  0.00000000E+00  0.00000000E+00
  0.00000000E+00  0.00000000E+00  0.00000000E+00
  0.00000000E+00  0.00000000E+00  0.00000000E+00
  0.00000000E+00  0.00000000E+00  0.00000000E+00
  0.00000000E+00  0.00000000E+00  0.00000000E+00
  0.00000000E+00  0.00000000E+00  0.00000000E+00
  0.00000000E+00  0.00000000E+00  0.00000000E+00
  0.00000000E+00  0.00000000E+00  0.00000000E+00
  0.00000000E+00  0.00000000E+00  0.00000000E+00
  0.00000000E+00  0.00000000E+00  0.00000000E+00
  0.00000000E+00  0.00000000E+00  0.00000000E+00
  0.00000000E+00  0.00000000E+00  0.00000000E+00
  0.00000000E+00  0.00000000E+00  0.00000000E+00
  0.00000000E+00  0.00000000E+00  0.00000000E+00
  0.00000000E+00  0.00000000E+00  0.00000000E+00
  0.00000000E+00  0.00000000E+00  0.00000000E+00
  0.00000000E+00  0.00000000E+00  0.00000000E+00
  0.00000000E+00  0.00000000E+00  0.00000000E+00
  0.00000000E+00  0.00000000E+00  0.00000000E+00
  0.00000000E+00  0.00000000E+00  0.00000000E+00
  0.00000000E+00  0.00000000E+00  0.00000000E+00
  0.00000000E+00  0.00000000E+00  0.00000000E+00
  0.00000000E+00  0.00000000E+00  0.00000000E+00
  0.00000000E+00  0.00000000E+00  0.00000000E+00
  0.00000000E+00  0.00000000E+00  0.00000000E+00
  0.00000000E+00  0.00000000E+00  0.00000000E+00
  0.00000000E+00  0.00000000E+00  0.00000000E+00
  0.00000000E+00  0.00000000E+00  0.00000000E+00
  0.00000000E+00  0.00000000E+00  0.00000000E+00
  0.00000000E+00  0.00000000E+00  0.00000000E+00
  0.00000000E+00  0.00000000E+00  0.00000000E+00
  0.00000000E+00  0.00000000E+00  0.00000000E+00
  0.00000000E+00  0.00000000E+00  0.00000000E+00
  0.00000000E+00  0.00000000E+00  0.00000000E+00
  0.00000000E+00  0.00000000E+00  0.00000000E+00
  0.00000000E+00  0.00000000E+00  0.00000000E+00
  0.00000000E+00  0.00000000E+00  0.00000000E+00
  0.00000000E+00  0.00000000E+00  0.00000000E+00
  0.00000000E+00  0.00000000E+00  0.00000000E+00
  0.00000000E+00  0.00000000E+00  0.00000000E+00
  0.00000000E+00  0.00000000E+00  0.00000000E+00
  0.00000000E+00  0.00000000E+00  0.00000000E+00
  0.00000000E+00  0.00000000E+00  0.00000000E+00
  0.00000000E+00  0.00000000E+00  0.00000000E+00
  0.00000000E+00  0.00000000E+00  0.00000000E+00
  0.00000000E+00  0.00000000E+00  0.00000000E+00
  0.00000000E+00  0.00000000E+00  0.00000000E+00
