generated by phonopy                    
   1.00000000000000     
    10.0351470768999995   -0.0000022330999784   -0.0000001056124209
    -5.0175765436399997    8.6906901959899994    0.0000001395531216
    -0.0000001735893656    0.0000001431815548   14.9533752540999991
   Pb   P    O 
    20    13    49
Direct
  0.9936013490384425  0.7704798559846253  0.1509754028972381
  0.0011122233059808  0.7790243930867504  0.6146142243687365
  0.0079712246812349  0.2580153169842063  0.3802813742969349
  0.9890459105454568  0.2318271299432837  0.8839912657813116
  0.2163579461796274  0.2167088207178978  0.1294848596570830
  0.2255333107182125  0.2297571785000514  0.6213693459102316
  0.7421801308955480  0.7473820350999603  0.3825953311037367
  0.6965582412880451  0.7318390703789106  0.8518041918618238
  0.7638024986719856  0.9961249957968619  0.1307387642936320
  0.7785451283623104  0.0074885183829210  0.6156796460277150
  0.2662212755423710  0.0062056623112525  0.3782372855353913
  0.2640292337923569  0.0219330986480699  0.8626380658438748
  0.6450803937189207  0.3142401569966466  0.0048090689300295
  0.6609883565545331  0.3342936357632880  0.5006224452549830
  0.3446006511706869  0.6672533116562605  0.0075980543425089
  0.3393965560145205  0.6603686703495413  0.5007919440409836
  0.3137307326052792  0.6717347922273404  0.2486722185512278
  0.3277879390802809  0.6765026527881091  0.7357844649238672
  0.6894126625307706  0.3290013118719415  0.2510469512237847
  0.6830472297693007  0.3337432206995246  0.7440714138417164
  0.5709965157385639  0.5682921641987519  0.1672291422417160
  0.6218773859265738  0.5931899819459048  0.6242189900766846
  0.3717151898146867  0.3965079578478168  0.3742361537334844
  0.3456841312511543  0.3753709419708002  0.8718151055050640
  0.3981103006326450  0.0260737442215699  0.1237496341392585
  0.4059884598470020  0.0311092089966110  0.6227385923625803
  0.6074545724318057  0.9759902743135314  0.3736802796976733
  0.5913086176828770  0.9701086207169212  0.8737926984458184
  0.9705356358238220  0.3784697751444526  0.1248657507511837
  0.9706339209405641  0.3757546222602954  0.6241783029091224
  0.0283972139791970  0.6285279764990079  0.3818278874216361
  0.0435676812811607  0.6298048410897792  0.8697793492438066
  0.9418990257001099  0.7635657351118184  0.9609199482474153
  0.5287702063159614  0.6781533101873194  0.1165765256992302
  0.4967500955117714  0.6408971690351422  0.6212612362866565
  0.4704847984425840  0.3166077002065748  0.3744630489742846
  0.4625308025145003  0.3153371629070705  0.8753663211746812
  0.3490765079802216  0.8515600367031837  0.1225797924658281
  0.3581380761888582  0.8580008447722562  0.6180570893841519
  0.6839721153261991  0.1545023463829907  0.3763797778974123
  0.6767999230796491  0.1482782132612925  0.8761297929462870
  0.1458738989881354  0.5007350955240568  0.1275838353519703
  0.1465623464466645  0.4943431167353936  0.6219130626084635
  0.8507069705948282  0.5300776602580441  0.3761634729933050
  0.8692609173890418  0.5862972313327290  0.8933498594168228
  0.7246770986993027  0.6446370375994945  0.5379235277168846
  0.2659817637721815  0.3547619674889404  0.4593598390882079
  0.2500011872155881  0.3435057203854370  0.9598277179458208
  0.3481551072848106  0.0774724028889224  0.0369980418205742
  0.3682004529301750  0.0870007131598456  0.5334498209868244
  0.6469614305696680  0.9110981413165007  0.4590165359050076
  0.6235495488309439  0.8981698284376449  0.9580628444339396
  0.9337699908250130  0.2609240469623799  0.0470178593323212
  0.9225254547034112  0.2673506447836189  0.5398544078643184
  0.0847351353624930  0.7433032746801516  0.4618191486981402
  0.1111873802586842  0.7424561874787230  0.9568007225390076
  0.2599315516226923  0.3475171322223716  0.2923233436613728
  0.2260728352044552  0.2917469539271309  0.7953411291204162
  0.7332381904757739  0.6574084598922454  0.2123329215668903
  0.7351071402411407  0.6749077282402993  0.7047800445960490
  0.6609618159634181  0.9181478628524928  0.2919295666292143
  0.6451644718784308  0.9114378353561392  0.7899885444087076
  0.3255605735731137  0.0620890659590785  0.2061812337929894
  0.3182330285204671  0.0605976709641567  0.6997870970609554
  0.1012973229365315  0.7302550142048787  0.2959808593785596
  0.1010682238885039  0.7238347795274223  0.7845353683928096
  0.9168595227623939  0.2842128695210775  0.2151905083174483
  0.9227693236432515  0.2699174533774240  0.7089687504345790
  0.5479528345476012  0.4280943239507664  0.1120971935903299
  0.5482633842727935  0.4149523262503862  0.6343698362604187
  0.4793240189056291  0.5777907112929555  0.3747338978215211
  0.4345296797801339  0.5550176198819301  0.8560484768997725
  0.5793461623156944  0.1278895336865915  0.1287924914350498
  0.5844388344875782  0.1330219372809012  0.6385891369016718
  0.4263697735131657  0.9013629681858220  0.3692257149120834
  0.4131990606345894  0.9006622861879237  0.8642687995485687
  0.8703233804724775  0.4578169056109544  0.1141637068373882
  0.8740875043414960  0.4600849055501754  0.6238571910401873
  0.1025668522441663  0.5219928699133902  0.3873922495199764
  0.0746675878532201  0.4974743332288369  0.8771106339486181
  0.9900979278778053  0.9940948308256026  0.1420441166013262
  0.0017590985772458  0.0042450602691844  0.5938650994893706
 
  0.00000000E+00  0.00000000E+00  0.00000000E+00
  0.00000000E+00  0.00000000E+00  0.00000000E+00
  0.00000000E+00  0.00000000E+00  0.00000000E+00
  0.00000000E+00  0.00000000E+00  0.00000000E+00
  0.00000000E+00  0.00000000E+00  0.00000000E+00
  0.00000000E+00  0.00000000E+00  0.00000000E+00
  0.00000000E+00  0.00000000E+00  0.00000000E+00
  0.00000000E+00  0.00000000E+00  0.00000000E+00
  0.00000000E+00  0.00000000E+00  0.00000000E+00
  0.00000000E+00  0.00000000E+00  0.00000000E+00
  0.00000000E+00  0.00000000E+00  0.00000000E+00
  0.00000000E+00  0.00000000E+00  0.00000000E+00
  0.00000000E+00  0.00000000E+00  0.00000000E+00
  0.00000000E+00  0.00000000E+00  0.00000000E+00
  0.00000000E+00  0.00000000E+00  0.00000000E+00
  0.00000000E+00  0.00000000E+00  0.00000000E+00
  0.00000000E+00  0.00000000E+00  0.00000000E+00
  0.00000000E+00  0.00000000E+00  0.00000000E+00
  0.00000000E+00  0.00000000E+00  0.00000000E+00
  0.00000000E+00  0.00000000E+00  0.00000000E+00
  0.00000000E+00  0.00000000E+00  0.00000000E+00
  0.00000000E+00  0.00000000E+00  0.00000000E+00
  0.00000000E+00  0.00000000E+00  0.00000000E+00
  0.00000000E+00  0.00000000E+00  0.00000000E+00
  0.00000000E+00  0.00000000E+00  0.00000000E+00
  0.00000000E+00  0.00000000E+00  0.00000000E+00
  0.00000000E+00  0.00000000E+00  0.00000000E+00
  0.00000000E+00  0.00000000E+00  0.00000000E+00
  0.00000000E+00  0.00000000E+00  0.00000000E+00
  0.00000000E+00  0.00000000E+00  0.00000000E+00
  0.00000000E+00  0.00000000E+00  0.00000000E+00
  0.00000000E+00  0.00000000E+00  0.00000000E+00
  0.00000000E+00  0.00000000E+00  0.00000000E+00
  0.00000000E+00  0.00000000E+00  0.00000000E+00
  0.00000000E+00  0.00000000E+00  0.00000000E+00
  0.00000000E+00  0.00000000E+00  0.00000000E+00
  0.00000000E+00  0.00000000E+00  0.00000000E+00
  0.00000000E+00  0.00000000E+00  0.00000000E+00
  0.00000000E+00  0.00000000E+00  0.00000000E+00
  0.00000000E+00  0.00000000E+00  0.00000000E+00
  0.00000000E+00  0.00000000E+00  0.00000000E+00
  0.00000000E+00  0.00000000E+00  0.00000000E+00
  0.00000000E+00  0.00000000E+00  0.00000000E+00
  0.00000000E+00  0.00000000E+00  0.00000000E+00
  0.00000000E+00  0.00000000E+00  0.00000000E+00
  0.00000000E+00  0.00000000E+00  0.00000000E+00
  0.00000000E+00  0.00000000E+00  0.00000000E+00
  0.00000000E+00  0.00000000E+00  0.00000000E+00
  0.00000000E+00  0.00000000E+00  0.00000000E+00
  0.00000000E+00  0.00000000E+00  0.00000000E+00
  0.00000000E+00  0.00000000E+00  0.00000000E+00
  0.00000000E+00  0.00000000E+00  0.00000000E+00
  0.00000000E+00  0.00000000E+00  0.00000000E+00
  0.00000000E+00  0.00000000E+00  0.00000000E+00
  0.00000000E+00  0.00000000E+00  0.00000000E+00
  0.00000000E+00  0.00000000E+00  0.00000000E+00
  0.00000000E+00  0.00000000E+00  0.00000000E+00
  0.00000000E+00  0.00000000E+00  0.00000000E+00
  0.00000000E+00  0.00000000E+00  0.00000000E+00
  0.00000000E+00  0.00000000E+00  0.00000000E+00
  0.00000000E+00  0.00000000E+00  0.00000000E+00
  0.00000000E+00  0.00000000E+00  0.00000000E+00
  0.00000000E+00  0.00000000E+00  0.00000000E+00
  0.00000000E+00  0.00000000E+00  0.00000000E+00
  0.00000000E+00  0.00000000E+00  0.00000000E+00
  0.00000000E+00  0.00000000E+00  0.00000000E+00
  0.00000000E+00  0.00000000E+00  0.00000000E+00
  0.00000000E+00  0.00000000E+00  0.00000000E+00
  0.00000000E+00  0.00000000E+00  0.00000000E+00
  0.00000000E+00  0.00000000E+00  0.00000000E+00
  0.00000000E+00  0.00000000E+00  0.00000000E+00
  0.00000000E+00  0.00000000E+00  0.00000000E+00
  0.00000000E+00  0.00000000E+00  0.00000000E+00
  0.00000000E+00  0.00000000E+00  0.00000000E+00
  0.00000000E+00  0.00000000E+00  0.00000000E+00
  0.00000000E+00  0.00000000E+00  0.00000000E+00
  0.00000000E+00  0.00000000E+00  0.00000000E+00
  0.00000000E+00  0.00000000E+00  0.00000000E+00
  0.00000000E+00  0.00000000E+00  0.00000000E+00
  0.00000000E+00  0.00000000E+00  0.00000000E+00
  0.00000000E+00  0.00000000E+00  0.00000000E+00
  0.00000000E+00  0.00000000E+00  0.00000000E+00
