generated by phonopy                    
   1.00000000000000     
    10.0351470768999995   -0.0000022330999784   -0.0000001056124209
    -5.0175765436399997    8.6906901959899994    0.0000001395531216
    -0.0000001735893656    0.0000001431815548   14.9533752540999991
   Pb   Cu   P    O 
    19     1    12    50
Direct
  0.9969076881070009  0.7640693190337871  0.1226974800567717
  0.9837664022337620  0.7549872910468736  0.6242161209721573
  0.0027738769664012  0.2622264224076574  0.8695078351975667
  0.2272187996049198  0.2186388374238248  0.1142345839186163
  0.2323640888961052  0.2209212772584053  0.6256193618197443
  0.7408946225848467  0.7446292729472077  0.3741671985561013
  0.7376803560090579  0.7398691730734583  0.8696893350131276
  0.7768912948289568  0.9954015219598631  0.1150514734484460
  0.7642132827012915  0.0012558568360603  0.6156413277358510
  0.2548419013256975  0.9942866288370382  0.3760133548654210
  0.2598128359215366  0.9948503864293343  0.8761613738541314
  0.6666360810330190  0.3382429009620935  0.0052014268849092
  0.6725866460131158  0.3234354902517680  0.4989915321068992
  0.3304025693423185  0.6566529655851738  0.0011367879337243
  0.3154112321509430  0.6484009420398920  0.5014687966164146
  0.3588855543161031  0.6930824306257577  0.2401979017907649
  0.3373879582574020  0.6743559438901698  0.7428166811668717
  0.6666533914455925  0.3273218996045131  0.2504771018289915
  0.6630379524889776  0.3310666941741616  0.7507995898061353
  0.0960011584328058  0.3582851513334546  0.3322079609623074
  0.6259864920948459  0.5944433642167866  0.1236831294259630
  0.6192180415147632  0.5911913145394152  0.6237995511656393
  0.3663999189575904  0.3946065789372071  0.3666259987698126
  0.3688416608655984  0.3931878311488646  0.8715910250466408
  0.4120825813918358  0.0302467274527345  0.1236261607257063
  0.3995455213607144  0.0244757716037469  0.6230850289648018
  0.5950787834115729  0.9691186833748873  0.3782019863856760
  0.6079347080134809  0.9751596270901857  0.8736958290551229
  0.9855950145324996  0.3836162513490251  0.1353974832631906
  0.9682568089546777  0.3768807672230636  0.6309772562395821
  0.0135706733100278  0.6313829243332023  0.3805598951198590
  0.0249621481903617  0.6300225482602499  0.8712295110974395
  0.5056294671239883  0.6503065094714842  0.1211995638189691
  0.5030306052020066  0.6516048997389063  0.6249127479866061
  0.4547183509642210  0.3074982448978361  0.3791196647295365
  0.4713998870007146  0.3175634772276084  0.8745794725667650
  0.3630259135099720  0.8558872670328697  0.1203074581764199
  0.3329588432834996  0.8467706027323416  0.6235565775266494
  0.6604508321898592  0.1446616079534309  0.3754258352560669
  0.6837410919039542  0.1533751502608425  0.8749033647250499
  0.1546258114305203  0.5162630822045884  0.1240648989840949
  0.1451450637272274  0.4898571974528139  0.6267615099817050
  0.8345569217952331  0.5333957038819293  0.3774508093128972
  0.8468276399833670  0.5272916384263340  0.8705102498643029
  0.7286762137790674  0.6463241555773607  0.0370459002508881
  0.7332055560971398  0.6617389135807130  0.5424907586982570
  0.2307666368180747  0.3533530783148819  0.4350626851869421
  0.2677630442167498  0.3588399234180670  0.9575353653557954
  0.3540093880871353  0.0769592732813962  0.0378652705884193
  0.3427949894120417  0.0760365677157182  0.5391798378277883
  0.6533121812391087  0.9145055410163323  0.4597850083480353
  0.6587162434170395  0.9145310399145501  0.9563210442812320
  0.9434748692141568  0.2596304214554053  0.0609000365533774
  0.9086323659236157  0.2602387106466324  0.5520491244416164
  0.0712340326564274  0.7430790006987493  0.4636394375243285
  0.0847608370281776  0.7406083158112864  0.9538907913104495
  0.2743328834254726  0.3544958731443231  0.2753589367821192
  0.2545787920235156  0.3343072409827741  0.7902442657697861
  0.7352915378719658  0.6649695090877401  0.2061577704046442
  0.7239837468240893  0.6418664122141564  0.7099648124631415
  0.6314451574567244  0.9036691849514540  0.2920391521721086
  0.6499708569394755  0.9122637242881808  0.7886955491135055
  0.3433566965268753  0.0671720254624049  0.2073763558910002
  0.3455697247439886  0.0791280042228450  0.7073823598078945
  0.0807893604231893  0.7364183318889772  0.2965683743772090
  0.0882914047805912  0.7355407445543491  0.7862885193327998
  0.9627913343408210  0.3045213241495972  0.2298313278156598
  0.9205447664309929  0.2823740936791239  0.7202669194680382
  0.5440111200801212  0.4141578639933883  0.1279902249736153
  0.5335702996026654  0.4113113747322998  0.6183313071628334
  0.4779029447233967  0.5738117327518140  0.3726739230027221
  0.4736073547705573  0.5742582940939513  0.8643191920073932
  0.5924018702170102  0.1318017681033297  0.1261274567270831
  0.5803733908391635  0.1123627965582159  0.6228534172742926
  0.4118286224807619  0.8854338844164502  0.3843264171266156
  0.4261615018915847  0.8984678071775747  0.8752610254267807
  0.8710677895272667  0.4471061128050451  0.1295097480160337
  0.8790713038862776  0.4702534023450724  0.6266515031308302
  0.0833230137017935  0.5228804944324068  0.3914366706745085
  0.1020320435541464  0.5253686327414968  0.8753931838843627
  0.9995366624162614  0.9892848188905532  0.1073117733628308
  0.9996233575862377  0.9851745649630814  0.6307065366965503
 
  0.00000000E+00  0.00000000E+00  0.00000000E+00
  0.00000000E+00  0.00000000E+00  0.00000000E+00
  0.00000000E+00  0.00000000E+00  0.00000000E+00
  0.00000000E+00  0.00000000E+00  0.00000000E+00
  0.00000000E+00  0.00000000E+00  0.00000000E+00
  0.00000000E+00  0.00000000E+00  0.00000000E+00
  0.00000000E+00  0.00000000E+00  0.00000000E+00
  0.00000000E+00  0.00000000E+00  0.00000000E+00
  0.00000000E+00  0.00000000E+00  0.00000000E+00
  0.00000000E+00  0.00000000E+00  0.00000000E+00
  0.00000000E+00  0.00000000E+00  0.00000000E+00
  0.00000000E+00  0.00000000E+00  0.00000000E+00
  0.00000000E+00  0.00000000E+00  0.00000000E+00
  0.00000000E+00  0.00000000E+00  0.00000000E+00
  0.00000000E+00  0.00000000E+00  0.00000000E+00
  0.00000000E+00  0.00000000E+00  0.00000000E+00
  0.00000000E+00  0.00000000E+00  0.00000000E+00
  0.00000000E+00  0.00000000E+00  0.00000000E+00
  0.00000000E+00  0.00000000E+00  0.00000000E+00
  0.00000000E+00  0.00000000E+00  0.00000000E+00
  0.00000000E+00  0.00000000E+00  0.00000000E+00
  0.00000000E+00  0.00000000E+00  0.00000000E+00
  0.00000000E+00  0.00000000E+00  0.00000000E+00
  0.00000000E+00  0.00000000E+00  0.00000000E+00
  0.00000000E+00  0.00000000E+00  0.00000000E+00
  0.00000000E+00  0.00000000E+00  0.00000000E+00
  0.00000000E+00  0.00000000E+00  0.00000000E+00
  0.00000000E+00  0.00000000E+00  0.00000000E+00
  0.00000000E+00  0.00000000E+00  0.00000000E+00
  0.00000000E+00  0.00000000E+00  0.00000000E+00
  0.00000000E+00  0.00000000E+00  0.00000000E+00
  0.00000000E+00  0.00000000E+00  0.00000000E+00
  0.00000000E+00  0.00000000E+00  0.00000000E+00
  0.00000000E+00  0.00000000E+00  0.00000000E+00
  0.00000000E+00  0.00000000E+00  0.00000000E+00
  0.00000000E+00  0.00000000E+00  0.00000000E+00
  0.00000000E+00  0.00000000E+00  0.00000000E+00
  0.00000000E+00  0.00000000E+00  0.00000000E+00
  0.00000000E+00  0.00000000E+00  0.00000000E+00
  0.00000000E+00  0.00000000E+00  0.00000000E+00
  0.00000000E+00  0.00000000E+00  0.00000000E+00
  0.00000000E+00  0.00000000E+00  0.00000000E+00
  0.00000000E+00  0.00000000E+00  0.00000000E+00
  0.00000000E+00  0.00000000E+00  0.00000000E+00
  0.00000000E+00  0.00000000E+00  0.00000000E+00
  0.00000000E+00  0.00000000E+00  0.00000000E+00
  0.00000000E+00  0.00000000E+00  0.00000000E+00
  0.00000000E+00  0.00000000E+00  0.00000000E+00
  0.00000000E+00  0.00000000E+00  0.00000000E+00
  0.00000000E+00  0.00000000E+00  0.00000000E+00
  0.00000000E+00  0.00000000E+00  0.00000000E+00
  0.00000000E+00  0.00000000E+00  0.00000000E+00
  0.00000000E+00  0.00000000E+00  0.00000000E+00
  0.00000000E+00  0.00000000E+00  0.00000000E+00
  0.00000000E+00  0.00000000E+00  0.00000000E+00
  0.00000000E+00  0.00000000E+00  0.00000000E+00
  0.00000000E+00  0.00000000E+00  0.00000000E+00
  0.00000000E+00  0.00000000E+00  0.00000000E+00
  0.00000000E+00  0.00000000E+00  0.00000000E+00
  0.00000000E+00  0.00000000E+00  0.00000000E+00
  0.00000000E+00  0.00000000E+00  0.00000000E+00
  0.00000000E+00  0.00000000E+00  0.00000000E+00
  0.00000000E+00  0.00000000E+00  0.00000000E+00
  0.00000000E+00  0.00000000E+00  0.00000000E+00
  0.00000000E+00  0.00000000E+00  0.00000000E+00
  0.00000000E+00  0.00000000E+00  0.00000000E+00
  0.00000000E+00  0.00000000E+00  0.00000000E+00
  0.00000000E+00  0.00000000E+00  0.00000000E+00
  0.00000000E+00  0.00000000E+00  0.00000000E+00
  0.00000000E+00  0.00000000E+00  0.00000000E+00
  0.00000000E+00  0.00000000E+00  0.00000000E+00
  0.00000000E+00  0.00000000E+00  0.00000000E+00
  0.00000000E+00  0.00000000E+00  0.00000000E+00
  0.00000000E+00  0.00000000E+00  0.00000000E+00
  0.00000000E+00  0.00000000E+00  0.00000000E+00
  0.00000000E+00  0.00000000E+00  0.00000000E+00
  0.00000000E+00  0.00000000E+00  0.00000000E+00
  0.00000000E+00  0.00000000E+00  0.00000000E+00
  0.00000000E+00  0.00000000E+00  0.00000000E+00
  0.00000000E+00  0.00000000E+00  0.00000000E+00
  0.00000000E+00  0.00000000E+00  0.00000000E+00
  0.00000000E+00  0.00000000E+00  0.00000000E+00
