generated by phonopy                    
   1.00000000000000     
    11.7777700938999992   -0.0000006592896312    0.0000118211769744
    -0.0000006477562692   11.7777479613999994   -0.0000130806483528
     0.0000177256125076   -0.0000204342245446   17.8544012557999991
   Bi   Cu   Se   O 
    37    35    36    36
Direct
  0.9998813993797526  0.1701793698822982  0.4344963934764934
  0.3364411839031618  0.1690435883590808  0.4331697481748122
  0.6633364770229448  0.1690252277970146  0.4331799644965741
  0.9998915252898684  0.4999505370212560  0.4318053434930675
  0.3339589047430209  0.4999508587458621  0.4319057082055622
  0.6658161253924888  0.4999220637280786  0.4319063406243515
  0.9998970855660119  0.8297134997806737  0.4344943585583820
  0.3364380063454746  0.8308530970204302  0.4331775346682250
  0.6633246546369591  0.8308386570188659  0.4331709117884301
  0.9999219004577924  0.1672203515026709  0.9273968302513040
  0.3339244097468779  0.1675540758230341  0.9261050640233606
  0.6659290715903268  0.1675555048429587  0.9261110669820027
  0.9999267985718561  0.5000140717401962  0.9255792838507446
  0.3350698022076841  0.5000228563141249  0.9249792834749826
  0.6647833392580154  0.5000174910712403  0.9249798889346792
  0.9999322265413539  0.8328313433866654  0.9274024475021463
  0.3339136937051705  0.8324958903142061  0.9261165615405034
  0.6659368218612798  0.8324950038447483  0.9261052170312993
  0.1701628604961556  0.0000425893491709  0.0657484020847079
  0.4999266892560001  0.0000260249186752  0.0684330540011047
  0.8296840158171506  0.0000244552620075  0.0657436950283667
  0.1690063775087012  0.3365468504400013  0.0670840293719976
  0.4999118223125691  0.3341110634383142  0.0683238282544849
  0.8308250847701544  0.3365543208345514  0.0670925869079895
  0.1690297176555049  0.6634618769118035  0.0670778657023874
  0.4999381325064647  0.6659611708498190  0.0683305220628370
  0.8308371564860479  0.6634694984076006  0.0670697461569603
  0.1670771857600855  0.9999494471438837  0.5728466074607255
  0.4998838364669140  0.9999489888412612  0.5746877346021080
  0.8326961609506327  0.9999448270587195  0.5728454091974129
  0.1674117946644031  0.3339366656215788  0.5741274014756215
  0.4998817716050894  0.3351064857508561  0.5752719095382872
  0.8323634285410080  0.3339423116303593  0.5741351829500658
  0.1674165744827931  0.6659550949561890  0.5741383310528647
  0.4998937683774614  0.6647877361218519  0.5752724711308232
  0.8323615853750539  0.6659589784395266  0.5741271966724923
  0.9998860536366934  0.0000285007239853  0.2501247431970057
  0.3444698204058696  0.0000229616188605  0.2446174614939522
  0.6553125409979756  0.0000178465293530  0.2446262866330073
  0.9998862270291369  0.3445694676252629  0.2556212170325622
  0.3368607621805566  0.3369655577002604  0.2501128750403865
  0.6629237426576680  0.3369741204414396  0.2501114004749070
  0.9998872682181315  0.6554415395893045  0.2556175256779696
  0.3368690647102923  0.6630450550729705  0.2501168653522470
  0.6629276806009301  0.6630323646259839  0.2501287272790833
  0.9999196663225902  0.9999724009322364  0.7501193339297529
  0.3321813503589510  0.9999775075023862  0.7505596884816086
  0.6676594479015776  0.9999712363897828  0.7505591694498932
  0.9999142763735236  0.3322367359294560  0.7496800495372398
  0.3322174908936830  0.3322683620865448  0.7501242751686803
  0.6676266894372134  0.3322661291659870  0.7501209347585274
  0.9999214227643733  0.6677155622104465  0.7496835230043146
  0.3322164933440490  0.6676754830372005  0.7501266689200321
  0.6676269383759745  0.6676736543934751  0.7501270043273394
  0.1800020806997864  0.1800726839641484  0.2501279795007534
  0.4999026691339665  0.1682811869009839  0.2502396069612089
  0.8194148011792493  0.1796770374267140  0.2503516252350053
  0.1681934815010919  0.4999773204323361  0.2500019515969356
  0.4999088391884001  0.4999820910154398  0.2501147781256279
  0.8316233890164355  0.4999597825523097  0.2499950584467925
  0.1800673834189155  0.8199655468498932  0.2501563514498173
  0.4999226208913754  0.8317082907550031  0.2502483255863339
  0.8200368894337231  0.8196573638622766  0.2500040425218870
  0.1656858838913919  0.1657971149662814  0.7501175793736863
  0.4999078330211404  0.1654662859931477  0.7493298284792118
  0.8341106382990162  0.1657943880817285  0.7501232385650169
  0.1653504929059579  0.5000034544418526  0.7509148644167070
  0.4999008838375829  0.5000146676347299  0.7501235310188790
  0.8344490036068493  0.5000121684858740  0.7509163527557661
  0.1656872789358701  0.8342147920093765  0.7501238394517600
  0.4999011407553340  0.8345426295995395  0.7493335171017037
  0.8341114414422677  0.8342108851430226  0.7501217109533798
  0.1683432668429319  0.3351341487080290  0.3395826772981678
  0.4998918022098024  0.3336640038968000  0.3385695445640735
  0.8314483193324662  0.3350861733028196  0.3395463124740985
  0.1683393212957682  0.6648243349949468  0.3395689330453777
  0.4998918984430532  0.6662891521756364  0.3385733883938968
  0.8314496759960406  0.6647818623317363  0.3396004621562696
  0.1895688137226372  0.9999659673248402  0.3399266400274215
  0.4998999025386794  0.9999887353853580  0.3386316992733072
  0.8102252833529633  0.9998659895774082  0.3399545324243007
  0.1662120973133838  0.3326660960134120  0.8369227088884372
  0.4999205729453848  0.3325342251012628  0.8360395944411394
  0.8336204570903263  0.3326637627619107  0.8369223121193556
  0.1662164727582507  0.6673498095066748  0.8369249694239826
  0.4999221793178918  0.6674847515259330  0.8360446494622948
  0.8336292202464648  0.6673486702353273  0.8369255627519934
  0.1660909887451965  0.0000102749617241  0.8375163284952976
  0.4999185009117042  0.0000069692493341  0.8368832605578902
  0.8337443889715672  0.0000043522114481  0.8375163663665575
  0.3350645482855015  0.1684575385488145  0.1606606107516626
  0.6647321513560129  0.1684489864787224  0.1606260390348950
  0.9998722896474916  0.1896767450245704  0.1603254615904248
  0.3335966081906179  0.5000089307632223  0.1616706227643974
  0.6662201561548358  0.5000106270620392  0.1616698328887622
  0.9999132094666834  0.5000090349121962  0.1616119731364947
  0.3350889282269875  0.8315632041082992  0.1606593782747936
  0.6647847062776364  0.8315688577009865  0.1606881318248838
  0.9999623973124727  0.8103629945528255  0.1603044989319571
  0.3325545381473916  0.1662733630710136  0.6633208309689707
  0.6672431745547840  0.1662661622485402  0.6633177081871082
  0.9998973366670327  0.1661444258906997  0.6627244228628584
  0.3324182526898980  0.4999712987923175  0.6642031574158267
  0.6673785843081248  0.4999684473271557  0.6642024492628735
  0.9998984761408636  0.4999719121426622  0.6633553228396565
  0.3325554716580328  0.8336723605255898  0.6633225853682205
  0.6672424296169055  0.8336657443683251  0.6633208009519578
  0.9999002632265714  0.8337948907635777  0.6627238624076313
  0.1665462505044601  0.1672608824114334  0.5016703850127655
  0.4998881484670861  0.1678810582893107  0.5039301041307738
  0.8332390504426925  0.1672619296007625  0.5016760769397521
  0.1658642345954391  0.4999571345477776  0.5022181729688455
  0.4998912217790021  0.4999513479298727  0.5029815772054960
  0.8339194026753276  0.4999494638374813  0.5022171446721728
  0.1665502030469312  0.8326459017477674  0.5016777784618114
  0.4998885031030298  0.8320300500456383  0.5039349437300729
  0.8332351821313750  0.8326486949205147  0.5016703335464570
  0.1672383236630139  0.1666750662287981  0.9985622989906631
  0.4999200092357725  0.1659925971756664  0.9980211614363697
  0.8326099278791830  0.1666743117529492  0.9985680703081172
  0.1678455619030856  0.5000110947253589  0.9963238071533027
  0.4999250874541588  0.5000233010595849  0.9972554980476076
  0.8319983672579383  0.5000108855628369  0.9963270011869696
  0.1672288939490940  0.8333634042023306  0.9985761929343084
  0.4999281908926179  0.8340383845149262  0.9980193418746808
  0.8326145934749718  0.8333605711692869  0.9985684968515329
  0.9999234789381291  0.0000246953597980  0.9993721312114445
  0.3328414277575504  0.0000200199071685  0.9981560006327825
  0.6670044213485582  0.0000138269270948  0.9981519382782906
  0.9999190167393550  0.3345255107090637  0.9979668719523715
  0.3344049208035500  0.3338847773044264  0.9968456065066889
  0.6654350265995674  0.3338809794533830  0.9968519651522314
  0.9999229070317668  0.6654974421416853  0.9979603768717809
  0.3344090094819450  0.6661520796175324  0.9968538587224813
  0.6654477538643633  0.6661514398995507  0.9968469459933544
  0.9998974091462927  0.9999531815688698  0.5008727722493020
  0.3344124415152123  0.9999562418696826  0.5022904078081538
  0.6653685557791817  0.9999527102134778  0.5022940665524800
  0.9998907388241776  0.3328641470340017  0.5020819518998039
  0.3337531034928105  0.3344428310347922  0.5033914093245784
  0.6660258773131034  0.3344351514038664  0.5034001863951687
  0.9998966700375362  0.6670375231272700  0.5020824823321632
  0.3337563645744765  0.6654703385796807  0.5033972300174341
  0.6660276503867664  0.6654576792776865  0.5033919964100306
 
  0.00000000E+00  0.00000000E+00  0.00000000E+00
  0.00000000E+00  0.00000000E+00  0.00000000E+00
  0.00000000E+00  0.00000000E+00  0.00000000E+00
  0.00000000E+00  0.00000000E+00  0.00000000E+00
  0.00000000E+00  0.00000000E+00  0.00000000E+00
  0.00000000E+00  0.00000000E+00  0.00000000E+00
  0.00000000E+00  0.00000000E+00  0.00000000E+00
  0.00000000E+00  0.00000000E+00  0.00000000E+00
  0.00000000E+00  0.00000000E+00  0.00000000E+00
  0.00000000E+00  0.00000000E+00  0.00000000E+00
  0.00000000E+00  0.00000000E+00  0.00000000E+00
  0.00000000E+00  0.00000000E+00  0.00000000E+00
  0.00000000E+00  0.00000000E+00  0.00000000E+00
  0.00000000E+00  0.00000000E+00  0.00000000E+00
  0.00000000E+00  0.00000000E+00  0.00000000E+00
  0.00000000E+00  0.00000000E+00  0.00000000E+00
  0.00000000E+00  0.00000000E+00  0.00000000E+00
  0.00000000E+00  0.00000000E+00  0.00000000E+00
  0.00000000E+00  0.00000000E+00  0.00000000E+00
  0.00000000E+00  0.00000000E+00  0.00000000E+00
  0.00000000E+00  0.00000000E+00  0.00000000E+00
  0.00000000E+00  0.00000000E+00  0.00000000E+00
  0.00000000E+00  0.00000000E+00  0.00000000E+00
  0.00000000E+00  0.00000000E+00  0.00000000E+00
  0.00000000E+00  0.00000000E+00  0.00000000E+00
  0.00000000E+00  0.00000000E+00  0.00000000E+00
  0.00000000E+00  0.00000000E+00  0.00000000E+00
  0.00000000E+00  0.00000000E+00  0.00000000E+00
  0.00000000E+00  0.00000000E+00  0.00000000E+00
  0.00000000E+00  0.00000000E+00  0.00000000E+00
  0.00000000E+00  0.00000000E+00  0.00000000E+00
  0.00000000E+00  0.00000000E+00  0.00000000E+00
  0.00000000E+00  0.00000000E+00  0.00000000E+00
  0.00000000E+00  0.00000000E+00  0.00000000E+00
  0.00000000E+00  0.00000000E+00  0.00000000E+00
  0.00000000E+00  0.00000000E+00  0.00000000E+00
  0.00000000E+00  0.00000000E+00  0.00000000E+00
  0.00000000E+00  0.00000000E+00  0.00000000E+00
  0.00000000E+00  0.00000000E+00  0.00000000E+00
  0.00000000E+00  0.00000000E+00  0.00000000E+00
  0.00000000E+00  0.00000000E+00  0.00000000E+00
  0.00000000E+00  0.00000000E+00  0.00000000E+00
  0.00000000E+00  0.00000000E+00  0.00000000E+00
  0.00000000E+00  0.00000000E+00  0.00000000E+00
  0.00000000E+00  0.00000000E+00  0.00000000E+00
  0.00000000E+00  0.00000000E+00  0.00000000E+00
  0.00000000E+00  0.00000000E+00  0.00000000E+00
  0.00000000E+00  0.00000000E+00  0.00000000E+00
  0.00000000E+00  0.00000000E+00  0.00000000E+00
  0.00000000E+00  0.00000000E+00  0.00000000E+00
  0.00000000E+00  0.00000000E+00  0.00000000E+00
  0.00000000E+00  0.00000000E+00  0.00000000E+00
  0.00000000E+00  0.00000000E+00  0.00000000E+00
  0.00000000E+00  0.00000000E+00  0.00000000E+00
  0.00000000E+00  0.00000000E+00  0.00000000E+00
  0.00000000E+00  0.00000000E+00  0.00000000E+00
  0.00000000E+00  0.00000000E+00  0.00000000E+00
  0.00000000E+00  0.00000000E+00  0.00000000E+00
  0.00000000E+00  0.00000000E+00  0.00000000E+00
  0.00000000E+00  0.00000000E+00  0.00000000E+00
  0.00000000E+00  0.00000000E+00  0.00000000E+00
  0.00000000E+00  0.00000000E+00  0.00000000E+00
  0.00000000E+00  0.00000000E+00  0.00000000E+00
  0.00000000E+00  0.00000000E+00  0.00000000E+00
  0.00000000E+00  0.00000000E+00  0.00000000E+00
  0.00000000E+00  0.00000000E+00  0.00000000E+00
  0.00000000E+00  0.00000000E+00  0.00000000E+00
  0.00000000E+00  0.00000000E+00  0.00000000E+00
  0.00000000E+00  0.00000000E+00  0.00000000E+00
  0.00000000E+00  0.00000000E+00  0.00000000E+00
  0.00000000E+00  0.00000000E+00  0.00000000E+00
  0.00000000E+00  0.00000000E+00  0.00000000E+00
  0.00000000E+00  0.00000000E+00  0.00000000E+00
  0.00000000E+00  0.00000000E+00  0.00000000E+00
  0.00000000E+00  0.00000000E+00  0.00000000E+00
  0.00000000E+00  0.00000000E+00  0.00000000E+00
  0.00000000E+00  0.00000000E+00  0.00000000E+00
  0.00000000E+00  0.00000000E+00  0.00000000E+00
  0.00000000E+00  0.00000000E+00  0.00000000E+00
  0.00000000E+00  0.00000000E+00  0.00000000E+00
  0.00000000E+00  0.00000000E+00  0.00000000E+00
  0.00000000E+00  0.00000000E+00  0.00000000E+00
  0.00000000E+00  0.00000000E+00  0.00000000E+00
  0.00000000E+00  0.00000000E+00  0.00000000E+00
  0.00000000E+00  0.00000000E+00  0.00000000E+00
  0.00000000E+00  0.00000000E+00  0.00000000E+00
  0.00000000E+00  0.00000000E+00  0.00000000E+00
  0.00000000E+00  0.00000000E+00  0.00000000E+00
  0.00000000E+00  0.00000000E+00  0.00000000E+00
  0.00000000E+00  0.00000000E+00  0.00000000E+00
  0.00000000E+00  0.00000000E+00  0.00000000E+00
  0.00000000E+00  0.00000000E+00  0.00000000E+00
  0.00000000E+00  0.00000000E+00  0.00000000E+00
  0.00000000E+00  0.00000000E+00  0.00000000E+00
  0.00000000E+00  0.00000000E+00  0.00000000E+00
  0.00000000E+00  0.00000000E+00  0.00000000E+00
  0.00000000E+00  0.00000000E+00  0.00000000E+00
  0.00000000E+00  0.00000000E+00  0.00000000E+00
  0.00000000E+00  0.00000000E+00  0.00000000E+00
  0.00000000E+00  0.00000000E+00  0.00000000E+00
  0.00000000E+00  0.00000000E+00  0.00000000E+00
  0.00000000E+00  0.00000000E+00  0.00000000E+00
  0.00000000E+00  0.00000000E+00  0.00000000E+00
  0.00000000E+00  0.00000000E+00  0.00000000E+00
  0.00000000E+00  0.00000000E+00  0.00000000E+00
  0.00000000E+00  0.00000000E+00  0.00000000E+00
  0.00000000E+00  0.00000000E+00  0.00000000E+00
  0.00000000E+00  0.00000000E+00  0.00000000E+00
  0.00000000E+00  0.00000000E+00  0.00000000E+00
  0.00000000E+00  0.00000000E+00  0.00000000E+00
  0.00000000E+00  0.00000000E+00  0.00000000E+00
  0.00000000E+00  0.00000000E+00  0.00000000E+00
  0.00000000E+00  0.00000000E+00  0.00000000E+00
  0.00000000E+00  0.00000000E+00  0.00000000E+00
  0.00000000E+00  0.00000000E+00  0.00000000E+00
  0.00000000E+00  0.00000000E+00  0.00000000E+00
  0.00000000E+00  0.00000000E+00  0.00000000E+00
  0.00000000E+00  0.00000000E+00  0.00000000E+00
  0.00000000E+00  0.00000000E+00  0.00000000E+00
  0.00000000E+00  0.00000000E+00  0.00000000E+00
  0.00000000E+00  0.00000000E+00  0.00000000E+00
  0.00000000E+00  0.00000000E+00  0.00000000E+00
  0.00000000E+00  0.00000000E+00  0.00000000E+00
  0.00000000E+00  0.00000000E+00  0.00000000E+00
  0.00000000E+00  0.00000000E+00  0.00000000E+00
  0.00000000E+00  0.00000000E+00  0.00000000E+00
  0.00000000E+00  0.00000000E+00  0.00000000E+00
  0.00000000E+00  0.00000000E+00  0.00000000E+00
  0.00000000E+00  0.00000000E+00  0.00000000E+00
  0.00000000E+00  0.00000000E+00  0.00000000E+00
  0.00000000E+00  0.00000000E+00  0.00000000E+00
  0.00000000E+00  0.00000000E+00  0.00000000E+00
  0.00000000E+00  0.00000000E+00  0.00000000E+00
  0.00000000E+00  0.00000000E+00  0.00000000E+00
  0.00000000E+00  0.00000000E+00  0.00000000E+00
  0.00000000E+00  0.00000000E+00  0.00000000E+00
  0.00000000E+00  0.00000000E+00  0.00000000E+00
  0.00000000E+00  0.00000000E+00  0.00000000E+00
  0.00000000E+00  0.00000000E+00  0.00000000E+00
  0.00000000E+00  0.00000000E+00  0.00000000E+00
  0.00000000E+00  0.00000000E+00  0.00000000E+00
  0.00000000E+00  0.00000000E+00  0.00000000E+00
  0.00000000E+00  0.00000000E+00  0.00000000E+00
  0.00000000E+00  0.00000000E+00  0.00000000E+00
