POSCAR                                  
   1.03228000000000     
     6.3970863126299999    5.5387332920799999    4.9397337979799998
    -7.9868489534200000   -2.7682926176799998    4.9273828447800003
     3.2013284141499998   -5.5465039818499999    0.0047224102795300
   Sc   Al   N 
     8    16    24
Direct
  0.3693357473898828  0.1393380464589384  0.6201681503634759
  0.8324660354354663  0.6168379721640775  0.8672523752216890
  0.0223853930872266  0.4622904412131561  0.6084780330106199
  0.1898743628627386  0.2965492387239763  0.8755058504701054
  0.0214201028757373  0.4637170767669119  0.1346177138835998
  0.0403594416120896  0.9271512699419446  0.7397310061977223
  0.2315781925182563  0.7841375412047640  0.0086456786955509
  0.6907757602879840  0.2580079056250995  0.2374934894297098
  0.3574402284019342  0.1424402903996480  0.1281444482338898
  0.5356025685350474  0.9700172703215202  0.8698621738063679
  0.5375280407204954  0.9719989650613883  0.3847894500322013
  0.6911079641083546  0.8142169717462195  0.6224054593727857
  0.6882459134992942  0.8048989942683775  0.1283828825149342
  0.8541174088222903  0.6441489865485011  0.3673877965187557
  0.1957856909706734  0.2982424846546863  0.3709841045012112
  0.0493305704054663  0.9406271355022753  0.2454937346750370
  0.2312134998327693  0.7769554620097594  0.4972737166124617
  0.3962926853776878  0.6145334658724337  0.2578803597738926
  0.5560779342627740  0.4589012717301983  0.4949115764903809
  0.3947197846887818  0.6156996879838132  0.7477028162657433
  0.5502806237175832  0.4544357012551501  0.0100028374413768
  0.8856429557712033  0.1041675363039687  0.4940569631843132
  0.7279767460168003  0.2720735528690312  0.7502174638159289
  0.8836663013182644  0.1023993687274682  0.0017425403086051
  0.5800618116350549  0.3609360690315881  0.7332601676188091
  0.5293850776673708  0.3418812924605206  0.2202110766097150
  0.7238379035162197  0.1580114826651311  0.9538431057932115
  0.7263004973448233  0.1598403932735337  0.4887792717771546
  0.8767797856976927  0.0052068565163168  0.7206041401107441
  0.0440208072419139  0.8246542444996265  0.9872002625966161
  0.8794222812277184  0.9903846799289369  0.2204527124335982
  0.0594939349417984  0.8225997174040458  0.4468212161157723
  0.2352386021385584  0.6709855568071745  0.7109716544832310
  0.3934297324319900  0.5142336299022929  0.9744762995020864
  0.2372050132014181  0.6660125747453520  0.2413560182654706
  0.3861569404114888  0.4981315345176398  0.4742700862823028
  0.2391731520561322  0.1304738972753441  0.3268799972704244
  0.2559201126414052  0.1260053642828751  0.8559415292852464
  0.4268625110450159  0.9607876973818037  0.5959279220355356
  0.4471000727695369  0.0009486251620245  0.1157682586746915
  0.5821735138364375  0.8070005022488189  0.3475421567677088
  0.7439215891522863  0.6540575026532238  0.5771139832715235
  0.5853707304232998  0.8049925378824057  0.8479482524227322
  0.7324866222781878  0.6415436372698835  0.1165170837816518
  0.8894903805725534  0.4758313944787673  0.3429759920643747
  0.0789383970660893  0.2828567826859398  0.5697203017802934
  0.9117976262109053  0.4567380745426917  0.8418195894308838
  0.0742089519733398  0.2840993150307227  0.1124683008058938
