supercell of icsd_608626.cif            
   1.12248915506316     
     9.3541004536070496   -0.0162792279814798    0.0140886203342636
    -4.6909709497872267    8.1293560032902015    0.0131986450056055
     0.0133728937817953    0.0253202868599256    9.2247519568441430
   Al   Y    N 
    18    18    36
Direct
  0.2131626978416676  0.1160811149700933  0.2530699793957680
  0.1367239765803134  0.2380165894209085  0.5037518343642944
  0.2385507391417789  0.1213829948516505  0.7447736068138155
  0.7751547240201617  0.2471969031117069  0.5109234772003362
  0.5384323328767024  0.1072801002781318  0.7545003240429580
  0.4396725693437489  0.2146449604358764  0.0056595122249092
  0.2376063208992250  0.4415141407096783  0.2605914243138372
  0.8883918681896290  0.4485058761300138  0.7437292464738405
  0.7734944663599279  0.5457041803525868  0.0026016575403318
  0.4500250489228961  0.5470668428025647  0.5053708468620499
  0.2246371118154826  0.4379054092027914  0.7416412884358223
  0.8864616168718200  0.4375732273802839  0.2531114200091835
  0.7820028950081479  0.5520438115549595  0.4993477535842814
  0.0968436713282017  0.8955884091854429  0.5071650129427923
  0.7606285249940612  0.8900730363714402  0.0112296660038851
  0.5460894531293334  0.7675048213097568  0.2446439841360970
  0.7440381681980313  0.8147218247196264  0.4923386615852507
  0.4413016436112542  0.8865424967134601  0.0108930482950100
  0.9025411326486008  0.1253645302882802  0.7014072807334699
  0.7764036102755867  0.2225396108616806  0.9587612593489467
  0.5731962299823508  0.1182528175756659  0.2202959685008850
  0.4347842334797676  0.2100837823922461  0.4800995266093366
  0.1151179893847072  0.2160891548497403  0.9883778959553382
  0.9039080491041531  0.1326252185600580  0.2712602480859374
  0.0919226773935904  0.5117911517681293  0.4788805798398315
  0.5586796844160986  0.4483593980165779  0.2401904078931238
  0.1027375646769428  0.5438671559662964  0.0064643126945114
  0.5611864140507805  0.4300444758874917  0.7371109518233325
  0.4510463995819194  0.5612584078395102  0.9851456781040184
  0.2089164979045250  0.7799376711759152  0.2501313070748949
  0.8774374973404306  0.7770921862776206  0.7459288423897803
  0.4587151749147367  0.8921667841920708  0.4792299206337773
  0.2140131003985104  0.7692413699832343  0.7223642727331665
  0.1132027498920181  0.8971697012906930  0.9766458792287906
  0.8812142914000276  0.7788555442684029  0.2305879880781987
  0.5587192096677356  0.7951820112213426  0.7487537410115337
  0.1817384850241481  0.0930510237324143  0.4381114006719997
  0.1408015452490545  0.2422697194247121  0.2043638078865939
  0.8775173786827324  0.0748016394256865  0.9279269216751445
  0.7529708302288896  0.2364291304456216  0.7077426682951540
  0.5915043513206015  0.1268238437913070  0.4352207873804304
  0.4181679232975597  0.2077662971452625  0.2033899547164424
  0.2562030697651210  0.1294264804559546  0.9263472436677063
  0.1562426556461531  0.2384042288862673  0.6889574637424687
  0.9383173750304934  0.2106210618107625  0.4824530065875052
  0.8132247981090046  0.2556588430436548  0.1723370541802467
  0.5274082087679659  0.0948699936808879  0.9608797122498203
  0.4347533339270484  0.1948087930149711  0.6926654486276433
  0.2597249777506860  0.4310646516316936  0.4416472269370075
  0.1057034188692683  0.5283131421402487  0.2382017130955347
  0.8826548023865044  0.4715224832759191  0.9216773924655399
  0.8014350022088195  0.5517631491885808  0.6780403160931812
  0.5722614476361940  0.4637322606825478  0.4709339737139331
  0.4330048630682839  0.5656806537920644  0.1964677442429519
  0.2199742643202498  0.4419858916542907  0.9222070090711014
  0.0927566228503096  0.5134654512509940  0.6992408841050519
  0.8529213956408626  0.4350786899947821  0.4340694722159384
  0.8012554452905079  0.5427428744370886  0.1832778222349845
  0.5651355339566777  0.4218585294303097  0.9709049090062649
  0.4317750005436594  0.5529511615629019  0.6944917020211747
  0.2042494816051814  0.7913575203654801  0.4734579303854147
  0.1146622884308002  0.9233161977673277  0.1873067980449932
  0.8362704888764156  0.7549545747331265  0.9690177269738456
  0.7727703784923108  0.8895058793834068  0.6516278929814234
  0.5565126444664372  0.7447420667155740  0.4333679626047555
  0.4465222859950728  0.8727912355632128  0.2076572499313585
  0.2404821928341860  0.7817907505020827  0.9647924855630592
  0.1140433035133768  0.9170841491403507  0.7008063855093241
  0.8859191667231983  0.7646904756202986  0.4570738079925221
  0.7501183940105278  0.8910961840875444  0.1996478359798530
  0.5610521114571512  0.8080907389392777  0.9623512970000192
  0.4529841983797667  0.9162225213674944  0.6923581871862581
 
  0.00000000E+00  0.00000000E+00  0.00000000E+00
  0.00000000E+00  0.00000000E+00  0.00000000E+00
  0.00000000E+00  0.00000000E+00  0.00000000E+00
  0.00000000E+00  0.00000000E+00  0.00000000E+00
  0.00000000E+00  0.00000000E+00  0.00000000E+00
  0.00000000E+00  0.00000000E+00  0.00000000E+00
  0.00000000E+00  0.00000000E+00  0.00000000E+00
  0.00000000E+00  0.00000000E+00  0.00000000E+00
  0.00000000E+00  0.00000000E+00  0.00000000E+00
  0.00000000E+00  0.00000000E+00  0.00000000E+00
  0.00000000E+00  0.00000000E+00  0.00000000E+00
  0.00000000E+00  0.00000000E+00  0.00000000E+00
  0.00000000E+00  0.00000000E+00  0.00000000E+00
  0.00000000E+00  0.00000000E+00  0.00000000E+00
  0.00000000E+00  0.00000000E+00  0.00000000E+00
  0.00000000E+00  0.00000000E+00  0.00000000E+00
  0.00000000E+00  0.00000000E+00  0.00000000E+00
  0.00000000E+00  0.00000000E+00  0.00000000E+00
  0.00000000E+00  0.00000000E+00  0.00000000E+00
  0.00000000E+00  0.00000000E+00  0.00000000E+00
  0.00000000E+00  0.00000000E+00  0.00000000E+00
  0.00000000E+00  0.00000000E+00  0.00000000E+00
  0.00000000E+00  0.00000000E+00  0.00000000E+00
  0.00000000E+00  0.00000000E+00  0.00000000E+00
  0.00000000E+00  0.00000000E+00  0.00000000E+00
  0.00000000E+00  0.00000000E+00  0.00000000E+00
  0.00000000E+00  0.00000000E+00  0.00000000E+00
  0.00000000E+00  0.00000000E+00  0.00000000E+00
  0.00000000E+00  0.00000000E+00  0.00000000E+00
  0.00000000E+00  0.00000000E+00  0.00000000E+00
  0.00000000E+00  0.00000000E+00  0.00000000E+00
  0.00000000E+00  0.00000000E+00  0.00000000E+00
  0.00000000E+00  0.00000000E+00  0.00000000E+00
  0.00000000E+00  0.00000000E+00  0.00000000E+00
  0.00000000E+00  0.00000000E+00  0.00000000E+00
  0.00000000E+00  0.00000000E+00  0.00000000E+00
  0.00000000E+00  0.00000000E+00  0.00000000E+00
  0.00000000E+00  0.00000000E+00  0.00000000E+00
  0.00000000E+00  0.00000000E+00  0.00000000E+00
  0.00000000E+00  0.00000000E+00  0.00000000E+00
  0.00000000E+00  0.00000000E+00  0.00000000E+00
  0.00000000E+00  0.00000000E+00  0.00000000E+00
  0.00000000E+00  0.00000000E+00  0.00000000E+00
  0.00000000E+00  0.00000000E+00  0.00000000E+00
  0.00000000E+00  0.00000000E+00  0.00000000E+00
  0.00000000E+00  0.00000000E+00  0.00000000E+00
  0.00000000E+00  0.00000000E+00  0.00000000E+00
  0.00000000E+00  0.00000000E+00  0.00000000E+00
  0.00000000E+00  0.00000000E+00  0.00000000E+00
  0.00000000E+00  0.00000000E+00  0.00000000E+00
  0.00000000E+00  0.00000000E+00  0.00000000E+00
  0.00000000E+00  0.00000000E+00  0.00000000E+00
  0.00000000E+00  0.00000000E+00  0.00000000E+00
  0.00000000E+00  0.00000000E+00  0.00000000E+00
  0.00000000E+00  0.00000000E+00  0.00000000E+00
  0.00000000E+00  0.00000000E+00  0.00000000E+00
  0.00000000E+00  0.00000000E+00  0.00000000E+00
  0.00000000E+00  0.00000000E+00  0.00000000E+00
  0.00000000E+00  0.00000000E+00  0.00000000E+00
  0.00000000E+00  0.00000000E+00  0.00000000E+00
  0.00000000E+00  0.00000000E+00  0.00000000E+00
  0.00000000E+00  0.00000000E+00  0.00000000E+00
  0.00000000E+00  0.00000000E+00  0.00000000E+00
  0.00000000E+00  0.00000000E+00  0.00000000E+00
  0.00000000E+00  0.00000000E+00  0.00000000E+00
  0.00000000E+00  0.00000000E+00  0.00000000E+00
  0.00000000E+00  0.00000000E+00  0.00000000E+00
  0.00000000E+00  0.00000000E+00  0.00000000E+00
  0.00000000E+00  0.00000000E+00  0.00000000E+00
  0.00000000E+00  0.00000000E+00  0.00000000E+00
  0.00000000E+00  0.00000000E+00  0.00000000E+00
  0.00000000E+00  0.00000000E+00  0.00000000E+00
