supercell of POSCAR                     
   1.03600000000000     
     9.6051007291200001   -5.6678653607799996   -9.9907275475200006
     9.5551777488200003    5.5783510108199996    9.9928581731800001
    -1.5573508785200001   -8.3719044994900003    4.9655686364999996
   Al   Gd   N 
    72    23    96
Direct
  0.2994909223457185  0.2896130885084958  0.5320960101743211
  0.1463785004643299  0.2434440392476134  0.3048371376359356
  0.3086985135324838  0.4080972880961298  0.3078802463952712
  0.4556115788302222  0.3202680023978886  0.7860508881477983
  0.1409215550962060  0.4989586215074411  0.7837115145843185
  0.2911106003941129  0.1691232018896685  0.7747574330751306
  0.4689681751276069  0.4452764108394902  0.5310220671108823
  0.1434525239079889  0.1200549411216656  0.5362681225816175
  0.4775550887556150  0.0737219694241418  0.2963693259406881
  0.2772669613113621  0.1108691897874508  0.3327059080859343
  0.1184609127839238  0.0728238446989167  0.0991171888483962
  0.1132918514023586  0.1961713778617522  0.8166614459729828
  0.2720417949629379  0.3562697637736960  0.8089397929484647
  0.1113408156491857  0.3246068630742158  0.5862107517056998
  0.2704910581296573  0.4862986034809182  0.5747064568471032
  0.4541390836741499  0.2792760496745075  0.3311265190500947
  0.1112392502592954  0.4459107899595338  0.3386482854418631
  0.4516133587582516  0.4079525593834106  0.1041413559603512
  0.8015749110514889  0.2885523710776496  0.5422561580270227
  0.6447998266039150  0.2464763896618010  0.3153220206033325
  0.8088653055856341  0.4100380112902187  0.3122526882473124
  0.9602631440345561  0.3237792936747539  0.7890854397303713
  0.6373286469937867  0.4916129048920439  0.7910799877888763
  0.7959841648939587  0.1616939492088534  0.7779522170901529
  0.9692916298746894  0.4465706247858918  0.5346190211514070
  0.6440426122038758  0.1169922696424663  0.5366852759637908
  0.9796723465389761  0.0717833030996360  0.2953077764900698
  0.7766141514298752  0.1094399519495681  0.3347174692958816
  0.6126540439928618  0.0741377719268357  0.0913644822060462
  0.6164425059780925  0.1849437122618340  0.8140015994215730
  0.7652548691002323  0.3520119954953032  0.8185960101249492
  0.6117504846054658  0.3250809180065630  0.5922819908587726
  0.7703860263720941  0.4841836218398967  0.5801454236152566
  0.9491884511007100  0.2799544826829461  0.3361517055900762
  0.6134528896016249  0.4464853202021644  0.3407647630392105
  0.9489135268920350  0.4050404916940806  0.1044700295752676
  0.3016635682051430  0.7903797540566089  0.5398703979640800
  0.1436916613821211  0.7440619613904715  0.3114309662054922
  0.3088932654095089  0.9103369562086954  0.3110568171421875
  0.4647231895252659  0.8312273550632980  0.7884994125400979
  0.1426876130037655  0.9992335865018092  0.7853203747957593
  0.2957907897721768  0.6672719706014902  0.7802382106613166
  0.4706372829535539  0.9480883765816799  0.5369165655396415
  0.1437142350554339  0.6205922614930444  0.5388530260499778
  0.4797984157435735  0.5731438264454027  0.2997509594221981
  0.2767002974283841  0.6095019304687099  0.3358027718930217
  0.1155527698239069  0.5699612488697738  0.1013798509570165
  0.1157111035324832  0.6968665393584956  0.8185227776438424
  0.2775921434578379  0.8596344194926004  0.8138135131850390
  0.1129428787695232  0.8255709202293104  0.5896927063454385
  0.2732007438880046  0.9873542015838552  0.5784045968840061
  0.4496139160152595  0.7814009971288129  0.3357075085994055
  0.1130385837562784  0.9463402632144522  0.3395749219306055
  0.4490991874639150  0.9064686339933914  0.1014806573869294
  0.8018553772995531  0.7868560089297958  0.5399223923023797
  0.6442745342277547  0.7425750518877408  0.3110367348532677
  0.8092521077470778  0.9086339962053600  0.3091236775053474
  0.9633074542683744  0.8237296216745875  0.7904606970117456
  0.6429834924242570  0.9923277516537468  0.7806440855440897
  0.7937500363436172  0.6605759032341325  0.7824134023786442
  0.9704160038898522  0.9456693827113440  0.5329785577723882
  0.6432261044638068  0.6174422040758287  0.5411008416081415
  0.9778781806495260  0.5727591065399409  0.2983764541013727
  0.7773224586423026  0.6091002268494421  0.3377555334325848
  0.6160213929354654  0.5693888888720622  0.1015061352357449
  0.6140028029121467  0.6956128378178192  0.8168543193400524
  0.7756775555660980  0.8526423451049325  0.8130657685181149
  0.6125631562907543  0.8231789860256669  0.5868681121206407
  0.7717318963274309  0.9832926534507962  0.5746620833733402
  0.9494591555506915  0.7798259916061170  0.3370200647171444
  0.6119477223452847  0.9462210916998472  0.3384135952752132
  0.9493641504019337  0.9044329138476215  0.1034599507449414
  0.1393890669819555  0.3614820947682134  0.0308691955525902
  0.3145911483751860  0.0275878024563880  0.0401720895455568
  0.3055172704866180  0.2352230726452191  0.0738059535134710
  0.4509455979725274  0.0390581951595408  0.8321289141936390
  0.4438357217136399  0.1587042763854498  0.5735430272638666
  0.9815896184599353  0.1946973118872037  0.0394280509494891
  0.6034957544002779  0.3330679294448728  0.0457769828965908
  0.8051308018340890  0.0229252242040090  0.0411227758336565
  0.7848865333504378  0.2383359735581223  0.0826835289127459
  0.9479983796016356  0.0178325388933303  0.8194178176008435
  0.9443453308776810  0.1537515717063016  0.5701983701330064
  0.4832235174974144  0.6947920755355881  0.0379496480376815
  0.1373982961770537  0.8665748575632719  0.0324036138485795
  0.3076754906192107  0.5220015457445939  0.0400832397381166
  0.2850299181987452  0.7350380983911506  0.0846195465062394
  0.4466937804532876  0.5177287160389525  0.8176378525768868
  0.4428307127903182  0.6571390199644469  0.5742469388897362
  0.9798207442622484  0.6917046738001034  0.0397110503732776
  0.6353371743790603  0.8658482272136254  0.0333831850994315
  0.7948610431678773  0.5093433336112625  0.0416409483101248
  0.7850159512379875  0.7321447839815605  0.0830113555200143
  0.9457668582489802  0.5175024535940622  0.8233323283597471
  0.9447223890314618  0.6545080612900165  0.5749495867857135
  0.2367022571300055  0.3692670374466047  0.6232123435107439
  0.0762255033928199  0.3252484336498824  0.3968678027251258
  0.2390899705739429  0.4898895090531923  0.3881404393207504
  0.4512131843896725  0.2950940382970302  0.1512698064087061
  0.0711379790444724  0.4553738152145712  0.1493145103581384
  0.2385171081592006  0.1073115679773196  0.1521115452354636
  0.3997342239845594  0.3910110651702894  0.9100654017153005
  0.0923352517984526  0.0832235339551133  0.8996414743013759
  0.2309570728705452  0.2474549809898221  0.8687679509842496
  0.3985730112570991  0.0197334208401188  0.6169970987338047
  0.0904421724570383  0.2040109287307530  0.6309458247802269
  0.4054352600777946  0.1572837186084328  0.3535841647612870
  0.2187798592444636  0.1909952308929590  0.4317312661432240
  0.0628954971074478  0.1459791222124167  0.2064102287869716
  0.2225943261833194  0.3170368897206544  0.2044809232277416
  0.3614736796605627  0.1297683916780841  0.9121484150846939
  0.0398983242682505  0.2685888660510045  0.8856435838797623
  0.2103774798473168  0.4371342896693946  0.8878168048532871
  0.3606433329582686  0.2472661814967765  0.6753036838590489
  0.0386423728986642  0.4061610069830479  0.6834639983443083
  0.2116428147642537  0.0690383446632978  0.6703876209136794
  0.3833394712324747  0.3515937563955234  0.4276561077533145
  0.0490061736994463  0.0261867197493117  0.4389416519950800
  0.3923047563933721  0.4750601279562119  0.2097283344531533
  0.7371812775307873  0.3674220646012785  0.6319787560463297
  0.5779951850404785  0.3262763962675592  0.4042141536269241
  0.7401876152682192  0.4903383479153405  0.3938304561461692
  0.9278349571780140  0.2932632233236987  0.1572791123804649
  0.5734004077910910  0.4570468694784537  0.1518461908446866
  0.7319552998517480  0.1079965431561902  0.1562827552367025
  0.8937131464743544  0.3909678247621073  0.9099928090358915
  0.5996040697897200  0.0756947841104534  0.8971590033423240
  0.7321922126851277  0.2380880834396422  0.8659834822749275
  0.8957450577173631  0.0152378125537638  0.6087693183533531
  0.5918204740504436  0.2029345186208715  0.6306186292658396
  0.9044168987293943  0.1552870590471400  0.3526169496020373
  0.7191907711789725  0.1913292789410974  0.4354122173349424
  0.5622260506670642  0.1496871450886061  0.2084574235464274
  0.7142762784451619  0.3224717675992963  0.2106967771682804
  0.8656176496359507  0.1150838461128316  0.9086936365692537
  0.5226608128457855  0.2402636236797306  0.8553144917919795
  0.6892552753364498  0.4176394800881980  0.9011174884378050
  0.8669680058855818  0.2430796189459912  0.6806656994055302
  0.5354595048484114  0.4029784286219567  0.6834680042754258
  0.7122365391741923  0.0654972597653298  0.6684259324870894
  0.8816068898010911  0.3523232549695763  0.4343615148723075
  0.5486594426865778  0.0269497653276645  0.4374357192255403
  0.8903984088814738  0.4756590855111966  0.2098127581422915
  0.2384302751855856  0.8701982279892135  0.6272829418175121
  0.0761564504168462  0.8258426271917330  0.4005748758233167
  0.2409982835419626  0.9923102027152524  0.3914958091842422
  0.4292000940524545  0.7943788751495759  0.1549559410925099
  0.0713626844634376  0.9585796590531785  0.1514828211723156
  0.2353866079583327  0.6041065632388580  0.1556980367580465
  0.4036583374873715  0.9024486712260043  0.9074011623369884
  0.0924818473759785  0.5832303562107342  0.9014202103840105
  0.2348234385313717  0.7475361613886307  0.8694341701993409
  0.3951463563042452  0.5164027373280433  0.6068993038240933
  0.0911810994805862  0.7046921756767333  0.6333041267363342
  0.4047789976900447  0.6564695197851975  0.3549582780986782
  0.2201555988116937  0.6918070365753124  0.4355208353413076
  0.0621179302947397  0.6455350586231035  0.2090694770006110
  0.2164913232006924  0.8211689686231054  0.2115374328432225
  0.3653898671461988  0.6170318191432358  0.9080030220071720
  0.0414862997272536  0.7675375804304849  0.8886872276885995
  0.2134615942791740  0.9398082957228979  0.8922149458192408
  0.3674243736816365  0.7496616013751165  0.6844592211633369
  0.0402518303954764  0.9060684065409674  0.6840927390272569
  0.2123335845517005  0.5693638086787374  0.6708865277336358
  0.3829173024234223  0.8545069497501032  0.4342295691453373
  0.0485292890695135  0.5264499192643868  0.4401240678053782
  0.3907178015204877  0.9756039431059378  0.2100853790906427
  0.7383557547153501  0.8665187144646254  0.6263387634543989
  0.5762237627270324  0.8249666805062716  0.3979009519320300
  0.7394874193419909  0.9903047798926607  0.3887454652464370
  0.9290418117066608  0.7924484811337891  0.1571461068698312
  0.5701234096832337  0.9614061003433179  0.1513520042168182
  0.7353577397557061  0.6041554589030085  0.1586263235489938
  0.9006061622820525  0.8914392533414883  0.9086193208396196
  0.5906646616938644  0.5822359422524244  0.9028957042691772
  0.7329301993275124  0.7417495630434132  0.8676019820043237
  0.8948162238099115  0.5156561065465866  0.6125963807825840
  0.5894961753606296  0.7021160336565586  0.6316229996511851
  0.9050391778826139  0.6561947900101259  0.3579696679558140
  0.7192455359097352  0.6896234326661244  0.4371823663867715
  0.5619620637874903  0.6450936346646969  0.2084751283150936
  0.7162112394550846  0.8196075613999341  0.2096874384855738
  0.8592831398704917  0.6095591652399577  0.9148135757663312
  0.5412663786814136  0.7701515001822372  0.8848929186925076
  0.7118527802091847  0.9324158805898790  0.8896519174304913
  0.8664540995468712  0.7435605791333302  0.6846144684793813
  0.5424084644732403  0.9042970905520846  0.6784094645871761
  0.7091291151752870  0.5634519790790051  0.6758992384142601
  0.8822039605013643  0.8519688256834996  0.4335245108794510
  0.5492947505324466  0.5251349194137731  0.4397565672995967
  0.8906518706724000  0.9752477009875733  0.2075446875750018
 
  0.00000000E+00  0.00000000E+00  0.00000000E+00
  0.00000000E+00  0.00000000E+00  0.00000000E+00
  0.00000000E+00  0.00000000E+00  0.00000000E+00
  0.00000000E+00  0.00000000E+00  0.00000000E+00
  0.00000000E+00  0.00000000E+00  0.00000000E+00
  0.00000000E+00  0.00000000E+00  0.00000000E+00
  0.00000000E+00  0.00000000E+00  0.00000000E+00
  0.00000000E+00  0.00000000E+00  0.00000000E+00
  0.00000000E+00  0.00000000E+00  0.00000000E+00
  0.00000000E+00  0.00000000E+00  0.00000000E+00
  0.00000000E+00  0.00000000E+00  0.00000000E+00
  0.00000000E+00  0.00000000E+00  0.00000000E+00
  0.00000000E+00  0.00000000E+00  0.00000000E+00
  0.00000000E+00  0.00000000E+00  0.00000000E+00
  0.00000000E+00  0.00000000E+00  0.00000000E+00
  0.00000000E+00  0.00000000E+00  0.00000000E+00
  0.00000000E+00  0.00000000E+00  0.00000000E+00
  0.00000000E+00  0.00000000E+00  0.00000000E+00
  0.00000000E+00  0.00000000E+00  0.00000000E+00
  0.00000000E+00  0.00000000E+00  0.00000000E+00
  0.00000000E+00  0.00000000E+00  0.00000000E+00
  0.00000000E+00  0.00000000E+00  0.00000000E+00
  0.00000000E+00  0.00000000E+00  0.00000000E+00
  0.00000000E+00  0.00000000E+00  0.00000000E+00
  0.00000000E+00  0.00000000E+00  0.00000000E+00
  0.00000000E+00  0.00000000E+00  0.00000000E+00
  0.00000000E+00  0.00000000E+00  0.00000000E+00
  0.00000000E+00  0.00000000E+00  0.00000000E+00
  0.00000000E+00  0.00000000E+00  0.00000000E+00
  0.00000000E+00  0.00000000E+00  0.00000000E+00
  0.00000000E+00  0.00000000E+00  0.00000000E+00
  0.00000000E+00  0.00000000E+00  0.00000000E+00
  0.00000000E+00  0.00000000E+00  0.00000000E+00
  0.00000000E+00  0.00000000E+00  0.00000000E+00
  0.00000000E+00  0.00000000E+00  0.00000000E+00
  0.00000000E+00  0.00000000E+00  0.00000000E+00
  0.00000000E+00  0.00000000E+00  0.00000000E+00
  0.00000000E+00  0.00000000E+00  0.00000000E+00
  0.00000000E+00  0.00000000E+00  0.00000000E+00
  0.00000000E+00  0.00000000E+00  0.00000000E+00
  0.00000000E+00  0.00000000E+00  0.00000000E+00
  0.00000000E+00  0.00000000E+00  0.00000000E+00
  0.00000000E+00  0.00000000E+00  0.00000000E+00
  0.00000000E+00  0.00000000E+00  0.00000000E+00
  0.00000000E+00  0.00000000E+00  0.00000000E+00
  0.00000000E+00  0.00000000E+00  0.00000000E+00
  0.00000000E+00  0.00000000E+00  0.00000000E+00
  0.00000000E+00  0.00000000E+00  0.00000000E+00
  0.00000000E+00  0.00000000E+00  0.00000000E+00
  0.00000000E+00  0.00000000E+00  0.00000000E+00
  0.00000000E+00  0.00000000E+00  0.00000000E+00
  0.00000000E+00  0.00000000E+00  0.00000000E+00
  0.00000000E+00  0.00000000E+00  0.00000000E+00
  0.00000000E+00  0.00000000E+00  0.00000000E+00
  0.00000000E+00  0.00000000E+00  0.00000000E+00
  0.00000000E+00  0.00000000E+00  0.00000000E+00
  0.00000000E+00  0.00000000E+00  0.00000000E+00
  0.00000000E+00  0.00000000E+00  0.00000000E+00
  0.00000000E+00  0.00000000E+00  0.00000000E+00
  0.00000000E+00  0.00000000E+00  0.00000000E+00
  0.00000000E+00  0.00000000E+00  0.00000000E+00
  0.00000000E+00  0.00000000E+00  0.00000000E+00
  0.00000000E+00  0.00000000E+00  0.00000000E+00
  0.00000000E+00  0.00000000E+00  0.00000000E+00
  0.00000000E+00  0.00000000E+00  0.00000000E+00
  0.00000000E+00  0.00000000E+00  0.00000000E+00
  0.00000000E+00  0.00000000E+00  0.00000000E+00
  0.00000000E+00  0.00000000E+00  0.00000000E+00
  0.00000000E+00  0.00000000E+00  0.00000000E+00
  0.00000000E+00  0.00000000E+00  0.00000000E+00
  0.00000000E+00  0.00000000E+00  0.00000000E+00
  0.00000000E+00  0.00000000E+00  0.00000000E+00
  0.00000000E+00  0.00000000E+00  0.00000000E+00
  0.00000000E+00  0.00000000E+00  0.00000000E+00
  0.00000000E+00  0.00000000E+00  0.00000000E+00
  0.00000000E+00  0.00000000E+00  0.00000000E+00
  0.00000000E+00  0.00000000E+00  0.00000000E+00
  0.00000000E+00  0.00000000E+00  0.00000000E+00
  0.00000000E+00  0.00000000E+00  0.00000000E+00
  0.00000000E+00  0.00000000E+00  0.00000000E+00
  0.00000000E+00  0.00000000E+00  0.00000000E+00
  0.00000000E+00  0.00000000E+00  0.00000000E+00
  0.00000000E+00  0.00000000E+00  0.00000000E+00
  0.00000000E+00  0.00000000E+00  0.00000000E+00
  0.00000000E+00  0.00000000E+00  0.00000000E+00
  0.00000000E+00  0.00000000E+00  0.00000000E+00
  0.00000000E+00  0.00000000E+00  0.00000000E+00
  0.00000000E+00  0.00000000E+00  0.00000000E+00
  0.00000000E+00  0.00000000E+00  0.00000000E+00
  0.00000000E+00  0.00000000E+00  0.00000000E+00
  0.00000000E+00  0.00000000E+00  0.00000000E+00
  0.00000000E+00  0.00000000E+00  0.00000000E+00
  0.00000000E+00  0.00000000E+00  0.00000000E+00
  0.00000000E+00  0.00000000E+00  0.00000000E+00
  0.00000000E+00  0.00000000E+00  0.00000000E+00
  0.00000000E+00  0.00000000E+00  0.00000000E+00
  0.00000000E+00  0.00000000E+00  0.00000000E+00
  0.00000000E+00  0.00000000E+00  0.00000000E+00
  0.00000000E+00  0.00000000E+00  0.00000000E+00
  0.00000000E+00  0.00000000E+00  0.00000000E+00
  0.00000000E+00  0.00000000E+00  0.00000000E+00
  0.00000000E+00  0.00000000E+00  0.00000000E+00
  0.00000000E+00  0.00000000E+00  0.00000000E+00
  0.00000000E+00  0.00000000E+00  0.00000000E+00
  0.00000000E+00  0.00000000E+00  0.00000000E+00
  0.00000000E+00  0.00000000E+00  0.00000000E+00
  0.00000000E+00  0.00000000E+00  0.00000000E+00
  0.00000000E+00  0.00000000E+00  0.00000000E+00
  0.00000000E+00  0.00000000E+00  0.00000000E+00
  0.00000000E+00  0.00000000E+00  0.00000000E+00
  0.00000000E+00  0.00000000E+00  0.00000000E+00
  0.00000000E+00  0.00000000E+00  0.00000000E+00
  0.00000000E+00  0.00000000E+00  0.00000000E+00
  0.00000000E+00  0.00000000E+00  0.00000000E+00
  0.00000000E+00  0.00000000E+00  0.00000000E+00
  0.00000000E+00  0.00000000E+00  0.00000000E+00
  0.00000000E+00  0.00000000E+00  0.00000000E+00
  0.00000000E+00  0.00000000E+00  0.00000000E+00
  0.00000000E+00  0.00000000E+00  0.00000000E+00
  0.00000000E+00  0.00000000E+00  0.00000000E+00
  0.00000000E+00  0.00000000E+00  0.00000000E+00
  0.00000000E+00  0.00000000E+00  0.00000000E+00
  0.00000000E+00  0.00000000E+00  0.00000000E+00
  0.00000000E+00  0.00000000E+00  0.00000000E+00
  0.00000000E+00  0.00000000E+00  0.00000000E+00
  0.00000000E+00  0.00000000E+00  0.00000000E+00
  0.00000000E+00  0.00000000E+00  0.00000000E+00
  0.00000000E+00  0.00000000E+00  0.00000000E+00
  0.00000000E+00  0.00000000E+00  0.00000000E+00
  0.00000000E+00  0.00000000E+00  0.00000000E+00
  0.00000000E+00  0.00000000E+00  0.00000000E+00
  0.00000000E+00  0.00000000E+00  0.00000000E+00
  0.00000000E+00  0.00000000E+00  0.00000000E+00
  0.00000000E+00  0.00000000E+00  0.00000000E+00
  0.00000000E+00  0.00000000E+00  0.00000000E+00
  0.00000000E+00  0.00000000E+00  0.00000000E+00
  0.00000000E+00  0.00000000E+00  0.00000000E+00
  0.00000000E+00  0.00000000E+00  0.00000000E+00
  0.00000000E+00  0.00000000E+00  0.00000000E+00
  0.00000000E+00  0.00000000E+00  0.00000000E+00
  0.00000000E+00  0.00000000E+00  0.00000000E+00
  0.00000000E+00  0.00000000E+00  0.00000000E+00
  0.00000000E+00  0.00000000E+00  0.00000000E+00
  0.00000000E+00  0.00000000E+00  0.00000000E+00
  0.00000000E+00  0.00000000E+00  0.00000000E+00
  0.00000000E+00  0.00000000E+00  0.00000000E+00
  0.00000000E+00  0.00000000E+00  0.00000000E+00
  0.00000000E+00  0.00000000E+00  0.00000000E+00
  0.00000000E+00  0.00000000E+00  0.00000000E+00
  0.00000000E+00  0.00000000E+00  0.00000000E+00
  0.00000000E+00  0.00000000E+00  0.00000000E+00
  0.00000000E+00  0.00000000E+00  0.00000000E+00
  0.00000000E+00  0.00000000E+00  0.00000000E+00
  0.00000000E+00  0.00000000E+00  0.00000000E+00
  0.00000000E+00  0.00000000E+00  0.00000000E+00
  0.00000000E+00  0.00000000E+00  0.00000000E+00
  0.00000000E+00  0.00000000E+00  0.00000000E+00
  0.00000000E+00  0.00000000E+00  0.00000000E+00
  0.00000000E+00  0.00000000E+00  0.00000000E+00
  0.00000000E+00  0.00000000E+00  0.00000000E+00
  0.00000000E+00  0.00000000E+00  0.00000000E+00
  0.00000000E+00  0.00000000E+00  0.00000000E+00
  0.00000000E+00  0.00000000E+00  0.00000000E+00
  0.00000000E+00  0.00000000E+00  0.00000000E+00
  0.00000000E+00  0.00000000E+00  0.00000000E+00
  0.00000000E+00  0.00000000E+00  0.00000000E+00
  0.00000000E+00  0.00000000E+00  0.00000000E+00
  0.00000000E+00  0.00000000E+00  0.00000000E+00
  0.00000000E+00  0.00000000E+00  0.00000000E+00
  0.00000000E+00  0.00000000E+00  0.00000000E+00
  0.00000000E+00  0.00000000E+00  0.00000000E+00
  0.00000000E+00  0.00000000E+00  0.00000000E+00
  0.00000000E+00  0.00000000E+00  0.00000000E+00
  0.00000000E+00  0.00000000E+00  0.00000000E+00
  0.00000000E+00  0.00000000E+00  0.00000000E+00
  0.00000000E+00  0.00000000E+00  0.00000000E+00
  0.00000000E+00  0.00000000E+00  0.00000000E+00
  0.00000000E+00  0.00000000E+00  0.00000000E+00
  0.00000000E+00  0.00000000E+00  0.00000000E+00
  0.00000000E+00  0.00000000E+00  0.00000000E+00
  0.00000000E+00  0.00000000E+00  0.00000000E+00
  0.00000000E+00  0.00000000E+00  0.00000000E+00
  0.00000000E+00  0.00000000E+00  0.00000000E+00
  0.00000000E+00  0.00000000E+00  0.00000000E+00
  0.00000000E+00  0.00000000E+00  0.00000000E+00
  0.00000000E+00  0.00000000E+00  0.00000000E+00
  0.00000000E+00  0.00000000E+00  0.00000000E+00
  0.00000000E+00  0.00000000E+00  0.00000000E+00
  0.00000000E+00  0.00000000E+00  0.00000000E+00
  0.00000000E+00  0.00000000E+00  0.00000000E+00
  0.00000000E+00  0.00000000E+00  0.00000000E+00
