supercell of supercell of icsd_608626.c 
   1.00600000000000     
    18.8433725412000008    0.0042597715995000    0.0111656436851000
    -6.2786657403800001   10.8752831735999997   -0.0012954496991100
     0.0059525623905900    0.0022414031449000   10.0498800689000003
   Al   Gd   N 
    92     4    95
Direct
  0.1111804999429111  0.0850683269832686  0.2484625702441861
  0.0499099217303254  0.1628284656630044  0.9990110432303041
  0.4443557597938366  0.3328294493610500  0.7496363160350796
  0.3901697534795190  0.4173182344746351  0.4998613524234656
  0.2788081246968872  0.0861704574408364  0.2488319772073879
  0.2247497831375895  0.1573769076095672  0.9975471169382359
  0.1067822271688073  0.3300149203220641  0.7440124698408042
  0.0553460142332582  0.4185134526253478  0.4999582781003227
  0.4447828231734690  0.0832921135077243  0.2492678306800471
  0.3859810763525573  0.1643550600488766  0.9980405893212847
  0.2794768899500610  0.3287950166860796  0.7424533678580261
  0.2223707828549593  0.4168470895436229  0.5007224159773287
  0.1120506332736184  0.0836563893943776  0.7506017387916941
  0.0547829784838214  0.1647536465798751  0.5004856109532554
  0.4452398151611590  0.3337590158137189  0.2497291228441512
  0.3889588858378659  0.4103178817423796  0.9991753932091498
  0.2782229729180514  0.0849883045031063  0.7486694202420452
  0.2217582212227498  0.1654147967971795  0.4974249863872515
  0.1097078895149508  0.3328309610458220  0.2584036591604857
  0.0539911830790629  0.4177953229282210  0.9994544328903956
  0.4425838542128275  0.0817747230932682  0.7506511529860589
  0.3895747592604764  0.1676007052093667  0.4974231597638834
  0.2784530884507816  0.3333288964828469  0.2593787598608870
  0.6117898946374467  0.0836588200506370  0.2489438263888957
  0.5515479401768744  0.1614987382152151  0.9989577043318221
  0.9453119924766042  0.3352240642745627  0.7507714975133268
  0.8903023019377443  0.4178647207797752  0.5005443230927540
  0.7791161947742893  0.0860825807917038  0.2590879801462904
  0.7251297051570660  0.1692557216717177  0.9985388118295617
  0.6067385465558246  0.3294094149523445  0.7438736231487866
  0.5547773327757497  0.4173805410099405  0.5006165012411330
  0.9439381040430703  0.0837008112200550  0.2496544952085600
  0.8915893336966576  0.1728057146966862  0.9985829998153974
  0.7794215374445059  0.3321457314419192  0.7449830246215612
  0.7222164938011133  0.4168800771845582  0.4998753904714093
  0.6107510014502324  0.0830126494131562  0.7501805486649076
  0.5541830051545986  0.1639118209559811  0.5009513168771562
  0.9449154161781621  0.3344342574715640  0.2495684309494663
  0.8901965292893124  0.4160688076537795  0.9996739713026841
  0.7798375028781450  0.0882798343174827  0.7449547626267474
  0.7214397816635838  0.1662795440695461  0.5019830956101927
  0.6093388042121859  0.3315916182558993  0.2595300845329049
  0.5521678036612627  0.4133730289073796  0.9989452465545909
  0.9442721568436028  0.0829579770690145  0.7503044121354989
  0.8907459229421590  0.1689410530311832  0.5008811280466077
  0.7789936406235327  0.3329768499559620  0.2593106816401516
  0.1118292657232445  0.5847810733568650  0.2483742451378106
  0.0530476391790700  0.6646221273773136  0.9986795644830693
  0.4445668901740376  0.8340889825172439  0.7503149979904222
  0.3896404688916135  0.9168478255371753  0.4989511604896961
  0.2787313261883710  0.5857573353806345  0.2570411934078862
  0.2247422846432912  0.6689880698009461  0.9980628810082379
  0.1078411015254233  0.8315278795588199  0.7443237464613901
  0.0554598468660998  0.9181657334823683  0.4991643776543455
  0.4439473403853000  0.5826130050778531  0.2488170303830444
  0.3910584967477888  0.6702934670109144  0.9982574651842739
  0.2794495966039108  0.8316228500975811  0.7441654287656476
  0.2224538474371727  0.9172426112592191  0.4962788170911878
  0.1114481165899477  0.5841244692520178  0.7494391317917106
  0.0552480158010198  0.6659913544222462  0.4994432835512086
  0.4446029283431159  0.8334207613459341  0.2491464990577086
  0.3895595926929118  0.9142675782842673  0.9987402037708577
  0.2795158478993542  0.5871378669299361  0.7457332514956647
  0.2218894433010661  0.6668680966613536  0.5003674425590461
  0.1105472000079573  0.8333973081802881  0.2543317680319745
  0.0552354954671870  0.9193435967614363  0.9981678006364803
  0.4436270004377221  0.5814119726005131  0.7501574326420126
  0.3903766343388924  0.6680705773726885  0.5002527873774980
  0.2783133763331733  0.8333600283519971  0.2546074696541467
  0.6116903576806578  0.5835780274090183  0.2485568567386665
  0.5503854835462221  0.6601248478155028  0.9986202782330622
  0.9456812904811827  0.8353449110121929  0.7506284111982637
  0.8902126863318855  0.9175104533251073  0.5004586107546132
  0.7794518056563007  0.5863618916012854  0.2590161695526874
  0.7248214181236392  0.6686423927548475  0.9983246327369031
  0.6065322333767114  0.8294089378301592  0.7438683271151589
  0.5548001332308772  0.9175365587964635  0.5003733755989899
  0.9445578832220676  0.5839257853662687  0.2491761617075738
  0.8927109334495711  0.6732660922858287  0.9981640249034029
  0.7793547007542401  0.8318431675193807  0.7450251060766675
  0.7221944385205958  0.9168089774889268  0.5001471510475071
  0.6108585327803624  0.5825756162097164  0.7501450600157753
  0.5544647102201949  0.6639847835335004  0.5004165353531036
  0.9452741028719700  0.8346214660473095  0.2490563896585343
  0.8898288073270209  0.9151392658803275  0.9995333412980898
  0.7800803305385671  0.5882553821103400  0.7448417879501861
  0.7215041310868457  0.6662124135781937  0.5018624258067561
  0.6093137916541025  0.8315100116719591  0.2594010742810369
  0.5529048301940165  0.9152512496469001  0.9991837206098353
  0.9447109915435874  0.5835183796314922  0.7502361281988428
  0.8909504399986616  0.6690482940552300  0.5006422827932226
  0.7789424087316803  0.8328941321469756  0.2590756959504361
  0.2208681029193613  0.4090319794160564  0.9960980163013531
  0.7201257751326935  0.4162587500622195  0.9999294675503094
  0.2262889999849591  0.9308011093679909  0.9872360361689658
  0.7194936462410269  0.9155415807531071  0.9992099119296256
  0.1105569326260181  0.0836230694428011  0.4383860268175823
  0.0547728962661083  0.1682902184396013  0.1907640632126899
  0.4447610984441752  0.3324309243158865  0.9397903786970474
  0.3905554821941735  0.4174640170240096  0.6877783436644833
  0.2789190481893513  0.0854424114110515  0.4412326387645891
  0.2219406465786946  0.1707916716613269  0.1949717817533383
  0.0934568590808951  0.3206646245488045  0.9296749061452445
  0.0550669705178208  0.4187962220045875  0.6882543307841118
  0.4445299290938607  0.0826469188585577  0.4391785969559834
  0.3917632298225868  0.1689326916301823  0.1936232872605004
  0.2854049128526270  0.3158039821807250  0.9275167006684626
  0.2219512312294540  0.4156186856883366  0.6967826169505003
  0.1091741947573936  0.0867594138363472  0.9414037064514034
  0.0543713137387130  0.1637422634894037  0.6887709293380482
  0.4452406307281080  0.3347942841704423  0.4390458667260333
  0.3884103324885473  0.4159377956499810  0.1909198876594687
  0.2209415754751802  0.1650542776709045  0.6840987112238324
  0.1094620620147282  0.3323690169405893  0.4473869460461657
  0.0562183081027996  0.4173898735971378  0.1911005371190910
  0.4430353883447822  0.0784042967298717  0.9410132296012108
  0.3905307359460224  0.1686803345439216  0.6866623935235694
  0.2790916856652856  0.3337689664034400  0.4473950406246274
  0.2221623167066369  0.4174569329893387  0.2181840288269470
  0.6114122619678923  0.0834504734948496  0.4390490351769856
  0.5568120694389123  0.1675682911719889  0.1906169074268504
  0.9461712866232617  0.3377680296266661  0.9409847058986429
  0.8902813405786318  0.4179877487809378  0.6888844814259798
  0.7790803409587852  0.0861299227882029  0.4477564015172533
  0.7235895152487615  0.1677825287408297  0.1916246935177313
  0.5939415770494847  0.3188853735999970  0.9291353877123569
  0.5549864266103270  0.4180592776760079  0.6888333316616766
  0.9439703950485310  0.0832909468915517  0.4395555857861808
  0.8885002674884319  0.1673762904042277  0.1909010181402593
  0.7852231346541743  0.3266205182235495  0.9309131889856488
  0.7218589567119693  0.4167917970161952  0.6955201379673071
  0.6127891704374520  0.0835735631804795  0.9422290205602124
  0.5540495491229080  0.1629575320226664  0.6892951852724067
  0.9449265968553533  0.3343575980999276  0.4392167814438324
  0.8883549721522357  0.4167235950826225  0.1914836581712152
  0.7862950879956330  0.1036743765014450  0.9305726781184305
  0.7207937033936247  0.1659043376596685  0.6888442509835784
  0.6091985605097605  0.3315779543831852  0.4480711046691326
  0.5569717235775329  0.4170378663032892  0.1904416608671085
  0.9400318574436781  0.0795902441383234  0.9411818726503540
  0.8911644503831724  0.1692280056475113  0.6894949285178171
  0.7788411177605852  0.3325992928220103  0.4476280372841757
  0.7224345461385511  0.4170850450068002  0.2218715294501763
  0.1114011926206828  0.5840864961945300  0.4384513572871001
  0.0554378259081858  0.6670969087028809  0.1901272828714511
  0.4457217444377832  0.8352891396283582  0.9404395550341675
  0.3901950106281902  0.9169576101121635  0.6872186925991315
  0.2790895617958995  0.5857492615503261  0.4464397500019430
  0.2232573062039265  0.6672133095988215  0.1906410039540205
  0.0951519762234270  0.8214145692122869  0.9301838144155639
  0.0550814417947620  0.9185356156297502  0.6876732963205825
  0.4444414193703068  0.5832727794399020  0.4388290889697615
  0.3889707136646550  0.6666880363188596  0.1903307136704697
  0.2853925432358082  0.8252247558217576  0.9294774959718453
  0.2211534397401351  0.9134549220832682  0.6905447152462401
  0.1122512085494876  0.5847586689325439  0.9412490573010430
  0.0546670371898372  0.6642792520560761  0.6884534527460531
  0.4449878975393844  0.8335983552387631  0.4387951335875258
  0.3890736432471229  0.9163246611038147  0.1906299342826188
  0.2851308918454478  0.5998059800089379  0.9319602403317759
  0.2211438350483732  0.6650055083171509  0.6876563844916816
  0.1092407680544625  0.8323033054691109  0.4439599011146385
  0.0561635498217967  0.9178521222758533  0.1901192455749197
  0.4402046603335492  0.5762991676751525  0.9412666482203704
  0.3909846703346815  0.6680584654593176  0.6893545915108703
  0.2788370047296169  0.8324528842145540  0.4437360038301819
  0.2220826333494301  0.9160765718302457  0.2134711218423959
  0.6114505796985625  0.5835267879503903  0.4387928298696124
  0.5558694585106139  0.6671023701317793  0.1903778536615661
  0.9465556713059726  0.8379246374696265  0.9406853056912681
  0.8901049904281564  0.9176617686235602  0.6888221400413883
  0.7792465725652633  0.5863207239541168  0.4476568629819937
  0.7235138258556049  0.6677396904204755  0.1913764122904880
  0.5926959883045413  0.8176542057921594  0.9292028915312329
  0.5548886160626765  0.9180808275865715  0.6886441764982223
  0.9442921038380661  0.5833938090918167  0.4392506944790071
  0.8889003903115338  0.6673384419722481  0.1905352614350093
  0.7847288976722169  0.8259484188986264  0.9309078160114268
  0.7216565421421848  0.9166243044473035  0.6959088928158650
  0.6117569917256702  0.5828243566572766  0.9421909249383233
  0.5543023170092596  0.6629343070173803  0.6890761903815488
  0.9447832628487376  0.8342048729604770  0.4388567079582870
  0.8882677737534692  0.9166729621517078  0.1914242048634662
  0.7868930200593596  0.6040547495626640  0.9305268986583926
  0.7208003064614061  0.6656950758793982  0.6888346632606357
  0.6092180547970116  0.8315427362139687  0.4479863900480012
  0.5566347965456941  0.9164394884191083  0.1908790093935693
  0.9422121765927685  0.5805836630526287  0.9411800174188372
  0.8913369577361721  0.6691757577763866  0.6893376482177516
  0.7786940431713987  0.8325579328319606  0.4475208133882305
  0.7222422789264158  0.9168393474154897  0.2212435869385985
 
  0.00000000E+00  0.00000000E+00  0.00000000E+00
  0.00000000E+00  0.00000000E+00  0.00000000E+00
  0.00000000E+00  0.00000000E+00  0.00000000E+00
  0.00000000E+00  0.00000000E+00  0.00000000E+00
  0.00000000E+00  0.00000000E+00  0.00000000E+00
  0.00000000E+00  0.00000000E+00  0.00000000E+00
  0.00000000E+00  0.00000000E+00  0.00000000E+00
  0.00000000E+00  0.00000000E+00  0.00000000E+00
  0.00000000E+00  0.00000000E+00  0.00000000E+00
  0.00000000E+00  0.00000000E+00  0.00000000E+00
  0.00000000E+00  0.00000000E+00  0.00000000E+00
  0.00000000E+00  0.00000000E+00  0.00000000E+00
  0.00000000E+00  0.00000000E+00  0.00000000E+00
  0.00000000E+00  0.00000000E+00  0.00000000E+00
  0.00000000E+00  0.00000000E+00  0.00000000E+00
  0.00000000E+00  0.00000000E+00  0.00000000E+00
  0.00000000E+00  0.00000000E+00  0.00000000E+00
  0.00000000E+00  0.00000000E+00  0.00000000E+00
  0.00000000E+00  0.00000000E+00  0.00000000E+00
  0.00000000E+00  0.00000000E+00  0.00000000E+00
  0.00000000E+00  0.00000000E+00  0.00000000E+00
  0.00000000E+00  0.00000000E+00  0.00000000E+00
  0.00000000E+00  0.00000000E+00  0.00000000E+00
  0.00000000E+00  0.00000000E+00  0.00000000E+00
  0.00000000E+00  0.00000000E+00  0.00000000E+00
  0.00000000E+00  0.00000000E+00  0.00000000E+00
  0.00000000E+00  0.00000000E+00  0.00000000E+00
  0.00000000E+00  0.00000000E+00  0.00000000E+00
  0.00000000E+00  0.00000000E+00  0.00000000E+00
  0.00000000E+00  0.00000000E+00  0.00000000E+00
  0.00000000E+00  0.00000000E+00  0.00000000E+00
  0.00000000E+00  0.00000000E+00  0.00000000E+00
  0.00000000E+00  0.00000000E+00  0.00000000E+00
  0.00000000E+00  0.00000000E+00  0.00000000E+00
  0.00000000E+00  0.00000000E+00  0.00000000E+00
  0.00000000E+00  0.00000000E+00  0.00000000E+00
  0.00000000E+00  0.00000000E+00  0.00000000E+00
  0.00000000E+00  0.00000000E+00  0.00000000E+00
  0.00000000E+00  0.00000000E+00  0.00000000E+00
  0.00000000E+00  0.00000000E+00  0.00000000E+00
  0.00000000E+00  0.00000000E+00  0.00000000E+00
  0.00000000E+00  0.00000000E+00  0.00000000E+00
  0.00000000E+00  0.00000000E+00  0.00000000E+00
  0.00000000E+00  0.00000000E+00  0.00000000E+00
  0.00000000E+00  0.00000000E+00  0.00000000E+00
  0.00000000E+00  0.00000000E+00  0.00000000E+00
  0.00000000E+00  0.00000000E+00  0.00000000E+00
  0.00000000E+00  0.00000000E+00  0.00000000E+00
  0.00000000E+00  0.00000000E+00  0.00000000E+00
  0.00000000E+00  0.00000000E+00  0.00000000E+00
  0.00000000E+00  0.00000000E+00  0.00000000E+00
  0.00000000E+00  0.00000000E+00  0.00000000E+00
  0.00000000E+00  0.00000000E+00  0.00000000E+00
  0.00000000E+00  0.00000000E+00  0.00000000E+00
  0.00000000E+00  0.00000000E+00  0.00000000E+00
  0.00000000E+00  0.00000000E+00  0.00000000E+00
  0.00000000E+00  0.00000000E+00  0.00000000E+00
  0.00000000E+00  0.00000000E+00  0.00000000E+00
  0.00000000E+00  0.00000000E+00  0.00000000E+00
  0.00000000E+00  0.00000000E+00  0.00000000E+00
  0.00000000E+00  0.00000000E+00  0.00000000E+00
  0.00000000E+00  0.00000000E+00  0.00000000E+00
  0.00000000E+00  0.00000000E+00  0.00000000E+00
  0.00000000E+00  0.00000000E+00  0.00000000E+00
  0.00000000E+00  0.00000000E+00  0.00000000E+00
  0.00000000E+00  0.00000000E+00  0.00000000E+00
  0.00000000E+00  0.00000000E+00  0.00000000E+00
  0.00000000E+00  0.00000000E+00  0.00000000E+00
  0.00000000E+00  0.00000000E+00  0.00000000E+00
  0.00000000E+00  0.00000000E+00  0.00000000E+00
  0.00000000E+00  0.00000000E+00  0.00000000E+00
  0.00000000E+00  0.00000000E+00  0.00000000E+00
  0.00000000E+00  0.00000000E+00  0.00000000E+00
  0.00000000E+00  0.00000000E+00  0.00000000E+00
  0.00000000E+00  0.00000000E+00  0.00000000E+00
  0.00000000E+00  0.00000000E+00  0.00000000E+00
  0.00000000E+00  0.00000000E+00  0.00000000E+00
  0.00000000E+00  0.00000000E+00  0.00000000E+00
  0.00000000E+00  0.00000000E+00  0.00000000E+00
  0.00000000E+00  0.00000000E+00  0.00000000E+00
  0.00000000E+00  0.00000000E+00  0.00000000E+00
  0.00000000E+00  0.00000000E+00  0.00000000E+00
  0.00000000E+00  0.00000000E+00  0.00000000E+00
  0.00000000E+00  0.00000000E+00  0.00000000E+00
  0.00000000E+00  0.00000000E+00  0.00000000E+00
  0.00000000E+00  0.00000000E+00  0.00000000E+00
  0.00000000E+00  0.00000000E+00  0.00000000E+00
  0.00000000E+00  0.00000000E+00  0.00000000E+00
  0.00000000E+00  0.00000000E+00  0.00000000E+00
  0.00000000E+00  0.00000000E+00  0.00000000E+00
  0.00000000E+00  0.00000000E+00  0.00000000E+00
  0.00000000E+00  0.00000000E+00  0.00000000E+00
  0.00000000E+00  0.00000000E+00  0.00000000E+00
  0.00000000E+00  0.00000000E+00  0.00000000E+00
  0.00000000E+00  0.00000000E+00  0.00000000E+00
  0.00000000E+00  0.00000000E+00  0.00000000E+00
  0.00000000E+00  0.00000000E+00  0.00000000E+00
  0.00000000E+00  0.00000000E+00  0.00000000E+00
  0.00000000E+00  0.00000000E+00  0.00000000E+00
  0.00000000E+00  0.00000000E+00  0.00000000E+00
  0.00000000E+00  0.00000000E+00  0.00000000E+00
  0.00000000E+00  0.00000000E+00  0.00000000E+00
  0.00000000E+00  0.00000000E+00  0.00000000E+00
  0.00000000E+00  0.00000000E+00  0.00000000E+00
  0.00000000E+00  0.00000000E+00  0.00000000E+00
  0.00000000E+00  0.00000000E+00  0.00000000E+00
  0.00000000E+00  0.00000000E+00  0.00000000E+00
  0.00000000E+00  0.00000000E+00  0.00000000E+00
  0.00000000E+00  0.00000000E+00  0.00000000E+00
  0.00000000E+00  0.00000000E+00  0.00000000E+00
  0.00000000E+00  0.00000000E+00  0.00000000E+00
  0.00000000E+00  0.00000000E+00  0.00000000E+00
  0.00000000E+00  0.00000000E+00  0.00000000E+00
  0.00000000E+00  0.00000000E+00  0.00000000E+00
  0.00000000E+00  0.00000000E+00  0.00000000E+00
  0.00000000E+00  0.00000000E+00  0.00000000E+00
  0.00000000E+00  0.00000000E+00  0.00000000E+00
  0.00000000E+00  0.00000000E+00  0.00000000E+00
  0.00000000E+00  0.00000000E+00  0.00000000E+00
  0.00000000E+00  0.00000000E+00  0.00000000E+00
  0.00000000E+00  0.00000000E+00  0.00000000E+00
  0.00000000E+00  0.00000000E+00  0.00000000E+00
  0.00000000E+00  0.00000000E+00  0.00000000E+00
  0.00000000E+00  0.00000000E+00  0.00000000E+00
  0.00000000E+00  0.00000000E+00  0.00000000E+00
  0.00000000E+00  0.00000000E+00  0.00000000E+00
  0.00000000E+00  0.00000000E+00  0.00000000E+00
  0.00000000E+00  0.00000000E+00  0.00000000E+00
  0.00000000E+00  0.00000000E+00  0.00000000E+00
  0.00000000E+00  0.00000000E+00  0.00000000E+00
  0.00000000E+00  0.00000000E+00  0.00000000E+00
  0.00000000E+00  0.00000000E+00  0.00000000E+00
  0.00000000E+00  0.00000000E+00  0.00000000E+00
  0.00000000E+00  0.00000000E+00  0.00000000E+00
  0.00000000E+00  0.00000000E+00  0.00000000E+00
  0.00000000E+00  0.00000000E+00  0.00000000E+00
  0.00000000E+00  0.00000000E+00  0.00000000E+00
  0.00000000E+00  0.00000000E+00  0.00000000E+00
  0.00000000E+00  0.00000000E+00  0.00000000E+00
  0.00000000E+00  0.00000000E+00  0.00000000E+00
  0.00000000E+00  0.00000000E+00  0.00000000E+00
  0.00000000E+00  0.00000000E+00  0.00000000E+00
  0.00000000E+00  0.00000000E+00  0.00000000E+00
  0.00000000E+00  0.00000000E+00  0.00000000E+00
  0.00000000E+00  0.00000000E+00  0.00000000E+00
  0.00000000E+00  0.00000000E+00  0.00000000E+00
  0.00000000E+00  0.00000000E+00  0.00000000E+00
  0.00000000E+00  0.00000000E+00  0.00000000E+00
  0.00000000E+00  0.00000000E+00  0.00000000E+00
  0.00000000E+00  0.00000000E+00  0.00000000E+00
  0.00000000E+00  0.00000000E+00  0.00000000E+00
  0.00000000E+00  0.00000000E+00  0.00000000E+00
  0.00000000E+00  0.00000000E+00  0.00000000E+00
  0.00000000E+00  0.00000000E+00  0.00000000E+00
  0.00000000E+00  0.00000000E+00  0.00000000E+00
  0.00000000E+00  0.00000000E+00  0.00000000E+00
  0.00000000E+00  0.00000000E+00  0.00000000E+00
  0.00000000E+00  0.00000000E+00  0.00000000E+00
  0.00000000E+00  0.00000000E+00  0.00000000E+00
  0.00000000E+00  0.00000000E+00  0.00000000E+00
  0.00000000E+00  0.00000000E+00  0.00000000E+00
  0.00000000E+00  0.00000000E+00  0.00000000E+00
  0.00000000E+00  0.00000000E+00  0.00000000E+00
  0.00000000E+00  0.00000000E+00  0.00000000E+00
  0.00000000E+00  0.00000000E+00  0.00000000E+00
  0.00000000E+00  0.00000000E+00  0.00000000E+00
  0.00000000E+00  0.00000000E+00  0.00000000E+00
  0.00000000E+00  0.00000000E+00  0.00000000E+00
  0.00000000E+00  0.00000000E+00  0.00000000E+00
  0.00000000E+00  0.00000000E+00  0.00000000E+00
  0.00000000E+00  0.00000000E+00  0.00000000E+00
  0.00000000E+00  0.00000000E+00  0.00000000E+00
  0.00000000E+00  0.00000000E+00  0.00000000E+00
  0.00000000E+00  0.00000000E+00  0.00000000E+00
  0.00000000E+00  0.00000000E+00  0.00000000E+00
  0.00000000E+00  0.00000000E+00  0.00000000E+00
  0.00000000E+00  0.00000000E+00  0.00000000E+00
  0.00000000E+00  0.00000000E+00  0.00000000E+00
  0.00000000E+00  0.00000000E+00  0.00000000E+00
  0.00000000E+00  0.00000000E+00  0.00000000E+00
  0.00000000E+00  0.00000000E+00  0.00000000E+00
  0.00000000E+00  0.00000000E+00  0.00000000E+00
  0.00000000E+00  0.00000000E+00  0.00000000E+00
  0.00000000E+00  0.00000000E+00  0.00000000E+00
  0.00000000E+00  0.00000000E+00  0.00000000E+00
  0.00000000E+00  0.00000000E+00  0.00000000E+00
  0.00000000E+00  0.00000000E+00  0.00000000E+00
  0.00000000E+00  0.00000000E+00  0.00000000E+00
  0.00000000E+00  0.00000000E+00  0.00000000E+00
  0.00000000E+00  0.00000000E+00  0.00000000E+00
  0.00000000E+00  0.00000000E+00  0.00000000E+00
