Al   Gd   N                             
   1.00000000000000     
    -9.8044619459297291    0.0000000050499817    0.0000002352660833
    -4.9022297781561539    8.4909137721142116    0.0000001059051542
    -0.0000007988095042   -0.0000001450016323   -9.0579162135635123
   Al   Gd   N 
    35     1    36
Direct
  0.1067327213602454  0.1032011953115628  0.3481187154367262
  0.2204521142043632  0.2109956704221716  0.0853101780245069
  0.7766138800452467  0.0950263892522969  0.8373837043378884
  0.8846685722059320  0.2079685601778181  0.5874395981882756
  0.4444164869532656  0.0944164947030330  0.3360231560963882
  0.5555555642780234  0.2055555561210056  0.0886120833409478
  0.1085087108835339  0.0996492059834253  0.8271003426327468
  0.2240295698363610  0.2079685338520747  0.5874395884222423
  0.7778336879513361  0.0944164897476512  0.3360232808535386
  0.8852188965319101  0.2109955712521057  0.0853101383040666
  0.4450263512645307  0.0950263679345866  0.8373838292420572
  0.5555555158971330  0.2055555583919215  0.5848036373183092
  0.1121012385979157  0.4272827456073003  0.3356820054952436
  0.2204521447420262  0.5352189152982874  0.0853101705070429
  0.7786070606572082  0.4286071142191830  0.8364280506194106
  0.8888888462179807  0.5388888972721020  0.5848521061897003
  0.4444164878343173  0.4278336839132564  0.3360232157889342
  0.5609955789214709  0.5352189380842916  0.0853101633402886
  0.1094524708195905  0.4286070954250150  0.8364279475107637
  0.2240295374074250  0.5346686406436021  0.5874396162951925
  0.7772827171103529  0.4272826962570520  0.3356818363293499
  0.8888889061596785  0.5388888923711903  0.0886987537848256
  0.4450263595349071  0.4266139231429378  0.8373837740356080
  0.5579685590517158  0.5346685313696611  0.5874395357974151
  0.1067327728385123  0.7567327897831575  0.3481186412788446
  0.7786070592627894  0.7594524900417312  0.8364279993502421
  0.8846686226382943  0.8740295278354893  0.5874396222815861
  0.4532012365539515  0.7567327093165162  0.3481188106555422
  0.5609956407032399  0.8704521094308646  0.0853101653557786
  0.1085087246280878  0.7585087405983870  0.8271004644850137
  0.2222221778172511  0.8722222465152853  0.5941335041530067
  0.7772827466024523  0.7621012571198804  0.3356819047849555
  0.8852189084481807  0.8704521888492067  0.0853101335157547
  0.4496491749733593  0.7585087343514232  0.8271001445257227
  0.5579685602590345  0.8740296021646543  0.5874395325559760
  0.2222223716392691  0.8722222434405253  0.0991198151742623
  0.2248829178861769  0.2076170928296293  0.3758783273557214
  0.0952223186226888  0.1262219925587118  0.1318093684597841
  0.8887833490243651  0.2057077147963895  0.8699474023137697
  0.7758139881297694  0.0954263305750516  0.6241907102705753
  0.5555555321486452  0.2055555613173325  0.3698811217221447
  0.4436038547126486  0.0936038577149461  0.1210656439112725
  0.2221755345015097  0.2057077612592124  0.8699474292912086
  0.1086943324071967  0.0992779669790878  0.6144023340311122
  0.8841666685070493  0.2076171278050580  0.3758783330439073
  0.7794588981447390  0.0936038651750550  0.1210657495571041
  0.5555555533036838  0.2055555640537321  0.8752676960614920
  0.4454263025380598  0.0954263192075402  0.6241908392927442
  0.2248828927216806  0.5341667585585199  0.3758783181011154
  0.1113983284441460  0.4276341945569087  0.1218403907800365
  0.8888889003268687  0.5388889002033537  0.8744981419588242
  0.7786272194248554  0.4286272468193388  0.6237792990703070
  0.5576171510769612  0.5341666010650101  0.3758783309975797
  0.4436038529500124  0.4294589200647394  0.1210656952935594
  0.2221755702743948  0.5387833457257116  0.8699474159780323
  0.1094121526965210  0.4286272665837672  0.6237791673847113
  0.8888888604276985  0.5388889056149537  0.3705338250319699
  0.7776341544610688  0.4276341420153713  0.1218402425264529
  0.5557076604573652  0.5387834471385133  0.8699474360484842
  0.4454263095567939  0.4258140134424906  0.6241907773521120
  0.2222222221098846  0.8722222576923073  0.3732672879932650
  0.0952223958249903  0.7452224183724425  0.1318092240593529
  0.8887833189970351  0.8721756179281286  0.8699473941674185
  0.7786272419698435  0.7594121746346048  0.6237792400918565
  0.5576171362071420  0.8748829472322370  0.3758783357084212
  0.4762220764171019  0.7452222880467119  0.1318096051317994
  0.2222222617520160  0.8722222365690300  0.8433251277818670
  0.1086943515338561  0.7586943673857292  0.6144024271671356
  0.8841667534736359  0.8748828775961499  0.3758783280523375
  0.7776341895444361  0.7613983508505910  0.1218403052308190
  0.5557076860779731  0.8721755386196577  0.8699474411291561
  0.4492779578191275  0.7586943448993964  0.6144021858173971
 
  0.00000000E+00  0.00000000E+00  0.00000000E+00
  0.00000000E+00  0.00000000E+00  0.00000000E+00
  0.00000000E+00  0.00000000E+00  0.00000000E+00
  0.00000000E+00  0.00000000E+00  0.00000000E+00
  0.00000000E+00  0.00000000E+00  0.00000000E+00
  0.00000000E+00  0.00000000E+00  0.00000000E+00
  0.00000000E+00  0.00000000E+00  0.00000000E+00
  0.00000000E+00  0.00000000E+00  0.00000000E+00
  0.00000000E+00  0.00000000E+00  0.00000000E+00
  0.00000000E+00  0.00000000E+00  0.00000000E+00
  0.00000000E+00  0.00000000E+00  0.00000000E+00
  0.00000000E+00  0.00000000E+00  0.00000000E+00
  0.00000000E+00  0.00000000E+00  0.00000000E+00
  0.00000000E+00  0.00000000E+00  0.00000000E+00
  0.00000000E+00  0.00000000E+00  0.00000000E+00
  0.00000000E+00  0.00000000E+00  0.00000000E+00
  0.00000000E+00  0.00000000E+00  0.00000000E+00
  0.00000000E+00  0.00000000E+00  0.00000000E+00
  0.00000000E+00  0.00000000E+00  0.00000000E+00
  0.00000000E+00  0.00000000E+00  0.00000000E+00
  0.00000000E+00  0.00000000E+00  0.00000000E+00
  0.00000000E+00  0.00000000E+00  0.00000000E+00
  0.00000000E+00  0.00000000E+00  0.00000000E+00
  0.00000000E+00  0.00000000E+00  0.00000000E+00
  0.00000000E+00  0.00000000E+00  0.00000000E+00
  0.00000000E+00  0.00000000E+00  0.00000000E+00
  0.00000000E+00  0.00000000E+00  0.00000000E+00
  0.00000000E+00  0.00000000E+00  0.00000000E+00
  0.00000000E+00  0.00000000E+00  0.00000000E+00
  0.00000000E+00  0.00000000E+00  0.00000000E+00
  0.00000000E+00  0.00000000E+00  0.00000000E+00
  0.00000000E+00  0.00000000E+00  0.00000000E+00
  0.00000000E+00  0.00000000E+00  0.00000000E+00
  0.00000000E+00  0.00000000E+00  0.00000000E+00
  0.00000000E+00  0.00000000E+00  0.00000000E+00
  0.00000000E+00  0.00000000E+00  0.00000000E+00
  0.00000000E+00  0.00000000E+00  0.00000000E+00
  0.00000000E+00  0.00000000E+00  0.00000000E+00
  0.00000000E+00  0.00000000E+00  0.00000000E+00
  0.00000000E+00  0.00000000E+00  0.00000000E+00
  0.00000000E+00  0.00000000E+00  0.00000000E+00
  0.00000000E+00  0.00000000E+00  0.00000000E+00
  0.00000000E+00  0.00000000E+00  0.00000000E+00
  0.00000000E+00  0.00000000E+00  0.00000000E+00
  0.00000000E+00  0.00000000E+00  0.00000000E+00
  0.00000000E+00  0.00000000E+00  0.00000000E+00
  0.00000000E+00  0.00000000E+00  0.00000000E+00
  0.00000000E+00  0.00000000E+00  0.00000000E+00
  0.00000000E+00  0.00000000E+00  0.00000000E+00
  0.00000000E+00  0.00000000E+00  0.00000000E+00
  0.00000000E+00  0.00000000E+00  0.00000000E+00
  0.00000000E+00  0.00000000E+00  0.00000000E+00
  0.00000000E+00  0.00000000E+00  0.00000000E+00
  0.00000000E+00  0.00000000E+00  0.00000000E+00
  0.00000000E+00  0.00000000E+00  0.00000000E+00
  0.00000000E+00  0.00000000E+00  0.00000000E+00
  0.00000000E+00  0.00000000E+00  0.00000000E+00
  0.00000000E+00  0.00000000E+00  0.00000000E+00
  0.00000000E+00  0.00000000E+00  0.00000000E+00
  0.00000000E+00  0.00000000E+00  0.00000000E+00
  0.00000000E+00  0.00000000E+00  0.00000000E+00
  0.00000000E+00  0.00000000E+00  0.00000000E+00
  0.00000000E+00  0.00000000E+00  0.00000000E+00
  0.00000000E+00  0.00000000E+00  0.00000000E+00
  0.00000000E+00  0.00000000E+00  0.00000000E+00
  0.00000000E+00  0.00000000E+00  0.00000000E+00
  0.00000000E+00  0.00000000E+00  0.00000000E+00
  0.00000000E+00  0.00000000E+00  0.00000000E+00
  0.00000000E+00  0.00000000E+00  0.00000000E+00
  0.00000000E+00  0.00000000E+00  0.00000000E+00
  0.00000000E+00  0.00000000E+00  0.00000000E+00
  0.00000000E+00  0.00000000E+00  0.00000000E+00
