supercell of icsd_191774.cif            
   1.00000000000000     
    10.6267189976993173   -0.0090945335547231   -0.0023771824249404
    -5.3212363919789416    9.1899231002161841   -0.0047897358573977
    -0.0026689369915206   -0.0076884153138459   10.9480932733806018
   N    In   Sc
    36    18    18
Direct
  0.2236198383387702  0.1101908700192666  0.4444629581226494
  0.1069749090248067  0.2198332050719998  0.1872151488647944
  0.8926550929134365  0.1178700800598520  0.9412690210782841
  0.7792657337867297  0.2193428898254552  0.6956522500280613
  0.5511144502378045  0.1084419184484133  0.4374654128496971
  0.4495033334535918  0.2256262077616142  0.2001678284300112
  0.2202240075595867  0.1098531500260194  0.9480645926003675
  0.1077863296610886  0.2205241724893057  0.6974336548847262
  0.8890139713674685  0.1114054245659020  0.4356089532433174
  0.7762741244845799  0.2170969859341838  0.1873089477674199
  0.5578435246499396  0.1124935434025218  0.9453629490291036
  0.4460321307443706  0.2256864288172551  0.6856821892840230
  0.2208753057647996  0.4455908230203107  0.4427338031981165
  0.1147437827563564  0.5613454525015484  0.1893658359895412
  0.8908077418958200  0.4439462056408132  0.9478589465139322
  0.7760750061896644  0.5573931639723142  0.6962005396285065
  0.5527812425388561  0.4403106738077938  0.4395226200873452
  0.4479208649844892  0.5548569291107270  0.1862976146237543
  0.2223865153351099  0.4459026466357372  0.9502561735606108
  0.1137196436913044  0.5594697427117339  0.6892094360437895
  0.8924574632354805  0.4457202971619409  0.4434307300091120
  0.7756833223986987  0.5575212304292307  0.1960702937399503
  0.5527831577958935  0.4462250209790639  0.9388130850266236
  0.4498442706708516  0.5579651769805949  0.7006304182877585
  0.2226164453176693  0.7728153395728299  0.4406663863602418
  0.1081424290301669  0.8833393455168377  0.1868096219062778
  0.8928810132518095  0.7811960901197565  0.9393198253606272
  0.7788160454468738  0.8897484922686161  0.6988042953923426
  0.5544228111225777  0.7797085062119606  0.4478701320722323
  0.4402697857453006  0.8899024405837892  0.1987035744330683
  0.2168955051221957  0.7746098112069859  0.9393593741941757
  0.1091067233992860  0.8835791617812490  0.6996037270157700
  0.8898161433928280  0.7779925957213223  0.4378061406444615
  0.7811954948338311  0.8902533464729885  0.1942359645116909
  0.5529654700450024  0.7764820959988938  0.9370316034767825
  0.4406025453701616  0.8844776160090930  0.6866682600170009
  0.2200702148263360  0.1083203688758871  0.2456405112997189
  0.1108052010648208  0.2214321706592415  0.4985371308773452
  0.2242099546417577  0.1111780256145352  0.7496110145834294
  0.7750868103996424  0.2201191068668962  0.4966983145318267
  0.5524540147527617  0.1089699695032209  0.7463798339928260
  0.4451795106185159  0.2240742148644657  0.0011705997826894
  0.2237555677776797  0.4448826052514789  0.2434615986209820
  0.8897585614950003  0.4459646697519801  0.7491690908997697
  0.7775344465405851  0.5567748537812562  0.9978496814157083
  0.4442082928174358  0.5538789343511397  0.5010854313046309
  0.2231808752047684  0.4464586312880314  0.7517419251111335
  0.8881897719165721  0.4430060643003486  0.2450429186905794
  0.7767224908407115  0.5541590931941869  0.4976119179023684
  0.1119746179794205  0.8859215922783221  0.4999558516882701
  0.7780782134449638  0.8914087215663216  0.9957094254028220
  0.5560079577919552  0.7780030385191452  0.2488047330195897
  0.7797395543258503  0.8899233136879658  0.4999173575914710
  0.4408498938146721  0.8867420451548966  0.9989648202592960
  0.8889762777917980  0.1109696018873763  0.7495266438846713
  0.7790427862147880  0.2231046948760067  0.9953054267807246
  0.5575291977434915  0.1117854356838279  0.2455387194691738
  0.4437041352215800  0.2202048722523244  0.4926211774231390
  0.1130498929121941  0.2238619308307506  0.9957034218724488
  0.8888942155495911  0.1109545879952663  0.2438499084971895
  0.1112886056257878  0.5538015048968958  0.4960551717624000
  0.5562081523916049  0.4469179417573130  0.2475392677690138
  0.1121582479584262  0.5567317767438738  0.9975909251993045
  0.5560689132018126  0.4434197413447265  0.7469036176631860
  0.4455097122094855  0.5577823772244557  0.9936978368240688
  0.2195777933913448  0.7780439480705255  0.2470972344328999
  0.8881592250044861  0.7783571528234461  0.7482600875825156
  0.4429308197618340  0.8887225013846347  0.4939386190882900
  0.2233453330897106  0.7771485472195536  0.7459518100029854
  0.1114664610502061  0.8883741701754673  0.9934292342071842
  0.8899336693510520  0.7784736172377720  0.2458338341318935
  0.5562344357201638  0.7814110972485437  0.7446425981582792
 
  0.00000000E+00  0.00000000E+00  0.00000000E+00
  0.00000000E+00  0.00000000E+00  0.00000000E+00
  0.00000000E+00  0.00000000E+00  0.00000000E+00
  0.00000000E+00  0.00000000E+00  0.00000000E+00
  0.00000000E+00  0.00000000E+00  0.00000000E+00
  0.00000000E+00  0.00000000E+00  0.00000000E+00
  0.00000000E+00  0.00000000E+00  0.00000000E+00
  0.00000000E+00  0.00000000E+00  0.00000000E+00
  0.00000000E+00  0.00000000E+00  0.00000000E+00
  0.00000000E+00  0.00000000E+00  0.00000000E+00
  0.00000000E+00  0.00000000E+00  0.00000000E+00
  0.00000000E+00  0.00000000E+00  0.00000000E+00
  0.00000000E+00  0.00000000E+00  0.00000000E+00
  0.00000000E+00  0.00000000E+00  0.00000000E+00
  0.00000000E+00  0.00000000E+00  0.00000000E+00
  0.00000000E+00  0.00000000E+00  0.00000000E+00
  0.00000000E+00  0.00000000E+00  0.00000000E+00
  0.00000000E+00  0.00000000E+00  0.00000000E+00
  0.00000000E+00  0.00000000E+00  0.00000000E+00
  0.00000000E+00  0.00000000E+00  0.00000000E+00
  0.00000000E+00  0.00000000E+00  0.00000000E+00
  0.00000000E+00  0.00000000E+00  0.00000000E+00
  0.00000000E+00  0.00000000E+00  0.00000000E+00
  0.00000000E+00  0.00000000E+00  0.00000000E+00
  0.00000000E+00  0.00000000E+00  0.00000000E+00
  0.00000000E+00  0.00000000E+00  0.00000000E+00
  0.00000000E+00  0.00000000E+00  0.00000000E+00
  0.00000000E+00  0.00000000E+00  0.00000000E+00
  0.00000000E+00  0.00000000E+00  0.00000000E+00
  0.00000000E+00  0.00000000E+00  0.00000000E+00
  0.00000000E+00  0.00000000E+00  0.00000000E+00
  0.00000000E+00  0.00000000E+00  0.00000000E+00
  0.00000000E+00  0.00000000E+00  0.00000000E+00
  0.00000000E+00  0.00000000E+00  0.00000000E+00
  0.00000000E+00  0.00000000E+00  0.00000000E+00
  0.00000000E+00  0.00000000E+00  0.00000000E+00
  0.00000000E+00  0.00000000E+00  0.00000000E+00
  0.00000000E+00  0.00000000E+00  0.00000000E+00
  0.00000000E+00  0.00000000E+00  0.00000000E+00
  0.00000000E+00  0.00000000E+00  0.00000000E+00
  0.00000000E+00  0.00000000E+00  0.00000000E+00
  0.00000000E+00  0.00000000E+00  0.00000000E+00
  0.00000000E+00  0.00000000E+00  0.00000000E+00
  0.00000000E+00  0.00000000E+00  0.00000000E+00
  0.00000000E+00  0.00000000E+00  0.00000000E+00
  0.00000000E+00  0.00000000E+00  0.00000000E+00
  0.00000000E+00  0.00000000E+00  0.00000000E+00
  0.00000000E+00  0.00000000E+00  0.00000000E+00
  0.00000000E+00  0.00000000E+00  0.00000000E+00
  0.00000000E+00  0.00000000E+00  0.00000000E+00
  0.00000000E+00  0.00000000E+00  0.00000000E+00
  0.00000000E+00  0.00000000E+00  0.00000000E+00
  0.00000000E+00  0.00000000E+00  0.00000000E+00
  0.00000000E+00  0.00000000E+00  0.00000000E+00
  0.00000000E+00  0.00000000E+00  0.00000000E+00
  0.00000000E+00  0.00000000E+00  0.00000000E+00
  0.00000000E+00  0.00000000E+00  0.00000000E+00
  0.00000000E+00  0.00000000E+00  0.00000000E+00
  0.00000000E+00  0.00000000E+00  0.00000000E+00
  0.00000000E+00  0.00000000E+00  0.00000000E+00
  0.00000000E+00  0.00000000E+00  0.00000000E+00
  0.00000000E+00  0.00000000E+00  0.00000000E+00
  0.00000000E+00  0.00000000E+00  0.00000000E+00
  0.00000000E+00  0.00000000E+00  0.00000000E+00
  0.00000000E+00  0.00000000E+00  0.00000000E+00
  0.00000000E+00  0.00000000E+00  0.00000000E+00
  0.00000000E+00  0.00000000E+00  0.00000000E+00
  0.00000000E+00  0.00000000E+00  0.00000000E+00
  0.00000000E+00  0.00000000E+00  0.00000000E+00
  0.00000000E+00  0.00000000E+00  0.00000000E+00
  0.00000000E+00  0.00000000E+00  0.00000000E+00
  0.00000000E+00  0.00000000E+00  0.00000000E+00
