supercell of POSCAR                     
   1.01189200000000     
     3.1482772356600002   -5.4762754812200001    9.9674464565599994
    -9.4511209497999999   -5.4731922780100000    0.0032121685426600
     6.3112884282600001  -10.9581161277000003   -9.9749049577999997
   Al   Sc   N 
    84    12    96
Direct
  0.0883269361708798  0.5841750394072065  0.3340450828847707
  0.0013929359607872  0.3266663114195936  0.2537695323383460
  0.0846156851159066  0.0841402663372932  0.3342452038465993
  0.2494024607276515  0.5804756780108988  0.4970795465107258
  0.3306712774173306  0.3241615123542729  0.0803001969515549
  0.4172025146106151  0.0864107451732892  0.1693792312985849
  0.0056641374130066  0.8397811217931306  0.2530789763724428
  0.1670930881378609  0.3331018772933092  0.4143652826490865
  0.2476194283834872  0.0860835337767156  0.4973177509976523
  0.1636296091622214  0.8350099732222631  0.4161184655558827
  0.3363369356648391  0.6703149698905690  0.3372532206588232
  0.1604596431302241  0.6709651044500617  0.1663731116807625
  0.2519816471626868  0.4084193733986226  0.2510379047018034
  0.3337383188641141  0.1655083748755288  0.3339501780794976
  0.0023252576947641  0.6700785977711377  0.4972860834576665
  0.1671956886346919  0.1613991215740640  0.1685502741885543
  0.2525408754817988  0.9188825290079023  0.2539337788514899
  0.4143575791468663  0.4158711161731077  0.4154404697343494
  0.4982886335668013  0.1632122188158647  0.4978931320529227
  0.0811602938563354  0.9211135548118889  0.0814752837693931
  0.4178872722370883  0.9180270380246824  0.4141850586613884
  0.0883269361708798  0.5841750394072065  0.8340450828847707
  0.0013929359607872  0.3266663114195936  0.7537695323383531
  0.0846156851159066  0.0841402663372932  0.8342452038465993
  0.2494024607276515  0.5804756780108988  0.9970795465107258
  0.3306712774173306  0.3241615123542729  0.5803001969515549
  0.4172025146106151  0.0864107451732892  0.6693792312985849
  0.0056641374130066  0.8397811217931306  0.7530789763724357
  0.1670930881378609  0.3331018772933092  0.9143652826490865
  0.2476194283834872  0.0860835337767156  0.9973177509976523
  0.1636296091622214  0.8350099732222631  0.9161184655558827
  0.3363369356648320  0.6703149698905690  0.8372532206588232
  0.1604596431302241  0.6709651044500617  0.6663731116807554
  0.2519816471626868  0.4084193733986226  0.7510379047018105
  0.3337383188641141  0.1655083748755288  0.8339501780794976
  0.0023252576947570  0.6700785977711377  0.9972860834576665
  0.1671956886346919  0.1613991215740640  0.6685502741885543
  0.2525408754817988  0.9188825290079023  0.7539337788514899
  0.4143575791468592  0.4158711161731077  0.9154404697343494
  0.4982886335667942  0.1632122188158647  0.9978931320529227
  0.0811602938563354  0.9211135548118889  0.5814752837693931
  0.4178872722370883  0.9180270380246824  0.9141850586613884
  0.5883269361708727  0.5841750394072065  0.3340450828847707
  0.5013929359607872  0.3266663114195936  0.2537695323383460
  0.5846156851159066  0.0841402663372932  0.3342452038465993
  0.7494024607276515  0.5804756780108988  0.4970795465107258
  0.8306712774173306  0.3241615123542729  0.0803001969515549
  0.9172025146106151  0.0864107451732892  0.1693792312985849
  0.5056641374130066  0.8397811217931306  0.2530789763724428
  0.6670930881378609  0.3331018772933092  0.4143652826490865
  0.7476194283834872  0.0860835337767156  0.4973177509976523
  0.6636296091622214  0.8350099732222631  0.4161184655558898
  0.8363369356648391  0.6703149698905690  0.3372532206588303
  0.6604596431302241  0.6709651044500617  0.1663731116807625
  0.7519816471626868  0.4084193733986226  0.2510379047018105
  0.8337383188641141  0.1655083748755288  0.3339501780794976
  0.5023252576947641  0.6700785977711377  0.4972860834576665
  0.6671956886346919  0.1613991215740640  0.1685502741885543
  0.7525408754817988  0.9188825290079023  0.2539337788514899
  0.9143575791468663  0.4158711161731077  0.4154404697343494
  0.9982886335667942  0.1632122188158647  0.4978931320529227
  0.5811602938563354  0.9211135548118889  0.0814752837694002
  0.9178872722370883  0.9180270380246824  0.4141850586613884
  0.5883269361708798  0.5841750394072065  0.8340450828847707
  0.5013929359607872  0.3266663114195936  0.7537695323383531
  0.5846156851159066  0.0841402663372932  0.8342452038465993
  0.7494024607276515  0.5804756780108988  0.9970795465107258
  0.8306712774173306  0.3241615123542729  0.5803001969515549
  0.9172025146106222  0.0864107451732892  0.6693792312985849
  0.5056641374130066  0.8397811217931306  0.7530789763724428
  0.6670930881378609  0.3331018772933092  0.9143652826490865
  0.7476194283834872  0.0860835337767156  0.9973177509976523
  0.6636296091622214  0.8350099732222631  0.9161184655558898
  0.8363369356648391  0.6703149698905690  0.8372532206588303
  0.6604596431302241  0.6709651044500617  0.6663731116807625
  0.7519816471626868  0.4084193733986226  0.7510379047018105
  0.8337383188641141  0.1655083748755288  0.8339501780794976
  0.5023252576947570  0.6700785977711377  0.9972860834576665
  0.6671956886346919  0.1613991215740640  0.6685502741885543
  0.7525408754817988  0.9188825290079023  0.7539337788514899
  0.9143575791468663  0.4158711161731077  0.9154404697343494
  0.9982886335668013  0.1632122188158647  0.9978931320529227
  0.5811602938563354  0.9211135548118889  0.5814752837694002
  0.9178872722370883  0.9180270380246824  0.9141850586613884
  0.4046008608340159  0.5826128570931957  0.1736732455523295
  0.3279243134510921  0.8382066140155402  0.0841520314227324
  0.0782316466164161  0.4152788794801197  0.0852848024477382
  0.4046008608340230  0.5826128570931957  0.6736732455523295
  0.3279243134510921  0.8382066140155402  0.5841520314227324
  0.0782316466164090  0.4152788794801197  0.5852848024477382
  0.9046008608340159  0.5826128570931957  0.1736732455523295
  0.8279243134510921  0.8382066140155402  0.0841520314227324
  0.5782316466164161  0.4152788794801197  0.0852848024477382
  0.9046008608340159  0.5826128570931957  0.6736732455523295
  0.8279243134510921  0.8382066140155402  0.5841520314227324
  0.5782316466164161  0.4152788794801197  0.5852848024477382
  0.2187147127957658  0.5819947248696664  0.2669148706761604
  0.0398040081708473  0.5984564899639793  0.1018892650971495
  0.1313773580321609  0.3231727300035416  0.1953784174208053
  0.2120386631842237  0.0826350466096528  0.2713687931257027
  0.3796260341174360  0.5831060938161770  0.4368192945315599
  0.4508996869306188  0.3236280723558878  0.0127097906710603
  0.0420331939669296  0.0857281058486734  0.1033438042634174
  0.1320356808387686  0.8393303851534313  0.1855698630578644
  0.2955400633386276  0.3316989120106442  0.3524145659076510
  0.3766208660038828  0.0813371777618599  0.4353335422641891
  0.4674157914660100  0.8357113827593352  0.0138449849331366
  0.2934899704071157  0.8336798785167261  0.3547925908009049
  0.4691928203454339  0.6779115196339376  0.2799738498559279
  0.2766995041858351  0.6612745105141755  0.0975089540607854
  0.3781907452451065  0.3953245692125975  0.1852423884393914
  0.4618694807298809  0.1644905277024549  0.2723547832071063
  0.1308054938103922  0.6660658940238662  0.4343382211171516
  0.2166959416408929  0.4137306936792058  0.0144116190420362
  0.2917418315205538  0.1603382500865251  0.1024148873347741
  0.3836356985977218  0.9241191331108922  0.1962736709950121
  0.0443503584978089  0.4188655479362353  0.3523243126771760
  0.1266917563736456  0.1696768289072139  0.4349696899319540
  0.1992501364045154  0.9272267750462575  0.0126939824683561
  0.0466331639543753  0.9206003423067770  0.3529260134556651
  0.2187147127957658  0.5819947248696664  0.7669148706761604
  0.0398040081708473  0.5984564899639793  0.6018892650971495
  0.1313773580321609  0.3231727300035416  0.6953784174207982
  0.2120386631842237  0.0826350466096528  0.7713687931257027
  0.3796260341174360  0.5831060938161770  0.9368192945315599
  0.4508996869306188  0.3236280723558878  0.5127097906710532
  0.0420331939669367  0.0857281058486734  0.6033438042634174
  0.1320356808387615  0.8393303851534313  0.6855698630578644
  0.2955400633386276  0.3316989120106442  0.8524145659076510
  0.3766208660038828  0.0813371777618599  0.9353335422641891
  0.4674157914660100  0.8357113827593352  0.5138449849331366
  0.2934899704071157  0.8336798785167261  0.8547925908009049
  0.4691928203454339  0.6779115196339376  0.7799738498559279
  0.2766995041858351  0.6612745105141755  0.5975089540607854
  0.3781907452451065  0.3953245692125975  0.6852423884393914
  0.4618694807298809  0.1644905277024549  0.7723547832071063
  0.1308054938103922  0.6660658940238662  0.9343382211171516
  0.2166959416408858  0.4137306936792058  0.5144116190420362
  0.2917418315205467  0.1603382500865251  0.6024148873347741
  0.3836356985977218  0.9241191331108922  0.6962736709950121
  0.0443503584978089  0.4188655479362353  0.8523243126771689
  0.1266917563736385  0.1696768289072139  0.9349696899319540
  0.1992501364045154  0.9272267750462575  0.5126939824683561
  0.0466331639543753  0.9206003423067770  0.8529260134556651
  0.7187147127957587  0.5819947248696664  0.2669148706761604
  0.5398040081708473  0.5984564899639793  0.1018892650971495
  0.6313773580321609  0.3231727300035416  0.1953784174208053
  0.7120386631842237  0.0826350466096528  0.2713687931257027
  0.8796260341174360  0.5831060938161770  0.4368192945315599
  0.9508996869306188  0.3236280723558878  0.0127097906710603
  0.5420331939669296  0.0857281058486734  0.1033438042634245
  0.6320356808387686  0.8393303851534313  0.1855698630578644
  0.7955400633386276  0.3316989120106442  0.3524145659076510
  0.8766208660038828  0.0813371777618599  0.4353335422641891
  0.9674157914660100  0.8357113827593352  0.0138449849331366
  0.7934899704071157  0.8336798785167261  0.3547925908009049
  0.9691928203454339  0.6779115196339376  0.2799738498559208
  0.7766995041858280  0.6612745105141755  0.0975089540607854
  0.8781907452451065  0.3953245692125975  0.1852423884393914
  0.9618694807298880  0.1644905277024549  0.2723547832071134
  0.6308054938103922  0.6660658940238662  0.4343382211171516
  0.7166959416408929  0.4137306936792058  0.0144116190420362
  0.7917418315205538  0.1603382500865251  0.1024148873347741
  0.8836356985977218  0.9241191331108922  0.1962736709950121
  0.5443503584978089  0.4188655479362353  0.3523243126771760
  0.6266917563736456  0.1696768289072139  0.4349696899319540
  0.6992501364045154  0.9272267750462575  0.0126939824683561
  0.5466331639543753  0.9206003423067770  0.3529260134556651
  0.7187147127957587  0.5819947248696664  0.7669148706761604
  0.5398040081708473  0.5984564899639793  0.6018892650971495
  0.6313773580321609  0.3231727300035416  0.6953784174208053
  0.7120386631842237  0.0826350466096528  0.7713687931257027
  0.8796260341174360  0.5831060938161770  0.9368192945315599
  0.9508996869306188  0.3236280723558878  0.5127097906710603
  0.5420331939669296  0.0857281058486734  0.6033438042634245
  0.6320356808387686  0.8393303851534313  0.6855698630578644
  0.7955400633386347  0.3316989120106442  0.8524145659076510
  0.8766208660038828  0.0813371777618599  0.9353335422641891
  0.9674157914660100  0.8357113827593352  0.5138449849331366
  0.7934899704071157  0.8336798785167261  0.8547925908009049
  0.9691928203454339  0.6779115196339376  0.7799738498559208
  0.7766995041858351  0.6612745105141755  0.5975089540607854
  0.8781907452451065  0.3953245692125975  0.6852423884393914
  0.9618694807298880  0.1644905277024549  0.7723547832071134
  0.6308054938103922  0.6660658940238662  0.9343382211171516
  0.7166959416408929  0.4137306936792058  0.5144116190420362
  0.7917418315205538  0.1603382500865251  0.6024148873347741
  0.8836356985977218  0.9241191331108922  0.6962736709950121
  0.5443503584978089  0.4188655479362353  0.8523243126771689
  0.6266917563736456  0.1696768289072139  0.9349696899319540
  0.6992501364045154  0.9272267750462575  0.5126939824683561
  0.5466331639543753  0.9206003423067770  0.8529260134556651
