generated by phonopy                    
   1.00000000000000     
    11.7777700938999992   -0.0000006592896312    0.0000118211769744
    -0.0000006477562692   11.7777479613999994   -0.0000130806483528
     0.0000177256125076   -0.0000204342245446   17.8544012557999991
   Bi   Cu   Se   O 
    37    36    36    35
Direct
  0.9772418354079022  0.1814926845749838  0.4121259088391085
  0.3563637775037449  0.1814857742637273  0.4120627671681945
  0.6668019546033506  0.1710232872884845  0.4260039291654039
  0.0007165008430405  0.5049659508418642  0.4271507782236981
  0.3328257002592210  0.5049448383174919  0.4271274870677715
  0.6667822045214820  0.5040100826824201  0.4270631458025704
  0.9979230338114817  0.8335398105411969  0.4231360618476003
  0.3356588601567267  0.8335195727681537  0.4231031985265474
  0.6667922643731785  0.8341442809579291  0.4260533554970181
  0.9991810055828623  0.1668868269804662  0.9311414899061603
  0.3344710933332138  0.1668935309331658  0.9311624505281131
  0.6668234315988641  0.1682061709436269  0.9315014885033790
  0.9978208915774331  0.4977610003761015  0.9317217655588692
  0.3358407236946164  0.4977625080843993  0.9317309280311790
  0.6668188136714974  0.4995757316999629  0.9303917504123831
  0.9986192893956840  0.8316021527310440  0.9308167118612616
  0.3350159632457874  0.8316173124353696  0.9308165244313642
  0.6668124283103296  0.8310194777166942  0.9317246558104841
  0.1668278592051564  0.9984461441005408  0.0707214311357447
  0.4998632798229110  0.9989793521170753  0.0715028962009683
  0.8337965026126568  0.9989803367167482  0.0714965012321329
  0.1668252665162839  0.3319505747097864  0.0718718063278487
  0.5003722316477806  0.3326002011708127  0.0726552287218496
  0.8332890660850367  0.3326037162461546  0.0726471829581428
  0.1668265597513852  0.6654327591596427  0.0710955129523114
  0.4999858765874450  0.6656152848396104  0.0723300119627837
  0.8336519509844464  0.6656085668068599  0.0723316152010511
  0.1668419414114624  0.9811856121610703  0.6656069484347427
  0.5006282551747105  0.0022335259633834  0.5653954040771652
  0.8329383509098065  0.0022484208416245  0.5654090059370560
  0.1667852517874095  0.3526930659572116  0.5724915194130631
  0.5005111463417933  0.3382315452738780  0.5681276272949347
  0.8330362669166149  0.3382449219815982  0.5681561593523199
  0.1668011672431504  0.6813742004806684  0.5656276506768378
  0.5017161988979382  0.6692802453787650  0.5686689661530124
  0.8318129401614414  0.6692805711573371  0.5686797230776577
  0.1668153281575684  0.0541596351059042  0.5107484222926288
  0.9981604840685989  0.9985406479769381  0.2492170045663897
  0.3354572507438860  0.9985187784611398  0.2492237040327296
  0.6668558333325123  0.0013478404655487  0.2457552617764378
  0.0029409759701977  0.3350242300341364  0.2470192375625473
  0.3306590798445654  0.3350461861935088  0.2470187664225207
  0.6668552010895041  0.3279040293359827  0.2445177054755661
  0.0013305385532405  0.6668291223241454  0.2483103725882785
  0.3322417342583819  0.6668177280340615  0.2483131433408445
  0.6668089067215917  0.6683603868369374  0.2484167979046390
  0.9788752939994367  0.0090592156255198  0.7580029762071732
  0.3544934323365823  0.0093844190456878  0.7582102652505043
  0.6667887030718163  0.0042386206797715  0.7474936597405275
  0.9998780484492826  0.3396204976927919  0.7522666500194788
  0.3337456646346766  0.3396206085795370  0.7522650855895776
  0.6668017901196279  0.3346062078449563  0.7490623498347375
  0.0035139889218172  0.6537402088707864  0.7559472236972624
  0.3300570734705772  0.6538957222293718  0.7559090862041415
  0.6667682172933098  0.6669768853285731  0.7487182446051790
  0.1668103436109689  0.1692945232047691  0.2508026602710842
  0.5021770944214552  0.1680464940477506  0.2450071384078214
  0.8315406127401204  0.1680439158815545  0.2450343008122218
  0.1668144908782665  0.5012402773147642  0.2488345915516845
  0.4967352626439663  0.5097994388407798  0.2454812367951433
  0.8368859747288866  0.5097906422793059  0.2454951282491251
  0.1668129268694614  0.8319635653618676  0.2490217657093368
  0.4997910515358015  0.8316783579432254  0.2471990220305074
  0.8338617814734803  0.8317152364290692  0.2472136406362537
  0.1668035809144257  0.1836639768768578  0.7527465762013037
  0.5087057213989254  0.1686602328706641  0.7510993154459413
  0.8248850654485267  0.1686316453566903  0.7510957103904019
  0.1668102073002018  0.4967353508940562  0.7504075324294845
  0.5019137763214232  0.4978127106452845  0.7492374093543077
  0.8316238093738448  0.4978055325238344  0.7492312317320540
  0.1665517199963347  0.8103474329791283  0.7670844932151510
  0.5161501585385651  0.8363664289699884  0.7565483789971950
  0.8172927326093529  0.8363336660676666  0.7565592508383716
  0.1667941596065319  0.3367190248474401  0.3369603870055400
  0.5019187661241276  0.3388725517094855  0.3323799014585376
  0.8317218637323904  0.3388730054868461  0.3324092584248817
  0.1667817901538555  0.6668587452680299  0.3361877059606897
  0.5002954891105773  0.6679947320256900  0.3362429550576991
  0.8332985445211420  0.6680051142461281  0.3362493633491397
  0.1667990532788721  0.0000854543273121  0.3351301642270172
  0.5038841627746038  0.0025936686474282  0.3334572696257112
  0.8297660077662528  0.0025988887536812  0.3334893056384445
  0.1668227532600497  0.3353450860741347  0.8407995179129557
  0.5007542006321586  0.3330607798120226  0.8372267219559788
  0.8328680999062712  0.3330564712105684  0.8372189650298267
  0.1668381333149682  0.6524089975027820  0.8448417110350590
  0.5012236289547900  0.6634248622056802  0.8364832432387033
  0.8323654938160274  0.6634244217353000  0.8364810633428945
  0.1667953495384609  0.9985909507993114  0.8386028187823982
  0.5084870970693132  0.0015219395318553  0.8420827690663373
  0.8251411272291094  0.0015249478824728  0.8420941321773654
  0.3321261138751623  0.1658696357123759  0.1632544393249233
  0.6668588096531920  0.1656558157602390  0.1585710097515829
  0.0015265179434749  0.1658690617152558  0.1632346446792852
  0.3318608593977785  0.5005624243381348  0.1612058077994405
  0.6668182838635630  0.4984999926078899  0.1647763427230942
  0.0017628024498109  0.5005568540339311  0.1612137859291778
  0.3326752349826023  0.8333927359709676  0.1624778367787982
  0.6668289184911131  0.8330819403846874  0.1620391365221820
  0.0009561304712875  0.8334001026391391  0.1624747006579526
  0.3383347765331735  0.1712621397373724  0.6642584199365160
  0.6667895989122812  0.1683379721448262  0.6591848473346076
  0.9952834472784531  0.1712509215951812  0.6642760120674538
  0.3307553226302957  0.4988091871805906  0.6601011392525820
  0.6667738796023102  0.5007498191365727  0.6608035265224217
  0.0028262018998859  0.4988038654209461  0.6601015512452619
  0.3473168596211167  0.8208137112653802  0.6715041627513827
  0.6667721162230720  0.8358907684589880  0.6594502337927679
  0.9862866927248533  0.8207829759429757  0.6715642857939841
  0.5032992051174503  0.1728746017861909  0.4960790663133352
  0.8302816236531498  0.1728753124385207  0.4961079295967323
  0.1667917440872060  0.5077739915080173  0.5001000388419072
  0.4990131482111195  0.5024781720536211  0.4972889920649592
  0.8345422863722050  0.5024904044465188  0.4973075119263015
  0.1668072557200873  0.8423892079839206  0.4917717211887975
  0.5025715761906611  0.8335898393379040  0.4979789850989889
  0.8310047753458392  0.8336018681033153  0.4979951632922379
  0.1668208695901683  0.1657979754401069  0.0005579006915681
  0.4995563092607469  0.1664353842057054  0.0015396422034826
  0.8340988144354853  0.1664360856549578  0.0015286526206424
  0.1668216417158419  0.4983563381539824  0.0011154753281346
  0.5008934362516158  0.4991520737184985  0.0020786038925849
  0.8327494537567546  0.4991563704756814  0.0020681448081845
  0.1668206454559709  0.8321358861114945  0.9995790938418310
  0.4999445268131311  0.8319007858911789  0.0010170169517636
  0.8336918981047958  0.8318922423805191  0.0010089808402824
  0.9997065668519980  0.9986044305066244  0.0002670799211728
  0.3339471199203103  0.9986082191509453  0.0002791715455714
  0.6668243866297558  0.9987281453627972  0.0010855480695469
  0.9997072742002189  0.3316077555845709  0.0015366749998478
  0.3339460854427259  0.3316070400102547  0.0015506265011567
  0.6668239875151940  0.3335826000387527  0.0020967190085841
  0.9991111286017471  0.6660478139828427  0.0008758031298655
  0.3345337434419662  0.6660529321011595  0.0008791968876096
  0.6668168249659061  0.6652237807041956  0.0018020639155836
  0.9854273347056193  0.0031165417256602  0.4866957078421805
  0.3481855953450506  0.0031184154957273  0.4866448305333080
  0.6667950650443473  0.0037799170828379  0.4964953115115236
  0.0025443150911002  0.3347474690538377  0.4962019377628764
  0.3310180437813415  0.3347189672054185  0.4961709283602360
  0.6667892119569458  0.3382020332179749  0.4974566861938783
  0.0002727891285019  0.6713633671048669  0.4983350461922953
  0.3332976731841200  0.6713501727080029  0.4983091223733993
  0.6667860633050751  0.6673297648031991  0.4978124859146931
 
  0.00000000E+00  0.00000000E+00  0.00000000E+00
  0.00000000E+00  0.00000000E+00  0.00000000E+00
  0.00000000E+00  0.00000000E+00  0.00000000E+00
  0.00000000E+00  0.00000000E+00  0.00000000E+00
  0.00000000E+00  0.00000000E+00  0.00000000E+00
  0.00000000E+00  0.00000000E+00  0.00000000E+00
  0.00000000E+00  0.00000000E+00  0.00000000E+00
  0.00000000E+00  0.00000000E+00  0.00000000E+00
  0.00000000E+00  0.00000000E+00  0.00000000E+00
  0.00000000E+00  0.00000000E+00  0.00000000E+00
  0.00000000E+00  0.00000000E+00  0.00000000E+00
  0.00000000E+00  0.00000000E+00  0.00000000E+00
  0.00000000E+00  0.00000000E+00  0.00000000E+00
  0.00000000E+00  0.00000000E+00  0.00000000E+00
  0.00000000E+00  0.00000000E+00  0.00000000E+00
  0.00000000E+00  0.00000000E+00  0.00000000E+00
  0.00000000E+00  0.00000000E+00  0.00000000E+00
  0.00000000E+00  0.00000000E+00  0.00000000E+00
  0.00000000E+00  0.00000000E+00  0.00000000E+00
  0.00000000E+00  0.00000000E+00  0.00000000E+00
  0.00000000E+00  0.00000000E+00  0.00000000E+00
  0.00000000E+00  0.00000000E+00  0.00000000E+00
  0.00000000E+00  0.00000000E+00  0.00000000E+00
  0.00000000E+00  0.00000000E+00  0.00000000E+00
  0.00000000E+00  0.00000000E+00  0.00000000E+00
  0.00000000E+00  0.00000000E+00  0.00000000E+00
  0.00000000E+00  0.00000000E+00  0.00000000E+00
  0.00000000E+00  0.00000000E+00  0.00000000E+00
  0.00000000E+00  0.00000000E+00  0.00000000E+00
  0.00000000E+00  0.00000000E+00  0.00000000E+00
  0.00000000E+00  0.00000000E+00  0.00000000E+00
  0.00000000E+00  0.00000000E+00  0.00000000E+00
  0.00000000E+00  0.00000000E+00  0.00000000E+00
  0.00000000E+00  0.00000000E+00  0.00000000E+00
  0.00000000E+00  0.00000000E+00  0.00000000E+00
  0.00000000E+00  0.00000000E+00  0.00000000E+00
  0.00000000E+00  0.00000000E+00  0.00000000E+00
  0.00000000E+00  0.00000000E+00  0.00000000E+00
  0.00000000E+00  0.00000000E+00  0.00000000E+00
  0.00000000E+00  0.00000000E+00  0.00000000E+00
  0.00000000E+00  0.00000000E+00  0.00000000E+00
  0.00000000E+00  0.00000000E+00  0.00000000E+00
  0.00000000E+00  0.00000000E+00  0.00000000E+00
  0.00000000E+00  0.00000000E+00  0.00000000E+00
  0.00000000E+00  0.00000000E+00  0.00000000E+00
  0.00000000E+00  0.00000000E+00  0.00000000E+00
  0.00000000E+00  0.00000000E+00  0.00000000E+00
  0.00000000E+00  0.00000000E+00  0.00000000E+00
  0.00000000E+00  0.00000000E+00  0.00000000E+00
  0.00000000E+00  0.00000000E+00  0.00000000E+00
  0.00000000E+00  0.00000000E+00  0.00000000E+00
  0.00000000E+00  0.00000000E+00  0.00000000E+00
  0.00000000E+00  0.00000000E+00  0.00000000E+00
  0.00000000E+00  0.00000000E+00  0.00000000E+00
  0.00000000E+00  0.00000000E+00  0.00000000E+00
  0.00000000E+00  0.00000000E+00  0.00000000E+00
  0.00000000E+00  0.00000000E+00  0.00000000E+00
  0.00000000E+00  0.00000000E+00  0.00000000E+00
  0.00000000E+00  0.00000000E+00  0.00000000E+00
  0.00000000E+00  0.00000000E+00  0.00000000E+00
  0.00000000E+00  0.00000000E+00  0.00000000E+00
  0.00000000E+00  0.00000000E+00  0.00000000E+00
  0.00000000E+00  0.00000000E+00  0.00000000E+00
  0.00000000E+00  0.00000000E+00  0.00000000E+00
  0.00000000E+00  0.00000000E+00  0.00000000E+00
  0.00000000E+00  0.00000000E+00  0.00000000E+00
  0.00000000E+00  0.00000000E+00  0.00000000E+00
  0.00000000E+00  0.00000000E+00  0.00000000E+00
  0.00000000E+00  0.00000000E+00  0.00000000E+00
  0.00000000E+00  0.00000000E+00  0.00000000E+00
  0.00000000E+00  0.00000000E+00  0.00000000E+00
  0.00000000E+00  0.00000000E+00  0.00000000E+00
  0.00000000E+00  0.00000000E+00  0.00000000E+00
  0.00000000E+00  0.00000000E+00  0.00000000E+00
  0.00000000E+00  0.00000000E+00  0.00000000E+00
  0.00000000E+00  0.00000000E+00  0.00000000E+00
  0.00000000E+00  0.00000000E+00  0.00000000E+00
  0.00000000E+00  0.00000000E+00  0.00000000E+00
  0.00000000E+00  0.00000000E+00  0.00000000E+00
  0.00000000E+00  0.00000000E+00  0.00000000E+00
  0.00000000E+00  0.00000000E+00  0.00000000E+00
  0.00000000E+00  0.00000000E+00  0.00000000E+00
  0.00000000E+00  0.00000000E+00  0.00000000E+00
  0.00000000E+00  0.00000000E+00  0.00000000E+00
  0.00000000E+00  0.00000000E+00  0.00000000E+00
  0.00000000E+00  0.00000000E+00  0.00000000E+00
  0.00000000E+00  0.00000000E+00  0.00000000E+00
  0.00000000E+00  0.00000000E+00  0.00000000E+00
  0.00000000E+00  0.00000000E+00  0.00000000E+00
  0.00000000E+00  0.00000000E+00  0.00000000E+00
  0.00000000E+00  0.00000000E+00  0.00000000E+00
  0.00000000E+00  0.00000000E+00  0.00000000E+00
  0.00000000E+00  0.00000000E+00  0.00000000E+00
  0.00000000E+00  0.00000000E+00  0.00000000E+00
  0.00000000E+00  0.00000000E+00  0.00000000E+00
  0.00000000E+00  0.00000000E+00  0.00000000E+00
  0.00000000E+00  0.00000000E+00  0.00000000E+00
  0.00000000E+00  0.00000000E+00  0.00000000E+00
  0.00000000E+00  0.00000000E+00  0.00000000E+00
  0.00000000E+00  0.00000000E+00  0.00000000E+00
  0.00000000E+00  0.00000000E+00  0.00000000E+00
  0.00000000E+00  0.00000000E+00  0.00000000E+00
  0.00000000E+00  0.00000000E+00  0.00000000E+00
  0.00000000E+00  0.00000000E+00  0.00000000E+00
  0.00000000E+00  0.00000000E+00  0.00000000E+00
  0.00000000E+00  0.00000000E+00  0.00000000E+00
  0.00000000E+00  0.00000000E+00  0.00000000E+00
  0.00000000E+00  0.00000000E+00  0.00000000E+00
  0.00000000E+00  0.00000000E+00  0.00000000E+00
  0.00000000E+00  0.00000000E+00  0.00000000E+00
  0.00000000E+00  0.00000000E+00  0.00000000E+00
  0.00000000E+00  0.00000000E+00  0.00000000E+00
  0.00000000E+00  0.00000000E+00  0.00000000E+00
  0.00000000E+00  0.00000000E+00  0.00000000E+00
  0.00000000E+00  0.00000000E+00  0.00000000E+00
  0.00000000E+00  0.00000000E+00  0.00000000E+00
  0.00000000E+00  0.00000000E+00  0.00000000E+00
  0.00000000E+00  0.00000000E+00  0.00000000E+00
  0.00000000E+00  0.00000000E+00  0.00000000E+00
  0.00000000E+00  0.00000000E+00  0.00000000E+00
  0.00000000E+00  0.00000000E+00  0.00000000E+00
  0.00000000E+00  0.00000000E+00  0.00000000E+00
  0.00000000E+00  0.00000000E+00  0.00000000E+00
  0.00000000E+00  0.00000000E+00  0.00000000E+00
  0.00000000E+00  0.00000000E+00  0.00000000E+00
  0.00000000E+00  0.00000000E+00  0.00000000E+00
  0.00000000E+00  0.00000000E+00  0.00000000E+00
  0.00000000E+00  0.00000000E+00  0.00000000E+00
  0.00000000E+00  0.00000000E+00  0.00000000E+00
  0.00000000E+00  0.00000000E+00  0.00000000E+00
  0.00000000E+00  0.00000000E+00  0.00000000E+00
  0.00000000E+00  0.00000000E+00  0.00000000E+00
  0.00000000E+00  0.00000000E+00  0.00000000E+00
  0.00000000E+00  0.00000000E+00  0.00000000E+00
  0.00000000E+00  0.00000000E+00  0.00000000E+00
  0.00000000E+00  0.00000000E+00  0.00000000E+00
  0.00000000E+00  0.00000000E+00  0.00000000E+00
  0.00000000E+00  0.00000000E+00  0.00000000E+00
  0.00000000E+00  0.00000000E+00  0.00000000E+00
  0.00000000E+00  0.00000000E+00  0.00000000E+00
  0.00000000E+00  0.00000000E+00  0.00000000E+00
  0.00000000E+00  0.00000000E+00  0.00000000E+00
  0.00000000E+00  0.00000000E+00  0.00000000E+00
  0.00000000E+00  0.00000000E+00  0.00000000E+00
