supercell of POSCAR                     
   1.03600000000000     
     9.6051007291200001   -5.6678653607799996   -9.9907275475200006
     9.5551777488200003    5.5783510108199996    9.9928581731800001
    -1.5573508785200001   -8.3719044994900003    4.9655686364999996
   Al   Gd   N    O 
    72    24    95     1
Direct
  0.3016419891038211  0.2887428803908847  0.5381476034858537
  0.1435393347439344  0.2437918478216545  0.3111263858057498
  0.3085909413707739  0.4093848167931711  0.3107630514256314
  0.4635029937810202  0.3254360580994273  0.7882899342227532
  0.1416019472058920  0.4977630197928633  0.7843232566724865
  0.2997761899499309  0.1690522760622954  0.7819801301997913
  0.4697708276809678  0.4462414213540598  0.5329388241411692
  0.1414539957883960  0.1200497347778011  0.5322810380543217
  0.4792020038817526  0.0716029934111688  0.2972650598913091
  0.2774739141556566  0.1085483288316738  0.3344771438485168
  0.1159845771225321  0.0700625699334410  0.1018846460501592
  0.1145688539393959  0.1960010424890299  0.8169062806124359
  0.2740737641508133  0.3558273986088665  0.8123091926019939
  0.1123185930915156  0.3243389861460244  0.5891541575214347
  0.2708845518277840  0.4850042445780431  0.5767227181311299
  0.4489790669605611  0.2801013599692794  0.3355549977869927
  0.1117514897264371  0.4454534228667555  0.3408166934087049
  0.4483468183909451  0.4042960808883578  0.1031714880436283
  0.8011934474348053  0.2887218050459026  0.5392579945107627
  0.6438079003000681  0.2438974330070849  0.3118844684014093
  0.8083951449664539  0.4092549473761835  0.3112774103656477
  0.9628109332287380  0.3252488109649363  0.7894668594194272
  0.6418227000534600  0.4982524009455105  0.7841745109485601
  0.7951471625822251  0.1653163944815716  0.7798748400587030
  0.9696695558348978  0.4460815688375277  0.5334974638141574
  0.6440899387203629  0.1195680406365227  0.5387761261959128
  0.9789539588994103  0.0719001680389937  0.2982140347024469
  0.7764855155235892  0.1088316972359706  0.3364682237295327
  0.6155919358350772  0.0706385906733047  0.1013245711813937
  0.6151509267812330  0.1961357628228839  0.8170307228457148
  0.7744461386711805  0.3556198329751155  0.8124697228968714
  0.6123188973378433  0.3247133492329581  0.5890069105985418
  0.7708487792042575  0.4852459369828921  0.5768561621116035
  0.9487507194630069  0.2800233628478068  0.3369466738495035
  0.6118658612869794  0.4454720732779052  0.3403003303888141
  0.9481869853849716  0.4047535297249070  0.1037947375392321
  0.3012281655141322  0.7877160709875213  0.5380515744326146
  0.1437351691734179  0.7433897752716305  0.3113864607354628
  0.3089479700801760  0.9086303162157066  0.3086692795893100
  0.4627652898073151  0.8250207133363219  0.7887509641650254
  0.1382944908247268  0.9946392480280224  0.7860827757360553
  0.2951530311970529  0.6646486507231018  0.7794796186051940
  0.4700060941545985  0.9462663122418178  0.5322524954698764
  0.1433691750822703  0.6189710855799717  0.5387401517438164
  0.4789972646310616  0.5712896447360905  0.2985782856234209
  0.2761408191226948  0.6083429760824117  0.3360892643174793
  0.1150472755696086  0.5704558592253406  0.1011421819815155
  0.1147234363254981  0.6957436199273275  0.8164477764246243
  0.2752049827191172  0.8547552910710792  0.8115989440251141
  0.1116245431687091  0.8235501947535084  0.5877294468410597
  0.2734858450777438  0.9809310579353649  0.5713061255777632
  0.4488439090780716  0.7799769602749080  0.3361332577190055
  0.1116919018985669  0.9441917900471637  0.3386541193410437
  0.4484754849981130  0.9044654556158704  0.1037892472609485
  0.8011780635725145  0.7885996121826437  0.5390063486103429
  0.6438657576043312  0.7441049670026558  0.3121557448490861
  0.8085552100237052  0.9091911762873295  0.3107639523428958
  0.9626020881886390  0.8253855546394817  0.7892016177141983
  0.6425690483625885  0.9984110870293676  0.7843850086747537
  0.7953990874043342  0.6650440705998477  0.7794021597621281
  0.9694118154142970  0.9461747051078362  0.5327956969864402
  0.6434737266732569  0.6194124616560686  0.5386827880379812
  0.9791065029503656  0.5715071710058837  0.2986414457396904
  0.7760327217269420  0.6086633268968313  0.3362426383540580
  0.6150485563085155  0.5701690730544229  0.1005032653567852
  0.6149762698913221  0.6959339261410662  0.8164613822829949
  0.7744615957793002  0.8554572109033316  0.8121741219145591
  0.6120260151506614  0.8245073920725119  0.5890161535225644
  0.7708405353273804  0.9851230325683602  0.5764675574645892
  0.9485758185798048  0.7797930747653226  0.3358140795594267
  0.6119829945844373  0.9456337664162291  0.3401649382677903
  0.9487842696919202  0.9044398448690885  0.1030212790258318
  0.4822321037062380  0.1942500460829137  0.0384559847653705
  0.1346228317207192  0.3654989353941289  0.0335975712538001
  0.3082055022180228  0.0210746600811191  0.0375828054407918
  0.2840102785381617  0.2344201488769926  0.0830874165729441
  0.4500829857432294  0.0187109440857682  0.8177277551912709
  0.4453227106873072  0.1554148870452963  0.5703372159621836
  0.9820504003016097  0.1953174785402965  0.0407894814420473
  0.6355580366956346  0.3650588680471927  0.0328697149739767
  0.8075523898560704  0.0210617773037285  0.0410094641160654
  0.7842176812532315  0.2340902327986143  0.0831799565265001
  0.9470183475273899  0.0210673104945442  0.8194651276878417
  0.9433972932495962  0.1558903935785807  0.5729611315468688
  0.4831135351873428  0.6949323527626134  0.0392248481766302
  0.1364953240733584  0.8648795027662857  0.0316758615417356
  0.3074977989968701  0.5210883252095186  0.0401692096500383
  0.2844233019256208  0.7332993858681363  0.0824644581259193
  0.4480592889156014  0.5195373300932431  0.8190513843077127
  0.4435288557807624  0.6552885244613762  0.5722389145755500
  0.9827493516354906  0.6951278363104052  0.0393091171751792
  0.6354026881114123  0.8653092812322285  0.0327041908170287
  0.8075022067189082  0.5213262031161960  0.0405172151833213
  0.7841378229405080  0.7339103270760958  0.0826951130404723
  0.9479275228075892  0.5198506356531283  0.8194411504130699
  0.9433220754651614  0.6551851736485332  0.5719639285164817
  0.2377758357494812  0.3674958576955234  0.6264623107130305
  0.0754797773507221  0.3243775177355559  0.4005219159750339
  0.2390042991228825  0.4898297050706688  0.3908585478531137
  0.4276015781755049  0.2921818316829601  0.1555119847755932
  0.0695251731867614  0.4573240152762281  0.1528261703524194
  0.2357805969530418  0.1031588431281989  0.1547326770208315
  0.3993157933079843  0.3927846394412455  0.9076676717724013
  0.0944859346066309  0.0818608739974707  0.8978928015063588
  0.2337668034129834  0.2430530193399179  0.8648619100979786
  0.3948793808595497  0.0168827297382848  0.6083737458976444
  0.0912821814161973  0.2015632981181881  0.6316993517189502
  0.4046034277136670  0.1555150795121421  0.3533007707523979
  0.2200667150412770  0.1899424420669504  0.4350543383729146
  0.0624267219650889  0.1451733089830327  0.2088072583759697
  0.2157366445720044  0.3201776799415228  0.2103065725348685
  0.3652357017435932  0.1160495198669338  0.9047594966611356
  0.0413830725698006  0.2676379143345571  0.8854963913072069
  0.2093543185954445  0.4346744379821175  0.8896394844516706
  0.3674779325883222  0.2453861679368501  0.6798610887565744
  0.0396557987329587  0.4058056475369938  0.6833443818451954
  0.3820194113091944  0.3523134521297422  0.4326736604375157
  0.0500777722580423  0.0254034892138648  0.4401803867210035
  0.3908880930714176  0.4749060912713006  0.2098093829990475
  0.7376519754195030  0.3681911096519244  0.6267789557554124
  0.5751725846909537  0.3249173904196354  0.4001167491455817
  0.7390149801708787  0.4901306845115556  0.3909420389777267
  0.9280735521073709  0.2930140911323917  0.1572322836157198
  0.5696039672792708  0.4570623856501683  0.1519793065565977
  0.7352231850123161  0.1035769034239564  0.1565965109454055
  0.9000510258568113  0.3935402619418937  0.9092122304718444
  0.5937465838741076  0.0833879180841492  0.9025413999014162
  0.7335221582531659  0.2447732510025986  0.8678882278251123
  0.8955157806014284  0.0164364456780461  0.6088940599160821
  0.5907953356695259  0.2036367302558659  0.6323118525779066
  0.9047803697332668  0.1553224536443025  0.3550208092757430
  0.7196359391702529  0.1910000951523330  0.4351898055608814
  0.5620353145395285  0.1459897126384604  0.2086112042495856
  0.7158668388077487  0.3205189495768579  0.2106165801016644
  0.8647256855369250  0.1176695123177822  0.9105289682360649
  0.5411967542917608  0.2682251342742674  0.8855814995319378
  0.7097903647078425  0.4355290726876504  0.8893394212951691
  0.8667923505759560  0.2463881447504619  0.6825926599022409
  0.5393966973746203  0.4065320619163231  0.6833160488473951
  0.7123495417760637  0.0681161299795932  0.6712108172401869
  0.8820775673589196  0.3523658242750969  0.4334501874971224
  0.5488323438559064  0.0263703289528578  0.4399624417749664
  0.8907380804094203  0.4751528826660874  0.2104973528196012
  0.2371567403143118  0.8680375026703402  0.6258207039569967
  0.0753025757563250  0.8247031977056309  0.3994378461216073
  0.2387207768361392  0.9903024115748664  0.3907927853792259
  0.4278378563567742  0.7924842518425876  0.1563870825796698
  0.0704619408148091  0.9565053105321297  0.1513238651559803
  0.2347721705356207  0.6031093461598047  0.1562234764784307
  0.3997409520113422  0.8938550724906946  0.9086071918314573
  0.0930971526179434  0.5830324753218790  0.9020927281726259
  0.2332798260048605  0.7444040348097190  0.8672906519407633
  0.3952391958540389  0.5161622660179574  0.6089860535030098
  0.0898170614383744  0.7032462649617912  0.6316256763378121
  0.4042301352460029  0.6554497035921187  0.3542113457917750
  0.2192710900970667  0.6906206954330401  0.4350906104986336
  0.0618314761513972  0.6456211874068032  0.2092961760348615
  0.2159451031382105  0.8202405745506596  0.2100063152254421
  0.3653013373677467  0.6174624596833098  0.9097622682501694
  0.0416025855232860  0.7688543343744954  0.8852548903086799
  0.2102220503757195  0.9354700604977353  0.8861254018588554
  0.3663658676155706  0.7465013758747645  0.6821743993310321
  0.0403633455702206  0.9069840334970038  0.6819870945335040
  0.2118558814734044  0.5676710231090567  0.6713512907901489
  0.3817415977901746  0.8527233513635508  0.4330789977529861
  0.0489398210674565  0.5256699037511581  0.4402514635250441
  0.3905103523297484  0.9753293315575959  0.2090316831909291
  0.7375174648288478  0.8681360431521838  0.6265366356781215
  0.5750926777220897  0.8252577852649381  0.4003044523960924
  0.7391935784407480  0.9901399614262445  0.3907354437693158
  0.9277945071280271  0.7926968536309644  0.1561695713702917
  0.5697260295646842  0.9573452654177359  0.1523529818395915
  0.7346260702357057  0.6034997573476488  0.1562918109740821
  0.9002819816909025  0.8941803619922908  0.9081719502882279
  0.5929518898780302  0.5832502154346031  0.9021802326367450
  0.7335279852733194  0.7444889772776691  0.8672300542749696
  0.8953301097600317  0.5161839380039481  0.6092558816117020
  0.5897493922974419  0.7034796657268743  0.6317697810005356
  0.9041393357142340  0.6553425509819988  0.3539309715410042
  0.7193800676226942  0.6910267816153777  0.4352387348971547
  0.5620227583137236  0.6455732837708723  0.2096794863872944
  0.7158259235290032  0.8205422688447612  0.2102870918930435
  0.8652111972241983  0.6174274684982493  0.9097018333864568
  0.5413411761999924  0.7684615524834797  0.8850644202924087
  0.7100472016987851  0.9353545004649604  0.8893130993963823
  0.8670325079512580  0.7465550344386358  0.6820716874845516
  0.5390773162293172  0.9073544350490437  0.6837932074241877
  0.7119462266153249  0.5681604700222493  0.6712369565579124
  0.8822031870293969  0.8524604881138274  0.4331639261647098
  0.5489479737081453  0.5259078637328045  0.4400053376949487
  0.8916279859562266  0.9749797104628328  0.2104801697067202
  0.2115651590918048  0.0663435903983967  0.6679525778024811
 
  0.00000000E+00  0.00000000E+00  0.00000000E+00
  0.00000000E+00  0.00000000E+00  0.00000000E+00
  0.00000000E+00  0.00000000E+00  0.00000000E+00
  0.00000000E+00  0.00000000E+00  0.00000000E+00
  0.00000000E+00  0.00000000E+00  0.00000000E+00
  0.00000000E+00  0.00000000E+00  0.00000000E+00
  0.00000000E+00  0.00000000E+00  0.00000000E+00
  0.00000000E+00  0.00000000E+00  0.00000000E+00
  0.00000000E+00  0.00000000E+00  0.00000000E+00
  0.00000000E+00  0.00000000E+00  0.00000000E+00
  0.00000000E+00  0.00000000E+00  0.00000000E+00
  0.00000000E+00  0.00000000E+00  0.00000000E+00
  0.00000000E+00  0.00000000E+00  0.00000000E+00
  0.00000000E+00  0.00000000E+00  0.00000000E+00
  0.00000000E+00  0.00000000E+00  0.00000000E+00
  0.00000000E+00  0.00000000E+00  0.00000000E+00
  0.00000000E+00  0.00000000E+00  0.00000000E+00
  0.00000000E+00  0.00000000E+00  0.00000000E+00
  0.00000000E+00  0.00000000E+00  0.00000000E+00
  0.00000000E+00  0.00000000E+00  0.00000000E+00
  0.00000000E+00  0.00000000E+00  0.00000000E+00
  0.00000000E+00  0.00000000E+00  0.00000000E+00
  0.00000000E+00  0.00000000E+00  0.00000000E+00
  0.00000000E+00  0.00000000E+00  0.00000000E+00
  0.00000000E+00  0.00000000E+00  0.00000000E+00
  0.00000000E+00  0.00000000E+00  0.00000000E+00
  0.00000000E+00  0.00000000E+00  0.00000000E+00
  0.00000000E+00  0.00000000E+00  0.00000000E+00
  0.00000000E+00  0.00000000E+00  0.00000000E+00
  0.00000000E+00  0.00000000E+00  0.00000000E+00
  0.00000000E+00  0.00000000E+00  0.00000000E+00
  0.00000000E+00  0.00000000E+00  0.00000000E+00
  0.00000000E+00  0.00000000E+00  0.00000000E+00
  0.00000000E+00  0.00000000E+00  0.00000000E+00
  0.00000000E+00  0.00000000E+00  0.00000000E+00
  0.00000000E+00  0.00000000E+00  0.00000000E+00
  0.00000000E+00  0.00000000E+00  0.00000000E+00
  0.00000000E+00  0.00000000E+00  0.00000000E+00
  0.00000000E+00  0.00000000E+00  0.00000000E+00
  0.00000000E+00  0.00000000E+00  0.00000000E+00
  0.00000000E+00  0.00000000E+00  0.00000000E+00
  0.00000000E+00  0.00000000E+00  0.00000000E+00
  0.00000000E+00  0.00000000E+00  0.00000000E+00
  0.00000000E+00  0.00000000E+00  0.00000000E+00
  0.00000000E+00  0.00000000E+00  0.00000000E+00
  0.00000000E+00  0.00000000E+00  0.00000000E+00
  0.00000000E+00  0.00000000E+00  0.00000000E+00
  0.00000000E+00  0.00000000E+00  0.00000000E+00
  0.00000000E+00  0.00000000E+00  0.00000000E+00
  0.00000000E+00  0.00000000E+00  0.00000000E+00
  0.00000000E+00  0.00000000E+00  0.00000000E+00
  0.00000000E+00  0.00000000E+00  0.00000000E+00
  0.00000000E+00  0.00000000E+00  0.00000000E+00
  0.00000000E+00  0.00000000E+00  0.00000000E+00
  0.00000000E+00  0.00000000E+00  0.00000000E+00
  0.00000000E+00  0.00000000E+00  0.00000000E+00
  0.00000000E+00  0.00000000E+00  0.00000000E+00
  0.00000000E+00  0.00000000E+00  0.00000000E+00
  0.00000000E+00  0.00000000E+00  0.00000000E+00
  0.00000000E+00  0.00000000E+00  0.00000000E+00
  0.00000000E+00  0.00000000E+00  0.00000000E+00
  0.00000000E+00  0.00000000E+00  0.00000000E+00
  0.00000000E+00  0.00000000E+00  0.00000000E+00
  0.00000000E+00  0.00000000E+00  0.00000000E+00
  0.00000000E+00  0.00000000E+00  0.00000000E+00
  0.00000000E+00  0.00000000E+00  0.00000000E+00
  0.00000000E+00  0.00000000E+00  0.00000000E+00
  0.00000000E+00  0.00000000E+00  0.00000000E+00
  0.00000000E+00  0.00000000E+00  0.00000000E+00
  0.00000000E+00  0.00000000E+00  0.00000000E+00
  0.00000000E+00  0.00000000E+00  0.00000000E+00
  0.00000000E+00  0.00000000E+00  0.00000000E+00
  0.00000000E+00  0.00000000E+00  0.00000000E+00
  0.00000000E+00  0.00000000E+00  0.00000000E+00
  0.00000000E+00  0.00000000E+00  0.00000000E+00
  0.00000000E+00  0.00000000E+00  0.00000000E+00
  0.00000000E+00  0.00000000E+00  0.00000000E+00
  0.00000000E+00  0.00000000E+00  0.00000000E+00
  0.00000000E+00  0.00000000E+00  0.00000000E+00
  0.00000000E+00  0.00000000E+00  0.00000000E+00
  0.00000000E+00  0.00000000E+00  0.00000000E+00
  0.00000000E+00  0.00000000E+00  0.00000000E+00
  0.00000000E+00  0.00000000E+00  0.00000000E+00
  0.00000000E+00  0.00000000E+00  0.00000000E+00
  0.00000000E+00  0.00000000E+00  0.00000000E+00
  0.00000000E+00  0.00000000E+00  0.00000000E+00
  0.00000000E+00  0.00000000E+00  0.00000000E+00
  0.00000000E+00  0.00000000E+00  0.00000000E+00
  0.00000000E+00  0.00000000E+00  0.00000000E+00
  0.00000000E+00  0.00000000E+00  0.00000000E+00
  0.00000000E+00  0.00000000E+00  0.00000000E+00
  0.00000000E+00  0.00000000E+00  0.00000000E+00
  0.00000000E+00  0.00000000E+00  0.00000000E+00
  0.00000000E+00  0.00000000E+00  0.00000000E+00
  0.00000000E+00  0.00000000E+00  0.00000000E+00
  0.00000000E+00  0.00000000E+00  0.00000000E+00
  0.00000000E+00  0.00000000E+00  0.00000000E+00
  0.00000000E+00  0.00000000E+00  0.00000000E+00
  0.00000000E+00  0.00000000E+00  0.00000000E+00
  0.00000000E+00  0.00000000E+00  0.00000000E+00
  0.00000000E+00  0.00000000E+00  0.00000000E+00
  0.00000000E+00  0.00000000E+00  0.00000000E+00
  0.00000000E+00  0.00000000E+00  0.00000000E+00
  0.00000000E+00  0.00000000E+00  0.00000000E+00
  0.00000000E+00  0.00000000E+00  0.00000000E+00
  0.00000000E+00  0.00000000E+00  0.00000000E+00
  0.00000000E+00  0.00000000E+00  0.00000000E+00
  0.00000000E+00  0.00000000E+00  0.00000000E+00
  0.00000000E+00  0.00000000E+00  0.00000000E+00
  0.00000000E+00  0.00000000E+00  0.00000000E+00
  0.00000000E+00  0.00000000E+00  0.00000000E+00
  0.00000000E+00  0.00000000E+00  0.00000000E+00
  0.00000000E+00  0.00000000E+00  0.00000000E+00
  0.00000000E+00  0.00000000E+00  0.00000000E+00
  0.00000000E+00  0.00000000E+00  0.00000000E+00
  0.00000000E+00  0.00000000E+00  0.00000000E+00
  0.00000000E+00  0.00000000E+00  0.00000000E+00
  0.00000000E+00  0.00000000E+00  0.00000000E+00
  0.00000000E+00  0.00000000E+00  0.00000000E+00
  0.00000000E+00  0.00000000E+00  0.00000000E+00
  0.00000000E+00  0.00000000E+00  0.00000000E+00
  0.00000000E+00  0.00000000E+00  0.00000000E+00
  0.00000000E+00  0.00000000E+00  0.00000000E+00
  0.00000000E+00  0.00000000E+00  0.00000000E+00
  0.00000000E+00  0.00000000E+00  0.00000000E+00
  0.00000000E+00  0.00000000E+00  0.00000000E+00
  0.00000000E+00  0.00000000E+00  0.00000000E+00
  0.00000000E+00  0.00000000E+00  0.00000000E+00
  0.00000000E+00  0.00000000E+00  0.00000000E+00
  0.00000000E+00  0.00000000E+00  0.00000000E+00
  0.00000000E+00  0.00000000E+00  0.00000000E+00
  0.00000000E+00  0.00000000E+00  0.00000000E+00
  0.00000000E+00  0.00000000E+00  0.00000000E+00
  0.00000000E+00  0.00000000E+00  0.00000000E+00
  0.00000000E+00  0.00000000E+00  0.00000000E+00
  0.00000000E+00  0.00000000E+00  0.00000000E+00
  0.00000000E+00  0.00000000E+00  0.00000000E+00
  0.00000000E+00  0.00000000E+00  0.00000000E+00
  0.00000000E+00  0.00000000E+00  0.00000000E+00
  0.00000000E+00  0.00000000E+00  0.00000000E+00
  0.00000000E+00  0.00000000E+00  0.00000000E+00
  0.00000000E+00  0.00000000E+00  0.00000000E+00
  0.00000000E+00  0.00000000E+00  0.00000000E+00
  0.00000000E+00  0.00000000E+00  0.00000000E+00
  0.00000000E+00  0.00000000E+00  0.00000000E+00
  0.00000000E+00  0.00000000E+00  0.00000000E+00
  0.00000000E+00  0.00000000E+00  0.00000000E+00
  0.00000000E+00  0.00000000E+00  0.00000000E+00
  0.00000000E+00  0.00000000E+00  0.00000000E+00
  0.00000000E+00  0.00000000E+00  0.00000000E+00
  0.00000000E+00  0.00000000E+00  0.00000000E+00
  0.00000000E+00  0.00000000E+00  0.00000000E+00
  0.00000000E+00  0.00000000E+00  0.00000000E+00
  0.00000000E+00  0.00000000E+00  0.00000000E+00
  0.00000000E+00  0.00000000E+00  0.00000000E+00
  0.00000000E+00  0.00000000E+00  0.00000000E+00
  0.00000000E+00  0.00000000E+00  0.00000000E+00
  0.00000000E+00  0.00000000E+00  0.00000000E+00
  0.00000000E+00  0.00000000E+00  0.00000000E+00
  0.00000000E+00  0.00000000E+00  0.00000000E+00
  0.00000000E+00  0.00000000E+00  0.00000000E+00
  0.00000000E+00  0.00000000E+00  0.00000000E+00
  0.00000000E+00  0.00000000E+00  0.00000000E+00
  0.00000000E+00  0.00000000E+00  0.00000000E+00
  0.00000000E+00  0.00000000E+00  0.00000000E+00
  0.00000000E+00  0.00000000E+00  0.00000000E+00
  0.00000000E+00  0.00000000E+00  0.00000000E+00
  0.00000000E+00  0.00000000E+00  0.00000000E+00
  0.00000000E+00  0.00000000E+00  0.00000000E+00
  0.00000000E+00  0.00000000E+00  0.00000000E+00
  0.00000000E+00  0.00000000E+00  0.00000000E+00
  0.00000000E+00  0.00000000E+00  0.00000000E+00
  0.00000000E+00  0.00000000E+00  0.00000000E+00
  0.00000000E+00  0.00000000E+00  0.00000000E+00
  0.00000000E+00  0.00000000E+00  0.00000000E+00
  0.00000000E+00  0.00000000E+00  0.00000000E+00
  0.00000000E+00  0.00000000E+00  0.00000000E+00
  0.00000000E+00  0.00000000E+00  0.00000000E+00
  0.00000000E+00  0.00000000E+00  0.00000000E+00
  0.00000000E+00  0.00000000E+00  0.00000000E+00
  0.00000000E+00  0.00000000E+00  0.00000000E+00
  0.00000000E+00  0.00000000E+00  0.00000000E+00
  0.00000000E+00  0.00000000E+00  0.00000000E+00
  0.00000000E+00  0.00000000E+00  0.00000000E+00
  0.00000000E+00  0.00000000E+00  0.00000000E+00
  0.00000000E+00  0.00000000E+00  0.00000000E+00
  0.00000000E+00  0.00000000E+00  0.00000000E+00
  0.00000000E+00  0.00000000E+00  0.00000000E+00
  0.00000000E+00  0.00000000E+00  0.00000000E+00
  0.00000000E+00  0.00000000E+00  0.00000000E+00
  0.00000000E+00  0.00000000E+00  0.00000000E+00
  0.00000000E+00  0.00000000E+00  0.00000000E+00
