Al   B    N                             
   1.00000000000000     
    -9.5539694083240398   -0.0000000660315612   -0.0000000284214366
    -4.7769827179538513    8.2739030026172333   -0.0000001684839640
     0.0000006172220107   -0.0000145834809099   -9.3943723533413053
   Al   B    N 
    35     1    36
Direct
  0.1081108133449717  0.0923458029389153  0.3771548134754852
  0.2217789506010917  0.2064421771282028  0.1287510396168940
  0.7777777057090205  0.0944445816351447  0.8753062720075917
  0.8884867676601829  0.2051529147054865  0.6214052312517140
  0.4495434072775168  0.0923458134753901  0.3771548087848586
  0.5635848601730018  0.2015407179415121  0.1351053475167063
  0.1084102562888845  0.0958592365509503  0.8793824841242710
  0.2228339603845342  0.2043321345561395  0.6277101838988841
  0.8848744517527507  0.2015407356476686  0.1351053610866373
  0.4457305198750987  0.0958592448867890  0.8793824778572485
  0.5563603551568548  0.2051529203666931  0.6214052364868081
  0.1111108608047644  0.4277782879119201  0.3798910810713707
  0.2217787831877942  0.5384453246310485  0.1287509024856845
  0.7791921773146271  0.4250775252859782  0.8793824778838584
  0.8876658480602444  0.5395003157946832  0.6277101384885242
  0.4495434116817663  0.4247779461423349  0.3771547950927641
  0.5555052159949341  0.5389896034349135  0.1275721983858205
  0.1111108341732177  0.4277783262610697  0.8769364606822876
  0.2228338869509372  0.5395003131581504  0.6277101232138094
  0.7756786292639646  0.4247779808532286  0.3771548098002810
  0.8897759431443930  0.5384453373946982  0.1287508967939885
  0.4457302813848898  0.4250775143532266  0.8793824792669511
  0.5559578233136975  0.5380843791081489  0.6293301414948971
  0.1081107801121206  0.7662104844333655  0.3771546429127000
  0.2223233251465757  0.8721712451991905  0.1275720856884277
  0.7791922562851923  0.7623977098199575  0.8793823013512210
  0.8884868587914028  0.8730263294626610  0.6214050547613823
  0.4444442534906798  0.7611114680328939  0.3798552136986970
  0.5555054672505975  0.8721712469479783  0.1275720913016940
  0.1084100432973472  0.7623976816423195  0.8793823085881272
  0.2214181830235660  0.8726238460694375  0.6293300665087926
  0.7756787331896291  0.7662104848137261  0.3771546526448972
  0.8848746105760625  0.8802507899485690  0.1351051698784858
  0.4444442216764770  0.7611115454771991  0.8770805774402604
  0.5559580070249197  0.8726238550498309  0.6293300580093515
  0.7777778493802927  0.0944443253048277  0.3942589385208990
  0.2222940595712188  0.2054118894022707  0.3313000398359804
  0.1075300696600792  0.0964496189496344  0.0838263799958057
  0.8881877127939077  0.2048538306360186  0.8243772313561308
  0.7777771366791697  0.0944457783145580  0.5629367859146726
  0.5821103447675355  0.1922780892091964  0.3390110500645349
  0.4460203157206379  0.0964495908179188  0.0838263836523296
  0.2228631065976856  0.2042737762326752  0.8315017437508061
  0.1117197656396556  0.0938155740191959  0.5789658812858889
  0.8756116179132860  0.1922781106076101  0.3390110613144302
  0.7777769406234256  0.0944462164374826  0.0732344727037173
  0.5569585253944709  0.2048538156389483  0.8243772405342611
  0.4444646482688910  0.0938155744785902  0.5789658845317049
  0.2222943917086582  0.5389592560181455  0.3313000698954340
  0.1111112098762987  0.4277775522285836  0.0796607249276704
  0.8876081682548431  0.5395282371369419  0.8315017633327599
  0.7771476500117487  0.4283869728695109  0.5789658730157825
  0.5548074161317160  0.5403852301008598  0.3296295630555832
  0.4460209844470810  0.4241973241788273  0.0838262591541508
  0.2228635903769174  0.5395282453381114  0.8315017578901944
  0.1111111333049308  0.4277777039258410  0.5825114200813175
  0.8887463732556284  0.5389592484100802  0.3313000586257928
  0.7797817326124061  0.4241973132993238  0.0838262526999074
  0.5562940723775753  0.5374119102423833  0.8324855027987894
  0.4444653950579820  0.4283869830967504  0.5789658693715296
  0.2237197845573533  0.8714735876796951  0.3296296355333297
  0.1075305305105445  0.7626880061444581  0.0838263532809336
  0.8881874136118526  0.8736252100531914  0.8243771595850617
  0.7771474586493312  0.7611322621019809  0.5789659001805489
  0.5548066577691415  0.8714735554729529  0.3296296494606423
  0.4444442819643299  0.7611114219057384  0.0791723997524514
  0.2207465087654796  0.8729601961046143  0.8324854289257502
  0.1117202758243323  0.7611322937831986  0.5789658946421454
  0.8756115487329268  0.8987769335963947  0.3390110629546044
  0.7797814770933726  0.7626879763340995  0.0838263509067119
  0.5562933215809949  0.8729601671553908  0.8324854223305422
  0.4444442912942677  0.7611114053522172  0.5830934681910733
 
  0.00000000E+00  0.00000000E+00  0.00000000E+00
  0.00000000E+00  0.00000000E+00  0.00000000E+00
  0.00000000E+00  0.00000000E+00  0.00000000E+00
  0.00000000E+00  0.00000000E+00  0.00000000E+00
  0.00000000E+00  0.00000000E+00  0.00000000E+00
  0.00000000E+00  0.00000000E+00  0.00000000E+00
  0.00000000E+00  0.00000000E+00  0.00000000E+00
  0.00000000E+00  0.00000000E+00  0.00000000E+00
  0.00000000E+00  0.00000000E+00  0.00000000E+00
  0.00000000E+00  0.00000000E+00  0.00000000E+00
  0.00000000E+00  0.00000000E+00  0.00000000E+00
  0.00000000E+00  0.00000000E+00  0.00000000E+00
  0.00000000E+00  0.00000000E+00  0.00000000E+00
  0.00000000E+00  0.00000000E+00  0.00000000E+00
  0.00000000E+00  0.00000000E+00  0.00000000E+00
  0.00000000E+00  0.00000000E+00  0.00000000E+00
  0.00000000E+00  0.00000000E+00  0.00000000E+00
  0.00000000E+00  0.00000000E+00  0.00000000E+00
  0.00000000E+00  0.00000000E+00  0.00000000E+00
  0.00000000E+00  0.00000000E+00  0.00000000E+00
  0.00000000E+00  0.00000000E+00  0.00000000E+00
  0.00000000E+00  0.00000000E+00  0.00000000E+00
  0.00000000E+00  0.00000000E+00  0.00000000E+00
  0.00000000E+00  0.00000000E+00  0.00000000E+00
  0.00000000E+00  0.00000000E+00  0.00000000E+00
  0.00000000E+00  0.00000000E+00  0.00000000E+00
  0.00000000E+00  0.00000000E+00  0.00000000E+00
  0.00000000E+00  0.00000000E+00  0.00000000E+00
  0.00000000E+00  0.00000000E+00  0.00000000E+00
  0.00000000E+00  0.00000000E+00  0.00000000E+00
  0.00000000E+00  0.00000000E+00  0.00000000E+00
  0.00000000E+00  0.00000000E+00  0.00000000E+00
  0.00000000E+00  0.00000000E+00  0.00000000E+00
  0.00000000E+00  0.00000000E+00  0.00000000E+00
  0.00000000E+00  0.00000000E+00  0.00000000E+00
  0.00000000E+00  0.00000000E+00  0.00000000E+00
  0.00000000E+00  0.00000000E+00  0.00000000E+00
  0.00000000E+00  0.00000000E+00  0.00000000E+00
  0.00000000E+00  0.00000000E+00  0.00000000E+00
  0.00000000E+00  0.00000000E+00  0.00000000E+00
  0.00000000E+00  0.00000000E+00  0.00000000E+00
  0.00000000E+00  0.00000000E+00  0.00000000E+00
  0.00000000E+00  0.00000000E+00  0.00000000E+00
  0.00000000E+00  0.00000000E+00  0.00000000E+00
  0.00000000E+00  0.00000000E+00  0.00000000E+00
  0.00000000E+00  0.00000000E+00  0.00000000E+00
  0.00000000E+00  0.00000000E+00  0.00000000E+00
  0.00000000E+00  0.00000000E+00  0.00000000E+00
  0.00000000E+00  0.00000000E+00  0.00000000E+00
  0.00000000E+00  0.00000000E+00  0.00000000E+00
  0.00000000E+00  0.00000000E+00  0.00000000E+00
  0.00000000E+00  0.00000000E+00  0.00000000E+00
  0.00000000E+00  0.00000000E+00  0.00000000E+00
  0.00000000E+00  0.00000000E+00  0.00000000E+00
  0.00000000E+00  0.00000000E+00  0.00000000E+00
  0.00000000E+00  0.00000000E+00  0.00000000E+00
  0.00000000E+00  0.00000000E+00  0.00000000E+00
  0.00000000E+00  0.00000000E+00  0.00000000E+00
  0.00000000E+00  0.00000000E+00  0.00000000E+00
  0.00000000E+00  0.00000000E+00  0.00000000E+00
  0.00000000E+00  0.00000000E+00  0.00000000E+00
  0.00000000E+00  0.00000000E+00  0.00000000E+00
  0.00000000E+00  0.00000000E+00  0.00000000E+00
  0.00000000E+00  0.00000000E+00  0.00000000E+00
  0.00000000E+00  0.00000000E+00  0.00000000E+00
  0.00000000E+00  0.00000000E+00  0.00000000E+00
  0.00000000E+00  0.00000000E+00  0.00000000E+00
  0.00000000E+00  0.00000000E+00  0.00000000E+00
  0.00000000E+00  0.00000000E+00  0.00000000E+00
  0.00000000E+00  0.00000000E+00  0.00000000E+00
  0.00000000E+00  0.00000000E+00  0.00000000E+00
  0.00000000E+00  0.00000000E+00  0.00000000E+00
