Al   B    N                             
   1.00000000000000     
    -9.6930672595792409   -0.0000001038026207    0.0000000849383381
    -4.8465265477705213    8.3944086004723424    0.0000001659768574
    -0.0000013602815811   -0.0000030258329316   -8.9649071020270323
   Al   B    N 
    35     1    36
Direct
  0.1080526952551892  0.0922846742159606  0.3396169974889389
  0.2229595907585988  0.2040811842891443  0.0893449472888292
  0.7777772486969639  0.0944452181553288  0.8409563042204127
  0.8841318166152305  0.2007984668402756  0.5791755250854820
  0.4496626716873493  0.0922847935467246  0.3396169920452294
  0.5557076526416509  0.2054794726665818  0.0940323856340086
  0.1080586664405843  0.0961682241620494  0.8361581071926736
  0.2217531301292368  0.2064941286350148  0.5870504665914140
  0.8888128699467543  0.2054794066423824  0.0940324127175600
  0.4457732638549174  0.0961682836180415  0.8361580817720693
  0.5650695271411337  0.2007985633617935  0.5791754726355762
  0.1111114397318147  0.4277773720300146  0.3365162211885320
  0.2229598725969453  0.5396252511377426  0.0893450175203512
  0.7795009165518962  0.4247253085660532  0.8361580895570029
  0.8898280907323155  0.5384188409993342  0.5870505193049027
  0.4496630847745209  0.4247192501526058  0.3396169480979978
  0.5560551379800387  0.5378895236372472  0.0870010133178951
  0.1111114384300222  0.4277773671361871  0.8397100597008702
  0.2217533625431898  0.5384187492385166  0.5870504965280290
  0.7756174120709360  0.4247194139975363  0.3396169246532850
  0.8874150384307100  0.5396253516859844  0.0893450222585415
  0.4457737195283258  0.4247251508911418  0.8361580599471878
  0.5555389845134968  0.5389218581140796  0.5887109057414719
  0.1080529896734390  0.7663296573521450  0.3396169510941363
  0.2212233600544380  0.8727218858487262  0.0870010252760238
  0.7795007853024316  0.7624402456491524  0.8361581581986641
  0.8841314389014059  0.8817371224547372  0.5791756946031157
  0.4444444184036627  0.7611111381289675  0.3363273935545266
  0.5560547160615741  0.8727220516437981  0.0870010356049349
  0.1080590235254562  0.7624400404262914  0.8361581536627085
  0.2222557289980713  0.8722057079690515  0.5887108299694717
  0.7756172201667297  0.7663297866782059  0.3396169205197168
  0.8888126987615266  0.8723746645657400  0.0940324054733637
  0.4444444312898170  0.7611111402425337  0.8394578273681788
  0.5555385491415450  0.8722058674058673  0.5887108360861575
  0.7777774735585794  0.0944448635983832  0.3115661053035907
  0.2222895674566914  0.2054209207426823  0.3713499503557998
  0.1115426314831609  0.0939193770183522  0.1247635077919895
  0.8884012547046467  0.2050673616347396  0.8797252530947404
  0.7777777402629411  0.0944445682639312  0.6342134426720989
  0.5834749205303353  0.1915957398663934  0.3640479181379206
  0.4445379055022087  0.0939193428616392  0.1247634942771896
  0.2230406006991217  0.2039188563436696  0.8709704566246046
  0.1068951897013051  0.0967931049119528  0.6177775956529175
  0.8749294103560956  0.1915957296813176  0.3640478716714384
  0.7777775139959644  0.0944448550469588  0.1366261528701571
  0.5565316004947647  0.2050673262820126  0.8797252701957063
  0.4463116255731023  0.0967930382483360  0.6177775896025111
  0.2222894725407656  0.5389559423528070  0.3713499250008994
  0.1111108632118203  0.4277781452220211  0.1198208137751138
  0.8872527125060401  0.5397069466732276  0.8709704855847917
  0.7801260817489677  0.4235625716685831  0.6177776055553892
  0.5547056743391465  0.5405888301436761  0.3732621386921053
  0.4445377572794627  0.4282098823018714  0.1247634233646622
  0.2230404298123645  0.5397069792361577  0.8709704843997059
  0.1111108248442250  0.4277782118736724  0.6230612204079122
  0.8887547000096347  0.5389559119102429  0.3713499389793355
  0.7772523257086732  0.4282098962024676  0.1247634114621903
  0.5564985824370368  0.5370030323051083  0.8697509143133573
  0.4463113548126287  0.4235625585503229  0.6177775888630777
  0.2239223010915978  0.8713718910948316  0.3732621475432225
  0.1115425529782712  0.7612049183969063  0.1247634777782096
  0.8884012649571460  0.8731976183596188  0.8797251713645267
  0.7801261899906180  0.7629784475441781  0.6177775985012914
  0.5547059189614956  0.8713718172587974  0.3732621299112537
  0.4444442714832277  0.7611113738898325  0.1189367621685022
  0.2203365497852658  0.8731647826569500  0.8697508947537145
  0.1068952108585322  0.7629785316003392  0.6177775856427843
  0.8749292827673969  0.9001415146210974  0.3640477940764839
  0.7772524577649236  0.7612048542482555  0.1247634439925207
  0.5564987732418203  0.8731647043481985  0.8697509094565277
  0.4444442653664851  0.7611113945067700  0.6239868742457872
 
  0.00000000E+00  0.00000000E+00  0.00000000E+00
  0.00000000E+00  0.00000000E+00  0.00000000E+00
  0.00000000E+00  0.00000000E+00  0.00000000E+00
  0.00000000E+00  0.00000000E+00  0.00000000E+00
  0.00000000E+00  0.00000000E+00  0.00000000E+00
  0.00000000E+00  0.00000000E+00  0.00000000E+00
  0.00000000E+00  0.00000000E+00  0.00000000E+00
  0.00000000E+00  0.00000000E+00  0.00000000E+00
  0.00000000E+00  0.00000000E+00  0.00000000E+00
  0.00000000E+00  0.00000000E+00  0.00000000E+00
  0.00000000E+00  0.00000000E+00  0.00000000E+00
  0.00000000E+00  0.00000000E+00  0.00000000E+00
  0.00000000E+00  0.00000000E+00  0.00000000E+00
  0.00000000E+00  0.00000000E+00  0.00000000E+00
  0.00000000E+00  0.00000000E+00  0.00000000E+00
  0.00000000E+00  0.00000000E+00  0.00000000E+00
  0.00000000E+00  0.00000000E+00  0.00000000E+00
  0.00000000E+00  0.00000000E+00  0.00000000E+00
  0.00000000E+00  0.00000000E+00  0.00000000E+00
  0.00000000E+00  0.00000000E+00  0.00000000E+00
  0.00000000E+00  0.00000000E+00  0.00000000E+00
  0.00000000E+00  0.00000000E+00  0.00000000E+00
  0.00000000E+00  0.00000000E+00  0.00000000E+00
  0.00000000E+00  0.00000000E+00  0.00000000E+00
  0.00000000E+00  0.00000000E+00  0.00000000E+00
  0.00000000E+00  0.00000000E+00  0.00000000E+00
  0.00000000E+00  0.00000000E+00  0.00000000E+00
  0.00000000E+00  0.00000000E+00  0.00000000E+00
  0.00000000E+00  0.00000000E+00  0.00000000E+00
  0.00000000E+00  0.00000000E+00  0.00000000E+00
  0.00000000E+00  0.00000000E+00  0.00000000E+00
  0.00000000E+00  0.00000000E+00  0.00000000E+00
  0.00000000E+00  0.00000000E+00  0.00000000E+00
  0.00000000E+00  0.00000000E+00  0.00000000E+00
  0.00000000E+00  0.00000000E+00  0.00000000E+00
  0.00000000E+00  0.00000000E+00  0.00000000E+00
  0.00000000E+00  0.00000000E+00  0.00000000E+00
  0.00000000E+00  0.00000000E+00  0.00000000E+00
  0.00000000E+00  0.00000000E+00  0.00000000E+00
  0.00000000E+00  0.00000000E+00  0.00000000E+00
  0.00000000E+00  0.00000000E+00  0.00000000E+00
  0.00000000E+00  0.00000000E+00  0.00000000E+00
  0.00000000E+00  0.00000000E+00  0.00000000E+00
  0.00000000E+00  0.00000000E+00  0.00000000E+00
  0.00000000E+00  0.00000000E+00  0.00000000E+00
  0.00000000E+00  0.00000000E+00  0.00000000E+00
  0.00000000E+00  0.00000000E+00  0.00000000E+00
  0.00000000E+00  0.00000000E+00  0.00000000E+00
  0.00000000E+00  0.00000000E+00  0.00000000E+00
  0.00000000E+00  0.00000000E+00  0.00000000E+00
  0.00000000E+00  0.00000000E+00  0.00000000E+00
  0.00000000E+00  0.00000000E+00  0.00000000E+00
  0.00000000E+00  0.00000000E+00  0.00000000E+00
  0.00000000E+00  0.00000000E+00  0.00000000E+00
  0.00000000E+00  0.00000000E+00  0.00000000E+00
  0.00000000E+00  0.00000000E+00  0.00000000E+00
  0.00000000E+00  0.00000000E+00  0.00000000E+00
  0.00000000E+00  0.00000000E+00  0.00000000E+00
  0.00000000E+00  0.00000000E+00  0.00000000E+00
  0.00000000E+00  0.00000000E+00  0.00000000E+00
  0.00000000E+00  0.00000000E+00  0.00000000E+00
  0.00000000E+00  0.00000000E+00  0.00000000E+00
  0.00000000E+00  0.00000000E+00  0.00000000E+00
  0.00000000E+00  0.00000000E+00  0.00000000E+00
  0.00000000E+00  0.00000000E+00  0.00000000E+00
  0.00000000E+00  0.00000000E+00  0.00000000E+00
  0.00000000E+00  0.00000000E+00  0.00000000E+00
  0.00000000E+00  0.00000000E+00  0.00000000E+00
  0.00000000E+00  0.00000000E+00  0.00000000E+00
  0.00000000E+00  0.00000000E+00  0.00000000E+00
  0.00000000E+00  0.00000000E+00  0.00000000E+00
  0.00000000E+00  0.00000000E+00  0.00000000E+00
