Al   B    N                             
   1.00000000000000     
    -9.3432105195767807   -0.0000000207062898   -0.0000001644531662
    -4.6716052430040804    8.0914582373426995   -0.0000005698369497
    -0.0000001766059920    0.0000006090162384   -9.9834341241484506
   Al   B    N 
    35     1    36
Direct
  0.1076582499605365  0.0927370460026467  0.4141642293945864
  0.2221232916526859  0.2057531293643322  0.1641603942741696
  0.7777776273935828  0.0944444055726024  0.9121639811186526
  0.8876573900987665  0.2043237071850044  0.6574792478536580
  0.4496046698986973  0.0927365900583155  0.4141643515289033
  0.5611506264170387  0.2027578532047869  0.1681593073747933
  0.1093416463039887  0.0951989490481893  0.9138170364319862
  0.2223963736880563  0.2052071011079022  0.6639309261527373
  0.8860915915127876  0.2027575731350382  0.1681593120533336
  0.4454591580674574  0.0951990450016069  0.9138170754094617
  0.5580190080393592  0.2043239006282747  0.6574792475568216
  0.1111115177660622  0.4277775849405643  0.4147404752795580
  0.2221235577265972  0.5387905751459954  0.1641603290853055
  0.7785330355369950  0.4260076895930496  0.9138170567865629
  0.8885404193388382  0.5390631628116012  0.6639310549090709
  0.4496047223762645  0.4243257170796753  0.4141642795687659
  0.5556990296107784  0.5386024515141585  0.1639037580135039
  0.1111115449405560  0.4277775806603401  0.9140559341295287
  0.2223965268094616  0.5390634233705427  0.6639309907800239
  0.7760693458843804  0.4243260350122853  0.4141642418973532
  0.8890860823561084  0.5387903133005310  0.1641602879311534
  0.4454591611068039  0.4260079325596209  0.9138171190863034
  0.5555751116646590  0.5388502688919630  0.6645232579540021
  0.1076585799740002  0.7662710901934986  0.4141643221697748
  0.2219359258526978  0.8723652695247637  0.1639039494511749
  0.7785328071953685  0.7621259875112756  0.9138169682726058
  0.8876571900663990  0.8746861511220914  0.6574791772825463
  0.4444436956443951  0.7611119449325798  0.4143495976459377
  0.5556991212021032  0.8723650251893460  0.1639038636302459
  0.1093412951092247  0.7621261521938152  0.9138169915083836
  0.2221836665044350  0.8722413851447186  0.6645229370209620
  0.7760696909758238  0.7662709316935974  0.4141643947030147
  0.8860914872302672  0.8778174058069226  0.1681594711114940
  0.4444442609778605  0.7611113588111706  0.9141509557628851
  0.5555752368877691  0.8722411274308683  0.6645231164081764
  0.7777775298896614  0.0944446649100783  0.4178053689539425
  0.2225207668863121  0.2049585269231144  0.3554276628653525
  0.1087084737318094  0.0957295024369316  0.1062867964000347
  0.8880187945214644  0.2046850141787431  0.8499814695701673
  0.7777776802949958  0.0944446840978657  0.5831290624861225
  0.5805791572561816  0.1930438643118890  0.3620506488909783
  0.4455619514476723  0.0957295371818958  0.1062868898869098
  0.2224332364409491  0.2051334397741726  0.8554162764952125
  0.1116042690697867  0.0939594806575457  0.6043640581028384
  0.8763766433080207  0.1930440943367628  0.3620505344706046
  0.7777777343624876  0.0944443870667300  0.1009513845332819
  0.5572960609575972  0.2046851960079294  0.8499815164030835
  0.4444363659487109  0.0939593980260582  0.6043642570112198
  0.2225208577386582  0.5391874273651069  0.3554276165300507
  0.1111111429016560  0.4277780116801964  0.1048689367570006
  0.8884671177437866  0.5390998269378642  0.8554164322769608
  0.7772929832922486  0.4282708925443472  0.6043641301648890
  0.5552528760550928  0.5394940300146800  0.3543297461274193
  0.4455620836249778  0.4253749647674425  0.1062869094472561
  0.2224332115367957  0.5391001124517985  0.8554163558960823
  0.1111112281026791  0.4277778975514295  0.6054785323240424
  0.8882920332087352  0.5391872860070634  0.3554276293176244
  0.7790632932100010  0.4253746918406733  0.1062868336620610
  0.5557425389168813  0.5385150614849508  0.8556543039006925
  0.4444363159862377  0.4282709928615134  0.6043641886092317
  0.2228260796298756  0.8719203156913053  0.3543298631976199
  0.1087083240439668  0.7622288847487866  0.1062867608065261
  0.8880186341097769  0.8739629692422213  0.8499813883575413
  0.7772931022212290  0.7611029352790766  0.6043642407158103
  0.5552532161613897  0.8719201103749370  0.3543298019377801
  0.4444444889048995  0.7611111281999712  0.1047681475841529
  0.2218484494298423  0.8724090389806776  0.8556539451029153
  0.1116041553818548  0.7611030153633322  0.6043641187715707
  0.8763767458205649  0.8972459548848946  0.3620506617242469
  0.7790632219014526  0.7622287153683018  0.1062867752258185
  0.5557426022232548  0.8724089514437026  0.8556540950489477
  0.4444444762636834  0.7611111373990482  0.6054912799483745
 
  0.00000000E+00  0.00000000E+00  0.00000000E+00
  0.00000000E+00  0.00000000E+00  0.00000000E+00
  0.00000000E+00  0.00000000E+00  0.00000000E+00
  0.00000000E+00  0.00000000E+00  0.00000000E+00
  0.00000000E+00  0.00000000E+00  0.00000000E+00
  0.00000000E+00  0.00000000E+00  0.00000000E+00
  0.00000000E+00  0.00000000E+00  0.00000000E+00
  0.00000000E+00  0.00000000E+00  0.00000000E+00
  0.00000000E+00  0.00000000E+00  0.00000000E+00
  0.00000000E+00  0.00000000E+00  0.00000000E+00
  0.00000000E+00  0.00000000E+00  0.00000000E+00
  0.00000000E+00  0.00000000E+00  0.00000000E+00
  0.00000000E+00  0.00000000E+00  0.00000000E+00
  0.00000000E+00  0.00000000E+00  0.00000000E+00
  0.00000000E+00  0.00000000E+00  0.00000000E+00
  0.00000000E+00  0.00000000E+00  0.00000000E+00
  0.00000000E+00  0.00000000E+00  0.00000000E+00
  0.00000000E+00  0.00000000E+00  0.00000000E+00
  0.00000000E+00  0.00000000E+00  0.00000000E+00
  0.00000000E+00  0.00000000E+00  0.00000000E+00
  0.00000000E+00  0.00000000E+00  0.00000000E+00
  0.00000000E+00  0.00000000E+00  0.00000000E+00
  0.00000000E+00  0.00000000E+00  0.00000000E+00
  0.00000000E+00  0.00000000E+00  0.00000000E+00
  0.00000000E+00  0.00000000E+00  0.00000000E+00
  0.00000000E+00  0.00000000E+00  0.00000000E+00
  0.00000000E+00  0.00000000E+00  0.00000000E+00
  0.00000000E+00  0.00000000E+00  0.00000000E+00
  0.00000000E+00  0.00000000E+00  0.00000000E+00
  0.00000000E+00  0.00000000E+00  0.00000000E+00
  0.00000000E+00  0.00000000E+00  0.00000000E+00
  0.00000000E+00  0.00000000E+00  0.00000000E+00
  0.00000000E+00  0.00000000E+00  0.00000000E+00
  0.00000000E+00  0.00000000E+00  0.00000000E+00
  0.00000000E+00  0.00000000E+00  0.00000000E+00
  0.00000000E+00  0.00000000E+00  0.00000000E+00
  0.00000000E+00  0.00000000E+00  0.00000000E+00
  0.00000000E+00  0.00000000E+00  0.00000000E+00
  0.00000000E+00  0.00000000E+00  0.00000000E+00
  0.00000000E+00  0.00000000E+00  0.00000000E+00
  0.00000000E+00  0.00000000E+00  0.00000000E+00
  0.00000000E+00  0.00000000E+00  0.00000000E+00
  0.00000000E+00  0.00000000E+00  0.00000000E+00
  0.00000000E+00  0.00000000E+00  0.00000000E+00
  0.00000000E+00  0.00000000E+00  0.00000000E+00
  0.00000000E+00  0.00000000E+00  0.00000000E+00
  0.00000000E+00  0.00000000E+00  0.00000000E+00
  0.00000000E+00  0.00000000E+00  0.00000000E+00
  0.00000000E+00  0.00000000E+00  0.00000000E+00
  0.00000000E+00  0.00000000E+00  0.00000000E+00
  0.00000000E+00  0.00000000E+00  0.00000000E+00
  0.00000000E+00  0.00000000E+00  0.00000000E+00
  0.00000000E+00  0.00000000E+00  0.00000000E+00
  0.00000000E+00  0.00000000E+00  0.00000000E+00
  0.00000000E+00  0.00000000E+00  0.00000000E+00
  0.00000000E+00  0.00000000E+00  0.00000000E+00
  0.00000000E+00  0.00000000E+00  0.00000000E+00
  0.00000000E+00  0.00000000E+00  0.00000000E+00
  0.00000000E+00  0.00000000E+00  0.00000000E+00
  0.00000000E+00  0.00000000E+00  0.00000000E+00
  0.00000000E+00  0.00000000E+00  0.00000000E+00
  0.00000000E+00  0.00000000E+00  0.00000000E+00
  0.00000000E+00  0.00000000E+00  0.00000000E+00
  0.00000000E+00  0.00000000E+00  0.00000000E+00
  0.00000000E+00  0.00000000E+00  0.00000000E+00
  0.00000000E+00  0.00000000E+00  0.00000000E+00
  0.00000000E+00  0.00000000E+00  0.00000000E+00
  0.00000000E+00  0.00000000E+00  0.00000000E+00
  0.00000000E+00  0.00000000E+00  0.00000000E+00
  0.00000000E+00  0.00000000E+00  0.00000000E+00
  0.00000000E+00  0.00000000E+00  0.00000000E+00
  0.00000000E+00  0.00000000E+00  0.00000000E+00
