Al   B    N                             
   1.00000000000000     
    -9.3431907660987772   -0.0000000490345844   -0.0000000794333352
    -4.6715942145020763    8.0914419275816023   -0.0000003189913336
     0.0000115677372658    0.0000010710977251   -9.9834414088295365
   Al   B    N 
    35     1    36
Direct
  0.1076585171405924  0.0927371261535797  0.3891478752354658
  0.2221226545044885  0.2057543736740826  0.1391505667655366
  0.7777776320132688  0.0944444032289411  0.8871360616243180
  0.8876580214282157  0.2043242809434105  0.6324600851706208
  0.4496043126072706  0.0927366489604395  0.3891479905033179
  0.5611521238844546  0.2027570964009939  0.1431399230878299
  0.1093415710310168  0.0952001899540491  0.8888040965814383
  0.2223966132877493  0.2052067175972567  0.6389208798505450
  0.8860908421505513  0.2027568120401710  0.1431399272709939
  0.4454580140260163  0.0952002889679804  0.8888041714457131
  0.5580178570615857  0.2043244885845255  0.6324601272576160
  0.1111115389212500  0.4277775681639397  0.3897353420848617
  0.2221229358151433  0.5387899665121267  0.1391504945200452
  0.7785343107716258  0.4260075864063850  0.8888041274767744
  0.8885400816513993  0.5390633428867275  0.6389210029733619
  0.4496043795831639  0.4243259504240129  0.3891479234484194
  0.5556981625707635  0.5386041886078843  0.1388929486986399
  0.1111115715637396  0.4277775795713410  0.8890486881184856
  0.2223967711626926  0.5390636057985745  0.6389209476310924
  0.7760694694177417  0.4243262564666068  0.3891478881668178
  0.8890873330181392  0.5387896744611567  0.1391504666546695
  0.4454580272696873  0.4260078528436111  0.8888041987878523
  0.5555764640768714  0.5388476643755595  0.6395093952506770
  0.1076588509889618  0.7662707073959112  0.3891479689152391
  0.2219376687075325  0.8723643953472404  0.1388931387016115
  0.7785340821688322  0.7621248218906089  0.8888040502741745
  0.8876578264458956  0.8746849530057617  0.6324600204930562
  0.4444437101592911  0.7611119140543749  0.3893418523426675
  0.5556982459421675  0.8723641414511007  0.1388930538733604
  0.1093412209185516  0.7621250115309834  0.8888040490924851
  0.2221811193937455  0.8722426882055316  0.6395090683002636
  0.7760697946053483  0.7662705227109967  0.3891480405507650
  0.8860907355082617  0.8778188890441143  0.1431400898452253
  0.4444442803472626  0.7611113603060033  0.8891394323655035
  0.5555765790492728  0.8722424301637588  0.6395092676061935
  0.7777774707900420  0.0944446388091364  0.3927874257446362
  0.2225197722893384  0.2049604391518827  0.3304184928860820
  0.1087094278908793  0.0957286028670055  0.0812749056232320
  0.8880205248907416  0.2046867770182743  0.8249635359304861
  0.7777776663736802  0.0944446597586079  0.5581117856531250
  0.5805805259352113  0.1930431365394512  0.3370318489940232
  0.4455617649388444  0.0957286412581624  0.0812750291877080
  0.2224331785845308  0.2051335193398600  0.8304057469640327
  0.1116062658681614  0.0939590393702545  0.5793483891568485
  0.8763759285448174  0.1930433855434899  0.3370317415089517
  0.7777776732586545  0.0944443670842787  0.0759268213194559
  0.5572924858986426  0.2046869841204568  0.8249636047378033
  0.4444347927776917  0.0939589542387793  0.5793485850358024
  0.2225198766399785  0.5391864584407102  0.3304184451639713
  0.1111110934807442  0.4277780058758509  0.0798603720294864
  0.8884671819634207  0.5390997884241386  0.8304058872822324
  0.7772925527078414  0.4282728691107778  0.5793484586291058
  0.5552516645357244  0.5394963814125475  0.3293198174542198
  0.4455619120177232  0.4253759635594676  0.0812750335452179
  0.2224331554907124  0.5391000933478907  0.8304058201809994
  0.1111112276111044  0.4277778858992320  0.5804730413954928
  0.8882939328766639  0.5391862956592419  0.3304184721800851
  0.7790623699903918  0.4253756762220675  0.0812749637052619
  0.5557416009017970  0.5385169354211357  0.8306400430368370
  0.4444347464576595  0.4282729720764848  0.5793485229437039
  0.2228284147831801  0.8719191188207276  0.3293199353737393
  0.1087092786612942  0.7622287617690517  0.0812748698320505
  0.8880203743988133  0.8739594489930411  0.8249634647924182
  0.7772926613683637  0.7611013457489832  0.5793485662202826
  0.5552519894218122  0.8719188971432743  0.3293198684320657
  0.4444444356998076  0.7611111110451176  0.0797557478958950
  0.2218503032053931  0.8724081172497051  0.8306396643179426
  0.1116061581814876  0.7611014269385166  0.5793484506363811
  0.8763760234924334  0.8972472912889486  0.3370318690153482
  0.7790622942130838  0.7622285613793522  0.0812749157201864
  0.5557416561175117  0.8724080243386680  0.8306398498624361
  0.4444444764622162  0.7611111202535596  0.5804849614505656
 
  0.00000000E+00  0.00000000E+00  0.00000000E+00
  0.00000000E+00  0.00000000E+00  0.00000000E+00
  0.00000000E+00  0.00000000E+00  0.00000000E+00
  0.00000000E+00  0.00000000E+00  0.00000000E+00
  0.00000000E+00  0.00000000E+00  0.00000000E+00
  0.00000000E+00  0.00000000E+00  0.00000000E+00
  0.00000000E+00  0.00000000E+00  0.00000000E+00
  0.00000000E+00  0.00000000E+00  0.00000000E+00
  0.00000000E+00  0.00000000E+00  0.00000000E+00
  0.00000000E+00  0.00000000E+00  0.00000000E+00
  0.00000000E+00  0.00000000E+00  0.00000000E+00
  0.00000000E+00  0.00000000E+00  0.00000000E+00
  0.00000000E+00  0.00000000E+00  0.00000000E+00
  0.00000000E+00  0.00000000E+00  0.00000000E+00
  0.00000000E+00  0.00000000E+00  0.00000000E+00
  0.00000000E+00  0.00000000E+00  0.00000000E+00
  0.00000000E+00  0.00000000E+00  0.00000000E+00
  0.00000000E+00  0.00000000E+00  0.00000000E+00
  0.00000000E+00  0.00000000E+00  0.00000000E+00
  0.00000000E+00  0.00000000E+00  0.00000000E+00
  0.00000000E+00  0.00000000E+00  0.00000000E+00
  0.00000000E+00  0.00000000E+00  0.00000000E+00
  0.00000000E+00  0.00000000E+00  0.00000000E+00
  0.00000000E+00  0.00000000E+00  0.00000000E+00
  0.00000000E+00  0.00000000E+00  0.00000000E+00
  0.00000000E+00  0.00000000E+00  0.00000000E+00
  0.00000000E+00  0.00000000E+00  0.00000000E+00
  0.00000000E+00  0.00000000E+00  0.00000000E+00
  0.00000000E+00  0.00000000E+00  0.00000000E+00
  0.00000000E+00  0.00000000E+00  0.00000000E+00
  0.00000000E+00  0.00000000E+00  0.00000000E+00
  0.00000000E+00  0.00000000E+00  0.00000000E+00
  0.00000000E+00  0.00000000E+00  0.00000000E+00
  0.00000000E+00  0.00000000E+00  0.00000000E+00
  0.00000000E+00  0.00000000E+00  0.00000000E+00
  0.00000000E+00  0.00000000E+00  0.00000000E+00
  0.00000000E+00  0.00000000E+00  0.00000000E+00
  0.00000000E+00  0.00000000E+00  0.00000000E+00
  0.00000000E+00  0.00000000E+00  0.00000000E+00
  0.00000000E+00  0.00000000E+00  0.00000000E+00
  0.00000000E+00  0.00000000E+00  0.00000000E+00
  0.00000000E+00  0.00000000E+00  0.00000000E+00
  0.00000000E+00  0.00000000E+00  0.00000000E+00
  0.00000000E+00  0.00000000E+00  0.00000000E+00
  0.00000000E+00  0.00000000E+00  0.00000000E+00
  0.00000000E+00  0.00000000E+00  0.00000000E+00
  0.00000000E+00  0.00000000E+00  0.00000000E+00
  0.00000000E+00  0.00000000E+00  0.00000000E+00
  0.00000000E+00  0.00000000E+00  0.00000000E+00
  0.00000000E+00  0.00000000E+00  0.00000000E+00
  0.00000000E+00  0.00000000E+00  0.00000000E+00
  0.00000000E+00  0.00000000E+00  0.00000000E+00
  0.00000000E+00  0.00000000E+00  0.00000000E+00
  0.00000000E+00  0.00000000E+00  0.00000000E+00
  0.00000000E+00  0.00000000E+00  0.00000000E+00
  0.00000000E+00  0.00000000E+00  0.00000000E+00
  0.00000000E+00  0.00000000E+00  0.00000000E+00
  0.00000000E+00  0.00000000E+00  0.00000000E+00
  0.00000000E+00  0.00000000E+00  0.00000000E+00
  0.00000000E+00  0.00000000E+00  0.00000000E+00
  0.00000000E+00  0.00000000E+00  0.00000000E+00
  0.00000000E+00  0.00000000E+00  0.00000000E+00
  0.00000000E+00  0.00000000E+00  0.00000000E+00
  0.00000000E+00  0.00000000E+00  0.00000000E+00
  0.00000000E+00  0.00000000E+00  0.00000000E+00
  0.00000000E+00  0.00000000E+00  0.00000000E+00
  0.00000000E+00  0.00000000E+00  0.00000000E+00
  0.00000000E+00  0.00000000E+00  0.00000000E+00
  0.00000000E+00  0.00000000E+00  0.00000000E+00
  0.00000000E+00  0.00000000E+00  0.00000000E+00
  0.00000000E+00  0.00000000E+00  0.00000000E+00
  0.00000000E+00  0.00000000E+00  0.00000000E+00
