Al   B    N                             
   1.00000000000000     
    -9.3432095644621658   -0.0000000358147136   -0.0000001191092563
    -4.6716047746785554    8.0914574895416109   -0.0000004360526211
    -0.0000002920410836    0.0000007975999052   -9.9834183373309031
   Al   B    N 
    35     1    36
Direct
  0.1076595018457951  0.0927369058144834  0.4014548802188784
  0.2221227236578969  0.2057542263057854  0.1514546560379983
  0.7777776065307052  0.0944444049076196  0.8994553195508104
  0.8876579024344764  0.2043242790051281  0.6447713797216608
  0.4496035263447027  0.0927364645600974  0.4014549505740206
  0.5611514403361468  0.2027574039091604  0.1554569214569241
  0.1093411376469646  0.0952003528114318  0.9011103775126372
  0.2223965921203330  0.2052067022388187  0.6512256077250029
  0.8860911902678623  0.2027571024632948  0.1554568992331014
  0.4454582423648930  0.0952004371047650  0.9011104573231421
  0.5580178899152912  0.2043244738365289  0.6447713629141916
  0.1111115182240923  0.4277775705761186  0.4020390631788331
  0.2221230058809383  0.5387899954085640  0.1514545928172879
  0.7785343895176240  0.4260072423392884  0.9011104404970922
  0.8885400221441415  0.5390633600258212  0.6512257362239069
  0.4496035960599940  0.4243269568542871  0.4014548915733869
  0.5556981794968010  0.5386041427858501  0.1511974091108854
  0.1111115329582404  0.4277775842685543  0.9013524737468828
  0.2223967522030250  0.5390636190424942  0.6512256562002463
  0.7760692446033914  0.4243272499569812  0.4014548867811030
  0.8890871997282801  0.5387897262991643  0.1514545712233399
  0.4454582542392416  0.4260074695998526  0.9011105119206277
  0.5555763009268020  0.5388479023528490  0.6518139071733628
  0.1076598439673546  0.7662699618474917  0.4014549583424483
  0.2219376542725087  0.8723643885225343  0.1511975396361294
  0.7785341675280009  0.7621250891600937  0.9011102927292640
  0.8876577008255566  0.8746851066258188  0.6447712546181492
  0.4444437394672960  0.7611119043744097  0.4016448298744209
  0.5556982533001573  0.8723641467598000  0.1511974830409670
  0.1093407981813783  0.7621252610166351  0.9011102880562305
  0.2221813419729415  0.8722425705824506  0.6518135430482914
  0.7760695850035475  0.7662697951629269  0.4014550255165545
  0.8860910801017567  0.8778181943617582  0.1554570072039994
  0.4444442640376707  0.7611113674830747  0.9014427269501084
  0.5555764002448811  0.8722423237736692  0.6518137237776216
  0.7777775303841636  0.0944446532492407  0.4051047042387239
  0.2225198614798884  0.2049602980189178  0.3427252301247918
  0.1087081348566912  0.0957291976622727  0.0935838691123365
  0.8880195305425715  0.2046858230723316  0.8372759641306686
  0.7777776629557707  0.0944447102651154  0.5704268501016898
  0.5805804048347269  0.1930432289853883  0.3493479791938157
  0.4455625530022971  0.0957292349623700  0.0935839842910227
  0.2224333367570495  0.2051332228085911  0.8427126457463174
  0.1116057334785694  0.0939593462328574  0.5916568880819426
  0.8763760269628307  0.1930434519778643  0.3493478654708255
  0.7777777063734845  0.0944443648575586  0.0882463658190034
  0.5572944706347727  0.2046860002546396  0.8372759918386592
  0.4444350346013550  0.0939592537912119  0.5916570270252919
  0.2225199734829175  0.5391865376780700  0.3427252004832013
  0.1111111495832802  0.4277779980739638  0.0921662996299943
  0.8884668881025135  0.5390999371381113  0.8427127964359400
  0.7772928341631911  0.4282723726238302  0.5916569426180303
  0.5552519365076094  0.5394959351714164  0.3416265273047685
  0.4455627098721138  0.4253745994088476  0.0935840127923555
  0.2224333330143793  0.5391002200285655  0.8427127211886472
  0.1111112370757823  0.4277779018224876  0.5927790043448411
  0.8882938156882716  0.5391863772244960  0.3427252119439714
  0.7790630185621836  0.4253743153445413  0.0935839359521324
  0.5557417708652750  0.5385165814573298  0.8429468323887193
  0.4444350010314153  0.4282724778537599  0.5916569762451118
  0.2228280445167812  0.8719193292556540  0.3416266313833276
  0.1087079911314603  0.7622294827903460  0.0935838046979072
  0.8880193866228936  0.8739614258901369  0.8372758375781970
  0.7772929510139548  0.7611016056189399  0.5916570260230714
  0.5552522650742944  0.8719191190198217  0.3416265588867944
  0.4444445092989753  0.7611110886134824  0.0920612580268880
  0.2218499642596470  0.8724082914407063  0.8429464348816680
  0.1116056284087747  0.7611017086007976  0.5916569144808932
  0.8763761497997749  0.8972471699122764  0.3493479720079904
  0.7790629286002897  0.7622293016623303  0.0935838403218554
  0.5557418327955759  0.8724082164455567  0.8429465913101737
  0.4444445006532121  0.7611111136645903  0.5927901525225536
 
  0.00000000E+00  0.00000000E+00  0.00000000E+00
  0.00000000E+00  0.00000000E+00  0.00000000E+00
  0.00000000E+00  0.00000000E+00  0.00000000E+00
  0.00000000E+00  0.00000000E+00  0.00000000E+00
  0.00000000E+00  0.00000000E+00  0.00000000E+00
  0.00000000E+00  0.00000000E+00  0.00000000E+00
  0.00000000E+00  0.00000000E+00  0.00000000E+00
  0.00000000E+00  0.00000000E+00  0.00000000E+00
  0.00000000E+00  0.00000000E+00  0.00000000E+00
  0.00000000E+00  0.00000000E+00  0.00000000E+00
  0.00000000E+00  0.00000000E+00  0.00000000E+00
  0.00000000E+00  0.00000000E+00  0.00000000E+00
  0.00000000E+00  0.00000000E+00  0.00000000E+00
  0.00000000E+00  0.00000000E+00  0.00000000E+00
  0.00000000E+00  0.00000000E+00  0.00000000E+00
  0.00000000E+00  0.00000000E+00  0.00000000E+00
  0.00000000E+00  0.00000000E+00  0.00000000E+00
  0.00000000E+00  0.00000000E+00  0.00000000E+00
  0.00000000E+00  0.00000000E+00  0.00000000E+00
  0.00000000E+00  0.00000000E+00  0.00000000E+00
  0.00000000E+00  0.00000000E+00  0.00000000E+00
  0.00000000E+00  0.00000000E+00  0.00000000E+00
  0.00000000E+00  0.00000000E+00  0.00000000E+00
  0.00000000E+00  0.00000000E+00  0.00000000E+00
  0.00000000E+00  0.00000000E+00  0.00000000E+00
  0.00000000E+00  0.00000000E+00  0.00000000E+00
  0.00000000E+00  0.00000000E+00  0.00000000E+00
  0.00000000E+00  0.00000000E+00  0.00000000E+00
  0.00000000E+00  0.00000000E+00  0.00000000E+00
  0.00000000E+00  0.00000000E+00  0.00000000E+00
  0.00000000E+00  0.00000000E+00  0.00000000E+00
  0.00000000E+00  0.00000000E+00  0.00000000E+00
  0.00000000E+00  0.00000000E+00  0.00000000E+00
  0.00000000E+00  0.00000000E+00  0.00000000E+00
  0.00000000E+00  0.00000000E+00  0.00000000E+00
  0.00000000E+00  0.00000000E+00  0.00000000E+00
  0.00000000E+00  0.00000000E+00  0.00000000E+00
  0.00000000E+00  0.00000000E+00  0.00000000E+00
  0.00000000E+00  0.00000000E+00  0.00000000E+00
  0.00000000E+00  0.00000000E+00  0.00000000E+00
  0.00000000E+00  0.00000000E+00  0.00000000E+00
  0.00000000E+00  0.00000000E+00  0.00000000E+00
  0.00000000E+00  0.00000000E+00  0.00000000E+00
  0.00000000E+00  0.00000000E+00  0.00000000E+00
  0.00000000E+00  0.00000000E+00  0.00000000E+00
  0.00000000E+00  0.00000000E+00  0.00000000E+00
  0.00000000E+00  0.00000000E+00  0.00000000E+00
  0.00000000E+00  0.00000000E+00  0.00000000E+00
  0.00000000E+00  0.00000000E+00  0.00000000E+00
  0.00000000E+00  0.00000000E+00  0.00000000E+00
  0.00000000E+00  0.00000000E+00  0.00000000E+00
  0.00000000E+00  0.00000000E+00  0.00000000E+00
  0.00000000E+00  0.00000000E+00  0.00000000E+00
  0.00000000E+00  0.00000000E+00  0.00000000E+00
  0.00000000E+00  0.00000000E+00  0.00000000E+00
  0.00000000E+00  0.00000000E+00  0.00000000E+00
  0.00000000E+00  0.00000000E+00  0.00000000E+00
  0.00000000E+00  0.00000000E+00  0.00000000E+00
  0.00000000E+00  0.00000000E+00  0.00000000E+00
  0.00000000E+00  0.00000000E+00  0.00000000E+00
  0.00000000E+00  0.00000000E+00  0.00000000E+00
  0.00000000E+00  0.00000000E+00  0.00000000E+00
  0.00000000E+00  0.00000000E+00  0.00000000E+00
  0.00000000E+00  0.00000000E+00  0.00000000E+00
  0.00000000E+00  0.00000000E+00  0.00000000E+00
  0.00000000E+00  0.00000000E+00  0.00000000E+00
  0.00000000E+00  0.00000000E+00  0.00000000E+00
  0.00000000E+00  0.00000000E+00  0.00000000E+00
  0.00000000E+00  0.00000000E+00  0.00000000E+00
  0.00000000E+00  0.00000000E+00  0.00000000E+00
  0.00000000E+00  0.00000000E+00  0.00000000E+00
  0.00000000E+00  0.00000000E+00  0.00000000E+00
