Al   B    N                             
   1.00000000000000     
    -9.6696323970759170   -0.0000000735857731   -0.0000000057494816
    -4.8348148284455927    8.3741425877520363   -0.0000001015917997
     0.0000001346769890   -0.0000039421099340   -9.0387657830701809
   Al   B    N 
    35     1    36
Direct
  0.1081061941283252  0.0922712358208599  0.3711464800594797
  0.2217390023608914  0.2065220561666479  0.1235919703489046
  0.7777777665903471  0.0944444855186219  0.8696576214634106
  0.8887743514721649  0.2054409126425867  0.6163644664966696
  0.4496225709863424  0.0922712546345181  0.3711464768374313
  0.5648439778913854  0.2009113121043740  0.1312259356318322
  0.1080740180993018  0.0961373542301160  0.8744884319742425
  0.2229550653106074  0.2040899080055993  0.6215933258733415
  0.8842447462782275  0.2009113410499168  0.1312259377266969
  0.4457886581427672  0.0961373557326226  0.8744884283320360
  0.5557847728129062  0.2054409091001475  0.6163644697694650
  0.1111110408230402  0.4277779351125730  0.3743417925874226
  0.2217389807954646  0.5384055787392796  0.1235919064011597
  0.7794705409970959  0.4247408962570347  0.8744884125209751
  0.8874233277674080  0.5396216853392062  0.6215932936883775
  0.4496225766158730  0.4247730141003885  0.3711465041484630
  0.5555163629664150  0.5389673164202620  0.1219876048341106
  0.1111110266424546  0.4277779512026285  0.8710633381150714
  0.2229550262734818  0.5396216843720865  0.6215932882229538
  0.7756043915587725  0.4247730457993413  0.3711465173717130
  0.8898554900439848  0.5384055842318318  0.1235919143242725
  0.4457885745789838  0.4247408802104289  0.8744884173518201
  0.5560563258674662  0.5378873692488213  0.6238195706030680
  0.1081061765397138  0.7662893732324321  0.3711464434479339
  0.2223007175193317  0.8721828886141765  0.1219875780641502
  0.7794705779455242  0.7624554593698036  0.8744883779014430
  0.8887744052792499  0.8724512152117967  0.6163644829456132
  0.4444443818869672  0.7611112150028916  0.3744963636930621
  0.5555164275392670  0.8721828802208975  0.1219875878217920
  0.1080739791729570  0.7624554400750583  0.8744883846494673
  0.2212207908638817  0.8727228477198850  0.6238195740056938
  0.7756044494333807  0.7662893604396146  0.3711464515814313
  0.8842447731525951  0.8815104620508478  0.1312258829287600
  0.4444443756149425  0.7611112385775982  0.8712746839227279
  0.5560563821649396  0.8727228497101009  0.6238195640438775
  0.7777778800763215  0.0944442535849745  0.3971661300662603
  0.2222778428799330  0.2054443496878307  0.3365282885736178
  0.1069767321600139  0.0967530624238506  0.0899704628918840
  0.8883562483363008  0.2050226576651966  0.8284370476035789
  0.7777776546880233  0.0944447004907047  0.5707833550301800
  0.5832269986434042  0.1917197467105325  0.3440859479019309
  0.4462702254537447  0.0967530375106236  0.0899704612701484
  0.2230210964423165  0.2039578541716054  0.8368838457054508
  0.1116032875141997  0.0938802532996661  0.5833147581140778
  0.8750532945039211  0.1917197670538897  0.3440859547838855
  0.7777776084216157  0.0944448329523837  0.0747235850436212
  0.5566211557569360  0.2050226451620318  0.8284370543874218
  0.4445164571272997  0.0938802570368509  0.5833147585545930
  0.2222778886672714  0.5389440764454179  0.3365282834365217
  0.1111110834372298  0.4277778334381352  0.0847616200825598
  0.8872915496662444  0.5396873337493560  0.8368838109953529
  0.7772132144878228  0.4282701887296128  0.5833147699237244
  0.5547052970545536  0.5405894349407703  0.3346268510163526
  0.4462703378284587  0.4236436757427882  0.0899704007416560
  0.2230211555246271  0.5396873243788036  0.8368838206728597
  0.1111110721264623  0.4277778531461891  0.5880470184942155
  0.8887780771183600  0.5389440736668050  0.3365282778365852
  0.7800860076706684  0.4236436797392642  0.0899704020239156
  0.5564783666962398  0.5370433105682011  0.8381049675611862
  0.4445166065668928  0.4282701784050289  0.5833147713623745
  0.2239230965907808  0.8713717456909720  0.3346268382085924
  0.1069768111503322  0.7629372470116778  0.0899704429133763
  0.8883562064961765  0.8732876237928124  0.8284370563282479
  0.7772131430202478  0.7611834965180151  0.5833147539137116
  0.5547051786697565  0.8713717399951051  0.3346268516380704
  0.4444443255340929  0.7611113396480818  0.0839235814108221
  0.2203769866259435  0.8731448057696269  0.8381049918290984
  0.1116033500664031  0.7611835055831193  0.5833147568150849
  0.8750532796668082  0.8998934636599145  0.3440859461794048
  0.7800859379883036  0.7629372400336791  0.0899704427854076
  0.5564782360304861  0.8731447915279276  0.8381049862855505
  0.4444443273584113  0.7611113273680132  0.5888961031354754
 
  0.00000000E+00  0.00000000E+00  0.00000000E+00
  0.00000000E+00  0.00000000E+00  0.00000000E+00
  0.00000000E+00  0.00000000E+00  0.00000000E+00
  0.00000000E+00  0.00000000E+00  0.00000000E+00
  0.00000000E+00  0.00000000E+00  0.00000000E+00
  0.00000000E+00  0.00000000E+00  0.00000000E+00
  0.00000000E+00  0.00000000E+00  0.00000000E+00
  0.00000000E+00  0.00000000E+00  0.00000000E+00
  0.00000000E+00  0.00000000E+00  0.00000000E+00
  0.00000000E+00  0.00000000E+00  0.00000000E+00
  0.00000000E+00  0.00000000E+00  0.00000000E+00
  0.00000000E+00  0.00000000E+00  0.00000000E+00
  0.00000000E+00  0.00000000E+00  0.00000000E+00
  0.00000000E+00  0.00000000E+00  0.00000000E+00
  0.00000000E+00  0.00000000E+00  0.00000000E+00
  0.00000000E+00  0.00000000E+00  0.00000000E+00
  0.00000000E+00  0.00000000E+00  0.00000000E+00
  0.00000000E+00  0.00000000E+00  0.00000000E+00
  0.00000000E+00  0.00000000E+00  0.00000000E+00
  0.00000000E+00  0.00000000E+00  0.00000000E+00
  0.00000000E+00  0.00000000E+00  0.00000000E+00
  0.00000000E+00  0.00000000E+00  0.00000000E+00
  0.00000000E+00  0.00000000E+00  0.00000000E+00
  0.00000000E+00  0.00000000E+00  0.00000000E+00
  0.00000000E+00  0.00000000E+00  0.00000000E+00
  0.00000000E+00  0.00000000E+00  0.00000000E+00
  0.00000000E+00  0.00000000E+00  0.00000000E+00
  0.00000000E+00  0.00000000E+00  0.00000000E+00
  0.00000000E+00  0.00000000E+00  0.00000000E+00
  0.00000000E+00  0.00000000E+00  0.00000000E+00
  0.00000000E+00  0.00000000E+00  0.00000000E+00
  0.00000000E+00  0.00000000E+00  0.00000000E+00
  0.00000000E+00  0.00000000E+00  0.00000000E+00
  0.00000000E+00  0.00000000E+00  0.00000000E+00
  0.00000000E+00  0.00000000E+00  0.00000000E+00
  0.00000000E+00  0.00000000E+00  0.00000000E+00
  0.00000000E+00  0.00000000E+00  0.00000000E+00
  0.00000000E+00  0.00000000E+00  0.00000000E+00
  0.00000000E+00  0.00000000E+00  0.00000000E+00
  0.00000000E+00  0.00000000E+00  0.00000000E+00
  0.00000000E+00  0.00000000E+00  0.00000000E+00
  0.00000000E+00  0.00000000E+00  0.00000000E+00
  0.00000000E+00  0.00000000E+00  0.00000000E+00
  0.00000000E+00  0.00000000E+00  0.00000000E+00
  0.00000000E+00  0.00000000E+00  0.00000000E+00
  0.00000000E+00  0.00000000E+00  0.00000000E+00
  0.00000000E+00  0.00000000E+00  0.00000000E+00
  0.00000000E+00  0.00000000E+00  0.00000000E+00
  0.00000000E+00  0.00000000E+00  0.00000000E+00
  0.00000000E+00  0.00000000E+00  0.00000000E+00
  0.00000000E+00  0.00000000E+00  0.00000000E+00
  0.00000000E+00  0.00000000E+00  0.00000000E+00
  0.00000000E+00  0.00000000E+00  0.00000000E+00
  0.00000000E+00  0.00000000E+00  0.00000000E+00
  0.00000000E+00  0.00000000E+00  0.00000000E+00
  0.00000000E+00  0.00000000E+00  0.00000000E+00
  0.00000000E+00  0.00000000E+00  0.00000000E+00
  0.00000000E+00  0.00000000E+00  0.00000000E+00
  0.00000000E+00  0.00000000E+00  0.00000000E+00
  0.00000000E+00  0.00000000E+00  0.00000000E+00
  0.00000000E+00  0.00000000E+00  0.00000000E+00
  0.00000000E+00  0.00000000E+00  0.00000000E+00
  0.00000000E+00  0.00000000E+00  0.00000000E+00
  0.00000000E+00  0.00000000E+00  0.00000000E+00
  0.00000000E+00  0.00000000E+00  0.00000000E+00
  0.00000000E+00  0.00000000E+00  0.00000000E+00
  0.00000000E+00  0.00000000E+00  0.00000000E+00
  0.00000000E+00  0.00000000E+00  0.00000000E+00
  0.00000000E+00  0.00000000E+00  0.00000000E+00
  0.00000000E+00  0.00000000E+00  0.00000000E+00
  0.00000000E+00  0.00000000E+00  0.00000000E+00
  0.00000000E+00  0.00000000E+00  0.00000000E+00
