Al   B    N                             
   1.00000000000000     
    -9.3432070851763314   -0.0000000225948428   -0.0000001587851775
    -4.6716032683718165    8.0914554990165186   -0.0000005531139086
    -0.0000004413732017    0.0000008122091342   -9.9834066807318251
   Al   B    N 
    35     1    36
Direct
  0.1076585589349008  0.0927370721191991  0.4126552983961744
  0.2221224976531815  0.2057546223956663  0.1626577188333869
  0.7777775184866726  0.0944443690921233  0.9106461354483812
  0.8876580662676474  0.2043243488994548  0.6559712240294857
  0.4496044353312527  0.0927365900768109  0.4126553413381586
  0.5611522224653882  0.2027569758501002  0.1666500613402917
  0.1093417083629191  0.0952002805444891  0.9123119065484744
  0.2223967607933020  0.2052064311908310  0.6624274531361323
  0.8860907324280873  0.2027566847624911  0.1666501104815907
  0.4454576311113883  0.0952003342430530  0.9123119499518992
  0.5580177260210490  0.2043245446496158  0.6559711521099416
  0.1111115862010479  0.4277776562701234  0.4132432095788374
  0.2221228240306985  0.5387898329306395  0.1626576247349760
  0.7785343621163179  0.4260077811803384  0.9123119286885313
  0.8885397273161431  0.5390635622348370  0.6624275837059557
  0.4496045492789875  0.4243260185164530  0.4126552692029932
  0.5556980817975798  0.5386043458275438  0.1623991943830276
  0.1111115434496526  0.4277776031084457  0.9125548013803524
  0.2223969595805215  0.5390638431650672  0.6624274910569241
  0.7760694019658416  0.4243263075319774  0.4126552851949867
  0.8890875623563872  0.5387895398198168  0.1626576281300345
  0.4454576871383722  0.4260080149418997  0.9123119569569482
  0.5555765752574544  0.5388474784342705  0.6630167722169205
  0.1076588930967617  0.7662708931061530  0.4126553101454320
  0.2219378426254863  0.8723642863952605  0.1623993939661261
  0.7785340525035735  0.7621245171010855  0.9123118488584439
  0.8876578330090226  0.8746848751859488  0.6559710739617017
  0.4444437322244355  0.7611119407215767  0.4128486612517506
  0.5556980707783481  0.8723640007022055  0.1623993121962997
  0.1093413234243386  0.7621247238424687  0.9123118398249659
  0.2221809390835858  0.8722427821506784  0.6630164594785484
  0.7760696625066643  0.7662707124004058  0.4126553677171287
  0.8860905963045482  0.8778190211721792  0.1666502352525967
  0.4444442261950101  0.7611113102017768  0.9126455211021351
  0.5555766335233443  0.8722425184341276  0.6630165997460082
  0.7777775756258123  0.0944446910279808  0.4162987591093597
  0.2225197464213480  0.2049606872313632  0.3539271631949461
  0.1087091583662811  0.0957288802454315  0.1047840121461689
  0.8880203660484227  0.2046866045695594  0.8484745585942264
  0.7777777288650896  0.0944447243203399  0.5816243508527421
  0.5805809346632955  0.1930430359991391  0.3605426621993644
  0.4455617744860376  0.0957288446155431  0.1047840842220253
  0.2224332682839645  0.2051333061132752  0.8539137498172948
  0.1116058105849191  0.0939592247371479  0.6028572602266777
  0.8763758204907433  0.1930432172010015  0.3605426183918468
  0.7777776608549232  0.0944443386479179  0.0994373995565994
  0.5572926492489358  0.2046867955078397  0.8484745399376052
  0.4444351545268361  0.0939590985822321  0.6028573444606451
  0.2225199188942426  0.5391864596041742  0.3539270740130291
  0.1111111390139072  0.4277780154138071  0.1033679457759291
  0.8884669568494417  0.5390999108662982  0.8539138915223390
  0.7772927938545990  0.4282723681271463  0.6028573096955654
  0.5552517997897937  0.5394964353141134  0.3528276108877648
  0.4455619853874140  0.4253756262231647  0.1047840656736909
  0.2224332946851462  0.5391002358331392  0.8539137647299881
  0.1111112901119995  0.4277779755282936  0.6039817871459405
  0.8882941818648291  0.5391862759968546  0.3539271250936835
  0.7790627187482002  0.4253753516670074  0.1047840464416083
  0.5557417479492557  0.5385165833005487  0.8541486130031117
  0.4444351709740388  0.4282725131548588  0.6028572926571840
  0.2228285213948880  0.8719191984341066  0.3528277537207529
  0.1087089553710570  0.7622287975384552  0.1047839380018232
  0.8880201834052457  0.8739596206688276  0.8484744276242751
  0.7772928102082162  0.7611017362792509  0.6028573135722013
  0.5552519891738470  0.8719189262776723  0.3528276627421505
  0.4444444460217696  0.7611110642770313  0.1032627314626566
  0.2218499921071668  0.8724082127588204  0.8541482643948513
  0.1116056688755052  0.7611018667264133  0.6028572192763448
  0.8763759404007345  0.8972476979706840  0.3605426890916306
  0.7790625144903132  0.7622285686106238  0.1047839872992000
  0.5557417584186624  0.8724081322292534  0.8541483853453400
  0.4444445259034353  0.7611111154136694  0.6039932164643602
 
  0.00000000E+00  0.00000000E+00  0.00000000E+00
  0.00000000E+00  0.00000000E+00  0.00000000E+00
  0.00000000E+00  0.00000000E+00  0.00000000E+00
  0.00000000E+00  0.00000000E+00  0.00000000E+00
  0.00000000E+00  0.00000000E+00  0.00000000E+00
  0.00000000E+00  0.00000000E+00  0.00000000E+00
  0.00000000E+00  0.00000000E+00  0.00000000E+00
  0.00000000E+00  0.00000000E+00  0.00000000E+00
  0.00000000E+00  0.00000000E+00  0.00000000E+00
  0.00000000E+00  0.00000000E+00  0.00000000E+00
  0.00000000E+00  0.00000000E+00  0.00000000E+00
  0.00000000E+00  0.00000000E+00  0.00000000E+00
  0.00000000E+00  0.00000000E+00  0.00000000E+00
  0.00000000E+00  0.00000000E+00  0.00000000E+00
  0.00000000E+00  0.00000000E+00  0.00000000E+00
  0.00000000E+00  0.00000000E+00  0.00000000E+00
  0.00000000E+00  0.00000000E+00  0.00000000E+00
  0.00000000E+00  0.00000000E+00  0.00000000E+00
  0.00000000E+00  0.00000000E+00  0.00000000E+00
  0.00000000E+00  0.00000000E+00  0.00000000E+00
  0.00000000E+00  0.00000000E+00  0.00000000E+00
  0.00000000E+00  0.00000000E+00  0.00000000E+00
  0.00000000E+00  0.00000000E+00  0.00000000E+00
  0.00000000E+00  0.00000000E+00  0.00000000E+00
  0.00000000E+00  0.00000000E+00  0.00000000E+00
  0.00000000E+00  0.00000000E+00  0.00000000E+00
  0.00000000E+00  0.00000000E+00  0.00000000E+00
  0.00000000E+00  0.00000000E+00  0.00000000E+00
  0.00000000E+00  0.00000000E+00  0.00000000E+00
  0.00000000E+00  0.00000000E+00  0.00000000E+00
  0.00000000E+00  0.00000000E+00  0.00000000E+00
  0.00000000E+00  0.00000000E+00  0.00000000E+00
  0.00000000E+00  0.00000000E+00  0.00000000E+00
  0.00000000E+00  0.00000000E+00  0.00000000E+00
  0.00000000E+00  0.00000000E+00  0.00000000E+00
  0.00000000E+00  0.00000000E+00  0.00000000E+00
  0.00000000E+00  0.00000000E+00  0.00000000E+00
  0.00000000E+00  0.00000000E+00  0.00000000E+00
  0.00000000E+00  0.00000000E+00  0.00000000E+00
  0.00000000E+00  0.00000000E+00  0.00000000E+00
  0.00000000E+00  0.00000000E+00  0.00000000E+00
  0.00000000E+00  0.00000000E+00  0.00000000E+00
  0.00000000E+00  0.00000000E+00  0.00000000E+00
  0.00000000E+00  0.00000000E+00  0.00000000E+00
  0.00000000E+00  0.00000000E+00  0.00000000E+00
  0.00000000E+00  0.00000000E+00  0.00000000E+00
  0.00000000E+00  0.00000000E+00  0.00000000E+00
  0.00000000E+00  0.00000000E+00  0.00000000E+00
  0.00000000E+00  0.00000000E+00  0.00000000E+00
  0.00000000E+00  0.00000000E+00  0.00000000E+00
  0.00000000E+00  0.00000000E+00  0.00000000E+00
  0.00000000E+00  0.00000000E+00  0.00000000E+00
  0.00000000E+00  0.00000000E+00  0.00000000E+00
  0.00000000E+00  0.00000000E+00  0.00000000E+00
  0.00000000E+00  0.00000000E+00  0.00000000E+00
  0.00000000E+00  0.00000000E+00  0.00000000E+00
  0.00000000E+00  0.00000000E+00  0.00000000E+00
  0.00000000E+00  0.00000000E+00  0.00000000E+00
  0.00000000E+00  0.00000000E+00  0.00000000E+00
  0.00000000E+00  0.00000000E+00  0.00000000E+00
  0.00000000E+00  0.00000000E+00  0.00000000E+00
  0.00000000E+00  0.00000000E+00  0.00000000E+00
  0.00000000E+00  0.00000000E+00  0.00000000E+00
  0.00000000E+00  0.00000000E+00  0.00000000E+00
  0.00000000E+00  0.00000000E+00  0.00000000E+00
  0.00000000E+00  0.00000000E+00  0.00000000E+00
  0.00000000E+00  0.00000000E+00  0.00000000E+00
  0.00000000E+00  0.00000000E+00  0.00000000E+00
  0.00000000E+00  0.00000000E+00  0.00000000E+00
  0.00000000E+00  0.00000000E+00  0.00000000E+00
  0.00000000E+00  0.00000000E+00  0.00000000E+00
  0.00000000E+00  0.00000000E+00  0.00000000E+00
