Al   B    N                             
   1.00000000000000     
    -9.3435480218322837   -0.0000001283538093    0.0000001586221917
    -4.6717641155113157    8.0917573280702317    0.0000003833763914
     0.0000004441016395   -0.0000058975411095   -9.9825785646785956
   Al   B    N 
    35     1    36
Direct
  0.1076597354190909  0.0927364740943517  0.3221260743624086
  0.2223972717423095  0.2052054867652160  0.0723544938435765
  0.7777775967424247  0.0944443790990235  0.8241278413175763
  0.8860892934775606  0.2027552587865742  0.5681208756433520
  0.4496038565448757  0.0927359691409322  0.3221260243586741
  0.5580152006032648  0.2043257961257225  0.0788063356240869
  0.1093404412349201  0.0952010720915553  0.8224671342967724
  0.2221222099774209  0.2057551820546948  0.5721239512281500
  0.8876594219829244  0.2043256673038556  0.0788062782089867
  0.4454581950295733  0.0952010760233506  0.8224670838860106
  0.5611551456705755  0.2027554492521659  0.5681209267414928
  0.1111115768115170  0.4277775866712901  0.3215386858912694
  0.2223974159006943  0.5390641723360190  0.0723544878280293
  0.7785351466159511  0.4260064972110342  0.8224670790750466
  0.8890881329715086  0.5387892502420897  0.5721240410849759
  0.4496039057445316  0.4243271379083708  0.3221261364696204
  0.5555768429318064  0.5388468939623507  0.0717639852056209
  0.1111115544768140  0.4277775400808395  0.8222285676252312
  0.2221224780061846  0.5387894902053887  0.5721240444312414
  0.7760688092028403  0.4243275106988165  0.3221260844128651
  0.8885389007075517  0.5390639407284255  0.0723543695737163
  0.4454582243560310  0.4260066748480753  0.8224670210399907
  0.5556979602427958  0.5386044735265543  0.5723828937414197
  0.1076600256187135  0.7662702523359073  0.3221260884453869
  0.2221804277857089  0.8722430028367967  0.0717643133278685
  0.7785348401503640  0.7621250126069725  0.8224672483979774
  0.8860890964931656  0.8778219303870003  0.5681208165723746
  0.4444436844993120  0.7611118938853707  0.3219324459907398
  0.5555768992805454  0.8722427161329307  0.0717641690119990
  0.1093400335293211  0.7621251952980614  0.8224672329382798
  0.2219379330003761  0.8723642146375852  0.5723827618576465
  0.7760690861412698  0.7662701090438233  0.3221259796282183
  0.8876591472703055  0.8746822999912354  0.0788064629010279
  0.4444442092848035  0.7611112753030085  0.8221377457502186
  0.5556979510704849  0.8723638826415510  0.5723828137386278
  0.7777776090042110  0.0944447955145407  0.3184582214625920
  0.2225196584945550  0.2049609776951797  0.3808413147829981
  0.1116055618908192  0.0939590755008126  0.1319107666195620
  0.8880198721033068  0.2046861564940698  0.8862917195615267
  0.7777776354949140  0.0944443132684043  0.6353266152193626
  0.5805821866947696  0.1930424596477138  0.3742189770627036
  0.4444354280787479  0.0939589470805728  0.1319106356929041
  0.2224339136352071  0.2051322463295904  0.8808541190918078
  0.1087065722865006  0.0957301263990331  0.6299813262702472
  0.8763752275480456  0.1930427273355662  0.3742189715518549
  0.7777777222079294  0.0944446734926814  0.1531364145720744
  0.5572939487167972  0.2046862733715713  0.8862916989175744
  0.4455629092740310  0.0957300538124883  0.6299812314321258
  0.2225197731982220  0.5391863870282378  0.3808414029042950
  0.1111112236983089  0.4277778093355096  0.1307861561499877
  0.8884659012126903  0.5391005276506249  0.8808539868470220
  0.7790639093272702  0.4253728202997635  0.6299812521776147
  0.5552514817136682  0.5394971739195213  0.3819408156486759
  0.4444353859496530  0.4282721519995007  0.1319107302664193
  0.2224339044319805  0.5391008285342238  0.8808540976979629
  0.1111110159748563  0.4277779072580330  0.6314017548620541
  0.8882944565526856  0.5391862300182737  0.3808413461683173
  0.7772926794663064  0.4282720894983143  0.1319107299006461
  0.5557425686529527  0.5385151435314341  0.8806183365330682
  0.4455630859120063  0.4253730198382613  0.6299811649073064
  0.2228291884003610  0.8719189480618894  0.3819407250050233
  0.1116053916463073  0.7611020036577187  0.1319107958947185
  0.8880196539478789  0.8739609169423517  0.8862918720894584
  0.7790637134977345  0.7622297072514925  0.6299813866417949
  0.5552516901723266  0.8719186205600167  0.3819407608277601
  0.4444444462350461  0.7611109997465562  0.1307738932745579
  0.2218485023547316  0.8724090953968329  0.8806186964411964
  0.1087063534384711  0.7622298983775053  0.6299813913433852
  0.8763753397044809  0.8972489769933034  0.3742189710822572
  0.7772927379758059  0.7611019155945584  0.1319106473888709
  0.5557425544162271  0.8724089459104434  0.8806185753169018
  0.4444443113085157  0.7611109869391726  0.6315069428712192
 
  0.00000000E+00  0.00000000E+00  0.00000000E+00
  0.00000000E+00  0.00000000E+00  0.00000000E+00
  0.00000000E+00  0.00000000E+00  0.00000000E+00
  0.00000000E+00  0.00000000E+00  0.00000000E+00
  0.00000000E+00  0.00000000E+00  0.00000000E+00
  0.00000000E+00  0.00000000E+00  0.00000000E+00
  0.00000000E+00  0.00000000E+00  0.00000000E+00
  0.00000000E+00  0.00000000E+00  0.00000000E+00
  0.00000000E+00  0.00000000E+00  0.00000000E+00
  0.00000000E+00  0.00000000E+00  0.00000000E+00
  0.00000000E+00  0.00000000E+00  0.00000000E+00
  0.00000000E+00  0.00000000E+00  0.00000000E+00
  0.00000000E+00  0.00000000E+00  0.00000000E+00
  0.00000000E+00  0.00000000E+00  0.00000000E+00
  0.00000000E+00  0.00000000E+00  0.00000000E+00
  0.00000000E+00  0.00000000E+00  0.00000000E+00
  0.00000000E+00  0.00000000E+00  0.00000000E+00
  0.00000000E+00  0.00000000E+00  0.00000000E+00
  0.00000000E+00  0.00000000E+00  0.00000000E+00
  0.00000000E+00  0.00000000E+00  0.00000000E+00
  0.00000000E+00  0.00000000E+00  0.00000000E+00
  0.00000000E+00  0.00000000E+00  0.00000000E+00
  0.00000000E+00  0.00000000E+00  0.00000000E+00
  0.00000000E+00  0.00000000E+00  0.00000000E+00
  0.00000000E+00  0.00000000E+00  0.00000000E+00
  0.00000000E+00  0.00000000E+00  0.00000000E+00
  0.00000000E+00  0.00000000E+00  0.00000000E+00
  0.00000000E+00  0.00000000E+00  0.00000000E+00
  0.00000000E+00  0.00000000E+00  0.00000000E+00
  0.00000000E+00  0.00000000E+00  0.00000000E+00
  0.00000000E+00  0.00000000E+00  0.00000000E+00
  0.00000000E+00  0.00000000E+00  0.00000000E+00
  0.00000000E+00  0.00000000E+00  0.00000000E+00
  0.00000000E+00  0.00000000E+00  0.00000000E+00
  0.00000000E+00  0.00000000E+00  0.00000000E+00
  0.00000000E+00  0.00000000E+00  0.00000000E+00
  0.00000000E+00  0.00000000E+00  0.00000000E+00
  0.00000000E+00  0.00000000E+00  0.00000000E+00
  0.00000000E+00  0.00000000E+00  0.00000000E+00
  0.00000000E+00  0.00000000E+00  0.00000000E+00
  0.00000000E+00  0.00000000E+00  0.00000000E+00
  0.00000000E+00  0.00000000E+00  0.00000000E+00
  0.00000000E+00  0.00000000E+00  0.00000000E+00
  0.00000000E+00  0.00000000E+00  0.00000000E+00
  0.00000000E+00  0.00000000E+00  0.00000000E+00
  0.00000000E+00  0.00000000E+00  0.00000000E+00
  0.00000000E+00  0.00000000E+00  0.00000000E+00
  0.00000000E+00  0.00000000E+00  0.00000000E+00
  0.00000000E+00  0.00000000E+00  0.00000000E+00
  0.00000000E+00  0.00000000E+00  0.00000000E+00
  0.00000000E+00  0.00000000E+00  0.00000000E+00
  0.00000000E+00  0.00000000E+00  0.00000000E+00
  0.00000000E+00  0.00000000E+00  0.00000000E+00
  0.00000000E+00  0.00000000E+00  0.00000000E+00
  0.00000000E+00  0.00000000E+00  0.00000000E+00
  0.00000000E+00  0.00000000E+00  0.00000000E+00
  0.00000000E+00  0.00000000E+00  0.00000000E+00
  0.00000000E+00  0.00000000E+00  0.00000000E+00
  0.00000000E+00  0.00000000E+00  0.00000000E+00
  0.00000000E+00  0.00000000E+00  0.00000000E+00
  0.00000000E+00  0.00000000E+00  0.00000000E+00
  0.00000000E+00  0.00000000E+00  0.00000000E+00
  0.00000000E+00  0.00000000E+00  0.00000000E+00
  0.00000000E+00  0.00000000E+00  0.00000000E+00
  0.00000000E+00  0.00000000E+00  0.00000000E+00
  0.00000000E+00  0.00000000E+00  0.00000000E+00
  0.00000000E+00  0.00000000E+00  0.00000000E+00
  0.00000000E+00  0.00000000E+00  0.00000000E+00
  0.00000000E+00  0.00000000E+00  0.00000000E+00
  0.00000000E+00  0.00000000E+00  0.00000000E+00
  0.00000000E+00  0.00000000E+00  0.00000000E+00
  0.00000000E+00  0.00000000E+00  0.00000000E+00
