Al   B    N                             
   1.00000000000000     
    -9.3431913156135238   -0.0000001302423623    0.0000001642901804
    -4.6715909585632023    8.0914445870895975    0.0000004000994324
     0.0000003652060967   -0.0000029081754766   -9.9834390091892047
   Al   B    N 
    35     1    36
Direct
  0.1076582218622946  0.0927371089455065  0.3203104504607666
  0.2223965433326214  0.2052067194628577  0.0705378141591169
  0.7777774284989221  0.0944444252862766  0.8223221240239766
  0.8860909023866483  0.2027567049787180  0.5663182080064288
  0.4496046198125185  0.0927366706089501  0.3203104278068949
  0.5580179885104215  0.2043244136952111  0.0769961021138599
  0.1093418659196885  0.0952001453636839  0.8206541235195743
  0.2221226786789003  0.2057543383973126  0.5703073892635828
  0.8876578382686375  0.2043241627371728  0.0769960066989910
  0.4454574905117497  0.0952002673914620  0.8206540669690270
  0.5611521112915412  0.2027570602263182  0.5663182264083204
  0.1111115364004789  0.4277775928405418  0.3197222703748892
  0.2223967307722745  0.5390637351025873  0.0705377776317491
  0.7785341564021522  0.4260080052093542  0.8206540990872426
  0.8890873709802420  0.5387896443364255  0.5703074739111358
  0.4496047014328184  0.4243256249928393  0.3203104906403667
  0.5555764358962776  0.5388476389009540  0.0699488147529337
  0.1111114552223285  0.4277776678921867  0.8204094954421279
  0.2221230236160352  0.5387899520329498  0.5703074558475905
  0.7760695070961745  0.4243259004246980  0.3203104739536542
  0.8885399026782252  0.5390634517540747  0.0705376946497793
  0.4454575470183997  0.4260083016689293  0.8206540589461540
  0.5556983073027837  0.5386040565062871  0.5705657820650174
  0.1076585540907686  0.7662710247322408  0.3203104426886796
  0.2221810913405591  0.8722426871534310  0.0699491255703109
  0.7785338910091539  0.7621245228066158  0.8206541753803904
  0.8860908125127978  0.8778188207795452  0.5663180521015363
  0.4444437669436994  0.7611118584849379  0.3201166742909862
  0.5555765248120110  0.8722424908608275  0.0699489807629874
  0.1093415075906989  0.7621247316146764  0.8206541811553620
  0.2219377503106514  0.8723643559696299  0.5705655733134876
  0.7760698029499764  0.7662708799322715  0.3203103862462342
  0.8876576247251577  0.8746852552935351  0.0769961838703139
  0.4444442388376544  0.7611113590551142  0.8203187984237843
  0.5556983290389041  0.8723641240242372  0.5705656667387444
  0.7777775720061371  0.0944446960946195  0.3166713208756988
  0.2225198134359019  0.2049605217753694  0.3790392016370276
  0.1116058075724027  0.0939591881221133  0.1301095107420949
  0.8880205043618261  0.2046868473669647  0.8844934020121471
  0.7777776768664424  0.0944442813053996  0.6335316345950801
  0.5805807541708390  0.1930431189278181  0.3724265345488149
  0.4444349533836487  0.0939591138574869  0.1301094657569024
  0.2224330161821726  0.2051337765342325  0.8790526564757641
  0.1087096715571221  0.0957285471051534  0.6281832003332610
  0.8763759459725975  0.1930432931619919  0.3724265897303098
  0.7777776259758582  0.0944447231730265  0.1513455104560393
  0.5572922341953159  0.2046871023841348  0.8844934269607592
  0.4455615812977811  0.0957285876097203  0.6281831115756376
  0.2225199740623012  0.5391865136147516  0.3790392613873408
  0.1111111642678750  0.4277779669560786  0.1289848828191182
  0.8884672478123861  0.5390998331083239  0.8790525126566777
  0.7790625241399809  0.4253757351541196  0.6281831655086947
  0.5552518858198141  0.5394962229907847  0.3801386299735512
  0.4444349497027815  0.4282726136517496  0.1301095198058562
  0.2224330473896217  0.5391001662837525  0.8790526249510080
  0.1111111648194338  0.4277779921444278  0.6295975212074154
  0.8882940223611513  0.5391863451041701  0.3790392287328643
  0.7772926954705639  0.4282724150774726  0.1301094822951114
  0.5557415062554938  0.5385170875108614  0.8788180062617030
  0.4455618008951987  0.4253760707553624  0.6281831352160481
  0.2228284112143655  0.8719192223595158  0.3801384724400805
  0.1116056858356416  0.7611017637800401  0.1301095873759337
  0.8880203553782664  0.8739593889668313  0.8844935534641110
  0.7790623637006462  0.7622283122945461  0.6281832196445762
  0.5552521141027853  0.8719190012133495  0.3801385881882524
  0.4444444942115027  0.7611110944021107  0.1289733783846927
  0.2218504354771653  0.8724080761129613  0.8788183575277344
  0.1087095254500596  0.7622285399102608  0.6281832719452325
  0.8763760849353588  0.8972474799048129  0.3724265113397749
  0.7772927352093291  0.7611016555651915  0.1301094828755112
  0.5557415576416602  0.8724080595419252  0.8788182293216522
  0.4444445736246294  0.7611110178015394  0.6297025895798924
 
  0.00000000E+00  0.00000000E+00  0.00000000E+00
  0.00000000E+00  0.00000000E+00  0.00000000E+00
  0.00000000E+00  0.00000000E+00  0.00000000E+00
  0.00000000E+00  0.00000000E+00  0.00000000E+00
  0.00000000E+00  0.00000000E+00  0.00000000E+00
  0.00000000E+00  0.00000000E+00  0.00000000E+00
  0.00000000E+00  0.00000000E+00  0.00000000E+00
  0.00000000E+00  0.00000000E+00  0.00000000E+00
  0.00000000E+00  0.00000000E+00  0.00000000E+00
  0.00000000E+00  0.00000000E+00  0.00000000E+00
  0.00000000E+00  0.00000000E+00  0.00000000E+00
  0.00000000E+00  0.00000000E+00  0.00000000E+00
  0.00000000E+00  0.00000000E+00  0.00000000E+00
  0.00000000E+00  0.00000000E+00  0.00000000E+00
  0.00000000E+00  0.00000000E+00  0.00000000E+00
  0.00000000E+00  0.00000000E+00  0.00000000E+00
  0.00000000E+00  0.00000000E+00  0.00000000E+00
  0.00000000E+00  0.00000000E+00  0.00000000E+00
  0.00000000E+00  0.00000000E+00  0.00000000E+00
  0.00000000E+00  0.00000000E+00  0.00000000E+00
  0.00000000E+00  0.00000000E+00  0.00000000E+00
  0.00000000E+00  0.00000000E+00  0.00000000E+00
  0.00000000E+00  0.00000000E+00  0.00000000E+00
  0.00000000E+00  0.00000000E+00  0.00000000E+00
  0.00000000E+00  0.00000000E+00  0.00000000E+00
  0.00000000E+00  0.00000000E+00  0.00000000E+00
  0.00000000E+00  0.00000000E+00  0.00000000E+00
  0.00000000E+00  0.00000000E+00  0.00000000E+00
  0.00000000E+00  0.00000000E+00  0.00000000E+00
  0.00000000E+00  0.00000000E+00  0.00000000E+00
  0.00000000E+00  0.00000000E+00  0.00000000E+00
  0.00000000E+00  0.00000000E+00  0.00000000E+00
  0.00000000E+00  0.00000000E+00  0.00000000E+00
  0.00000000E+00  0.00000000E+00  0.00000000E+00
  0.00000000E+00  0.00000000E+00  0.00000000E+00
  0.00000000E+00  0.00000000E+00  0.00000000E+00
  0.00000000E+00  0.00000000E+00  0.00000000E+00
  0.00000000E+00  0.00000000E+00  0.00000000E+00
  0.00000000E+00  0.00000000E+00  0.00000000E+00
  0.00000000E+00  0.00000000E+00  0.00000000E+00
  0.00000000E+00  0.00000000E+00  0.00000000E+00
  0.00000000E+00  0.00000000E+00  0.00000000E+00
  0.00000000E+00  0.00000000E+00  0.00000000E+00
  0.00000000E+00  0.00000000E+00  0.00000000E+00
  0.00000000E+00  0.00000000E+00  0.00000000E+00
  0.00000000E+00  0.00000000E+00  0.00000000E+00
  0.00000000E+00  0.00000000E+00  0.00000000E+00
  0.00000000E+00  0.00000000E+00  0.00000000E+00
  0.00000000E+00  0.00000000E+00  0.00000000E+00
  0.00000000E+00  0.00000000E+00  0.00000000E+00
  0.00000000E+00  0.00000000E+00  0.00000000E+00
  0.00000000E+00  0.00000000E+00  0.00000000E+00
  0.00000000E+00  0.00000000E+00  0.00000000E+00
  0.00000000E+00  0.00000000E+00  0.00000000E+00
  0.00000000E+00  0.00000000E+00  0.00000000E+00
  0.00000000E+00  0.00000000E+00  0.00000000E+00
  0.00000000E+00  0.00000000E+00  0.00000000E+00
  0.00000000E+00  0.00000000E+00  0.00000000E+00
  0.00000000E+00  0.00000000E+00  0.00000000E+00
  0.00000000E+00  0.00000000E+00  0.00000000E+00
  0.00000000E+00  0.00000000E+00  0.00000000E+00
  0.00000000E+00  0.00000000E+00  0.00000000E+00
  0.00000000E+00  0.00000000E+00  0.00000000E+00
  0.00000000E+00  0.00000000E+00  0.00000000E+00
  0.00000000E+00  0.00000000E+00  0.00000000E+00
  0.00000000E+00  0.00000000E+00  0.00000000E+00
  0.00000000E+00  0.00000000E+00  0.00000000E+00
  0.00000000E+00  0.00000000E+00  0.00000000E+00
  0.00000000E+00  0.00000000E+00  0.00000000E+00
  0.00000000E+00  0.00000000E+00  0.00000000E+00
  0.00000000E+00  0.00000000E+00  0.00000000E+00
  0.00000000E+00  0.00000000E+00  0.00000000E+00
