Al   B    N                             
   1.00000000000000     
    -9.4604515775860101   -0.0000001189110444    0.0000001302822480
    -4.7302229435861962    8.1929484813958471    0.0000002997611860
    -0.0000002805861880   -0.0000048469004135   -9.6675169337699813
   Al   B    N 
    35     1    36
Direct
  0.1079385231712351  0.0925100867842659  0.3283891332132853
  0.2226507531429149  0.2046985456988395  0.0781649605550570
  0.7777777367698633  0.0944445416692901  0.8302969460151743
  0.8854180118838073  0.2020846942694305  0.5722324989722054
  0.4495514318073788  0.0925100804678181  0.3283891306800513
  0.5570320025965572  0.2048172685527092  0.0845332742500560
  0.1088234367960936  0.0955587125040793  0.8273311928604343
  0.2219134461803520  0.2061731701193210  0.5775694593156899
  0.8881507856114155  0.2048172741215240  0.0845332791474505
  0.4456178522328713  0.0955587088099463  0.8273311969022146
  0.5624973543766458  0.2020846707495849  0.5722325095601164
  0.1111111183259936  0.4277777736957802  0.3266111019969671
  0.2226507932607120  0.5393171716774816  0.0781649658270496
  0.7788918350792429  0.4254902949934092  0.8273312110881221
  0.8895067270478165  0.5385798811999081  0.5775694633211117
  0.4495515335391573  0.4246053468517204  0.3283890923009523
  0.5557961370382642  0.5384077581899689  0.0770309272842127
  0.1111110955804335  0.4277777939860314  0.8286319246013392
  0.2219134437374422  0.5385798706806710  0.5775694486284593
  0.7758431215842450  0.4246053844728763  0.3283890813868666
  0.8880320778792452  0.5393171764172848  0.0781649477810404
  0.4456178538388471  0.4254902864144299  0.8273312059697986
  0.5555800692921977  0.5388399035616587  0.5783121862574134
  0.1079386171115715  0.7662182043047707  0.3283890713497115
  0.2217411644803917  0.8724627259694628  0.0770309284320092
  0.7788918755281813  0.7622845926328594  0.8273312016679384
  0.8854180684859045  0.8791638752529636  0.5722325355521036
  0.4444443224317780  0.7611113241988008  0.3267916189940294
  0.5557961389357331  0.8724627258988988  0.0770309347025702
  0.1088235229088212  0.7622845721496674  0.8273311915100336
  0.2221732341365978  0.8722466830058551  0.5783121808880907
  0.7758431727254589  0.7662182074986674  0.3283890560277598
  0.8881508417908535  0.8736983660094637  0.0845331537329415
  0.4444443477029623  0.7611112754259253  0.8285027043594866
  0.5555801139778040  0.8722466709032943  0.5783121715811532
  0.7777779819823678  0.0944441001205973  0.3175132424796487
  0.2223804510699736  0.2052391875977619  0.3809122856255485
  0.1116818554447931  0.0938634017380053  0.1326039488657145
  0.8880881785717847  0.2047543098964226  0.8870612932415440
  0.7777775526477697  0.0944449021238896  0.6369966978238253
  0.5813332722648923  0.1926665154775051  0.3735974169253353
  0.4444547420862079  0.0938634067979294  0.1326039474512584
  0.2226809424431835  0.2046381713805232  0.8808143215672501
  0.1080469077539163  0.0961370282168730  0.6291719666455791
  0.8760002830768983  0.1926665395831719  0.3735973984585357
  0.7777776527717393  0.0944447040053333  0.1512595548541427
  0.5571575796660682  0.2047542966564464  0.8870612887984350
  0.4458160618582809  0.0961370051626957  0.6291719743895996
  0.2223804368583302  0.5390464501941068  0.3809122350576573
  0.1111109122674421  0.4277781555508042  0.1301970013135900
  0.8879721827034501  0.5393469390680536  0.8808143148485073
  0.7794696068994043  0.4247143548787875  0.6291720054692007
  0.5549873987018259  0.5400252560809875  0.3823022045519338
  0.4444547995189012  0.4283491752438948  0.1326038994684566
  0.2226809238757568  0.5393469256074468  0.8808143280576104
  0.1111109214738306  0.4277781493580619  0.6321181838787311
  0.8885731768403460  0.5390464639789698  0.3809122475693130
  0.7771960038985029  0.4283491932231200  0.1326038896122768
  0.5560639451001066  0.5378721386453833  0.8801649311757984
  0.4458160318333739  0.4247143457010907  0.6291720008493868
  0.2233589480760969  0.8716536106005321  0.3823021940105491
  0.1116819210261966  0.7611219963045102  0.1326038746894866
  0.8880882283419496  0.8738235867407056  0.8870611981407848
  0.7794696630592171  0.7624832892602669  0.6291719766050647
  0.5549874837582252  0.8716536008114204  0.3823021811976233
  0.4444441857537242  0.7611115943389848  0.1298654312993008
  0.2212059383931546  0.8727300913205980  0.8801649174544224
  0.1080470116704220  0.7624832860634356  0.6291719619501350
  0.8760002773221061  0.8979994892726282  0.3735973454169681
  0.7771960638579287  0.7611220001523975  0.1326038620391614
  0.5560639950583735  0.8727300879477582  0.8801649285839943
  0.4444441652246311  0.7611116352599367  0.6324019401042733
 
  0.00000000E+00  0.00000000E+00  0.00000000E+00
  0.00000000E+00  0.00000000E+00  0.00000000E+00
  0.00000000E+00  0.00000000E+00  0.00000000E+00
  0.00000000E+00  0.00000000E+00  0.00000000E+00
  0.00000000E+00  0.00000000E+00  0.00000000E+00
  0.00000000E+00  0.00000000E+00  0.00000000E+00
  0.00000000E+00  0.00000000E+00  0.00000000E+00
  0.00000000E+00  0.00000000E+00  0.00000000E+00
  0.00000000E+00  0.00000000E+00  0.00000000E+00
  0.00000000E+00  0.00000000E+00  0.00000000E+00
  0.00000000E+00  0.00000000E+00  0.00000000E+00
  0.00000000E+00  0.00000000E+00  0.00000000E+00
  0.00000000E+00  0.00000000E+00  0.00000000E+00
  0.00000000E+00  0.00000000E+00  0.00000000E+00
  0.00000000E+00  0.00000000E+00  0.00000000E+00
  0.00000000E+00  0.00000000E+00  0.00000000E+00
  0.00000000E+00  0.00000000E+00  0.00000000E+00
  0.00000000E+00  0.00000000E+00  0.00000000E+00
  0.00000000E+00  0.00000000E+00  0.00000000E+00
  0.00000000E+00  0.00000000E+00  0.00000000E+00
  0.00000000E+00  0.00000000E+00  0.00000000E+00
  0.00000000E+00  0.00000000E+00  0.00000000E+00
  0.00000000E+00  0.00000000E+00  0.00000000E+00
  0.00000000E+00  0.00000000E+00  0.00000000E+00
  0.00000000E+00  0.00000000E+00  0.00000000E+00
  0.00000000E+00  0.00000000E+00  0.00000000E+00
  0.00000000E+00  0.00000000E+00  0.00000000E+00
  0.00000000E+00  0.00000000E+00  0.00000000E+00
  0.00000000E+00  0.00000000E+00  0.00000000E+00
  0.00000000E+00  0.00000000E+00  0.00000000E+00
  0.00000000E+00  0.00000000E+00  0.00000000E+00
  0.00000000E+00  0.00000000E+00  0.00000000E+00
  0.00000000E+00  0.00000000E+00  0.00000000E+00
  0.00000000E+00  0.00000000E+00  0.00000000E+00
  0.00000000E+00  0.00000000E+00  0.00000000E+00
  0.00000000E+00  0.00000000E+00  0.00000000E+00
  0.00000000E+00  0.00000000E+00  0.00000000E+00
  0.00000000E+00  0.00000000E+00  0.00000000E+00
  0.00000000E+00  0.00000000E+00  0.00000000E+00
  0.00000000E+00  0.00000000E+00  0.00000000E+00
  0.00000000E+00  0.00000000E+00  0.00000000E+00
  0.00000000E+00  0.00000000E+00  0.00000000E+00
  0.00000000E+00  0.00000000E+00  0.00000000E+00
  0.00000000E+00  0.00000000E+00  0.00000000E+00
  0.00000000E+00  0.00000000E+00  0.00000000E+00
  0.00000000E+00  0.00000000E+00  0.00000000E+00
  0.00000000E+00  0.00000000E+00  0.00000000E+00
  0.00000000E+00  0.00000000E+00  0.00000000E+00
  0.00000000E+00  0.00000000E+00  0.00000000E+00
  0.00000000E+00  0.00000000E+00  0.00000000E+00
  0.00000000E+00  0.00000000E+00  0.00000000E+00
  0.00000000E+00  0.00000000E+00  0.00000000E+00
  0.00000000E+00  0.00000000E+00  0.00000000E+00
  0.00000000E+00  0.00000000E+00  0.00000000E+00
  0.00000000E+00  0.00000000E+00  0.00000000E+00
  0.00000000E+00  0.00000000E+00  0.00000000E+00
  0.00000000E+00  0.00000000E+00  0.00000000E+00
  0.00000000E+00  0.00000000E+00  0.00000000E+00
  0.00000000E+00  0.00000000E+00  0.00000000E+00
  0.00000000E+00  0.00000000E+00  0.00000000E+00
  0.00000000E+00  0.00000000E+00  0.00000000E+00
  0.00000000E+00  0.00000000E+00  0.00000000E+00
  0.00000000E+00  0.00000000E+00  0.00000000E+00
  0.00000000E+00  0.00000000E+00  0.00000000E+00
  0.00000000E+00  0.00000000E+00  0.00000000E+00
  0.00000000E+00  0.00000000E+00  0.00000000E+00
  0.00000000E+00  0.00000000E+00  0.00000000E+00
  0.00000000E+00  0.00000000E+00  0.00000000E+00
  0.00000000E+00  0.00000000E+00  0.00000000E+00
  0.00000000E+00  0.00000000E+00  0.00000000E+00
  0.00000000E+00  0.00000000E+00  0.00000000E+00
  0.00000000E+00  0.00000000E+00  0.00000000E+00
