Al   B    N                             
   1.00000000000000     
    -9.6044503754069090   -0.0000001094682796    0.0000001019423043
    -4.8022226943469466    8.3179956014263965    0.0000002161459806
    -0.0000007024204475    0.0000024813092589   -9.2409483174930127
   Al   B    N 
    35     1    36
Direct
  0.1081518772136434  0.0922863266727845  0.3345511182768490
  0.2229046713390943  0.2041907053891663  0.0839279697625841
  0.7777785792029732  0.0944428811198179  0.8363089735298175
  0.8845866911852411  0.2012551404515506  0.5756279093760313
  0.4495618222175111  0.0922863300779113  0.3345511110693948
  0.5560654891323082  0.2053018356925307  0.0899980567328882
  0.1082244466125175  0.0960011165567423  0.8317558049217766
  0.2217389386278228  0.2065221864067652  0.5825416592764086
  0.8886327319411080  0.2053018497205272  0.0899980622458330
  0.4457744648955639  0.0960011162509105  0.8317558094628126
  0.5641582468771418  0.2012550951809189  0.5756279107799998
  0.1111116375633543  0.4277767259200900  0.3314589821975176
  0.2229046059094131  0.5395737343943310  0.0839281350367500
  0.7793368269687946  0.4248888082551190  0.8317558047022970
  0.8898529497607939  0.5384080283807222  0.5825414325486236
  0.4495612016669597  0.4248166884854925  0.3345512069983982
  0.5560189537483922  0.5379621152241469  0.0820376666975520
  0.1111117574326528  0.4277764785409843  0.8347015269752092
  0.2217390742783252  0.5384080169522747  0.5825414179067323
  0.7756221015416003  0.4248167337769004  0.3345511893603472
  0.8875216990611108  0.5395737386016322  0.0839281114935062
  0.4457743662113529  0.4248887933430723  0.8317557953899524
  0.5554907019701574  0.5390186434319730  0.5839374497931829
  0.1081514459503197  0.7662262234602650  0.3345512068442389
  0.2212931836123104  0.8726878108322396  0.0820376182188269
  0.7793367406186746  0.7624389812038928  0.8317557591938538
  0.8845863065120056  0.8808273758681793  0.5756280418124433
  0.4444453945203151  0.7611091751258385  0.3314140649205939
  0.5560190282240143  0.8726878109485980  0.0820376269447678
  0.1082242904699910  0.7624389559560143  0.8317557458272873
  0.2223499226000811  0.8721594630738352  0.5839374470447254
  0.7756223270423988  0.7662262123224792  0.3345511831920120
  0.8886327696756169  0.8727345038838976  0.0899982531073533
  0.4444451785182579  0.7611096231206318  0.8345456065466479
  0.5554906449728136  0.8721594465853642  0.5839374297918738
  0.7777769688530469  0.0944461023863070  0.3137268051874429
  0.2222703932343464  0.2054592890541400  0.3759724326626923
  0.1117029549738717  0.0938170527613522  0.1286817350981408
  0.8882535724339746  0.2049236433236175  0.8833798761676022
  0.7777790874858681  0.0944418356254744  0.6354556994482579
  0.5825802039722845  0.1920443240532634  0.3681766838918890
  0.4444799941769091  0.0938170590893108  0.1286817304792720
  0.2229420798239445  0.2041159197412412  0.8757042272252846
  0.1072688577377363  0.0965966444181277  0.6230160455622098
  0.8753755314813674  0.1920443576014534  0.3681766705534670
  0.7777787389712145  0.0944425327253029  0.1431678721800509
  0.5568228682694283  0.2049236272410937  0.8833798667099515
  0.4461345046164240  0.0965966167223442  0.6230160486564102
  0.2222705415422865  0.5389404518307686  0.3759725057300756
  0.1111123258500442  0.4277753273989404  0.1245743965249844
  0.8874456563739699  0.5396121834642571  0.8757041834644923
  0.7799335812190265  0.4239318116940609  0.6230158539843345
  0.5547403349333138  0.5405193588010420  0.3777739947835954
  0.4444800558842203  0.4283657535966157  0.1286818841976469
  0.2229422178146763  0.5396121622829142  0.8757041952722133
  0.1111122649466765  0.4277754723106995  0.6277404842468357
  0.8887890628563966  0.5389404612600615  0.3759725199128994
  0.7771541584918467  0.4283657827656882  0.1286818721630780
  0.5563897675113978  0.5372204936376406  0.8745760993018905
  0.4461346073887427  0.4239317935907181  0.6230158380647239
  0.2238494593819667  0.8714104552949422  0.3777740018470723
  0.1117027901088008  0.7611431441440573  0.1286819807635524
  0.8882534388717502  0.8734931733116085  0.8833797885656836
  0.7799333790298419  0.7627979963225897  0.6230159011338756
  0.5547401109300765  0.8714104496264667  0.3777739818006154
  0.4444455738235646  0.7611088088038755  0.1238623229561497
  0.2205505717379594  0.8730598556416140  0.8745762168857638
  0.1072685849648494  0.7627979916029801  0.6230158831164729
  0.8753756320312505  0.8992487634617277  0.3681769990998731
  0.7771540411010278  0.7611431478254431  0.1286819644636523
  0.5563895989676553  0.8730598526975228  0.8745762286130372
  0.4444456642742765  0.7611086362319455  0.6283688365000231
 
  0.00000000E+00  0.00000000E+00  0.00000000E+00
  0.00000000E+00  0.00000000E+00  0.00000000E+00
  0.00000000E+00  0.00000000E+00  0.00000000E+00
  0.00000000E+00  0.00000000E+00  0.00000000E+00
  0.00000000E+00  0.00000000E+00  0.00000000E+00
  0.00000000E+00  0.00000000E+00  0.00000000E+00
  0.00000000E+00  0.00000000E+00  0.00000000E+00
  0.00000000E+00  0.00000000E+00  0.00000000E+00
  0.00000000E+00  0.00000000E+00  0.00000000E+00
  0.00000000E+00  0.00000000E+00  0.00000000E+00
  0.00000000E+00  0.00000000E+00  0.00000000E+00
  0.00000000E+00  0.00000000E+00  0.00000000E+00
  0.00000000E+00  0.00000000E+00  0.00000000E+00
  0.00000000E+00  0.00000000E+00  0.00000000E+00
  0.00000000E+00  0.00000000E+00  0.00000000E+00
  0.00000000E+00  0.00000000E+00  0.00000000E+00
  0.00000000E+00  0.00000000E+00  0.00000000E+00
  0.00000000E+00  0.00000000E+00  0.00000000E+00
  0.00000000E+00  0.00000000E+00  0.00000000E+00
  0.00000000E+00  0.00000000E+00  0.00000000E+00
  0.00000000E+00  0.00000000E+00  0.00000000E+00
  0.00000000E+00  0.00000000E+00  0.00000000E+00
  0.00000000E+00  0.00000000E+00  0.00000000E+00
  0.00000000E+00  0.00000000E+00  0.00000000E+00
  0.00000000E+00  0.00000000E+00  0.00000000E+00
  0.00000000E+00  0.00000000E+00  0.00000000E+00
  0.00000000E+00  0.00000000E+00  0.00000000E+00
  0.00000000E+00  0.00000000E+00  0.00000000E+00
  0.00000000E+00  0.00000000E+00  0.00000000E+00
  0.00000000E+00  0.00000000E+00  0.00000000E+00
  0.00000000E+00  0.00000000E+00  0.00000000E+00
  0.00000000E+00  0.00000000E+00  0.00000000E+00
  0.00000000E+00  0.00000000E+00  0.00000000E+00
  0.00000000E+00  0.00000000E+00  0.00000000E+00
  0.00000000E+00  0.00000000E+00  0.00000000E+00
  0.00000000E+00  0.00000000E+00  0.00000000E+00
  0.00000000E+00  0.00000000E+00  0.00000000E+00
  0.00000000E+00  0.00000000E+00  0.00000000E+00
  0.00000000E+00  0.00000000E+00  0.00000000E+00
  0.00000000E+00  0.00000000E+00  0.00000000E+00
  0.00000000E+00  0.00000000E+00  0.00000000E+00
  0.00000000E+00  0.00000000E+00  0.00000000E+00
  0.00000000E+00  0.00000000E+00  0.00000000E+00
  0.00000000E+00  0.00000000E+00  0.00000000E+00
  0.00000000E+00  0.00000000E+00  0.00000000E+00
  0.00000000E+00  0.00000000E+00  0.00000000E+00
  0.00000000E+00  0.00000000E+00  0.00000000E+00
  0.00000000E+00  0.00000000E+00  0.00000000E+00
  0.00000000E+00  0.00000000E+00  0.00000000E+00
  0.00000000E+00  0.00000000E+00  0.00000000E+00
  0.00000000E+00  0.00000000E+00  0.00000000E+00
  0.00000000E+00  0.00000000E+00  0.00000000E+00
  0.00000000E+00  0.00000000E+00  0.00000000E+00
  0.00000000E+00  0.00000000E+00  0.00000000E+00
  0.00000000E+00  0.00000000E+00  0.00000000E+00
  0.00000000E+00  0.00000000E+00  0.00000000E+00
  0.00000000E+00  0.00000000E+00  0.00000000E+00
  0.00000000E+00  0.00000000E+00  0.00000000E+00
  0.00000000E+00  0.00000000E+00  0.00000000E+00
  0.00000000E+00  0.00000000E+00  0.00000000E+00
  0.00000000E+00  0.00000000E+00  0.00000000E+00
  0.00000000E+00  0.00000000E+00  0.00000000E+00
  0.00000000E+00  0.00000000E+00  0.00000000E+00
  0.00000000E+00  0.00000000E+00  0.00000000E+00
  0.00000000E+00  0.00000000E+00  0.00000000E+00
  0.00000000E+00  0.00000000E+00  0.00000000E+00
  0.00000000E+00  0.00000000E+00  0.00000000E+00
  0.00000000E+00  0.00000000E+00  0.00000000E+00
  0.00000000E+00  0.00000000E+00  0.00000000E+00
  0.00000000E+00  0.00000000E+00  0.00000000E+00
  0.00000000E+00  0.00000000E+00  0.00000000E+00
  0.00000000E+00  0.00000000E+00  0.00000000E+00
