Al   B    N                             
   1.00000000000000     
    -9.8546882426820535   -0.0000000886941969    0.0000000395944282
    -4.9273425242501521    8.5344122136102705    0.0000000321925289
    -0.0000000521521611   -0.0000000211668195   -8.4533585328635841
   Al   B    N 
    35     1    36
Direct
  0.1057497045153468  0.0925743826326766  0.3547429671213607
  0.2223419316171089  0.2053161980344456  0.1081914444979404
  0.7777777805978019  0.0944444550705938  0.8540556396103796
  0.8866206536202483  0.2032873392514603  0.6076134304972030
  0.4516759398385162  0.0925743604413682  0.3547429680783765
  0.5626367758835329  0.2020149483479727  0.1035492118883568
  0.1104026268064331  0.0957316026806438  0.8550151833444701
  0.2223965438318913  0.2052069799442506  0.6012328882986822
  0.8853482718900239  0.2020149553264332  0.1035492615883200
  0.4438657745123749  0.0957315607169420  0.8550151774912251
  0.5600920374684719  0.2032873270521094  0.6076134581662558
  0.1111111268433476  0.4277777977302719  0.3546182837707050
  0.2223419600561343  0.5390086405651857  0.1081914687413175
  0.7790649306447150  0.4270692968285701  0.8550151884735016
  0.8885402947720209  0.5390632252234511  0.6012328860444214
  0.4516759887830375  0.4224162993184564  0.3547429644832150
  0.5558998165938078  0.5382004474417670  0.1060648459796170
  0.1111111134012788  0.4277777838824477  0.8547171992538907
  0.2223965703765955  0.5390632491520932  0.6012328602033676
  0.7759077087893189  0.4224163765927642  0.3547429656414067
  0.8886495130405763  0.5390086148381386  0.1081914493269096
  0.4438657746908348  0.4270692976138335  0.8550151810640756
  0.5558038024700522  0.5383924774204161  0.6033726842607550
  0.1057496303344863  0.7683426592999041  0.3547429666876525
  0.2215337683565011  0.8725664999591984  0.1060648457726572
  0.7790648905367590  0.7605324437867083  0.8550151762410749
  0.8866206388027180  0.8767587284090510  0.6076134528875770
  0.4444444248540549  0.7611110880545624  0.3545716194814830
  0.5558997708960121  0.8725664553404187  0.1060648449295769
  0.1104026295221985  0.7605324423760820  0.8550151793678324
  0.2217258009554897  0.8724704826257579  0.6033726815987848
  0.7759076870131025  0.7683426119412218  0.3547429679312941
  0.8853482631975709  0.8793034637014898  0.1035492200239148
  0.4444444243641001  0.7611110902716050  0.8547628727300918
  0.5558037581395610  0.8724704412421147  0.6033726776087462
  0.7777777750607484  0.0944444704106573  0.3666396683627227
  0.2224809477712668  0.2050382159926514  0.3544474959714563
  0.1085813152705768  0.0957629081729223  0.1088137359298784
  0.8911505762310483  0.2078172643425731  0.8526844049823410
  0.7777777781834629  0.0944444564901019  0.6184345983637982
  0.5899345373879896  0.1883660847083348  0.3546879372687215
  0.4456558103312602  0.0957628352924402  0.1088137179171440
  0.2228979323257079  0.2042041512814166  0.8545466436257740
  0.1092064760930072  0.0953799004811131  0.5999119302888687
  0.8716994104770208  0.1883661020175467  0.3546879209282636
  0.7777777689438139  0.0944444427175668  0.0814575895626533
  0.5510321788299493  0.2078172512703063  0.8526843985309753
  0.4454136644298998  0.0953798331563718  0.5999119544129812
  0.2224809389443649  0.5391476189868882  0.3544474941619811
  0.1111111376091003  0.4277778061327027  0.1040105678947043
  0.8875374620522010  0.5395646171001829  0.8545466381805795
  0.7787132328350665  0.4258731410508787  0.5999119200188545
  0.5548912332365461  0.5402175623946448  0.3543796005906401
  0.4456558511793034  0.4252479813901502  0.1088137224269587
  0.2228979417279575  0.5395646220548187  0.8545466552109033
  0.1111111407159981  0.4277778082060379  0.6050553532929968
  0.8883715271380836  0.5391476323816136  0.3544474906883579
  0.7790962392075542  0.4252479812663879  0.1088137308203656
  0.5563251706335421  0.5373496979837498  0.8545898989208922
  0.4454136980802872  0.4258731406510421  0.5999119468552578
  0.2235508809983031  0.8715579211591802  0.3543796042665335
  0.1085813170087349  0.7623225164580276  0.1088137266715918
  0.8911505630535004  0.8676988674880945  0.8526843961275361
  0.7787131659910642  0.7620803310626201  0.5999119488619158
  0.5548911912564947  0.8715578837185589  0.3543795987106009
  0.4444444374825949  0.7611110975058040  0.1030116820947171
  0.2206830157179098  0.8729918568597554  0.8545899039486713
  0.1092064756482856  0.7620803622905186  0.5999119463469142
  0.8716993922078586  0.9066012296110557  0.3546879414479207
  0.7790961676188033  0.7623224783401312  0.1088137205283459
  0.5563251221077437  0.8729918102393555  0.8545899067758143
  0.4444444423487397  0.7611110997845074  0.6060514283707903
 
  0.00000000E+00  0.00000000E+00  0.00000000E+00
  0.00000000E+00  0.00000000E+00  0.00000000E+00
  0.00000000E+00  0.00000000E+00  0.00000000E+00
  0.00000000E+00  0.00000000E+00  0.00000000E+00
  0.00000000E+00  0.00000000E+00  0.00000000E+00
  0.00000000E+00  0.00000000E+00  0.00000000E+00
  0.00000000E+00  0.00000000E+00  0.00000000E+00
  0.00000000E+00  0.00000000E+00  0.00000000E+00
  0.00000000E+00  0.00000000E+00  0.00000000E+00
  0.00000000E+00  0.00000000E+00  0.00000000E+00
  0.00000000E+00  0.00000000E+00  0.00000000E+00
  0.00000000E+00  0.00000000E+00  0.00000000E+00
  0.00000000E+00  0.00000000E+00  0.00000000E+00
  0.00000000E+00  0.00000000E+00  0.00000000E+00
  0.00000000E+00  0.00000000E+00  0.00000000E+00
  0.00000000E+00  0.00000000E+00  0.00000000E+00
  0.00000000E+00  0.00000000E+00  0.00000000E+00
  0.00000000E+00  0.00000000E+00  0.00000000E+00
  0.00000000E+00  0.00000000E+00  0.00000000E+00
  0.00000000E+00  0.00000000E+00  0.00000000E+00
  0.00000000E+00  0.00000000E+00  0.00000000E+00
  0.00000000E+00  0.00000000E+00  0.00000000E+00
  0.00000000E+00  0.00000000E+00  0.00000000E+00
  0.00000000E+00  0.00000000E+00  0.00000000E+00
  0.00000000E+00  0.00000000E+00  0.00000000E+00
  0.00000000E+00  0.00000000E+00  0.00000000E+00
  0.00000000E+00  0.00000000E+00  0.00000000E+00
  0.00000000E+00  0.00000000E+00  0.00000000E+00
  0.00000000E+00  0.00000000E+00  0.00000000E+00
  0.00000000E+00  0.00000000E+00  0.00000000E+00
  0.00000000E+00  0.00000000E+00  0.00000000E+00
  0.00000000E+00  0.00000000E+00  0.00000000E+00
  0.00000000E+00  0.00000000E+00  0.00000000E+00
  0.00000000E+00  0.00000000E+00  0.00000000E+00
  0.00000000E+00  0.00000000E+00  0.00000000E+00
  0.00000000E+00  0.00000000E+00  0.00000000E+00
  0.00000000E+00  0.00000000E+00  0.00000000E+00
  0.00000000E+00  0.00000000E+00  0.00000000E+00
  0.00000000E+00  0.00000000E+00  0.00000000E+00
  0.00000000E+00  0.00000000E+00  0.00000000E+00
  0.00000000E+00  0.00000000E+00  0.00000000E+00
  0.00000000E+00  0.00000000E+00  0.00000000E+00
  0.00000000E+00  0.00000000E+00  0.00000000E+00
  0.00000000E+00  0.00000000E+00  0.00000000E+00
  0.00000000E+00  0.00000000E+00  0.00000000E+00
  0.00000000E+00  0.00000000E+00  0.00000000E+00
  0.00000000E+00  0.00000000E+00  0.00000000E+00
  0.00000000E+00  0.00000000E+00  0.00000000E+00
  0.00000000E+00  0.00000000E+00  0.00000000E+00
  0.00000000E+00  0.00000000E+00  0.00000000E+00
  0.00000000E+00  0.00000000E+00  0.00000000E+00
  0.00000000E+00  0.00000000E+00  0.00000000E+00
  0.00000000E+00  0.00000000E+00  0.00000000E+00
  0.00000000E+00  0.00000000E+00  0.00000000E+00
  0.00000000E+00  0.00000000E+00  0.00000000E+00
  0.00000000E+00  0.00000000E+00  0.00000000E+00
  0.00000000E+00  0.00000000E+00  0.00000000E+00
  0.00000000E+00  0.00000000E+00  0.00000000E+00
  0.00000000E+00  0.00000000E+00  0.00000000E+00
  0.00000000E+00  0.00000000E+00  0.00000000E+00
  0.00000000E+00  0.00000000E+00  0.00000000E+00
  0.00000000E+00  0.00000000E+00  0.00000000E+00
  0.00000000E+00  0.00000000E+00  0.00000000E+00
  0.00000000E+00  0.00000000E+00  0.00000000E+00
  0.00000000E+00  0.00000000E+00  0.00000000E+00
  0.00000000E+00  0.00000000E+00  0.00000000E+00
  0.00000000E+00  0.00000000E+00  0.00000000E+00
  0.00000000E+00  0.00000000E+00  0.00000000E+00
  0.00000000E+00  0.00000000E+00  0.00000000E+00
  0.00000000E+00  0.00000000E+00  0.00000000E+00
  0.00000000E+00  0.00000000E+00  0.00000000E+00
  0.00000000E+00  0.00000000E+00  0.00000000E+00
