Al   B    N                             
   1.00000000000000     
    -9.7287731211643234   -0.0000000773628790    0.0000000055864958
    -4.8643854130721138    8.4253634314475274   -0.0000000681457176
    -0.0000000203179261   -0.0000003400703754   -8.8514577420593739
   Al   B    N 
    35     1    36
Direct
  0.1079239152199420  0.0923315630736283  0.3672447165844446
  0.2218023156424422  0.2063954220606234  0.1198733229545965
  0.7777777881639096  0.0944444584802326  0.8662110430567296
  0.8888584710691276  0.2055251414957340  0.6135569666834328
  0.4497445089612029  0.0923315878323976  0.3672447175178348
  0.5653899455459950  0.2006383690629434  0.1281469021792745
  0.1080789586363622  0.0961866713414139  0.8707172136162455
  0.2229409634371322  0.2041180989024340  0.6170643041272825
  0.8839717283132984  0.2006384021297265  0.1281469005362652
  0.4457344088607016  0.0961866655590242  0.8707172128209848
  0.5556164211328252  0.2055251309434993  0.6135569731648687
  0.1111111086494745  0.4277778089901503  0.3699011588235308
  0.2218023113785961  0.5384689902068160  0.1198733131341996
  0.7795199862453543  0.4247456549695698  0.8707172105888148
  0.8874514252751666  0.5396076428878729  0.6170642961535151
  0.4497445279333476  0.4245905711367186  0.3672447089942921
  0.5556024038527099  0.5387952304707042  0.1181860844319900
  0.1111111026100957  0.4277778055740953  0.8670780769700102
  0.2229409628118262  0.5396076481983911  0.6170642922508236
  0.7756648798744337  0.4245906042337921  0.3672447143373958
  0.8897287494594508  0.5384689912457929  0.1198733231775506
  0.4457343874169908  0.4247456338596010  0.8707172150276890
  0.5560247922429653  0.5379504318942523  0.6195538168623358
  0.1079238779502134  0.7664112126416569  0.3672447056270727
  0.2221285560181769  0.8722690677091407  0.1181860823653267
  0.7795199880965740  0.7624010899241327  0.8707172094495377
  0.8888584671477560  0.8722830768140781  0.6135569725962426
  0.4444444336062077  0.7611111223462999  0.3701487769016367
  0.5556024038192362  0.8722690577158474  0.1181860921714062
  0.1080789350979501  0.7624010788349409  0.8707172132257881
  0.2212837584790819  0.8726914528672580  0.6195538178198348
  0.7756649134678710  0.7664111879514905  0.3672447108595591
  0.8839717057998726  0.8820565993121292  0.1281469028846018
  0.4444444341055060  0.7611111265710164  0.8674158666754437
  0.5560248021198362  0.8726914508596053  0.6195538066548707
  0.7777777913378259  0.0944444389747829  0.3985759981288055
  0.2223240816532268  0.2053518658984785  0.3403777191033512
  0.1067949050901973  0.0968344166017943  0.0940832967367555
  0.8884792624238784  0.2051459227044603  0.8315237858937365
  0.7777777701971331  0.0944444626534775  0.5757415562025656
  0.5838672273910603  0.1913997280185029  0.3470871086583713
  0.4463707090219557  0.0968343959978313  0.0940832924590040
  0.2230542218936336  0.2038916153871924  0.8408258900935053
  0.1114302990594496  0.0940004523463003  0.5866699557931767
  0.8747330747589928  0.1913997426409892  0.3470871128790023
  0.7777777771360732  0.0944444899844896  0.0756445162139059
  0.5563748736609568  0.2051459023290576  0.8315237923193735
  0.4445692522166667  0.0940004537172854  0.5866699633669441
  0.2223240878986701  0.5389907370386240  0.3403777294526691
  0.1111111104572089  0.4277777998640531  0.0888847867613478
  0.8872249635935034  0.5397208694931663  0.8408259035114440
  0.7773337479353799  0.4280969993484547  0.5866699536759867
  0.5547288788710603  0.5405422468841579  0.3385123822919809
  0.4463707175816936  0.4234615880975952  0.0940832920547692
  0.2230542111339560  0.5397208553070243  0.8408259102140292
  0.1111111082641685  0.4277777969534426  0.5918729606747917
  0.8886852208404648  0.5389907307721913  0.3403777263298835
  0.7801677184425273  0.4234615989842894  0.0940833051768735
  0.5565097364426705  0.5369805670663297  0.8419680463364472
  0.4445692668040877  0.4280969807089150  0.5866699631829491
  0.2238755907111596  0.8713955412563692  0.3385123932066989
  0.1067949001986008  0.7630374143034402  0.0940833094719977
  0.8884792449643300  0.8730415336614357  0.8315237909527511
  0.7773337468392683  0.7612359573461163  0.5866699570695388
  0.5547288800948635  0.8713955480960607  0.3385123996532400
  0.4444444317679412  0.7611111308245597  0.0878156834054167
  0.2203139150363285  0.8731763970906385  0.8419680654571451
  0.1114302848610151  0.7612359640409636  0.5866699606586394
  0.8747330659676322  0.9005338888394476  0.3470871026709830
  0.7801676897936005  0.7630374087778264  0.0940833136673831
  0.5565097116922644  0.8731763855692165  0.8419680569609014
  0.4444444296795496  0.7611111279013514  0.5927864832860692
 
  0.00000000E+00  0.00000000E+00  0.00000000E+00
  0.00000000E+00  0.00000000E+00  0.00000000E+00
  0.00000000E+00  0.00000000E+00  0.00000000E+00
  0.00000000E+00  0.00000000E+00  0.00000000E+00
  0.00000000E+00  0.00000000E+00  0.00000000E+00
  0.00000000E+00  0.00000000E+00  0.00000000E+00
  0.00000000E+00  0.00000000E+00  0.00000000E+00
  0.00000000E+00  0.00000000E+00  0.00000000E+00
  0.00000000E+00  0.00000000E+00  0.00000000E+00
  0.00000000E+00  0.00000000E+00  0.00000000E+00
  0.00000000E+00  0.00000000E+00  0.00000000E+00
  0.00000000E+00  0.00000000E+00  0.00000000E+00
  0.00000000E+00  0.00000000E+00  0.00000000E+00
  0.00000000E+00  0.00000000E+00  0.00000000E+00
  0.00000000E+00  0.00000000E+00  0.00000000E+00
  0.00000000E+00  0.00000000E+00  0.00000000E+00
  0.00000000E+00  0.00000000E+00  0.00000000E+00
  0.00000000E+00  0.00000000E+00  0.00000000E+00
  0.00000000E+00  0.00000000E+00  0.00000000E+00
  0.00000000E+00  0.00000000E+00  0.00000000E+00
  0.00000000E+00  0.00000000E+00  0.00000000E+00
  0.00000000E+00  0.00000000E+00  0.00000000E+00
  0.00000000E+00  0.00000000E+00  0.00000000E+00
  0.00000000E+00  0.00000000E+00  0.00000000E+00
  0.00000000E+00  0.00000000E+00  0.00000000E+00
  0.00000000E+00  0.00000000E+00  0.00000000E+00
  0.00000000E+00  0.00000000E+00  0.00000000E+00
  0.00000000E+00  0.00000000E+00  0.00000000E+00
  0.00000000E+00  0.00000000E+00  0.00000000E+00
  0.00000000E+00  0.00000000E+00  0.00000000E+00
  0.00000000E+00  0.00000000E+00  0.00000000E+00
  0.00000000E+00  0.00000000E+00  0.00000000E+00
  0.00000000E+00  0.00000000E+00  0.00000000E+00
  0.00000000E+00  0.00000000E+00  0.00000000E+00
  0.00000000E+00  0.00000000E+00  0.00000000E+00
  0.00000000E+00  0.00000000E+00  0.00000000E+00
  0.00000000E+00  0.00000000E+00  0.00000000E+00
  0.00000000E+00  0.00000000E+00  0.00000000E+00
  0.00000000E+00  0.00000000E+00  0.00000000E+00
  0.00000000E+00  0.00000000E+00  0.00000000E+00
  0.00000000E+00  0.00000000E+00  0.00000000E+00
  0.00000000E+00  0.00000000E+00  0.00000000E+00
  0.00000000E+00  0.00000000E+00  0.00000000E+00
  0.00000000E+00  0.00000000E+00  0.00000000E+00
  0.00000000E+00  0.00000000E+00  0.00000000E+00
  0.00000000E+00  0.00000000E+00  0.00000000E+00
  0.00000000E+00  0.00000000E+00  0.00000000E+00
  0.00000000E+00  0.00000000E+00  0.00000000E+00
  0.00000000E+00  0.00000000E+00  0.00000000E+00
  0.00000000E+00  0.00000000E+00  0.00000000E+00
  0.00000000E+00  0.00000000E+00  0.00000000E+00
  0.00000000E+00  0.00000000E+00  0.00000000E+00
  0.00000000E+00  0.00000000E+00  0.00000000E+00
  0.00000000E+00  0.00000000E+00  0.00000000E+00
  0.00000000E+00  0.00000000E+00  0.00000000E+00
  0.00000000E+00  0.00000000E+00  0.00000000E+00
  0.00000000E+00  0.00000000E+00  0.00000000E+00
  0.00000000E+00  0.00000000E+00  0.00000000E+00
  0.00000000E+00  0.00000000E+00  0.00000000E+00
  0.00000000E+00  0.00000000E+00  0.00000000E+00
  0.00000000E+00  0.00000000E+00  0.00000000E+00
  0.00000000E+00  0.00000000E+00  0.00000000E+00
  0.00000000E+00  0.00000000E+00  0.00000000E+00
  0.00000000E+00  0.00000000E+00  0.00000000E+00
  0.00000000E+00  0.00000000E+00  0.00000000E+00
  0.00000000E+00  0.00000000E+00  0.00000000E+00
  0.00000000E+00  0.00000000E+00  0.00000000E+00
  0.00000000E+00  0.00000000E+00  0.00000000E+00
  0.00000000E+00  0.00000000E+00  0.00000000E+00
  0.00000000E+00  0.00000000E+00  0.00000000E+00
  0.00000000E+00  0.00000000E+00  0.00000000E+00
  0.00000000E+00  0.00000000E+00  0.00000000E+00
