Al   B    N                             
   1.00000000000000     
    -9.3432000631592427   -0.0000001491278920    0.0000002209700677
    -4.6716000897991092    8.0914492294583464    0.0000005673298431
     0.0000001556772460   -0.0000007290350233   -9.9834233796545568
   Al   B    N 
    35     1    36
Direct
  0.1076584902687046  0.0927371052944039  0.3028493223008510
  0.2223966466786393  0.2052065731820605  0.0530761902295609
  0.7777775551379378  0.0944443858104478  0.8048608029206648
  0.8860908193227104  0.2027568449396711  0.5488572885742116
  0.4496043615307457  0.0927365911601541  0.3028493085146309
  0.5580180500387542  0.2043243247664250  0.0595366742270258
  0.1093415243439750  0.0952002256627580  0.8031925084817146
  0.2221225801298772  0.2057544637341024  0.5528461139626373
  0.8876578920948077  0.2043241258173296  0.0595365737471028
  0.4454579279792554  0.0952003387494145  0.8031924590225969
  0.5611519770869791  0.2027571530864378  0.5488572380650183
  0.1111115445949764  0.4277775399716433  0.3022614689538585
  0.2223967903749440  0.5390636491956258  0.0530760890813937
  0.7785343006143250  0.4260075969976782  0.8031924795449541
  0.8890874315170407  0.5387895869765060  0.5528461601959549
  0.4496044380360615  0.4243259354451681  0.3028493341571306
  0.5555764543444610  0.5388475908119048  0.0524874529445754
  0.1111115261834783  0.4277775934052954  0.8029480269410669
  0.2221228898112457  0.5387898989557840  0.5528461704845284
  0.7760694096996090  0.4243262121164477  0.3028493542469306
  0.8885399505260096  0.5390633713022481  0.0530760615287917
  0.4454579368709517  0.4260078316711358  0.8031924033290991
  0.5556981452333645  0.5386041940421293  0.5531039577826959
  0.1076588291708802  0.7662707503445816  0.3028492234638946
  0.2221810386723533  0.8722426811708033  0.0524877741562548
  0.7785341219231157  0.7621247442753258  0.8031925595788181
  0.8860907589710365  0.8778187870248999  0.5488571209515669
  0.4444437415715257  0.7611119002990421  0.3026550600497302
  0.5555765738957987  0.8722424253258794  0.0524876006438433
  0.1093411565278046  0.7621249512734920  0.8031925611367967
  0.2219377049979556  0.8723643596154957  0.5531036818594615
  0.7760697380342876  0.7662706187556694  0.3028492032569616
  0.8876576684047492  0.8746851739756281  0.0595366810890994
  0.4444442376865965  0.7611113355404413  0.8028573834682007
  0.5556982134219837  0.8723641128251245  0.5531038614225068
  0.7777775211223528  0.0944446611949701  0.2992109833550813
  0.2225197714274501  0.2049605018990022  0.3615778235682043
  0.1116061048724930  0.0939591205425572  0.1126477018291183
  0.8880205211357790  0.2046867537555954  0.8670329912225938
  0.7777776582533917  0.0944443451717873  0.6160707658550280
  0.5805803500442650  0.1930432600502954  0.3549650601911765
  0.4444348793806299  0.0939590000944861  0.1126476798490827
  0.2224332631294956  0.2051333465266865  0.8615910066891885
  0.1087096906823533  0.0957285241784405  0.6107218138268991
  0.8763760490863959  0.1930434851500635  0.3549651866284833
  0.7777776893611446  0.0944446665498262  0.1338846642237073
  0.5572924679238369  0.2046869503199886  0.8670330403667208
  0.4455616038961026  0.0957285648098534  0.6107217596096248
  0.2225198976592324  0.5391864112130875  0.3615778156477703
  0.1111112731005477  0.4277778702162820  0.1115231222421897
  0.8884670274327249  0.5390998509757239  0.8615908819707414
  0.7790623428063412  0.4253759255967111  0.6107218043195317
  0.5552516545461614  0.5394964495757222  0.3626765772856047
  0.4444348508535398  0.4282728124068456  0.1126476889400649
  0.2224332397442481  0.5391001523848828  0.8615909343752861
  0.1111111249283354  0.4277780092410595  0.6121364976551149
  0.8882940164029165  0.5391862581625944  0.3615777872594350
  0.7772926398376754  0.4282726718428904  0.1126476960706952
  0.5557415489956270  0.5385169834227383  0.8613563701996725
  0.4455617772997584  0.4253762050332170  0.6107217320201670
  0.2228285770534200  0.8719190450750176  0.3626763289228521
  0.1116059890846657  0.7611014973328452  0.1126476592699603
  0.8880203491143419  0.8739594338017511  0.8670331033330996
  0.7790622738073267  0.7622283462774888  0.6107218530892879
  0.5552519824647106  0.8719188421214596  0.3626765402248893
  0.4444445292881412  0.7611110610728034  0.1115109619933605
  0.2218503732655179  0.8724080621372252  0.8613567108662892
  0.1087095532902680  0.7622286014046651  0.6107218529859963
  0.8763761759567217  0.8972471034266079  0.3549650804241651
  0.7772927675072978  0.7611014179888969  0.1126475925251071
  0.5557416305974670  0.8724079808536231  0.8613565683260020
  0.4444444719694829  0.7611111161831303  0.6122413890088865
 
  0.00000000E+00  0.00000000E+00  0.00000000E+00
  0.00000000E+00  0.00000000E+00  0.00000000E+00
  0.00000000E+00  0.00000000E+00  0.00000000E+00
  0.00000000E+00  0.00000000E+00  0.00000000E+00
  0.00000000E+00  0.00000000E+00  0.00000000E+00
  0.00000000E+00  0.00000000E+00  0.00000000E+00
  0.00000000E+00  0.00000000E+00  0.00000000E+00
  0.00000000E+00  0.00000000E+00  0.00000000E+00
  0.00000000E+00  0.00000000E+00  0.00000000E+00
  0.00000000E+00  0.00000000E+00  0.00000000E+00
  0.00000000E+00  0.00000000E+00  0.00000000E+00
  0.00000000E+00  0.00000000E+00  0.00000000E+00
  0.00000000E+00  0.00000000E+00  0.00000000E+00
  0.00000000E+00  0.00000000E+00  0.00000000E+00
  0.00000000E+00  0.00000000E+00  0.00000000E+00
  0.00000000E+00  0.00000000E+00  0.00000000E+00
  0.00000000E+00  0.00000000E+00  0.00000000E+00
  0.00000000E+00  0.00000000E+00  0.00000000E+00
  0.00000000E+00  0.00000000E+00  0.00000000E+00
  0.00000000E+00  0.00000000E+00  0.00000000E+00
  0.00000000E+00  0.00000000E+00  0.00000000E+00
  0.00000000E+00  0.00000000E+00  0.00000000E+00
  0.00000000E+00  0.00000000E+00  0.00000000E+00
  0.00000000E+00  0.00000000E+00  0.00000000E+00
  0.00000000E+00  0.00000000E+00  0.00000000E+00
  0.00000000E+00  0.00000000E+00  0.00000000E+00
  0.00000000E+00  0.00000000E+00  0.00000000E+00
  0.00000000E+00  0.00000000E+00  0.00000000E+00
  0.00000000E+00  0.00000000E+00  0.00000000E+00
  0.00000000E+00  0.00000000E+00  0.00000000E+00
  0.00000000E+00  0.00000000E+00  0.00000000E+00
  0.00000000E+00  0.00000000E+00  0.00000000E+00
  0.00000000E+00  0.00000000E+00  0.00000000E+00
  0.00000000E+00  0.00000000E+00  0.00000000E+00
  0.00000000E+00  0.00000000E+00  0.00000000E+00
  0.00000000E+00  0.00000000E+00  0.00000000E+00
  0.00000000E+00  0.00000000E+00  0.00000000E+00
  0.00000000E+00  0.00000000E+00  0.00000000E+00
  0.00000000E+00  0.00000000E+00  0.00000000E+00
  0.00000000E+00  0.00000000E+00  0.00000000E+00
  0.00000000E+00  0.00000000E+00  0.00000000E+00
  0.00000000E+00  0.00000000E+00  0.00000000E+00
  0.00000000E+00  0.00000000E+00  0.00000000E+00
  0.00000000E+00  0.00000000E+00  0.00000000E+00
  0.00000000E+00  0.00000000E+00  0.00000000E+00
  0.00000000E+00  0.00000000E+00  0.00000000E+00
  0.00000000E+00  0.00000000E+00  0.00000000E+00
  0.00000000E+00  0.00000000E+00  0.00000000E+00
  0.00000000E+00  0.00000000E+00  0.00000000E+00
  0.00000000E+00  0.00000000E+00  0.00000000E+00
  0.00000000E+00  0.00000000E+00  0.00000000E+00
  0.00000000E+00  0.00000000E+00  0.00000000E+00
  0.00000000E+00  0.00000000E+00  0.00000000E+00
  0.00000000E+00  0.00000000E+00  0.00000000E+00
  0.00000000E+00  0.00000000E+00  0.00000000E+00
  0.00000000E+00  0.00000000E+00  0.00000000E+00
  0.00000000E+00  0.00000000E+00  0.00000000E+00
  0.00000000E+00  0.00000000E+00  0.00000000E+00
  0.00000000E+00  0.00000000E+00  0.00000000E+00
  0.00000000E+00  0.00000000E+00  0.00000000E+00
  0.00000000E+00  0.00000000E+00  0.00000000E+00
  0.00000000E+00  0.00000000E+00  0.00000000E+00
  0.00000000E+00  0.00000000E+00  0.00000000E+00
  0.00000000E+00  0.00000000E+00  0.00000000E+00
  0.00000000E+00  0.00000000E+00  0.00000000E+00
  0.00000000E+00  0.00000000E+00  0.00000000E+00
  0.00000000E+00  0.00000000E+00  0.00000000E+00
  0.00000000E+00  0.00000000E+00  0.00000000E+00
  0.00000000E+00  0.00000000E+00  0.00000000E+00
  0.00000000E+00  0.00000000E+00  0.00000000E+00
  0.00000000E+00  0.00000000E+00  0.00000000E+00
  0.00000000E+00  0.00000000E+00  0.00000000E+00
