Al   B    N                             
   1.00000000000000     
    -9.3432019999418188   -0.0000001396851272    0.0000001926301241
    -4.6716009957061777    8.0914509423299421    0.0000004837146378
     0.0000001922024149   -0.0000008336134420   -9.9834158171539880
   Al   B    N 
    35     1    36
Direct
  0.1076584691971689  0.0927370719505163  0.3115286109845243
  0.2223966787219709  0.2052065358019775  0.0617559521050168
  0.7777775495183903  0.0944443666640780  0.8135399979885420
  0.8860907206328292  0.2027567112650104  0.5575358596438704
  0.4496044297678026  0.0927365926188699  0.3115285617994275
  0.5580177942174629  0.2043244745489048  0.0682148241970779
  0.1093416513794310  0.0952002096776923  0.8118720920496898
  0.2221225384985175  0.2057545064777955  0.5615257916465737
  0.8876580184334344  0.2043242833473542  0.0682147496739631
  0.4454577939398447  0.0952002898136257  0.8118720531595187
  0.5611521786248304  0.2027570133129331  0.5575358733294919
  0.1111115476166304  0.4277775972995244  0.3109407453660040
  0.2223968600314521  0.5390637155996174  0.0617558936699893
  0.7785342932492796  0.4260077076036950  0.8118720686677321
  0.8890874425308226  0.5387895870861001  0.5615258725376506
  0.4496045259251034  0.4243259058285886  0.3115286185242994
  0.5555765104811030  0.5388475083780619  0.0611669715131313
  0.1111115395136153  0.4277775874938143  0.8116282250438118
  0.2221228750911735  0.5387898839283238  0.5615258527361320
  0.7760693972775812  0.4243262165431858  0.3115286119934026
  0.8885398679073546  0.5390634408165837  0.0617558299331264
  0.4454578329782208  0.4260079407078123  0.8118720205382743
  0.5556980874339104  0.5386043070991491  0.5617839379094534
  0.1076588243372569  0.7662708407191801  0.3115285847873892
  0.2221809782377875  0.8722427173831093  0.0611672942451023
  0.7785340574110720  0.7621246397185857  0.8118721477910427
  0.8860906418534924  0.8778189812670263  0.5575357054547538
  0.4444437236716539  0.7611119129144370  0.3113347409267320
  0.5555766131586637  0.8722424596803862  0.0611671314056537
  0.1093412890233623  0.7621248399487328  0.8118721431915716
  0.2219377913785721  0.8723643162880990  0.5617837353812050
  0.7760697106317807  0.7662706802868229  0.3115285261502407
  0.8876578136454754  0.8746848956025204  0.0682149072168983
  0.4444442422990562  0.7611113278856223  0.8115374965100202
  0.5556981298974790  0.8723640547834819  0.5617838544985219
  0.7777775538183036  0.0944446461102189  0.3078879640291063
  0.2225197585622354  0.2049605448052958  0.3702572972223166
  0.1116060351169352  0.0939590993434436  0.1213274772164326
  0.8880205199380740  0.2046867633566123  0.8757115320339466
  0.7777776492957500  0.0944443251388662  0.6247490153075788
  0.5805807237989029  0.1930430823776135  0.3636434821443402
  0.4444350051700567  0.0939589784860644  0.1213274006588350
  0.2224332300091660  0.2051333924388246  0.8702705026976147
  0.1087094105258331  0.0957286856778339  0.6194007552276162
  0.8763758761607434  0.1930432966069162  0.3636435740703163
  0.7777777137887867  0.0944446746250591  0.1425625631282514
  0.5572924162559048  0.2046869566327985  0.8757115441989640
  0.4455616866016001  0.0957287005302518  0.6194006777043342
  0.2225199129560451  0.5391864424879884  0.3702573487496110
  0.1111112715392863  0.4277779158990711  0.1202028547051981
  0.8884670564906045  0.5390998429047329  0.8702703517136641
  0.7790624881301724  0.4253756360326122  0.6194007240662955
  0.5552517040327558  0.5394964398297262  0.3713565084473203
  0.4444349859454420  0.4282727166507243  0.1213274490437684
  0.2224332359829333  0.5391001622277045  0.8702704357838371
  0.1111111301167753  0.4277780252911541  0.6208159327468152
  0.8882940542692950  0.5391862710748754  0.3702573147157295
  0.7772926599732841  0.4282725948328050  0.1213274360887695
  0.5557416510746123  0.5385167594773819  0.8700358527818679
  0.4455618958028325  0.4253759225047062  0.6194006791566480
  0.2228285386796642  0.8719191088806539  0.3713563531799480
  0.1116059212719591  0.7611016383517750  0.1213275352859782
  0.8880203775798279  0.8739593542159909  0.8757116698283909
  0.7790623726358987  0.7622284818856926  0.6194007799872310
  0.5552519789824544  0.8719188775347178  0.3713564940175118
  0.4444445178036247  0.7611110830059999  0.1201910783128923
  0.2218501518841478  0.8724081477333101  0.8700362181053052
  0.1087092837828294  0.7622286979539297  0.6194008199537322
  0.8763760261571818  0.8972474667455828  0.3636434620072180
  0.7772927283542472  0.7611015390577336  0.1213274281931191
  0.5557417341193727  0.8724080643945982  0.8700360652423811
  0.4444444610983922  0.7611110992778549  0.6209209333428163
 
  0.00000000E+00  0.00000000E+00  0.00000000E+00
  0.00000000E+00  0.00000000E+00  0.00000000E+00
  0.00000000E+00  0.00000000E+00  0.00000000E+00
  0.00000000E+00  0.00000000E+00  0.00000000E+00
  0.00000000E+00  0.00000000E+00  0.00000000E+00
  0.00000000E+00  0.00000000E+00  0.00000000E+00
  0.00000000E+00  0.00000000E+00  0.00000000E+00
  0.00000000E+00  0.00000000E+00  0.00000000E+00
  0.00000000E+00  0.00000000E+00  0.00000000E+00
  0.00000000E+00  0.00000000E+00  0.00000000E+00
  0.00000000E+00  0.00000000E+00  0.00000000E+00
  0.00000000E+00  0.00000000E+00  0.00000000E+00
  0.00000000E+00  0.00000000E+00  0.00000000E+00
  0.00000000E+00  0.00000000E+00  0.00000000E+00
  0.00000000E+00  0.00000000E+00  0.00000000E+00
  0.00000000E+00  0.00000000E+00  0.00000000E+00
  0.00000000E+00  0.00000000E+00  0.00000000E+00
  0.00000000E+00  0.00000000E+00  0.00000000E+00
  0.00000000E+00  0.00000000E+00  0.00000000E+00
  0.00000000E+00  0.00000000E+00  0.00000000E+00
  0.00000000E+00  0.00000000E+00  0.00000000E+00
  0.00000000E+00  0.00000000E+00  0.00000000E+00
  0.00000000E+00  0.00000000E+00  0.00000000E+00
  0.00000000E+00  0.00000000E+00  0.00000000E+00
  0.00000000E+00  0.00000000E+00  0.00000000E+00
  0.00000000E+00  0.00000000E+00  0.00000000E+00
  0.00000000E+00  0.00000000E+00  0.00000000E+00
  0.00000000E+00  0.00000000E+00  0.00000000E+00
  0.00000000E+00  0.00000000E+00  0.00000000E+00
  0.00000000E+00  0.00000000E+00  0.00000000E+00
  0.00000000E+00  0.00000000E+00  0.00000000E+00
  0.00000000E+00  0.00000000E+00  0.00000000E+00
  0.00000000E+00  0.00000000E+00  0.00000000E+00
  0.00000000E+00  0.00000000E+00  0.00000000E+00
  0.00000000E+00  0.00000000E+00  0.00000000E+00
  0.00000000E+00  0.00000000E+00  0.00000000E+00
  0.00000000E+00  0.00000000E+00  0.00000000E+00
  0.00000000E+00  0.00000000E+00  0.00000000E+00
  0.00000000E+00  0.00000000E+00  0.00000000E+00
  0.00000000E+00  0.00000000E+00  0.00000000E+00
  0.00000000E+00  0.00000000E+00  0.00000000E+00
  0.00000000E+00  0.00000000E+00  0.00000000E+00
  0.00000000E+00  0.00000000E+00  0.00000000E+00
  0.00000000E+00  0.00000000E+00  0.00000000E+00
  0.00000000E+00  0.00000000E+00  0.00000000E+00
  0.00000000E+00  0.00000000E+00  0.00000000E+00
  0.00000000E+00  0.00000000E+00  0.00000000E+00
  0.00000000E+00  0.00000000E+00  0.00000000E+00
  0.00000000E+00  0.00000000E+00  0.00000000E+00
  0.00000000E+00  0.00000000E+00  0.00000000E+00
  0.00000000E+00  0.00000000E+00  0.00000000E+00
  0.00000000E+00  0.00000000E+00  0.00000000E+00
  0.00000000E+00  0.00000000E+00  0.00000000E+00
  0.00000000E+00  0.00000000E+00  0.00000000E+00
  0.00000000E+00  0.00000000E+00  0.00000000E+00
  0.00000000E+00  0.00000000E+00  0.00000000E+00
  0.00000000E+00  0.00000000E+00  0.00000000E+00
  0.00000000E+00  0.00000000E+00  0.00000000E+00
  0.00000000E+00  0.00000000E+00  0.00000000E+00
  0.00000000E+00  0.00000000E+00  0.00000000E+00
  0.00000000E+00  0.00000000E+00  0.00000000E+00
  0.00000000E+00  0.00000000E+00  0.00000000E+00
  0.00000000E+00  0.00000000E+00  0.00000000E+00
  0.00000000E+00  0.00000000E+00  0.00000000E+00
  0.00000000E+00  0.00000000E+00  0.00000000E+00
  0.00000000E+00  0.00000000E+00  0.00000000E+00
  0.00000000E+00  0.00000000E+00  0.00000000E+00
  0.00000000E+00  0.00000000E+00  0.00000000E+00
  0.00000000E+00  0.00000000E+00  0.00000000E+00
  0.00000000E+00  0.00000000E+00  0.00000000E+00
  0.00000000E+00  0.00000000E+00  0.00000000E+00
  0.00000000E+00  0.00000000E+00  0.00000000E+00
