Al   B    N                             
   1.00000000000000     
    -9.3432095354627531   -0.0000001566821039    0.0000002436420227
    -4.6716047979283077    8.0914574617314940    0.0000006342220074
     0.0000003031483134   -0.0000007767326573   -9.9834078709144691
   Al   B    N 
    35     1    36
Direct
  0.1076588187109664  0.0927369820570192  0.2966321397491001
  0.2223967396795672  0.2052063918168301  0.0468609183341115
  0.7777775261104765  0.0944443547959253  0.7986369984034667
  0.8860908747241183  0.2027568076319000  0.5426338769658372
  0.4496041917538847  0.0927365150374655  0.2966320907278046
  0.5580177316854886  0.2043245233112856  0.0533144086335255
  0.1093416149424300  0.0952002928255666  0.7969758588874356
  0.2221225569100582  0.2057545155136964  0.5466308577840735
  0.8876580246770800  0.2043243342852747  0.0533143689323907
  0.4454576688774878  0.0952003416911538  0.7969757959828030
  0.5611520415985396  0.2027570566567576  0.5426339202543460
  0.1111115621519900  0.4277775764434324  0.2960455440151577
  0.2223969268687966  0.5390637685222188  0.0468608905574186
  0.7785343423785349  0.4260077062637535  0.7969758296762919
  0.8890874951709833  0.5387895579650035  0.5466309486860297
  0.4496042864024261  0.4243262784951582  0.2966321759819976
  0.5555764776824859  0.5388475890430300  0.0462715908303153
  0.1111115167386743  0.4277775432008042  0.7967339039314112
  0.2221228474236554  0.5387898258131329  0.5466309513686340
  0.7760693198559210  0.4243265744258125  0.2966321536391732
  0.8885397254291547  0.5390634993450618  0.0468607905412526
  0.4454577045579953  0.4260079455921115  0.7969757681328673
  0.5556981043075666  0.5386042932494135  0.5468892055888830
  0.1076591872257779  0.7662706219964903  0.2966321255665463
  0.2221810583290065  0.8722426920034110  0.0462718967397535
  0.7785340807827481  0.7621245216374746  0.7969759271640129
  0.8860907275773613  0.8778187959568200  0.5426337859103825
  0.4444437348612738  0.7611119242078814  0.2964402798825176
  0.5555765681072344  0.8722424427974218  0.0462717630282725
  0.1093412672346616  0.7621247225742707  0.7969759188699257
  0.2219378060392145  0.8723643073626874  0.5468890452021853
  0.7760696417657655  0.7662704359652608  0.2966320436584553
  0.8876578249614653  0.8746848783784316  0.0533144848379763
  0.4444442225230176  0.7611113104033649  0.7966432774119596
  0.5556981336016378  0.8723640130069228  0.5468890975255434
  0.7777775629130872  0.0944446568244715  0.2929850953321775
  0.2225197717511520  0.2049605215248249  0.3553607044688931
  0.1116055531697455  0.0939593007031760  0.1064297594285861
  0.8880200003277494  0.2046862576585298  0.8608109099789019
  0.7777777149469003  0.0944443686089684  0.6098457908277766
  0.5805808800378855  0.1930430151660545  0.3487418244697409
  0.4444352480337699  0.0939592192297525  0.1064296442332591
  0.2224332975911594  0.2051331624993509  0.8553740749338914
  0.1087086972902966  0.0957290878693300  0.6045031152151665
  0.8763758147957219  0.1930432279440524  0.3487418601225940
  0.7777777097084808  0.0944446956981082  0.1276603410030575
  0.5572933150903197  0.2046864477488697  0.8608108692473238
  0.4455620744167206  0.0957290413253205  0.6045030070144506
  0.2225199071537887  0.5391864352960170  0.3553607921615338
  0.1111112545026458  0.4277778959864236  0.1053064088926661
  0.8884668429722709  0.5390998939053304  0.8553739408011580
  0.7790629215014135  0.4253748804659452  0.6045030686424795
  0.5552518820093937  0.5394962036320905  0.3564601026749514
  0.4444352609550180  0.4282722510308545  0.1064297092777480
  0.2224332990670277  0.5391002093611093  0.8553740584023402
  0.1111111282056854  0.4277779590728130  0.6059201543098780
  0.8882940649259581  0.5391862648887056  0.3553607390598614
  0.7772928553995229  0.4282721309504751  0.1064297261078337
  0.5557417632485979  0.5385164645094562  0.8551392178077251
  0.4455622664301089  0.4253751307996438  0.6045029829703239
  0.2228283096616295  0.8719192828155755  0.3564599909027635
  0.1116054469273706  0.7611019326192618  0.1064297666874978
  0.8880198491764304  0.8739602755308127  0.8608109864406259
  0.7790627489686059  0.7622288227573577  0.6045031449839016
  0.5552521334713703  0.8719189952838065  0.3564600392717026
  0.4444445120628586  0.7611111032232500  0.1052951321036062
  0.2218498552641748  0.8724082669607682  0.8551395455674040
  0.1087085036416227  0.7622290396919027  0.6045031597438637
  0.8763759707808987  0.8972476112942687  0.3487418058756759
  0.7772929573855691  0.7611018030301295  0.1064296577298407
  0.5557418206095974  0.8724081821780274  0.8551394416688325
  0.4444444663788332  0.7611110725287915  0.6060253530231989
 
  0.00000000E+00  0.00000000E+00  0.00000000E+00
  0.00000000E+00  0.00000000E+00  0.00000000E+00
  0.00000000E+00  0.00000000E+00  0.00000000E+00
  0.00000000E+00  0.00000000E+00  0.00000000E+00
  0.00000000E+00  0.00000000E+00  0.00000000E+00
  0.00000000E+00  0.00000000E+00  0.00000000E+00
  0.00000000E+00  0.00000000E+00  0.00000000E+00
  0.00000000E+00  0.00000000E+00  0.00000000E+00
  0.00000000E+00  0.00000000E+00  0.00000000E+00
  0.00000000E+00  0.00000000E+00  0.00000000E+00
  0.00000000E+00  0.00000000E+00  0.00000000E+00
  0.00000000E+00  0.00000000E+00  0.00000000E+00
  0.00000000E+00  0.00000000E+00  0.00000000E+00
  0.00000000E+00  0.00000000E+00  0.00000000E+00
  0.00000000E+00  0.00000000E+00  0.00000000E+00
  0.00000000E+00  0.00000000E+00  0.00000000E+00
  0.00000000E+00  0.00000000E+00  0.00000000E+00
  0.00000000E+00  0.00000000E+00  0.00000000E+00
  0.00000000E+00  0.00000000E+00  0.00000000E+00
  0.00000000E+00  0.00000000E+00  0.00000000E+00
  0.00000000E+00  0.00000000E+00  0.00000000E+00
  0.00000000E+00  0.00000000E+00  0.00000000E+00
  0.00000000E+00  0.00000000E+00  0.00000000E+00
  0.00000000E+00  0.00000000E+00  0.00000000E+00
  0.00000000E+00  0.00000000E+00  0.00000000E+00
  0.00000000E+00  0.00000000E+00  0.00000000E+00
  0.00000000E+00  0.00000000E+00  0.00000000E+00
  0.00000000E+00  0.00000000E+00  0.00000000E+00
  0.00000000E+00  0.00000000E+00  0.00000000E+00
  0.00000000E+00  0.00000000E+00  0.00000000E+00
  0.00000000E+00  0.00000000E+00  0.00000000E+00
  0.00000000E+00  0.00000000E+00  0.00000000E+00
  0.00000000E+00  0.00000000E+00  0.00000000E+00
  0.00000000E+00  0.00000000E+00  0.00000000E+00
  0.00000000E+00  0.00000000E+00  0.00000000E+00
  0.00000000E+00  0.00000000E+00  0.00000000E+00
  0.00000000E+00  0.00000000E+00  0.00000000E+00
  0.00000000E+00  0.00000000E+00  0.00000000E+00
  0.00000000E+00  0.00000000E+00  0.00000000E+00
  0.00000000E+00  0.00000000E+00  0.00000000E+00
  0.00000000E+00  0.00000000E+00  0.00000000E+00
  0.00000000E+00  0.00000000E+00  0.00000000E+00
  0.00000000E+00  0.00000000E+00  0.00000000E+00
  0.00000000E+00  0.00000000E+00  0.00000000E+00
  0.00000000E+00  0.00000000E+00  0.00000000E+00
  0.00000000E+00  0.00000000E+00  0.00000000E+00
  0.00000000E+00  0.00000000E+00  0.00000000E+00
  0.00000000E+00  0.00000000E+00  0.00000000E+00
  0.00000000E+00  0.00000000E+00  0.00000000E+00
  0.00000000E+00  0.00000000E+00  0.00000000E+00
  0.00000000E+00  0.00000000E+00  0.00000000E+00
  0.00000000E+00  0.00000000E+00  0.00000000E+00
  0.00000000E+00  0.00000000E+00  0.00000000E+00
  0.00000000E+00  0.00000000E+00  0.00000000E+00
  0.00000000E+00  0.00000000E+00  0.00000000E+00
  0.00000000E+00  0.00000000E+00  0.00000000E+00
  0.00000000E+00  0.00000000E+00  0.00000000E+00
  0.00000000E+00  0.00000000E+00  0.00000000E+00
  0.00000000E+00  0.00000000E+00  0.00000000E+00
  0.00000000E+00  0.00000000E+00  0.00000000E+00
  0.00000000E+00  0.00000000E+00  0.00000000E+00
  0.00000000E+00  0.00000000E+00  0.00000000E+00
  0.00000000E+00  0.00000000E+00  0.00000000E+00
  0.00000000E+00  0.00000000E+00  0.00000000E+00
  0.00000000E+00  0.00000000E+00  0.00000000E+00
  0.00000000E+00  0.00000000E+00  0.00000000E+00
  0.00000000E+00  0.00000000E+00  0.00000000E+00
  0.00000000E+00  0.00000000E+00  0.00000000E+00
  0.00000000E+00  0.00000000E+00  0.00000000E+00
  0.00000000E+00  0.00000000E+00  0.00000000E+00
  0.00000000E+00  0.00000000E+00  0.00000000E+00
  0.00000000E+00  0.00000000E+00  0.00000000E+00
