Al   B    N                             
   1.00000000000000     
    -9.4894650571754084   -0.0000001170224915    0.0000001246142592
    -4.7447293975043516    8.2180476641364741    0.0000002830381449
    -0.0000003938595354   -0.0000051769558745   -9.5847343958233093
   Al   B    N 
    35     1    36
Direct
  0.1079956715902881  0.0924555154349420  0.3294605527555916
  0.2227135493799182  0.2045729584765326  0.0791211900899498
  0.7777776836673596  0.0944446450304000  0.8313622383712911
  0.8852482062632419  0.2019147860895671  0.5727599063059685
  0.4495488525522262  0.0924555131598126  0.3294605484930671
  0.5568090682119760  0.2049286556819254  0.0854826237009760
  0.1086943487924898  0.0956525975013633  0.8280306795408663
  0.2218643331617116  0.2062714034191373  0.5783966528010112
  0.8882623376154157  0.2049286597661109  0.0854826308285794
  0.4456530559273872  0.0956525950812264  0.8280306839605132
  0.5628370726221519  0.2019147591847741  0.5727599174065503
  0.1111110745503154  0.4277778555989897  0.3273550390396878
  0.2227136012507955  0.5393797928634854  0.0791211852972324
  0.7789855383520035  0.4253613851731686  0.8280307069437924
  0.8896051437199262  0.5385305865804924  0.5783966719670772
  0.4495490046933597  0.4246626388022534  0.3294604943993065
  0.5558520388925885  0.5382959567237293  0.0778382351497839
  0.1111110464281921  0.4277778905556531  0.8297135407743923
  0.2218643277364478  0.5385305751169795  0.5783966539342345
  0.7757883517956685  0.4246626807347837  0.3294604837337900
  0.8879066541273630  0.5393797972852425  0.0791211643069829
  0.4456530568292436  0.4253613759799180  0.8280307009237546
  0.5555509568141233  0.5388981332302478  0.5792768901708030
  0.1079958001330468  0.7662157846348734  0.3294604670984427
  0.2216295032484510  0.8725184801942163  0.0778382398833273
  0.7789855975147333  0.7623199368470068  0.8280306955963681
  0.8852482963392063  0.8795034157490846  0.5727599539375916
  0.4444442471631334  0.7611114674029693  0.3274913146917626
  0.5558520490613361  0.8725184814343905  0.0778382480053565
  0.1086944573896105  0.7623199121875999  0.8280306838006481
  0.2222315890453999  0.8722174243146412  0.5792768865774534
  0.7757884060572877  0.7662157875934241  0.3294604499731122
  0.8882624155575272  0.8734752254632454  0.0854824582068545
  0.4444442854629571  0.7611113967189240  0.8295779798048173
  0.5555510221043747  0.8722174124890500  0.5792768744712902
  0.7777780622473358  0.0944439364129437  0.3167308857855176
  0.2223483887151829  0.2053033136282991  0.3800949264954951
  0.1116966001847572  0.0938443832535469  0.1319849206097388
  0.8881176199901688  0.2047834463368972  0.8864681952223634
  0.7777774465554543  0.0944451107714741  0.6367350279793058
  0.5815641368257047  0.1925509784333030  0.3726521911582452
  0.4444590132967647  0.0938443918239287  0.1319849184127975
  0.2227413399518383  0.2045173808554495  0.8799765083955364
  0.1078881365960740  0.0962356617867499  0.6281199016310879
  0.8758849559573676  0.1925510044457468  0.3726521714305377
  0.7777775858342437  0.0944448349062483  0.1498668813364148
  0.5570990067144450  0.2047834326749651  0.8864681885677683
  0.4458761983213932  0.0962356365191681  0.6281199100431110
  0.2223483571847851  0.5390140819812643  0.3800948592561255
  0.1111108030308259  0.4277783688347228  0.1292135375651924
  0.8878517231521030  0.5394070176214143  0.8799765037924772
  0.7795679141959297  0.4245559273216557  0.6281199626141927
  0.5549250030706148  0.5401500460186384  0.3815744789217206
  0.4444590738829675  0.4283642482406407  0.1319848504068588
  0.2227413077838207  0.5394070041067280  0.8799765180065435
  0.1111108196860187  0.4277783525465892  0.6314606454086586
  0.8886376254064317  0.5390140959521332  0.3800948731768017
  0.7771766507780811  0.4283642705215129  0.1319848392619889
  0.5561409342067307  0.5377181607480566  0.8792178732853486
  0.4458761500866046  0.4245559164201254  0.6281199562767625
  0.2234839838201097  0.8715909320904274  0.3815744705455444
  0.1116966735821237  0.7611265783350305  0.1319848147947482
  0.8881176843154535  0.8737646783924831  0.8864680782777654
  0.7795679878850876  0.7625436981600018  0.6281199276580693
  0.5549251258234733  0.8715909234804897  0.3815744542192689
  0.4444440731114483  0.7611118153772622  0.1288041964576649
  0.2210522279133400  0.8728067909512873  0.8792178541135698
  0.1078882726861536  0.7625436951720062  0.6281199105556823
  0.8758849374465498  0.8982301664337555  0.3726520851808814
  0.7771767253569664  0.7611265815510819  0.1319847997364363
  0.5561410074622160  0.8728067896367548  0.8792178674625006
  0.4444440470344801  0.7611118692672605  0.6318017356023873
 
  0.00000000E+00  0.00000000E+00  0.00000000E+00
  0.00000000E+00  0.00000000E+00  0.00000000E+00
  0.00000000E+00  0.00000000E+00  0.00000000E+00
  0.00000000E+00  0.00000000E+00  0.00000000E+00
  0.00000000E+00  0.00000000E+00  0.00000000E+00
  0.00000000E+00  0.00000000E+00  0.00000000E+00
  0.00000000E+00  0.00000000E+00  0.00000000E+00
  0.00000000E+00  0.00000000E+00  0.00000000E+00
  0.00000000E+00  0.00000000E+00  0.00000000E+00
  0.00000000E+00  0.00000000E+00  0.00000000E+00
  0.00000000E+00  0.00000000E+00  0.00000000E+00
  0.00000000E+00  0.00000000E+00  0.00000000E+00
  0.00000000E+00  0.00000000E+00  0.00000000E+00
  0.00000000E+00  0.00000000E+00  0.00000000E+00
  0.00000000E+00  0.00000000E+00  0.00000000E+00
  0.00000000E+00  0.00000000E+00  0.00000000E+00
  0.00000000E+00  0.00000000E+00  0.00000000E+00
  0.00000000E+00  0.00000000E+00  0.00000000E+00
  0.00000000E+00  0.00000000E+00  0.00000000E+00
  0.00000000E+00  0.00000000E+00  0.00000000E+00
  0.00000000E+00  0.00000000E+00  0.00000000E+00
  0.00000000E+00  0.00000000E+00  0.00000000E+00
  0.00000000E+00  0.00000000E+00  0.00000000E+00
  0.00000000E+00  0.00000000E+00  0.00000000E+00
  0.00000000E+00  0.00000000E+00  0.00000000E+00
  0.00000000E+00  0.00000000E+00  0.00000000E+00
  0.00000000E+00  0.00000000E+00  0.00000000E+00
  0.00000000E+00  0.00000000E+00  0.00000000E+00
  0.00000000E+00  0.00000000E+00  0.00000000E+00
  0.00000000E+00  0.00000000E+00  0.00000000E+00
  0.00000000E+00  0.00000000E+00  0.00000000E+00
  0.00000000E+00  0.00000000E+00  0.00000000E+00
  0.00000000E+00  0.00000000E+00  0.00000000E+00
  0.00000000E+00  0.00000000E+00  0.00000000E+00
  0.00000000E+00  0.00000000E+00  0.00000000E+00
  0.00000000E+00  0.00000000E+00  0.00000000E+00
  0.00000000E+00  0.00000000E+00  0.00000000E+00
  0.00000000E+00  0.00000000E+00  0.00000000E+00
  0.00000000E+00  0.00000000E+00  0.00000000E+00
  0.00000000E+00  0.00000000E+00  0.00000000E+00
  0.00000000E+00  0.00000000E+00  0.00000000E+00
  0.00000000E+00  0.00000000E+00  0.00000000E+00
  0.00000000E+00  0.00000000E+00  0.00000000E+00
  0.00000000E+00  0.00000000E+00  0.00000000E+00
  0.00000000E+00  0.00000000E+00  0.00000000E+00
  0.00000000E+00  0.00000000E+00  0.00000000E+00
  0.00000000E+00  0.00000000E+00  0.00000000E+00
  0.00000000E+00  0.00000000E+00  0.00000000E+00
  0.00000000E+00  0.00000000E+00  0.00000000E+00
  0.00000000E+00  0.00000000E+00  0.00000000E+00
  0.00000000E+00  0.00000000E+00  0.00000000E+00
  0.00000000E+00  0.00000000E+00  0.00000000E+00
  0.00000000E+00  0.00000000E+00  0.00000000E+00
  0.00000000E+00  0.00000000E+00  0.00000000E+00
  0.00000000E+00  0.00000000E+00  0.00000000E+00
  0.00000000E+00  0.00000000E+00  0.00000000E+00
  0.00000000E+00  0.00000000E+00  0.00000000E+00
  0.00000000E+00  0.00000000E+00  0.00000000E+00
  0.00000000E+00  0.00000000E+00  0.00000000E+00
  0.00000000E+00  0.00000000E+00  0.00000000E+00
  0.00000000E+00  0.00000000E+00  0.00000000E+00
  0.00000000E+00  0.00000000E+00  0.00000000E+00
  0.00000000E+00  0.00000000E+00  0.00000000E+00
  0.00000000E+00  0.00000000E+00  0.00000000E+00
  0.00000000E+00  0.00000000E+00  0.00000000E+00
  0.00000000E+00  0.00000000E+00  0.00000000E+00
  0.00000000E+00  0.00000000E+00  0.00000000E+00
  0.00000000E+00  0.00000000E+00  0.00000000E+00
  0.00000000E+00  0.00000000E+00  0.00000000E+00
  0.00000000E+00  0.00000000E+00  0.00000000E+00
  0.00000000E+00  0.00000000E+00  0.00000000E+00
  0.00000000E+00  0.00000000E+00  0.00000000E+00
