Al   B    N                             
   1.00000000000000     
    -9.5757427699469329   -0.0000001113568326    0.0000001076102930
    -4.7878679025403539    8.2929657706116195    0.0000002328690217
    -0.0000008203474241   -0.0000005856713092   -9.3289178338753089
   Al   B    N 
    35     1    36
Direct
  0.1081380635989788  0.0923162347495392  0.3331363740008726
  0.2228652295168061  0.2042695913130004  0.0825372553220731
  0.7777776595611385  0.0944447168218332  0.8349599931095497
  0.8847480788111284  0.2014142289900462  0.5747606295010854
  0.4495457211785734  0.0923162272649876  0.3331363681722692
  0.5562261087913924  0.2052198171417174  0.0887804663891387
  0.1083190222020889  0.0959259629352474  0.8306642820647738
  0.2217615127012635  0.2064770337861503  0.5813681472018217
  0.8885541559057657  0.2052198365796869  0.0887804752134116
  0.4457550143524927  0.0959259541580764  0.8306642886356883
  0.5638378108038893  0.2014141699476895  0.5747606419000348
  0.1111107896989481  0.4277783863264020  0.3302463199287331
  0.2228651403246076  0.5395313493984801  0.0825372219371090
  0.7792588785833203  0.4249863481261045  0.8306642580795227
  0.8898108190108900  0.5384280155938228  0.5813681390535450
  0.4495459232847026  0.4248044675462026  0.3331367718581717
  0.5559849145620817  0.5380302399401344  0.0808037850072623
  0.1111108335415807  0.4277782837111701  0.8333169618215166
  0.2217612208137325  0.5384280106937496  0.5813681243341478
  0.7756496021296755  0.4248045065375337  0.3331367571289832
  0.8876035619966132  0.5395313495163876  0.0825371943410644
  0.4457547599721963  0.4249863431207004  0.8306642502581596
  0.5554998571065966  0.5390003725385455  0.5826414991423547
  0.1081378606360062  0.7662125096554178  0.3331367846165492
  0.2213639674335965  0.8726508709609675  0.0808038378885954
  0.7792588993328025  0.7624220906244190  0.8306641067144085
  0.8847486092694652  0.8805027839037933  0.5747598649188319
  0.4444439976307137  0.7611119438456839  0.3302461561134535
  0.5559852164174970  0.8726508557055439  0.0808038434497078
  0.1083189964674602  0.7624220777506991  0.8306640925792834
  0.2223340866851444  0.8721659749779462  0.5826414509486213
  0.7756496165525562  0.7662124975991276  0.3331367647438341
  0.8885540066793425  0.8728920507343574  0.0887806518670899
  0.4444442085657769  0.7611115434311841  0.8331728860956744
  0.5554999953327098  0.8721659449452162  0.5826414324346416
  0.7777776854559875  0.0944446957489831  0.3144506742631918
  0.2222835983513818  0.2054329052915094  0.3771666688838664
  0.1117213869201521  0.0938120057852529  0.1296516099995912
  0.8882143519776164  0.2048810465120923  0.8842967794035914
  0.7777773070409637  0.0944453454804872  0.6358030019058489
  0.5823071204678101  0.1921805003981518  0.3693846287824556
  0.4444665919457407  0.0938120208746440  0.1296516067001505
  0.2228973232444815  0.2042054602732222  0.8769249021739469
  0.1074109804977468  0.0965169457595962  0.6244508302238501
  0.8755124404159957  0.1921805354935628  0.3693846143520432
  0.7777775668397666  0.0944448512413629  0.1450197719364965
  0.5569046934077022  0.2048810344665029  0.8842967694397004
  0.4460720646035483  0.0965169243240851  0.6244508340739259
  0.2222834790785129  0.5389507094386872  0.3771664932662375
  0.1111111654367960  0.4277776398170730  0.1258716084221874
  0.8875386264295173  0.5395639406197148  0.8769249108036945
  0.7798504663174555  0.4240771097013862  0.6244506059762713
  0.5547770735294577  0.5404458912129400  0.3788946710833159
  0.4444666498574676  0.4283882154147278  0.1296517093858043
  0.2228975159077180  0.5395639165739752  0.8769249236208054
  0.1111110411413634  0.4277779131026733  0.6288557358031284
  0.8887658900218867  0.5389507216978089  0.3771665048070858
  0.7771450718713737  0.4283882457153467  0.1296516957863574
  0.5563362921961428  0.5373274449226955  0.8758777369320185
  0.4460723976481589  0.4240770885035090  0.6244505928763715
  0.2237799712212336  0.8714432444549516  0.3788946269266589
  0.1117215313111970  0.7611334599595381  0.1296515891289474
  0.8882143036169197  0.8735714593481632  0.8842968946700509
  0.7798502613065352  0.7627387435376392  0.6244507984417851
  0.5547768291957382  0.8714432493396913  0.3788946076988395
  0.4444444285248039  0.7611110789329203  0.1252315462171865
  0.2206608729552002  0.8730030887493285  0.8758777991262860
  0.1074109438748820  0.7627387258144651  0.6244507790389306
  0.8755127628028347  0.8989745037720098  0.3693850747969520
  0.7771449582756773  0.7611334748509080  0.1296515760317263
  0.5563360805189461  0.8730030971103062  0.8758778075071518
  0.4444443804761562  0.7611111784408919  0.6294044083430137
 
  0.00000000E+00  0.00000000E+00  0.00000000E+00
  0.00000000E+00  0.00000000E+00  0.00000000E+00
  0.00000000E+00  0.00000000E+00  0.00000000E+00
  0.00000000E+00  0.00000000E+00  0.00000000E+00
  0.00000000E+00  0.00000000E+00  0.00000000E+00
  0.00000000E+00  0.00000000E+00  0.00000000E+00
  0.00000000E+00  0.00000000E+00  0.00000000E+00
  0.00000000E+00  0.00000000E+00  0.00000000E+00
  0.00000000E+00  0.00000000E+00  0.00000000E+00
  0.00000000E+00  0.00000000E+00  0.00000000E+00
  0.00000000E+00  0.00000000E+00  0.00000000E+00
  0.00000000E+00  0.00000000E+00  0.00000000E+00
  0.00000000E+00  0.00000000E+00  0.00000000E+00
  0.00000000E+00  0.00000000E+00  0.00000000E+00
  0.00000000E+00  0.00000000E+00  0.00000000E+00
  0.00000000E+00  0.00000000E+00  0.00000000E+00
  0.00000000E+00  0.00000000E+00  0.00000000E+00
  0.00000000E+00  0.00000000E+00  0.00000000E+00
  0.00000000E+00  0.00000000E+00  0.00000000E+00
  0.00000000E+00  0.00000000E+00  0.00000000E+00
  0.00000000E+00  0.00000000E+00  0.00000000E+00
  0.00000000E+00  0.00000000E+00  0.00000000E+00
  0.00000000E+00  0.00000000E+00  0.00000000E+00
  0.00000000E+00  0.00000000E+00  0.00000000E+00
  0.00000000E+00  0.00000000E+00  0.00000000E+00
  0.00000000E+00  0.00000000E+00  0.00000000E+00
  0.00000000E+00  0.00000000E+00  0.00000000E+00
  0.00000000E+00  0.00000000E+00  0.00000000E+00
  0.00000000E+00  0.00000000E+00  0.00000000E+00
  0.00000000E+00  0.00000000E+00  0.00000000E+00
  0.00000000E+00  0.00000000E+00  0.00000000E+00
  0.00000000E+00  0.00000000E+00  0.00000000E+00
  0.00000000E+00  0.00000000E+00  0.00000000E+00
  0.00000000E+00  0.00000000E+00  0.00000000E+00
  0.00000000E+00  0.00000000E+00  0.00000000E+00
  0.00000000E+00  0.00000000E+00  0.00000000E+00
  0.00000000E+00  0.00000000E+00  0.00000000E+00
  0.00000000E+00  0.00000000E+00  0.00000000E+00
  0.00000000E+00  0.00000000E+00  0.00000000E+00
  0.00000000E+00  0.00000000E+00  0.00000000E+00
  0.00000000E+00  0.00000000E+00  0.00000000E+00
  0.00000000E+00  0.00000000E+00  0.00000000E+00
  0.00000000E+00  0.00000000E+00  0.00000000E+00
  0.00000000E+00  0.00000000E+00  0.00000000E+00
  0.00000000E+00  0.00000000E+00  0.00000000E+00
  0.00000000E+00  0.00000000E+00  0.00000000E+00
  0.00000000E+00  0.00000000E+00  0.00000000E+00
  0.00000000E+00  0.00000000E+00  0.00000000E+00
  0.00000000E+00  0.00000000E+00  0.00000000E+00
  0.00000000E+00  0.00000000E+00  0.00000000E+00
  0.00000000E+00  0.00000000E+00  0.00000000E+00
  0.00000000E+00  0.00000000E+00  0.00000000E+00
  0.00000000E+00  0.00000000E+00  0.00000000E+00
  0.00000000E+00  0.00000000E+00  0.00000000E+00
  0.00000000E+00  0.00000000E+00  0.00000000E+00
  0.00000000E+00  0.00000000E+00  0.00000000E+00
  0.00000000E+00  0.00000000E+00  0.00000000E+00
  0.00000000E+00  0.00000000E+00  0.00000000E+00
  0.00000000E+00  0.00000000E+00  0.00000000E+00
  0.00000000E+00  0.00000000E+00  0.00000000E+00
  0.00000000E+00  0.00000000E+00  0.00000000E+00
  0.00000000E+00  0.00000000E+00  0.00000000E+00
  0.00000000E+00  0.00000000E+00  0.00000000E+00
  0.00000000E+00  0.00000000E+00  0.00000000E+00
  0.00000000E+00  0.00000000E+00  0.00000000E+00
  0.00000000E+00  0.00000000E+00  0.00000000E+00
  0.00000000E+00  0.00000000E+00  0.00000000E+00
  0.00000000E+00  0.00000000E+00  0.00000000E+00
  0.00000000E+00  0.00000000E+00  0.00000000E+00
  0.00000000E+00  0.00000000E+00  0.00000000E+00
  0.00000000E+00  0.00000000E+00  0.00000000E+00
  0.00000000E+00  0.00000000E+00  0.00000000E+00
