Al   B    N                             
   1.00000000000000     
    -9.3432039720187969   -0.0000000377032666   -0.0000001134412676
    -4.6716018005976414    8.0914526501147996   -0.0000004193295801
    -0.0000006125454312    0.0000008365454087   -9.9834225663569143
   Al   B    N 
    35     1    36
Direct
  0.1076594581291275  0.0927371122673293  0.3997416053302416
  0.2221228103788349  0.2057540591145894  0.1497419200102144
  0.7777775588575082  0.0944443243215645  0.8977375278553623
  0.8876578570309306  0.2043242194988295  0.6430539760775318
  0.4496034901633976  0.0927366280838768  0.3997416791605559
  0.5611513666552028  0.2027574029015398  0.1537394402283923
  0.1093409770980216  0.0952001878677109  0.8993966865153098
  0.2223964192977661  0.2052070560795514  0.6495133954747629
  0.8860912096847358  0.2027571296739410  0.1537394415257083
  0.4454584634349246  0.0952002413398034  0.8993967479367697
  0.5580179986067080  0.2043244109467821  0.6430539346978463
  0.1111115590510892  0.4277776515848402  0.4003258289682634
  0.2221230801953737  0.5387901143292382  0.1497417980484101
  0.7785342783513158  0.4260070274236583  0.8993967273105241
  0.8885403389700315  0.5390632351626365  0.6495134920390200
  0.4496035980306132  0.4243268820763717  0.3997415822479411
  0.5556982438572788  0.5386040062768558  0.1494854631538942
  0.1111115264588776  0.4277775929044978  0.8996406724821071
  0.2223965964193937  0.5390635241208699  0.6495133783144880
  0.7760694696753063  0.4243271642598287  0.3997416026993434
  0.8890870271809916  0.5387898266081947  0.1497418135629545
  0.4454585095699954  0.4260072650589066  0.8993967597931700
  0.5555762599546270  0.5388480111060687  0.6501007755128256
  0.1076597842870584  0.7662699644363258  0.3997416556473397
  0.2219375109777957  0.8723644550482703  0.1494856252260632
  0.7785340050365122  0.7621252955944371  0.8993966015876040
  0.8876576301307821  0.8746852329491759  0.6430538455898471
  0.4444437548117648  0.7611119068896386  0.3999325745523237
  0.5556982692934085  0.8723641636844235  0.1494855969070272
  0.1093406266074624  0.7621254962417936  0.8993965710203113
  0.2221814327940876  0.8722425490844827  0.6501004271763975
  0.7760697393267151  0.7662697630586806  0.3997417505939111
  0.8860910616410109  0.8778181458950840  0.1537395617638708
  0.4444442352292128  0.7611113034123704  0.8997308926913377
  0.5555763346872951  0.8722422838764743  0.6501006125671296
  0.7777775745298996  0.0944446769402347  0.4033867530931587
  0.2225199310088968  0.2049603098686106  0.3410113065433862
  0.1087086361309346  0.0957288342375335  0.0918692838294959
  0.8880197509795451  0.2046859682301374  0.8355590228485426
  0.7777776910880760  0.0944447432256865  0.5687093054364354
  0.5805802448685498  0.1930433598912771  0.3476312963982124
  0.4455624272240541  0.0957287729116914  0.0918693804473136
  0.2224331954391445  0.2051334277845740  0.8409992273955140
  0.1116062590223024  0.0939592763379196  0.5899426190341970
  0.8763761743750749  0.1930435471914436  0.3476312233971086
  0.7777776956814435  0.0944443601688860  0.0865285299094296
  0.5572939039912441  0.2046861592268030  0.8355590369656056
  0.4444345950540267  0.0939591608692041  0.5899427501405015
  0.2225200667379212  0.5391866410263333  0.3410112056272823
  0.1111111375884875  0.4277779948342655  0.0904532874724921
  0.8884670901601126  0.5390997978507244  0.8409993463973464
  0.7772927661381033  0.4282728806336422  0.5899426645991284
  0.5552520201387807  0.5394959806216875  0.3399134268114139
  0.4455626069247458  0.4253750456496306  0.0918693715024403
  0.2224332283777670  0.5391001164365505  0.8409992055883819
  0.1111112562711014  0.4277779540683824  0.5910651191922511
  0.8882937986797899  0.5391864549660284  0.3410112742948215
  0.7790626753176397  0.4253748047568280  0.0918693294690698
  0.5557415919076831  0.5385168703725611  0.8412326929231924
  0.4444346049468422  0.4282730015622533  0.5899426664133216
  0.2228281203624647  0.8719193999408574  0.3399135397950914
  0.1087084088389858  0.7622294134728875  0.0918691843716459
  0.8880195959946775  0.8739608187055481  0.8355588969434251
  0.7772928318836918  0.7611012205960535  0.5899427383816445
  0.5552522358572460  0.8719191091410465  0.3399135082504046
  0.4444444570219304  0.7611110734895661  0.0903485719390176
  0.2218503002168930  0.8724080604159923  0.8412323206702510
  0.1116061251580192  0.7611013628509653  0.5899426129387848
  0.8763762941742002  0.8972469969950225  0.3476313163029516
  0.7790624788880862  0.7622291876674012  0.0918692442914164
  0.5557416257853305  0.8724079704380330  0.8412324663349722
  0.4444445022017263  0.7611111229011698  0.5910765395537254
 
  0.00000000E+00  0.00000000E+00  0.00000000E+00
  0.00000000E+00  0.00000000E+00  0.00000000E+00
  0.00000000E+00  0.00000000E+00  0.00000000E+00
  0.00000000E+00  0.00000000E+00  0.00000000E+00
  0.00000000E+00  0.00000000E+00  0.00000000E+00
  0.00000000E+00  0.00000000E+00  0.00000000E+00
  0.00000000E+00  0.00000000E+00  0.00000000E+00
  0.00000000E+00  0.00000000E+00  0.00000000E+00
  0.00000000E+00  0.00000000E+00  0.00000000E+00
  0.00000000E+00  0.00000000E+00  0.00000000E+00
  0.00000000E+00  0.00000000E+00  0.00000000E+00
  0.00000000E+00  0.00000000E+00  0.00000000E+00
  0.00000000E+00  0.00000000E+00  0.00000000E+00
  0.00000000E+00  0.00000000E+00  0.00000000E+00
  0.00000000E+00  0.00000000E+00  0.00000000E+00
  0.00000000E+00  0.00000000E+00  0.00000000E+00
  0.00000000E+00  0.00000000E+00  0.00000000E+00
  0.00000000E+00  0.00000000E+00  0.00000000E+00
  0.00000000E+00  0.00000000E+00  0.00000000E+00
  0.00000000E+00  0.00000000E+00  0.00000000E+00
  0.00000000E+00  0.00000000E+00  0.00000000E+00
  0.00000000E+00  0.00000000E+00  0.00000000E+00
  0.00000000E+00  0.00000000E+00  0.00000000E+00
  0.00000000E+00  0.00000000E+00  0.00000000E+00
  0.00000000E+00  0.00000000E+00  0.00000000E+00
  0.00000000E+00  0.00000000E+00  0.00000000E+00
  0.00000000E+00  0.00000000E+00  0.00000000E+00
  0.00000000E+00  0.00000000E+00  0.00000000E+00
  0.00000000E+00  0.00000000E+00  0.00000000E+00
  0.00000000E+00  0.00000000E+00  0.00000000E+00
  0.00000000E+00  0.00000000E+00  0.00000000E+00
  0.00000000E+00  0.00000000E+00  0.00000000E+00
  0.00000000E+00  0.00000000E+00  0.00000000E+00
  0.00000000E+00  0.00000000E+00  0.00000000E+00
  0.00000000E+00  0.00000000E+00  0.00000000E+00
  0.00000000E+00  0.00000000E+00  0.00000000E+00
  0.00000000E+00  0.00000000E+00  0.00000000E+00
  0.00000000E+00  0.00000000E+00  0.00000000E+00
  0.00000000E+00  0.00000000E+00  0.00000000E+00
  0.00000000E+00  0.00000000E+00  0.00000000E+00
  0.00000000E+00  0.00000000E+00  0.00000000E+00
  0.00000000E+00  0.00000000E+00  0.00000000E+00
  0.00000000E+00  0.00000000E+00  0.00000000E+00
  0.00000000E+00  0.00000000E+00  0.00000000E+00
  0.00000000E+00  0.00000000E+00  0.00000000E+00
  0.00000000E+00  0.00000000E+00  0.00000000E+00
  0.00000000E+00  0.00000000E+00  0.00000000E+00
  0.00000000E+00  0.00000000E+00  0.00000000E+00
  0.00000000E+00  0.00000000E+00  0.00000000E+00
  0.00000000E+00  0.00000000E+00  0.00000000E+00
  0.00000000E+00  0.00000000E+00  0.00000000E+00
  0.00000000E+00  0.00000000E+00  0.00000000E+00
  0.00000000E+00  0.00000000E+00  0.00000000E+00
  0.00000000E+00  0.00000000E+00  0.00000000E+00
  0.00000000E+00  0.00000000E+00  0.00000000E+00
  0.00000000E+00  0.00000000E+00  0.00000000E+00
  0.00000000E+00  0.00000000E+00  0.00000000E+00
  0.00000000E+00  0.00000000E+00  0.00000000E+00
  0.00000000E+00  0.00000000E+00  0.00000000E+00
  0.00000000E+00  0.00000000E+00  0.00000000E+00
  0.00000000E+00  0.00000000E+00  0.00000000E+00
  0.00000000E+00  0.00000000E+00  0.00000000E+00
  0.00000000E+00  0.00000000E+00  0.00000000E+00
  0.00000000E+00  0.00000000E+00  0.00000000E+00
  0.00000000E+00  0.00000000E+00  0.00000000E+00
  0.00000000E+00  0.00000000E+00  0.00000000E+00
  0.00000000E+00  0.00000000E+00  0.00000000E+00
  0.00000000E+00  0.00000000E+00  0.00000000E+00
  0.00000000E+00  0.00000000E+00  0.00000000E+00
  0.00000000E+00  0.00000000E+00  0.00000000E+00
  0.00000000E+00  0.00000000E+00  0.00000000E+00
  0.00000000E+00  0.00000000E+00  0.00000000E+00
