Al   B    N                             
   1.00000000000000     
    -9.3432020534034859   -0.0000001434622331    0.0000002039661015
    -4.6716008648310421    8.0914510143819633    0.0000005171607199
     0.0000003930328756   -0.0000008462708426   -9.9834336393898084
   Al   B    N 
    35     1    36
Direct
  0.1076595432934937  0.0927370404005785  0.3079597343170803
  0.2223964839493675  0.2052069714022551  0.0581884998411653
  0.7777775551573072  0.0944443118422669  0.8099614867407183
  0.8860912007520767  0.2027571051804102  0.5539597499832851
  0.4496034411677172  0.0927365546506138  0.3079597181763916
  0.5580180087578697  0.2043244041501069  0.0646462498366347
  0.1093409358592581  0.0952002366390232  0.8083045922936023
  0.2221227558101617  0.2057540707129633  0.5579596697669373
  0.8876578543836047  0.2043241942341893  0.0646461699795253
  0.4454584505484860  0.0952002969850767  0.8083045279840704
  0.5611512769470224  0.2027574146117956  0.5539597676020733
  0.1111115608206319  0.4277776344460591  0.3073757244562074
  0.2223966530769985  0.5390635572111790  0.0581884993619539
  0.7785343346491800  0.4260069868387859  0.8083045464454273
  0.8890870563780524  0.5387897668228021  0.5579597633576654
  0.4496035457246776  0.4243269596754686  0.3079597945320032
  0.5555762955770547  0.5388479552315246  0.0576008800156345
  0.1111115293360925  0.4277775891897875  0.8080613461582900
  0.2221230686366340  0.5387900707658986  0.5579597905699600
  0.7760694067944769  0.4243272478459019  0.3079597465847854
  0.8885402637730380  0.5390632723332018  0.0581884090828027
  0.4454585090486347  0.4260072148662459  0.8083045151609198
  0.5556982328629729  0.5386039939572882  0.5582163283045460
  0.1076598700104228  0.7662698918856350  0.3079597146061062
  0.2221814021386663  0.8722425498526292  0.0576012270633868
  0.7785340521515849  0.7621252811174699  0.8083046786836263
  0.8860910970567986  0.8778180437378538  0.5539596522458581
  0.4444437460944854  0.7611118865630502  0.3077692837219104
  0.5555763523322454  0.8722422986815772  0.0576010569870746
  0.1093405771180045  0.7621254815851941  0.8083047119512088
  0.2219375232843532  0.8723644193310207  0.5582161729451940
  0.7760696690858708  0.7662697104767560  0.3079596494707886
  0.8876576151990321  0.8746852343041240  0.0646463493794656
  0.4444442372179296  0.7611112866026204  0.8079711030859471
  0.5556982536743433  0.8723641306100589  0.5582162298318138
  0.7777775661487567  0.0944446686050213  0.3043128257533425
  0.2225199390913986  0.2049602566572872  0.3666900241995705
  0.1116060758024560  0.0939592740416231  0.1177590004973723
  0.8880195587103330  0.2046857829507687  0.8721417821428261
  0.7777776395078888  0.0944443040142673  0.6211707352921820
  0.5805802200443182  0.1930433579441555  0.3600688811247821
  0.4444348077386948  0.0939591353815530  0.1177589428670913
  0.2224332832242979  0.2051332780553494  0.8667028026164303
  0.1087083122003207  0.0957289320435493  0.6158317899839716
  0.8763761645958041  0.1930435392367258  0.3600689308190042
  0.7777776829434302  0.0944447382140083  0.1389920063437842
  0.5572942939128467  0.2046859676385324  0.8721418054659225
  0.4455625316053400  0.0957289056671371  0.6158317001050975
  0.2225200933479528  0.5391866523708231  0.3666901201504089
  0.1111112787778836  0.4277779576331753  0.1166367608774337
  0.8884669398554195  0.5390998862214857  0.8667026826135000
  0.7790627946034476  0.4253744791502712  0.6158317390252961
  0.5552520426911158  0.5394958746214655  0.3677881499723483
  0.4444347988372357  0.4282728191712124  0.1177590157131903
  0.2224333231483584  0.5391001929010173  0.8667027886109722
  0.1111111414546215  0.4277779815176146  0.6172485132607264
  0.8882937523056142  0.5391864646264466  0.3666900489448821
  0.7772927844054252  0.4282726643107040  0.1177589783405537
  0.5557416695252684  0.5385167306439413  0.8664691419790103
  0.4455627444674946  0.4253747544810054  0.6158317273009004
  0.2228280202850215  0.8719194150857277  0.3677880169552026
  0.1116059359672761  0.7611015395095251  0.1177590660403354
  0.8880194013001130  0.8739612004703901  0.8721419509638153
  0.7790626199664459  0.7622292875707259  0.6158318286683411
  0.5552522528527675  0.8719191380359703  0.3677881071835074
  0.4444445097340335  0.7611111076263484  0.1166254517773453
  0.2218501764304577  0.8724081136762294  0.8664695009981358
  0.1087081530163019  0.7622295157003549  0.6158319016815099
  0.8763762967590765  0.8972469645438608  0.3600688660080920
  0.7772927990159104  0.7611014172322470  0.1177589715080742
  0.5557416815376044  0.8724080360744111  0.8664693703882733
  0.4444444612139833  0.7611110368866605  0.6173532979746241
 
  0.00000000E+00  0.00000000E+00  0.00000000E+00
  0.00000000E+00  0.00000000E+00  0.00000000E+00
  0.00000000E+00  0.00000000E+00  0.00000000E+00
  0.00000000E+00  0.00000000E+00  0.00000000E+00
  0.00000000E+00  0.00000000E+00  0.00000000E+00
  0.00000000E+00  0.00000000E+00  0.00000000E+00
  0.00000000E+00  0.00000000E+00  0.00000000E+00
  0.00000000E+00  0.00000000E+00  0.00000000E+00
  0.00000000E+00  0.00000000E+00  0.00000000E+00
  0.00000000E+00  0.00000000E+00  0.00000000E+00
  0.00000000E+00  0.00000000E+00  0.00000000E+00
  0.00000000E+00  0.00000000E+00  0.00000000E+00
  0.00000000E+00  0.00000000E+00  0.00000000E+00
  0.00000000E+00  0.00000000E+00  0.00000000E+00
  0.00000000E+00  0.00000000E+00  0.00000000E+00
  0.00000000E+00  0.00000000E+00  0.00000000E+00
  0.00000000E+00  0.00000000E+00  0.00000000E+00
  0.00000000E+00  0.00000000E+00  0.00000000E+00
  0.00000000E+00  0.00000000E+00  0.00000000E+00
  0.00000000E+00  0.00000000E+00  0.00000000E+00
  0.00000000E+00  0.00000000E+00  0.00000000E+00
  0.00000000E+00  0.00000000E+00  0.00000000E+00
  0.00000000E+00  0.00000000E+00  0.00000000E+00
  0.00000000E+00  0.00000000E+00  0.00000000E+00
  0.00000000E+00  0.00000000E+00  0.00000000E+00
  0.00000000E+00  0.00000000E+00  0.00000000E+00
  0.00000000E+00  0.00000000E+00  0.00000000E+00
  0.00000000E+00  0.00000000E+00  0.00000000E+00
  0.00000000E+00  0.00000000E+00  0.00000000E+00
  0.00000000E+00  0.00000000E+00  0.00000000E+00
  0.00000000E+00  0.00000000E+00  0.00000000E+00
  0.00000000E+00  0.00000000E+00  0.00000000E+00
  0.00000000E+00  0.00000000E+00  0.00000000E+00
  0.00000000E+00  0.00000000E+00  0.00000000E+00
  0.00000000E+00  0.00000000E+00  0.00000000E+00
  0.00000000E+00  0.00000000E+00  0.00000000E+00
  0.00000000E+00  0.00000000E+00  0.00000000E+00
  0.00000000E+00  0.00000000E+00  0.00000000E+00
  0.00000000E+00  0.00000000E+00  0.00000000E+00
  0.00000000E+00  0.00000000E+00  0.00000000E+00
  0.00000000E+00  0.00000000E+00  0.00000000E+00
  0.00000000E+00  0.00000000E+00  0.00000000E+00
  0.00000000E+00  0.00000000E+00  0.00000000E+00
  0.00000000E+00  0.00000000E+00  0.00000000E+00
  0.00000000E+00  0.00000000E+00  0.00000000E+00
  0.00000000E+00  0.00000000E+00  0.00000000E+00
  0.00000000E+00  0.00000000E+00  0.00000000E+00
  0.00000000E+00  0.00000000E+00  0.00000000E+00
  0.00000000E+00  0.00000000E+00  0.00000000E+00
  0.00000000E+00  0.00000000E+00  0.00000000E+00
  0.00000000E+00  0.00000000E+00  0.00000000E+00
  0.00000000E+00  0.00000000E+00  0.00000000E+00
  0.00000000E+00  0.00000000E+00  0.00000000E+00
  0.00000000E+00  0.00000000E+00  0.00000000E+00
  0.00000000E+00  0.00000000E+00  0.00000000E+00
  0.00000000E+00  0.00000000E+00  0.00000000E+00
  0.00000000E+00  0.00000000E+00  0.00000000E+00
  0.00000000E+00  0.00000000E+00  0.00000000E+00
  0.00000000E+00  0.00000000E+00  0.00000000E+00
  0.00000000E+00  0.00000000E+00  0.00000000E+00
  0.00000000E+00  0.00000000E+00  0.00000000E+00
  0.00000000E+00  0.00000000E+00  0.00000000E+00
  0.00000000E+00  0.00000000E+00  0.00000000E+00
  0.00000000E+00  0.00000000E+00  0.00000000E+00
  0.00000000E+00  0.00000000E+00  0.00000000E+00
  0.00000000E+00  0.00000000E+00  0.00000000E+00
  0.00000000E+00  0.00000000E+00  0.00000000E+00
  0.00000000E+00  0.00000000E+00  0.00000000E+00
  0.00000000E+00  0.00000000E+00  0.00000000E+00
  0.00000000E+00  0.00000000E+00  0.00000000E+00
  0.00000000E+00  0.00000000E+00  0.00000000E+00
  0.00000000E+00  0.00000000E+00  0.00000000E+00
