Al   B    N                             
   1.00000000000000     
    -9.3432009322778704   -0.0000000471460314   -0.0000000851013239
    -4.6716001241241516    8.0914501176849090   -0.0000003357143747
     0.0000000969994143    0.0000009943016863   -9.9834282504953009
   Al   B    N 
    35     1    36
Direct
  0.1076592575889066  0.0927371707684728  0.3910012120262394
  0.2221227998028539  0.2057540805058053  0.1410019921262773
  0.7777775557815403  0.0944443296914557  0.8889955268558083
  0.8876578083149980  0.2043241758264429  0.6343129037927113
  0.4496036062299993  0.0927366834096262  0.3910012765139257
  0.5611513988954329  0.2027574084587513  0.1449974329499923
  0.1093410280884797  0.0952001479483684  0.8906565038378034
  0.2223964066162907  0.2052070496518255  0.6407734439892607
  0.8860911981515400  0.2027571388911511  0.1449974503294271
  0.4454584315965775  0.0952002011623492  0.8906565546921286
  0.5580180813155948  0.2043243632149014  0.6343128687290758
  0.1111115475804141  0.4277776238254702  0.3915859758831104
  0.2221230651384687  0.5387901005723919  0.1410018790415464
  0.7785342177744994  0.4260071017184899  0.8906565367004973
  0.8885403388661786  0.5390632171966558  0.6407735291763998
  0.4496037056822146  0.4243266874162614  0.3910011797825135
  0.5556982480722965  0.5386040128558705  0.1407455894268352
  0.1111115140768248  0.4277775735712268  0.8909008405015655
  0.2223965741029659  0.5390635009825715  0.6407734299568233
  0.7760695129626498  0.4243269799517932  0.3910011982143615
  0.8890870511202920  0.5387898216629310  0.1410018916567211
  0.4454584644312405  0.4260073396038848  0.8906565697638698
  0.5555762618518756  0.5388479801321679  0.6413608211079946
  0.1076595981864941  0.7662700647334120  0.3910012606909632
  0.2219374951620523  0.8723644777348056  0.1407457695195973
  0.7785339728220890  0.7621252544588657  0.8906564147399862
  0.8876575946966483  0.8746853015312723  0.6343127888257385
  0.4444437409883051  0.7611119140955935  0.3911928741074817
  0.5556982901256902  0.8723641918861560  0.1407457306217665
  0.1093406982137637  0.7621254576558130  0.8906564022032200
  0.2221813898358818  0.8722425584971489  0.6413604933533037
  0.7760698089308065  0.7662698647424122  0.3910013514434993
  0.8860910560995947  0.8778181812597623  0.1449975725341588
  0.4444442258232613  0.7611113206431170  0.8909912472828196
  0.5555763533517890  0.8722422995226964  0.6413606647286230
  0.7777775653411183  0.0944446710305087  0.3946441904630618
  0.2225198986871462  0.2049603207652666  0.3322708001721182
  0.1087088753869097  0.0957287168856240  0.0831284773825516
  0.8880198577970972  0.2046861023895943  0.8268177502304894
  0.7777776823837996  0.0944447339566850  0.5599668839244245
  0.5805801640239281  0.1930433798225266  0.3388889921675471
  0.4455623016040633  0.0957286665565249  0.0831285720558981
  0.2224331669966801  0.2051334443161252  0.8322587989828065
  0.1116062895106396  0.0939592389732127  0.5812019146669840
  0.8763761948414484  0.1930435892545077  0.3388889475098154
  0.7777777091343339  0.0944443784933284  0.0777862123655382
  0.5572936518058640  0.2046862861458081  0.8268177736382896
  0.4444345596078989  0.0939591402797504  0.5812020383542347
  0.2225200220357380  0.5391865941754190  0.3322707036813881
  0.1111111255993080  0.4277779874920995  0.0817129631561926
  0.8884671121610452  0.5390997662488033  0.8322589108818335
  0.7772927178985327  0.4282729265427108  0.5812019440627978
  0.5552519704534618  0.5394960385448258  0.3311730722688679
  0.4455624762446391  0.4253753142488748  0.0831285786945486
  0.2224331846479330  0.5391000834505348  0.8322587843896230
  0.1111112382351038  0.4277779250932596  0.5823247870903501
  0.8882938205177950  0.5391864155387154  0.3322707740391593
  0.7790625415666739  0.4253750689693661  0.0831285228648753
  0.5557415289562257  0.5385169590367269  0.8324922760206377
  0.4444345646984544  0.4282730410181941  0.5812019613413568
  0.2228281547901361  0.8719193761792354  0.3311732016336961
  0.1087086699553765  0.7622292902685004  0.0831284059121984
  0.8880197195641628  0.8739605715528924  0.8268176480616418
  0.7772928104879284  0.7611011839908315  0.5812020312073969
  0.5552522113709841  0.8719190786922582  0.3311731546298873
  0.4444444553202445  0.7611111066835434  0.0816085355907887
  0.2218503508819367  0.8724080366004756  0.8324919256931693
  0.1116061719938131  0.7611013196376888  0.5812019156143577
  0.8763763302341516  0.8972469018936806  0.3388890269597624
  0.7790623662921234  0.7622290656121748  0.0831284404714410
  0.5557415965804466  0.8724079389216897  0.8324920485876817
  0.4444444815619377  0.7611111306973868  0.5823363212910166
 
  0.00000000E+00  0.00000000E+00  0.00000000E+00
  0.00000000E+00  0.00000000E+00  0.00000000E+00
  0.00000000E+00  0.00000000E+00  0.00000000E+00
  0.00000000E+00  0.00000000E+00  0.00000000E+00
  0.00000000E+00  0.00000000E+00  0.00000000E+00
  0.00000000E+00  0.00000000E+00  0.00000000E+00
  0.00000000E+00  0.00000000E+00  0.00000000E+00
  0.00000000E+00  0.00000000E+00  0.00000000E+00
  0.00000000E+00  0.00000000E+00  0.00000000E+00
  0.00000000E+00  0.00000000E+00  0.00000000E+00
  0.00000000E+00  0.00000000E+00  0.00000000E+00
  0.00000000E+00  0.00000000E+00  0.00000000E+00
  0.00000000E+00  0.00000000E+00  0.00000000E+00
  0.00000000E+00  0.00000000E+00  0.00000000E+00
  0.00000000E+00  0.00000000E+00  0.00000000E+00
  0.00000000E+00  0.00000000E+00  0.00000000E+00
  0.00000000E+00  0.00000000E+00  0.00000000E+00
  0.00000000E+00  0.00000000E+00  0.00000000E+00
  0.00000000E+00  0.00000000E+00  0.00000000E+00
  0.00000000E+00  0.00000000E+00  0.00000000E+00
  0.00000000E+00  0.00000000E+00  0.00000000E+00
  0.00000000E+00  0.00000000E+00  0.00000000E+00
  0.00000000E+00  0.00000000E+00  0.00000000E+00
  0.00000000E+00  0.00000000E+00  0.00000000E+00
  0.00000000E+00  0.00000000E+00  0.00000000E+00
  0.00000000E+00  0.00000000E+00  0.00000000E+00
  0.00000000E+00  0.00000000E+00  0.00000000E+00
  0.00000000E+00  0.00000000E+00  0.00000000E+00
  0.00000000E+00  0.00000000E+00  0.00000000E+00
  0.00000000E+00  0.00000000E+00  0.00000000E+00
  0.00000000E+00  0.00000000E+00  0.00000000E+00
  0.00000000E+00  0.00000000E+00  0.00000000E+00
  0.00000000E+00  0.00000000E+00  0.00000000E+00
  0.00000000E+00  0.00000000E+00  0.00000000E+00
  0.00000000E+00  0.00000000E+00  0.00000000E+00
  0.00000000E+00  0.00000000E+00  0.00000000E+00
  0.00000000E+00  0.00000000E+00  0.00000000E+00
  0.00000000E+00  0.00000000E+00  0.00000000E+00
  0.00000000E+00  0.00000000E+00  0.00000000E+00
  0.00000000E+00  0.00000000E+00  0.00000000E+00
  0.00000000E+00  0.00000000E+00  0.00000000E+00
  0.00000000E+00  0.00000000E+00  0.00000000E+00
  0.00000000E+00  0.00000000E+00  0.00000000E+00
  0.00000000E+00  0.00000000E+00  0.00000000E+00
  0.00000000E+00  0.00000000E+00  0.00000000E+00
  0.00000000E+00  0.00000000E+00  0.00000000E+00
  0.00000000E+00  0.00000000E+00  0.00000000E+00
  0.00000000E+00  0.00000000E+00  0.00000000E+00
  0.00000000E+00  0.00000000E+00  0.00000000E+00
  0.00000000E+00  0.00000000E+00  0.00000000E+00
  0.00000000E+00  0.00000000E+00  0.00000000E+00
  0.00000000E+00  0.00000000E+00  0.00000000E+00
  0.00000000E+00  0.00000000E+00  0.00000000E+00
  0.00000000E+00  0.00000000E+00  0.00000000E+00
  0.00000000E+00  0.00000000E+00  0.00000000E+00
  0.00000000E+00  0.00000000E+00  0.00000000E+00
  0.00000000E+00  0.00000000E+00  0.00000000E+00
  0.00000000E+00  0.00000000E+00  0.00000000E+00
  0.00000000E+00  0.00000000E+00  0.00000000E+00
  0.00000000E+00  0.00000000E+00  0.00000000E+00
  0.00000000E+00  0.00000000E+00  0.00000000E+00
  0.00000000E+00  0.00000000E+00  0.00000000E+00
  0.00000000E+00  0.00000000E+00  0.00000000E+00
  0.00000000E+00  0.00000000E+00  0.00000000E+00
  0.00000000E+00  0.00000000E+00  0.00000000E+00
  0.00000000E+00  0.00000000E+00  0.00000000E+00
  0.00000000E+00  0.00000000E+00  0.00000000E+00
  0.00000000E+00  0.00000000E+00  0.00000000E+00
  0.00000000E+00  0.00000000E+00  0.00000000E+00
  0.00000000E+00  0.00000000E+00  0.00000000E+00
  0.00000000E+00  0.00000000E+00  0.00000000E+00
  0.00000000E+00  0.00000000E+00  0.00000000E+00
