Al   B    N                             
   1.00000000000000     
    -9.3432039656422852   -0.0000001472393391    0.0000002153020790
    -4.6716019510453464    8.0914525682250940    0.0000005506068021
     0.0000003956907990   -0.0000008005734657   -9.9834182334387300
   Al   B    N 
    35     1    36
Direct
  0.1076586542066593  0.0927370433634067  0.3045006699973456
  0.2223967496815291  0.2052063979945942  0.0547289086442149
  0.7777775140907082  0.0944443437711513  0.8065076354646692
  0.8860908112355546  0.2027567390407796  0.5505041231737948
  0.4496043251127730  0.0927365618328011  0.3045005958749698
  0.5580177603792151  0.2043245034819421  0.0611837331003571
  0.1093416922859802  0.0952002645972669  0.8048440619683959
  0.2221225213452200  0.2057545797709253  0.5544987360683109
  0.8876580349745922  0.2043243106296657  0.0611836922362698
  0.4454576216606796  0.0952003113565070  0.8048440010142102
  0.5611521200395231  0.2027570061100761  0.5505041564381088
  0.1111115770078897  0.4277776219499216  0.3039133507872194
  0.2223969507971546  0.5390638079856060  0.0547288768557834
  0.7785343594841692  0.4260077485262173  0.8048440408522808
  0.8890875387568684  0.5387895320847704  0.5544988026343773
  0.4496044368173671  0.4243261156120397  0.3045006819505574
  0.5555765296747381  0.5388475182655057  0.0541395048428654
  0.1111115284288857  0.4277775687018277  0.8046017235064511
  0.2221228257891568  0.5387898210989590  0.5544988266100859
  0.7760693692776925  0.4243264018662956  0.3045006691726684
  0.8885397161796220  0.5390635245463287  0.0547287878823397
  0.4454576738418581  0.4260079914112964  0.8048439890571757
  0.5556981064978146  0.5386042835675084  0.5547571650905283
  0.1076589991096384  0.7662707848728090  0.3045006359779165
  0.2221810008998375  0.8722427302719709  0.0541398284172487
  0.7785340536562373  0.7621244801218978  0.8048441159456488
  0.8860906553777710  0.8778188860026148  0.5505039962709262
  0.4444437252308973  0.7611119230176229  0.3043079881900681
  0.5555765947025151  0.8722424668432751  0.0541396777140477
  0.1093413158259864  0.7621246966359791  0.8048441256294154
  0.2219378010617774  0.8723642998985923  0.5547569760876456
  0.7760696514638354  0.7662705927972411  0.3045005542640098
  0.8876578121096017  0.8746848938043001  0.0611838127685118
  0.4444442204235628  0.7611112924892467  0.8045109440927476
  0.5556980944310013  0.8723640037075597  0.5547570323171982
  0.7777775683267478  0.0944446611579863  0.3008559338013441
  0.2225197628270692  0.2049606021160884  0.3632293649396985
  0.1116056825174070  0.0939592456275449  0.1142988067461346
  0.8880202148781748  0.2046864363562193  0.8686805864257963
  0.7777776922345367  0.0944443385866975  0.6177167660550964
  0.5805808589213584  0.1930430451661564  0.3566125379191405
  0.4444352058943011  0.0939591463429394  0.1142986698338220
  0.2224332783802936  0.2051332196222262  0.8632426194844172
  0.1087089363209586  0.0957289877618450  0.6123719987919571
  0.8763758385088352  0.1930432358473695  0.3566125993264819
  0.7777777219561131  0.0944446993887738  0.1355311745537833
  0.5572929115543062  0.2046866330381221  0.8686805605462240
  0.4455619255477927  0.0957289245619961  0.6123719028170171
  0.2225199134360381  0.5391864635226256  0.3632294544026990
  0.1111112765490176  0.4277779367414709  0.1131747981150326
  0.8884668940017235  0.5390998913958995  0.8632424907253053
  0.7790628454636277  0.4253751007491502  0.6123719585455163
  0.5552518561686810  0.5394962757777080  0.3643288333271215
  0.4444352292063556  0.4282723620941837  0.1142987376739839
  0.2224333014709856  0.5391002226222597  0.8632426064614904
  0.1111111174092443  0.4277779908524337  0.6137886055782431
  0.8882941109052354  0.5391862763934085  0.3632293827220963
  0.7772928151639604  0.4282722371201899  0.1142987537146922
  0.5557417618280667  0.5385165040684967  0.8630076871129759
  0.4455621248440309  0.4253753554561612  0.6123719098303582
  0.2228283715932449  0.8719192622984977  0.3643287005228899
  0.1116055538875642  0.7611019098412015  0.1142988061781836
  0.8880200448205287  0.8739598549502503  0.8686806781659442
  0.7790626227415061  0.7622286751273819  0.6123720106141235
  0.5552520664085776  0.8719189735958039  0.3643287409984239
  0.4444445227536917  0.7611110879248102  0.1131633611986658
  0.2218499240295202  0.8724082239786881  0.8630080395070578
  0.1087087140696497  0.7622289190978151  0.6123720571020286
  0.8763759679649112  0.8972476032394496  0.3566125076284692
  0.7772928724799897  0.7611017700969285  0.1142986947836135
  0.5557417838306762  0.8724081388204254  0.8630079108527653
  0.4444444472280367  0.7611110584083463  0.6138936388787855
 
  0.00000000E+00  0.00000000E+00  0.00000000E+00
  0.00000000E+00  0.00000000E+00  0.00000000E+00
  0.00000000E+00  0.00000000E+00  0.00000000E+00
  0.00000000E+00  0.00000000E+00  0.00000000E+00
  0.00000000E+00  0.00000000E+00  0.00000000E+00
  0.00000000E+00  0.00000000E+00  0.00000000E+00
  0.00000000E+00  0.00000000E+00  0.00000000E+00
  0.00000000E+00  0.00000000E+00  0.00000000E+00
  0.00000000E+00  0.00000000E+00  0.00000000E+00
  0.00000000E+00  0.00000000E+00  0.00000000E+00
  0.00000000E+00  0.00000000E+00  0.00000000E+00
  0.00000000E+00  0.00000000E+00  0.00000000E+00
  0.00000000E+00  0.00000000E+00  0.00000000E+00
  0.00000000E+00  0.00000000E+00  0.00000000E+00
  0.00000000E+00  0.00000000E+00  0.00000000E+00
  0.00000000E+00  0.00000000E+00  0.00000000E+00
  0.00000000E+00  0.00000000E+00  0.00000000E+00
  0.00000000E+00  0.00000000E+00  0.00000000E+00
  0.00000000E+00  0.00000000E+00  0.00000000E+00
  0.00000000E+00  0.00000000E+00  0.00000000E+00
  0.00000000E+00  0.00000000E+00  0.00000000E+00
  0.00000000E+00  0.00000000E+00  0.00000000E+00
  0.00000000E+00  0.00000000E+00  0.00000000E+00
  0.00000000E+00  0.00000000E+00  0.00000000E+00
  0.00000000E+00  0.00000000E+00  0.00000000E+00
  0.00000000E+00  0.00000000E+00  0.00000000E+00
  0.00000000E+00  0.00000000E+00  0.00000000E+00
  0.00000000E+00  0.00000000E+00  0.00000000E+00
  0.00000000E+00  0.00000000E+00  0.00000000E+00
  0.00000000E+00  0.00000000E+00  0.00000000E+00
  0.00000000E+00  0.00000000E+00  0.00000000E+00
  0.00000000E+00  0.00000000E+00  0.00000000E+00
  0.00000000E+00  0.00000000E+00  0.00000000E+00
  0.00000000E+00  0.00000000E+00  0.00000000E+00
  0.00000000E+00  0.00000000E+00  0.00000000E+00
  0.00000000E+00  0.00000000E+00  0.00000000E+00
  0.00000000E+00  0.00000000E+00  0.00000000E+00
  0.00000000E+00  0.00000000E+00  0.00000000E+00
  0.00000000E+00  0.00000000E+00  0.00000000E+00
  0.00000000E+00  0.00000000E+00  0.00000000E+00
  0.00000000E+00  0.00000000E+00  0.00000000E+00
  0.00000000E+00  0.00000000E+00  0.00000000E+00
  0.00000000E+00  0.00000000E+00  0.00000000E+00
  0.00000000E+00  0.00000000E+00  0.00000000E+00
  0.00000000E+00  0.00000000E+00  0.00000000E+00
  0.00000000E+00  0.00000000E+00  0.00000000E+00
  0.00000000E+00  0.00000000E+00  0.00000000E+00
  0.00000000E+00  0.00000000E+00  0.00000000E+00
  0.00000000E+00  0.00000000E+00  0.00000000E+00
  0.00000000E+00  0.00000000E+00  0.00000000E+00
  0.00000000E+00  0.00000000E+00  0.00000000E+00
  0.00000000E+00  0.00000000E+00  0.00000000E+00
  0.00000000E+00  0.00000000E+00  0.00000000E+00
  0.00000000E+00  0.00000000E+00  0.00000000E+00
  0.00000000E+00  0.00000000E+00  0.00000000E+00
  0.00000000E+00  0.00000000E+00  0.00000000E+00
  0.00000000E+00  0.00000000E+00  0.00000000E+00
  0.00000000E+00  0.00000000E+00  0.00000000E+00
  0.00000000E+00  0.00000000E+00  0.00000000E+00
  0.00000000E+00  0.00000000E+00  0.00000000E+00
  0.00000000E+00  0.00000000E+00  0.00000000E+00
  0.00000000E+00  0.00000000E+00  0.00000000E+00
  0.00000000E+00  0.00000000E+00  0.00000000E+00
  0.00000000E+00  0.00000000E+00  0.00000000E+00
  0.00000000E+00  0.00000000E+00  0.00000000E+00
  0.00000000E+00  0.00000000E+00  0.00000000E+00
  0.00000000E+00  0.00000000E+00  0.00000000E+00
  0.00000000E+00  0.00000000E+00  0.00000000E+00
  0.00000000E+00  0.00000000E+00  0.00000000E+00
  0.00000000E+00  0.00000000E+00  0.00000000E+00
  0.00000000E+00  0.00000000E+00  0.00000000E+00
  0.00000000E+00  0.00000000E+00  0.00000000E+00
