Al   B    N                             
   1.00000000000000     
    -9.3432066277771675   -0.0000000414803725   -0.0000001021052901
    -4.6716030843117391    8.0914550295838641   -0.0000003858834979
    -0.0000005228750240    0.0000008810884786   -9.9834064868450909
   Al   B    N 
    35     1    36
Direct
  0.1076584806226819  0.0927370881186107  0.3962770075926230
  0.2221225147103922  0.2057545810896855  0.1462796480099868
  0.7777775195025214  0.0944443697128463  0.8942667267502031
  0.8876580520129309  0.2043243107781052  0.6395921815485508
  0.4496044733452393  0.0927366012633115  0.3962770283518751
  0.5611522037771763  0.2027569786493402  0.1502707684210236
  0.1093417083211961  0.0952002508515974  0.8959336035996301
  0.2223967494868120  0.2052064542616137  0.6460494009540128
  0.8860907387737598  0.2027566829269460  0.1502708035882492
  0.4454576712879685  0.0952003024438994  0.8959336492069241
  0.5580177652799563  0.2043245066931831  0.6395920889902982
  0.1111115759056034  0.4277776387377017  0.3968650116964270
  0.2221228413211875  0.5387898438821210  0.1462795610502283
  0.7785343309570862  0.4260077892569569  0.8959336216364662
  0.8885397687725884  0.5390635301359765  0.6460495224898111
  0.4496045803914370  0.4243259305307561  0.3962769719540233
  0.5556980779269978  0.5386043332605439  0.1460212344498331
  0.1111115487218015  0.4277775976130513  0.8961768742362253
  0.2223969358343396  0.5390638043100537  0.6460494373242867
  0.7760694167044235  0.4243262203258595  0.3962769898257292
  0.8890875399453790  0.5387895382976637  0.1462795581694039
  0.4454577099864423  0.4260080195696574  0.8959336531847910
  0.5555765752409698  0.5388474556414664  0.6466385941025266
  0.1076588106771013  0.7662709252396525  0.3962770193054368
  0.2219378424610028  0.8723642842268049  0.1460214352815754
  0.7785340394806539  0.7621245438883619  0.8959335511589970
  0.8876578168473372  0.8746848954981274  0.6395920207972523
  0.4444437186593930  0.7611119341409918  0.3964706754978522
  0.5556980783353254  0.8723639947981141  0.1460213483751787
  0.1093413229218854  0.7621247534808617  0.8959335395293664
  0.2221809297915840  0.8722427625374038  0.6466382912463331
  0.7760696839775818  0.7662707443422079  0.3962770768140942
  0.8860906173571053  0.8778189897860642  0.1502709514283609
  0.4444442221415557  0.7611113191435592  0.8962675980539103
  0.5555766348630797  0.8722425126750082  0.6466384256645412
  0.7777775732292795  0.0944446770129446  0.3999190143913296
  0.2225197613568426  0.2049606340770751  0.3375487957523120
  0.1087093279518285  0.0957287783171026  0.0884054906055738
  0.8880204667081841  0.2046867278414481  0.8320954971292096
  0.7777777290575187  0.0944447159724504  0.5652449645224280
  0.5805809196059002  0.1930430293748557  0.3441633705599116
  0.4455617007729273  0.0957287488769509  0.0884055663944210
  0.2224332591538385  0.2051333337159136  0.8375354296287014
  0.1116058827126025  0.0939591841823670  0.5864787554099351
  0.8763758179953101  0.1930432187618578  0.3441633139263374
  0.7777776596802966  0.0944443204062608  0.0830579007532535
  0.5572924346633314  0.2046869160875957  0.8320954696964691
  0.4444351122834718  0.0939590584889345  0.5864787915502490
  0.2225199178027424  0.5391864722808748  0.3375487201032144
  0.1111111449319324  0.4277780108211076  0.0869897517974962
  0.8884669953882707  0.5390999010176287  0.8375355715571828
  0.7772927738157520  0.4282724207524211  0.5864787897275789
  0.5552517690802361  0.5394964394392474  0.3364493448416823
  0.4455619051751327  0.4253757920634698  0.0884055443554956
  0.2224332677667817  0.5391002268219580  0.8375354630361045
  0.1111112888516956  0.4277779594200553  0.5876033633785056
  0.8882941341941191  0.5391862814175568  0.3375487632944782
  0.7790626173779742  0.4253755198612126  0.0884055225288378
  0.5557417157480273  0.5385166378955546  0.8377702032927559
  0.4444351142594840  0.4282725699666372  0.5864787527281408
  0.2228285199345805  0.8719191792867065  0.3364494815993524
  0.1087091487738547  0.7622287099260419  0.0884054133288359
  0.8880202945313442  0.8739594130754753  0.8320953577877788
  0.7772927822722977  0.7611016785744980  0.5864787830529110
  0.5552519770598607  0.8719189076970437  0.3364493799980863
  0.4444444498003293  0.7611110650282313  0.0868845914162435
  0.2218500243656436  0.8724081984801231  0.8377698602718695
  0.1116057391456664  0.7611017918886773  0.5864786844291174
  0.8763759323281022  0.8972476826366176  0.3441634175802051
  0.7790624327427551  0.7622284789466178  0.0884054730312727
  0.5557417514226586  0.8724081149464809  0.8377699755394090
  0.4444445192557964  0.7611111055323079  0.5876149514016831
 
  0.00000000E+00  0.00000000E+00  0.00000000E+00
  0.00000000E+00  0.00000000E+00  0.00000000E+00
  0.00000000E+00  0.00000000E+00  0.00000000E+00
  0.00000000E+00  0.00000000E+00  0.00000000E+00
  0.00000000E+00  0.00000000E+00  0.00000000E+00
  0.00000000E+00  0.00000000E+00  0.00000000E+00
  0.00000000E+00  0.00000000E+00  0.00000000E+00
  0.00000000E+00  0.00000000E+00  0.00000000E+00
  0.00000000E+00  0.00000000E+00  0.00000000E+00
  0.00000000E+00  0.00000000E+00  0.00000000E+00
  0.00000000E+00  0.00000000E+00  0.00000000E+00
  0.00000000E+00  0.00000000E+00  0.00000000E+00
  0.00000000E+00  0.00000000E+00  0.00000000E+00
  0.00000000E+00  0.00000000E+00  0.00000000E+00
  0.00000000E+00  0.00000000E+00  0.00000000E+00
  0.00000000E+00  0.00000000E+00  0.00000000E+00
  0.00000000E+00  0.00000000E+00  0.00000000E+00
  0.00000000E+00  0.00000000E+00  0.00000000E+00
  0.00000000E+00  0.00000000E+00  0.00000000E+00
  0.00000000E+00  0.00000000E+00  0.00000000E+00
  0.00000000E+00  0.00000000E+00  0.00000000E+00
  0.00000000E+00  0.00000000E+00  0.00000000E+00
  0.00000000E+00  0.00000000E+00  0.00000000E+00
  0.00000000E+00  0.00000000E+00  0.00000000E+00
  0.00000000E+00  0.00000000E+00  0.00000000E+00
  0.00000000E+00  0.00000000E+00  0.00000000E+00
  0.00000000E+00  0.00000000E+00  0.00000000E+00
  0.00000000E+00  0.00000000E+00  0.00000000E+00
  0.00000000E+00  0.00000000E+00  0.00000000E+00
  0.00000000E+00  0.00000000E+00  0.00000000E+00
  0.00000000E+00  0.00000000E+00  0.00000000E+00
  0.00000000E+00  0.00000000E+00  0.00000000E+00
  0.00000000E+00  0.00000000E+00  0.00000000E+00
  0.00000000E+00  0.00000000E+00  0.00000000E+00
  0.00000000E+00  0.00000000E+00  0.00000000E+00
  0.00000000E+00  0.00000000E+00  0.00000000E+00
  0.00000000E+00  0.00000000E+00  0.00000000E+00
  0.00000000E+00  0.00000000E+00  0.00000000E+00
  0.00000000E+00  0.00000000E+00  0.00000000E+00
  0.00000000E+00  0.00000000E+00  0.00000000E+00
  0.00000000E+00  0.00000000E+00  0.00000000E+00
  0.00000000E+00  0.00000000E+00  0.00000000E+00
  0.00000000E+00  0.00000000E+00  0.00000000E+00
  0.00000000E+00  0.00000000E+00  0.00000000E+00
  0.00000000E+00  0.00000000E+00  0.00000000E+00
  0.00000000E+00  0.00000000E+00  0.00000000E+00
  0.00000000E+00  0.00000000E+00  0.00000000E+00
  0.00000000E+00  0.00000000E+00  0.00000000E+00
  0.00000000E+00  0.00000000E+00  0.00000000E+00
  0.00000000E+00  0.00000000E+00  0.00000000E+00
  0.00000000E+00  0.00000000E+00  0.00000000E+00
  0.00000000E+00  0.00000000E+00  0.00000000E+00
  0.00000000E+00  0.00000000E+00  0.00000000E+00
  0.00000000E+00  0.00000000E+00  0.00000000E+00
  0.00000000E+00  0.00000000E+00  0.00000000E+00
  0.00000000E+00  0.00000000E+00  0.00000000E+00
  0.00000000E+00  0.00000000E+00  0.00000000E+00
  0.00000000E+00  0.00000000E+00  0.00000000E+00
  0.00000000E+00  0.00000000E+00  0.00000000E+00
  0.00000000E+00  0.00000000E+00  0.00000000E+00
  0.00000000E+00  0.00000000E+00  0.00000000E+00
  0.00000000E+00  0.00000000E+00  0.00000000E+00
  0.00000000E+00  0.00000000E+00  0.00000000E+00
  0.00000000E+00  0.00000000E+00  0.00000000E+00
  0.00000000E+00  0.00000000E+00  0.00000000E+00
  0.00000000E+00  0.00000000E+00  0.00000000E+00
  0.00000000E+00  0.00000000E+00  0.00000000E+00
  0.00000000E+00  0.00000000E+00  0.00000000E+00
  0.00000000E+00  0.00000000E+00  0.00000000E+00
  0.00000000E+00  0.00000000E+00  0.00000000E+00
  0.00000000E+00  0.00000000E+00  0.00000000E+00
  0.00000000E+00  0.00000000E+00  0.00000000E+00
