Al   B    N                             
   1.00000000000000     
    -9.7862256454795453   -0.0000000811399850    0.0000000169224733
    -4.8931114467037391    8.4751191502533416   -0.0000000346996354
    -0.0000000291319122   -0.0000000488983237   -8.6682503468918917
   Al   B    N 
    35     1    36
Direct
  0.1075692146640463  0.0924749187802192  0.3627729352279943
  0.2219474951352041  0.2061050708017049  0.1151386507925523
  0.7777777773958974  0.0944444742391042  0.8624781075132830
  0.8889086434354354  0.2055753130906339  0.6108604418885619
  0.4499558395845540  0.0924749423407931  0.3627729429576831
  0.5657686292380859  0.2004490271399035  0.1239424444790558
  0.1083037762341661  0.0961263775264101  0.8656975756424146
  0.2228365971747124  0.2043268459842196  0.6112861097815951
  0.8837823910607838  0.2004490625585120  0.1239424319726865
  0.4455698875609215  0.0961263632420213  0.8656975799197539
  0.5555160773332588  0.2055752996255293  0.6108604531672199
  0.1111111170326282  0.4277777934426581  0.3638230640091678
  0.2219474993446937  0.5386141563387952  0.1151386372330450
  0.7794596804532645  0.4249704718386127  0.8656975690276099
  0.8876601815195002  0.5395032571755962  0.6112861082252579
  0.4499558797601111  0.4242358687657628  0.3627729402709363
  0.5557776269853818  0.5384447826074847  0.1135115306535965
  0.1111111088843657  0.4277777932241875  0.8622145706509201
  0.2228366049428487  0.5395032622776199  0.6112861004640990
  0.7758082253291079  0.4242358997716167  0.3627729390163026
  0.8894384073963337  0.5386141552348676  0.1151386531705114
  0.4455698756838373  0.4249704443717377  0.8656975720455620
  0.5558892655758427  0.5382214912351770  0.6138710592914549
  0.1075691882914782  0.7666225641717972  0.3627729309921435
  0.2217781148182212  0.8724442961678776  0.1135115280942429
  0.7794596724429610  0.7622365694861202  0.8656975822638131
  0.8889086314784933  0.8721827438110239  0.6108604602857852
  0.4444444316694458  0.7611111243491706  0.3641073616196593
  0.5557776145770035  0.8724442849495091  0.1135115388523289
  0.1083037599842172  0.7622365551401558  0.8656975822243282
  0.2215548217306704  0.8725559369764611  0.6138710659650783
  0.7758082471655854  0.7666225314004436  0.3627729367607628
  0.8837823549347164  0.8824353032313184  0.1239424383714010
  0.4444444329747483  0.7611111194558333  0.8627316495889374
  0.5558892591653688  0.8725559317430651  0.6138710501855655
  0.7777777871480325  0.0944444449585404  0.3999006245411394
  0.2224089016322850  0.2051822343779648  0.3452594696822686
  0.1067488937329202  0.0968251939506644  0.0989208054342043
  0.8886601018427456  0.2053267583111591  0.8355433509231318
  0.7777777791449694  0.0944444492398091  0.5813733751891732
  0.5845444373642010  0.1910611258475967  0.3502812677504465
  0.4464259502422365  0.0968251636971900  0.0989208037494151
  0.2230264316877992  0.2039471957255685  0.8459079969336187
  0.1112144229220036  0.0941800251245937  0.5911283182068701
  0.8743944662757457  0.1910611245418821  0.3502812771629848
  0.7777777862446058  0.0944444756197171  0.0766637944431423
  0.5560131964646118  0.2053267360883027  0.8355433604991305
  0.4446055642028242  0.0941800207231083  0.5911283240427068
  0.2224089061928183  0.5390755690673501  0.3452594776640439
  0.1111111081657725  0.4277778105370160  0.0944994918212387
  0.8872805375531101  0.5396930938440079  0.8459079790155926
  0.7775133296484569  0.4278811240479214  0.5911283160882732
  0.5548158186470005  0.5403683661665255  0.3437086078802665
  0.4464259509246347  0.4234155808270970  0.0989207907361305
  0.2230264113928371  0.5396930770102699  0.8459079950855397
  0.1111111070175141  0.4277778083251391  0.5966326009269665
  0.8885155740015165  0.5390755633325313  0.3452594676549978
  0.7801584977002065  0.4234155955802947  0.0989207986012701
  0.5564731692965381  0.5370537080757956  0.8467188263686438
  0.4446055696948292  0.4278811030067899  0.5911283269879064
  0.2237016973536541  0.8714824791568958  0.3437086108174654
  0.1067488858910863  0.7630926440849919  0.0989208052920318
  0.8886600823806390  0.8726798495408019  0.8355433624147892
  0.7775133290552105  0.7612722585660947  0.5911283205888509
  0.5548158338624845  0.8714824827928638  0.3437086239416018
  0.4444444309372457  0.7611111296765216  0.0932180214364564
  0.2203870369525447  0.8731398305745515  0.8467188382395534
  0.1112144010228633  0.7612722703198500  0.5911283264666451
  0.8743944649149427  0.9012110991375977  0.3502812764216827
  0.7801584699990372  0.7630926383276275  0.0989208125452947
  0.5564731559949152  0.8731398064396174  0.8467188370005516
  0.4444444256910600  0.7611111344333708  0.5975392738096090
 
  0.00000000E+00  0.00000000E+00  0.00000000E+00
  0.00000000E+00  0.00000000E+00  0.00000000E+00
  0.00000000E+00  0.00000000E+00  0.00000000E+00
  0.00000000E+00  0.00000000E+00  0.00000000E+00
  0.00000000E+00  0.00000000E+00  0.00000000E+00
  0.00000000E+00  0.00000000E+00  0.00000000E+00
  0.00000000E+00  0.00000000E+00  0.00000000E+00
  0.00000000E+00  0.00000000E+00  0.00000000E+00
  0.00000000E+00  0.00000000E+00  0.00000000E+00
  0.00000000E+00  0.00000000E+00  0.00000000E+00
  0.00000000E+00  0.00000000E+00  0.00000000E+00
  0.00000000E+00  0.00000000E+00  0.00000000E+00
  0.00000000E+00  0.00000000E+00  0.00000000E+00
  0.00000000E+00  0.00000000E+00  0.00000000E+00
  0.00000000E+00  0.00000000E+00  0.00000000E+00
  0.00000000E+00  0.00000000E+00  0.00000000E+00
  0.00000000E+00  0.00000000E+00  0.00000000E+00
  0.00000000E+00  0.00000000E+00  0.00000000E+00
  0.00000000E+00  0.00000000E+00  0.00000000E+00
  0.00000000E+00  0.00000000E+00  0.00000000E+00
  0.00000000E+00  0.00000000E+00  0.00000000E+00
  0.00000000E+00  0.00000000E+00  0.00000000E+00
  0.00000000E+00  0.00000000E+00  0.00000000E+00
  0.00000000E+00  0.00000000E+00  0.00000000E+00
  0.00000000E+00  0.00000000E+00  0.00000000E+00
  0.00000000E+00  0.00000000E+00  0.00000000E+00
  0.00000000E+00  0.00000000E+00  0.00000000E+00
  0.00000000E+00  0.00000000E+00  0.00000000E+00
  0.00000000E+00  0.00000000E+00  0.00000000E+00
  0.00000000E+00  0.00000000E+00  0.00000000E+00
  0.00000000E+00  0.00000000E+00  0.00000000E+00
  0.00000000E+00  0.00000000E+00  0.00000000E+00
  0.00000000E+00  0.00000000E+00  0.00000000E+00
  0.00000000E+00  0.00000000E+00  0.00000000E+00
  0.00000000E+00  0.00000000E+00  0.00000000E+00
  0.00000000E+00  0.00000000E+00  0.00000000E+00
  0.00000000E+00  0.00000000E+00  0.00000000E+00
  0.00000000E+00  0.00000000E+00  0.00000000E+00
  0.00000000E+00  0.00000000E+00  0.00000000E+00
  0.00000000E+00  0.00000000E+00  0.00000000E+00
  0.00000000E+00  0.00000000E+00  0.00000000E+00
  0.00000000E+00  0.00000000E+00  0.00000000E+00
  0.00000000E+00  0.00000000E+00  0.00000000E+00
  0.00000000E+00  0.00000000E+00  0.00000000E+00
  0.00000000E+00  0.00000000E+00  0.00000000E+00
  0.00000000E+00  0.00000000E+00  0.00000000E+00
  0.00000000E+00  0.00000000E+00  0.00000000E+00
  0.00000000E+00  0.00000000E+00  0.00000000E+00
  0.00000000E+00  0.00000000E+00  0.00000000E+00
  0.00000000E+00  0.00000000E+00  0.00000000E+00
  0.00000000E+00  0.00000000E+00  0.00000000E+00
  0.00000000E+00  0.00000000E+00  0.00000000E+00
  0.00000000E+00  0.00000000E+00  0.00000000E+00
  0.00000000E+00  0.00000000E+00  0.00000000E+00
  0.00000000E+00  0.00000000E+00  0.00000000E+00
  0.00000000E+00  0.00000000E+00  0.00000000E+00
  0.00000000E+00  0.00000000E+00  0.00000000E+00
  0.00000000E+00  0.00000000E+00  0.00000000E+00
  0.00000000E+00  0.00000000E+00  0.00000000E+00
  0.00000000E+00  0.00000000E+00  0.00000000E+00
  0.00000000E+00  0.00000000E+00  0.00000000E+00
  0.00000000E+00  0.00000000E+00  0.00000000E+00
  0.00000000E+00  0.00000000E+00  0.00000000E+00
  0.00000000E+00  0.00000000E+00  0.00000000E+00
  0.00000000E+00  0.00000000E+00  0.00000000E+00
  0.00000000E+00  0.00000000E+00  0.00000000E+00
  0.00000000E+00  0.00000000E+00  0.00000000E+00
  0.00000000E+00  0.00000000E+00  0.00000000E+00
  0.00000000E+00  0.00000000E+00  0.00000000E+00
  0.00000000E+00  0.00000000E+00  0.00000000E+00
  0.00000000E+00  0.00000000E+00  0.00000000E+00
  0.00000000E+00  0.00000000E+00  0.00000000E+00
