Al   B    N                             
   1.00000000000000     
    -9.3432031181588595   -0.0000000301490547   -0.0000001361132225
    -4.6716016065265409    8.0914517149289953   -0.0000004862217443
    -0.0000003138424731    0.0000007233670913   -9.9834160682303477
   Al   B    N 
    35     1    36
Direct
  0.1076586868661238  0.0927372830049151  0.4064493497886090
  0.2221226880941316  0.2057542788052729  0.1564515484348163
  0.7777776219628265  0.0944443723773318  0.9044386950832077
  0.8876578112761990  0.2043241139027074  0.6497604172437903
  0.4496039720361225  0.0927368422268273  0.4064494764097191
  0.5611517187951520  0.2027572965108675  0.1604415733758486
  0.1093413866260633  0.0952000938535136  0.9061050846104521
  0.2223964717971327  0.2052069219629900  0.6562223427802891
  0.8860910347506774  0.2027570014191866  0.1604415709015896
  0.4454582027222642  0.0952001881065527  0.9061051419433497
  0.5580181842723633  0.2043243341773717  0.6497604432743316
  0.1111115233894324  0.4277775767433099  0.4070360747876691
  0.2221229791109494  0.5387899985732574  0.1564514720485803
  0.7785341816276627  0.4260074442083521  0.9061051459268370
  0.8885402372025695  0.5390632637850530  0.6562224643452268
  0.4496040735592928  0.4243261284892696  0.4064494023409324
  0.5556981832398549  0.5386041280286378  0.1561945348773293
  0.1111115329093408  0.4277775872956369  0.9063500755903817
  0.2223966372340413  0.5390635426605641  0.6562223783790273
  0.7760696283395063  0.4243264159229270  0.4064493579430462
  0.8890872277386350  0.5387897268270905  0.1564514591468580
  0.4454582229487514  0.4260077241144486  0.9061051769898043
  0.5555763902050970  0.5388478146093760  0.6568103346438221
  0.1076590379226658  0.7662704058212313  0.4064494466071622
  0.2219376001519109  0.8723644294433157  0.1561947067389582
  0.7785339326852068  0.7621250557191459  0.9061050707937213
  0.8876576090864461  0.8746853311168152  0.6497603533377401
  0.4444437082321713  0.7611119241338287  0.4066428533351214
  0.5556982545576190  0.8723641846110723  0.1561946494724751
  0.1093410474367218  0.7621252379225183  0.9061050528678365
  0.2221812063923423  0.8722426548762598  0.6568100114439872
  0.7760699424230850  0.7662702201959846  0.4064495311184473
  0.8860909364301079  0.8778185021258835  0.1604417492642511
  0.4444442414605376  0.7611113680519637  0.9064407848172564
  0.5555764870783406  0.8722424006702525  0.6568101990991480
  0.7777775462810510  0.0944446317664784  0.4100884231243853
  0.2225198459948174  0.2049603356797078  0.3477202967624038
  0.1087095727322591  0.0957284895170147  0.0985769681457285
  0.8880203523272030  0.2046865912220568  0.8422652975436264
  0.7777776855709533  0.0944446859453336  0.5754133038084248
  0.5805803112235779  0.1930432568384717  0.3543343124413241
  0.4455618143085900  0.0957285276129127  0.0985770717404293
  0.2224331423694466  0.2051335498942493  0.8477079491565291
  0.1116063237040024  0.0939590825508247  0.5966504916941986
  0.8763760805273435  0.1930434488808146  0.3543341738884465
  0.7777777316790875  0.0944443847856178  0.0932298592100551
  0.5572928372883155  0.2046867871447589  0.8422654015479125
  0.4444347539400582  0.0939590103221377  0.5966507401709435
  0.2225199675685090  0.5391865039706119  0.3477202487566160
  0.1111111294076466  0.4277780013813697  0.0971626956962766
  0.8884672148566466  0.5390997405642892  0.8477081025735913
  0.7772925854715567  0.4282729229132585  0.5966505175142487
  0.5552517172780824  0.5394964173793753  0.3466220123110659
  0.4455619743161492  0.4253760703765508  0.0985770595114062
  0.2224331482750088  0.5391000462456290  0.8477080099533367
  0.1111112533277634  0.4277779059496964  0.5977746279972536
  0.8882938526778190  0.5391863415460278  0.3477203097913559
  0.7790622824247464  0.4253757973236176  0.0985769762364939
  0.5557415511064363  0.5385170585234107  0.8479417886599308
  0.4444347274751905  0.4282730644058717  0.5966506522621060
  0.2228285040482376  0.8719191205924233  0.3466221296688943
  0.1087094408881057  0.7622287847593157  0.0985769284207194
  0.8880202044324079  0.8739597581710186  0.8422652892339926
  0.7772926835507619  0.7611013427575770  0.5966507251637836
  0.5552520128992597  0.8719188969915024  0.3466221229851314
  0.4444444822734042  0.7611111331262421  0.0970579777870952
  0.2218504480581487  0.8724080417124043  0.8479413934186368
  0.1116062095296897  0.7611014289883826  0.5966506030760925
  0.8763761779836017  0.8972470655154083  0.3543343261153069
  0.7790621780046223  0.7622286092572423  0.0985769540202313
  0.5557415754242854  0.8724079541504892  0.8479416195533886
  0.4444445051099990  0.7611111654482841  0.5977864456928614
 
  0.00000000E+00  0.00000000E+00  0.00000000E+00
  0.00000000E+00  0.00000000E+00  0.00000000E+00
  0.00000000E+00  0.00000000E+00  0.00000000E+00
  0.00000000E+00  0.00000000E+00  0.00000000E+00
  0.00000000E+00  0.00000000E+00  0.00000000E+00
  0.00000000E+00  0.00000000E+00  0.00000000E+00
  0.00000000E+00  0.00000000E+00  0.00000000E+00
  0.00000000E+00  0.00000000E+00  0.00000000E+00
  0.00000000E+00  0.00000000E+00  0.00000000E+00
  0.00000000E+00  0.00000000E+00  0.00000000E+00
  0.00000000E+00  0.00000000E+00  0.00000000E+00
  0.00000000E+00  0.00000000E+00  0.00000000E+00
  0.00000000E+00  0.00000000E+00  0.00000000E+00
  0.00000000E+00  0.00000000E+00  0.00000000E+00
  0.00000000E+00  0.00000000E+00  0.00000000E+00
  0.00000000E+00  0.00000000E+00  0.00000000E+00
  0.00000000E+00  0.00000000E+00  0.00000000E+00
  0.00000000E+00  0.00000000E+00  0.00000000E+00
  0.00000000E+00  0.00000000E+00  0.00000000E+00
  0.00000000E+00  0.00000000E+00  0.00000000E+00
  0.00000000E+00  0.00000000E+00  0.00000000E+00
  0.00000000E+00  0.00000000E+00  0.00000000E+00
  0.00000000E+00  0.00000000E+00  0.00000000E+00
  0.00000000E+00  0.00000000E+00  0.00000000E+00
  0.00000000E+00  0.00000000E+00  0.00000000E+00
  0.00000000E+00  0.00000000E+00  0.00000000E+00
  0.00000000E+00  0.00000000E+00  0.00000000E+00
  0.00000000E+00  0.00000000E+00  0.00000000E+00
  0.00000000E+00  0.00000000E+00  0.00000000E+00
  0.00000000E+00  0.00000000E+00  0.00000000E+00
  0.00000000E+00  0.00000000E+00  0.00000000E+00
  0.00000000E+00  0.00000000E+00  0.00000000E+00
  0.00000000E+00  0.00000000E+00  0.00000000E+00
  0.00000000E+00  0.00000000E+00  0.00000000E+00
  0.00000000E+00  0.00000000E+00  0.00000000E+00
  0.00000000E+00  0.00000000E+00  0.00000000E+00
  0.00000000E+00  0.00000000E+00  0.00000000E+00
  0.00000000E+00  0.00000000E+00  0.00000000E+00
  0.00000000E+00  0.00000000E+00  0.00000000E+00
  0.00000000E+00  0.00000000E+00  0.00000000E+00
  0.00000000E+00  0.00000000E+00  0.00000000E+00
  0.00000000E+00  0.00000000E+00  0.00000000E+00
  0.00000000E+00  0.00000000E+00  0.00000000E+00
  0.00000000E+00  0.00000000E+00  0.00000000E+00
  0.00000000E+00  0.00000000E+00  0.00000000E+00
  0.00000000E+00  0.00000000E+00  0.00000000E+00
  0.00000000E+00  0.00000000E+00  0.00000000E+00
  0.00000000E+00  0.00000000E+00  0.00000000E+00
  0.00000000E+00  0.00000000E+00  0.00000000E+00
  0.00000000E+00  0.00000000E+00  0.00000000E+00
  0.00000000E+00  0.00000000E+00  0.00000000E+00
  0.00000000E+00  0.00000000E+00  0.00000000E+00
  0.00000000E+00  0.00000000E+00  0.00000000E+00
  0.00000000E+00  0.00000000E+00  0.00000000E+00
  0.00000000E+00  0.00000000E+00  0.00000000E+00
  0.00000000E+00  0.00000000E+00  0.00000000E+00
  0.00000000E+00  0.00000000E+00  0.00000000E+00
  0.00000000E+00  0.00000000E+00  0.00000000E+00
  0.00000000E+00  0.00000000E+00  0.00000000E+00
  0.00000000E+00  0.00000000E+00  0.00000000E+00
  0.00000000E+00  0.00000000E+00  0.00000000E+00
  0.00000000E+00  0.00000000E+00  0.00000000E+00
  0.00000000E+00  0.00000000E+00  0.00000000E+00
  0.00000000E+00  0.00000000E+00  0.00000000E+00
  0.00000000E+00  0.00000000E+00  0.00000000E+00
  0.00000000E+00  0.00000000E+00  0.00000000E+00
  0.00000000E+00  0.00000000E+00  0.00000000E+00
  0.00000000E+00  0.00000000E+00  0.00000000E+00
  0.00000000E+00  0.00000000E+00  0.00000000E+00
  0.00000000E+00  0.00000000E+00  0.00000000E+00
  0.00000000E+00  0.00000000E+00  0.00000000E+00
  0.00000000E+00  0.00000000E+00  0.00000000E+00
