Al   B    N                             
   1.00000000000000     
    -9.8551867641892912   -0.0000000905827498    0.0000000452624170
    -4.9275914099636733    8.5348415458547517    0.0000000489155699
    -0.0000000358998716   -0.0000000202771832   -8.4512449863140660
   Al   B    N 
    35     1    36
Direct
  0.1057696399653167  0.0926040117349558  0.3545136481967930
  0.2224033804130627  0.2051933131747958  0.1080288800072893
  0.7777777746047363  0.0944444641524740  0.8551650892328624
  0.8851782849862531  0.2018449543093226  0.6050185658982912
  0.4516263731849577  0.0926039902728917  0.3545136439275609
  0.5595499148370706  0.2035583839930908  0.1016726999015631
  0.1103594367011169  0.0957173688480282  0.8542000895661772
  0.2223376554043810  0.2053247516486181  0.6011508980770373
  0.8868917275336301  0.2035583958675247  0.1016727346106450
  0.4439231938082884  0.0957173282845432  0.8542000929447795
  0.5629767755186563  0.2018449399381694  0.6050186061866469
  0.1111111192437164  0.4277778073324257  0.3547240154232298
  0.2224034036991682  0.5390700626133906  0.1080289002933625
  0.7790506759139859  0.4270261290777242  0.8542000939211007
  0.8886580858373989  0.5390043194282441  0.6011509035931866
  0.4516264227069442  0.4224362509630026  0.3545136472438273
  0.5557779886383898  0.5384441071035511  0.1058859379530261
  0.1111111051068647  0.4277777966816174  0.8545632006456216
  0.2223376833603936  0.5390043450517013  0.6011508778661820
  0.7759373203589135  0.4224363286678070  0.3545136481611948
  0.8885266488320909  0.5390700458661328  0.1080288764955029
  0.4439231914266202  0.4270261285499046  0.8542000875009705
  0.5559145536043530  0.5381709733219608  0.6032526957230360
  0.1057695655238788  0.7682931088881091  0.3545136476448008
  0.2217774433120141  0.8724446544705771  0.1058859351431636
  0.7790506346852055  0.7605898842619041  0.8542000947687427
  0.8851782747443693  0.8796434380526819  0.6050186079323794
  0.4444444139748001  0.7611111050681885  0.3547682439545525
  0.5557779491042041  0.8724446135968975  0.1058859371406982
  0.1103594397186143  0.7605898795270463  0.8542000963785412
  0.2215043083835226  0.8725812182750516  0.6032526951582113
  0.7759372984718880  0.7682930636543617  0.3545136450052979
  0.8868917207941607  0.8762165757373097  0.1016726992745873
  0.4444444141479451  0.7611111045346206  0.8544993178897258
  0.5559145091121351  0.8725811759880884  0.6032526932400799
  0.7777777816734641  0.0944444649789560  0.3380829070868145
  0.2224862731589639  0.2050275643270112  0.3548855588619801
  0.1093455998163719  0.0953018180234508  0.1093571141641831
  0.8909832510322886  0.2076499066895323  0.8573420377183183
  0.7777777675698587  0.0944444559557311  0.6284812814317604
  0.5895736980525115  0.1885465006058666  0.3545886521886388
  0.4453526217190884  0.0953017595761807  0.1093571013864434
  0.2228884888353448  0.2042230422103799  0.8547513256767587
  0.1084990573224545  0.0958186797368512  0.6006454962768828
  0.8718798505955760  0.1885465198413740  0.3545886391642767
  0.7777777751686799  0.0944444599106262  0.0939709696043849
  0.5513668628988171  0.2076498947402001  0.8573420259406319
  0.4456822878692606  0.0958185997405891  0.6006455188869424
  0.2224862573482440  0.5391529226967293  0.3548855479320849
  0.1111111250569579  0.4277778218844830  0.1042626947082255
  0.8875563852160084  0.5395551504331735  0.8547513165029699
  0.7791519824170976  0.4251657564152609  0.6006454986928063
  0.5549019850628767  0.5401960702905129  0.3549678497466857
  0.4453526568453441  0.4260122907162511  0.1093570988298964
  0.2228884913860156  0.5395551506176375  0.8547513345869575
  0.1111111271629923  0.4277778253505033  0.6052768169773088
  0.8883609051658752  0.5391529323724171  0.3548855509377731
  0.7786351214178211  0.4260123012150743  0.1093570923369569
  0.5563175753920859  0.5373648867684224  0.8547004743150310
  0.4456823187322740  0.4251657613576398  0.6006455148577174
  0.2235294073596492  0.8715686428177918  0.3549678533508001
  0.1093455993181252  0.7620193497103855  0.1093570779535114
  0.8909832356554332  0.8680335210287069  0.8573420188037417
  0.7791519006476619  0.7623489810391888  0.6006455180615333
  0.5549019476762140  0.8715686031325660  0.3549678295535301
  0.4444444238414249  0.7611111224563203  0.1032680511881736
  0.2206982243734643  0.8729842398067262  0.8547004736660497
  0.1084990673918540  0.7623490128926775  0.6006455112538731
  0.8718798423073792  0.9062403413707329  0.3545886507791849
  0.7786350637937716  0.7620193160632240  0.1093570824070937
  0.5563175317533506  0.8729841945820667  0.8547004887403276
  0.4444444254581086  0.7611111232731673  0.6062735012033116
 
  0.00000000E+00  0.00000000E+00  0.00000000E+00
  0.00000000E+00  0.00000000E+00  0.00000000E+00
  0.00000000E+00  0.00000000E+00  0.00000000E+00
  0.00000000E+00  0.00000000E+00  0.00000000E+00
  0.00000000E+00  0.00000000E+00  0.00000000E+00
  0.00000000E+00  0.00000000E+00  0.00000000E+00
  0.00000000E+00  0.00000000E+00  0.00000000E+00
  0.00000000E+00  0.00000000E+00  0.00000000E+00
  0.00000000E+00  0.00000000E+00  0.00000000E+00
  0.00000000E+00  0.00000000E+00  0.00000000E+00
  0.00000000E+00  0.00000000E+00  0.00000000E+00
  0.00000000E+00  0.00000000E+00  0.00000000E+00
  0.00000000E+00  0.00000000E+00  0.00000000E+00
  0.00000000E+00  0.00000000E+00  0.00000000E+00
  0.00000000E+00  0.00000000E+00  0.00000000E+00
  0.00000000E+00  0.00000000E+00  0.00000000E+00
  0.00000000E+00  0.00000000E+00  0.00000000E+00
  0.00000000E+00  0.00000000E+00  0.00000000E+00
  0.00000000E+00  0.00000000E+00  0.00000000E+00
  0.00000000E+00  0.00000000E+00  0.00000000E+00
  0.00000000E+00  0.00000000E+00  0.00000000E+00
  0.00000000E+00  0.00000000E+00  0.00000000E+00
  0.00000000E+00  0.00000000E+00  0.00000000E+00
  0.00000000E+00  0.00000000E+00  0.00000000E+00
  0.00000000E+00  0.00000000E+00  0.00000000E+00
  0.00000000E+00  0.00000000E+00  0.00000000E+00
  0.00000000E+00  0.00000000E+00  0.00000000E+00
  0.00000000E+00  0.00000000E+00  0.00000000E+00
  0.00000000E+00  0.00000000E+00  0.00000000E+00
  0.00000000E+00  0.00000000E+00  0.00000000E+00
  0.00000000E+00  0.00000000E+00  0.00000000E+00
  0.00000000E+00  0.00000000E+00  0.00000000E+00
  0.00000000E+00  0.00000000E+00  0.00000000E+00
  0.00000000E+00  0.00000000E+00  0.00000000E+00
  0.00000000E+00  0.00000000E+00  0.00000000E+00
  0.00000000E+00  0.00000000E+00  0.00000000E+00
  0.00000000E+00  0.00000000E+00  0.00000000E+00
  0.00000000E+00  0.00000000E+00  0.00000000E+00
  0.00000000E+00  0.00000000E+00  0.00000000E+00
  0.00000000E+00  0.00000000E+00  0.00000000E+00
  0.00000000E+00  0.00000000E+00  0.00000000E+00
  0.00000000E+00  0.00000000E+00  0.00000000E+00
  0.00000000E+00  0.00000000E+00  0.00000000E+00
  0.00000000E+00  0.00000000E+00  0.00000000E+00
  0.00000000E+00  0.00000000E+00  0.00000000E+00
  0.00000000E+00  0.00000000E+00  0.00000000E+00
  0.00000000E+00  0.00000000E+00  0.00000000E+00
  0.00000000E+00  0.00000000E+00  0.00000000E+00
  0.00000000E+00  0.00000000E+00  0.00000000E+00
  0.00000000E+00  0.00000000E+00  0.00000000E+00
  0.00000000E+00  0.00000000E+00  0.00000000E+00
  0.00000000E+00  0.00000000E+00  0.00000000E+00
  0.00000000E+00  0.00000000E+00  0.00000000E+00
  0.00000000E+00  0.00000000E+00  0.00000000E+00
  0.00000000E+00  0.00000000E+00  0.00000000E+00
  0.00000000E+00  0.00000000E+00  0.00000000E+00
  0.00000000E+00  0.00000000E+00  0.00000000E+00
  0.00000000E+00  0.00000000E+00  0.00000000E+00
  0.00000000E+00  0.00000000E+00  0.00000000E+00
  0.00000000E+00  0.00000000E+00  0.00000000E+00
  0.00000000E+00  0.00000000E+00  0.00000000E+00
  0.00000000E+00  0.00000000E+00  0.00000000E+00
  0.00000000E+00  0.00000000E+00  0.00000000E+00
  0.00000000E+00  0.00000000E+00  0.00000000E+00
  0.00000000E+00  0.00000000E+00  0.00000000E+00
  0.00000000E+00  0.00000000E+00  0.00000000E+00
  0.00000000E+00  0.00000000E+00  0.00000000E+00
  0.00000000E+00  0.00000000E+00  0.00000000E+00
  0.00000000E+00  0.00000000E+00  0.00000000E+00
  0.00000000E+00  0.00000000E+00  0.00000000E+00
  0.00000000E+00  0.00000000E+00  0.00000000E+00
  0.00000000E+00  0.00000000E+00  0.00000000E+00
