Al   B    N                             
   1.00000000000000     
    -9.8557668785808943   -0.0000000868056439    0.0000000339264395
    -4.9278818247615197    8.5353446298960289    0.0000000154694878
    -0.0000000464718978   -0.0000000006910714   -8.4491638904619997
   Al   B    N 
    35     1    36
Direct
  0.1058175088260924  0.0927932498393105  0.3552033520717117
  0.2222899043226434  0.2054202526000282  0.1081898363981963
  0.7777777723986645  0.0944444462510816  0.8551625234831377
  0.8882115034661382  0.2048781830729212  0.6079003082692864
  0.4513892578288150  0.0927932337436133  0.3552033536517385
  0.5645165165673021  0.2010750678442363  0.1085388787572512
  0.1101504315615429  0.0956315011032558  0.8558278769826302
  0.2224664223482833  0.2050672302747216  0.6015755473993067
  0.8844084038935591  0.2010750883974453  0.1085389231601468
  0.4442180675683716  0.0956314595132497  0.8558278608189056
  0.5569103601079917  0.2048781693667507  0.6079003169154689
  0.1111111270170468  0.4277778005528674  0.3545274517817987
  0.2222899328080032  0.5389566026665449  0.1081898466881768
  0.7789648169478269  0.4268171124433948  0.8558278770146046
  0.8884005553806986  0.5391330941256101  0.6015755568827430
  0.4513893068440922  0.4224841321351818  0.3552033496687628
  0.5559849581891356  0.5380301572214918  0.1061534819986960
  0.1111111135368503  0.4277777875219115  0.8549295998377247
  0.2224664465814215  0.5391331152072709  0.6015755338472530
  0.7761265644322179  0.4224841949881011  0.3552033532140371
  0.8887535773109718  0.5389565771189808  0.1081898310498772
  0.4442180729845830  0.4268171089699351  0.8558278721847401
  0.5556551864271100  0.5386897097567882  0.6037280606112105
  0.1058174513430785  0.7680559795333224  0.3552033491370779
  0.2213634705894236  0.8726516416437349  0.1061534871904470
  0.7789647784861486  0.7608847423926832  0.8558278639452226
  0.8882114973097686  0.8735770255499062  0.6079003303455863
  0.4444444184633340  0.7611111059528142  0.3544154131327986
  0.5559849210616861  0.8726515995574928  0.1061534862385685
  0.1101504354385057  0.7608847447327349  0.8558278773717731
  0.2220230251818762  0.8723218685047627  0.6037280547784150
  0.7761265576995342  0.7680559299837100  0.3552033537491823
  0.8844083902961302  0.8811831892734645  0.1085388777661294
  0.4444444165273538  0.7611111043119863  0.8550749503560340
  0.5556551527998792  0.8723218309820027  0.6037280445526250
  0.7777777880573851  0.0944444528421968  0.3915837090250776
  0.2225188549474879  0.2049623919970855  0.3538576937726887
  0.1079398570461905  0.0961434884163026  0.1075186085066804
  0.8901304041944726  0.2067970705450151  0.8477578324281936
  0.7777777874150829  0.0944444579126653  0.5997505358969875
  0.5876831993044576  0.1894917526319091  0.3547409511413733
  0.4459166795556939  0.0961434117642810  0.1075185979924669
  0.2228464987053513  0.2043070193044088  0.8543052897830918
  0.1101286401021326  0.0948713676814279  0.5997035530970933
  0.8728250820320653  0.1894917573454578  0.3547409439251297
  0.7777777599816957  0.0944444525705421  0.0781156979641793
  0.5530725221272164  0.2067970607341181  0.8477578435544615
  0.4450000457124403  0.0948713160421875  0.5997035697893409
  0.2225188505276705  0.5391855070643246  0.3538576944991547
  0.1111111298314498  0.4277778186478898  0.1037759889041112
  0.8876403551186414  0.5395131598097578  0.8543052862813312
  0.7782046717302364  0.4267953327542955  0.5997035560376958
  0.5549533666206159  0.5400932993230612  0.3536535299134940
  0.4459167193958606  0.4246065522751863  0.1075185884570757
  0.2228465071677945  0.5395131656839567  0.8543052976172660
  0.1111111354789998  0.4277778216411861  0.6046457401473191
  0.8882957290434632  0.5391855150925124  0.3538576912555698
  0.7794767914713745  0.4246065536874966  0.1075185998826598
  0.5562836533986939  0.5374327289044487  0.8544184102974057
  0.4450000750314516  0.4267953226830912  0.5997035756521996
  0.2234266209201081  0.8716200386508390  0.3536535313423244
  0.1079398659275554  0.7625834023867739  0.1075185886020336
  0.8901303982929534  0.8697391827952003  0.8477578496816562
  0.7782046270247776  0.7616667309516600  0.5997035784757685
  0.5549533394065946  0.8716200023116727  0.3536535341002889
  0.4444444227411850  0.7611111234643673  0.1027704177458375
  0.2207660556878395  0.8729503267095069  0.8544184130550079
  0.1101286353168263  0.7616667577728720  0.5997035754928817
  0.8728250882506075  0.9043498496084439  0.3547409424057193
  0.7794767201185735  0.7625833632662520  0.1075185903631279
  0.5562836111323648  0.8729502826570013  0.8544184102984786
  0.4444444327884085  0.7611111285024847  0.6056391995089285
 
  0.00000000E+00  0.00000000E+00  0.00000000E+00
  0.00000000E+00  0.00000000E+00  0.00000000E+00
  0.00000000E+00  0.00000000E+00  0.00000000E+00
  0.00000000E+00  0.00000000E+00  0.00000000E+00
  0.00000000E+00  0.00000000E+00  0.00000000E+00
  0.00000000E+00  0.00000000E+00  0.00000000E+00
  0.00000000E+00  0.00000000E+00  0.00000000E+00
  0.00000000E+00  0.00000000E+00  0.00000000E+00
  0.00000000E+00  0.00000000E+00  0.00000000E+00
  0.00000000E+00  0.00000000E+00  0.00000000E+00
  0.00000000E+00  0.00000000E+00  0.00000000E+00
  0.00000000E+00  0.00000000E+00  0.00000000E+00
  0.00000000E+00  0.00000000E+00  0.00000000E+00
  0.00000000E+00  0.00000000E+00  0.00000000E+00
  0.00000000E+00  0.00000000E+00  0.00000000E+00
  0.00000000E+00  0.00000000E+00  0.00000000E+00
  0.00000000E+00  0.00000000E+00  0.00000000E+00
  0.00000000E+00  0.00000000E+00  0.00000000E+00
  0.00000000E+00  0.00000000E+00  0.00000000E+00
  0.00000000E+00  0.00000000E+00  0.00000000E+00
  0.00000000E+00  0.00000000E+00  0.00000000E+00
  0.00000000E+00  0.00000000E+00  0.00000000E+00
  0.00000000E+00  0.00000000E+00  0.00000000E+00
  0.00000000E+00  0.00000000E+00  0.00000000E+00
  0.00000000E+00  0.00000000E+00  0.00000000E+00
  0.00000000E+00  0.00000000E+00  0.00000000E+00
  0.00000000E+00  0.00000000E+00  0.00000000E+00
  0.00000000E+00  0.00000000E+00  0.00000000E+00
  0.00000000E+00  0.00000000E+00  0.00000000E+00
  0.00000000E+00  0.00000000E+00  0.00000000E+00
  0.00000000E+00  0.00000000E+00  0.00000000E+00
  0.00000000E+00  0.00000000E+00  0.00000000E+00
  0.00000000E+00  0.00000000E+00  0.00000000E+00
  0.00000000E+00  0.00000000E+00  0.00000000E+00
  0.00000000E+00  0.00000000E+00  0.00000000E+00
  0.00000000E+00  0.00000000E+00  0.00000000E+00
  0.00000000E+00  0.00000000E+00  0.00000000E+00
  0.00000000E+00  0.00000000E+00  0.00000000E+00
  0.00000000E+00  0.00000000E+00  0.00000000E+00
  0.00000000E+00  0.00000000E+00  0.00000000E+00
  0.00000000E+00  0.00000000E+00  0.00000000E+00
  0.00000000E+00  0.00000000E+00  0.00000000E+00
  0.00000000E+00  0.00000000E+00  0.00000000E+00
  0.00000000E+00  0.00000000E+00  0.00000000E+00
  0.00000000E+00  0.00000000E+00  0.00000000E+00
  0.00000000E+00  0.00000000E+00  0.00000000E+00
  0.00000000E+00  0.00000000E+00  0.00000000E+00
  0.00000000E+00  0.00000000E+00  0.00000000E+00
  0.00000000E+00  0.00000000E+00  0.00000000E+00
  0.00000000E+00  0.00000000E+00  0.00000000E+00
  0.00000000E+00  0.00000000E+00  0.00000000E+00
  0.00000000E+00  0.00000000E+00  0.00000000E+00
  0.00000000E+00  0.00000000E+00  0.00000000E+00
  0.00000000E+00  0.00000000E+00  0.00000000E+00
  0.00000000E+00  0.00000000E+00  0.00000000E+00
  0.00000000E+00  0.00000000E+00  0.00000000E+00
  0.00000000E+00  0.00000000E+00  0.00000000E+00
  0.00000000E+00  0.00000000E+00  0.00000000E+00
  0.00000000E+00  0.00000000E+00  0.00000000E+00
  0.00000000E+00  0.00000000E+00  0.00000000E+00
  0.00000000E+00  0.00000000E+00  0.00000000E+00
  0.00000000E+00  0.00000000E+00  0.00000000E+00
  0.00000000E+00  0.00000000E+00  0.00000000E+00
  0.00000000E+00  0.00000000E+00  0.00000000E+00
  0.00000000E+00  0.00000000E+00  0.00000000E+00
  0.00000000E+00  0.00000000E+00  0.00000000E+00
  0.00000000E+00  0.00000000E+00  0.00000000E+00
  0.00000000E+00  0.00000000E+00  0.00000000E+00
  0.00000000E+00  0.00000000E+00  0.00000000E+00
  0.00000000E+00  0.00000000E+00  0.00000000E+00
  0.00000000E+00  0.00000000E+00  0.00000000E+00
  0.00000000E+00  0.00000000E+00  0.00000000E+00
