Al   B    N                             
   1.00000000000000     
    -9.3432428115935302   -0.0000001585706569    0.0000002493100114
    -4.6716212687490897    8.0914863363785798    0.0000006509450485
     0.0000002684090357   -0.0000006460906486   -9.9834500300649793
   Al   B    N 
    35     1    36
Direct
  0.1076592446617326  0.0927369893585066  0.2951263515972826
  0.2223958909287589  0.2052080982190674  0.0453581385010793
  0.7777775470389372  0.0944443773626844  0.7971275570460747
  0.8860920288451908  0.2027579946007307  0.5411248025012512
  0.4496037453311743  0.0927365271093947  0.2951263247691358
  0.5580171189692322  0.2043248054684170  0.0518107616176522
  0.1093413968192678  0.0952013183544977  0.7954734898431326
  0.2221233396294409  0.2057529207053861  0.5451304508022119
  0.8876583570493821  0.2043246150528262  0.0518106715295161
  0.4454569312824717  0.0952014059769013  0.7954734534160437
  0.5611496276227399  0.2027582939526269  0.5411248338356884
  0.1111115496451447  0.4277775738801921  0.2945500514226111
  0.2223960499656101  0.5390629187670086  0.0453580944552101
  0.7785354025576510  0.4260074525656350  0.7954734745566583
  0.8890858652390818  0.5387903790862723  0.5451305378961706
  0.4496038293517586  0.4243266415543374  0.2951263869653502
  0.5555747770187125  0.5388509222307931  0.0447660093941238
  0.1111115212154630  0.4277775841680977  0.7952297904397412
  0.2221236598877852  0.5387906491964429  0.5451305297511766
  0.7760693472414744  0.4243269539305530  0.2951263655041814
  0.8885413977650387  0.5390626748490490  0.0453580187976215
  0.4454569538813189  0.4260076762924285  0.7954734368822329
  0.5556991230492727  0.5386022287273207  0.5453895748971078
  0.1076595862963998  0.7662701139759704  0.2951263465511218
  0.2221844070211461  0.8722409742377266  0.0447663174120123
  0.7785351482501071  0.7621238056523936  0.7954735477671662
  0.8860919292156666  0.8778164180808545  0.5411246482651038
  0.4444437280574718  0.7611118843238387  0.2949433155103591
  0.5555748709614079  0.8722407489472204  0.0447661778467960
  0.1093410108134236  0.7621239737414598  0.7954735458751117
  0.2219357345817983  0.8723653297597167  0.5453893634703704
  0.7760696522383554  0.7662699796119341  0.2951262864268855
  0.8876581279179590  0.8746842342774670  0.0518108392122940
  0.4444442423439909  0.7611113153530482  0.7951360146953945
  0.5556991592615148  0.8723650819457660  0.5453894671024173
  0.7777775759701484  0.0944446368993255  0.2914754586832231
  0.2225217405546900  0.2049565965445197  0.3538606429509130
  0.1116081003548004  0.0939577874853939  0.1049238237069048
  0.8880190051042831  0.2046852268376966  0.8593086787890769
  0.7777776707411945  0.0944443285479508  0.6083364103068121
  0.5805797492206395  0.1930435593363242  0.3472326601340114
  0.4444342264435122  0.0939576850589532  0.1049237768614759
  0.2224314804033369  0.2051368891626808  0.8538718175707558
  0.1087059799551611  0.0957303075332803  0.6030017012235191
  0.8763764093779116  0.1930437736630921  0.3472327240111994
  0.7777777195664157  0.0944446834885397  0.1261510454489070
  0.5572954650393882  0.2046854109015754  0.8593087040483738
  0.4455635164838299  0.0957303233193088  0.6030016272423566
  0.2225218855488933  0.5391883749536248  0.3538607132135212
  0.1111112372307304  0.4277779206353003  0.1038094526600943
  0.8884705312691921  0.5390981201422136  0.8538716730939839
  0.7790641303414603  0.4253721930641134  0.6030016761645669
  0.5552526705429557  0.5394945267944067  0.3549610997400592
  0.4444341914447349  0.4282747779697758  0.1049238308093479
  0.2224314711266047  0.5390984104641916  0.8538717708877925
  0.1111111186009026  0.4277780161489488  0.6044209525303756
  0.8882901337233875  0.5391882271442228  0.3538606659224754
  0.7772913534879535  0.4282746464491609  0.1049237892865591
  0.5557403337260283  0.5385193659143539  0.8536343338094312
  0.4455637045518586  0.4253724701034116  0.6030016475357129
  0.2228266661009641  0.8719200277986729  0.3549609441307098
  0.1116079609312592  0.7611008697716883  0.1049239082224460
  0.8880188341447663  0.8739624041524010  0.8593088201476107
  0.7790639943114854  0.7622303116167970  0.6030017228781830
  0.5552529202342811  0.8719197944134365  0.3549610668854228
  0.4444445067551825  0.7611110769475715  0.1037981468053815
  0.2218527737019826  0.8724068058510355  0.8536346756093849
  0.1087058248463322  0.7622305022684657  0.6030017728288897
  0.8763765415248699  0.8972464474682837  0.3472326311776470
  0.7772914025348285  0.7611007965523413  0.1049237981055740
  0.5557404060485140  0.8724067493330807  0.8536345552514959
  0.4444444660996680  0.7611110939473988  0.6045223047694464
 
  0.00000000E+00  0.00000000E+00  0.00000000E+00
  0.00000000E+00  0.00000000E+00  0.00000000E+00
  0.00000000E+00  0.00000000E+00  0.00000000E+00
  0.00000000E+00  0.00000000E+00  0.00000000E+00
  0.00000000E+00  0.00000000E+00  0.00000000E+00
  0.00000000E+00  0.00000000E+00  0.00000000E+00
  0.00000000E+00  0.00000000E+00  0.00000000E+00
  0.00000000E+00  0.00000000E+00  0.00000000E+00
  0.00000000E+00  0.00000000E+00  0.00000000E+00
  0.00000000E+00  0.00000000E+00  0.00000000E+00
  0.00000000E+00  0.00000000E+00  0.00000000E+00
  0.00000000E+00  0.00000000E+00  0.00000000E+00
  0.00000000E+00  0.00000000E+00  0.00000000E+00
  0.00000000E+00  0.00000000E+00  0.00000000E+00
  0.00000000E+00  0.00000000E+00  0.00000000E+00
  0.00000000E+00  0.00000000E+00  0.00000000E+00
  0.00000000E+00  0.00000000E+00  0.00000000E+00
  0.00000000E+00  0.00000000E+00  0.00000000E+00
  0.00000000E+00  0.00000000E+00  0.00000000E+00
  0.00000000E+00  0.00000000E+00  0.00000000E+00
  0.00000000E+00  0.00000000E+00  0.00000000E+00
  0.00000000E+00  0.00000000E+00  0.00000000E+00
  0.00000000E+00  0.00000000E+00  0.00000000E+00
  0.00000000E+00  0.00000000E+00  0.00000000E+00
  0.00000000E+00  0.00000000E+00  0.00000000E+00
  0.00000000E+00  0.00000000E+00  0.00000000E+00
  0.00000000E+00  0.00000000E+00  0.00000000E+00
  0.00000000E+00  0.00000000E+00  0.00000000E+00
  0.00000000E+00  0.00000000E+00  0.00000000E+00
  0.00000000E+00  0.00000000E+00  0.00000000E+00
  0.00000000E+00  0.00000000E+00  0.00000000E+00
  0.00000000E+00  0.00000000E+00  0.00000000E+00
  0.00000000E+00  0.00000000E+00  0.00000000E+00
  0.00000000E+00  0.00000000E+00  0.00000000E+00
  0.00000000E+00  0.00000000E+00  0.00000000E+00
  0.00000000E+00  0.00000000E+00  0.00000000E+00
  0.00000000E+00  0.00000000E+00  0.00000000E+00
  0.00000000E+00  0.00000000E+00  0.00000000E+00
  0.00000000E+00  0.00000000E+00  0.00000000E+00
  0.00000000E+00  0.00000000E+00  0.00000000E+00
  0.00000000E+00  0.00000000E+00  0.00000000E+00
  0.00000000E+00  0.00000000E+00  0.00000000E+00
  0.00000000E+00  0.00000000E+00  0.00000000E+00
  0.00000000E+00  0.00000000E+00  0.00000000E+00
  0.00000000E+00  0.00000000E+00  0.00000000E+00
  0.00000000E+00  0.00000000E+00  0.00000000E+00
  0.00000000E+00  0.00000000E+00  0.00000000E+00
  0.00000000E+00  0.00000000E+00  0.00000000E+00
  0.00000000E+00  0.00000000E+00  0.00000000E+00
  0.00000000E+00  0.00000000E+00  0.00000000E+00
  0.00000000E+00  0.00000000E+00  0.00000000E+00
  0.00000000E+00  0.00000000E+00  0.00000000E+00
  0.00000000E+00  0.00000000E+00  0.00000000E+00
  0.00000000E+00  0.00000000E+00  0.00000000E+00
  0.00000000E+00  0.00000000E+00  0.00000000E+00
  0.00000000E+00  0.00000000E+00  0.00000000E+00
  0.00000000E+00  0.00000000E+00  0.00000000E+00
  0.00000000E+00  0.00000000E+00  0.00000000E+00
  0.00000000E+00  0.00000000E+00  0.00000000E+00
  0.00000000E+00  0.00000000E+00  0.00000000E+00
  0.00000000E+00  0.00000000E+00  0.00000000E+00
  0.00000000E+00  0.00000000E+00  0.00000000E+00
  0.00000000E+00  0.00000000E+00  0.00000000E+00
  0.00000000E+00  0.00000000E+00  0.00000000E+00
  0.00000000E+00  0.00000000E+00  0.00000000E+00
  0.00000000E+00  0.00000000E+00  0.00000000E+00
  0.00000000E+00  0.00000000E+00  0.00000000E+00
  0.00000000E+00  0.00000000E+00  0.00000000E+00
  0.00000000E+00  0.00000000E+00  0.00000000E+00
  0.00000000E+00  0.00000000E+00  0.00000000E+00
  0.00000000E+00  0.00000000E+00  0.00000000E+00
  0.00000000E+00  0.00000000E+00  0.00000000E+00
