Al   B    N                             
   1.00000000000000     
    -9.3433297789113023   -0.0000001321309153    0.0000001699581691
    -4.6716298304327202    8.0915795354276785    0.0000004168224735
     0.0000015621894192   -0.0000114606146729   -9.9831333005000769
   Al   B    N 
    35     1    36
Direct
  0.1076595716006281  0.0927366548059254  0.3185742616929232
  0.2223969402183954  0.2052062299155821  0.0688014557218608
  0.7777777187615982  0.0944442930622387  0.8205845140866330
  0.8860898868586204  0.2027559773847898  0.5645775621776323
  0.4496039351423562  0.0927360685435730  0.3185741590849247
  0.5580162488514304  0.2043252655035701  0.0752618932711329
  0.1093406300119781  0.0952006324441896  0.8189170043431346
  0.2221224721350339  0.2057547013184333  0.5685720317488006
  0.8876590020678421  0.2043252078187834  0.0752617977061689
  0.4454585799886104  0.0952006132500784  0.8189170097244585
  0.5611538033729886  0.2027561096698491  0.5645776117550128
  0.1111116050203691  0.4277775562138046  0.3179875483932975
  0.2223970571897453  0.5390637466005970  0.0688014687325023
  0.7785348560349163  0.4260065472690542  0.8189169476792202
  0.8890876195713560  0.5387895500890849  0.5685721252930094
  0.4496039185387062  0.4243268101085249  0.3185742834149607
  0.5555766339158907  0.5388473001010539  0.0682125553272641
  0.1111116523511200  0.4277774885995527  0.8186745683285110
  0.2221227173803726  0.5387897858705486  0.5685721063627369
  0.7760689845885906  0.4243273204098728  0.3185742509348515
  0.8885397032231523  0.5390635473380954  0.0688013507207899
  0.4454585943048883  0.4260066858528191  0.8189169374286678
  0.5556980141527745  0.5386042718224360  0.5688295612390704
  0.1076597437755069  0.7662701700995100  0.3185742298321159
  0.2221807551839561  0.8722428115906240  0.0682128868448544
  0.7785345368375616  0.7621252161637599  0.8189171329637190
  0.8860896814495831  0.8778206052358897  0.5645774525812897
  0.4444435659343711  0.7611118404947845  0.3183801956358252
  0.5555766725243174  0.8722424680323400  0.0682126835471237
  0.1093401968607566  0.7621253832839443  0.8189171142977401
  0.2219375624881152  0.8723643822200131  0.5688293972139746
  0.7760692210825511  0.7662700964107003  0.3185741003206459
  0.8876586855853859  0.8746832069961243  0.0752619999111346
  0.4444442015525070  0.7611112159634317  0.8185838589779308
  0.5556980039092565  0.8723639969145580  0.5688294719847349
  0.7777777743369825  0.0944448691417890  0.3149225902469865
  0.2225199668554794  0.2049608529120732  0.3772992004103699
  0.1116065514557292  0.0939586683158140  0.1283690116363800
  0.8880207069874970  0.2046868209436283  0.8827538566026831
  0.7777774417838259  0.0944442454624905  0.6317889851605187
  0.5805814661119229  0.1930429219139072  0.3706806105562066
  0.4444345532899163  0.0939584648986980  0.1283687996851057
  0.2224338142690243  0.2051329927894869  0.8773112690405753
  0.1087077178448297  0.0957291799718547  0.6264408013693625
  0.8763757930420866  0.1930432335503269  0.3706805924842485
  0.7777776697412548  0.0944445862115160  0.1496000358773912
  0.5572931034136843  0.2046868835186828  0.8827538773164818
  0.4455622973433933  0.0957290624279636  0.6264407501837255
  0.2225200624046764  0.5391865452212272  0.3772992748212545
  0.1111110901320274  0.4277776866203595  0.1272444416320297
  0.8884668580479627  0.5391002162190262  0.8773111230709461
  0.7790627572943905  0.4253741680557113  0.6264407247797692
  0.5552516783410368  0.5394970483111550  0.3783976172387042
  0.4444344749735123  0.4282731385005150  0.1283689246526762
  0.2224338297453770  0.5391005228621495  0.8773112459231101
  0.1111108535839307  0.4277778643376209  0.6278578455092330
  0.8882944313843950  0.5391864095505596  0.3772992113702074
  0.7772921569009625  0.4282731584501391  0.1283689445257821
  0.5557423621329534  0.5385161030642394  0.8770766589045849
  0.4455624663694806  0.4253742985467497  0.6264406755206551
  0.2228290277100911  0.8719191400936381  0.3783975220734774
  0.1116063348752192  0.7611010856174119  0.1283689856695460
  0.8880204514676606  0.8739598466811174  0.8827540310799264
  0.7790625638318147  0.7622292145300236  0.6264408764350691
  0.5552518533089312  0.8719187505718722  0.3783975664564494
  0.4444441992157095  0.7611109249436367  0.1272318213913834
  0.2218495654196175  0.8724087352671503  0.8770770360726559
  0.1087074761293110  0.7622294014223385  0.6264408741350991
  0.8763758498888592  0.8972481492688544  0.3706805834030860
  0.7772921641638177  0.7611010651100827  0.1283688066887692
  0.5557422965430092  0.8724085151102869  0.8770768785286904
  0.4444440141122712  0.7611109374837710  0.6279625918858258
 
  0.00000000E+00  0.00000000E+00  0.00000000E+00
  0.00000000E+00  0.00000000E+00  0.00000000E+00
  0.00000000E+00  0.00000000E+00  0.00000000E+00
  0.00000000E+00  0.00000000E+00  0.00000000E+00
  0.00000000E+00  0.00000000E+00  0.00000000E+00
  0.00000000E+00  0.00000000E+00  0.00000000E+00
  0.00000000E+00  0.00000000E+00  0.00000000E+00
  0.00000000E+00  0.00000000E+00  0.00000000E+00
  0.00000000E+00  0.00000000E+00  0.00000000E+00
  0.00000000E+00  0.00000000E+00  0.00000000E+00
  0.00000000E+00  0.00000000E+00  0.00000000E+00
  0.00000000E+00  0.00000000E+00  0.00000000E+00
  0.00000000E+00  0.00000000E+00  0.00000000E+00
  0.00000000E+00  0.00000000E+00  0.00000000E+00
  0.00000000E+00  0.00000000E+00  0.00000000E+00
  0.00000000E+00  0.00000000E+00  0.00000000E+00
  0.00000000E+00  0.00000000E+00  0.00000000E+00
  0.00000000E+00  0.00000000E+00  0.00000000E+00
  0.00000000E+00  0.00000000E+00  0.00000000E+00
  0.00000000E+00  0.00000000E+00  0.00000000E+00
  0.00000000E+00  0.00000000E+00  0.00000000E+00
  0.00000000E+00  0.00000000E+00  0.00000000E+00
  0.00000000E+00  0.00000000E+00  0.00000000E+00
  0.00000000E+00  0.00000000E+00  0.00000000E+00
  0.00000000E+00  0.00000000E+00  0.00000000E+00
  0.00000000E+00  0.00000000E+00  0.00000000E+00
  0.00000000E+00  0.00000000E+00  0.00000000E+00
  0.00000000E+00  0.00000000E+00  0.00000000E+00
  0.00000000E+00  0.00000000E+00  0.00000000E+00
  0.00000000E+00  0.00000000E+00  0.00000000E+00
  0.00000000E+00  0.00000000E+00  0.00000000E+00
  0.00000000E+00  0.00000000E+00  0.00000000E+00
  0.00000000E+00  0.00000000E+00  0.00000000E+00
  0.00000000E+00  0.00000000E+00  0.00000000E+00
  0.00000000E+00  0.00000000E+00  0.00000000E+00
  0.00000000E+00  0.00000000E+00  0.00000000E+00
  0.00000000E+00  0.00000000E+00  0.00000000E+00
  0.00000000E+00  0.00000000E+00  0.00000000E+00
  0.00000000E+00  0.00000000E+00  0.00000000E+00
  0.00000000E+00  0.00000000E+00  0.00000000E+00
  0.00000000E+00  0.00000000E+00  0.00000000E+00
  0.00000000E+00  0.00000000E+00  0.00000000E+00
  0.00000000E+00  0.00000000E+00  0.00000000E+00
  0.00000000E+00  0.00000000E+00  0.00000000E+00
  0.00000000E+00  0.00000000E+00  0.00000000E+00
  0.00000000E+00  0.00000000E+00  0.00000000E+00
  0.00000000E+00  0.00000000E+00  0.00000000E+00
  0.00000000E+00  0.00000000E+00  0.00000000E+00
  0.00000000E+00  0.00000000E+00  0.00000000E+00
  0.00000000E+00  0.00000000E+00  0.00000000E+00
  0.00000000E+00  0.00000000E+00  0.00000000E+00
  0.00000000E+00  0.00000000E+00  0.00000000E+00
  0.00000000E+00  0.00000000E+00  0.00000000E+00
  0.00000000E+00  0.00000000E+00  0.00000000E+00
  0.00000000E+00  0.00000000E+00  0.00000000E+00
  0.00000000E+00  0.00000000E+00  0.00000000E+00
  0.00000000E+00  0.00000000E+00  0.00000000E+00
  0.00000000E+00  0.00000000E+00  0.00000000E+00
  0.00000000E+00  0.00000000E+00  0.00000000E+00
  0.00000000E+00  0.00000000E+00  0.00000000E+00
  0.00000000E+00  0.00000000E+00  0.00000000E+00
  0.00000000E+00  0.00000000E+00  0.00000000E+00
  0.00000000E+00  0.00000000E+00  0.00000000E+00
  0.00000000E+00  0.00000000E+00  0.00000000E+00
  0.00000000E+00  0.00000000E+00  0.00000000E+00
  0.00000000E+00  0.00000000E+00  0.00000000E+00
  0.00000000E+00  0.00000000E+00  0.00000000E+00
  0.00000000E+00  0.00000000E+00  0.00000000E+00
  0.00000000E+00  0.00000000E+00  0.00000000E+00
  0.00000000E+00  0.00000000E+00  0.00000000E+00
  0.00000000E+00  0.00000000E+00  0.00000000E+00
  0.00000000E+00  0.00000000E+00  0.00000000E+00
