Al   B    N                             
   1.00000000000000     
    -9.3431976741431146   -0.0000000282605017   -0.0000001417812113
    -4.6715985557522162    8.0914472902667267   -0.0000005029447854
    -0.0000005520100754    0.0000008078712943   -9.9834390253069838
   Al   B    N 
    35     1    36
Direct
  0.1076594052147684  0.0927371280058367  0.4080494481441264
  0.2221228214363720  0.2057540345238209  0.1580500157230347
  0.7777775600999064  0.0944443281862988  0.9060454369470179
  0.8876578115968385  0.2043241775771847  0.6513617427465377
  0.4496035330897072  0.0927366444861519  0.4080495145372396
  0.5611513242505310  0.2027574268169232  0.1620471465727888
  0.1093409939974350  0.0952001694093596  0.9077047824443696
  0.2223964206407985  0.2052070614758392  0.6578213925944354
  0.8860912332566286  0.2027571515722215  0.1620471513133026
  0.4454584681429594  0.0952002224648894  0.9077048413551978
  0.5580180966492776  0.2043243692853665  0.6513616901904271
  0.1111115601804826  0.4277776568949960  0.4086337834019886
  0.2221230927605404  0.5387901297006223  0.1580498919790543
  0.7785342573364176  0.4260070491775991  0.9077048216075951
  0.8885403399638321  0.5390632422460158  0.6578214849877000
  0.4496036414116347  0.4243268321618388  0.4080494104786325
  0.5556982503494794  0.5386039997261136  0.1577935626811851
  0.1111115274573038  0.4277775987779009  0.9079488567800098
  0.2223965999441191  0.5390635318729338  0.6578213660474574
  0.7760694845441733  0.4243271135284914  0.4080494416743292
  0.8890870045991974  0.5387898403097537  0.1580499159155835
  0.4454585136867379  0.4260072858013686  0.9077048494645368
  0.5555762592307403  0.5388480214198950  0.6584087738719973
  0.1076597308539817  0.7662700103357523  0.4080494921387867
  0.2219375038444795  0.8723644605692513  0.1577937325235368
  0.7785339828053921  0.7621253054535444  0.9077046979573851
  0.8876575844257175  0.8746853331625886  0.6513616059826219
  0.4444437526048262  0.7611119103939430  0.4082405496975099
  0.5556982706782279  0.8723641678965066  0.1577937033104035
  0.1093406441786939  0.7621255046266739  0.9077046653314085
  0.2221814369967134  0.8722425524250426  0.6584084294464247
  0.7760697522668849  0.7662698106643546  0.4080495876062926
  0.8860910848578314  0.8778181041210615  0.1620472718826917
  0.4444442328129057  0.7611113077113316  0.9080391168332724
  0.5555763323259484  0.8722422851852514  0.6584086107927618
  0.7777775833871345  0.0944446808511259  0.4116936664301321
  0.2225199390671264  0.2049602944876483  0.3493188711433106
  0.1087086981623315  0.0957287929155584  0.1001769379983841
  0.8880197673394150  0.2046859900404243  0.8438665614743570
  0.7777776967480818  0.0944447483102309  0.5770158644864907
  0.5805801826206647  0.1930433947961490  0.3559381957551935
  0.4455624028960301  0.0957287328718266  0.1001770323335833
  0.2224331935689250  0.2051334344633133  0.8493069214790196
  0.1116062408353145  0.0939592724470515  0.5982500805132531
  0.8763762133658304  0.1930435838438527  0.3559381312725520
  0.7777776986696026  0.0944443590308097  0.0948359197982853
  0.5572938775626568  0.2046861767523822  0.8438665668160468
  0.4444346222299842  0.0939591561933710  0.5982502074151199
  0.2225200746690206  0.5391866598006700  0.3493187602237242
  0.1111111359350048  0.4277779960236074  0.0987610671941610
  0.8884670889333464  0.5390998068667585  0.8493070383242056
  0.7772927573828028  0.4282728678135825  0.5982501219996550
  0.5552520237642469  0.5394959852407197  0.3482209893024120
  0.4455625837989814  0.4253751094695417  0.1001770209927173
  0.2224332286522710  0.5391001245200968  0.8493068907456021
  0.1111112598277302  0.4277779599942164  0.5993726825284611
  0.8882937778338302  0.5391864730030136  0.3493188437472625
  0.7790626401672895  0.4253748656478393  0.1001769852879733
  0.5557415745329024  0.5385169120289888  0.8495403855212729
  0.4444346359811604  0.4282729887624939  0.5982501146781871
  0.2228281176763574  0.8719194086163995  0.3482211152230690
  0.1087084743306832  0.7622293903308659  0.1001768438157313
  0.8880196133246585  0.8739607921986732  0.8438664327298042
  0.7772928209077321  0.7611012534650499  0.5982501928159110
  0.5552522336950787  0.8719191142041680  0.3482210809159412
  0.4444444541029213  0.7611110782188817  0.0986564448685172
  0.2218503313945988  0.8724080503388336  0.8495400187558815
  0.1116061090127971  0.7611013963231485  0.5982500668031889
  0.8763763312578732  0.8972469333513189  0.3559382228110479
  0.7790624394365295  0.7622291636440579  0.1001769061012823
  0.5557416082647464  0.8724079576078552  0.8495401613444926
  0.4444444989355461  0.7611111281351413  0.5993841291298452
 
  0.00000000E+00  0.00000000E+00  0.00000000E+00
  0.00000000E+00  0.00000000E+00  0.00000000E+00
  0.00000000E+00  0.00000000E+00  0.00000000E+00
  0.00000000E+00  0.00000000E+00  0.00000000E+00
  0.00000000E+00  0.00000000E+00  0.00000000E+00
  0.00000000E+00  0.00000000E+00  0.00000000E+00
  0.00000000E+00  0.00000000E+00  0.00000000E+00
  0.00000000E+00  0.00000000E+00  0.00000000E+00
  0.00000000E+00  0.00000000E+00  0.00000000E+00
  0.00000000E+00  0.00000000E+00  0.00000000E+00
  0.00000000E+00  0.00000000E+00  0.00000000E+00
  0.00000000E+00  0.00000000E+00  0.00000000E+00
  0.00000000E+00  0.00000000E+00  0.00000000E+00
  0.00000000E+00  0.00000000E+00  0.00000000E+00
  0.00000000E+00  0.00000000E+00  0.00000000E+00
  0.00000000E+00  0.00000000E+00  0.00000000E+00
  0.00000000E+00  0.00000000E+00  0.00000000E+00
  0.00000000E+00  0.00000000E+00  0.00000000E+00
  0.00000000E+00  0.00000000E+00  0.00000000E+00
  0.00000000E+00  0.00000000E+00  0.00000000E+00
  0.00000000E+00  0.00000000E+00  0.00000000E+00
  0.00000000E+00  0.00000000E+00  0.00000000E+00
  0.00000000E+00  0.00000000E+00  0.00000000E+00
  0.00000000E+00  0.00000000E+00  0.00000000E+00
  0.00000000E+00  0.00000000E+00  0.00000000E+00
  0.00000000E+00  0.00000000E+00  0.00000000E+00
  0.00000000E+00  0.00000000E+00  0.00000000E+00
  0.00000000E+00  0.00000000E+00  0.00000000E+00
  0.00000000E+00  0.00000000E+00  0.00000000E+00
  0.00000000E+00  0.00000000E+00  0.00000000E+00
  0.00000000E+00  0.00000000E+00  0.00000000E+00
  0.00000000E+00  0.00000000E+00  0.00000000E+00
  0.00000000E+00  0.00000000E+00  0.00000000E+00
  0.00000000E+00  0.00000000E+00  0.00000000E+00
  0.00000000E+00  0.00000000E+00  0.00000000E+00
  0.00000000E+00  0.00000000E+00  0.00000000E+00
  0.00000000E+00  0.00000000E+00  0.00000000E+00
  0.00000000E+00  0.00000000E+00  0.00000000E+00
  0.00000000E+00  0.00000000E+00  0.00000000E+00
  0.00000000E+00  0.00000000E+00  0.00000000E+00
  0.00000000E+00  0.00000000E+00  0.00000000E+00
  0.00000000E+00  0.00000000E+00  0.00000000E+00
  0.00000000E+00  0.00000000E+00  0.00000000E+00
  0.00000000E+00  0.00000000E+00  0.00000000E+00
  0.00000000E+00  0.00000000E+00  0.00000000E+00
  0.00000000E+00  0.00000000E+00  0.00000000E+00
  0.00000000E+00  0.00000000E+00  0.00000000E+00
  0.00000000E+00  0.00000000E+00  0.00000000E+00
  0.00000000E+00  0.00000000E+00  0.00000000E+00
  0.00000000E+00  0.00000000E+00  0.00000000E+00
  0.00000000E+00  0.00000000E+00  0.00000000E+00
  0.00000000E+00  0.00000000E+00  0.00000000E+00
  0.00000000E+00  0.00000000E+00  0.00000000E+00
  0.00000000E+00  0.00000000E+00  0.00000000E+00
  0.00000000E+00  0.00000000E+00  0.00000000E+00
  0.00000000E+00  0.00000000E+00  0.00000000E+00
  0.00000000E+00  0.00000000E+00  0.00000000E+00
  0.00000000E+00  0.00000000E+00  0.00000000E+00
  0.00000000E+00  0.00000000E+00  0.00000000E+00
  0.00000000E+00  0.00000000E+00  0.00000000E+00
  0.00000000E+00  0.00000000E+00  0.00000000E+00
  0.00000000E+00  0.00000000E+00  0.00000000E+00
  0.00000000E+00  0.00000000E+00  0.00000000E+00
  0.00000000E+00  0.00000000E+00  0.00000000E+00
  0.00000000E+00  0.00000000E+00  0.00000000E+00
  0.00000000E+00  0.00000000E+00  0.00000000E+00
  0.00000000E+00  0.00000000E+00  0.00000000E+00
  0.00000000E+00  0.00000000E+00  0.00000000E+00
  0.00000000E+00  0.00000000E+00  0.00000000E+00
  0.00000000E+00  0.00000000E+00  0.00000000E+00
  0.00000000E+00  0.00000000E+00  0.00000000E+00
  0.00000000E+00  0.00000000E+00  0.00000000E+00
