Al   B    N                             
   1.00000000000000     
    -9.7524391394486152   -0.0000001000255147    0.0000000736023606
    -4.8762157187748336    8.4458564779526508    0.0000001325307753
    -0.0000003678938041   -0.0000004194589785   -8.7758818917869181
   Al   B    N 
    35     1    36
Direct
  0.1078045263221981  0.0923794885011020  0.3437970885350978
  0.2229112420483901  0.2041775713066940  0.0944188746248358
  0.7777777903275904  0.0944444627145558  0.8445573026144757
  0.8838813541542123  0.2005480883092687  0.5826812541005424
  0.4498159707025735  0.0923794998885725  0.3437970787472082
  0.5555703309732536  0.2055481800620385  0.0968540641532556
  0.1081356582931576  0.0961785193441358  0.8404414692987388
  0.2218510731275103  0.2062979400016403  0.5912111732711267
  0.8888815381233286  0.2055482139867948  0.0968540592862794
  0.4456858778253476  0.0961784971332449  0.8404414671113258
  0.5655706715614315  0.2005480290151098  0.5826812324630453
  0.1111111281459927  0.4277777728019174  0.3416471529204372
  0.2229112453719750  0.5395778746046886  0.0944188809737128
  0.7795117928809248  0.4248023872122957  0.8404415017817399
  0.8896312979740628  0.5385177077390395  0.5912111727344396
  0.4498160048489197  0.4244712003606566  0.3437970622040822
  0.5559846215135380  0.5380307707804164  0.0918574437339785
  0.1111111134675298  0.4277777745966276  0.8440799042152634
  0.2218510742181010  0.5385177030655584  0.5912111753212059
  0.7757127560754000  0.4244712480580048  0.3437970553714180
  0.8875109358193569  0.5395778760824541  0.0944188679233733
  0.4456858524765579  0.4248023434634334  0.8404414899262775
  0.5556619529679381  0.5386761350288793  0.5928917998222119
  0.1078045025019065  0.7664826618929865  0.3437970757004010
  0.2213640478706651  0.8726513284402273  0.0918574541058987
  0.7795117916489218  0.7623525232536323  0.8404414896762589
  0.8838813431085626  0.8822373055357247  0.5826812731776911
  0.4444443965323472  0.7611111579471128  0.3413699335110536
  0.5559846316411310  0.8726513234119793  0.0918574670432903
  0.1081356734584844  0.7623524996520601  0.8404414805880549
  0.2220094103600871  0.8723286449780190  0.5928918028740213
  0.7757128081751716  0.7664826385738266  0.3437970551454725
  0.8888815487436688  0.8722369178411569  0.0968540066428076
  0.4444444074183380  0.7611111488071813  0.8436711179358269
  0.5556619714126754  0.8723286301107507  0.5928917808910370
  0.7777778287461317  0.0944443985756820  0.3101603337449390
  0.2223551036665725  0.2052898713989038  0.3670558718797139
  0.1113441989243995  0.0940673784393269  0.1209534726563319
  0.8885414485056629  0.2052080612703406  0.8762574756302683
  0.7777777469578453  0.0944445229956870  0.6332322824058778
  0.5841356387313184  0.1912655241505163  0.3609212605324359
  0.4445884146933210  0.0940673660066622  0.1209534617797914
  0.2230519227881800  0.2038962740508552  0.8665435618493902
  0.1067539371644699  0.0968448478847321  0.6133252034166077
  0.8745988984175170  0.1912655543449233  0.3609212562526238
  0.7777777740284435  0.0944444572049079  0.1313463530872596
  0.5562506217927279  0.2052080188629830  0.8762574686883084
  0.4464012264602104  0.0968448104511381  0.6133252003974476
  0.2223551110700228  0.5390216729621926  0.3670558515059383
  0.1111110863007525  0.4277778026091426  0.1156028855250426
  0.8872297252496182  0.5397184698705360  0.8665435737354343
  0.7801780405764092  0.4234207439930202  0.6133252166023766
  0.5547571956112449  0.5404856441444821  0.3688395241205100
  0.4445884307868724  0.4280109461464718  0.1209534316882284
  0.2230519038632366  0.5397184504746804  0.8665435740741501
  0.1111110881683430  0.4277778153078700  0.6183122360784736
  0.8886233120234479  0.5390216651354720  0.3670558565657771
  0.7774005735270322  0.4280109810468673  0.1209534299190835
  0.5565045902284709  0.5369908711257949  0.8655022459754207
  0.4464012247095681  0.4234207062816751  0.6133252032796932
  0.2238189740955505  0.8714238325151484  0.3688395313551993
  0.1113441998733578  0.7612551452115568  0.1209534431405217
  0.8885414336319712  0.8729171822599184  0.8762574414949000
  0.7801780348495413  0.7630679463473200  0.6133252225477293
  0.5547572266554681  0.8714238296268775  0.3688395126667601
  0.4444443640263529  0.7611111833160749  0.1146842890420103
  0.2203242106390917  0.8731712389452397  0.8655022445447571
  0.1067539557639634  0.7630679432474565  0.6133252190334915
  0.8745989070007383  0.9008022183852020  0.3609212799997792
  0.7774005947432130  0.7612551507178367  0.1209534339761760
  0.5565045887760789  0.8731712224710648  0.8655022703700368
  0.4444443690103128  0.7611111912757806  0.6194794909568344
 
  0.00000000E+00  0.00000000E+00  0.00000000E+00
  0.00000000E+00  0.00000000E+00  0.00000000E+00
  0.00000000E+00  0.00000000E+00  0.00000000E+00
  0.00000000E+00  0.00000000E+00  0.00000000E+00
  0.00000000E+00  0.00000000E+00  0.00000000E+00
  0.00000000E+00  0.00000000E+00  0.00000000E+00
  0.00000000E+00  0.00000000E+00  0.00000000E+00
  0.00000000E+00  0.00000000E+00  0.00000000E+00
  0.00000000E+00  0.00000000E+00  0.00000000E+00
  0.00000000E+00  0.00000000E+00  0.00000000E+00
  0.00000000E+00  0.00000000E+00  0.00000000E+00
  0.00000000E+00  0.00000000E+00  0.00000000E+00
  0.00000000E+00  0.00000000E+00  0.00000000E+00
  0.00000000E+00  0.00000000E+00  0.00000000E+00
  0.00000000E+00  0.00000000E+00  0.00000000E+00
  0.00000000E+00  0.00000000E+00  0.00000000E+00
  0.00000000E+00  0.00000000E+00  0.00000000E+00
  0.00000000E+00  0.00000000E+00  0.00000000E+00
  0.00000000E+00  0.00000000E+00  0.00000000E+00
  0.00000000E+00  0.00000000E+00  0.00000000E+00
  0.00000000E+00  0.00000000E+00  0.00000000E+00
  0.00000000E+00  0.00000000E+00  0.00000000E+00
  0.00000000E+00  0.00000000E+00  0.00000000E+00
  0.00000000E+00  0.00000000E+00  0.00000000E+00
  0.00000000E+00  0.00000000E+00  0.00000000E+00
  0.00000000E+00  0.00000000E+00  0.00000000E+00
  0.00000000E+00  0.00000000E+00  0.00000000E+00
  0.00000000E+00  0.00000000E+00  0.00000000E+00
  0.00000000E+00  0.00000000E+00  0.00000000E+00
  0.00000000E+00  0.00000000E+00  0.00000000E+00
  0.00000000E+00  0.00000000E+00  0.00000000E+00
  0.00000000E+00  0.00000000E+00  0.00000000E+00
  0.00000000E+00  0.00000000E+00  0.00000000E+00
  0.00000000E+00  0.00000000E+00  0.00000000E+00
  0.00000000E+00  0.00000000E+00  0.00000000E+00
  0.00000000E+00  0.00000000E+00  0.00000000E+00
  0.00000000E+00  0.00000000E+00  0.00000000E+00
  0.00000000E+00  0.00000000E+00  0.00000000E+00
  0.00000000E+00  0.00000000E+00  0.00000000E+00
  0.00000000E+00  0.00000000E+00  0.00000000E+00
  0.00000000E+00  0.00000000E+00  0.00000000E+00
  0.00000000E+00  0.00000000E+00  0.00000000E+00
  0.00000000E+00  0.00000000E+00  0.00000000E+00
  0.00000000E+00  0.00000000E+00  0.00000000E+00
  0.00000000E+00  0.00000000E+00  0.00000000E+00
  0.00000000E+00  0.00000000E+00  0.00000000E+00
  0.00000000E+00  0.00000000E+00  0.00000000E+00
  0.00000000E+00  0.00000000E+00  0.00000000E+00
  0.00000000E+00  0.00000000E+00  0.00000000E+00
  0.00000000E+00  0.00000000E+00  0.00000000E+00
  0.00000000E+00  0.00000000E+00  0.00000000E+00
  0.00000000E+00  0.00000000E+00  0.00000000E+00
  0.00000000E+00  0.00000000E+00  0.00000000E+00
  0.00000000E+00  0.00000000E+00  0.00000000E+00
  0.00000000E+00  0.00000000E+00  0.00000000E+00
  0.00000000E+00  0.00000000E+00  0.00000000E+00
  0.00000000E+00  0.00000000E+00  0.00000000E+00
  0.00000000E+00  0.00000000E+00  0.00000000E+00
  0.00000000E+00  0.00000000E+00  0.00000000E+00
  0.00000000E+00  0.00000000E+00  0.00000000E+00
  0.00000000E+00  0.00000000E+00  0.00000000E+00
  0.00000000E+00  0.00000000E+00  0.00000000E+00
  0.00000000E+00  0.00000000E+00  0.00000000E+00
  0.00000000E+00  0.00000000E+00  0.00000000E+00
  0.00000000E+00  0.00000000E+00  0.00000000E+00
  0.00000000E+00  0.00000000E+00  0.00000000E+00
  0.00000000E+00  0.00000000E+00  0.00000000E+00
  0.00000000E+00  0.00000000E+00  0.00000000E+00
  0.00000000E+00  0.00000000E+00  0.00000000E+00
  0.00000000E+00  0.00000000E+00  0.00000000E+00
  0.00000000E+00  0.00000000E+00  0.00000000E+00
  0.00000000E+00  0.00000000E+00  0.00000000E+00
