Al   B    N                             
   1.00000000000000     
    -9.3432083243463175   -0.0000000452574785   -0.0000000907693127
    -4.6716040558780350    8.0914564870343160   -0.0000003524374158
    -0.0000003478857934    0.0000009529386827   -9.9834185381138241
   Al   B    N 
    35     1    36
Direct
  0.1076595698724958  0.0927369309390755  0.3927817830155718
  0.2221227343570220  0.2057541617515568  0.1427814941388945
  0.7777775876282718  0.0944443757476279  0.8907820474487309
  0.8876578775407253  0.2043242391305000  0.6360975244492835
  0.4496034667469218  0.0927364702339020  0.3927818199927202
  0.5611513387706069  0.2027574357451201  0.1467835152924408
  0.1093410564892423  0.0952003249927387  0.8924371563706330
  0.2223965619094059  0.2052067878445030  0.6425526393377865
  0.8860912046718070  0.2027571305791014  0.1467834883734085
  0.4454583120595714  0.0952004148680103  0.8924372338731317
  0.5580179533703102  0.2043244356473792  0.6360974707991431
  0.1111115338900603  0.4277775911899653  0.3933656957886100
  0.2221230371323415  0.5387900361990745  0.1427814244440455
  0.7785343790392929  0.4260071463855155  0.8924372157347022
  0.8885401074758192  0.5390633287406033  0.6425527561478859
  0.4496035443336126  0.4243270147017739  0.3927817652174213
  0.5556981923421205  0.5386041060437421  0.1425244756000907
  0.1111115309938810  0.4277775871522067  0.8926796027424899
  0.2223967205900621  0.5390635873246907  0.6425526742390275
  0.7760692754340752  0.4243273069676476  0.3927817790457198
  0.8890871302557599  0.5387897519799054  0.1427814134906171
  0.4454583361415274  0.4260073697242106  0.8924372878261551
  0.5555762909005608  0.5388479252633829  0.6431406905202905
  0.1076599127398268  0.7662699039716401  0.3927818382088475
  0.2219376116598610  0.8723644058870406  0.1425246219374472
  0.7785341565892026  0.7621251511623086  0.8924370731063220
  0.8876576676712133  0.8746851675043885  0.6360973730262245
  0.4444437557153762  0.7611119012272738  0.3929716888899222
  0.5556982576969816  0.8723641562682616  0.1425245352706952
  0.1093407162203803  0.7621253325211725  0.8924370650171127
  0.2221813817140088  0.8722425461188337  0.6431403193535274
  0.7760695972443230  0.7662697440507316  0.3927818968345562
  0.8860911122211590  0.8778181050212908  0.1467835997694138
  0.4444442566986311  0.7611113422584097  0.8927697707673872
  0.5555763839398935  0.8722423054585278  0.6431405033213622
  0.7777775490411827  0.0944446617184269  0.3964310962018089
  0.2225198862835072  0.2049602858142237  0.3340519205588848
  0.1087081242672667  0.0957291446848529  0.0849105915490540
  0.8880195082919258  0.2046857798664803  0.8286023031642387
  0.7777776778614722  0.0944447176964260  0.5617530885935622
  0.5805803620674936  0.1930432684964103  0.3406745966322831
  0.4455625604975779  0.0957291775974412  0.0849106927958800
  0.2224333134594687  0.2051332558001704  0.8340395260705691
  0.1116058394825217  0.0939593457319887  0.5829836607185044
  0.8763760660384960  0.1930434865239690  0.3406744886223763
  0.7777776714223066  0.0944443397575370  0.0795730395572036
  0.5572944767485239  0.2046859648770578  0.8286023038905483
  0.4444349514470574  0.0939592333356174  0.5829837408944840
  0.2225200140427361  0.5391865791253423  0.3340518833547748
  0.1111111448525222  0.4277780037318024  0.0834932065362111
  0.8884669199724797  0.5390999161157026  0.8340396600439064
  0.7772928432583512  0.4282724576011958  0.5829837046009203
  0.5552519715246689  0.5394959064452962  0.3329534085923953
  0.4455627485780127  0.4253745979704320  0.0849107196441068
  0.2224333191857255  0.5391002070860864  0.8340395872761448
  0.1111112559286909  0.4277779113382181  0.5841056943351717
  0.8882937938439213  0.5391864116586333  0.3340519075979955
  0.7790629688107700  0.4253743178253373  0.0849106469161285
  0.5557417277503873  0.5385166240390831  0.8342735320049570
  0.4444349198961177  0.4282725719055520  0.5829836948363862
  0.2228280298882339  0.8719193632386251  0.3329535299404682
  0.1087079957301071  0.7622295257852727  0.0849105147036440
  0.8880193687458373  0.8739614201987251  0.8286021598873177
  0.7772929339151560  0.7611015256444915  0.5829837445286046
  0.5552522770201378  0.8719191406421274  0.3329534085514396
  0.4444444918175918  0.7611110904696829  0.0833881724883838
  0.2218500222924504  0.8724082337003480  0.8342731311056824
  0.1116057220680347  0.7611016230655139  0.5829836394498358
  0.8763762072932195  0.8972471203940273  0.3406745955114516
  0.7790628681729572  0.7622293243676594  0.0849105497559890
  0.5557418029843717  0.8724081704026148  0.8342732912365065
  0.4444445161020170  0.7611110987753165  0.5841169018603907
 
  0.00000000E+00  0.00000000E+00  0.00000000E+00
  0.00000000E+00  0.00000000E+00  0.00000000E+00
  0.00000000E+00  0.00000000E+00  0.00000000E+00
  0.00000000E+00  0.00000000E+00  0.00000000E+00
  0.00000000E+00  0.00000000E+00  0.00000000E+00
  0.00000000E+00  0.00000000E+00  0.00000000E+00
  0.00000000E+00  0.00000000E+00  0.00000000E+00
  0.00000000E+00  0.00000000E+00  0.00000000E+00
  0.00000000E+00  0.00000000E+00  0.00000000E+00
  0.00000000E+00  0.00000000E+00  0.00000000E+00
  0.00000000E+00  0.00000000E+00  0.00000000E+00
  0.00000000E+00  0.00000000E+00  0.00000000E+00
  0.00000000E+00  0.00000000E+00  0.00000000E+00
  0.00000000E+00  0.00000000E+00  0.00000000E+00
  0.00000000E+00  0.00000000E+00  0.00000000E+00
  0.00000000E+00  0.00000000E+00  0.00000000E+00
  0.00000000E+00  0.00000000E+00  0.00000000E+00
  0.00000000E+00  0.00000000E+00  0.00000000E+00
  0.00000000E+00  0.00000000E+00  0.00000000E+00
  0.00000000E+00  0.00000000E+00  0.00000000E+00
  0.00000000E+00  0.00000000E+00  0.00000000E+00
  0.00000000E+00  0.00000000E+00  0.00000000E+00
  0.00000000E+00  0.00000000E+00  0.00000000E+00
  0.00000000E+00  0.00000000E+00  0.00000000E+00
  0.00000000E+00  0.00000000E+00  0.00000000E+00
  0.00000000E+00  0.00000000E+00  0.00000000E+00
  0.00000000E+00  0.00000000E+00  0.00000000E+00
  0.00000000E+00  0.00000000E+00  0.00000000E+00
  0.00000000E+00  0.00000000E+00  0.00000000E+00
  0.00000000E+00  0.00000000E+00  0.00000000E+00
  0.00000000E+00  0.00000000E+00  0.00000000E+00
  0.00000000E+00  0.00000000E+00  0.00000000E+00
  0.00000000E+00  0.00000000E+00  0.00000000E+00
  0.00000000E+00  0.00000000E+00  0.00000000E+00
  0.00000000E+00  0.00000000E+00  0.00000000E+00
  0.00000000E+00  0.00000000E+00  0.00000000E+00
  0.00000000E+00  0.00000000E+00  0.00000000E+00
  0.00000000E+00  0.00000000E+00  0.00000000E+00
  0.00000000E+00  0.00000000E+00  0.00000000E+00
  0.00000000E+00  0.00000000E+00  0.00000000E+00
  0.00000000E+00  0.00000000E+00  0.00000000E+00
  0.00000000E+00  0.00000000E+00  0.00000000E+00
  0.00000000E+00  0.00000000E+00  0.00000000E+00
  0.00000000E+00  0.00000000E+00  0.00000000E+00
  0.00000000E+00  0.00000000E+00  0.00000000E+00
  0.00000000E+00  0.00000000E+00  0.00000000E+00
  0.00000000E+00  0.00000000E+00  0.00000000E+00
  0.00000000E+00  0.00000000E+00  0.00000000E+00
  0.00000000E+00  0.00000000E+00  0.00000000E+00
  0.00000000E+00  0.00000000E+00  0.00000000E+00
  0.00000000E+00  0.00000000E+00  0.00000000E+00
  0.00000000E+00  0.00000000E+00  0.00000000E+00
  0.00000000E+00  0.00000000E+00  0.00000000E+00
  0.00000000E+00  0.00000000E+00  0.00000000E+00
  0.00000000E+00  0.00000000E+00  0.00000000E+00
  0.00000000E+00  0.00000000E+00  0.00000000E+00
  0.00000000E+00  0.00000000E+00  0.00000000E+00
  0.00000000E+00  0.00000000E+00  0.00000000E+00
  0.00000000E+00  0.00000000E+00  0.00000000E+00
  0.00000000E+00  0.00000000E+00  0.00000000E+00
  0.00000000E+00  0.00000000E+00  0.00000000E+00
  0.00000000E+00  0.00000000E+00  0.00000000E+00
  0.00000000E+00  0.00000000E+00  0.00000000E+00
  0.00000000E+00  0.00000000E+00  0.00000000E+00
  0.00000000E+00  0.00000000E+00  0.00000000E+00
  0.00000000E+00  0.00000000E+00  0.00000000E+00
  0.00000000E+00  0.00000000E+00  0.00000000E+00
  0.00000000E+00  0.00000000E+00  0.00000000E+00
  0.00000000E+00  0.00000000E+00  0.00000000E+00
  0.00000000E+00  0.00000000E+00  0.00000000E+00
  0.00000000E+00  0.00000000E+00  0.00000000E+00
  0.00000000E+00  0.00000000E+00  0.00000000E+00
