Al   B    N                             
   1.00000000000000     
    -9.4369567902099938   -0.0000000584773493   -0.0000000510933915
    -4.7184769729731677    8.1726594216427362   -0.0000002353761283
     0.0000001457663045    0.0000003121240592   -9.7332336287763255
   Al   B    N 
    35     1    36
Direct
  0.1078704331602296  0.0925611569654095  0.3816975642942353
  0.2219455185397052  0.2061090363822302  0.1323654898606463
  0.7777778796827306  0.0944442129580167  0.8797871128710568
  0.8880565016119704  0.2047231860801446  0.6254893890091253
  0.4495684209453685  0.0925611609633634  0.3816975683723527
  0.5622255257206845  0.2022205973746551  0.1374045675996527
  0.1089440299243094  0.0954782852026028  0.8824897186524367
  0.2226078387605099  0.2047843840728234  0.6318244046631420
  0.8855539326243473  0.2022206010000502  0.1374045734331375
  0.4455776649949570  0.0954782925451738  0.8824897235819620
  0.5572203437731318  0.2047231989320224  0.6254894093197905
  0.1111110382182758  0.4277779201519465  0.3832747265624690
  0.2219454432305312  0.5386124400278263  0.1323655224068077
  0.7788117967377275  0.4256106851103070  0.8824896855452664
  0.8881175092197040  0.5392748087457662  0.6318244295564597
  0.4495682597474229  0.4245370892322171  0.3816975665186320
  0.5555941082563507  0.5388118355215425  0.1317242976808686
  0.1111110294177990  0.4277779145507736  0.8814431580451654
  0.2226077444010954  0.5392748066749107  0.6318244231980756
  0.7758946456166598  0.4245371072078328  0.3816975647368110
  0.8894421730399173  0.5386124494535522  0.1323655114813249
  0.4455774798813863  0.4256106860392990  0.8824896906093542
  0.5557611879657429  0.5384776752520111  0.6328515283025169
  0.1078702636332949  0.7662350099014574  0.3816975650559513
  0.2221450486138536  0.8722607601585679  0.1317242870915933
  0.7788118368156276  0.7622442709741577  0.8824897105522851
  0.8880565741855762  0.8738869082017331  0.6254894340504507
  0.4444444570868527  0.7611110804016405  0.3830557308962881
  0.5555942471164030  0.8722607684515253  0.1317242939072543
  0.1089438778098639  0.7622442512539891  0.8824897104507059
  0.2218108729141974  0.8724278472236051  0.6328515132121026
  0.7758947220215830  0.7662350132253835  0.3816975671363139
  0.8855540069773937  0.8788920352562855  0.1374045630374070
  0.4444444446888980  0.7611110927249030  0.8815745959240715
  0.5557613378022594  0.8724278573541540  0.6328515091564455
  0.7777778187341724  0.0944443331516354  0.3910941893448552
  0.2224009400739106  0.2051981469176667  0.3277896092940438
  0.1081924086124246  0.0960502155493330  0.0793415575893661
  0.8880742789922564  0.2047410837895569  0.8218108217252862
  0.7777779137155605  0.0944441576933741  0.5569807923148815
  0.5811721392935212  0.1927472934201901  0.3349361338579868
  0.4457574131902788  0.0960502093116773  0.0793415604597172
  0.2226376800871748  0.2047246401220377  0.8278333588718638
  0.1116528426422931  0.0938856312492291  0.5762126229691162
  0.8760805768180049  0.1927473022399724  0.3349361413064713
  0.7777778851764268  0.0944442698055852  0.0720633601125940
  0.5571846351802279  0.2047410859573162  0.8218108366171606
  0.4444615548655193  0.0938856383762285  0.5762126262077629
  0.2224009120532955  0.5390678639630480  0.3277895801895525
  0.1111111425394284  0.4277777488977748  0.0766672371347212
  0.8880577367569060  0.5393045944408215  0.8278333223638299
  0.7772191691279531  0.4283193291099892  0.5762126239818812
  0.5550337813146911  0.5399324520320263  0.3264626982909249
  0.4457573948171927  0.4248588954056700  0.0793415550134569
  0.2226376619851962  0.5393045852785008  0.8278333158338569
  0.1111111247932541  0.4277777850779927  0.5783823241422539
  0.8885312390961104  0.5390678724358224  0.3277895690815953
  0.7793837510694104  0.4248588917245257  0.0793415504179720
  0.5560055913864019  0.5379888075587473  0.8284049531820941
  0.4444615393263689  0.4283193288606881  0.5762126257844074
  0.2232656491273559  0.8717005578108754  0.3264626849151284
  0.1081923426428375  0.7624239714658998  0.0793415102612300
  0.8880742700662623  0.8738514591244169  0.8218107563795130
  0.7772191329498739  0.7611281393550229  0.5762125632232369
  0.5550338076024062  0.8717005607631734  0.3264626928147294
  0.4444444994008805  0.7611110409565143  0.0764292237136885
  0.2213220048856144  0.8726723815342012  0.8284049245296714
  0.1116527629943107  0.7611281459341299  0.5762125621796486
  0.8760806272158703  0.8978387488183373  0.3349360324486810
  0.7793837162558859  0.7624239724974800  0.0793415085740321
  0.5560056084303042  0.8726723879277714  0.8284049217313765
  0.4444444958196243  0.7611110494407782  0.5786540032610716
 
  0.00000000E+00  0.00000000E+00  0.00000000E+00
  0.00000000E+00  0.00000000E+00  0.00000000E+00
  0.00000000E+00  0.00000000E+00  0.00000000E+00
  0.00000000E+00  0.00000000E+00  0.00000000E+00
  0.00000000E+00  0.00000000E+00  0.00000000E+00
  0.00000000E+00  0.00000000E+00  0.00000000E+00
  0.00000000E+00  0.00000000E+00  0.00000000E+00
  0.00000000E+00  0.00000000E+00  0.00000000E+00
  0.00000000E+00  0.00000000E+00  0.00000000E+00
  0.00000000E+00  0.00000000E+00  0.00000000E+00
  0.00000000E+00  0.00000000E+00  0.00000000E+00
  0.00000000E+00  0.00000000E+00  0.00000000E+00
  0.00000000E+00  0.00000000E+00  0.00000000E+00
  0.00000000E+00  0.00000000E+00  0.00000000E+00
  0.00000000E+00  0.00000000E+00  0.00000000E+00
  0.00000000E+00  0.00000000E+00  0.00000000E+00
  0.00000000E+00  0.00000000E+00  0.00000000E+00
  0.00000000E+00  0.00000000E+00  0.00000000E+00
  0.00000000E+00  0.00000000E+00  0.00000000E+00
  0.00000000E+00  0.00000000E+00  0.00000000E+00
  0.00000000E+00  0.00000000E+00  0.00000000E+00
  0.00000000E+00  0.00000000E+00  0.00000000E+00
  0.00000000E+00  0.00000000E+00  0.00000000E+00
  0.00000000E+00  0.00000000E+00  0.00000000E+00
  0.00000000E+00  0.00000000E+00  0.00000000E+00
  0.00000000E+00  0.00000000E+00  0.00000000E+00
  0.00000000E+00  0.00000000E+00  0.00000000E+00
  0.00000000E+00  0.00000000E+00  0.00000000E+00
  0.00000000E+00  0.00000000E+00  0.00000000E+00
  0.00000000E+00  0.00000000E+00  0.00000000E+00
  0.00000000E+00  0.00000000E+00  0.00000000E+00
  0.00000000E+00  0.00000000E+00  0.00000000E+00
  0.00000000E+00  0.00000000E+00  0.00000000E+00
  0.00000000E+00  0.00000000E+00  0.00000000E+00
  0.00000000E+00  0.00000000E+00  0.00000000E+00
  0.00000000E+00  0.00000000E+00  0.00000000E+00
  0.00000000E+00  0.00000000E+00  0.00000000E+00
  0.00000000E+00  0.00000000E+00  0.00000000E+00
  0.00000000E+00  0.00000000E+00  0.00000000E+00
  0.00000000E+00  0.00000000E+00  0.00000000E+00
  0.00000000E+00  0.00000000E+00  0.00000000E+00
  0.00000000E+00  0.00000000E+00  0.00000000E+00
  0.00000000E+00  0.00000000E+00  0.00000000E+00
  0.00000000E+00  0.00000000E+00  0.00000000E+00
  0.00000000E+00  0.00000000E+00  0.00000000E+00
  0.00000000E+00  0.00000000E+00  0.00000000E+00
  0.00000000E+00  0.00000000E+00  0.00000000E+00
  0.00000000E+00  0.00000000E+00  0.00000000E+00
  0.00000000E+00  0.00000000E+00  0.00000000E+00
  0.00000000E+00  0.00000000E+00  0.00000000E+00
  0.00000000E+00  0.00000000E+00  0.00000000E+00
  0.00000000E+00  0.00000000E+00  0.00000000E+00
  0.00000000E+00  0.00000000E+00  0.00000000E+00
  0.00000000E+00  0.00000000E+00  0.00000000E+00
  0.00000000E+00  0.00000000E+00  0.00000000E+00
  0.00000000E+00  0.00000000E+00  0.00000000E+00
  0.00000000E+00  0.00000000E+00  0.00000000E+00
  0.00000000E+00  0.00000000E+00  0.00000000E+00
  0.00000000E+00  0.00000000E+00  0.00000000E+00
  0.00000000E+00  0.00000000E+00  0.00000000E+00
  0.00000000E+00  0.00000000E+00  0.00000000E+00
  0.00000000E+00  0.00000000E+00  0.00000000E+00
  0.00000000E+00  0.00000000E+00  0.00000000E+00
  0.00000000E+00  0.00000000E+00  0.00000000E+00
  0.00000000E+00  0.00000000E+00  0.00000000E+00
  0.00000000E+00  0.00000000E+00  0.00000000E+00
  0.00000000E+00  0.00000000E+00  0.00000000E+00
  0.00000000E+00  0.00000000E+00  0.00000000E+00
  0.00000000E+00  0.00000000E+00  0.00000000E+00
  0.00000000E+00  0.00000000E+00  0.00000000E+00
  0.00000000E+00  0.00000000E+00  0.00000000E+00
  0.00000000E+00  0.00000000E+00  0.00000000E+00
