Al   B    N                             
   1.00000000000000     
    -9.3436386602638652   -0.0000000509231374   -0.0000000737653465
    -4.6718255025971116    8.0918457506945778   -0.0000003022682926
    -0.0000006691536670   -0.0000017927246315   -9.9823351144000902
   Al   B    N 
    35     1    36
Direct
  0.1076599028315641  0.0927360379830588  0.3871842178603941
  0.2221218442626309  0.2057557833779668  0.1371877874524472
  0.7777776830750298  0.0944442322630294  0.8851783766343857
  0.8876594559474924  0.2043259829624731  0.6305035318182846
  0.4496042606267849  0.0927355417040019  0.3871842860630750
  0.5611561772233102  0.2027549855973518  0.1411876354480128
  0.1093403636746189  0.0952011269284654  0.8868443752704280
  0.2223972930876101  0.2052051991747064  0.6369567414682393
  0.8860885877841511  0.2027547233792788  0.1411876753400207
  0.4454583301599868  0.0952011684288934  0.8868444177035784
  0.5580145649610984  0.2043261392025713  0.6305034705990522
  0.1111116833095025  0.4277776000977482  0.3877735514639653
  0.2221221171036163  0.5387894317756050  0.1371876966474375
  0.7785354575323069  0.4260062103012032  0.8868443877615633
  0.8885382600098524  0.5390643486535396  0.6369568641005898
  0.4496043205286497  0.4243271575709500  0.3871841838260224
  0.5556977227738713  0.5386048402458101  0.1369282308468343
  0.1111116632012568  0.4277775422058880  0.8870823734210234
  0.2223974577513417  0.5390646097305378  0.6369567648920409
  0.7760686386601847  0.4243274616697548  0.3871842165112014
  0.8890884509187700  0.5387891655476693  0.1371877348218149
  0.4454583449072729  0.4260064204809524  0.8868444234071191
  0.5555769145476219  0.5388465685341686  0.6375477350746124
  0.1076601813569340  0.7662705194592689  0.3871842188015648
  0.2219380828572355  0.8723641640282622  0.1369284005551705
  0.7785351470991273  0.7621249821072595  0.8868443053561776
  0.8876592088154069  0.8746819246247028  0.6305033834325471
  0.4444438612581010  0.7611118170276043  0.3873800860191068
  0.5556977321342842  0.8723638698282628  0.1369283418664580
  0.1093399274524245  0.7621251818984263  0.8868442981618045
  0.2221797808899595  0.8722433550069866  0.6375474233909202
  0.7760689060389794  0.7662703066094849  0.3871843112905538
  0.8860884182495141  0.8778231701275843  0.1411878028230618
  0.4444443455807985  0.7611112253491115  0.8871733703998643
  0.5555770051635136  0.8722430897520397  0.6375475662854200
  0.7777774897066223  0.0944447624426914  0.3908550888243525
  0.2225192516893770  0.2049614976210421  0.3284752893104823
  0.1087069756877099  0.0957300560577536  0.0793350387272085
  0.8880199121469516  0.2046864759538707  0.8230227312901377
  0.7777778892942351  0.0944445725488237  0.5561788303573394
  0.5805823435542052  0.1930423752787007  0.3350948446709126
  0.4455629928698244  0.0957299792382074  0.0793351110302893
  0.2224337984665965  0.2051320632231040  0.8284623466044962
  0.1116059257673498  0.0939588515300542  0.5774050546023446
  0.8763749454394372  0.1930425870530144  0.3350947798081592
  0.7777778699119011  0.0944441876836564  0.0739853791703098
  0.5572930899645741  0.2046866523371165  0.8230227323116353
  0.4444355890332830  0.0939587357555283  0.5774051744900319
  0.2225194151420808  0.5391862740447095  0.3284751881088326
  0.1111112968606562  0.4277777975545405  0.0779145259384180
  0.8884653696936837  0.5391007540395165  0.8284624810236210
  0.7772928043087788  0.4282720791090924  0.5774050906074137
  0.5552510478745276  0.5394977406791810  0.3273756087931758
  0.4455632331642292  0.4253729936082919  0.0793351118660155
  0.2224338442071243  0.5391010753745462  0.8284623631484322
  0.1111114820546177  0.4277777367409712  0.5785313468932429
  0.8882946475433755  0.5391861073563149  0.3284752600906629
  0.7790642668180894  0.4253727504090534  0.0793350811850289
  0.5557424840034315  0.5385149291823836  0.8286985545055998
  0.4444356191838779  0.4282721880735139  0.5774050887417630
  0.2228295762661432  0.8719187631633787  0.3273757313353229
  0.1087067337240057  0.7622296514983233  0.0793349646623724
  0.8880197124602560  0.8739603983189994  0.8230225979548678
  0.7772928345415124  0.7611017880187632  0.5774051263766893
  0.5552511870364327  0.8719184678799010  0.3273756837487980
  0.4444446167696157  0.7611108476714463  0.0778090446913637
  0.2218480275785026  0.8724092944280954  0.8286982084019670
  0.1116057784343383  0.7611019091816615  0.5774050189732449
  0.8763750571599118  0.8972493298814115  0.3350948204589983
  0.7790640168965268  0.7622294151679228  0.0793350050419974
  0.5557424565832250  0.8724091937854865  0.8286983156186309
  0.4444447052485643  0.7611108840561229  0.5785438113228381
 
  0.00000000E+00  0.00000000E+00  0.00000000E+00
  0.00000000E+00  0.00000000E+00  0.00000000E+00
  0.00000000E+00  0.00000000E+00  0.00000000E+00
  0.00000000E+00  0.00000000E+00  0.00000000E+00
  0.00000000E+00  0.00000000E+00  0.00000000E+00
  0.00000000E+00  0.00000000E+00  0.00000000E+00
  0.00000000E+00  0.00000000E+00  0.00000000E+00
  0.00000000E+00  0.00000000E+00  0.00000000E+00
  0.00000000E+00  0.00000000E+00  0.00000000E+00
  0.00000000E+00  0.00000000E+00  0.00000000E+00
  0.00000000E+00  0.00000000E+00  0.00000000E+00
  0.00000000E+00  0.00000000E+00  0.00000000E+00
  0.00000000E+00  0.00000000E+00  0.00000000E+00
  0.00000000E+00  0.00000000E+00  0.00000000E+00
  0.00000000E+00  0.00000000E+00  0.00000000E+00
  0.00000000E+00  0.00000000E+00  0.00000000E+00
  0.00000000E+00  0.00000000E+00  0.00000000E+00
  0.00000000E+00  0.00000000E+00  0.00000000E+00
  0.00000000E+00  0.00000000E+00  0.00000000E+00
  0.00000000E+00  0.00000000E+00  0.00000000E+00
  0.00000000E+00  0.00000000E+00  0.00000000E+00
  0.00000000E+00  0.00000000E+00  0.00000000E+00
  0.00000000E+00  0.00000000E+00  0.00000000E+00
  0.00000000E+00  0.00000000E+00  0.00000000E+00
  0.00000000E+00  0.00000000E+00  0.00000000E+00
  0.00000000E+00  0.00000000E+00  0.00000000E+00
  0.00000000E+00  0.00000000E+00  0.00000000E+00
  0.00000000E+00  0.00000000E+00  0.00000000E+00
  0.00000000E+00  0.00000000E+00  0.00000000E+00
  0.00000000E+00  0.00000000E+00  0.00000000E+00
  0.00000000E+00  0.00000000E+00  0.00000000E+00
  0.00000000E+00  0.00000000E+00  0.00000000E+00
  0.00000000E+00  0.00000000E+00  0.00000000E+00
  0.00000000E+00  0.00000000E+00  0.00000000E+00
  0.00000000E+00  0.00000000E+00  0.00000000E+00
  0.00000000E+00  0.00000000E+00  0.00000000E+00
  0.00000000E+00  0.00000000E+00  0.00000000E+00
  0.00000000E+00  0.00000000E+00  0.00000000E+00
  0.00000000E+00  0.00000000E+00  0.00000000E+00
  0.00000000E+00  0.00000000E+00  0.00000000E+00
  0.00000000E+00  0.00000000E+00  0.00000000E+00
  0.00000000E+00  0.00000000E+00  0.00000000E+00
  0.00000000E+00  0.00000000E+00  0.00000000E+00
  0.00000000E+00  0.00000000E+00  0.00000000E+00
  0.00000000E+00  0.00000000E+00  0.00000000E+00
  0.00000000E+00  0.00000000E+00  0.00000000E+00
  0.00000000E+00  0.00000000E+00  0.00000000E+00
  0.00000000E+00  0.00000000E+00  0.00000000E+00
  0.00000000E+00  0.00000000E+00  0.00000000E+00
  0.00000000E+00  0.00000000E+00  0.00000000E+00
  0.00000000E+00  0.00000000E+00  0.00000000E+00
  0.00000000E+00  0.00000000E+00  0.00000000E+00
  0.00000000E+00  0.00000000E+00  0.00000000E+00
  0.00000000E+00  0.00000000E+00  0.00000000E+00
  0.00000000E+00  0.00000000E+00  0.00000000E+00
  0.00000000E+00  0.00000000E+00  0.00000000E+00
  0.00000000E+00  0.00000000E+00  0.00000000E+00
  0.00000000E+00  0.00000000E+00  0.00000000E+00
  0.00000000E+00  0.00000000E+00  0.00000000E+00
  0.00000000E+00  0.00000000E+00  0.00000000E+00
  0.00000000E+00  0.00000000E+00  0.00000000E+00
  0.00000000E+00  0.00000000E+00  0.00000000E+00
  0.00000000E+00  0.00000000E+00  0.00000000E+00
  0.00000000E+00  0.00000000E+00  0.00000000E+00
  0.00000000E+00  0.00000000E+00  0.00000000E+00
  0.00000000E+00  0.00000000E+00  0.00000000E+00
  0.00000000E+00  0.00000000E+00  0.00000000E+00
  0.00000000E+00  0.00000000E+00  0.00000000E+00
  0.00000000E+00  0.00000000E+00  0.00000000E+00
  0.00000000E+00  0.00000000E+00  0.00000000E+00
  0.00000000E+00  0.00000000E+00  0.00000000E+00
  0.00000000E+00  0.00000000E+00  0.00000000E+00
