Al   B    N                             
   1.00000000000000     
    -9.3431999879789291   -0.0000000395918195   -0.0000001077732789
    -4.6716003117092724    8.0914488316921833   -0.0000004026065390
    -0.0000006366569010    0.0000001053197950   -9.9834223558906210
   Al   B    N 
    35     1    36
Direct
  0.1076587604672454  0.0927371501197314  0.3980130860258413
  0.2221227217203605  0.2057542058278372  0.1480151073337481
  0.7777775921199677  0.0944443975286262  0.8960021581215969
  0.8876579114411953  0.2043242092572228  0.6413244800517361
  0.4496040282166049  0.0927367064619915  0.3980132281067199
  0.5611518236855062  0.2027572393668891  0.1520054888817981
  0.1093413480222623  0.0952001601687087  0.8976686851154980
  0.2223964832668130  0.2052068929351449  0.6477859256863994
  0.8860909594645889  0.2027569432261984  0.1520054951459713
  0.4454581708077541  0.0952002540835366  0.8976687312820530
  0.5580179771234839  0.2043244320465973  0.6413245091437929
  0.1111115202483859  0.4277775746086192  0.3985996223689696
  0.2221230026926193  0.5387900432822974  0.1480150316171489
  0.7785342446023122  0.4260074078318823  0.8976687139197210
  0.8885402272384795  0.5390632605637151  0.6477860266163304
  0.4496041209522730  0.4243261929595334  0.3980131472214339
  0.5556981880693499  0.5386041219114901  0.1477579698298683
  0.1111115309264221  0.4277775846671759  0.8979136378801158
  0.2223966531053136  0.5390635369669212  0.6477859675676498
  0.7760695009817411  0.4243264830844282  0.3980130926749226
  0.8890871503886544  0.5387897729902917  0.1480150011293873
  0.4454582042434296  0.4260076850915482  0.8976687677405266
  0.5555763873215369  0.5388478125655638  0.6483739108762023
  0.1076590968034026  0.7662704588735707  0.3980131987540716
  0.2219375808176238  0.8723644324122617  0.1477581466624898
  0.7785339973052245  0.7621250228064937  0.8976686162329486
  0.8876577085074615  0.8746851291061759  0.6413244367309261
  0.4444437152100704  0.7611119205496664  0.3982063302977821
  0.5556982698404838  0.8723641888394980  0.1477580858388805
  0.1093410169573588  0.7621252109914067  0.8976686245635221
  0.2221812227158111  0.8722426407689454  0.6483735946417610
  0.7760698178989571  0.7662702842482361  0.3980132776757017
  0.8860908605174060  0.8778186305432456  0.1520056455982939
  0.4444442510013999  0.7611113561145473  0.8980041780033474
  0.5555764779579278  0.8722423809519455  0.6483737840715520
  0.7777775378494738  0.0944446236663552  0.4016530963506284
  0.2225198386708627  0.2049603286151793  0.3392835372981295
  0.1087093918561806  0.0957285646121662  0.0901399984172855
  0.8880203728946938  0.2046866012821980  0.8338285659578517
  0.7777776838099228  0.0944446761364759  0.5669778164881336
  0.5805803642673695  0.1930432231664696  0.3458982433667828
  0.4455619053377973  0.0957286021056873  0.0901401086937810
  0.2224331337251897  0.2051335433091381  0.8392709649600647
  0.1116063345257245  0.0939591308495125  0.5882137958580032
  0.8763760439597377  0.1930434174371456  0.3458981454624563
  0.7777777197137894  0.0944443967047235  0.0847932039044039
  0.5572927996900745  0.2046868061313276  0.8338286470076497
  0.4444346864146311  0.0939590447445013  0.5882140432607486
  0.2225199587198006  0.5391864961740254  0.3392834916377439
  0.1111111279632055  0.4277780047091397  0.0887256005090364
  0.8884672223824168  0.5390997346534760  0.8392711115025406
  0.7772926733415204  0.4282729161239445  0.5882138594476274
  0.5552517932708199  0.5394962342203442  0.3381852558079501
  0.4455620711095207  0.4253759192945878  0.0901401247347167
  0.2224331460433859  0.5391000475862313  0.8392710252442228
  0.1111112580134943  0.4277778898393620  0.5893377388188412
  0.8882938593473071  0.5391863336781242  0.3392835145361062
  0.7790623617623993  0.4253756236779793  0.0901400449609113
  0.5557415695924206  0.5385170212041999  0.8395048506435430
  0.4444346604701224  0.4282730734381914  0.5882139729287417
  0.2228283400935211  0.8719191820738246  0.3381853523984688
  0.1087092609339706  0.7622288846044185  0.0901399568097361
  0.8880202212912280  0.8739597323089541  0.8338285166861894
  0.7772927571324004  0.7611012554961505  0.5882140240825109
  0.5552520897804527  0.8719189747336600  0.3381853243425397
  0.4444444765569102  0.7611111260629002  0.0886209025431839
  0.2218504087008242  0.8724080538243726  0.8395044928617779
  0.1116062275240921  0.7611013520938599  0.5882139099746766
  0.8763761459352040  0.8972471228400281  0.3458982650980502
  0.7790622764204684  0.7622286979255790  0.0901399821225226
  0.5557415937948704  0.8724079610781033  0.8395046542910762
  0.4444445065555058  0.7611111524231760  0.5893495512749567
 
  0.00000000E+00  0.00000000E+00  0.00000000E+00
  0.00000000E+00  0.00000000E+00  0.00000000E+00
  0.00000000E+00  0.00000000E+00  0.00000000E+00
  0.00000000E+00  0.00000000E+00  0.00000000E+00
  0.00000000E+00  0.00000000E+00  0.00000000E+00
  0.00000000E+00  0.00000000E+00  0.00000000E+00
  0.00000000E+00  0.00000000E+00  0.00000000E+00
  0.00000000E+00  0.00000000E+00  0.00000000E+00
  0.00000000E+00  0.00000000E+00  0.00000000E+00
  0.00000000E+00  0.00000000E+00  0.00000000E+00
  0.00000000E+00  0.00000000E+00  0.00000000E+00
  0.00000000E+00  0.00000000E+00  0.00000000E+00
  0.00000000E+00  0.00000000E+00  0.00000000E+00
  0.00000000E+00  0.00000000E+00  0.00000000E+00
  0.00000000E+00  0.00000000E+00  0.00000000E+00
  0.00000000E+00  0.00000000E+00  0.00000000E+00
  0.00000000E+00  0.00000000E+00  0.00000000E+00
  0.00000000E+00  0.00000000E+00  0.00000000E+00
  0.00000000E+00  0.00000000E+00  0.00000000E+00
  0.00000000E+00  0.00000000E+00  0.00000000E+00
  0.00000000E+00  0.00000000E+00  0.00000000E+00
  0.00000000E+00  0.00000000E+00  0.00000000E+00
  0.00000000E+00  0.00000000E+00  0.00000000E+00
  0.00000000E+00  0.00000000E+00  0.00000000E+00
  0.00000000E+00  0.00000000E+00  0.00000000E+00
  0.00000000E+00  0.00000000E+00  0.00000000E+00
  0.00000000E+00  0.00000000E+00  0.00000000E+00
  0.00000000E+00  0.00000000E+00  0.00000000E+00
  0.00000000E+00  0.00000000E+00  0.00000000E+00
  0.00000000E+00  0.00000000E+00  0.00000000E+00
  0.00000000E+00  0.00000000E+00  0.00000000E+00
  0.00000000E+00  0.00000000E+00  0.00000000E+00
  0.00000000E+00  0.00000000E+00  0.00000000E+00
  0.00000000E+00  0.00000000E+00  0.00000000E+00
  0.00000000E+00  0.00000000E+00  0.00000000E+00
  0.00000000E+00  0.00000000E+00  0.00000000E+00
  0.00000000E+00  0.00000000E+00  0.00000000E+00
  0.00000000E+00  0.00000000E+00  0.00000000E+00
  0.00000000E+00  0.00000000E+00  0.00000000E+00
  0.00000000E+00  0.00000000E+00  0.00000000E+00
  0.00000000E+00  0.00000000E+00  0.00000000E+00
  0.00000000E+00  0.00000000E+00  0.00000000E+00
  0.00000000E+00  0.00000000E+00  0.00000000E+00
  0.00000000E+00  0.00000000E+00  0.00000000E+00
  0.00000000E+00  0.00000000E+00  0.00000000E+00
  0.00000000E+00  0.00000000E+00  0.00000000E+00
  0.00000000E+00  0.00000000E+00  0.00000000E+00
  0.00000000E+00  0.00000000E+00  0.00000000E+00
  0.00000000E+00  0.00000000E+00  0.00000000E+00
  0.00000000E+00  0.00000000E+00  0.00000000E+00
  0.00000000E+00  0.00000000E+00  0.00000000E+00
  0.00000000E+00  0.00000000E+00  0.00000000E+00
  0.00000000E+00  0.00000000E+00  0.00000000E+00
  0.00000000E+00  0.00000000E+00  0.00000000E+00
  0.00000000E+00  0.00000000E+00  0.00000000E+00
  0.00000000E+00  0.00000000E+00  0.00000000E+00
  0.00000000E+00  0.00000000E+00  0.00000000E+00
  0.00000000E+00  0.00000000E+00  0.00000000E+00
  0.00000000E+00  0.00000000E+00  0.00000000E+00
  0.00000000E+00  0.00000000E+00  0.00000000E+00
  0.00000000E+00  0.00000000E+00  0.00000000E+00
  0.00000000E+00  0.00000000E+00  0.00000000E+00
  0.00000000E+00  0.00000000E+00  0.00000000E+00
  0.00000000E+00  0.00000000E+00  0.00000000E+00
  0.00000000E+00  0.00000000E+00  0.00000000E+00
  0.00000000E+00  0.00000000E+00  0.00000000E+00
  0.00000000E+00  0.00000000E+00  0.00000000E+00
  0.00000000E+00  0.00000000E+00  0.00000000E+00
  0.00000000E+00  0.00000000E+00  0.00000000E+00
  0.00000000E+00  0.00000000E+00  0.00000000E+00
  0.00000000E+00  0.00000000E+00  0.00000000E+00
  0.00000000E+00  0.00000000E+00  0.00000000E+00
