Al   B    N                             
   1.00000000000000     
    -9.6401332000517019   -0.0000000716972201   -0.0000000114174704
    -4.8200642808354059    8.3485445678905048   -0.0000001183148408
     0.0000005922898225   -0.0000149956882291   -9.1307888162056781
   Al   B    N 
    35     1    36
Direct
  0.1081438082509578  0.0922699918887346  0.3728416772195189
  0.2217326374369080  0.2065347845448358  0.1251045938712068
  0.7777776101387559  0.0944448011275725  0.8712097321798851
  0.8887179430343863  0.2053843404211477  0.6177065764021350
  0.4495862026754409  0.0922700046987330  0.3728416733960813
  0.5645444852175316  0.2010609895427606  0.1324254149620714
  0.1081243494815567  0.0960853478397681  0.8759715656619775
  0.2229389850287831  0.2041220699293191  0.6234159899714555
  0.8843945739578061  0.2010610258198184  0.1324254208696729
  0.4457903185718024  0.0960853494426033  0.8759715604630500
  0.5558977665964164  0.2053843364118464  0.6177065771640642
  0.1111110456634847  0.4277779079361821  0.3760459151339006
  0.2217326679595715  0.5383988696031210  0.1251044741814269
  0.7794181829659763  0.4247914209053292  0.8759715355316828
  0.8874557389430180  0.5396052761503967  0.6234159483020321
  0.4495863523082662  0.4248108118871770  0.3728417310598786
  0.5554988417812297  0.5390023756353415  0.1235849672095242
  0.1111110064210195  0.4277779731322653  0.8727397113161288
  0.2229390295772049  0.5396052778680982  0.6234159385492006
  0.7756028229334007  0.4248108412267300  0.3728417446590910
  0.8898685117520060  0.5383988725843025  0.1251044792389777
  0.4457903964559478  0.4247914161489135  0.8759715378274464
  0.5560462331839133  0.5379075706080982  0.6254925417591792
  0.1081439149494656  0.7662533016103694  0.3728416311915907
  0.2223360219585047  0.8721652377301652  0.1235849489214829
  0.7794182006150265  0.7624573664719492  0.8759714733952890
  0.8887179404261971  0.8725641591350097  0.6177065646278379
  0.4444442949801797  0.7611113770414732  0.3761532430489964
  0.5554987847444011  0.8721652224317253  0.1235849592692873
  0.1081244435075348  0.7624573513893367  0.8759714789712092
  0.2212412530486674  0.8727126474743372  0.6254925164297873
  0.7756027797373903  0.7662532890102582  0.3728416381023933
  0.8843944623938285  0.8812110857185331  0.1324253133134619
  0.4444443194974070  0.7611113413895296  0.8729173057721553
  0.5560461305322164  0.8727126463667005  0.6254925070559239
  0.7777779448487721  0.0944441366095674  0.3964547678862615
  0.2222705214266441  0.2054590135593912  0.3349723626807233
  0.1070962179166983  0.0966913984617719  0.0882144258850204
  0.8883067148995707  0.2049727227428804  0.8272034352203761
  0.7777776510720216  0.0944446833474970  0.5686000319551781
  0.5829292751453039  0.1918684465430260  0.3427120040887885
  0.4462123926467356  0.0966913757940020  0.0882144264539590
  0.2229902572028521  0.2040195514355929  0.8352942350936701
  0.1116598785535317  0.0938446970179498  0.5819947807182189
  0.8752023240330260  0.1918684635200378  0.3427120164212525
  0.7777776156134735  0.0944447807443893  0.0743101315213792
  0.5567206302231185  0.2049727092923348  0.8272034383650748
  0.4444954206771996  0.0938447032413379  0.5819947790797499
  0.2222705370154543  0.5389364798161935  0.3349723523378145
  0.1111109111727870  0.4277781816532880  0.0831817900118637
  0.8873536135317579  0.5396562680976018  0.8352941908513216
  0.7771773929071912  0.4283272061254095  0.5819948057924051
  0.5547150644003551  0.5405698975392426  0.3331056128211216
  0.4462123417831094  0.4237636221129861  0.0882143252811005
  0.2229901703212605  0.5396562550913728  0.8352941951730344
  0.1111108762927913  0.4277782376176091  0.5864545356416784
  0.8887930363725332  0.5389364813888520  0.3349723434736944
  0.7800240400853582  0.4237636300396233  0.0882143236160431
  0.5564449536135498  0.5371101316651590  0.8364886462010546
  0.4444953979096198  0.4283271917888527  0.5819948010444307
  0.2239038197174210  0.8713810792097973  0.3331055950649215
  0.1070962713967276  0.7628796548174819  0.0882143559535038
  0.8883067261157152  0.8733865884691454  0.8272034304307994
  0.7771774067020516  0.7611627367955833  0.5819947818076443
  0.5547151268373511  0.8713810787216545  0.3331056057519604
  0.4444441960178338  0.7611115875818797  0.0824433369337285
  0.2204440643645853  0.8731109731159492  0.8364886900393316
  0.1116598406089011  0.7611627405706614  0.5819947815446938
  0.8752023026755751  0.8995954256891281  0.3427120478394983
  0.7800240540232224  0.7628796533786755  0.0882143539289402
  0.5564449961566638  0.8731109669277899  0.8364886850013917
  0.4444442031633216  0.7611115719075130  0.5872486435623614
 
  0.00000000E+00  0.00000000E+00  0.00000000E+00
  0.00000000E+00  0.00000000E+00  0.00000000E+00
  0.00000000E+00  0.00000000E+00  0.00000000E+00
  0.00000000E+00  0.00000000E+00  0.00000000E+00
  0.00000000E+00  0.00000000E+00  0.00000000E+00
  0.00000000E+00  0.00000000E+00  0.00000000E+00
  0.00000000E+00  0.00000000E+00  0.00000000E+00
  0.00000000E+00  0.00000000E+00  0.00000000E+00
  0.00000000E+00  0.00000000E+00  0.00000000E+00
  0.00000000E+00  0.00000000E+00  0.00000000E+00
  0.00000000E+00  0.00000000E+00  0.00000000E+00
  0.00000000E+00  0.00000000E+00  0.00000000E+00
  0.00000000E+00  0.00000000E+00  0.00000000E+00
  0.00000000E+00  0.00000000E+00  0.00000000E+00
  0.00000000E+00  0.00000000E+00  0.00000000E+00
  0.00000000E+00  0.00000000E+00  0.00000000E+00
  0.00000000E+00  0.00000000E+00  0.00000000E+00
  0.00000000E+00  0.00000000E+00  0.00000000E+00
  0.00000000E+00  0.00000000E+00  0.00000000E+00
  0.00000000E+00  0.00000000E+00  0.00000000E+00
  0.00000000E+00  0.00000000E+00  0.00000000E+00
  0.00000000E+00  0.00000000E+00  0.00000000E+00
  0.00000000E+00  0.00000000E+00  0.00000000E+00
  0.00000000E+00  0.00000000E+00  0.00000000E+00
  0.00000000E+00  0.00000000E+00  0.00000000E+00
  0.00000000E+00  0.00000000E+00  0.00000000E+00
  0.00000000E+00  0.00000000E+00  0.00000000E+00
  0.00000000E+00  0.00000000E+00  0.00000000E+00
  0.00000000E+00  0.00000000E+00  0.00000000E+00
  0.00000000E+00  0.00000000E+00  0.00000000E+00
  0.00000000E+00  0.00000000E+00  0.00000000E+00
  0.00000000E+00  0.00000000E+00  0.00000000E+00
  0.00000000E+00  0.00000000E+00  0.00000000E+00
  0.00000000E+00  0.00000000E+00  0.00000000E+00
  0.00000000E+00  0.00000000E+00  0.00000000E+00
  0.00000000E+00  0.00000000E+00  0.00000000E+00
  0.00000000E+00  0.00000000E+00  0.00000000E+00
  0.00000000E+00  0.00000000E+00  0.00000000E+00
  0.00000000E+00  0.00000000E+00  0.00000000E+00
  0.00000000E+00  0.00000000E+00  0.00000000E+00
  0.00000000E+00  0.00000000E+00  0.00000000E+00
  0.00000000E+00  0.00000000E+00  0.00000000E+00
  0.00000000E+00  0.00000000E+00  0.00000000E+00
  0.00000000E+00  0.00000000E+00  0.00000000E+00
  0.00000000E+00  0.00000000E+00  0.00000000E+00
  0.00000000E+00  0.00000000E+00  0.00000000E+00
  0.00000000E+00  0.00000000E+00  0.00000000E+00
  0.00000000E+00  0.00000000E+00  0.00000000E+00
  0.00000000E+00  0.00000000E+00  0.00000000E+00
  0.00000000E+00  0.00000000E+00  0.00000000E+00
  0.00000000E+00  0.00000000E+00  0.00000000E+00
  0.00000000E+00  0.00000000E+00  0.00000000E+00
  0.00000000E+00  0.00000000E+00  0.00000000E+00
  0.00000000E+00  0.00000000E+00  0.00000000E+00
  0.00000000E+00  0.00000000E+00  0.00000000E+00
  0.00000000E+00  0.00000000E+00  0.00000000E+00
  0.00000000E+00  0.00000000E+00  0.00000000E+00
  0.00000000E+00  0.00000000E+00  0.00000000E+00
  0.00000000E+00  0.00000000E+00  0.00000000E+00
  0.00000000E+00  0.00000000E+00  0.00000000E+00
  0.00000000E+00  0.00000000E+00  0.00000000E+00
  0.00000000E+00  0.00000000E+00  0.00000000E+00
  0.00000000E+00  0.00000000E+00  0.00000000E+00
  0.00000000E+00  0.00000000E+00  0.00000000E+00
  0.00000000E+00  0.00000000E+00  0.00000000E+00
  0.00000000E+00  0.00000000E+00  0.00000000E+00
  0.00000000E+00  0.00000000E+00  0.00000000E+00
  0.00000000E+00  0.00000000E+00  0.00000000E+00
  0.00000000E+00  0.00000000E+00  0.00000000E+00
  0.00000000E+00  0.00000000E+00  0.00000000E+00
  0.00000000E+00  0.00000000E+00  0.00000000E+00
  0.00000000E+00  0.00000000E+00  0.00000000E+00
