Al   B    N                             
   1.00000000000000     
    -9.3432097310664926   -0.0000000433689255   -0.0000000964373014
    -4.6716049744577797    8.0914574514042794   -0.0000003691604568
    -0.0000004122312338    0.0000010235903576   -9.9834124768170032
   Al   B    N 
    35     1    36
Direct
  0.1076590192442382  0.0927369448512607  0.3945354816453914
  0.2221225905256290  0.2057544399039486  0.1445361025028191
  0.7777775503304909  0.0944443811638180  0.8925328454680468
  0.8876580393740596  0.2043243314176593  0.6378536327138136
  0.4496040021895737  0.0927365042814046  0.3945355434980513
  0.5611518487664995  0.2027571775306924  0.1485354067176843
  0.1093415230855612  0.0952003436074449  0.8941915132196385
  0.2223966977496801  0.2052065075053449  0.6443062561317134
  0.8860909776085393  0.2027569246583951  0.1485354408175894
  0.4454577376147100  0.0952004123826669  0.8941915863433820
  0.5580177451219157  0.2043245496442410  0.6378536210213284
  0.1111115449671018  0.4277775787823259  0.3951210639843410
  0.2221228867700873  0.5387898726728650  0.1445360000204019
  0.7785343611835955  0.4260076376126563  0.8941915599766119
  0.8885398190878675  0.5390634639510239  0.6443063849978188
  0.4496041021295483  0.4243264849747490  0.3945354291898795
  0.5556981247450636  0.5386042805655578  0.1442780824541430
  0.1111114999534806  0.4277775705181810  0.8944331840293600
  0.2223968945250263  0.5390637301365828  0.6443062900773668
  0.7760692971200243  0.4243267674711504  0.3945354638933694
  0.8890874012450425  0.5387896189316734  0.1445360126379711
  0.4454577969427049  0.4260078913029588  0.8941916442628042
  0.5555764611838470  0.5388476757472915  0.6448955155337757
  0.1076593952046494  0.7662704381547201  0.3945354867020683
  0.2219377607487516  0.8723643524115445  0.1442782196245531
  0.7785341105019796  0.7621246339227383  0.8941914254639727
  0.8876578424114072  0.8746849060703141  0.6378534952443147
  0.4444437435728403  0.7611119324425601  0.3947266035741492
  0.5556981735971291  0.8723640808910034  0.1442781664898618
  0.1093411856218793  0.7621248268241629  0.8941914424600910
  0.2221811788621579  0.8722426638285583  0.6448952023817753
  0.7760696055838636  0.7662702678344502  0.3945355916016240
  0.8860908467864874  0.8778186167431272  0.1485355303432385
  0.4444442336787162  0.7611113430379604  0.8945238359214329
  0.5555765345632082  0.8722424273210407  0.6448953575723237
  0.7777775546971029  0.0944446589377819  0.3981840259541585
  0.2225198052554376  0.2049604031642502  0.3358063973426937
  0.1087084520556303  0.0957291671087788  0.0866644375591079
  0.8880198345984738  0.2046861207931130  0.8303571777642560
  0.7777777044150511  0.0944447082134801  0.5635080391333176
  0.5805807475986882  0.1930430693416199  0.3424270572918999
  0.4455622259397742  0.0957291723218390  0.0866645559907013
  0.2224332829411111  0.2051331929463416  0.8357931826584561
  0.1116055429714748  0.0939593603145070  0.5847378079071461
  0.8763758743382084  0.1930432868523368  0.3424270151422206
  0.7777777321197874  0.0944443861510038  0.0813238883121414
  0.5572936885299526  0.2046863154280700  0.8303572483009134
  0.4444352513517202  0.0939592839538292  0.5847379531813885
  0.2225199414858210  0.5391864824339763  0.3358063036707435
  0.1111111140482350  0.4277779695887460  0.0852469600696395
  0.8884668317395139  0.5390999094739968  0.8357933240075823
  0.7772929262727217  0.4282720949108025  0.5847378385322557
  0.5552519403165022  0.5394960813184113  0.3347072748237636
  0.4455624290992830  0.4253749376030527  0.0866646133981561
  0.2224333071548799  0.5391002194920134  0.8357932314215333
  0.1111112499803255  0.4277779153735963  0.5858603605107291
  0.8882939358073116  0.5391863192631092  0.3358063664012718
  0.7790629756426597  0.4253746675316421  0.0866644985137413
  0.5557417828086386  0.5385164973366088  0.8360280347148219
  0.4444352581562612  0.4282722505869998  0.5847378619443617
  0.2228281890110324  0.8719193304588657  0.3347073724348846
  0.1087083080593985  0.7622292051418924  0.0866644020613592
  0.8880196888115606  0.8739606692441413  0.8303570698343137
  0.7772929989631692  0.7611018179023148  0.5847379394061889
  0.5552521872384872  0.8719190779067034  0.3347073316059692
  0.4444444771077301  0.7611111129248798  0.0851419507276958
  0.2218498672656537  0.8724083101328404  0.8360276932858781
  0.1116054545788430  0.7611019288685128  0.5847377991838840
  0.8763760072630475  0.8972474990950374  0.3424270821588777
  0.7790628511543858  0.7622290066700899  0.0866644049505823
  0.5557418103703924  0.8724082265263604  0.8360278207296972
  0.4444445482609680  0.7611111181862000  0.5858718355258787
 
  0.00000000E+00  0.00000000E+00  0.00000000E+00
  0.00000000E+00  0.00000000E+00  0.00000000E+00
  0.00000000E+00  0.00000000E+00  0.00000000E+00
  0.00000000E+00  0.00000000E+00  0.00000000E+00
  0.00000000E+00  0.00000000E+00  0.00000000E+00
  0.00000000E+00  0.00000000E+00  0.00000000E+00
  0.00000000E+00  0.00000000E+00  0.00000000E+00
  0.00000000E+00  0.00000000E+00  0.00000000E+00
  0.00000000E+00  0.00000000E+00  0.00000000E+00
  0.00000000E+00  0.00000000E+00  0.00000000E+00
  0.00000000E+00  0.00000000E+00  0.00000000E+00
  0.00000000E+00  0.00000000E+00  0.00000000E+00
  0.00000000E+00  0.00000000E+00  0.00000000E+00
  0.00000000E+00  0.00000000E+00  0.00000000E+00
  0.00000000E+00  0.00000000E+00  0.00000000E+00
  0.00000000E+00  0.00000000E+00  0.00000000E+00
  0.00000000E+00  0.00000000E+00  0.00000000E+00
  0.00000000E+00  0.00000000E+00  0.00000000E+00
  0.00000000E+00  0.00000000E+00  0.00000000E+00
  0.00000000E+00  0.00000000E+00  0.00000000E+00
  0.00000000E+00  0.00000000E+00  0.00000000E+00
  0.00000000E+00  0.00000000E+00  0.00000000E+00
  0.00000000E+00  0.00000000E+00  0.00000000E+00
  0.00000000E+00  0.00000000E+00  0.00000000E+00
  0.00000000E+00  0.00000000E+00  0.00000000E+00
  0.00000000E+00  0.00000000E+00  0.00000000E+00
  0.00000000E+00  0.00000000E+00  0.00000000E+00
  0.00000000E+00  0.00000000E+00  0.00000000E+00
  0.00000000E+00  0.00000000E+00  0.00000000E+00
  0.00000000E+00  0.00000000E+00  0.00000000E+00
  0.00000000E+00  0.00000000E+00  0.00000000E+00
  0.00000000E+00  0.00000000E+00  0.00000000E+00
  0.00000000E+00  0.00000000E+00  0.00000000E+00
  0.00000000E+00  0.00000000E+00  0.00000000E+00
  0.00000000E+00  0.00000000E+00  0.00000000E+00
  0.00000000E+00  0.00000000E+00  0.00000000E+00
  0.00000000E+00  0.00000000E+00  0.00000000E+00
  0.00000000E+00  0.00000000E+00  0.00000000E+00
  0.00000000E+00  0.00000000E+00  0.00000000E+00
  0.00000000E+00  0.00000000E+00  0.00000000E+00
  0.00000000E+00  0.00000000E+00  0.00000000E+00
  0.00000000E+00  0.00000000E+00  0.00000000E+00
  0.00000000E+00  0.00000000E+00  0.00000000E+00
  0.00000000E+00  0.00000000E+00  0.00000000E+00
  0.00000000E+00  0.00000000E+00  0.00000000E+00
  0.00000000E+00  0.00000000E+00  0.00000000E+00
  0.00000000E+00  0.00000000E+00  0.00000000E+00
  0.00000000E+00  0.00000000E+00  0.00000000E+00
  0.00000000E+00  0.00000000E+00  0.00000000E+00
  0.00000000E+00  0.00000000E+00  0.00000000E+00
  0.00000000E+00  0.00000000E+00  0.00000000E+00
  0.00000000E+00  0.00000000E+00  0.00000000E+00
  0.00000000E+00  0.00000000E+00  0.00000000E+00
  0.00000000E+00  0.00000000E+00  0.00000000E+00
  0.00000000E+00  0.00000000E+00  0.00000000E+00
  0.00000000E+00  0.00000000E+00  0.00000000E+00
  0.00000000E+00  0.00000000E+00  0.00000000E+00
  0.00000000E+00  0.00000000E+00  0.00000000E+00
  0.00000000E+00  0.00000000E+00  0.00000000E+00
  0.00000000E+00  0.00000000E+00  0.00000000E+00
  0.00000000E+00  0.00000000E+00  0.00000000E+00
  0.00000000E+00  0.00000000E+00  0.00000000E+00
  0.00000000E+00  0.00000000E+00  0.00000000E+00
  0.00000000E+00  0.00000000E+00  0.00000000E+00
  0.00000000E+00  0.00000000E+00  0.00000000E+00
  0.00000000E+00  0.00000000E+00  0.00000000E+00
  0.00000000E+00  0.00000000E+00  0.00000000E+00
  0.00000000E+00  0.00000000E+00  0.00000000E+00
  0.00000000E+00  0.00000000E+00  0.00000000E+00
  0.00000000E+00  0.00000000E+00  0.00000000E+00
  0.00000000E+00  0.00000000E+00  0.00000000E+00
  0.00000000E+00  0.00000000E+00  0.00000000E+00
