supercell of icsd_181358.cif            
   1.00000000000000     
     9.7089539513513472    0.0015048566424930   -0.0005179415783710
    -4.8531737378826998    8.4059282388125975   -0.0000001235164329
    -0.0005614528012138   -0.0003243141841577   10.5122720547711914
   N    Ga   Sc
    36    34     2
Direct
  0.2293457291423238  0.1259469963397706  0.4345933938580231
  0.1030690647990582  0.2086185764974928  0.1836914412548367
  0.8872871934782083  0.1105038226738131  0.9374381135454541
  0.7775624215095363  0.2221144386971545  0.6879931840466398
  0.5552471344695036  0.1109571358846253  0.4386859765552629
  0.4457844444905277  0.2230420303527225  0.1881066623124568
  0.2234720038598610  0.1112674709199979  0.9404859757906721
  0.1108009708668050  0.2212450308482303  0.6917455347227204
  0.8891895723745051  0.1109840420438886  0.4392771667701609
  0.7779816586403285  0.2223238802272789  0.1890309148446647
  0.5557760024670628  0.1112214000154594  0.9382888345529494
  0.4442637621688590  0.2220485377291013  0.6885108705373995
  0.2223119391965938  0.4444893061090838  0.4491743754019950
  0.1030689502995727  0.5611166714696836  0.1836918326340964
  0.8872867881925472  0.4434499402108827  0.9374380597995113
  0.7778854816925787  0.5559660824930788  0.6886802975970951
  0.5554007098487332  0.4448113427125975  0.4387662692570302
  0.4589874448320117  0.5628267979707360  0.1846406128186615
  0.2224688773799954  0.4445682934775732  0.9414732205307388
  0.1108010244997431  0.5562223507797981  0.6917453921429129
  0.8891897744165362  0.4448725301258705  0.4392773354703223
  0.7772284274356025  0.5543203233477314  0.1876548561491020
  0.5561788425516312  0.4437964148898459  0.9375943392080615
  0.4453113222627536  0.5559888967063813  0.6910637728342763
  0.2293456883683049  0.7700658006448222  0.4345933709364829
  0.1108238499827081  0.8887451100142840  0.1917133769618218
  0.8881054698746738  0.7773861121882675  0.9413752323890776
  0.7778854390487027  0.8885857410794955  0.6886803370790275
  0.5554003014386453  0.7772560766470349  0.4387661879693994
  0.4457842666065019  0.8894088385919403  0.1881066838507266
  0.2234718420373483  0.7788714174842184  0.9404860142265292
  0.1108171480294757  0.8887417292105795  0.6980400293906328
  0.8744687247394154  0.7705679675140189  0.4342155282553009
  0.7772279828599196  0.8895740355600452  0.1876549620709440
  0.5561789835843811  0.7790494913641339  0.9375944749536274
  0.4442638329071613  0.8888817091195307  0.6885107578792358
  0.2232160996260930  0.1121192238753466  0.2477452774057838
  0.1086575507143550  0.2188572088740841  0.9980341041844270
  0.8878200963532663  0.1105775383527785  0.7499015222045742
  0.7776533227467013  0.2221597456123234  0.4997680326811675
  0.5557396942084480  0.1112035444069477  0.2500970986892952
  0.4455605879740361  0.2226939405933877  0.0001859349179583
  0.2231295091548233  0.1114341311028895  0.7532646285786839
  0.1115298281682655  0.2240627935001456  0.5034332899981351
  0.8869206611758997  0.1083407006274300  0.2501009683419610
  0.7775965718237359  0.2221311406838851  0.0001141698353280
  0.5556295941632712  0.1111483934474791  0.7497408570825641
  0.4464098402653036  0.2251754822318119  0.4997101968962667
  0.1086565482760662  0.5564666976533132  0.9980346248844327
  0.8878202337444705  0.4439098250660081  0.7499014468914424
  0.7749403570920919  0.5538507531261345  0.5000521224019678
  0.5585775539670266  0.4454194638273350  0.2500840925077412
  0.4483911895972952  0.5575287889653424  0.9981394649157664
  0.2224311496496654  0.4445492589316800  0.7514105014948456
  0.1115301379855467  0.5541332306943545  0.5034331813154793
  0.8869203749665218  0.4452464685533926  0.2501013588539180
  0.7772075014622501  0.5544703725343041  0.0001995649467048
  0.5560053362602488  0.4440806470117025  0.7501725228555784
  0.4453443916979651  0.5560052100125716  0.5030275486456262
  0.2232160668598340  0.7777641175286973  0.2477452642709252
  0.1112090316533738  0.8889375648930624  0.0014130016064229
  0.8880004033422395  0.7773336593257341  0.7532640109695663
  0.7749396437679437  0.8877556169066096  0.5000521894369356
  0.5585766470698488  0.7798247530217921  0.2500840991656901
  0.4455604322878699  0.8895327428605526  0.0001859313390540
  0.2231296030184922  0.7783624261675968  0.7532645929082236
  0.8848295670078414  0.7757482736463643  0.2476684764999462
  0.7772077343937553  0.8894032981843267  0.0001997997765173
  0.5560053408487846  0.7785919619547883  0.7501727233570890
  0.4464099711937237  0.8879008614725379  0.4997098836510716
  0.2224602235624999  0.4445634767440296  0.2479419609878022
  0.1110941335683293  0.8888803456681060  0.4968601669032893
 
  0.00000000E+00  0.00000000E+00  0.00000000E+00
  0.00000000E+00  0.00000000E+00  0.00000000E+00
  0.00000000E+00  0.00000000E+00  0.00000000E+00
  0.00000000E+00  0.00000000E+00  0.00000000E+00
  0.00000000E+00  0.00000000E+00  0.00000000E+00
  0.00000000E+00  0.00000000E+00  0.00000000E+00
  0.00000000E+00  0.00000000E+00  0.00000000E+00
  0.00000000E+00  0.00000000E+00  0.00000000E+00
  0.00000000E+00  0.00000000E+00  0.00000000E+00
  0.00000000E+00  0.00000000E+00  0.00000000E+00
  0.00000000E+00  0.00000000E+00  0.00000000E+00
  0.00000000E+00  0.00000000E+00  0.00000000E+00
  0.00000000E+00  0.00000000E+00  0.00000000E+00
  0.00000000E+00  0.00000000E+00  0.00000000E+00
  0.00000000E+00  0.00000000E+00  0.00000000E+00
  0.00000000E+00  0.00000000E+00  0.00000000E+00
  0.00000000E+00  0.00000000E+00  0.00000000E+00
  0.00000000E+00  0.00000000E+00  0.00000000E+00
  0.00000000E+00  0.00000000E+00  0.00000000E+00
  0.00000000E+00  0.00000000E+00  0.00000000E+00
  0.00000000E+00  0.00000000E+00  0.00000000E+00
  0.00000000E+00  0.00000000E+00  0.00000000E+00
  0.00000000E+00  0.00000000E+00  0.00000000E+00
  0.00000000E+00  0.00000000E+00  0.00000000E+00
  0.00000000E+00  0.00000000E+00  0.00000000E+00
  0.00000000E+00  0.00000000E+00  0.00000000E+00
  0.00000000E+00  0.00000000E+00  0.00000000E+00
  0.00000000E+00  0.00000000E+00  0.00000000E+00
  0.00000000E+00  0.00000000E+00  0.00000000E+00
  0.00000000E+00  0.00000000E+00  0.00000000E+00
  0.00000000E+00  0.00000000E+00  0.00000000E+00
  0.00000000E+00  0.00000000E+00  0.00000000E+00
  0.00000000E+00  0.00000000E+00  0.00000000E+00
  0.00000000E+00  0.00000000E+00  0.00000000E+00
  0.00000000E+00  0.00000000E+00  0.00000000E+00
  0.00000000E+00  0.00000000E+00  0.00000000E+00
  0.00000000E+00  0.00000000E+00  0.00000000E+00
  0.00000000E+00  0.00000000E+00  0.00000000E+00
  0.00000000E+00  0.00000000E+00  0.00000000E+00
  0.00000000E+00  0.00000000E+00  0.00000000E+00
  0.00000000E+00  0.00000000E+00  0.00000000E+00
  0.00000000E+00  0.00000000E+00  0.00000000E+00
  0.00000000E+00  0.00000000E+00  0.00000000E+00
  0.00000000E+00  0.00000000E+00  0.00000000E+00
  0.00000000E+00  0.00000000E+00  0.00000000E+00
  0.00000000E+00  0.00000000E+00  0.00000000E+00
  0.00000000E+00  0.00000000E+00  0.00000000E+00
  0.00000000E+00  0.00000000E+00  0.00000000E+00
  0.00000000E+00  0.00000000E+00  0.00000000E+00
  0.00000000E+00  0.00000000E+00  0.00000000E+00
  0.00000000E+00  0.00000000E+00  0.00000000E+00
  0.00000000E+00  0.00000000E+00  0.00000000E+00
  0.00000000E+00  0.00000000E+00  0.00000000E+00
  0.00000000E+00  0.00000000E+00  0.00000000E+00
  0.00000000E+00  0.00000000E+00  0.00000000E+00
  0.00000000E+00  0.00000000E+00  0.00000000E+00
  0.00000000E+00  0.00000000E+00  0.00000000E+00
  0.00000000E+00  0.00000000E+00  0.00000000E+00
  0.00000000E+00  0.00000000E+00  0.00000000E+00
  0.00000000E+00  0.00000000E+00  0.00000000E+00
  0.00000000E+00  0.00000000E+00  0.00000000E+00
  0.00000000E+00  0.00000000E+00  0.00000000E+00
  0.00000000E+00  0.00000000E+00  0.00000000E+00
  0.00000000E+00  0.00000000E+00  0.00000000E+00
  0.00000000E+00  0.00000000E+00  0.00000000E+00
  0.00000000E+00  0.00000000E+00  0.00000000E+00
  0.00000000E+00  0.00000000E+00  0.00000000E+00
  0.00000000E+00  0.00000000E+00  0.00000000E+00
  0.00000000E+00  0.00000000E+00  0.00000000E+00
  0.00000000E+00  0.00000000E+00  0.00000000E+00
  0.00000000E+00  0.00000000E+00  0.00000000E+00
  0.00000000E+00  0.00000000E+00  0.00000000E+00
