POSCAR                                  
  0.891000000000000     
    -0.0003787821579290   -7.0107803298600002    2.3184454533199998
     9.2959539460199974    2.3397968418800001    2.3255972691500002
    -9.2956081100300008    4.6852231100200008   13.9465298686000008
   Al   Tb   N 
    45     3    48
Direct
  0.5780599674477003  0.4055616825099406  0.1638728727541192
  0.1665638483061755  0.3284784736372757  0.0807202461131880
  0.0016568888170738  0.4866698595319221  0.2480256747590204
  0.4994383223192287  0.4982648362054434  0.9987320321114197
  0.3320302630326211  0.6592825164741782  0.1602323204419136
  0.5003088089900558  0.0054702223996159  0.2473152732535269
  0.0812730510327597  0.4183788182719113  0.9183652877204764
  0.9211548553418112  0.5765738796750739  0.0773712550926220
  0.5894916486612019  0.4228011518146602  0.6660790038063453
  0.4220871350281570  0.5912682265040985  0.8342669339740354
  0.2506369906332111  0.7495909133789596  0.9981158199283371
  0.0887574138796978  0.9219662003606501  0.1597102840715934
  0.5829752217756479  0.9166705608976855  0.9161948491567031
  0.4169156533980640  0.0813241144783703  0.0813755562826941
  0.2510451325406393  0.2515334748753446  0.2481913231532289
  0.6701788795707557  0.3364163914181901  0.8361490207170377
  0.1661700347453419  0.3390333557962393  0.5817049390945925
  0.9962076823688690  0.5060904659783958  0.7505439871854591
  0.8330538350663659  0.6686312862026824  0.9164071965712779
  0.6649404368601779  0.8360374904545509  0.0779297853961509
  0.4996954540634420  0.5018725098450858  0.5022699903784797
  0.3353175089994878  0.6703005527583556  0.6678170472054319
  0.1659052308874465  0.8306019551510317  0.8342095062735666
  0.9994861550274265  0.9991277397361529  0.9979896107390189
  0.8330663979514057  0.1675002359023594  0.1637659995808747
  0.5043767859476134  0.9951486722405249  0.7511636967629656
  0.3348016149349604  0.1616821833173248  0.9192786515665006
  0.0832234801106182  0.4156975402082708  0.4181227700693597
  0.9174395038712078  0.5835661026564125  0.5849249147512268
  0.7509006798953379  0.7508341654385404  0.7507520141753403
  0.4158337914579064  0.5772206059517941  0.3354512994668397
  0.2517152612198359  0.7477868641499157  0.5047862400448508
  0.0792240216537721  0.9095848198349117  0.6670255960858995
  0.9110033396061610  0.0794222194040088  0.8352355282638939
  0.7490739061856999  0.2471681683812719  0.9991564402950601
  0.5833842505986340  0.9226890156946013  0.4223120408580456
  0.4232212971916098  0.0847303606632153  0.5842216267019893
  0.6642451508521106  0.3310635543889546  0.3343865842933127
  0.8270179422541446  0.6597187840249106  0.4229789228875660
  0.6671923028830307  0.8329013880240055  0.5854036251696471
  0.9912830812222140  0.0043538851043223  0.5037402705075067
  0.8298950993786036  0.1663223375431784  0.6658715230423837
  0.3377458269947340  0.1767110114988597  0.4190174669871354
  0.9144607902064976  0.0968071351642763  0.3340711279947328
  0.7498220500127246  0.2544813891901612  0.5017568311281835
  0.7549114615457739  0.7458908556623953  0.2461647331817645
  0.2497246936178996  0.2505169147322945  0.7506703302100775
  0.1613935774358666  0.8368454679945359  0.3363726722565517
  0.7956924403821048  0.4586077070214287  0.9586387070148561
  0.3896393906295259  0.3841492776013453  0.8838619970844093
  0.2071575150119997  0.5362350119570678  0.0370777898444885
  0.7087639122319729  0.5448802918312481  0.7920365914695040
  0.5423457201009683  0.7115663189305437  0.9569359786067437
  0.7080446843100106  0.0409954986485559  0.0387614629714861
  0.2965370940159104  0.4766799037544658  0.7061947263459700
  0.1258980729811157  0.6263035440988460  0.8745934495451237
  0.9575073905996305  0.7921355791058957  0.0392419101341801
  0.7893606835821387  0.4578193345591686  0.4617237719008358
  0.6282956301914169  0.6274883146715879  0.6259569487913552
  0.4624199510174947  0.7932407228674805  0.7926889886392487
  0.2913299939320240  0.9562485099884270  0.9585119269050537
  0.7926538373839946  0.9567763915066365  0.7095319781782123
  0.6235908873809919  0.1232715289459847  0.8754962122573531
  0.4578080666072211  0.2856487034728659  0.0409128297691268
  0.8771860037408956  0.3783109570987762  0.6256515238594815
  0.3757064735560363  0.3760710455815328  0.3769375769609127
  0.2091381486465025  0.5435079234671534  0.5432588417575488
  0.0387782799283158  0.7079292255427703  0.7089851007530612
  0.8731109854646419  0.8743042691561485  0.8753366200145507
  0.7042891108763811  0.5238295886735145  0.2955281197776003
  0.5400890051330904  0.7072068401372391  0.4611650142486496
  0.3752280731337123  0.8737775379681096  0.6274589131049382
  0.2050424190081728  0.0244018799439658  0.7953917318007910
  0.0416972983697832  0.2062719984253150  0.9571478562021554
  0.7061188799189750  0.0457856057308348  0.5451784980360586
  0.5619748849468067  0.2054686992801891  0.7052624817985205
  0.2916237930030832  0.4525733833664702  0.2072363164088671
  0.1203210535493895  0.6083553802549986  0.3792185098219107
  0.9581698567387491  0.7887822832904803  0.5436045497275543
  0.6108376697768065  0.6122708775419881  0.1138650982674889
  0.4578392971183121  0.7905958765542422  0.2912643883020962
  0.3063837553897386  0.9696946766709473  0.4687164867400213
  0.1118299243882674  0.1174516042555069  0.6169882275980783
  0.9382723608699735  0.2972179945907243  0.7967710536437878
  0.7951613712683567  0.9744095967553079  0.2029971983559733
  0.6242342514446761  0.1299139575176156  0.3752379490101916
  0.4589971999262161  0.2967292141711795  0.5433072719056042
  0.8733747527638229  0.3697698965381164  0.1232812446358977
  0.0589348731208190  0.6907812953255927  0.1920584812530208
  0.8563975429063859  0.8912900774971106  0.3902004628144766
  0.3765701935473231  0.8752911018347120  0.1222457607717971
  0.2111849912599553  0.0588357497913137  0.2871220771714462
  0.0421472965634635  0.2141672124009801  0.4583796447755262
  0.5402995499690419  0.2064535434097152  0.2059769884494642
  0.1258566790460378  0.1243819858995607  0.1209532285879646
  0.9578520284460268  0.2915317268394517  0.2908867915247271
 
  0.00000000E+00  0.00000000E+00  0.00000000E+00
  0.00000000E+00  0.00000000E+00  0.00000000E+00
  0.00000000E+00  0.00000000E+00  0.00000000E+00
  0.00000000E+00  0.00000000E+00  0.00000000E+00
  0.00000000E+00  0.00000000E+00  0.00000000E+00
  0.00000000E+00  0.00000000E+00  0.00000000E+00
  0.00000000E+00  0.00000000E+00  0.00000000E+00
  0.00000000E+00  0.00000000E+00  0.00000000E+00
  0.00000000E+00  0.00000000E+00  0.00000000E+00
  0.00000000E+00  0.00000000E+00  0.00000000E+00
  0.00000000E+00  0.00000000E+00  0.00000000E+00
  0.00000000E+00  0.00000000E+00  0.00000000E+00
  0.00000000E+00  0.00000000E+00  0.00000000E+00
  0.00000000E+00  0.00000000E+00  0.00000000E+00
  0.00000000E+00  0.00000000E+00  0.00000000E+00
  0.00000000E+00  0.00000000E+00  0.00000000E+00
  0.00000000E+00  0.00000000E+00  0.00000000E+00
  0.00000000E+00  0.00000000E+00  0.00000000E+00
  0.00000000E+00  0.00000000E+00  0.00000000E+00
  0.00000000E+00  0.00000000E+00  0.00000000E+00
  0.00000000E+00  0.00000000E+00  0.00000000E+00
  0.00000000E+00  0.00000000E+00  0.00000000E+00
  0.00000000E+00  0.00000000E+00  0.00000000E+00
  0.00000000E+00  0.00000000E+00  0.00000000E+00
  0.00000000E+00  0.00000000E+00  0.00000000E+00
  0.00000000E+00  0.00000000E+00  0.00000000E+00
  0.00000000E+00  0.00000000E+00  0.00000000E+00
  0.00000000E+00  0.00000000E+00  0.00000000E+00
  0.00000000E+00  0.00000000E+00  0.00000000E+00
  0.00000000E+00  0.00000000E+00  0.00000000E+00
  0.00000000E+00  0.00000000E+00  0.00000000E+00
  0.00000000E+00  0.00000000E+00  0.00000000E+00
  0.00000000E+00  0.00000000E+00  0.00000000E+00
  0.00000000E+00  0.00000000E+00  0.00000000E+00
  0.00000000E+00  0.00000000E+00  0.00000000E+00
  0.00000000E+00  0.00000000E+00  0.00000000E+00
  0.00000000E+00  0.00000000E+00  0.00000000E+00
  0.00000000E+00  0.00000000E+00  0.00000000E+00
  0.00000000E+00  0.00000000E+00  0.00000000E+00
  0.00000000E+00  0.00000000E+00  0.00000000E+00
  0.00000000E+00  0.00000000E+00  0.00000000E+00
  0.00000000E+00  0.00000000E+00  0.00000000E+00
  0.00000000E+00  0.00000000E+00  0.00000000E+00
  0.00000000E+00  0.00000000E+00  0.00000000E+00
  0.00000000E+00  0.00000000E+00  0.00000000E+00
  0.00000000E+00  0.00000000E+00  0.00000000E+00
  0.00000000E+00  0.00000000E+00  0.00000000E+00
  0.00000000E+00  0.00000000E+00  0.00000000E+00
  0.00000000E+00  0.00000000E+00  0.00000000E+00
  0.00000000E+00  0.00000000E+00  0.00000000E+00
  0.00000000E+00  0.00000000E+00  0.00000000E+00
  0.00000000E+00  0.00000000E+00  0.00000000E+00
  0.00000000E+00  0.00000000E+00  0.00000000E+00
  0.00000000E+00  0.00000000E+00  0.00000000E+00
  0.00000000E+00  0.00000000E+00  0.00000000E+00
  0.00000000E+00  0.00000000E+00  0.00000000E+00
  0.00000000E+00  0.00000000E+00  0.00000000E+00
  0.00000000E+00  0.00000000E+00  0.00000000E+00
  0.00000000E+00  0.00000000E+00  0.00000000E+00
  0.00000000E+00  0.00000000E+00  0.00000000E+00
  0.00000000E+00  0.00000000E+00  0.00000000E+00
  0.00000000E+00  0.00000000E+00  0.00000000E+00
  0.00000000E+00  0.00000000E+00  0.00000000E+00
  0.00000000E+00  0.00000000E+00  0.00000000E+00
  0.00000000E+00  0.00000000E+00  0.00000000E+00
  0.00000000E+00  0.00000000E+00  0.00000000E+00
  0.00000000E+00  0.00000000E+00  0.00000000E+00
  0.00000000E+00  0.00000000E+00  0.00000000E+00
  0.00000000E+00  0.00000000E+00  0.00000000E+00
  0.00000000E+00  0.00000000E+00  0.00000000E+00
  0.00000000E+00  0.00000000E+00  0.00000000E+00
  0.00000000E+00  0.00000000E+00  0.00000000E+00
  0.00000000E+00  0.00000000E+00  0.00000000E+00
  0.00000000E+00  0.00000000E+00  0.00000000E+00
  0.00000000E+00  0.00000000E+00  0.00000000E+00
  0.00000000E+00  0.00000000E+00  0.00000000E+00
  0.00000000E+00  0.00000000E+00  0.00000000E+00
  0.00000000E+00  0.00000000E+00  0.00000000E+00
  0.00000000E+00  0.00000000E+00  0.00000000E+00
  0.00000000E+00  0.00000000E+00  0.00000000E+00
  0.00000000E+00  0.00000000E+00  0.00000000E+00
  0.00000000E+00  0.00000000E+00  0.00000000E+00
  0.00000000E+00  0.00000000E+00  0.00000000E+00
  0.00000000E+00  0.00000000E+00  0.00000000E+00
  0.00000000E+00  0.00000000E+00  0.00000000E+00
  0.00000000E+00  0.00000000E+00  0.00000000E+00
  0.00000000E+00  0.00000000E+00  0.00000000E+00
  0.00000000E+00  0.00000000E+00  0.00000000E+00
  0.00000000E+00  0.00000000E+00  0.00000000E+00
  0.00000000E+00  0.00000000E+00  0.00000000E+00
  0.00000000E+00  0.00000000E+00  0.00000000E+00
  0.00000000E+00  0.00000000E+00  0.00000000E+00
  0.00000000E+00  0.00000000E+00  0.00000000E+00
  0.00000000E+00  0.00000000E+00  0.00000000E+00
  0.00000000E+00  0.00000000E+00  0.00000000E+00
  0.00000000E+00  0.00000000E+00  0.00000000E+00
