0% icsd_608626.cif, 100% icsd_608626.ci 
   1.00000000000000     
    -3.3113015154949612   -0.0000001723106352   -0.0000000051743198
    -1.6556501820722813    2.8676715180128913   -0.0000000214701960
    -0.0000000008070763   -0.0000000231327646   -4.1881524198054505
   Al   N 
     2     2
Direct
  0.3333333767705540  0.2833343375175161  0.7092200305016547
  0.6666668068267398  0.6166677608641749  0.2092200303303997
  0.6666667430064734  0.6166676936094078  0.7092167454877014
  0.3333334406175936  0.2833344051247337  0.2092167451430527
 
  0.00000000E+00  0.00000000E+00  0.00000000E+00
  0.00000000E+00  0.00000000E+00  0.00000000E+00
  0.00000000E+00  0.00000000E+00  0.00000000E+00
  0.00000000E+00  0.00000000E+00  0.00000000E+00
