0% icsd_608626.cif, 100% icsd_608626.ci 
   1.00000000000000     
    -3.1289120180834220   -0.0000001724353412   -0.0000000036057616
    -1.5644557512569222    2.7097185392170071   -0.0000000208010165
     0.0000000107292954   -0.0000000377233561   -5.0119676196257190
   Al   N 
     2     2
Direct
  0.3333333623976529  0.2833341800331084  0.6333689882841895
  0.6666667700219193  0.6166673312507669  0.1333689886507301
  0.6666666466554574  0.6166676591091544  0.7516607179896084
  0.3333334852487084  0.2833338519400854  0.2516607179633610
 
  0.00000000E+00  0.00000000E+00  0.00000000E+00
  0.00000000E+00  0.00000000E+00  0.00000000E+00
  0.00000000E+00  0.00000000E+00  0.00000000E+00
  0.00000000E+00  0.00000000E+00  0.00000000E+00
