supercell of POSCAR                     
   1.07329600000000     
     9.1016125577399993   -5.3128209557800004   -9.4184911254399992
     9.0821131104399999    5.2871675818400004    9.4140884809200003
    -1.5053809694200000   -7.9210976524300012    4.6939078171600004
   Al   Sc   N 
    72    24    96
Direct
  0.3030019318047223  0.2866290225128978  0.5391655236418345
  0.1422103998156672  0.2422663859700904  0.3039619847639372
  0.3079014579079811  0.4079596788171855  0.3023810282784751
  0.4667479425108141  0.3267702734476572  0.7900029423940609
  0.1396595272740910  0.4973941946288534  0.7877984708206753
  0.2998083499551214  0.1632311601658571  0.7824398245997202
  0.4700124679266580  0.4482342411079685  0.5356955226061118
  0.1414394769310618  0.1193310269224881  0.5397822400678152
  0.4759666155283071  0.0732097801195835  0.2950478553026912
  0.2770646078182395  0.1082179553778388  0.3343256640131642
  0.1142254584242295  0.0684888755810249  0.0934743902989368
  0.1134183868366208  0.1968753465637221  0.8234117929748237
  0.2752390682277550  0.3584771359689469  0.8201467362284376
  0.1109728546682973  0.3237446224452469  0.5872893542591271
  0.2723609337368345  0.4853084403582955  0.5787860435264776
  0.4471717413535714  0.2783050370960112  0.3347364567249826
  0.1113036659385713  0.4444074713958841  0.3366274764707029
  0.4474319072291948  0.4018923431593180  0.0945442680393072
  0.8030019318047223  0.2866290225129049  0.5391655236418345
  0.6422103998156672  0.2422663859700904  0.3039619847639372
  0.8079014579079811  0.4079596788171855  0.3023810282784751
  0.9667479425108141  0.3267702734476572  0.7900029423940609
  0.6396595272740910  0.4973941946288534  0.7877984708206753
  0.7998083499551214  0.1632311601658571  0.7824398245997202
  0.9700124679266580  0.4482342411079685  0.5356955226061118
  0.6414394769310618  0.1193310269224881  0.5397822400678152
  0.9759666155283071  0.0732097801195835  0.2950478553026912
  0.7770646078182395  0.1082179553778388  0.3343256640131642
  0.6142254584242295  0.0684888755810249  0.0934743902989368
  0.6134183868366208  0.1968753465637221  0.8234117929748237
  0.7752390682277479  0.3584771359689469  0.8201467362284376
  0.6109728546682973  0.3237446224452469  0.5872893542591271
  0.7723609337368345  0.4853084403582955  0.5787860435264776
  0.9471717413535714  0.2783050370960112  0.3347364567249826
  0.6113036659385713  0.4444074713958912  0.3366274764707029
  0.9474319072291948  0.4018923431593180  0.0945442680393072
  0.3030019318047223  0.7866290225128978  0.5391655236418345
  0.1422103998156672  0.7422663859700904  0.3039619847639372
  0.3079014579079811  0.9079596788171855  0.3023810282784751
  0.4667479425108141  0.8267702734476572  0.7900029423940609
  0.1396595272740910  0.9973941946288534  0.7877984708206753
  0.2998083499551214  0.6632311601658571  0.7824398245997202
  0.4700124679266580  0.9482342411079685  0.5356955226061118
  0.1414394769310618  0.6193310269224810  0.5397822400678152
  0.4759666155283071  0.5732097801195764  0.2950478553026912
  0.2770646078182395  0.6082179553778388  0.3343256640131642
  0.1142254584242295  0.5684888755810249  0.0934743902989368
  0.1134183868366208  0.6968753465637221  0.8234117929748237
  0.2752390682277479  0.8584771359689469  0.8201467362284376
  0.1109728546682973  0.8237446224452469  0.5872893542591271
  0.2723609337368345  0.9853084403582955  0.5787860435264776
  0.4471717413535714  0.7783050370960112  0.3347364567249826
  0.1113036659385713  0.9444074713958912  0.3366274764707029
  0.4474319072291948  0.9018923431593180  0.0945442680393072
  0.8030019318047223  0.7866290225129049  0.5391655236418345
  0.6422103998156672  0.7422663859700904  0.3039619847639372
  0.8079014579079811  0.9079596788171855  0.3023810282784751
  0.9667479425108141  0.8267702734476643  0.7900029423940609
  0.6396595272740910  0.9973941946288534  0.7877984708206753
  0.7998083499551214  0.6632311601658571  0.7824398245997202
  0.9700124679266580  0.9482342411079685  0.5356955226061118
  0.6414394769310618  0.6193310269224810  0.5397822400678152
  0.9759666155283071  0.5732097801195835  0.2950478553026912
  0.7770646078182395  0.6082179553778388  0.3343256640131642
  0.6142254584242295  0.5684888755810249  0.0934743902989368
  0.6134183868366208  0.6968753465637221  0.8234117929748237
  0.7752390682277479  0.8584771359689469  0.8201467362284376
  0.6109728546682973  0.8237446224452469  0.5872893542591271
  0.7723609337368345  0.9853084403582955  0.5787860435264776
  0.9471717413535714  0.7783050370960112  0.3347364567249826
  0.6113036659385713  0.9444074713958841  0.3366274764707029
  0.9474319072291948  0.9018923431593180  0.0945442680393072
  0.4814054604064850  0.1969219719757263  0.0385350776647186
  0.1408125239979086  0.3651812499540625  0.0365046790908607
  0.3094205381667265  0.0246424641969938  0.0381858957987262
  0.2837185442301760  0.2304704552396899  0.0813291614319382
  0.4468520730429049  0.0222273937090094  0.8227557444954314
  0.4446055056618832  0.1526833600803528  0.5739892072219135
  0.9814054604064850  0.1969219719757263  0.0385350776647186
  0.6408125239979086  0.3651812499540625  0.0365046790908607
  0.8094205381667336  0.0246424641970009  0.0381858957987262
  0.7837185442301760  0.2304704552396899  0.0813291614319382
  0.9468520730429049  0.0222273937090094  0.8227557444954314
  0.9446055056618832  0.1526833600803528  0.5739892072219135
  0.4814054604064850  0.6969219719757263  0.0385350776647186
  0.1408125239979086  0.8651812499540625  0.0365046790908607
  0.3094205381667265  0.5246424641970009  0.0381858957987262
  0.2837185442301760  0.7304704552396970  0.0813291614319382
  0.4468520730429049  0.5222273937090094  0.8227557444954314
  0.4446055056618832  0.6526833600803528  0.5739892072219135
  0.9814054604064850  0.6969219719757263  0.0385350776647186
  0.6408125239979086  0.8651812499540625  0.0365046790908607
  0.8094205381667265  0.5246424641970009  0.0381858957987262
  0.7837185442301760  0.7304704552396899  0.0813291614319382
  0.9468520730429049  0.5222273937090023  0.8227557444954314
  0.9446055056618832  0.6526833600803528  0.5739892072219135
  0.2385687819670892  0.3670659475410147  0.6310941776232184
  0.0752503452948332  0.3245078586094365  0.3954979730520023
  0.2394919115346426  0.4889257555644662  0.3892385042226465
  0.4206388183323924  0.2872024442673222  0.1493370423855680
  0.0721920473699953  0.4519685181837261  0.1456994574899326
  0.2377860869418669  0.1046446547164095  0.1484795407133817
  0.4015274012195249  0.3995549730092023  0.9017665224761657
  0.0848244095658615  0.0818144020366631  0.8984153903568597
  0.2364721112583794  0.2437008992433789  0.8749439229728964
  0.3985062462208404  0.0221349556906674  0.6199951279984788
  0.0839075029889500  0.2031392064344146  0.6353860983270039
  0.4051394150690157  0.1559973514456416  0.3671412100003906
  0.2169277648524428  0.1903293449204710  0.4333437337103589
  0.0565393129197389  0.1459278491809783  0.1980482720903680
  0.2168261351132514  0.3156330833471017  0.1987816456083706
  0.3716832304372204  0.1145922437302858  0.9156473215887999
  0.0444580267467387  0.2740265543634095  0.9038323285922445
  0.2103155061746023  0.4390064576541093  0.9037968654771902
  0.3730577073745849  0.2408413148534407  0.6797618670588079
  0.0414008260597001  0.4058169857091656  0.6829413818055414
  0.2114935066738965  0.0679868244136230  0.6747253828189201
  0.3813227995445132  0.3545853847622666  0.4321188499961153
  0.0475886252468953  0.0259187486317387  0.4366625595872620
  0.3873300416991299  0.4768083548963276  0.1984274833326296
  0.7385687819670892  0.3670659475410147  0.6310941776232184
  0.5752503452948332  0.3245078586094436  0.3954979730520023
  0.7394919115346426  0.4889257555644662  0.3892385042226465
  0.9206388183323924  0.2872024442673222  0.1493370423855680
  0.5721920473699953  0.4519685181837261  0.1456994574899326
  0.7377860869418669  0.1046446547164095  0.1484795407133817
  0.9015274012195249  0.3995549730092023  0.9017665224761657
  0.5848244095658615  0.0818144020366631  0.8984153903568597
  0.7364721112583794  0.2437008992433789  0.8749439229728964
  0.8985062462208404  0.0221349556906674  0.6199951279984788
  0.5839075029889500  0.2031392064344146  0.6353860983270039
  0.9051394150690157  0.1559973514456416  0.3671412100003906
  0.7169277648524428  0.1903293449204781  0.4333437337103589
  0.5565393129197389  0.1459278491809783  0.1980482720903680
  0.7168261351132514  0.3156330833471088  0.1987816456083706
  0.8716832304372204  0.1145922437302858  0.9156473215887999
  0.5444580267467387  0.2740265543634095  0.9038323285922445
  0.7103155061746023  0.4390064576541093  0.9037968654771902
  0.8730577073745849  0.2408413148534478  0.6797618670588079
  0.5414008260597001  0.4058169857091656  0.6829413818055414
  0.7114935066738965  0.0679868244136230  0.6747253828189201
  0.8813227995445132  0.3545853847622666  0.4321188499961153
  0.5475886252468953  0.0259187486317387  0.4366625595872620
  0.8873300416991299  0.4768083548963276  0.1984274833326296
  0.2385687819670892  0.8670659475410147  0.6310941776232184
  0.0752503452948332  0.8245078586094365  0.3954979730520023
  0.2394919115346426  0.9889257555644662  0.3892385042226465
  0.4206388183323924  0.7872024442673222  0.1493370423855680
  0.0721920473699953  0.9519685181837261  0.1456994574899326
  0.2377860869418669  0.6046446547164095  0.1484795407133817
  0.4015274012195249  0.8995549730092023  0.9017665224761657
  0.0848244095658615  0.5818144020366631  0.8984153903568597
  0.2364721112583794  0.7437008992433789  0.8749439229728964
  0.3985062462208404  0.5221349556906745  0.6199951279984788
  0.0839075029889500  0.7031392064344146  0.6353860983270039
  0.4051394150690157  0.6559973514456416  0.3671412100003906
  0.2169277648524428  0.6903293449204710  0.4333437337103589
  0.0565393129197389  0.6459278491809783  0.1980482720903680
  0.2168261351132514  0.8156330833471017  0.1987816456083706
  0.3716832304372204  0.6145922437302858  0.9156473215887999
  0.0444580267467316  0.7740265543634095  0.9038323285922445
  0.2103155061746023  0.9390064576541164  0.9037968654771902
  0.3730577073745849  0.7408413148534407  0.6797618670588079
  0.0414008260597001  0.9058169857091656  0.6829413818055414
  0.2114935066738965  0.5679868244136230  0.6747253828189201
  0.3813227995445132  0.8545853847622666  0.4321188499961153
  0.0475886252468953  0.5259187486317387  0.4366625595872620
  0.3873300416991299  0.9768083548963276  0.1984274833326296
  0.7385687819670892  0.8670659475410147  0.6310941776232184
  0.5752503452948332  0.8245078586094436  0.3954979730520023
  0.7394919115346426  0.9889257555644662  0.3892385042226465
  0.9206388183323924  0.7872024442673222  0.1493370423855680
  0.5721920473699953  0.9519685181837261  0.1456994574899326
  0.7377860869418669  0.6046446547164095  0.1484795407133817
  0.9015274012195249  0.8995549730092023  0.9017665224761657
  0.5848244095658615  0.5818144020366631  0.8984153903568597
  0.7364721112583794  0.7437008992433789  0.8749439229728964
  0.8985062462208404  0.5221349556906674  0.6199951279984788
  0.5839075029889500  0.7031392064344146  0.6353860983270039
  0.9051394150690157  0.6559973514456416  0.3671412100003906
  0.7169277648524428  0.6903293449204781  0.4333437337103589
  0.5565393129197389  0.6459278491809783  0.1980482720903680
  0.7168261351132514  0.8156330833471088  0.1987816456083706
  0.8716832304372204  0.6145922437302858  0.9156473215887999
  0.5444580267467387  0.7740265543634095  0.9038323285922445
  0.7103155061746023  0.9390064576541093  0.9037968654771902
  0.8730577073745849  0.7408413148534478  0.6797618670588079
  0.5414008260597001  0.9058169857091656  0.6829413818055414
  0.7114935066738965  0.5679868244136230  0.6747253828189201
  0.8813227995445203  0.8545853847622666  0.4321188499961153
  0.5475886252468953  0.5259187486317387  0.4366625595872620
  0.8873300416991299  0.9768083548963276  0.1984274833326296
