POSCAR                                  
  0.915000000000000     
     2.5946228284199999   -9.0514200025699996   -4.8890550429499999
     0.2199139689640000   -5.4550481273400004    8.8325586495100001
   -15.1909103638000005    0.2368131916100000   -0.1856209904560000
   Pr   Al   N 
    12    36    48
Direct
  0.1895347105223308  0.8416226031243781  0.8430295632453877
  0.8271724732364092  0.0014472224490873  0.8500475521346758
  0.0144982585338767  0.5175529941800363  0.7706552778798184
  0.5134600501696056  0.2548903290677131  0.7367057293235035
  0.0076749846131960  0.5028422604073199  0.5227736733086559
  0.6267503559645391  0.5707481675690929  0.4443198475326895
  0.5380304357029999  0.1848760264795928  0.4294726908422959
  0.3260497762097643  0.3539081331825926  0.2244390762219268
  0.2413116082923992  0.6783424860996448  0.0683503386743496
  0.5655667732077703  0.7745581794364966  0.8837509274113131
  0.0787190975823719  0.2976354120991616  0.9889645292064628
  0.7301317952485746  0.4129645471665526  0.9501801655269020
  0.3987032987358106  0.9556722879179063  0.6887639562445145
  0.9516266314162465  0.8977925784419156  0.6461347690049095
  0.6292532848492129  0.0007782316666152  0.6269556418743818
  0.4376840188847098  0.5807242443435641  0.7191785118372422
  0.2126717390589334  0.6915303539187150  0.6346650416408153
  0.7252450736688232  0.6754492576562257  0.6677745928243795
  0.4129947850953286  0.7653813519938311  0.5347353448197794
  0.0507824158654486  0.8316829438703408  0.4579553677753054
  0.7866853598885513  0.8852219200524942  0.4675243296372571
  0.3167736788445055  0.9434527679968454  0.3979258088772468
  0.0808377511738740  0.0624608237434217  0.2861467128778088
  0.6990739593607032  0.0642184576662572  0.2626105979198812
  0.8909919924492442  0.1931300486600733  0.7291262746772702
  0.1575531049914147  0.1818567750833395  0.7478509757885732
  0.7878888866312792  0.3340918879801578  0.5878009277108163
  0.3797364173146534  0.4573547883925499  0.5403291850513980
  0.2878471342653910  0.6296815129281086  0.3658053753483017
  0.8311507492103303  0.6399692244041688  0.3084333288870198
  0.5276352256286572  0.8116418647419934  0.2930818995687545
  0.0756779047438485  0.7940847200733572  0.2423895959295521
  0.7603360326205717  0.7957160032492681  0.1112262610278449
  0.4969856012566538  0.8806379712798744  0.0807527837478261
  0.9777255963663123  0.9648721690401345  0.0516192759119178
  0.7006327482302694  0.0628776739233317  0.0346509224905773
  0.2806475618361759  0.1729477748580663  0.5519989448652964
  0.9682345569112201  0.1728040945261711  0.5155673393807589
  0.0442745508300746  0.3241485107444433  0.3356768795313627
  0.7743027128373754  0.3199172819756413  0.3218806428498908
  0.0045558626115749  0.5406895697609144  0.1638202098844914
  0.5943178421915931  0.5622612031588545  0.1404754894457341
  0.9130106887289529  0.7114340124288674  0.9420354441486083
  0.2807246058482633  0.0215534227215244  0.1769881034326914
  0.8842292106172494  0.2645453512482661  0.1529813415958969
  0.5620519333635201  0.3000057157951943  0.1125047376419204
  0.3557677950136338  0.4500776846354810  0.9155872512711056
  0.3695688782967395  0.1341023272671436  0.9722940187698939
  0.3653444636191452  0.7767777025116587  0.7245824615573611
  0.0509256717777546  0.7251096610701424  0.6752150326920017
  0.7478225677962911  0.8505168577601196  0.5992545186611480
  0.4170037392939676  0.9696343976478445  0.5443104107557701
  0.9620742989232127  0.9789371182901689  0.5250278537688686
  0.2757342063473089  0.4977019594750800  0.6397648917867471
  0.8037400686620231  0.5247714428590626  0.6039073239071939
  0.5267637051434448  0.6182882165394687  0.6089913643106186
  0.2183585593078377  0.7065915426862404  0.4985590527022410
  0.8862869238813431  0.7261403698043836  0.4323212120138606
  0.4274860539538139  0.7683052542054938  0.3949376407494825
  0.1203783229305913  0.9031933170679594  0.3611442625999430
  0.6485570291697300  0.9607287732988965  0.3612639144234748
  0.3968511709010230  0.8591259951602481  0.1741118495060405
  0.0947477895090714  0.9524349599532513  0.1721854406389198
  0.2854904847713939  0.1174014301078898  0.6802971778978133
  0.9947310666486331  0.2815153475929577  0.6515032041529381
  0.4378062513749441  0.2732290631794214  0.5636437005105819
  0.1126794948169376  0.2411059091856487  0.4624742557963444
  0.7845917406657108  0.2847395525080074  0.4576436434212141
  0.3914078715723264  0.4605479690258534  0.4048566580935073
  0.9076484695954790  0.4608997769163778  0.3455383976893671
  0.6294960338235498  0.6378604814266922  0.2729465956065837
  0.1842988931211309  0.6235736758408024  0.2334758944012734
  0.9023548509807995  0.7049711649949444  0.2046818887966850
  0.5954405941104852  0.7032162591916915  0.0536544354848729
  0.0513647557740669  0.8502389048606105  0.9630675467310965
  0.7931053645646742  0.8745651957120515  0.9949535473811153
  0.4050205958207655  0.9368214348941351  0.9515666402399958
  0.0132368654079045  0.0292707780569188  0.7564656786383992
  0.7148265598551689  0.1759063989692109  0.6360398498224171
  0.2952700803118660  0.1011362633337853  0.3128124637168384
  0.8962452417807327  0.1660260393114967  0.2748745645710784
  0.5943411876062825  0.2474160482702317  0.2539865384519260
  0.0616423514786320  0.3481892980318193  0.2001713286139903
  0.7313572009459364  0.4033670916424157  0.1303469750753408
  0.4209188385953979  0.4568162353960759  0.0808563739020016
  0.9702394137851442  0.5482842980728861  0.0220988505735775
  0.5044291152187270  0.4927819260879289  0.8424157309596083
  0.2157621194682307  0.5961890618287597  0.8954458736440500
  0.8053999993641199  0.6822063707355213  0.8097675509560531
  0.6722440214155654  0.9692519553004431  0.1434038126778674
  0.2873622720600935  0.1606277391433295  0.0862655902272564
  0.8775778478625966  0.1474689736772419  0.0374205868778859
  0.5568666757371048  0.2008126563104256  0.9919418726488090
  0.2476966680996853  0.2683977446813515  0.8745026004650356
  0.8633215768248874  0.2772095903668443  0.8447223492824207
  0.5866710164034927  0.9935426276094148  0.7526433370193004
 
  0.00000000E+00  0.00000000E+00  0.00000000E+00
  0.00000000E+00  0.00000000E+00  0.00000000E+00
  0.00000000E+00  0.00000000E+00  0.00000000E+00
  0.00000000E+00  0.00000000E+00  0.00000000E+00
  0.00000000E+00  0.00000000E+00  0.00000000E+00
  0.00000000E+00  0.00000000E+00  0.00000000E+00
  0.00000000E+00  0.00000000E+00  0.00000000E+00
  0.00000000E+00  0.00000000E+00  0.00000000E+00
  0.00000000E+00  0.00000000E+00  0.00000000E+00
  0.00000000E+00  0.00000000E+00  0.00000000E+00
  0.00000000E+00  0.00000000E+00  0.00000000E+00
  0.00000000E+00  0.00000000E+00  0.00000000E+00
  0.00000000E+00  0.00000000E+00  0.00000000E+00
  0.00000000E+00  0.00000000E+00  0.00000000E+00
  0.00000000E+00  0.00000000E+00  0.00000000E+00
  0.00000000E+00  0.00000000E+00  0.00000000E+00
  0.00000000E+00  0.00000000E+00  0.00000000E+00
  0.00000000E+00  0.00000000E+00  0.00000000E+00
  0.00000000E+00  0.00000000E+00  0.00000000E+00
  0.00000000E+00  0.00000000E+00  0.00000000E+00
  0.00000000E+00  0.00000000E+00  0.00000000E+00
  0.00000000E+00  0.00000000E+00  0.00000000E+00
  0.00000000E+00  0.00000000E+00  0.00000000E+00
  0.00000000E+00  0.00000000E+00  0.00000000E+00
  0.00000000E+00  0.00000000E+00  0.00000000E+00
  0.00000000E+00  0.00000000E+00  0.00000000E+00
  0.00000000E+00  0.00000000E+00  0.00000000E+00
  0.00000000E+00  0.00000000E+00  0.00000000E+00
  0.00000000E+00  0.00000000E+00  0.00000000E+00
  0.00000000E+00  0.00000000E+00  0.00000000E+00
  0.00000000E+00  0.00000000E+00  0.00000000E+00
  0.00000000E+00  0.00000000E+00  0.00000000E+00
  0.00000000E+00  0.00000000E+00  0.00000000E+00
  0.00000000E+00  0.00000000E+00  0.00000000E+00
  0.00000000E+00  0.00000000E+00  0.00000000E+00
  0.00000000E+00  0.00000000E+00  0.00000000E+00
  0.00000000E+00  0.00000000E+00  0.00000000E+00
  0.00000000E+00  0.00000000E+00  0.00000000E+00
  0.00000000E+00  0.00000000E+00  0.00000000E+00
  0.00000000E+00  0.00000000E+00  0.00000000E+00
  0.00000000E+00  0.00000000E+00  0.00000000E+00
  0.00000000E+00  0.00000000E+00  0.00000000E+00
  0.00000000E+00  0.00000000E+00  0.00000000E+00
  0.00000000E+00  0.00000000E+00  0.00000000E+00
  0.00000000E+00  0.00000000E+00  0.00000000E+00
  0.00000000E+00  0.00000000E+00  0.00000000E+00
  0.00000000E+00  0.00000000E+00  0.00000000E+00
  0.00000000E+00  0.00000000E+00  0.00000000E+00
  0.00000000E+00  0.00000000E+00  0.00000000E+00
  0.00000000E+00  0.00000000E+00  0.00000000E+00
  0.00000000E+00  0.00000000E+00  0.00000000E+00
  0.00000000E+00  0.00000000E+00  0.00000000E+00
  0.00000000E+00  0.00000000E+00  0.00000000E+00
  0.00000000E+00  0.00000000E+00  0.00000000E+00
  0.00000000E+00  0.00000000E+00  0.00000000E+00
  0.00000000E+00  0.00000000E+00  0.00000000E+00
  0.00000000E+00  0.00000000E+00  0.00000000E+00
  0.00000000E+00  0.00000000E+00  0.00000000E+00
  0.00000000E+00  0.00000000E+00  0.00000000E+00
  0.00000000E+00  0.00000000E+00  0.00000000E+00
  0.00000000E+00  0.00000000E+00  0.00000000E+00
  0.00000000E+00  0.00000000E+00  0.00000000E+00
  0.00000000E+00  0.00000000E+00  0.00000000E+00
  0.00000000E+00  0.00000000E+00  0.00000000E+00
  0.00000000E+00  0.00000000E+00  0.00000000E+00
  0.00000000E+00  0.00000000E+00  0.00000000E+00
  0.00000000E+00  0.00000000E+00  0.00000000E+00
  0.00000000E+00  0.00000000E+00  0.00000000E+00
  0.00000000E+00  0.00000000E+00  0.00000000E+00
  0.00000000E+00  0.00000000E+00  0.00000000E+00
  0.00000000E+00  0.00000000E+00  0.00000000E+00
  0.00000000E+00  0.00000000E+00  0.00000000E+00
  0.00000000E+00  0.00000000E+00  0.00000000E+00
  0.00000000E+00  0.00000000E+00  0.00000000E+00
  0.00000000E+00  0.00000000E+00  0.00000000E+00
  0.00000000E+00  0.00000000E+00  0.00000000E+00
  0.00000000E+00  0.00000000E+00  0.00000000E+00
  0.00000000E+00  0.00000000E+00  0.00000000E+00
  0.00000000E+00  0.00000000E+00  0.00000000E+00
  0.00000000E+00  0.00000000E+00  0.00000000E+00
  0.00000000E+00  0.00000000E+00  0.00000000E+00
  0.00000000E+00  0.00000000E+00  0.00000000E+00
  0.00000000E+00  0.00000000E+00  0.00000000E+00
  0.00000000E+00  0.00000000E+00  0.00000000E+00
  0.00000000E+00  0.00000000E+00  0.00000000E+00
  0.00000000E+00  0.00000000E+00  0.00000000E+00
  0.00000000E+00  0.00000000E+00  0.00000000E+00
  0.00000000E+00  0.00000000E+00  0.00000000E+00
  0.00000000E+00  0.00000000E+00  0.00000000E+00
  0.00000000E+00  0.00000000E+00  0.00000000E+00
  0.00000000E+00  0.00000000E+00  0.00000000E+00
  0.00000000E+00  0.00000000E+00  0.00000000E+00
  0.00000000E+00  0.00000000E+00  0.00000000E+00
  0.00000000E+00  0.00000000E+00  0.00000000E+00
  0.00000000E+00  0.00000000E+00  0.00000000E+00
  0.00000000E+00  0.00000000E+00  0.00000000E+00
