supercell of icsd_191774.cif            
   1.00000000000000     
    11.1810349308433992    0.0089198395951723   -0.0033551430636945
    -5.5827506534843501    9.6672290880288223   -0.0019308224275826
    -0.0050169118259984   -0.0039816361108919    9.2040602610720086
   N    In   Sc
    36    14    22
Direct
  0.2225732117750425  0.1136985609741004  0.4777473689723521
  0.1055829267506354  0.2186860775150024  0.2194938084583100
  0.8913753072175652  0.1116244299096323  0.9774540932099569
  0.7779113012027139  0.2251011473817073  0.7124158321455099
  0.5549479594638811  0.1088232162505065  0.4805759992529630
  0.4439933636618321  0.2242624950346084  0.2249136594385988
  0.2197524180702359  0.1113738475245114  0.9612562932379873
  0.1129374393167026  0.2186864883560489  0.7198749657445944
  0.8926512866989000  0.1154554496031821  0.4618552838154528
  0.7787177081821781  0.2236715201238155  0.2285823347609224
  0.5548598441171393  0.1098204030224750  0.9651676936966922
  0.4458455458314674  0.2243537162852078  0.7094170862411815
  0.2217439597293449  0.4445368569072343  0.4697719131385369
  0.1051225566209979  0.5571193611238030  0.2205689631361878
  0.8921368348784497  0.4513116323010991  0.9699776442701022
  0.7772417039339956  0.5536560615830126  0.7188691700212928
  0.5617050324197379  0.4416408499185778  0.4687607745889864
  0.4459408149914026  0.5508605345077342  0.2130088023211059
  0.2206718050657983  0.4450490138423788  0.9697996499148687
  0.1041942892612369  0.5536884992864231  0.7203346943512585
  0.8903834976550726  0.4451871825994402  0.4696738486024614
  0.7745909382220830  0.5491163686923386  0.2184932841911618
  0.5605083176444268  0.4511506775530449  0.9684030055925774
  0.4465985940016992  0.5518900583005149  0.7258631537501756
  0.2244693751875459  0.7756724875469629  0.4633774439282590
  0.1108028476430007  0.8881332915316875  0.2137644235120248
  0.8885375654387246  0.7773725138458119  0.9584642060609170
  0.7809704498247640  0.8894501961582577  0.7255495898070521
  0.5555876570762308  0.7776757532504135  0.4703852625642426
  0.4387044921574130  0.8876520962789414  0.2215342166850078
  0.2228492256169048  0.7769122979465308  0.9808042520480100
  0.1105380667785170  0.8894383050844539  0.7286296320436350
  0.8880622133044866  0.7736517228127937  0.4745829593206778
  0.7798882221589523  0.8906486001675091  0.2124158885483993
  0.5537629505657407  0.7786118498289909  0.9695642397530193
  0.4445567778821484  0.8943507863727902  0.7213042622873118
  0.2205406486687380  0.1114123336886195  0.2186235460913863
  0.8902274377851569  0.1131689962017077  0.7198704294129783
  0.7797405390606968  0.2255731154749299  0.9707142194284799
  0.5549336155685793  0.1105845546647757  0.2234590765090090
  0.4451794719280855  0.2256397176094751  0.9656415247627663
  0.2197855748028061  0.4449247653450215  0.2191244821916101
  0.4471878743545119  0.5518496149184884  0.4697774519607023
  0.2211688637305045  0.4443636108745181  0.7204876497954515
  0.1121577887594469  0.8890059026550645  0.4714893511333145
  0.5543732019492822  0.7770664546115427  0.2173631748007807
  0.2220106335419558  0.7771726410067927  0.7231603340786066
  0.8869090277327274  0.7739713424071581  0.2151321975239640
  0.7805652996820598  0.8903797666136484  0.4693144542068097
  0.5549354655173957  0.7784802768606056  0.7224154878684459
  0.1114362345015394  0.2219096132293217  0.4700169474317946
  0.4440620020550625  0.2196065883360561  0.4705413859310283
  0.2238473757836559  0.1105963433604558  0.7198048645314188
  0.1113783726605249  0.2235740198281064  0.9688742178704501
  0.8878671843837225  0.1106593353752530  0.2196255402141105
  0.7769304080507311  0.2217746076873865  0.4706324677918516
  0.5562574718575419  0.1133434858442754  0.7204755227766881
  0.1105761181134071  0.5560322417406383  0.4703397758075951
  0.8872579218527079  0.4442887797939292  0.7202109722935859
  0.7787115413893346  0.5574713170406582  0.9686064807767636
  0.5554460377524393  0.4427356829871982  0.2187227967124343
  0.1119798966840264  0.5568409189949151  0.9706812408117642
  0.8876451282498437  0.4430474260772996  0.2195471135340838
  0.7796504395182353  0.5548246061889870  0.4688781256310079
  0.5572687042212365  0.4437916095822416  0.7182893095081795
  0.4434482805998243  0.5556176983669445  0.9686418250168103
  0.2200129324688334  0.7776244721668917  0.2209509499732860
  0.8897878044918812  0.7771244315061807  0.7194933614056183
  0.7771659513405922  0.8889400549356310  0.9679663035452180
  0.4442478636258045  0.8888584554829535  0.4714829999744836
  0.1111820381724229  0.8885379755802347  0.9690791469490065
  0.4434083487978242  0.8888728935405581  0.9717095723367137
 
  0.00000000E+00  0.00000000E+00  0.00000000E+00
  0.00000000E+00  0.00000000E+00  0.00000000E+00
  0.00000000E+00  0.00000000E+00  0.00000000E+00
  0.00000000E+00  0.00000000E+00  0.00000000E+00
  0.00000000E+00  0.00000000E+00  0.00000000E+00
  0.00000000E+00  0.00000000E+00  0.00000000E+00
  0.00000000E+00  0.00000000E+00  0.00000000E+00
  0.00000000E+00  0.00000000E+00  0.00000000E+00
  0.00000000E+00  0.00000000E+00  0.00000000E+00
  0.00000000E+00  0.00000000E+00  0.00000000E+00
  0.00000000E+00  0.00000000E+00  0.00000000E+00
  0.00000000E+00  0.00000000E+00  0.00000000E+00
  0.00000000E+00  0.00000000E+00  0.00000000E+00
  0.00000000E+00  0.00000000E+00  0.00000000E+00
  0.00000000E+00  0.00000000E+00  0.00000000E+00
  0.00000000E+00  0.00000000E+00  0.00000000E+00
  0.00000000E+00  0.00000000E+00  0.00000000E+00
  0.00000000E+00  0.00000000E+00  0.00000000E+00
  0.00000000E+00  0.00000000E+00  0.00000000E+00
  0.00000000E+00  0.00000000E+00  0.00000000E+00
  0.00000000E+00  0.00000000E+00  0.00000000E+00
  0.00000000E+00  0.00000000E+00  0.00000000E+00
  0.00000000E+00  0.00000000E+00  0.00000000E+00
  0.00000000E+00  0.00000000E+00  0.00000000E+00
  0.00000000E+00  0.00000000E+00  0.00000000E+00
  0.00000000E+00  0.00000000E+00  0.00000000E+00
  0.00000000E+00  0.00000000E+00  0.00000000E+00
  0.00000000E+00  0.00000000E+00  0.00000000E+00
  0.00000000E+00  0.00000000E+00  0.00000000E+00
  0.00000000E+00  0.00000000E+00  0.00000000E+00
  0.00000000E+00  0.00000000E+00  0.00000000E+00
  0.00000000E+00  0.00000000E+00  0.00000000E+00
  0.00000000E+00  0.00000000E+00  0.00000000E+00
  0.00000000E+00  0.00000000E+00  0.00000000E+00
  0.00000000E+00  0.00000000E+00  0.00000000E+00
  0.00000000E+00  0.00000000E+00  0.00000000E+00
  0.00000000E+00  0.00000000E+00  0.00000000E+00
  0.00000000E+00  0.00000000E+00  0.00000000E+00
  0.00000000E+00  0.00000000E+00  0.00000000E+00
  0.00000000E+00  0.00000000E+00  0.00000000E+00
  0.00000000E+00  0.00000000E+00  0.00000000E+00
  0.00000000E+00  0.00000000E+00  0.00000000E+00
  0.00000000E+00  0.00000000E+00  0.00000000E+00
  0.00000000E+00  0.00000000E+00  0.00000000E+00
  0.00000000E+00  0.00000000E+00  0.00000000E+00
  0.00000000E+00  0.00000000E+00  0.00000000E+00
  0.00000000E+00  0.00000000E+00  0.00000000E+00
  0.00000000E+00  0.00000000E+00  0.00000000E+00
  0.00000000E+00  0.00000000E+00  0.00000000E+00
  0.00000000E+00  0.00000000E+00  0.00000000E+00
  0.00000000E+00  0.00000000E+00  0.00000000E+00
  0.00000000E+00  0.00000000E+00  0.00000000E+00
  0.00000000E+00  0.00000000E+00  0.00000000E+00
  0.00000000E+00  0.00000000E+00  0.00000000E+00
  0.00000000E+00  0.00000000E+00  0.00000000E+00
  0.00000000E+00  0.00000000E+00  0.00000000E+00
  0.00000000E+00  0.00000000E+00  0.00000000E+00
  0.00000000E+00  0.00000000E+00  0.00000000E+00
  0.00000000E+00  0.00000000E+00  0.00000000E+00
  0.00000000E+00  0.00000000E+00  0.00000000E+00
  0.00000000E+00  0.00000000E+00  0.00000000E+00
  0.00000000E+00  0.00000000E+00  0.00000000E+00
  0.00000000E+00  0.00000000E+00  0.00000000E+00
  0.00000000E+00  0.00000000E+00  0.00000000E+00
  0.00000000E+00  0.00000000E+00  0.00000000E+00
  0.00000000E+00  0.00000000E+00  0.00000000E+00
  0.00000000E+00  0.00000000E+00  0.00000000E+00
  0.00000000E+00  0.00000000E+00  0.00000000E+00
  0.00000000E+00  0.00000000E+00  0.00000000E+00
  0.00000000E+00  0.00000000E+00  0.00000000E+00
  0.00000000E+00  0.00000000E+00  0.00000000E+00
  0.00000000E+00  0.00000000E+00  0.00000000E+00
