supercell of icsd_181358.cif            
   1.00000000000000     
    10.3195229979396625    0.0022779047697324   -0.0041150721536948
    -5.1577969922504803    8.9400676077465278    0.0194847496846985
    -0.0042475864186575    0.0214416570906797   10.4020474686233992
   N    Ga   Sc
    36    18    18
Direct
  0.2430877904197359  0.1243281525500777  0.4366978522484573
  0.1292493125247915  0.2306990495582824  0.1930498723499952
  0.8901624616646870  0.1136444449955007  0.9667837186432280
  0.7727818765011705  0.2272604131636555  0.6935437060702654
  0.5417968419270167  0.1062311415603077  0.4463099082346460
  0.4342049108922055  0.2172115582704350  0.1806914095001417
  0.2017265079396822  0.0993506854707178  0.9392996730678078
  0.1211241870836233  0.2272319579518580  0.6963718222560331
  0.8849858314021901  0.1002324163067883  0.4361506250678957
  0.7802830653957997  0.2346953147119422  0.1970148650831689
  0.5706232746894599  0.1178055732198828  0.9445639982104979
  0.4371011399889539  0.2103302470614636  0.7052482443880734
  0.2159305042873569  0.4436961510539987  0.4306916566547301
  0.1039128441541735  0.5405027471397048  0.1878902161346758
  0.8717413103819993  0.4360630945142034  0.9398358885275400
  0.7919012886643486  0.5540669389215367  0.6879197408981383
  0.5610309089709489  0.4341319957234901  0.4550457123045177
  0.4409240238133307  0.5622404366084908  0.2018405366042870
  0.2367598678224425  0.4357670111582834  0.9444477053119229
  0.1059434491145339  0.5410654136043362  0.7158939335797996
  0.8855461524374206  0.4540523281497570  0.4359300662926699
  0.7836933667712884  0.5444349054608395  0.1863329756589067
  0.5640812515403368  0.4592588014683088  0.9450232235394864
  0.4291312731212784  0.5480263453916123  0.6824026904966090
  0.2338163640077298  0.7806264970687948  0.4536964151758980
  0.1186351597187993  0.9048395793319060  0.2024811234208812
  0.8891683365869980  0.7776353945043084  0.9607412132766910
  0.7838322588723514  0.8950194268794220  0.6864953739788220
  0.5601537135661516  0.7955443257502495  0.4482308518474412
  0.4484732430455836  0.8800564208806279  0.1885957770987901
  0.2129623987387035  0.7856560735116247  0.9500859992733481
  0.1149125152557673  0.9051454836803856  0.6854574258470407
  0.8704751442972523  0.7690453916185760  0.4419121531623205
  0.7562986094639399  0.8767424368456460  0.1889687521504655
  0.5615858252825348  0.7664051299771657  0.9378459406125472
  0.4528629008117804  0.9064441436284341  0.6999512553874752
  0.2321678485391132  0.1211617621672829  0.2475566595391925
  0.1184449479810539  0.2218287708171403  0.0028144936736965
  0.2167951546242293  0.1099437360998081  0.7491539337647808
  0.7775206364259830  0.2284164709940626  0.0049975352909826
  0.5621899165258029  0.1176901281875473  0.7514942843397421
  0.4452842045020589  0.2173506314622813  0.5067880360104056
  0.2204073869352499  0.4443369069132004  0.2421724543078625
  0.8813526248740473  0.4369570043613606  0.7510400365106875
  0.7794271701202931  0.5552646974080915  0.4976523933291972
  0.4513072728847547  0.5572106765175633  0.0036953012860792
  0.2265270027335120  0.4370695371280320  0.7536921744697267
  0.8925267228805112  0.4462382148737021  0.2468245012699413
  0.7761379890885038  0.5517635653003055  0.9988055017888726
  0.1078454134431936  0.8937414188764805  0.0067561385272796
  0.7773135126967645  0.8907270891172061  0.4948642081887797
  0.5521076270811491  0.7797788590045442  0.2527848571642295
  0.7696288397151747  0.8795196446459954  0.0017978062517869
  0.4476716017681497  0.8980759069089146  0.5035749806884482
  0.8917812767456752  0.1168494734357424  0.7558952493534150
  0.7733639763329734  0.2215199448701810  0.4880415721605686
  0.5483248653962676  0.1071415239265576  0.2411012592490565
  0.4395106689450401  0.2221201860541697  0.9792196380048139
  0.1144011437490988  0.2215388775503513  0.4903838815001293
  0.8903577298989021  0.1102527202178933  0.2270550554760149
  0.1063514053567047  0.5469068178646310  0.9804487128793014
  0.5563577852589816  0.4384782945800012  0.2436375837733351
  0.1077609471493588  0.5514578445832967  0.5042986198803519
  0.5580727770967471  0.4470098247304506  0.7339261150183418
  0.4425697009959606  0.5563100213885619  0.4803205189112560
  0.2233185746722413  0.7716152963213503  0.2412342470864033
  0.8928643205652520  0.7808459798419705  0.7493526929559025
  0.4496182502836490  0.8861492656045939  0.9869270793812106
  0.2207292227717730  0.7855423918749551  0.7418361441966965
  0.1112565088218744  0.8944639852724947  0.4823424499582813
  0.8816806578949397  0.7727634166048176  0.2347070418306103
  0.5561244040886564  0.7764716868018624  0.7333645196275071
 
  0.00000000E+00  0.00000000E+00  0.00000000E+00
  0.00000000E+00  0.00000000E+00  0.00000000E+00
  0.00000000E+00  0.00000000E+00  0.00000000E+00
  0.00000000E+00  0.00000000E+00  0.00000000E+00
  0.00000000E+00  0.00000000E+00  0.00000000E+00
  0.00000000E+00  0.00000000E+00  0.00000000E+00
  0.00000000E+00  0.00000000E+00  0.00000000E+00
  0.00000000E+00  0.00000000E+00  0.00000000E+00
  0.00000000E+00  0.00000000E+00  0.00000000E+00
  0.00000000E+00  0.00000000E+00  0.00000000E+00
  0.00000000E+00  0.00000000E+00  0.00000000E+00
  0.00000000E+00  0.00000000E+00  0.00000000E+00
  0.00000000E+00  0.00000000E+00  0.00000000E+00
  0.00000000E+00  0.00000000E+00  0.00000000E+00
  0.00000000E+00  0.00000000E+00  0.00000000E+00
  0.00000000E+00  0.00000000E+00  0.00000000E+00
  0.00000000E+00  0.00000000E+00  0.00000000E+00
  0.00000000E+00  0.00000000E+00  0.00000000E+00
  0.00000000E+00  0.00000000E+00  0.00000000E+00
  0.00000000E+00  0.00000000E+00  0.00000000E+00
  0.00000000E+00  0.00000000E+00  0.00000000E+00
  0.00000000E+00  0.00000000E+00  0.00000000E+00
  0.00000000E+00  0.00000000E+00  0.00000000E+00
  0.00000000E+00  0.00000000E+00  0.00000000E+00
  0.00000000E+00  0.00000000E+00  0.00000000E+00
  0.00000000E+00  0.00000000E+00  0.00000000E+00
  0.00000000E+00  0.00000000E+00  0.00000000E+00
  0.00000000E+00  0.00000000E+00  0.00000000E+00
  0.00000000E+00  0.00000000E+00  0.00000000E+00
  0.00000000E+00  0.00000000E+00  0.00000000E+00
  0.00000000E+00  0.00000000E+00  0.00000000E+00
  0.00000000E+00  0.00000000E+00  0.00000000E+00
  0.00000000E+00  0.00000000E+00  0.00000000E+00
  0.00000000E+00  0.00000000E+00  0.00000000E+00
  0.00000000E+00  0.00000000E+00  0.00000000E+00
  0.00000000E+00  0.00000000E+00  0.00000000E+00
  0.00000000E+00  0.00000000E+00  0.00000000E+00
  0.00000000E+00  0.00000000E+00  0.00000000E+00
  0.00000000E+00  0.00000000E+00  0.00000000E+00
  0.00000000E+00  0.00000000E+00  0.00000000E+00
  0.00000000E+00  0.00000000E+00  0.00000000E+00
  0.00000000E+00  0.00000000E+00  0.00000000E+00
  0.00000000E+00  0.00000000E+00  0.00000000E+00
  0.00000000E+00  0.00000000E+00  0.00000000E+00
  0.00000000E+00  0.00000000E+00  0.00000000E+00
  0.00000000E+00  0.00000000E+00  0.00000000E+00
  0.00000000E+00  0.00000000E+00  0.00000000E+00
  0.00000000E+00  0.00000000E+00  0.00000000E+00
  0.00000000E+00  0.00000000E+00  0.00000000E+00
  0.00000000E+00  0.00000000E+00  0.00000000E+00
  0.00000000E+00  0.00000000E+00  0.00000000E+00
  0.00000000E+00  0.00000000E+00  0.00000000E+00
  0.00000000E+00  0.00000000E+00  0.00000000E+00
  0.00000000E+00  0.00000000E+00  0.00000000E+00
  0.00000000E+00  0.00000000E+00  0.00000000E+00
  0.00000000E+00  0.00000000E+00  0.00000000E+00
  0.00000000E+00  0.00000000E+00  0.00000000E+00
  0.00000000E+00  0.00000000E+00  0.00000000E+00
  0.00000000E+00  0.00000000E+00  0.00000000E+00
  0.00000000E+00  0.00000000E+00  0.00000000E+00
  0.00000000E+00  0.00000000E+00  0.00000000E+00
  0.00000000E+00  0.00000000E+00  0.00000000E+00
  0.00000000E+00  0.00000000E+00  0.00000000E+00
  0.00000000E+00  0.00000000E+00  0.00000000E+00
  0.00000000E+00  0.00000000E+00  0.00000000E+00
  0.00000000E+00  0.00000000E+00  0.00000000E+00
  0.00000000E+00  0.00000000E+00  0.00000000E+00
  0.00000000E+00  0.00000000E+00  0.00000000E+00
  0.00000000E+00  0.00000000E+00  0.00000000E+00
  0.00000000E+00  0.00000000E+00  0.00000000E+00
  0.00000000E+00  0.00000000E+00  0.00000000E+00
  0.00000000E+00  0.00000000E+00  0.00000000E+00
