supercell of POSCAR                     
   1.03600000000000     
     9.6051007291200001   -5.6678653607799996   -9.9907275475200006
     9.5551777488200003    5.5783510108199996    9.9928581731800001
    -1.5573508785200001   -8.3719044994900003    4.9655686364999996
   Al   Gd   N 
    72    23    96
Direct
  0.3016838923607850  0.2883949494348954  0.5349083417339813
  0.1446654081472829  0.2432046821037304  0.3102907865143791
  0.3094060081089367  0.4081753419677483  0.3093189310596429
  0.4604497136517693  0.3259115132561377  0.7881419454048881
  0.1418106369757623  0.5001156436903855  0.7833076192924011
  0.2884360791894451  0.1709972344362143  0.7760278291163303
  0.4696150140600324  0.4466611797629128  0.5310380053694388
  0.1427452776563811  0.1196959661235866  0.5355798577239526
  0.4777309099681304  0.0733479191615629  0.3052417106534122
  0.2793458386383563  0.1071220276171303  0.3352628810465390
  0.1190736001552466  0.0695897492368545  0.1013282340915751
  0.1115545767809820  0.1967461706373825  0.8148476417698021
  0.2737951353696886  0.3581159033847783  0.8099542168295812
  0.1120428439809658  0.3251299438557567  0.5873110089557940
  0.2711401933704920  0.4858208153870507  0.5746867617256228
  0.4507133032409740  0.2770215028315022  0.3354490186851109
  0.1117156781302313  0.4454555602429480  0.3381820032624887
  0.4491373411899815  0.4006282599498050  0.1037330512387200
  0.8004831876674601  0.2884864930604678  0.5389386600048240
  0.6435540070728365  0.2444344094065940  0.3114810752913399
  0.8091055419916771  0.4090246953373509  0.3101768018341744
  0.9610781145220244  0.3255316342015675  0.7884159008046723
  0.6411925056067176  0.4976925458026642  0.7848625959066311
  0.7946503194870402  0.1634710968476654  0.7789234270966716
  0.9696279706075401  0.4463647872805936  0.5330368153633742
  0.6429673762596408  0.1189178127082258  0.5382356079750537
  0.9799945986784948  0.0710234472428439  0.2967669007688301
  0.7766274241644453  0.1083390587409667  0.3362839280082284
  0.6152439288504894  0.0684126405716654  0.1062452701385368
  0.6143709828195014  0.1956732387360560  0.8128401865613526
  0.7729559166436388  0.3553819908988984  0.8129133051976893
  0.6110064273300821  0.3244711344188715  0.5879897670888994
  0.7707233645601832  0.4847657319007723  0.5768731382997885
  0.9488710066094370  0.2800010128705850  0.3353687303966382
  0.6123849615556125  0.4450940633784839  0.3395314486796792
  0.9494374716951768  0.4040833572363809  0.1029388270439853
  0.3004407371704261  0.7895787655432471  0.5382920901860473
  0.1436137184994593  0.7433439452998059  0.3118950743337408
  0.3090001900821946  0.9097078865491213  0.3111563102170152
  0.4646947665830155  0.8345144509687685  0.7895671460740417
  0.1407790509623226  0.9999981613294437  0.7842307512035660
  0.2962967325518875  0.6668032096398733  0.7796720054862405
  0.4712621879066390  0.9440661149594618  0.5420750911828875
  0.1434085347335454  0.6198054443170520  0.5386747862714358
  0.4794810471709283  0.5708489335256317  0.2983147767679952
  0.2765484646900376  0.6081927424211457  0.3355247897850475
  0.1160335054183079  0.5694400205695445  0.1010324002838772
  0.1149865831584620  0.6978356259436111  0.8183392315324411
  0.2758329970531648  0.8561041132415141  0.8076616541218868
  0.1100952517892821  0.8242670320995913  0.5892170574191766
  0.2682913486406449  0.9840558065848271  0.5828634653281526
  0.4490892909793871  0.7798135579666123  0.3367651415059214
  0.1121716791371270  0.9447061760384301  0.3410961549649656
  0.4504998218828362  0.9055137297356239  0.1081410838875669
  0.8015923999824608  0.7880858833197806  0.5395009156950579
  0.6440571553156502  0.7426046451695356  0.3111842257822417
  0.8086045261831316  0.9087474485880662  0.3107906286187330
  0.9628421661718889  0.8256356245989309  0.7905319628847209
  0.6357176601295080  0.9967736644114709  0.7839157691037144
  0.7950892884988505  0.6649480841690334  0.7802108573204265
  0.9690282517107391  0.9465479350283985  0.5329885506795691
  0.6433948327437520  0.6184076804571603  0.5388158709059567
  0.9788813781512431  0.5718923780782177  0.2980699701561917
  0.7764668520526357  0.6083008313837084  0.3359998418587082
  0.6150913374379172  0.5697805018564779  0.1010337873698575
  0.6140042574002109  0.6966952343375610  0.8166061568255074
  0.7736905732230497  0.8560250265268508  0.8124925442077782
  0.6127431353316126  0.8232727986113133  0.5887488990593681
  0.7699197178902537  0.9849005310872414  0.5776840470568203
  0.9483739195563246  0.7797185554251840  0.3364295112018354
  0.6114998953527788  0.9443864625096126  0.3429653450078902
  0.9488140563257588  0.9042352320019162  0.1043940275279098
  0.4841108418003444  0.1804627483284733  0.0207536955017531
  0.1383566369720555  0.3625442180350973  0.0284731184035465
  0.3193080103526142  0.0174757959879202  0.0203617618872158
  0.2887847568771278  0.2281098654315201  0.0768893235996160
  0.4432458245506155  0.1511095251411234  0.5888562040874632
  0.9832045158127727  0.1939220813132607  0.0402526637737992
  0.6316192216029464  0.3611513443124039  0.0331858601403852
  0.8076325901262678  0.0204380894313303  0.0391892570709729
  0.7848614291256482  0.2337260082988522  0.0824392413515582
  0.9479743430480880  0.0196520817019632  0.8184821804296902
  0.9426873528902959  0.1557655518412631  0.5706328009641695
  0.4830795460956239  0.6956650762545280  0.0377022886119391
  0.1395435802639327  0.8692051858497365  0.0337636828868426
  0.3097528991930290  0.5209717510136116  0.0398804304835636
  0.2834076132092562  0.7332578453403045  0.0835421584972664
  0.4484989759724627  0.5197706435389193  0.8170064542968589
  0.4428796736206806  0.6587202339069478  0.5745435636265981
  0.9838265584843739  0.6956582385867520  0.0402709126776202
  0.6364450828542090  0.8646043612172178  0.0336750326364168
  0.8067809151319310  0.5197340078573944  0.0403776025134164
  0.7847115656400447  0.7328606628985526  0.0825696775059797
  0.9480383932298011  0.5202803668315497  0.8198357791266631
  0.9430789601677176  0.6549051174204052  0.5722439388655971
  0.2376261568599034  0.3686616634660638  0.6237248397466075
  0.0757285358492510  0.3249225211610423  0.3978378858588343
  0.2390416134917714  0.4891301335566283  0.3883962750882688
  0.4347421532351916  0.2857963331668216  0.1510252870029873
  0.0712860803392559  0.4551718158908997  0.1492660167913584
  0.2406226577538035  0.0945617981691456  0.1513184487431047
  0.3991920376018783  0.3942773778788151  0.9084472835414772
  0.0926651263863647  0.0839889677755039  0.9019885006363779
  0.2278060919542142  0.2500383932793895  0.8677034637364969
  0.3924563950134967  0.0094983659110142  0.6151243128194750
  0.0891673744166184  0.2036990990991612  0.6293775908479660
  0.4062881501375060  0.1556462186507943  0.3685927203988726
  0.2197976161483481  0.1899773347254268  0.4320443259254461
  0.0648653410595159  0.1446595808337818  0.2082517091013614
  0.2181194916977773  0.3181709497978318  0.2082478548333953
  0.3508737348230966  0.1358848288275567  0.9202516082262875
  0.0387184502893732  0.2685321172090980  0.8848846952599274
  0.2103143615581899  0.4382942503009275  0.8879588585044758
  0.3642505473520927  0.2477180366564227  0.6812966348349079
  0.0395410884847749  0.4069290001204777  0.6830152883524931
  0.2103164471124401  0.0697739604733911  0.6708362773116576
  0.3830907040380609  0.3519776550173148  0.4302211525946262
  0.0490434436413452  0.0253579916726920  0.4393663305973377
  0.3921261904301545  0.4726392347800541  0.2094516451202608
  0.7368243035306037  0.3677873832401843  0.6271568029272530
  0.5763308742650608  0.3252371655073034  0.3995548804140441
  0.7396599679251139  0.4896017640687660  0.3907403436537606
  0.9279904884664845  0.2921815328986099  0.1557676274897943
  0.5701257156289046  0.4563700886933404  0.1515203772211748
  0.7349718735549331  0.1031928867959309  0.1557266726372788
  0.8981046971701616  0.3937431392925248  0.9079622786585730
  0.5968074977988778  0.0866086680627589  0.9093202987626299
  0.7325138852890376  0.2428126007638269  0.8669505547811127
  0.8945306104547228  0.0169429261847043  0.6085163381746383
  0.5897379808275289  0.2034735811867705  0.6296740453991490
  0.9047877263169255  0.1550601060647949  0.3521291814031855
  0.7192072551300726  0.1903872297122291  0.4343077981284225
  0.5609598638800861  0.1449082930622438  0.2117215224799978
  0.7162976475153897  0.3200754223530211  0.2094284485530338
  0.8651981528664123  0.1170705724449448  0.9096262378505102
  0.5383582026401967  0.2658424111578839  0.8786649924581766
  0.7069167257914515  0.4332952109829193  0.8912369107749640
  0.8655764408871534  0.2456501704657299  0.6817942395144385
  0.5383225569287049  0.4070021111731279  0.6829970852535610
  0.7098506972671927  0.0673190554997944  0.6723013111599911
  0.8821046174195146  0.3520078744837889  0.4333572272378063
  0.5476125119569915  0.0248862154745382  0.4432967073754739
  0.8917796833523965  0.4746703283596574  0.2095274240658824
  0.2345542470759483  0.8666593303342083  0.6248478523586769
  0.0748649088786379  0.8244704894151695  0.4002598293873021
  0.2415389571601168  0.9901758244878209  0.3950399154441229
  0.4266729602352157  0.7923977144806997  0.1560768075589678
  0.0702126385990383  0.9568827378810738  0.1532831107157335
  0.2359292152742043  0.6024877359205050  0.1554486274848159
  0.3987074876178482  0.8931474106565531  0.9155609887491920
  0.0933627815817175  0.5847623963367781  0.9016636799972630
  0.2345062522433423  0.7463664389545173  0.8679071200698658
  0.3955567820021741  0.5179800044313083  0.6064589190134413
  0.0894539647824999  0.7033781385065438  0.6332495824339262
  0.4047210882918506  0.6552520820949184  0.3548016423463807
  0.2198381608894522  0.6906510166398618  0.4351412910600914
  0.0626850894425530  0.6448503410756601  0.2090120108511471
  0.2160990314674862  0.8206025768387093  0.2116555525827906
  0.3660125438540831  0.6177390089107604  0.9080409800787308
  0.0434657459322096  0.7717847811225980  0.8889391883292390
  0.2112021674189961  0.9371175250426163  0.8839711213449490
  0.3667402090034102  0.7517157833994546  0.6851967932189851
  0.0386154454081904  0.9074021348236840  0.6839006609000222
  0.2128598917765743  0.5693907452459115  0.6703202072199872
  0.3827296136214784  0.8528666321284533  0.4336294850440296
  0.0491198585309931  0.5258866411661884  0.4394634110074875
  0.3912700180307098  0.9767745378229478  0.2114405245601958
  0.7380542477837650  0.8673925874821293  0.6265877851570991
  0.5755009672632028  0.8236406416028856  0.3993424187019414
  0.7386768013878040  0.9898378942303268  0.3913823676350603
  0.9278380639642378  0.7923817096620951  0.1569298191847324
  0.5711675399256038  0.9557574815125491  0.1561178890272146
  0.7348048059828187  0.6027743931300265  0.1562625601794139
  0.8990443360223637  0.8942221569344184  0.9093515720484930
  0.5926076375503015  0.5838708481878285  0.9021184536928430
  0.7327237503534221  0.7449673494386957  0.8676410874541887
  0.8951372596834659  0.5158823623054687  0.6096947066084937
  0.5897437378190986  0.7021469653437435  0.6316539314465075
  0.9044127983431665  0.6553019440279328  0.3545557894793916
  0.7196001414694209  0.6902062172064305  0.4357581914594846
  0.5614729075961336  0.6452377204588089  0.2080094221358806
  0.7167550707508994  0.8192923783420483  0.2107518964483930
  0.8651097521575650  0.6175073018838901  0.9109405363142784
  0.5406194373672832  0.7709388657169427  0.8844519963170256
  0.7080799515562930  0.9361228880768948  0.8887711371891456
  0.8673074569990149  0.7459364281531506  0.6832535850252626
  0.5430800885480878  0.9030068156678865  0.6806768406395491
  0.7120055577228968  0.5674196250932226  0.6720682410496011
  0.8820426937609227  0.8523438868471089  0.4337341478656143
  0.5498466596653557  0.5252936506684236  0.4388906699854545
  0.8908256253533935  0.9748809052565903  0.2098288976275384
 
  0.00000000E+00  0.00000000E+00  0.00000000E+00
  0.00000000E+00  0.00000000E+00  0.00000000E+00
  0.00000000E+00  0.00000000E+00  0.00000000E+00
  0.00000000E+00  0.00000000E+00  0.00000000E+00
  0.00000000E+00  0.00000000E+00  0.00000000E+00
  0.00000000E+00  0.00000000E+00  0.00000000E+00
  0.00000000E+00  0.00000000E+00  0.00000000E+00
  0.00000000E+00  0.00000000E+00  0.00000000E+00
  0.00000000E+00  0.00000000E+00  0.00000000E+00
  0.00000000E+00  0.00000000E+00  0.00000000E+00
  0.00000000E+00  0.00000000E+00  0.00000000E+00
  0.00000000E+00  0.00000000E+00  0.00000000E+00
  0.00000000E+00  0.00000000E+00  0.00000000E+00
  0.00000000E+00  0.00000000E+00  0.00000000E+00
  0.00000000E+00  0.00000000E+00  0.00000000E+00
  0.00000000E+00  0.00000000E+00  0.00000000E+00
  0.00000000E+00  0.00000000E+00  0.00000000E+00
  0.00000000E+00  0.00000000E+00  0.00000000E+00
  0.00000000E+00  0.00000000E+00  0.00000000E+00
  0.00000000E+00  0.00000000E+00  0.00000000E+00
  0.00000000E+00  0.00000000E+00  0.00000000E+00
  0.00000000E+00  0.00000000E+00  0.00000000E+00
  0.00000000E+00  0.00000000E+00  0.00000000E+00
  0.00000000E+00  0.00000000E+00  0.00000000E+00
  0.00000000E+00  0.00000000E+00  0.00000000E+00
  0.00000000E+00  0.00000000E+00  0.00000000E+00
  0.00000000E+00  0.00000000E+00  0.00000000E+00
  0.00000000E+00  0.00000000E+00  0.00000000E+00
  0.00000000E+00  0.00000000E+00  0.00000000E+00
  0.00000000E+00  0.00000000E+00  0.00000000E+00
  0.00000000E+00  0.00000000E+00  0.00000000E+00
  0.00000000E+00  0.00000000E+00  0.00000000E+00
  0.00000000E+00  0.00000000E+00  0.00000000E+00
  0.00000000E+00  0.00000000E+00  0.00000000E+00
  0.00000000E+00  0.00000000E+00  0.00000000E+00
  0.00000000E+00  0.00000000E+00  0.00000000E+00
  0.00000000E+00  0.00000000E+00  0.00000000E+00
  0.00000000E+00  0.00000000E+00  0.00000000E+00
  0.00000000E+00  0.00000000E+00  0.00000000E+00
  0.00000000E+00  0.00000000E+00  0.00000000E+00
  0.00000000E+00  0.00000000E+00  0.00000000E+00
  0.00000000E+00  0.00000000E+00  0.00000000E+00
  0.00000000E+00  0.00000000E+00  0.00000000E+00
  0.00000000E+00  0.00000000E+00  0.00000000E+00
  0.00000000E+00  0.00000000E+00  0.00000000E+00
  0.00000000E+00  0.00000000E+00  0.00000000E+00
  0.00000000E+00  0.00000000E+00  0.00000000E+00
  0.00000000E+00  0.00000000E+00  0.00000000E+00
  0.00000000E+00  0.00000000E+00  0.00000000E+00
  0.00000000E+00  0.00000000E+00  0.00000000E+00
  0.00000000E+00  0.00000000E+00  0.00000000E+00
  0.00000000E+00  0.00000000E+00  0.00000000E+00
  0.00000000E+00  0.00000000E+00  0.00000000E+00
  0.00000000E+00  0.00000000E+00  0.00000000E+00
  0.00000000E+00  0.00000000E+00  0.00000000E+00
  0.00000000E+00  0.00000000E+00  0.00000000E+00
  0.00000000E+00  0.00000000E+00  0.00000000E+00
  0.00000000E+00  0.00000000E+00  0.00000000E+00
  0.00000000E+00  0.00000000E+00  0.00000000E+00
  0.00000000E+00  0.00000000E+00  0.00000000E+00
  0.00000000E+00  0.00000000E+00  0.00000000E+00
  0.00000000E+00  0.00000000E+00  0.00000000E+00
  0.00000000E+00  0.00000000E+00  0.00000000E+00
  0.00000000E+00  0.00000000E+00  0.00000000E+00
  0.00000000E+00  0.00000000E+00  0.00000000E+00
  0.00000000E+00  0.00000000E+00  0.00000000E+00
  0.00000000E+00  0.00000000E+00  0.00000000E+00
  0.00000000E+00  0.00000000E+00  0.00000000E+00
  0.00000000E+00  0.00000000E+00  0.00000000E+00
  0.00000000E+00  0.00000000E+00  0.00000000E+00
  0.00000000E+00  0.00000000E+00  0.00000000E+00
  0.00000000E+00  0.00000000E+00  0.00000000E+00
  0.00000000E+00  0.00000000E+00  0.00000000E+00
  0.00000000E+00  0.00000000E+00  0.00000000E+00
  0.00000000E+00  0.00000000E+00  0.00000000E+00
  0.00000000E+00  0.00000000E+00  0.00000000E+00
  0.00000000E+00  0.00000000E+00  0.00000000E+00
  0.00000000E+00  0.00000000E+00  0.00000000E+00
  0.00000000E+00  0.00000000E+00  0.00000000E+00
  0.00000000E+00  0.00000000E+00  0.00000000E+00
  0.00000000E+00  0.00000000E+00  0.00000000E+00
  0.00000000E+00  0.00000000E+00  0.00000000E+00
  0.00000000E+00  0.00000000E+00  0.00000000E+00
  0.00000000E+00  0.00000000E+00  0.00000000E+00
  0.00000000E+00  0.00000000E+00  0.00000000E+00
  0.00000000E+00  0.00000000E+00  0.00000000E+00
  0.00000000E+00  0.00000000E+00  0.00000000E+00
  0.00000000E+00  0.00000000E+00  0.00000000E+00
  0.00000000E+00  0.00000000E+00  0.00000000E+00
  0.00000000E+00  0.00000000E+00  0.00000000E+00
  0.00000000E+00  0.00000000E+00  0.00000000E+00
  0.00000000E+00  0.00000000E+00  0.00000000E+00
  0.00000000E+00  0.00000000E+00  0.00000000E+00
  0.00000000E+00  0.00000000E+00  0.00000000E+00
  0.00000000E+00  0.00000000E+00  0.00000000E+00
  0.00000000E+00  0.00000000E+00  0.00000000E+00
  0.00000000E+00  0.00000000E+00  0.00000000E+00
  0.00000000E+00  0.00000000E+00  0.00000000E+00
  0.00000000E+00  0.00000000E+00  0.00000000E+00
  0.00000000E+00  0.00000000E+00  0.00000000E+00
  0.00000000E+00  0.00000000E+00  0.00000000E+00
  0.00000000E+00  0.00000000E+00  0.00000000E+00
  0.00000000E+00  0.00000000E+00  0.00000000E+00
  0.00000000E+00  0.00000000E+00  0.00000000E+00
  0.00000000E+00  0.00000000E+00  0.00000000E+00
  0.00000000E+00  0.00000000E+00  0.00000000E+00
  0.00000000E+00  0.00000000E+00  0.00000000E+00
  0.00000000E+00  0.00000000E+00  0.00000000E+00
  0.00000000E+00  0.00000000E+00  0.00000000E+00
  0.00000000E+00  0.00000000E+00  0.00000000E+00
  0.00000000E+00  0.00000000E+00  0.00000000E+00
  0.00000000E+00  0.00000000E+00  0.00000000E+00
  0.00000000E+00  0.00000000E+00  0.00000000E+00
  0.00000000E+00  0.00000000E+00  0.00000000E+00
  0.00000000E+00  0.00000000E+00  0.00000000E+00
  0.00000000E+00  0.00000000E+00  0.00000000E+00
  0.00000000E+00  0.00000000E+00  0.00000000E+00
  0.00000000E+00  0.00000000E+00  0.00000000E+00
  0.00000000E+00  0.00000000E+00  0.00000000E+00
  0.00000000E+00  0.00000000E+00  0.00000000E+00
  0.00000000E+00  0.00000000E+00  0.00000000E+00
  0.00000000E+00  0.00000000E+00  0.00000000E+00
  0.00000000E+00  0.00000000E+00  0.00000000E+00
  0.00000000E+00  0.00000000E+00  0.00000000E+00
  0.00000000E+00  0.00000000E+00  0.00000000E+00
  0.00000000E+00  0.00000000E+00  0.00000000E+00
  0.00000000E+00  0.00000000E+00  0.00000000E+00
  0.00000000E+00  0.00000000E+00  0.00000000E+00
  0.00000000E+00  0.00000000E+00  0.00000000E+00
  0.00000000E+00  0.00000000E+00  0.00000000E+00
  0.00000000E+00  0.00000000E+00  0.00000000E+00
  0.00000000E+00  0.00000000E+00  0.00000000E+00
  0.00000000E+00  0.00000000E+00  0.00000000E+00
  0.00000000E+00  0.00000000E+00  0.00000000E+00
  0.00000000E+00  0.00000000E+00  0.00000000E+00
  0.00000000E+00  0.00000000E+00  0.00000000E+00
  0.00000000E+00  0.00000000E+00  0.00000000E+00
  0.00000000E+00  0.00000000E+00  0.00000000E+00
  0.00000000E+00  0.00000000E+00  0.00000000E+00
  0.00000000E+00  0.00000000E+00  0.00000000E+00
  0.00000000E+00  0.00000000E+00  0.00000000E+00
  0.00000000E+00  0.00000000E+00  0.00000000E+00
  0.00000000E+00  0.00000000E+00  0.00000000E+00
  0.00000000E+00  0.00000000E+00  0.00000000E+00
  0.00000000E+00  0.00000000E+00  0.00000000E+00
  0.00000000E+00  0.00000000E+00  0.00000000E+00
  0.00000000E+00  0.00000000E+00  0.00000000E+00
  0.00000000E+00  0.00000000E+00  0.00000000E+00
  0.00000000E+00  0.00000000E+00  0.00000000E+00
  0.00000000E+00  0.00000000E+00  0.00000000E+00
  0.00000000E+00  0.00000000E+00  0.00000000E+00
  0.00000000E+00  0.00000000E+00  0.00000000E+00
  0.00000000E+00  0.00000000E+00  0.00000000E+00
  0.00000000E+00  0.00000000E+00  0.00000000E+00
  0.00000000E+00  0.00000000E+00  0.00000000E+00
  0.00000000E+00  0.00000000E+00  0.00000000E+00
  0.00000000E+00  0.00000000E+00  0.00000000E+00
  0.00000000E+00  0.00000000E+00  0.00000000E+00
  0.00000000E+00  0.00000000E+00  0.00000000E+00
  0.00000000E+00  0.00000000E+00  0.00000000E+00
  0.00000000E+00  0.00000000E+00  0.00000000E+00
  0.00000000E+00  0.00000000E+00  0.00000000E+00
  0.00000000E+00  0.00000000E+00  0.00000000E+00
  0.00000000E+00  0.00000000E+00  0.00000000E+00
  0.00000000E+00  0.00000000E+00  0.00000000E+00
  0.00000000E+00  0.00000000E+00  0.00000000E+00
  0.00000000E+00  0.00000000E+00  0.00000000E+00
  0.00000000E+00  0.00000000E+00  0.00000000E+00
  0.00000000E+00  0.00000000E+00  0.00000000E+00
  0.00000000E+00  0.00000000E+00  0.00000000E+00
  0.00000000E+00  0.00000000E+00  0.00000000E+00
  0.00000000E+00  0.00000000E+00  0.00000000E+00
  0.00000000E+00  0.00000000E+00  0.00000000E+00
  0.00000000E+00  0.00000000E+00  0.00000000E+00
  0.00000000E+00  0.00000000E+00  0.00000000E+00
  0.00000000E+00  0.00000000E+00  0.00000000E+00
  0.00000000E+00  0.00000000E+00  0.00000000E+00
  0.00000000E+00  0.00000000E+00  0.00000000E+00
  0.00000000E+00  0.00000000E+00  0.00000000E+00
  0.00000000E+00  0.00000000E+00  0.00000000E+00
  0.00000000E+00  0.00000000E+00  0.00000000E+00
  0.00000000E+00  0.00000000E+00  0.00000000E+00
  0.00000000E+00  0.00000000E+00  0.00000000E+00
  0.00000000E+00  0.00000000E+00  0.00000000E+00
  0.00000000E+00  0.00000000E+00  0.00000000E+00
  0.00000000E+00  0.00000000E+00  0.00000000E+00
  0.00000000E+00  0.00000000E+00  0.00000000E+00
  0.00000000E+00  0.00000000E+00  0.00000000E+00
  0.00000000E+00  0.00000000E+00  0.00000000E+00
  0.00000000E+00  0.00000000E+00  0.00000000E+00
  0.00000000E+00  0.00000000E+00  0.00000000E+00
