Al   Hf   Mg   N                        
   1.00000000000000     
    -9.7115159973893359   -0.0076934719306514   -0.0031952084308368
    -4.8416889576092927    8.3889520563212781    0.0020117994051772
     0.0058187562648227    0.0017729094273531   -9.5869860602665131
   Al   Hf   Mg   N 
    32     2     2    36
Direct
  0.1098407996232315  0.0922082827157293  0.3783039123398001
  0.2209144261175656  0.2063730901750935  0.1341292388638001
  0.7809034543778095  0.0976589442490145  0.8796817622131233
  0.8913169779062835  0.2052899779018764  0.6297858130728426
  0.4390271346460846  0.0995679561217912  0.3894547057599180
  0.5555525686563353  0.2065472700078685  0.1336069007875003
  0.1046376825864087  0.0956189240450260  0.8822959509080361
  0.2104970156683188  0.2110873586812022  0.6221058907756017
  0.7802031170560381  0.0980065049830984  0.3803824625174384
  0.8878852962995075  0.2071051342612921  0.1301729428352597
  0.5569859048040183  0.2131213543574519  0.6216857135787565
  0.1148743814288380  0.4253192486668527  0.3811609561626083
  0.2222544010713179  0.5392627150943838  0.1293650384778031
  0.7753266464337791  0.4274212493586885  0.8773904747607146
  0.8939879438135453  0.5349644294555610  0.6339418316788392
  0.4426490274345722  0.4301137042025334  0.3789942729565844
  0.5562160677157533  0.5388698340886607  0.1253922463263800
  0.1086411912635206  0.4313090996164454  0.8797735109814828
  0.2234210988613711  0.5378346836989674  0.6285032512294751
  0.7798595613769363  0.4221422429554510  0.3831726163296368
  0.8944537085725388  0.5275648085727931  0.1219251725946501
  0.4455380620381836  0.4327732948022004  0.8815027620305937
  0.1158792582194567  0.7623852252751948  0.3826391815064850
  0.2222412209430706  0.8715057686499885  0.1278557408731002
  0.7824854978280608  0.7564445300391696  0.8861612154356249
  0.8916637221569409  0.8718840153674385  0.6338737642584547
  0.4352779575953177  0.7615193566469113  0.3849414312878139
  0.5461685165421005  0.8751981248890242  0.1226471442112791
  0.1136024880064915  0.7596102003607955  0.8775988691185419
  0.2200244075442002  0.8740580003884212  0.6312208642121400
  0.8947839202969963  0.8768833165393251  0.1219590129564764
  0.4441412747867818  0.7547881537151331  0.8767690963525873
  0.4428680735556355  0.0963956160711806  0.8555107141387381
  0.7809928169316609  0.7592316574037253  0.3611431786895232
  0.5553947907607748  0.5373587402391206  0.6254161554203354
  0.5592364043832856  0.8621149055359493  0.6216211137808549
  0.2225176898404051  0.2051288518090887  0.3335267243511670
  0.1104203792673288  0.0959239974219785  0.0814179608731452
  0.8893997173997176  0.2049430749811429  0.8291605488438490
  0.7800254801294401  0.0929296922705528  0.5790295438572054
  0.5570970248906839  0.2022376388733751  0.3326311455026363
  0.4413296132256596  0.0989333080188505  0.0791826617000961
  0.1988849751010739  0.2159434761936369  0.8234441584624193
  0.1083769075265119  0.0933323409195363  0.5763602327965408
  0.8889362849384183  0.2051208736223026  0.3276408313018828
  0.7756115476932730  0.0977092692437862  0.0780852079713275
  0.5665330617731263  0.2161247458743066  0.8239444646135425
  0.4365571801322608  0.1077342561165867  0.5938360375466981
  0.2189500761094737  0.5418233788094969  0.3278164640037114
  0.1148484848838351  0.4252125023133406  0.0780356772769065
  0.8896333944466479  0.5393951410625852  0.8354357098989181
  0.7945793395034542  0.4204543081228877  0.5792906334603862
  0.5579706438752480  0.5384330112371147  0.3278703933283793
  0.4433270405053919  0.4261956949590997  0.0823782186366039
  0.2236511236255972  0.5370989629346391  0.8294329053427183
  0.1099187332353746  0.4305588741272904  0.5788177497112064
  0.9006875062511654  0.5169836958188659  0.3205851892211966
  0.7787585810558625  0.4250982272390659  0.0768601042531968
  0.5563379610743387  0.5373708208278150  0.8421718536294253
  0.4349952010514593  0.4239328737299499  0.5727715810189277
  0.2196912672909002  0.8729345170062538  0.3250518253890344
  0.1133829856945388  0.7594350736941811  0.0753933943499704
  0.8878663663833797  0.8728166810934787  0.8352841500189800
  0.7972974891277708  0.7514364846523028  0.5769931888574216
  0.5359099799606146  0.8830061685565154  0.3279877281719548
  0.4408568714803693  0.7615943610997095  0.0781918080211329
  0.2196758589309207  0.8752752630057105  0.8317719916226727
  0.1093201217210555  0.7624319564506409  0.5822366989082315
  0.9005251324769232  0.8824918397980059  0.3217046029264362
  0.7794549712383003  0.7603432116672677  0.0934945229587839
  0.5670527114759150  0.8537813621623254  0.8427952647450064
  0.4266656400549671  0.7676164413484852  0.5768072354374975
