Al   Hf   Mg   N                        
   1.00000000000000     
    -9.5285930499887215   -0.0062310499692919   -0.0028130199680624
    -4.7594006455183422    8.2453817883162834    0.0021756946344200
    -0.0027714736341753   -0.0045157395523593  -10.0785666453052425
   Al   Hf   Mg   N 
    32     2     2    36
Direct
  0.1105200147067370  0.0934046048326614  0.3188534108734271
  0.2142761865044553  0.2089247119241307  0.0713363353562850
  0.7817890997725405  0.0965019101539649  0.8159043974115205
  0.8891202496742470  0.2074135128909131  0.5679137889084261
  0.4394997658023547  0.0996091966534583  0.3121470429264976
  0.5583141343782436  0.2094920035334335  0.0713465066883681
  0.1050224715895093  0.0941691800765725  0.8148089756667397
  0.2194401459840484  0.2074579699792082  0.5642521902831262
  0.7788722717548003  0.0997752541020996  0.3175161033486106
  0.8898310234978338  0.2048532848705252  0.0669162597285348
  0.5534290794932780  0.2102935174012901  0.5640743775658356
  0.1159845875655666  0.4235963000143468  0.3174558659973245
  0.2218757110082512  0.5392642818210888  0.0669928455133978
  0.7782641819642329  0.4264926613880332  0.8170546631515654
  0.8949992407717413  0.5293029205173837  0.5731668965506680
  0.4440212716220904  0.4307088900248637  0.3163397068837964
  0.5552220717265568  0.5381587270817779  0.0683759245969829
  0.1069239034971899  0.4327022121244314  0.8149426823162975
  0.2235067970841494  0.5379730816007333  0.5690709974137675
  0.7767546909208947  0.4227501608493358  0.3150515106957549
  0.8911287051130974  0.5352764526819116  0.0628195972973754
  0.4443221819824267  0.4329139720492577  0.8142922502997536
  0.1166517723879784  0.7616744893708205  0.3175279421318184
  0.2201685427766634  0.8734698861842828  0.0670804297944368
  0.7843914468131756  0.7546472168777586  0.8107539260170703
  0.8939656534540622  0.8742926121673655  0.5732241593614205
  0.4390864108376100  0.7598725002632399  0.3133232818512505
  0.5557453084821724  0.8670848131158359  0.0688696298396392
  0.1127944866052438  0.7608473252566963  0.8163842181097504
  0.2234225248327792  0.8711999103102429  0.5691453262028227
  0.8909620375530173  0.8737115478085699  0.0627721641237443
  0.4417008670326449  0.7555981417212324  0.8162054726487876
  0.4429730555756745  0.0962228812646664  0.8235133493824138
  0.7804225255797775  0.7594531388256304  0.3275040732902184
  0.5555189337619436  0.5397912026419951  0.5683650992403623
  0.5494825924092622  0.8709411169712522  0.5688304242959569
  0.2222644906630798  0.2050993395957948  0.3726533157461221
  0.1096059716836410  0.0940977270920837  0.1283827228106293
  0.8891881761979149  0.2046633044505837  0.8778081155132789
  0.7760151140783050  0.0967277713828463  0.6259904431299680
  0.5556391550553361  0.2055710127981386  0.3710715965049786
  0.4428102804280134  0.0962264821919239  0.1152412473531439
  0.2017049656146975  0.2153474612760314  0.8812857618641379
  0.1102800487783411  0.0948703952639846  0.6242946715584857
  0.8893069210709313  0.2057250586377455  0.3761895548528125
  0.7794170943382142  0.0932626424270689  0.1270225483767262
  0.5655618645271697  0.2142923198981364  0.8820242670587980
  0.4370239674151843  0.1089743808686520  0.6215393294802530
  0.2207960293971747  0.5400681047349792  0.3756737039797989
  0.1098393451731444  0.4296465436669727  0.1270823970353816
  0.8897252702349551  0.5387118700769709  0.8746962477184372
  0.7920676458331559  0.4190599841333443  0.6317368212790443
  0.5565045267972958  0.5395140596457040  0.3611040749793958
  0.4418006257904691  0.4288843660655980  0.1257300307902377
  0.2216614742128135  0.5388947032539960  0.8766463459061620
  0.1139086553905565  0.4259441465377288  0.6259972483393821
  0.8991511867577501  0.5176955261703474  0.3803914183814112
  0.7799524709762374  0.4267296263239643  0.1233737741020066
  0.5568397954417705  0.5370579878255373  0.8779163617105961
  0.4375084365235303  0.4211876232599102  0.6288066515909901
  0.2221338315159740  0.8727768202351255  0.3758693968093726
  0.1099297361070345  0.7613893217928223  0.1261125517110721
  0.8881912137773320  0.8731858807291633  0.8727289163821463
  0.7932251482821330  0.7529393057958693  0.6188705056001894
  0.5384438998584212  0.8814219850324135  0.3614463161938036
  0.4411454188396570  0.7614918090792733  0.1222643893785535
  0.2187279424018232  0.8748620555054567  0.8786320075400624
  0.1121304822240728  0.7607815050902930  0.6271564224886431
  0.8987961235584949  0.8830613292141650  0.3811777792415014
  0.7809645370060839  0.7595793038842154  0.1193474325918519
  0.5666981665941879  0.8534675322455390  0.8782817066929454
  0.4282485830282307  0.7679553971385962  0.6355228607696561
