Al   Hf   Mg   N                        
   1.00000000000000     
    -9.5357669117874071   -0.0081385568754129   -0.0033115266586377
    -4.7603663331951438    8.2413665779629444    0.0019619182484511
    -0.0036541087678046   -0.0045538941586988  -10.0749179485941980
   Al   Hf   Mg   N 
    32     2     2    36
Direct
  0.1101989141713317  0.0929068851874434  0.3988785319507173
  0.2187749448179203  0.2071116893598926  0.1526428528068874
  0.7820546521057439  0.0966302835920352  0.8978522189628043
  0.8899842381118601  0.2066303386389866  0.6474436331935750
  0.4385406479613632  0.1003311817609906  0.4058188090892897
  0.5567885045307692  0.2072028831221313  0.1529012172794085
  0.1050334198825845  0.0946393430200023  0.8981550802287422
  0.2146333683856476  0.2092971242710137  0.6419545338518016
  0.7792271707125425  0.0990462271355387  0.3994157341171916
  0.8889288299371906  0.2058888019825431  0.1484979656954355
  0.5551884786419242  0.2120085165009332  0.6413611049695941
  0.1159295913973886  0.4239986744370094  0.4005686348867853
  0.2220280266824359  0.5391467913578737  0.1482602936774557
  0.7755290278488538  0.4281913371268619  0.8986101083756123
  0.8932329319232066  0.5338309183386981  0.6509539124344373
  0.4432643221017347  0.4292078958611099  0.3990527225901737
  0.5562843328877636  0.5377851832860884  0.1472741837070027
  0.1068556352343041  0.4325618074881679  0.8977909501038942
  0.2239140433914753  0.5376316385233953  0.6463793094188497
  0.7795755411102345  0.4213706040322621  0.4003134511588898
  0.8931590228382746  0.5306734511794335  0.1438749918814250
  0.4454090526718124  0.4336122908723031  0.9002016932895899
  0.1165204398915334  0.7617468407428906  0.4008003106478008
  0.2207047912492460  0.8725241962602815  0.1478343260498775
  0.7827662183676728  0.7560605243087731  0.9033776518092630
  0.8918869504137034  0.8725618573204895  0.6517138884677693
  0.4356406666226297  0.7615725145040296  0.3995317003735911
  0.5496301310518112  0.8730813612938845  0.1464894434307127
  0.1133496858521937  0.7600346553852033  0.8967522542666952
  0.2230326536499757  0.8720264015490170  0.6469517757262681
  0.8932559962768464  0.8753106455827960  0.1435246096433336
  0.4442258234781007  0.7549551479041011  0.9018925294536559
  0.4426722224011305  0.0973449419011213  0.8872431239703203
  0.7798623415949646  0.7594312310150835  0.3900831751353166
  0.5545740941380638  0.5395317405745605  0.6465742952738140
  0.5549144158864006  0.8651228751469460  0.6461808794567793
  0.2215415387205776  0.2052600794213194  0.3422409609048401
  0.1108091322241821  0.0952073940794816  0.0894574739257277
  0.8886890645143126  0.2062351519873800  0.8391705767568901
  0.7792450064096793  0.0935198361021858  0.5893600445759850
  0.5571782405968924  0.2032840345551200  0.3420242426766839
  0.4422652074753275  0.0978508322496716  0.0958046368731146
  0.2008958717805026  0.2154759195974489  0.8339894352592730
  0.1088439016688480  0.0936935999400248  0.5884577773066177
  0.8899023770047897  0.2041749161741937  0.3377687643025445
  0.7764578026044475  0.0963629231771494  0.0884304079495532
  0.5660326707454677  0.2156108578558974  0.8344497380003507
  0.4371792976223076  0.1072672052962048  0.5973987612873520
  0.2198145864342325  0.5407559602885600  0.3385716873917614
  0.1135682332491430  0.4259793848495788  0.0882108518504168
  0.8888050188468811  0.5388904439141401  0.8433488526848656
  0.7933851376109876  0.4207303597738707  0.5865582926778476
  0.5577627661072522  0.5375287825739367  0.3383676508879635
  0.4434824319491000  0.4262487556677700  0.0921579951753049
  0.2234313975453212  0.5372759032207720  0.8398408261199649
  0.1103033864745352  0.4298010108265146  0.5894481666120761
  0.9001792199955426  0.5186921540795619  0.3327987765580192
  0.7789908997362374  0.4255681073771038  0.0895779473121207
  0.5563430436367732  0.5387260355559275  0.8531581283485915
  0.4359917593535654  0.4237148352625274  0.5835446305757330
  0.2185710838471176  0.8741070692887984  0.3359052446855924
  0.1125598890699607  0.7598928914145429  0.0869341777123990
  0.8885762875135497  0.8726910319983647  0.8439331241589478
  0.7950844131780412  0.7526106800740539  0.5926244698167494
  0.5369884093927749  0.8827552784954484  0.3372072627069865
  0.4414166605478788  0.7613523038878230  0.0928886391240037
  0.2222208635898436  0.8732658794590921  0.8408444381926188
  0.1096740368945113  0.7620529340370242  0.5914043249381575
  0.8990103176698837  0.8816476582730897  0.3338380241080440
  0.7793390496671014  0.7601480048457985  0.1004430572470622
  0.5651108390991088  0.8550479853135013  0.8535975224326589
  0.4279282868826079  0.7675567484891209  0.5806051133685632
