Al   Hf   Mg   N                        
   1.00000000000000     
    -9.8084391505232915   -0.0075663048035766   -0.0031619746514651
    -4.8897033415176487    8.4711139618925539    0.0020260511642418
     0.0063483694276580    0.0018125202747330   -9.2992620199234182
   Al   Hf   Mg   N 
    32     2     2    36
Direct
  0.1095339639399204  0.0917560790877928  0.3740730818024546
  0.2205102445727446  0.2066067200847351  0.1322447396848096
  0.7801237100576415  0.0983959044161903  0.8767725538265487
  0.8919587484350774  0.2045891528083366  0.6268213640828003
  0.4395236408182956  0.0988277862291146  0.3838003132102877
  0.5556866442299350  0.2070323108718193  0.1315199895406227
  0.1048102602313402  0.0959771645135285  0.8801866793534769
  0.2107281173586526  0.2108283125036236  0.6167965409445474
  0.7809624695924240  0.0971779206570801  0.3768396752770777
  0.8874334837475908  0.2076923028848841  0.1270611838387498
  0.5570299375047424  0.2124619375236903  0.6163441823357241
  0.1140043276754840  0.4263229862204317  0.3773995010886420
  0.2225055487724241  0.5391877977264403  0.1261286534807038
  0.7755097360012276  0.4266487647669227  0.8730283103702389
  0.8947605140984588  0.5344176653808815  0.6327534890628860
  0.4424346557472479  0.4309780761114756  0.3757631373710503
  0.5560161760890443  0.5394956271004895  0.1192421816295045
  0.1098699198730600  0.4304174811744401  0.8769759851626769
  0.2229822194327654  0.5379378153559095  0.6255254320984061
  0.7795923001883547  0.4228942696265757  0.3804301463025632
  0.8940849097823668  0.5278396186696457  0.1159832490728058
  0.4454280325530496  0.4322053616548769  0.8773431389119445
  0.1154515677569858  0.7625219775597116  0.3791213858322087
  0.2232272945937795  0.8707957612467340  0.1237330719313364
  0.7822832237532266  0.7569369368025498  0.8803881222836453
  0.8919799829228070  0.8722470598836310  0.6323076319685070
  0.4356054654380028  0.7610709906976483  0.3844189292094158
  0.5467999993117569  0.8736497845410336  0.1159870860313405
  0.1139452523602299  0.7593744611507603  0.8746597198108962
  0.2183600241166503  0.8751296096384600  0.6293956720367415
  0.8946485380876870  0.8766814535424217  0.1163140923856212
  0.4435703273113309  0.7552168711119649  0.8686676100324430
  0.4425155129721915  0.0971138554024265  0.8525048641159241
  0.7813435753770600  0.7590446069743721  0.3577944337069990
  0.5560843806589867  0.5362197277149762  0.6212240327372939
  0.5585467686966397  0.8638735816199172  0.6164110484864976
  0.2218623191404752  0.2054778300856524  0.3381820702622960
  0.1103292599387443  0.0961710010149177  0.0859407922733172
  0.8898068690409803  0.2043345855291838  0.8326974906603487
  0.7804788352584532  0.0925574236406681  0.5824290877254878
  0.5575641267702451  0.2024830732376038  0.3372247632818943
  0.4411695545231291  0.0991498431800094  0.0847367740401901
  0.1997988658863974  0.2153411059138546  0.8264273848403085
  0.1084255169639058  0.0931503514209549  0.5788563557131058
  0.8885490845985007  0.2055405308750388  0.3311825721568676
  0.7752904254003028  0.0981629121198397  0.0817600801114468
  0.5660353538583803  0.2155075101895481  0.8270071783547742
  0.4364252286555682  0.1078688769386564  0.5951170531310115
  0.2188462429557901  0.5420497197317126  0.3312540438013608
  0.1153204852290354  0.4248905374211522  0.0818099105010042
  0.8903548920006439  0.5387696201664408  0.8408801695239615
  0.7947494181675749  0.4204599340482220  0.5843994445162363
  0.5578552493728185  0.5389463034935150  0.3310674413749441
  0.4432268336496810  0.4260348194307210  0.0858588496540967
  0.2234771336711256  0.5372175107641451  0.8328484355427186
  0.1097533560485073  0.4307173879328011  0.5820690786704651
  0.8999337085365825  0.5179492473991770  0.3231039646845165
  0.7788134165986429  0.4248971316381841  0.0793767560107494
  0.5565150050405316  0.5367682445604658  0.8465240451768670
  0.4348633845944826  0.4241590001095169  0.5768553045931822
  0.2204542663893274  0.8722295970102621  0.3282836380295845
  0.1136682689712427  0.7591291984812167  0.0786586364591143
  0.8881321882265858  0.8733831996247797  0.8403154622755736
  0.7971245450948354  0.7514751937147235  0.5832975178470485
  0.5371942445235215  0.8812242733661567  0.3323427810790352
  0.4406000734017362  0.7616196371009702  0.0790629202611845
  0.2181768841859762  0.8762391604083144  0.8359948102299440
  0.1091877408260056  0.7625525547456744  0.5859867608516761
  0.9003339703930004  0.8819002530140962  0.3243418228671195
  0.7796396583647301  0.7603428998407977  0.0948990144655429
  0.5662567758284920  0.8555677408644807  0.8476829402605539
  0.4267294116807074  0.7674842002343248  0.5851547903409180
