supercell of POSCAR                     
   1.03600000000000     
     9.6051007291200001   -5.6678653607799996   -9.9907275475200006
     9.5551777488200003    5.5783510108199996    9.9928581731800001
    -1.5573508785200001   -8.3719044994900003    4.9655686364999996
   Al   Gd   N 
    72    23    96
Direct
  0.3017767674117025  0.2882183237132949  0.5346302945861723
  0.1446701882071793  0.2427279543972958  0.3098486561186604
  0.3098353634084035  0.4082755333444723  0.3089708880165247
  0.4602986044086208  0.3255885869315378  0.7882405295166990
  0.1418590071178158  0.5001479863481464  0.7830696945673665
  0.2882944443116600  0.1709203192983324  0.7763552425265416
  0.4696513040020065  0.4467089945464551  0.5308371967030325
  0.1427671420094470  0.1195614539180596  0.5353833941467698
  0.4777944936231933  0.0731627706603106  0.3049707123602872
  0.2794829445796410  0.1070191050044826  0.3348880497576445
  0.1193811481677400  0.0697927384824339  0.1021039699454889
  0.1114853897167833  0.1967119379366835  0.8145688364862878
  0.2738655002136952  0.3582082509076372  0.8097015912133685
  0.1121225282077063  0.3250306990986189  0.5868992266467217
  0.2712221562441499  0.4858597275451899  0.5743771507922730
  0.4509282343932028  0.2767585695645849  0.3351613215817864
  0.1117493110340888  0.4455008081629046  0.3378536540633021
  0.4491873544637457  0.4005938407687921  0.1045311723485796
  0.8005175454384741  0.2883235678048948  0.5387694268934524
  0.6431412771511447  0.2435741809637619  0.3111427837219338
  0.8090808381021972  0.4088799579368754  0.3097747392281391
  0.9611068195357362  0.3255378385413294  0.7881922181261700
  0.6411969972731626  0.4976247021194737  0.7849073456002245
  0.7946828046362668  0.1635049409382390  0.7788872646969978
  0.9696311773943620  0.4462790494084459  0.5326424370380636
  0.6429718181306043  0.1187477329361357  0.5384281727525249
  0.9797703021913620  0.0710244918272949  0.2965197764097240
  0.7767288247780684  0.1082847317312599  0.3364419588230376
  0.6151680565505941  0.0687644761720989  0.1073841613343660
  0.6144275886852171  0.1953141335751596  0.8131787387541962
  0.7728386107414593  0.3552568417001822  0.8129329527528881
  0.6110250747730674  0.3242675548909943  0.5880331400882000
  0.7707053430621329  0.4846155824845226  0.5766228568277683
  0.9488526739340415  0.2797253413424770  0.3351395996874160
  0.6123644573699352  0.4449058184623667  0.3393073923164138
  0.9495266564704394  0.4040678617322158  0.1031149344755846
  0.3005130669415976  0.7898440187864608  0.5385459608634093
  0.1437379568548849  0.7434090174994665  0.3116230124664554
  0.3098047842813543  0.9102434801572485  0.3111708397847153
  0.4643511112511831  0.8353558610878906  0.7910958400388068
  0.1408934717125589  0.9999436290917458  0.7842489580613545
  0.2960135758006359  0.6670536533029932  0.7798713533086286
  0.4711445038530826  0.9442671852468436  0.5432800980077488
  0.1434015794931724  0.6199268953190824  0.5383774927896923
  0.4792456478411609  0.5713209892908679  0.2983621947470354
  0.2769939763994742  0.6084907650263673  0.3353678357370171
  0.1162720779318605  0.5696704251349587  0.1012058941741785
  0.1150603358983844  0.6978334714532366  0.8180955165821189
  0.2765406132723669  0.8562425941567113  0.8081543952965760
  0.1102026795637769  0.8242859737203432  0.5892083000188109
  0.2686292152209191  0.9841494473491821  0.5831017080857208
  0.4492347286009348  0.7798886211052576  0.3370750626882568
  0.1124576255112544  0.9447241328382958  0.3408499239069442
  0.4503451338914246  0.9060795259849854  0.1078934152510769
  0.8015127670548168  0.7879727026759937  0.5394439111314782
  0.6438189722322960  0.7425571210931565  0.3110843804746537
  0.8085423464738923  0.9087621151657430  0.3106328716258275
  0.9627481237203526  0.8254013588304616  0.7903621085631229
  0.6355056130425112  0.9966842606152682  0.7847507017192257
  0.7949973584867678  0.6647838524125476  0.7799751787266445
  0.9689799869342508  0.9464237045794590  0.5327751284101296
  0.6432654957007458  0.6183746148285181  0.5387166130326193
  0.9787311858537819  0.5720489848059955  0.2976661117120756
  0.7765735440635098  0.6083293029928569  0.3358251569812367
  0.6150714670830837  0.5699755575126062  0.1016181263342730
  0.6139280427629430  0.6970101906362416  0.8168333624082891
  0.7734415999347704  0.8559665064674604  0.8128819260143700
  0.6125937822544216  0.8233821629263502  0.5891522333272903
  0.7698649533285078  0.9847678590665723  0.5779518659446907
  0.9483162943929813  0.7795851327873109  0.3363394077543447
  0.6112610022841451  0.9444405781448708  0.3434148959202261
  0.9487898964637864  0.9042407673082806  0.1046492622675927
  0.4839652891812563  0.1799032675213681  0.0199326186322537
  0.1386545150463405  0.3625784753229908  0.0280139747394088
  0.3188995626514384  0.0168957055753012  0.0195134631242411
  0.2893076832229440  0.2278023941651099  0.0762694722225064
  0.4434136934641657  0.1508438220391710  0.5893575474392563
  0.9832366659992147  0.1939680104215498  0.0398901909690679
  0.6313323521041454  0.3608772375466884  0.0330272717180833
  0.8075148082498345  0.0208041655955853  0.0390982949195404
  0.7846059831011729  0.2336252884207326  0.0824488728810664
  0.9479565486264363  0.0192940018829049  0.8184863229266242
  0.9426658067336646  0.1555424318708560  0.5707938673824131
  0.4826682004008234  0.6958644658684889  0.0376346266617418
  0.1393614837776624  0.8688024309843243  0.0333618411677534
  0.3098295696254212  0.5213558417729018  0.0395662015167062
  0.2839405586712971  0.7341204199825313  0.0838333330738905
  0.4486972878886775  0.5196927423533850  0.8169152590799342
  0.4426930226193235  0.6592433905878039  0.5757005576185250
  0.9835028671208761  0.6955190137541223  0.0401379925340919
  0.6361902165548798  0.8648568154526615  0.0339958404374059
  0.8066544175679411  0.5197258031084644  0.0401710847749257
  0.7844989078792750  0.7329107452285442  0.0824708934784653
  0.9480477129590525  0.5201795526803110  0.8196339971257771
  0.9430723751985894  0.6547747357770177  0.5722170735702008
  0.2376345444234715  0.3687059693928774  0.6233470675375585
  0.0758173835539040  0.3249818343269908  0.3974126820249495
  0.2390472654751647  0.4891151801408142  0.3879693886134632
  0.4350938255424239  0.2858798932859230  0.1513027962518336
  0.0714804420307189  0.4551321973810118  0.1490103603901929
  0.2406302903569184  0.0951523046036584  0.1517092523159320
  0.3991873732273490  0.3942843438887706  0.9083085525414134
  0.0924432878487096  0.0840930205445076  0.9016165584609936
  0.2274921289398364  0.2503915090892477  0.8672736714905227
  0.3926797087729952  0.0096781889178104  0.6172680468316187
  0.0890664792649858  0.2037082281977334  0.6290411799102387
  0.4063313768349488  0.1556607620040680  0.3693354770015347
  0.2196917534026710  0.1899494275690330  0.4320137727610174
  0.0644591520725584  0.1446541173465903  0.2080595266220300
  0.2182195040395811  0.3181476453718162  0.2081219241275889
  0.3496211224660186  0.1370890614064777  0.9218168567741216
  0.0388773062962287  0.2688014631022568  0.8846880753174204
  0.2103557378231145  0.4383964155767757  0.8876341426289045
  0.3640807761639806  0.2476119352020234  0.6809857978095977
  0.0395739769270307  0.4068637570520224  0.6825220958028666
  0.2100945976151678  0.0697924095373779  0.6705190004047381
  0.3831616532748399  0.3519990445743915  0.4300797997351964
  0.0489145711349011  0.0253053362796862  0.4391139411109819
  0.3920491579971781  0.4729664290958553  0.2091179052557166
  0.7369295228613879  0.3677217476632535  0.6271013791449036
  0.5765210737271005  0.3251691174477855  0.3997800706064041
  0.7397468631148243  0.4895319505390461  0.3905460576616377
  0.9278513136922797  0.2920680318225379  0.1555741085323987
  0.5702717334017606  0.4563765244758073  0.1514590357478625
  0.7351608444836657  0.1033225931912725  0.1562307236873366
  0.8982387803542338  0.3937272735202271  0.9077981410742666
  0.5966185362909187  0.0862935166024172  0.9096147862309607
  0.7326607501623315  0.2428272117293631  0.8668912244757365
  0.8945137250911586  0.0167202812484604  0.6085304570894294
  0.5900254827682616  0.2034271703760382  0.6298617948480256
  0.9048826716650780  0.1550660213996764  0.3526583690356162
  0.7194021814155036  0.1902671072412048  0.4346781746358417
  0.5606212525830543  0.1449039993406203  0.2121354452751945
  0.7162128940348111  0.3198836448527445  0.2095391595815528
  0.8655028907650433  0.1170486506022002  0.9090700305363271
  0.5384828251765796  0.2658091237995066  0.8781784559866921
  0.7068592544658969  0.4331526482569430  0.8911873051929078
  0.8657134020071240  0.2456522427274948  0.6816368643411650
  0.5382898645021896  0.4070526259241305  0.6828270306312731
  0.7099585176394285  0.0672300596515853  0.6726274643797296
  0.8821383764667203  0.3519287139941625  0.4331196622521887
  0.5476681833446122  0.0248337157328038  0.4442952996996041
  0.8917450762894248  0.4746237288496999  0.2092189806018396
  0.2344529085379534  0.8666989542166661  0.6249203768377924
  0.0748102769418324  0.8244391791307422  0.4001035042071024
  0.2415125499159458  0.9902112440579103  0.3952270299867777
  0.4272142712746074  0.7928641507901588  0.1568727780662655
  0.0701891540120556  0.9568152297413945  0.1530277121548593
  0.2361611665354104  0.6029921557706217  0.1552327364251695
  0.3990892595854874  0.8948461563464747  0.9154311829092521
  0.0932371216866557  0.5844962460014145  0.9012593461551219
  0.2342316308159980  0.7462402632343199  0.8683637066107224
  0.3955797263570560  0.5180235529127657  0.6063319756480965
  0.0893263934762984  0.7033062416367173  0.6328988090984069
  0.4048662865159827  0.6553668213848169  0.3559971014561967
  0.2198843495439249  0.6907116961017081  0.4350187470450493
  0.0626847342826125  0.6449358459169332  0.2086936979525049
  0.2163239359628477  0.8208773903069613  0.2119554654265627
  0.3660089770057482  0.6174819586414202  0.9071220160041875
  0.0431000560594512  0.7713089942529621  0.8885984257704251
  0.2103137358396978  0.9363773925875094  0.8836086674125454
  0.3663985110226520  0.7520737983436732  0.6858538303594912
  0.0383494615802888  0.9072412363817506  0.6835780827559006
  0.2127839035118768  0.5694092698235238  0.6699028295464302
  0.3828303849008137  0.8529392498144048  0.4343051805885523
  0.0490882415760510  0.5258833071299733  0.4390917957030922
  0.3914157660452418  0.9772053366992921  0.2116765017622910
  0.7381493203291640  0.8672258372296753  0.6267992107013356
  0.5757872347404245  0.8235996372730554  0.3997467101091274
  0.7387180642210893  0.9897618894326925  0.3917044154520042
  0.9276331095367212  0.7922731449432234  0.1568668674233464
  0.5713656618182128  0.9558743390817455  0.1569264870842986
  0.7349031710089093  0.6028320026147043  0.1561532986594116
  0.8990668296681008  0.8938508384199508  0.9092686336442384
  0.5927542338230154  0.5838050859942285  0.9020494245161217
  0.7328698214628346  0.7446156093691627  0.8673707094003760
  0.8951402508113304  0.5156605532892513  0.6094395832658606
  0.5897724350135292  0.7020166472466727  0.6316772992354132
  0.9044656248103067  0.6552881883719195  0.3547323243805067
  0.7196051208309413  0.6901021826221694  0.4356464594162048
  0.5613458943775953  0.6454875164130485  0.2077757313334843
  0.7167685796675656  0.8192078427679235  0.2107562422960214
  0.8650726079529960  0.6171745695435717  0.9103902814476328
  0.5407484459442671  0.7710772264492931  0.8847156833822254
  0.7082163796087855  0.9359208513698078  0.8891114860321991
  0.8672854406199377  0.7456582034097110  0.6829448086811780
  0.5433242108902405  0.9026516313305279  0.6808019125490929
  0.7120170197602889  0.5672123097227768  0.6717645674610537
  0.8819442588916431  0.8522265191931666  0.4336169776486329
  0.5499035235110057  0.5252041005359303  0.4385727738003311
  0.8905970038257394  0.9748137646135859  0.2096189345387174
 
  0.00000000E+00  0.00000000E+00  0.00000000E+00
  0.00000000E+00  0.00000000E+00  0.00000000E+00
  0.00000000E+00  0.00000000E+00  0.00000000E+00
  0.00000000E+00  0.00000000E+00  0.00000000E+00
  0.00000000E+00  0.00000000E+00  0.00000000E+00
  0.00000000E+00  0.00000000E+00  0.00000000E+00
  0.00000000E+00  0.00000000E+00  0.00000000E+00
  0.00000000E+00  0.00000000E+00  0.00000000E+00
  0.00000000E+00  0.00000000E+00  0.00000000E+00
  0.00000000E+00  0.00000000E+00  0.00000000E+00
  0.00000000E+00  0.00000000E+00  0.00000000E+00
  0.00000000E+00  0.00000000E+00  0.00000000E+00
  0.00000000E+00  0.00000000E+00  0.00000000E+00
  0.00000000E+00  0.00000000E+00  0.00000000E+00
  0.00000000E+00  0.00000000E+00  0.00000000E+00
  0.00000000E+00  0.00000000E+00  0.00000000E+00
  0.00000000E+00  0.00000000E+00  0.00000000E+00
  0.00000000E+00  0.00000000E+00  0.00000000E+00
  0.00000000E+00  0.00000000E+00  0.00000000E+00
  0.00000000E+00  0.00000000E+00  0.00000000E+00
  0.00000000E+00  0.00000000E+00  0.00000000E+00
  0.00000000E+00  0.00000000E+00  0.00000000E+00
  0.00000000E+00  0.00000000E+00  0.00000000E+00
  0.00000000E+00  0.00000000E+00  0.00000000E+00
  0.00000000E+00  0.00000000E+00  0.00000000E+00
  0.00000000E+00  0.00000000E+00  0.00000000E+00
  0.00000000E+00  0.00000000E+00  0.00000000E+00
  0.00000000E+00  0.00000000E+00  0.00000000E+00
  0.00000000E+00  0.00000000E+00  0.00000000E+00
  0.00000000E+00  0.00000000E+00  0.00000000E+00
  0.00000000E+00  0.00000000E+00  0.00000000E+00
  0.00000000E+00  0.00000000E+00  0.00000000E+00
  0.00000000E+00  0.00000000E+00  0.00000000E+00
  0.00000000E+00  0.00000000E+00  0.00000000E+00
  0.00000000E+00  0.00000000E+00  0.00000000E+00
  0.00000000E+00  0.00000000E+00  0.00000000E+00
  0.00000000E+00  0.00000000E+00  0.00000000E+00
  0.00000000E+00  0.00000000E+00  0.00000000E+00
  0.00000000E+00  0.00000000E+00  0.00000000E+00
  0.00000000E+00  0.00000000E+00  0.00000000E+00
  0.00000000E+00  0.00000000E+00  0.00000000E+00
  0.00000000E+00  0.00000000E+00  0.00000000E+00
  0.00000000E+00  0.00000000E+00  0.00000000E+00
  0.00000000E+00  0.00000000E+00  0.00000000E+00
  0.00000000E+00  0.00000000E+00  0.00000000E+00
  0.00000000E+00  0.00000000E+00  0.00000000E+00
  0.00000000E+00  0.00000000E+00  0.00000000E+00
  0.00000000E+00  0.00000000E+00  0.00000000E+00
  0.00000000E+00  0.00000000E+00  0.00000000E+00
  0.00000000E+00  0.00000000E+00  0.00000000E+00
  0.00000000E+00  0.00000000E+00  0.00000000E+00
  0.00000000E+00  0.00000000E+00  0.00000000E+00
  0.00000000E+00  0.00000000E+00  0.00000000E+00
  0.00000000E+00  0.00000000E+00  0.00000000E+00
  0.00000000E+00  0.00000000E+00  0.00000000E+00
  0.00000000E+00  0.00000000E+00  0.00000000E+00
  0.00000000E+00  0.00000000E+00  0.00000000E+00
  0.00000000E+00  0.00000000E+00  0.00000000E+00
  0.00000000E+00  0.00000000E+00  0.00000000E+00
  0.00000000E+00  0.00000000E+00  0.00000000E+00
  0.00000000E+00  0.00000000E+00  0.00000000E+00
  0.00000000E+00  0.00000000E+00  0.00000000E+00
  0.00000000E+00  0.00000000E+00  0.00000000E+00
  0.00000000E+00  0.00000000E+00  0.00000000E+00
  0.00000000E+00  0.00000000E+00  0.00000000E+00
  0.00000000E+00  0.00000000E+00  0.00000000E+00
  0.00000000E+00  0.00000000E+00  0.00000000E+00
  0.00000000E+00  0.00000000E+00  0.00000000E+00
  0.00000000E+00  0.00000000E+00  0.00000000E+00
  0.00000000E+00  0.00000000E+00  0.00000000E+00
  0.00000000E+00  0.00000000E+00  0.00000000E+00
  0.00000000E+00  0.00000000E+00  0.00000000E+00
  0.00000000E+00  0.00000000E+00  0.00000000E+00
  0.00000000E+00  0.00000000E+00  0.00000000E+00
  0.00000000E+00  0.00000000E+00  0.00000000E+00
  0.00000000E+00  0.00000000E+00  0.00000000E+00
  0.00000000E+00  0.00000000E+00  0.00000000E+00
  0.00000000E+00  0.00000000E+00  0.00000000E+00
  0.00000000E+00  0.00000000E+00  0.00000000E+00
  0.00000000E+00  0.00000000E+00  0.00000000E+00
  0.00000000E+00  0.00000000E+00  0.00000000E+00
  0.00000000E+00  0.00000000E+00  0.00000000E+00
  0.00000000E+00  0.00000000E+00  0.00000000E+00
  0.00000000E+00  0.00000000E+00  0.00000000E+00
  0.00000000E+00  0.00000000E+00  0.00000000E+00
  0.00000000E+00  0.00000000E+00  0.00000000E+00
  0.00000000E+00  0.00000000E+00  0.00000000E+00
  0.00000000E+00  0.00000000E+00  0.00000000E+00
  0.00000000E+00  0.00000000E+00  0.00000000E+00
  0.00000000E+00  0.00000000E+00  0.00000000E+00
  0.00000000E+00  0.00000000E+00  0.00000000E+00
  0.00000000E+00  0.00000000E+00  0.00000000E+00
  0.00000000E+00  0.00000000E+00  0.00000000E+00
  0.00000000E+00  0.00000000E+00  0.00000000E+00
  0.00000000E+00  0.00000000E+00  0.00000000E+00
  0.00000000E+00  0.00000000E+00  0.00000000E+00
  0.00000000E+00  0.00000000E+00  0.00000000E+00
  0.00000000E+00  0.00000000E+00  0.00000000E+00
  0.00000000E+00  0.00000000E+00  0.00000000E+00
  0.00000000E+00  0.00000000E+00  0.00000000E+00
  0.00000000E+00  0.00000000E+00  0.00000000E+00
  0.00000000E+00  0.00000000E+00  0.00000000E+00
  0.00000000E+00  0.00000000E+00  0.00000000E+00
  0.00000000E+00  0.00000000E+00  0.00000000E+00
  0.00000000E+00  0.00000000E+00  0.00000000E+00
  0.00000000E+00  0.00000000E+00  0.00000000E+00
  0.00000000E+00  0.00000000E+00  0.00000000E+00
  0.00000000E+00  0.00000000E+00  0.00000000E+00
  0.00000000E+00  0.00000000E+00  0.00000000E+00
  0.00000000E+00  0.00000000E+00  0.00000000E+00
  0.00000000E+00  0.00000000E+00  0.00000000E+00
  0.00000000E+00  0.00000000E+00  0.00000000E+00
  0.00000000E+00  0.00000000E+00  0.00000000E+00
  0.00000000E+00  0.00000000E+00  0.00000000E+00
  0.00000000E+00  0.00000000E+00  0.00000000E+00
  0.00000000E+00  0.00000000E+00  0.00000000E+00
  0.00000000E+00  0.00000000E+00  0.00000000E+00
  0.00000000E+00  0.00000000E+00  0.00000000E+00
  0.00000000E+00  0.00000000E+00  0.00000000E+00
  0.00000000E+00  0.00000000E+00  0.00000000E+00
  0.00000000E+00  0.00000000E+00  0.00000000E+00
  0.00000000E+00  0.00000000E+00  0.00000000E+00
  0.00000000E+00  0.00000000E+00  0.00000000E+00
  0.00000000E+00  0.00000000E+00  0.00000000E+00
  0.00000000E+00  0.00000000E+00  0.00000000E+00
  0.00000000E+00  0.00000000E+00  0.00000000E+00
  0.00000000E+00  0.00000000E+00  0.00000000E+00
  0.00000000E+00  0.00000000E+00  0.00000000E+00
  0.00000000E+00  0.00000000E+00  0.00000000E+00
  0.00000000E+00  0.00000000E+00  0.00000000E+00
  0.00000000E+00  0.00000000E+00  0.00000000E+00
  0.00000000E+00  0.00000000E+00  0.00000000E+00
  0.00000000E+00  0.00000000E+00  0.00000000E+00
  0.00000000E+00  0.00000000E+00  0.00000000E+00
  0.00000000E+00  0.00000000E+00  0.00000000E+00
  0.00000000E+00  0.00000000E+00  0.00000000E+00
  0.00000000E+00  0.00000000E+00  0.00000000E+00
  0.00000000E+00  0.00000000E+00  0.00000000E+00
  0.00000000E+00  0.00000000E+00  0.00000000E+00
  0.00000000E+00  0.00000000E+00  0.00000000E+00
  0.00000000E+00  0.00000000E+00  0.00000000E+00
  0.00000000E+00  0.00000000E+00  0.00000000E+00
  0.00000000E+00  0.00000000E+00  0.00000000E+00
  0.00000000E+00  0.00000000E+00  0.00000000E+00
  0.00000000E+00  0.00000000E+00  0.00000000E+00
  0.00000000E+00  0.00000000E+00  0.00000000E+00
  0.00000000E+00  0.00000000E+00  0.00000000E+00
  0.00000000E+00  0.00000000E+00  0.00000000E+00
  0.00000000E+00  0.00000000E+00  0.00000000E+00
  0.00000000E+00  0.00000000E+00  0.00000000E+00
  0.00000000E+00  0.00000000E+00  0.00000000E+00
  0.00000000E+00  0.00000000E+00  0.00000000E+00
  0.00000000E+00  0.00000000E+00  0.00000000E+00
  0.00000000E+00  0.00000000E+00  0.00000000E+00
  0.00000000E+00  0.00000000E+00  0.00000000E+00
  0.00000000E+00  0.00000000E+00  0.00000000E+00
  0.00000000E+00  0.00000000E+00  0.00000000E+00
  0.00000000E+00  0.00000000E+00  0.00000000E+00
  0.00000000E+00  0.00000000E+00  0.00000000E+00
  0.00000000E+00  0.00000000E+00  0.00000000E+00
  0.00000000E+00  0.00000000E+00  0.00000000E+00
  0.00000000E+00  0.00000000E+00  0.00000000E+00
  0.00000000E+00  0.00000000E+00  0.00000000E+00
  0.00000000E+00  0.00000000E+00  0.00000000E+00
  0.00000000E+00  0.00000000E+00  0.00000000E+00
  0.00000000E+00  0.00000000E+00  0.00000000E+00
  0.00000000E+00  0.00000000E+00  0.00000000E+00
  0.00000000E+00  0.00000000E+00  0.00000000E+00
  0.00000000E+00  0.00000000E+00  0.00000000E+00
  0.00000000E+00  0.00000000E+00  0.00000000E+00
  0.00000000E+00  0.00000000E+00  0.00000000E+00
  0.00000000E+00  0.00000000E+00  0.00000000E+00
  0.00000000E+00  0.00000000E+00  0.00000000E+00
  0.00000000E+00  0.00000000E+00  0.00000000E+00
  0.00000000E+00  0.00000000E+00  0.00000000E+00
  0.00000000E+00  0.00000000E+00  0.00000000E+00
  0.00000000E+00  0.00000000E+00  0.00000000E+00
  0.00000000E+00  0.00000000E+00  0.00000000E+00
  0.00000000E+00  0.00000000E+00  0.00000000E+00
  0.00000000E+00  0.00000000E+00  0.00000000E+00
  0.00000000E+00  0.00000000E+00  0.00000000E+00
  0.00000000E+00  0.00000000E+00  0.00000000E+00
  0.00000000E+00  0.00000000E+00  0.00000000E+00
  0.00000000E+00  0.00000000E+00  0.00000000E+00
  0.00000000E+00  0.00000000E+00  0.00000000E+00
  0.00000000E+00  0.00000000E+00  0.00000000E+00
  0.00000000E+00  0.00000000E+00  0.00000000E+00
  0.00000000E+00  0.00000000E+00  0.00000000E+00
  0.00000000E+00  0.00000000E+00  0.00000000E+00
  0.00000000E+00  0.00000000E+00  0.00000000E+00
  0.00000000E+00  0.00000000E+00  0.00000000E+00
