supercell of icsd_608626.cif            
  0.948910476625986     
     9.5385126616916853    0.0357534119677218   -0.0644364054027247
    -4.7398536842580308    8.0603411088500820    0.0511483906723568
    -0.0720013338288118    0.0233236764953170    9.8312217363036112
   Al   B    N 
    24    12    36
Direct
  0.2184717331902988  0.1127165619581660  0.2506227073178380
  0.1052337406184165  0.2209358594045838  0.4977516828087332
  0.8788654752652221  0.1047846500068133  0.7512275047449677
  0.5594251432078536  0.1267873247327955  0.2475450598260949
  0.1104611123628061  0.2314230289043522  0.0013394699924305
  0.8870228008953944  0.1235755894570971  0.2500206557537084
  0.4588818786259026  0.2301494679196523  0.9719350235542521
  0.1063735567950701  0.5505110639095960  0.4906434000000530
  0.8928295478287467  0.4457985980473538  0.7570688874139293
  0.5485901954851897  0.4419148703221154  0.2400966014653463
  0.4471919986293855  0.5403310757426567  0.5003940622385201
  0.2370433141379849  0.4403605796145627  0.7583579230646436
  0.8846769496557627  0.4471236817869482  0.2257576048745733
  0.2216674928092175  0.7776315895244679  0.2431173871657180
  0.0983923439549486  0.8829908223382503  0.5073798277633443
  0.7661759739744767  0.8782493536605855  0.0022066558616487
  0.5469300740832779  0.7794537920816538  0.2536029629194658
  0.4498740014713931  0.9084088170271940  0.5083544068953714
  0.2211399398705467  0.7781180993346268  0.7525518197978514
  0.0943920623687120  0.8659081118973404  0.9864589937593777
  0.8828416667131549  0.7704525310121468  0.2491235445855366
  0.7756421214387146  0.8846444940589677  0.5022031135722926
  0.5517348916638483  0.7617062567469617  0.7532477011185463
  0.4471726576044830  0.8962892091545314  0.9889113105499447
  0.7962180191725565  0.2312478377090841  0.9984560050632965
  0.5346690556473916  0.2696380381137686  0.5262316425427258
  0.1516464456961799  0.0725788703840422  0.7685307532881822
  0.7752941846864516  0.2323508222197503  0.5066151164626405
  0.5854023867217180  0.1358576884988736  0.7482217601046628
  0.2149766786828877  0.4407448502358093  0.2487830822252590
  0.7461770190785657  0.5724011977890626  0.9911906438533293
  0.1108355144781612  0.5412939630417668  0.0088032453175018
  0.7800488873727147  0.5542107535319616  0.5061929044279410
  0.5881669731889261  0.4523546609930804  0.7465268578652271
  0.4056649303416933  0.5787530853901899  0.0270718866079136
  0.8688109736755081  0.7626937741249549  0.7527792818576984
  0.1963209313576115  0.0976908018275680  0.4404713366988133
  0.1175731466751628  0.2454289132168412  0.1981341842870847
  0.8767644191913604  0.1119724979328822  0.9505821085588835
  0.7700404501033304  0.2166762790086807  0.6782554399893073
  0.5792775628964932  0.1461067822685393  0.4515973616768250
  0.4354680642701041  0.2212822415769935  0.1727238042527404
  0.2146402380391379  0.1042802064123904  0.9184149941505950
  0.1121191371965651  0.2025072357099233  0.7052615842940284
  0.8693614357158026  0.1297514931460810  0.4525160717232382
  0.7715205136835195  0.2218276352366360  0.1655272931136551
  0.5939002514997469  0.1303020566876256  0.9196794648248741
  0.5224354062043588  0.2622928692090625  0.6805665736141151
  0.2257438245742520  0.4460057633211818  0.4195386179102414
  0.1204966332070612  0.5426948603753985  0.1851055838577551
  0.9259146468366311  0.4241703792287410  0.9522828899737092
  0.7833574036175861  0.5730611780829662  0.6836490849864134
  0.5803134940640646  0.4398172999940115  0.4470626471941230
  0.4140955919257934  0.5473953789390862  0.1848672684401578
  0.2391527373534217  0.4684873521011284  0.9564141858352286
  0.1212788982677395  0.5503127241058223  0.6871901316660498
  0.8692195789943540  0.4396127086334474  0.4469319076916420
  0.7635194640672083  0.5581077349739019  0.1537892775981007
  0.5993379917069888  0.4524349620969588  0.9110223276077818
  0.4586692483329102  0.5297918482681041  0.6970684443786013
  0.2237326731992724  0.7847335879626272  0.4457177121771849
  0.1006482495730268  0.8840565864331893  0.1825290348500559
  0.8640196040589956  0.7490883003785527  0.9245593323592942
  0.7819108249494704  0.8700947139422297  0.7045426685627660
  0.5487334305537814  0.7763657125425425  0.4521986618777660
  0.4456944968992076  0.9001199566287212  0.1906885167844692
  0.2070673994701124  0.7462681242033256  0.9512607287943808
  0.0839349057302883  0.8882494104524810  0.7135845497100348
  0.8695931562003878  0.7433174567260608  0.4459657381637072
  0.7742114838478926  0.8892095803612321  0.2013326998637908
  0.5327713117960045  0.7456130905333040  0.9580143177508162
  0.4582196525467594  0.9164813068060695  0.7096319681212293
 
  0.00000000E+00  0.00000000E+00  0.00000000E+00
  0.00000000E+00  0.00000000E+00  0.00000000E+00
  0.00000000E+00  0.00000000E+00  0.00000000E+00
  0.00000000E+00  0.00000000E+00  0.00000000E+00
  0.00000000E+00  0.00000000E+00  0.00000000E+00
  0.00000000E+00  0.00000000E+00  0.00000000E+00
  0.00000000E+00  0.00000000E+00  0.00000000E+00
  0.00000000E+00  0.00000000E+00  0.00000000E+00
  0.00000000E+00  0.00000000E+00  0.00000000E+00
  0.00000000E+00  0.00000000E+00  0.00000000E+00
  0.00000000E+00  0.00000000E+00  0.00000000E+00
  0.00000000E+00  0.00000000E+00  0.00000000E+00
  0.00000000E+00  0.00000000E+00  0.00000000E+00
  0.00000000E+00  0.00000000E+00  0.00000000E+00
  0.00000000E+00  0.00000000E+00  0.00000000E+00
  0.00000000E+00  0.00000000E+00  0.00000000E+00
  0.00000000E+00  0.00000000E+00  0.00000000E+00
  0.00000000E+00  0.00000000E+00  0.00000000E+00
  0.00000000E+00  0.00000000E+00  0.00000000E+00
  0.00000000E+00  0.00000000E+00  0.00000000E+00
  0.00000000E+00  0.00000000E+00  0.00000000E+00
  0.00000000E+00  0.00000000E+00  0.00000000E+00
  0.00000000E+00  0.00000000E+00  0.00000000E+00
  0.00000000E+00  0.00000000E+00  0.00000000E+00
  0.00000000E+00  0.00000000E+00  0.00000000E+00
  0.00000000E+00  0.00000000E+00  0.00000000E+00
  0.00000000E+00  0.00000000E+00  0.00000000E+00
  0.00000000E+00  0.00000000E+00  0.00000000E+00
  0.00000000E+00  0.00000000E+00  0.00000000E+00
  0.00000000E+00  0.00000000E+00  0.00000000E+00
  0.00000000E+00  0.00000000E+00  0.00000000E+00
  0.00000000E+00  0.00000000E+00  0.00000000E+00
  0.00000000E+00  0.00000000E+00  0.00000000E+00
  0.00000000E+00  0.00000000E+00  0.00000000E+00
  0.00000000E+00  0.00000000E+00  0.00000000E+00
  0.00000000E+00  0.00000000E+00  0.00000000E+00
  0.00000000E+00  0.00000000E+00  0.00000000E+00
  0.00000000E+00  0.00000000E+00  0.00000000E+00
  0.00000000E+00  0.00000000E+00  0.00000000E+00
  0.00000000E+00  0.00000000E+00  0.00000000E+00
  0.00000000E+00  0.00000000E+00  0.00000000E+00
  0.00000000E+00  0.00000000E+00  0.00000000E+00
  0.00000000E+00  0.00000000E+00  0.00000000E+00
  0.00000000E+00  0.00000000E+00  0.00000000E+00
  0.00000000E+00  0.00000000E+00  0.00000000E+00
  0.00000000E+00  0.00000000E+00  0.00000000E+00
  0.00000000E+00  0.00000000E+00  0.00000000E+00
  0.00000000E+00  0.00000000E+00  0.00000000E+00
  0.00000000E+00  0.00000000E+00  0.00000000E+00
  0.00000000E+00  0.00000000E+00  0.00000000E+00
  0.00000000E+00  0.00000000E+00  0.00000000E+00
  0.00000000E+00  0.00000000E+00  0.00000000E+00
  0.00000000E+00  0.00000000E+00  0.00000000E+00
  0.00000000E+00  0.00000000E+00  0.00000000E+00
  0.00000000E+00  0.00000000E+00  0.00000000E+00
  0.00000000E+00  0.00000000E+00  0.00000000E+00
  0.00000000E+00  0.00000000E+00  0.00000000E+00
  0.00000000E+00  0.00000000E+00  0.00000000E+00
  0.00000000E+00  0.00000000E+00  0.00000000E+00
  0.00000000E+00  0.00000000E+00  0.00000000E+00
  0.00000000E+00  0.00000000E+00  0.00000000E+00
  0.00000000E+00  0.00000000E+00  0.00000000E+00
  0.00000000E+00  0.00000000E+00  0.00000000E+00
  0.00000000E+00  0.00000000E+00  0.00000000E+00
  0.00000000E+00  0.00000000E+00  0.00000000E+00
  0.00000000E+00  0.00000000E+00  0.00000000E+00
  0.00000000E+00  0.00000000E+00  0.00000000E+00
  0.00000000E+00  0.00000000E+00  0.00000000E+00
  0.00000000E+00  0.00000000E+00  0.00000000E+00
  0.00000000E+00  0.00000000E+00  0.00000000E+00
  0.00000000E+00  0.00000000E+00  0.00000000E+00
  0.00000000E+00  0.00000000E+00  0.00000000E+00
