supercell of icsd_608626.cif            
  0.983556481332809     
     9.3229475610994292    0.0044353773007106   -0.0075593432589110
    -4.6576283208361984    8.0662852624957395    0.0040218530054332
    -0.0082350177015534    0.0002640494499744    9.8627027369273943
   Al   B    N 
    32     4    36
Direct
  0.2227130671758104  0.1113168158977942  0.2418758986911840
  0.1199617462142726  0.2220595335254885  0.5047994398605979
  0.8929693116695745  0.1096392793259753  0.7494514867997353
  0.7720671184000594  0.2191237877451400  0.9984710947023387
  0.5512372961576801  0.1102277092033077  0.2339612629601788
  0.4383016927379799  0.2216977711872516  0.5014962700412511
  0.1192548496550359  0.2246044971263288  0.9925270529727754
  0.8907496375640065  0.1129150952382147  0.2499687131798609
  0.7741189446517254  0.2207825910082803  0.4998757589383516
  0.5446392096210531  0.1072103129584576  0.7585242035707083
  0.2271621744268728  0.4451943535110203  0.2547930407276624
  0.1169170797283670  0.5592126081452307  0.4996617687289344
  0.8891514762687009  0.4452532137547607  0.7502246231607756
  0.7724680150846979  0.5491431575909402  0.0000834902786409
  0.5493873878049342  0.4416086977291940  0.2471799949909510
  0.2272871659916120  0.4431209017815831  0.7422479788538823
  0.1184871327438159  0.5584535792015046  0.0001344717492131
  0.8887454059636326  0.4436201936420971  0.2501681839468048
  0.7724605318968187  0.5561425224233716  0.4998620213390410
  0.5466507970456149  0.4360492261488247  0.7472572688430859
  0.4429019184622973  0.5543725503855512  0.9976568079882711
  0.2229599045853092  0.7796840397510465  0.2433892648648737
  0.1160501510982925  0.8951734279561805  0.5046754050595936
  0.8920993133211184  0.7825424883661611  0.7508347870109091
  0.7727112200124040  0.8903865510794517  0.0009459608200686
  0.5507798935395414  0.7732402106291119  0.2473519520765777
  0.4436611527378886  0.8859217868836495  0.4972059395903869
  0.2306161031606493  0.7859431550884040  0.7547174179475036
  0.1219191626249270  0.8963953834388363  0.9926807893788379
  0.8898864516818037  0.7781803220563646  0.2494606545380407
  0.7725739713058886  0.8829532505844782  0.4992663450706374
  0.5523959561560829  0.7789051903639503  0.7476487987293936
  0.2320371608823066  0.1154680730374125  0.7567850559126725
  0.4389839103929987  0.2163478347135381  0.9982767671728112
  0.4443093079994966  0.5551247049932968  0.5034154744283228
  0.4383492222010403  0.8886106994601164  0.0057545327295117
  0.2232662144432211  0.1108395532305835  0.4335379332326283
  0.1125810638848677  0.2245814075001533  0.1884878474155585
  0.8909568827702259  0.1120543676531938  0.9419381622127148
  0.7727843699781545  0.2198621767965747  0.6958610706642361
  0.5522274925462796  0.1115526495966677  0.4327347070555803
  0.4398240784423635  0.2217048205064458  0.1657598332511299
  0.2475083931967461  0.1238720797270361  0.9291895227822167
  0.1259648871205812  0.2088959724568014  0.7014473276942539
  0.8919108244120011  0.1130633788945588  0.4460344588100682
  0.7777795105900935  0.2220437963298778  0.1910210296258796
  0.5332950547858033  0.1005411021370008  0.9549365735429092
  0.4195782270515593  0.2076830914090593  0.6956675954547151
  0.2460787930272303  0.4547892416548791  0.4532392475701386
  0.1126235578269998  0.5537150199888003  0.1947578025852437
  0.8921545957649357  0.4462845249693288  0.9433687372134827
  0.7753030731008437  0.5550779037933751  0.6937942648062858
  0.5408114590688768  0.4527309986906474  0.4473766912621286
  0.4432571741154376  0.5543548059810348  0.1872500560120756
  0.2252812638413531  0.4464466166471155  0.9347215304739933
  0.1131742378624594  0.5596695378441794  0.6935055485874742
  0.8891013171854567  0.4448246432554228  0.4441856841554070
  0.7744338969977704  0.5532755766927338  0.1947378535912065
  0.5432533509895094  0.4192619575215346  0.9436575574130330
  0.4475941102460652  0.5575295550746091  0.6727308795763491
  0.2225943101548893  0.7807432721318719  0.4385324864677784
  0.1101415043076202  0.8894084605093369  0.1855534222494981
  0.8871369616696967  0.7770160648267819  0.9438269402677335
  0.7757494080838256  0.8876903143292196  0.6923414803507129
  0.5415132616530940  0.7531085863871851  0.4452123560967536
  0.4432385523897651  0.8865304903376554  0.1715572587926104
  0.2480134581796065  0.7899175917469989  0.9501614848630524
  0.1261572602471688  0.9140553207356632  0.7051477376297157
  0.8927099747365972  0.7795973119644302  0.4446558187593865
  0.7756719621365917  0.8886807741245946  0.1954307537144189
  0.5432577396854370  0.7899519130546651  0.9454744004389752
  0.4461069365426056  0.8920196055676897  0.6875339677262815
 
  0.00000000E+00  0.00000000E+00  0.00000000E+00
  0.00000000E+00  0.00000000E+00  0.00000000E+00
  0.00000000E+00  0.00000000E+00  0.00000000E+00
  0.00000000E+00  0.00000000E+00  0.00000000E+00
  0.00000000E+00  0.00000000E+00  0.00000000E+00
  0.00000000E+00  0.00000000E+00  0.00000000E+00
  0.00000000E+00  0.00000000E+00  0.00000000E+00
  0.00000000E+00  0.00000000E+00  0.00000000E+00
  0.00000000E+00  0.00000000E+00  0.00000000E+00
  0.00000000E+00  0.00000000E+00  0.00000000E+00
  0.00000000E+00  0.00000000E+00  0.00000000E+00
  0.00000000E+00  0.00000000E+00  0.00000000E+00
  0.00000000E+00  0.00000000E+00  0.00000000E+00
  0.00000000E+00  0.00000000E+00  0.00000000E+00
  0.00000000E+00  0.00000000E+00  0.00000000E+00
  0.00000000E+00  0.00000000E+00  0.00000000E+00
  0.00000000E+00  0.00000000E+00  0.00000000E+00
  0.00000000E+00  0.00000000E+00  0.00000000E+00
  0.00000000E+00  0.00000000E+00  0.00000000E+00
  0.00000000E+00  0.00000000E+00  0.00000000E+00
  0.00000000E+00  0.00000000E+00  0.00000000E+00
  0.00000000E+00  0.00000000E+00  0.00000000E+00
  0.00000000E+00  0.00000000E+00  0.00000000E+00
  0.00000000E+00  0.00000000E+00  0.00000000E+00
  0.00000000E+00  0.00000000E+00  0.00000000E+00
  0.00000000E+00  0.00000000E+00  0.00000000E+00
  0.00000000E+00  0.00000000E+00  0.00000000E+00
  0.00000000E+00  0.00000000E+00  0.00000000E+00
  0.00000000E+00  0.00000000E+00  0.00000000E+00
  0.00000000E+00  0.00000000E+00  0.00000000E+00
  0.00000000E+00  0.00000000E+00  0.00000000E+00
  0.00000000E+00  0.00000000E+00  0.00000000E+00
  0.00000000E+00  0.00000000E+00  0.00000000E+00
  0.00000000E+00  0.00000000E+00  0.00000000E+00
  0.00000000E+00  0.00000000E+00  0.00000000E+00
  0.00000000E+00  0.00000000E+00  0.00000000E+00
  0.00000000E+00  0.00000000E+00  0.00000000E+00
  0.00000000E+00  0.00000000E+00  0.00000000E+00
  0.00000000E+00  0.00000000E+00  0.00000000E+00
  0.00000000E+00  0.00000000E+00  0.00000000E+00
  0.00000000E+00  0.00000000E+00  0.00000000E+00
  0.00000000E+00  0.00000000E+00  0.00000000E+00
  0.00000000E+00  0.00000000E+00  0.00000000E+00
  0.00000000E+00  0.00000000E+00  0.00000000E+00
  0.00000000E+00  0.00000000E+00  0.00000000E+00
  0.00000000E+00  0.00000000E+00  0.00000000E+00
  0.00000000E+00  0.00000000E+00  0.00000000E+00
  0.00000000E+00  0.00000000E+00  0.00000000E+00
  0.00000000E+00  0.00000000E+00  0.00000000E+00
  0.00000000E+00  0.00000000E+00  0.00000000E+00
  0.00000000E+00  0.00000000E+00  0.00000000E+00
  0.00000000E+00  0.00000000E+00  0.00000000E+00
  0.00000000E+00  0.00000000E+00  0.00000000E+00
  0.00000000E+00  0.00000000E+00  0.00000000E+00
  0.00000000E+00  0.00000000E+00  0.00000000E+00
  0.00000000E+00  0.00000000E+00  0.00000000E+00
  0.00000000E+00  0.00000000E+00  0.00000000E+00
  0.00000000E+00  0.00000000E+00  0.00000000E+00
  0.00000000E+00  0.00000000E+00  0.00000000E+00
  0.00000000E+00  0.00000000E+00  0.00000000E+00
  0.00000000E+00  0.00000000E+00  0.00000000E+00
  0.00000000E+00  0.00000000E+00  0.00000000E+00
  0.00000000E+00  0.00000000E+00  0.00000000E+00
  0.00000000E+00  0.00000000E+00  0.00000000E+00
  0.00000000E+00  0.00000000E+00  0.00000000E+00
  0.00000000E+00  0.00000000E+00  0.00000000E+00
  0.00000000E+00  0.00000000E+00  0.00000000E+00
  0.00000000E+00  0.00000000E+00  0.00000000E+00
  0.00000000E+00  0.00000000E+00  0.00000000E+00
  0.00000000E+00  0.00000000E+00  0.00000000E+00
  0.00000000E+00  0.00000000E+00  0.00000000E+00
  0.00000000E+00  0.00000000E+00  0.00000000E+00
