generated by phonopy                    
   1.00000000000000     
    10.0351470768999995   -0.0000022330999784   -0.0000001056124209
    -5.0175765436399997    8.6906901959899994    0.0000001395531216
    -0.0000001735893656    0.0000001431815548   14.9533752540999991
   Pb   P    O 
    21    11    50
Direct
  0.9954846646049234  0.7651300885363526  0.1277568216250415
  0.9968282594036779  0.7642373670443803  0.6237532771661876
  0.0046538734237345  0.2595701183156791  0.3767652171069500
  0.0031580424448379  0.2594602389974980  0.8706942499958217
  0.2342066025377250  0.2236604605816481  0.1247608290536419
  0.2263770041635738  0.2195674608883351  0.6255160899874213
  0.7491523894070937  0.7465599827119149  0.3713775058909832
  0.7467134137813929  0.7420365642277318  0.8740916159486289
  0.7651532713064384  0.0156751411345084  0.1227175983503344
  0.7752334321823895  0.9998669987516919  0.6231591146388098
  0.2579043797293252  0.9985193162455275  0.3777655249392637
  0.2611149251730822  0.9981638832790338  0.8739073174056884
  0.6733397461916582  0.3526112461872088  0.9974161080485402
  0.6669247541631123  0.3361011373083045  0.5014965982023867
  0.3125017373746601  0.6709064760842622  0.0025687775245231
  0.3423926798119865  0.6641388204760332  0.5035713626675218
  0.3168824582183802  0.6766365481178553  0.2458586223899246
  0.3473088881881452  0.6720180451929423  0.7448317003077847
  0.6666038666186438  0.3299821416356821  0.2497645199844527
  0.6656266707454961  0.3300440012675452  0.7457731757978223
  0.6051767867181255  0.6052091975258236  0.1251639638187640
  0.6221997140192315  0.5876233594403573  0.6240611764782500
  0.3725852755880013  0.3959375224407253  0.3677937395730524
  0.3721060517230441  0.3969590462945618  0.8789464061206687
  0.3868120150291716  0.0225377230572121  0.1255000703270710
  0.4076762075046645  0.0260671763949105  0.6234823165734014
  0.6092074761281054  0.9787733191276757  0.3760940355810831
  0.6117909924712208  0.9787136016446851  0.8721192309008572
  0.9666716601989407  0.3789508515186384  0.1253350312351316
  0.9794767208723272  0.3724505558479407  0.6237689624504696
  0.0249642559771743  0.6283358107677657  0.3767150611860117
  0.0281259188021963  0.6297893914242749  0.8687012818193764
  0.4899806512584135  0.7240633572529021  0.1232418410511826
  0.5027708959131232  0.6450085661106755  0.6237544475405414
  0.4688223224411630  0.3127224973583793  0.3707502662985718
  0.4732710164772485  0.3188664525645279  0.8784670202917084
  0.3108430754707854  0.8429634280148122  0.1242330166890682
  0.3548573879644081  0.8510812190402106  0.6231962278595375
  0.6896474242829740  0.1578754842845882  0.3801560072249899
  0.6919575827151121  0.1571124748393302  0.8659594402310731
  0.1431763179101182  0.4942327334596328  0.1258209836277970
  0.1529511769660985  0.4988477195587606  0.6234059361536310
  0.8468107937577898  0.5293001154378416  0.3770553332067621
  0.8497713525448773  0.5298598227867402  0.8675533536392237
  0.7477421432750475  0.6349720285643983  0.0160213539872416
  0.7264757222598490  0.6438084271014688  0.5390079975339503
  0.2695067767115091  0.3593639429186553  0.4532921190033576
  0.2685910637908222  0.3552929288914015  0.9645372828321541
  0.3332698827108729  0.0738857389236784  0.0401649238612052
  0.3441585387141046  0.0705791875161736  0.5394522869829572
  0.6319491756136060  0.9071607518738816  0.4633086436825309
  0.6777277205050112  0.9279489424987872  0.9515028292939078
  0.9175882386004375  0.2737017419685870  0.0404034761539975
  0.9374087272460088  0.2643684759724536  0.5399903288966641
  0.0885409057859192  0.7424442689867590  0.4573401861511712
  0.0910888756653208  0.7304638553415543  0.9554013047506515
  0.2603157813973667  0.3437363960373645  0.2855858779367395
  0.2616466945459734  0.3448547107454019  0.7962066769788336
  0.7692105549482164  0.6697452415628362  0.2258500738833789
  0.7290681838282040  0.6485992860292740  0.7078816801046486
  0.6721814434615112  0.9257779820307448  0.2963216643963946
  0.6313222066516602  0.9040097432698744  0.7849616600968830
  0.3236022047352805  0.0688586380595879  0.2088684582420939
  0.3461351244215152  0.0708680465187115  0.7083614302636150
  0.0894773550024297  0.7298177715333907  0.2902378069983698
  0.0921302593612126  0.7444867679602183  0.7884498891090033
  0.9151229516550075  0.2721460674280749  0.2100081809378764
  0.9382481951771382  0.2649327507086099  0.7078532472708048
  0.5044120720055290  0.3666017091054030  0.1291954106843463
  0.5361303241167477  0.4069911562782664  0.6252856361099788
  0.4834825880263338  0.5758312804283818  0.3619572012859678
  0.4789317667630186  0.5779049705661947  0.8752253268720906
  0.5658723346677164  0.1053725058657946  0.1300916416020144
  0.5877549905203594  0.1266019952717485  0.6229794093530003
  0.4294029583489021  0.9099697307156376  0.3626522787997004
  0.4319950221283761  0.9087302661978640  0.8866997264399714
  0.8746908292717421  0.4679473185436578  0.1258958394550547
  0.8743201174280415  0.4471652356259810  0.6239949206707536
  0.0970305631384463  0.5199206851581977  0.3814107109959721
  0.0996131143798209  0.5208574114127771  0.8643899252620244
  0.0044676684994158  0.0142922838080963  0.1225885129019417
  0.0008674704126932  0.9930318910499025  0.6232951328929843
 
  0.00000000E+00  0.00000000E+00  0.00000000E+00
  0.00000000E+00  0.00000000E+00  0.00000000E+00
  0.00000000E+00  0.00000000E+00  0.00000000E+00
  0.00000000E+00  0.00000000E+00  0.00000000E+00
  0.00000000E+00  0.00000000E+00  0.00000000E+00
  0.00000000E+00  0.00000000E+00  0.00000000E+00
  0.00000000E+00  0.00000000E+00  0.00000000E+00
  0.00000000E+00  0.00000000E+00  0.00000000E+00
  0.00000000E+00  0.00000000E+00  0.00000000E+00
  0.00000000E+00  0.00000000E+00  0.00000000E+00
  0.00000000E+00  0.00000000E+00  0.00000000E+00
  0.00000000E+00  0.00000000E+00  0.00000000E+00
  0.00000000E+00  0.00000000E+00  0.00000000E+00
  0.00000000E+00  0.00000000E+00  0.00000000E+00
  0.00000000E+00  0.00000000E+00  0.00000000E+00
  0.00000000E+00  0.00000000E+00  0.00000000E+00
  0.00000000E+00  0.00000000E+00  0.00000000E+00
  0.00000000E+00  0.00000000E+00  0.00000000E+00
  0.00000000E+00  0.00000000E+00  0.00000000E+00
  0.00000000E+00  0.00000000E+00  0.00000000E+00
  0.00000000E+00  0.00000000E+00  0.00000000E+00
  0.00000000E+00  0.00000000E+00  0.00000000E+00
  0.00000000E+00  0.00000000E+00  0.00000000E+00
  0.00000000E+00  0.00000000E+00  0.00000000E+00
  0.00000000E+00  0.00000000E+00  0.00000000E+00
  0.00000000E+00  0.00000000E+00  0.00000000E+00
  0.00000000E+00  0.00000000E+00  0.00000000E+00
  0.00000000E+00  0.00000000E+00  0.00000000E+00
  0.00000000E+00  0.00000000E+00  0.00000000E+00
  0.00000000E+00  0.00000000E+00  0.00000000E+00
  0.00000000E+00  0.00000000E+00  0.00000000E+00
  0.00000000E+00  0.00000000E+00  0.00000000E+00
  0.00000000E+00  0.00000000E+00  0.00000000E+00
  0.00000000E+00  0.00000000E+00  0.00000000E+00
  0.00000000E+00  0.00000000E+00  0.00000000E+00
  0.00000000E+00  0.00000000E+00  0.00000000E+00
  0.00000000E+00  0.00000000E+00  0.00000000E+00
  0.00000000E+00  0.00000000E+00  0.00000000E+00
  0.00000000E+00  0.00000000E+00  0.00000000E+00
  0.00000000E+00  0.00000000E+00  0.00000000E+00
  0.00000000E+00  0.00000000E+00  0.00000000E+00
  0.00000000E+00  0.00000000E+00  0.00000000E+00
  0.00000000E+00  0.00000000E+00  0.00000000E+00
  0.00000000E+00  0.00000000E+00  0.00000000E+00
  0.00000000E+00  0.00000000E+00  0.00000000E+00
  0.00000000E+00  0.00000000E+00  0.00000000E+00
  0.00000000E+00  0.00000000E+00  0.00000000E+00
  0.00000000E+00  0.00000000E+00  0.00000000E+00
  0.00000000E+00  0.00000000E+00  0.00000000E+00
  0.00000000E+00  0.00000000E+00  0.00000000E+00
  0.00000000E+00  0.00000000E+00  0.00000000E+00
  0.00000000E+00  0.00000000E+00  0.00000000E+00
  0.00000000E+00  0.00000000E+00  0.00000000E+00
  0.00000000E+00  0.00000000E+00  0.00000000E+00
  0.00000000E+00  0.00000000E+00  0.00000000E+00
  0.00000000E+00  0.00000000E+00  0.00000000E+00
  0.00000000E+00  0.00000000E+00  0.00000000E+00
  0.00000000E+00  0.00000000E+00  0.00000000E+00
  0.00000000E+00  0.00000000E+00  0.00000000E+00
  0.00000000E+00  0.00000000E+00  0.00000000E+00
  0.00000000E+00  0.00000000E+00  0.00000000E+00
  0.00000000E+00  0.00000000E+00  0.00000000E+00
  0.00000000E+00  0.00000000E+00  0.00000000E+00
  0.00000000E+00  0.00000000E+00  0.00000000E+00
  0.00000000E+00  0.00000000E+00  0.00000000E+00
  0.00000000E+00  0.00000000E+00  0.00000000E+00
  0.00000000E+00  0.00000000E+00  0.00000000E+00
  0.00000000E+00  0.00000000E+00  0.00000000E+00
  0.00000000E+00  0.00000000E+00  0.00000000E+00
  0.00000000E+00  0.00000000E+00  0.00000000E+00
  0.00000000E+00  0.00000000E+00  0.00000000E+00
  0.00000000E+00  0.00000000E+00  0.00000000E+00
  0.00000000E+00  0.00000000E+00  0.00000000E+00
  0.00000000E+00  0.00000000E+00  0.00000000E+00
  0.00000000E+00  0.00000000E+00  0.00000000E+00
  0.00000000E+00  0.00000000E+00  0.00000000E+00
  0.00000000E+00  0.00000000E+00  0.00000000E+00
  0.00000000E+00  0.00000000E+00  0.00000000E+00
  0.00000000E+00  0.00000000E+00  0.00000000E+00
  0.00000000E+00  0.00000000E+00  0.00000000E+00
  0.00000000E+00  0.00000000E+00  0.00000000E+00
  0.00000000E+00  0.00000000E+00  0.00000000E+00
