supercell of icsd_608626.cif            
   1.04414933521582     
     9.2616686461835105   -0.0082823090452738   -0.0010998282335380
    -4.6379985290079038    8.0370945496347943    0.0143068880459499
    -0.0012451169902733    0.0171215293721340    9.7182908131757895
   Al   Y    N 
    30     6    36
Direct
  0.2222399099229975  0.1099259365028971  0.2477488815258582
  0.1048236588339364  0.2086517748387706  0.4910384271165640
  0.8812068265820656  0.1076657655459670  0.7458433556693933
  0.7798490533473768  0.2227987517775887  0.9914522615724124
  0.5564105240594586  0.1098719984167502  0.2517232858537781
  0.4448958751905749  0.2223463613316312  0.4902901320945006
  0.2256217331822796  0.0994645714509161  0.7434915774043915
  0.1114398021037886  0.2200786361414373  0.0025220784541773
  0.8844147819389221  0.1045005214650132  0.2457448315187776
  0.7834129498191515  0.2282173332941539  0.5042868631941531
  0.5595026449710616  0.1173943541260627  0.7503607572787274
  0.4466894686231555  0.2283658708764165  0.0082933985418165
  0.2256533668738427  0.4447422950447404  0.2509103812354070
  0.1015000139745865  0.5558100135908930  0.5008988266697969
  0.8902844450653049  0.4477460831840361  0.7515324954397684
  0.7762642743225641  0.5637629885481701  0.0102803207759692
  0.5520855502065842  0.4455908210006285  0.2499501906232027
  0.4509767939201694  0.5577405079799220  0.4886606350660969
  0.1137779905096821  0.5557912916626009  0.0005812958173763
  0.7789229213941411  0.5536491595530819  0.4961520660845053
  0.4453627705177325  0.5519802629148742  0.0132009736882353
  0.2210302244701481  0.7770997803136339  0.2502233419812825
  0.1124698496685070  0.8895972613030452  0.4918934340201417
  0.7830453734293954  0.8882220427925489  0.0062646815244776
  0.5588989433076463  0.7754491429295101  0.2492726514943939
  0.2175363142269617  0.7786065623303600  0.7553593319860425
  0.1061033743897468  0.8877489275588175  0.0065130364446802
  0.8882556349653328  0.7838367592780529  0.2530428070266098
  0.7762264297112296  0.8931404990493022  0.4914767594561908
  0.5578194267262475  0.7824719192588248  0.7539063159604282
  0.2136466230560714  0.4349483304968444  0.7343944152738686
  0.8875540586436088  0.4375530038834654  0.2386884077579907
  0.5511589157255941  0.4379830030839287  0.7505910468292782
  0.8942531984640993  0.7943511946475752  0.7381867275512164
  0.4437590145518229  0.8868013246106017  0.5005610978869441
  0.4479944792512853  0.8943636673868909  0.9900332191996881
  0.2234259194734491  0.1093865038668298  0.4333119455712477
  0.1092011273519660  0.2202980357980735  0.1928877534453477
  0.8899282955574606  0.1087645914566693  0.9370001501820369
  0.7836869482814635  0.2279865447094167  0.6952612469447743
  0.5752632359668439  0.1398074292435609  0.4354497549969807
  0.4441588389169340  0.2199734789524257  0.1957177917116653
  0.2250781568507207  0.1107703509586173  0.9406994455789004
  0.0910141292965960  0.1769748435752874  0.6792233078826229
  0.8864908318836484  0.1136739984706097  0.4343707529414189
  0.7596594494599742  0.1862970578032375  0.1747628450543317
  0.5710196482433645  0.1502783378664816  0.9323817756567436
  0.4339839819429727  0.1950750635793739  0.6749278529795291
  0.2179536202867567  0.4403777181029938  0.4488013649105369
  0.1411847477035479  0.5696273863689356  0.1847133451617182
  0.8905687126981405  0.4473940322927064  0.9517265538402029
  0.7885900643507000  0.5477155796085498  0.6805260018105486
  0.5549710630334346  0.4424687228356206  0.4420079778899932
  0.4424995379847658  0.5543677651993448  0.1999488795585620
  0.2252590930483933  0.4428957543014747  0.9565553076603948
  0.1013310058687011  0.5716511216831748  0.6880710250012072
  0.8881516590548983  0.4422037071523732  0.4551468662721518
  0.7666435557620019  0.5716219762042201  0.1965223330029175
  0.5551757790448519  0.4458729911180583  0.9702405865563435
  0.4589381105521397  0.5862660621556444  0.6717997866802108
  0.1925746882198993  0.7610317589964879  0.4320929181107402
  0.1115148673870294  0.8900851727585604  0.1944537031111508
  0.8909134642456351  0.7810953182995775  0.9597155261868267
  0.7542434973440635  0.9075205869327334  0.6750289201194875
  0.5701031589029100  0.7659513213403102  0.4289222347990318
  0.4436700600401764  0.8883718334507051  0.2195208353847704
  0.1910785999713696  0.7649602341631336  0.9397338000900746
  0.1411858481847332  0.8971504593668413  0.6759005994659972
  0.8894901278419169  0.7826310000286725  0.4481086587511953
  0.7792143919907417  0.8900316914100941  0.1930248143126363
  0.5728510154446482  0.7602462471278741  0.9404641951410326
  0.4438955518661132  0.8909066046514127  0.7336088332185611
 
  0.00000000E+00  0.00000000E+00  0.00000000E+00
  0.00000000E+00  0.00000000E+00  0.00000000E+00
  0.00000000E+00  0.00000000E+00  0.00000000E+00
  0.00000000E+00  0.00000000E+00  0.00000000E+00
  0.00000000E+00  0.00000000E+00  0.00000000E+00
  0.00000000E+00  0.00000000E+00  0.00000000E+00
  0.00000000E+00  0.00000000E+00  0.00000000E+00
  0.00000000E+00  0.00000000E+00  0.00000000E+00
  0.00000000E+00  0.00000000E+00  0.00000000E+00
  0.00000000E+00  0.00000000E+00  0.00000000E+00
  0.00000000E+00  0.00000000E+00  0.00000000E+00
  0.00000000E+00  0.00000000E+00  0.00000000E+00
  0.00000000E+00  0.00000000E+00  0.00000000E+00
  0.00000000E+00  0.00000000E+00  0.00000000E+00
  0.00000000E+00  0.00000000E+00  0.00000000E+00
  0.00000000E+00  0.00000000E+00  0.00000000E+00
  0.00000000E+00  0.00000000E+00  0.00000000E+00
  0.00000000E+00  0.00000000E+00  0.00000000E+00
  0.00000000E+00  0.00000000E+00  0.00000000E+00
  0.00000000E+00  0.00000000E+00  0.00000000E+00
  0.00000000E+00  0.00000000E+00  0.00000000E+00
  0.00000000E+00  0.00000000E+00  0.00000000E+00
  0.00000000E+00  0.00000000E+00  0.00000000E+00
  0.00000000E+00  0.00000000E+00  0.00000000E+00
  0.00000000E+00  0.00000000E+00  0.00000000E+00
  0.00000000E+00  0.00000000E+00  0.00000000E+00
  0.00000000E+00  0.00000000E+00  0.00000000E+00
  0.00000000E+00  0.00000000E+00  0.00000000E+00
  0.00000000E+00  0.00000000E+00  0.00000000E+00
  0.00000000E+00  0.00000000E+00  0.00000000E+00
  0.00000000E+00  0.00000000E+00  0.00000000E+00
  0.00000000E+00  0.00000000E+00  0.00000000E+00
  0.00000000E+00  0.00000000E+00  0.00000000E+00
  0.00000000E+00  0.00000000E+00  0.00000000E+00
  0.00000000E+00  0.00000000E+00  0.00000000E+00
  0.00000000E+00  0.00000000E+00  0.00000000E+00
  0.00000000E+00  0.00000000E+00  0.00000000E+00
  0.00000000E+00  0.00000000E+00  0.00000000E+00
  0.00000000E+00  0.00000000E+00  0.00000000E+00
  0.00000000E+00  0.00000000E+00  0.00000000E+00
  0.00000000E+00  0.00000000E+00  0.00000000E+00
  0.00000000E+00  0.00000000E+00  0.00000000E+00
  0.00000000E+00  0.00000000E+00  0.00000000E+00
  0.00000000E+00  0.00000000E+00  0.00000000E+00
  0.00000000E+00  0.00000000E+00  0.00000000E+00
  0.00000000E+00  0.00000000E+00  0.00000000E+00
  0.00000000E+00  0.00000000E+00  0.00000000E+00
  0.00000000E+00  0.00000000E+00  0.00000000E+00
  0.00000000E+00  0.00000000E+00  0.00000000E+00
  0.00000000E+00  0.00000000E+00  0.00000000E+00
  0.00000000E+00  0.00000000E+00  0.00000000E+00
  0.00000000E+00  0.00000000E+00  0.00000000E+00
  0.00000000E+00  0.00000000E+00  0.00000000E+00
  0.00000000E+00  0.00000000E+00  0.00000000E+00
  0.00000000E+00  0.00000000E+00  0.00000000E+00
  0.00000000E+00  0.00000000E+00  0.00000000E+00
  0.00000000E+00  0.00000000E+00  0.00000000E+00
  0.00000000E+00  0.00000000E+00  0.00000000E+00
  0.00000000E+00  0.00000000E+00  0.00000000E+00
  0.00000000E+00  0.00000000E+00  0.00000000E+00
  0.00000000E+00  0.00000000E+00  0.00000000E+00
  0.00000000E+00  0.00000000E+00  0.00000000E+00
  0.00000000E+00  0.00000000E+00  0.00000000E+00
  0.00000000E+00  0.00000000E+00  0.00000000E+00
  0.00000000E+00  0.00000000E+00  0.00000000E+00
  0.00000000E+00  0.00000000E+00  0.00000000E+00
  0.00000000E+00  0.00000000E+00  0.00000000E+00
  0.00000000E+00  0.00000000E+00  0.00000000E+00
  0.00000000E+00  0.00000000E+00  0.00000000E+00
  0.00000000E+00  0.00000000E+00  0.00000000E+00
  0.00000000E+00  0.00000000E+00  0.00000000E+00
  0.00000000E+00  0.00000000E+00  0.00000000E+00
