supercell of icsd_608626.cif            
  0.983556481332809     
     9.3156481350428972   -0.0016884797569358    0.0024460358090876
    -4.6592863172613521    8.0701222699584054    0.0000008567646184
     0.0026734051442178    0.0015444660841654    9.8606608071599346
   Al   B    N 
    32     4    36
Direct
  0.2156757257944264  0.1111317332819866  0.2429767745558209
  0.1098029852775113  0.2215679439477753  0.4923653608256302
  0.8936528716316801  0.1134928346983131  0.7515938401313349
  0.7840134096412754  0.2182983085468067  0.0039677056957999
  0.5582326403665760  0.1079367974728243  0.2423465273699890
  0.4484317842025050  0.2232588130681066  0.4992921491892375
  0.2185900644100300  0.1139661673672023  0.7541713398128564
  0.7772404991507997  0.2230442530804808  0.4926102162986865
  0.5546154372659444  0.1062033892405267  0.7544669935424579
  0.4400102017600318  0.2208285997681756  0.9997868441082218
  0.2156757603310027  0.4378775675649393  0.2429766608248016
  0.1096404989577096  0.5579440086594047  0.4996245643255008
  0.8867198398655773  0.4437833833871352  0.7424614610597615
  0.7769625204077570  0.5551482753872108  0.9987429746063157
  0.5605579781756163  0.4469460269286216  0.2553494330521389
  0.4484313431222660  0.5585058381903423  0.4992920174224409
  0.2185899259651691  0.4379574362451280  0.7541711335663877
  0.1120706090301837  0.5527482025849508  0.9993335276400757
  0.8877787297705240  0.4437284124857044  0.2542196357314879
  0.5576741467109514  0.4455038810314846  0.7427352437257682
  0.4400101623159145  0.5525145629740393  0.9997868361666136
  0.2241198043189385  0.7787267035474343  0.2429275531173758
  0.1096409645934102  0.8850303914204076  0.4996247222963603
  0.8867201242464517  0.7762696088810230  0.7424613192167797
  0.7840133582370754  0.8990480594039312  0.0039677324782517
  0.5582325126290542  0.7836295068727424  0.2423462762614790
  0.4447823519437364  0.8890576064692368  0.4982351399400713
  0.2282350888852633  0.7807840959537202  0.7547009146560555
  0.1120707118270730  0.8926559415856445  0.9993334485544381
  0.8877791963723851  0.7773842455750497  0.2542195907110170
  0.7772402135025018  0.8875286912372999  0.4926101792057196
  0.5546151565839281  0.7817448700093266  0.7544670405445615
  0.1021981876610738  0.2177657616171729  0.0066821674879449
  0.8898109775462117  0.1115721450691893  0.2481179752464584
  0.7778470213385518  0.5555901014531557  0.5046694752483276
  0.4452646751400451  0.8892991533596160  0.0056743664918244
  0.2223628628674419  0.1109573208363770  0.4378701722534117
  0.0865979498152640  0.2099656945563808  0.1789831051102695
  0.9142854464212320  0.1238092068509289  0.9453444827611008
  0.7769630363512618  0.2184597586112105  0.6893890540561785
  0.5546606892494950  0.1089750414200239  0.4360414442040792
  0.4457050723139275  0.2247037596631856  0.1930221856004337
  0.2078896475218670  0.1237018476939298  0.9521700344577653
  0.1098529657634160  0.2215932322263825  0.6840858954190239
  0.8918880738263226  0.1126104232036056  0.4169873090351643
  0.7919693617912529  0.2121443870505075  0.1996705032505020
  0.5462290844732962  0.0885177762212734  0.9522116840549515
  0.4429157973044511  0.2186450457607165  0.6954748137313658
  0.2223624112274365  0.4447386621813862  0.4378703010195295
  0.1082201114792696  0.5544305030430294  0.1917755414025848
  0.8861025916596361  0.4424947441895597  0.9382598038025023
  0.7781126463032919  0.5557229265958057  0.6710849362752640
  0.5795719880179959  0.4564526439709624  0.4519039890975165
  0.4457048742399863  0.5543349999739604  0.1930221122010636
  0.2078896203788503  0.4175211746509220  0.9521699564448909
  0.1137220431999992  0.5569987109213344  0.6956185206527365
  0.8772197385337819  0.4566917002516817  0.4502211592307219
  0.7782894942218519  0.5558117684144932  0.1896163365286512
  0.5566079696958326  0.4449706037791898  0.9368210006063578
  0.4429155713969735  0.5576039364098904  0.6954746698809160
  0.2241953533634202  0.7787643967912885  0.4374469929106866
  0.1082202441398223  0.8871233046156348  0.1917754923522992
  0.8861027349828419  0.7769415345923036  0.9382596672683547
  0.7769629574559005  0.8918361716192251  0.6893888656110292
  0.5546606000894130  0.7790186147858833  0.4360413677396977
  0.4440498522177734  0.8886917804395082  0.1705680154027149
  0.2466165513886764  0.7899751171188001  0.9504604624349682
  0.1137224054497281  0.8900569837078081  0.6956186569580964
  0.8772201189817750  0.7538613433528312  0.4502211741352156
  0.7919693311846459  0.9131584270013633  0.1996704561616056
  0.5462290998095298  0.7910445451797443  0.9522117934150174
  0.4450642239032447  0.8891985939527842  0.6889389034253242
 
  0.00000000E+00  0.00000000E+00  0.00000000E+00
  0.00000000E+00  0.00000000E+00  0.00000000E+00
  0.00000000E+00  0.00000000E+00  0.00000000E+00
  0.00000000E+00  0.00000000E+00  0.00000000E+00
  0.00000000E+00  0.00000000E+00  0.00000000E+00
  0.00000000E+00  0.00000000E+00  0.00000000E+00
  0.00000000E+00  0.00000000E+00  0.00000000E+00
  0.00000000E+00  0.00000000E+00  0.00000000E+00
  0.00000000E+00  0.00000000E+00  0.00000000E+00
  0.00000000E+00  0.00000000E+00  0.00000000E+00
  0.00000000E+00  0.00000000E+00  0.00000000E+00
  0.00000000E+00  0.00000000E+00  0.00000000E+00
  0.00000000E+00  0.00000000E+00  0.00000000E+00
  0.00000000E+00  0.00000000E+00  0.00000000E+00
  0.00000000E+00  0.00000000E+00  0.00000000E+00
  0.00000000E+00  0.00000000E+00  0.00000000E+00
  0.00000000E+00  0.00000000E+00  0.00000000E+00
  0.00000000E+00  0.00000000E+00  0.00000000E+00
  0.00000000E+00  0.00000000E+00  0.00000000E+00
  0.00000000E+00  0.00000000E+00  0.00000000E+00
  0.00000000E+00  0.00000000E+00  0.00000000E+00
  0.00000000E+00  0.00000000E+00  0.00000000E+00
  0.00000000E+00  0.00000000E+00  0.00000000E+00
  0.00000000E+00  0.00000000E+00  0.00000000E+00
  0.00000000E+00  0.00000000E+00  0.00000000E+00
  0.00000000E+00  0.00000000E+00  0.00000000E+00
  0.00000000E+00  0.00000000E+00  0.00000000E+00
  0.00000000E+00  0.00000000E+00  0.00000000E+00
  0.00000000E+00  0.00000000E+00  0.00000000E+00
  0.00000000E+00  0.00000000E+00  0.00000000E+00
  0.00000000E+00  0.00000000E+00  0.00000000E+00
  0.00000000E+00  0.00000000E+00  0.00000000E+00
  0.00000000E+00  0.00000000E+00  0.00000000E+00
  0.00000000E+00  0.00000000E+00  0.00000000E+00
  0.00000000E+00  0.00000000E+00  0.00000000E+00
  0.00000000E+00  0.00000000E+00  0.00000000E+00
  0.00000000E+00  0.00000000E+00  0.00000000E+00
  0.00000000E+00  0.00000000E+00  0.00000000E+00
  0.00000000E+00  0.00000000E+00  0.00000000E+00
  0.00000000E+00  0.00000000E+00  0.00000000E+00
  0.00000000E+00  0.00000000E+00  0.00000000E+00
  0.00000000E+00  0.00000000E+00  0.00000000E+00
  0.00000000E+00  0.00000000E+00  0.00000000E+00
  0.00000000E+00  0.00000000E+00  0.00000000E+00
  0.00000000E+00  0.00000000E+00  0.00000000E+00
  0.00000000E+00  0.00000000E+00  0.00000000E+00
  0.00000000E+00  0.00000000E+00  0.00000000E+00
  0.00000000E+00  0.00000000E+00  0.00000000E+00
  0.00000000E+00  0.00000000E+00  0.00000000E+00
  0.00000000E+00  0.00000000E+00  0.00000000E+00
  0.00000000E+00  0.00000000E+00  0.00000000E+00
  0.00000000E+00  0.00000000E+00  0.00000000E+00
  0.00000000E+00  0.00000000E+00  0.00000000E+00
  0.00000000E+00  0.00000000E+00  0.00000000E+00
  0.00000000E+00  0.00000000E+00  0.00000000E+00
  0.00000000E+00  0.00000000E+00  0.00000000E+00
  0.00000000E+00  0.00000000E+00  0.00000000E+00
  0.00000000E+00  0.00000000E+00  0.00000000E+00
  0.00000000E+00  0.00000000E+00  0.00000000E+00
  0.00000000E+00  0.00000000E+00  0.00000000E+00
  0.00000000E+00  0.00000000E+00  0.00000000E+00
  0.00000000E+00  0.00000000E+00  0.00000000E+00
  0.00000000E+00  0.00000000E+00  0.00000000E+00
  0.00000000E+00  0.00000000E+00  0.00000000E+00
  0.00000000E+00  0.00000000E+00  0.00000000E+00
  0.00000000E+00  0.00000000E+00  0.00000000E+00
  0.00000000E+00  0.00000000E+00  0.00000000E+00
  0.00000000E+00  0.00000000E+00  0.00000000E+00
  0.00000000E+00  0.00000000E+00  0.00000000E+00
  0.00000000E+00  0.00000000E+00  0.00000000E+00
  0.00000000E+00  0.00000000E+00  0.00000000E+00
  0.00000000E+00  0.00000000E+00  0.00000000E+00
