supercell of POSCAR                     
   1.01800000000000     
     3.1310994802600001   -5.4896946145000003   10.0244832682999991
    -9.4821132118399998   -5.5089477087900001    0.0170740616273000
     6.3359946057599998  -11.0114127993000004  -10.0652216442999993
   Al   Gd   N 
    84    12    95
Direct
  0.0881978762033810  0.5784553150895633  0.3408252793893141
  0.5016652799330501  0.3224227427032318  0.2561980653990616
  0.0867402070653114  0.0856883755401867  0.3351659234406981
  0.2532500425639270  0.5780093169013014  0.4949766075520117
  0.3364644471045253  0.3185101712679881  0.0795931616780265
  0.4168110929742497  0.0857159479858893  0.1690543129731807
  0.0032955658561846  0.8534218140547409  0.2560228402636895
  0.1693907970250450  0.3298428377469733  0.4141057504025483
  0.2483512346809960  0.0865982422125597  0.4965725283728304
  0.1633412240610639  0.8368656235813532  0.4158956215595637
  0.3380703247260470  0.6722497637096296  0.3414231175292244
  0.1146879260630129  0.6781730310208332  0.1971504978894032
  0.2495326191897291  0.3985809923927093  0.2550158874456585
  0.3353104882709275  0.1627323999751056  0.3345961643281399
  0.0072024384901894  0.6747578910449761  0.4953254882013596
  0.1674987787028570  0.1582803803222390  0.1702534960587556
  0.2536280979522871  0.9203338189200636  0.2550670440765259
  0.4147323912934979  0.4133931814803518  0.4160755925195048
  0.4992002918936222  0.1608216439023522  0.4971129816680602
  0.0827426374942988  0.9243337517433332  0.0808962551259214
  0.4205277551688908  0.9196337889281736  0.4116372316778936
  0.0893750714682398  0.5856427904627211  0.8336583729219740
  0.5018335031871715  0.3219388892732624  0.7544770859314482
  0.0868307958461472  0.0857007202771953  0.8349334608017358
  0.2492752926973480  0.5602841560063681  0.9713525780445025
  0.3334107588582427  0.3175565166311003  0.5791563815255074
  0.4179918860452432  0.0876304202638067  0.6708991519586363
  0.0088504579791078  0.8447997664905529  0.7557964509230786
  0.1680414346730004  0.3281420556821786  0.9125122034631232
  0.2505236187795745  0.0873268260867022  0.9979696217482967
  0.1654929324359173  0.8405372337769847  0.9157517159850883
  0.3395109279379582  0.6781539515703443  0.8361270500588773
  0.1553240760998378  0.6771003084783018  0.6672302559991579
  0.2516327488340124  0.4018299415436246  0.7530771646179062
  0.3354858913065968  0.1646585188696150  0.8342688546387649
  0.0082659955514472  0.6743787598034885  0.9976946491484568
  0.1678442291372662  0.1595871088494221  0.6698911134012491
  0.2537023604035227  0.9223720053138109  0.7553026182895266
  0.4199417234134657  0.4112724280514044  0.9137973024925117
  0.5005694514037486  0.1633923088197946  0.9972862748878413
  0.0832943776878281  0.9244282920032845  0.5807329702199908
  0.4191948034154080  0.9235532536717415  0.9122970310393086
  0.5881851757823711  0.5809077009817400  0.3319617964914201
  0.9999178186566127  0.3211964845487856  0.2563581997757609
  0.5850228557125590  0.0839905474812284  0.3334116742851023
  0.7533254782289589  0.5785235388335295  0.4911750695173751
  0.8297135399393625  0.3170460099662336  0.0773207750243046
  0.9163435557521638  0.0882677466472686  0.1700985012095657
  0.5049212450368898  0.8404620597778418  0.2515930767822212
  0.6692094804230919  0.3301947518165989  0.4116367117254782
  0.7475243873764086  0.0877538107979134  0.4956418454728606
  0.6628164250488950  0.8357581371118314  0.4134843170435047
  0.8353086950895801  0.6724896237324955  0.3374725823440272
  0.6451370553858027  0.6778560683236705  0.1645001119513694
  0.7509360050789624  0.3990467477775184  0.2516163898025283
  0.8345056330962635  0.1625867597501340  0.3339158306919572
  0.5090136746479885  0.6732450011888105  0.4928404575814156
  0.6661551300988720  0.1596495401183304  0.1686686359862719
  0.7508870964259344  0.9213237492283994  0.2545231998580064
  0.9129819931003382  0.4124129504266065  0.4157786293249757
  0.9993140703619616  0.1606671074630199  0.4975305428539087
  0.5784457393583509  0.9260338180409491  0.0796778164372824
  0.9198147558837064  0.9208692832672938  0.4130722344433622
  0.5903354535594545  0.5858387324324994  0.8335586067771459
  0.0011380973931452  0.3224156642508191  0.7561944166521215
  0.5864541920091142  0.0857860482330679  0.8345212620686837
  0.7490486579740434  0.5784836122939154  0.9923545309827873
  0.8343200871814105  0.3174581653230035  0.5789799776031828
  0.9183284348440637  0.0871037226112179  0.6715494890976075
  0.5082309424935687  0.8455752924455524  0.7545527484594388
  0.6693583619946395  0.3320857021199828  0.9127208530876985
  0.7466173045395408  0.0869910345686407  0.9958674800926843
  0.6628093134526694  0.8386908507696731  0.9147308978528486
  0.8390728099712135  0.6749773348308921  0.8418909152559877
  0.6559037972014465  0.6772363266478081  0.6678291156161009
  0.7513963662473131  0.4012507662145666  0.7525626597887438
  0.8349905022617676  0.1640284557590874  0.8348168975448687
  0.5054963929334590  0.6781856341545307  0.9934594784083259
  0.6679824484786394  0.1586330970211378  0.6695771582977272
  0.7544142959756073  0.9213960415280624  0.7563940710065751
  0.9135196035319453  0.4148985065615847  0.9162881054539298
  0.9978683193054252  0.1607242585580835  0.9974928632843998
  0.5834875330295830  0.9245547693782044  0.5798720126882131
  0.9209783108190166  0.9202355097630246  0.9128622675928142
  0.3730697217056331  0.5833575040050718  0.1747933831490940
  0.3253707679809210  0.8180707626528019  0.0832165352976233
  0.0801855297232592  0.4150183151799069  0.0867482440797360
  0.3999834203704538  0.5774621693679194  0.6773327170720052
  0.3322542766637042  0.8366024036924671  0.5833737944613375
  0.0828405813712223  0.4191428083869866  0.5857351407165368
  0.8880974121799028  0.5773427959995487  0.1728020724379675
  0.8264091923098462  0.8361367706669327  0.0819073757637341
  0.5805078131857897  0.4286630871817394  0.0871169758099626
  0.8965225686914664  0.5801407418107445  0.6799314473957949
  0.8296131596326575  0.8374715878935248  0.5834313875318529
  0.5857840497823616  0.4181614051064955  0.5833874962893901
  0.2182496403305265  0.5799894312539919  0.2679819189188493
  0.0452301238306916  0.6110769514257157  0.1038918035905070
  0.1307588548933367  0.3162844339466488  0.2016572630472879
  0.2134360712776271  0.0813595185617970  0.2724876178708584
  0.3838106314396796  0.5833051963677391  0.4375468072090669
  0.4526431436552585  0.3226415169588321  0.0119478954346164
  0.0415988888367806  0.0856114472872633  0.1041624948677722
  0.1326601601202029  0.8439009370466550  0.1867804756879821
  0.2976766669980861  0.3282210967152324  0.3537351653075049
  0.3775218401411990  0.0795428098184487  0.4353468443224457
  0.4670927013331578  0.8414131044752509  0.0102278326300009
  0.2942756223682608  0.8339002457617610  0.3549548729036900
  0.4671808562523694  0.6753894542412056  0.2794872207550085
  0.3768718067342860  0.3909841425038749  0.1871504033794906
  0.4607556926739989  0.1617619095179421  0.2723642972706273
  0.1348498631996335  0.6656871419180206  0.4342200906138913
  0.2264498520279616  0.4127830115679174  0.0131085903102317
  0.2906689349968659  0.1610411297208287  0.1031851778414890
  0.3812643314305006  0.9225809888670895  0.1938390393936800
  0.0438203811588807  0.4166072850254210  0.3533775695432553
  0.1274895823299929  0.1699295047870919  0.4351685436253092
  0.2028140796794062  0.9289082269999014  0.0141924491236125
  0.0484041290480377  0.9243931454183141  0.3540430387627538
  0.2199496265100578  0.5828889828119088  0.7678042521025858
  0.0334716541046589  0.6122384583636205  0.6014626347872678
  0.1310066522363869  0.3183681158178047  0.7013984297010580
  0.2130477718523096  0.0839508855359412  0.7729962383970417
  0.3848016000835557  0.5846978336132835  0.9341284673162562
  0.4504295561924607  0.3190780382155509  0.5113715329780320
  0.0414037808457550  0.0861089626079377  0.6043040833507618
  0.1332482235593844  0.8436202827613144  0.6865504792589618
  0.2973415719681256  0.3313377180041925  0.8543966022529119
  0.3772095928970245  0.0837548621922011  0.9358882711913523
  0.4773523555364818  0.8369740626786921  0.5076706680185836
  0.2938499466985718  0.8368305194788874  0.8560563637114171
  0.4732098957673188  0.6855573454329829  0.7840879494054747
  0.2637388179574884  0.6543203104077193  0.5955518569735645
  0.3748321617939041  0.3819068841031665  0.6862837932842183
  0.4625235540680137  0.1632824229008421  0.7740934892888589
  0.1383090963442797  0.6679672020260199  0.9376936168624681
  0.2260085585745060  0.4119789670062204  0.5100225857647658
  0.2906227948189013  0.1573299396361705  0.6023404680335886
  0.3850634463255957  0.9284760953702786  0.7013358225092361
  0.0456785282415950  0.4208792105865840  0.8542912060622569
  0.1277944730199039  0.1694289803509790  0.9367006974775123
  0.1966364006072538  0.9310371947680096  0.5102364872686707
  0.0501005736023004  0.9244238376647473  0.8543074748610096
  0.7197489547935589  0.5811009459902010  0.2636388318800726
  0.5132420017023591  0.6209895137433463  0.1016088750174902
  0.6292888512795827  0.3187027388801909  0.1986403111530564
  0.7115686685719211  0.0829160978372059  0.2717960875375098
  0.8852742674102601  0.5849553600167710  0.4337787601663408
  0.9480168101328985  0.3187590592655098  0.0106794899952831
  0.5400195733953836  0.0873604520469300  0.1035323742731293
  0.6299010736691315  0.8438194597264399  0.1850622534730491
  0.7973529102635695  0.3285050828249609  0.3515707276503264
  0.8766866332347263  0.0807516138422812  0.4353913980314701
  0.9764166346337149  0.8378065656957645  0.0101308515921303
  0.7957256418348209  0.8338320409238378  0.3538737776254948
  0.9869624118769664  0.6827526964541022  0.2750297174225622
  0.7519407385773960  0.6543159584749532  0.0925205438244276
  0.8757796549646883  0.3820086340462225  0.1844572036463674
  0.9622176765778931  0.1614170663097099  0.2738683704461309
  0.6347023326661017  0.6645953243314224  0.4294086114421987
  0.7223831586373421  0.4130140054580025  0.0099271944993902
  0.7894002617621396  0.1571111929660347  0.1018373502197036
  0.8818581594143780  0.9287084059173694  0.1997042464161822
  0.5446280903927274  0.4175202212828424  0.3525627909238978
  0.6263696778304038  0.1698868031528775  0.4337942633980845
  0.6923112527543580  0.9323142265490247  0.0099059397015324
  0.5466020421271338  0.9203147217941989  0.3494714987494589
  0.7211289336195819  0.5827805389443128  0.7669504482653693
  0.5374510329163726  0.6114894061847522  0.5994222162551353
  0.6314106334021048  0.3180173350810094  0.6993782262085588
  0.7130596781216028  0.0831351505597908  0.7726646091421756
  0.8842042374613470  0.5848879904223949  0.9401631970871662
  0.9506313238086364  0.3189991933876968  0.5110103919726754
  0.5414813226484370  0.0856633519836478  0.6036756226807967
  0.6340295964575589  0.8439123618874618  0.6857292024699220
  0.7976447287394279  0.3304090513053310  0.8528307326008644
  0.8766143586785375  0.0799469209213939  0.9360321821421280
  0.9750931143569730  0.8382219469490622  0.5091862800991862
  0.7940667388480804  0.8356216537428551  0.8572146278033941
  0.9737185869561955  0.6855855980494141  0.7884935771113533
  0.7618369327999517  0.6534088118341899  0.5929140586185184
  0.8764597369502738  0.3834902002267029  0.6858026799553869
  0.9627505053957464  0.1630174990096478  0.7750065278596168
  0.6319685610375529  0.6674830994222702  0.9323930365740765
  0.7286527570228145  0.4118960585816254  0.5077369159742204
  0.7907634295512338  0.1569973143770937  0.6021573565899700
  0.8857229249008540  0.9272878395588933  0.7021489311663629
  0.5455629785332547  0.4201843899440902  0.8508009756579185
  0.6271175278499967  0.1718595216583054  0.9343868099631223
  0.6955263318784262  0.9314821220285268  0.5079072204353494
  0.5477953880482431  0.9244607175971282  0.8529770917002466
 
  0.00000000E+00  0.00000000E+00  0.00000000E+00
  0.00000000E+00  0.00000000E+00  0.00000000E+00
  0.00000000E+00  0.00000000E+00  0.00000000E+00
  0.00000000E+00  0.00000000E+00  0.00000000E+00
  0.00000000E+00  0.00000000E+00  0.00000000E+00
  0.00000000E+00  0.00000000E+00  0.00000000E+00
  0.00000000E+00  0.00000000E+00  0.00000000E+00
  0.00000000E+00  0.00000000E+00  0.00000000E+00
  0.00000000E+00  0.00000000E+00  0.00000000E+00
  0.00000000E+00  0.00000000E+00  0.00000000E+00
  0.00000000E+00  0.00000000E+00  0.00000000E+00
  0.00000000E+00  0.00000000E+00  0.00000000E+00
  0.00000000E+00  0.00000000E+00  0.00000000E+00
  0.00000000E+00  0.00000000E+00  0.00000000E+00
  0.00000000E+00  0.00000000E+00  0.00000000E+00
  0.00000000E+00  0.00000000E+00  0.00000000E+00
  0.00000000E+00  0.00000000E+00  0.00000000E+00
  0.00000000E+00  0.00000000E+00  0.00000000E+00
  0.00000000E+00  0.00000000E+00  0.00000000E+00
  0.00000000E+00  0.00000000E+00  0.00000000E+00
  0.00000000E+00  0.00000000E+00  0.00000000E+00
  0.00000000E+00  0.00000000E+00  0.00000000E+00
  0.00000000E+00  0.00000000E+00  0.00000000E+00
  0.00000000E+00  0.00000000E+00  0.00000000E+00
  0.00000000E+00  0.00000000E+00  0.00000000E+00
  0.00000000E+00  0.00000000E+00  0.00000000E+00
  0.00000000E+00  0.00000000E+00  0.00000000E+00
  0.00000000E+00  0.00000000E+00  0.00000000E+00
  0.00000000E+00  0.00000000E+00  0.00000000E+00
  0.00000000E+00  0.00000000E+00  0.00000000E+00
  0.00000000E+00  0.00000000E+00  0.00000000E+00
  0.00000000E+00  0.00000000E+00  0.00000000E+00
  0.00000000E+00  0.00000000E+00  0.00000000E+00
  0.00000000E+00  0.00000000E+00  0.00000000E+00
  0.00000000E+00  0.00000000E+00  0.00000000E+00
  0.00000000E+00  0.00000000E+00  0.00000000E+00
  0.00000000E+00  0.00000000E+00  0.00000000E+00
  0.00000000E+00  0.00000000E+00  0.00000000E+00
  0.00000000E+00  0.00000000E+00  0.00000000E+00
  0.00000000E+00  0.00000000E+00  0.00000000E+00
  0.00000000E+00  0.00000000E+00  0.00000000E+00
  0.00000000E+00  0.00000000E+00  0.00000000E+00
  0.00000000E+00  0.00000000E+00  0.00000000E+00
  0.00000000E+00  0.00000000E+00  0.00000000E+00
  0.00000000E+00  0.00000000E+00  0.00000000E+00
  0.00000000E+00  0.00000000E+00  0.00000000E+00
  0.00000000E+00  0.00000000E+00  0.00000000E+00
  0.00000000E+00  0.00000000E+00  0.00000000E+00
  0.00000000E+00  0.00000000E+00  0.00000000E+00
  0.00000000E+00  0.00000000E+00  0.00000000E+00
  0.00000000E+00  0.00000000E+00  0.00000000E+00
  0.00000000E+00  0.00000000E+00  0.00000000E+00
  0.00000000E+00  0.00000000E+00  0.00000000E+00
  0.00000000E+00  0.00000000E+00  0.00000000E+00
  0.00000000E+00  0.00000000E+00  0.00000000E+00
  0.00000000E+00  0.00000000E+00  0.00000000E+00
  0.00000000E+00  0.00000000E+00  0.00000000E+00
  0.00000000E+00  0.00000000E+00  0.00000000E+00
  0.00000000E+00  0.00000000E+00  0.00000000E+00
  0.00000000E+00  0.00000000E+00  0.00000000E+00
  0.00000000E+00  0.00000000E+00  0.00000000E+00
  0.00000000E+00  0.00000000E+00  0.00000000E+00
  0.00000000E+00  0.00000000E+00  0.00000000E+00
  0.00000000E+00  0.00000000E+00  0.00000000E+00
  0.00000000E+00  0.00000000E+00  0.00000000E+00
  0.00000000E+00  0.00000000E+00  0.00000000E+00
  0.00000000E+00  0.00000000E+00  0.00000000E+00
  0.00000000E+00  0.00000000E+00  0.00000000E+00
  0.00000000E+00  0.00000000E+00  0.00000000E+00
  0.00000000E+00  0.00000000E+00  0.00000000E+00
  0.00000000E+00  0.00000000E+00  0.00000000E+00
  0.00000000E+00  0.00000000E+00  0.00000000E+00
  0.00000000E+00  0.00000000E+00  0.00000000E+00
  0.00000000E+00  0.00000000E+00  0.00000000E+00
  0.00000000E+00  0.00000000E+00  0.00000000E+00
  0.00000000E+00  0.00000000E+00  0.00000000E+00
  0.00000000E+00  0.00000000E+00  0.00000000E+00
  0.00000000E+00  0.00000000E+00  0.00000000E+00
  0.00000000E+00  0.00000000E+00  0.00000000E+00
  0.00000000E+00  0.00000000E+00  0.00000000E+00
  0.00000000E+00  0.00000000E+00  0.00000000E+00
  0.00000000E+00  0.00000000E+00  0.00000000E+00
  0.00000000E+00  0.00000000E+00  0.00000000E+00
  0.00000000E+00  0.00000000E+00  0.00000000E+00
  0.00000000E+00  0.00000000E+00  0.00000000E+00
  0.00000000E+00  0.00000000E+00  0.00000000E+00
  0.00000000E+00  0.00000000E+00  0.00000000E+00
  0.00000000E+00  0.00000000E+00  0.00000000E+00
  0.00000000E+00  0.00000000E+00  0.00000000E+00
  0.00000000E+00  0.00000000E+00  0.00000000E+00
  0.00000000E+00  0.00000000E+00  0.00000000E+00
  0.00000000E+00  0.00000000E+00  0.00000000E+00
  0.00000000E+00  0.00000000E+00  0.00000000E+00
  0.00000000E+00  0.00000000E+00  0.00000000E+00
  0.00000000E+00  0.00000000E+00  0.00000000E+00
  0.00000000E+00  0.00000000E+00  0.00000000E+00
  0.00000000E+00  0.00000000E+00  0.00000000E+00
  0.00000000E+00  0.00000000E+00  0.00000000E+00
  0.00000000E+00  0.00000000E+00  0.00000000E+00
  0.00000000E+00  0.00000000E+00  0.00000000E+00
  0.00000000E+00  0.00000000E+00  0.00000000E+00
  0.00000000E+00  0.00000000E+00  0.00000000E+00
  0.00000000E+00  0.00000000E+00  0.00000000E+00
  0.00000000E+00  0.00000000E+00  0.00000000E+00
  0.00000000E+00  0.00000000E+00  0.00000000E+00
  0.00000000E+00  0.00000000E+00  0.00000000E+00
  0.00000000E+00  0.00000000E+00  0.00000000E+00
  0.00000000E+00  0.00000000E+00  0.00000000E+00
  0.00000000E+00  0.00000000E+00  0.00000000E+00
  0.00000000E+00  0.00000000E+00  0.00000000E+00
  0.00000000E+00  0.00000000E+00  0.00000000E+00
  0.00000000E+00  0.00000000E+00  0.00000000E+00
  0.00000000E+00  0.00000000E+00  0.00000000E+00
  0.00000000E+00  0.00000000E+00  0.00000000E+00
  0.00000000E+00  0.00000000E+00  0.00000000E+00
  0.00000000E+00  0.00000000E+00  0.00000000E+00
  0.00000000E+00  0.00000000E+00  0.00000000E+00
  0.00000000E+00  0.00000000E+00  0.00000000E+00
  0.00000000E+00  0.00000000E+00  0.00000000E+00
  0.00000000E+00  0.00000000E+00  0.00000000E+00
  0.00000000E+00  0.00000000E+00  0.00000000E+00
  0.00000000E+00  0.00000000E+00  0.00000000E+00
  0.00000000E+00  0.00000000E+00  0.00000000E+00
  0.00000000E+00  0.00000000E+00  0.00000000E+00
  0.00000000E+00  0.00000000E+00  0.00000000E+00
  0.00000000E+00  0.00000000E+00  0.00000000E+00
  0.00000000E+00  0.00000000E+00  0.00000000E+00
  0.00000000E+00  0.00000000E+00  0.00000000E+00
  0.00000000E+00  0.00000000E+00  0.00000000E+00
  0.00000000E+00  0.00000000E+00  0.00000000E+00
  0.00000000E+00  0.00000000E+00  0.00000000E+00
  0.00000000E+00  0.00000000E+00  0.00000000E+00
  0.00000000E+00  0.00000000E+00  0.00000000E+00
  0.00000000E+00  0.00000000E+00  0.00000000E+00
  0.00000000E+00  0.00000000E+00  0.00000000E+00
  0.00000000E+00  0.00000000E+00  0.00000000E+00
  0.00000000E+00  0.00000000E+00  0.00000000E+00
  0.00000000E+00  0.00000000E+00  0.00000000E+00
  0.00000000E+00  0.00000000E+00  0.00000000E+00
  0.00000000E+00  0.00000000E+00  0.00000000E+00
  0.00000000E+00  0.00000000E+00  0.00000000E+00
  0.00000000E+00  0.00000000E+00  0.00000000E+00
  0.00000000E+00  0.00000000E+00  0.00000000E+00
  0.00000000E+00  0.00000000E+00  0.00000000E+00
  0.00000000E+00  0.00000000E+00  0.00000000E+00
  0.00000000E+00  0.00000000E+00  0.00000000E+00
  0.00000000E+00  0.00000000E+00  0.00000000E+00
  0.00000000E+00  0.00000000E+00  0.00000000E+00
  0.00000000E+00  0.00000000E+00  0.00000000E+00
  0.00000000E+00  0.00000000E+00  0.00000000E+00
  0.00000000E+00  0.00000000E+00  0.00000000E+00
  0.00000000E+00  0.00000000E+00  0.00000000E+00
  0.00000000E+00  0.00000000E+00  0.00000000E+00
  0.00000000E+00  0.00000000E+00  0.00000000E+00
  0.00000000E+00  0.00000000E+00  0.00000000E+00
  0.00000000E+00  0.00000000E+00  0.00000000E+00
  0.00000000E+00  0.00000000E+00  0.00000000E+00
  0.00000000E+00  0.00000000E+00  0.00000000E+00
  0.00000000E+00  0.00000000E+00  0.00000000E+00
  0.00000000E+00  0.00000000E+00  0.00000000E+00
  0.00000000E+00  0.00000000E+00  0.00000000E+00
  0.00000000E+00  0.00000000E+00  0.00000000E+00
  0.00000000E+00  0.00000000E+00  0.00000000E+00
  0.00000000E+00  0.00000000E+00  0.00000000E+00
  0.00000000E+00  0.00000000E+00  0.00000000E+00
  0.00000000E+00  0.00000000E+00  0.00000000E+00
  0.00000000E+00  0.00000000E+00  0.00000000E+00
  0.00000000E+00  0.00000000E+00  0.00000000E+00
  0.00000000E+00  0.00000000E+00  0.00000000E+00
  0.00000000E+00  0.00000000E+00  0.00000000E+00
  0.00000000E+00  0.00000000E+00  0.00000000E+00
  0.00000000E+00  0.00000000E+00  0.00000000E+00
  0.00000000E+00  0.00000000E+00  0.00000000E+00
  0.00000000E+00  0.00000000E+00  0.00000000E+00
  0.00000000E+00  0.00000000E+00  0.00000000E+00
  0.00000000E+00  0.00000000E+00  0.00000000E+00
  0.00000000E+00  0.00000000E+00  0.00000000E+00
  0.00000000E+00  0.00000000E+00  0.00000000E+00
  0.00000000E+00  0.00000000E+00  0.00000000E+00
  0.00000000E+00  0.00000000E+00  0.00000000E+00
  0.00000000E+00  0.00000000E+00  0.00000000E+00
  0.00000000E+00  0.00000000E+00  0.00000000E+00
  0.00000000E+00  0.00000000E+00  0.00000000E+00
  0.00000000E+00  0.00000000E+00  0.00000000E+00
  0.00000000E+00  0.00000000E+00  0.00000000E+00
  0.00000000E+00  0.00000000E+00  0.00000000E+00
  0.00000000E+00  0.00000000E+00  0.00000000E+00
  0.00000000E+00  0.00000000E+00  0.00000000E+00
  0.00000000E+00  0.00000000E+00  0.00000000E+00
  0.00000000E+00  0.00000000E+00  0.00000000E+00
  0.00000000E+00  0.00000000E+00  0.00000000E+00
