generated by phonopy                    
   1.00000000000000     
    10.0351470768999995   -0.0000022330999784   -0.0000001056124209
    -5.0175765436399997    8.6906901959899994    0.0000001395531216
    -0.0000001735893656    0.0000001431815548   14.9533752540999991
   Pb   P    Cu   O 
    20    11     1    50
Direct
  0.0031537217419384  0.7767175805569551  0.1350963203865305
  0.0036100429261197  0.7768718032524831  0.6127922090214497
  0.0240165096659268  0.2627623080720554  0.3743733184707807
  0.0040896673524173  0.2606046710780063  0.8741263406234836
  0.2235119185796890  0.2313486351619076  0.1358510708978855
  0.2237828880277206  0.2339633546891520  0.6143587806996393
  0.7421552030447671  0.7494635825677634  0.3763816230357264
  0.7385816537168708  0.7428957069033117  0.8735516920958091
  0.7698753400232619  0.0020269834138915  0.1311837474065811
  0.7713649877674840  0.0033194130923491  0.6177386815680777
  0.2832496364912629  0.0143154601699820  0.3698105945123800
  0.2575517612876865  0.9968170159280376  0.8737754178431203
  0.6593538215843679  0.3287229983543796  0.0019262568084386
  0.6717353670369874  0.3275636986926500  0.4938463280333067
  0.3298435746279154  0.6680924526600691  0.0080006803863171
  0.3365630401216038  0.6324178305894534  0.4936360878280581
  0.3388793962698031  0.6179112191518641  0.2574502423810401
  0.3295681740655070  0.6700631154889578  0.7404762177793884
  0.6759085483175795  0.3336919927027608  0.2525323287490977
  0.6591824250225642  0.3308258434428737  0.7455770218183559
  0.6255888885736240  0.5931060666715950  0.1211642343861428
  0.6255587437950254  0.5953806562050090  0.6260638870498383
  0.3677645843316739  0.3997410094422165  0.8735324089796350
  0.4011424568877615  0.0252731393410244  0.1187641627316154
  0.4014489618943031  0.0293744713951725  0.6287847209324156
  0.6224282939916179  0.9858695149195569  0.3738474025761604
  0.6030476989158373  0.9718582344860636  0.8735821017339376
  0.9678631794446915  0.3751462045581846  0.1149177056872759
  0.9666089014365298  0.3760715919057915  0.6326379152519408
  0.0210990740245975  0.6321346965026180  0.3740789546496472
  0.0258556596706114  0.6322635500830600  0.8739688700930230
  0.3724316699832499  0.3644832945450815  0.3831901321502045
  0.5008782270803280  0.6431656033961417  0.1243327259076707
  0.5021157552969058  0.6469967124360423  0.6229225169722312
  0.4938169342741716  0.2730222442315977  0.3693368495144327
  0.4657261346407111  0.3191655931589068  0.8744218884014643
  0.3471050544914576  0.8513545812297849  0.1184692499016649
  0.3444223924690633  0.8545179353829155  0.6296195793184651
  0.7011209587194429  0.1642578180973473  0.3742778736255801
  0.6805927586911977  0.1499507148242500  0.8737008902395118
  0.1450632976141861  0.4866564557032547  0.1165435322862223
  0.1433548308415453  0.4895727462279211  0.6312666657647625
  0.8425046142108528  0.5243504846325706  0.3756951156226549
  0.8474530960864328  0.5351473276480263  0.8741499659554393
  0.7252491261590990  0.6529884165409001  0.0348385753741880
  0.7360785432346830  0.6619878042663601  0.5434341859753289
  0.2364136680587663  0.3626731017292641  0.4712987281949452
  0.2617318670986890  0.3588270098454487  0.9574059617557964
  0.3560740989610593  0.0785790772484702  0.0311425337376861
  0.3335301216662430  0.0715318760741326  0.5458235398622833
  0.6706158638046062  0.9281771914792927  0.4582498126876189
  0.6459192052382221  0.9088324872197191  0.9576764258769472
  0.9180961545210380  0.2640025691436065  0.0322305750283505
  0.9142396059926412  0.2716367812771878  0.5470623879743002
  0.0782103207758809  0.7356909935521543  0.4585423339241572
  0.0918126458810633  0.7390902064845548  0.9577000979261783
  0.2410728235347079  0.3469694574783020  0.2806786104137586
  0.2604396991458771  0.3547326164373032  0.7899662477708560
  0.7354973211239653  0.6606244183961323  0.2039054288095485
  0.7263126960571213  0.6553857579109987  0.7121052072121046
  0.6755490876809489  0.9292630083417635  0.2912162970732979
  0.6488607211527793  0.9098304856975332  0.7901633043498890
  0.3246412359552124  0.0626995808353499  0.1996207784762163
  0.3518425774423619  0.0818159071154341  0.7151000359289839
  0.0730069851616051  0.7375332523735594  0.2903174709952197
  0.0906638379356011  0.7398269788699707  0.7903093899578124
  0.9160567515360682  0.2707431069334234  0.2004603755282233
  0.9190141055553696  0.2646193564459409  0.7150455427351972
  0.5446508468663893  0.4134136393010337  0.1241630308144650
  0.5438153303624347  0.4156805120470892  0.6234659404043583
  0.4916345516276266  0.6056386065669059  0.3774250496444296
  0.4785848219572060  0.5802799387161741  0.8719107971116173
  0.5806323434730203  0.1251109127983057  0.1282048213545792
  0.5817995667150200  0.1259705627549792  0.6236013312352000
  0.4426167942180399  0.9112849681816186  0.3721623301353603
  0.4217568890534196  0.8989670100819893  0.8721600374040506
  0.8801632034903619  0.4666973694252761  0.1104783042364446
  0.8770458138226047  0.4659481480438359  0.6369760265052804
  0.0982098005239820  0.5275658292861181  0.3718438170630947
  0.0960203300472244  0.5216068869166364  0.8730548766968624
  0.9966305101821149  0.0031670607849179  0.1425621892899898
  0.9980692411872241  0.0038716404895496  0.6045780724529664
 
  0.00000000E+00  0.00000000E+00  0.00000000E+00
  0.00000000E+00  0.00000000E+00  0.00000000E+00
  0.00000000E+00  0.00000000E+00  0.00000000E+00
  0.00000000E+00  0.00000000E+00  0.00000000E+00
  0.00000000E+00  0.00000000E+00  0.00000000E+00
  0.00000000E+00  0.00000000E+00  0.00000000E+00
  0.00000000E+00  0.00000000E+00  0.00000000E+00
  0.00000000E+00  0.00000000E+00  0.00000000E+00
  0.00000000E+00  0.00000000E+00  0.00000000E+00
  0.00000000E+00  0.00000000E+00  0.00000000E+00
  0.00000000E+00  0.00000000E+00  0.00000000E+00
  0.00000000E+00  0.00000000E+00  0.00000000E+00
  0.00000000E+00  0.00000000E+00  0.00000000E+00
  0.00000000E+00  0.00000000E+00  0.00000000E+00
  0.00000000E+00  0.00000000E+00  0.00000000E+00
  0.00000000E+00  0.00000000E+00  0.00000000E+00
  0.00000000E+00  0.00000000E+00  0.00000000E+00
  0.00000000E+00  0.00000000E+00  0.00000000E+00
  0.00000000E+00  0.00000000E+00  0.00000000E+00
  0.00000000E+00  0.00000000E+00  0.00000000E+00
  0.00000000E+00  0.00000000E+00  0.00000000E+00
  0.00000000E+00  0.00000000E+00  0.00000000E+00
  0.00000000E+00  0.00000000E+00  0.00000000E+00
  0.00000000E+00  0.00000000E+00  0.00000000E+00
  0.00000000E+00  0.00000000E+00  0.00000000E+00
  0.00000000E+00  0.00000000E+00  0.00000000E+00
  0.00000000E+00  0.00000000E+00  0.00000000E+00
  0.00000000E+00  0.00000000E+00  0.00000000E+00
  0.00000000E+00  0.00000000E+00  0.00000000E+00
  0.00000000E+00  0.00000000E+00  0.00000000E+00
  0.00000000E+00  0.00000000E+00  0.00000000E+00
  0.00000000E+00  0.00000000E+00  0.00000000E+00
  0.00000000E+00  0.00000000E+00  0.00000000E+00
  0.00000000E+00  0.00000000E+00  0.00000000E+00
  0.00000000E+00  0.00000000E+00  0.00000000E+00
  0.00000000E+00  0.00000000E+00  0.00000000E+00
  0.00000000E+00  0.00000000E+00  0.00000000E+00
  0.00000000E+00  0.00000000E+00  0.00000000E+00
  0.00000000E+00  0.00000000E+00  0.00000000E+00
  0.00000000E+00  0.00000000E+00  0.00000000E+00
  0.00000000E+00  0.00000000E+00  0.00000000E+00
  0.00000000E+00  0.00000000E+00  0.00000000E+00
  0.00000000E+00  0.00000000E+00  0.00000000E+00
  0.00000000E+00  0.00000000E+00  0.00000000E+00
  0.00000000E+00  0.00000000E+00  0.00000000E+00
  0.00000000E+00  0.00000000E+00  0.00000000E+00
  0.00000000E+00  0.00000000E+00  0.00000000E+00
  0.00000000E+00  0.00000000E+00  0.00000000E+00
  0.00000000E+00  0.00000000E+00  0.00000000E+00
  0.00000000E+00  0.00000000E+00  0.00000000E+00
  0.00000000E+00  0.00000000E+00  0.00000000E+00
  0.00000000E+00  0.00000000E+00  0.00000000E+00
  0.00000000E+00  0.00000000E+00  0.00000000E+00
  0.00000000E+00  0.00000000E+00  0.00000000E+00
  0.00000000E+00  0.00000000E+00  0.00000000E+00
  0.00000000E+00  0.00000000E+00  0.00000000E+00
  0.00000000E+00  0.00000000E+00  0.00000000E+00
  0.00000000E+00  0.00000000E+00  0.00000000E+00
  0.00000000E+00  0.00000000E+00  0.00000000E+00
  0.00000000E+00  0.00000000E+00  0.00000000E+00
  0.00000000E+00  0.00000000E+00  0.00000000E+00
  0.00000000E+00  0.00000000E+00  0.00000000E+00
  0.00000000E+00  0.00000000E+00  0.00000000E+00
  0.00000000E+00  0.00000000E+00  0.00000000E+00
  0.00000000E+00  0.00000000E+00  0.00000000E+00
  0.00000000E+00  0.00000000E+00  0.00000000E+00
  0.00000000E+00  0.00000000E+00  0.00000000E+00
  0.00000000E+00  0.00000000E+00  0.00000000E+00
  0.00000000E+00  0.00000000E+00  0.00000000E+00
  0.00000000E+00  0.00000000E+00  0.00000000E+00
  0.00000000E+00  0.00000000E+00  0.00000000E+00
  0.00000000E+00  0.00000000E+00  0.00000000E+00
  0.00000000E+00  0.00000000E+00  0.00000000E+00
  0.00000000E+00  0.00000000E+00  0.00000000E+00
  0.00000000E+00  0.00000000E+00  0.00000000E+00
  0.00000000E+00  0.00000000E+00  0.00000000E+00
  0.00000000E+00  0.00000000E+00  0.00000000E+00
  0.00000000E+00  0.00000000E+00  0.00000000E+00
  0.00000000E+00  0.00000000E+00  0.00000000E+00
  0.00000000E+00  0.00000000E+00  0.00000000E+00
  0.00000000E+00  0.00000000E+00  0.00000000E+00
  0.00000000E+00  0.00000000E+00  0.00000000E+00
