generated by phonopy                    
   1.00000000000000     
    10.0351470768999995   -0.0000022330999784   -0.0000001056124209
    -5.0175765436399997    8.6906901959899994    0.0000001395531216
    -0.0000001735893656    0.0000001431815548   14.9533752540999991
   Pb   P    O 
    19    12    50
Direct
  0.9932685809133375  0.7694225673828754  0.1179374386076262
  0.9960443524595348  0.7697412321712420  0.6252822647449463
  0.0000562976537921  0.2616273302071903  0.3720279060198806
  0.9940877713870364  0.2617298414031950  0.8789580776735733
  0.2295284603620615  0.2234380638573228  0.1180614543697800
  0.2297412853037244  0.2257265260060066  0.6255254422823953
  0.7380206651994925  0.7384754321213904  0.3720523949979722
  0.7371289678390482  0.7311414471534121  0.8789967766224507
  0.7756214508140786  0.0060762030437758  0.1177656229769752
  0.7738099446990034  0.0035353613195923  0.6250705498252245
  0.2612675788290204  0.9994500322433382  0.3723277225672561
  0.2676878994506282  0.0052629913176148  0.8791606555282314
  0.6667817050020304  0.3333553885948248  0.5006317045097930
  0.3325339603042536  0.6658223388531397  0.0056565735777951
  0.3328179324638043  0.6656932279722128  0.5049352313760309
  0.3331470130247425  0.6669515009903861  0.2454734900371633
  0.3336248451057884  0.6670917698155066  0.7455005189039028
  0.6658965510035486  0.3327967119996060  0.2259239714802561
  0.6664446052432638  0.3327238831516581  0.7591877365575925
  0.6229253090122597  0.6009525573896113  0.1250798191849398
  0.6222877249716419  0.5929911360695570  0.6239598062591369
  0.3660031547604135  0.3926350089813297  0.3763505135560408
  0.3635827443159201  0.3900250271837677  0.8709440244478728
  0.3980504705879753  0.0216423002523740  0.1251124588219525
  0.4065678440565037  0.0287819701412033  0.6240135796032504
  0.6072118859697184  0.9734054156852068  0.3762555878822624
  0.6085473797245413  0.9725164533966790  0.8708277219473572
  0.9776335937558258  0.3763427736184894  0.1252410106438475
  0.9707755700588052  0.3771746591401595  0.6241099954772906
  0.0262353293527582  0.6336974158641482  0.3761362872255987
  0.0265049162599027  0.6353343340358322  0.8708072151646249
  0.5001309835773142  0.6549761229166080  0.1250947161207776
  0.4991350237792744  0.6454672400790571  0.6236004183771158
  0.4632742088628490  0.3119852631009365  0.3780614699601514
  0.4582724218437519  0.3075528720886922  0.8646480642210719
  0.3447904610753625  0.8449566694979538  0.1251235957968859
  0.3540217729994808  0.8531630746910821  0.6237450500861215
  0.6876791247415568  0.1513189028009663  0.3777710976039259
  0.6915941230902760  0.1495342068211087  0.8639592729515329
  0.1543615611718323  0.4994350567913344  0.1252496785341322
  0.1463958603214692  0.5002192795091744  0.6236639819003713
  0.8483725723862463  0.5363926824016687  0.3775895722641991
  0.8494366697103288  0.5412302985881041  0.8640421664468150
  0.7312728447826728  0.6727957011484875  0.0422549432370474
  0.7277656307149272  0.6537806539315625  0.5389204593613499
  0.2611067255754094  0.3558674039771432  0.4610103013674873
  0.2563900228387723  0.3386926599948197  0.9551815778561590
  0.3256808218511580  0.0577378738877599  0.0424076056799905
  0.3452117501224308  0.0731694332773074  0.5391547981951845
  0.6448973336055133  0.9056721541185411  0.4607158620196827
  0.6612539088277671  0.9169535595726614  0.9547280545865107
  0.9413863333830008  0.2680200425540704  0.0424884404103025
  0.9260039584819779  0.2715053146123907  0.5391600971264552
  0.0939342431545640  0.7388675471901038  0.4606854581401194
  0.0822362837439385  0.7431188585225357  0.9549071601479966
  0.2570766503502782  0.3455784212123660  0.2932034839447653
  0.2567856814694167  0.3588964670105952  0.7878736736718182
  0.7310393239422055  0.6658026454216426  0.2091957610053541
  0.7300560960140317  0.6590552965983676  0.7075104601401989
  0.6535462541820323  0.9112727896326049  0.2929067220878565
  0.6379761995542879  0.8959254320532111  0.7875049533778409
  0.3336045072971174  0.0647659042190583  0.2094378996827402
  0.3410314775611880  0.0707473575818014  0.7077885088170532
  0.0886022524273571  0.7423799121939822  0.2928791731344944
  0.1028469733421531  0.7419051592163513  0.7876879396744840
  0.9345399594068269  0.2684883841773811  0.2094298446195921
  0.9290471122351249  0.2695492953273231  0.7077663997198655
  0.5411833106888011  0.4230821448632156  0.1266725689806876
  0.5417107237548606  0.4134067490892903  0.6250692152149639
  0.4758331386515735  0.5740238226772973  0.3729042052086839
  0.4740106869719654  0.5709692132832984  0.8772740484846295
  0.5759530541159208  0.1184158124844998  0.1262137432451524
  0.5861568116603522  0.1277380645983754  0.6247924882127691
  0.4257714348122121  0.9017712337711501  0.3732387008854445
  0.4278938269780639  0.9024177774277931  0.8780010052686933
  0.8810558627819702  0.4577435601842694  0.1266991738057612
  0.8718476536368200  0.4578181712196709  0.6251105756840545
  0.0978520236806730  0.5238302213501029  0.3731033909312558
  0.0965514772634251  0.5247053771506387  0.8776319685554910
  0.9995997438000046  0.9997151967476796  0.1127758926204052
  0.9999044638761205  0.9996952943602935  0.6232237097192481
 
  0.00000000E+00  0.00000000E+00  0.00000000E+00
  0.00000000E+00  0.00000000E+00  0.00000000E+00
  0.00000000E+00  0.00000000E+00  0.00000000E+00
  0.00000000E+00  0.00000000E+00  0.00000000E+00
  0.00000000E+00  0.00000000E+00  0.00000000E+00
  0.00000000E+00  0.00000000E+00  0.00000000E+00
  0.00000000E+00  0.00000000E+00  0.00000000E+00
  0.00000000E+00  0.00000000E+00  0.00000000E+00
  0.00000000E+00  0.00000000E+00  0.00000000E+00
  0.00000000E+00  0.00000000E+00  0.00000000E+00
  0.00000000E+00  0.00000000E+00  0.00000000E+00
  0.00000000E+00  0.00000000E+00  0.00000000E+00
  0.00000000E+00  0.00000000E+00  0.00000000E+00
  0.00000000E+00  0.00000000E+00  0.00000000E+00
  0.00000000E+00  0.00000000E+00  0.00000000E+00
  0.00000000E+00  0.00000000E+00  0.00000000E+00
  0.00000000E+00  0.00000000E+00  0.00000000E+00
  0.00000000E+00  0.00000000E+00  0.00000000E+00
  0.00000000E+00  0.00000000E+00  0.00000000E+00
  0.00000000E+00  0.00000000E+00  0.00000000E+00
  0.00000000E+00  0.00000000E+00  0.00000000E+00
  0.00000000E+00  0.00000000E+00  0.00000000E+00
  0.00000000E+00  0.00000000E+00  0.00000000E+00
  0.00000000E+00  0.00000000E+00  0.00000000E+00
  0.00000000E+00  0.00000000E+00  0.00000000E+00
  0.00000000E+00  0.00000000E+00  0.00000000E+00
  0.00000000E+00  0.00000000E+00  0.00000000E+00
  0.00000000E+00  0.00000000E+00  0.00000000E+00
  0.00000000E+00  0.00000000E+00  0.00000000E+00
  0.00000000E+00  0.00000000E+00  0.00000000E+00
  0.00000000E+00  0.00000000E+00  0.00000000E+00
  0.00000000E+00  0.00000000E+00  0.00000000E+00
  0.00000000E+00  0.00000000E+00  0.00000000E+00
  0.00000000E+00  0.00000000E+00  0.00000000E+00
  0.00000000E+00  0.00000000E+00  0.00000000E+00
  0.00000000E+00  0.00000000E+00  0.00000000E+00
  0.00000000E+00  0.00000000E+00  0.00000000E+00
  0.00000000E+00  0.00000000E+00  0.00000000E+00
  0.00000000E+00  0.00000000E+00  0.00000000E+00
  0.00000000E+00  0.00000000E+00  0.00000000E+00
  0.00000000E+00  0.00000000E+00  0.00000000E+00
  0.00000000E+00  0.00000000E+00  0.00000000E+00
  0.00000000E+00  0.00000000E+00  0.00000000E+00
  0.00000000E+00  0.00000000E+00  0.00000000E+00
  0.00000000E+00  0.00000000E+00  0.00000000E+00
  0.00000000E+00  0.00000000E+00  0.00000000E+00
  0.00000000E+00  0.00000000E+00  0.00000000E+00
  0.00000000E+00  0.00000000E+00  0.00000000E+00
  0.00000000E+00  0.00000000E+00  0.00000000E+00
  0.00000000E+00  0.00000000E+00  0.00000000E+00
  0.00000000E+00  0.00000000E+00  0.00000000E+00
  0.00000000E+00  0.00000000E+00  0.00000000E+00
  0.00000000E+00  0.00000000E+00  0.00000000E+00
  0.00000000E+00  0.00000000E+00  0.00000000E+00
  0.00000000E+00  0.00000000E+00  0.00000000E+00
  0.00000000E+00  0.00000000E+00  0.00000000E+00
  0.00000000E+00  0.00000000E+00  0.00000000E+00
  0.00000000E+00  0.00000000E+00  0.00000000E+00
  0.00000000E+00  0.00000000E+00  0.00000000E+00
  0.00000000E+00  0.00000000E+00  0.00000000E+00
  0.00000000E+00  0.00000000E+00  0.00000000E+00
  0.00000000E+00  0.00000000E+00  0.00000000E+00
  0.00000000E+00  0.00000000E+00  0.00000000E+00
  0.00000000E+00  0.00000000E+00  0.00000000E+00
  0.00000000E+00  0.00000000E+00  0.00000000E+00
  0.00000000E+00  0.00000000E+00  0.00000000E+00
  0.00000000E+00  0.00000000E+00  0.00000000E+00
  0.00000000E+00  0.00000000E+00  0.00000000E+00
  0.00000000E+00  0.00000000E+00  0.00000000E+00
  0.00000000E+00  0.00000000E+00  0.00000000E+00
  0.00000000E+00  0.00000000E+00  0.00000000E+00
  0.00000000E+00  0.00000000E+00  0.00000000E+00
  0.00000000E+00  0.00000000E+00  0.00000000E+00
  0.00000000E+00  0.00000000E+00  0.00000000E+00
  0.00000000E+00  0.00000000E+00  0.00000000E+00
  0.00000000E+00  0.00000000E+00  0.00000000E+00
  0.00000000E+00  0.00000000E+00  0.00000000E+00
  0.00000000E+00  0.00000000E+00  0.00000000E+00
  0.00000000E+00  0.00000000E+00  0.00000000E+00
  0.00000000E+00  0.00000000E+00  0.00000000E+00
  0.00000000E+00  0.00000000E+00  0.00000000E+00
