generated by phonopy                    
   1.00000000000000     
    10.0351470768999995   -0.0000022330999784   -0.0000001056124209
    -5.0175765436399997    8.6906901959899994    0.0000001395531216
    -0.0000001735893656    0.0000001431815548   14.9533752540999991
   Pb   Cu   P    O 
    20     1    11    50
Direct
  0.9490080362306585  0.7242067444494111  0.1226795467475128
  0.9886497364136488  0.7668709505682259  0.6233959165530649
  0.0022168857518068  0.2659441745709188  0.3665106933915823
  0.0022650995723907  0.2661860347078573  0.8811428754006343
  0.2356824456298412  0.2144091737196732  0.1237954517311408
  0.2410253685146486  0.2358547322145341  0.6235663923169170
  0.7429020166848801  0.7387985170372176  0.3686215284824925
  0.7425871299058215  0.7389527682799368  0.8780834405301192
  0.7423806427885538  0.9841300931993473  0.1238031120868897
  0.7687701400094156  0.0163937023152059  0.6235295671883279
  0.2610406417047457  0.9976589423959652  0.3744927178152295
  0.2616352582407018  0.9985851623808770  0.8723210661994756
  0.6514173136296151  0.3420472469191154  0.0026736247629273
  0.6744443412331975  0.3374074984944286  0.4978951406112913
  0.3354350142884854  0.6789189270127380  0.0061355308292690
  0.3388751463197224  0.6643882053401882  0.5021543482781894
  0.3349411087911136  0.6787540024267713  0.2416471990260973
  0.3388462308771949  0.6644167820778932  0.7455631189065954
  0.6523145791654201  0.3428026658239887  0.2449161581918347
  0.6748225330099018  0.3376275331959064  0.7497501540696376
  0.5942598591042199  0.5911739721426628  0.1238430321813055
  0.6239895151881498  0.5932261586990251  0.6239375176613251
  0.3719684237639882  0.3972342698495552  0.3741763812464711
  0.3717278712029568  0.3972729527929957  0.8735199605771129
  0.3955582167368306  0.0197003729231326  0.1239418932611827
  0.4031132266888875  0.0227332672596745  0.6239934910186165
  0.6105583444844740  0.9784869321274812  0.3785986994799515
  0.6103652156074375  0.9783993139465821  0.8690815489314474
  0.9849969968706773  0.3830578721301094  0.1238242290495464
  0.9738270161040816  0.3788906150934395  0.6238875272547375
  0.0229139359652706  0.6316967193636387  0.3712155841213871
  0.0223166289690440  0.6315194850938113  0.8772738656434100
  0.5174928854458543  0.7235935195815202  0.1239596214493872
  0.5108361175863223  0.6579547219926525  0.6239044457397824
  0.4759715183295725  0.3219938776092945  0.3745595683785012
  0.4757885489219333  0.3220640344681271  0.8732053222147229
  0.3052709240404212  0.8398842212723991  0.1238510917802742
  0.3449949613020209  0.8469664383092663  0.6239830149342893
  0.6872738771058451  0.1562580595895113  0.3805116187182733
  0.6870646961015083  0.1560383953439057  0.8671379453818773
  0.1612722833901330  0.4984814052209074  0.1238004273066338
  0.1519702390124138  0.4875106757164005  0.6237778446779600
  0.8447208364997820  0.5276324805779709  0.3760494590073122
  0.8442788241312655  0.5272813782893451  0.8719598361367815
  0.7399072099548931  0.6303357335909254  0.0305758912354364
  0.7321298927225257  0.6494841966025575  0.5397291486003155
  0.2715520900080648  0.3589331559002531  0.4606470528173858
  0.2609189570382426  0.3430802246123577  0.9558503593035894
  0.3518858069767177  0.0817458862545237  0.0389619084096040
  0.3455178743170535  0.0730304337708318  0.5399390849868553
  0.6451009164210788  0.9105741102466993  0.4643397931734086
  0.6659383693912488  0.9218469287929381  0.9515128873448191
  0.9319778970417971  0.2796847574652332  0.0392502953228799
  0.9185543862129677  0.2703207476994720  0.5396417422307707
  0.0865684803322111  0.7474466031967637  0.4516210759754742
  0.0759256909646950  0.7299940891376053  0.9655044377477324
  0.2604817018288728  0.3421096329987847  0.2921310815890976
  0.2706958665764816  0.3580429781371421  0.7872771777063932
  0.7409620437870856  0.6310129635550084  0.2165792799893893
  0.7318794209259423  0.6493145470906541  0.7082401846103394
  0.6668569796748898  0.9222199601885492  0.2963845965659218
  0.6453901517960006  0.9103451622091612  0.7835084225751956
  0.3513525132483934  0.0814040650470460  0.2088801994918583
  0.3457102562934580  0.0729730756142928  0.7082082602168072
  0.0772945002090779  0.7312985901794775  0.2835142120291252
  0.0861996792957953  0.7482606281029547  0.7973698788526775
  0.9322736001820076  0.2795427234727086  0.2084720175097345
  0.9187594414313978  0.2704272305291013  0.7081414349521822
  0.5141385338661877  0.3804225157155869  0.1239412225976864
  0.5322783100990094  0.4126302317177846  0.6238783452679471
  0.4781223376262815  0.5786888565708495  0.3689152178640853
  0.4779089756018493  0.5787927613947588  0.8781039481142017
  0.5739690460065816  0.0885744333332283  0.1241414183488132
  0.5856173377517138  0.1168842196999762  0.6239501354289700
  0.4289462335562817  0.9025165420731867  0.3713033917391471
  0.4286672963695253  0.9024278980568283  0.8758925359171101
  0.8941964456759948  0.4775463757354927  0.1241271978306173
  0.8866847512228659  0.4726347886565136  0.6239080377021509
  0.1008414410659668  0.5283673437505101  0.3754237527396427
  0.1007408557609537  0.5287128785805493  0.8725720226370157
  0.0129218524743564  0.9544230709494244  0.1234009854382734
  0.9817460404302665  0.9994387655560146  0.6232282107284135
 
  0.00000000E+00  0.00000000E+00  0.00000000E+00
  0.00000000E+00  0.00000000E+00  0.00000000E+00
  0.00000000E+00  0.00000000E+00  0.00000000E+00
  0.00000000E+00  0.00000000E+00  0.00000000E+00
  0.00000000E+00  0.00000000E+00  0.00000000E+00
  0.00000000E+00  0.00000000E+00  0.00000000E+00
  0.00000000E+00  0.00000000E+00  0.00000000E+00
  0.00000000E+00  0.00000000E+00  0.00000000E+00
  0.00000000E+00  0.00000000E+00  0.00000000E+00
  0.00000000E+00  0.00000000E+00  0.00000000E+00
  0.00000000E+00  0.00000000E+00  0.00000000E+00
  0.00000000E+00  0.00000000E+00  0.00000000E+00
  0.00000000E+00  0.00000000E+00  0.00000000E+00
  0.00000000E+00  0.00000000E+00  0.00000000E+00
  0.00000000E+00  0.00000000E+00  0.00000000E+00
  0.00000000E+00  0.00000000E+00  0.00000000E+00
  0.00000000E+00  0.00000000E+00  0.00000000E+00
  0.00000000E+00  0.00000000E+00  0.00000000E+00
  0.00000000E+00  0.00000000E+00  0.00000000E+00
  0.00000000E+00  0.00000000E+00  0.00000000E+00
  0.00000000E+00  0.00000000E+00  0.00000000E+00
  0.00000000E+00  0.00000000E+00  0.00000000E+00
  0.00000000E+00  0.00000000E+00  0.00000000E+00
  0.00000000E+00  0.00000000E+00  0.00000000E+00
  0.00000000E+00  0.00000000E+00  0.00000000E+00
  0.00000000E+00  0.00000000E+00  0.00000000E+00
  0.00000000E+00  0.00000000E+00  0.00000000E+00
  0.00000000E+00  0.00000000E+00  0.00000000E+00
  0.00000000E+00  0.00000000E+00  0.00000000E+00
  0.00000000E+00  0.00000000E+00  0.00000000E+00
  0.00000000E+00  0.00000000E+00  0.00000000E+00
  0.00000000E+00  0.00000000E+00  0.00000000E+00
  0.00000000E+00  0.00000000E+00  0.00000000E+00
  0.00000000E+00  0.00000000E+00  0.00000000E+00
  0.00000000E+00  0.00000000E+00  0.00000000E+00
  0.00000000E+00  0.00000000E+00  0.00000000E+00
  0.00000000E+00  0.00000000E+00  0.00000000E+00
  0.00000000E+00  0.00000000E+00  0.00000000E+00
  0.00000000E+00  0.00000000E+00  0.00000000E+00
  0.00000000E+00  0.00000000E+00  0.00000000E+00
  0.00000000E+00  0.00000000E+00  0.00000000E+00
  0.00000000E+00  0.00000000E+00  0.00000000E+00
  0.00000000E+00  0.00000000E+00  0.00000000E+00
  0.00000000E+00  0.00000000E+00  0.00000000E+00
  0.00000000E+00  0.00000000E+00  0.00000000E+00
  0.00000000E+00  0.00000000E+00  0.00000000E+00
  0.00000000E+00  0.00000000E+00  0.00000000E+00
  0.00000000E+00  0.00000000E+00  0.00000000E+00
  0.00000000E+00  0.00000000E+00  0.00000000E+00
  0.00000000E+00  0.00000000E+00  0.00000000E+00
  0.00000000E+00  0.00000000E+00  0.00000000E+00
  0.00000000E+00  0.00000000E+00  0.00000000E+00
  0.00000000E+00  0.00000000E+00  0.00000000E+00
  0.00000000E+00  0.00000000E+00  0.00000000E+00
  0.00000000E+00  0.00000000E+00  0.00000000E+00
  0.00000000E+00  0.00000000E+00  0.00000000E+00
  0.00000000E+00  0.00000000E+00  0.00000000E+00
  0.00000000E+00  0.00000000E+00  0.00000000E+00
  0.00000000E+00  0.00000000E+00  0.00000000E+00
  0.00000000E+00  0.00000000E+00  0.00000000E+00
  0.00000000E+00  0.00000000E+00  0.00000000E+00
  0.00000000E+00  0.00000000E+00  0.00000000E+00
  0.00000000E+00  0.00000000E+00  0.00000000E+00
  0.00000000E+00  0.00000000E+00  0.00000000E+00
  0.00000000E+00  0.00000000E+00  0.00000000E+00
  0.00000000E+00  0.00000000E+00  0.00000000E+00
  0.00000000E+00  0.00000000E+00  0.00000000E+00
  0.00000000E+00  0.00000000E+00  0.00000000E+00
  0.00000000E+00  0.00000000E+00  0.00000000E+00
  0.00000000E+00  0.00000000E+00  0.00000000E+00
  0.00000000E+00  0.00000000E+00  0.00000000E+00
  0.00000000E+00  0.00000000E+00  0.00000000E+00
  0.00000000E+00  0.00000000E+00  0.00000000E+00
  0.00000000E+00  0.00000000E+00  0.00000000E+00
  0.00000000E+00  0.00000000E+00  0.00000000E+00
  0.00000000E+00  0.00000000E+00  0.00000000E+00
  0.00000000E+00  0.00000000E+00  0.00000000E+00
  0.00000000E+00  0.00000000E+00  0.00000000E+00
  0.00000000E+00  0.00000000E+00  0.00000000E+00
  0.00000000E+00  0.00000000E+00  0.00000000E+00
  0.00000000E+00  0.00000000E+00  0.00000000E+00
  0.00000000E+00  0.00000000E+00  0.00000000E+00
