supercell of icsd_608626.cif            
   1.08461629154403     
     9.3461852164013344    0.0022315271706872   -0.0106846828953768
    -4.6710694197677523    8.0203634179475003    0.0117938189529817
    -0.0127549430048744    0.0079682914899984    9.4449293589726118
   Al   Y    N 
    24    12    36
Direct
  0.2276195659912688  0.1170745552903441  0.2597094183010356
  0.1205704485118488  0.2271271390787319  0.5062757045470221
  0.7632770496049019  0.2157885419814463  0.0126957217250663
  0.5344126176296840  0.1105463300218474  0.2533824233005220
  0.4341817042870701  0.2070637574190997  0.4956615706199656
  0.2330838582697154  0.1024632990827499  0.7361281105822073
  0.5463041399709638  0.0985747035933713  0.7450625131098576
  0.2182098279806084  0.4322773624239460  0.2469459357879344
  0.1141434823052805  0.5582980447511758  0.4970299831270282
  0.7767402058858792  0.5588319868678653  0.0181927659296335
  0.5587745816044531  0.4365042209685086  0.2548346031315276
  0.2400872238339531  0.4677672817203913  0.7487287152225335
  0.1118845721152155  0.5530916472007235  0.9998398961749899
  0.8877236838205604  0.4465993244340538  0.2401605790535726
  0.7992258206892302  0.5623815414778477  0.4805232019647150
  0.4477612674195512  0.5588543073407450  0.0027922405649363
  0.1218316444872869  0.8876071915912718  0.4967737819530811
  0.7770302200144314  0.8826185520505376  0.0099664406449804
  0.4284979460647378  0.8848717478690702  0.5087797652661976
  0.2294680739946600  0.7797535915183715  0.7441479794953310
  0.1075826460417630  0.8848588191821563  0.0037138144689877
  0.8985791165200894  0.7785268518338881  0.2431056029129763
  0.5449301137162337  0.7788007926885641  0.7621629827169372
  0.4424669403875541  0.8935395586935542  0.9857979270235262
  0.8842888854696653  0.1153372642803348  0.7407890873088476
  0.1217602866096499  0.2274202463085331  0.9795440814849883
  0.9042930205738813  0.1239550988157845  0.2388766839921814
  0.7596669287664639  0.2245110353577502  0.4747290791528656
  0.4440556256395212  0.2130892714152779  0.9981107582844402
  0.8952864384772283  0.4493284539454478  0.7498310600807443
  0.4344000125048169  0.5517433654872832  0.4806326028520971
  0.5565399769549302  0.4472937491786340  0.7333694655574519
  0.2115175432958551  0.7716907499009054  0.2414854617476294
  0.9041318036629491  0.7886547101077284  0.7559558653778709
  0.5456457892782183  0.7849536914700792  0.2205692566340431
  0.7718445976121586  0.8728320077588378  0.4899448516308524
  0.2206562106061227  0.1132085283870694  0.4476840005917211
  0.1460783607814946  0.2320428851752752  0.1930390048947501
  0.8662144310212128  0.1018678705052096  0.9798949804493944
  0.7468480033308467  0.2138432004500217  0.6880637147784583
  0.5084499045132063  0.0825793386433489  0.4355711295814828
  0.4399646219072437  0.2244296552400940  0.2143033737192326
  0.2073888211437804  0.0743294451247962  0.9185362454586468
  0.1508659550220344  0.2448377153257155  0.6985813586732448
  0.9111035149192475  0.1206754550196862  0.4712050708101216
  0.7500427993143504  0.2300379267436696  0.2059675451500169
  0.5679970051234378  0.0993005426300613  0.9283940585620343
  0.4373235057381279  0.1960680400844979  0.6862712184152002
  0.1915302562720456  0.4294022078160751  0.4320471637227428
  0.0974979444901223  0.5174749722781868  0.1812316975315156
  0.8814294214039435  0.4411427719275594  0.9700171574273426
  0.7912430074264734  0.5680662617591068  0.6633179434760805
  0.5749693988876814  0.4301254537733854  0.4446469246510674
  0.4338956022440570  0.5296001812267050  0.1998378092660289
  0.2418628839662418  0.4795835778469382  0.9344880018808865
  0.1373850616015844  0.5676832799332416  0.6840581999961088
  0.9135847787953963  0.4727298366262787  0.4281940798491064
  0.7798176529509675  0.5562686157960286  0.2020342100112629
  0.5695860208786740  0.4695504738373018  0.9556253003278457
  0.4414173697519388  0.5787390388551756  0.6978813487920945
  0.2221627806979498  0.7737632842393651  0.4581841041804111
  0.1075842302292784  0.9107468451327563  0.1875467443181122
  0.8884860855431214  0.7732192161321692  0.9725569296196070
  0.7481855517650899  0.8726215470726970  0.7091154883502568
  0.5341205689552524  0.7962228674553700  0.4345469526539247
  0.4420477341873692  0.9250429964410785  0.1644037545119374
  0.2116247353449978  0.7707100382713534  0.9444811147792365
  0.1399348460587149  0.8971741871158230  0.6785193020674285
  0.9165390405104219  0.7728036416116311  0.4288434255701432
  0.7893528560511882  0.8756998588856533  0.1985229678451503
  0.5533369956817324  0.7783011147295440  0.9619404819251685
  0.4416543828924588  0.8854763348002948  0.7021972644336998
 
  0.00000000E+00  0.00000000E+00  0.00000000E+00
  0.00000000E+00  0.00000000E+00  0.00000000E+00
  0.00000000E+00  0.00000000E+00  0.00000000E+00
  0.00000000E+00  0.00000000E+00  0.00000000E+00
  0.00000000E+00  0.00000000E+00  0.00000000E+00
  0.00000000E+00  0.00000000E+00  0.00000000E+00
  0.00000000E+00  0.00000000E+00  0.00000000E+00
  0.00000000E+00  0.00000000E+00  0.00000000E+00
  0.00000000E+00  0.00000000E+00  0.00000000E+00
  0.00000000E+00  0.00000000E+00  0.00000000E+00
  0.00000000E+00  0.00000000E+00  0.00000000E+00
  0.00000000E+00  0.00000000E+00  0.00000000E+00
  0.00000000E+00  0.00000000E+00  0.00000000E+00
  0.00000000E+00  0.00000000E+00  0.00000000E+00
  0.00000000E+00  0.00000000E+00  0.00000000E+00
  0.00000000E+00  0.00000000E+00  0.00000000E+00
  0.00000000E+00  0.00000000E+00  0.00000000E+00
  0.00000000E+00  0.00000000E+00  0.00000000E+00
  0.00000000E+00  0.00000000E+00  0.00000000E+00
  0.00000000E+00  0.00000000E+00  0.00000000E+00
  0.00000000E+00  0.00000000E+00  0.00000000E+00
  0.00000000E+00  0.00000000E+00  0.00000000E+00
  0.00000000E+00  0.00000000E+00  0.00000000E+00
  0.00000000E+00  0.00000000E+00  0.00000000E+00
  0.00000000E+00  0.00000000E+00  0.00000000E+00
  0.00000000E+00  0.00000000E+00  0.00000000E+00
  0.00000000E+00  0.00000000E+00  0.00000000E+00
  0.00000000E+00  0.00000000E+00  0.00000000E+00
  0.00000000E+00  0.00000000E+00  0.00000000E+00
  0.00000000E+00  0.00000000E+00  0.00000000E+00
  0.00000000E+00  0.00000000E+00  0.00000000E+00
  0.00000000E+00  0.00000000E+00  0.00000000E+00
  0.00000000E+00  0.00000000E+00  0.00000000E+00
  0.00000000E+00  0.00000000E+00  0.00000000E+00
  0.00000000E+00  0.00000000E+00  0.00000000E+00
  0.00000000E+00  0.00000000E+00  0.00000000E+00
  0.00000000E+00  0.00000000E+00  0.00000000E+00
  0.00000000E+00  0.00000000E+00  0.00000000E+00
  0.00000000E+00  0.00000000E+00  0.00000000E+00
  0.00000000E+00  0.00000000E+00  0.00000000E+00
  0.00000000E+00  0.00000000E+00  0.00000000E+00
  0.00000000E+00  0.00000000E+00  0.00000000E+00
  0.00000000E+00  0.00000000E+00  0.00000000E+00
  0.00000000E+00  0.00000000E+00  0.00000000E+00
  0.00000000E+00  0.00000000E+00  0.00000000E+00
  0.00000000E+00  0.00000000E+00  0.00000000E+00
  0.00000000E+00  0.00000000E+00  0.00000000E+00
  0.00000000E+00  0.00000000E+00  0.00000000E+00
  0.00000000E+00  0.00000000E+00  0.00000000E+00
  0.00000000E+00  0.00000000E+00  0.00000000E+00
  0.00000000E+00  0.00000000E+00  0.00000000E+00
  0.00000000E+00  0.00000000E+00  0.00000000E+00
  0.00000000E+00  0.00000000E+00  0.00000000E+00
  0.00000000E+00  0.00000000E+00  0.00000000E+00
  0.00000000E+00  0.00000000E+00  0.00000000E+00
  0.00000000E+00  0.00000000E+00  0.00000000E+00
  0.00000000E+00  0.00000000E+00  0.00000000E+00
  0.00000000E+00  0.00000000E+00  0.00000000E+00
  0.00000000E+00  0.00000000E+00  0.00000000E+00
  0.00000000E+00  0.00000000E+00  0.00000000E+00
  0.00000000E+00  0.00000000E+00  0.00000000E+00
  0.00000000E+00  0.00000000E+00  0.00000000E+00
  0.00000000E+00  0.00000000E+00  0.00000000E+00
  0.00000000E+00  0.00000000E+00  0.00000000E+00
  0.00000000E+00  0.00000000E+00  0.00000000E+00
  0.00000000E+00  0.00000000E+00  0.00000000E+00
  0.00000000E+00  0.00000000E+00  0.00000000E+00
  0.00000000E+00  0.00000000E+00  0.00000000E+00
  0.00000000E+00  0.00000000E+00  0.00000000E+00
  0.00000000E+00  0.00000000E+00  0.00000000E+00
  0.00000000E+00  0.00000000E+00  0.00000000E+00
  0.00000000E+00  0.00000000E+00  0.00000000E+00
