supercell of icsd_608626.cif            
   1.00000000000000     
    10.0682674601471369   -0.0072597825034819    0.0001017565218051
    -5.0404188200150060    8.7115924607590127   -0.0017041531785444
     0.0004255475343719   -0.0025051841737794    9.6870505536438642
   Sc   Al   N 
    16    20    36
Direct
  0.2277581210957393  0.1199578333212514  0.2158465410428079
  0.1045478591543940  0.2157753218707796  0.4768257482362657
  0.7719940524951383  0.2170259395570824  0.9719098768176622
  0.4480306091384421  0.2225117891856172  0.4831908164324190
  0.1123837616177781  0.5617404079375916  0.4828226023763733
  0.2128801187953826  0.4382946879880549  0.7310398235620426
  0.8847742062007740  0.4319079741288689  0.2266009445867638
  0.7722653179643402  0.5475197056045076  0.4842258054974877
  0.4402259611882187  0.5452607228898572  0.9785444493948887
  0.2317209493932211  0.7857372319405158  0.2251714089877623
  0.1231738066031625  0.8984551034099439  0.4988007042602476
  0.8902933127699058  0.7724202120717010  0.7362774459202228
  0.7799299761256506  0.8933346504498516  0.9804649862014045
  0.5518434237655399  0.7747134298433735  0.2431112684661443
  0.8867337438716305  0.7840594363574951  0.2402462131537320
  0.5490892701522867  0.7814377956898113  0.7298963779407401
  0.8980119708989207  0.1154425618447945  0.7447005721772442
  0.5658304936610747  0.1116637487606980  0.2479254527417183
  0.2279911224668041  0.1184627450190874  0.7606003301563860
  0.1066728159355605  0.2305872472092290  0.0032438165994222
  0.8767438091609066  0.1102187419678842  0.2487736827058171
  0.7729276232516256  0.2129249443868346  0.5049841911454465
  0.5419262865927550  0.1083875515699972  0.7444906655897654
  0.4546303887324967  0.2227017610805362  0.9994964322873088
  0.2261372458947264  0.4444548495575660  0.2500207896930817
  0.8897538942129941  0.4490485148453587  0.7520922297234165
  0.7793680469261162  0.5535861671322877  0.9994442989075765
  0.5517658041165419  0.4419215109640930  0.2426226581559234
  0.4492998734817704  0.5542791329958092  0.5041687110803110
  0.1145089755733224  0.5561595221791293  0.9972671605106385
  0.5586689632690849  0.4316044591271506  0.7508415674762787
  0.4467201094143931  0.8930940557882678  0.4985293254115106
  0.2238874774055120  0.7846027970813267  0.7568648466359704
  0.1108512058796620  0.8871076254674932  0.9867264159028508
  0.7738464909363856  0.8932204344012504  0.5050399654817213
  0.4435361242824811  0.8943524721132121  0.9941481420673739
  0.2254439808204936  0.1125897770886084  0.4285767582811175
  0.0948867648094236  0.2313794429936635  0.2056417764725254
  0.9084681123019323  0.1219369963254380  0.9372180115083992
  0.7788212784767694  0.2230564218130411  0.7095152621915943
  0.5659274634205858  0.1015396661950376  0.4462788779379423
  0.4701425248753281  0.2295894529149933  0.1986774068904182
  0.2277058605233222  0.1239364339961284  0.9645078370162992
  0.1070939614274451  0.2041747041416286  0.6936687295562436
  0.8655758048718738  0.0988968918323607  0.4468936992364902
  0.7679053287659769  0.2025765664589514  0.1861825254785856
  0.5331482707659561  0.0994480813353462  0.9367801264011462
  0.4403841922449558  0.2206768822235929  0.7017873712351914
  0.2394160542235255  0.4545953330454253  0.4549000719232552
  0.1237817794680680  0.5496678659044179  0.1981653849348390
  0.8994524085874929  0.4602892504859284  0.9559230858630343
  0.7678894302204142  0.5332966962099377  0.6992763727827551
  0.5464075660823084  0.4521707297543287  0.4376316325230647
  0.4333440148195962  0.5338200292756170  0.1939475658728398
  0.2042867844796419  0.4369681863654904  0.9450654706080002
  0.1023929327676285  0.5719304182926948  0.7011489633602466
  0.8784829352667956  0.4193394257228036  0.4424093039245349
  0.7631062561165649  0.5501997079788268  0.1992735808422097
  0.5692217921068874  0.4320729303702890  0.9457558339826235
  0.4528097454142284  0.5409484786154550  0.7064119761578382
  0.2415710789199892  0.7916168251885054  0.4393822595665924
  0.1088363561356758  0.8898599264552800  0.1834413996760134
  0.8930191990686183  0.7671262988010810  0.9546860025550856
  0.7842924480108024  0.9042177843583445  0.7057605471819386
  0.5531345244693853  0.7754406074433362  0.4725910865037619
  0.4604465050300988  0.9083254415349415  0.1878964384324817
  0.2240486795844561  0.7773607695348232  0.9569722645386562
  0.1307986192485799  0.9044164045565282  0.7205462180548068
  0.8845509759159427  0.7882719884597051  0.4668125529241465
  0.7794188350524607  0.9033530903538818  0.1954179208847933
  0.5422921578520814  0.7823351493420958  0.9488256786636029
  0.4307721654299854  0.8986022588931917  0.6930737387102184
 
  0.00000000E+00  0.00000000E+00  0.00000000E+00
  0.00000000E+00  0.00000000E+00  0.00000000E+00
  0.00000000E+00  0.00000000E+00  0.00000000E+00
  0.00000000E+00  0.00000000E+00  0.00000000E+00
  0.00000000E+00  0.00000000E+00  0.00000000E+00
  0.00000000E+00  0.00000000E+00  0.00000000E+00
  0.00000000E+00  0.00000000E+00  0.00000000E+00
  0.00000000E+00  0.00000000E+00  0.00000000E+00
  0.00000000E+00  0.00000000E+00  0.00000000E+00
  0.00000000E+00  0.00000000E+00  0.00000000E+00
  0.00000000E+00  0.00000000E+00  0.00000000E+00
  0.00000000E+00  0.00000000E+00  0.00000000E+00
  0.00000000E+00  0.00000000E+00  0.00000000E+00
  0.00000000E+00  0.00000000E+00  0.00000000E+00
  0.00000000E+00  0.00000000E+00  0.00000000E+00
  0.00000000E+00  0.00000000E+00  0.00000000E+00
  0.00000000E+00  0.00000000E+00  0.00000000E+00
  0.00000000E+00  0.00000000E+00  0.00000000E+00
  0.00000000E+00  0.00000000E+00  0.00000000E+00
  0.00000000E+00  0.00000000E+00  0.00000000E+00
  0.00000000E+00  0.00000000E+00  0.00000000E+00
  0.00000000E+00  0.00000000E+00  0.00000000E+00
  0.00000000E+00  0.00000000E+00  0.00000000E+00
  0.00000000E+00  0.00000000E+00  0.00000000E+00
  0.00000000E+00  0.00000000E+00  0.00000000E+00
  0.00000000E+00  0.00000000E+00  0.00000000E+00
  0.00000000E+00  0.00000000E+00  0.00000000E+00
  0.00000000E+00  0.00000000E+00  0.00000000E+00
  0.00000000E+00  0.00000000E+00  0.00000000E+00
  0.00000000E+00  0.00000000E+00  0.00000000E+00
  0.00000000E+00  0.00000000E+00  0.00000000E+00
  0.00000000E+00  0.00000000E+00  0.00000000E+00
  0.00000000E+00  0.00000000E+00  0.00000000E+00
  0.00000000E+00  0.00000000E+00  0.00000000E+00
  0.00000000E+00  0.00000000E+00  0.00000000E+00
  0.00000000E+00  0.00000000E+00  0.00000000E+00
  0.00000000E+00  0.00000000E+00  0.00000000E+00
  0.00000000E+00  0.00000000E+00  0.00000000E+00
  0.00000000E+00  0.00000000E+00  0.00000000E+00
  0.00000000E+00  0.00000000E+00  0.00000000E+00
  0.00000000E+00  0.00000000E+00  0.00000000E+00
  0.00000000E+00  0.00000000E+00  0.00000000E+00
  0.00000000E+00  0.00000000E+00  0.00000000E+00
  0.00000000E+00  0.00000000E+00  0.00000000E+00
  0.00000000E+00  0.00000000E+00  0.00000000E+00
  0.00000000E+00  0.00000000E+00  0.00000000E+00
  0.00000000E+00  0.00000000E+00  0.00000000E+00
  0.00000000E+00  0.00000000E+00  0.00000000E+00
  0.00000000E+00  0.00000000E+00  0.00000000E+00
  0.00000000E+00  0.00000000E+00  0.00000000E+00
  0.00000000E+00  0.00000000E+00  0.00000000E+00
  0.00000000E+00  0.00000000E+00  0.00000000E+00
  0.00000000E+00  0.00000000E+00  0.00000000E+00
  0.00000000E+00  0.00000000E+00  0.00000000E+00
  0.00000000E+00  0.00000000E+00  0.00000000E+00
  0.00000000E+00  0.00000000E+00  0.00000000E+00
  0.00000000E+00  0.00000000E+00  0.00000000E+00
  0.00000000E+00  0.00000000E+00  0.00000000E+00
  0.00000000E+00  0.00000000E+00  0.00000000E+00
  0.00000000E+00  0.00000000E+00  0.00000000E+00
  0.00000000E+00  0.00000000E+00  0.00000000E+00
  0.00000000E+00  0.00000000E+00  0.00000000E+00
  0.00000000E+00  0.00000000E+00  0.00000000E+00
  0.00000000E+00  0.00000000E+00  0.00000000E+00
  0.00000000E+00  0.00000000E+00  0.00000000E+00
  0.00000000E+00  0.00000000E+00  0.00000000E+00
  0.00000000E+00  0.00000000E+00  0.00000000E+00
  0.00000000E+00  0.00000000E+00  0.00000000E+00
  0.00000000E+00  0.00000000E+00  0.00000000E+00
  0.00000000E+00  0.00000000E+00  0.00000000E+00
  0.00000000E+00  0.00000000E+00  0.00000000E+00
  0.00000000E+00  0.00000000E+00  0.00000000E+00
