supercell of 100% icsd_608626.cif, 0% i 
   1.00000000000000     
    -9.6663182494216997   -0.0007962845744268    0.0052753293924030
    -4.8324773268904577    8.3532277520378333    0.0092017787323085
     0.0056328365565423   -0.0081533207311354  -10.1601954104928449
   Al   Hf   Mg   N 
    28     4     4    36
Direct
  0.1053988181455381  0.0906762000984074  0.2917489697048907
  0.2235336454146690  0.2017476707072490  0.0453649370346270
  0.7841928739051909  0.0884634814227070  0.7969108229353949
  0.8846909198551174  0.1992660191848543  0.5442582730849708
  0.4520802799593824  0.0885868599852486  0.2885231654502292
  0.5619346591147902  0.1970551055843472  0.0513867489091950
  0.1073051155195515  0.0900395685161826  0.8031587344166553
  0.7808732474464364  0.0938528922590649  0.2969702363534168
  0.8884945985400208  0.2067340885555922  0.0456580553057080
  0.4535552709410240  0.0862916913345089  0.8029673931161696
  0.5655555118837086  0.1978751317295178  0.5405467689799721
  0.1089578535126634  0.4282659025478637  0.2819019988506426
  0.2156873747330792  0.5453794285477116  0.0516317056995561
  0.7810698927243536  0.4221406835088430  0.8032070928442891
  0.4507933668894140  0.4235207808434893  0.2855971910635589
  0.5610011370604795  0.5436637051760229  0.0486233801201266
  0.1073795117984844  0.4283761682070875  0.8112641713380810
  0.8849462347584804  0.5404161026302461  0.0424732685449527
  0.5534811999133495  0.5382902307677710  0.5384361092988996
  0.1049671402235859  0.7716344884351543  0.2899929789250493
  0.2235677088801182  0.8720477186759368  0.0445044257843392
  0.7760438311933200  0.7691581552091478  0.8031329399100429
  0.8833033074209808  0.8813182194759435  0.5433246610742231
  0.5558150982157386  0.8703335387758173  0.0460750940258379
  0.1007384242250993  0.7741428950102716  0.8017996708403459
  0.2195399067215718  0.8719518392214880  0.5428466248694264
  0.7763777230169069  0.7683793879387864  0.2897427899252989
  0.8884107895627480  0.8741900535795466  0.0464419862114269
  0.2282090430515211  0.1950191547717424  0.5491394455789660
  0.8794773997404164  0.5455811588514052  0.5517825703769716
  0.2274964298681326  0.5478832399785460  0.5393279609799251
  0.4482357149350804  0.4245865951369794  0.8132300706491904
  0.7762575422616322  0.4250151088425085  0.2930405090651362
  0.4432380996308964  0.7616439999348117  0.2988934594067629
  0.4421287762878450  0.7663866855432886  0.7989533305471923
  0.5550227732552386  0.8701521609246043  0.5439905351811589
  0.2219910382604269  0.2066574255196727  0.3428878762701473
  0.1102091784512069  0.0955718822358094  0.1024963729921140
  0.8888145515710164  0.2028600588164409  0.8552289543927998
  0.7767333624834052  0.0944055909449233  0.6061966286388554
  0.5549472828032052  0.2050756329439949  0.3501606045651329
  0.4430438502382401  0.0963851980953905  0.1005345905405406
  0.2238015017537123  0.2033719838919694  0.8513765248221574
  0.1013067107101691  0.0878376356994650  0.6127152037549735
  0.8955253806039778  0.1924372149711644  0.3594220341151981
  0.7801336783154298  0.0942011027616445  0.1073712578469213
  0.5703572842342339  0.1861613683099179  0.8632802074171124
  0.4547347565768405  0.1025947492506702  0.6153466928712206
  0.2220527353673916  0.5374481318243340  0.3345840512368383
  0.1098442023833144  0.4270154303973825  0.0943400728478778
  0.8873959096972897  0.5399624834661907  0.8479317155003514
  0.7695942096556365  0.4169708456737879  0.6103092438040747
  0.5475996177592606  0.5270120346206966  0.3568404074200018
  0.4443395283840275  0.4265115081505897  0.0912062616154046
  0.2028037318218736  0.5522531518246652  0.8582629670299511
  0.1160051556798862  0.4295555547881307  0.6178499786820666
  0.8992456598350742  0.5478246235503832  0.3500333081759450
  0.7816900160572544  0.4268512216718747  0.0910940277478360
  0.5719594581423664  0.5319881163322790  0.8619300240861705
  0.4599504761875863  0.4144759110115572  0.6060588598921086
  0.2044701166636145  0.8805670148032476  0.3569188236400436
  0.1085161867500233  0.7644507971768491  0.1035674419982939
  0.8878338172816953  0.8750053726007039  0.8586180254723743
  0.7848640936486007  0.7732065882807504  0.6157396420483536
  0.5652623982520311  0.8794182785167521  0.3434137845305969
  0.4428198829835637  0.7626775418667435  0.0907642326453768
  0.2056242020669075  0.8793811707498165  0.8597202712861929
  0.0982909412558470  0.7780341407161586  0.6099419054410191
  0.8890351964755183  0.8729237616416299  0.3538272563456388
  0.7816096565673689  0.7601622735777980  0.0995993197820866
  0.5646272139631989  0.8773159075610764  0.8592926800360701
  0.4332057965122260  0.7513621838429287  0.5942906741054514
 
  0.00000000E+00  0.00000000E+00  0.00000000E+00
  0.00000000E+00  0.00000000E+00  0.00000000E+00
  0.00000000E+00  0.00000000E+00  0.00000000E+00
  0.00000000E+00  0.00000000E+00  0.00000000E+00
  0.00000000E+00  0.00000000E+00  0.00000000E+00
  0.00000000E+00  0.00000000E+00  0.00000000E+00
  0.00000000E+00  0.00000000E+00  0.00000000E+00
  0.00000000E+00  0.00000000E+00  0.00000000E+00
  0.00000000E+00  0.00000000E+00  0.00000000E+00
  0.00000000E+00  0.00000000E+00  0.00000000E+00
  0.00000000E+00  0.00000000E+00  0.00000000E+00
  0.00000000E+00  0.00000000E+00  0.00000000E+00
  0.00000000E+00  0.00000000E+00  0.00000000E+00
  0.00000000E+00  0.00000000E+00  0.00000000E+00
  0.00000000E+00  0.00000000E+00  0.00000000E+00
  0.00000000E+00  0.00000000E+00  0.00000000E+00
  0.00000000E+00  0.00000000E+00  0.00000000E+00
  0.00000000E+00  0.00000000E+00  0.00000000E+00
  0.00000000E+00  0.00000000E+00  0.00000000E+00
  0.00000000E+00  0.00000000E+00  0.00000000E+00
  0.00000000E+00  0.00000000E+00  0.00000000E+00
  0.00000000E+00  0.00000000E+00  0.00000000E+00
  0.00000000E+00  0.00000000E+00  0.00000000E+00
  0.00000000E+00  0.00000000E+00  0.00000000E+00
  0.00000000E+00  0.00000000E+00  0.00000000E+00
  0.00000000E+00  0.00000000E+00  0.00000000E+00
  0.00000000E+00  0.00000000E+00  0.00000000E+00
  0.00000000E+00  0.00000000E+00  0.00000000E+00
  0.00000000E+00  0.00000000E+00  0.00000000E+00
  0.00000000E+00  0.00000000E+00  0.00000000E+00
  0.00000000E+00  0.00000000E+00  0.00000000E+00
  0.00000000E+00  0.00000000E+00  0.00000000E+00
  0.00000000E+00  0.00000000E+00  0.00000000E+00
  0.00000000E+00  0.00000000E+00  0.00000000E+00
  0.00000000E+00  0.00000000E+00  0.00000000E+00
  0.00000000E+00  0.00000000E+00  0.00000000E+00
  0.00000000E+00  0.00000000E+00  0.00000000E+00
  0.00000000E+00  0.00000000E+00  0.00000000E+00
  0.00000000E+00  0.00000000E+00  0.00000000E+00
  0.00000000E+00  0.00000000E+00  0.00000000E+00
  0.00000000E+00  0.00000000E+00  0.00000000E+00
  0.00000000E+00  0.00000000E+00  0.00000000E+00
  0.00000000E+00  0.00000000E+00  0.00000000E+00
  0.00000000E+00  0.00000000E+00  0.00000000E+00
  0.00000000E+00  0.00000000E+00  0.00000000E+00
  0.00000000E+00  0.00000000E+00  0.00000000E+00
  0.00000000E+00  0.00000000E+00  0.00000000E+00
  0.00000000E+00  0.00000000E+00  0.00000000E+00
  0.00000000E+00  0.00000000E+00  0.00000000E+00
  0.00000000E+00  0.00000000E+00  0.00000000E+00
  0.00000000E+00  0.00000000E+00  0.00000000E+00
  0.00000000E+00  0.00000000E+00  0.00000000E+00
  0.00000000E+00  0.00000000E+00  0.00000000E+00
  0.00000000E+00  0.00000000E+00  0.00000000E+00
  0.00000000E+00  0.00000000E+00  0.00000000E+00
  0.00000000E+00  0.00000000E+00  0.00000000E+00
  0.00000000E+00  0.00000000E+00  0.00000000E+00
  0.00000000E+00  0.00000000E+00  0.00000000E+00
  0.00000000E+00  0.00000000E+00  0.00000000E+00
  0.00000000E+00  0.00000000E+00  0.00000000E+00
  0.00000000E+00  0.00000000E+00  0.00000000E+00
  0.00000000E+00  0.00000000E+00  0.00000000E+00
  0.00000000E+00  0.00000000E+00  0.00000000E+00
  0.00000000E+00  0.00000000E+00  0.00000000E+00
  0.00000000E+00  0.00000000E+00  0.00000000E+00
  0.00000000E+00  0.00000000E+00  0.00000000E+00
  0.00000000E+00  0.00000000E+00  0.00000000E+00
  0.00000000E+00  0.00000000E+00  0.00000000E+00
  0.00000000E+00  0.00000000E+00  0.00000000E+00
  0.00000000E+00  0.00000000E+00  0.00000000E+00
  0.00000000E+00  0.00000000E+00  0.00000000E+00
  0.00000000E+00  0.00000000E+00  0.00000000E+00
