supercell of 100% icsd_608626.cif, 0% i 
   1.00000000000000     
    -9.6599366496878432    0.0032814290837227   -0.0079206994695957
    -4.8328276261983660    8.3934193418280127   -0.0036190413332208
    -0.0084489506715383   -0.0004760602814280  -10.1047775818117049
   Al   Mg   Hf   N 
    28     4     4    36
Direct
  0.1054415161391375  0.0983538013008882  0.2940759683509668
  0.2212260569342561  0.2048351224382401  0.0442425685805148
  0.7731016613902639  0.1076958428624906  0.7995034902273090
  0.8905372495530841  0.2137071156236985  0.5493248063800849
  0.4437889350085342  0.0998358934801118  0.2967410066113629
  0.5508529818313477  0.2117061175935575  0.0436096495315184
  0.1108229988875280  0.0993283613890767  0.7981090196240146
  0.2209802388467850  0.2006612886428059  0.5461452239259827
  0.7730744584457412  0.1069768065677295  0.2949711608412144
  0.8888786201017069  0.2122141308120291  0.0429454445735047
  0.5548180699222129  0.2067091742712606  0.5462407891590146
  0.1096822122106218  0.4237926856748402  0.2913019008996187
  0.2283666671753153  0.5288190978880252  0.0390275070877664
  0.7803782434742104  0.4271052361082965  0.7985506021200166
  0.8852079611219139  0.5333295203340853  0.5458943031174783
  0.4485869482515952  0.4210441156882823  0.2906712539161163
  0.5571158694377658  0.5372669713769653  0.0414399067391500
  0.1088385999543036  0.4183663405442601  0.8035075946535812
  0.7823849060191037  0.4211559804661817  0.2950984574447588
  0.8889227264636901  0.5312411457226460  0.0438753606142228
  0.4524700951344371  0.4228572105482868  0.8032402590997023
  0.5664046491969259  0.5325286063131145  0.5533554885731604
  0.1146938666998523  0.7584978240665876  0.2874545463620919
  0.2265640578546453  0.8761781822547761  0.0380838944691746
  0.5493995102544247  0.8723599737537313  0.0388135862144807
  0.7777935638649893  0.7550141755186672  0.2956622117280148
  0.4466103553365386  0.7629124417714195  0.7945175407496592
  0.5539124415229040  0.8761666682475422  0.5505475372499617
  0.4434871627107526  0.0957168230905268  0.8002783125044814
  0.7744078384683917  0.7547956301090082  0.7982960232377607
  0.1164664457199507  0.7603300873334717  0.8065942142242761
  0.2210626477970976  0.8819722878440501  0.5568901474875148
  0.2275206784262096  0.5294599704948340  0.5552566251852440
  0.8825356021655182  0.8796119923115526  0.5462658160901270
  0.4439771374599815  0.7599153905678904  0.3083281072095048
  0.8831496857045309  0.8764743661857537  0.0493846269827287
  0.2204267521776444  0.2053843394548238  0.3518762448921535
  0.1084256328135140  0.0952235635592089  0.1045538238227124
  0.8883206324545512  0.2083676896617845  0.8554966737885508
  0.7690806177395473  0.1160755627794927  0.6061827159816318
  0.5554665172915350  0.2075272875357612  0.3540201071309639
  0.4455427584781404  0.0947670125247697  0.1052011778060589
  0.2099585794457184  0.2097269640244193  0.8609586203450519
  0.1010865970088801  0.1118502143376574  0.6091076425093220
  0.8889956822366756  0.2065452133538201  0.3567237324711527
  0.7684420525089806  0.1157369045928434  0.1085958771244577
  0.5635191166915803  0.2132495882937420  0.8601717464132221
  0.4436720800370182  0.0980632169114060  0.5906101290527559
  0.2235100380193060  0.5365715018781643  0.3450005187729062
  0.1106065042701800  0.4279434999834919  0.1041413684479338
  0.8953086129539400  0.5238524961829114  0.8595277638045715
  0.7795514854763184  0.4275305042228013  0.6069547688828578
  0.5654122394515468  0.5179987018012326  0.3594679676235515
  0.4444968736910937  0.4293424694588239  0.1032248615098865
  0.2317372696629150  0.5185432448405081  0.8495348068719935
  0.1008774049689407  0.4184304419109210  0.6077503707527541
  0.8894058225936519  0.5350085831968698  0.3530551253715331
  0.7757398276836156  0.4276388567266380  0.1062383189426725
  0.5561050884931831  0.5398572795699934  0.8529009963805123
  0.4644543132566099  0.4187263726529835  0.6110148999349434
  0.2037199829457279  0.8811195144944932  0.3466038151201261
  0.1283858166096152  0.7506333299363774  0.0967762437441664
  0.8770497499124659  0.8914175955525394  0.8489165000812449
  0.7740426437076877  0.7515953356942617  0.5906571073621407
  0.5628564712734487  0.8822209509164907  0.3561299775204319
  0.4441962858991459  0.7581495494929911  0.1020895726526376
  0.2301175957674602  0.8815418952363387  0.8524703940122151
  0.1107072698591267  0.7598854388518745  0.6030655942215333
  0.8883383745186748  0.8733543991854589  0.3314555411637912
  0.7682098689144183  0.7498397603807874  0.1069228408017082
  0.5486570865522253  0.8655996809939523  0.8583165179521970
  0.4601136951486922  0.7517446606127152  0.5960406849674769
 
  0.00000000E+00  0.00000000E+00  0.00000000E+00
  0.00000000E+00  0.00000000E+00  0.00000000E+00
  0.00000000E+00  0.00000000E+00  0.00000000E+00
  0.00000000E+00  0.00000000E+00  0.00000000E+00
  0.00000000E+00  0.00000000E+00  0.00000000E+00
  0.00000000E+00  0.00000000E+00  0.00000000E+00
  0.00000000E+00  0.00000000E+00  0.00000000E+00
  0.00000000E+00  0.00000000E+00  0.00000000E+00
  0.00000000E+00  0.00000000E+00  0.00000000E+00
  0.00000000E+00  0.00000000E+00  0.00000000E+00
  0.00000000E+00  0.00000000E+00  0.00000000E+00
  0.00000000E+00  0.00000000E+00  0.00000000E+00
  0.00000000E+00  0.00000000E+00  0.00000000E+00
  0.00000000E+00  0.00000000E+00  0.00000000E+00
  0.00000000E+00  0.00000000E+00  0.00000000E+00
  0.00000000E+00  0.00000000E+00  0.00000000E+00
  0.00000000E+00  0.00000000E+00  0.00000000E+00
  0.00000000E+00  0.00000000E+00  0.00000000E+00
  0.00000000E+00  0.00000000E+00  0.00000000E+00
  0.00000000E+00  0.00000000E+00  0.00000000E+00
  0.00000000E+00  0.00000000E+00  0.00000000E+00
  0.00000000E+00  0.00000000E+00  0.00000000E+00
  0.00000000E+00  0.00000000E+00  0.00000000E+00
  0.00000000E+00  0.00000000E+00  0.00000000E+00
  0.00000000E+00  0.00000000E+00  0.00000000E+00
  0.00000000E+00  0.00000000E+00  0.00000000E+00
  0.00000000E+00  0.00000000E+00  0.00000000E+00
  0.00000000E+00  0.00000000E+00  0.00000000E+00
  0.00000000E+00  0.00000000E+00  0.00000000E+00
  0.00000000E+00  0.00000000E+00  0.00000000E+00
  0.00000000E+00  0.00000000E+00  0.00000000E+00
  0.00000000E+00  0.00000000E+00  0.00000000E+00
  0.00000000E+00  0.00000000E+00  0.00000000E+00
  0.00000000E+00  0.00000000E+00  0.00000000E+00
  0.00000000E+00  0.00000000E+00  0.00000000E+00
  0.00000000E+00  0.00000000E+00  0.00000000E+00
  0.00000000E+00  0.00000000E+00  0.00000000E+00
  0.00000000E+00  0.00000000E+00  0.00000000E+00
  0.00000000E+00  0.00000000E+00  0.00000000E+00
  0.00000000E+00  0.00000000E+00  0.00000000E+00
  0.00000000E+00  0.00000000E+00  0.00000000E+00
  0.00000000E+00  0.00000000E+00  0.00000000E+00
  0.00000000E+00  0.00000000E+00  0.00000000E+00
  0.00000000E+00  0.00000000E+00  0.00000000E+00
  0.00000000E+00  0.00000000E+00  0.00000000E+00
  0.00000000E+00  0.00000000E+00  0.00000000E+00
  0.00000000E+00  0.00000000E+00  0.00000000E+00
  0.00000000E+00  0.00000000E+00  0.00000000E+00
  0.00000000E+00  0.00000000E+00  0.00000000E+00
  0.00000000E+00  0.00000000E+00  0.00000000E+00
  0.00000000E+00  0.00000000E+00  0.00000000E+00
  0.00000000E+00  0.00000000E+00  0.00000000E+00
  0.00000000E+00  0.00000000E+00  0.00000000E+00
  0.00000000E+00  0.00000000E+00  0.00000000E+00
  0.00000000E+00  0.00000000E+00  0.00000000E+00
  0.00000000E+00  0.00000000E+00  0.00000000E+00
  0.00000000E+00  0.00000000E+00  0.00000000E+00
  0.00000000E+00  0.00000000E+00  0.00000000E+00
  0.00000000E+00  0.00000000E+00  0.00000000E+00
  0.00000000E+00  0.00000000E+00  0.00000000E+00
  0.00000000E+00  0.00000000E+00  0.00000000E+00
  0.00000000E+00  0.00000000E+00  0.00000000E+00
  0.00000000E+00  0.00000000E+00  0.00000000E+00
  0.00000000E+00  0.00000000E+00  0.00000000E+00
  0.00000000E+00  0.00000000E+00  0.00000000E+00
  0.00000000E+00  0.00000000E+00  0.00000000E+00
  0.00000000E+00  0.00000000E+00  0.00000000E+00
  0.00000000E+00  0.00000000E+00  0.00000000E+00
  0.00000000E+00  0.00000000E+00  0.00000000E+00
  0.00000000E+00  0.00000000E+00  0.00000000E+00
  0.00000000E+00  0.00000000E+00  0.00000000E+00
  0.00000000E+00  0.00000000E+00  0.00000000E+00
