supercell of 100% icsd_608626.cif, 0% i 
   1.00000000000000     
    -9.6495477999544974    0.0324451871294837    0.0026255431225168
    -4.8528466980294818    8.3946273927759876    0.0040179751029997
     0.0027549412976420   -0.0035336695099809  -10.1154333239041296
   Al   Hf   Mg   N 
    28     4     4    36
Direct
  0.1149922692946888  0.0950109766901903  0.2970899778749754
  0.2206954729015820  0.2063223666551224  0.0474626712514237
  0.8919233170684890  0.2107563078073440  0.5416758789676379
  0.4403948659719248  0.0926668215831228  0.2923648348327461
  0.5472399281707894  0.2114341707624519  0.0484124741208802
  0.1142847146376127  0.1011877083653374  0.7947930010889621
  0.2135316252024282  0.2072259473278280  0.5459719113216863
  0.7758865217647468  0.1031717420322735  0.2939040816165601
  0.8946585466723604  0.2140997894634609  0.0507865827409120
  0.4360047083701346  0.0954080873874190  0.7998947962580729
  0.1126782497209007  0.4265953089055188  0.2949396981821693
  0.2272525536712706  0.5324762685822932  0.0464209848426407
  0.7831691854885960  0.4277135873695102  0.7929472191505909
  0.4398088526041590  0.4316466561957242  0.2894077742441681
  0.5604228427647371  0.5321515896847728  0.0523086906105021
  0.1159444399322354  0.4230543662096977  0.7967874222441793
  0.7804415200433326  0.4303017863624206  0.2962775316957504
  0.8893441218331759  0.5326178233517922  0.0460459007510750
  0.4387589684003714  0.4296803492325196  0.8012111766799919
  0.5585357300667226  0.5380295107277036  0.5416287166319691
  0.2226281049999201  0.8751686396116085  0.0503156185601981
  0.7801761009725539  0.7589637652627204  0.7915955837229873
  0.8883236403559636  0.8714682257364288  0.5311233563411690
  0.4439841281833736  0.7627058500536279  0.2950772536186506
  0.5539751692509540  0.8718272892720620  0.0500750076916461
  0.2159083738436536  0.8790254137597771  0.5385727308769575
  0.7735427908172170  0.7537994441502960  0.2999285380642434
  0.5554721304796715  0.8702869644209983  0.5416780725306154
  0.7846472697428268  0.0938589031716717  0.8020040910783734
  0.5407785358758588  0.2133479439327743  0.5455475736648410
  0.8926459501488750  0.8655644807279828  0.0718404656282559
  0.4450698645025639  0.7580475013195027  0.8024504358279998
  0.8932359390825226  0.5368160145739580  0.5496907130997215
  0.2144510311107055  0.5425704990369553  0.5459308790059083
  0.1234003926707032  0.7533789054148201  0.3110928424738759
  0.1124249241210649  0.7543188252034128  0.7899027176345825
  0.2228531107767253  0.2049151407754763  0.3536645404509926
  0.1124089032082694  0.0955300802583636  0.1074973956373171
  0.9005827722683719  0.2157775853436945  0.8612606741342645
  0.7848633265927845  0.0931732578465940  0.5941727407453712
  0.5545791509016738  0.2063728363736885  0.3401751833540843
  0.4456010744263921  0.0930569448332363  0.1031095660560197
  0.2229529671390296  0.2035100880609875  0.8598746403330964
  0.1079940074782684  0.0959523289531177  0.6047667498250178
  0.8894314628990401  0.2072628148518234  0.3517341957703835
  0.7708029426648366  0.1153899124068900  0.0975891412978172
  0.5430072243993536  0.2080125406434874  0.8530454801773715
  0.4333848778990870  0.0832532261544330  0.6097787412488813
  0.2335574750821081  0.5166009261642230  0.3451516160897086
  0.1106132402820776  0.4257259979123802  0.1010623079701674
  0.8862794430643177  0.5412914558385395  0.8530489957205063
  0.7703268998773396  0.4207269829801206  0.6071199190704988
  0.5555734275671469  0.5386510088127991  0.3497629995151144
  0.4479112318593934  0.4256234145036473  0.1011817170585090
  0.2286199156404933  0.5240676300873943  0.8593340108993388
  0.1225456821754065  0.4088223249570504  0.6147112282082503
  0.8907387211952766  0.5367421465747171  0.3446932711963413
  0.7790557691426656  0.4274400173949644  0.1061820184335716
  0.5667501490962579  0.5188877841330850  0.8629312129675526
  0.4508359127845623  0.4393547610204749  0.6152952018829652
  0.2324866368606564  0.8833518962493159  0.3531907861184393
  0.1335328909905371  0.7495010427524988  0.0988999064937417
  0.8815055023403531  0.8641196887081222  0.8648196338340099
  0.7686134507765487  0.7810640973623393  0.6040046926135219
  0.5536007182121097  0.8731174127049144  0.3518924487406494
  0.4466759273707055  0.7589600916731598  0.0981943025610406
  0.2117777320188736  0.8905009989852744  0.8607814950595412
  0.0990647741473722  0.7814064184705387  0.5846915148498084
  0.8697739801281443  0.8825643628089637  0.3341766743242260
  0.7675393378087563  0.7473265550021821  0.1091034504648505
  0.5622398854175970  0.8789832395524115  0.8598506888767545
  0.4452866947687184  0.7602631585040669  0.5960936530932841
 
  0.00000000E+00  0.00000000E+00  0.00000000E+00
  0.00000000E+00  0.00000000E+00  0.00000000E+00
  0.00000000E+00  0.00000000E+00  0.00000000E+00
  0.00000000E+00  0.00000000E+00  0.00000000E+00
  0.00000000E+00  0.00000000E+00  0.00000000E+00
  0.00000000E+00  0.00000000E+00  0.00000000E+00
  0.00000000E+00  0.00000000E+00  0.00000000E+00
  0.00000000E+00  0.00000000E+00  0.00000000E+00
  0.00000000E+00  0.00000000E+00  0.00000000E+00
  0.00000000E+00  0.00000000E+00  0.00000000E+00
  0.00000000E+00  0.00000000E+00  0.00000000E+00
  0.00000000E+00  0.00000000E+00  0.00000000E+00
  0.00000000E+00  0.00000000E+00  0.00000000E+00
  0.00000000E+00  0.00000000E+00  0.00000000E+00
  0.00000000E+00  0.00000000E+00  0.00000000E+00
  0.00000000E+00  0.00000000E+00  0.00000000E+00
  0.00000000E+00  0.00000000E+00  0.00000000E+00
  0.00000000E+00  0.00000000E+00  0.00000000E+00
  0.00000000E+00  0.00000000E+00  0.00000000E+00
  0.00000000E+00  0.00000000E+00  0.00000000E+00
  0.00000000E+00  0.00000000E+00  0.00000000E+00
  0.00000000E+00  0.00000000E+00  0.00000000E+00
  0.00000000E+00  0.00000000E+00  0.00000000E+00
  0.00000000E+00  0.00000000E+00  0.00000000E+00
  0.00000000E+00  0.00000000E+00  0.00000000E+00
  0.00000000E+00  0.00000000E+00  0.00000000E+00
  0.00000000E+00  0.00000000E+00  0.00000000E+00
  0.00000000E+00  0.00000000E+00  0.00000000E+00
  0.00000000E+00  0.00000000E+00  0.00000000E+00
  0.00000000E+00  0.00000000E+00  0.00000000E+00
  0.00000000E+00  0.00000000E+00  0.00000000E+00
  0.00000000E+00  0.00000000E+00  0.00000000E+00
  0.00000000E+00  0.00000000E+00  0.00000000E+00
  0.00000000E+00  0.00000000E+00  0.00000000E+00
  0.00000000E+00  0.00000000E+00  0.00000000E+00
  0.00000000E+00  0.00000000E+00  0.00000000E+00
  0.00000000E+00  0.00000000E+00  0.00000000E+00
  0.00000000E+00  0.00000000E+00  0.00000000E+00
  0.00000000E+00  0.00000000E+00  0.00000000E+00
  0.00000000E+00  0.00000000E+00  0.00000000E+00
  0.00000000E+00  0.00000000E+00  0.00000000E+00
  0.00000000E+00  0.00000000E+00  0.00000000E+00
  0.00000000E+00  0.00000000E+00  0.00000000E+00
  0.00000000E+00  0.00000000E+00  0.00000000E+00
  0.00000000E+00  0.00000000E+00  0.00000000E+00
  0.00000000E+00  0.00000000E+00  0.00000000E+00
  0.00000000E+00  0.00000000E+00  0.00000000E+00
  0.00000000E+00  0.00000000E+00  0.00000000E+00
  0.00000000E+00  0.00000000E+00  0.00000000E+00
  0.00000000E+00  0.00000000E+00  0.00000000E+00
  0.00000000E+00  0.00000000E+00  0.00000000E+00
  0.00000000E+00  0.00000000E+00  0.00000000E+00
  0.00000000E+00  0.00000000E+00  0.00000000E+00
  0.00000000E+00  0.00000000E+00  0.00000000E+00
  0.00000000E+00  0.00000000E+00  0.00000000E+00
  0.00000000E+00  0.00000000E+00  0.00000000E+00
  0.00000000E+00  0.00000000E+00  0.00000000E+00
  0.00000000E+00  0.00000000E+00  0.00000000E+00
  0.00000000E+00  0.00000000E+00  0.00000000E+00
  0.00000000E+00  0.00000000E+00  0.00000000E+00
  0.00000000E+00  0.00000000E+00  0.00000000E+00
  0.00000000E+00  0.00000000E+00  0.00000000E+00
  0.00000000E+00  0.00000000E+00  0.00000000E+00
  0.00000000E+00  0.00000000E+00  0.00000000E+00
  0.00000000E+00  0.00000000E+00  0.00000000E+00
  0.00000000E+00  0.00000000E+00  0.00000000E+00
  0.00000000E+00  0.00000000E+00  0.00000000E+00
  0.00000000E+00  0.00000000E+00  0.00000000E+00
  0.00000000E+00  0.00000000E+00  0.00000000E+00
  0.00000000E+00  0.00000000E+00  0.00000000E+00
  0.00000000E+00  0.00000000E+00  0.00000000E+00
  0.00000000E+00  0.00000000E+00  0.00000000E+00
