supercell of 100% icsd_608626.cif, 0% i 
   1.00000000000000     
    -9.5881128764887382    0.0031081193070825   -0.0068886083128615
    -4.7967474336715741    8.3071836395473007   -0.0025040046424312
    -0.0073273974024573   -0.0011662347430057  -10.1798578339375787
   Al   Ca   Zr   N 
    32     2     2    36
Direct
  0.1110443611633585  0.0951420008933894  0.2955513476976463
  0.2202863202971272  0.2080271292560596  0.0542213456658445
  0.8881999688912501  0.2049272760330680  0.5372710011259159
  0.4430596384092595  0.0926825974498442  0.2918181244957196
  0.5534825423304852  0.2102166462815731  0.0576519888979092
  0.1059782088732319  0.1068236032754584  0.7983128433290929
  0.2206222621821681  0.2051778054559108  0.5392957901548101
  0.7796421014885482  0.0948113408099758  0.2954645929761028
  0.8870837183422111  0.2096708394000828  0.0518334704881340
  0.5564328512871342  0.2067730702898487  0.5329821232180265
  0.1136877705874753  0.4266648711239895  0.2993446166517586
  0.2289458331432428  0.5305013005734054  0.0529933846989792
  0.7792845683416800  0.4277900950265661  0.7882051516870234
  0.8882650262957483  0.5376383666880855  0.5493681298641135
  0.4437105285208460  0.4309569730587484  0.2943995529682866
  0.5547795049003525  0.5355174677470487  0.0487855579672072
  0.1077692180879595  0.4274377218560304  0.7855407102883447
  0.2251238378910969  0.5364405872160987  0.5397658935609400
  0.7747092514826193  0.4276452266128317  0.2982682113809503
  0.4449099047606211  0.4291838671855430  0.7955626777643303
  0.5543438581801325  0.5381942413371732  0.5451694316401259
  0.1134574697856010  0.7601424034666664  0.2927249180647351
  0.2262087126583410  0.8771028893809429  0.0529465137075604
  0.7790742533948602  0.7529444859377534  0.7856137683026816
  0.8860785530052766  0.8750243872630534  0.5328772279096441
  0.4451234905654928  0.7589268716151807  0.2965945836948620
  0.5588686944191963  0.8672655148224990  0.0549004576214784
  0.2230399133932508  0.8747590042594524  0.5419131858749324
  0.7765926565917312  0.7616900927606736  0.2994141443398419
  0.8822768595307622  0.8738721756779952  0.0572218614441766
  0.4516686075827252  0.7545812237975014  0.7967787718078725
  0.5548467840951048  0.8707439451018288  0.5394976871224983
  0.7788260359257677  0.1002794506707545  0.7975191682143219
  0.8892174754609741  0.5379229114845643  0.0393133495027911
  0.4429926066235410  0.0913169581589415  0.8042639423207447
  0.1136117986237437  0.7603607632629092  0.8057499661361121
  0.2233254807099030  0.2024853438054919  0.3539087770323732
  0.1116871461653730  0.0954340693821720  0.1088073785939869
  0.9016559097460330  0.2261135370142000  0.8673576456512322
  0.7763152326446203  0.0945498218145175  0.5751205374086013
  0.5518862486817682  0.2071592985721296  0.3445540001840612
  0.4433480579731679  0.0908885504417185  0.0993937041264061
  0.2046195167713449  0.2201020117857624  0.8619163640807272
  0.1103508170976752  0.0953662114924541  0.6057902530555452
  0.8923699051395886  0.2047052343975793  0.3513471140689575
  0.7789310197854675  0.0950891360404569  0.1033231095079827
  0.5326146690258753  0.2284265883217245  0.8724380741966726
  0.4446610204066346  0.0951405453779870  0.5938994051697009
  0.2235151243239955  0.5409686904997173  0.3540630497791071
  0.1396896630289817  0.4138335241885400  0.1180127388653460
  0.8897194677623332  0.5372697987341226  0.8141230880212760
  0.7747521409835798  0.4238296352916961  0.5984115747355432
  0.5519287632099008  0.5407938755932093  0.3587185266154549
  0.4433626843756571  0.4316554321192640  0.1083612980149198
  0.2287407534171777  0.5206294617402847  0.8588198625987786
  0.1173955986924184  0.4244635092125080  0.5969238096243430
  0.8890615377284732  0.5379690652765845  0.3562988987932627
  0.7598114973576031  0.4167804689917531  0.1172523939076413
  0.5549910698302511  0.5372971453762432  0.8539181503575648
  0.4443418140465027  0.4260423682455610  0.6045677954785305
  0.2224525552857699  0.8725573102151785  0.3531823544161767
  0.1146340750826340  0.7607011433549005  0.0980966141588766
  0.8843299353545149  0.8475499402433400  0.8703636012491245
  0.7745391932525578  0.7673059943184271  0.5961375303055618
  0.5517611301765015  0.8726831218063538  0.3542535781413250
  0.4454916503366277  0.7585298520027379  0.1076992560958914
  0.2341626335883475  0.8873418087508256  0.8616549924270771
  0.1099243922152127  0.7619860355911285  0.5955110629925287
  0.8933946102601880  0.8697551004163770  0.3472779448500063
  0.7626977235047434  0.7868253412790835  0.1201863076497389
  0.5706049055659435  0.8467896177789314  0.8628696696132891
  0.4436868693597376  0.7618253052956305  0.6063040456468087
 
  0.00000000E+00  0.00000000E+00  0.00000000E+00
  0.00000000E+00  0.00000000E+00  0.00000000E+00
  0.00000000E+00  0.00000000E+00  0.00000000E+00
  0.00000000E+00  0.00000000E+00  0.00000000E+00
  0.00000000E+00  0.00000000E+00  0.00000000E+00
  0.00000000E+00  0.00000000E+00  0.00000000E+00
  0.00000000E+00  0.00000000E+00  0.00000000E+00
  0.00000000E+00  0.00000000E+00  0.00000000E+00
  0.00000000E+00  0.00000000E+00  0.00000000E+00
  0.00000000E+00  0.00000000E+00  0.00000000E+00
  0.00000000E+00  0.00000000E+00  0.00000000E+00
  0.00000000E+00  0.00000000E+00  0.00000000E+00
  0.00000000E+00  0.00000000E+00  0.00000000E+00
  0.00000000E+00  0.00000000E+00  0.00000000E+00
  0.00000000E+00  0.00000000E+00  0.00000000E+00
  0.00000000E+00  0.00000000E+00  0.00000000E+00
  0.00000000E+00  0.00000000E+00  0.00000000E+00
  0.00000000E+00  0.00000000E+00  0.00000000E+00
  0.00000000E+00  0.00000000E+00  0.00000000E+00
  0.00000000E+00  0.00000000E+00  0.00000000E+00
  0.00000000E+00  0.00000000E+00  0.00000000E+00
  0.00000000E+00  0.00000000E+00  0.00000000E+00
  0.00000000E+00  0.00000000E+00  0.00000000E+00
  0.00000000E+00  0.00000000E+00  0.00000000E+00
  0.00000000E+00  0.00000000E+00  0.00000000E+00
  0.00000000E+00  0.00000000E+00  0.00000000E+00
  0.00000000E+00  0.00000000E+00  0.00000000E+00
  0.00000000E+00  0.00000000E+00  0.00000000E+00
  0.00000000E+00  0.00000000E+00  0.00000000E+00
  0.00000000E+00  0.00000000E+00  0.00000000E+00
  0.00000000E+00  0.00000000E+00  0.00000000E+00
  0.00000000E+00  0.00000000E+00  0.00000000E+00
  0.00000000E+00  0.00000000E+00  0.00000000E+00
  0.00000000E+00  0.00000000E+00  0.00000000E+00
  0.00000000E+00  0.00000000E+00  0.00000000E+00
  0.00000000E+00  0.00000000E+00  0.00000000E+00
  0.00000000E+00  0.00000000E+00  0.00000000E+00
  0.00000000E+00  0.00000000E+00  0.00000000E+00
  0.00000000E+00  0.00000000E+00  0.00000000E+00
  0.00000000E+00  0.00000000E+00  0.00000000E+00
  0.00000000E+00  0.00000000E+00  0.00000000E+00
  0.00000000E+00  0.00000000E+00  0.00000000E+00
  0.00000000E+00  0.00000000E+00  0.00000000E+00
  0.00000000E+00  0.00000000E+00  0.00000000E+00
  0.00000000E+00  0.00000000E+00  0.00000000E+00
  0.00000000E+00  0.00000000E+00  0.00000000E+00
  0.00000000E+00  0.00000000E+00  0.00000000E+00
  0.00000000E+00  0.00000000E+00  0.00000000E+00
  0.00000000E+00  0.00000000E+00  0.00000000E+00
  0.00000000E+00  0.00000000E+00  0.00000000E+00
  0.00000000E+00  0.00000000E+00  0.00000000E+00
  0.00000000E+00  0.00000000E+00  0.00000000E+00
  0.00000000E+00  0.00000000E+00  0.00000000E+00
  0.00000000E+00  0.00000000E+00  0.00000000E+00
  0.00000000E+00  0.00000000E+00  0.00000000E+00
  0.00000000E+00  0.00000000E+00  0.00000000E+00
  0.00000000E+00  0.00000000E+00  0.00000000E+00
  0.00000000E+00  0.00000000E+00  0.00000000E+00
  0.00000000E+00  0.00000000E+00  0.00000000E+00
  0.00000000E+00  0.00000000E+00  0.00000000E+00
  0.00000000E+00  0.00000000E+00  0.00000000E+00
  0.00000000E+00  0.00000000E+00  0.00000000E+00
  0.00000000E+00  0.00000000E+00  0.00000000E+00
  0.00000000E+00  0.00000000E+00  0.00000000E+00
  0.00000000E+00  0.00000000E+00  0.00000000E+00
  0.00000000E+00  0.00000000E+00  0.00000000E+00
  0.00000000E+00  0.00000000E+00  0.00000000E+00
  0.00000000E+00  0.00000000E+00  0.00000000E+00
  0.00000000E+00  0.00000000E+00  0.00000000E+00
  0.00000000E+00  0.00000000E+00  0.00000000E+00
  0.00000000E+00  0.00000000E+00  0.00000000E+00
  0.00000000E+00  0.00000000E+00  0.00000000E+00
