supercell of 100% icsd_608626.cif, 0% i 
   1.00000000000000     
    -9.6050548259367527   -0.0187898395373336   -0.0039981071272229
    -4.7862490831802198    8.2908594040155688    0.0001450549703699
    -0.0042628796530370   -0.0026535977915365  -10.1608736521830512
   Al   Zr   Ca   N 
    32     2     2    36
Direct
  0.1106788352169730  0.0935270579714285  0.2984848974688390
  0.2113882578281192  0.2104291073396567  0.0499237291697625
  0.7817557065473153  0.0968001082446435  0.7944876455076582
  0.8920241457071967  0.2054748252977561  0.5474133271505153
  0.4382438865578706  0.1022275681678906  0.2849185710118007
  0.5595674637807733  0.2095457917203944  0.0488144700403623
  0.1037527300806360  0.0941956735952800  0.7934056181062914
  0.2167894764692662  0.2097711088336638  0.5445194958122599
  0.7784982761363892  0.1003536044552646  0.2974968051369800
  0.8907764847995026  0.2031761815252793  0.0453798448932616
  0.5497273794056667  0.2116473816761228  0.5447574555509647
  0.1168926971258273  0.4227003573192860  0.2973690281084274
  0.2202292723597381  0.5399985545130974  0.0456838681703289
  0.7830305401649866  0.4240552068057397  0.7996410128885927
  0.9018832825305623  0.5267206220774980  0.5537693901729668
  0.4426346209387759  0.4302206851372219  0.2898930516745466
  0.5560865196213953  0.5365074472819487  0.0475183182378132
  0.1064384911752114  0.4330633664975707  0.7930665401379215
  0.2214337691966861  0.5377572749163377  0.5493138443612438
  0.7793356891903400  0.4213888660757590  0.2883974123690933
  0.8938873088836345  0.5334322373726863  0.0399847192119722
  0.4425431720500441  0.4327935165949626  0.7964589716186339
  0.1172753831232569  0.7618190713553048  0.2975489689684494
  0.2164389469049368  0.8753236210827495  0.0457239127857179
  0.7883139051877706  0.7529408235824917  0.7936500690207637
  0.8952906362496265  0.8730574613039579  0.5530908476187619
  0.4370926880717221  0.7607180679801360  0.2804808373362064
  0.5562237731685755  0.8675344887437575  0.0472924787029925
  0.1125116566279445  0.7614872058852455  0.7946238675794248
  0.2177547343756743  0.8733820498734772  0.5494311284415261
  0.8923594618869970  0.8748848514297407  0.0399995027430222
  0.4376562166373077  0.7573514441377185  0.8040151545602043
  0.4399921821445290  0.0993492401991176  0.8075872799826485
  0.7849841448825003  0.7575889967400116  0.2979929559613055
  0.5583820006336921  0.5373242128720719  0.5467336302921808
  0.5503594658262472  0.8708511173433919  0.5455426729931503
  0.2238496137144566  0.2038722874902206  0.3521485763275507
  0.1089166892494049  0.0945339483944423  0.1092318043162592
  0.8898560122384112  0.2024091011286018  0.8580143497184025
  0.7743645549251070  0.0975176303927796  0.6043799720379326
  0.5545298407755155  0.2062698107295446  0.3502626349052207
  0.4408441793872768  0.0990252922526054  0.0896605625774569
  0.1959208785754996  0.2178109086820186  0.8618128537337526
  0.1097920512436588  0.0944248571338164  0.6026161842922946
  0.8887533340612350  0.2066857303768757  0.3554807398545989
  0.7790708995435196  0.0933573683227493  0.1074819062604817
  0.5684639458770349  0.2147771369648339  0.8622811408559841
  0.4277291214621357  0.1219507891630087  0.6066594867364046
  0.2217603427350596  0.5397998854330908  0.3550809081349939
  0.1098066619998548  0.4297752640360173  0.1079243747087517
  0.8922121318776988  0.5376010793372004  0.8554098264340624
  0.8111188023400970  0.4099015715820542  0.6177825655073192
  0.5566428659450509  0.5401303862787827  0.3214984470503310
  0.4400879135224187  0.4280732216486669  0.1015546901156910
  0.2196912326693905  0.5401978118262036  0.8568267418246691
  0.1157999148191777  0.4250813111055720  0.6050747900482278
  0.8994973561594861  0.5163873752657366  0.3597824071892859
  0.7827147525884186  0.4252109622695599  0.0990295173470628
  0.5587415860693952  0.5350353708242679  0.8564974625566251
  0.4289128691499684  0.4166163041720665  0.6143528947483361
  0.2248495709519602  0.8717131385486994  0.3547177174533758
  0.1092018287597014  0.7615434079971450  0.1069993118199335
  0.8893908597125204  0.8745797902748222  0.8521061715353397
  0.8095895987959736  0.7437143723354609  0.6057516677968096
  0.5402322822948662  0.8804712474859926  0.3192193388836628
  0.4383810118012121  0.7626770052603149  0.0928695378391851
  0.2134983429874353  0.8773545438883446  0.8606462418184293
  0.1110817642990796  0.7610504787194827  0.6057166315338520
  0.8995486133909978  0.8838869198527846  0.3612996009747107
  0.7833834750260849  0.7587069858120188  0.0907338235887565
  0.5686650145467667  0.8521909327539916  0.8566570725100178
  0.4108668850164179  0.7762665763115493  0.6280267231775554
 
  0.00000000E+00  0.00000000E+00  0.00000000E+00
  0.00000000E+00  0.00000000E+00  0.00000000E+00
  0.00000000E+00  0.00000000E+00  0.00000000E+00
  0.00000000E+00  0.00000000E+00  0.00000000E+00
  0.00000000E+00  0.00000000E+00  0.00000000E+00
  0.00000000E+00  0.00000000E+00  0.00000000E+00
  0.00000000E+00  0.00000000E+00  0.00000000E+00
  0.00000000E+00  0.00000000E+00  0.00000000E+00
  0.00000000E+00  0.00000000E+00  0.00000000E+00
  0.00000000E+00  0.00000000E+00  0.00000000E+00
  0.00000000E+00  0.00000000E+00  0.00000000E+00
  0.00000000E+00  0.00000000E+00  0.00000000E+00
  0.00000000E+00  0.00000000E+00  0.00000000E+00
  0.00000000E+00  0.00000000E+00  0.00000000E+00
  0.00000000E+00  0.00000000E+00  0.00000000E+00
  0.00000000E+00  0.00000000E+00  0.00000000E+00
  0.00000000E+00  0.00000000E+00  0.00000000E+00
  0.00000000E+00  0.00000000E+00  0.00000000E+00
  0.00000000E+00  0.00000000E+00  0.00000000E+00
  0.00000000E+00  0.00000000E+00  0.00000000E+00
  0.00000000E+00  0.00000000E+00  0.00000000E+00
  0.00000000E+00  0.00000000E+00  0.00000000E+00
  0.00000000E+00  0.00000000E+00  0.00000000E+00
  0.00000000E+00  0.00000000E+00  0.00000000E+00
  0.00000000E+00  0.00000000E+00  0.00000000E+00
  0.00000000E+00  0.00000000E+00  0.00000000E+00
  0.00000000E+00  0.00000000E+00  0.00000000E+00
  0.00000000E+00  0.00000000E+00  0.00000000E+00
  0.00000000E+00  0.00000000E+00  0.00000000E+00
  0.00000000E+00  0.00000000E+00  0.00000000E+00
  0.00000000E+00  0.00000000E+00  0.00000000E+00
  0.00000000E+00  0.00000000E+00  0.00000000E+00
  0.00000000E+00  0.00000000E+00  0.00000000E+00
  0.00000000E+00  0.00000000E+00  0.00000000E+00
  0.00000000E+00  0.00000000E+00  0.00000000E+00
  0.00000000E+00  0.00000000E+00  0.00000000E+00
  0.00000000E+00  0.00000000E+00  0.00000000E+00
  0.00000000E+00  0.00000000E+00  0.00000000E+00
  0.00000000E+00  0.00000000E+00  0.00000000E+00
  0.00000000E+00  0.00000000E+00  0.00000000E+00
  0.00000000E+00  0.00000000E+00  0.00000000E+00
  0.00000000E+00  0.00000000E+00  0.00000000E+00
  0.00000000E+00  0.00000000E+00  0.00000000E+00
  0.00000000E+00  0.00000000E+00  0.00000000E+00
  0.00000000E+00  0.00000000E+00  0.00000000E+00
  0.00000000E+00  0.00000000E+00  0.00000000E+00
  0.00000000E+00  0.00000000E+00  0.00000000E+00
  0.00000000E+00  0.00000000E+00  0.00000000E+00
  0.00000000E+00  0.00000000E+00  0.00000000E+00
  0.00000000E+00  0.00000000E+00  0.00000000E+00
  0.00000000E+00  0.00000000E+00  0.00000000E+00
  0.00000000E+00  0.00000000E+00  0.00000000E+00
  0.00000000E+00  0.00000000E+00  0.00000000E+00
  0.00000000E+00  0.00000000E+00  0.00000000E+00
  0.00000000E+00  0.00000000E+00  0.00000000E+00
  0.00000000E+00  0.00000000E+00  0.00000000E+00
  0.00000000E+00  0.00000000E+00  0.00000000E+00
  0.00000000E+00  0.00000000E+00  0.00000000E+00
  0.00000000E+00  0.00000000E+00  0.00000000E+00
  0.00000000E+00  0.00000000E+00  0.00000000E+00
  0.00000000E+00  0.00000000E+00  0.00000000E+00
  0.00000000E+00  0.00000000E+00  0.00000000E+00
  0.00000000E+00  0.00000000E+00  0.00000000E+00
  0.00000000E+00  0.00000000E+00  0.00000000E+00
  0.00000000E+00  0.00000000E+00  0.00000000E+00
  0.00000000E+00  0.00000000E+00  0.00000000E+00
  0.00000000E+00  0.00000000E+00  0.00000000E+00
  0.00000000E+00  0.00000000E+00  0.00000000E+00
  0.00000000E+00  0.00000000E+00  0.00000000E+00
  0.00000000E+00  0.00000000E+00  0.00000000E+00
  0.00000000E+00  0.00000000E+00  0.00000000E+00
  0.00000000E+00  0.00000000E+00  0.00000000E+00
