supercell of 100% icsd_608626.cif, 0% i 
   1.00000000000000     
    -9.5709234577577256   -0.0000012745707050   -0.0000002240694373
    -4.7854606207847654    8.3329463535736714    0.0013196230637645
    -0.0000002318813035   -0.0016904839632446  -10.1390649548112250
   Ca   Al   Zr   N 
     2    32     2    36
Direct
  0.1120208447970157  0.0918579781921665  0.2905518976692107
  0.7794537715571650  0.0918586902973146  0.2905512424841845
  0.2209248455751833  0.2098143994338812  0.0398207966061861
  0.7721097369771357  0.0887919901694474  0.8073195478484791
  0.4383912890226327  0.1065505630848733  0.2928162556085780
  0.5525929677764339  0.2098147412543270  0.0398206108099401
  0.1224316089734785  0.0887915509946353  0.8073188778617464
  0.2228968923138410  0.2131623873359487  0.5453519840470094
  0.8871100772063656  0.2091132405762366  0.0258748936226354
  0.4406037416688662  0.1021252468819611  0.7997378235382797
  0.5472740431007921  0.2131624678781918  0.5453521119151148
  0.1136324046982580  0.4287046574621840  0.2974572894738117
  0.2221296723057051  0.5390735115103524  0.0470414152697245
  0.7706553861834990  0.4420223559771514  0.8001546314416856
  0.8928932520206700  0.5394104355783824  0.5419266535733769
  0.4409959732246378  0.4287048968489557  0.2974573674015275
  0.5544147511995661  0.5383322038033072  0.0483920619535354
  0.1105382607292782  0.4302838945256013  0.7958439283085426
  0.2227365501965437  0.5378602979256328  0.5438060167980083
  0.7744088085464753  0.4345160650480580  0.2950809680279676
  0.8905860796928238  0.5383324883053362  0.0483920094755206
  0.4425106521184929  0.4302840140304269  0.7958438785238684
  0.5510298818923403  0.5394104467502885  0.5419265596942253
  0.1169988245457887  0.7493359288440402  0.2989569077439427
  0.2209056846798845  0.8701807461989617  0.0395993896633797
  0.7838327357731316  0.7561466749146106  0.8014981858880006
  0.8977252066922361  0.8598687582270159  0.5474534955341142
  0.4431308383304469  0.7558186799228110  0.2914191831141508
  0.5544883136256544  0.8743569485571285  0.0458800118548197
  0.1135005892525101  0.7563324911935752  0.7954073493311071
  0.2257401389534337  0.8598683626706034  0.5474534840485816
  0.7843843238457566  0.7558188589173582  0.2914193091640627
  0.8922468581158398  0.8701810325429449  0.0395992922883934
  0.4433545935186842  0.7561465706096655  0.8014983218719038
  0.8877458093499371  0.2078416813479009  0.5738069992533923
  0.5544797322557926  0.8743745510145970  0.5520975036284597
  0.2318497627936793  0.2201639031823888  0.3621894911323338
  0.1087585068842287  0.0958729063115982  0.0641541394251988
  0.8860456424258558  0.2112422669852805  0.8298205845525928
  0.7648359341725737  0.0776596131596321  0.6107599058335893
  0.5313192765728800  0.2201641275238870  0.3621896079830975
  0.4432315110832903  0.0968695998913134  0.1007282647700265
  0.2228611835911565  0.2118558245335507  0.8520685427425079
  0.1408378243607658  0.0776593869367090  0.6107595793056220
  0.8718063700713401  0.2397204191743398  0.3778916030356712
  0.7787010618995538  0.0958734430899213  0.0641532961094740
  0.5486154351968437  0.2118560600740054  0.8520684157665954
  0.4349336904263552  0.1134658228034056  0.6129969670609867
  0.2238977111397773  0.5355376108488983  0.3550173574676023
  0.1113967088167485  0.4280204964944474  0.1054175292107900
  0.8908721993315822  0.5386737047240473  0.8596309180971389
  0.7619548067755844  0.4594238671757154  0.6134045954164620
  0.5554940349147941  0.5401137252925778  0.3516920218981952
  0.4439155495626963  0.4280206666451747  0.1054175892106457
  0.2225311836427721  0.5382705318497543  0.8560825171890016
  0.1085064357750767  0.4303462562106475  0.6060705036136085
  0.8877257912697303  0.5401138934629230  0.3516921300829310
  0.7785831880331955  0.4261669996075170  0.1011268627533326
  0.5537873070529855  0.5386735155411060  0.8596309447511672
  0.4444806074570522  0.4303464332556715  0.6060704591827886
  0.2383896977766327  0.8389505314027872  0.3639916711874065
  0.1111279199354200  0.7610773896398015  0.1051028653199495
  0.8939723277650060  0.8649778430145076  0.8521025225745760
  0.7950741453105579  0.7491668903059647  0.6128774596838511
  0.5546699549042060  0.8739939682205957  0.3423682364560889
  0.4429673197364039  0.7624815239138414  0.1010370900048656
  0.2243837610432777  0.8649776718950477  0.8521025582166999
  0.1137033217436638  0.7559270978778656  0.6085984297504439
  0.9059932899565766  0.8389513040768151  0.3639916037290760
  0.7778846157952160  0.7624816903242930  0.1010372125423373
  0.5549237837105991  0.8734863179780490  0.8489507317241447
  0.4390929983556191  0.7491668877500999  0.6128775368816406
 
  0.00000000E+00  0.00000000E+00  0.00000000E+00
  0.00000000E+00  0.00000000E+00  0.00000000E+00
  0.00000000E+00  0.00000000E+00  0.00000000E+00
  0.00000000E+00  0.00000000E+00  0.00000000E+00
  0.00000000E+00  0.00000000E+00  0.00000000E+00
  0.00000000E+00  0.00000000E+00  0.00000000E+00
  0.00000000E+00  0.00000000E+00  0.00000000E+00
  0.00000000E+00  0.00000000E+00  0.00000000E+00
  0.00000000E+00  0.00000000E+00  0.00000000E+00
  0.00000000E+00  0.00000000E+00  0.00000000E+00
  0.00000000E+00  0.00000000E+00  0.00000000E+00
  0.00000000E+00  0.00000000E+00  0.00000000E+00
  0.00000000E+00  0.00000000E+00  0.00000000E+00
  0.00000000E+00  0.00000000E+00  0.00000000E+00
  0.00000000E+00  0.00000000E+00  0.00000000E+00
  0.00000000E+00  0.00000000E+00  0.00000000E+00
  0.00000000E+00  0.00000000E+00  0.00000000E+00
  0.00000000E+00  0.00000000E+00  0.00000000E+00
  0.00000000E+00  0.00000000E+00  0.00000000E+00
  0.00000000E+00  0.00000000E+00  0.00000000E+00
  0.00000000E+00  0.00000000E+00  0.00000000E+00
  0.00000000E+00  0.00000000E+00  0.00000000E+00
  0.00000000E+00  0.00000000E+00  0.00000000E+00
  0.00000000E+00  0.00000000E+00  0.00000000E+00
  0.00000000E+00  0.00000000E+00  0.00000000E+00
  0.00000000E+00  0.00000000E+00  0.00000000E+00
  0.00000000E+00  0.00000000E+00  0.00000000E+00
  0.00000000E+00  0.00000000E+00  0.00000000E+00
  0.00000000E+00  0.00000000E+00  0.00000000E+00
  0.00000000E+00  0.00000000E+00  0.00000000E+00
  0.00000000E+00  0.00000000E+00  0.00000000E+00
  0.00000000E+00  0.00000000E+00  0.00000000E+00
  0.00000000E+00  0.00000000E+00  0.00000000E+00
  0.00000000E+00  0.00000000E+00  0.00000000E+00
  0.00000000E+00  0.00000000E+00  0.00000000E+00
  0.00000000E+00  0.00000000E+00  0.00000000E+00
  0.00000000E+00  0.00000000E+00  0.00000000E+00
  0.00000000E+00  0.00000000E+00  0.00000000E+00
  0.00000000E+00  0.00000000E+00  0.00000000E+00
  0.00000000E+00  0.00000000E+00  0.00000000E+00
  0.00000000E+00  0.00000000E+00  0.00000000E+00
  0.00000000E+00  0.00000000E+00  0.00000000E+00
  0.00000000E+00  0.00000000E+00  0.00000000E+00
  0.00000000E+00  0.00000000E+00  0.00000000E+00
  0.00000000E+00  0.00000000E+00  0.00000000E+00
  0.00000000E+00  0.00000000E+00  0.00000000E+00
  0.00000000E+00  0.00000000E+00  0.00000000E+00
  0.00000000E+00  0.00000000E+00  0.00000000E+00
  0.00000000E+00  0.00000000E+00  0.00000000E+00
  0.00000000E+00  0.00000000E+00  0.00000000E+00
  0.00000000E+00  0.00000000E+00  0.00000000E+00
  0.00000000E+00  0.00000000E+00  0.00000000E+00
  0.00000000E+00  0.00000000E+00  0.00000000E+00
  0.00000000E+00  0.00000000E+00  0.00000000E+00
  0.00000000E+00  0.00000000E+00  0.00000000E+00
  0.00000000E+00  0.00000000E+00  0.00000000E+00
  0.00000000E+00  0.00000000E+00  0.00000000E+00
  0.00000000E+00  0.00000000E+00  0.00000000E+00
  0.00000000E+00  0.00000000E+00  0.00000000E+00
  0.00000000E+00  0.00000000E+00  0.00000000E+00
  0.00000000E+00  0.00000000E+00  0.00000000E+00
  0.00000000E+00  0.00000000E+00  0.00000000E+00
  0.00000000E+00  0.00000000E+00  0.00000000E+00
  0.00000000E+00  0.00000000E+00  0.00000000E+00
  0.00000000E+00  0.00000000E+00  0.00000000E+00
  0.00000000E+00  0.00000000E+00  0.00000000E+00
  0.00000000E+00  0.00000000E+00  0.00000000E+00
  0.00000000E+00  0.00000000E+00  0.00000000E+00
  0.00000000E+00  0.00000000E+00  0.00000000E+00
  0.00000000E+00  0.00000000E+00  0.00000000E+00
  0.00000000E+00  0.00000000E+00  0.00000000E+00
  0.00000000E+00  0.00000000E+00  0.00000000E+00
