generated by phonopy                    
   1.00000000000000     
    10.0351470768999995   -0.0000022330999784   -0.0000001056124209
    -5.0175765436399997    8.6906901959899994    0.0000001395531216
    -0.0000001735893656    0.0000001431815548   14.9533752540999991
   Pb   P    O    Cu
    20    12    49     1
Direct
  0.9985701315848488  0.7652000088882076  0.1200652455457885
  0.0001587458014285  0.7732090512803467  0.6291896455588031
  0.0037217951272837  0.2627904752678631  0.3764436903739892
  0.9975056651219560  0.2376734576528676  0.8795219221808921
  0.2344963989082842  0.2335657932920299  0.1201325439741083
  0.2266342000646659  0.2271180604175953  0.6292945578827513
  0.7368240091648985  0.7411237082379216  0.3762940951789560
  0.7619524417643575  0.7599789859486421  0.8794465888596719
  0.7661594496227337  0.0010828386692836  0.1201464251381381
  0.7727573043681701  0.9997112645440609  0.6292213120012207
  0.2586903799992726  0.9961132557419816  0.3763649300389957
  0.2397057840991224  0.0022053924281948  0.8795051971854164
  0.6663687695910099  0.3334230953738313  0.9998113608865111
  0.6664233240207409  0.3333838170075580  0.5038962994940093
  0.3331641015390332  0.6665600671573131  0.9993347641511079
  0.3332593652141753  0.6664603356079510  0.5069513576988243
  0.3330742127270199  0.6669156718113243  0.2433934771476913
  0.3331325740130495  0.6669546732358214  0.7499889399671176
  0.6664046733213453  0.3331385786120649  0.2496580797781931
  0.6664922625052725  0.3331906967849676  0.7516363796505132
  0.6259213881696652  0.5954376667974799  0.1274854679623587
  0.6263383864216081  0.5955170722861496  0.6227667815957076
  0.3678071437723816  0.3961378615675883  0.3739696992244816
  0.3657133021122974  0.3986065039760192  0.8773933551965030
  0.4042896732253354  0.0306740814576187  0.1274362716619137
  0.4043292158145562  0.0310169153330762  0.6226740650975984
  0.6036221629231591  0.9718787234912227  0.3740516519454218
  0.6011082080806673  0.9672219369287802  0.8775103372506194
  0.9690663978380130  0.3739129650688611  0.1275269307802773
  0.9688041615214260  0.3734291371850773  0.6228047448470519
  0.0279193461628964  0.6320346993234054  0.3739376234615364
  0.0325405915067947  0.6340094520313215  0.8773724263310427
  0.5100998975968096  0.6557783618585162  0.1262406483006231
  0.5036490954879156  0.6473348425958960  0.6224129128161309
  0.4705248837290554  0.3207063509635404  0.3744744129787918
  0.4760591941836267  0.3322224619213046  0.8801987357276317
  0.3440446115884512  0.8546401691804348  0.1262104243038635
  0.3524004416429278  0.8564857865758810  0.6222905484621393
  0.6791201378542695  0.1499656027230216  0.3745401830638713
  0.6676229212913896  0.1439732280231709  0.8802400882656229
  0.1452024594822490  0.4897128011736029  0.1263195887207331
  0.1433254193478177  0.4960631143264251  0.6224493914178240
  0.8497350012820135  0.5294897371789844  0.3743118731544399
  0.8558105944500838  0.5238282189702943  0.8800309999931528
  0.7342501176269352  0.6532716555597773  0.0432685489215388
  0.7230265855444173  0.6415944046160860  0.5339902168016053
  0.2609389054794846  0.3514072049806956  0.4581165516130525
  0.2639604781679310  0.3577971155488768  0.9644094693901977
  0.3462611212621383  0.0811370939214626  0.0433039217245081
  0.3581549692436852  0.0816945344627840  0.5339556678103321
  0.6486314500449666  0.9098707571943052  0.4580996867687830
  0.6420698585699824  0.9063172807261495  0.9643585863827084
  0.9186612332962198  0.2653976939898683  0.0434064303504655
  0.9182278871528027  0.2765197530516375  0.5341468892217804
  0.0896337600223163  0.7391629667910280  0.4580003198657394
  0.0933236450989270  0.7359669991639350  0.9642851059525128
  0.2598183138560159  0.3501770966139546  0.2903151228319132
  0.2506615251405719  0.3302422037773169  0.7968326519414717
  0.7328163558285823  0.6535755349088248  0.2118924329272787
  0.7422728769378466  0.6722493098890752  0.7021280740839444
  0.6494304548261383  0.9098732732754016  0.2903342331959280
  0.6689006629290404  0.9202802960310521  0.7967931447180163
  0.3463701231825169  0.0795262889996664  0.2119185840394877
  0.3278033446593156  0.0703217678431542  0.7020914834406540
  0.0902018205962705  0.7396253602104537  0.2901326647096028
  0.0797184915907678  0.7489085935662843  0.7966809367404437
  0.9200158731517050  0.2671390794801525  0.2120296762841036
  0.9294165561292118  0.2576413736608885  0.7022303016241906
  0.5388730575893845  0.4144139720913174  0.1267881047884103
  0.5460513160792573  0.4154861044075631  0.6320882577651119
  0.4737082039919400  0.5779480150933054  0.3731119197777915
  0.4584681444583083  0.5792651140474092  0.8696023477395087
  0.5853200507323635  0.1247778128079560  0.1266314848956043
  0.5843351114933739  0.1306363285626446  0.6319161412663732
  0.4218534714150763  0.8959692362978444  0.3732565330227118
  0.4203782694385652  0.8794870565522430  0.8699123188170290
  0.8751098230654719  0.4610224860146772  0.1266542186714048
  0.8691334970634230  0.4537645002449651  0.6319621781403910
  0.1039346826197871  0.5261686341093395  0.3734661419761167
  0.1203565219937914  0.5411171223585924  0.8698236073641255
  0.9998415775560829  0.0000476945559029  0.6199729258175068
  0.9997264928760003  0.9999512928894276  0.9989197552054563
 
  0.00000000E+00  0.00000000E+00  0.00000000E+00
  0.00000000E+00  0.00000000E+00  0.00000000E+00
  0.00000000E+00  0.00000000E+00  0.00000000E+00
  0.00000000E+00  0.00000000E+00  0.00000000E+00
  0.00000000E+00  0.00000000E+00  0.00000000E+00
  0.00000000E+00  0.00000000E+00  0.00000000E+00
  0.00000000E+00  0.00000000E+00  0.00000000E+00
  0.00000000E+00  0.00000000E+00  0.00000000E+00
  0.00000000E+00  0.00000000E+00  0.00000000E+00
  0.00000000E+00  0.00000000E+00  0.00000000E+00
  0.00000000E+00  0.00000000E+00  0.00000000E+00
  0.00000000E+00  0.00000000E+00  0.00000000E+00
  0.00000000E+00  0.00000000E+00  0.00000000E+00
  0.00000000E+00  0.00000000E+00  0.00000000E+00
  0.00000000E+00  0.00000000E+00  0.00000000E+00
  0.00000000E+00  0.00000000E+00  0.00000000E+00
  0.00000000E+00  0.00000000E+00  0.00000000E+00
  0.00000000E+00  0.00000000E+00  0.00000000E+00
  0.00000000E+00  0.00000000E+00  0.00000000E+00
  0.00000000E+00  0.00000000E+00  0.00000000E+00
  0.00000000E+00  0.00000000E+00  0.00000000E+00
  0.00000000E+00  0.00000000E+00  0.00000000E+00
  0.00000000E+00  0.00000000E+00  0.00000000E+00
  0.00000000E+00  0.00000000E+00  0.00000000E+00
  0.00000000E+00  0.00000000E+00  0.00000000E+00
  0.00000000E+00  0.00000000E+00  0.00000000E+00
  0.00000000E+00  0.00000000E+00  0.00000000E+00
  0.00000000E+00  0.00000000E+00  0.00000000E+00
  0.00000000E+00  0.00000000E+00  0.00000000E+00
  0.00000000E+00  0.00000000E+00  0.00000000E+00
  0.00000000E+00  0.00000000E+00  0.00000000E+00
  0.00000000E+00  0.00000000E+00  0.00000000E+00
  0.00000000E+00  0.00000000E+00  0.00000000E+00
  0.00000000E+00  0.00000000E+00  0.00000000E+00
  0.00000000E+00  0.00000000E+00  0.00000000E+00
  0.00000000E+00  0.00000000E+00  0.00000000E+00
  0.00000000E+00  0.00000000E+00  0.00000000E+00
  0.00000000E+00  0.00000000E+00  0.00000000E+00
  0.00000000E+00  0.00000000E+00  0.00000000E+00
  0.00000000E+00  0.00000000E+00  0.00000000E+00
  0.00000000E+00  0.00000000E+00  0.00000000E+00
  0.00000000E+00  0.00000000E+00  0.00000000E+00
  0.00000000E+00  0.00000000E+00  0.00000000E+00
  0.00000000E+00  0.00000000E+00  0.00000000E+00
  0.00000000E+00  0.00000000E+00  0.00000000E+00
  0.00000000E+00  0.00000000E+00  0.00000000E+00
  0.00000000E+00  0.00000000E+00  0.00000000E+00
  0.00000000E+00  0.00000000E+00  0.00000000E+00
  0.00000000E+00  0.00000000E+00  0.00000000E+00
  0.00000000E+00  0.00000000E+00  0.00000000E+00
  0.00000000E+00  0.00000000E+00  0.00000000E+00
  0.00000000E+00  0.00000000E+00  0.00000000E+00
  0.00000000E+00  0.00000000E+00  0.00000000E+00
  0.00000000E+00  0.00000000E+00  0.00000000E+00
  0.00000000E+00  0.00000000E+00  0.00000000E+00
  0.00000000E+00  0.00000000E+00  0.00000000E+00
  0.00000000E+00  0.00000000E+00  0.00000000E+00
  0.00000000E+00  0.00000000E+00  0.00000000E+00
  0.00000000E+00  0.00000000E+00  0.00000000E+00
  0.00000000E+00  0.00000000E+00  0.00000000E+00
  0.00000000E+00  0.00000000E+00  0.00000000E+00
  0.00000000E+00  0.00000000E+00  0.00000000E+00
  0.00000000E+00  0.00000000E+00  0.00000000E+00
  0.00000000E+00  0.00000000E+00  0.00000000E+00
  0.00000000E+00  0.00000000E+00  0.00000000E+00
  0.00000000E+00  0.00000000E+00  0.00000000E+00
  0.00000000E+00  0.00000000E+00  0.00000000E+00
  0.00000000E+00  0.00000000E+00  0.00000000E+00
  0.00000000E+00  0.00000000E+00  0.00000000E+00
  0.00000000E+00  0.00000000E+00  0.00000000E+00
  0.00000000E+00  0.00000000E+00  0.00000000E+00
  0.00000000E+00  0.00000000E+00  0.00000000E+00
  0.00000000E+00  0.00000000E+00  0.00000000E+00
  0.00000000E+00  0.00000000E+00  0.00000000E+00
  0.00000000E+00  0.00000000E+00  0.00000000E+00
  0.00000000E+00  0.00000000E+00  0.00000000E+00
  0.00000000E+00  0.00000000E+00  0.00000000E+00
  0.00000000E+00  0.00000000E+00  0.00000000E+00
  0.00000000E+00  0.00000000E+00  0.00000000E+00
  0.00000000E+00  0.00000000E+00  0.00000000E+00
  0.00000000E+00  0.00000000E+00  0.00000000E+00
  0.00000000E+00  0.00000000E+00  0.00000000E+00
