supercell of 100% icsd_608626.cif, 0% i 
   1.00000000000000     
    -9.4854827077077157   -0.0154396772036914    0.0024426656397639
    -4.7293675888557365    8.1919936945435374    0.0055620058959386
     0.0025957962047616   -0.0053516131106708  -10.0695431242093445
   Al   Ca   Si   N 
    32     2     2    36
Direct
  0.1133485620701862  0.0927656949988958  0.2960772242146419
  0.2272855531148323  0.2017554579574892  0.0477793133332014
  0.8890786216113966  0.2036665143843877  0.5390525551722476
  0.4430655801604146  0.0936105000635479  0.2947716318597813
  0.5467584185155019  0.2081552645928539  0.0510593779469417
  0.1104049608181938  0.0961085353782209  0.7953540578865201
  0.2214316526766638  0.2042981204171213  0.5459837612281149
  0.7784545498955353  0.0941430909891707  0.2929324899560086
  0.8893625518921979  0.2085157190506592  0.0505860129833025
  0.5573200898645467  0.2064232305344404  0.5408150646090135
  0.1164031329432760  0.4248583244045960  0.2974782210967177
  0.2256464392767299  0.5373117965604450  0.0477843428134008
  0.7814503102428816  0.4288839970285849  0.7879486419770387
  0.8892685064531918  0.5389338427325185  0.5468829268650524
  0.4433248053578822  0.4300350661967016  0.2941221697573368
  0.5552803764455021  0.5354080447918292  0.0475829946755155
  0.1105518284626328  0.4286378923507428  0.7884282463945809
  0.2250228936879708  0.5367235754794208  0.5455270634747293
  0.7746608712677698  0.4266555177864646  0.2992755145129422
  0.4402104769521245  0.4309588247634153  0.7948339430585278
  0.5547309378545364  0.5388801949732169  0.5450843265962746
  0.1129932781428238  0.7595133092150519  0.2957319640070537
  0.2213299852103319  0.8705130261185516  0.0480287026141326
  0.7826894316069470  0.7598966776563145  0.7867160103937749
  0.8873077441734836  0.8756980480783128  0.5401344983098113
  0.4444072370659313  0.7611223702297636  0.2957880946865501
  0.5533921481590696  0.8778770353561356  0.0487550967332595
  0.2231782384438787  0.8722290077182322  0.5472744693035310
  0.7750864487302067  0.7650795079268704  0.2976383548323938
  0.8913777715772540  0.8688897338244743  0.0504326981940366
  0.4444292122124054  0.7593291333586265  0.7959253864323514
  0.5544890942668559  0.8724316852918790  0.5466394813054549
  0.7763158598330477  0.0984176878055507  0.8069820597579849
  0.8884534016775518  0.5365985234163304  0.0451370318616853
  0.4380386690045057  0.0997423518798399  0.7955067036988623
  0.1121703095582944  0.7552647208086114  0.7964673450215329
  0.2246463265699390  0.2019908034874192  0.3585426819653179
  0.1150684717696535  0.0911951589129387  0.1054321961997928
  0.9076281384313631  0.2259911395331500  0.8660159837551973
  0.7769675666800282  0.0952817994184372  0.5836511001438609
  0.5528792493900383  0.2064328149261669  0.3501073353093531
  0.4421389212024351  0.0927430045363522  0.1074034741497556
  0.2325598102816713  0.1970327241157790  0.8497843964530105
  0.1107431182872531  0.0933534365419533  0.6054210948542220
  0.8931470639496268  0.2024007688070668  0.3509070709376303
  0.7766546918210935  0.0942953525532602  0.0950511075677838
  0.5126329405602448  0.2192100774545267  0.8614887175062051
  0.4439070317440610  0.0957920457524679  0.6155798382994107
  0.2234098466761125  0.5407111777969078  0.3580908046209359
  0.1434594315093989  0.4108075092207244  0.1120787517753001
  0.8889534842371134  0.5417502705716402  0.8212429876016429
  0.7764472820304249  0.4253466480379657  0.5972162776732475
  0.5515162893853045  0.5417480675516657  0.3573016577723180
  0.4423094211741159  0.4305928525875515  0.1042348967838223
  0.2190365612382763  0.5485548227962767  0.8503863792338251
  0.1158357210769125  0.4251896890846183  0.5998796146206118
  0.8901275835710578  0.5387706969292196  0.3523622725387625
  0.7590510895447480  0.4145340174059129  0.1181953917205618
  0.5577815518352836  0.5371787105625785  0.8534633109537353
  0.4450527307511791  0.4269109738202204  0.6052773628823473
  0.2229330255305015  0.8704986090560425  0.3572476235530644
  0.1137766962936055  0.7589140118842010  0.1070099392265220
  0.9174246481523838  0.8349259820953492  0.8605859191603216
  0.7757346269020786  0.7668464840147919  0.5979448513196104
  0.5518994837794935  0.8742620763720197  0.3586779418063912
  0.4440965165369022  0.7618312031139709  0.1016383692939442
  0.2153864580051277  0.8641673447380782  0.8517431619950671
  0.1110839067252058  0.7603391076341381  0.6160891288917298
  0.8935035386960095  0.8704283893663955  0.3521262995246630
  0.7604404124527946  0.7916621554679111  0.1140088951160507
  0.5490338306363824  0.8874703742886467  0.8499910606266781
  0.4440125833456179  0.7615076754444345  0.6073043266029003
 
  0.00000000E+00  0.00000000E+00  0.00000000E+00
  0.00000000E+00  0.00000000E+00  0.00000000E+00
  0.00000000E+00  0.00000000E+00  0.00000000E+00
  0.00000000E+00  0.00000000E+00  0.00000000E+00
  0.00000000E+00  0.00000000E+00  0.00000000E+00
  0.00000000E+00  0.00000000E+00  0.00000000E+00
  0.00000000E+00  0.00000000E+00  0.00000000E+00
  0.00000000E+00  0.00000000E+00  0.00000000E+00
  0.00000000E+00  0.00000000E+00  0.00000000E+00
  0.00000000E+00  0.00000000E+00  0.00000000E+00
  0.00000000E+00  0.00000000E+00  0.00000000E+00
  0.00000000E+00  0.00000000E+00  0.00000000E+00
  0.00000000E+00  0.00000000E+00  0.00000000E+00
  0.00000000E+00  0.00000000E+00  0.00000000E+00
  0.00000000E+00  0.00000000E+00  0.00000000E+00
  0.00000000E+00  0.00000000E+00  0.00000000E+00
  0.00000000E+00  0.00000000E+00  0.00000000E+00
  0.00000000E+00  0.00000000E+00  0.00000000E+00
  0.00000000E+00  0.00000000E+00  0.00000000E+00
  0.00000000E+00  0.00000000E+00  0.00000000E+00
  0.00000000E+00  0.00000000E+00  0.00000000E+00
  0.00000000E+00  0.00000000E+00  0.00000000E+00
  0.00000000E+00  0.00000000E+00  0.00000000E+00
  0.00000000E+00  0.00000000E+00  0.00000000E+00
  0.00000000E+00  0.00000000E+00  0.00000000E+00
  0.00000000E+00  0.00000000E+00  0.00000000E+00
  0.00000000E+00  0.00000000E+00  0.00000000E+00
  0.00000000E+00  0.00000000E+00  0.00000000E+00
  0.00000000E+00  0.00000000E+00  0.00000000E+00
  0.00000000E+00  0.00000000E+00  0.00000000E+00
  0.00000000E+00  0.00000000E+00  0.00000000E+00
  0.00000000E+00  0.00000000E+00  0.00000000E+00
  0.00000000E+00  0.00000000E+00  0.00000000E+00
  0.00000000E+00  0.00000000E+00  0.00000000E+00
  0.00000000E+00  0.00000000E+00  0.00000000E+00
  0.00000000E+00  0.00000000E+00  0.00000000E+00
  0.00000000E+00  0.00000000E+00  0.00000000E+00
  0.00000000E+00  0.00000000E+00  0.00000000E+00
  0.00000000E+00  0.00000000E+00  0.00000000E+00
  0.00000000E+00  0.00000000E+00  0.00000000E+00
  0.00000000E+00  0.00000000E+00  0.00000000E+00
  0.00000000E+00  0.00000000E+00  0.00000000E+00
  0.00000000E+00  0.00000000E+00  0.00000000E+00
  0.00000000E+00  0.00000000E+00  0.00000000E+00
  0.00000000E+00  0.00000000E+00  0.00000000E+00
  0.00000000E+00  0.00000000E+00  0.00000000E+00
  0.00000000E+00  0.00000000E+00  0.00000000E+00
  0.00000000E+00  0.00000000E+00  0.00000000E+00
  0.00000000E+00  0.00000000E+00  0.00000000E+00
  0.00000000E+00  0.00000000E+00  0.00000000E+00
  0.00000000E+00  0.00000000E+00  0.00000000E+00
  0.00000000E+00  0.00000000E+00  0.00000000E+00
  0.00000000E+00  0.00000000E+00  0.00000000E+00
  0.00000000E+00  0.00000000E+00  0.00000000E+00
  0.00000000E+00  0.00000000E+00  0.00000000E+00
  0.00000000E+00  0.00000000E+00  0.00000000E+00
  0.00000000E+00  0.00000000E+00  0.00000000E+00
  0.00000000E+00  0.00000000E+00  0.00000000E+00
  0.00000000E+00  0.00000000E+00  0.00000000E+00
  0.00000000E+00  0.00000000E+00  0.00000000E+00
  0.00000000E+00  0.00000000E+00  0.00000000E+00
  0.00000000E+00  0.00000000E+00  0.00000000E+00
  0.00000000E+00  0.00000000E+00  0.00000000E+00
  0.00000000E+00  0.00000000E+00  0.00000000E+00
  0.00000000E+00  0.00000000E+00  0.00000000E+00
  0.00000000E+00  0.00000000E+00  0.00000000E+00
  0.00000000E+00  0.00000000E+00  0.00000000E+00
  0.00000000E+00  0.00000000E+00  0.00000000E+00
  0.00000000E+00  0.00000000E+00  0.00000000E+00
  0.00000000E+00  0.00000000E+00  0.00000000E+00
  0.00000000E+00  0.00000000E+00  0.00000000E+00
  0.00000000E+00  0.00000000E+00  0.00000000E+00
