supercell of 100% icsd_608626.cif, 0% i 
   1.00000000000000     
    -9.4603671683159103   -0.0147066806577727    0.0071077666900442
    -4.7174574816927555    8.1726481787338408   -0.0106962882460212
     0.0075629545598743    0.0175645445615690  -10.1296370628706693
   Al   Si   Ca   N 
    32     2     2    36
Direct
  0.1116340702133698  0.0938352346946232  0.2969754826015674
  0.2219272045473204  0.2055203208233252  0.0464008134864216
  0.7782390832795016  0.0927642833516558  0.7945167480460427
  0.8917498182637900  0.2049039614975499  0.5473230234512698
  0.4449824995417941  0.0959706825901989  0.2887924040231837
  0.5552421922439805  0.2048075296863630  0.0445380985184585
  0.1110159285383006  0.0916062955086900  0.7930311608264873
  0.2187477079060614  0.2084259616511730  0.5510232088506584
  0.7741168553500444  0.0961311396653457  0.2966572105875471
  0.8904674869124136  0.2034992230567241  0.0448896195714497
  0.5487053050305093  0.2105005745297248  0.5515185023594995
  0.1139338629810709  0.4271405798759034  0.2966564003537613
  0.2207245014846251  0.5394755651110685  0.0445407339498516
  0.7828551972431015  0.4256619300279212  0.7974658128153678
  0.8966797362172372  0.5364311261648780  0.5502228196264127
  0.4433123718090215  0.4265442760511817  0.2892428448125131
  0.5570434713069048  0.5361303612677588  0.0470318024250105
  0.1112224264375570  0.4302453878445718  0.7921301157044240
  0.2213053793177266  0.5385228837128935  0.5475873891401193
  0.7772625013793260  0.4271859779007698  0.2874787185155654
  0.8942015445668403  0.5341192892737325  0.0454282919690385
  0.4396697960839404  0.4297226182749156  0.7964457315647024
  0.1131473948253046  0.7584191242745106  0.2962078412377949
  0.2178576599660502  0.8745637798510941  0.0451016220537923
  0.7835627093294733  0.7595836265917484  0.7973827160638294
  0.8903812746494637  0.8688973100337876  0.5477772980616749
  0.4441088524323789  0.7589534344077506  0.2795754861767250
  0.5544942815841480  0.8759510687223582  0.0489388369455170
  0.1098663113762655  0.7626838603968267  0.7933193965836978
  0.2186630404518368  0.8740887840556155  0.5479937652840761
  0.8922771134493459  0.8735169613901377  0.0458245867697826
  0.4364077321412481  0.7648577402362164  0.8027251468349306
  0.4416738216340974  0.0991839613094854  0.7973827072619670
  0.7785710023505032  0.7596621286249245  0.2866057100718322
  0.5569855047021619  0.5394849356798872  0.5442174944601845
  0.5551213434029592  0.8754387759332829  0.5433648627811394
  0.2258327964669888  0.2025470459142440  0.3579026682125672
  0.1110965402855868  0.0954952110537022  0.1068650654538885
  0.8898203971584095  0.2022732043453956  0.8566350135613732
  0.7757096817272355  0.0940444115476851  0.6035180339578829
  0.5535218842464360  0.2043054268408611  0.3577453110509765
  0.4421565663461777  0.0983648961532069  0.1022393975552163
  0.2316633845809477  0.2006029279063384  0.8548793241174479
  0.1096370802959825  0.0944118748263705  0.6042056558975801
  0.8885001900729392  0.2054074512341373  0.3547699939727451
  0.7763505930715198  0.0948271697947050  0.1065304341930187
  0.5513895031122047  0.1986353702789927  0.8552922673993564
  0.4279253910215886  0.1212429729237527  0.6276554021822349
  0.2234587905775953  0.5379824616117617  0.3550382566211852
  0.1131204873384704  0.4257224092621996  0.1071678906387490
  0.8920484058904421  0.5383759614950705  0.8600788099169705
  0.8115395385288409  0.4121169720438687  0.6147717292238823
  0.5554375067452568  0.5383920347538620  0.3206086290948775
  0.4423314828297222  0.4246294227895646  0.0992567767458112
  0.2183819899075985  0.5418303904310022  0.8565674691842915
  0.1131183014136994  0.4273007666646365  0.6033664034314796
  0.8825248650731368  0.5515940996180291  0.3493946293432728
  0.7831271351236850  0.4246272917256064  0.0999812124663819
  0.5584442167077555  0.5356134256668028  0.8558455555470630
  0.4286313085425490  0.4182512874384585  0.6151810742765775
  0.2247085669327831  0.8708049469868655  0.3531726021781338
  0.1112161864468604  0.7604955654394914  0.1077864368389996
  0.8892524470445764  0.8738035056141698  0.8585480961013445
  0.8073735685647989  0.7452955689202341  0.6162091816409117
  0.5685564069551035  0.8644884250472771  0.3182390463577249
  0.4414737213297357  0.7638253337420906  0.0917431363331502
  0.2138784610383837  0.8759142368298072  0.8603038131607761
  0.1082958296288510  0.7631460114178452  0.6021029693606508
  0.8810313141770507  0.8650718187820914  0.3502018762259098
  0.7842153843894621  0.7578559392657453  0.1085110220669492
  0.5519370513611150  0.8872033422028522  0.8549934093342273
  0.4141360421168372  0.7790701253627290  0.6263770025699955
 
  0.00000000E+00  0.00000000E+00  0.00000000E+00
  0.00000000E+00  0.00000000E+00  0.00000000E+00
  0.00000000E+00  0.00000000E+00  0.00000000E+00
  0.00000000E+00  0.00000000E+00  0.00000000E+00
  0.00000000E+00  0.00000000E+00  0.00000000E+00
  0.00000000E+00  0.00000000E+00  0.00000000E+00
  0.00000000E+00  0.00000000E+00  0.00000000E+00
  0.00000000E+00  0.00000000E+00  0.00000000E+00
  0.00000000E+00  0.00000000E+00  0.00000000E+00
  0.00000000E+00  0.00000000E+00  0.00000000E+00
  0.00000000E+00  0.00000000E+00  0.00000000E+00
  0.00000000E+00  0.00000000E+00  0.00000000E+00
  0.00000000E+00  0.00000000E+00  0.00000000E+00
  0.00000000E+00  0.00000000E+00  0.00000000E+00
  0.00000000E+00  0.00000000E+00  0.00000000E+00
  0.00000000E+00  0.00000000E+00  0.00000000E+00
  0.00000000E+00  0.00000000E+00  0.00000000E+00
  0.00000000E+00  0.00000000E+00  0.00000000E+00
  0.00000000E+00  0.00000000E+00  0.00000000E+00
  0.00000000E+00  0.00000000E+00  0.00000000E+00
  0.00000000E+00  0.00000000E+00  0.00000000E+00
  0.00000000E+00  0.00000000E+00  0.00000000E+00
  0.00000000E+00  0.00000000E+00  0.00000000E+00
  0.00000000E+00  0.00000000E+00  0.00000000E+00
  0.00000000E+00  0.00000000E+00  0.00000000E+00
  0.00000000E+00  0.00000000E+00  0.00000000E+00
  0.00000000E+00  0.00000000E+00  0.00000000E+00
  0.00000000E+00  0.00000000E+00  0.00000000E+00
  0.00000000E+00  0.00000000E+00  0.00000000E+00
  0.00000000E+00  0.00000000E+00  0.00000000E+00
  0.00000000E+00  0.00000000E+00  0.00000000E+00
  0.00000000E+00  0.00000000E+00  0.00000000E+00
  0.00000000E+00  0.00000000E+00  0.00000000E+00
  0.00000000E+00  0.00000000E+00  0.00000000E+00
  0.00000000E+00  0.00000000E+00  0.00000000E+00
  0.00000000E+00  0.00000000E+00  0.00000000E+00
  0.00000000E+00  0.00000000E+00  0.00000000E+00
  0.00000000E+00  0.00000000E+00  0.00000000E+00
  0.00000000E+00  0.00000000E+00  0.00000000E+00
  0.00000000E+00  0.00000000E+00  0.00000000E+00
  0.00000000E+00  0.00000000E+00  0.00000000E+00
  0.00000000E+00  0.00000000E+00  0.00000000E+00
  0.00000000E+00  0.00000000E+00  0.00000000E+00
  0.00000000E+00  0.00000000E+00  0.00000000E+00
  0.00000000E+00  0.00000000E+00  0.00000000E+00
  0.00000000E+00  0.00000000E+00  0.00000000E+00
  0.00000000E+00  0.00000000E+00  0.00000000E+00
  0.00000000E+00  0.00000000E+00  0.00000000E+00
  0.00000000E+00  0.00000000E+00  0.00000000E+00
  0.00000000E+00  0.00000000E+00  0.00000000E+00
  0.00000000E+00  0.00000000E+00  0.00000000E+00
  0.00000000E+00  0.00000000E+00  0.00000000E+00
  0.00000000E+00  0.00000000E+00  0.00000000E+00
  0.00000000E+00  0.00000000E+00  0.00000000E+00
  0.00000000E+00  0.00000000E+00  0.00000000E+00
  0.00000000E+00  0.00000000E+00  0.00000000E+00
  0.00000000E+00  0.00000000E+00  0.00000000E+00
  0.00000000E+00  0.00000000E+00  0.00000000E+00
  0.00000000E+00  0.00000000E+00  0.00000000E+00
  0.00000000E+00  0.00000000E+00  0.00000000E+00
  0.00000000E+00  0.00000000E+00  0.00000000E+00
  0.00000000E+00  0.00000000E+00  0.00000000E+00
  0.00000000E+00  0.00000000E+00  0.00000000E+00
  0.00000000E+00  0.00000000E+00  0.00000000E+00
  0.00000000E+00  0.00000000E+00  0.00000000E+00
  0.00000000E+00  0.00000000E+00  0.00000000E+00
  0.00000000E+00  0.00000000E+00  0.00000000E+00
  0.00000000E+00  0.00000000E+00  0.00000000E+00
  0.00000000E+00  0.00000000E+00  0.00000000E+00
  0.00000000E+00  0.00000000E+00  0.00000000E+00
  0.00000000E+00  0.00000000E+00  0.00000000E+00
  0.00000000E+00  0.00000000E+00  0.00000000E+00
