supercell of 100% icsd_608626.cif, 0% i 
   1.00000000000000     
    -9.4403856423130392   -0.0000006032237315    0.0000002561184446
    -4.7201923004532080    8.1975988304907368   -0.0076204286989094
     0.0000002716632389    0.0093933905801054  -10.1231419198014567
   Ca   Al   Si   N 
     2    32     2    36
Direct
  0.1098936680817673  0.0929731127766900  0.2908958370126982
  0.7804660289787435  0.0929731869997283  0.2908957188977581
  0.2234093221176394  0.2064108743847086  0.0382238673528192
  0.7773549550624352  0.0950232203308516  0.8018032627149339
  0.4398439558816989  0.1036450896011303  0.2999121320779778
  0.5535131697545026  0.2064110410190096  0.0382238429899715
  0.1109551989471598  0.0950233313475692  0.8018030979050224
  0.2194799191843373  0.2094844605804695  0.5460287240720518
  0.8881755095902690  0.2069826232514203  0.0303061699687461
  0.4457759560093848  0.0917816854449782  0.7946228275262328
  0.5543692152466804  0.2094842098456198  0.5460287712690004
  0.1131743138288499  0.4279221111384288  0.2969889927186458
  0.2223997322430549  0.5385337065487477  0.0471690433315004
  0.7759216782277392  0.4314898345419067  0.7974667046039343
  0.8892329724933603  0.5374007952158095  0.5425059872140494
  0.4422366053898728  0.4279219769786948  0.2969890271251359
  0.5560231763279262  0.5382936342472959  0.0481747992035793
  0.1104369305458945  0.4305993399089658  0.7955897609838871
  0.2219787283870858  0.5393759171404966  0.5416492207288783
  0.7756698710442933  0.4319933534104905  0.2992512577793605
  0.8890164046647726  0.5382937297748214  0.0481747828662478
  0.4422968822047437  0.4305994090363328  0.7955897511586798
  0.5566992915510838  0.5374007554939411  0.5425058755022860
  0.1160731882709527  0.7511871742176268  0.2979829971249330
  0.2232797209486819  0.8700290577221921  0.0380697702074784
  0.7748916483076371  0.7608771524747056  0.7970806931956957
  0.8930454590074604  0.8692092629707275  0.5475549517010023
  0.4440144498208980  0.7567879747015169  0.2982356960781729
  0.5549321137446981  0.8734694975294417  0.0482186144160366
  0.1131784584657041  0.7569764414751674  0.7946652615951351
  0.2210789985581627  0.8692093668423979  0.5475550161988423
  0.7825309097424338  0.7567880855696174  0.2982358328993016
  0.8900247507150070  0.8700291798561395  0.0380698279893537
  0.4475645752620991  0.7608771807020105  0.7970808039341790
  0.8853415388951262  0.2126501343245906  0.5519493096702490
  0.5554404839877165  0.8724524341067550  0.5441362250949595
  0.2310637858768487  0.2193287409062350  0.3653099618166209
  0.1111607541055264  0.0941110807863623  0.0678315145978985
  0.8859526685314236  0.2114281071286399  0.8438913555023362
  0.7836872873841756  0.0997876976250893  0.6049401658369362
  0.5329404657179708  0.2193286944441581  0.3653100742274447
  0.4442070580121396  0.0949194119618468  0.1066305412974913
  0.2251536992172873  0.2078639539635887  0.8470997858377984
  0.0998583382566380  0.0997878913134969  0.6049400503106881
  0.8729996181164879  0.2373335564278776  0.3871833298263709
  0.7780615787952314  0.0941112792980832  0.0678313733690743
  0.5503158385672151  0.2078640524369320  0.8470998141747899
  0.4523566784178854  0.0786200697383634  0.6039241019767942
  0.2238952430630690  0.5355425620357508  0.3535353990641994
  0.1114639297729667  0.4262814588453026  0.1045198845500153
  0.8878521411522158  0.5404810921704737  0.8564510188820265
  0.7795831122545565  0.4241667831104721  0.6094393080790752
  0.5562034256274373  0.5388590110381202  0.3546219936822510
  0.4455877483143382  0.4262815097703196  0.1045199396928638
  0.2224663007343892  0.5384005575175053  0.8572674007232024
  0.1083351056924897  0.4319146808621142  0.6067288132084414
  0.8882705541627942  0.5388591401660179  0.3546221044519626
  0.7797951354774924  0.4237430307204946  0.1065984956675905
  0.5550000112614555  0.5404810646672900  0.8564510533295362
  0.4430835249568617  0.4319144648317490  0.6067288309400141
  0.2370722824444371  0.8406518826970668  0.3666770579258980
  0.1106977009508512  0.7619381145879203  0.1037907490266861
  0.8902773265374080  0.8671843199830960  0.8473639454271620
  0.7628422731440878  0.7666878477863932  0.6039364671103300
  0.5551945647969916  0.8729441865978842  0.3659025787340511
  0.4443349415717108  0.7618842289009251  0.1070399519865575
  0.2258716666364364  0.8671844221891831  0.8473638929031040
  0.1129504568565807  0.7574328545620475  0.6087950989197353
  0.9056093959467191  0.8406519053399748  0.3666769976529665
  0.7771144409037944  0.7618842929493610  0.1070400554330604
  0.5552178357833455  0.8728978794328626  0.8583659012224629
  0.4538033294688191  0.7666878316960677  0.6039365375037349
 
  0.00000000E+00  0.00000000E+00  0.00000000E+00
  0.00000000E+00  0.00000000E+00  0.00000000E+00
  0.00000000E+00  0.00000000E+00  0.00000000E+00
  0.00000000E+00  0.00000000E+00  0.00000000E+00
  0.00000000E+00  0.00000000E+00  0.00000000E+00
  0.00000000E+00  0.00000000E+00  0.00000000E+00
  0.00000000E+00  0.00000000E+00  0.00000000E+00
  0.00000000E+00  0.00000000E+00  0.00000000E+00
  0.00000000E+00  0.00000000E+00  0.00000000E+00
  0.00000000E+00  0.00000000E+00  0.00000000E+00
  0.00000000E+00  0.00000000E+00  0.00000000E+00
  0.00000000E+00  0.00000000E+00  0.00000000E+00
  0.00000000E+00  0.00000000E+00  0.00000000E+00
  0.00000000E+00  0.00000000E+00  0.00000000E+00
  0.00000000E+00  0.00000000E+00  0.00000000E+00
  0.00000000E+00  0.00000000E+00  0.00000000E+00
  0.00000000E+00  0.00000000E+00  0.00000000E+00
  0.00000000E+00  0.00000000E+00  0.00000000E+00
  0.00000000E+00  0.00000000E+00  0.00000000E+00
  0.00000000E+00  0.00000000E+00  0.00000000E+00
  0.00000000E+00  0.00000000E+00  0.00000000E+00
  0.00000000E+00  0.00000000E+00  0.00000000E+00
  0.00000000E+00  0.00000000E+00  0.00000000E+00
  0.00000000E+00  0.00000000E+00  0.00000000E+00
  0.00000000E+00  0.00000000E+00  0.00000000E+00
  0.00000000E+00  0.00000000E+00  0.00000000E+00
  0.00000000E+00  0.00000000E+00  0.00000000E+00
  0.00000000E+00  0.00000000E+00  0.00000000E+00
  0.00000000E+00  0.00000000E+00  0.00000000E+00
  0.00000000E+00  0.00000000E+00  0.00000000E+00
  0.00000000E+00  0.00000000E+00  0.00000000E+00
  0.00000000E+00  0.00000000E+00  0.00000000E+00
  0.00000000E+00  0.00000000E+00  0.00000000E+00
  0.00000000E+00  0.00000000E+00  0.00000000E+00
  0.00000000E+00  0.00000000E+00  0.00000000E+00
  0.00000000E+00  0.00000000E+00  0.00000000E+00
  0.00000000E+00  0.00000000E+00  0.00000000E+00
  0.00000000E+00  0.00000000E+00  0.00000000E+00
  0.00000000E+00  0.00000000E+00  0.00000000E+00
  0.00000000E+00  0.00000000E+00  0.00000000E+00
  0.00000000E+00  0.00000000E+00  0.00000000E+00
  0.00000000E+00  0.00000000E+00  0.00000000E+00
  0.00000000E+00  0.00000000E+00  0.00000000E+00
  0.00000000E+00  0.00000000E+00  0.00000000E+00
  0.00000000E+00  0.00000000E+00  0.00000000E+00
  0.00000000E+00  0.00000000E+00  0.00000000E+00
  0.00000000E+00  0.00000000E+00  0.00000000E+00
  0.00000000E+00  0.00000000E+00  0.00000000E+00
  0.00000000E+00  0.00000000E+00  0.00000000E+00
  0.00000000E+00  0.00000000E+00  0.00000000E+00
  0.00000000E+00  0.00000000E+00  0.00000000E+00
  0.00000000E+00  0.00000000E+00  0.00000000E+00
  0.00000000E+00  0.00000000E+00  0.00000000E+00
  0.00000000E+00  0.00000000E+00  0.00000000E+00
  0.00000000E+00  0.00000000E+00  0.00000000E+00
  0.00000000E+00  0.00000000E+00  0.00000000E+00
  0.00000000E+00  0.00000000E+00  0.00000000E+00
  0.00000000E+00  0.00000000E+00  0.00000000E+00
  0.00000000E+00  0.00000000E+00  0.00000000E+00
  0.00000000E+00  0.00000000E+00  0.00000000E+00
  0.00000000E+00  0.00000000E+00  0.00000000E+00
  0.00000000E+00  0.00000000E+00  0.00000000E+00
  0.00000000E+00  0.00000000E+00  0.00000000E+00
  0.00000000E+00  0.00000000E+00  0.00000000E+00
  0.00000000E+00  0.00000000E+00  0.00000000E+00
  0.00000000E+00  0.00000000E+00  0.00000000E+00
  0.00000000E+00  0.00000000E+00  0.00000000E+00
  0.00000000E+00  0.00000000E+00  0.00000000E+00
  0.00000000E+00  0.00000000E+00  0.00000000E+00
  0.00000000E+00  0.00000000E+00  0.00000000E+00
  0.00000000E+00  0.00000000E+00  0.00000000E+00
  0.00000000E+00  0.00000000E+00  0.00000000E+00
