supercell of 100% icsd_608626.cif, 0% i 
   1.00000000000000     
    -9.4640226344535758    0.0053872958424900   -0.0016408816275841
    -4.7366768488915021    8.1933931493960319   -0.0016410728875507
    -0.0017463951612608    0.0010085153718714  -10.1085849705620667
   Al   Si   Ca   N 
    32     2     2    36
Direct
  0.1121791269709647  0.0992176637740911  0.2944601236938453
  0.2189485182599427  0.2058540719236674  0.0470154573464612
  0.8922196542217193  0.2088867156487169  0.5495288832266851
  0.4390975026784218  0.0988738997846497  0.2958248568099791
  0.5590180809457834  0.2045661432645005  0.0394265230143915
  0.1148541273819745  0.0914261113669497  0.7946468011817629
  0.2230663079086312  0.2035619067964944  0.5437590981161549
  0.8890799778628491  0.2057468563645202  0.0394123401305606
  0.4433945674355328  0.0916896807760708  0.7951639703608180
  0.5506522922227575  0.2064742616273278  0.5500997022016563
  0.1081233329840359  0.4247883945432136  0.2992952044809414
  0.7747576433402372  0.4315228289917030  0.7946469624542019
  0.8868963269386470  0.5397324306315525  0.5437592629766002
  0.4447593115942183  0.4246772515545771  0.2999546881950224
  0.5613163318782028  0.5326031772278412  0.0497186960295863
  0.1109243734117271  0.4275914138741328  0.7885677031813856
  0.2223372508126147  0.5390048577910420  0.5442810298936536
  0.7825517257390260  0.4288453582538949  0.2944600485454814
  0.8891881698643971  0.5356144454365150  0.0470151494583106
  0.4439379506772809  0.4315742209747810  0.7876329325570453
  0.5558960626169736  0.5419383190243465  0.5455578134740193
  0.1080111810354865  0.7614258023044727  0.2999545807796054
  0.2159366388064186  0.8779833180615526  0.0497184309893655
  0.7750220771517604  0.7600622053131048  0.7951636809683791
  0.8898066681918380  0.8673202772075683  0.5500993790066318
  0.5565923103254775  0.8732576790317310  0.0486090894175533
  0.1149055618910069  0.7606063061604544  0.7876328682149207
  0.2252719648033761  0.8725623497303943  0.5455579377511341
  0.7822089768127398  0.7557626217318827  0.2958249633091512
  0.8879007159002299  0.8756835193275734  0.0394266224325364
  0.4440901784680946  0.7607586508556494  0.7975341184570723
  0.5544691596585025  0.8711351688456048  0.5465885897956255
  0.7779169589198176  0.0945849487214261  0.7963533219078798
  0.4444357591788233  0.7611016548850813  0.2954092478310244
  0.7780328225449935  0.0946996455495892  0.2877500757095390
  0.2229919898318755  0.5396578949172408  0.0513765470300953
  0.2241533228487071  0.2017868740278743  0.3565051612963330
  0.1095814550946059  0.0961210781528195  0.1033149171775776
  0.8848916485231868  0.2015602248392980  0.8446828808357054
  0.7781578420673014  0.0948256441337207  0.6158154564558629
  0.5286024932163258  0.2153544886837437  0.3691392957616983
  0.4449423435242750  0.0956961757212156  0.1032273000077311
  0.2215800083209842  0.2064664340847457  0.8548008924036452
  0.1146342166157126  0.0917098616312941  0.6070440674187694
  0.9033940556133189  0.2200603985372780  0.3662475775365834
  0.7781163823252584  0.0947817187615883  0.0668606371825717
  0.5635152640101353  0.2019176340440083  0.8434592781367698
  0.4438146303441854  0.0907115801772278  0.6076784024392126
  0.2222046386605356  0.5388711590492008  0.3510410645103406
  0.0955904153603129  0.4122563344848729  0.1159244930037318
  0.8897991094533708  0.5382475973223535  0.8548006249675240
  0.7750433343050602  0.4313012290917797  0.6070441886950562
  0.5503646901818655  0.5536563596022717  0.3531318820618665
  0.4796982473163354  0.4072411690858431  0.1171778069992726
  0.2219718328240035  0.5386402735720779  0.8279913589464840
  0.1094785498790856  0.4261441835599911  0.5986936996088588
  0.8851219194539226  0.5408185462040791  0.3565053405780390
  0.7794543424374396  0.4262482290534564  0.1033148028534043
  0.5542364055643390  0.5396631487094012  0.8581052862528225
  0.4474842606006249  0.4301702578571280  0.6002439531160348
  0.2369904566998144  0.8670306888731858  0.3531319863190276
  0.0905759255345515  0.7963639952906618  0.1171776339518971
  0.8852494997758882  0.8801831722412174  0.8434591933081208
  0.7740454785821882  0.7604811010165022  0.6076781350007252
  0.5490001701923504  0.8656653340887956  0.3508377545234538
  0.4440288066106888  0.7606950459149573  0.1163394364383379
  0.2229945481366045  0.8709049756348932  0.8581049937557452
  0.1135025753930705  0.7641518746095244  0.6002438539346215
  0.8986881618467208  0.8452692372485302  0.3691389967341365
  0.7790309425221693  0.7616076793689786  0.1032274132212763
  0.5545658126880895  0.8712333441861801  0.8588654774219506
  0.4447046142106501  0.7613708988653940  0.6078180562156419
 
  0.00000000E+00  0.00000000E+00  0.00000000E+00
  0.00000000E+00  0.00000000E+00  0.00000000E+00
  0.00000000E+00  0.00000000E+00  0.00000000E+00
  0.00000000E+00  0.00000000E+00  0.00000000E+00
  0.00000000E+00  0.00000000E+00  0.00000000E+00
  0.00000000E+00  0.00000000E+00  0.00000000E+00
  0.00000000E+00  0.00000000E+00  0.00000000E+00
  0.00000000E+00  0.00000000E+00  0.00000000E+00
  0.00000000E+00  0.00000000E+00  0.00000000E+00
  0.00000000E+00  0.00000000E+00  0.00000000E+00
  0.00000000E+00  0.00000000E+00  0.00000000E+00
  0.00000000E+00  0.00000000E+00  0.00000000E+00
  0.00000000E+00  0.00000000E+00  0.00000000E+00
  0.00000000E+00  0.00000000E+00  0.00000000E+00
  0.00000000E+00  0.00000000E+00  0.00000000E+00
  0.00000000E+00  0.00000000E+00  0.00000000E+00
  0.00000000E+00  0.00000000E+00  0.00000000E+00
  0.00000000E+00  0.00000000E+00  0.00000000E+00
  0.00000000E+00  0.00000000E+00  0.00000000E+00
  0.00000000E+00  0.00000000E+00  0.00000000E+00
  0.00000000E+00  0.00000000E+00  0.00000000E+00
  0.00000000E+00  0.00000000E+00  0.00000000E+00
  0.00000000E+00  0.00000000E+00  0.00000000E+00
  0.00000000E+00  0.00000000E+00  0.00000000E+00
  0.00000000E+00  0.00000000E+00  0.00000000E+00
  0.00000000E+00  0.00000000E+00  0.00000000E+00
  0.00000000E+00  0.00000000E+00  0.00000000E+00
  0.00000000E+00  0.00000000E+00  0.00000000E+00
  0.00000000E+00  0.00000000E+00  0.00000000E+00
  0.00000000E+00  0.00000000E+00  0.00000000E+00
  0.00000000E+00  0.00000000E+00  0.00000000E+00
  0.00000000E+00  0.00000000E+00  0.00000000E+00
  0.00000000E+00  0.00000000E+00  0.00000000E+00
  0.00000000E+00  0.00000000E+00  0.00000000E+00
  0.00000000E+00  0.00000000E+00  0.00000000E+00
  0.00000000E+00  0.00000000E+00  0.00000000E+00
  0.00000000E+00  0.00000000E+00  0.00000000E+00
  0.00000000E+00  0.00000000E+00  0.00000000E+00
  0.00000000E+00  0.00000000E+00  0.00000000E+00
  0.00000000E+00  0.00000000E+00  0.00000000E+00
  0.00000000E+00  0.00000000E+00  0.00000000E+00
  0.00000000E+00  0.00000000E+00  0.00000000E+00
  0.00000000E+00  0.00000000E+00  0.00000000E+00
  0.00000000E+00  0.00000000E+00  0.00000000E+00
  0.00000000E+00  0.00000000E+00  0.00000000E+00
  0.00000000E+00  0.00000000E+00  0.00000000E+00
  0.00000000E+00  0.00000000E+00  0.00000000E+00
  0.00000000E+00  0.00000000E+00  0.00000000E+00
  0.00000000E+00  0.00000000E+00  0.00000000E+00
  0.00000000E+00  0.00000000E+00  0.00000000E+00
  0.00000000E+00  0.00000000E+00  0.00000000E+00
  0.00000000E+00  0.00000000E+00  0.00000000E+00
  0.00000000E+00  0.00000000E+00  0.00000000E+00
  0.00000000E+00  0.00000000E+00  0.00000000E+00
  0.00000000E+00  0.00000000E+00  0.00000000E+00
  0.00000000E+00  0.00000000E+00  0.00000000E+00
  0.00000000E+00  0.00000000E+00  0.00000000E+00
  0.00000000E+00  0.00000000E+00  0.00000000E+00
  0.00000000E+00  0.00000000E+00  0.00000000E+00
  0.00000000E+00  0.00000000E+00  0.00000000E+00
  0.00000000E+00  0.00000000E+00  0.00000000E+00
  0.00000000E+00  0.00000000E+00  0.00000000E+00
  0.00000000E+00  0.00000000E+00  0.00000000E+00
  0.00000000E+00  0.00000000E+00  0.00000000E+00
  0.00000000E+00  0.00000000E+00  0.00000000E+00
  0.00000000E+00  0.00000000E+00  0.00000000E+00
  0.00000000E+00  0.00000000E+00  0.00000000E+00
  0.00000000E+00  0.00000000E+00  0.00000000E+00
  0.00000000E+00  0.00000000E+00  0.00000000E+00
  0.00000000E+00  0.00000000E+00  0.00000000E+00
  0.00000000E+00  0.00000000E+00  0.00000000E+00
  0.00000000E+00  0.00000000E+00  0.00000000E+00
