generated by phonopy                    
   1.00000000000000     
    10.0351470768999995   -0.0000022330999784   -0.0000001056124209
    -5.0175765436399997    8.6906901959899994    0.0000001395531216
    -0.0000001735893656    0.0000001431815548   14.9533752540999991
   Pb   P    O 
    20    11    51
Direct
  0.0032107210130263  0.7713473034838287  0.1341267141097049
  0.0030858253554626  0.7707996337871137  0.6139552944036453
  0.9949010835907046  0.2608635203918439  0.3741413087243473
  0.0007380286278789  0.2545138482310279  0.8739122901900345
  0.2251547033170880  0.2267842121036594  0.1256475854478012
  0.2256159681151928  0.2266970591673214  0.6219817776595704
  0.7431953849724167  0.7517877083567299  0.3738915449873588
  0.7336993428876326  0.7395908805126368  0.8740112518175565
  0.7733572192601343  0.0035936678258608  0.1268007774169320
  0.7738885548522063  0.0031661699041550  0.6210089222317947
  0.2907536673607893  0.0367541659676363  0.3737909172449818
  0.2540144615175990  0.9962753677293037  0.8738847444731306
  0.6656282168571863  0.3352658588662507  0.0031465804824435
  0.6626020579497123  0.3307689330712122  0.4920318191531621
  0.3286379202035832  0.6701116846249491  0.0091507407785230
  0.3492792056471785  0.6412554066359917  0.4879739678131969
  0.3485213775624700  0.6410377424203730  0.2595047113501892
  0.3288987536575547  0.6696340909622975  0.7383740602413127
  0.6642455655914787  0.3321068324755458  0.2561755537079904
  0.6661207932472806  0.3351505714784651  0.7454241678963456
  0.6251682856496288  0.5956771426499827  0.1206750539112207
  0.6254033660342344  0.5957204388368140  0.6276168131378910
  0.3653954000955935  0.3914537963761617  0.8738733824045823
  0.3997112757982890  0.0290150883080997  0.1179731845408796
  0.4002222146353205  0.0290767346859653  0.6304221420367142
  0.6270223310198588  0.9900114331642840  0.3739706887852208
  0.6032260553494879  0.9733627224067760  0.8739063918738950
  0.9725600013629148  0.3740848458030612  0.1161884676270475
  0.9728485055336691  0.3735371432890560  0.6316141773487303
  0.0166864335213930  0.6335134687532005  0.3742664219622753
  0.0283255224145051  0.6294603144351498  0.8740552985469279
  0.2996397957414061  0.3274887161526223  0.3736295892135288
  0.5048931723374679  0.6513134862084797  0.1243330072593807
  0.5049187728018012  0.6511344964665184  0.6236778954946374
  0.5036113749135964  0.2649758327777647  0.3737133595658122
  0.4661766036686004  0.3139783548530630  0.8740990198192833
  0.3408282150978508  0.8537932059358226  0.1173921582016675
  0.3402710895760634  0.8536528557691128  0.6304031414951581
  0.7087722465545880  0.1696653101744587  0.3743529751037187
  0.6862545984045525  0.1518845236676754  0.8739756261966178
  0.1497066295295184  0.4853772172893400  0.1174941358440051
  0.1499445480704651  0.4851565219378884  0.6299486494440103
  0.8374543471686522  0.5219670394402698  0.3746230364245307
  0.8497689014857528  0.5358709159168171  0.8744424071531043
  0.7258958160487836  0.6533751966323322  0.0343258081781741
  0.7346863161027599  0.6587194667525296  0.5445093242532195
  0.2359053278317162  0.3609600399718644  0.4570275480908137
  0.2579649363656316  0.3454238958922318  0.9575930425163364
  0.3417679595436880  0.0804249228228144  0.0341052025079307
  0.3397657396803453  0.0757739099105592  0.5459621115946902
  0.6800910976596697  0.9365349221131538  0.4582809279974285
  0.6445761716108152  0.9080441344471950  0.9577495303092789
  0.9234531045515268  0.2592095922299507  0.0349632415677519
  0.9210334414581283  0.2714952479677564  0.5451927939083205
  0.0690154826538745  0.7357005833853094  0.4589053307730779
  0.0957423495031335  0.7357366526785327  0.9580049642965989
  0.2351664163792648  0.3607265853769519  0.2905675486964157
  0.2574923098121999  0.3442699734822838  0.7903313830778274
  0.7353500726233548  0.6600515497487720  0.2033773895733972
  0.7270290252506797  0.6551789426705525  0.7135584450630077
  0.6825127161902671  0.9379405697550567  0.2901026775042297
  0.6455929244549097  0.9082206223114326  0.7903973204162966
  0.3359886957435805  0.0735317661766146  0.2018286429442284
  0.3402612613413964  0.0796986587659987  0.7137341508158457
  0.0678132739282447  0.7354633016817615  0.2895188113909555
  0.0944505329023073  0.7368258690265819  0.7904749703024834
  0.9212191926279161  0.2717108517360884  0.2024779821379212
  0.9247123707356764  0.2582438804780409  0.7125978092974492
  0.5406993979605943  0.4157766190906855  0.1217540704532354
  0.5409088411322855  0.4158442827970390  0.6275821971419049
  0.4955915836743969  0.6324978764181921  0.3735403207753976
  0.4726763537424290  0.5723158297487885  0.8734286336065011
  0.5795190291298482  0.1238952424982429  0.1188442596921178
  0.5800416086898750  0.1230727995085132  0.6312576940977692
  0.4484490543165904  0.9179338374183601  0.3731876034911963
  0.4229191857673129  0.9050849851379610  0.8735176913994422
  0.8852469027082890  0.4654759296064341  0.1081160631711811
  0.8853145124523039  0.4645867481506514  0.6403629678947240
  0.0953267928303063  0.5297831947715537  0.3739766277331427
  0.0949384782311498  0.5158212492807550  0.8732326065957352
  0.9999637579144292  0.0010566190810692  0.1290571895709220
  0.0007091076866530  0.0008753045722329  0.6171515584912797
 
  0.00000000E+00  0.00000000E+00  0.00000000E+00
  0.00000000E+00  0.00000000E+00  0.00000000E+00
  0.00000000E+00  0.00000000E+00  0.00000000E+00
  0.00000000E+00  0.00000000E+00  0.00000000E+00
  0.00000000E+00  0.00000000E+00  0.00000000E+00
  0.00000000E+00  0.00000000E+00  0.00000000E+00
  0.00000000E+00  0.00000000E+00  0.00000000E+00
  0.00000000E+00  0.00000000E+00  0.00000000E+00
  0.00000000E+00  0.00000000E+00  0.00000000E+00
  0.00000000E+00  0.00000000E+00  0.00000000E+00
  0.00000000E+00  0.00000000E+00  0.00000000E+00
  0.00000000E+00  0.00000000E+00  0.00000000E+00
  0.00000000E+00  0.00000000E+00  0.00000000E+00
  0.00000000E+00  0.00000000E+00  0.00000000E+00
  0.00000000E+00  0.00000000E+00  0.00000000E+00
  0.00000000E+00  0.00000000E+00  0.00000000E+00
  0.00000000E+00  0.00000000E+00  0.00000000E+00
  0.00000000E+00  0.00000000E+00  0.00000000E+00
  0.00000000E+00  0.00000000E+00  0.00000000E+00
  0.00000000E+00  0.00000000E+00  0.00000000E+00
  0.00000000E+00  0.00000000E+00  0.00000000E+00
  0.00000000E+00  0.00000000E+00  0.00000000E+00
  0.00000000E+00  0.00000000E+00  0.00000000E+00
  0.00000000E+00  0.00000000E+00  0.00000000E+00
  0.00000000E+00  0.00000000E+00  0.00000000E+00
  0.00000000E+00  0.00000000E+00  0.00000000E+00
  0.00000000E+00  0.00000000E+00  0.00000000E+00
  0.00000000E+00  0.00000000E+00  0.00000000E+00
  0.00000000E+00  0.00000000E+00  0.00000000E+00
  0.00000000E+00  0.00000000E+00  0.00000000E+00
  0.00000000E+00  0.00000000E+00  0.00000000E+00
  0.00000000E+00  0.00000000E+00  0.00000000E+00
  0.00000000E+00  0.00000000E+00  0.00000000E+00
  0.00000000E+00  0.00000000E+00  0.00000000E+00
  0.00000000E+00  0.00000000E+00  0.00000000E+00
  0.00000000E+00  0.00000000E+00  0.00000000E+00
  0.00000000E+00  0.00000000E+00  0.00000000E+00
  0.00000000E+00  0.00000000E+00  0.00000000E+00
  0.00000000E+00  0.00000000E+00  0.00000000E+00
  0.00000000E+00  0.00000000E+00  0.00000000E+00
  0.00000000E+00  0.00000000E+00  0.00000000E+00
  0.00000000E+00  0.00000000E+00  0.00000000E+00
  0.00000000E+00  0.00000000E+00  0.00000000E+00
  0.00000000E+00  0.00000000E+00  0.00000000E+00
  0.00000000E+00  0.00000000E+00  0.00000000E+00
  0.00000000E+00  0.00000000E+00  0.00000000E+00
  0.00000000E+00  0.00000000E+00  0.00000000E+00
  0.00000000E+00  0.00000000E+00  0.00000000E+00
  0.00000000E+00  0.00000000E+00  0.00000000E+00
  0.00000000E+00  0.00000000E+00  0.00000000E+00
  0.00000000E+00  0.00000000E+00  0.00000000E+00
  0.00000000E+00  0.00000000E+00  0.00000000E+00
  0.00000000E+00  0.00000000E+00  0.00000000E+00
  0.00000000E+00  0.00000000E+00  0.00000000E+00
  0.00000000E+00  0.00000000E+00  0.00000000E+00
  0.00000000E+00  0.00000000E+00  0.00000000E+00
  0.00000000E+00  0.00000000E+00  0.00000000E+00
  0.00000000E+00  0.00000000E+00  0.00000000E+00
  0.00000000E+00  0.00000000E+00  0.00000000E+00
  0.00000000E+00  0.00000000E+00  0.00000000E+00
  0.00000000E+00  0.00000000E+00  0.00000000E+00
  0.00000000E+00  0.00000000E+00  0.00000000E+00
  0.00000000E+00  0.00000000E+00  0.00000000E+00
  0.00000000E+00  0.00000000E+00  0.00000000E+00
  0.00000000E+00  0.00000000E+00  0.00000000E+00
  0.00000000E+00  0.00000000E+00  0.00000000E+00
  0.00000000E+00  0.00000000E+00  0.00000000E+00
  0.00000000E+00  0.00000000E+00  0.00000000E+00
  0.00000000E+00  0.00000000E+00  0.00000000E+00
  0.00000000E+00  0.00000000E+00  0.00000000E+00
  0.00000000E+00  0.00000000E+00  0.00000000E+00
  0.00000000E+00  0.00000000E+00  0.00000000E+00
  0.00000000E+00  0.00000000E+00  0.00000000E+00
  0.00000000E+00  0.00000000E+00  0.00000000E+00
  0.00000000E+00  0.00000000E+00  0.00000000E+00
  0.00000000E+00  0.00000000E+00  0.00000000E+00
  0.00000000E+00  0.00000000E+00  0.00000000E+00
  0.00000000E+00  0.00000000E+00  0.00000000E+00
  0.00000000E+00  0.00000000E+00  0.00000000E+00
  0.00000000E+00  0.00000000E+00  0.00000000E+00
  0.00000000E+00  0.00000000E+00  0.00000000E+00
  0.00000000E+00  0.00000000E+00  0.00000000E+00
