generated by phonopy                    
   1.00000000000000     
    11.7777700938999992   -0.0000006592896312    0.0000118211769744
    -0.0000006477562692   11.7777479613999994   -0.0000130806483528
     0.0000177256125076   -0.0000204342245446   17.8544012557999991
   Sn   Bi   Cu   Se   O 
     1    35    36    36    36
Direct
  0.0000447216685231  0.1667823294322730  0.4315487759378627
  0.3307992150433918  0.1667787953047650  0.4295800676199377
  0.6692923037289873  0.1667844829284633  0.4295956422672376
  0.0000549176983142  0.4975351983520895  0.4295875906454469
  0.3331829642923836  0.4999139382125009  0.4289815335683542
  0.6669131062336859  0.4999111285696287  0.4289957829264992
  0.0000699358696679  0.8360282365050651  0.4295873241120773
  0.3331930823265168  0.8336480230228887  0.4289805387603209
  0.6669244260966565  0.8336493608675468  0.4289982966528854
  0.9999897551771326  0.1666889753909047  0.9289862842484808
  0.3332515182307532  0.1666898508605215  0.9288808472102801
  0.6667239167076247  0.1666809740565043  0.9288712826602250
  0.9999829741045616  0.4999508622671129  0.9288760504572551
  0.3332649379828752  0.4999676347508881  0.9286354751899140
  0.6667056380712637  0.4999600002349851  0.9286256247138525
  0.9999970628282284  0.8334260035808256  0.9288755386227550
  0.3332705091156996  0.8334073859104123  0.9286350805735140
  0.6667140830212759  0.8334042980997580  0.9286222295151845
  0.1666711353083770  0.0000147438686113  0.0709925606911241
  0.4999959887680063  0.9997827394520584  0.0705758005582311
  0.8333104460751457  0.0000052119026535  0.0709857820232713
  0.1666555796531028  0.3333743817896249  0.0709904701118731
  0.4999825642830871  0.3335868442025074  0.0705771897516456
  0.8332949886210983  0.3333643371547765  0.0709887040104675
  0.1668876512022379  0.6666889173034249  0.0705816930624863
  0.4999965208764436  0.6666853930897148  0.0706007130101654
  0.8330855300413589  0.6666869667894275  0.0705736715306244
  0.1658416417272548  0.0010087649478692  0.5710164857556421
  0.5000437079933278  0.0005182545470745  0.5704932566156771
  0.8342865511326636  0.0010046649559783  0.5710212108528339
  0.1658318838881385  0.3325611706775433  0.5710145444519483
  0.5000332608685909  0.3330460148467864  0.5704928535488136
  0.8342757252177080  0.3325621723322314  0.5710210111465202
  0.1663307488822525  0.6667851320837954  0.5704909185458220
  0.5000417401737280  0.6667801355985361  0.5708764708714540
  0.8337965488807768  0.6667812651013492  0.5704929512077257
  0.0000234039523974  0.9992037027183542  0.2501760243677751
  0.3336601585081951  0.9990507239887165  0.2500091116149648
  0.6664300280766327  0.9990308205477518  0.2500123305942736
  0.0000189458819619  0.3342611067983157  0.2501734494636310
  0.3335903347937759  0.3344040152296870  0.2500067236535202
  0.6663610125839980  0.3343723672197711  0.2500163451080084
  0.0000221230505488  0.6667325135266751  0.2502222594115366
  0.3331422483211384  0.6667275421757424  0.2500497304698612
  0.6669343989585883  0.6667197020154632  0.2500512864966851
  0.0000481902977043  0.9995469189722783  0.7501028730493502
  0.3336095256118341  0.9997823907888659  0.7498452100176749
  0.6664424090707115  0.9997608003931120  0.7498394395146661
  0.0000209452138904  0.3339689230779541  0.7501041327317068
  0.3336077075024519  0.3337310632517472  0.7498448437812968
  0.6664355578938554  0.3337261537203133  0.7498390622865401
  0.0000280500870602  0.6667526288706469  0.7502843671678150
  0.3336055218323324  0.6667492718548331  0.7499030541609386
  0.6664404909608734  0.6667390478724400  0.7498950039670831
  0.1674975207531588  0.1667817950239865  0.2501681655557562
  0.4999617756468311  0.1667548644994028  0.2502215900842160
  0.8324283628853379  0.1667471891681984  0.2501742818881851
  0.1676265217130251  0.5003687772011318  0.2500119874555224
  0.4999691768334742  0.4998520153957102  0.2500518398011167
  0.8322804507181871  0.5003952565173790  0.2500153015548037
  0.1676864837113357  0.8331651064931833  0.2500035457998990
  0.5000145226841326  0.8336543305921396  0.2500491392177082
  0.8323434755964172  0.8331374148083341  0.2500178734666889
  0.1672669879711250  0.1667164571796604  0.7501107755730914
  0.5000604939573705  0.1667035530845808  0.7502856027681517
  0.8328575218696486  0.1666994957545072  0.7500959147949473
  0.1670346326260912  0.5002967936097278  0.7498450265365832
  0.5000414291316204  0.5002875455536113  0.7498961141094611
  0.8330745709352811  0.5002804650841171  0.7498345542943952
  0.1670425282320380  0.8331225782634704  0.7498514061646873
  0.5000730460075289  0.8331101915935690  0.7498994484380859
  0.8330859590537329  0.8331200154985225  0.7498344557714560
  0.1677295324234507  0.3344880314625840  0.3360228954995890
  0.4999993235681188  0.3334288942681169  0.3367743467014250
  0.8322807722691010  0.3344846721382098  0.3360028297927116
  0.1667018109922935  0.6667715299725074  0.3367639745292479
  0.5000326830161228  0.6667613107623467  0.3368892999421007
  0.8333508558401945  0.6667647774365051  0.3367820218647779
  0.1677519247526789  0.9990510177612819  0.3360068181554894
  0.5000343041645365  0.0000871605768182  0.3367726350239622
  0.8323089157757337  0.9990373849879859  0.3360219689411039
  0.1667181738974435  0.3334199974137277  0.8372526093697417
  0.5000124836328581  0.3335217830289849  0.8374833099400973
  0.8333065544026823  0.3334094168785029  0.8372466841134880
  0.1668317599626121  0.6667102003649745  0.8374879433689273
  0.5000173384694264  0.6667017389184693  0.8376638226354700
  0.8332027141136251  0.6667036538507602  0.8374787072109910
  0.1667299523198622  0.0000079793760790  0.8372549544719803
  0.5000219036850453  0.9998874995981382  0.8374810588979074
  0.8333202280335783  0.0000006948006117  0.8372444707076383
  0.3339326465799601  0.1667222546000815  0.1631175316334392
  0.6660191275790908  0.1667061935008078  0.1631184181292014
  0.9999744317609469  0.1667241278559501  0.1636000712174166
  0.3340185092136920  0.5007706597671273  0.1620807063399994
  0.6659261509030401  0.5007586558019739  0.1620828993647763
  0.9999696982270194  0.5006832772092480  0.1631199262796841
  0.3340547909625613  0.8326734209505631  0.1620772996910347
  0.6659613498720134  0.8326669684411527  0.1620771858116044
  0.9999993251171588  0.8327712096522006  0.1631181514863655
  0.3338598619881950  0.1667578983334863  0.6632350484708454
  0.6662375480688851  0.1667515073491117  0.6632343439690729
  0.0000607805062529  0.1667610120774441  0.6635250150464174
  0.3336015677765332  0.5003179476789015  0.6629221709269402
  0.6664807035529634  0.5003109096856662  0.6629209659873041
  0.0000559651168786  0.5005678801677078  0.6632308595896177
  0.3336144493087119  0.8331951451352850  0.6629264208122123
  0.6664936542451585  0.8331848252609433  0.6629196541648383
  0.0000658554457758  0.8329458984569129  0.6632352177570198
  0.1666914863293485  0.1667765440645042  0.5013198798617964
  0.5000372394175159  0.1667721415684014  0.4993691897113379
  0.8334092430721043  0.1667748622670402  0.5013235248766392
  0.1667142734418761  0.4998920648064100  0.4998877080314088
  0.5000345358953666  0.4999167389944859  0.4999641702582025
  0.8333770966483840  0.4998960655576994  0.4998905200337376
  0.1667280040137200  0.8336537123106567  0.4998879657238007
  0.5000402670529240  0.8336311006322603  0.4999664100975139
  0.8333832250693831  0.8336600639999361  0.4998866432505409
  0.1665513848778275  0.1667014107136922  0.0001433590533253
  0.4999938076390649  0.1666960912364104  0.9997618255333336
  0.8334336423877104  0.1666966207955127  0.0001398329056101
  0.1664956556380659  0.4996068014848234  0.0000307834028206
  0.4999941455753998  0.4997080983604718  0.9994993225863951
  0.8334805332689470  0.4996012846107973  0.0000301150705653
  0.1665043229968433  0.8337934425694300  0.0000331186030280
  0.5000007747531896  0.8336831417681694  0.9994964715032992
  0.8334904165954953  0.8337913094323426  0.0000263052070864
  0.9999950994797828  0.0001408467637631  0.0001417233075429
  0.3329010043242775  0.0001890049059199  0.0000321541912953
  0.6670886507529588  0.0001851870744929  0.0000251334369779
  0.9999844712104391  0.3332559193352296  0.0001426539928744
  0.3328928737627237  0.3332074477999569  0.0000335762968149
  0.6670799143236863  0.3332002649538595  0.0000276357689373
  0.9999892751564161  0.6666984441774204  0.9997617150588880
  0.3330039229145214  0.6666967552171883  0.9995041465046342
  0.6669831659586691  0.6666956390706034  0.9994937035593949
  0.0000578569042489  0.0001300834223983  0.5013250617368215
  0.3331657627944651  0.0001085720242671  0.4998826793134654
  0.6669238076369979  0.0001052562443036  0.4998920352718699
  0.0000498216253817  0.3334232539171964  0.5013226367575854
  0.3331664326297101  0.3334463752762034  0.4998812996378135
  0.6669188326615654  0.3334408853079296  0.4998940790455393
  0.0000566139137135  0.6667708615957366  0.4993662060300608
  0.3331915668072298  0.6667764144427508  0.4999632782097478
  0.6669103185214524  0.6667674906624370  0.4999716476627398
 
  0.00000000E+00  0.00000000E+00  0.00000000E+00
  0.00000000E+00  0.00000000E+00  0.00000000E+00
  0.00000000E+00  0.00000000E+00  0.00000000E+00
  0.00000000E+00  0.00000000E+00  0.00000000E+00
  0.00000000E+00  0.00000000E+00  0.00000000E+00
  0.00000000E+00  0.00000000E+00  0.00000000E+00
  0.00000000E+00  0.00000000E+00  0.00000000E+00
  0.00000000E+00  0.00000000E+00  0.00000000E+00
  0.00000000E+00  0.00000000E+00  0.00000000E+00
  0.00000000E+00  0.00000000E+00  0.00000000E+00
  0.00000000E+00  0.00000000E+00  0.00000000E+00
  0.00000000E+00  0.00000000E+00  0.00000000E+00
  0.00000000E+00  0.00000000E+00  0.00000000E+00
  0.00000000E+00  0.00000000E+00  0.00000000E+00
  0.00000000E+00  0.00000000E+00  0.00000000E+00
  0.00000000E+00  0.00000000E+00  0.00000000E+00
  0.00000000E+00  0.00000000E+00  0.00000000E+00
  0.00000000E+00  0.00000000E+00  0.00000000E+00
  0.00000000E+00  0.00000000E+00  0.00000000E+00
  0.00000000E+00  0.00000000E+00  0.00000000E+00
  0.00000000E+00  0.00000000E+00  0.00000000E+00
  0.00000000E+00  0.00000000E+00  0.00000000E+00
  0.00000000E+00  0.00000000E+00  0.00000000E+00
  0.00000000E+00  0.00000000E+00  0.00000000E+00
  0.00000000E+00  0.00000000E+00  0.00000000E+00
  0.00000000E+00  0.00000000E+00  0.00000000E+00
  0.00000000E+00  0.00000000E+00  0.00000000E+00
  0.00000000E+00  0.00000000E+00  0.00000000E+00
  0.00000000E+00  0.00000000E+00  0.00000000E+00
  0.00000000E+00  0.00000000E+00  0.00000000E+00
  0.00000000E+00  0.00000000E+00  0.00000000E+00
  0.00000000E+00  0.00000000E+00  0.00000000E+00
  0.00000000E+00  0.00000000E+00  0.00000000E+00
  0.00000000E+00  0.00000000E+00  0.00000000E+00
  0.00000000E+00  0.00000000E+00  0.00000000E+00
  0.00000000E+00  0.00000000E+00  0.00000000E+00
  0.00000000E+00  0.00000000E+00  0.00000000E+00
  0.00000000E+00  0.00000000E+00  0.00000000E+00
  0.00000000E+00  0.00000000E+00  0.00000000E+00
  0.00000000E+00  0.00000000E+00  0.00000000E+00
  0.00000000E+00  0.00000000E+00  0.00000000E+00
  0.00000000E+00  0.00000000E+00  0.00000000E+00
  0.00000000E+00  0.00000000E+00  0.00000000E+00
  0.00000000E+00  0.00000000E+00  0.00000000E+00
  0.00000000E+00  0.00000000E+00  0.00000000E+00
  0.00000000E+00  0.00000000E+00  0.00000000E+00
  0.00000000E+00  0.00000000E+00  0.00000000E+00
  0.00000000E+00  0.00000000E+00  0.00000000E+00
  0.00000000E+00  0.00000000E+00  0.00000000E+00
  0.00000000E+00  0.00000000E+00  0.00000000E+00
  0.00000000E+00  0.00000000E+00  0.00000000E+00
  0.00000000E+00  0.00000000E+00  0.00000000E+00
  0.00000000E+00  0.00000000E+00  0.00000000E+00
  0.00000000E+00  0.00000000E+00  0.00000000E+00
  0.00000000E+00  0.00000000E+00  0.00000000E+00
  0.00000000E+00  0.00000000E+00  0.00000000E+00
  0.00000000E+00  0.00000000E+00  0.00000000E+00
  0.00000000E+00  0.00000000E+00  0.00000000E+00
  0.00000000E+00  0.00000000E+00  0.00000000E+00
  0.00000000E+00  0.00000000E+00  0.00000000E+00
  0.00000000E+00  0.00000000E+00  0.00000000E+00
  0.00000000E+00  0.00000000E+00  0.00000000E+00
  0.00000000E+00  0.00000000E+00  0.00000000E+00
  0.00000000E+00  0.00000000E+00  0.00000000E+00
  0.00000000E+00  0.00000000E+00  0.00000000E+00
  0.00000000E+00  0.00000000E+00  0.00000000E+00
  0.00000000E+00  0.00000000E+00  0.00000000E+00
  0.00000000E+00  0.00000000E+00  0.00000000E+00
  0.00000000E+00  0.00000000E+00  0.00000000E+00
  0.00000000E+00  0.00000000E+00  0.00000000E+00
  0.00000000E+00  0.00000000E+00  0.00000000E+00
  0.00000000E+00  0.00000000E+00  0.00000000E+00
  0.00000000E+00  0.00000000E+00  0.00000000E+00
  0.00000000E+00  0.00000000E+00  0.00000000E+00
  0.00000000E+00  0.00000000E+00  0.00000000E+00
  0.00000000E+00  0.00000000E+00  0.00000000E+00
  0.00000000E+00  0.00000000E+00  0.00000000E+00
  0.00000000E+00  0.00000000E+00  0.00000000E+00
  0.00000000E+00  0.00000000E+00  0.00000000E+00
  0.00000000E+00  0.00000000E+00  0.00000000E+00
  0.00000000E+00  0.00000000E+00  0.00000000E+00
  0.00000000E+00  0.00000000E+00  0.00000000E+00
  0.00000000E+00  0.00000000E+00  0.00000000E+00
  0.00000000E+00  0.00000000E+00  0.00000000E+00
  0.00000000E+00  0.00000000E+00  0.00000000E+00
  0.00000000E+00  0.00000000E+00  0.00000000E+00
  0.00000000E+00  0.00000000E+00  0.00000000E+00
  0.00000000E+00  0.00000000E+00  0.00000000E+00
  0.00000000E+00  0.00000000E+00  0.00000000E+00
  0.00000000E+00  0.00000000E+00  0.00000000E+00
  0.00000000E+00  0.00000000E+00  0.00000000E+00
  0.00000000E+00  0.00000000E+00  0.00000000E+00
  0.00000000E+00  0.00000000E+00  0.00000000E+00
  0.00000000E+00  0.00000000E+00  0.00000000E+00
  0.00000000E+00  0.00000000E+00  0.00000000E+00
  0.00000000E+00  0.00000000E+00  0.00000000E+00
  0.00000000E+00  0.00000000E+00  0.00000000E+00
  0.00000000E+00  0.00000000E+00  0.00000000E+00
  0.00000000E+00  0.00000000E+00  0.00000000E+00
  0.00000000E+00  0.00000000E+00  0.00000000E+00
  0.00000000E+00  0.00000000E+00  0.00000000E+00
  0.00000000E+00  0.00000000E+00  0.00000000E+00
  0.00000000E+00  0.00000000E+00  0.00000000E+00
  0.00000000E+00  0.00000000E+00  0.00000000E+00
  0.00000000E+00  0.00000000E+00  0.00000000E+00
  0.00000000E+00  0.00000000E+00  0.00000000E+00
  0.00000000E+00  0.00000000E+00  0.00000000E+00
  0.00000000E+00  0.00000000E+00  0.00000000E+00
  0.00000000E+00  0.00000000E+00  0.00000000E+00
  0.00000000E+00  0.00000000E+00  0.00000000E+00
  0.00000000E+00  0.00000000E+00  0.00000000E+00
  0.00000000E+00  0.00000000E+00  0.00000000E+00
  0.00000000E+00  0.00000000E+00  0.00000000E+00
  0.00000000E+00  0.00000000E+00  0.00000000E+00
  0.00000000E+00  0.00000000E+00  0.00000000E+00
  0.00000000E+00  0.00000000E+00  0.00000000E+00
  0.00000000E+00  0.00000000E+00  0.00000000E+00
  0.00000000E+00  0.00000000E+00  0.00000000E+00
  0.00000000E+00  0.00000000E+00  0.00000000E+00
  0.00000000E+00  0.00000000E+00  0.00000000E+00
  0.00000000E+00  0.00000000E+00  0.00000000E+00
  0.00000000E+00  0.00000000E+00  0.00000000E+00
  0.00000000E+00  0.00000000E+00  0.00000000E+00
  0.00000000E+00  0.00000000E+00  0.00000000E+00
  0.00000000E+00  0.00000000E+00  0.00000000E+00
  0.00000000E+00  0.00000000E+00  0.00000000E+00
  0.00000000E+00  0.00000000E+00  0.00000000E+00
  0.00000000E+00  0.00000000E+00  0.00000000E+00
  0.00000000E+00  0.00000000E+00  0.00000000E+00
  0.00000000E+00  0.00000000E+00  0.00000000E+00
  0.00000000E+00  0.00000000E+00  0.00000000E+00
  0.00000000E+00  0.00000000E+00  0.00000000E+00
  0.00000000E+00  0.00000000E+00  0.00000000E+00
  0.00000000E+00  0.00000000E+00  0.00000000E+00
  0.00000000E+00  0.00000000E+00  0.00000000E+00
  0.00000000E+00  0.00000000E+00  0.00000000E+00
  0.00000000E+00  0.00000000E+00  0.00000000E+00
  0.00000000E+00  0.00000000E+00  0.00000000E+00
  0.00000000E+00  0.00000000E+00  0.00000000E+00
  0.00000000E+00  0.00000000E+00  0.00000000E+00
  0.00000000E+00  0.00000000E+00  0.00000000E+00
  0.00000000E+00  0.00000000E+00  0.00000000E+00
  0.00000000E+00  0.00000000E+00  0.00000000E+00
  0.00000000E+00  0.00000000E+00  0.00000000E+00
