supercell of icsd_191774.cif            
   1.00000000000000     
    11.0791662501883632    0.0201627463497681   -0.0097054635324431
    -5.5221744385997420    9.5983580660966012    0.0131960135949672
    -0.0108243200456206    0.0114827226575084   11.1706282520597693
   N    In   Y 
    36    20    16
Direct
  0.2264814500013514  0.1226943631839248  0.4422089961826572
  0.1038552073717582  0.2119913098823716  0.1934507629413531
  0.8784250364855950  0.1024273204672994  0.9370992949350665
  0.7824092127319631  0.2340453204833253  0.6898992615708934
  0.5555896347106213  0.1108322270724003  0.4478947367061323
  0.4459224740397687  0.2235930751877433  0.2009997657173983
  0.2269813148375945  0.1122474699614102  0.9429060058855896
  0.1159328464843057  0.2221541464483394  0.6979856823045836
  0.8940248478699928  0.1198591517966960  0.4501253227135393
  0.7680446795755529  0.2061992889632904  0.1898992265293344
  0.5552592145868473  0.1054851874688225  0.9409244333505669
  0.4378829091117495  0.2194547353215128  0.6919819788311656
  0.2251356208470696  0.4407422092811757  0.4421574990550425
  0.1193530716086002  0.5651477050685543  0.2000024480058968
  0.8897899865973216  0.4433652117328890  0.9555066843399160
  0.7854361650207053  0.5563526818678639  0.6911983714332735
  0.5475645309042392  0.4426666756342215  0.4492248500680915
  0.4554080469210078  0.5612472755832059  0.1912326074564987
  0.2270390132376292  0.4477611895151270  0.9560490795128587
  0.1036122663862784  0.5499460868532040  0.6894115852492604
  0.8844983583079937  0.4361005022141455  0.4286211624309360
  0.7667661933632886  0.5489192393183586  0.1972006112164806
  0.5585656332129147  0.4515299677807647  0.9396233092193924
  0.4464836442408000  0.5646077316096410  0.6907967440082032
  0.2280826090857673  0.7824606292537339  0.4490945536493101
  0.1223895921041347  0.8949019765892032  0.2018980438518270
  0.8869872567698707  0.7798468415708442  0.9648352997430223
  0.7708910412739201  0.8816035365368720  0.6848515639078272
  0.5413453370557235  0.7697926375374777  0.4373219105557169
  0.4438186942363771  0.8899982875413244  0.1927403734983386
  0.2302692747509383  0.7746938406366368  0.9415691627306160
  0.1092677168604368  0.8916932048121211  0.6978616273175646
  0.8887949236218020  0.7779177679169322  0.4356111292249878
  0.7696001767321690  0.8934433453418222  0.2015855363111427
  0.5562205937836637  0.7783191418417346  0.9430771798340913
  0.4504767387090851  0.8851038709052830  0.6889572929163563
  0.2250290879432910  0.1140464654994346  0.2495027203990787
  0.1161670421566967  0.2272059026093984  0.4990242218285204
  0.7713611038071377  0.2106520554774605  0.9959458307620253
  0.5534307975955457  0.1070874885453748  0.2510809397450160
  0.4413017879268466  0.2228325933455721  0.4953313687583289
  0.2231469225187865  0.1106485235511698  0.7474021870673795
  0.8872366991347249  0.1113207844558062  0.2520226265509606
  0.7791603109757759  0.2278939789908776  0.4952248157249315
  0.8907339390834892  0.4466117317178160  0.7525904103623802
  0.7717052625932652  0.5543352123524983  0.0007560930145871
  0.5525319717798567  0.4434547132407047  0.2526690118432242
  0.4397373947501109  0.5558876426381190  0.4967737357095174
  0.1189061298672698  0.5611756273959045  0.0021254655289056
  0.4520571026085562  0.5616284345968552  0.9979245548096429
  0.2297211248593598  0.7831890146383742  0.2520105507625843
  0.7703905997981764  0.8902650079783143  0.0035815390273370
  0.5499202375580623  0.7771627228103171  0.2451780562142787
  0.4453031979564273  0.8872498011687782  0.4960044645114863
  0.5578064520222838  0.7787969353314352  0.7462798801503965
  0.4477652556512339  0.8878925785769383  0.9977990763818738
  0.8849003522284278  0.1086037378468561  0.7348185331618069
  0.1041668516573182  0.2152208632477084  0.9928876529304063
  0.5567237647815659  0.1100669035972430  0.7380555532840134
  0.4505690733962666  0.2261358458373266  0.9986470840795008
  0.2284703173110145  0.4423905616759924  0.2395109683946188
  0.1074729647595305  0.5507534490341754  0.4869259665140859
  0.2246643394062176  0.4484406954130691  0.7498912906798694
  0.8844422288159137  0.4356854778149710  0.2287077915093221
  0.7781404963443492  0.5522995995440922  0.4881845949764596
  0.5571352404173808  0.4479185534288774  0.7378046884757694
  0.1129797525473180  0.8968333502644512  0.4922328409951220
  0.8849515027818526  0.7769873428500631  0.7550598741611338
  0.2249641607088080  0.7756343864392292  0.7398872387193336
  0.1207550284328249  0.8895620442958219  0.9992912513920729
  0.8881596811876449  0.7792415168620508  0.2330476360374831
  0.7694865111978757  0.8857433037466080  0.4838153923315929
 
  0.00000000E+00  0.00000000E+00  0.00000000E+00
  0.00000000E+00  0.00000000E+00  0.00000000E+00
  0.00000000E+00  0.00000000E+00  0.00000000E+00
  0.00000000E+00  0.00000000E+00  0.00000000E+00
  0.00000000E+00  0.00000000E+00  0.00000000E+00
  0.00000000E+00  0.00000000E+00  0.00000000E+00
  0.00000000E+00  0.00000000E+00  0.00000000E+00
  0.00000000E+00  0.00000000E+00  0.00000000E+00
  0.00000000E+00  0.00000000E+00  0.00000000E+00
  0.00000000E+00  0.00000000E+00  0.00000000E+00
  0.00000000E+00  0.00000000E+00  0.00000000E+00
  0.00000000E+00  0.00000000E+00  0.00000000E+00
  0.00000000E+00  0.00000000E+00  0.00000000E+00
  0.00000000E+00  0.00000000E+00  0.00000000E+00
  0.00000000E+00  0.00000000E+00  0.00000000E+00
  0.00000000E+00  0.00000000E+00  0.00000000E+00
  0.00000000E+00  0.00000000E+00  0.00000000E+00
  0.00000000E+00  0.00000000E+00  0.00000000E+00
  0.00000000E+00  0.00000000E+00  0.00000000E+00
  0.00000000E+00  0.00000000E+00  0.00000000E+00
  0.00000000E+00  0.00000000E+00  0.00000000E+00
  0.00000000E+00  0.00000000E+00  0.00000000E+00
  0.00000000E+00  0.00000000E+00  0.00000000E+00
  0.00000000E+00  0.00000000E+00  0.00000000E+00
  0.00000000E+00  0.00000000E+00  0.00000000E+00
  0.00000000E+00  0.00000000E+00  0.00000000E+00
  0.00000000E+00  0.00000000E+00  0.00000000E+00
  0.00000000E+00  0.00000000E+00  0.00000000E+00
  0.00000000E+00  0.00000000E+00  0.00000000E+00
  0.00000000E+00  0.00000000E+00  0.00000000E+00
  0.00000000E+00  0.00000000E+00  0.00000000E+00
  0.00000000E+00  0.00000000E+00  0.00000000E+00
  0.00000000E+00  0.00000000E+00  0.00000000E+00
  0.00000000E+00  0.00000000E+00  0.00000000E+00
  0.00000000E+00  0.00000000E+00  0.00000000E+00
  0.00000000E+00  0.00000000E+00  0.00000000E+00
  0.00000000E+00  0.00000000E+00  0.00000000E+00
  0.00000000E+00  0.00000000E+00  0.00000000E+00
  0.00000000E+00  0.00000000E+00  0.00000000E+00
  0.00000000E+00  0.00000000E+00  0.00000000E+00
  0.00000000E+00  0.00000000E+00  0.00000000E+00
  0.00000000E+00  0.00000000E+00  0.00000000E+00
  0.00000000E+00  0.00000000E+00  0.00000000E+00
  0.00000000E+00  0.00000000E+00  0.00000000E+00
  0.00000000E+00  0.00000000E+00  0.00000000E+00
  0.00000000E+00  0.00000000E+00  0.00000000E+00
  0.00000000E+00  0.00000000E+00  0.00000000E+00
  0.00000000E+00  0.00000000E+00  0.00000000E+00
  0.00000000E+00  0.00000000E+00  0.00000000E+00
  0.00000000E+00  0.00000000E+00  0.00000000E+00
  0.00000000E+00  0.00000000E+00  0.00000000E+00
  0.00000000E+00  0.00000000E+00  0.00000000E+00
  0.00000000E+00  0.00000000E+00  0.00000000E+00
  0.00000000E+00  0.00000000E+00  0.00000000E+00
  0.00000000E+00  0.00000000E+00  0.00000000E+00
  0.00000000E+00  0.00000000E+00  0.00000000E+00
  0.00000000E+00  0.00000000E+00  0.00000000E+00
  0.00000000E+00  0.00000000E+00  0.00000000E+00
  0.00000000E+00  0.00000000E+00  0.00000000E+00
  0.00000000E+00  0.00000000E+00  0.00000000E+00
  0.00000000E+00  0.00000000E+00  0.00000000E+00
  0.00000000E+00  0.00000000E+00  0.00000000E+00
  0.00000000E+00  0.00000000E+00  0.00000000E+00
  0.00000000E+00  0.00000000E+00  0.00000000E+00
  0.00000000E+00  0.00000000E+00  0.00000000E+00
  0.00000000E+00  0.00000000E+00  0.00000000E+00
  0.00000000E+00  0.00000000E+00  0.00000000E+00
  0.00000000E+00  0.00000000E+00  0.00000000E+00
  0.00000000E+00  0.00000000E+00  0.00000000E+00
  0.00000000E+00  0.00000000E+00  0.00000000E+00
  0.00000000E+00  0.00000000E+00  0.00000000E+00
  0.00000000E+00  0.00000000E+00  0.00000000E+00
