Al   Gd   N                             
   1.00000000000000     
    -9.6030079218339957   -0.0064182279346782   -0.0118561671094785
    -4.7228941086595606    8.3351716258394433   -0.0033174422466261
     0.1643139507093281   -0.0562051836988636  -10.7074553246121660
   Al   Gd   N 
    31     5    36
Direct
  0.1118138308273586  0.0881261261048323  0.4249150160148218
  0.2298261070366010  0.2180415016791102  0.0606034488299088
  0.8851630712442216  0.2048051900139072  0.6618923727979933
  0.4331335376479117  0.0930298008942074  0.3564427480362014
  0.5480060204619619  0.2134302662690075  0.1603792379537694
  0.1080884790985337  0.0979431324024063  0.8947635187564416
  0.2223727123693706  0.2039317457849208  0.5974976820701343
  0.8959165332489576  0.2234323959651903  0.1566899669775168
  0.4355788646729621  0.0948533428232139  0.8231867913343507
  0.5511858795802240  0.2114396445173696  0.6551469305171125
  0.2321884305209281  0.5469787807424638  0.1432498338712875
  0.7749342038410205  0.4268141238401526  0.8996016212954530
  0.8852698728074486  0.5376060336387809  0.5943046211845271
  0.4405874392790210  0.4370933219919522  0.4012321787427524
  0.5680944821360896  0.5369965218946291  0.1466527817277168
  0.1096070038228518  0.4254734680279171  0.8272081611947897
  0.2246487489045350  0.5394905666761716  0.6533372212048576
  0.7726775788620230  0.4233407969168965  0.4161563441205089
  0.9019803244284503  0.5483097966907806  0.0561635071044577
  0.4392322406270921  0.4315007327121094  0.9016538453511984
  0.5533352680573529  0.5328545500042665  0.6577330290459216
  0.1169245812728903  0.7529132442869511  0.4071331935882299
  0.7770929492938876  0.7513257648633953  0.8262868405298676
  0.8927837014208180  0.8647912540975398  0.6554408143020254
  0.4316155110316373  0.7571080107415114  0.4253595803186414
  0.5671693221684606  0.8811950591992925  0.0552460808715907
  0.1160212104666059  0.7519153432184922  0.8976886505358408
  0.2177790298467457  0.8687153138201538  0.6575255680084808
  0.9044358223346904  0.8670092851935252  0.1508315359976109
  0.4468923850851922  0.7541352937109878  0.8940953829380405
  0.5520809790366670  0.8732019776209654  0.5951342921842269
  0.7750692656904477  0.0881685883527439  0.9129141050412031
  0.7834385881137678  0.0908564660856612  0.3937642379754038
  0.1077388738672624  0.4152297704549284  0.3293514166927025
  0.2350344493998691  0.8830044004361355  0.1590587841896465
  0.7445850536090930  0.7441049999107747  0.3105163107069870
  0.2351165076289092  0.1859154982449098  0.4214395988780097
  0.0954802587537529  0.1241066200871970  0.0747972097819272
  0.8963514526772656  0.2176934284814109  0.8367812532361683
  0.7739552414498974  0.0888534304466688  0.6138636406358344
  0.5228105712338262  0.2257481938290340  0.3383213182815297
  0.4420699660343459  0.0894797790334323  0.1304853299061577
  0.2261530110482610  0.2086632748644135  0.8810082835457749
  0.1009495188114613  0.0894537528769632  0.6052513071214349
  0.9154021951930673  0.2240882767188666  0.3369750339089208
  0.7797412253088964  0.1012494859990554  0.1330024528670251
  0.5312555776976495  0.2257253781245723  0.8337272013170534
  0.4395424003124688  0.0901502088007931  0.6465414831086207
  0.2414076692007256  0.5568217257642232  0.3266256398919367
  0.1171975822049660  0.4338139584010250  0.1137365297776967
  0.8921272731106171  0.5366379835166057  0.8799312586280337
  0.7670654923429154  0.4170104269516983  0.5974350111005364
  0.5611216672681323  0.5437942958689845  0.3407327347168660
  0.4516849577904836  0.4278253257941174  0.0865871592558847
  0.2289408674703282  0.5403501287236026  0.8357483665715506
  0.1061098409694239  0.4240493380937451  0.6464496704108313
  0.8797617354475022  0.5360765760650708  0.4213534680884834
  0.7813955010775686  0.4325891357498151  0.0869517966306930
  0.5568668792699256  0.5347305419205526  0.8391075523636857
  0.4397248005323249  0.4272477014579792  0.5857626098050588
  0.2179653701248796  0.8748691575358407  0.3723954829827463
  0.1090433206119599  0.7561572236298701  0.0759530536413209
  0.9097924384469067  0.8448411893848018  0.8311381300208254
  0.7688487216269735  0.7548879303672251  0.6462808956421853
  0.5287750323972773  0.8880953817531960  0.4172696112447696
  0.4773582543670116  0.7441389436555639  0.0753160977214975
  0.2227571993223378  0.8719570602119120  0.8426278249613617
  0.1078430360805811  0.7548058257264003  0.5901303189617479
  0.9165836213120357  0.8402137745543641  0.3273838608946136
  0.7843512873894340  0.7686836311434533  0.0993459069887805
  0.5570584200797413  0.8784520425843709  0.8769700841872208
  0.4386272549151968  0.7511769530964543  0.6053422129063009
 
  0.00000000E+00  0.00000000E+00  0.00000000E+00
  0.00000000E+00  0.00000000E+00  0.00000000E+00
  0.00000000E+00  0.00000000E+00  0.00000000E+00
  0.00000000E+00  0.00000000E+00  0.00000000E+00
  0.00000000E+00  0.00000000E+00  0.00000000E+00
  0.00000000E+00  0.00000000E+00  0.00000000E+00
  0.00000000E+00  0.00000000E+00  0.00000000E+00
  0.00000000E+00  0.00000000E+00  0.00000000E+00
  0.00000000E+00  0.00000000E+00  0.00000000E+00
  0.00000000E+00  0.00000000E+00  0.00000000E+00
  0.00000000E+00  0.00000000E+00  0.00000000E+00
  0.00000000E+00  0.00000000E+00  0.00000000E+00
  0.00000000E+00  0.00000000E+00  0.00000000E+00
  0.00000000E+00  0.00000000E+00  0.00000000E+00
  0.00000000E+00  0.00000000E+00  0.00000000E+00
  0.00000000E+00  0.00000000E+00  0.00000000E+00
  0.00000000E+00  0.00000000E+00  0.00000000E+00
  0.00000000E+00  0.00000000E+00  0.00000000E+00
  0.00000000E+00  0.00000000E+00  0.00000000E+00
  0.00000000E+00  0.00000000E+00  0.00000000E+00
  0.00000000E+00  0.00000000E+00  0.00000000E+00
  0.00000000E+00  0.00000000E+00  0.00000000E+00
  0.00000000E+00  0.00000000E+00  0.00000000E+00
  0.00000000E+00  0.00000000E+00  0.00000000E+00
  0.00000000E+00  0.00000000E+00  0.00000000E+00
  0.00000000E+00  0.00000000E+00  0.00000000E+00
  0.00000000E+00  0.00000000E+00  0.00000000E+00
  0.00000000E+00  0.00000000E+00  0.00000000E+00
  0.00000000E+00  0.00000000E+00  0.00000000E+00
  0.00000000E+00  0.00000000E+00  0.00000000E+00
  0.00000000E+00  0.00000000E+00  0.00000000E+00
  0.00000000E+00  0.00000000E+00  0.00000000E+00
  0.00000000E+00  0.00000000E+00  0.00000000E+00
  0.00000000E+00  0.00000000E+00  0.00000000E+00
  0.00000000E+00  0.00000000E+00  0.00000000E+00
  0.00000000E+00  0.00000000E+00  0.00000000E+00
  0.00000000E+00  0.00000000E+00  0.00000000E+00
  0.00000000E+00  0.00000000E+00  0.00000000E+00
  0.00000000E+00  0.00000000E+00  0.00000000E+00
  0.00000000E+00  0.00000000E+00  0.00000000E+00
  0.00000000E+00  0.00000000E+00  0.00000000E+00
  0.00000000E+00  0.00000000E+00  0.00000000E+00
  0.00000000E+00  0.00000000E+00  0.00000000E+00
  0.00000000E+00  0.00000000E+00  0.00000000E+00
  0.00000000E+00  0.00000000E+00  0.00000000E+00
  0.00000000E+00  0.00000000E+00  0.00000000E+00
  0.00000000E+00  0.00000000E+00  0.00000000E+00
  0.00000000E+00  0.00000000E+00  0.00000000E+00
  0.00000000E+00  0.00000000E+00  0.00000000E+00
  0.00000000E+00  0.00000000E+00  0.00000000E+00
  0.00000000E+00  0.00000000E+00  0.00000000E+00
  0.00000000E+00  0.00000000E+00  0.00000000E+00
  0.00000000E+00  0.00000000E+00  0.00000000E+00
  0.00000000E+00  0.00000000E+00  0.00000000E+00
  0.00000000E+00  0.00000000E+00  0.00000000E+00
  0.00000000E+00  0.00000000E+00  0.00000000E+00
  0.00000000E+00  0.00000000E+00  0.00000000E+00
  0.00000000E+00  0.00000000E+00  0.00000000E+00
  0.00000000E+00  0.00000000E+00  0.00000000E+00
  0.00000000E+00  0.00000000E+00  0.00000000E+00
  0.00000000E+00  0.00000000E+00  0.00000000E+00
  0.00000000E+00  0.00000000E+00  0.00000000E+00
  0.00000000E+00  0.00000000E+00  0.00000000E+00
  0.00000000E+00  0.00000000E+00  0.00000000E+00
  0.00000000E+00  0.00000000E+00  0.00000000E+00
  0.00000000E+00  0.00000000E+00  0.00000000E+00
  0.00000000E+00  0.00000000E+00  0.00000000E+00
  0.00000000E+00  0.00000000E+00  0.00000000E+00
  0.00000000E+00  0.00000000E+00  0.00000000E+00
  0.00000000E+00  0.00000000E+00  0.00000000E+00
  0.00000000E+00  0.00000000E+00  0.00000000E+00
  0.00000000E+00  0.00000000E+00  0.00000000E+00
