Al   Gd   N                             
   1.00000000000000     
    -9.6757980346882171   -0.0028042904469938    0.0003926000901677
    -4.7906346662916182    8.3721997974642530    0.0088879027713964
     0.1639548894101560   -0.0814268719245008  -10.5994971263947679
   Al   Gd   N 
    31     5    36
Direct
  0.1206521164101062  0.0784871049845464  0.4021514723401580
  0.2283786865971464  0.2149928282089419  0.0384395645665165
  0.8840225584983585  0.2109021048872535  0.5643984243312303
  0.4328139384679730  0.0920883537812855  0.3132260813452703
  0.5450058099641595  0.2130565961281121  0.0548685807905755
  0.1140871346556054  0.0968695442018586  0.8665749223326884
  0.2281530871762101  0.2070620932338514  0.5704982422508209
  0.8811565677999766  0.2226904089009238  0.0426049707444420
  0.4374374800095211  0.0985483301935446  0.8033199072757924
  0.5459957987517754  0.2104000497825353  0.5516133355796100
  0.2220082602486073  0.5392153074295010  0.0514081827166706
  0.7834584362982113  0.4298047106039178  0.8000868031109363
  0.8879417521937398  0.5390883424262327  0.5707176767437545
  0.4368642769329654  0.4329545056750348  0.3100891733078370
  0.5651903542501557  0.5395528152334990  0.1302013815052590
  0.1133599118799893  0.4300059224216639  0.8065349554538486
  0.2250846139140990  0.5421978865715502  0.5626682678734340
  0.7795566168427257  0.4253156676429626  0.3292540073639429
  0.8899976628586757  0.5362253406435400  0.0384958731821925
  0.4344485785518089  0.4295542410211013  0.8081617267698036
  0.5506970832051010  0.5418760554481565  0.6314735055121474
  0.1149014481877373  0.7520080820222361  0.3171976065530373
  0.7810625513835419  0.7555759695862321  0.8061636518447131
  0.8957230652839243  0.8664099280980508  0.5591281872868166
  0.4327967951252987  0.7567258753484367  0.3959087736159219
  0.5666155394229548  0.8760486591747423  0.0397524515012009
  0.1155433481423600  0.7508396011509859  0.8072807294047735
  0.2264386332613952  0.8734380881010111  0.6385025488376428
  0.8965627592299512  0.8595396380671190  0.0460503006119453
  0.4532701686172231  0.7506676373689700  0.8734341331990549
  0.5545368515880398  0.8782784537367121  0.5666171517106733
  0.7673341825785300  0.0930387753174813  0.8094918633732178
  0.7793696104112939  0.0954651893515219  0.3041408316468406
  0.1122442393487404  0.4197708954537305  0.3042119107403494
  0.2320585631305718  0.8792128795480778  0.1217478666206020
  0.7633025592618949  0.7567696955860299  0.3009527046830129
  0.2343796771498532  0.1840056564931487  0.3881860258375980
  0.1024322758308358  0.1204353905406848  0.0515082190648428
  0.8913419566305549  0.2241808559883296  0.8595710462233086
  0.7725133647476383  0.0960864519236182  0.5902403684481854
  0.5229334458052719  0.2206622158617080  0.3706906040342162
  0.4431500192183364  0.0907352091220019  0.1197144796920924
  0.2254214733417044  0.2096027462291588  0.8541152868212265
  0.1135187111934854  0.0892198554985626  0.5877163139062702
  0.8997806489186075  0.2170869592605129  0.3835989221481313
  0.7787428747736271  0.0952146259231839  0.0794477414648753
  0.5166680213699806  0.2258179698411524  0.8783007870605246
  0.4476896188702071  0.0962363872076324  0.6238256986726398
  0.2372443258183097  0.5492647281975067  0.3839936664799524
  0.1119698666115099  0.4288394677921801  0.0865076832159204
  0.8899813646651964  0.5373790866601809  0.8561234341813346
  0.7784832377037603  0.4275308583354374  0.6193295695297820
  0.5536831732348730  0.5469442833605669  0.3199989033510278
  0.4400639062921670  0.4287389180071912  0.1231508348858270
  0.2247320674431990  0.5417286503029644  0.8684151456093261
  0.1130619986427348  0.4308571593692534  0.6207915688088761
  0.8776968037777735  0.5295961968032117  0.3955563038935779
  0.7900772475274067  0.4265323244584209  0.1223216573404429
  0.5556365930415055  0.5392072683332430  0.8146655744679947
  0.4411363056134618  0.4221082591929672  0.6227564857681287
  0.2204348047510223  0.8718418682420221  0.3372418229940237
  0.0969336301234307  0.7437584319649417  0.1307866542698193
  0.9106366925091010  0.8393093366481210  0.8689900898162861
  0.7765220043398244  0.7644086478783478  0.6218001773447881
  0.5277408700932540  0.8882820298833423  0.3858347313075541
  0.4808072511381098  0.7380081334692363  0.0526400105784859
  0.2291621246271376  0.8718697483660875  0.8253267789908065
  0.1107269944932128  0.7584682516346604  0.6263822156747665
  0.9122022436696611  0.8517704819854472  0.3832139551831801
  0.7799868345892591  0.7583605000069653  0.0867750752688394
  0.5585235821029073  0.8802852906146370  0.8573322778416639
  0.4410371139528237  0.7564467381175888  0.5778336945193630
 
  0.00000000E+00  0.00000000E+00  0.00000000E+00
  0.00000000E+00  0.00000000E+00  0.00000000E+00
  0.00000000E+00  0.00000000E+00  0.00000000E+00
  0.00000000E+00  0.00000000E+00  0.00000000E+00
  0.00000000E+00  0.00000000E+00  0.00000000E+00
  0.00000000E+00  0.00000000E+00  0.00000000E+00
  0.00000000E+00  0.00000000E+00  0.00000000E+00
  0.00000000E+00  0.00000000E+00  0.00000000E+00
  0.00000000E+00  0.00000000E+00  0.00000000E+00
  0.00000000E+00  0.00000000E+00  0.00000000E+00
  0.00000000E+00  0.00000000E+00  0.00000000E+00
  0.00000000E+00  0.00000000E+00  0.00000000E+00
  0.00000000E+00  0.00000000E+00  0.00000000E+00
  0.00000000E+00  0.00000000E+00  0.00000000E+00
  0.00000000E+00  0.00000000E+00  0.00000000E+00
  0.00000000E+00  0.00000000E+00  0.00000000E+00
  0.00000000E+00  0.00000000E+00  0.00000000E+00
  0.00000000E+00  0.00000000E+00  0.00000000E+00
  0.00000000E+00  0.00000000E+00  0.00000000E+00
  0.00000000E+00  0.00000000E+00  0.00000000E+00
  0.00000000E+00  0.00000000E+00  0.00000000E+00
  0.00000000E+00  0.00000000E+00  0.00000000E+00
  0.00000000E+00  0.00000000E+00  0.00000000E+00
  0.00000000E+00  0.00000000E+00  0.00000000E+00
  0.00000000E+00  0.00000000E+00  0.00000000E+00
  0.00000000E+00  0.00000000E+00  0.00000000E+00
  0.00000000E+00  0.00000000E+00  0.00000000E+00
  0.00000000E+00  0.00000000E+00  0.00000000E+00
  0.00000000E+00  0.00000000E+00  0.00000000E+00
  0.00000000E+00  0.00000000E+00  0.00000000E+00
  0.00000000E+00  0.00000000E+00  0.00000000E+00
  0.00000000E+00  0.00000000E+00  0.00000000E+00
  0.00000000E+00  0.00000000E+00  0.00000000E+00
  0.00000000E+00  0.00000000E+00  0.00000000E+00
  0.00000000E+00  0.00000000E+00  0.00000000E+00
  0.00000000E+00  0.00000000E+00  0.00000000E+00
  0.00000000E+00  0.00000000E+00  0.00000000E+00
  0.00000000E+00  0.00000000E+00  0.00000000E+00
  0.00000000E+00  0.00000000E+00  0.00000000E+00
  0.00000000E+00  0.00000000E+00  0.00000000E+00
  0.00000000E+00  0.00000000E+00  0.00000000E+00
  0.00000000E+00  0.00000000E+00  0.00000000E+00
  0.00000000E+00  0.00000000E+00  0.00000000E+00
  0.00000000E+00  0.00000000E+00  0.00000000E+00
  0.00000000E+00  0.00000000E+00  0.00000000E+00
  0.00000000E+00  0.00000000E+00  0.00000000E+00
  0.00000000E+00  0.00000000E+00  0.00000000E+00
  0.00000000E+00  0.00000000E+00  0.00000000E+00
  0.00000000E+00  0.00000000E+00  0.00000000E+00
  0.00000000E+00  0.00000000E+00  0.00000000E+00
  0.00000000E+00  0.00000000E+00  0.00000000E+00
  0.00000000E+00  0.00000000E+00  0.00000000E+00
  0.00000000E+00  0.00000000E+00  0.00000000E+00
  0.00000000E+00  0.00000000E+00  0.00000000E+00
  0.00000000E+00  0.00000000E+00  0.00000000E+00
  0.00000000E+00  0.00000000E+00  0.00000000E+00
  0.00000000E+00  0.00000000E+00  0.00000000E+00
  0.00000000E+00  0.00000000E+00  0.00000000E+00
  0.00000000E+00  0.00000000E+00  0.00000000E+00
  0.00000000E+00  0.00000000E+00  0.00000000E+00
  0.00000000E+00  0.00000000E+00  0.00000000E+00
  0.00000000E+00  0.00000000E+00  0.00000000E+00
  0.00000000E+00  0.00000000E+00  0.00000000E+00
  0.00000000E+00  0.00000000E+00  0.00000000E+00
  0.00000000E+00  0.00000000E+00  0.00000000E+00
  0.00000000E+00  0.00000000E+00  0.00000000E+00
  0.00000000E+00  0.00000000E+00  0.00000000E+00
  0.00000000E+00  0.00000000E+00  0.00000000E+00
  0.00000000E+00  0.00000000E+00  0.00000000E+00
  0.00000000E+00  0.00000000E+00  0.00000000E+00
  0.00000000E+00  0.00000000E+00  0.00000000E+00
  0.00000000E+00  0.00000000E+00  0.00000000E+00
