Al   Gd   N                             
   1.00000000000000     
    -9.6713989250833468   -0.0019161607550993   -0.0094637101689557
    -4.7942888068849561    8.3756599699863408    0.0134819640469434
     0.1621204463095990   -0.0628005274923705  -10.6003042084776951
   Al   Gd   N 
    31     5    36
Direct
  0.1101739183968533  0.0925016991331447  0.3928101286621271
  0.2250895964100010  0.2127995638581766  0.0410916382610225
  0.8907471801885976  0.2098509528449597  0.6269680542564942
  0.4335381150089361  0.0923927336059265  0.3151911601444155
  0.5421035133533820  0.2138691399717203  0.0625337241443162
  0.1074681358380332  0.0992898415920180  0.8689279664490073
  0.2277637290135104  0.2051903593219819  0.5673041744412259
  0.8927522230480491  0.2205404581208654  0.1173703118221141
  0.4348246901025803  0.0990056351421629  0.8068795883406068
  0.5477255289938938  0.2089104668268433  0.5579054855310517
  0.2215217061497654  0.5394004787126860  0.0475686461038549
  0.7747280976111526  0.4283626383053161  0.8723220770728659
  0.8899304371960497  0.5371107672895334  0.5693978228548389
  0.4434797527985239  0.4350977543729044  0.3119446055806492
  0.5670192703467691  0.5397093281242888  0.1256341533065282
  0.1105145951119368  0.4265961318956926  0.8065838083220953
  0.2316665001374290  0.5330548729318991  0.5734651093358778
  0.7754364915583736  0.4222943756817443  0.3858823115799979
  0.8947744910204136  0.5429803789011913  0.0368025234020806
  0.4344224372846597  0.4280466370967133  0.8117579031050397
  0.5589472355445082  0.5355052328813201  0.6352036686810507
  0.1247485082785076  0.7590480567371216  0.3744466356653220
  0.7770257976530317  0.7542907638256366  0.8061041933621880
  0.8890451990807264  0.8675176340044715  0.5714538392301947
  0.4397298136970278  0.7556654473666455  0.3972709107415895
  0.5618625329056073  0.8765910833353558  0.0426705309604145
  0.1141125471202074  0.7528332551582366  0.8081444710161136
  0.2262564816005295  0.8755840423346797  0.6344618710843406
  0.8952573870838165  0.8599830012632808  0.0449746203820354
  0.4472913686660647  0.7546045049540524  0.8734048825384804
  0.5536138826397163  0.8773717034542372  0.5695835515094458
  0.7646701865778240  0.0979499905620287  0.8264478661861148
  0.7780878144048202  0.0886424506411885  0.3150758619374940
  0.1232844950788063  0.4261454972757477  0.3057633255792140
  0.2250074377191922  0.8760067651571148  0.1304903445801671
  0.7682938439145133  0.7539470695584214  0.3035416786616523
  0.2343039655877845  0.1878898170116727  0.3865521743966909
  0.0944052523680128  0.1194550769126153  0.0485047490479928
  0.9014985326891605  0.2237710424402195  0.8049243214243873
  0.7729815818778576  0.0952309096486346  0.5995902239339941
  0.5220809096456449  0.2236929599889450  0.3754935185791055
  0.4402483352499971  0.0909902857269600  0.1236949575661512
  0.2238684499615076  0.2080120006710544  0.8582073023821266
  0.1068688087303968  0.0922912380526810  0.5751613744036348
  0.9104626095106170  0.2207712461790337  0.3052701090786556
  0.7769471564122341  0.0948839298560529  0.0887109790095124
  0.5118591251372919  0.2273128607988610  0.8857750089606498
  0.4453921805905594  0.0953890379201283  0.6265316015652402
  0.2516616240525167  0.5472686864662322  0.3971502636160125
  0.1117818036132903  0.4275352882753722  0.0888242004950044
  0.8900154823748494  0.5384846809620925  0.8556000174357763
  0.7687277475332621  0.4220021339838596  0.5689899380746084
  0.5651514901003125  0.5465371416806875  0.3145488233028289
  0.4377009719760068  0.4307476919383433  0.1263383430249974
  0.2223210854724371  0.5404149955887760  0.8639408830984792
  0.1127739762240481  0.4266274617272714  0.6222067823775888
  0.8902300640276053  0.5263097397217038  0.3919807431170881
  0.7751127543235512  0.4297601974884557  0.0576017523586358
  0.5588708625723342  0.5379329282197247  0.8165046887248195
  0.4457241951590589  0.4174048248050610  0.6305157980544323
  0.2237755913529043  0.8748736113914575  0.3477135436916541
  0.0979321466302139  0.7442851689170311  0.1110198653958250
  0.9051981069601922  0.8411386158439882  0.8644560045760983
  0.7741260608942113  0.7594539337246928  0.6235602940471949
  0.5316517642129241  0.8887879365176090  0.3885572840656266
  0.4709740927590147  0.7429351585124948  0.0532068072757710
  0.2258881320928410  0.8753928412236434  0.8197406649932404
  0.1124310817946750  0.7569013500991559  0.6223719884609977
  0.9131345000489688  0.8481870884373564  0.3958983778018137
  0.7768750158889262  0.7603634360242140  0.0891475719925836
  0.5560532297700149  0.8805789386395872  0.8596607090577706
  0.4440486869193094  0.7524023080855429  0.5794531752490428
 
  0.00000000E+00  0.00000000E+00  0.00000000E+00
  0.00000000E+00  0.00000000E+00  0.00000000E+00
  0.00000000E+00  0.00000000E+00  0.00000000E+00
  0.00000000E+00  0.00000000E+00  0.00000000E+00
  0.00000000E+00  0.00000000E+00  0.00000000E+00
  0.00000000E+00  0.00000000E+00  0.00000000E+00
  0.00000000E+00  0.00000000E+00  0.00000000E+00
  0.00000000E+00  0.00000000E+00  0.00000000E+00
  0.00000000E+00  0.00000000E+00  0.00000000E+00
  0.00000000E+00  0.00000000E+00  0.00000000E+00
  0.00000000E+00  0.00000000E+00  0.00000000E+00
  0.00000000E+00  0.00000000E+00  0.00000000E+00
  0.00000000E+00  0.00000000E+00  0.00000000E+00
  0.00000000E+00  0.00000000E+00  0.00000000E+00
  0.00000000E+00  0.00000000E+00  0.00000000E+00
  0.00000000E+00  0.00000000E+00  0.00000000E+00
  0.00000000E+00  0.00000000E+00  0.00000000E+00
  0.00000000E+00  0.00000000E+00  0.00000000E+00
  0.00000000E+00  0.00000000E+00  0.00000000E+00
  0.00000000E+00  0.00000000E+00  0.00000000E+00
  0.00000000E+00  0.00000000E+00  0.00000000E+00
  0.00000000E+00  0.00000000E+00  0.00000000E+00
  0.00000000E+00  0.00000000E+00  0.00000000E+00
  0.00000000E+00  0.00000000E+00  0.00000000E+00
  0.00000000E+00  0.00000000E+00  0.00000000E+00
  0.00000000E+00  0.00000000E+00  0.00000000E+00
  0.00000000E+00  0.00000000E+00  0.00000000E+00
  0.00000000E+00  0.00000000E+00  0.00000000E+00
  0.00000000E+00  0.00000000E+00  0.00000000E+00
  0.00000000E+00  0.00000000E+00  0.00000000E+00
  0.00000000E+00  0.00000000E+00  0.00000000E+00
  0.00000000E+00  0.00000000E+00  0.00000000E+00
  0.00000000E+00  0.00000000E+00  0.00000000E+00
  0.00000000E+00  0.00000000E+00  0.00000000E+00
  0.00000000E+00  0.00000000E+00  0.00000000E+00
  0.00000000E+00  0.00000000E+00  0.00000000E+00
  0.00000000E+00  0.00000000E+00  0.00000000E+00
  0.00000000E+00  0.00000000E+00  0.00000000E+00
  0.00000000E+00  0.00000000E+00  0.00000000E+00
  0.00000000E+00  0.00000000E+00  0.00000000E+00
  0.00000000E+00  0.00000000E+00  0.00000000E+00
  0.00000000E+00  0.00000000E+00  0.00000000E+00
  0.00000000E+00  0.00000000E+00  0.00000000E+00
  0.00000000E+00  0.00000000E+00  0.00000000E+00
  0.00000000E+00  0.00000000E+00  0.00000000E+00
  0.00000000E+00  0.00000000E+00  0.00000000E+00
  0.00000000E+00  0.00000000E+00  0.00000000E+00
  0.00000000E+00  0.00000000E+00  0.00000000E+00
  0.00000000E+00  0.00000000E+00  0.00000000E+00
  0.00000000E+00  0.00000000E+00  0.00000000E+00
  0.00000000E+00  0.00000000E+00  0.00000000E+00
  0.00000000E+00  0.00000000E+00  0.00000000E+00
  0.00000000E+00  0.00000000E+00  0.00000000E+00
  0.00000000E+00  0.00000000E+00  0.00000000E+00
  0.00000000E+00  0.00000000E+00  0.00000000E+00
  0.00000000E+00  0.00000000E+00  0.00000000E+00
  0.00000000E+00  0.00000000E+00  0.00000000E+00
  0.00000000E+00  0.00000000E+00  0.00000000E+00
  0.00000000E+00  0.00000000E+00  0.00000000E+00
  0.00000000E+00  0.00000000E+00  0.00000000E+00
  0.00000000E+00  0.00000000E+00  0.00000000E+00
  0.00000000E+00  0.00000000E+00  0.00000000E+00
  0.00000000E+00  0.00000000E+00  0.00000000E+00
  0.00000000E+00  0.00000000E+00  0.00000000E+00
  0.00000000E+00  0.00000000E+00  0.00000000E+00
  0.00000000E+00  0.00000000E+00  0.00000000E+00
  0.00000000E+00  0.00000000E+00  0.00000000E+00
  0.00000000E+00  0.00000000E+00  0.00000000E+00
  0.00000000E+00  0.00000000E+00  0.00000000E+00
  0.00000000E+00  0.00000000E+00  0.00000000E+00
  0.00000000E+00  0.00000000E+00  0.00000000E+00
  0.00000000E+00  0.00000000E+00  0.00000000E+00
