Al   Gd   N                             
   1.00000000000000     
    -9.7166658098169627   -0.0032648021390872    0.0055032794837873
    -4.8811124358298716    8.3936324111361493    0.0065057969248166
     0.0918889343157782    0.0474562976402568  -10.4143363521229837
   Al   Gd   N 
    31     5    36
Direct
  0.1148170412710456  0.0974923985506848  0.3126643103242017
  0.2207189365736468  0.2109687624892658  0.0511710853045670
  0.8937926526027695  0.2075101874310334  0.5561523627849567
  0.4323217759750833  0.0916808776338556  0.3138067724507181
  0.5449376824721597  0.2109773455495940  0.0575826928680385
  0.1131251919079475  0.1048611946496436  0.8099846445584333
  0.2238440132523110  0.2010843405559015  0.5650673986755095
  0.8900237245211855  0.2208425084747745  0.0583317039940070
  0.4378401802303244  0.0985246021203849  0.8066191539861549
  0.5432496101620501  0.2102271742347810  0.5549187176194437
  0.2202713285241629  0.5350532180935090  0.0518168972878001
  0.7876735922774003  0.4273697625730435  0.8067893808729778
  0.8888705976571813  0.5349811440907501  0.5692058087198006
  0.4393269309839880  0.4358438514035754  0.3134285860448784
  0.5595630309990867  0.5406716816802160  0.1241298547818133
  0.1137532388543789  0.4272059233750767  0.8098159002485872
  0.2266440127918870  0.5418202552850673  0.5653814490496387
  0.7825509758596283  0.4256990673286793  0.3148215574723494
  0.8881317461884279  0.5381060788954883  0.0426732028826251
  0.4361857857646640  0.4281170549799782  0.8100542564966844
  0.5559366133171650  0.5362161701925459  0.6276504921898223
  0.1187719026759879  0.7565977719366046  0.3141121098526227
  0.7800906178624771  0.7568794958574330  0.8051846440287562
  0.8957024334926587  0.8661727659975895  0.5611888222553958
  0.4298724413089872  0.7603041779771331  0.3889539626512217
  0.5622934243014868  0.8765310721919519  0.0422628570989971
  0.1132588784304929  0.7499286153626201  0.8089910321136315
  0.2261032071267124  0.8694538996425720  0.6340122851256638
  0.8907122306795969  0.8594510971639551  0.0486440076447465
  0.4573938144963492  0.7487325083042435  0.8687363191346975
  0.5518017431716729  0.8780445904995133  0.5681174111501406
  0.7745385345716045  0.1009281253192853  0.8144134068360671
  0.7754141620213204  0.0971080502403225  0.3129628704209111
  0.1197015345669499  0.4262884184658944  0.3097390545753242
  0.2176316523667055  0.8745840737505475  0.0865519338376544
  0.7660342876318964  0.7588440063490935  0.3066031528618254
  0.2304267920035556  0.1819793769880036  0.3849459965499165
  0.0968437083348022  0.1341748287959419  0.1283204739501826
  0.9077690961830527  0.2222100509807134  0.8775762010067041
  0.7742733346292781  0.0972014903284517  0.5883551634453923
  0.5156507549711478  0.2235840140311680  0.3722300933578282
  0.4437116794062987  0.0905653935291610  0.1205783986237705
  0.2251999567095595  0.2042608514870494  0.8658039628824312
  0.1090665459100038  0.0973423389603809  0.6256700280228031
  0.9047433404253908  0.2161732173110593  0.3756943975935343
  0.7806225847345019  0.0938935312539755  0.0843152937389959
  0.5210486557360952  0.2217529663426490  0.8773259542286880
  0.4431927411078860  0.0964364088117762  0.6241517448743537
  0.2410435091943199  0.5562519032106579  0.3866877789752792
  0.1097672173923030  0.4284684404582819  0.0889491117000105
  0.8897895467193209  0.5389905604173961  0.8578653762548285
  0.7841801748418789  0.4205567183905004  0.6225196905912185
  0.5563692051691405  0.5443161528766183  0.3240174359812045
  0.4390753351032046  0.4286116807225469  0.1217147455179060
  0.2242898605969472  0.5388711005418116  0.8672281513501829
  0.1149809524770760  0.4270541311926550  0.6193979794574531
  0.8805375128102142  0.5244254573150400  0.3909875939274059
  0.7838679756110807  0.4311478961765047  0.1229360887678155
  0.5597266593559596  0.5335950016369821  0.8191281329091495
  0.4434355768626972  0.4212788029491463  0.6240879439411415
  0.2237854458665467  0.8731169230529687  0.3193311509241425
  0.0929952088788539  0.7376218465248030  0.1286304574629114
  0.9055204594967279  0.8437655146000154  0.8673576717746343
  0.7768190728062265  0.7615442422985481  0.6184232622314383
  0.5274394525208663  0.8882066873298271  0.3860380472506435
  0.4765624406232902  0.7411344783561802  0.0521700977221329
  0.2269483196583479  0.8702410927558617  0.8330379253137039
  0.1110538931383900  0.7583249802341925  0.6271957969216615
  0.9172258031554961  0.8506261937024320  0.3837575363736789
  0.7757336296400936  0.7587791755880957  0.0891269364616889
  0.5583285202113331  0.8786111140498107  0.8555384575444833
  0.4401488207131976  0.7553360938421392  0.5788506763892300
 
  0.00000000E+00  0.00000000E+00  0.00000000E+00
  0.00000000E+00  0.00000000E+00  0.00000000E+00
  0.00000000E+00  0.00000000E+00  0.00000000E+00
  0.00000000E+00  0.00000000E+00  0.00000000E+00
  0.00000000E+00  0.00000000E+00  0.00000000E+00
  0.00000000E+00  0.00000000E+00  0.00000000E+00
  0.00000000E+00  0.00000000E+00  0.00000000E+00
  0.00000000E+00  0.00000000E+00  0.00000000E+00
  0.00000000E+00  0.00000000E+00  0.00000000E+00
  0.00000000E+00  0.00000000E+00  0.00000000E+00
  0.00000000E+00  0.00000000E+00  0.00000000E+00
  0.00000000E+00  0.00000000E+00  0.00000000E+00
  0.00000000E+00  0.00000000E+00  0.00000000E+00
  0.00000000E+00  0.00000000E+00  0.00000000E+00
  0.00000000E+00  0.00000000E+00  0.00000000E+00
  0.00000000E+00  0.00000000E+00  0.00000000E+00
  0.00000000E+00  0.00000000E+00  0.00000000E+00
  0.00000000E+00  0.00000000E+00  0.00000000E+00
  0.00000000E+00  0.00000000E+00  0.00000000E+00
  0.00000000E+00  0.00000000E+00  0.00000000E+00
  0.00000000E+00  0.00000000E+00  0.00000000E+00
  0.00000000E+00  0.00000000E+00  0.00000000E+00
  0.00000000E+00  0.00000000E+00  0.00000000E+00
  0.00000000E+00  0.00000000E+00  0.00000000E+00
  0.00000000E+00  0.00000000E+00  0.00000000E+00
  0.00000000E+00  0.00000000E+00  0.00000000E+00
  0.00000000E+00  0.00000000E+00  0.00000000E+00
  0.00000000E+00  0.00000000E+00  0.00000000E+00
  0.00000000E+00  0.00000000E+00  0.00000000E+00
  0.00000000E+00  0.00000000E+00  0.00000000E+00
  0.00000000E+00  0.00000000E+00  0.00000000E+00
  0.00000000E+00  0.00000000E+00  0.00000000E+00
  0.00000000E+00  0.00000000E+00  0.00000000E+00
  0.00000000E+00  0.00000000E+00  0.00000000E+00
  0.00000000E+00  0.00000000E+00  0.00000000E+00
  0.00000000E+00  0.00000000E+00  0.00000000E+00
  0.00000000E+00  0.00000000E+00  0.00000000E+00
  0.00000000E+00  0.00000000E+00  0.00000000E+00
  0.00000000E+00  0.00000000E+00  0.00000000E+00
  0.00000000E+00  0.00000000E+00  0.00000000E+00
  0.00000000E+00  0.00000000E+00  0.00000000E+00
  0.00000000E+00  0.00000000E+00  0.00000000E+00
  0.00000000E+00  0.00000000E+00  0.00000000E+00
  0.00000000E+00  0.00000000E+00  0.00000000E+00
  0.00000000E+00  0.00000000E+00  0.00000000E+00
  0.00000000E+00  0.00000000E+00  0.00000000E+00
  0.00000000E+00  0.00000000E+00  0.00000000E+00
  0.00000000E+00  0.00000000E+00  0.00000000E+00
  0.00000000E+00  0.00000000E+00  0.00000000E+00
  0.00000000E+00  0.00000000E+00  0.00000000E+00
  0.00000000E+00  0.00000000E+00  0.00000000E+00
  0.00000000E+00  0.00000000E+00  0.00000000E+00
  0.00000000E+00  0.00000000E+00  0.00000000E+00
  0.00000000E+00  0.00000000E+00  0.00000000E+00
  0.00000000E+00  0.00000000E+00  0.00000000E+00
  0.00000000E+00  0.00000000E+00  0.00000000E+00
  0.00000000E+00  0.00000000E+00  0.00000000E+00
  0.00000000E+00  0.00000000E+00  0.00000000E+00
  0.00000000E+00  0.00000000E+00  0.00000000E+00
  0.00000000E+00  0.00000000E+00  0.00000000E+00
  0.00000000E+00  0.00000000E+00  0.00000000E+00
  0.00000000E+00  0.00000000E+00  0.00000000E+00
  0.00000000E+00  0.00000000E+00  0.00000000E+00
  0.00000000E+00  0.00000000E+00  0.00000000E+00
  0.00000000E+00  0.00000000E+00  0.00000000E+00
  0.00000000E+00  0.00000000E+00  0.00000000E+00
  0.00000000E+00  0.00000000E+00  0.00000000E+00
  0.00000000E+00  0.00000000E+00  0.00000000E+00
  0.00000000E+00  0.00000000E+00  0.00000000E+00
  0.00000000E+00  0.00000000E+00  0.00000000E+00
  0.00000000E+00  0.00000000E+00  0.00000000E+00
  0.00000000E+00  0.00000000E+00  0.00000000E+00
