Al   Gd   N                             
   1.00000000000000     
    -9.7142534964720557   -0.0039226759849349    0.0128042500461009
    -4.8694655417454307    8.3821320663194925    0.0031027885725596
     0.0431987991677129    0.0287459201472287  -10.2975895514782021
   Al   Gd   N 
    31     5    36
Direct
  0.1144551409047239  0.0967616000042000  0.3146079116837868
  0.2220112515882633  0.2092755033738882  0.0526087477978123
  0.8914591612178953  0.2104243450281800  0.5573186514700978
  0.4321376066991363  0.0928035713409159  0.3158208331808936
  0.5456609052582166  0.2100471967167010  0.0594838728310876
  0.1131929517937920  0.1022092161086690  0.8086596557205823
  0.2247095914006820  0.2016388429515246  0.5661440561918027
  0.8916224881047157  0.2182785533370435  0.0592906056312117
  0.4377984252775207  0.0974119388019119  0.8103477613194414
  0.5439784396263789  0.2107309533073334  0.5578826931846450
  0.2220325464494834  0.5349398661624178  0.0527695060597466
  0.7792740676875383  0.4312626696228179  0.8096997296113244
  0.8861879862107287  0.5366458392784423  0.5721444615049691
  0.4417220688357375  0.4360047612699134  0.3136988056167809
  0.5638990548657929  0.5351103017058918  0.0642231571518508
  0.1141998675632721  0.4269896188378439  0.8109179116422993
  0.2285446680793655  0.5407914483221532  0.5663701134615238
  0.7759502183462104  0.4284685875769085  0.3138945773213990
  0.8900979559644711  0.5362192508982133  0.0435800407972451
  0.4401440660771101  0.4320021534550520  0.8124944330248809
  0.5576065527165639  0.5351223182192797  0.5620499058165507
  0.1195724038466324  0.7562267952691144  0.3157202360673921
  0.7789569122767048  0.7563534017943283  0.8098201741208797
  0.8941742718960199  0.8655936523239376  0.5625668262246819
  0.4423432723216649  0.7601480941527470  0.3172671200944848
  0.5591426471570600  0.8706806130927092  0.0511360208439555
  0.1152402607313761  0.7521635838601952  0.8070131969485530
  0.2225751803277447  0.8719176064165381  0.6011497426055001
  0.8925318218014482  0.8587841927475708  0.0486438471535351
  0.4512458599579361  0.7555363197369616  0.8091451718137179
  0.5494052813144776  0.8755327042209586  0.5682649712090253
  0.7749215769874027  0.1004632332949171  0.8158566569487817
  0.7763329089926287  0.0964967411126594  0.3148023606075796
  0.1163486488903160  0.4278238332242381  0.3126606862215127
  0.2218359962052290  0.8718734497983505  0.0730278903840755
  0.7654071297830214  0.7599585698126461  0.3063961923051437
  0.2300097635781242  0.1828842697760820  0.3849566003190432
  0.0992018258520631  0.1286172933440923  0.1285852273736268
  0.9068935598229402  0.2231968832813394  0.8766303311072363
  0.7747142438933849  0.0971851244078081  0.5883759691344110
  0.5164332681804993  0.2229477100630888  0.3734980778773078
  0.4440941176306694  0.0909211111934312  0.1221216898119408
  0.2242766298909018  0.2035399346919604  0.8657847835505166
  0.1082299556439708  0.0978774270152556  0.6229075513430828
  0.9034877586470458  0.2185620102644279  0.3751442994560890
  0.7810018670620451  0.0927802404186053  0.0843655506117855
  0.5204794037469185  0.2226209590155079  0.8775644203722095
  0.4441698326019008  0.0954194070537113  0.6258048515171026
  0.2412625051849773  0.5538229137739989  0.3856252062222936
  0.1111654423561390  0.4276036476362535  0.0897732600059626
  0.8897123443282524  0.5372429072841243  0.8574598374145168
  0.7752177013113482  0.4252304528710695  0.6253201852834351
  0.5589089888718561  0.5350275627420373  0.3730308392068196
  0.4435575406942434  0.4311128540122482  0.1223860943907766
  0.2251686598407687  0.5396185863412697  0.8661712672116053
  0.1147760181862196  0.4276250822913639  0.6189538249147191
  0.8754275301417351  0.5265192341788989  0.3917217351513216
  0.7797436833300964  0.4311716735027886  0.1227611848888799
  0.5585583628579158  0.5361967380429959  0.8735798337231415
  0.4484475665637007  0.4267056845527932  0.6258380105156789
  0.2204416613597857  0.8743447473822812  0.3387239893333600
  0.0959410831222272  0.7395005726948725  0.1286614638123140
  0.9064802115803801  0.8428157078928606  0.8656858834011842
  0.7746146895573602  0.7631236598637940  0.6204857200002465
  0.5240764844663488  0.8858859128855769  0.3867059352347368
  0.4799853803499303  0.7460250678729778  0.1291827841235929
  0.2233814759654607  0.8722949739426724  0.8419937571295577
  0.1118766029313463  0.7592014052761940  0.6237396339489933
  0.9168749485630556  0.8491094383868898  0.3837076023332671
  0.7779880072964502  0.7571192391781452  0.0867386539331036
  0.5529477221129113  0.8740385486432771  0.8638460044205445
  0.4488386327177594  0.7549054135746474  0.6225515446683474
 
  0.00000000E+00  0.00000000E+00  0.00000000E+00
  0.00000000E+00  0.00000000E+00  0.00000000E+00
  0.00000000E+00  0.00000000E+00  0.00000000E+00
  0.00000000E+00  0.00000000E+00  0.00000000E+00
  0.00000000E+00  0.00000000E+00  0.00000000E+00
  0.00000000E+00  0.00000000E+00  0.00000000E+00
  0.00000000E+00  0.00000000E+00  0.00000000E+00
  0.00000000E+00  0.00000000E+00  0.00000000E+00
  0.00000000E+00  0.00000000E+00  0.00000000E+00
  0.00000000E+00  0.00000000E+00  0.00000000E+00
  0.00000000E+00  0.00000000E+00  0.00000000E+00
  0.00000000E+00  0.00000000E+00  0.00000000E+00
  0.00000000E+00  0.00000000E+00  0.00000000E+00
  0.00000000E+00  0.00000000E+00  0.00000000E+00
  0.00000000E+00  0.00000000E+00  0.00000000E+00
  0.00000000E+00  0.00000000E+00  0.00000000E+00
  0.00000000E+00  0.00000000E+00  0.00000000E+00
  0.00000000E+00  0.00000000E+00  0.00000000E+00
  0.00000000E+00  0.00000000E+00  0.00000000E+00
  0.00000000E+00  0.00000000E+00  0.00000000E+00
  0.00000000E+00  0.00000000E+00  0.00000000E+00
  0.00000000E+00  0.00000000E+00  0.00000000E+00
  0.00000000E+00  0.00000000E+00  0.00000000E+00
  0.00000000E+00  0.00000000E+00  0.00000000E+00
  0.00000000E+00  0.00000000E+00  0.00000000E+00
  0.00000000E+00  0.00000000E+00  0.00000000E+00
  0.00000000E+00  0.00000000E+00  0.00000000E+00
  0.00000000E+00  0.00000000E+00  0.00000000E+00
  0.00000000E+00  0.00000000E+00  0.00000000E+00
  0.00000000E+00  0.00000000E+00  0.00000000E+00
  0.00000000E+00  0.00000000E+00  0.00000000E+00
  0.00000000E+00  0.00000000E+00  0.00000000E+00
  0.00000000E+00  0.00000000E+00  0.00000000E+00
  0.00000000E+00  0.00000000E+00  0.00000000E+00
  0.00000000E+00  0.00000000E+00  0.00000000E+00
  0.00000000E+00  0.00000000E+00  0.00000000E+00
  0.00000000E+00  0.00000000E+00  0.00000000E+00
  0.00000000E+00  0.00000000E+00  0.00000000E+00
  0.00000000E+00  0.00000000E+00  0.00000000E+00
  0.00000000E+00  0.00000000E+00  0.00000000E+00
  0.00000000E+00  0.00000000E+00  0.00000000E+00
  0.00000000E+00  0.00000000E+00  0.00000000E+00
  0.00000000E+00  0.00000000E+00  0.00000000E+00
  0.00000000E+00  0.00000000E+00  0.00000000E+00
  0.00000000E+00  0.00000000E+00  0.00000000E+00
  0.00000000E+00  0.00000000E+00  0.00000000E+00
  0.00000000E+00  0.00000000E+00  0.00000000E+00
  0.00000000E+00  0.00000000E+00  0.00000000E+00
  0.00000000E+00  0.00000000E+00  0.00000000E+00
  0.00000000E+00  0.00000000E+00  0.00000000E+00
  0.00000000E+00  0.00000000E+00  0.00000000E+00
  0.00000000E+00  0.00000000E+00  0.00000000E+00
  0.00000000E+00  0.00000000E+00  0.00000000E+00
  0.00000000E+00  0.00000000E+00  0.00000000E+00
  0.00000000E+00  0.00000000E+00  0.00000000E+00
  0.00000000E+00  0.00000000E+00  0.00000000E+00
  0.00000000E+00  0.00000000E+00  0.00000000E+00
  0.00000000E+00  0.00000000E+00  0.00000000E+00
  0.00000000E+00  0.00000000E+00  0.00000000E+00
  0.00000000E+00  0.00000000E+00  0.00000000E+00
  0.00000000E+00  0.00000000E+00  0.00000000E+00
  0.00000000E+00  0.00000000E+00  0.00000000E+00
  0.00000000E+00  0.00000000E+00  0.00000000E+00
  0.00000000E+00  0.00000000E+00  0.00000000E+00
  0.00000000E+00  0.00000000E+00  0.00000000E+00
  0.00000000E+00  0.00000000E+00  0.00000000E+00
  0.00000000E+00  0.00000000E+00  0.00000000E+00
  0.00000000E+00  0.00000000E+00  0.00000000E+00
  0.00000000E+00  0.00000000E+00  0.00000000E+00
  0.00000000E+00  0.00000000E+00  0.00000000E+00
  0.00000000E+00  0.00000000E+00  0.00000000E+00
  0.00000000E+00  0.00000000E+00  0.00000000E+00
