Al   Gd   N                             
   1.00000000000000     
    -9.6511726087388272   -0.0069419972795705   -0.0139392216825233
    -4.8194313993574527    8.3606566218054077   -0.0075927134483312
     0.0629540038162451   -0.1688346096120787  -10.6750483172501553
   Al   Gd   N 
    31     5    36
Direct
  0.1143895917992808  0.0841212408924648  0.4091010439384419
  0.2268058044129759  0.2134235057072900  0.0556787338139273
  0.8930070806425263  0.2091718143543915  0.6485859542106311
  0.4325752646212706  0.0849907043778799  0.3210739510966789
  0.5494149160729904  0.2091391360154162  0.1440407898729319
  0.1115212422905074  0.0980840341502685  0.8847027092110196
  0.2290794903792062  0.1970779838255012  0.5802355846891061
  0.8936684596415603  0.2175687860291120  0.1406346782780332
  0.4352628358866184  0.0911444097179128  0.8149830697688571
  0.5448612452027675  0.2133524093038659  0.6468193596747369
  0.2284079164257449  0.5425183407284067  0.1350269361580487
  0.7749492923477632  0.4329477206419270  0.8856922077730758
  0.8871181462041946  0.5379100515673869  0.5834988914847514
  0.4339834430253902  0.4388240982450426  0.3865429874154174
  0.5660898527265559  0.5332934906950797  0.1357989015977807
  0.1091679786548383  0.4222810111379331  0.8172112116406183
  0.2281891248051835  0.5353389886818647  0.6451393563577383
  0.7724551062331386  0.4313481948307114  0.3980084200213128
  0.8984893300006291  0.5406358940463321  0.0520121806109444
  0.4325909925379605  0.4346560991207724  0.8918612989558881
  0.5547614410909745  0.5318265364915007  0.6428522280306268
  0.1260537151795305  0.7562734686395771  0.4103017617191895
  0.7774348586956847  0.7586770002157337  0.8187338825965185
  0.8908949959798136  0.8677143098782025  0.5896277892392092
  0.4412759042853978  0.7538692612607250  0.4074613391108812
  0.5631606182391522  0.8718194214027051  0.0537543600105650
  0.1188774768043004  0.7508377052859032  0.8849894380857322
  0.2251544933800105  0.8673800874432516  0.6480235074667959
  0.8891723240205138  0.8638346284865506  0.0595937730545728
  0.4474568306040609  0.7524280502221643  0.8842653468342903
  0.5563490049049875  0.8724351331864852  0.5780823228870489
  0.7679168895309516  0.1143537672865804  0.8787731025105145
  0.7652499581680061  0.1247743343401595  0.3945940404873127
  0.1116910088923149  0.4103711898450868  0.3255402083544041
  0.2262695436994520  0.8764302006515976  0.1466868691711127
  0.7741775542832414  0.7675564446936320  0.3151595252450647
  0.2419156697429159  0.1752131962664691  0.4043974192990305
  0.0955450137425657  0.1180947754316506  0.0636995616546798
  0.9080173887876981  0.2281983583184939  0.8201483585507674
  0.7729139295971308  0.0974242345136176  0.6198510918612925
  0.5142067651512718  0.2284952934683204  0.3207827476620224
  0.4379428970214789  0.0823893211111795  0.1305697886028625
  0.2276384029955310  0.2083710388526256  0.8760141137726976
  0.1061769655225717  0.0857561183054187  0.5900435903473706
  0.9174389836292889  0.2260171342365567  0.3211149094043151
  0.7788203235903808  0.0929212572181370  0.1075963053513505
  0.5172651491452456  0.2309841879467811  0.8232472865646301
  0.4419956721543912  0.0855177863805281  0.6366600252509045
  0.2307334723083940  0.5641631377004401  0.3188143044206910
  0.1136583389330426  0.4287281931600830  0.1106491002378718
  0.8910288482811168  0.5420545998624533  0.8717945323618537
  0.7695757740455988  0.4177928945392466  0.5813147391530080
  0.5600768856343095  0.5363427175191191  0.3277113022076890
  0.4483238745607849  0.4249177737511545  0.0754231893457558
  0.2243877807900816  0.5399285363283184  0.8251123489411825
  0.1097709906067053  0.4191235596045786  0.6328438400890946
  0.8763949963712108  0.5437329687023507  0.4088007416400927
  0.7783300750010156  0.4259680900201275  0.0714596216060741
  0.5561198763668074  0.5322483897335886  0.8256670297431015
  0.4422635057760473  0.4241087519929820  0.5725953263518093
  0.2256526169156174  0.8697793795059923  0.3598613871548295
  0.1125161008733926  0.7441835241855799  0.0655770617397451
  0.8954183910460713  0.8532204073546268  0.8751896245082804
  0.7761179136705394  0.7593158989708897  0.6381603430856444
  0.5356779244385095  0.8839771030232200  0.3974921144995918
  0.4716281272380982  0.7386915445641264  0.0646435825837912
  0.2239154728832204  0.8719242874611055  0.8323815124639680
  0.1229730075962365  0.7495623431074208  0.5941516717368316
  0.9057970991817541  0.8695738137702307  0.4083760855924297
  0.7795202431841588  0.7582570322297784  0.1024133694193381
  0.5560338857302654  0.8772196539582566  0.8732112863286687
  0.4464743609499209  0.7495026713634871  0.5902791743346469
 
  0.00000000E+00  0.00000000E+00  0.00000000E+00
  0.00000000E+00  0.00000000E+00  0.00000000E+00
  0.00000000E+00  0.00000000E+00  0.00000000E+00
  0.00000000E+00  0.00000000E+00  0.00000000E+00
  0.00000000E+00  0.00000000E+00  0.00000000E+00
  0.00000000E+00  0.00000000E+00  0.00000000E+00
  0.00000000E+00  0.00000000E+00  0.00000000E+00
  0.00000000E+00  0.00000000E+00  0.00000000E+00
  0.00000000E+00  0.00000000E+00  0.00000000E+00
  0.00000000E+00  0.00000000E+00  0.00000000E+00
  0.00000000E+00  0.00000000E+00  0.00000000E+00
  0.00000000E+00  0.00000000E+00  0.00000000E+00
  0.00000000E+00  0.00000000E+00  0.00000000E+00
  0.00000000E+00  0.00000000E+00  0.00000000E+00
  0.00000000E+00  0.00000000E+00  0.00000000E+00
  0.00000000E+00  0.00000000E+00  0.00000000E+00
  0.00000000E+00  0.00000000E+00  0.00000000E+00
  0.00000000E+00  0.00000000E+00  0.00000000E+00
  0.00000000E+00  0.00000000E+00  0.00000000E+00
  0.00000000E+00  0.00000000E+00  0.00000000E+00
  0.00000000E+00  0.00000000E+00  0.00000000E+00
  0.00000000E+00  0.00000000E+00  0.00000000E+00
  0.00000000E+00  0.00000000E+00  0.00000000E+00
  0.00000000E+00  0.00000000E+00  0.00000000E+00
  0.00000000E+00  0.00000000E+00  0.00000000E+00
  0.00000000E+00  0.00000000E+00  0.00000000E+00
  0.00000000E+00  0.00000000E+00  0.00000000E+00
  0.00000000E+00  0.00000000E+00  0.00000000E+00
  0.00000000E+00  0.00000000E+00  0.00000000E+00
  0.00000000E+00  0.00000000E+00  0.00000000E+00
  0.00000000E+00  0.00000000E+00  0.00000000E+00
  0.00000000E+00  0.00000000E+00  0.00000000E+00
  0.00000000E+00  0.00000000E+00  0.00000000E+00
  0.00000000E+00  0.00000000E+00  0.00000000E+00
  0.00000000E+00  0.00000000E+00  0.00000000E+00
  0.00000000E+00  0.00000000E+00  0.00000000E+00
  0.00000000E+00  0.00000000E+00  0.00000000E+00
  0.00000000E+00  0.00000000E+00  0.00000000E+00
  0.00000000E+00  0.00000000E+00  0.00000000E+00
  0.00000000E+00  0.00000000E+00  0.00000000E+00
  0.00000000E+00  0.00000000E+00  0.00000000E+00
  0.00000000E+00  0.00000000E+00  0.00000000E+00
  0.00000000E+00  0.00000000E+00  0.00000000E+00
  0.00000000E+00  0.00000000E+00  0.00000000E+00
  0.00000000E+00  0.00000000E+00  0.00000000E+00
  0.00000000E+00  0.00000000E+00  0.00000000E+00
  0.00000000E+00  0.00000000E+00  0.00000000E+00
  0.00000000E+00  0.00000000E+00  0.00000000E+00
  0.00000000E+00  0.00000000E+00  0.00000000E+00
  0.00000000E+00  0.00000000E+00  0.00000000E+00
  0.00000000E+00  0.00000000E+00  0.00000000E+00
  0.00000000E+00  0.00000000E+00  0.00000000E+00
  0.00000000E+00  0.00000000E+00  0.00000000E+00
  0.00000000E+00  0.00000000E+00  0.00000000E+00
  0.00000000E+00  0.00000000E+00  0.00000000E+00
  0.00000000E+00  0.00000000E+00  0.00000000E+00
  0.00000000E+00  0.00000000E+00  0.00000000E+00
  0.00000000E+00  0.00000000E+00  0.00000000E+00
  0.00000000E+00  0.00000000E+00  0.00000000E+00
  0.00000000E+00  0.00000000E+00  0.00000000E+00
  0.00000000E+00  0.00000000E+00  0.00000000E+00
  0.00000000E+00  0.00000000E+00  0.00000000E+00
  0.00000000E+00  0.00000000E+00  0.00000000E+00
  0.00000000E+00  0.00000000E+00  0.00000000E+00
  0.00000000E+00  0.00000000E+00  0.00000000E+00
  0.00000000E+00  0.00000000E+00  0.00000000E+00
  0.00000000E+00  0.00000000E+00  0.00000000E+00
  0.00000000E+00  0.00000000E+00  0.00000000E+00
  0.00000000E+00  0.00000000E+00  0.00000000E+00
  0.00000000E+00  0.00000000E+00  0.00000000E+00
  0.00000000E+00  0.00000000E+00  0.00000000E+00
  0.00000000E+00  0.00000000E+00  0.00000000E+00
