supercell of POSCAR                     
   1.01800000000000     
     3.1310994802600001   -5.4896946145000003   10.0244832682999991
    -9.4821132118399998   -5.5089477087900001    0.0170740616273000
     6.3359946057599998  -11.0114127993000004  -10.0652216442999993
   Al   Gd   N 
    84    12    95
Direct
  0.0899698784260252  0.5853246878321414  0.3341304929931823
  0.5005971937755760  0.3251515552232291  0.2570649987783966
  0.0848553304033501  0.0825750379491978  0.3346553252537916
  0.2528761996200899  0.5776726800920144  0.4929432645023013
  0.3324679941735269  0.3171314699301320  0.0768613032032022
  0.4158700068380483  0.0891417231588179  0.1723625436786378
  0.0069282322032223  0.8428333506821772  0.2549929136266229
  0.1706994437460949  0.3189801375671735  0.4075229059860206
  0.2460599127502761  0.0838071129652604  0.4963902813606396
  0.1626597663836904  0.8352361016291638  0.4158948594974277
  0.3374193558955128  0.6721347710804011  0.3402155501848156
  0.1524722418600959  0.6760124127831020  0.1655672623464994
  0.2649105014705100  0.4020939968585182  0.2660655570570611
  0.3238015355303716  0.1622372085021482  0.3366189719941630
  0.0067963881094784  0.6726350376184413  0.4946757408112106
  0.1684273498874163  0.1598448404941450  0.1709720612391976
  0.2525675830969192  0.9171117682012309  0.2553037588534863
  0.4129824923043941  0.4298933706080845  0.4025999601016537
  0.4963344944110304  0.1636139689018421  0.4935251002598520
  0.0833133874153020  0.9248812070811709  0.0797816135730329
  0.4200952076842057  0.9187359013716119  0.4117935282496958
  0.0892927148228608  0.5848956770666973  0.8348729431697279
  0.4991337959309377  0.3227940182187794  0.7536287363697411
  0.0858926757105678  0.0853780827208865  0.8344202423284059
  0.2514317996774622  0.5782241663656649  0.9950926022573299
  0.3314407246067503  0.3178562825661970  0.5722296635124593
  0.4161719822269276  0.0879760256579871  0.6697142559342169
  0.0072713395706714  0.8430624155046686  0.7554853165727380
  0.1674589453959783  0.3324793462398929  0.9121325936187858
  0.2476643294997984  0.0863931320268136  0.9961501457882420
  0.1621143433105914  0.8367163986115997  0.9163922249045200
  0.3365894405788481  0.6736366292452374  0.8402010178263666
  0.1548724148005860  0.6729439086521580  0.6660066882918443
  0.2496973974449048  0.4012843366750687  0.7504393205328697
  0.3341531233478463  0.1642451660558137  0.8337205385141928
  0.0059957699061144  0.6731120124549292  0.9944900053423638
  0.1663896383048993  0.1591525770161297  0.6688165266465518
  0.2526392808392259  0.9199922306168489  0.7552818604386502
  0.4122514632672249  0.4149067063490861  0.9142195192626588
  0.4985024478126832  0.1614207139417800  0.9966231107403729
  0.0831509408438862  0.9220447976826023  0.5802348977822547
  0.4196980763691229  0.9198013730649279  0.9118297576263785
  0.5933332993880285  0.5879455688272657  0.3345274228701740
  0.0040716349581658  0.3222237068637668  0.2566297904445989
  0.5843298717791825  0.0871435745291365  0.3347577737560457
  0.7528054425187989  0.5793606038945143  0.4955287417186867
  0.8327031607948214  0.3196668822307913  0.0789578055384084
  0.9178385544304817  0.0876098913608416  0.1709864044753786
  0.5077552869998527  0.8442913504827914  0.2553905220912540
  0.6717891858576550  0.3334633364260142  0.4129146280805855
  0.7468710296922865  0.0878954759775326  0.4960636927911040
  0.6626589016720814  0.8386012166126449  0.4164313764904293
  0.8373489110799568  0.6739354750352646  0.3404423714358416
  0.6532520733483835  0.6756168309981234  0.1659404629428778
  0.7516785436931102  0.4016995393010632  0.2533974515862241
  0.8349767067740999  0.1638523873276867  0.3342730779314067
  0.5095418842570254  0.6765198153951033  0.4958003134616860
  0.6676823494524484  0.1597106677758191  0.1696101065873776
  0.7526773117924961  0.9208878543178542  0.2560871932058788
  0.9155766642657142  0.4139932152595236  0.4157758933190365
  0.9956844384485422  0.1593031372506957  0.4985993023584214
  0.5827078748168262  0.9247858092588714  0.0803286079757726
  0.9199048012007296  0.9192281742111703  0.4122615900577102
  0.5887759180807137  0.5860638713966466  0.8347412537677101
  0.9994109230885115  0.3231633242261864  0.7549508562473122
  0.5854718908298508  0.0858396680024214  0.8341844574964483
  0.7506730704747682  0.5787303182928767  0.9951138305249998
  0.8318962200235305  0.3192845080477582  0.5796719354910778
  0.9168129764098083  0.0868077369234825  0.6719554042930582
  0.5068559984083123  0.8441063569467531  0.7547271167048777
  0.6670762403104433  0.3329948035467325  0.9129250570446246
  0.7477902227082680  0.0877893192287615  0.9961492220969319
  0.6612548363840602  0.8372308017373626  0.9166371319928714
  0.8362417605818635  0.6740706985059930  0.8402608436978269
  0.6557473967555580  0.6752720465696029  0.6663395754762362
  0.7488696347846897  0.4033022117444602  0.7521350179181709
  0.8339704382842044  0.1656118477148780  0.8343718753075819
  0.5059695385089071  0.6727697398596248  0.9957464735080777
  0.6666384920637825  0.1609191530788650  0.6689859263542388
  0.7522291894588946  0.9210975460789896  0.7563655800636653
  0.9131913507489671  0.4156931682306961  0.9161569485809835
  0.9990513947984994  0.1635127784132422  0.9973218499026757
  0.5828031229288229  0.9268061360190103  0.5799110892863553
  0.9199957109088857  0.9208033209726167  0.9119450942585416
  0.3940195725384612  0.5767196541044228  0.1825855931156113
  0.3323284016464143  0.8344437315842086  0.0842968667177431
  0.0861767945919993  0.4192342101533129  0.0897676245272478
  0.3991343381811063  0.5783792717020120  0.6786747271509270
  0.3325856199502866  0.8321613940333350  0.5829863811435558
  0.0852890510023556  0.4182522482748396  0.5815622851997517
  0.8965685609404872  0.5799808437013141  0.1787816591489033
  0.8317074498933650  0.8367819863755415  0.0835432239578040
  0.5782210552939446  0.4185497779148690  0.0867722231761121
  0.8991572479510381  0.5789764336028682  0.6785288232434894
  0.8314348012099089  0.8381315367432478  0.5840459739109534
  0.5766277051203943  0.4173205343181721  0.5806616307289190
  0.2131988799254501  0.5895640437968481  0.2653339001813748
  0.0311158882567071  0.6109982151997144  0.1000949820351451
  0.1388074197412337  0.3187648246853811  0.2057261800802053
  0.2091098295411342  0.0760400879254846  0.2707984339072667
  0.3854171096938188  0.5932560370702049  0.4410706694192825
  0.4486837785810209  0.3187382972175925  0.0081005287024780
  0.0409911755237360  0.0875750991602260  0.1036631798411918
  0.1306234031809907  0.8432021182118561  0.1846200738292580
  0.3752232437863157  0.0770753212581567  0.4362549073802171
  0.4758448440552812  0.8382369198780211  0.0081122254077854
  0.2931628184270352  0.8345260534139314  0.3564128858820936
  0.4740438822854713  0.6867493977819734  0.2874173167924781
  0.2624554043715577  0.6538049921552016  0.0954305807605849
  0.3798883742930954  0.3788376077966404  0.1813923610820183
  0.4572134515288084  0.1660332593029210  0.2771985090108515
  0.1341603021913187  0.6650940119126858  0.4334871209796489
  0.2236094940352586  0.4113701899326614  0.0088792206456958
  0.2895141564493429  0.1567732433142552  0.1016956445533310
  0.3850271615989342  0.9284977056566106  0.2020150504798366
  0.0447435675180046  0.4187201269411034  0.3525513109489680
  0.1211815120219129  0.1629695030976706  0.4373895106837509
  0.1973696591965322  0.9311113200171732  0.0104246377697947
  0.0479324394375382  0.9217225388210437  0.3530543318830581
  0.2183755916079022  0.5805190068040318  0.7669113689710017
  0.0335592415598711  0.6089395069616614  0.6005121634771129
  0.1286716015119609  0.3178184220067024  0.6987279385552512
  0.2120706638645871  0.0827242872927059  0.7717011535591851
  0.3818373671849784  0.5836739336402630  0.9373311780381215
  0.4439132260519116  0.3222749406382661  0.4998353201741068
  0.0397136225575210  0.0835727858838737  0.6050534499453732
  0.1320998985469615  0.8408822199784609  0.6861588446139137
  0.2954576544325676  0.3297998270424358  0.8509266354530212
  0.3765002468796013  0.0805798525536829  0.9347172197718123
  0.4776052669732991  0.8401418466908837  0.5091031650492255
  0.2924767510843651  0.8352867388581871  0.8560885882096230
  0.4708223456967531  0.6859867808502926  0.7867186952858773
  0.2632235490986545  0.6501300103449168  0.5953930547454078
  0.3735604854463475  0.3808277233514161  0.6816526431949939
  0.4614199375725150  0.1630992553022281  0.7733039908476798
  0.1342273104258496  0.6655931995941842  0.9331518360619881
  0.2244828487131016  0.4094406308565652  0.5021205172305088
  0.2888910054795488  0.1580180522378427  0.6008630885495876
  0.3840525286311447  0.9281560435977312  0.7006767702309773
  0.0425052792616185  0.4197602280770312  0.8516875963992447
  0.1269932433822802  0.1709068940646574  0.9344023282692504
  0.1970442324746244  0.9280730949106442  0.5113181998707290
  0.0487755866708142  0.9242424058606886  0.8527219695684067
  0.7206807063597509  0.5828244342248041  0.2664286059343084
  0.5301077370082226  0.6116183356231630  0.1024425880256601
  0.6317854970700054  0.3169273304681326  0.2013114999685257
  0.7114932296792134  0.0832812502702396  0.2725252087326098
  0.8828073705004016  0.5830320921304448  0.4376526736736750
  0.9510402091085766  0.3218470150975961  0.0118030014694455
  0.5400138334932976  0.0870520955728651  0.1044267230869238
  0.6323815435184770  0.8437246007849168  0.1858808456339105
  0.7996453526841094  0.3290437024578878  0.3531285605935466
  0.8750262154437252  0.0797650721851184  0.4353850354106967
  0.9758015467401222  0.8386591131384051  0.0079079676222094
  0.7927069693586049  0.8356388448658620  0.3566082127075845
  0.9703982747007842  0.6849640117362981  0.2868622672341985
  0.7621079876370658  0.6563066009354657  0.0949304675037510
  0.8771902622098295  0.3819086023735139  0.1860946291060941
  0.9623331960321906  0.1623228118398643  0.2741396791084156
  0.6368225657283162  0.6678010436766471  0.4340588317334308
  0.7225842933998976  0.4121394166199934  0.0104931294677471
  0.7904574412946630  0.1580286897987619  0.1020528047689950
  0.8843889697470431  0.9285468645565302  0.2020385585177351
  0.5546683311343656  0.4230977654575057  0.3516555180076395
  0.6273056640681247  0.1725050494706863  0.4345270721515959
  0.6960963775750599  0.9328255861242312  0.0104384266330939
  0.5488885216670667  0.9255208456213282  0.3528676907728112
  0.7179242822703813  0.5825527052260924  0.7672764266507528
  0.5347897380227593  0.6107450176433815  0.6013398715948881
  0.6288805550223628  0.3197364650193535  0.6982628968842235
  0.7118367307276614  0.0841761924038735  0.7720319797831721
  0.8810384470711270  0.5843152508609180  0.9372886103808256
  0.9485301157833845  0.3185343526585811  0.5118175561586682
  0.5396722347186227  0.0896462189282943  0.6026647099505595
  0.6320614320042921  0.8438933132899393  0.6859340378439640
  0.7953063876404087  0.3308798402703133  0.8527850779489583
  0.8769001236540461  0.0820621637179357  0.9353217734177051
  0.9751405230262549  0.8370695725024007  0.5087561912678567
  0.7921645984074743  0.8358842972982643  0.8568844051610043
  0.9711112034749689  0.6850449201036568  0.7870280617043122
  0.7652761976369646  0.6566518550404936  0.5959526880461610
  0.8729389569215940  0.3823485845165280  0.6865756379838928
  0.9617072970954936  0.1634141636463511  0.7744982223420038
  0.6333265552839009  0.6657537390147823  0.9335880720703003
  0.7247066022210547  0.4128063527125079  0.5110507964687869
  0.7902183681657675  0.1575862453020846  0.6025097808301965
  0.8842844791650109  0.9280808017153461  0.7031907628357175
  0.5420692175972306  0.4201425187622405  0.8505683859024558
  0.6266848755516250  0.1710800828293770  0.9343750894211027
  0.6964189277536548  0.9332817548020387  0.5107072145898002
  0.5482274103558780  0.9245799301980071  0.8523705027884887
 
  0.00000000E+00  0.00000000E+00  0.00000000E+00
  0.00000000E+00  0.00000000E+00  0.00000000E+00
  0.00000000E+00  0.00000000E+00  0.00000000E+00
  0.00000000E+00  0.00000000E+00  0.00000000E+00
  0.00000000E+00  0.00000000E+00  0.00000000E+00
  0.00000000E+00  0.00000000E+00  0.00000000E+00
  0.00000000E+00  0.00000000E+00  0.00000000E+00
  0.00000000E+00  0.00000000E+00  0.00000000E+00
  0.00000000E+00  0.00000000E+00  0.00000000E+00
  0.00000000E+00  0.00000000E+00  0.00000000E+00
  0.00000000E+00  0.00000000E+00  0.00000000E+00
  0.00000000E+00  0.00000000E+00  0.00000000E+00
  0.00000000E+00  0.00000000E+00  0.00000000E+00
  0.00000000E+00  0.00000000E+00  0.00000000E+00
  0.00000000E+00  0.00000000E+00  0.00000000E+00
  0.00000000E+00  0.00000000E+00  0.00000000E+00
  0.00000000E+00  0.00000000E+00  0.00000000E+00
  0.00000000E+00  0.00000000E+00  0.00000000E+00
  0.00000000E+00  0.00000000E+00  0.00000000E+00
  0.00000000E+00  0.00000000E+00  0.00000000E+00
  0.00000000E+00  0.00000000E+00  0.00000000E+00
  0.00000000E+00  0.00000000E+00  0.00000000E+00
  0.00000000E+00  0.00000000E+00  0.00000000E+00
  0.00000000E+00  0.00000000E+00  0.00000000E+00
  0.00000000E+00  0.00000000E+00  0.00000000E+00
  0.00000000E+00  0.00000000E+00  0.00000000E+00
  0.00000000E+00  0.00000000E+00  0.00000000E+00
  0.00000000E+00  0.00000000E+00  0.00000000E+00
  0.00000000E+00  0.00000000E+00  0.00000000E+00
  0.00000000E+00  0.00000000E+00  0.00000000E+00
  0.00000000E+00  0.00000000E+00  0.00000000E+00
  0.00000000E+00  0.00000000E+00  0.00000000E+00
  0.00000000E+00  0.00000000E+00  0.00000000E+00
  0.00000000E+00  0.00000000E+00  0.00000000E+00
  0.00000000E+00  0.00000000E+00  0.00000000E+00
  0.00000000E+00  0.00000000E+00  0.00000000E+00
  0.00000000E+00  0.00000000E+00  0.00000000E+00
  0.00000000E+00  0.00000000E+00  0.00000000E+00
  0.00000000E+00  0.00000000E+00  0.00000000E+00
  0.00000000E+00  0.00000000E+00  0.00000000E+00
  0.00000000E+00  0.00000000E+00  0.00000000E+00
  0.00000000E+00  0.00000000E+00  0.00000000E+00
  0.00000000E+00  0.00000000E+00  0.00000000E+00
  0.00000000E+00  0.00000000E+00  0.00000000E+00
  0.00000000E+00  0.00000000E+00  0.00000000E+00
  0.00000000E+00  0.00000000E+00  0.00000000E+00
  0.00000000E+00  0.00000000E+00  0.00000000E+00
  0.00000000E+00  0.00000000E+00  0.00000000E+00
  0.00000000E+00  0.00000000E+00  0.00000000E+00
  0.00000000E+00  0.00000000E+00  0.00000000E+00
  0.00000000E+00  0.00000000E+00  0.00000000E+00
  0.00000000E+00  0.00000000E+00  0.00000000E+00
  0.00000000E+00  0.00000000E+00  0.00000000E+00
  0.00000000E+00  0.00000000E+00  0.00000000E+00
  0.00000000E+00  0.00000000E+00  0.00000000E+00
  0.00000000E+00  0.00000000E+00  0.00000000E+00
  0.00000000E+00  0.00000000E+00  0.00000000E+00
  0.00000000E+00  0.00000000E+00  0.00000000E+00
  0.00000000E+00  0.00000000E+00  0.00000000E+00
  0.00000000E+00  0.00000000E+00  0.00000000E+00
  0.00000000E+00  0.00000000E+00  0.00000000E+00
  0.00000000E+00  0.00000000E+00  0.00000000E+00
  0.00000000E+00  0.00000000E+00  0.00000000E+00
  0.00000000E+00  0.00000000E+00  0.00000000E+00
  0.00000000E+00  0.00000000E+00  0.00000000E+00
  0.00000000E+00  0.00000000E+00  0.00000000E+00
  0.00000000E+00  0.00000000E+00  0.00000000E+00
  0.00000000E+00  0.00000000E+00  0.00000000E+00
  0.00000000E+00  0.00000000E+00  0.00000000E+00
  0.00000000E+00  0.00000000E+00  0.00000000E+00
  0.00000000E+00  0.00000000E+00  0.00000000E+00
  0.00000000E+00  0.00000000E+00  0.00000000E+00
  0.00000000E+00  0.00000000E+00  0.00000000E+00
  0.00000000E+00  0.00000000E+00  0.00000000E+00
  0.00000000E+00  0.00000000E+00  0.00000000E+00
  0.00000000E+00  0.00000000E+00  0.00000000E+00
  0.00000000E+00  0.00000000E+00  0.00000000E+00
  0.00000000E+00  0.00000000E+00  0.00000000E+00
  0.00000000E+00  0.00000000E+00  0.00000000E+00
  0.00000000E+00  0.00000000E+00  0.00000000E+00
  0.00000000E+00  0.00000000E+00  0.00000000E+00
  0.00000000E+00  0.00000000E+00  0.00000000E+00
  0.00000000E+00  0.00000000E+00  0.00000000E+00
  0.00000000E+00  0.00000000E+00  0.00000000E+00
  0.00000000E+00  0.00000000E+00  0.00000000E+00
  0.00000000E+00  0.00000000E+00  0.00000000E+00
  0.00000000E+00  0.00000000E+00  0.00000000E+00
  0.00000000E+00  0.00000000E+00  0.00000000E+00
  0.00000000E+00  0.00000000E+00  0.00000000E+00
  0.00000000E+00  0.00000000E+00  0.00000000E+00
  0.00000000E+00  0.00000000E+00  0.00000000E+00
  0.00000000E+00  0.00000000E+00  0.00000000E+00
  0.00000000E+00  0.00000000E+00  0.00000000E+00
  0.00000000E+00  0.00000000E+00  0.00000000E+00
  0.00000000E+00  0.00000000E+00  0.00000000E+00
  0.00000000E+00  0.00000000E+00  0.00000000E+00
  0.00000000E+00  0.00000000E+00  0.00000000E+00
  0.00000000E+00  0.00000000E+00  0.00000000E+00
  0.00000000E+00  0.00000000E+00  0.00000000E+00
  0.00000000E+00  0.00000000E+00  0.00000000E+00
  0.00000000E+00  0.00000000E+00  0.00000000E+00
  0.00000000E+00  0.00000000E+00  0.00000000E+00
  0.00000000E+00  0.00000000E+00  0.00000000E+00
  0.00000000E+00  0.00000000E+00  0.00000000E+00
  0.00000000E+00  0.00000000E+00  0.00000000E+00
  0.00000000E+00  0.00000000E+00  0.00000000E+00
  0.00000000E+00  0.00000000E+00  0.00000000E+00
  0.00000000E+00  0.00000000E+00  0.00000000E+00
  0.00000000E+00  0.00000000E+00  0.00000000E+00
  0.00000000E+00  0.00000000E+00  0.00000000E+00
  0.00000000E+00  0.00000000E+00  0.00000000E+00
  0.00000000E+00  0.00000000E+00  0.00000000E+00
  0.00000000E+00  0.00000000E+00  0.00000000E+00
  0.00000000E+00  0.00000000E+00  0.00000000E+00
  0.00000000E+00  0.00000000E+00  0.00000000E+00
  0.00000000E+00  0.00000000E+00  0.00000000E+00
  0.00000000E+00  0.00000000E+00  0.00000000E+00
  0.00000000E+00  0.00000000E+00  0.00000000E+00
  0.00000000E+00  0.00000000E+00  0.00000000E+00
  0.00000000E+00  0.00000000E+00  0.00000000E+00
  0.00000000E+00  0.00000000E+00  0.00000000E+00
  0.00000000E+00  0.00000000E+00  0.00000000E+00
  0.00000000E+00  0.00000000E+00  0.00000000E+00
  0.00000000E+00  0.00000000E+00  0.00000000E+00
  0.00000000E+00  0.00000000E+00  0.00000000E+00
  0.00000000E+00  0.00000000E+00  0.00000000E+00
  0.00000000E+00  0.00000000E+00  0.00000000E+00
  0.00000000E+00  0.00000000E+00  0.00000000E+00
  0.00000000E+00  0.00000000E+00  0.00000000E+00
  0.00000000E+00  0.00000000E+00  0.00000000E+00
  0.00000000E+00  0.00000000E+00  0.00000000E+00
  0.00000000E+00  0.00000000E+00  0.00000000E+00
  0.00000000E+00  0.00000000E+00  0.00000000E+00
  0.00000000E+00  0.00000000E+00  0.00000000E+00
  0.00000000E+00  0.00000000E+00  0.00000000E+00
  0.00000000E+00  0.00000000E+00  0.00000000E+00
  0.00000000E+00  0.00000000E+00  0.00000000E+00
  0.00000000E+00  0.00000000E+00  0.00000000E+00
  0.00000000E+00  0.00000000E+00  0.00000000E+00
  0.00000000E+00  0.00000000E+00  0.00000000E+00
  0.00000000E+00  0.00000000E+00  0.00000000E+00
  0.00000000E+00  0.00000000E+00  0.00000000E+00
  0.00000000E+00  0.00000000E+00  0.00000000E+00
  0.00000000E+00  0.00000000E+00  0.00000000E+00
  0.00000000E+00  0.00000000E+00  0.00000000E+00
  0.00000000E+00  0.00000000E+00  0.00000000E+00
  0.00000000E+00  0.00000000E+00  0.00000000E+00
  0.00000000E+00  0.00000000E+00  0.00000000E+00
  0.00000000E+00  0.00000000E+00  0.00000000E+00
  0.00000000E+00  0.00000000E+00  0.00000000E+00
  0.00000000E+00  0.00000000E+00  0.00000000E+00
  0.00000000E+00  0.00000000E+00  0.00000000E+00
  0.00000000E+00  0.00000000E+00  0.00000000E+00
  0.00000000E+00  0.00000000E+00  0.00000000E+00
  0.00000000E+00  0.00000000E+00  0.00000000E+00
  0.00000000E+00  0.00000000E+00  0.00000000E+00
  0.00000000E+00  0.00000000E+00  0.00000000E+00
  0.00000000E+00  0.00000000E+00  0.00000000E+00
  0.00000000E+00  0.00000000E+00  0.00000000E+00
  0.00000000E+00  0.00000000E+00  0.00000000E+00
  0.00000000E+00  0.00000000E+00  0.00000000E+00
  0.00000000E+00  0.00000000E+00  0.00000000E+00
  0.00000000E+00  0.00000000E+00  0.00000000E+00
  0.00000000E+00  0.00000000E+00  0.00000000E+00
  0.00000000E+00  0.00000000E+00  0.00000000E+00
  0.00000000E+00  0.00000000E+00  0.00000000E+00
  0.00000000E+00  0.00000000E+00  0.00000000E+00
  0.00000000E+00  0.00000000E+00  0.00000000E+00
  0.00000000E+00  0.00000000E+00  0.00000000E+00
  0.00000000E+00  0.00000000E+00  0.00000000E+00
  0.00000000E+00  0.00000000E+00  0.00000000E+00
  0.00000000E+00  0.00000000E+00  0.00000000E+00
  0.00000000E+00  0.00000000E+00  0.00000000E+00
  0.00000000E+00  0.00000000E+00  0.00000000E+00
  0.00000000E+00  0.00000000E+00  0.00000000E+00
  0.00000000E+00  0.00000000E+00  0.00000000E+00
  0.00000000E+00  0.00000000E+00  0.00000000E+00
  0.00000000E+00  0.00000000E+00  0.00000000E+00
  0.00000000E+00  0.00000000E+00  0.00000000E+00
  0.00000000E+00  0.00000000E+00  0.00000000E+00
  0.00000000E+00  0.00000000E+00  0.00000000E+00
  0.00000000E+00  0.00000000E+00  0.00000000E+00
  0.00000000E+00  0.00000000E+00  0.00000000E+00
  0.00000000E+00  0.00000000E+00  0.00000000E+00
  0.00000000E+00  0.00000000E+00  0.00000000E+00
  0.00000000E+00  0.00000000E+00  0.00000000E+00
  0.00000000E+00  0.00000000E+00  0.00000000E+00
  0.00000000E+00  0.00000000E+00  0.00000000E+00
  0.00000000E+00  0.00000000E+00  0.00000000E+00
  0.00000000E+00  0.00000000E+00  0.00000000E+00
  0.00000000E+00  0.00000000E+00  0.00000000E+00
