supercell of icsd_191774.cif            
   1.00000000000000     
    10.9530799390094469   -0.0174390819914434    0.0173776408912345
    -5.4916349959659394    9.5020163315058195   -0.0126807369966103
     0.0192591800047674   -0.0053399878819791   11.2611001895439191
   N    In   Y 
    36    24    12
Direct
  0.2195976811041760  0.1116936598265426  0.4450679785224736
  0.1219113394060543  0.2256480776528988  0.1875349739058976
  0.8844911303502272  0.1093009790152593  0.9534482998469684
  0.7721555384919228  0.2199323920128009  0.6866770699811369
  0.5399243014333308  0.1013316920796683  0.4417655007452836
  0.4430394773444561  0.2220114813204006  0.1958482361495655
  0.2222966369056252  0.1026350110320706  0.9378288263874595
  0.1174885193658710  0.2262829438391947  0.7002700970393150
  0.8934634130851080  0.1137898427069928  0.4432705498038771
  0.7704929171751402  0.2253622425368178  0.2007471263638720
  0.5610314400204004  0.1071529625171408  0.9380758143620014
  0.4445862162828860  0.2157468795670709  0.6935727843061912
  0.2092919711051238  0.4384610264276816  0.4409628338611853
  0.1078740159612295  0.5467569124962353  0.1899279625833543
  0.8872054724129796  0.4430177354610763  0.9478739669130576
  0.7812178768370472  0.5574450506751489  0.6887850915797884
  0.5585287671486228  0.4394118725446532  0.4473248239950749
  0.4404515823762694  0.5446345932463856  0.1974569801531842
  0.2300136618645183  0.4565385443854595  0.9393236567516681
  0.1193087959355097  0.5617325980393062  0.6912197314046580
  0.8943731319175683  0.4529756737130270  0.4412686447086926
  0.7780818939348961  0.5565354120486958  0.1951238400615409
  0.5596102315042160  0.4502210241729330  0.9424987538154852
  0.4443931450605447  0.5634811558416501  0.6878405116198962
  0.2225135695789504  0.7770150737351713  0.4426630569496837
  0.1093096520134722  0.8961752079397201  0.1921842266059457
  0.8898254633665914  0.7769771086791764  0.9469186470494719
  0.7703300248815239  0.8847120428102144  0.6919123792299473
  0.5476601056525539  0.7808179384215066  0.4326898710150360
  0.4433075637922244  0.8984235645124983  0.1846109049308495
  0.2204003119588336  0.7771781956038950  0.9447680077449547
  0.1204072589502445  0.8911596916380731  0.6895291124233154
  0.8950923358181413  0.7760967628696633  0.4431296141965504
  0.7827720819808377  0.8864680791327260  0.1969010396935857
  0.5567720846331312  0.7768019016235428  0.9505964780236766
  0.4459433744356787  0.8875687297366781  0.6952274660267435
  0.2229360769499209  0.1142706028378342  0.2512785785360734
  0.1097921443441265  0.2219718179797212  0.5022611676681876
  0.7748091444145260  0.2216152724938496  0.0043627055979840
  0.5477531781557232  0.1099192282161141  0.2497427419575473
  0.4397661679031515  0.2162669619808000  0.4987483965925676
  0.2257822954519213  0.1079587154016011  0.7452988139913685
  0.5555773347161903  0.1074025706006125  0.7452848713948725
  0.2177205882898363  0.4386100807598012  0.2480905897639474
  0.1114166971459554  0.5584401436138222  0.4979943917400362
  0.7784148350314979  0.5574829301231006  0.0024728355033261
  0.5561674792206190  0.4396356287730612  0.2513869143482808
  0.2289054057350910  0.4537877696794865  0.7463714109147048
  0.1116741743069198  0.5555466139533323  0.9975961244848577
  0.8889624844790447  0.4472801894874010  0.2469128416509321
  0.7821946578490468  0.5567957558007564  0.4960345686795904
  0.4464291890919512  0.5548955401528630  0.0009730820592040
  0.1156247159812978  0.8887696823336455  0.4975925420253091
  0.7799336587922951  0.8871097192930790  0.0018734267910929
  0.4391726068223392  0.8853391912292778  0.5006014564705410
  0.2264299472986977  0.7800814253456139  0.7488989590427408
  0.1105815414766909  0.8894258735338170  0.9994973021571667
  0.8912478704452766  0.7774398974657686  0.2485560403818852
  0.5534715022447827  0.7770652651598908  0.7523770044952371
  0.4454510279891082  0.8907830656873656  0.9934597212918703
  0.8828419532751042  0.1090378835598500  0.7486288858545649
  0.1183292074306692  0.2266341390240854  0.9889112540625078
  0.8953677740398618  0.1160752660071935  0.2412758255437453
  0.7710513803564396  0.2221874907699544  0.4870757776577079
  0.4483330876183089  0.2207230295503422  0.9958209112310499
  0.8904910022983117  0.4442234682351582  0.7465774371277902
  0.4385811046609049  0.5544808872115325  0.4880071315904928
  0.5545777858570702  0.4466387606090407  0.7409875213311423
  0.2181815201406181  0.7773091261149219  0.2426186827323917
  0.8922246168569430  0.7801814980802888  0.7463289444365273
  0.5510094806301709  0.7779789885185693  0.2338992668728537
  0.7736333786136811  0.8851414605545074  0.4911570152685272
 
  0.00000000E+00  0.00000000E+00  0.00000000E+00
  0.00000000E+00  0.00000000E+00  0.00000000E+00
  0.00000000E+00  0.00000000E+00  0.00000000E+00
  0.00000000E+00  0.00000000E+00  0.00000000E+00
  0.00000000E+00  0.00000000E+00  0.00000000E+00
  0.00000000E+00  0.00000000E+00  0.00000000E+00
  0.00000000E+00  0.00000000E+00  0.00000000E+00
  0.00000000E+00  0.00000000E+00  0.00000000E+00
  0.00000000E+00  0.00000000E+00  0.00000000E+00
  0.00000000E+00  0.00000000E+00  0.00000000E+00
  0.00000000E+00  0.00000000E+00  0.00000000E+00
  0.00000000E+00  0.00000000E+00  0.00000000E+00
  0.00000000E+00  0.00000000E+00  0.00000000E+00
  0.00000000E+00  0.00000000E+00  0.00000000E+00
  0.00000000E+00  0.00000000E+00  0.00000000E+00
  0.00000000E+00  0.00000000E+00  0.00000000E+00
  0.00000000E+00  0.00000000E+00  0.00000000E+00
  0.00000000E+00  0.00000000E+00  0.00000000E+00
  0.00000000E+00  0.00000000E+00  0.00000000E+00
  0.00000000E+00  0.00000000E+00  0.00000000E+00
  0.00000000E+00  0.00000000E+00  0.00000000E+00
  0.00000000E+00  0.00000000E+00  0.00000000E+00
  0.00000000E+00  0.00000000E+00  0.00000000E+00
  0.00000000E+00  0.00000000E+00  0.00000000E+00
  0.00000000E+00  0.00000000E+00  0.00000000E+00
  0.00000000E+00  0.00000000E+00  0.00000000E+00
  0.00000000E+00  0.00000000E+00  0.00000000E+00
  0.00000000E+00  0.00000000E+00  0.00000000E+00
  0.00000000E+00  0.00000000E+00  0.00000000E+00
  0.00000000E+00  0.00000000E+00  0.00000000E+00
  0.00000000E+00  0.00000000E+00  0.00000000E+00
  0.00000000E+00  0.00000000E+00  0.00000000E+00
  0.00000000E+00  0.00000000E+00  0.00000000E+00
  0.00000000E+00  0.00000000E+00  0.00000000E+00
  0.00000000E+00  0.00000000E+00  0.00000000E+00
  0.00000000E+00  0.00000000E+00  0.00000000E+00
  0.00000000E+00  0.00000000E+00  0.00000000E+00
  0.00000000E+00  0.00000000E+00  0.00000000E+00
  0.00000000E+00  0.00000000E+00  0.00000000E+00
  0.00000000E+00  0.00000000E+00  0.00000000E+00
  0.00000000E+00  0.00000000E+00  0.00000000E+00
  0.00000000E+00  0.00000000E+00  0.00000000E+00
  0.00000000E+00  0.00000000E+00  0.00000000E+00
  0.00000000E+00  0.00000000E+00  0.00000000E+00
  0.00000000E+00  0.00000000E+00  0.00000000E+00
  0.00000000E+00  0.00000000E+00  0.00000000E+00
  0.00000000E+00  0.00000000E+00  0.00000000E+00
  0.00000000E+00  0.00000000E+00  0.00000000E+00
  0.00000000E+00  0.00000000E+00  0.00000000E+00
  0.00000000E+00  0.00000000E+00  0.00000000E+00
  0.00000000E+00  0.00000000E+00  0.00000000E+00
  0.00000000E+00  0.00000000E+00  0.00000000E+00
  0.00000000E+00  0.00000000E+00  0.00000000E+00
  0.00000000E+00  0.00000000E+00  0.00000000E+00
  0.00000000E+00  0.00000000E+00  0.00000000E+00
  0.00000000E+00  0.00000000E+00  0.00000000E+00
  0.00000000E+00  0.00000000E+00  0.00000000E+00
  0.00000000E+00  0.00000000E+00  0.00000000E+00
  0.00000000E+00  0.00000000E+00  0.00000000E+00
  0.00000000E+00  0.00000000E+00  0.00000000E+00
  0.00000000E+00  0.00000000E+00  0.00000000E+00
  0.00000000E+00  0.00000000E+00  0.00000000E+00
  0.00000000E+00  0.00000000E+00  0.00000000E+00
  0.00000000E+00  0.00000000E+00  0.00000000E+00
  0.00000000E+00  0.00000000E+00  0.00000000E+00
  0.00000000E+00  0.00000000E+00  0.00000000E+00
  0.00000000E+00  0.00000000E+00  0.00000000E+00
  0.00000000E+00  0.00000000E+00  0.00000000E+00
  0.00000000E+00  0.00000000E+00  0.00000000E+00
  0.00000000E+00  0.00000000E+00  0.00000000E+00
  0.00000000E+00  0.00000000E+00  0.00000000E+00
  0.00000000E+00  0.00000000E+00  0.00000000E+00
