supercell of 100% icsd_608626.cif, 0% i 
   1.00000000000000     
    -9.4796094982458676   -0.0003892627977146    0.0013103239141280
    -4.7394678611912884    8.2128130896830989    0.0005099463317249
     0.0013935509403579    0.0001737389178853  -10.0987651001452701
   Al   Ti   Sr   N 
    34     1     1    36
Direct
  0.1110968611082797  0.0946181088903018  0.2976122344006242
  0.2232892034047680  0.2020578376796038  0.0442257863728273
  0.7777176615253865  0.0935500830865763  0.7932173755523095
  0.8892905265190123  0.2045647843737868  0.5476651712261145
  0.4439214988373053  0.0951804864180232  0.2977035374655657
  0.5594888176587887  0.1975979688874290  0.0436116606946726
  0.1120104578241410  0.0942869905424359  0.7930910526203903
  0.2184395295308121  0.2040334241046295  0.5478055067065952
  0.7783562061786853  0.0939557786469010  0.2974722214641616
  0.8919969877874792  0.2010967651332791  0.0448769437318148
  0.4440127711027628  0.0943682087651752  0.7947521586768147
  0.5607730481210425  0.2036714904130719  0.5480590749215253
  0.1097327306101690  0.4253418241816220  0.2841454741505700
  0.2179927495361866  0.5403767741681875  0.0520728763092322
  0.7818722248664045  0.4260032329798520  0.7916649184649742
  0.8874281757997835  0.5357698260363861  0.5480634711212460
  0.4475800267974535  0.4243088715118333  0.2875799044829250
  0.1083591218392215  0.4241025978061188  0.8011530555038888
  0.7807613954492538  0.4260812521598822  0.3011267622224665
  0.8883532847324531  0.5411910716302941  0.0434929946485028
  0.4480093698691761  0.4226795223739259  0.7997138577844396
  0.5603718655539325  0.5355695453666840  0.5475291503985460
  0.1091472714623265  0.7649714227031765  0.2841375645825437
  0.2190120938848423  0.8778923888345531  0.0436228272776020
  0.7777174780829554  0.7615060249545067  0.7948136553144778
  0.8871204889183133  0.8776254351025941  0.5478235438162073
  0.4428029027199543  0.7634246036015000  0.3009625383324135
  0.5564934649991855  0.8753418361951688  0.0451209490153985
  0.1074443339265940  0.7674288480830640  0.8010603359279003
  0.2176016180417122  0.8777529267464175  0.5480103109604286
  0.7787416363836712  0.7608420799156121  0.2975661443771855
  0.8854313539583316  0.8745977525829360  0.0443799576164636
  0.4424868900848651  0.7652808076654196  0.7935405461164891
  0.5560406786568848  0.8727540155997957  0.5463083128512451
  0.5582652791339200  0.5403921535253531  0.0484789527140066
  0.2203941585501425  0.5395562750680440  0.5396010685834582
  0.2215566499148593  0.2073286049681826  0.3545353017970783
  0.1106605339919682  0.0950363330514747  0.1069975349145409
  0.8889977314267270  0.2053885651484180  0.8543273617080800
  0.7774654040867404  0.0945600124484116  0.6039501030914067
  0.5549612372710229  0.2068187512553763  0.3547631923077432
  0.4444405690779192  0.0942506545185964  0.1068415569688739
  0.2251084436781312  0.2004071918145414  0.8571572906298925
  0.1112184574231492  0.0943569451692596  0.6039057083046089
  0.8892664062505844  0.2048958079227319  0.3560240359259552
  0.7780409919641684  0.0947201657803163  0.1066112601499540
  0.5575798179270066  0.2005518180672965  0.8569288393414709
  0.4439914282674735  0.0952464942274958  0.6038662441815674
  0.2226208604315332  0.5387087994329178  0.3037733551218551
  0.1075404780799474  0.4234955324151954  0.0955969746883767
  0.8837176039094246  0.5417843275470133  0.8569300682593948
  0.7773463222545871  0.4279276812462669  0.6029329428375618
  0.5549583378296674  0.5382350233643223  0.3517795433875861
  0.4500066994081919  0.4208387063513328  0.0961831357688254
  0.2220812165831063  0.5388980440521678  0.8546947692003997
  0.0905922021892565  0.4074123429436227  0.6202462784403338
  0.8913315582543504  0.5382575175387387  0.3547886775511628
  0.7846697077340181  0.4235351034750465  0.1080754389320902
  0.5579130389629441  0.5415348065167933  0.8565297351806365
  0.4838117554301036  0.4084955682571305  0.6192684461790918
  0.2209993780199682  0.8714321358216282  0.3549539756209228
  0.1071898731940308  0.7690045107397907  0.0954494399927839
  0.8837339165479676  0.8744227356003833  0.8573008002739826
  0.7784258003738600  0.7608351151362314  0.6038756160343297
  0.5559071128886188  0.8724762552398246  0.3557271057244336
  0.4408523271371863  0.7685550528425793  0.1080419860494359
  0.2249353237429332  0.8743780621558344  0.8569581586658899
  0.0906908724582607  0.8013614071269828  0.6200541319863788
  0.8909460437063430  0.8709660301395274  0.3544996525622253
  0.7770938750340051  0.7611976276726082  0.1064420400887585
  0.5555389820480059  0.8722600027952012  0.8547146959098271
  0.4442548790457721  0.7606532514826299  0.6032127058164463
 
  0.00000000E+00  0.00000000E+00  0.00000000E+00
  0.00000000E+00  0.00000000E+00  0.00000000E+00
  0.00000000E+00  0.00000000E+00  0.00000000E+00
  0.00000000E+00  0.00000000E+00  0.00000000E+00
  0.00000000E+00  0.00000000E+00  0.00000000E+00
  0.00000000E+00  0.00000000E+00  0.00000000E+00
  0.00000000E+00  0.00000000E+00  0.00000000E+00
  0.00000000E+00  0.00000000E+00  0.00000000E+00
  0.00000000E+00  0.00000000E+00  0.00000000E+00
  0.00000000E+00  0.00000000E+00  0.00000000E+00
  0.00000000E+00  0.00000000E+00  0.00000000E+00
  0.00000000E+00  0.00000000E+00  0.00000000E+00
  0.00000000E+00  0.00000000E+00  0.00000000E+00
  0.00000000E+00  0.00000000E+00  0.00000000E+00
  0.00000000E+00  0.00000000E+00  0.00000000E+00
  0.00000000E+00  0.00000000E+00  0.00000000E+00
  0.00000000E+00  0.00000000E+00  0.00000000E+00
  0.00000000E+00  0.00000000E+00  0.00000000E+00
  0.00000000E+00  0.00000000E+00  0.00000000E+00
  0.00000000E+00  0.00000000E+00  0.00000000E+00
  0.00000000E+00  0.00000000E+00  0.00000000E+00
  0.00000000E+00  0.00000000E+00  0.00000000E+00
  0.00000000E+00  0.00000000E+00  0.00000000E+00
  0.00000000E+00  0.00000000E+00  0.00000000E+00
  0.00000000E+00  0.00000000E+00  0.00000000E+00
  0.00000000E+00  0.00000000E+00  0.00000000E+00
  0.00000000E+00  0.00000000E+00  0.00000000E+00
  0.00000000E+00  0.00000000E+00  0.00000000E+00
  0.00000000E+00  0.00000000E+00  0.00000000E+00
  0.00000000E+00  0.00000000E+00  0.00000000E+00
  0.00000000E+00  0.00000000E+00  0.00000000E+00
  0.00000000E+00  0.00000000E+00  0.00000000E+00
  0.00000000E+00  0.00000000E+00  0.00000000E+00
  0.00000000E+00  0.00000000E+00  0.00000000E+00
  0.00000000E+00  0.00000000E+00  0.00000000E+00
  0.00000000E+00  0.00000000E+00  0.00000000E+00
  0.00000000E+00  0.00000000E+00  0.00000000E+00
  0.00000000E+00  0.00000000E+00  0.00000000E+00
  0.00000000E+00  0.00000000E+00  0.00000000E+00
  0.00000000E+00  0.00000000E+00  0.00000000E+00
  0.00000000E+00  0.00000000E+00  0.00000000E+00
  0.00000000E+00  0.00000000E+00  0.00000000E+00
  0.00000000E+00  0.00000000E+00  0.00000000E+00
  0.00000000E+00  0.00000000E+00  0.00000000E+00
  0.00000000E+00  0.00000000E+00  0.00000000E+00
  0.00000000E+00  0.00000000E+00  0.00000000E+00
  0.00000000E+00  0.00000000E+00  0.00000000E+00
  0.00000000E+00  0.00000000E+00  0.00000000E+00
  0.00000000E+00  0.00000000E+00  0.00000000E+00
  0.00000000E+00  0.00000000E+00  0.00000000E+00
  0.00000000E+00  0.00000000E+00  0.00000000E+00
  0.00000000E+00  0.00000000E+00  0.00000000E+00
  0.00000000E+00  0.00000000E+00  0.00000000E+00
  0.00000000E+00  0.00000000E+00  0.00000000E+00
  0.00000000E+00  0.00000000E+00  0.00000000E+00
  0.00000000E+00  0.00000000E+00  0.00000000E+00
  0.00000000E+00  0.00000000E+00  0.00000000E+00
  0.00000000E+00  0.00000000E+00  0.00000000E+00
  0.00000000E+00  0.00000000E+00  0.00000000E+00
  0.00000000E+00  0.00000000E+00  0.00000000E+00
  0.00000000E+00  0.00000000E+00  0.00000000E+00
  0.00000000E+00  0.00000000E+00  0.00000000E+00
  0.00000000E+00  0.00000000E+00  0.00000000E+00
  0.00000000E+00  0.00000000E+00  0.00000000E+00
  0.00000000E+00  0.00000000E+00  0.00000000E+00
  0.00000000E+00  0.00000000E+00  0.00000000E+00
  0.00000000E+00  0.00000000E+00  0.00000000E+00
  0.00000000E+00  0.00000000E+00  0.00000000E+00
  0.00000000E+00  0.00000000E+00  0.00000000E+00
  0.00000000E+00  0.00000000E+00  0.00000000E+00
  0.00000000E+00  0.00000000E+00  0.00000000E+00
  0.00000000E+00  0.00000000E+00  0.00000000E+00
