supercell of 100% icsd_608626.cif, 0% i 
   1.00000000000000     
    -9.4781714362041409   -0.0004934060443763   -0.0008580663678806
    -4.7386561761229906    8.2064531751537118   -0.0041805692598639
    -0.0009227564685584    0.0046288122918445  -10.1067249163343558
   Al   Sr   Ti   N 
    34     1     1    36
Direct
  0.1114661525770586  0.0921302639740418  0.2966228211171540
  0.2216735103330478  0.2060889763617553  0.0465588120575831
  0.7769624322784949  0.0920303334032369  0.7944224553755888
  0.8924256650678259  0.1986308625083026  0.5517377597824762
  0.4445592281399797  0.0981117450422673  0.2957699786339703
  0.5566869563263737  0.2053752420186470  0.0462801638810646
  0.1141303438744430  0.0930612815151548  0.7947044725644261
  0.2226882374269366  0.2056353692140789  0.5459407869862929
  0.7823999340885877  0.0883337300845568  0.2972683605369895
  0.8903534326614704  0.2021164655352905  0.0335195492829143
  0.4440715048764119  0.0955557788436820  0.7962148365547179
  0.5559197734640975  0.2057361149065144  0.5460325955684198
  0.1125379994735880  0.4308685048030299  0.2974475463919362
  0.2216296766492292  0.5388434446348356  0.0460833954991458
  0.7788966503292016  0.4272314889470366  0.8011775435902138
  0.8924514215493531  0.5418060783437610  0.5510433739856069
  0.4371766740064871  0.4282593150232330  0.2955102609028302
  0.5537232064021111  0.5374816025242595  0.0312453895165206
  0.1143109402008662  0.4266737670466014  0.7944375291195982
  0.2219360027674782  0.5380614457818069  0.5445568922750255
  0.8908054240271710  0.5401255378612149  0.0339923037762020
  0.4415251518487651  0.4264247921759221  0.7943780096354658
  0.5503743640198095  0.5409581348036099  0.5573341617479812
  0.1078774928390089  0.7592269739304598  0.2967087739194696
  0.2186267108601001  0.8734222222334012  0.0442230392753302
  0.7779536737357020  0.7636860124655911  0.7947211814401243
  0.8881735867217060  0.8727291030278010  0.5444719668508995
  0.5573773020313695  0.8730097129890666  0.0446800441760757
  0.1105332047799905  0.7605832439075328  0.7959500019266841
  0.2198409985236509  0.8737107996644795  0.5487651573839685
  0.7847369017433365  0.7614331361705311  0.2970089396609978
  0.8887572931391574  0.8723613720665711  0.0463496900992766
  0.4419701460400560  0.7649646155755008  0.7943699245022415
  0.5571721666303944  0.8744590991273711  0.5497506582340534
  0.7779186921178081  0.4250082914483713  0.2911118481529016
  0.4395369125405324  0.7648423145929826  0.2997884422911596
  0.2225551194770148  0.2050900994037690  0.3540084632457408
  0.1097129899119196  0.0949904035256637  0.1045752092786429
  0.8925727812980995  0.1983545765475938  0.8454084041775403
  0.7751538478431002  0.0923225331616493  0.6070437004105216
  0.5570239709524785  0.2069915346201157  0.3541576654752205
  0.4448723000184032  0.0941972539971943  0.1057376689638545
  0.2228406393464013  0.2052939715462045  0.8565821870628341
  0.1159051462286484  0.0929354916736713  0.6074118767382544
  0.9103007985387563  0.1638406339451919  0.3701401343856929
  0.7787878220274322  0.0952730670317692  0.1046846156343690
  0.5555141751716235  0.2054769221523784  0.8564030716599831
  0.4443011835312092  0.0957603960580329  0.6054004536939672
  0.2224647028359144  0.5384695036401013  0.3543873562468036
  0.1095334984366687  0.4282547308876730  0.1048590777763820
  0.8926820729176015  0.5420884994731381  0.8457019516747906
  0.7779506437466992  0.4275273639332724  0.6026235027267290
  0.5126541433924459  0.5588148071850085  0.3714936646306768
  0.4455679429501203  0.4284943978311233  0.1043271576944065
  0.2219715751216498  0.5391961461221371  0.8564487046141167
  0.1157975905562978  0.4249040860064639  0.6069353012070877
  0.9084346329111739  0.5576650375879879  0.3689272381013637
  0.7776891955783114  0.4276407813700303  0.0567780314962292
  0.5485991252097762  0.5423212875032561  0.8434562907507299
  0.4419354262384161  0.4255343591831107  0.6067767012491458
  0.2167382568836871  0.8732419761199921  0.3566040182460029
  0.1109675244809907  0.7608686410809398  0.1058996593022385
  0.8894144028777617  0.8719515364889716  0.8567143826662829
  0.7762839815330906  0.7651658567019197  0.6075712368389787
  0.5602122394439633  0.8760267699191076  0.3576625397810176
  0.4448885681285404  0.7587952815833461  0.1011266125118340
  0.2217360621577100  0.8719233278719258  0.8552417476254845
  0.1108443854275762  0.7606305672749016  0.6048719401059230
  0.8889617945172361  0.8720816643395111  0.3545981323450107
  0.7782372541222387  0.7593791600736566  0.1046511193678938
  0.5554073978200975  0.8728387974833893  0.8553258599630098
  0.4423070442753456  0.7666813641233503  0.6052856556558552
 
  0.00000000E+00  0.00000000E+00  0.00000000E+00
  0.00000000E+00  0.00000000E+00  0.00000000E+00
  0.00000000E+00  0.00000000E+00  0.00000000E+00
  0.00000000E+00  0.00000000E+00  0.00000000E+00
  0.00000000E+00  0.00000000E+00  0.00000000E+00
  0.00000000E+00  0.00000000E+00  0.00000000E+00
  0.00000000E+00  0.00000000E+00  0.00000000E+00
  0.00000000E+00  0.00000000E+00  0.00000000E+00
  0.00000000E+00  0.00000000E+00  0.00000000E+00
  0.00000000E+00  0.00000000E+00  0.00000000E+00
  0.00000000E+00  0.00000000E+00  0.00000000E+00
  0.00000000E+00  0.00000000E+00  0.00000000E+00
  0.00000000E+00  0.00000000E+00  0.00000000E+00
  0.00000000E+00  0.00000000E+00  0.00000000E+00
  0.00000000E+00  0.00000000E+00  0.00000000E+00
  0.00000000E+00  0.00000000E+00  0.00000000E+00
  0.00000000E+00  0.00000000E+00  0.00000000E+00
  0.00000000E+00  0.00000000E+00  0.00000000E+00
  0.00000000E+00  0.00000000E+00  0.00000000E+00
  0.00000000E+00  0.00000000E+00  0.00000000E+00
  0.00000000E+00  0.00000000E+00  0.00000000E+00
  0.00000000E+00  0.00000000E+00  0.00000000E+00
  0.00000000E+00  0.00000000E+00  0.00000000E+00
  0.00000000E+00  0.00000000E+00  0.00000000E+00
  0.00000000E+00  0.00000000E+00  0.00000000E+00
  0.00000000E+00  0.00000000E+00  0.00000000E+00
  0.00000000E+00  0.00000000E+00  0.00000000E+00
  0.00000000E+00  0.00000000E+00  0.00000000E+00
  0.00000000E+00  0.00000000E+00  0.00000000E+00
  0.00000000E+00  0.00000000E+00  0.00000000E+00
  0.00000000E+00  0.00000000E+00  0.00000000E+00
  0.00000000E+00  0.00000000E+00  0.00000000E+00
  0.00000000E+00  0.00000000E+00  0.00000000E+00
  0.00000000E+00  0.00000000E+00  0.00000000E+00
  0.00000000E+00  0.00000000E+00  0.00000000E+00
  0.00000000E+00  0.00000000E+00  0.00000000E+00
  0.00000000E+00  0.00000000E+00  0.00000000E+00
  0.00000000E+00  0.00000000E+00  0.00000000E+00
  0.00000000E+00  0.00000000E+00  0.00000000E+00
  0.00000000E+00  0.00000000E+00  0.00000000E+00
  0.00000000E+00  0.00000000E+00  0.00000000E+00
  0.00000000E+00  0.00000000E+00  0.00000000E+00
  0.00000000E+00  0.00000000E+00  0.00000000E+00
  0.00000000E+00  0.00000000E+00  0.00000000E+00
  0.00000000E+00  0.00000000E+00  0.00000000E+00
  0.00000000E+00  0.00000000E+00  0.00000000E+00
  0.00000000E+00  0.00000000E+00  0.00000000E+00
  0.00000000E+00  0.00000000E+00  0.00000000E+00
  0.00000000E+00  0.00000000E+00  0.00000000E+00
  0.00000000E+00  0.00000000E+00  0.00000000E+00
  0.00000000E+00  0.00000000E+00  0.00000000E+00
  0.00000000E+00  0.00000000E+00  0.00000000E+00
  0.00000000E+00  0.00000000E+00  0.00000000E+00
  0.00000000E+00  0.00000000E+00  0.00000000E+00
  0.00000000E+00  0.00000000E+00  0.00000000E+00
  0.00000000E+00  0.00000000E+00  0.00000000E+00
  0.00000000E+00  0.00000000E+00  0.00000000E+00
  0.00000000E+00  0.00000000E+00  0.00000000E+00
  0.00000000E+00  0.00000000E+00  0.00000000E+00
  0.00000000E+00  0.00000000E+00  0.00000000E+00
  0.00000000E+00  0.00000000E+00  0.00000000E+00
  0.00000000E+00  0.00000000E+00  0.00000000E+00
  0.00000000E+00  0.00000000E+00  0.00000000E+00
  0.00000000E+00  0.00000000E+00  0.00000000E+00
  0.00000000E+00  0.00000000E+00  0.00000000E+00
  0.00000000E+00  0.00000000E+00  0.00000000E+00
  0.00000000E+00  0.00000000E+00  0.00000000E+00
  0.00000000E+00  0.00000000E+00  0.00000000E+00
  0.00000000E+00  0.00000000E+00  0.00000000E+00
  0.00000000E+00  0.00000000E+00  0.00000000E+00
  0.00000000E+00  0.00000000E+00  0.00000000E+00
  0.00000000E+00  0.00000000E+00  0.00000000E+00
