supercell of 100% icsd_608626.cif, 0% i 
   1.00000000000000     
    -9.4062887671592037   -0.0020028790350519   -0.0007701024467262
    -4.7014092994638883    8.1466556384247735   -0.0008860720388966
    -0.0008232783536246    0.0006180289567938  -10.0525845401979339
   Al   Mg   Ge   N 
    34     1     1    36
Direct
  0.1087639718117401  0.0970288854034607  0.2951187158280959
  0.2216435550668834  0.2062922661310509  0.0454360300078775
  0.7777908860607923  0.0940232559670449  0.7953513208756746
  0.8897417371596958  0.2036022882135029  0.5454682835089173
  0.4427588029929908  0.0975894438496780  0.2948140845597607
  0.5561066932871981  0.2056246786662470  0.0455126426030716
  0.1113754315019619  0.0946616642348843  0.7954586639130312
  0.2218939806930251  0.2060416141104895  0.5454830394283476
  0.7797383956311279  0.0935854034043757  0.2955118797874476
  0.8881239277651503  0.2066706884225695  0.0435768554081264
  0.4440985255892400  0.0950217765045309  0.7954858749469480
  0.5561093491429645  0.2054867281856616  0.5457660467474383
  0.1098872406912292  0.4295944900642681  0.2959631888248140
  0.2219688792902446  0.5387023753982234  0.0452703088885045
  0.7784244737432573  0.4275002022070851  0.7962710075963031
  0.8900118215621120  0.5394739671471456  0.5450675404067269
  0.4422221590849631  0.4280628803987483  0.2949476272171268
  0.5584297386709522  0.5349231686949878  0.0422661835557960
  0.1115327910888553  0.4277936339538257  0.7951769371456123
  0.2222650461862372  0.5383883665416604  0.5447913813978076
  0.8886688156846603  0.5379618319551014  0.0435370161468853
  0.4437002550490732  0.4276044790078330  0.7950897110800099
  0.5545871752927596  0.5394192486560954  0.5483648177453730
  0.1091340196190842  0.7597639120304436  0.2955691988372635
  0.2187887110414124  0.8740445128403067  0.0444689030253045
  0.7782819782131085  0.7611407152962499  0.7953650218369859
  0.8880507755805027  0.8728291563043769  0.5451285302888849
  0.5573408773408559  0.8735176900749053  0.0446266995992346
  0.1108426069148649  0.7608369364686425  0.7952278367618248
  0.2217626927371654  0.8730721581595517  0.5478630401481936
  0.7824456495583618  0.7580159775696202  0.2951212113506969
  0.8885683722880771  0.8725655902594625  0.0454469715364354
  0.4439397925127082  0.7616148759511248  0.7949834578182049
  0.5558011936957925  0.8722888297322342  0.5485001267674861
  0.7809912002646371  0.4255025127920504  0.2959907210760875
  0.4436772937628533  0.7598581948803158  0.2956887504506724
  0.2224957412765676  0.2054874839364729  0.3544699197173813
  0.1113466504366585  0.0942872714492395  0.1043665110925858
  0.8898868144388814  0.2037396948560826  0.8526101351082715
  0.7769714446783382  0.0938421396333169  0.6058171366557801
  0.5559159199093031  0.2055995637841548  0.3545953917569449
  0.4444550068020092  0.0943404364207936  0.1049321431165637
  0.2225187351714553  0.2055285511252691  0.8550475081438762
  0.1125747790127321  0.0939386145692112  0.6057206145374536
  0.8968566913540954  0.1896868683792050  0.3594137557630219
  0.7778514305302764  0.0943071830464035  0.1041822084636692
  0.5553439816849277  0.2056049878718653  0.8550439102283605
  0.4445484947514373  0.0944153386623512  0.6044187474879408
  0.2226599660829223  0.5387928122144530  0.3543382815321934
  0.1111405794303622  0.4279315844324358  0.1044230018832621
  0.8898568664405317  0.5397500341578976  0.8525275196611943
  0.7777531700868749  0.4276802207045023  0.6040447960669937
  0.5408055743079387  0.5474110593250785  0.3589420184864949
  0.4442963359880423  0.4281316100643693  0.1043957569024769
  0.2221445827557886  0.5392430462295863  0.8548420700912231
  0.1125365221598926  0.4270463029290852  0.6055581148381890
  0.8961036223477379  0.5458735682018343  0.3590566405456741
  0.7776306781079541  0.4278138639365281  0.0916100358381300
  0.5534659541905924  0.5403028974796626  0.8523384702485828
  0.4440990405381555  0.4271977751097396  0.6050451844188558
  0.2235800052686585  0.8721972244005372  0.3543519383365066
  0.1111379515774047  0.7611583263095625  0.1052358283635542
  0.8892248048476219  0.8719797117472723  0.8550615783755262
  0.7768099516233917  0.7624832638920509  0.6055378768297359
  0.5543814701699930  0.8714435152776261  0.3544756477461775
  0.4441711961500019  0.7611314792788093  0.1054334669932118
  0.2225479841785116  0.8718404193588896  0.8550318414881488
  0.1110120047289271  0.7613199874206131  0.6040462419881791
  0.8879065995896980  0.8726070348029680  0.3545959806312311
  0.7776432783604648  0.7610651460910347  0.1044210309885116
  0.5551245638812858  0.8722247884393113  0.8551070238583804
  0.4437327905640984  0.7624917949840864  0.6052520446986875
 
  0.00000000E+00  0.00000000E+00  0.00000000E+00
  0.00000000E+00  0.00000000E+00  0.00000000E+00
  0.00000000E+00  0.00000000E+00  0.00000000E+00
  0.00000000E+00  0.00000000E+00  0.00000000E+00
  0.00000000E+00  0.00000000E+00  0.00000000E+00
  0.00000000E+00  0.00000000E+00  0.00000000E+00
  0.00000000E+00  0.00000000E+00  0.00000000E+00
  0.00000000E+00  0.00000000E+00  0.00000000E+00
  0.00000000E+00  0.00000000E+00  0.00000000E+00
  0.00000000E+00  0.00000000E+00  0.00000000E+00
  0.00000000E+00  0.00000000E+00  0.00000000E+00
  0.00000000E+00  0.00000000E+00  0.00000000E+00
  0.00000000E+00  0.00000000E+00  0.00000000E+00
  0.00000000E+00  0.00000000E+00  0.00000000E+00
  0.00000000E+00  0.00000000E+00  0.00000000E+00
  0.00000000E+00  0.00000000E+00  0.00000000E+00
  0.00000000E+00  0.00000000E+00  0.00000000E+00
  0.00000000E+00  0.00000000E+00  0.00000000E+00
  0.00000000E+00  0.00000000E+00  0.00000000E+00
  0.00000000E+00  0.00000000E+00  0.00000000E+00
  0.00000000E+00  0.00000000E+00  0.00000000E+00
  0.00000000E+00  0.00000000E+00  0.00000000E+00
  0.00000000E+00  0.00000000E+00  0.00000000E+00
  0.00000000E+00  0.00000000E+00  0.00000000E+00
  0.00000000E+00  0.00000000E+00  0.00000000E+00
  0.00000000E+00  0.00000000E+00  0.00000000E+00
  0.00000000E+00  0.00000000E+00  0.00000000E+00
  0.00000000E+00  0.00000000E+00  0.00000000E+00
  0.00000000E+00  0.00000000E+00  0.00000000E+00
  0.00000000E+00  0.00000000E+00  0.00000000E+00
  0.00000000E+00  0.00000000E+00  0.00000000E+00
  0.00000000E+00  0.00000000E+00  0.00000000E+00
  0.00000000E+00  0.00000000E+00  0.00000000E+00
  0.00000000E+00  0.00000000E+00  0.00000000E+00
  0.00000000E+00  0.00000000E+00  0.00000000E+00
  0.00000000E+00  0.00000000E+00  0.00000000E+00
  0.00000000E+00  0.00000000E+00  0.00000000E+00
  0.00000000E+00  0.00000000E+00  0.00000000E+00
  0.00000000E+00  0.00000000E+00  0.00000000E+00
  0.00000000E+00  0.00000000E+00  0.00000000E+00
  0.00000000E+00  0.00000000E+00  0.00000000E+00
  0.00000000E+00  0.00000000E+00  0.00000000E+00
  0.00000000E+00  0.00000000E+00  0.00000000E+00
  0.00000000E+00  0.00000000E+00  0.00000000E+00
  0.00000000E+00  0.00000000E+00  0.00000000E+00
  0.00000000E+00  0.00000000E+00  0.00000000E+00
  0.00000000E+00  0.00000000E+00  0.00000000E+00
  0.00000000E+00  0.00000000E+00  0.00000000E+00
  0.00000000E+00  0.00000000E+00  0.00000000E+00
  0.00000000E+00  0.00000000E+00  0.00000000E+00
  0.00000000E+00  0.00000000E+00  0.00000000E+00
  0.00000000E+00  0.00000000E+00  0.00000000E+00
  0.00000000E+00  0.00000000E+00  0.00000000E+00
  0.00000000E+00  0.00000000E+00  0.00000000E+00
  0.00000000E+00  0.00000000E+00  0.00000000E+00
  0.00000000E+00  0.00000000E+00  0.00000000E+00
  0.00000000E+00  0.00000000E+00  0.00000000E+00
  0.00000000E+00  0.00000000E+00  0.00000000E+00
  0.00000000E+00  0.00000000E+00  0.00000000E+00
  0.00000000E+00  0.00000000E+00  0.00000000E+00
  0.00000000E+00  0.00000000E+00  0.00000000E+00
  0.00000000E+00  0.00000000E+00  0.00000000E+00
  0.00000000E+00  0.00000000E+00  0.00000000E+00
  0.00000000E+00  0.00000000E+00  0.00000000E+00
  0.00000000E+00  0.00000000E+00  0.00000000E+00
  0.00000000E+00  0.00000000E+00  0.00000000E+00
  0.00000000E+00  0.00000000E+00  0.00000000E+00
  0.00000000E+00  0.00000000E+00  0.00000000E+00
  0.00000000E+00  0.00000000E+00  0.00000000E+00
  0.00000000E+00  0.00000000E+00  0.00000000E+00
  0.00000000E+00  0.00000000E+00  0.00000000E+00
  0.00000000E+00  0.00000000E+00  0.00000000E+00
