supercell of POSCAR                     
   1.03600000000000     
     9.6051007291200001   -5.6678653607799996   -9.9907275475200006
     9.5551777488200003    5.5783510108199996    9.9928581731800001
    -1.5573508785200001   -8.3719044994900003    4.9655686364999996
   Al   Gd   N 
    71    24    96
Direct
  0.2974039829206419  0.2875450235896011  0.5399561455879933
  0.1414968933303982  0.2429118281726019  0.3125634048730603
  0.3072299771202651  0.4104714852302038  0.3071239494179210
  0.4625569818744282  0.3232418598829128  0.7907246735016713
  0.1427082584386739  0.4983440788886782  0.7830923774181500
  0.2967358382074679  0.1661176251606022  0.7826071995904087
  0.4730982882605161  0.4430086328224405  0.5282939788851877
  0.1429654329110122  0.1185736890198257  0.5394055440239214
  0.4766356588559972  0.0668592227700842  0.2947153145304497
  0.2732945671250135  0.1025496304882836  0.3343294376703199
  0.1116506339658656  0.0682917117154460  0.1018086044997375
  0.1152680618608102  0.1958091915964033  0.8178569800633113
  0.2747478856824159  0.3554073465094234  0.8133950307133944
  0.1102496682628242  0.3240910802947639  0.5902777672222044
  0.2710881854858087  0.4833570704702908  0.5732785931535034
  0.1116571841314453  0.4450252346310393  0.3389713343052634
  0.4473575219782475  0.4067978267225740  0.1068054180951634
  0.8015308808572641  0.2885688554734003  0.5407454817086759
  0.6424053217233947  0.2468952831413915  0.3167490980141210
  0.8083913378709155  0.4094884347967138  0.3103322783185334
  0.9626471585418344  0.3245857308557873  0.7897699568174872
  0.6428344143646569  0.4979497070930421  0.7850110119003801
  0.7945142231948026  0.1647891949760520  0.7792358959823318
  0.9697255879909719  0.4464086006570653  0.5329433551606328
  0.6432626801834616  0.1196494543921247  0.5383676400755988
  0.9773001879110055  0.0711962810259195  0.2982685865209831
  0.7758975127784922  0.1086818098848852  0.3362198616077592
  0.6151154312854672  0.0712765366655859  0.1018648775164266
  0.6131043597581538  0.1958162697133545  0.8179041370866784
  0.7752146095307850  0.3557145727112783  0.8166362199259112
  0.6166069213438448  0.3254504538033629  0.5892331942533886
  0.7721436171745424  0.4847016107039579  0.5766580778617794
  0.9475549230846099  0.2793577336321320  0.3372600038315667
  0.6139561370217237  0.4440688325823459  0.3428325075053920
  0.9485721352558230  0.4042964103988780  0.1051344265876537
  0.3023672074360917  0.7889382633259387  0.5378423796779472
  0.1435083880702166  0.7431063696033817  0.3107756880624351
  0.3082291139552780  0.9085420870288203  0.3097610502726482
  0.4643963902363097  0.8277522508667374  0.7858061162165129
  0.1429851694795090  0.9984216541248685  0.7853572816711534
  0.2969173499467317  0.6654735061118799  0.7770601815461973
  0.4694361859365230  0.9490885855575186  0.5335469295837001
  0.1446378152166545  0.6190829765966868  0.5375439572516996
  0.4793056685963961  0.5730502927839467  0.2982114143101597
  0.2771250223603019  0.6092845900166353  0.3345056799060586
  0.1162030434418000  0.5707085296016743  0.1016924915024973
  0.1167179058027443  0.6966170154864173  0.8168935900620582
  0.2768676503943794  0.8570051253355331  0.8123583928119871
  0.1134252497934725  0.8244525526822173  0.5888819021237310
  0.2724768718958330  0.9861633299552537  0.5768783482923538
  0.4495373290588347  0.7803800773337102  0.3347539867496607
  0.1099933801160446  0.9435517854393183  0.3406560585894525
  0.4494833297150507  0.9014242068376390  0.0981343310124032
  0.8017270512228691  0.7881481434248556  0.5383385817651956
  0.6439024028381226  0.7434459722940332  0.3105632405470544
  0.8083431101917498  0.9087198617457943  0.3096828243029250
  0.9640832120585756  0.8250030916880320  0.7888025648248700
  0.6418355168225105  0.9978151678014768  0.7832237239939559
  0.7963693952687549  0.6644384610590848  0.7783078952326221
  0.9696489034897411  0.9453956793878646  0.5332300523810858
  0.6443134914675781  0.6190442960977762  0.5375549507711739
  0.9790591401004463  0.5717887461768285  0.2979404285455800
  0.7780134651160395  0.6091862337830918  0.3363113840759766
  0.6160358316412555  0.5701563094814901  0.1034735924078660
  0.6157650593676678  0.6965074687306227  0.8151278002385425
  0.7749693337739245  0.8550335463513292  0.8110985190829183
  0.6120164879789414  0.8247756307745036  0.5872553966540650
  0.7706766375035627  0.9846179932539911  0.5758057913836083
  0.9482403591299970  0.7789158140467691  0.3360260672847133
  0.6117556061204326  0.9453889313038104  0.3393001867958247
  0.9471085020965475  0.9030843240390070  0.1038076317908079
  0.4786313621767206  0.1998681023772377  0.0573520157892347
  0.1359524948525106  0.3656067843900388  0.0318363976251703
  0.3094920874501241  0.0221944790377080  0.0446867334101100
  0.2803631760715248  0.2311176547382985  0.0906241365903071
  0.4483735909360007  0.0279367670557065  0.8211243001296822
  0.4432088021588783  0.1621654751991812  0.5525478209151231
  0.9819153706741730  0.1955205637602688  0.0394360040083654
  0.6340088383704554  0.3646236206060394  0.0336425879569830
  0.8075855500900602  0.0215413409372687  0.0390522238802831
  0.7831796909301403  0.2332982025996060  0.0835607655870945
  0.9477069974826762  0.0190769020053807  0.8191678064557593
  0.9429236670260863  0.1540900395280573  0.5729913024233468
  0.4848574526187477  0.6929493423558313  0.0343197709673291
  0.1371628682563895  0.8668313525797942  0.0330077119949479
  0.3090551737677742  0.5225632816194619  0.0356901444995614
  0.2859076944851680  0.7346708598104144  0.0823253249470568
  0.4504546243370555  0.5179176789720046  0.8129357976182021
  0.4446815587855184  0.6545768797990306  0.5719615611095605
  0.9834260710983358  0.6953589386729391  0.0389112993073155
  0.6364839735147214  0.8657261745849993  0.0317199139613606
  0.8084163036740648  0.5212541747029462  0.0410113839092077
  0.7835623351834400  0.7329465517015379  0.0808475361981849
  0.9490503550576079  0.5189068839891817  0.8193900441123247
  0.9453012661389124  0.6554606558006952  0.5722666430238803
  0.2345288076806327  0.3678636760874454  0.6281695494265804
  0.0736422588030052  0.3246797635581942  0.4015974400596960
  0.2372532283023574  0.4917845395620546  0.3889939637428697
  0.4158839482674850  0.2961426076472904  0.1455470435441910
  0.0697417564194112  0.4572348439617855  0.1515727640391091
  0.2292467118314292  0.0964064567246297  0.1558177606191222
  0.3999179046101347  0.3967463211093758  0.9046980922809027
  0.0917618962278226  0.0822376636590292  0.9013535766011529
  0.2332807949173912  0.2449545211082480  0.8700979324549323
  0.3966655273808328  0.0211122198703606  0.6099759442510475
  0.0891263247030309  0.2026852555835390  0.6327606031477799
  0.3944843260284188  0.1330191444883297  0.3445360007477092
  0.2173631370726454  0.1890703465512473  0.4342672968256451
  0.0593816993380756  0.1448331364774944  0.2087152242518755
  0.2115056813528824  0.3216116914213529  0.2124020348563889
  0.3649369871303776  0.1199009373509483  0.9154652059170445
  0.0415996991702485  0.2684893585987567  0.8858527266643534
  0.2097105116111422  0.4358100863766978  0.8887812306432252
  0.3657225223225709  0.2463691312355820  0.6813165980656635
  0.0388795530351516  0.4068171630468811  0.6841251563378634
  0.2121914832344274  0.0684201235530537  0.6723261249398718
  0.3711672866993396  0.3630153701173668  0.4441139850666929
  0.0478025109378635  0.0251454705901395  0.4399769987500406
  0.3898099328580784  0.4793472769381495  0.2093843446305002
  0.7429133019842098  0.3695115208901285  0.6341985487721331
  0.5939463554530704  0.3339918624442078  0.4101154778371736
  0.7425297452484187  0.4926695979344800  0.3913817276529983
  0.9271297346207916  0.2924129507480444  0.1576833840575915
  0.5698765232729741  0.4576025526006902  0.1535051646807304
  0.7355410867288938  0.1022173735670364  0.1559839823811586
  0.9004756809271299  0.3932441570897396  0.9106946734662031
  0.5958155102967311  0.0815641995787928  0.9005633448660149
  0.7330087860708687  0.2439491735310284  0.8679972901416022
  0.8951105162298774  0.0147679659871969  0.6091465630588075
  0.5909024011365105  0.2038946139431275  0.6325545464665012
  0.9039195259485950  0.1550504885796400  0.3559141357444204
  0.7208474209001423  0.1906975311703007  0.4363365674046946
  0.5639868333330540  0.1446004606328302  0.2127970266373822
  0.7171861781626205  0.3209660268599706  0.2080492373082450
  0.8656815927848456  0.1170884547457973  0.9078912267406452
  0.5391991425696645  0.2657870421901762  0.8907711131377454
  0.7098530624372899  0.4354736787256073  0.8919913847038430
  0.8676741751049875  0.2453240333844988  0.6829144696656186
  0.5404123502554015  0.4072935260927864  0.6857771858530270
  0.7125592772943108  0.0674734565468569  0.6699728697416489
  0.8817731956603652  0.3527243371761912  0.4340644615074467
  0.5500851104220885  0.0246486161438781  0.4387431734877723
  0.8914903362643258  0.4752003629161266  0.2104784247442240
  0.2388707877562695  0.8683358305172391  0.6265767850517108
  0.0742653633489567  0.8234541342905075  0.4002087555716898
  0.2351432906458157  0.9852070960544310  0.3916623586822539
  0.4302091878938015  0.7894025276554331  0.1529585579964916
  0.0673328656945671  0.9546712482911133  0.1524846236415556
  0.2359593628601004  0.6040748188328919  0.1540642886494652
  0.4024094081389507  0.8953994503858453  0.9037576600439792
  0.0938709152507187  0.5835950571389219  0.9010822395781730
  0.2355823878523040  0.7449611448527449  0.8664329715634835
  0.3953889524978962  0.5146728582932880  0.6038526484462778
  0.0916453660860626  0.7034212163418871  0.6320929709226704
  0.4047843712051034  0.6570997057020236  0.3562611429852964
  0.2197460516557967  0.6913913815393684  0.4341687647674419
  0.0619287775720707  0.6452836188208053  0.2083676918298494
  0.2152651706870117  0.8186688017968535  0.2091944777591692
  0.3674076772684600  0.6166791400760800  0.9033746211168605
  0.0433385226388410  0.7692471026873591  0.8859671907399758
  0.2119093223925432  0.9361834861000133  0.8894863002406126
  0.3682278834516524  0.7465688684455500  0.6799455955789782
  0.0402432855731121  0.9060841909546937  0.6831007493416550
  0.2128975698971942  0.5678749721885410  0.6697321981829987
  0.3826296900230091  0.8533887824377757  0.4326986714852268
  0.0489513881014858  0.5260372391463619  0.4398639297960756
  0.3904770145671534  0.9664426229600380  0.2042057318140564
  0.7380126525220092  0.8673694719647500  0.6253657435365128
  0.5761079937586757  0.8245173261951919  0.3983396044005403
  0.7393729587654434  0.9891955891205342  0.3900289512299437
  0.9264169623968783  0.7911160243377893  0.1562582977695186
  0.5703856050564440  0.9562473045925657  0.1504581517475785
  0.7359769362936177  0.6035675515640904  0.1564191016020473
  0.9003255037426712  0.8923162628820407  0.9081288998679042
  0.5945186564805667  0.5844124630311711  0.9027057602221902
  0.7345374147122143  0.7438670500050080  0.8651239157489883
  0.8968030981608592  0.5172303131286355  0.6099695892080064
  0.5911531062365896  0.7034977401380687  0.6305156474270888
  0.9053793419293115  0.6555687691966980  0.3553484274434666
  0.7202668675690092  0.6910768070929478  0.4345095239592567
  0.5625982538495435  0.6462122220962172  0.2086775893427202
  0.7164388299823443  0.8196253453711719  0.2090808894208038
  0.8663270390721536  0.6170084867808328  0.9086333038544439
  0.5428751052342449  0.7700619558052040  0.8829495924398145
  0.7109746818788878  0.9348273520744641  0.8873307752650561
  0.8680342782925479  0.7460379552975098  0.6813725637249490
  0.5408057158733470  0.9063703688094193  0.6798307232262744
  0.7128386249544576  0.5677293480644039  0.6708963247565194
  0.8820828264533205  0.8520423517912903  0.4326026030191343
  0.5499360606459973  0.5270509712519100  0.4393505100663901
  0.8898265395327698  0.9743045782807940  0.2089450198372447
 
  0.00000000E+00  0.00000000E+00  0.00000000E+00
  0.00000000E+00  0.00000000E+00  0.00000000E+00
  0.00000000E+00  0.00000000E+00  0.00000000E+00
  0.00000000E+00  0.00000000E+00  0.00000000E+00
  0.00000000E+00  0.00000000E+00  0.00000000E+00
  0.00000000E+00  0.00000000E+00  0.00000000E+00
  0.00000000E+00  0.00000000E+00  0.00000000E+00
  0.00000000E+00  0.00000000E+00  0.00000000E+00
  0.00000000E+00  0.00000000E+00  0.00000000E+00
  0.00000000E+00  0.00000000E+00  0.00000000E+00
  0.00000000E+00  0.00000000E+00  0.00000000E+00
  0.00000000E+00  0.00000000E+00  0.00000000E+00
  0.00000000E+00  0.00000000E+00  0.00000000E+00
  0.00000000E+00  0.00000000E+00  0.00000000E+00
  0.00000000E+00  0.00000000E+00  0.00000000E+00
  0.00000000E+00  0.00000000E+00  0.00000000E+00
  0.00000000E+00  0.00000000E+00  0.00000000E+00
  0.00000000E+00  0.00000000E+00  0.00000000E+00
  0.00000000E+00  0.00000000E+00  0.00000000E+00
  0.00000000E+00  0.00000000E+00  0.00000000E+00
  0.00000000E+00  0.00000000E+00  0.00000000E+00
  0.00000000E+00  0.00000000E+00  0.00000000E+00
  0.00000000E+00  0.00000000E+00  0.00000000E+00
  0.00000000E+00  0.00000000E+00  0.00000000E+00
  0.00000000E+00  0.00000000E+00  0.00000000E+00
  0.00000000E+00  0.00000000E+00  0.00000000E+00
  0.00000000E+00  0.00000000E+00  0.00000000E+00
  0.00000000E+00  0.00000000E+00  0.00000000E+00
  0.00000000E+00  0.00000000E+00  0.00000000E+00
  0.00000000E+00  0.00000000E+00  0.00000000E+00
  0.00000000E+00  0.00000000E+00  0.00000000E+00
  0.00000000E+00  0.00000000E+00  0.00000000E+00
  0.00000000E+00  0.00000000E+00  0.00000000E+00
  0.00000000E+00  0.00000000E+00  0.00000000E+00
  0.00000000E+00  0.00000000E+00  0.00000000E+00
  0.00000000E+00  0.00000000E+00  0.00000000E+00
  0.00000000E+00  0.00000000E+00  0.00000000E+00
  0.00000000E+00  0.00000000E+00  0.00000000E+00
  0.00000000E+00  0.00000000E+00  0.00000000E+00
  0.00000000E+00  0.00000000E+00  0.00000000E+00
  0.00000000E+00  0.00000000E+00  0.00000000E+00
  0.00000000E+00  0.00000000E+00  0.00000000E+00
  0.00000000E+00  0.00000000E+00  0.00000000E+00
  0.00000000E+00  0.00000000E+00  0.00000000E+00
  0.00000000E+00  0.00000000E+00  0.00000000E+00
  0.00000000E+00  0.00000000E+00  0.00000000E+00
  0.00000000E+00  0.00000000E+00  0.00000000E+00
  0.00000000E+00  0.00000000E+00  0.00000000E+00
  0.00000000E+00  0.00000000E+00  0.00000000E+00
  0.00000000E+00  0.00000000E+00  0.00000000E+00
  0.00000000E+00  0.00000000E+00  0.00000000E+00
  0.00000000E+00  0.00000000E+00  0.00000000E+00
  0.00000000E+00  0.00000000E+00  0.00000000E+00
  0.00000000E+00  0.00000000E+00  0.00000000E+00
  0.00000000E+00  0.00000000E+00  0.00000000E+00
  0.00000000E+00  0.00000000E+00  0.00000000E+00
  0.00000000E+00  0.00000000E+00  0.00000000E+00
  0.00000000E+00  0.00000000E+00  0.00000000E+00
  0.00000000E+00  0.00000000E+00  0.00000000E+00
  0.00000000E+00  0.00000000E+00  0.00000000E+00
  0.00000000E+00  0.00000000E+00  0.00000000E+00
  0.00000000E+00  0.00000000E+00  0.00000000E+00
  0.00000000E+00  0.00000000E+00  0.00000000E+00
  0.00000000E+00  0.00000000E+00  0.00000000E+00
  0.00000000E+00  0.00000000E+00  0.00000000E+00
  0.00000000E+00  0.00000000E+00  0.00000000E+00
  0.00000000E+00  0.00000000E+00  0.00000000E+00
  0.00000000E+00  0.00000000E+00  0.00000000E+00
  0.00000000E+00  0.00000000E+00  0.00000000E+00
  0.00000000E+00  0.00000000E+00  0.00000000E+00
  0.00000000E+00  0.00000000E+00  0.00000000E+00
  0.00000000E+00  0.00000000E+00  0.00000000E+00
  0.00000000E+00  0.00000000E+00  0.00000000E+00
  0.00000000E+00  0.00000000E+00  0.00000000E+00
  0.00000000E+00  0.00000000E+00  0.00000000E+00
  0.00000000E+00  0.00000000E+00  0.00000000E+00
  0.00000000E+00  0.00000000E+00  0.00000000E+00
  0.00000000E+00  0.00000000E+00  0.00000000E+00
  0.00000000E+00  0.00000000E+00  0.00000000E+00
  0.00000000E+00  0.00000000E+00  0.00000000E+00
  0.00000000E+00  0.00000000E+00  0.00000000E+00
  0.00000000E+00  0.00000000E+00  0.00000000E+00
  0.00000000E+00  0.00000000E+00  0.00000000E+00
  0.00000000E+00  0.00000000E+00  0.00000000E+00
  0.00000000E+00  0.00000000E+00  0.00000000E+00
  0.00000000E+00  0.00000000E+00  0.00000000E+00
  0.00000000E+00  0.00000000E+00  0.00000000E+00
  0.00000000E+00  0.00000000E+00  0.00000000E+00
  0.00000000E+00  0.00000000E+00  0.00000000E+00
  0.00000000E+00  0.00000000E+00  0.00000000E+00
  0.00000000E+00  0.00000000E+00  0.00000000E+00
  0.00000000E+00  0.00000000E+00  0.00000000E+00
  0.00000000E+00  0.00000000E+00  0.00000000E+00
  0.00000000E+00  0.00000000E+00  0.00000000E+00
  0.00000000E+00  0.00000000E+00  0.00000000E+00
  0.00000000E+00  0.00000000E+00  0.00000000E+00
  0.00000000E+00  0.00000000E+00  0.00000000E+00
  0.00000000E+00  0.00000000E+00  0.00000000E+00
  0.00000000E+00  0.00000000E+00  0.00000000E+00
  0.00000000E+00  0.00000000E+00  0.00000000E+00
  0.00000000E+00  0.00000000E+00  0.00000000E+00
  0.00000000E+00  0.00000000E+00  0.00000000E+00
  0.00000000E+00  0.00000000E+00  0.00000000E+00
  0.00000000E+00  0.00000000E+00  0.00000000E+00
  0.00000000E+00  0.00000000E+00  0.00000000E+00
  0.00000000E+00  0.00000000E+00  0.00000000E+00
  0.00000000E+00  0.00000000E+00  0.00000000E+00
  0.00000000E+00  0.00000000E+00  0.00000000E+00
  0.00000000E+00  0.00000000E+00  0.00000000E+00
  0.00000000E+00  0.00000000E+00  0.00000000E+00
  0.00000000E+00  0.00000000E+00  0.00000000E+00
  0.00000000E+00  0.00000000E+00  0.00000000E+00
  0.00000000E+00  0.00000000E+00  0.00000000E+00
  0.00000000E+00  0.00000000E+00  0.00000000E+00
  0.00000000E+00  0.00000000E+00  0.00000000E+00
  0.00000000E+00  0.00000000E+00  0.00000000E+00
  0.00000000E+00  0.00000000E+00  0.00000000E+00
  0.00000000E+00  0.00000000E+00  0.00000000E+00
  0.00000000E+00  0.00000000E+00  0.00000000E+00
  0.00000000E+00  0.00000000E+00  0.00000000E+00
  0.00000000E+00  0.00000000E+00  0.00000000E+00
  0.00000000E+00  0.00000000E+00  0.00000000E+00
  0.00000000E+00  0.00000000E+00  0.00000000E+00
  0.00000000E+00  0.00000000E+00  0.00000000E+00
  0.00000000E+00  0.00000000E+00  0.00000000E+00
  0.00000000E+00  0.00000000E+00  0.00000000E+00
  0.00000000E+00  0.00000000E+00  0.00000000E+00
  0.00000000E+00  0.00000000E+00  0.00000000E+00
  0.00000000E+00  0.00000000E+00  0.00000000E+00
  0.00000000E+00  0.00000000E+00  0.00000000E+00
  0.00000000E+00  0.00000000E+00  0.00000000E+00
  0.00000000E+00  0.00000000E+00  0.00000000E+00
  0.00000000E+00  0.00000000E+00  0.00000000E+00
  0.00000000E+00  0.00000000E+00  0.00000000E+00
  0.00000000E+00  0.00000000E+00  0.00000000E+00
  0.00000000E+00  0.00000000E+00  0.00000000E+00
  0.00000000E+00  0.00000000E+00  0.00000000E+00
  0.00000000E+00  0.00000000E+00  0.00000000E+00
  0.00000000E+00  0.00000000E+00  0.00000000E+00
  0.00000000E+00  0.00000000E+00  0.00000000E+00
  0.00000000E+00  0.00000000E+00  0.00000000E+00
  0.00000000E+00  0.00000000E+00  0.00000000E+00
  0.00000000E+00  0.00000000E+00  0.00000000E+00
  0.00000000E+00  0.00000000E+00  0.00000000E+00
  0.00000000E+00  0.00000000E+00  0.00000000E+00
  0.00000000E+00  0.00000000E+00  0.00000000E+00
  0.00000000E+00  0.00000000E+00  0.00000000E+00
  0.00000000E+00  0.00000000E+00  0.00000000E+00
  0.00000000E+00  0.00000000E+00  0.00000000E+00
  0.00000000E+00  0.00000000E+00  0.00000000E+00
  0.00000000E+00  0.00000000E+00  0.00000000E+00
  0.00000000E+00  0.00000000E+00  0.00000000E+00
  0.00000000E+00  0.00000000E+00  0.00000000E+00
  0.00000000E+00  0.00000000E+00  0.00000000E+00
  0.00000000E+00  0.00000000E+00  0.00000000E+00
  0.00000000E+00  0.00000000E+00  0.00000000E+00
  0.00000000E+00  0.00000000E+00  0.00000000E+00
  0.00000000E+00  0.00000000E+00  0.00000000E+00
  0.00000000E+00  0.00000000E+00  0.00000000E+00
  0.00000000E+00  0.00000000E+00  0.00000000E+00
  0.00000000E+00  0.00000000E+00  0.00000000E+00
  0.00000000E+00  0.00000000E+00  0.00000000E+00
  0.00000000E+00  0.00000000E+00  0.00000000E+00
  0.00000000E+00  0.00000000E+00  0.00000000E+00
  0.00000000E+00  0.00000000E+00  0.00000000E+00
  0.00000000E+00  0.00000000E+00  0.00000000E+00
  0.00000000E+00  0.00000000E+00  0.00000000E+00
  0.00000000E+00  0.00000000E+00  0.00000000E+00
  0.00000000E+00  0.00000000E+00  0.00000000E+00
  0.00000000E+00  0.00000000E+00  0.00000000E+00
  0.00000000E+00  0.00000000E+00  0.00000000E+00
  0.00000000E+00  0.00000000E+00  0.00000000E+00
  0.00000000E+00  0.00000000E+00  0.00000000E+00
  0.00000000E+00  0.00000000E+00  0.00000000E+00
  0.00000000E+00  0.00000000E+00  0.00000000E+00
  0.00000000E+00  0.00000000E+00  0.00000000E+00
  0.00000000E+00  0.00000000E+00  0.00000000E+00
  0.00000000E+00  0.00000000E+00  0.00000000E+00
  0.00000000E+00  0.00000000E+00  0.00000000E+00
  0.00000000E+00  0.00000000E+00  0.00000000E+00
  0.00000000E+00  0.00000000E+00  0.00000000E+00
  0.00000000E+00  0.00000000E+00  0.00000000E+00
  0.00000000E+00  0.00000000E+00  0.00000000E+00
  0.00000000E+00  0.00000000E+00  0.00000000E+00
  0.00000000E+00  0.00000000E+00  0.00000000E+00
  0.00000000E+00  0.00000000E+00  0.00000000E+00
  0.00000000E+00  0.00000000E+00  0.00000000E+00
  0.00000000E+00  0.00000000E+00  0.00000000E+00
  0.00000000E+00  0.00000000E+00  0.00000000E+00
  0.00000000E+00  0.00000000E+00  0.00000000E+00
  0.00000000E+00  0.00000000E+00  0.00000000E+00
