supercell of icsd_181358.cif            
   1.00000000000000     
    10.6167501804922875   -0.0195331051915947    0.0079284772593586
    -5.3252835261260207    9.1411464882962452    0.0046876328111228
     0.0095818610922134    0.0104126850506208   10.0437397827826462
   N    Ga   Sc
    36    14    22
Direct
  0.2298712316097422  0.1027103883543603  0.4597764536407780
  0.1109842545236930  0.2173167469100648  0.2231419697629633
  0.8860709194533598  0.1240567093815059  0.9406495735642579
  0.7857887988219971  0.2153113814329686  0.6878422265213118
  0.5503208413914109  0.1216100527477195  0.4420976103773171
  0.4288974342402483  0.2222364798585232  0.1940508198136115
  0.2145726811926991  0.1142943145972808  0.9347002757569243
  0.0939874354340446  0.2148576726270051  0.6815726938233837
  0.8744669244066543  0.0857879730809614  0.4422085190557326
  0.7881488223933104  0.2152371620176012  0.2080514445402741
  0.5666039734312847  0.1124973421270710  0.9706286006046412
  0.4477071799741097  0.2161720190357102  0.7049334255478357
  0.2422475225897429  0.4546465484781805  0.4487150321340252
  0.1274636357001881  0.5656531180051800  0.2120114297948561
  0.8968203117422959  0.4390467100031330  0.9674659669425409
  0.7932369897769291  0.5731488537862006  0.7092687803266102
  0.5593360856696847  0.4452643372585428  0.4712084445040858
  0.4441722013685805  0.5664778656596638  0.1972288352880156
  0.2091061409065418  0.4463808380440284  0.9464194079775297
  0.1052315747630175  0.5513270403108805  0.6784640967418269
  0.8775018368143606  0.4529055385025416  0.4425787060438111
  0.7711204534569589  0.5570901890921505  0.1893330674816767
  0.5522637512104751  0.4462205070081993  0.9384867502770433
  0.4381372545701723  0.5518110878387930  0.7004603457149088
  0.2126694296441158  0.7882309715413385  0.4535608622674872
  0.1270947694835698  0.8961152260060743  0.1978469670207019
  0.8914005753579985  0.7856566304334862  0.9565012222876419
  0.7954647312278951  0.8971160086583296  0.7045399194578010
  0.5686509338734567  0.7691141704331983  0.4606953020849573
  0.4409834878540551  0.8768360435014984  0.2230530832481179
  0.2143545738876327  0.7589988897496056  0.9430285572625010
  0.0960561872433203  0.8796807913285818  0.7018371918148034
  0.8899261199852901  0.7781302862048847  0.4484235294663321
  0.7627879127021941  0.8879867155284060  0.1919091348932014
  0.5510253831469569  0.7791092832640985  0.9304088474277918
  0.4441461031528249  0.8917776361703957  0.6864259803577610
  0.2278525889482026  0.1058720343213793  0.2552302934970214
  0.8926904134170073  0.1155538770337259  0.7417685460312882
  0.8770077513380841  0.0945358766691697  0.2497029895307676
  0.7857185460877716  0.2215944865478008  0.0044810069776062
  0.4470352193108766  0.2174987540647351  0.5036467882876039
  0.2381339305098891  0.4590351328128008  0.2514976771687714
  0.1153470552072591  0.5542952924317675  0.0034875271839496
  0.7875146334705221  0.5658565517616410  0.5034836996173766
  0.4488899880386583  0.5543718100181962  0.5020423479135516
  0.2234404050915515  0.7846300061749716  0.2530535936423775
  0.8925857838980846  0.7851161624306044  0.7533965555266775
  0.7868292970063422  0.8839677315357903  0.5037995140478131
  0.5577139048345998  0.7737675066172685  0.2572641992120239
  0.1020134914318191  0.8836872013397254  0.5017117749344280
  0.1067748794468031  0.2238083709447523  0.0034952390168499
  0.7769790952380973  0.2205612839921542  0.4758641157538221
  0.5529301503295514  0.1149966048871178  0.2258171914790239
  0.4383271638355382  0.2233284493935344  0.9794001022478582
  0.2140376402211643  0.1104639539252332  0.7230344086101894
  0.1082099319768872  0.2162392048464454  0.4661627648093258
  0.5650298159311191  0.1083965632967150  0.7463766126584517
  0.8931860421219753  0.4401390141581274  0.7425964750142668
  0.5509256285172555  0.4466308328139732  0.2504502716306547
  0.4390920608843984  0.5571908413747693  0.9795877545918259
  0.2108604538177374  0.4387111995174706  0.7298725832774053
  0.1085207409412803  0.5577199734724729  0.4700969106181603
  0.8899243546993176  0.4489393152827290  0.2243145231201140
  0.7758097311490033  0.5560833702823871  0.9778568167536221
  0.5588551306314216  0.4470426722150407  0.7226116672636493
  0.1174690292728968  0.8905715622626644  0.9827213898377067
  0.4380438360334296  0.8752807751536196  0.0001756156720134
  0.2184496362112114  0.7718890515992598  0.7279396864890799
  0.8894221863762439  0.7831576545954064  0.2321498222082568
  0.7721728920172737  0.8953499232655204  0.9777046809309269
  0.5586294940502441  0.7809797458665386  0.7195166990880395
  0.4449586347056425  0.8919236841163141  0.4721630815324929
 
  0.00000000E+00  0.00000000E+00  0.00000000E+00
  0.00000000E+00  0.00000000E+00  0.00000000E+00
  0.00000000E+00  0.00000000E+00  0.00000000E+00
  0.00000000E+00  0.00000000E+00  0.00000000E+00
  0.00000000E+00  0.00000000E+00  0.00000000E+00
  0.00000000E+00  0.00000000E+00  0.00000000E+00
  0.00000000E+00  0.00000000E+00  0.00000000E+00
  0.00000000E+00  0.00000000E+00  0.00000000E+00
  0.00000000E+00  0.00000000E+00  0.00000000E+00
  0.00000000E+00  0.00000000E+00  0.00000000E+00
  0.00000000E+00  0.00000000E+00  0.00000000E+00
  0.00000000E+00  0.00000000E+00  0.00000000E+00
  0.00000000E+00  0.00000000E+00  0.00000000E+00
  0.00000000E+00  0.00000000E+00  0.00000000E+00
  0.00000000E+00  0.00000000E+00  0.00000000E+00
  0.00000000E+00  0.00000000E+00  0.00000000E+00
  0.00000000E+00  0.00000000E+00  0.00000000E+00
  0.00000000E+00  0.00000000E+00  0.00000000E+00
  0.00000000E+00  0.00000000E+00  0.00000000E+00
  0.00000000E+00  0.00000000E+00  0.00000000E+00
  0.00000000E+00  0.00000000E+00  0.00000000E+00
  0.00000000E+00  0.00000000E+00  0.00000000E+00
  0.00000000E+00  0.00000000E+00  0.00000000E+00
  0.00000000E+00  0.00000000E+00  0.00000000E+00
  0.00000000E+00  0.00000000E+00  0.00000000E+00
  0.00000000E+00  0.00000000E+00  0.00000000E+00
  0.00000000E+00  0.00000000E+00  0.00000000E+00
  0.00000000E+00  0.00000000E+00  0.00000000E+00
  0.00000000E+00  0.00000000E+00  0.00000000E+00
  0.00000000E+00  0.00000000E+00  0.00000000E+00
  0.00000000E+00  0.00000000E+00  0.00000000E+00
  0.00000000E+00  0.00000000E+00  0.00000000E+00
  0.00000000E+00  0.00000000E+00  0.00000000E+00
  0.00000000E+00  0.00000000E+00  0.00000000E+00
  0.00000000E+00  0.00000000E+00  0.00000000E+00
  0.00000000E+00  0.00000000E+00  0.00000000E+00
  0.00000000E+00  0.00000000E+00  0.00000000E+00
  0.00000000E+00  0.00000000E+00  0.00000000E+00
  0.00000000E+00  0.00000000E+00  0.00000000E+00
  0.00000000E+00  0.00000000E+00  0.00000000E+00
  0.00000000E+00  0.00000000E+00  0.00000000E+00
  0.00000000E+00  0.00000000E+00  0.00000000E+00
  0.00000000E+00  0.00000000E+00  0.00000000E+00
  0.00000000E+00  0.00000000E+00  0.00000000E+00
  0.00000000E+00  0.00000000E+00  0.00000000E+00
  0.00000000E+00  0.00000000E+00  0.00000000E+00
  0.00000000E+00  0.00000000E+00  0.00000000E+00
  0.00000000E+00  0.00000000E+00  0.00000000E+00
  0.00000000E+00  0.00000000E+00  0.00000000E+00
  0.00000000E+00  0.00000000E+00  0.00000000E+00
  0.00000000E+00  0.00000000E+00  0.00000000E+00
  0.00000000E+00  0.00000000E+00  0.00000000E+00
  0.00000000E+00  0.00000000E+00  0.00000000E+00
  0.00000000E+00  0.00000000E+00  0.00000000E+00
  0.00000000E+00  0.00000000E+00  0.00000000E+00
  0.00000000E+00  0.00000000E+00  0.00000000E+00
  0.00000000E+00  0.00000000E+00  0.00000000E+00
  0.00000000E+00  0.00000000E+00  0.00000000E+00
  0.00000000E+00  0.00000000E+00  0.00000000E+00
  0.00000000E+00  0.00000000E+00  0.00000000E+00
  0.00000000E+00  0.00000000E+00  0.00000000E+00
  0.00000000E+00  0.00000000E+00  0.00000000E+00
  0.00000000E+00  0.00000000E+00  0.00000000E+00
  0.00000000E+00  0.00000000E+00  0.00000000E+00
  0.00000000E+00  0.00000000E+00  0.00000000E+00
  0.00000000E+00  0.00000000E+00  0.00000000E+00
  0.00000000E+00  0.00000000E+00  0.00000000E+00
  0.00000000E+00  0.00000000E+00  0.00000000E+00
  0.00000000E+00  0.00000000E+00  0.00000000E+00
  0.00000000E+00  0.00000000E+00  0.00000000E+00
  0.00000000E+00  0.00000000E+00  0.00000000E+00
  0.00000000E+00  0.00000000E+00  0.00000000E+00
