generated by phonopy                    
   1.00000000000000     
    10.0351470768999995   -0.0000022330999784   -0.0000001056124209
    -5.0175765436399997    8.6906901959899994    0.0000001395531216
    -0.0000001735893656    0.0000001431815548   14.9533752540999991
   Pb   P    O 
    21    12    49
Direct
  0.0165951611154895  0.7584574011256322  0.1215778339747331
  0.0046313300404179  0.7754029511992897  0.6347703337865056
  0.9993379119373245  0.2431478615427878  0.3765481905310324
  0.9805806590116148  0.2423328583546152  0.8827566404897169
  0.2410277519279802  0.2583478130233487  0.1221643135416883
  0.2245368936439718  0.2292596262995943  0.6351376835913385
  0.7562861148873097  0.7563358229231767  0.3765050843662223
  0.7576709125148966  0.7384993935923774  0.8829600399968456
  0.7422780640705540  0.9836165054369133  0.1212779760901199
  0.7707643163405251  0.9953755145112879  0.6348787196901995
  0.2431394457026599  0.0002873509848627  0.3768008504346412
  0.2618131699325659  0.0188156139498901  0.8827361512689151
  0.6665970757327386  0.3332790675609090  0.0035940090100510
  0.6666458226829519  0.3335496423396762  0.5021888379468180
  0.3334629144025527  0.6665030602003483  0.9975120625416167
  0.3329534623857384  0.6663034251213205  0.5005464130751491
  0.3338625358389962  0.6677803642459637  0.2464341701103194
  0.3330579710544370  0.6664247934060299  0.7420207431471511
  0.6662397785569425  0.3335612289400132  0.2600859217698570
  0.6665809673922709  0.3333421065974420  0.7508543707355599
  0.0005643845121952  0.0002843938010955  0.0007654709939047
  0.6256331631842684  0.5946309612023413  0.1267746935605985
  0.6313747630982078  0.5967316318044880  0.6198316473946477
  0.3628520284567003  0.3989551853923672  0.3769016614669667
  0.3698862833539778  0.4012680619230053  0.8754506245374785
  0.4056647162897278  0.0313906212280557  0.1267502675867433
  0.4031143847490668  0.0347330712149230  0.6199736319050757
  0.6001539016773876  0.9637895732003017  0.3762499815991873
  0.5989821843889160  0.9682488369282041  0.8750625296973382
  0.9688745784557184  0.3743560519561058  0.1268705224484421
  0.9650496078276447  0.3686679223860168  0.6197858877557962
  0.0360125625602876  0.6367264557368202  0.3763912953644564
  0.0320301197974615  0.6303503911494985  0.8751708818649249
  0.5088521733561890  0.6546008663414824  0.1231311672373536
  0.5123512732480080  0.6523199029338755  0.6186921762582216
  0.4656229564076995  0.3240308325870842  0.3805646035419841
  0.4848314781197374  0.3392263618336955  0.8800617610964636
  0.3460074048394830  0.8546167239696274  0.1232392403007481
  0.3473509067926983  0.8600349537562408  0.6188696862853078
  0.6761219825660518  0.1416288555718381  0.3794431665677109
  0.6608072881345706  0.1451234406059854  0.8802564509033104
  0.1456217152344692  0.4919573477987100  0.1231079692123416
  0.1397145199377547  0.4876285782016510  0.6185691260425799
  0.8582130965892034  0.5343231594323825  0.3798083201466511
  0.8550886037129857  0.5156813452764553  0.8802372370134393
  0.6976092190142111  0.6036880016033734  0.0327424600361326
  0.7292245413302538  0.6409171377115968  0.5318978091175453
  0.2594016451415655  0.3615422603864502  0.4623013981102773
  0.2950620524712875  0.3928867509901082  0.9683891680124930
  0.3968283653873499  0.0936332419529791  0.0325045275316640
  0.3583983401387698  0.0882332504126424  0.5321421200496061
  0.6384844109846384  0.8982970391343343  0.4615833337087523
  0.6078074714296662  0.9010783315274935  0.9677479300913916
  0.9060766869143535  0.3027308282081904  0.0328464845660648
  0.9112245370024112  0.2706454193431114  0.5319323079878586
  0.1016129844373026  0.7404844787476961  0.4617548604488562
  0.0989654442230474  0.7068650981926439  0.9677914354332842
  0.2500265692985550  0.3386835486197555  0.2953357884555956
  0.2406232660588827  0.3034340428929028  0.8060097595249758
  0.7550710105885798  0.6907367610726780  0.1960575878685447
  0.7469526110785765  0.6708688713783673  0.6994347688928499
  0.6581968844501702  0.9093206525744577  0.2944198846415915
  0.6967649551487014  0.9373888670781909  0.8053588849619189
  0.3088307600927038  0.0642788699525099  0.1957620136299738
  0.3292606199296912  0.0763423399650733  0.6996686180366680
  0.0896029699975500  0.7494675001362054  0.2947096247793795
  0.0638715380789066  0.7585242807428472  0.8050090213970762
  0.9367988048880846  0.2449036676544480  0.1959545072185378
  0.9238142829079621  0.2531762971868829  0.6994545091486586
  0.5409026989817178  0.4197931474336372  0.1535908080115576
  0.5469540379557216  0.4165587842777043  0.6299997394077650
  0.4659700146524628  0.5794168393780765  0.3684771600776102
  0.4561713079344258  0.5753525968880027  0.8476861000031803
  0.5802911649603075  0.1219263375130524  0.1538489868306101
  0.5832069178896262  0.1303786913969915  0.6299299125110309
  0.4197638791907679  0.8872258101471147  0.3686431420068672
  0.4248163387583901  0.8804701823716741  0.8475975163201568
  0.8783585723319689  0.4582908700254222  0.1541554421405991
  0.8694665461085194  0.4531391909021423  0.6300136278950745
  0.1129858199847149  0.5333245974518377  0.3684833877828808
  0.1196421200245510  0.5432821181286727  0.8484609814411996
  0.0000127663218734  0.0000941855938237  0.6310986901566693
 
  0.00000000E+00  0.00000000E+00  0.00000000E+00
  0.00000000E+00  0.00000000E+00  0.00000000E+00
  0.00000000E+00  0.00000000E+00  0.00000000E+00
  0.00000000E+00  0.00000000E+00  0.00000000E+00
  0.00000000E+00  0.00000000E+00  0.00000000E+00
  0.00000000E+00  0.00000000E+00  0.00000000E+00
  0.00000000E+00  0.00000000E+00  0.00000000E+00
  0.00000000E+00  0.00000000E+00  0.00000000E+00
  0.00000000E+00  0.00000000E+00  0.00000000E+00
  0.00000000E+00  0.00000000E+00  0.00000000E+00
  0.00000000E+00  0.00000000E+00  0.00000000E+00
  0.00000000E+00  0.00000000E+00  0.00000000E+00
  0.00000000E+00  0.00000000E+00  0.00000000E+00
  0.00000000E+00  0.00000000E+00  0.00000000E+00
  0.00000000E+00  0.00000000E+00  0.00000000E+00
  0.00000000E+00  0.00000000E+00  0.00000000E+00
  0.00000000E+00  0.00000000E+00  0.00000000E+00
  0.00000000E+00  0.00000000E+00  0.00000000E+00
  0.00000000E+00  0.00000000E+00  0.00000000E+00
  0.00000000E+00  0.00000000E+00  0.00000000E+00
  0.00000000E+00  0.00000000E+00  0.00000000E+00
  0.00000000E+00  0.00000000E+00  0.00000000E+00
  0.00000000E+00  0.00000000E+00  0.00000000E+00
  0.00000000E+00  0.00000000E+00  0.00000000E+00
  0.00000000E+00  0.00000000E+00  0.00000000E+00
  0.00000000E+00  0.00000000E+00  0.00000000E+00
  0.00000000E+00  0.00000000E+00  0.00000000E+00
  0.00000000E+00  0.00000000E+00  0.00000000E+00
  0.00000000E+00  0.00000000E+00  0.00000000E+00
  0.00000000E+00  0.00000000E+00  0.00000000E+00
  0.00000000E+00  0.00000000E+00  0.00000000E+00
  0.00000000E+00  0.00000000E+00  0.00000000E+00
  0.00000000E+00  0.00000000E+00  0.00000000E+00
  0.00000000E+00  0.00000000E+00  0.00000000E+00
  0.00000000E+00  0.00000000E+00  0.00000000E+00
  0.00000000E+00  0.00000000E+00  0.00000000E+00
  0.00000000E+00  0.00000000E+00  0.00000000E+00
  0.00000000E+00  0.00000000E+00  0.00000000E+00
  0.00000000E+00  0.00000000E+00  0.00000000E+00
  0.00000000E+00  0.00000000E+00  0.00000000E+00
  0.00000000E+00  0.00000000E+00  0.00000000E+00
  0.00000000E+00  0.00000000E+00  0.00000000E+00
  0.00000000E+00  0.00000000E+00  0.00000000E+00
  0.00000000E+00  0.00000000E+00  0.00000000E+00
  0.00000000E+00  0.00000000E+00  0.00000000E+00
  0.00000000E+00  0.00000000E+00  0.00000000E+00
  0.00000000E+00  0.00000000E+00  0.00000000E+00
  0.00000000E+00  0.00000000E+00  0.00000000E+00
  0.00000000E+00  0.00000000E+00  0.00000000E+00
  0.00000000E+00  0.00000000E+00  0.00000000E+00
  0.00000000E+00  0.00000000E+00  0.00000000E+00
  0.00000000E+00  0.00000000E+00  0.00000000E+00
  0.00000000E+00  0.00000000E+00  0.00000000E+00
  0.00000000E+00  0.00000000E+00  0.00000000E+00
  0.00000000E+00  0.00000000E+00  0.00000000E+00
  0.00000000E+00  0.00000000E+00  0.00000000E+00
  0.00000000E+00  0.00000000E+00  0.00000000E+00
  0.00000000E+00  0.00000000E+00  0.00000000E+00
  0.00000000E+00  0.00000000E+00  0.00000000E+00
  0.00000000E+00  0.00000000E+00  0.00000000E+00
  0.00000000E+00  0.00000000E+00  0.00000000E+00
  0.00000000E+00  0.00000000E+00  0.00000000E+00
  0.00000000E+00  0.00000000E+00  0.00000000E+00
  0.00000000E+00  0.00000000E+00  0.00000000E+00
  0.00000000E+00  0.00000000E+00  0.00000000E+00
  0.00000000E+00  0.00000000E+00  0.00000000E+00
  0.00000000E+00  0.00000000E+00  0.00000000E+00
  0.00000000E+00  0.00000000E+00  0.00000000E+00
  0.00000000E+00  0.00000000E+00  0.00000000E+00
  0.00000000E+00  0.00000000E+00  0.00000000E+00
  0.00000000E+00  0.00000000E+00  0.00000000E+00
  0.00000000E+00  0.00000000E+00  0.00000000E+00
  0.00000000E+00  0.00000000E+00  0.00000000E+00
  0.00000000E+00  0.00000000E+00  0.00000000E+00
  0.00000000E+00  0.00000000E+00  0.00000000E+00
  0.00000000E+00  0.00000000E+00  0.00000000E+00
  0.00000000E+00  0.00000000E+00  0.00000000E+00
  0.00000000E+00  0.00000000E+00  0.00000000E+00
  0.00000000E+00  0.00000000E+00  0.00000000E+00
  0.00000000E+00  0.00000000E+00  0.00000000E+00
  0.00000000E+00  0.00000000E+00  0.00000000E+00
  0.00000000E+00  0.00000000E+00  0.00000000E+00
