generated by phonopy                    
   1.00000000000000     
    11.7777700938999992   -0.0000006592896312    0.0000118211769744
    -0.0000006477562692   11.7777479613999994   -0.0000130806483528
     0.0000177256125076   -0.0000204342245446   17.8544012557999991
   Bi   Cu   Se   I    O 
    36    36    36     1    35
Direct
  0.9673023946762740  0.1880639248087874  0.4030003920603491
  0.3660399846020468  0.1447308068664057  0.4026973244693579
  0.6665949549549524  0.1666917632951765  0.4270244808068497
  0.9991951697287362  0.5046151048912151  0.4303308753876891
  0.3325499244141596  0.4968128428631644  0.4337776332200107
  0.6681703335634523  0.5035689661102154  0.4280100507716540
  0.0006744639064138  0.8364251005408221  0.4335107003078136
  0.3342057080192617  0.8284779240948339  0.4302452118557270
  0.6652012300538956  0.8297505310263276  0.4279792579528916
  0.0001626579450331  0.1672622124878131  0.9293014677405367
  0.3333143693744631  0.1661864781910722  0.9293002544777167
  0.6667467479180758  0.1666952123432281  0.9300762619590230
  0.9997937417845080  0.4986341604136513  0.9297645960955592
  0.3335972943548100  0.4997294869628206  0.9286709724373878
  0.6677106074058088  0.4994709983519741  0.9298471769490888
  0.9998443362677776  0.8337683079823890  0.9287153232949592
  0.3336507995653477  0.8348585196200418  0.9298003687877454
  0.6657442473008643  0.8339487848566947  0.9298502462672644
  0.1661912259449494  0.0001789885031656  0.0707783056432518
  0.4997169439875506  0.9998541334313202  0.0713757142600571
  0.8348398392974303  0.9998000398794886  0.0702923908831536
  0.1672656146995024  0.3333266594851878  0.0707446691750349
  0.4986124523866806  0.3336578065648226  0.0702618918356848
  0.8337592311483562  0.3336069106059512  0.0713565388010480
  0.1667181084199640  0.6667295975216376  0.0699826244126101
  0.4994814054840333  0.6657312217964844  0.0701995514902762
  0.8339655384257156  0.6676978780025493  0.0702154211008050
  0.1451311409366340  0.9675550949878655  0.5968195357836308
  0.4968399786412405  0.0007412561660303  0.5663769783912258
  0.8286900982520393  0.9991529108181965  0.5697067414896821
  0.1884600323818120  0.3663061574222155  0.5975983678967438
  0.5048264214705966  0.3341613098669285  0.5698326604365249
  0.8364466542226481  0.3326236853906508  0.5664462674735020
  0.1665616544080564  0.6667605106572339  0.5730341130770213
  0.5036102691619391  0.6652118469684325  0.5720705557446379
  0.8297964885323594  0.6681877388884203  0.5720519652617782
  0.0020800773972596  0.9981849954264064  0.2483145674071707
  0.3312329406506791  0.9933254503235602  0.2462120199551308
  0.6778413574685729  0.0020271829341851  0.2419849516202817
  0.0020434985265041  0.3400370445270298  0.2462645006997377
  0.3312403600812601  0.3352853043310091  0.2483608895782368
  0.6556671540977064  0.3314222264635660  0.2421230868836162
  0.0039762160581844  0.6688443788070089  0.2503582431170059
  0.3293832716414542  0.6644004002046202  0.2503616811636746
  0.6667142115953624  0.6666173728484637  0.2502178728277329
  0.9934820296704032  0.0021913518364371  0.7538107637476514
  0.3352345816166320  0.0021171469685939  0.7517347014274876
  0.6645326620664065  0.0039342351492877  0.7497269299945160
  0.9981339737080930  0.3312832231715959  0.7517063254757588
  0.3401907916002074  0.3313839823986697  0.7538283966953259
  0.6689734680388497  0.3293346127481200  0.7496769651179562
  0.0019458441188078  0.6560248035582177  0.7579366263851668
  0.3313388388670333  0.6781974180088355  0.7580699165230911
  0.6667231388773160  0.6667717248145024  0.7498428549686551
  0.1666797155112718  0.1667147546741248  0.2525602080020661
  0.5031113551107254  0.1679049621446396  0.2452126915731938
  0.8304128317588848  0.1654718719542956  0.2451802417913527
  0.1655961496190343  0.5013964786849598  0.2498565087950197
  0.4979868673903241  0.5045537776666151  0.2461245699370593
  0.8368842166321713  0.5176346287893452  0.2432597544758437
  0.1678200988757439  0.8318797319157483  0.2498977180996746
  0.4965200874068216  0.8152998232035458  0.2432022454971516
  0.8354024242456788  0.8285828753279674  0.2461113751579589
  0.1666834215588793  0.1666668662700133  0.7475004516635053
  0.5015410758355117  0.1677869080892052  0.7502027506441138
  0.8320361456405010  0.1655667324580392  0.7501542365995419
  0.1653554333005829  0.5032870544008645  0.7549608927864284
  0.5180388257395023  0.4965132614195724  0.7569096975412037
  0.8286329498230600  0.4980485494439790  0.7540033094679046
  0.1677951740304309  0.8305941801662726  0.7547636488446017
  0.5046038317685770  0.8354677015860261  0.7538789400371968
  0.8157062393436831  0.8368744859490178  0.7567497304442981
  0.1644816250074399  0.3371788642125537  0.3361283739210918
  0.5002181792175335  0.3373625747029791  0.3341583469286249
  0.8242975256898077  0.3424673683480108  0.3257317391261978
  0.1666892970540772  0.6666184578450540  0.3378587826806125
  0.4991181765032309  0.6632070395148304  0.3374047053538334
  0.8342594475408021  0.6699297667371127  0.3373775746039911
  0.1688317452721577  0.9962141099978439  0.3361433941301541
  0.5091928744854570  0.9905697549218360  0.3255859336540183
  0.8331035049419029  0.9959034800456550  0.3340864290977024
  0.1672720412555506  0.3321477085962030  0.8363235588105908
  0.5040718174168433  0.3314291630480781  0.8405042560381730
  0.8330684625295319  0.3316685007031026  0.8389303951274059
  0.1666253634358625  0.6669313500133569  0.8426510341414826
  0.5015754071717495  0.6666770835351130  0.8385241410312361
  0.8318498240987537  0.6668867122767779  0.8385378693203620
  0.1661857107377216  0.0013649889750198  0.8364345920004723
  0.5003778469917322  0.0017089646832034  0.8389521007814906
  0.8294778502628617  0.0019398052998625  0.8404521296864331
  0.3321250116082268  0.1661749999039941  0.1637046308739798
  0.6667182948700017  0.1667571094167997  0.1574056654973433
  0.0013439288731689  0.1672617594270207  0.1636534699431991
  0.3317023229247127  0.5003422874389969  0.1610930169424591
  0.6668101384774445  0.5015271341507344  0.1615234100702168
  0.0019495274144390  0.5039674399948382  0.1595715732956293
  0.3314441859945987  0.8293721347095868  0.1595869779035368
  0.6665978964095203  0.8317971924449168  0.1615316102794822
  0.0017430715901696  0.8330312554574419  0.1611403934719178
  0.3372430245237510  0.1688970494748503  0.6639796446947202
  0.6667486891686849  0.1666053193197996  0.6621994428796683
  0.9962838394398048  0.1645528613899856  0.6638635795932615
  0.3427138199788544  0.5094329733718581  0.6745938361824315
  0.6700688487817530  0.4991428959851234  0.6626765082239885
  0.9958793749144874  0.5004208949383013  0.6660146331014829
  0.3373433578644338  0.8333008790673588  0.6658548488117688
  0.6633461228408919  0.8342828420493333  0.6626605010860160
  0.9908152149668226  0.8245404093904583  0.6742057406517930
  0.1669581726740006  0.1673410202444856  0.5000308320644749
  0.5018885806639304  0.1729417760829293  0.4953238905449524
  0.8312703529816190  0.1604098815303985  0.4953679468761436
  0.1603323287382352  0.5019500809258304  0.5048319478814918
  0.5073886563331698  0.5013779716154545  0.4990025802846390
  0.8319966022363303  0.5073091160315997  0.5011292944269812
  0.1728637607930068  0.8313361977860012  0.5045953175573104
  0.5013511443490799  0.8260344396838946  0.5010503703450695
  0.8261168244968928  0.8320205667519716  0.4989288009302300
  0.1667375832282687  0.1667322276217789  0.0000297434424965
  0.4988929064938858  0.1665615376084659  0.0006234722296128
  0.8345678825888143  0.1668670295701773  0.0006263703918492
  0.1668759963989714  0.4988961730452530  0.9994043742160414
  0.4996898095444990  0.4993556607696306  0.9997448045165882
  0.8340927971392560  0.4996923704965113  0.0002665100967221
  0.1665704771928347  0.8345725167689082  0.9994643564002814
  0.4993599879634871  0.8337473316717663  0.0003013752293128
  0.8337454533131776  0.8340883799270529  0.9998026930526507
  0.0004757660933592  0.0004743201672355  0.9998915658682250
  0.3330051501597495  0.0004917964820237  0.0002121223608427
  0.6663169041135859  0.9997359007290925  0.0012866975344963
  0.0004558524923013  0.3329932797244055  0.0001758452238789
  0.3329779946145877  0.3330227446672964  0.9998406394738950
  0.6671417298363025  0.3337117623867627  0.0012580520103853
  0.9997270892890029  0.6671308133702780  0.9987915194330839
  0.3337018027451109  0.6663051321058333  0.9987798947682265
  0.6667245740764898  0.6667056555001594  0.0000287353952686
  0.9968273899465316  0.9788995766762412  0.5138422797378155
  0.3546300938819513  0.9967122386905274  0.4858914812019748
  0.6607330446316055  0.0003312592639801  0.4958241296480139
  0.9784107275622915  0.3364734068824617  0.4858780362064010
  0.3365902728867667  0.3551118578966950  0.5145037654863245
  0.6726135179077346  0.3329582072048751  0.4958478795594061
  0.0003390936104282  0.6726249283828665  0.5041933835411712
  0.3329568846114697  0.6607437986624518  0.5042507484079550
  0.6667174191075418  0.6667055542010445  0.5000299789320763
 
  0.00000000E+00  0.00000000E+00  0.00000000E+00
  0.00000000E+00  0.00000000E+00  0.00000000E+00
  0.00000000E+00  0.00000000E+00  0.00000000E+00
  0.00000000E+00  0.00000000E+00  0.00000000E+00
  0.00000000E+00  0.00000000E+00  0.00000000E+00
  0.00000000E+00  0.00000000E+00  0.00000000E+00
  0.00000000E+00  0.00000000E+00  0.00000000E+00
  0.00000000E+00  0.00000000E+00  0.00000000E+00
  0.00000000E+00  0.00000000E+00  0.00000000E+00
  0.00000000E+00  0.00000000E+00  0.00000000E+00
  0.00000000E+00  0.00000000E+00  0.00000000E+00
  0.00000000E+00  0.00000000E+00  0.00000000E+00
  0.00000000E+00  0.00000000E+00  0.00000000E+00
  0.00000000E+00  0.00000000E+00  0.00000000E+00
  0.00000000E+00  0.00000000E+00  0.00000000E+00
  0.00000000E+00  0.00000000E+00  0.00000000E+00
  0.00000000E+00  0.00000000E+00  0.00000000E+00
  0.00000000E+00  0.00000000E+00  0.00000000E+00
  0.00000000E+00  0.00000000E+00  0.00000000E+00
  0.00000000E+00  0.00000000E+00  0.00000000E+00
  0.00000000E+00  0.00000000E+00  0.00000000E+00
  0.00000000E+00  0.00000000E+00  0.00000000E+00
  0.00000000E+00  0.00000000E+00  0.00000000E+00
  0.00000000E+00  0.00000000E+00  0.00000000E+00
  0.00000000E+00  0.00000000E+00  0.00000000E+00
  0.00000000E+00  0.00000000E+00  0.00000000E+00
  0.00000000E+00  0.00000000E+00  0.00000000E+00
  0.00000000E+00  0.00000000E+00  0.00000000E+00
  0.00000000E+00  0.00000000E+00  0.00000000E+00
  0.00000000E+00  0.00000000E+00  0.00000000E+00
  0.00000000E+00  0.00000000E+00  0.00000000E+00
  0.00000000E+00  0.00000000E+00  0.00000000E+00
  0.00000000E+00  0.00000000E+00  0.00000000E+00
  0.00000000E+00  0.00000000E+00  0.00000000E+00
  0.00000000E+00  0.00000000E+00  0.00000000E+00
  0.00000000E+00  0.00000000E+00  0.00000000E+00
  0.00000000E+00  0.00000000E+00  0.00000000E+00
  0.00000000E+00  0.00000000E+00  0.00000000E+00
  0.00000000E+00  0.00000000E+00  0.00000000E+00
  0.00000000E+00  0.00000000E+00  0.00000000E+00
  0.00000000E+00  0.00000000E+00  0.00000000E+00
  0.00000000E+00  0.00000000E+00  0.00000000E+00
  0.00000000E+00  0.00000000E+00  0.00000000E+00
  0.00000000E+00  0.00000000E+00  0.00000000E+00
  0.00000000E+00  0.00000000E+00  0.00000000E+00
  0.00000000E+00  0.00000000E+00  0.00000000E+00
  0.00000000E+00  0.00000000E+00  0.00000000E+00
  0.00000000E+00  0.00000000E+00  0.00000000E+00
  0.00000000E+00  0.00000000E+00  0.00000000E+00
  0.00000000E+00  0.00000000E+00  0.00000000E+00
  0.00000000E+00  0.00000000E+00  0.00000000E+00
  0.00000000E+00  0.00000000E+00  0.00000000E+00
  0.00000000E+00  0.00000000E+00  0.00000000E+00
  0.00000000E+00  0.00000000E+00  0.00000000E+00
  0.00000000E+00  0.00000000E+00  0.00000000E+00
  0.00000000E+00  0.00000000E+00  0.00000000E+00
  0.00000000E+00  0.00000000E+00  0.00000000E+00
  0.00000000E+00  0.00000000E+00  0.00000000E+00
  0.00000000E+00  0.00000000E+00  0.00000000E+00
  0.00000000E+00  0.00000000E+00  0.00000000E+00
  0.00000000E+00  0.00000000E+00  0.00000000E+00
  0.00000000E+00  0.00000000E+00  0.00000000E+00
  0.00000000E+00  0.00000000E+00  0.00000000E+00
  0.00000000E+00  0.00000000E+00  0.00000000E+00
  0.00000000E+00  0.00000000E+00  0.00000000E+00
  0.00000000E+00  0.00000000E+00  0.00000000E+00
  0.00000000E+00  0.00000000E+00  0.00000000E+00
  0.00000000E+00  0.00000000E+00  0.00000000E+00
  0.00000000E+00  0.00000000E+00  0.00000000E+00
  0.00000000E+00  0.00000000E+00  0.00000000E+00
  0.00000000E+00  0.00000000E+00  0.00000000E+00
  0.00000000E+00  0.00000000E+00  0.00000000E+00
  0.00000000E+00  0.00000000E+00  0.00000000E+00
  0.00000000E+00  0.00000000E+00  0.00000000E+00
  0.00000000E+00  0.00000000E+00  0.00000000E+00
  0.00000000E+00  0.00000000E+00  0.00000000E+00
  0.00000000E+00  0.00000000E+00  0.00000000E+00
  0.00000000E+00  0.00000000E+00  0.00000000E+00
  0.00000000E+00  0.00000000E+00  0.00000000E+00
  0.00000000E+00  0.00000000E+00  0.00000000E+00
  0.00000000E+00  0.00000000E+00  0.00000000E+00
  0.00000000E+00  0.00000000E+00  0.00000000E+00
  0.00000000E+00  0.00000000E+00  0.00000000E+00
  0.00000000E+00  0.00000000E+00  0.00000000E+00
  0.00000000E+00  0.00000000E+00  0.00000000E+00
  0.00000000E+00  0.00000000E+00  0.00000000E+00
  0.00000000E+00  0.00000000E+00  0.00000000E+00
  0.00000000E+00  0.00000000E+00  0.00000000E+00
  0.00000000E+00  0.00000000E+00  0.00000000E+00
  0.00000000E+00  0.00000000E+00  0.00000000E+00
  0.00000000E+00  0.00000000E+00  0.00000000E+00
  0.00000000E+00  0.00000000E+00  0.00000000E+00
  0.00000000E+00  0.00000000E+00  0.00000000E+00
  0.00000000E+00  0.00000000E+00  0.00000000E+00
  0.00000000E+00  0.00000000E+00  0.00000000E+00
  0.00000000E+00  0.00000000E+00  0.00000000E+00
  0.00000000E+00  0.00000000E+00  0.00000000E+00
  0.00000000E+00  0.00000000E+00  0.00000000E+00
  0.00000000E+00  0.00000000E+00  0.00000000E+00
  0.00000000E+00  0.00000000E+00  0.00000000E+00
  0.00000000E+00  0.00000000E+00  0.00000000E+00
  0.00000000E+00  0.00000000E+00  0.00000000E+00
  0.00000000E+00  0.00000000E+00  0.00000000E+00
  0.00000000E+00  0.00000000E+00  0.00000000E+00
  0.00000000E+00  0.00000000E+00  0.00000000E+00
  0.00000000E+00  0.00000000E+00  0.00000000E+00
  0.00000000E+00  0.00000000E+00  0.00000000E+00
  0.00000000E+00  0.00000000E+00  0.00000000E+00
  0.00000000E+00  0.00000000E+00  0.00000000E+00
  0.00000000E+00  0.00000000E+00  0.00000000E+00
  0.00000000E+00  0.00000000E+00  0.00000000E+00
  0.00000000E+00  0.00000000E+00  0.00000000E+00
  0.00000000E+00  0.00000000E+00  0.00000000E+00
  0.00000000E+00  0.00000000E+00  0.00000000E+00
  0.00000000E+00  0.00000000E+00  0.00000000E+00
  0.00000000E+00  0.00000000E+00  0.00000000E+00
  0.00000000E+00  0.00000000E+00  0.00000000E+00
  0.00000000E+00  0.00000000E+00  0.00000000E+00
  0.00000000E+00  0.00000000E+00  0.00000000E+00
  0.00000000E+00  0.00000000E+00  0.00000000E+00
  0.00000000E+00  0.00000000E+00  0.00000000E+00
  0.00000000E+00  0.00000000E+00  0.00000000E+00
  0.00000000E+00  0.00000000E+00  0.00000000E+00
  0.00000000E+00  0.00000000E+00  0.00000000E+00
  0.00000000E+00  0.00000000E+00  0.00000000E+00
  0.00000000E+00  0.00000000E+00  0.00000000E+00
  0.00000000E+00  0.00000000E+00  0.00000000E+00
  0.00000000E+00  0.00000000E+00  0.00000000E+00
  0.00000000E+00  0.00000000E+00  0.00000000E+00
  0.00000000E+00  0.00000000E+00  0.00000000E+00
  0.00000000E+00  0.00000000E+00  0.00000000E+00
  0.00000000E+00  0.00000000E+00  0.00000000E+00
  0.00000000E+00  0.00000000E+00  0.00000000E+00
  0.00000000E+00  0.00000000E+00  0.00000000E+00
  0.00000000E+00  0.00000000E+00  0.00000000E+00
  0.00000000E+00  0.00000000E+00  0.00000000E+00
  0.00000000E+00  0.00000000E+00  0.00000000E+00
  0.00000000E+00  0.00000000E+00  0.00000000E+00
  0.00000000E+00  0.00000000E+00  0.00000000E+00
  0.00000000E+00  0.00000000E+00  0.00000000E+00
  0.00000000E+00  0.00000000E+00  0.00000000E+00
  0.00000000E+00  0.00000000E+00  0.00000000E+00
  0.00000000E+00  0.00000000E+00  0.00000000E+00
  0.00000000E+00  0.00000000E+00  0.00000000E+00
