generated by phonopy                    
   1.00000000000000     
    11.7766717401999994    0.0000001554515406   -0.0000000066307821
     0.0000001547684238   11.7766718890999993   -0.0000001188749358
     0.0000000082086546   -0.0000001787909814   17.8473238844999997
   Bi   Cu   Se   O    Li
    36    36    36    36     1
Direct
  0.3333521339979626  0.1632374709564886  0.4327304972154309
  0.6667520859607237  0.1631338778959517  0.4300722315607004
  0.9999523350824262  0.1631344732748659  0.4300722821316114
  0.3333516746370151  0.4982970665992354  0.4323899479165050
  0.6673669258398220  0.4974829679404991  0.4309648982403687
  0.9993371538438112  0.4974835544575171  0.4309647181131737
  0.3333522083691776  0.8292663140531573  0.4324910780020801
  0.6662431614443065  0.8292261359911279  0.4312810911001677
  0.0004607349443049  0.8292273250061513  0.4312809509354381
  0.3333486887509594  0.1633957977219680  0.9285862935340177
  0.6648573434920095  0.1630274812087791  0.9271023458768255
  0.0018418378187874  0.1630276736309568  0.9271030702212073
  0.3333491118729626  0.4981800998973540  0.9283097220141912
  0.6639743672420622  0.4991167173815043  0.9262549392671389
  0.0027236740051038  0.4991170358252219  0.9262553631011343
  0.3333484740057173  0.8300598465614755  0.9284776454970967
  0.6649930289116455  0.8295423684613894  0.9272880455444010
  0.0017053798681914  0.8295429856063095  0.9272889662736361
  0.1674596409150055  0.9958774629297764  0.0704008731840986
  0.4992383944901277  0.9958768594488774  0.0704011205066521
  0.8333500525802435  0.9941099388552175  0.0660294388573988
  0.1676333724607630  0.3314540814000182  0.0695150532555076
  0.4990654165125861  0.3314539510858552  0.0695146447292601
  0.8333495116466665  0.3337898677745343  0.0622488127622631
  0.1670036965938166  0.6645054702443076  0.0711279495044153
  0.4996945042344123  0.6645041639666900  0.0711271938393878
  0.8333492279079735  0.6636909590808457  0.0689974082570757
  0.1660526877703958  0.9969538376732885  0.5730280434470885
  0.5006517661988141  0.9969531295205485  0.5730279011802750
  0.8333526380903464  0.9969522412004750  0.5720950423701083
  0.1660107611074793  0.3304223099383208  0.5727207592927357
  0.5006935529008345  0.3304220903411519  0.5727205471476466
  0.8333526157377165  0.3298014196710426  0.5721950600861092
  0.1661215797239564  0.6632417184615278  0.5737745428356575
  0.5005818802301505  0.6632419778578367  0.5737746445623202
  0.8333526330594481  0.6636264626596997  0.5730189536093420
  0.3333514671851674  0.9965944245623461  0.2505248857146896
  0.6478127699157312  0.9900163151779608  0.2508419145160374
  0.0188892099072220  0.9900185116099891  0.2508418567357964
  0.3333523559331937  0.3315048828312470  0.2502833999621288
  0.6458968718404208  0.3421673998651471  0.2528968129016249
  0.0208048472788320  0.3421748407779148  0.2528984937146532
  0.3333507434601515  0.6641818773747872  0.2504821252583795
  0.6627371375979507  0.6597629122123081  0.2513669810487187
  0.0039634536092166  0.6597683532594374  0.2513666199023490
  0.3333502850209911  0.9975755334847420  0.7504099799345241
  0.6671532078319018  0.9973664024431201  0.7508401660363333
  0.9995472734137820  0.9973667198514065  0.7508398055859047
  0.3333503550312926  0.3298003881076852  0.7504776489449085
  0.6670609996956003  0.3297614977602308  0.7510323976682614
  0.9996405205348537  0.3297621688674681  0.7510318135211236
  0.3333486439038396  0.6635906287061744  0.7498652967964290
  0.6668519996263882  0.6638466445521090  0.7500865723491401
  0.9998477953304175  0.6638476433020486  0.7500862620694093
  0.1721089286941577  0.1644597793697429  0.2539983307788987
  0.4945950671792900  0.1644574241633237  0.2539980887511462
  0.8333522679143357  0.2792888513818568  0.2175821926124897
  0.1718148461430999  0.5006204602562434  0.2510982851605021
  0.4948862222567740  0.5006149775968538  0.2510985668928996
  0.8333491259492760  0.4945154531602824  0.2493979001509317
  0.1703988044364522  0.8276085913709323  0.2518680958930446
  0.4963001941652649  0.8276070827421265  0.2518682112472774
  0.8333497375511669  0.0769597919434872  0.2263097814908619
  0.1664598737979546  0.1636064487702455  0.7500833637376800
  0.5002443733928672  0.1636056930073906  0.7500833191321874
  0.8333529065754206  0.1637409402225387  0.7512994767237373
  0.1664513716245821  0.4964575234098092  0.7503528206545340
  0.5002527351842758  0.4964565090628241  0.7503526009788004
  0.8333518252481511  0.4966825496844791  0.7512535405271734
  0.1663154051468680  0.8312991899515083  0.7501392864969390
  0.5003883852185922  0.8312980466250863  0.7501391919811340
  0.8333527492740771  0.8309286459609595  0.7509135182081366
  0.1716265564428525  0.3319570389132593  0.3414520195953799
  0.4950772336008811  0.3319546209692916  0.3414521252054215
  0.8333523466752055  0.3342455800245929  0.3446972349979731
  0.1683327056983757  0.6634379981886198  0.3392441555574734
  0.4983725692293106  0.6634360857150767  0.3392441200559944
  0.8333514587239463  0.6605402870493862  0.3365333050365393
  0.1706081130810517  0.9963135928189146  0.3408325466452879
  0.4960969087616007  0.9963117929286298  0.3408326835052762
  0.8333521154906194  0.9920858935085377  0.3437080422684957
  0.1669954554769078  0.3299980185619518  0.8379228701148804
  0.4997049325318912  0.3299976326340968  0.8379229250819336
  0.8333510742195074  0.3303721624417690  0.8386064327955012
  0.1668883035161883  0.6641608671430035  0.8375025151490760
  0.4998116321146853  0.6641608075114718  0.8375027350901547
  0.8333500680476433  0.6642217263718351  0.8378257776479785
  0.1668285460738659  0.9972710175731265  0.8380150196952911
  0.4998722119715282  0.9972696582481788  0.8380148830314909
  0.8333504752373742  0.9968616930068563  0.8385792440989874
  0.0013851025778919  0.1665666051134309  0.1688208299548037
  0.3333506161580644  0.1640736406649381  0.1633894937635674
  0.6653163191141118  0.1665639052412047  0.1688202500682081
  0.0012646012818891  0.4976574262174012  0.1620881680775526
  0.3333501567396553  0.4968583823834649  0.1618388246452440
  0.6654328852911391  0.4976544928293620  0.1620874602850293
  0.0020455320200625  0.8285657651895804  0.1639058085955156
  0.3333513464896001  0.8308990715643318  0.1624295386084853
  0.6646527633139456  0.8285640083436405  0.1639034890697744
  0.9993257335427614  0.1635286951231478  0.6639252883537239
  0.3333521073843144  0.1635906072832043  0.6638673649265883
  0.6673787624543124  0.1635280359431803  0.6639255500228174
  0.9995195906946250  0.4964811519624774  0.6643121132676981
  0.3333517867294375  0.4966662572237084  0.6643370536945596
  0.6671841651381669  0.4964810894630958  0.6643127023901911
  0.9995392926860660  0.8309247517209357  0.6640465787791996
  0.3333512366637947  0.8307106444949142  0.6643590643493056
  0.6671625875273506  0.8309240370867101  0.6640468116228817
  0.1666123116854195  0.1633336010602946  0.9999751201196432
  0.5000875050582394  0.1633335165171772  0.9999741580918950
  0.8333492926435611  0.1632462181147218  0.9988967760904970
  0.1673277517751401  0.4973479587766079  0.9996053028790257
  0.4993715369312213  0.4973471479182336  0.9996043970561175
  0.8333497964814285  0.5000081177500277  0.9966424537534238
  0.1672564177380380  0.8310187448849291  0.9998151732659437
  0.4994431058549580  0.8310181618345780  0.9998149374127578
  0.8333499027880791  0.8287640638347398  0.9983790733644966
  0.1662599559172762  0.1634429517088662  0.5021083094894792
  0.5004443312118454  0.1634428446100955  0.5021088844418884
  0.8333520094155915  0.1634668228252281  0.5008832583784795
  0.1665410549486452  0.4973446352944322  0.5028158893192654
  0.5001628249089691  0.4973443079245996  0.5028160070482670
  0.8333523982378352  0.4973426387783491  0.5021035511156029
  0.1667445938948902  0.8299141681303297  0.5026609959369210
  0.4999589064942711  0.8299134274354287  0.5026609314674602
  0.8333520384191999  0.8297684750395860  0.5013791861122172
  0.3333496170966583  0.9968156155534231  0.0004467256159515
  0.6660875583091652  0.9964685769357899  0.9995152893128534
  0.0006116435440546  0.9964691777909778  0.9995155242589888
  0.3333495538809785  0.3306304614450681  0.9995817911220257
  0.6650642313517778  0.3310958045735077  0.9978305082836485
  0.0016352389020540  0.3310964522774071  0.9978310262904841
  0.3333487690280066  0.6642184031239253  0.9994907915230939
  0.6656815023978666  0.6641067735664237  0.9996215416290539
  0.0010183696167303  0.6641072004518946  0.9996219636349934
  0.3333517390685259  0.9966895486509912  0.5026446099108668
  0.6666837472352611  0.9965788163851386  0.5012259723504897
  0.0000199174134039  0.9965787166697666  0.5012256300769167
  0.3333521711936811  0.3303313901472151  0.5026012006267777
  0.6667941149487504  0.3301040851357158  0.5012689569463618
  0.9999094643960689  0.3301040879208230  0.5012689322607997
  0.3333515686418451  0.6638719964231328  0.5035731270991803
  0.6669314224051419  0.6636761806975642  0.5024523097496356
  0.9997722673505507  0.6636774313040164  0.5024521354312199
  0.8333507189286564  0.8291204131457164  0.2509974113884539
 
  0.00000000E+00  0.00000000E+00  0.00000000E+00
  0.00000000E+00  0.00000000E+00  0.00000000E+00
  0.00000000E+00  0.00000000E+00  0.00000000E+00
  0.00000000E+00  0.00000000E+00  0.00000000E+00
  0.00000000E+00  0.00000000E+00  0.00000000E+00
  0.00000000E+00  0.00000000E+00  0.00000000E+00
  0.00000000E+00  0.00000000E+00  0.00000000E+00
  0.00000000E+00  0.00000000E+00  0.00000000E+00
  0.00000000E+00  0.00000000E+00  0.00000000E+00
  0.00000000E+00  0.00000000E+00  0.00000000E+00
  0.00000000E+00  0.00000000E+00  0.00000000E+00
  0.00000000E+00  0.00000000E+00  0.00000000E+00
  0.00000000E+00  0.00000000E+00  0.00000000E+00
  0.00000000E+00  0.00000000E+00  0.00000000E+00
  0.00000000E+00  0.00000000E+00  0.00000000E+00
  0.00000000E+00  0.00000000E+00  0.00000000E+00
  0.00000000E+00  0.00000000E+00  0.00000000E+00
  0.00000000E+00  0.00000000E+00  0.00000000E+00
  0.00000000E+00  0.00000000E+00  0.00000000E+00
  0.00000000E+00  0.00000000E+00  0.00000000E+00
  0.00000000E+00  0.00000000E+00  0.00000000E+00
  0.00000000E+00  0.00000000E+00  0.00000000E+00
  0.00000000E+00  0.00000000E+00  0.00000000E+00
  0.00000000E+00  0.00000000E+00  0.00000000E+00
  0.00000000E+00  0.00000000E+00  0.00000000E+00
  0.00000000E+00  0.00000000E+00  0.00000000E+00
  0.00000000E+00  0.00000000E+00  0.00000000E+00
  0.00000000E+00  0.00000000E+00  0.00000000E+00
  0.00000000E+00  0.00000000E+00  0.00000000E+00
  0.00000000E+00  0.00000000E+00  0.00000000E+00
  0.00000000E+00  0.00000000E+00  0.00000000E+00
  0.00000000E+00  0.00000000E+00  0.00000000E+00
  0.00000000E+00  0.00000000E+00  0.00000000E+00
  0.00000000E+00  0.00000000E+00  0.00000000E+00
  0.00000000E+00  0.00000000E+00  0.00000000E+00
  0.00000000E+00  0.00000000E+00  0.00000000E+00
  0.00000000E+00  0.00000000E+00  0.00000000E+00
  0.00000000E+00  0.00000000E+00  0.00000000E+00
  0.00000000E+00  0.00000000E+00  0.00000000E+00
  0.00000000E+00  0.00000000E+00  0.00000000E+00
  0.00000000E+00  0.00000000E+00  0.00000000E+00
  0.00000000E+00  0.00000000E+00  0.00000000E+00
  0.00000000E+00  0.00000000E+00  0.00000000E+00
  0.00000000E+00  0.00000000E+00  0.00000000E+00
  0.00000000E+00  0.00000000E+00  0.00000000E+00
  0.00000000E+00  0.00000000E+00  0.00000000E+00
  0.00000000E+00  0.00000000E+00  0.00000000E+00
  0.00000000E+00  0.00000000E+00  0.00000000E+00
  0.00000000E+00  0.00000000E+00  0.00000000E+00
  0.00000000E+00  0.00000000E+00  0.00000000E+00
  0.00000000E+00  0.00000000E+00  0.00000000E+00
  0.00000000E+00  0.00000000E+00  0.00000000E+00
  0.00000000E+00  0.00000000E+00  0.00000000E+00
  0.00000000E+00  0.00000000E+00  0.00000000E+00
  0.00000000E+00  0.00000000E+00  0.00000000E+00
  0.00000000E+00  0.00000000E+00  0.00000000E+00
  0.00000000E+00  0.00000000E+00  0.00000000E+00
  0.00000000E+00  0.00000000E+00  0.00000000E+00
  0.00000000E+00  0.00000000E+00  0.00000000E+00
  0.00000000E+00  0.00000000E+00  0.00000000E+00
  0.00000000E+00  0.00000000E+00  0.00000000E+00
  0.00000000E+00  0.00000000E+00  0.00000000E+00
  0.00000000E+00  0.00000000E+00  0.00000000E+00
  0.00000000E+00  0.00000000E+00  0.00000000E+00
  0.00000000E+00  0.00000000E+00  0.00000000E+00
  0.00000000E+00  0.00000000E+00  0.00000000E+00
  0.00000000E+00  0.00000000E+00  0.00000000E+00
  0.00000000E+00  0.00000000E+00  0.00000000E+00
  0.00000000E+00  0.00000000E+00  0.00000000E+00
  0.00000000E+00  0.00000000E+00  0.00000000E+00
  0.00000000E+00  0.00000000E+00  0.00000000E+00
  0.00000000E+00  0.00000000E+00  0.00000000E+00
  0.00000000E+00  0.00000000E+00  0.00000000E+00
  0.00000000E+00  0.00000000E+00  0.00000000E+00
  0.00000000E+00  0.00000000E+00  0.00000000E+00
  0.00000000E+00  0.00000000E+00  0.00000000E+00
  0.00000000E+00  0.00000000E+00  0.00000000E+00
  0.00000000E+00  0.00000000E+00  0.00000000E+00
  0.00000000E+00  0.00000000E+00  0.00000000E+00
  0.00000000E+00  0.00000000E+00  0.00000000E+00
  0.00000000E+00  0.00000000E+00  0.00000000E+00
  0.00000000E+00  0.00000000E+00  0.00000000E+00
  0.00000000E+00  0.00000000E+00  0.00000000E+00
  0.00000000E+00  0.00000000E+00  0.00000000E+00
  0.00000000E+00  0.00000000E+00  0.00000000E+00
  0.00000000E+00  0.00000000E+00  0.00000000E+00
  0.00000000E+00  0.00000000E+00  0.00000000E+00
  0.00000000E+00  0.00000000E+00  0.00000000E+00
  0.00000000E+00  0.00000000E+00  0.00000000E+00
  0.00000000E+00  0.00000000E+00  0.00000000E+00
  0.00000000E+00  0.00000000E+00  0.00000000E+00
  0.00000000E+00  0.00000000E+00  0.00000000E+00
  0.00000000E+00  0.00000000E+00  0.00000000E+00
  0.00000000E+00  0.00000000E+00  0.00000000E+00
  0.00000000E+00  0.00000000E+00  0.00000000E+00
  0.00000000E+00  0.00000000E+00  0.00000000E+00
  0.00000000E+00  0.00000000E+00  0.00000000E+00
  0.00000000E+00  0.00000000E+00  0.00000000E+00
  0.00000000E+00  0.00000000E+00  0.00000000E+00
  0.00000000E+00  0.00000000E+00  0.00000000E+00
  0.00000000E+00  0.00000000E+00  0.00000000E+00
  0.00000000E+00  0.00000000E+00  0.00000000E+00
  0.00000000E+00  0.00000000E+00  0.00000000E+00
  0.00000000E+00  0.00000000E+00  0.00000000E+00
  0.00000000E+00  0.00000000E+00  0.00000000E+00
  0.00000000E+00  0.00000000E+00  0.00000000E+00
  0.00000000E+00  0.00000000E+00  0.00000000E+00
  0.00000000E+00  0.00000000E+00  0.00000000E+00
  0.00000000E+00  0.00000000E+00  0.00000000E+00
  0.00000000E+00  0.00000000E+00  0.00000000E+00
  0.00000000E+00  0.00000000E+00  0.00000000E+00
  0.00000000E+00  0.00000000E+00  0.00000000E+00
  0.00000000E+00  0.00000000E+00  0.00000000E+00
  0.00000000E+00  0.00000000E+00  0.00000000E+00
  0.00000000E+00  0.00000000E+00  0.00000000E+00
  0.00000000E+00  0.00000000E+00  0.00000000E+00
  0.00000000E+00  0.00000000E+00  0.00000000E+00
  0.00000000E+00  0.00000000E+00  0.00000000E+00
  0.00000000E+00  0.00000000E+00  0.00000000E+00
  0.00000000E+00  0.00000000E+00  0.00000000E+00
  0.00000000E+00  0.00000000E+00  0.00000000E+00
  0.00000000E+00  0.00000000E+00  0.00000000E+00
  0.00000000E+00  0.00000000E+00  0.00000000E+00
  0.00000000E+00  0.00000000E+00  0.00000000E+00
  0.00000000E+00  0.00000000E+00  0.00000000E+00
  0.00000000E+00  0.00000000E+00  0.00000000E+00
  0.00000000E+00  0.00000000E+00  0.00000000E+00
  0.00000000E+00  0.00000000E+00  0.00000000E+00
  0.00000000E+00  0.00000000E+00  0.00000000E+00
  0.00000000E+00  0.00000000E+00  0.00000000E+00
  0.00000000E+00  0.00000000E+00  0.00000000E+00
  0.00000000E+00  0.00000000E+00  0.00000000E+00
  0.00000000E+00  0.00000000E+00  0.00000000E+00
  0.00000000E+00  0.00000000E+00  0.00000000E+00
  0.00000000E+00  0.00000000E+00  0.00000000E+00
  0.00000000E+00  0.00000000E+00  0.00000000E+00
  0.00000000E+00  0.00000000E+00  0.00000000E+00
  0.00000000E+00  0.00000000E+00  0.00000000E+00
  0.00000000E+00  0.00000000E+00  0.00000000E+00
  0.00000000E+00  0.00000000E+00  0.00000000E+00
  0.00000000E+00  0.00000000E+00  0.00000000E+00
  0.00000000E+00  0.00000000E+00  0.00000000E+00
  0.00000000E+00  0.00000000E+00  0.00000000E+00
  0.00000000E+00  0.00000000E+00  0.00000000E+00
  0.00000000E+00  0.00000000E+00  0.00000000E+00
