Al   B    N                             
   1.00000000000000     
    -9.3323228990103342    0.0050550053084264    0.0052934012329483
    -4.6659331704475839    8.0900077354029953   -0.0015318373080453
    -0.0756253772591473    0.0181524170468429  -10.0821243406313972
   Al   B    N 
    34     2    36
Direct
  0.1056402484871910  0.0932436489994899  0.3886907609310697
  0.2232268287756440  0.1997648809278942  0.1378541188298144
  0.7732240089251547  0.0906152632387958  0.8201146770182959
  0.8922770781617899  0.2094391254821346  0.6383466471362453
  0.4479124866607052  0.0884187414473203  0.3713627296555160
  0.5607521487841467  0.1965057679109918  0.0834379258010429
  0.1102733870570631  0.0935985025540305  0.8880441871692994
  0.2270010571220382  0.2040539374317660  0.6360654823617438
  0.8889781899476219  0.2065124765913140  0.1425409535632198
  0.4444141831705934  0.0855425333601616  0.8920666204779621
  0.5689817855614976  0.1982377957730606  0.5591210897127965
  0.1083313111291204  0.4255836023264195  0.3852358193740244
  0.2203595639548226  0.5370311616530685  0.1218796932360320
  0.7786554718066796  0.4263781888415608  0.8876303233329637
  0.8871757229722377  0.5433716678720657  0.6355370505144720
  0.4496308288943993  0.4295570358777496  0.3758704209020749
  0.5580974185004592  0.5446685162609768  0.1382704385667424
  0.1113602768223387  0.4262305544477272  0.8853902124319077
  0.2238725235138190  0.5375294595204707  0.6063361832056771
  0.7767789243183572  0.4232412603624596  0.3884927159185239
  0.8818344759239807  0.5417827758495619  0.1371363852038314
  0.4442275460048037  0.4318509840660383  0.8910443861498152
  0.5556263242384034  0.5397276364805776  0.6369651274457624
  0.1013595806441572  0.7696448933399935  0.3178011037177484
  0.2301157404369292  0.8769212348352582  0.1363518655208296
  0.7697444993888141  0.7604428149136098  0.8914148511056510
  0.8888981613106424  0.8825911915637761  0.5587758665190563
  0.4458698486595551  0.7630133063853251  0.3827316163474421
  0.1056388025592554  0.7605581592897508  0.8196147097807014
  0.2279849869985142  0.8757197114994568  0.6359396131586408
  0.7715210557494672  0.7652452732008683  0.3735663348390048
  0.8842784270072528  0.8767972826290844  0.0758340885130764
  0.4469658319172893  0.7631668322952621  0.8893856542357099
  0.5586777181260416  0.8732570772242880  0.6326615389200327
  0.7744856775390332  0.0923374173446305  0.3086316909935576
  0.5545907476921670  0.8702629687376913  0.1397436162915540
  0.2195834734138344  0.2050027682454569  0.3253780235499306
  0.1075249783554426  0.0954514896497329  0.0766104837570580
  0.8914950874500178  0.2075445367746056  0.8290540542028069
  0.7759414018001110  0.0919559063030349  0.6322469168909990
  0.5853985674115592  0.1911185997150255  0.3628100859916117
  0.4523983756984578  0.0651129963463148  0.0873079626485023
  0.2254908105083189  0.2028703015659161  0.8270800402997480
  0.1118482545431263  0.0957439139919387  0.5770011420978278
  0.8795952065335157  0.1973316827467713  0.3327396089266657
  0.7743085218372556  0.0885885251173306  0.1488195621048547
  0.5611497275346409  0.2003503542403280  0.8882892813065695
  0.4440994655338812  0.0908234398982231  0.5660664250011251
  0.2207346696636421  0.5382719522186292  0.3409209846752788
  0.1079638611266702  0.4248734085655030  0.0767908680161256
  0.8876834271085343  0.5416106656064557  0.8266455577251577
  0.7780519842970435  0.4289010228557544  0.5774653575929491
  0.5583603496813083  0.5420828578345507  0.3251243401953374
  0.4450421166344185  0.4329015319028997  0.0865004633975417
  0.2250948606783965  0.5349980307860989  0.8414921050697899
  0.1091470197937880  0.4253541470576394  0.5755827415341130
  0.8876517917685263  0.5376981523993791  0.3250114456266076
  0.7779845684921014  0.4249515457563078  0.0766013179380280
  0.5559177592859754  0.5403625890705825  0.8279499709796951
  0.4487408509359625  0.4291751670598316  0.5711226444000559
  0.2258388142490375  0.8759152945441144  0.3275923238679823
  0.1062660451138768  0.7652451680491410  0.1253419354317984
  0.8895355067600832  0.8744997306031621  0.8857021172018449
  0.7762827380928954  0.7604880931864173  0.5664881646185194
  0.5550369731278408  0.8705900438863097  0.3023179734254384
  0.4573880308362703  0.7724115311741002  0.0816818634529284
  0.2270648428324833  0.8732440922924951  0.8288613777455041
  0.1048813325248261  0.7658482699990401  0.6222393859530797
  0.8755219919790989  0.9028048948261187  0.3673741934849701
  0.7488333267447018  0.7708057380114042  0.0853238002815857
  0.5568136920669460  0.8722400174197560  0.8205552247580741
  0.4476335858422473  0.7614985702033081  0.5728755277013420
 
  0.00000000E+00  0.00000000E+00  0.00000000E+00
  0.00000000E+00  0.00000000E+00  0.00000000E+00
  0.00000000E+00  0.00000000E+00  0.00000000E+00
  0.00000000E+00  0.00000000E+00  0.00000000E+00
  0.00000000E+00  0.00000000E+00  0.00000000E+00
  0.00000000E+00  0.00000000E+00  0.00000000E+00
  0.00000000E+00  0.00000000E+00  0.00000000E+00
  0.00000000E+00  0.00000000E+00  0.00000000E+00
  0.00000000E+00  0.00000000E+00  0.00000000E+00
  0.00000000E+00  0.00000000E+00  0.00000000E+00
  0.00000000E+00  0.00000000E+00  0.00000000E+00
  0.00000000E+00  0.00000000E+00  0.00000000E+00
  0.00000000E+00  0.00000000E+00  0.00000000E+00
  0.00000000E+00  0.00000000E+00  0.00000000E+00
  0.00000000E+00  0.00000000E+00  0.00000000E+00
  0.00000000E+00  0.00000000E+00  0.00000000E+00
  0.00000000E+00  0.00000000E+00  0.00000000E+00
  0.00000000E+00  0.00000000E+00  0.00000000E+00
  0.00000000E+00  0.00000000E+00  0.00000000E+00
  0.00000000E+00  0.00000000E+00  0.00000000E+00
  0.00000000E+00  0.00000000E+00  0.00000000E+00
  0.00000000E+00  0.00000000E+00  0.00000000E+00
  0.00000000E+00  0.00000000E+00  0.00000000E+00
  0.00000000E+00  0.00000000E+00  0.00000000E+00
  0.00000000E+00  0.00000000E+00  0.00000000E+00
  0.00000000E+00  0.00000000E+00  0.00000000E+00
  0.00000000E+00  0.00000000E+00  0.00000000E+00
  0.00000000E+00  0.00000000E+00  0.00000000E+00
  0.00000000E+00  0.00000000E+00  0.00000000E+00
  0.00000000E+00  0.00000000E+00  0.00000000E+00
  0.00000000E+00  0.00000000E+00  0.00000000E+00
  0.00000000E+00  0.00000000E+00  0.00000000E+00
  0.00000000E+00  0.00000000E+00  0.00000000E+00
  0.00000000E+00  0.00000000E+00  0.00000000E+00
  0.00000000E+00  0.00000000E+00  0.00000000E+00
  0.00000000E+00  0.00000000E+00  0.00000000E+00
  0.00000000E+00  0.00000000E+00  0.00000000E+00
  0.00000000E+00  0.00000000E+00  0.00000000E+00
  0.00000000E+00  0.00000000E+00  0.00000000E+00
  0.00000000E+00  0.00000000E+00  0.00000000E+00
  0.00000000E+00  0.00000000E+00  0.00000000E+00
  0.00000000E+00  0.00000000E+00  0.00000000E+00
  0.00000000E+00  0.00000000E+00  0.00000000E+00
  0.00000000E+00  0.00000000E+00  0.00000000E+00
  0.00000000E+00  0.00000000E+00  0.00000000E+00
  0.00000000E+00  0.00000000E+00  0.00000000E+00
  0.00000000E+00  0.00000000E+00  0.00000000E+00
  0.00000000E+00  0.00000000E+00  0.00000000E+00
  0.00000000E+00  0.00000000E+00  0.00000000E+00
  0.00000000E+00  0.00000000E+00  0.00000000E+00
  0.00000000E+00  0.00000000E+00  0.00000000E+00
  0.00000000E+00  0.00000000E+00  0.00000000E+00
  0.00000000E+00  0.00000000E+00  0.00000000E+00
  0.00000000E+00  0.00000000E+00  0.00000000E+00
  0.00000000E+00  0.00000000E+00  0.00000000E+00
  0.00000000E+00  0.00000000E+00  0.00000000E+00
  0.00000000E+00  0.00000000E+00  0.00000000E+00
  0.00000000E+00  0.00000000E+00  0.00000000E+00
  0.00000000E+00  0.00000000E+00  0.00000000E+00
  0.00000000E+00  0.00000000E+00  0.00000000E+00
  0.00000000E+00  0.00000000E+00  0.00000000E+00
  0.00000000E+00  0.00000000E+00  0.00000000E+00
  0.00000000E+00  0.00000000E+00  0.00000000E+00
  0.00000000E+00  0.00000000E+00  0.00000000E+00
  0.00000000E+00  0.00000000E+00  0.00000000E+00
  0.00000000E+00  0.00000000E+00  0.00000000E+00
  0.00000000E+00  0.00000000E+00  0.00000000E+00
  0.00000000E+00  0.00000000E+00  0.00000000E+00
  0.00000000E+00  0.00000000E+00  0.00000000E+00
  0.00000000E+00  0.00000000E+00  0.00000000E+00
  0.00000000E+00  0.00000000E+00  0.00000000E+00
  0.00000000E+00  0.00000000E+00  0.00000000E+00
