Al   B    N                             
   1.00000000000000     
    -9.3254272234525342   -0.0011495381951563    0.0017080583026275
    -4.6652227341222225    8.0621461330149078    0.0015461533890238
    -0.0126380571929439    0.0712850523468600  -10.0210372210584424
   Al   B    N 
    34     2    36
Direct
  0.1054216484638104  0.0926972266257167  0.3127727709845232
  0.2198777425115992  0.2023001867260064  0.0684516609426566
  0.7777662386419948  0.0938982012180816  0.8163585958220025
  0.8867649774471431  0.2031807237606742  0.5603190810832075
  0.4507058280621195  0.0904244701243400  0.3793496586792813
  0.5620510239849352  0.2003646229195439  0.0763691639892059
  0.1108127798428384  0.0945645674829692  0.8141868779941959
  0.2153712757042499  0.2101959776963156  0.5643448370028352
  0.8867998225988174  0.2047568477947976  0.0681944351676407
  0.4518304257520711  0.0828643729056466  0.8746100175463596
  0.5645372869879139  0.2081262741376122  0.5623670910120424
  0.1103139932799664  0.4287877127394850  0.3116194945527155
  0.2218124367477898  0.5398691777503686  0.0619580888378835
  0.7780159468031869  0.4276604399708361  0.8133920031757924
  0.8899353815013029  0.5390599108190841  0.5603769000807830
  0.4490604124703808  0.4244461361912002  0.3127480852192903
  0.5577087260724412  0.5437540355002142  0.0633400308193330
  0.1115792395272308  0.4272241621307487  0.8145018795136565
  0.2224995682347881  0.5387089515506815  0.5649132951480027
  0.7764799987228486  0.4236105064857441  0.3129164373488891
  0.8806540408341945  0.5446480054709966  0.0634533980760708
  0.4461685901945103  0.4256120801832495  0.8153584351443115
  0.5553708339279808  0.5387735870859487  0.5609495218455791
  0.1077409173898900  0.7652055353906704  0.3125940250944979
  0.2261451919106676  0.8744085268621760  0.0635848976970053
  0.7824969157994559  0.7604086206390264  0.8086134676537213
  0.8877721056297929  0.8774610541540397  0.5575967771998478
  0.4469832576731534  0.7634560882117540  0.3183122240739422
  0.1094082527679632  0.7628776169806102  0.8141349747575575
  0.2212635278593353  0.8718129224989752  0.5612493132315635
  0.7704309005090195  0.7693774809010421  0.3180895765754101
  0.8810212624072733  0.8771498114812175  0.0706005392255946
  0.4429599273030789  0.7594565287236961  0.8084649716662042
  0.5564381238276894  0.8718290551563612  0.5942962197454875
  0.7783757926782044  0.0950915067754039  0.3101607141532199
  0.5543482360031220  0.8730688439265322  0.1052872426158160
  0.2146489933013314  0.2073957451819197  0.3690593437125997
  0.1090166146524112  0.0934662071865233  0.1244780017221743
  0.8884754057334234  0.2046886545279349  0.8770345494743452
  0.7798478931444137  0.0934237854202209  0.6282052239338256
  0.5843901573679346  0.1945052967142260  0.3637685926719243
  0.4609790566357077  0.0596551444057738  0.0870102483658073
  0.2198121861499587  0.2063514133506885  0.8763341873145265
  0.1091457393231252  0.0946525125061513  0.6225368070726773
  0.8765536602114707  0.1925989602630906  0.3669096821750983
  0.7795520837874435  0.0942995652842455  0.1459512657615747
  0.5598961121710673  0.2063559874055940  0.8828089314159868
  0.4426840982528830  0.1034697370723237  0.5790537156027682
  0.2229481715960162  0.5378934157317588  0.3735234803183900
  0.1090400254358670  0.4299581078802959  0.1217941742391773
  0.8884012378793855  0.5397952999690503  0.8739539460184744
  0.7789445169161482  0.4264532840664188  0.6207839954311325
  0.5551941354128402  0.5386071962098029  0.3707507256308844
  0.4438115268831879  0.4299081590649720  0.1234556560587592
  0.2227122481311810  0.5389142231543786  0.8721344602991365
  0.1099526822325103  0.4286888938576041  0.6244370138969231
  0.8882152111891202  0.5393148538068004  0.3692958219640161
  0.7776065202005640  0.4274717708200058  0.1237169129945315
  0.5556199969587539  0.5393414967683086  0.8741625371376074
  0.4463201230363438  0.4268767161059799  0.6237969982661156
  0.2225591800794646  0.8710938863142985  0.3708351418570928
  0.1109838893173674  0.7615621311503489  0.1227679158760111
  0.8880106999284081  0.8728434017336895  0.8798247803220676
  0.7897534920896021  0.7573529570621034  0.6175475088075899
  0.5587998872631914  0.8639030125226910  0.3833285895882739
  0.4590972567334930  0.7761875817296158  0.1211531276583884
  0.2233303204189028  0.8715049788315596  0.8743071233229571
  0.1088679979538512  0.7628107353326286  0.6219517927239551
  0.8766265038747605  0.8968807674566861  0.3637885124547111
  0.7463306992186745  0.7768928191731774  0.1219289543263713
  0.5564209966679883  0.8722209834863008  0.8188508502746501
  0.4392414227411763  0.7560990712444351  0.6192627496080902
 
  0.00000000E+00  0.00000000E+00  0.00000000E+00
  0.00000000E+00  0.00000000E+00  0.00000000E+00
  0.00000000E+00  0.00000000E+00  0.00000000E+00
  0.00000000E+00  0.00000000E+00  0.00000000E+00
  0.00000000E+00  0.00000000E+00  0.00000000E+00
  0.00000000E+00  0.00000000E+00  0.00000000E+00
  0.00000000E+00  0.00000000E+00  0.00000000E+00
  0.00000000E+00  0.00000000E+00  0.00000000E+00
  0.00000000E+00  0.00000000E+00  0.00000000E+00
  0.00000000E+00  0.00000000E+00  0.00000000E+00
  0.00000000E+00  0.00000000E+00  0.00000000E+00
  0.00000000E+00  0.00000000E+00  0.00000000E+00
  0.00000000E+00  0.00000000E+00  0.00000000E+00
  0.00000000E+00  0.00000000E+00  0.00000000E+00
  0.00000000E+00  0.00000000E+00  0.00000000E+00
  0.00000000E+00  0.00000000E+00  0.00000000E+00
  0.00000000E+00  0.00000000E+00  0.00000000E+00
  0.00000000E+00  0.00000000E+00  0.00000000E+00
  0.00000000E+00  0.00000000E+00  0.00000000E+00
  0.00000000E+00  0.00000000E+00  0.00000000E+00
  0.00000000E+00  0.00000000E+00  0.00000000E+00
  0.00000000E+00  0.00000000E+00  0.00000000E+00
  0.00000000E+00  0.00000000E+00  0.00000000E+00
  0.00000000E+00  0.00000000E+00  0.00000000E+00
  0.00000000E+00  0.00000000E+00  0.00000000E+00
  0.00000000E+00  0.00000000E+00  0.00000000E+00
  0.00000000E+00  0.00000000E+00  0.00000000E+00
  0.00000000E+00  0.00000000E+00  0.00000000E+00
  0.00000000E+00  0.00000000E+00  0.00000000E+00
  0.00000000E+00  0.00000000E+00  0.00000000E+00
  0.00000000E+00  0.00000000E+00  0.00000000E+00
  0.00000000E+00  0.00000000E+00  0.00000000E+00
  0.00000000E+00  0.00000000E+00  0.00000000E+00
  0.00000000E+00  0.00000000E+00  0.00000000E+00
  0.00000000E+00  0.00000000E+00  0.00000000E+00
  0.00000000E+00  0.00000000E+00  0.00000000E+00
  0.00000000E+00  0.00000000E+00  0.00000000E+00
  0.00000000E+00  0.00000000E+00  0.00000000E+00
  0.00000000E+00  0.00000000E+00  0.00000000E+00
  0.00000000E+00  0.00000000E+00  0.00000000E+00
  0.00000000E+00  0.00000000E+00  0.00000000E+00
  0.00000000E+00  0.00000000E+00  0.00000000E+00
  0.00000000E+00  0.00000000E+00  0.00000000E+00
  0.00000000E+00  0.00000000E+00  0.00000000E+00
  0.00000000E+00  0.00000000E+00  0.00000000E+00
  0.00000000E+00  0.00000000E+00  0.00000000E+00
  0.00000000E+00  0.00000000E+00  0.00000000E+00
  0.00000000E+00  0.00000000E+00  0.00000000E+00
  0.00000000E+00  0.00000000E+00  0.00000000E+00
  0.00000000E+00  0.00000000E+00  0.00000000E+00
  0.00000000E+00  0.00000000E+00  0.00000000E+00
  0.00000000E+00  0.00000000E+00  0.00000000E+00
  0.00000000E+00  0.00000000E+00  0.00000000E+00
  0.00000000E+00  0.00000000E+00  0.00000000E+00
  0.00000000E+00  0.00000000E+00  0.00000000E+00
  0.00000000E+00  0.00000000E+00  0.00000000E+00
  0.00000000E+00  0.00000000E+00  0.00000000E+00
  0.00000000E+00  0.00000000E+00  0.00000000E+00
  0.00000000E+00  0.00000000E+00  0.00000000E+00
  0.00000000E+00  0.00000000E+00  0.00000000E+00
  0.00000000E+00  0.00000000E+00  0.00000000E+00
  0.00000000E+00  0.00000000E+00  0.00000000E+00
  0.00000000E+00  0.00000000E+00  0.00000000E+00
  0.00000000E+00  0.00000000E+00  0.00000000E+00
  0.00000000E+00  0.00000000E+00  0.00000000E+00
  0.00000000E+00  0.00000000E+00  0.00000000E+00
  0.00000000E+00  0.00000000E+00  0.00000000E+00
  0.00000000E+00  0.00000000E+00  0.00000000E+00
  0.00000000E+00  0.00000000E+00  0.00000000E+00
  0.00000000E+00  0.00000000E+00  0.00000000E+00
  0.00000000E+00  0.00000000E+00  0.00000000E+00
  0.00000000E+00  0.00000000E+00  0.00000000E+00
