Al   B    N                             
   1.00000000000000     
    -9.3427233484070378    0.0155072442978723    0.0112210942181040
    -4.6553611271067652    8.0861142949222220   -0.0018986013701605
    -0.0549089032240617    0.0391185097626408  -10.1287419252579252
   Al   B    N 
    34     2    36
Direct
  0.1137939033372035  0.0889580762443174  0.3855355417999178
  0.2258877223363385  0.2011763177888639  0.1396285195056564
  0.7757602201835212  0.0930085899936870  0.8217260417400638
  0.8798221864568418  0.2066768620226611  0.5665313177367040
  0.4497360883802131  0.0874166039182995  0.3756227868815003
  0.5618249779550126  0.2001627021205223  0.0812780712946122
  0.1165737293932878  0.0901380393773863  0.8900107288230501
  0.2240534934303327  0.2045544165677029  0.6366402788732231
  0.8843658843463302  0.2048243546870765  0.0768156759313001
  0.4449346070286850  0.0857512585056170  0.8943084784814133
  0.5625108342276235  0.2051296764209383  0.5626870435453313
  0.1090589193207236  0.4245005340326955  0.3897549728819030
  0.2250828574191672  0.5417872790453586  0.0679586764207656
  0.7791032447052757  0.4245883679175080  0.8366137277031598
  0.8901043646036726  0.5442409032112892  0.6357360588279306
  0.4456829426446589  0.4211245177037100  0.3190019616574418
  0.5540026074736772  0.5490901208578762  0.1368366280966882
  0.1085286440596960  0.4242375335278936  0.8874883552901309
  0.2250616825648777  0.5425466814581625  0.5698525735454183
  0.7805092680207935  0.4184494693139769  0.3280531288945383
  0.8885532097274336  0.5450745643494201  0.1381638471577560
  0.4418781224904649  0.4213548675850589  0.8213551199280715
  0.5536417373795430  0.5448698817201318  0.6358123084150336
  0.1047909095231958  0.7631754103317050  0.3184813991499666
  0.2308350782945112  0.8755158950824224  0.1395614042527171
  0.7685454498249698  0.7628307530105900  0.8951149001076359
  0.8882670800689070  0.8809159233087769  0.5625068274219345
  0.4461803043730583  0.7614266869390107  0.3852143500045457
  0.1042292360501094  0.7603021278473960  0.8206018967609694
  0.2245747873980193  0.8768174509208748  0.6377619025023122
  0.7711284141175767  0.7663686642818277  0.3765478917172018
  0.8844326189223821  0.8786936100342189  0.0810594985854394
  0.4458269129984842  0.7635706119570713  0.8919947870906313
  0.5569283221439960  0.8743363780179791  0.6351084825986035
  0.7797471629427974  0.0947247972337166  0.3156579454821369
  0.5553478955945010  0.8722821326135346  0.1416261953948279
  0.2222486535893680  0.2062124946626724  0.3261975809525595
  0.1170027170241497  0.0914814275802627  0.0795831141856453
  0.8836799837230629  0.2038505543101294  0.8839655736350807
  0.7759548045194720  0.0936128855840437  0.6350402695554322
  0.5840351112105751  0.1935979898942506  0.3700499857638917
  0.4559735119944150  0.0655360194665633  0.0881303920935039
  0.2252955955836171  0.2035896264602854  0.8269522576876298
  0.1128513096506865  0.0943703980469550  0.5756260620458136
  0.8753901325960740  0.1914453202983921  0.3719783016553606
  0.7788157803868572  0.0945690781318760  0.1540254318755032
  0.5585706199783260  0.2051986882022305  0.8891822937798537
  0.4425718044137241  0.0915036100171491  0.5682534821089220
  0.2253820019713473  0.5420788605350282  0.3802582961120038
  0.1092765849596873  0.4234632050031664  0.0773594727995714
  0.8895180515241705  0.5459089250450262  0.8288795975706051
  0.7800425362283789  0.4252100984912133  0.6158635268715571
  0.5529647250762011  0.5438597017337088  0.3309827812148924
  0.4414730602126653  0.4249351197220292  0.1295295908907121
  0.2240355970679460  0.5417185475182720  0.8784787699051861
  0.1091428140607960  0.4249945265216724  0.5795456046127114
  0.8929992275662642  0.5416066344663335  0.3272833882469754
  0.7805042754489762  0.4249713595565652  0.1198330141674333
  0.5507863988966051  0.5454208145367403  0.8329492405438472
  0.4433159009583107  0.4214131004961388  0.6293637674316983
  0.2270437775739182  0.8730723803593037  0.3277957496798223
  0.1091589439546468  0.7586319372294525  0.1296202732003593
  0.8889537885960053  0.8761997417888949  0.8893970679486500
  0.7736835955355659  0.7616422503623141  0.5683116010303877
  0.5550116956389175  0.8706984858319586  0.3040564333317164
  0.4564208056502679  0.7738393736549156  0.0824178042507313
  0.2261686469543918  0.8734831715948843  0.8288547366530210
  0.1045299420034880  0.7615177822325592  0.6290046051020752
  0.8779371693350768  0.9008596155346282  0.3701055306962857
  0.7488471177231446  0.7733971024649193  0.0875688464015028
  0.5560552660915548  0.8728545947358199  0.8225713023238015
  0.4441557441256236  0.7638771246480900  0.5738809094446893
 
  0.00000000E+00  0.00000000E+00  0.00000000E+00
  0.00000000E+00  0.00000000E+00  0.00000000E+00
  0.00000000E+00  0.00000000E+00  0.00000000E+00
  0.00000000E+00  0.00000000E+00  0.00000000E+00
  0.00000000E+00  0.00000000E+00  0.00000000E+00
  0.00000000E+00  0.00000000E+00  0.00000000E+00
  0.00000000E+00  0.00000000E+00  0.00000000E+00
  0.00000000E+00  0.00000000E+00  0.00000000E+00
  0.00000000E+00  0.00000000E+00  0.00000000E+00
  0.00000000E+00  0.00000000E+00  0.00000000E+00
  0.00000000E+00  0.00000000E+00  0.00000000E+00
  0.00000000E+00  0.00000000E+00  0.00000000E+00
  0.00000000E+00  0.00000000E+00  0.00000000E+00
  0.00000000E+00  0.00000000E+00  0.00000000E+00
  0.00000000E+00  0.00000000E+00  0.00000000E+00
  0.00000000E+00  0.00000000E+00  0.00000000E+00
  0.00000000E+00  0.00000000E+00  0.00000000E+00
  0.00000000E+00  0.00000000E+00  0.00000000E+00
  0.00000000E+00  0.00000000E+00  0.00000000E+00
  0.00000000E+00  0.00000000E+00  0.00000000E+00
  0.00000000E+00  0.00000000E+00  0.00000000E+00
  0.00000000E+00  0.00000000E+00  0.00000000E+00
  0.00000000E+00  0.00000000E+00  0.00000000E+00
  0.00000000E+00  0.00000000E+00  0.00000000E+00
  0.00000000E+00  0.00000000E+00  0.00000000E+00
  0.00000000E+00  0.00000000E+00  0.00000000E+00
  0.00000000E+00  0.00000000E+00  0.00000000E+00
  0.00000000E+00  0.00000000E+00  0.00000000E+00
  0.00000000E+00  0.00000000E+00  0.00000000E+00
  0.00000000E+00  0.00000000E+00  0.00000000E+00
  0.00000000E+00  0.00000000E+00  0.00000000E+00
  0.00000000E+00  0.00000000E+00  0.00000000E+00
  0.00000000E+00  0.00000000E+00  0.00000000E+00
  0.00000000E+00  0.00000000E+00  0.00000000E+00
  0.00000000E+00  0.00000000E+00  0.00000000E+00
  0.00000000E+00  0.00000000E+00  0.00000000E+00
  0.00000000E+00  0.00000000E+00  0.00000000E+00
  0.00000000E+00  0.00000000E+00  0.00000000E+00
  0.00000000E+00  0.00000000E+00  0.00000000E+00
  0.00000000E+00  0.00000000E+00  0.00000000E+00
  0.00000000E+00  0.00000000E+00  0.00000000E+00
  0.00000000E+00  0.00000000E+00  0.00000000E+00
  0.00000000E+00  0.00000000E+00  0.00000000E+00
  0.00000000E+00  0.00000000E+00  0.00000000E+00
  0.00000000E+00  0.00000000E+00  0.00000000E+00
  0.00000000E+00  0.00000000E+00  0.00000000E+00
  0.00000000E+00  0.00000000E+00  0.00000000E+00
  0.00000000E+00  0.00000000E+00  0.00000000E+00
  0.00000000E+00  0.00000000E+00  0.00000000E+00
  0.00000000E+00  0.00000000E+00  0.00000000E+00
  0.00000000E+00  0.00000000E+00  0.00000000E+00
  0.00000000E+00  0.00000000E+00  0.00000000E+00
  0.00000000E+00  0.00000000E+00  0.00000000E+00
  0.00000000E+00  0.00000000E+00  0.00000000E+00
  0.00000000E+00  0.00000000E+00  0.00000000E+00
  0.00000000E+00  0.00000000E+00  0.00000000E+00
  0.00000000E+00  0.00000000E+00  0.00000000E+00
  0.00000000E+00  0.00000000E+00  0.00000000E+00
  0.00000000E+00  0.00000000E+00  0.00000000E+00
  0.00000000E+00  0.00000000E+00  0.00000000E+00
  0.00000000E+00  0.00000000E+00  0.00000000E+00
  0.00000000E+00  0.00000000E+00  0.00000000E+00
  0.00000000E+00  0.00000000E+00  0.00000000E+00
  0.00000000E+00  0.00000000E+00  0.00000000E+00
  0.00000000E+00  0.00000000E+00  0.00000000E+00
  0.00000000E+00  0.00000000E+00  0.00000000E+00
  0.00000000E+00  0.00000000E+00  0.00000000E+00
  0.00000000E+00  0.00000000E+00  0.00000000E+00
  0.00000000E+00  0.00000000E+00  0.00000000E+00
  0.00000000E+00  0.00000000E+00  0.00000000E+00
  0.00000000E+00  0.00000000E+00  0.00000000E+00
  0.00000000E+00  0.00000000E+00  0.00000000E+00
