Al   B    N                             
   1.00000000000000     
    -9.2994177640038860   -0.0011276546088012    0.0018876874247701
    -4.6487867467333377    8.0540617421763656    0.0018168841255888
     0.0022134548192166   -0.0011731109840209   -9.9390275586047050
   Al   B    N 
    34     2    36
Direct
  0.1078338178310219  0.0926886597698839  0.3119227415251302
  0.2259079345960586  0.2000593660056751  0.0617595579787178
  0.7777044888784559  0.0943720883853985  0.8131947291191466
  0.8859895352962042  0.2026541845188206  0.5573461849260610
  0.4521913230073622  0.0874423588309625  0.3072750783386766
  0.5594283027492111  0.1993465152773197  0.0680619940605922
  0.1093071200289870  0.0952061182618920  0.8114160314979131
  0.2239897794873968  0.2047559881835568  0.5619670917235098
  0.8875566770148424  0.2042246227046078  0.0678792018659280
  0.4467193176453605  0.0925117610215409  0.8187922043653373
  0.5602699645033411  0.2017589614700839  0.5578344305438421
  0.1113173001099881  0.4279835630121482  0.3108756021546526
  0.2224259226667158  0.5390953912113403  0.0610358883030955
  0.7785398537362127  0.4259736392606541  0.8114161108428135
  0.8880909564338921  0.5406546381578679  0.5619663291175527
  0.4493787518878563  0.4245117865307151  0.3114947207419547
  0.5572135670298195  0.5423773949422497  0.0611836712767584
  0.1109176980386053  0.4275842731562491  0.8118096677692890
  0.2221617482736775  0.5388274294358695  0.5615658625622686
  0.7760207427496653  0.4245016531722925  0.3119224368323898
  0.8833918891152095  0.5425755853230072  0.0617592547296439
  0.4457952366229492  0.4258071865953710  0.8119826954495366
  0.5549507325717755  0.5404492870495901  0.5620759954194483
  0.1078444389352029  0.7660459313803543  0.3114945957262094
  0.2257095988857074  0.8738814106093784  0.0611837933295263
  0.7758443054825861  0.7633864722355099  0.8187909357114549
  0.8850933982346945  0.8769364059406044  0.5578338423316751
  0.4472724016870018  0.7639400677795365  0.3073265753223282
  0.1091396394174069  0.7624625956156947  0.8119818726177783
  0.2237850411385196  0.8716151828611345  0.5620757635278792
  0.7707752866236035  0.7688585177176819  0.3072747464679111
  0.8826769108581516  0.8760978477760446  0.0680609241412498
  0.4457367721118572  0.7624042768294217  0.8182714428958846
  0.5557746470483593  0.8724392545136652  0.5638145902266558
  0.7774750509066521  0.0941410287748567  0.3072639187859849
  0.5555804827874837  0.8722466989850730  0.0580209697353027
  0.2251079134823186  0.2040041471042002  0.3689400878184088
  0.1109571845283170  0.0942985478394789  0.1220347975747202
  0.8880323250493447  0.2046976130005120  0.8751546297126254
  0.7775477316454200  0.0942122266422558  0.6241424211070665
  0.5793931279696736  0.1921525332225187  0.3620907031215452
  0.4570293164761310  0.0688388393639556  0.1139913382520277
  0.2219041420457089  0.2051514941208552  0.8708551527899573
  0.1090070637990266  0.0956346219895892  0.6185359463916100
  0.8761608636159224  0.1928270656843765  0.3637885177508196
  0.7778967161266905  0.0945646342803030  0.1428191918817845
  0.5577352642618578  0.2047813361066204  0.8763741092760569
  0.4464084880817651  0.0940048013089552  0.6246258681700638
  0.2226379175720012  0.5393037724927794  0.3702278211808760
  0.1108241290209762  0.4274908888625646  0.1196811136623808
  0.8884857003596096  0.5385702770199643  0.8708548837503471
  0.7789712715082118  0.4256706258325096  0.6185359643496113
  0.5540120068755243  0.5419991526030969  0.3700629559749231
  0.4450687753602267  0.4280025627766264  0.1207451316362977
  0.2224460891070237  0.5391124892294599  0.8696566351947510
  0.1109340206168739  0.4275981136081199  0.6203105343369089
  0.8873387096875831  0.5417736443442251  0.3689392723142859
  0.7776319736697133  0.4276239827809576  0.1220346009378730
  0.5562519885748145  0.5379960395553809  0.8705873452104171
  0.4459833455405047  0.4252119722421241  0.6188612582428021
  0.2253331534296734  0.8706779839581316  0.3700629385130085
  0.1113339564449731  0.7617370204724878  0.1207450560955223
  0.8881150941609235  0.8744009213769459  0.8763731460561175
  0.7773416482677931  0.7630721609001725  0.6246247829014777
  0.5553892965134466  0.8720544407401931  0.3753067042026714
  0.4569188355930223  0.7735854746908615  0.1131473870192963
  0.2213301103578900  0.8729172337175868  0.8705873702172298
  0.1085476385161073  0.7626478511337780  0.6188605280035873
  0.8754862093559623  0.8960599272850800  0.3620904289761029
  0.7521714531350554  0.7736966213887868  0.1139909887574078
  0.5556527290592612  0.8723189632675172  0.8921936185066599
  0.4453916036477494  0.7620549326857784  0.6259622508195477
 
  0.00000000E+00  0.00000000E+00  0.00000000E+00
  0.00000000E+00  0.00000000E+00  0.00000000E+00
  0.00000000E+00  0.00000000E+00  0.00000000E+00
  0.00000000E+00  0.00000000E+00  0.00000000E+00
  0.00000000E+00  0.00000000E+00  0.00000000E+00
  0.00000000E+00  0.00000000E+00  0.00000000E+00
  0.00000000E+00  0.00000000E+00  0.00000000E+00
  0.00000000E+00  0.00000000E+00  0.00000000E+00
  0.00000000E+00  0.00000000E+00  0.00000000E+00
  0.00000000E+00  0.00000000E+00  0.00000000E+00
  0.00000000E+00  0.00000000E+00  0.00000000E+00
  0.00000000E+00  0.00000000E+00  0.00000000E+00
  0.00000000E+00  0.00000000E+00  0.00000000E+00
  0.00000000E+00  0.00000000E+00  0.00000000E+00
  0.00000000E+00  0.00000000E+00  0.00000000E+00
  0.00000000E+00  0.00000000E+00  0.00000000E+00
  0.00000000E+00  0.00000000E+00  0.00000000E+00
  0.00000000E+00  0.00000000E+00  0.00000000E+00
  0.00000000E+00  0.00000000E+00  0.00000000E+00
  0.00000000E+00  0.00000000E+00  0.00000000E+00
  0.00000000E+00  0.00000000E+00  0.00000000E+00
  0.00000000E+00  0.00000000E+00  0.00000000E+00
  0.00000000E+00  0.00000000E+00  0.00000000E+00
  0.00000000E+00  0.00000000E+00  0.00000000E+00
  0.00000000E+00  0.00000000E+00  0.00000000E+00
  0.00000000E+00  0.00000000E+00  0.00000000E+00
  0.00000000E+00  0.00000000E+00  0.00000000E+00
  0.00000000E+00  0.00000000E+00  0.00000000E+00
  0.00000000E+00  0.00000000E+00  0.00000000E+00
  0.00000000E+00  0.00000000E+00  0.00000000E+00
  0.00000000E+00  0.00000000E+00  0.00000000E+00
  0.00000000E+00  0.00000000E+00  0.00000000E+00
  0.00000000E+00  0.00000000E+00  0.00000000E+00
  0.00000000E+00  0.00000000E+00  0.00000000E+00
  0.00000000E+00  0.00000000E+00  0.00000000E+00
  0.00000000E+00  0.00000000E+00  0.00000000E+00
  0.00000000E+00  0.00000000E+00  0.00000000E+00
  0.00000000E+00  0.00000000E+00  0.00000000E+00
  0.00000000E+00  0.00000000E+00  0.00000000E+00
  0.00000000E+00  0.00000000E+00  0.00000000E+00
  0.00000000E+00  0.00000000E+00  0.00000000E+00
  0.00000000E+00  0.00000000E+00  0.00000000E+00
  0.00000000E+00  0.00000000E+00  0.00000000E+00
  0.00000000E+00  0.00000000E+00  0.00000000E+00
  0.00000000E+00  0.00000000E+00  0.00000000E+00
  0.00000000E+00  0.00000000E+00  0.00000000E+00
  0.00000000E+00  0.00000000E+00  0.00000000E+00
  0.00000000E+00  0.00000000E+00  0.00000000E+00
  0.00000000E+00  0.00000000E+00  0.00000000E+00
  0.00000000E+00  0.00000000E+00  0.00000000E+00
  0.00000000E+00  0.00000000E+00  0.00000000E+00
  0.00000000E+00  0.00000000E+00  0.00000000E+00
  0.00000000E+00  0.00000000E+00  0.00000000E+00
  0.00000000E+00  0.00000000E+00  0.00000000E+00
  0.00000000E+00  0.00000000E+00  0.00000000E+00
  0.00000000E+00  0.00000000E+00  0.00000000E+00
  0.00000000E+00  0.00000000E+00  0.00000000E+00
  0.00000000E+00  0.00000000E+00  0.00000000E+00
  0.00000000E+00  0.00000000E+00  0.00000000E+00
  0.00000000E+00  0.00000000E+00  0.00000000E+00
  0.00000000E+00  0.00000000E+00  0.00000000E+00
  0.00000000E+00  0.00000000E+00  0.00000000E+00
  0.00000000E+00  0.00000000E+00  0.00000000E+00
  0.00000000E+00  0.00000000E+00  0.00000000E+00
  0.00000000E+00  0.00000000E+00  0.00000000E+00
  0.00000000E+00  0.00000000E+00  0.00000000E+00
  0.00000000E+00  0.00000000E+00  0.00000000E+00
  0.00000000E+00  0.00000000E+00  0.00000000E+00
  0.00000000E+00  0.00000000E+00  0.00000000E+00
  0.00000000E+00  0.00000000E+00  0.00000000E+00
  0.00000000E+00  0.00000000E+00  0.00000000E+00
  0.00000000E+00  0.00000000E+00  0.00000000E+00
