supercell of 100% icsd_608626.cif, 0% i 
   1.00000000000000     
    -9.7846797803233869    0.0202561725610342   -0.0252186523028928
    -4.9099577054464252    8.5540332348822403   -0.0167813220143358
    -0.0267402038120594    0.0053300568734940  -10.2498503393985576
   Al   Ca   Zr   N 
    28     4     4    36
Direct
  0.1039299101793532  0.0974571976393364  0.2921703640405653
  0.2182815514497065  0.2059108720128151  0.0482013604591742
  0.7741900661533023  0.1142257371327489  0.8027771081829371
  0.8869805542469535  0.2189643392407135  0.5514063692762790
  0.4432318580738652  0.1011636932494966  0.2959816683994418
  0.5540010252189873  0.2171823881005182  0.0460665139820975
  0.1051267477068052  0.1082531583198758  0.8006696041691796
  0.2175058654168325  0.2051065514986377  0.5415803190217829
  0.7705964943486379  0.1151034475116433  0.2931190052100021
  0.8875031866086402  0.2143183339310468  0.0423252648814056
  0.5558052379979799  0.2087979012077739  0.5436071058570775
  0.1089096188264236  0.4218955035112586  0.2893804265638593
  0.2320343593050893  0.5199688973307630  0.0421280421178025
  0.7809575120092731  0.4250623097853605  0.8000577590986708
  0.8861035849175067  0.5301116775788302  0.5395082425565931
  0.4498118741905870  0.4209827028464943  0.2908031181052735
  0.5571758329761778  0.5356354644637449  0.0406943553533239
  0.1091710529419316  0.4119345218711459  0.8069963297042619
  0.7821495707850090  0.4190828120181322  0.2943261578852159
  0.8889099877916777  0.5280528391402015  0.0466362895633097
  0.4551195582516314  0.4229855449630762  0.8034846450393189
  0.5694956120940162  0.5318722509215164  0.5546181892631452
  0.1186161580378808  0.7547310450078371  0.2774540653080209
  0.2277200324096214  0.8802885653478114  0.0344676039866698
  0.5522296724803653  0.8679613289123367  0.0463654571455336
  0.7778864908861820  0.7499228820307309  0.2973678029713795
  0.4536409223640590  0.7591296555277580  0.7992003912940646
  0.5547576389423625  0.8760661768337101  0.5375696361422087
  0.4461835382885511  0.0981954799132367  0.8051055940743055
  0.7817811741389846  0.7522422047766213  0.7902793813292206
  0.1137046632155077  0.7548914268787854  0.8221468880030329
  0.2222051885313121  0.8814545396320170  0.5697423188674051
  0.2269535559798328  0.5250677750119408  0.5500021835287612
  0.8791465160911898  0.8857194868099683  0.5277384613661766
  0.4434178442099821  0.7563693158637719  0.3025314902213410
  0.8757008811872424  0.8826929160859294  0.0652519572176615
  0.2183112320611116  0.2053094169956751  0.3493896221135984
  0.1069673338327419  0.0949315443517662  0.1052965852867516
  0.8880535545377413  0.2108667532599853  0.8567514530900553
  0.7687619815813775  0.1168675474154099  0.6078188789182519
  0.5556575463734532  0.2088556618397703  0.3535713144678638
  0.4472542085215423  0.0967371490867919  0.1044268532702475
  0.1975059184945920  0.2131843029805722  0.8701223824609556
  0.0916086350571064  0.1315816039099360  0.6139927962652365
  0.8892210772858746  0.2066114614825949  0.3592723365195667
  0.7657159650709602  0.1259706361393640  0.1129171724368234
  0.5736108861610774  0.2256979405566710  0.8676129927408596
  0.4437835562337753  0.0974204010096074  0.5755079387330753
  0.2226474785470316  0.5361962102304787  0.3392305557512501
  0.1102129626971617  0.4260387608711014  0.1066029093006549
  0.9003538628838967  0.5099971374177912  0.8658793257022239
  0.7796521963400878  0.4294324659076167  0.6083733038845409
  0.5664498147459938  0.5159095635715047  0.3614424201619642
  0.4447341677534524  0.4308988149834150  0.1066715565492586
  0.2430723616411612  0.4934258472314994  0.8562557956180186
  0.0990479000730602  0.4190366115247102  0.6081590449549594
  0.8906534253444036  0.5293268124932524  0.3504931321371814
  0.7744310475572433  0.4269380225485335  0.1076041726811710
  0.5549239348749992  0.5403815679753379  0.8538671212105626
  0.4648607464012429  0.4195520131103336  0.6113412537624470
  0.2021038406263287  0.8792119947668624  0.3388225958020712
  0.1313420532208269  0.7476843049187352  0.0870490533620725
  0.8610501495703886  0.9136431866994457  0.8700900783502874
  0.7760330403168396  0.7531810687172324  0.5619493391499049
  0.5588453020131752  0.8825461289072081  0.3474777465198855
  0.4419000222209704  0.7559597997852876  0.0991769195747523
  0.2354118009867250  0.8914186198814491  0.8478125800722864
  0.0952738550232581  0.7508203619836351  0.6016261413226260
  0.8891718972552951  0.8738487438113651  0.3152019243991688
  0.7682733095155214  0.7431769539279784  0.1109077645184300
  0.5504036405127408  0.8546721325072184  0.8719162226603885
  0.4817639564133813  0.7438675142922690  0.6036072460640369
 
  0.00000000E+00  0.00000000E+00  0.00000000E+00
  0.00000000E+00  0.00000000E+00  0.00000000E+00
  0.00000000E+00  0.00000000E+00  0.00000000E+00
  0.00000000E+00  0.00000000E+00  0.00000000E+00
  0.00000000E+00  0.00000000E+00  0.00000000E+00
  0.00000000E+00  0.00000000E+00  0.00000000E+00
  0.00000000E+00  0.00000000E+00  0.00000000E+00
  0.00000000E+00  0.00000000E+00  0.00000000E+00
  0.00000000E+00  0.00000000E+00  0.00000000E+00
  0.00000000E+00  0.00000000E+00  0.00000000E+00
  0.00000000E+00  0.00000000E+00  0.00000000E+00
  0.00000000E+00  0.00000000E+00  0.00000000E+00
  0.00000000E+00  0.00000000E+00  0.00000000E+00
  0.00000000E+00  0.00000000E+00  0.00000000E+00
  0.00000000E+00  0.00000000E+00  0.00000000E+00
  0.00000000E+00  0.00000000E+00  0.00000000E+00
  0.00000000E+00  0.00000000E+00  0.00000000E+00
  0.00000000E+00  0.00000000E+00  0.00000000E+00
  0.00000000E+00  0.00000000E+00  0.00000000E+00
  0.00000000E+00  0.00000000E+00  0.00000000E+00
  0.00000000E+00  0.00000000E+00  0.00000000E+00
  0.00000000E+00  0.00000000E+00  0.00000000E+00
  0.00000000E+00  0.00000000E+00  0.00000000E+00
  0.00000000E+00  0.00000000E+00  0.00000000E+00
  0.00000000E+00  0.00000000E+00  0.00000000E+00
  0.00000000E+00  0.00000000E+00  0.00000000E+00
  0.00000000E+00  0.00000000E+00  0.00000000E+00
  0.00000000E+00  0.00000000E+00  0.00000000E+00
  0.00000000E+00  0.00000000E+00  0.00000000E+00
  0.00000000E+00  0.00000000E+00  0.00000000E+00
  0.00000000E+00  0.00000000E+00  0.00000000E+00
  0.00000000E+00  0.00000000E+00  0.00000000E+00
  0.00000000E+00  0.00000000E+00  0.00000000E+00
  0.00000000E+00  0.00000000E+00  0.00000000E+00
  0.00000000E+00  0.00000000E+00  0.00000000E+00
  0.00000000E+00  0.00000000E+00  0.00000000E+00
  0.00000000E+00  0.00000000E+00  0.00000000E+00
  0.00000000E+00  0.00000000E+00  0.00000000E+00
  0.00000000E+00  0.00000000E+00  0.00000000E+00
  0.00000000E+00  0.00000000E+00  0.00000000E+00
  0.00000000E+00  0.00000000E+00  0.00000000E+00
  0.00000000E+00  0.00000000E+00  0.00000000E+00
  0.00000000E+00  0.00000000E+00  0.00000000E+00
  0.00000000E+00  0.00000000E+00  0.00000000E+00
  0.00000000E+00  0.00000000E+00  0.00000000E+00
  0.00000000E+00  0.00000000E+00  0.00000000E+00
  0.00000000E+00  0.00000000E+00  0.00000000E+00
  0.00000000E+00  0.00000000E+00  0.00000000E+00
  0.00000000E+00  0.00000000E+00  0.00000000E+00
  0.00000000E+00  0.00000000E+00  0.00000000E+00
  0.00000000E+00  0.00000000E+00  0.00000000E+00
  0.00000000E+00  0.00000000E+00  0.00000000E+00
  0.00000000E+00  0.00000000E+00  0.00000000E+00
  0.00000000E+00  0.00000000E+00  0.00000000E+00
  0.00000000E+00  0.00000000E+00  0.00000000E+00
  0.00000000E+00  0.00000000E+00  0.00000000E+00
  0.00000000E+00  0.00000000E+00  0.00000000E+00
  0.00000000E+00  0.00000000E+00  0.00000000E+00
  0.00000000E+00  0.00000000E+00  0.00000000E+00
  0.00000000E+00  0.00000000E+00  0.00000000E+00
  0.00000000E+00  0.00000000E+00  0.00000000E+00
  0.00000000E+00  0.00000000E+00  0.00000000E+00
  0.00000000E+00  0.00000000E+00  0.00000000E+00
  0.00000000E+00  0.00000000E+00  0.00000000E+00
  0.00000000E+00  0.00000000E+00  0.00000000E+00
  0.00000000E+00  0.00000000E+00  0.00000000E+00
  0.00000000E+00  0.00000000E+00  0.00000000E+00
  0.00000000E+00  0.00000000E+00  0.00000000E+00
  0.00000000E+00  0.00000000E+00  0.00000000E+00
  0.00000000E+00  0.00000000E+00  0.00000000E+00
  0.00000000E+00  0.00000000E+00  0.00000000E+00
  0.00000000E+00  0.00000000E+00  0.00000000E+00
