supercell of 100% icsd_608626.cif, 0% i 
   1.00000000000000     
    -9.7909096406820595   -0.0638411142278760   -0.0223030094946717
    -4.8405706985722041    8.4736882311005122   -0.0174481050315561
    -0.0229751214834128    0.0074692513702270  -10.2562209434268201
   Al   Zr   Ca   N 
    28     4     4    36
Direct
  0.0998492372208801  0.0933222877863784  0.2936524150414002
  0.2222604639321375  0.2046762890228919  0.0465660996436910
  0.7851297228167837  0.0882117105188698  0.7971633762486263
  0.8867043384640922  0.1982924161013528  0.5459481416397978
  0.4522321212321501  0.0858862267234812  0.2854538216639497
  0.5640795869406645  0.1940539113784823  0.0517593239768104
  0.1026490103271627  0.0983724707055913  0.8025634560062542
  0.7793555757570587  0.0920110476216607  0.2972036683385895
  0.8886791014435431  0.2065631663916747  0.0418182321558547
  0.4553262491255694  0.0890289034493534  0.8057865891957121
  0.5694097837930769  0.1935014451628945  0.5403153378959686
  0.1112975957079385  0.4316188587273757  0.2830832699314101
  0.2143973790440370  0.5485688904710599  0.0541523332549403
  0.7881640349791681  0.4179566652605757  0.8020839322694187
  0.4472688879636877  0.4121808289835300  0.2829771112795854
  0.5640871380575021  0.5354048256152453  0.0393005965918292
  0.1131983505415661  0.4341362976038567  0.8096700170204301
  0.8886098356038588  0.5399542328939830  0.0374794974275545
  0.5648891736346187  0.5170189523404858  0.5473134836970388
  0.0938999849024214  0.7755207448661352  0.2892586689112377
  0.2127371219249170  0.8787982038847133  0.0417660669536275
  0.7812464265549650  0.7709130647079121  0.8050552044208104
  0.8832927662506194  0.8837100354596217  0.5426483467896901
  0.5587775314779009  0.8705060570045831  0.0437065773662653
  0.0935207578782453  0.7783966194483796  0.8011511468563981
  0.1992346508758658  0.8847684527335105  0.5448609886920082
  0.7795850823744388  0.7699396482281458  0.2879937348450881
  0.8877996690781416  0.8756447912790506  0.0460061733890313
  0.2292643385993145  0.2094461641491989  0.5503968415829235
  0.9009858679540201  0.5464409273007789  0.5597253475199295
  0.2569916067321074  0.5679477376185957  0.5308145742149932
  0.4465559487703601  0.4158033366594722  0.8143075205327719
  0.7756116832501760  0.4310901968479612  0.2992152732623339
  0.4321769949838554  0.7545885924653959  0.2955284850354758
  0.4340444695091961  0.7640731829230205  0.8102471433464302
  0.5486016069636577  0.8582126807608432  0.5511344863766965
  0.2214510999865169  0.2070673710556790  0.3411611925043729
  0.1077759312597379  0.0981733968045404  0.1044085756875361
  0.8894019546077132  0.2038364877030432  0.8527822340312952
  0.7778480615595242  0.0937479709415641  0.6068664623058879
  0.5544653822494965  0.1980814794602779  0.3491430634461352
  0.4417372048049444  0.0954157963763151  0.0986420580720093
  0.2245441686627032  0.2079175441163130  0.8528993272080641
  0.1025973030396727  0.0958057588424950  0.6131576418316484
  0.8965881451753930  0.1824364648982240  0.3641207957920969
  0.7800039965957097  0.0945715973921040  0.1076690533815565
  0.5757444504075124  0.1808449889292660  0.8668102250905676
  0.4518887826516576  0.1086739633002836  0.6197243481880150
  0.2225666244920177  0.5392442243138973  0.3285060706716862
  0.1088321489102597  0.4280581586993435  0.0956637775059122
  0.8927682829267809  0.5396100311011693  0.8436017703089576
  0.7790271218695253  0.4181937353813652  0.6068859087011091
  0.5359709286639571  0.5076022325250165  0.3716777239049520
  0.4451699540129113  0.4231228660147153  0.0914080914384456
  0.2012550607479113  0.5606144485974554  0.8647522181618399
  0.1378255705983520  0.4409660228234955  0.6195263626704559
  0.9103446148850125  0.5590954403080559  0.3571757188162437
  0.7822916843748189  0.4273326141927498  0.0783387180489257
  0.5830734097312700  0.5092286092939986  0.8572248671585143
  0.4736786186617081  0.3966118197441446  0.6114469412170180
  0.1826348272131000  0.8892812695329155  0.3618155247878505
  0.1050754863042584  0.7670605422144092  0.1053506468135765
  0.8863473494912313  0.8780413295255656  0.8610961949499085
  0.7938996546434396  0.7719918372513632  0.6206054652190574
  0.5702814347414105  0.8785269797999149  0.3341109263076660
  0.4405549737892613  0.7590585929257472  0.0664088776319502
  0.1805224909154646  0.8964544479203909  0.8627026377838263
  0.0873911266171206  0.7864711378650711  0.6121431439146150
  0.8839448373815486  0.8763279651105336  0.3534055039196460
  0.7833762788382330  0.7575814846236710  0.0975131625496104
  0.5734832773671954  0.8827263201124325  0.8581026722191112
  0.4037236671569104  0.7236652072064800  0.5850448143852915
 
  0.00000000E+00  0.00000000E+00  0.00000000E+00
  0.00000000E+00  0.00000000E+00  0.00000000E+00
  0.00000000E+00  0.00000000E+00  0.00000000E+00
  0.00000000E+00  0.00000000E+00  0.00000000E+00
  0.00000000E+00  0.00000000E+00  0.00000000E+00
  0.00000000E+00  0.00000000E+00  0.00000000E+00
  0.00000000E+00  0.00000000E+00  0.00000000E+00
  0.00000000E+00  0.00000000E+00  0.00000000E+00
  0.00000000E+00  0.00000000E+00  0.00000000E+00
  0.00000000E+00  0.00000000E+00  0.00000000E+00
  0.00000000E+00  0.00000000E+00  0.00000000E+00
  0.00000000E+00  0.00000000E+00  0.00000000E+00
  0.00000000E+00  0.00000000E+00  0.00000000E+00
  0.00000000E+00  0.00000000E+00  0.00000000E+00
  0.00000000E+00  0.00000000E+00  0.00000000E+00
  0.00000000E+00  0.00000000E+00  0.00000000E+00
  0.00000000E+00  0.00000000E+00  0.00000000E+00
  0.00000000E+00  0.00000000E+00  0.00000000E+00
  0.00000000E+00  0.00000000E+00  0.00000000E+00
  0.00000000E+00  0.00000000E+00  0.00000000E+00
  0.00000000E+00  0.00000000E+00  0.00000000E+00
  0.00000000E+00  0.00000000E+00  0.00000000E+00
  0.00000000E+00  0.00000000E+00  0.00000000E+00
  0.00000000E+00  0.00000000E+00  0.00000000E+00
  0.00000000E+00  0.00000000E+00  0.00000000E+00
  0.00000000E+00  0.00000000E+00  0.00000000E+00
  0.00000000E+00  0.00000000E+00  0.00000000E+00
  0.00000000E+00  0.00000000E+00  0.00000000E+00
  0.00000000E+00  0.00000000E+00  0.00000000E+00
  0.00000000E+00  0.00000000E+00  0.00000000E+00
  0.00000000E+00  0.00000000E+00  0.00000000E+00
  0.00000000E+00  0.00000000E+00  0.00000000E+00
  0.00000000E+00  0.00000000E+00  0.00000000E+00
  0.00000000E+00  0.00000000E+00  0.00000000E+00
  0.00000000E+00  0.00000000E+00  0.00000000E+00
  0.00000000E+00  0.00000000E+00  0.00000000E+00
  0.00000000E+00  0.00000000E+00  0.00000000E+00
  0.00000000E+00  0.00000000E+00  0.00000000E+00
  0.00000000E+00  0.00000000E+00  0.00000000E+00
  0.00000000E+00  0.00000000E+00  0.00000000E+00
  0.00000000E+00  0.00000000E+00  0.00000000E+00
  0.00000000E+00  0.00000000E+00  0.00000000E+00
  0.00000000E+00  0.00000000E+00  0.00000000E+00
  0.00000000E+00  0.00000000E+00  0.00000000E+00
  0.00000000E+00  0.00000000E+00  0.00000000E+00
  0.00000000E+00  0.00000000E+00  0.00000000E+00
  0.00000000E+00  0.00000000E+00  0.00000000E+00
  0.00000000E+00  0.00000000E+00  0.00000000E+00
  0.00000000E+00  0.00000000E+00  0.00000000E+00
  0.00000000E+00  0.00000000E+00  0.00000000E+00
  0.00000000E+00  0.00000000E+00  0.00000000E+00
  0.00000000E+00  0.00000000E+00  0.00000000E+00
  0.00000000E+00  0.00000000E+00  0.00000000E+00
  0.00000000E+00  0.00000000E+00  0.00000000E+00
  0.00000000E+00  0.00000000E+00  0.00000000E+00
  0.00000000E+00  0.00000000E+00  0.00000000E+00
  0.00000000E+00  0.00000000E+00  0.00000000E+00
  0.00000000E+00  0.00000000E+00  0.00000000E+00
  0.00000000E+00  0.00000000E+00  0.00000000E+00
  0.00000000E+00  0.00000000E+00  0.00000000E+00
  0.00000000E+00  0.00000000E+00  0.00000000E+00
  0.00000000E+00  0.00000000E+00  0.00000000E+00
  0.00000000E+00  0.00000000E+00  0.00000000E+00
  0.00000000E+00  0.00000000E+00  0.00000000E+00
  0.00000000E+00  0.00000000E+00  0.00000000E+00
  0.00000000E+00  0.00000000E+00  0.00000000E+00
  0.00000000E+00  0.00000000E+00  0.00000000E+00
  0.00000000E+00  0.00000000E+00  0.00000000E+00
  0.00000000E+00  0.00000000E+00  0.00000000E+00
  0.00000000E+00  0.00000000E+00  0.00000000E+00
  0.00000000E+00  0.00000000E+00  0.00000000E+00
  0.00000000E+00  0.00000000E+00  0.00000000E+00
