supercell of 100% icsd_608626.cif, 0% i 
   1.00000000000000     
    -9.8504540370343570    0.0196084363518207   -0.0079113550093979
    -4.9422567812051819    8.4556193151157526    0.0027089150385215
    -0.0083328818111749   -0.0081897049221869  -10.2994707925672664
   Al   Zr   Ca   N 
    28     4     4    36
Direct
  0.1126818311625328  0.0889751317799323  0.3024917863807843
  0.7696287532722721  0.0889261842310418  0.7960008210756229
  0.4552622244669777  0.0849520265369534  0.2996391268426706
  0.2321504218758292  0.2075544703089491  0.5327420882236211
  0.7756882073151701  0.0904516068439065  0.2977030929007327
  0.8907993783459887  0.1940931006152269  0.0466513022615800
  0.4444283574676220  0.0985860908634990  0.7893919166279133
  0.5458941233668000  0.2096422707679437  0.5470957911299550
  0.1135055058425607  0.4346182652737411  0.2934542638115047
  0.2226319030058548  0.5463812381572026  0.0454281830741223
  0.4433346587491300  0.4311213464154662  0.3009646394647234
  0.5448652016664255  0.5482533937933880  0.0468914097006206
  0.1270945586281229  0.4299624075393282  0.8025907652062187
  0.2274719309288926  0.5423473853523362  0.5405625792369122
  0.7724506651995355  0.4324884536922937  0.2838921691335727
  0.8930918275381785  0.5473274220545008  0.0450142565082459
  0.4393883336473507  0.4329658853384757  0.7909981075434303
  0.5396128906259179  0.5440519056383550  0.5432391050117715
  0.1108000587500513  0.7595030555403000  0.2975267793335021
  0.2254569817621004  0.8648747129191037  0.0541514433858836
  0.7800307449364325  0.7669635650600810  0.8075678347859210
  0.8920206201087026  0.8689399266069273  0.5373439746502413
  0.4486603551337041  0.7604488027099663  0.2911507025685935
  0.5612782848788740  0.8594702910987593  0.0405861891048929
  0.2263178456350943  0.8609107339673372  0.5310033967136150
  0.7720381098014499  0.7650291500717969  0.2868186490750517
  0.8882230571985588  0.8700903425579298  0.0510930913236649
  0.4343381297100208  0.7552259127641889  0.8031209521236633
  0.2223635601407992  0.2037224951282539  0.0603466284421685
  0.8833233393974851  0.2036088653078352  0.5433556726711402
  0.5633054072217902  0.2077889948295137  0.0395863668844214
  0.8965633732046641  0.5405464566312332  0.5492379049375700
  0.1192263438701815  0.0925812538197803  0.7908207671777561
  0.7728154539644692  0.4346880464763387  0.8203773470255200
  0.1025012848091293  0.7681022727964404  0.7997086207379454
  0.5518184643299193  0.8661306271812848  0.5623168974289143
  0.2264164439548040  0.2078397401425889  0.3385087432543230
  0.1014753212438890  0.0855779061177060  0.1145248972006456
  0.8748213701568162  0.1814762597672583  0.8666667825611540
  0.7664711547122494  0.0835686746690172  0.6029149605965927
  0.5556026001668855  0.2054998074984837  0.3534139138844949
  0.4639982785998171  0.0747773480802181  0.1102214765149867
  0.2406970440035039  0.2184650104271668  0.8629848944737262
  0.1276697652267984  0.0897807109655275  0.5618800814522160
  0.8826550418836234  0.2089643807109738  0.3390348278352988
  0.7909505807160784  0.0853385517195235  0.1170809520603058
  0.5517528034721764  0.2089478267672149  0.8355850834267287
  0.4288951630050732  0.1219752696857483  0.6062521158431409
  0.2240710299716682  0.5365043658484083  0.3532041778153143
  0.1058793817758712  0.4474017261075716  0.1108310275739868
  0.9156600532311074  0.5533782033851082  0.8610802771095294
  0.7567360704395369  0.4417226740442644  0.5931844903217467
  0.5552486967486274  0.5396035361690537  0.3521234372977489
  0.4374344445248468  0.4423134368839996  0.1159373773098622
  0.2426065031718494  0.5141607218533224  0.8658244919443092
  0.1331486753397755  0.4200288608055942  0.6062944448789338
  0.8895553166129417  0.5392981583309222  0.3402674101430136
  0.7785193399630259  0.4292399215951406  0.0941100120161238
  0.5233452711275888  0.5473733203442919  0.8675029955890992
  0.4436007175973131  0.4277560543827761  0.5987998293221324
  0.2279657228658749  0.8659632755425690  0.3434750081060116
  0.1081078486819820  0.7607204507611058  0.1070501360337275
  0.8470037912018000  0.8956541694538060  0.8749052081853179
  0.8068357809228104  0.7614466468375625  0.6222110888217713
  0.5583125265799183  0.8676211783882906  0.3391875238969249
  0.4486508672190723  0.7603964944859456  0.1077672429761520
  0.2435784373396856  0.8669050167146608  0.8802986167703040
  0.1075458187747387  0.7652194165841095  0.5710042063825327
  0.8841350293919348  0.8709851116555427  0.3494046195503202
  0.7766739809222329  0.7607459802240299  0.1027247843045274
  0.5544955082772347  0.8677042583704093  0.8465463114514549
  0.4184214322182598  0.7443214440105095  0.6163319305910022
 
  0.00000000E+00  0.00000000E+00  0.00000000E+00
  0.00000000E+00  0.00000000E+00  0.00000000E+00
  0.00000000E+00  0.00000000E+00  0.00000000E+00
  0.00000000E+00  0.00000000E+00  0.00000000E+00
  0.00000000E+00  0.00000000E+00  0.00000000E+00
  0.00000000E+00  0.00000000E+00  0.00000000E+00
  0.00000000E+00  0.00000000E+00  0.00000000E+00
  0.00000000E+00  0.00000000E+00  0.00000000E+00
  0.00000000E+00  0.00000000E+00  0.00000000E+00
  0.00000000E+00  0.00000000E+00  0.00000000E+00
  0.00000000E+00  0.00000000E+00  0.00000000E+00
  0.00000000E+00  0.00000000E+00  0.00000000E+00
  0.00000000E+00  0.00000000E+00  0.00000000E+00
  0.00000000E+00  0.00000000E+00  0.00000000E+00
  0.00000000E+00  0.00000000E+00  0.00000000E+00
  0.00000000E+00  0.00000000E+00  0.00000000E+00
  0.00000000E+00  0.00000000E+00  0.00000000E+00
  0.00000000E+00  0.00000000E+00  0.00000000E+00
  0.00000000E+00  0.00000000E+00  0.00000000E+00
  0.00000000E+00  0.00000000E+00  0.00000000E+00
  0.00000000E+00  0.00000000E+00  0.00000000E+00
  0.00000000E+00  0.00000000E+00  0.00000000E+00
  0.00000000E+00  0.00000000E+00  0.00000000E+00
  0.00000000E+00  0.00000000E+00  0.00000000E+00
  0.00000000E+00  0.00000000E+00  0.00000000E+00
  0.00000000E+00  0.00000000E+00  0.00000000E+00
  0.00000000E+00  0.00000000E+00  0.00000000E+00
  0.00000000E+00  0.00000000E+00  0.00000000E+00
  0.00000000E+00  0.00000000E+00  0.00000000E+00
  0.00000000E+00  0.00000000E+00  0.00000000E+00
  0.00000000E+00  0.00000000E+00  0.00000000E+00
  0.00000000E+00  0.00000000E+00  0.00000000E+00
  0.00000000E+00  0.00000000E+00  0.00000000E+00
  0.00000000E+00  0.00000000E+00  0.00000000E+00
  0.00000000E+00  0.00000000E+00  0.00000000E+00
  0.00000000E+00  0.00000000E+00  0.00000000E+00
  0.00000000E+00  0.00000000E+00  0.00000000E+00
  0.00000000E+00  0.00000000E+00  0.00000000E+00
  0.00000000E+00  0.00000000E+00  0.00000000E+00
  0.00000000E+00  0.00000000E+00  0.00000000E+00
  0.00000000E+00  0.00000000E+00  0.00000000E+00
  0.00000000E+00  0.00000000E+00  0.00000000E+00
  0.00000000E+00  0.00000000E+00  0.00000000E+00
  0.00000000E+00  0.00000000E+00  0.00000000E+00
  0.00000000E+00  0.00000000E+00  0.00000000E+00
  0.00000000E+00  0.00000000E+00  0.00000000E+00
  0.00000000E+00  0.00000000E+00  0.00000000E+00
  0.00000000E+00  0.00000000E+00  0.00000000E+00
  0.00000000E+00  0.00000000E+00  0.00000000E+00
  0.00000000E+00  0.00000000E+00  0.00000000E+00
  0.00000000E+00  0.00000000E+00  0.00000000E+00
  0.00000000E+00  0.00000000E+00  0.00000000E+00
  0.00000000E+00  0.00000000E+00  0.00000000E+00
  0.00000000E+00  0.00000000E+00  0.00000000E+00
  0.00000000E+00  0.00000000E+00  0.00000000E+00
  0.00000000E+00  0.00000000E+00  0.00000000E+00
  0.00000000E+00  0.00000000E+00  0.00000000E+00
  0.00000000E+00  0.00000000E+00  0.00000000E+00
  0.00000000E+00  0.00000000E+00  0.00000000E+00
  0.00000000E+00  0.00000000E+00  0.00000000E+00
  0.00000000E+00  0.00000000E+00  0.00000000E+00
  0.00000000E+00  0.00000000E+00  0.00000000E+00
  0.00000000E+00  0.00000000E+00  0.00000000E+00
  0.00000000E+00  0.00000000E+00  0.00000000E+00
  0.00000000E+00  0.00000000E+00  0.00000000E+00
  0.00000000E+00  0.00000000E+00  0.00000000E+00
  0.00000000E+00  0.00000000E+00  0.00000000E+00
  0.00000000E+00  0.00000000E+00  0.00000000E+00
  0.00000000E+00  0.00000000E+00  0.00000000E+00
  0.00000000E+00  0.00000000E+00  0.00000000E+00
  0.00000000E+00  0.00000000E+00  0.00000000E+00
  0.00000000E+00  0.00000000E+00  0.00000000E+00
