Nb   Zn   N                             
   1.00000000000000     
    -0.0470180063968989    0.0000057353432071    5.4747043366422696
     5.8281480074714045    0.0038106681494114    0.0024530924825871
    -0.0064832877785404    9.9196434604393957   -0.0000817226460787
   Nb   Zn   N 
     4     8    12
Direct
  0.9848993644172631  0.6719028536145595  1.0000004629938348
  0.4841318290802153  0.3292272285390528  1.0000002264494010
  0.9840056174536658  0.1702784581633673  0.4999990291774206
  0.4815073238852236  0.8252597732303930  0.5000002704624976
  0.9742560626975533  0.1630212077559016  0.1706695251518828
  0.9742557928846074  0.1630209408912242  0.8293305196700427
  0.4741632951444104  0.8376248991736998  0.8289814419375804
  0.4741632622306310  0.8376248455608918  0.1710184834733503
  0.9722309166362751  0.6630958000962985  0.3275976023116084
  0.9722306475387335  0.6630958579420424  0.6724022619209530
  0.4761946460903616  0.3360179474425360  0.3281079339326755
  0.4761944273691302  0.3360178853374185  0.6718919622881107
  0.0976924315326973  0.8335711093938312  0.1603450439910279
  0.0976925860597083  0.8335713755297979  0.8396546083645472
  0.1135203142075017  0.3445726175916882  0.9999999047669775
  0.5977406681253296  0.1687068350866900  0.1600908628329158
  0.5977407208066957  0.1687065266872519  0.8399090131288385
  0.6139833141274791  0.6576319913368726  0.9999999808335598
  0.0954173895708640  0.3324429743649990  0.3393279322098467
  0.0954176895507887  0.3324436811020100  0.6606727602298561
  0.5961574156586797  0.6682984069812823  0.3384327536714438
  0.5961574557571733  0.6682984272619966  0.6615671756998006
  0.1104386966456724  0.8415622479678843  0.5000001372625802
  0.6088290079502223  0.1540061172475052  0.5000001068548585
 
             NaN             NaN             NaN
             NaN             NaN             NaN
             NaN             NaN             NaN
             NaN             NaN             NaN
             NaN             NaN             NaN
             NaN             NaN             NaN
             NaN             NaN             NaN
             NaN             NaN             NaN
             NaN             NaN             NaN
             NaN             NaN             NaN
             NaN             NaN             NaN
             NaN             NaN             NaN
             NaN             NaN             NaN
             NaN             NaN             NaN
             NaN             NaN             NaN
             NaN             NaN             NaN
             NaN             NaN             NaN
             NaN             NaN             NaN
             NaN             NaN             NaN
             NaN             NaN             NaN
             NaN             NaN             NaN
             NaN             NaN             NaN
             NaN             NaN             NaN
             NaN             NaN             NaN
