Nb   Zn   N                             
   1.00000000000000     
    -0.0340414392439050    0.0000159123522172    5.5080163125968697
     5.8812389099433204    0.0038446730083594    0.0070089164497045
    -0.0065413799609537   10.0040035209336615   -0.0000748326567972
   Nb   Zn   N 
     4     8    12
Direct
  0.9797700842914774  0.6695109630684033 -0.0000000797569325
  0.4782954322226788  0.3281470937131807  0.0000000168739576
  0.1295616130226613  0.1757196865400934  0.4999999239740978
  0.5597768865730265  0.8247863077685479  0.5000001512363788
  0.9685975703350108  0.1602956501322307  0.1704938080859645
  0.9685972405883704  0.1602953435159762  0.8295060380997892
  0.4670304973425525  0.8372362131483283  0.8317788654409850
  0.4670307720766571  0.8372362317484731  0.1682210465241601
  0.9839647250322952  0.6638379394363465  0.3269363864270595
  0.9839642971615736  0.6638381516646843  0.6730634668897945
  0.4799178796734444  0.3415411195062049  0.3169076124734364
  0.4799187172692778  0.3415415515830466  0.6830925535603710
  0.0920652133196367  0.8330182129530209  0.1583162572075171
  0.0920649809199365  0.8330180192352015  0.8416838718569978
  0.1105875915914161  0.3454331625902941  1.0000000009948096
  0.5928922520828129  0.1639163927274604  0.1574525224819476
  0.5928922032868310  0.1639162556482143  0.8425475403003855
  0.6102045432087626  0.6527768465012811  1.0000000032490379
  0.0814563911365682  0.3368530609184935  0.3316740394816657
  0.0814562974607779  0.3368528220943073  0.6683260237180477
  0.5859911054596598  0.6649189290325209  0.3329549374013811
  0.5859910144902806  0.6649190264381232  0.6670449307240551
  0.0714371377966429  0.8393196034927290  0.5000000516466722
  0.5055564290783388  0.1610714248421560  0.5000000307240589
 
             NaN             NaN             NaN
             NaN             NaN             NaN
             NaN             NaN             NaN
             NaN             NaN             NaN
             NaN             NaN             NaN
             NaN             NaN             NaN
             NaN             NaN             NaN
             NaN             NaN             NaN
             NaN             NaN             NaN
             NaN             NaN             NaN
             NaN             NaN             NaN
             NaN             NaN             NaN
             NaN             NaN             NaN
             NaN             NaN             NaN
             NaN             NaN             NaN
             NaN             NaN             NaN
             NaN             NaN             NaN
             NaN             NaN             NaN
             NaN             NaN             NaN
             NaN             NaN             NaN
             NaN             NaN             NaN
             NaN             NaN             NaN
             NaN             NaN             NaN
             NaN             NaN             NaN
