Nb   Zn   N                             
   1.00000000000000     
    -0.0154316729932528    0.0000362663702374    5.5746402645060904
     5.8448091387174363    0.0048697586993006    0.0161205643839392
    -0.0082573636847156    9.9071156583369326   -0.0000666894532604
   Nb   Zn   N 
     4     8    12
Direct
  0.9706872484564275  0.6695679012290250 -0.0000001535849205
  0.4706862713103567  0.3304323816326418 -0.0000001561778935
  0.0897778457370886  0.1695699238153781  0.5000000543221658
  0.5897768478471481  0.8304324757609058  0.5000001898680516
  0.9651008384985513  0.1577117676268151  0.1650505121770336
  0.9651014999023281  0.1577117191949633  0.8349491734475184
  0.4651020350205421  0.8422886835799754  0.8349495592848394
  0.4651013835229253  0.8422886350867229  0.1650504478507979
  0.0953485248206539  0.6577126301716992  0.3349473859068087
  0.0953492491283051  0.6577126789443621  0.6650526768689224
  0.5953494752880736  0.3422896624932078  0.3349471835107635
  0.5953497885769820  0.3422896225470495  0.6650529058566403
  0.0846081087140393  0.8340748240287323  0.1573985630981475
  0.0846083981506544  0.8340746765596984  0.8426018889963275
  0.1035863417175837  0.3446041461180854  0.0000000471915698
  0.5846081634584617  0.1659274826526133  0.1573982258860030
  0.5846084872838060  0.1659277343361018  0.8426021111949442
  0.6035869229525660  0.6553977275637750  0.0000001005113289
  0.9758537099645583  0.3340711464273199  0.3426010248527191
  0.9758539054573040  0.3340711839151467  0.6573985851801459
  0.4758536987717134  0.6659290806631096  0.3426007839642472
  0.4758539934834012  0.6659291832649453  0.6573989193329439
  0.9568795042165474  0.8446040551227030  0.5000000060972465
  0.4568801214622565  0.1553967572456993  0.4999999385965954
 
             NaN             NaN             NaN
             NaN             NaN             NaN
             NaN             NaN             NaN
             NaN             NaN             NaN
             NaN             NaN             NaN
             NaN             NaN             NaN
             NaN             NaN             NaN
             NaN             NaN             NaN
             NaN             NaN             NaN
             NaN             NaN             NaN
             NaN             NaN             NaN
             NaN             NaN             NaN
             NaN             NaN             NaN
             NaN             NaN             NaN
             NaN             NaN             NaN
             NaN             NaN             NaN
             NaN             NaN             NaN
             NaN             NaN             NaN
             NaN             NaN             NaN
             NaN             NaN             NaN
             NaN             NaN             NaN
             NaN             NaN             NaN
             NaN             NaN             NaN
             NaN             NaN             NaN
