Nb   Zn   N                             
   1.00000000000000     
    -0.0347652427238551    0.0000151295053703    5.5054538529080599
     5.8815320676157601    0.0038445629221813    0.0066584684522339
    -0.0065419614264062   10.0041222468748554   -0.0000751362702021
   Nb   Zn   N 
     4     8    12
Direct
  0.9799582203511786  0.6696077073899697  0.0000000689978397
  0.4783214960093770  0.3282388632690105  0.0000001297743146
  0.1292257940441685  0.1771120126364947  0.4999999476640807
  0.5394209147146395  0.8220202297143692  0.4999999208755956
  0.9687300215944853  0.1602467645857809  0.1704312084241944
  0.9687297173351733  0.1602465482533567  0.8295686510482617
  0.4672909957676171  0.8371864458969882  0.8317532010717189
  0.4672912761333011  0.8371866660506609  0.1682467658344706
  0.9829819831089353  0.6641909587752827  0.3271697187652163
  0.9829813452811055  0.6641912688034668  0.6728301130001513
  0.4804690722250199  0.3416681678374612  0.3169002253228683
  0.4804691966654556  0.3416682118476771  0.6830998821445804
  0.0921886091104291  0.8330378185651063  0.1583317446145785
  0.0921884532967903  0.8330377231835570  0.8416682624088251
  0.1105548102395578  0.3454106752102520 -0.0000000289498389
  0.5929079256499254  0.1640621737122266  0.1574673769815134
  0.5929078906732647  0.1640619582094178  0.8425326012179152
  0.6101944074316857  0.6528643313746604 -0.0000000179385943
  0.0816774950427252  0.3370566221312345  0.3315261951293769
  0.0816774392789601  0.3370563939693070  0.6684738753255154
  0.5884498930177682  0.6654462077276766  0.3329791902668896
  0.5884498523696970  0.6654461955811739  0.6670208475905443
  0.0855652051415099  0.8381390533425614  0.5000000659062528
  0.5063888609378930  0.1608170102316483  0.5000000541393538
 
             NaN             NaN             NaN
             NaN             NaN             NaN
             NaN             NaN             NaN
             NaN             NaN             NaN
             NaN             NaN             NaN
             NaN             NaN             NaN
             NaN             NaN             NaN
             NaN             NaN             NaN
             NaN             NaN             NaN
             NaN             NaN             NaN
             NaN             NaN             NaN
             NaN             NaN             NaN
             NaN             NaN             NaN
             NaN             NaN             NaN
             NaN             NaN             NaN
             NaN             NaN             NaN
             NaN             NaN             NaN
             NaN             NaN             NaN
             NaN             NaN             NaN
             NaN             NaN             NaN
             NaN             NaN             NaN
             NaN             NaN             NaN
             NaN             NaN             NaN
             NaN             NaN             NaN
