Nb   Zn   N                             
   1.00000000000000     
    -0.0336861473808260    0.0000166951990641    5.5105787722856903
     5.8798814477697778    0.0038447041928637    0.0073593644471750
    -0.0065389102838591   10.0026068534747257   -0.0000745544680838
   Nb   Zn   N 
     4     8    12
Direct
  0.9796061264201161  0.6694650659850088 -0.0000002993315023
  0.4782915104955168  0.3280869946768033  0.0000000009377138
  0.1294529516302776  0.1744969288440263  0.4999996215416920
  0.5801095005538260  0.8272107920370744  0.5000004650831344
  0.9684537326873947  0.1603393214442644  0.1705224310786750
  0.9684533957386932  0.1603390071454669  0.8294774936310022
  0.4668542825871495  0.8372219528830586  0.8316789640140752
  0.4668544895300832  0.8372220915235496  0.1683209632285104
  0.9845376575269483  0.6633903357871493  0.3264982591508259
  0.9845359264539066  0.6633915341784714  0.6735014071185266
  0.4795293476115171  0.3415971338453639  0.3169931965205520
  0.4795314140817455  0.3415986987871637  0.6830071620711264
  0.0920254562272425  0.8330513031450549  0.1583076362170799
  0.0920250001246029  0.8330509619046568  0.8416926699822204
  0.1105915862423115  0.3454372566147015  0.0000000197319698
  0.5929223499100711  0.1638642319525890  0.1574676847404597
  0.5929223155219071  0.1638641381412939  0.8425323772586576
  0.6102274593523237  0.6527286719793326  0.0000000352778695
  0.0814047177198406  0.3367171123279443  0.3319283880671127
  0.0814045568098220  0.3367169034185795  0.6680717984372360
  0.5841182023443556  0.6647561576906312  0.3331605646860335
  0.5841180850584795  0.6647561620308243  0.6668390949422630
  0.0564129040672020  0.8405092631465277  0.5000000473728458
  0.5046379067253529  0.1601879888097788  0.5000000178575699
 
             NaN             NaN             NaN
             NaN             NaN             NaN
             NaN             NaN             NaN
             NaN             NaN             NaN
             NaN             NaN             NaN
             NaN             NaN             NaN
             NaN             NaN             NaN
             NaN             NaN             NaN
             NaN             NaN             NaN
             NaN             NaN             NaN
             NaN             NaN             NaN
             NaN             NaN             NaN
             NaN             NaN             NaN
             NaN             NaN             NaN
             NaN             NaN             NaN
             NaN             NaN             NaN
             NaN             NaN             NaN
             NaN             NaN             NaN
             NaN             NaN             NaN
             NaN             NaN             NaN
             NaN             NaN             NaN
             NaN             NaN             NaN
             NaN             NaN             NaN
             NaN             NaN             NaN
