Nb   Zn   N                             
   1.00000000000000     
    -0.0566278552591063    0.0000073010369010    5.4798292560199000
     5.8488022005821012    0.0038237604174513    0.0031539884775282
    -0.0065001668202456    9.9446211431714744   -0.0000856419608623
   Nb   Zn   N 
     4     8    12
Direct
  0.9852097319057743  0.6722206620351920 -0.0000058212693284
  0.4842213798226740  0.3299914673660772 -0.0000064681496924
  0.0071450279008608  0.1704786121221111  0.5000062728720570
  0.4805298506740728  0.8196974578578465  0.5000084046490703
  0.9743697374153144  0.1622681749435197  0.1691806367883893
  0.9743689715956236  0.1622665988832783  0.8308179121429408
  0.4743394635934094  0.8379645403977646  0.8293521350792351
  0.4743397826684644  0.8379640502299265  0.1706461749829669
  0.9704631199742797  0.6654109529284782  0.3263264059029509
  0.9704623158700494  0.6654103931202874  0.6736749115604402
  0.4843476134407111  0.3364423850591882  0.3268634560597014
  0.4843456629492948  0.3364421949630559  0.6731376082669296
  0.0977096584965423  0.8347625913636521  0.1596072617119020
  0.0977068383201169  0.8347578996930617  0.8403974698561197
  0.1139665627423103  0.3458676210624735  1.0000007065819549
  0.5978755309134254  0.1685072656835527  0.1590838400404603
  0.5978722981235776  0.1685122505288422  0.8409212792423429
  0.6147784258205056  0.6572183474875286  1.0000007267826805
  0.0909121787874991  0.3356642194653948  0.3374290894035294
  0.0909101763770070  0.3356595971865274  0.6625657243088037
  0.5964476046534107  0.6682939188112847  0.3364013632942129
  0.5964439047581974  0.6682996316589316  0.6635925941941434
  0.1082218359958708  0.8348939915695001  0.4999990850855403
  0.5820332026218921  0.1510051838816901  0.4999992302282921
 
             NaN             NaN             NaN
             NaN             NaN             NaN
             NaN             NaN             NaN
             NaN             NaN             NaN
             NaN             NaN             NaN
             NaN             NaN             NaN
             NaN             NaN             NaN
             NaN             NaN             NaN
             NaN             NaN             NaN
             NaN             NaN             NaN
             NaN             NaN             NaN
             NaN             NaN             NaN
             NaN             NaN             NaN
             NaN             NaN             NaN
             NaN             NaN             NaN
             NaN             NaN             NaN
             NaN             NaN             NaN
             NaN             NaN             NaN
             NaN             NaN             NaN
             NaN             NaN             NaN
             NaN             NaN             NaN
             NaN             NaN             NaN
             NaN             NaN             NaN
             NaN             NaN             NaN
