Nb   Zn   N                             
   1.00000000000000     
    -0.0359902923935089    0.0000143466585234    5.5028913932192403
     5.8811135463525028    0.0038442592448362    0.0063080204547633
    -0.0065413430541541   10.0031266485870560   -0.0000754035296202
   Nb   Zn   N 
     4     8    12
Direct
  0.9801822358178053  0.6697570524167936  1.0000005426060030
  0.4783758971169794  0.3283595062683084  1.0000004331408703
  0.1282390564647030  0.1786176141881740  0.4999988667722651
  0.5196639386151649  0.8188629780073270  0.4999991161596882
  0.9688784624977783  0.1601846215623991  0.1703286211942072
  0.9688780857670009  0.1601843303200144  0.8296712979309814
  0.4676394901588471  0.8370629164169493  0.8316250190348118
  0.4676397466651518  0.8370629150715485  0.1683750199075242
  0.9814561579856745  0.6645394993890467  0.3272851315394744
  0.9814568814890687  0.6645388781776570  0.6727147372975840
  0.4812396135752348  0.3419405459796308  0.3169672874933923
  0.4812401322434282  0.3419406308277134  0.6830328521498271
  0.0923716412987029  0.8331009138720670  0.1583699035595827
  0.0923717513068203  0.8331011410118795  0.8416297526512870
  0.1104950642266501  0.3453833432034604 -0.0000000368391636
  0.5929745974416598  0.1642803526262181  0.1575029479972067
  0.5929746113917889  0.1642798949857711  0.8424967719536391
  0.6102123999086987  0.6529882239722453 -0.0000000738617928
  0.0820183036641614  0.3373943132085357  0.3314570267472089
  0.0820179644730765  0.3373949028581935  0.6685437846820298
  0.5912827246765892  0.6662517177714278  0.3331989049058230
  0.5912828474617746  0.6662511212269036  0.6668017581021053
  0.0992743420218263  0.8367245332836197  0.5000001691060973
  0.5068549291520767  0.1597980616534679  0.5000001653849717
 
             NaN             NaN             NaN
             NaN             NaN             NaN
             NaN             NaN             NaN
             NaN             NaN             NaN
             NaN             NaN             NaN
             NaN             NaN             NaN
             NaN             NaN             NaN
             NaN             NaN             NaN
             NaN             NaN             NaN
             NaN             NaN             NaN
             NaN             NaN             NaN
             NaN             NaN             NaN
             NaN             NaN             NaN
             NaN             NaN             NaN
             NaN             NaN             NaN
             NaN             NaN             NaN
             NaN             NaN             NaN
             NaN             NaN             NaN
             NaN             NaN             NaN
             NaN             NaN             NaN
             NaN             NaN             NaN
             NaN             NaN             NaN
             NaN             NaN             NaN
             NaN             NaN             NaN
