Nb   Zn   N                             
   1.00000000000000     
    -0.0088066433105144    0.0000198265864519    5.5208286110409501
     5.8730538297692503   -0.0009860283229153    0.0087611564370573
    -0.0147945882554568    9.9805060902295200    0.0141618081389125
   Nb   Zn   N 
     4     8    12
Direct
  0.9792016673054639  0.6705910958353940  0.0000371614542345
  0.4793211004696495  0.3286170471056963  0.9998968527575538
  0.1298012243336163  0.1706363020853364  0.5007576718659624
  0.6305935494008333  0.8310517677354405  0.4999983938199276
  0.9660986723265691  0.1621560892330102  0.1715522341615978
  0.9705709256907751  0.1615674820062430  0.8306368059435425
  0.4683125367568128  0.8365402467715775  0.8298328302238431
  0.4662227698860739  0.8386098429539978  0.1708502372676152
  0.9774964433981119  0.6574576695632603  0.3188866455212629
  0.9838069704401945  0.6593831449449937  0.6797812021289642
  0.4759903241564972  0.3439145020423596  0.3190180156199043
  0.4984216152418345  0.3388868654684091  0.6780709158011089
  0.0925457169065599  0.8354778145256266  0.1580721463759072
  0.0944895144469041  0.8346541154232039  0.8422206474048867
  0.1112179067733816  0.3464567280077152  0.0004681010698938
  0.5925135287853882  0.1653301708249432  0.1582918130982707
  0.5947590328931497  0.1631204504795483  0.8423113929387062
  0.6110623734309711  0.6527707875909838  0.0000550557464869
  0.0828063590127469  0.3369471179051560  0.3342495089060768
  0.0757064274393743  0.3353525665994543  0.6655863218103392
  0.5825780733333534  0.6646581668735115  0.3337278199713234
  0.5821600272054608  0.6644106397177334  0.6656147641898719
  0.0004278066220962  0.8501709067083446  0.4998599217123427
  0.5007307113724419  0.1512383246877906  0.5002235382122993
 
             NaN             NaN             NaN
             NaN             NaN             NaN
             NaN             NaN             NaN
             NaN             NaN             NaN
             NaN             NaN             NaN
             NaN             NaN             NaN
             NaN             NaN             NaN
             NaN             NaN             NaN
             NaN             NaN             NaN
             NaN             NaN             NaN
             NaN             NaN             NaN
             NaN             NaN             NaN
             NaN             NaN             NaN
             NaN             NaN             NaN
             NaN             NaN             NaN
             NaN             NaN             NaN
             NaN             NaN             NaN
             NaN             NaN             NaN
             NaN             NaN             NaN
             NaN             NaN             NaN
             NaN             NaN             NaN
             NaN             NaN             NaN
             NaN             NaN             NaN
             NaN             NaN             NaN
