Nb   Zn   N                             
   1.00000000000000     
    -0.0585833932425392    0.0000104324242887    5.4900790947751599
     5.8619131280925902    0.0038330357769181    0.0045557804674105
    -0.0065114077217935    9.9636999794249039   -0.0000864660220165
   Nb   Zn   N 
     4     8    12
Direct
  0.9853265354762422  0.6724156125587535  0.0000003145186087
  0.4837711612730726  0.3304430694894737  1.0000003509698823
  0.0763639024520050  0.1738665665061002  0.4999991219288293
  0.4773178555255395  0.8119704453031356  0.4999994985039073
  0.9742702236436841  0.1619966535829663  0.1686922950750164
  0.9742702598319861  0.1619968918569857  0.8313078894891972
  0.4740157362904384  0.8379359836306751  0.8295707818038777
  0.4740155943379816  0.8379361677994646  0.1704292708140230
  0.9695255664972883  0.6661819597731775  0.3259269732732249
  0.9695257366037798  0.6661821265447255  0.6740731623237672
  0.4887461514669644  0.3377058138423725  0.3250054220622360
  0.4887459644536331  0.3377059949865798  0.6749946635389542
  0.0974116514403156  0.8352552245251795  0.1592568047796682
  0.0974117432708530  0.8352554817669026  0.8407428494711024
  0.1145655509788189  0.3465627881613026  0.9999998669235338
  0.5974938482896873  0.1684686570777587  0.1589259788951888
  0.5974940339967445  0.1684683546522652  0.8410736474248834
  0.6149516375065179  0.6567264375151384  0.9999999052467816
  0.0839649147120215  0.3394551073897504  0.3340932505771632
  0.0839649393291294  0.3394556915775061  0.6659073627566753
  0.5964276230264512  0.6680732209499213  0.3351664259320482
  0.5964278137938298  0.6680728198003616  0.6648339480453891
  0.1057433485394133  0.8281625546340922  0.5000001203116958
  0.5272690826844196  0.1497063843746166  0.5000000949499589
 
             NaN             NaN             NaN
             NaN             NaN             NaN
             NaN             NaN             NaN
             NaN             NaN             NaN
             NaN             NaN             NaN
             NaN             NaN             NaN
             NaN             NaN             NaN
             NaN             NaN             NaN
             NaN             NaN             NaN
             NaN             NaN             NaN
             NaN             NaN             NaN
             NaN             NaN             NaN
             NaN             NaN             NaN
             NaN             NaN             NaN
             NaN             NaN             NaN
             NaN             NaN             NaN
             NaN             NaN             NaN
             NaN             NaN             NaN
             NaN             NaN             NaN
             NaN             NaN             NaN
             NaN             NaN             NaN
             NaN             NaN             NaN
             NaN             NaN             NaN
             NaN             NaN             NaN
