Nb   Zn   N                             
   1.00000000000000     
    -0.0120952897127759    0.0000276550549212    5.5464532079291198
     5.8665024566920740    0.0069565946337331    0.0122656364117630
    -0.0014880949347406    9.9185485462622260    0.1854378607913837
   Nb   Zn   N 
     4     8    12
Direct
  0.9800891667826125  0.6700065059847117  0.9997731973366960
  0.4801261769820297  0.3291788888685055  0.9999325963440787
  0.1139994026014405  0.1702888677454684  0.5031568865522932
  0.6145334750168916  0.8312685546179772  0.5036481791748966
  0.9628844125641920  0.1593771659747902  0.1706402162372136
  0.9803907821868896  0.1598955717927636  0.8349255192656816
  0.4801986441964376  0.8406696102168789  0.8359645359948675
  0.4612177174967017  0.8388835699453655  0.1714555504262041
  0.9684497351948846  0.6564043448386007  0.3217273074720266
  0.1164779579351975  0.6593305487390372  0.6656532410805186
  0.4767822692258695  0.3419162500272641  0.3227357514534689
  0.6154584013648713  0.3421030457819109  0.6657462790521166
  0.0894927557180319  0.8327722042709933  0.1598244665391002
  0.0980784592546320  0.8366938963092815  0.8438602773376592
  0.1125421408443023  0.3456254840908041  0.9990800471367046
  0.5897890688541030  0.1651522683702244  0.1597125399846942
  0.5980929726943520  0.1638945706306247  0.8436624221273598
  0.6124280921176581  0.6535426815326332  0.9995709718577744
  0.0704614543573364  0.3329556519486119  0.3354556266222877
  0.9939673213657825  0.3397740236453360  0.6581662410394976
  0.5734955087820578  0.6666045385559544  0.3358618212445249
  0.4941554548097353  0.6621758696843805  0.6587292406922838
  0.9816252152663323  0.8484872231050241  0.5055912441281845
  0.4820863404520090  0.1529985024098021  0.5051258388813338
 
             NaN             NaN             NaN
             NaN             NaN             NaN
             NaN             NaN             NaN
             NaN             NaN             NaN
             NaN             NaN             NaN
             NaN             NaN             NaN
             NaN             NaN             NaN
             NaN             NaN             NaN
             NaN             NaN             NaN
             NaN             NaN             NaN
             NaN             NaN             NaN
             NaN             NaN             NaN
             NaN             NaN             NaN
             NaN             NaN             NaN
             NaN             NaN             NaN
             NaN             NaN             NaN
             NaN             NaN             NaN
             NaN             NaN             NaN
             NaN             NaN             NaN
             NaN             NaN             NaN
             NaN             NaN             NaN
             NaN             NaN             NaN
             NaN             NaN             NaN
             NaN             NaN             NaN
