Nb   Zn   N                             
   1.00000000000000     
    -0.0075265716531946    0.0000229579738396    5.5310784497962198
     5.8804843201409804   -0.0042666300877493    0.0101629484269396
    -0.0204496697246250    9.9675585816358598    0.0513326722978240
   Nb   Zn   N 
     4     8    12
Direct
  0.9787692350456419  0.6696077816808034  0.0001627429156410
  0.4795654445076461  0.3282411778629151  0.0003322692204798
  0.1228158747564355  0.1732204939571995  0.5024790087843589
  0.6258477207620159  0.8334682077954648  0.5000396053752142
  0.9641581386378190  0.1612844430856959  0.1722504923465068
  0.9770756372669032  0.1595134313504371  0.8351410137229783
  0.4697729815400553  0.8358504092896315  0.8306959862598973
  0.4651715113849909  0.8388728475727024  0.1711156200147508
  0.9749214748726889  0.6570229610864251  0.3191645660080222
  0.9979646021531949  0.6656646650879082  0.6772723388516795
  0.4723229239995400  0.3443879533164965  0.3200638949652815
  0.5845812382937711  0.3332419066868438  0.6707882127351115
  0.0913659766708325  0.8348180097494785  0.1579224790498598
  0.0959150342105519  0.8338454933657768  0.8423164711697188
  0.1109961360564675  0.3460937302826264  0.0005464533076147
  0.5911220481033062  0.1653351287482840  0.1594181987408392
  0.5944267033881222  0.1605176786931581  0.8447224165729110
  0.6115597354738558  0.6521956273936788  0.9998892085803345
  0.0804942622295667  0.3366484473340944  0.3343616936184260
  0.0169670195735039  0.3321030660066652  0.6610887797070597
  0.5800263806671376  0.6647811854324014  0.3339597469800537
  0.5711510182531038  0.6678431677679268  0.6636282822260601
  0.9973094140295512  0.8514697476249464  0.4991295074335059
  0.4925381705438476  0.1539722734486066  0.5035110094048759
 
             NaN             NaN             NaN
             NaN             NaN             NaN
             NaN             NaN             NaN
             NaN             NaN             NaN
             NaN             NaN             NaN
             NaN             NaN             NaN
             NaN             NaN             NaN
             NaN             NaN             NaN
             NaN             NaN             NaN
             NaN             NaN             NaN
             NaN             NaN             NaN
             NaN             NaN             NaN
             NaN             NaN             NaN
             NaN             NaN             NaN
             NaN             NaN             NaN
             NaN             NaN             NaN
             NaN             NaN             NaN
             NaN             NaN             NaN
             NaN             NaN             NaN
             NaN             NaN             NaN
             NaN             NaN             NaN
             NaN             NaN             NaN
             NaN             NaN             NaN
             NaN             NaN             NaN
