Nb   Zn   N                             
   1.00000000000000     
    -0.0138547713827766    0.0000268722080742    5.5438907482403001
     5.8674256119988986    0.0053292812878206    0.0119151884142924
    -0.0044001526282146    9.9376951184952684    0.1232920235384431
   Nb   Zn   N 
     4     8    12
Direct
  0.9796810652779203  0.6699606494952315 -0.0000054268828243
  0.4799784818514342  0.3287688426553028  0.0000230353978856
  0.1174056082427302  0.1710548884852902  0.5035802598197946
  0.6167472185129225  0.8307755784803442  0.5028472278952519
  0.9621069434229830  0.1598954900569562  0.1720595688525411
  0.9793965643978166  0.1598995834713757  0.8362961021406440
  0.4787258167752123  0.8391488286308145  0.8341634942219346
  0.4626012669634663  0.8390403979532167  0.1713455871320492
  0.9681861403255181  0.6560853966448243  0.3204326948241926
  0.0997671185201930  0.6616456681690497  0.6679651244212431
  0.4687384769365402  0.3438428744553975  0.3207430148183602
  0.6133373846500112  0.3401360119204628  0.6667600176101787
  0.0899877927143484  0.8336069159031556  0.1594427653024267
  0.0972600806705930  0.8362421003421440  0.8439171726464175
  0.1120260210690076  0.3458760318015249  0.0001039345044495
  0.5900055519454184  0.1657046564066096  0.1600306292222064
  0.5970765932997092  0.1628450916394933  0.8443419451659362
  0.6122253437053216  0.6531932043798553  0.9994732683681169
  0.0763803702897571  0.3344576229495675  0.3352387270353514
  0.9967520055242108  0.3371772611290781  0.6591379349439919
  0.5765263308550166  0.6654964567736986  0.3348498153925025
  0.5015681253723753  0.6630756574669011  0.6582605107037505
  0.9856326875723531  0.8495931508421795  0.5038512527821001
  0.4847256935256551  0.1524774745676933  0.5051413416727306
 
             NaN             NaN             NaN
             NaN             NaN             NaN
             NaN             NaN             NaN
             NaN             NaN             NaN
             NaN             NaN             NaN
             NaN             NaN             NaN
             NaN             NaN             NaN
             NaN             NaN             NaN
             NaN             NaN             NaN
             NaN             NaN             NaN
             NaN             NaN             NaN
             NaN             NaN             NaN
             NaN             NaN             NaN
             NaN             NaN             NaN
             NaN             NaN             NaN
             NaN             NaN             NaN
             NaN             NaN             NaN
             NaN             NaN             NaN
             NaN             NaN             NaN
             NaN             NaN             NaN
             NaN             NaN             NaN
             NaN             NaN             NaN
             NaN             NaN             NaN
             NaN             NaN             NaN
