Nb   Zn   N                             
   1.00000000000000     
    -0.0114671982794728    0.0000292207486150    5.5515781273067502
     5.8712092397646822    0.0113485939449047    0.0129665324067041
     0.0059168841704065    9.9195090660443412    0.1485916362229476
   Nb   Zn   N 
     4     8    12
Direct
  0.9794490837803391  0.6691879885563551  0.9997494676898043
  0.4795594320407383  0.3287889314004052  0.9996527745930746
  0.1100842071954869  0.1726315233443639  0.5020613173121458
  0.6128466134777362  0.8329784387541016  0.5035389772783417
  0.9670254047384236  0.1581007656912892  0.1683680612377965
  0.9792102966301468  0.1594186785131115  0.8344520467080638
  0.4789662307266062  0.8407519894394492  0.8355793463257767
  0.4616572495304390  0.8375486925926474  0.1705232044460128
  0.9744478830842457  0.6604389579301123  0.3231141059852509
  0.1134331576399549  0.6595629009734851  0.6658594778576788
  0.5223622805752267  0.3370689207660527  0.3270735800070713
  0.6135202334474440  0.3430710050662373  0.6656720098886090
  0.0902527085382725  0.8319272922487591  0.1595397768644282
  0.0968410876335612  0.8362050180873805  0.8441738733738804
  0.1119984040759104  0.3450859586049017  0.9990573913074354
  0.5899735521605977  0.1627731665240737  0.1583603148527026
  0.5962839717211941  0.1639830271499768  0.8433158504381398
  0.6120242497870610  0.6528100355993721  0.9994906649389127
  0.0412731517293838  0.3305596516969215  0.3381349916823961
  0.9921717031529874  0.3399328054026560  0.6586005480876915
  0.5700910308953042  0.6688999505106855  0.3363869922181538
  0.4926820773154269  0.6635995892283498  0.6584000126678873
  0.9802992713884341  0.8492928308467207  0.5057544821714517
  0.4803769944562677  0.1553817168473212  0.5031407300541768
 
             NaN             NaN             NaN
             NaN             NaN             NaN
             NaN             NaN             NaN
             NaN             NaN             NaN
             NaN             NaN             NaN
             NaN             NaN             NaN
             NaN             NaN             NaN
             NaN             NaN             NaN
             NaN             NaN             NaN
             NaN             NaN             NaN
             NaN             NaN             NaN
             NaN             NaN             NaN
             NaN             NaN             NaN
             NaN             NaN             NaN
             NaN             NaN             NaN
             NaN             NaN             NaN
             NaN             NaN             NaN
             NaN             NaN             NaN
             NaN             NaN             NaN
             NaN             NaN             NaN
             NaN             NaN             NaN
             NaN             NaN             NaN
             NaN             NaN             NaN
             NaN             NaN             NaN
