Nb   Zn   N                             
   1.00000000000000     
    -0.0157614260285475    0.0000370492170843    5.5772027241949100
     5.8437416451588682    0.0055437631688859    0.0164710123814098
    -0.0094001476450419    9.9060708447130885   -0.0000913798002830
   Nb   Zn   N 
     4     8    12
Direct
  0.9642978790625438  0.6695347726131109 -0.0000000764535119
  0.4642971912374746  0.3304657886239070 -0.0000000352264270
  0.0834270863007158  0.1695341901650607  0.5000000752584520
  0.5834263290193347  0.8304678734757144  0.5000000926427918
  0.9586700822876441  0.1576991411816803  0.1650298764556867
  0.9586699092397664  0.1576990266610012  0.8349700727288762
  0.4586702688982780  0.8423015728411591  0.8349702963041243
  0.4586705555727421  0.8423014744324064  0.1650297077160654
  0.0890771658864584  0.6576977940606619  0.3349720938218347
  0.0890768961854812  0.6576976929272428  0.6650279031551388
  0.5890775560737599  0.3423042176455221  0.3349719333893163
  0.5890772134633822  0.3423043803779240  0.6650281436159037
  0.0783146977340182  0.8340542652550424  0.1573893307513498
  0.0783145334682851  0.8340541145021313  0.8426107667806114
  0.0973141320603776  0.3445911388283613  0.0000000332926018
  0.5783147625100461  0.1659478440983261  0.1573890688976173
  0.5783146239021316  0.1659479660067902  0.8426109656444373
  0.5973145870373594  0.6554105440333552  0.0000000047942963
  0.9694100387924910  0.3340565027558497  0.3426118708356357
  0.9694099757163676  0.3340563473600028  0.6573880569886713
  0.4694101472377559  0.6659440357244351  0.3426116203390228
  0.4694100132448740  0.6659442276767427  0.6573882411427308
  0.9504066429984418  0.8445905635615882  0.4999999930831400
  0.4504070936127753  0.1554103556930210  0.4999999388516632
 
             NaN             NaN             NaN
             NaN             NaN             NaN
             NaN             NaN             NaN
             NaN             NaN             NaN
             NaN             NaN             NaN
             NaN             NaN             NaN
             NaN             NaN             NaN
             NaN             NaN             NaN
             NaN             NaN             NaN
             NaN             NaN             NaN
             NaN             NaN             NaN
             NaN             NaN             NaN
             NaN             NaN             NaN
             NaN             NaN             NaN
             NaN             NaN             NaN
             NaN             NaN             NaN
             NaN             NaN             NaN
             NaN             NaN             NaN
             NaN             NaN             NaN
             NaN             NaN             NaN
             NaN             NaN             NaN
             NaN             NaN             NaN
             NaN             NaN             NaN
             NaN             NaN             NaN
