generated by phonopy                    
   1.00000000000000     
    10.0351470768999995   -0.0000022330999784   -0.0000001056124209
    -5.0175765436399997    8.6906901959899994    0.0000001395531216
    -0.0000001735893656    0.0000001431815548   14.9533752540999991
   Pb   O    P 
    20    51    11
Direct
  0.9557363792125528  0.7487757718505037  0.1341035853526691
  0.9999292750830335  0.7683961762952478  0.6223375339680643
  0.0060263349927894  0.2651811608060157  0.3696244448702970
  0.0085481544319777  0.2596931478291182  0.8794832882319596
  0.1878798644280621  0.2054435218032467  0.1263711622866452
  0.2334441375193350  0.2266885337782298  0.6255834588400262
  0.7623441192912779  0.7483283345027587  0.3632437665934205
  0.7406546794612368  0.7301962450690596  0.8739692487624708
  0.7332387774341953  0.9838029460357518  0.1337228973019009
  0.7787429798860401  0.0033338036507544  0.6227564465963837
  0.2628766240206915  0.0048369640611128  0.3693102719394403
  0.2498009925508171  0.9925917905043065  0.8773853244841092
  0.6731708787993540  0.3298208988685616  0.9980577418317864
  0.6698554494019859  0.3367621219296879  0.4981524399530244
  0.3565751720444581  0.6820462966735050  0.0164982126483153
  0.3491625398723954  0.6706122357016326  0.5031123262459474
  0.3387528944866176  0.6815048744743208  0.2420426771025888
  0.3368655541910286  0.6707528657660617  0.7470673860201202
  0.6601660428384619  0.3845731789943798  0.2373939556880629
  0.6693357333732237  0.3264731726133547  0.7465179548495087
  0.5769345984874619  0.5488067702273369  0.0706873093280720
  0.5090935391138913  0.7431311761960444  0.1344038872399551
  0.5039588783811695  0.6476154371811447  0.6254891042960580
  0.4737308067952171  0.3238393290520634  0.3784288471518380
  0.4685820197396069  0.3065300905025978  0.8740238067576271
  0.2979476041733022  0.8447410466847245  0.1248039839832202
  0.3555890319463373  0.8529135229554683  0.6251619706384091
  0.7054248933819594  0.1709266589354499  0.3846233379783683
  0.6964864478715072  0.1482960141360365  0.8642836118539776
  0.1534977372751172  0.5120459001402651  0.1246501693810629
  0.1525730643652992  0.4968594664497417  0.6254353136589685
  0.8554788181312034  0.5417815542819397  0.3932092395903055
  0.8500279513924767  0.5318026987501767  0.8599018135785386
  0.7226702884387493  0.6055695159083356  0.0186842420083693
  0.7332454688765111  0.6536789820125861  0.5440341404686109
  0.2740987263400783  0.3683497412624774  0.4625086543604624
  0.2614476799810461  0.3445189014263192  0.9546195744737815
  0.2904679694875085  0.0593249364336188  0.0375867934878684
  0.3555972346673855  0.0743368726093294  0.5361596905155039
  0.6225550390278869  0.9156366722211757  0.4686152940590986
  0.6572528869285392  0.9098356245482435  0.9515118503587487
  0.9508907119646040  0.2742212899679828  0.0410050433127012
  0.9350490522441888  0.2647712408190657  0.5421999461071252
  0.1091335805771720  0.7494392495069633  0.4670500918150751
  0.0785420102519012  0.7396393132164363  0.9473278473675677
  0.2697970214394232  0.3580711823076328  0.2941923372396218
  0.2615602509572312  0.3373727577431040  0.7880013280004121
  0.7517909855285012  0.6382424650098670  0.2346078029726826
  0.7313276728047029  0.6570949121094571  0.7119081932592266
  0.6872103145782162  0.9389706597327603  0.3035037086260814
  0.6270673704190060  0.8938426434840139  0.7840265451665474
  0.3194410260854212  0.0798262444630140  0.2049101497976480
  0.3446870003128666  0.0742008287536535  0.7048904639155964
  0.0870181853444265  0.7420369285706983  0.3012103414520055
  0.1024559087978147  0.7321714555248633  0.7811246038274788
  0.9525197471326123  0.2806349366101060  0.2113722407740113
  0.9325284388199790  0.2675992288986819  0.7101300742102126
  0.5301324398147287  0.3911368911103423  0.1015256979506844
  0.5428807710096137  0.4136443637590190  0.6292246962184791
  0.4903082407194503  0.5871284502237373  0.3760139193847110
  0.4788650797926621  0.5668746315031470  0.8671618234181508
  0.5436629180366950  0.1091985876943156  0.1078156587502690
  0.5907374168361770  0.1255516805035839  0.6265006689387818
  0.4421528473734853  0.9303004923796863  0.3556070621474845
  0.4276784552829298  0.9114798124865260  0.8798582955550813
  0.8682741587986342  0.4414289280132522  0.1221127808617339
  0.8771609525347088  0.4530458323355475  0.6242108144492775
  0.0989610918283077  0.5241337143655755  0.3846765858150860
  0.0967945581556151  0.5178789421339189  0.8725286090226803
  0.9641260249662764  0.9785990800812101  0.1420967153020527
  0.0052601144300084  0.9987089879435445  0.6228135991879853
  0.6259074024945122  0.5937480260024515  0.6273748901718648
  0.3776666590321796  0.4073601890892817  0.3775791561092063
  0.3697508501804307  0.3868132593686369  0.8718956379268619
  0.3658233729997349  0.0213604715167648  0.1188675278504761
  0.4104661359096085  0.0283799581370801  0.6228577740179873
  0.6170007813831262  0.9923078172448001  0.3794319303812159
  0.6056623784851638  0.9701977470324366  0.8697674857650242
  0.9829229509063566  0.3783294283380059  0.1250497601367471
  0.9780635614273407  0.3735880439483026  0.6253751786720656
  0.0334047526470940  0.6371664248308804  0.3861745254748143
  0.0286026056642328  0.6287103108590202  0.8658317306429097
 
  0.00000000E+00  0.00000000E+00  0.00000000E+00
  0.00000000E+00  0.00000000E+00  0.00000000E+00
  0.00000000E+00  0.00000000E+00  0.00000000E+00
  0.00000000E+00  0.00000000E+00  0.00000000E+00
  0.00000000E+00  0.00000000E+00  0.00000000E+00
  0.00000000E+00  0.00000000E+00  0.00000000E+00
  0.00000000E+00  0.00000000E+00  0.00000000E+00
  0.00000000E+00  0.00000000E+00  0.00000000E+00
  0.00000000E+00  0.00000000E+00  0.00000000E+00
  0.00000000E+00  0.00000000E+00  0.00000000E+00
  0.00000000E+00  0.00000000E+00  0.00000000E+00
  0.00000000E+00  0.00000000E+00  0.00000000E+00
  0.00000000E+00  0.00000000E+00  0.00000000E+00
  0.00000000E+00  0.00000000E+00  0.00000000E+00
  0.00000000E+00  0.00000000E+00  0.00000000E+00
  0.00000000E+00  0.00000000E+00  0.00000000E+00
  0.00000000E+00  0.00000000E+00  0.00000000E+00
  0.00000000E+00  0.00000000E+00  0.00000000E+00
  0.00000000E+00  0.00000000E+00  0.00000000E+00
  0.00000000E+00  0.00000000E+00  0.00000000E+00
  0.00000000E+00  0.00000000E+00  0.00000000E+00
  0.00000000E+00  0.00000000E+00  0.00000000E+00
  0.00000000E+00  0.00000000E+00  0.00000000E+00
  0.00000000E+00  0.00000000E+00  0.00000000E+00
  0.00000000E+00  0.00000000E+00  0.00000000E+00
  0.00000000E+00  0.00000000E+00  0.00000000E+00
  0.00000000E+00  0.00000000E+00  0.00000000E+00
  0.00000000E+00  0.00000000E+00  0.00000000E+00
  0.00000000E+00  0.00000000E+00  0.00000000E+00
  0.00000000E+00  0.00000000E+00  0.00000000E+00
  0.00000000E+00  0.00000000E+00  0.00000000E+00
  0.00000000E+00  0.00000000E+00  0.00000000E+00
  0.00000000E+00  0.00000000E+00  0.00000000E+00
  0.00000000E+00  0.00000000E+00  0.00000000E+00
  0.00000000E+00  0.00000000E+00  0.00000000E+00
  0.00000000E+00  0.00000000E+00  0.00000000E+00
  0.00000000E+00  0.00000000E+00  0.00000000E+00
  0.00000000E+00  0.00000000E+00  0.00000000E+00
  0.00000000E+00  0.00000000E+00  0.00000000E+00
  0.00000000E+00  0.00000000E+00  0.00000000E+00
  0.00000000E+00  0.00000000E+00  0.00000000E+00
  0.00000000E+00  0.00000000E+00  0.00000000E+00
  0.00000000E+00  0.00000000E+00  0.00000000E+00
  0.00000000E+00  0.00000000E+00  0.00000000E+00
  0.00000000E+00  0.00000000E+00  0.00000000E+00
  0.00000000E+00  0.00000000E+00  0.00000000E+00
  0.00000000E+00  0.00000000E+00  0.00000000E+00
  0.00000000E+00  0.00000000E+00  0.00000000E+00
  0.00000000E+00  0.00000000E+00  0.00000000E+00
  0.00000000E+00  0.00000000E+00  0.00000000E+00
  0.00000000E+00  0.00000000E+00  0.00000000E+00
  0.00000000E+00  0.00000000E+00  0.00000000E+00
  0.00000000E+00  0.00000000E+00  0.00000000E+00
  0.00000000E+00  0.00000000E+00  0.00000000E+00
  0.00000000E+00  0.00000000E+00  0.00000000E+00
  0.00000000E+00  0.00000000E+00  0.00000000E+00
  0.00000000E+00  0.00000000E+00  0.00000000E+00
  0.00000000E+00  0.00000000E+00  0.00000000E+00
  0.00000000E+00  0.00000000E+00  0.00000000E+00
  0.00000000E+00  0.00000000E+00  0.00000000E+00
  0.00000000E+00  0.00000000E+00  0.00000000E+00
  0.00000000E+00  0.00000000E+00  0.00000000E+00
  0.00000000E+00  0.00000000E+00  0.00000000E+00
  0.00000000E+00  0.00000000E+00  0.00000000E+00
  0.00000000E+00  0.00000000E+00  0.00000000E+00
  0.00000000E+00  0.00000000E+00  0.00000000E+00
  0.00000000E+00  0.00000000E+00  0.00000000E+00
  0.00000000E+00  0.00000000E+00  0.00000000E+00
  0.00000000E+00  0.00000000E+00  0.00000000E+00
  0.00000000E+00  0.00000000E+00  0.00000000E+00
  0.00000000E+00  0.00000000E+00  0.00000000E+00
  0.00000000E+00  0.00000000E+00  0.00000000E+00
  0.00000000E+00  0.00000000E+00  0.00000000E+00
  0.00000000E+00  0.00000000E+00  0.00000000E+00
  0.00000000E+00  0.00000000E+00  0.00000000E+00
  0.00000000E+00  0.00000000E+00  0.00000000E+00
  0.00000000E+00  0.00000000E+00  0.00000000E+00
  0.00000000E+00  0.00000000E+00  0.00000000E+00
  0.00000000E+00  0.00000000E+00  0.00000000E+00
  0.00000000E+00  0.00000000E+00  0.00000000E+00
  0.00000000E+00  0.00000000E+00  0.00000000E+00
  0.00000000E+00  0.00000000E+00  0.00000000E+00
