Sc   Al   N                             
   1.00000000000000     
   -10.2227691303318196   -0.0175408560183607    0.0045909707143097
    -5.0963046711826392    8.8178128524122403   -0.0062882028855366
     0.0043453047461548   -0.0141037363326120   -9.8446246462542852
   Sc   Al   N 
    16    20    36
Direct
  0.1095129563660961  0.0929586480979339  0.3535361357246103
  0.2282719893653322  0.2039770268249583  0.1088337105382706
  0.8784255450379348  0.2087855277874837  0.6228612339459829
  0.2250005727802531  0.2009788641754398  0.6333933454753122
  0.1161613312018801  0.4276034841455072  0.3774606974735377
  0.2279698615811654  0.5456952107137738  0.1204339460633364
  0.5543130849252265  0.5365903512678045  0.1107446971310111
  0.1076286518008018  0.4351405718594066  0.8665300475428168
  0.2337902647008860  0.5430738825113295  0.6198653259436355
  0.7684009821401503  0.4333548043030078  0.3666679699704076
  0.7781542122311649  0.7659962617918197  0.8720716871394458
  0.5494649999898655  0.8727776680261883  0.1292981439494767
  0.2069697715757854  0.8777028427829308  0.6163571475735878
  0.7852004933203389  0.7640919005777889  0.3714428250679305
  0.4320807306373098  0.7634672768847324  0.8596163949089970
  0.5554634557380140  0.8736726790939926  0.6108975959778107
  0.7785239977429796  0.0959157202073229  0.8844443773668402
  0.4478788542609919  0.1010694387510540  0.3824347764408387
  0.5659935950762716  0.1988140657219049  0.1329656821819469
  0.1000443069219301  0.0919056009448767  0.8954431282948079
  0.7741389174521558  0.0896774161814946  0.3809728283636673
  0.8811422472027388  0.1998316399819799  0.1323691915418053
  0.4537942251662983  0.0954554081197259  0.8834411771523563
  0.5648745097311050  0.2002081326787817  0.6308974926590025
  0.7847872212726941  0.4154451884375732  0.8891359875142726
  0.8811741701253766  0.5409141492298275  0.6386334576923716
  0.4557530202344111  0.4220023461998892  0.3837242133809298
  0.8926783625959729  0.5385066662237392  0.1282361333451973
  0.4568270158637588  0.4136460080274489  0.8803351565875275
  0.5678595524949230  0.5248092125527748  0.6400886447051306
  0.1086397192429800  0.7638933671747381  0.3796307132872556
  0.2136717321669579  0.8702500732799621  0.1343289629881639
  0.8863635647043111  0.8744845293726513  0.6344344882100685
  0.4381663955910682  0.7501533687136330  0.3885231057380807
  0.1045920156036715  0.7774876068460586  0.8843042501214953
  0.8908508061516898  0.8803434049764007  0.1300454225979308
  0.2441248390704658  0.1977410194667826  0.3288967558009404
  0.0971911924359574  0.0860891293632662  0.0974752250104132
  0.8882343561351220  0.2037649138770377  0.8437389246164173
  0.7696805251230145  0.0792546237097582  0.5745594531312790
  0.5600742792860558  0.2017514415411270  0.3273996421576939
  0.4642844956757202  0.0978398703841137  0.0751181200967821
  0.2280375017792124  0.1881682009600141  0.8591096490643935
  0.1030331055450873  0.1035889922321331  0.5670257532471297
  0.8694988547302955  0.1996357106797788  0.3288077113317840
  0.7760323067954573  0.0937347570703437  0.0780313952374883
  0.5609200569528525  0.2010612359630173  0.8256821340080123
  0.4510888326564952  0.1107396760102404  0.5747564087843813
  0.2372869550530652  0.5444954839593734  0.3493968851527995
  0.0992820306971112  0.4414766369334586  0.0855947380124249
  0.8737518737012024  0.5306904238345425  0.8331209164093138
  0.7699057909247529  0.4466290471857093  0.5833466558682474
  0.5355411985447773  0.5474662575284626  0.3265560709933837
  0.4588188045077146  0.4008702745617612  0.0724705924995419
  0.2370020164170725  0.5552382337489945  0.8436707366686136
  0.0969788279887780  0.4380790938419565  0.6067288053052238
  0.8923517610097917  0.5383083913411824  0.3205343019916214
  0.7975413100245703  0.4160019569579774  0.0875192236316877
  0.5720233559563610  0.5126886143890488  0.8412364782280051
  0.4786026025619918  0.4088271193238313  0.5787347147037778
  0.2300874146065937  0.8522746147356983  0.3355100592472127
  0.0973549209877405  0.7826207691755513  0.0777174437340804
  0.8959792437892418  0.8856633558382470  0.8285826999542891
  0.7944253824731859  0.7527920737650433  0.5975975598257151
  0.5380161418604317  0.8752051409605031  0.3566856711387416
  0.4164007476932241  0.7737119301489273  0.0754385668130695
  0.1947764444533959  0.8916390852489471  0.8313748302075865
  0.0856915457825949  0.7707614151007434  0.5707332312972042
  0.9007313251397520  0.8824964600828835  0.3220827339669512
  0.7904048376170962  0.7583109792583613  0.0960893291204741
  0.5449727029989617  0.8894792830785931  0.8335275437179277
  0.4464607947211903  0.7360422786463090  0.5935090700415415
 
  0.00000000E+00  0.00000000E+00  0.00000000E+00
  0.00000000E+00  0.00000000E+00  0.00000000E+00
  0.00000000E+00  0.00000000E+00  0.00000000E+00
  0.00000000E+00  0.00000000E+00  0.00000000E+00
  0.00000000E+00  0.00000000E+00  0.00000000E+00
  0.00000000E+00  0.00000000E+00  0.00000000E+00
  0.00000000E+00  0.00000000E+00  0.00000000E+00
  0.00000000E+00  0.00000000E+00  0.00000000E+00
  0.00000000E+00  0.00000000E+00  0.00000000E+00
  0.00000000E+00  0.00000000E+00  0.00000000E+00
  0.00000000E+00  0.00000000E+00  0.00000000E+00
  0.00000000E+00  0.00000000E+00  0.00000000E+00
  0.00000000E+00  0.00000000E+00  0.00000000E+00
  0.00000000E+00  0.00000000E+00  0.00000000E+00
  0.00000000E+00  0.00000000E+00  0.00000000E+00
  0.00000000E+00  0.00000000E+00  0.00000000E+00
  0.00000000E+00  0.00000000E+00  0.00000000E+00
  0.00000000E+00  0.00000000E+00  0.00000000E+00
  0.00000000E+00  0.00000000E+00  0.00000000E+00
  0.00000000E+00  0.00000000E+00  0.00000000E+00
  0.00000000E+00  0.00000000E+00  0.00000000E+00
  0.00000000E+00  0.00000000E+00  0.00000000E+00
  0.00000000E+00  0.00000000E+00  0.00000000E+00
  0.00000000E+00  0.00000000E+00  0.00000000E+00
  0.00000000E+00  0.00000000E+00  0.00000000E+00
  0.00000000E+00  0.00000000E+00  0.00000000E+00
  0.00000000E+00  0.00000000E+00  0.00000000E+00
  0.00000000E+00  0.00000000E+00  0.00000000E+00
  0.00000000E+00  0.00000000E+00  0.00000000E+00
  0.00000000E+00  0.00000000E+00  0.00000000E+00
  0.00000000E+00  0.00000000E+00  0.00000000E+00
  0.00000000E+00  0.00000000E+00  0.00000000E+00
  0.00000000E+00  0.00000000E+00  0.00000000E+00
  0.00000000E+00  0.00000000E+00  0.00000000E+00
  0.00000000E+00  0.00000000E+00  0.00000000E+00
  0.00000000E+00  0.00000000E+00  0.00000000E+00
  0.00000000E+00  0.00000000E+00  0.00000000E+00
  0.00000000E+00  0.00000000E+00  0.00000000E+00
  0.00000000E+00  0.00000000E+00  0.00000000E+00
  0.00000000E+00  0.00000000E+00  0.00000000E+00
  0.00000000E+00  0.00000000E+00  0.00000000E+00
  0.00000000E+00  0.00000000E+00  0.00000000E+00
  0.00000000E+00  0.00000000E+00  0.00000000E+00
  0.00000000E+00  0.00000000E+00  0.00000000E+00
  0.00000000E+00  0.00000000E+00  0.00000000E+00
  0.00000000E+00  0.00000000E+00  0.00000000E+00
  0.00000000E+00  0.00000000E+00  0.00000000E+00
  0.00000000E+00  0.00000000E+00  0.00000000E+00
  0.00000000E+00  0.00000000E+00  0.00000000E+00
  0.00000000E+00  0.00000000E+00  0.00000000E+00
  0.00000000E+00  0.00000000E+00  0.00000000E+00
  0.00000000E+00  0.00000000E+00  0.00000000E+00
  0.00000000E+00  0.00000000E+00  0.00000000E+00
  0.00000000E+00  0.00000000E+00  0.00000000E+00
  0.00000000E+00  0.00000000E+00  0.00000000E+00
  0.00000000E+00  0.00000000E+00  0.00000000E+00
  0.00000000E+00  0.00000000E+00  0.00000000E+00
  0.00000000E+00  0.00000000E+00  0.00000000E+00
  0.00000000E+00  0.00000000E+00  0.00000000E+00
  0.00000000E+00  0.00000000E+00  0.00000000E+00
  0.00000000E+00  0.00000000E+00  0.00000000E+00
  0.00000000E+00  0.00000000E+00  0.00000000E+00
  0.00000000E+00  0.00000000E+00  0.00000000E+00
  0.00000000E+00  0.00000000E+00  0.00000000E+00
  0.00000000E+00  0.00000000E+00  0.00000000E+00
  0.00000000E+00  0.00000000E+00  0.00000000E+00
  0.00000000E+00  0.00000000E+00  0.00000000E+00
  0.00000000E+00  0.00000000E+00  0.00000000E+00
  0.00000000E+00  0.00000000E+00  0.00000000E+00
  0.00000000E+00  0.00000000E+00  0.00000000E+00
  0.00000000E+00  0.00000000E+00  0.00000000E+00
  0.00000000E+00  0.00000000E+00  0.00000000E+00
