Sc   Al   N                             
   1.00000000000000     
   -10.3804796953360761   -0.0185726406487974   -0.0028041015178130
    -5.1801409814312125    8.9443297616907085   -0.0046303764180819
    -0.0015043004234892   -0.0427960295399717   -9.4467039862058151
   Sc   Al   N 
    16    20    36
Direct
  0.1038837945098763  0.0888192436220692  0.3432279281932082
  0.2240878470922780  0.2001267285290567  0.0971458797145104
  0.8689607389498377  0.2147517381986930  0.6010794167991804
  0.2262312543340386  0.2061530617760781  0.5997415922974767
  0.1149847303016358  0.4342178517072881  0.3512822987106432
  0.2314244168994009  0.5461608217945866  0.0883587513303539
  0.5586559935461040  0.5274186720888991  0.1006871484901808
  0.1097619224049851  0.4311223364886558  0.8497795958980987
  0.2311446992737842  0.5448367375979402  0.5961552965772086
  0.7784073251825703  0.4267307433546108  0.3460410522258073
  0.7825119279718393  0.7649807240225357  0.8503298811063473
  0.5516237789959391  0.8760728165751388  0.0991784296504292
  0.2186892431326513  0.8662995281167625  0.5954882791927858
  0.7799638325828369  0.7671093860687535  0.3461801255931789
  0.4420511595816237  0.7484247481981328  0.8496494688680727
  0.5536673038493802  0.8670917897953458  0.5992148975102793
  0.7749361811152156  0.0900119118301390  0.8278314635454649
  0.4489100342833439  0.0947648856183179  0.3633168240326370
  0.5650470431485743  0.2018192221748478  0.0731658464312162
  0.1051416529041447  0.0955853722465676  0.8256761513426056
  0.7760270028715794  0.0943215950930920  0.3197788064464291
  0.8911658571273762  0.1949762464040106  0.0712776272394535
  0.4487514507186745  0.0974519177668043  0.8600405938914832
  0.5684973320427744  0.1976578625999537  0.5731346644700253
  0.7804350774142392  0.4211322976037835  0.8788291333933671
  0.8801610991882285  0.5425347439032322  0.6237911390662987
  0.4492132921920984  0.4188318644992108  0.3306335899886008
  0.8947007458290344  0.5386532636438730  0.1149402170733040
  0.4665904000420227  0.4150340977994205  0.8175382815147003
  0.5582612726381626  0.5374434036257085  0.5656766800841737
  0.1112898815172656  0.7691382836071909  0.3225708191486163
  0.2012893227189494  0.8827981554071300  0.0671535098342986
  0.8862729207188451  0.8765298682156057  0.5726455244978794
  0.4262463332755786  0.7644952149505997  0.3185414980216308
  0.1004905233054956  0.7735202254411107  0.8275041169953639
  0.8918661407685775  0.8805426279948563  0.0784172981068636
  0.2380632403934442  0.1970694164728215  0.3486651444731876
  0.0964787092316683  0.0881914485202842  0.1100655336868641
  0.8858339555152241  0.2033070530071015  0.8580960500746784
  0.7684803949648682  0.0786978843019313  0.6283544540997568
  0.5634054521748553  0.1979374482133380  0.3677555006078066
  0.4558491546451791  0.1031460729847211  0.0888516089097777
  0.2296850983638379  0.1900070049731752  0.8498395055133301
  0.1030108392982640  0.0989070761459416  0.6147755863999009
  0.8727389847093363  0.1972934707664393  0.3718630292857625
  0.7770506054102668  0.0960908316107947  0.1153172028364224
  0.5598784562349692  0.2050528775519069  0.8673678940032090
  0.4566919059545995  0.1013319425771257  0.5932117719002648
  0.2337573990194031  0.5520559537376997  0.3551506741023402
  0.1036282712805416  0.4380063005547115  0.0879046201149478
  0.8761248490484235  0.5293593522837128  0.8332006265844498
  0.7667145925094943  0.4523087053425527  0.5783216434801872
  0.5368336015573689  0.5491964846857300  0.3516452183887822
  0.4585723672186575  0.4004398163154974  0.1300403199678897
  0.2425755077409590  0.5484861875072582  0.8494503889332208
  0.0946742170040409  0.4430441970958796  0.5990049281869148
  0.8916183865261473  0.5415173811298928  0.3185962303472820
  0.8019838032755473  0.4128208388312373  0.0927062659441020
  0.5723562323059141  0.5099622523488634  0.8743643888431691
  0.4786258494716691  0.4091043425963790  0.6118959040328065
  0.2263908619453900  0.8570436181880936  0.3697093581211846
  0.0982140358918215  0.7827169174630058  0.1194980632763603
  0.8967075327131653  0.8853254689347239  0.8780531646223793
  0.7914037230446240  0.7561181509449781  0.5973208846888269
  0.5350212788777853  0.8762737462089163  0.3467636720005984
  0.4136019485242954  0.7704472036553796  0.1045076238417977
  0.1995946457109312  0.8851220590047362  0.8597627757813839
  0.0849815883681373  0.7717656529335670  0.6277651507968542
  0.8998193031446391  0.8841619495243691  0.3674616180593802
  0.7928361798946142  0.7586106006331619  0.0968940023859091
  0.5471824587860254  0.8847471674389880  0.8507897033977088
  0.4493386579157530  0.7356522272226229  0.6241147279139980
 
  0.00000000E+00  0.00000000E+00  0.00000000E+00
  0.00000000E+00  0.00000000E+00  0.00000000E+00
  0.00000000E+00  0.00000000E+00  0.00000000E+00
  0.00000000E+00  0.00000000E+00  0.00000000E+00
  0.00000000E+00  0.00000000E+00  0.00000000E+00
  0.00000000E+00  0.00000000E+00  0.00000000E+00
  0.00000000E+00  0.00000000E+00  0.00000000E+00
  0.00000000E+00  0.00000000E+00  0.00000000E+00
  0.00000000E+00  0.00000000E+00  0.00000000E+00
  0.00000000E+00  0.00000000E+00  0.00000000E+00
  0.00000000E+00  0.00000000E+00  0.00000000E+00
  0.00000000E+00  0.00000000E+00  0.00000000E+00
  0.00000000E+00  0.00000000E+00  0.00000000E+00
  0.00000000E+00  0.00000000E+00  0.00000000E+00
  0.00000000E+00  0.00000000E+00  0.00000000E+00
  0.00000000E+00  0.00000000E+00  0.00000000E+00
  0.00000000E+00  0.00000000E+00  0.00000000E+00
  0.00000000E+00  0.00000000E+00  0.00000000E+00
  0.00000000E+00  0.00000000E+00  0.00000000E+00
  0.00000000E+00  0.00000000E+00  0.00000000E+00
  0.00000000E+00  0.00000000E+00  0.00000000E+00
  0.00000000E+00  0.00000000E+00  0.00000000E+00
  0.00000000E+00  0.00000000E+00  0.00000000E+00
  0.00000000E+00  0.00000000E+00  0.00000000E+00
  0.00000000E+00  0.00000000E+00  0.00000000E+00
  0.00000000E+00  0.00000000E+00  0.00000000E+00
  0.00000000E+00  0.00000000E+00  0.00000000E+00
  0.00000000E+00  0.00000000E+00  0.00000000E+00
  0.00000000E+00  0.00000000E+00  0.00000000E+00
  0.00000000E+00  0.00000000E+00  0.00000000E+00
  0.00000000E+00  0.00000000E+00  0.00000000E+00
  0.00000000E+00  0.00000000E+00  0.00000000E+00
  0.00000000E+00  0.00000000E+00  0.00000000E+00
  0.00000000E+00  0.00000000E+00  0.00000000E+00
  0.00000000E+00  0.00000000E+00  0.00000000E+00
  0.00000000E+00  0.00000000E+00  0.00000000E+00
  0.00000000E+00  0.00000000E+00  0.00000000E+00
  0.00000000E+00  0.00000000E+00  0.00000000E+00
  0.00000000E+00  0.00000000E+00  0.00000000E+00
  0.00000000E+00  0.00000000E+00  0.00000000E+00
  0.00000000E+00  0.00000000E+00  0.00000000E+00
  0.00000000E+00  0.00000000E+00  0.00000000E+00
  0.00000000E+00  0.00000000E+00  0.00000000E+00
  0.00000000E+00  0.00000000E+00  0.00000000E+00
  0.00000000E+00  0.00000000E+00  0.00000000E+00
  0.00000000E+00  0.00000000E+00  0.00000000E+00
  0.00000000E+00  0.00000000E+00  0.00000000E+00
  0.00000000E+00  0.00000000E+00  0.00000000E+00
  0.00000000E+00  0.00000000E+00  0.00000000E+00
  0.00000000E+00  0.00000000E+00  0.00000000E+00
  0.00000000E+00  0.00000000E+00  0.00000000E+00
  0.00000000E+00  0.00000000E+00  0.00000000E+00
  0.00000000E+00  0.00000000E+00  0.00000000E+00
  0.00000000E+00  0.00000000E+00  0.00000000E+00
  0.00000000E+00  0.00000000E+00  0.00000000E+00
  0.00000000E+00  0.00000000E+00  0.00000000E+00
  0.00000000E+00  0.00000000E+00  0.00000000E+00
  0.00000000E+00  0.00000000E+00  0.00000000E+00
  0.00000000E+00  0.00000000E+00  0.00000000E+00
  0.00000000E+00  0.00000000E+00  0.00000000E+00
  0.00000000E+00  0.00000000E+00  0.00000000E+00
  0.00000000E+00  0.00000000E+00  0.00000000E+00
  0.00000000E+00  0.00000000E+00  0.00000000E+00
  0.00000000E+00  0.00000000E+00  0.00000000E+00
  0.00000000E+00  0.00000000E+00  0.00000000E+00
  0.00000000E+00  0.00000000E+00  0.00000000E+00
  0.00000000E+00  0.00000000E+00  0.00000000E+00
  0.00000000E+00  0.00000000E+00  0.00000000E+00
  0.00000000E+00  0.00000000E+00  0.00000000E+00
  0.00000000E+00  0.00000000E+00  0.00000000E+00
  0.00000000E+00  0.00000000E+00  0.00000000E+00
  0.00000000E+00  0.00000000E+00  0.00000000E+00
