Sc   Al   N                             
   1.00000000000000     
   -10.2501776704609835   -0.0221836471514656    0.0041002870756807
    -5.0926017321946793    8.8454979705442600   -0.0084744490486938
     0.0254042830604472    0.0089831803490121   -9.8257845054408968
   Sc   Al   N 
    16    20    36
Direct
  0.1139181212911424  0.0851984768590128  0.3500460264339580
  0.2279590920315826  0.2030846801717416  0.1064778690833776
  0.8779583572319254  0.2092816866562046  0.6194286241080462
  0.2248025301625773  0.2022164558870330  0.6285461237479453
  0.1170379924069920  0.4271436860122790  0.3712755707588542
  0.2299414391599370  0.5418745527572781  0.1046367166089226
  0.5529503049408220  0.5392226262294955  0.1099557385095835
  0.1057821747216110  0.4340134534446065  0.8621010909176690
  0.2345309162671043  0.5405310802796919  0.6115939564820607
  0.7700870752062769  0.4318236710178596  0.3644528004760090
  0.7758673293327121  0.7655545629541791  0.8751558228788525
  0.5466780785978713  0.8735583195109839  0.1303634012980055
  0.2105772472192697  0.8744327003397245  0.5999313936558082
  0.7868813401074277  0.7628333501181217  0.3700461811888047
  0.4378758494883499  0.7606565060298749  0.8505101539190107
  0.5572423548762160  0.8760364589943777  0.6094788524058146
  0.7757495504691434  0.0980184364326462  0.8854769937398572
  0.4478545299800558  0.1016458799269415  0.3810673439426111
  0.5662100103172065  0.1986270610223642  0.1327589521845027
  0.0939709547754148  0.1025791600934625  0.8862580590707694
  0.7746391200112868  0.0892237760073016  0.3809447363215384
  0.8807832669447748  0.2005648744388751  0.1318596272368708
  0.4538426017678105  0.0960124621964127  0.8816889494524602
  0.5642165054522010  0.2018932601644181  0.6295579271368652
  0.7834153487206237  0.4160910717056154  0.8880943352500594
  0.8806856020582785  0.5416145854087659  0.6359505598651296
  0.4557345750213528  0.4233035538851766  0.3808331410024550
  0.8922375990737308  0.5377701876917840  0.1273105642582806
  0.4588994898488750  0.4119508846557736  0.8793678861093497
  0.5706204858042696  0.5227706872163793  0.6395021192686983
  0.1192494831968673  0.7648900006225219  0.3203973565746239
  0.2064113685570206  0.8762916882996521  0.0621567038707624
  0.8788895661329477  0.8779382251421808  0.6368229485475325
  0.4416686974999564  0.7486293631673888  0.3933557975755804
  0.1011209990341229  0.7712950282221200  0.8268020535071088
  0.8876543144785174  0.8820845955707384  0.1301163602156095
  0.2444377489199070  0.1957412266474137  0.3271090860681554
  0.0943773141703872  0.0900604186192737  0.0906252662048388
  0.8844906878730043  0.2060736496257647  0.8405675794300222
  0.7683955618316389  0.0801056874305814  0.5749823091276625
  0.5604075886323869  0.2020739538835983  0.3268581654185070
  0.4636594311498641  0.0982709219336115  0.0739364069396515
  0.2277361241425808  0.1887311087483496  0.8547160936116498
  0.1020109642947062  0.1045127644022443  0.5698098469384263
  0.8721102185025060  0.1975502836233574  0.3286511583433267
  0.7757792252827045  0.0946478575701235  0.0791410565540289
  0.5602137527962086  0.2018904954475360  0.8247524409159794
  0.4506070644876843  0.1129338969373563  0.5732545525812611
  0.2374245824658274  0.5452649699765573  0.3482490653893962
  0.0977752617645606  0.4398283400519816  0.0827385992085539
  0.8723191900954248  0.5310251932501870  0.8312295488855241
  0.7705940547556409  0.4464335926563763  0.5809637607925779
  0.5365488848132429  0.5489293318062352  0.3265860016537872
  0.4625455796083102  0.3995209627264700  0.0720876924637182
  0.2386448562566343  0.5497307635720432  0.8487573527910115
  0.0957595129333200  0.4389188186286432  0.6031344568323576
  0.8931683885249697  0.5372321988860733  0.3193903851319035
  0.7961986877022085  0.4165190813897226  0.0868696363437067
  0.5728496222635187  0.5109922944972709  0.8402217039779742
  0.4796177367340633  0.4094997368684901  0.5768911929380280
  0.2327395461895989  0.8507936572962365  0.3765449026197416
  0.1019460156708121  0.7800215640334116  0.1165312326789945
  0.8862902379498081  0.8895438108252449  0.8367048941193005
  0.7946021877912344  0.7528211897757018  0.5953814868637934
  0.5386718457380226  0.8751528666802670  0.3578843515290444
  0.4174960675387354  0.7740636238686847  0.0698901938661507
  0.1933617707703306  0.8902833363329563  0.8551904960268075
  0.0875325128266127  0.7687218674055956  0.6284416323439004
  0.9001657117967952  0.8828993432820482  0.3271526052568206
  0.7884959367392312  0.7585432932578868  0.0986376740761159
  0.5453166910913794  0.8914887739541015  0.8316409838938270
  0.4528648325567985  0.7351569662325161  0.6032442797197319
 
  0.00000000E+00  0.00000000E+00  0.00000000E+00
  0.00000000E+00  0.00000000E+00  0.00000000E+00
  0.00000000E+00  0.00000000E+00  0.00000000E+00
  0.00000000E+00  0.00000000E+00  0.00000000E+00
  0.00000000E+00  0.00000000E+00  0.00000000E+00
  0.00000000E+00  0.00000000E+00  0.00000000E+00
  0.00000000E+00  0.00000000E+00  0.00000000E+00
  0.00000000E+00  0.00000000E+00  0.00000000E+00
  0.00000000E+00  0.00000000E+00  0.00000000E+00
  0.00000000E+00  0.00000000E+00  0.00000000E+00
  0.00000000E+00  0.00000000E+00  0.00000000E+00
  0.00000000E+00  0.00000000E+00  0.00000000E+00
  0.00000000E+00  0.00000000E+00  0.00000000E+00
  0.00000000E+00  0.00000000E+00  0.00000000E+00
  0.00000000E+00  0.00000000E+00  0.00000000E+00
  0.00000000E+00  0.00000000E+00  0.00000000E+00
  0.00000000E+00  0.00000000E+00  0.00000000E+00
  0.00000000E+00  0.00000000E+00  0.00000000E+00
  0.00000000E+00  0.00000000E+00  0.00000000E+00
  0.00000000E+00  0.00000000E+00  0.00000000E+00
  0.00000000E+00  0.00000000E+00  0.00000000E+00
  0.00000000E+00  0.00000000E+00  0.00000000E+00
  0.00000000E+00  0.00000000E+00  0.00000000E+00
  0.00000000E+00  0.00000000E+00  0.00000000E+00
  0.00000000E+00  0.00000000E+00  0.00000000E+00
  0.00000000E+00  0.00000000E+00  0.00000000E+00
  0.00000000E+00  0.00000000E+00  0.00000000E+00
  0.00000000E+00  0.00000000E+00  0.00000000E+00
  0.00000000E+00  0.00000000E+00  0.00000000E+00
  0.00000000E+00  0.00000000E+00  0.00000000E+00
  0.00000000E+00  0.00000000E+00  0.00000000E+00
  0.00000000E+00  0.00000000E+00  0.00000000E+00
  0.00000000E+00  0.00000000E+00  0.00000000E+00
  0.00000000E+00  0.00000000E+00  0.00000000E+00
  0.00000000E+00  0.00000000E+00  0.00000000E+00
  0.00000000E+00  0.00000000E+00  0.00000000E+00
  0.00000000E+00  0.00000000E+00  0.00000000E+00
  0.00000000E+00  0.00000000E+00  0.00000000E+00
  0.00000000E+00  0.00000000E+00  0.00000000E+00
  0.00000000E+00  0.00000000E+00  0.00000000E+00
  0.00000000E+00  0.00000000E+00  0.00000000E+00
  0.00000000E+00  0.00000000E+00  0.00000000E+00
  0.00000000E+00  0.00000000E+00  0.00000000E+00
  0.00000000E+00  0.00000000E+00  0.00000000E+00
  0.00000000E+00  0.00000000E+00  0.00000000E+00
  0.00000000E+00  0.00000000E+00  0.00000000E+00
  0.00000000E+00  0.00000000E+00  0.00000000E+00
  0.00000000E+00  0.00000000E+00  0.00000000E+00
  0.00000000E+00  0.00000000E+00  0.00000000E+00
  0.00000000E+00  0.00000000E+00  0.00000000E+00
  0.00000000E+00  0.00000000E+00  0.00000000E+00
  0.00000000E+00  0.00000000E+00  0.00000000E+00
  0.00000000E+00  0.00000000E+00  0.00000000E+00
  0.00000000E+00  0.00000000E+00  0.00000000E+00
  0.00000000E+00  0.00000000E+00  0.00000000E+00
  0.00000000E+00  0.00000000E+00  0.00000000E+00
  0.00000000E+00  0.00000000E+00  0.00000000E+00
  0.00000000E+00  0.00000000E+00  0.00000000E+00
  0.00000000E+00  0.00000000E+00  0.00000000E+00
  0.00000000E+00  0.00000000E+00  0.00000000E+00
  0.00000000E+00  0.00000000E+00  0.00000000E+00
  0.00000000E+00  0.00000000E+00  0.00000000E+00
  0.00000000E+00  0.00000000E+00  0.00000000E+00
  0.00000000E+00  0.00000000E+00  0.00000000E+00
  0.00000000E+00  0.00000000E+00  0.00000000E+00
  0.00000000E+00  0.00000000E+00  0.00000000E+00
  0.00000000E+00  0.00000000E+00  0.00000000E+00
  0.00000000E+00  0.00000000E+00  0.00000000E+00
  0.00000000E+00  0.00000000E+00  0.00000000E+00
  0.00000000E+00  0.00000000E+00  0.00000000E+00
  0.00000000E+00  0.00000000E+00  0.00000000E+00
  0.00000000E+00  0.00000000E+00  0.00000000E+00
