Sc   Al   N                             
   1.00000000000000     
   -10.3427990255075066   -0.0247535436099968    0.0001664343306620
    -5.1422937183989115    8.9265763148820465   -0.0078162893667061
     0.0264415962123407   -0.0050480756282690   -9.5441681803522371
   Sc   Al   N 
    16    20    36
Direct
  0.1107687362644469  0.0888869121337024  0.3442378674925521
  0.2283271515779433  0.2034722062383523  0.1014598192684701
  0.8796721494174804  0.2078364176152689  0.6070116511112502
  0.2261677161315134  0.2023453872384735  0.6114746238330397
  0.1143709262201895  0.4322254627421955  0.3582387087142251
  0.2300773723071998  0.5441138942936306  0.0963394546823721
  0.5589219185973846  0.5289959461482212  0.0943565544874332
  0.1079781379137259  0.4319314822599694  0.8529789393341574
  0.2331352760087313  0.5432832876786691  0.6030167563472730
  0.7650198685419980  0.4365651340879211  0.3562316604269995
  0.7810097338269841  0.7630846561022011  0.8569184207664762
  0.5527632534489157  0.8782222659107362  0.1023532141578372
  0.2208168358018128  0.8673859788987670  0.5892717709588595
  0.7816673382088979  0.7655702430453957  0.3513482927515810
  0.4365215374468860  0.7593210974271045  0.8500507447864649
  0.5532543166064414  0.8674100643182854  0.5988312709336299
  0.7766788546095427  0.0987479413564856  0.8769889154330031
  0.4490667178574199  0.0991082232422968  0.3717972244373371
  0.5652490016005558  0.2005803994668156  0.1274592954668705
  0.0966124468694289  0.1004658501275841  0.8762483907516341
  0.7733790724037846  0.0900509764145383  0.3727186373375986
  0.8813873742899148  0.2008746098097021  0.1270448342853499
  0.4526093841316907  0.0979669230201310  0.8713242178558076
  0.5649441356624365  0.1995704393329021  0.6207978096618163
  0.7878054058538240  0.4122647919337794  0.8797445314582717
  0.8814532289949355  0.5400285670647662  0.6263837878789786
  0.4543795794328105  0.4266181566894858  0.3742764932624354
  0.8930161861895414  0.5367309164200194  0.1173429564991650
  0.4584230591649643  0.4093752816586047  0.8706853163983723
  0.5683715792202122  0.5249738426567561  0.6371959948187538
  0.1132404078451188  0.7672658891017647  0.3169755676356942
  0.2029987252637753  0.8798779827234711  0.0661687545395893
  0.8825844438379491  0.8753747223104398  0.6128466519048104
  0.4292612348448444  0.7609902407593125  0.3105988142192899
  0.1015286009117204  0.7739887470223721  0.8257649518813110
  0.8889064042103243  0.8810785595448749  0.1054423794804507
  0.2421284133594952  0.1984632301909883  0.3323777484855341
  0.0940196246303344  0.0922664101371922  0.0906168623965300
  0.8868446348692558  0.2038907469476143  0.8355813427173544
  0.7689692969542890  0.0805473439445805  0.5734500395630917
  0.5591458369205498  0.2034665208243425  0.3264263218628045
  0.4600859714069401  0.1050538297453798  0.0711170866251507
  0.2285460647342887  0.1886314702947587  0.8480972269188882
  0.1062237526194068  0.0981900488215146  0.5709582556971995
  0.8705741065552814  0.2002485257278934  0.3315114664175596
  0.7742104193810988  0.0981781818039380  0.0779795535431447
  0.5615962613494645  0.2002632314893873  0.8207299271564779
  0.4561430996956517  0.1033717035584729  0.5722222263622001
  0.2361024215741665  0.5488734933585135  0.3472527548960542
  0.1004514697609338  0.4389585072473423  0.0846406493940250
  0.8760814792978664  0.5277551297266783  0.8296463433889585
  0.7684348225502902  0.4469582556310314  0.5798672455177396
  0.5345030554201031  0.5493241403912066  0.3172663641656257
  0.4597002738599159  0.3990604665716546  0.0696768134131389
  0.2383880446738758  0.5501535363534984  0.8452520449650791
  0.0958750237464656  0.4402512957814793  0.5981440019455562
  0.8899043418446553  0.5392131447971238  0.3170097449369962
  0.7998115448800505  0.4134406207039589  0.0847820942702029
  0.5749458087148440  0.5078112082874213  0.8460862612238245
  0.4783001775982285  0.4099167791867018  0.5765520205275863
  0.2295746999282855  0.8543997388272260  0.3599883038312512
  0.1000556693083041  0.7803783425722628  0.1097244452527235
  0.8914664698862964  0.8874013277911246  0.8481069679958679
  0.7916908081735414  0.7535892120023888  0.5942784441028408
  0.5357188283974850  0.8770818778752130  0.3406997884944261
  0.4150802679578263  0.7741305200816626  0.0935829846353613
  0.1964492027294540  0.8888492155371210  0.8576436214367291
  0.0882748851328756  0.7717398172099053  0.6216986231524118
  0.8990808591786035  0.8822704847201877  0.3293182910256007
  0.7924926287294056  0.7562293437967114  0.0920986808321587
  0.5465234038898288  0.8882309147856589  0.8436538366922761
  0.4510909348061887  0.7343587685993285  0.6260236497934955
 
  0.00000000E+00  0.00000000E+00  0.00000000E+00
  0.00000000E+00  0.00000000E+00  0.00000000E+00
  0.00000000E+00  0.00000000E+00  0.00000000E+00
  0.00000000E+00  0.00000000E+00  0.00000000E+00
  0.00000000E+00  0.00000000E+00  0.00000000E+00
  0.00000000E+00  0.00000000E+00  0.00000000E+00
  0.00000000E+00  0.00000000E+00  0.00000000E+00
  0.00000000E+00  0.00000000E+00  0.00000000E+00
  0.00000000E+00  0.00000000E+00  0.00000000E+00
  0.00000000E+00  0.00000000E+00  0.00000000E+00
  0.00000000E+00  0.00000000E+00  0.00000000E+00
  0.00000000E+00  0.00000000E+00  0.00000000E+00
  0.00000000E+00  0.00000000E+00  0.00000000E+00
  0.00000000E+00  0.00000000E+00  0.00000000E+00
  0.00000000E+00  0.00000000E+00  0.00000000E+00
  0.00000000E+00  0.00000000E+00  0.00000000E+00
  0.00000000E+00  0.00000000E+00  0.00000000E+00
  0.00000000E+00  0.00000000E+00  0.00000000E+00
  0.00000000E+00  0.00000000E+00  0.00000000E+00
  0.00000000E+00  0.00000000E+00  0.00000000E+00
  0.00000000E+00  0.00000000E+00  0.00000000E+00
  0.00000000E+00  0.00000000E+00  0.00000000E+00
  0.00000000E+00  0.00000000E+00  0.00000000E+00
  0.00000000E+00  0.00000000E+00  0.00000000E+00
  0.00000000E+00  0.00000000E+00  0.00000000E+00
  0.00000000E+00  0.00000000E+00  0.00000000E+00
  0.00000000E+00  0.00000000E+00  0.00000000E+00
  0.00000000E+00  0.00000000E+00  0.00000000E+00
  0.00000000E+00  0.00000000E+00  0.00000000E+00
  0.00000000E+00  0.00000000E+00  0.00000000E+00
  0.00000000E+00  0.00000000E+00  0.00000000E+00
  0.00000000E+00  0.00000000E+00  0.00000000E+00
  0.00000000E+00  0.00000000E+00  0.00000000E+00
  0.00000000E+00  0.00000000E+00  0.00000000E+00
  0.00000000E+00  0.00000000E+00  0.00000000E+00
  0.00000000E+00  0.00000000E+00  0.00000000E+00
  0.00000000E+00  0.00000000E+00  0.00000000E+00
  0.00000000E+00  0.00000000E+00  0.00000000E+00
  0.00000000E+00  0.00000000E+00  0.00000000E+00
  0.00000000E+00  0.00000000E+00  0.00000000E+00
  0.00000000E+00  0.00000000E+00  0.00000000E+00
  0.00000000E+00  0.00000000E+00  0.00000000E+00
  0.00000000E+00  0.00000000E+00  0.00000000E+00
  0.00000000E+00  0.00000000E+00  0.00000000E+00
  0.00000000E+00  0.00000000E+00  0.00000000E+00
  0.00000000E+00  0.00000000E+00  0.00000000E+00
  0.00000000E+00  0.00000000E+00  0.00000000E+00
  0.00000000E+00  0.00000000E+00  0.00000000E+00
  0.00000000E+00  0.00000000E+00  0.00000000E+00
  0.00000000E+00  0.00000000E+00  0.00000000E+00
  0.00000000E+00  0.00000000E+00  0.00000000E+00
  0.00000000E+00  0.00000000E+00  0.00000000E+00
  0.00000000E+00  0.00000000E+00  0.00000000E+00
  0.00000000E+00  0.00000000E+00  0.00000000E+00
  0.00000000E+00  0.00000000E+00  0.00000000E+00
  0.00000000E+00  0.00000000E+00  0.00000000E+00
  0.00000000E+00  0.00000000E+00  0.00000000E+00
  0.00000000E+00  0.00000000E+00  0.00000000E+00
  0.00000000E+00  0.00000000E+00  0.00000000E+00
  0.00000000E+00  0.00000000E+00  0.00000000E+00
  0.00000000E+00  0.00000000E+00  0.00000000E+00
  0.00000000E+00  0.00000000E+00  0.00000000E+00
  0.00000000E+00  0.00000000E+00  0.00000000E+00
  0.00000000E+00  0.00000000E+00  0.00000000E+00
  0.00000000E+00  0.00000000E+00  0.00000000E+00
  0.00000000E+00  0.00000000E+00  0.00000000E+00
  0.00000000E+00  0.00000000E+00  0.00000000E+00
  0.00000000E+00  0.00000000E+00  0.00000000E+00
  0.00000000E+00  0.00000000E+00  0.00000000E+00
  0.00000000E+00  0.00000000E+00  0.00000000E+00
  0.00000000E+00  0.00000000E+00  0.00000000E+00
  0.00000000E+00  0.00000000E+00  0.00000000E+00
