Sc   Al   N                             
   1.00000000000000     
   -10.2745782250785886   -0.0230213074068347    0.0026082524517523
    -5.0977841639314372    8.8683319122557958   -0.0068785625196103
     0.0460084476634896    0.0000708473668292   -9.7540471301623004
   Sc   Al   N 
    16    20    36
Direct
  0.1113095403513356  0.0883605643283119  0.3437295084265273
  0.2281826660624517  0.2033644175487055  0.1014557735239308
  0.8789512184855752  0.2085153823920791  0.6116637782628089
  0.2253994535070305  0.2018452629178640  0.6191734728692779
  0.1158673774589971  0.4292855672399867  0.3635528639469356
  0.2300295683367111  0.5429557549187152  0.0977780794367575
  0.5562833498507302  0.5345087935804571  0.0983098236041897
  0.1070872661528526  0.4327923090028563  0.8552811906087214
  0.2343130772330184  0.5415767768919579  0.6049952028951822
  0.7676824321550484  0.4341673304246427  0.3582931634604734
  0.7793907484182014  0.7637133329268053  0.8652781782252887
  0.5509469520889638  0.8753351015777540  0.1129925364780817
  0.2165512821396973  0.8704973480195619  0.5894562504510361
  0.7843596835445794  0.7643714130167325  0.3625006867418819
  0.4366125927880802  0.7599434628194430  0.8468835838134154
  0.5549647659266554  0.8714122393325852  0.6046376391235100
  0.7762087281319410  0.0979032953983037  0.8784835758018446
  0.4480937375693657  0.1005266110971164  0.3738018023614345
  0.5660213632176294  0.1994225629127797  0.1271620594397334
  0.0949202468922650  0.1015434735281033  0.8802000471206171
  0.7736534621784585  0.0899525682578428  0.3749256010249269
  0.8807367009282174  0.2009115511221040  0.1262971750037138
  0.4533544010095838  0.0969574516368183  0.8747225144796289
  0.5644621005997905  0.2006591431356028  0.6223601502053313
  0.7859495468413300  0.4141108475459419  0.8816850099455280
  0.8809449082349730  0.5409136574639888  0.6290872589288554
  0.4550550881019717  0.4245169042860368  0.3749063809633313
  0.8930943718438797  0.5377005651829521  0.1205323535195575
  0.4587842548819978  0.4104325975155163  0.8727899703358517
  0.5693167495017235  0.5241831541520909  0.6362758810124518
  0.1163998795119454  0.7653861332148040  0.3151157770885078
  0.2047949125489339  0.8776126445721246  0.0607345292375499
  0.8797025623766075  0.8782117948444892  0.6293566289715571
  0.4359445297217022  0.7563593589102240  0.3448843077737394
  0.1019224368075342  0.7725880701418717  0.8211267090393761
  0.8876936091979317  0.8822406426735441  0.1227215192783930
  0.2433552520944602  0.1971606911544370  0.3246221171334085
  0.0938697192317974  0.0913049058832343  0.0874511263954645
  0.8857072538580084  0.2048885472536313  0.8346123676200961
  0.7684631268788635  0.0803970280954047  0.5697808515079856
  0.5597490873142306  0.2025309995201070  0.3223654004941352
  0.4619269808108726  0.1017728528948965  0.0685821003487135
  0.2281845856893341  0.1881686567400322  0.8481831231311361
  0.1036975491080554  0.1018598908785791  0.5649359659870541
  0.8704026035223720  0.1993278654843849  0.3250208851327727
  0.7754204604118726  0.0952835603489746  0.0738230806023239
  0.5605536779293558  0.2011015286312343  0.8186300417573236
  0.4530628842646607  0.1079200465459849  0.5682201817913892
  0.2368551051195453  0.5467347938894775  0.3440718577854724
  0.0989591676724828  0.4394788819472808  0.0790376303767246
  0.8744388321565850  0.5290227758415185  0.8259927384603785
  0.7691580501726847  0.4468291464825782  0.5765459739882886
  0.5358682477305052  0.5480832014259605  0.3172321637158007
  0.4613523498105963  0.3989153274695809  0.0668264620374686
  0.2385631456368742  0.5501267085734085  0.8432733043064076
  0.0958921916553450  0.4391751436204103  0.5971331870127159
  0.8914518932430440  0.5389252627013903  0.3144977809928946
  0.7986752253291343  0.4151791685679953  0.0817766940769218
  0.5742212208071038  0.5089992443493543  0.8406274514567045
  0.4794140099264865  0.4094980005649234  0.5724136711308745
  0.2308122291292776  0.8529889702327793  0.3647357562156586
  0.1005011199450792  0.7802554822623335  0.1107153277482027
  0.8877143453351835  0.8897361855312056  0.8306680725102495
  0.7930337170089032  0.7533363620349149  0.5914200244570296
  0.5375418174876359  0.8758869617441789  0.3445805004153826
  0.4162733324856376  0.7740139348251418  0.0787649761814109
  0.1942177227341801  0.8897240923072545  0.8547580302725493
  0.0883502502041225  0.7700483899127590  0.6206847438609060
  0.8985770630311976  0.8836522984712190  0.3220475052363270
  0.7918700641598733  0.7573997969531021  0.0908508294960413
  0.5465741591262443  0.8895676950346072  0.8347594481073699
  0.4511540667042908  0.7354396258077429  0.6159527945310117
 
  0.00000000E+00  0.00000000E+00  0.00000000E+00
  0.00000000E+00  0.00000000E+00  0.00000000E+00
  0.00000000E+00  0.00000000E+00  0.00000000E+00
  0.00000000E+00  0.00000000E+00  0.00000000E+00
  0.00000000E+00  0.00000000E+00  0.00000000E+00
  0.00000000E+00  0.00000000E+00  0.00000000E+00
  0.00000000E+00  0.00000000E+00  0.00000000E+00
  0.00000000E+00  0.00000000E+00  0.00000000E+00
  0.00000000E+00  0.00000000E+00  0.00000000E+00
  0.00000000E+00  0.00000000E+00  0.00000000E+00
  0.00000000E+00  0.00000000E+00  0.00000000E+00
  0.00000000E+00  0.00000000E+00  0.00000000E+00
  0.00000000E+00  0.00000000E+00  0.00000000E+00
  0.00000000E+00  0.00000000E+00  0.00000000E+00
  0.00000000E+00  0.00000000E+00  0.00000000E+00
  0.00000000E+00  0.00000000E+00  0.00000000E+00
  0.00000000E+00  0.00000000E+00  0.00000000E+00
  0.00000000E+00  0.00000000E+00  0.00000000E+00
  0.00000000E+00  0.00000000E+00  0.00000000E+00
  0.00000000E+00  0.00000000E+00  0.00000000E+00
  0.00000000E+00  0.00000000E+00  0.00000000E+00
  0.00000000E+00  0.00000000E+00  0.00000000E+00
  0.00000000E+00  0.00000000E+00  0.00000000E+00
  0.00000000E+00  0.00000000E+00  0.00000000E+00
  0.00000000E+00  0.00000000E+00  0.00000000E+00
  0.00000000E+00  0.00000000E+00  0.00000000E+00
  0.00000000E+00  0.00000000E+00  0.00000000E+00
  0.00000000E+00  0.00000000E+00  0.00000000E+00
  0.00000000E+00  0.00000000E+00  0.00000000E+00
  0.00000000E+00  0.00000000E+00  0.00000000E+00
  0.00000000E+00  0.00000000E+00  0.00000000E+00
  0.00000000E+00  0.00000000E+00  0.00000000E+00
  0.00000000E+00  0.00000000E+00  0.00000000E+00
  0.00000000E+00  0.00000000E+00  0.00000000E+00
  0.00000000E+00  0.00000000E+00  0.00000000E+00
  0.00000000E+00  0.00000000E+00  0.00000000E+00
  0.00000000E+00  0.00000000E+00  0.00000000E+00
  0.00000000E+00  0.00000000E+00  0.00000000E+00
  0.00000000E+00  0.00000000E+00  0.00000000E+00
  0.00000000E+00  0.00000000E+00  0.00000000E+00
  0.00000000E+00  0.00000000E+00  0.00000000E+00
  0.00000000E+00  0.00000000E+00  0.00000000E+00
  0.00000000E+00  0.00000000E+00  0.00000000E+00
  0.00000000E+00  0.00000000E+00  0.00000000E+00
  0.00000000E+00  0.00000000E+00  0.00000000E+00
  0.00000000E+00  0.00000000E+00  0.00000000E+00
  0.00000000E+00  0.00000000E+00  0.00000000E+00
  0.00000000E+00  0.00000000E+00  0.00000000E+00
  0.00000000E+00  0.00000000E+00  0.00000000E+00
  0.00000000E+00  0.00000000E+00  0.00000000E+00
  0.00000000E+00  0.00000000E+00  0.00000000E+00
  0.00000000E+00  0.00000000E+00  0.00000000E+00
  0.00000000E+00  0.00000000E+00  0.00000000E+00
  0.00000000E+00  0.00000000E+00  0.00000000E+00
  0.00000000E+00  0.00000000E+00  0.00000000E+00
  0.00000000E+00  0.00000000E+00  0.00000000E+00
  0.00000000E+00  0.00000000E+00  0.00000000E+00
  0.00000000E+00  0.00000000E+00  0.00000000E+00
  0.00000000E+00  0.00000000E+00  0.00000000E+00
  0.00000000E+00  0.00000000E+00  0.00000000E+00
  0.00000000E+00  0.00000000E+00  0.00000000E+00
  0.00000000E+00  0.00000000E+00  0.00000000E+00
  0.00000000E+00  0.00000000E+00  0.00000000E+00
  0.00000000E+00  0.00000000E+00  0.00000000E+00
  0.00000000E+00  0.00000000E+00  0.00000000E+00
  0.00000000E+00  0.00000000E+00  0.00000000E+00
  0.00000000E+00  0.00000000E+00  0.00000000E+00
  0.00000000E+00  0.00000000E+00  0.00000000E+00
  0.00000000E+00  0.00000000E+00  0.00000000E+00
  0.00000000E+00  0.00000000E+00  0.00000000E+00
  0.00000000E+00  0.00000000E+00  0.00000000E+00
  0.00000000E+00  0.00000000E+00  0.00000000E+00
