Sc   Al   N                             
   1.00000000000000     
   -10.4091009518264368   -0.0185166552595305   -0.0020487656423028
    -5.1911710140863132    8.9850785928692467   -0.0045241038604768
     0.0011219445674861   -0.0451289761194781   -9.3410633952114583
   Sc   Al   N 
    16    20    36
Direct
  0.1052606495459329  0.0886531145798415  0.3435698806728595
  0.2239571763820294  0.2005816343602049  0.0979004464341031
  0.8709839909717445  0.2132680149675323  0.6014366600106626
  0.2270605774160686  0.2058834751631906  0.6010773198261816
  0.1140444550039419  0.4340508194109276  0.3498565730795278
  0.2314617089143240  0.5458369384345119  0.0895806196989355
  0.5580140476405120  0.5273459814624957  0.0996776316153998
  0.1095379009683199  0.4311787860825191  0.8497600833413728
  0.2288309804080271  0.5461417948602119  0.5958726979786633
  0.7786313326214298  0.4262599607669131  0.3452644773090796
  0.7821449267789049  0.7655176524385681  0.8502878959424507
  0.5513531564656375  0.8758433309658074  0.1001237384604678
  0.2186542812191945  0.8665004730591193  0.5961686600265779
  0.7804793825479308  0.7659893360551138  0.3454372840974642
  0.4421585101776984  0.7491227102285052  0.8493200255383400
  0.5536403211636696  0.8680000061368389  0.5993750214901254
  0.7730529359601590  0.0910104478205156  0.8285022575403289
  0.4489336652716958  0.0944487374299712  0.3668489418266034
  0.5651297571467069  0.2015745458195397  0.0860202376098016
  0.1056434476083368  0.0954592090429642  0.8286349865531975
  0.7786088346595150  0.0925631627141286  0.3224015019951807
  0.8904303521363417  0.1956247479064572  0.0719378737753260
  0.4499920461282869  0.0984301083708843  0.8684439207758317
  0.5683024571068316  0.1970649106744204  0.5740554538949496
  0.7791801972727512  0.4210673340931947  0.8744354073604157
  0.8802730763163069  0.5423837824115481  0.6232373169051115
  0.4489292119904533  0.4209312657058248  0.3357816923759742
  0.8936115543787935  0.5382551676456373  0.1113250793706868
  0.4651757177043478  0.4145611908765829  0.8165621792361222
  0.5589841485026739  0.5377368938592966  0.5676325374577686
  0.1114367571294963  0.7690143192740919  0.3221794412543986
  0.2023045692205727  0.8823877590029667  0.0677874270916590
  0.8867061393392532  0.8756614026618053  0.5732263790568339
  0.4273173808967528  0.7640243497619608  0.3200653805390132
  0.0999552577715761  0.7740350810756524  0.8293606731927099
  0.8915809591835639  0.8808454995839128  0.0792633450323805
  0.2381131710003928  0.1973961043980168  0.3459624215239003
  0.0968697474502775  0.0884683239056656  0.1057207437000329
  0.8853308252178778  0.2033973290696736  0.8564333402963697
  0.7690100915449278  0.0785983180200205  0.6248745590075373
  0.5647027624431118  0.1967118705086861  0.3611725945160913
  0.4558985490920549  0.1027704249526451  0.0856273401348631
  0.2307219503158962  0.1903307542950898  0.8491674798326443
  0.1044379436274312  0.0984655326715114  0.6126913602762016
  0.8746576314220249  0.1971210400713943  0.3692243165956839
  0.7782436220591791  0.0952976221818460  0.1148272308533151
  0.5588997988082269  0.2058549804917220  0.8641118561176384
  0.4566426128616428  0.1007352840688398  0.5835652461050316
  0.2320013676738668  0.5530749026894100  0.3537981614452264
  0.1033002312333764  0.4378985048803656  0.0888389111271692
  0.8758645421150888  0.5301352656826310  0.8362749078758327
  0.7672525198920894  0.4506695419754791  0.5819603398263666
  0.5379870848408146  0.5498941410806424  0.3515637359755388
  0.4574541507073491  0.4023046826322556  0.1309095544276602
  0.2421823612733860  0.5480720146150588  0.8482052841512129
  0.0942009577588436  0.4424605026940469  0.5990946520869755
  0.8908188493454716  0.5411298109259448  0.3188609999027676
  0.8004262439635923  0.4126461682627109  0.0917438081551509
  0.5711043503190965  0.5103937271801087  0.8695211830167580
  0.4762678104808202  0.4098360750654564  0.6051618243471069
  0.2263790572637561  0.8572753037153475  0.3666628061400701
  0.0985796236399779  0.7823312264587656  0.1159840520263344
  0.8954180259717432  0.8861637421683213  0.8760834235547605
  0.7916395814544614  0.7555114310888413  0.5971861923923925
  0.5355559562107999  0.8758543015446776  0.3453012453109565
  0.4145475577176967  0.7698523716947108  0.1027370744243825
  0.2003610299442755  0.8846823511055177  0.8577759549868915
  0.0850676886894419  0.7721518880677749  0.6265606722575612
  0.9007106546324479  0.8826576238848389  0.3652914923186330
  0.7923102823053583  0.7588145422664070  0.0966232411777028
  0.5467480892438701  0.8861678022118582  0.8492071812625568
  0.4494629561128605  0.7368867925429896  0.6208173860898896
 
  0.00000000E+00  0.00000000E+00  0.00000000E+00
  0.00000000E+00  0.00000000E+00  0.00000000E+00
  0.00000000E+00  0.00000000E+00  0.00000000E+00
  0.00000000E+00  0.00000000E+00  0.00000000E+00
  0.00000000E+00  0.00000000E+00  0.00000000E+00
  0.00000000E+00  0.00000000E+00  0.00000000E+00
  0.00000000E+00  0.00000000E+00  0.00000000E+00
  0.00000000E+00  0.00000000E+00  0.00000000E+00
  0.00000000E+00  0.00000000E+00  0.00000000E+00
  0.00000000E+00  0.00000000E+00  0.00000000E+00
  0.00000000E+00  0.00000000E+00  0.00000000E+00
  0.00000000E+00  0.00000000E+00  0.00000000E+00
  0.00000000E+00  0.00000000E+00  0.00000000E+00
  0.00000000E+00  0.00000000E+00  0.00000000E+00
  0.00000000E+00  0.00000000E+00  0.00000000E+00
  0.00000000E+00  0.00000000E+00  0.00000000E+00
  0.00000000E+00  0.00000000E+00  0.00000000E+00
  0.00000000E+00  0.00000000E+00  0.00000000E+00
  0.00000000E+00  0.00000000E+00  0.00000000E+00
  0.00000000E+00  0.00000000E+00  0.00000000E+00
  0.00000000E+00  0.00000000E+00  0.00000000E+00
  0.00000000E+00  0.00000000E+00  0.00000000E+00
  0.00000000E+00  0.00000000E+00  0.00000000E+00
  0.00000000E+00  0.00000000E+00  0.00000000E+00
  0.00000000E+00  0.00000000E+00  0.00000000E+00
  0.00000000E+00  0.00000000E+00  0.00000000E+00
  0.00000000E+00  0.00000000E+00  0.00000000E+00
  0.00000000E+00  0.00000000E+00  0.00000000E+00
  0.00000000E+00  0.00000000E+00  0.00000000E+00
  0.00000000E+00  0.00000000E+00  0.00000000E+00
  0.00000000E+00  0.00000000E+00  0.00000000E+00
  0.00000000E+00  0.00000000E+00  0.00000000E+00
  0.00000000E+00  0.00000000E+00  0.00000000E+00
  0.00000000E+00  0.00000000E+00  0.00000000E+00
  0.00000000E+00  0.00000000E+00  0.00000000E+00
  0.00000000E+00  0.00000000E+00  0.00000000E+00
  0.00000000E+00  0.00000000E+00  0.00000000E+00
  0.00000000E+00  0.00000000E+00  0.00000000E+00
  0.00000000E+00  0.00000000E+00  0.00000000E+00
  0.00000000E+00  0.00000000E+00  0.00000000E+00
  0.00000000E+00  0.00000000E+00  0.00000000E+00
  0.00000000E+00  0.00000000E+00  0.00000000E+00
  0.00000000E+00  0.00000000E+00  0.00000000E+00
  0.00000000E+00  0.00000000E+00  0.00000000E+00
  0.00000000E+00  0.00000000E+00  0.00000000E+00
  0.00000000E+00  0.00000000E+00  0.00000000E+00
  0.00000000E+00  0.00000000E+00  0.00000000E+00
  0.00000000E+00  0.00000000E+00  0.00000000E+00
  0.00000000E+00  0.00000000E+00  0.00000000E+00
  0.00000000E+00  0.00000000E+00  0.00000000E+00
  0.00000000E+00  0.00000000E+00  0.00000000E+00
  0.00000000E+00  0.00000000E+00  0.00000000E+00
  0.00000000E+00  0.00000000E+00  0.00000000E+00
  0.00000000E+00  0.00000000E+00  0.00000000E+00
  0.00000000E+00  0.00000000E+00  0.00000000E+00
  0.00000000E+00  0.00000000E+00  0.00000000E+00
  0.00000000E+00  0.00000000E+00  0.00000000E+00
  0.00000000E+00  0.00000000E+00  0.00000000E+00
  0.00000000E+00  0.00000000E+00  0.00000000E+00
  0.00000000E+00  0.00000000E+00  0.00000000E+00
  0.00000000E+00  0.00000000E+00  0.00000000E+00
  0.00000000E+00  0.00000000E+00  0.00000000E+00
  0.00000000E+00  0.00000000E+00  0.00000000E+00
  0.00000000E+00  0.00000000E+00  0.00000000E+00
  0.00000000E+00  0.00000000E+00  0.00000000E+00
  0.00000000E+00  0.00000000E+00  0.00000000E+00
  0.00000000E+00  0.00000000E+00  0.00000000E+00
  0.00000000E+00  0.00000000E+00  0.00000000E+00
  0.00000000E+00  0.00000000E+00  0.00000000E+00
  0.00000000E+00  0.00000000E+00  0.00000000E+00
  0.00000000E+00  0.00000000E+00  0.00000000E+00
  0.00000000E+00  0.00000000E+00  0.00000000E+00
