Sc   Al   N                             
   1.00000000000000     
   -10.3458706839895083   -0.0250802491794813    0.0004970456164786
    -5.1473457141839134    8.9326100596459170   -0.0029866180554093
     0.0061804182981829   -0.0214577423264092   -9.5459318961869037
   Sc   Al   N 
    16    20    36
Direct
  0.1055018779609895  0.0902613804247352  0.3412152878277155
  0.2248967707318670  0.2018316621568275  0.1003252689663370
  0.8749314643752300  0.2093257132267823  0.5963612006209047
  0.2292502628781179  0.2036968033524431  0.6064984216235416
  0.1138719378545971  0.4327889715309041  0.3574996852658714
  0.2280025977626536  0.5468441029609252  0.0986061726312002
  0.5586495518543515  0.5290176132028748  0.0953496046307478
  0.1086701523504203  0.4316168287809603  0.8533698623730857
  0.2326698481679372  0.5431702574681339  0.6031145407592007
  0.7657127121530607  0.4346835399643965  0.3553525897974552
  0.7819654135785186  0.7649409288849824  0.8490554693631367
  0.5531323140957980  0.8771654971306972  0.1000561371860726
  0.2223080695290136  0.8640789584936854  0.5902137886536636
  0.7805834555876672  0.7657100359130951  0.3445263273893389
  0.4369485824328692  0.7588004162788380  0.8506123122955316
  0.5544901428319520  0.8661271466825724  0.5963121371529212
  0.7770588141690737  0.0888921881673355  0.8251697055007696
  0.4496702996995765  0.0982834878131769  0.3700300400580758
  0.5618060309797031  0.2020170302128435  0.1254594865580927
  0.1047365879206552  0.0956678816401961  0.8354047398819731
  0.7795376619561978  0.0933418491805469  0.3204399698869977
  0.8885239987718734  0.1971729105921725  0.0709381172696624
  0.4503173637191438  0.0985171971566032  0.8732877181248924
  0.5629299412728130  0.1996694069970459  0.6210298731361377
  0.7840619097773356  0.4185235347694203  0.8749551588891507
  0.8815666478275688  0.5415394555783735  0.6245475258389703
  0.4548525525082354  0.4260178543534323  0.3751095952273644
  0.8930579872128916  0.5370909017630510  0.1167551878706234
  0.4558710310854863  0.4107499026878259  0.8726921261657452
  0.5672656042971553  0.5256239185308402  0.6369726830986622
  0.1121195377696864  0.7691486352533019  0.3214117085050532
  0.1997993669310816  0.8830787136838865  0.0647003828452455
  0.8874604836014583  0.8749504337715237  0.5693121537924171
  0.4279805370845153  0.7618536008101344  0.3100924878103939
  0.0996920959302017  0.7736164092785458  0.8233935866427160
  0.8917834432334431  0.8807397289295977  0.0749081804464922
  0.2397361473375597  0.1974289085759295  0.3384588952429866
  0.0961455889224752  0.0900495396366239  0.1019061301339121
  0.8861323929360481  0.2021602020136868  0.8552528573054374
  0.7724923960448180  0.0764126723149019  0.6237204184640248
  0.5583805060305522  0.2044370915956861  0.3279109830204021
  0.4577949611664280  0.1046364601753353  0.0740357515303671
  0.2307507819078509  0.1891444427439168  0.8469443810344686
  0.1073840789019158  0.0961394392712549  0.6050306757242794
  0.8727494140102223  0.2010592979676460  0.3672712186820348
  0.7786821539283579  0.0946744180675623  0.1131704218316614
  0.5537507376805380  0.2035186307203034  0.8247314625248237
  0.4589508970987453  0.1009766983593607  0.5701942860872720
  0.2356207753323147  0.5496835544448899  0.3499389249928981
  0.1010305217318646  0.4383844404124062  0.0857918156106336
  0.8764024123638805  0.5299623166900673  0.8290666843618339
  0.7672585932247173  0.4495711290529272  0.5831393926396657
  0.5341340772908936  0.5495999633665036  0.3180823531839536
  0.4578218003543881  0.4007576737166190  0.0714882428493553
  0.2366244015394727  0.5515318477892777  0.8473596927224492
  0.0960127556925556  0.4406226253442185  0.5975264788895203
  0.8895922865598322  0.5389827426086669  0.3170637298596404
  0.7993950494906699  0.4145409204170747  0.0826593809691119
  0.5729217003685037  0.5084766633186319  0.8460666685359399
  0.4784467118959199  0.4093787184634223  0.5773065344540456
  0.2289617084370406  0.8566167310758175  0.3653744047264667
  0.0971267711087975  0.7839117600355152  0.1203666136160706
  0.8968253046274626  0.8850141736132073  0.8764375484535307
  0.7921843722191255  0.7544665259153192  0.5941004505248770
  0.5359696261174847  0.8761736818224009  0.3395924382432298
  0.4135229483150198  0.7741446716249953  0.0940757531195189
  0.1969685790711182  0.8859081068924652  0.8586483655446671
  0.0862669593978325  0.7713091684403466  0.6253215261231162
  0.9007777540159481  0.8835641979415740  0.3672302181848011
  0.7936489390358119  0.7573370162773614  0.0948962693514588
  0.5474069288364021  0.8881433338985119  0.8450647674561012
  0.4513505207112019  0.7344078687679527  0.6272977651935747
 
  0.00000000E+00  0.00000000E+00  0.00000000E+00
  0.00000000E+00  0.00000000E+00  0.00000000E+00
  0.00000000E+00  0.00000000E+00  0.00000000E+00
  0.00000000E+00  0.00000000E+00  0.00000000E+00
  0.00000000E+00  0.00000000E+00  0.00000000E+00
  0.00000000E+00  0.00000000E+00  0.00000000E+00
  0.00000000E+00  0.00000000E+00  0.00000000E+00
  0.00000000E+00  0.00000000E+00  0.00000000E+00
  0.00000000E+00  0.00000000E+00  0.00000000E+00
  0.00000000E+00  0.00000000E+00  0.00000000E+00
  0.00000000E+00  0.00000000E+00  0.00000000E+00
  0.00000000E+00  0.00000000E+00  0.00000000E+00
  0.00000000E+00  0.00000000E+00  0.00000000E+00
  0.00000000E+00  0.00000000E+00  0.00000000E+00
  0.00000000E+00  0.00000000E+00  0.00000000E+00
  0.00000000E+00  0.00000000E+00  0.00000000E+00
  0.00000000E+00  0.00000000E+00  0.00000000E+00
  0.00000000E+00  0.00000000E+00  0.00000000E+00
  0.00000000E+00  0.00000000E+00  0.00000000E+00
  0.00000000E+00  0.00000000E+00  0.00000000E+00
  0.00000000E+00  0.00000000E+00  0.00000000E+00
  0.00000000E+00  0.00000000E+00  0.00000000E+00
  0.00000000E+00  0.00000000E+00  0.00000000E+00
  0.00000000E+00  0.00000000E+00  0.00000000E+00
  0.00000000E+00  0.00000000E+00  0.00000000E+00
  0.00000000E+00  0.00000000E+00  0.00000000E+00
  0.00000000E+00  0.00000000E+00  0.00000000E+00
  0.00000000E+00  0.00000000E+00  0.00000000E+00
  0.00000000E+00  0.00000000E+00  0.00000000E+00
  0.00000000E+00  0.00000000E+00  0.00000000E+00
  0.00000000E+00  0.00000000E+00  0.00000000E+00
  0.00000000E+00  0.00000000E+00  0.00000000E+00
  0.00000000E+00  0.00000000E+00  0.00000000E+00
  0.00000000E+00  0.00000000E+00  0.00000000E+00
  0.00000000E+00  0.00000000E+00  0.00000000E+00
  0.00000000E+00  0.00000000E+00  0.00000000E+00
  0.00000000E+00  0.00000000E+00  0.00000000E+00
  0.00000000E+00  0.00000000E+00  0.00000000E+00
  0.00000000E+00  0.00000000E+00  0.00000000E+00
  0.00000000E+00  0.00000000E+00  0.00000000E+00
  0.00000000E+00  0.00000000E+00  0.00000000E+00
  0.00000000E+00  0.00000000E+00  0.00000000E+00
  0.00000000E+00  0.00000000E+00  0.00000000E+00
  0.00000000E+00  0.00000000E+00  0.00000000E+00
  0.00000000E+00  0.00000000E+00  0.00000000E+00
  0.00000000E+00  0.00000000E+00  0.00000000E+00
  0.00000000E+00  0.00000000E+00  0.00000000E+00
  0.00000000E+00  0.00000000E+00  0.00000000E+00
  0.00000000E+00  0.00000000E+00  0.00000000E+00
  0.00000000E+00  0.00000000E+00  0.00000000E+00
  0.00000000E+00  0.00000000E+00  0.00000000E+00
  0.00000000E+00  0.00000000E+00  0.00000000E+00
  0.00000000E+00  0.00000000E+00  0.00000000E+00
  0.00000000E+00  0.00000000E+00  0.00000000E+00
  0.00000000E+00  0.00000000E+00  0.00000000E+00
  0.00000000E+00  0.00000000E+00  0.00000000E+00
  0.00000000E+00  0.00000000E+00  0.00000000E+00
  0.00000000E+00  0.00000000E+00  0.00000000E+00
  0.00000000E+00  0.00000000E+00  0.00000000E+00
  0.00000000E+00  0.00000000E+00  0.00000000E+00
  0.00000000E+00  0.00000000E+00  0.00000000E+00
  0.00000000E+00  0.00000000E+00  0.00000000E+00
  0.00000000E+00  0.00000000E+00  0.00000000E+00
  0.00000000E+00  0.00000000E+00  0.00000000E+00
  0.00000000E+00  0.00000000E+00  0.00000000E+00
  0.00000000E+00  0.00000000E+00  0.00000000E+00
  0.00000000E+00  0.00000000E+00  0.00000000E+00
  0.00000000E+00  0.00000000E+00  0.00000000E+00
  0.00000000E+00  0.00000000E+00  0.00000000E+00
  0.00000000E+00  0.00000000E+00  0.00000000E+00
  0.00000000E+00  0.00000000E+00  0.00000000E+00
  0.00000000E+00  0.00000000E+00  0.00000000E+00
