Sc   Al   N                             
   1.00000000000000     
   -10.2735694930716477   -0.0228543409189493    0.0016233953531159
    -5.1016288309897240    8.8683517547024664   -0.0053782733235907
     0.0587538406113517   -0.0023842650467086   -9.7657586501444698
   Sc   Al   N 
    16    20    36
Direct
  0.1102884975218004  0.0898875049963905  0.3439481093075756
  0.2280773500427671  0.2037806166382126  0.1025115651158259
  0.8801525935534826  0.2076027401864167  0.6114181274625210
  0.2258071354781208  0.2010350056249877  0.6189255529884434
  0.1150627482521145  0.4298886370322919  0.3642920642836458
  0.2296559466760328  0.5429707471925127  0.0986284621402689
  0.5594649587558251  0.5292990554920607  0.0954602846269168
  0.1075993596535625  0.4322327483339166  0.8555312717553250
  0.2340838954630442  0.5415457868118594  0.6055210757388281
  0.7648240692226977  0.4365056105261047  0.3595106395575627
  0.7813233590958362  0.7629969986493776  0.8638102655560118
  0.5546463551221876  0.8778266854987109  0.1080290648841711
  0.2218926182262777  0.8664573858961262  0.5835467810998836
  0.7824290036087902  0.7652713110022873  0.3623751839790472
  0.4361841946344853  0.7598607173761778  0.8497222785141147
  0.5537893115956649  0.8688032176754419  0.6049147184556389
  0.7765868684365884  0.0978069011514364  0.8783305512620814
  0.4485016440071803  0.0992382827923066  0.3732295094820941
  0.5659406580033419  0.1999400591937430  0.1281373113176372
  0.0955749047209054  0.1008489910090802  0.8811816494991334
  0.7729914015326216  0.0906750234922526  0.3753311256604164
  0.8807458180213601  0.2012223585908188  0.1274324148438097
  0.4529761012422142  0.0977787866669217  0.8746411185685616
  0.5644668472335042  0.2001972322028962  0.6217852631801648
  0.7877148047947955  0.4128280271202627  0.8816875290611534
  0.8808313058490356  0.5406542846374549  0.6293056694150039
  0.4545608859040300  0.4261885721059997  0.3751838472671736
  0.8934719009154932  0.5375633732352938  0.1208937879262066
  0.4581721744531961  0.4095891484580463  0.8728492010592959
  0.5687237861812946  0.5246263854964255  0.6395532029110242
  0.1150735842469714  0.7656266023470621  0.3154788741446879
  0.2024022979396847  0.8789274327989887  0.0636579691465329
  0.8802442905872212  0.8784697125371821  0.6288418679424268
  0.4297644761724158  0.7612636752104507  0.3082595912991906
  0.1029927069511984  0.7733801504786229  0.8204571370250235
  0.8877110988473120  0.8823107072245264  0.1231849255383679
  0.2429110940491910  0.1979230712010178  0.3253762033663392
  0.0933590910354241  0.0923238214630757  0.0890763341950134
  0.8867088088684483  0.2039972756728332  0.8341818763634379
  0.7685888790079218  0.0807307732791500  0.5697778984378772
  0.5592033822324751  0.2031626249589991  0.3230075966628263
  0.4610467824000182  0.1042575506188186  0.0681893021652726
  0.2283704395125739  0.1876631228034569  0.8480802374466734
  0.1056190722804189  0.0991779679149900  0.5651362225930754
  0.8692839864240938  0.2007506608645713  0.3259229205004956
  0.7753955942350217  0.0955971546826291  0.0738361370587413
  0.5606042277725720  0.2007910748405877  0.8178676084706922
  0.4541193477510177  0.1054277832843482  0.5682442476102096
  0.2360623599660201  0.5472200530442208  0.3449232778250817
  0.0990665800717210  0.4393560839092885  0.0791450085003120
  0.8751076219224814  0.5283665644300157  0.8258287192126659
  0.7680784522065025  0.4471377936167471  0.5777903448344048
  0.5345828750201846  0.5485147146654015  0.3135739986971657
  0.4603475533376127  0.3982289846396938  0.0663896360298537
  0.2383703524880971  0.5502503295181000  0.8430755535688306
  0.0957945993465827  0.4388009947808200  0.5972162646461072
  0.8903651195376696  0.5395000143266131  0.3146440659899525
  0.8005368917063862  0.4140619587253340  0.0813158220500867
  0.5749364625090934  0.5075877655485996  0.8448183527997912
  0.4791769362319869  0.4101169642745717  0.5729414353506215
  0.2308421468569790  0.8534927539026498  0.3610227711911662
  0.0999099470763340  0.7798638994119429  0.1120083923165112
  0.8885989132052785  0.8899407128346510  0.8297573311375430
  0.7923025396086629  0.7536479226485397  0.5921665196845396
  0.5370037255201794  0.8766685522377031  0.3392409572960986
  0.4153560574950816  0.7750140465422035  0.0933839206153095
  0.1952234480129746  0.8887770821888807  0.8609792304388577
  0.0895682041352543  0.7709669002240602  0.6202563293788472
  0.8973410792968082  0.8842752672786744  0.3224728071824785
  0.7942603858940487  0.7566869587164788  0.0894128512434946
  0.5471694879481248  0.8889150739673610  0.8402196662992409
  0.4509066688958896  0.7352174026290541  0.6298897901139071
 
  0.00000000E+00  0.00000000E+00  0.00000000E+00
  0.00000000E+00  0.00000000E+00  0.00000000E+00
  0.00000000E+00  0.00000000E+00  0.00000000E+00
  0.00000000E+00  0.00000000E+00  0.00000000E+00
  0.00000000E+00  0.00000000E+00  0.00000000E+00
  0.00000000E+00  0.00000000E+00  0.00000000E+00
  0.00000000E+00  0.00000000E+00  0.00000000E+00
  0.00000000E+00  0.00000000E+00  0.00000000E+00
  0.00000000E+00  0.00000000E+00  0.00000000E+00
  0.00000000E+00  0.00000000E+00  0.00000000E+00
  0.00000000E+00  0.00000000E+00  0.00000000E+00
  0.00000000E+00  0.00000000E+00  0.00000000E+00
  0.00000000E+00  0.00000000E+00  0.00000000E+00
  0.00000000E+00  0.00000000E+00  0.00000000E+00
  0.00000000E+00  0.00000000E+00  0.00000000E+00
  0.00000000E+00  0.00000000E+00  0.00000000E+00
  0.00000000E+00  0.00000000E+00  0.00000000E+00
  0.00000000E+00  0.00000000E+00  0.00000000E+00
  0.00000000E+00  0.00000000E+00  0.00000000E+00
  0.00000000E+00  0.00000000E+00  0.00000000E+00
  0.00000000E+00  0.00000000E+00  0.00000000E+00
  0.00000000E+00  0.00000000E+00  0.00000000E+00
  0.00000000E+00  0.00000000E+00  0.00000000E+00
  0.00000000E+00  0.00000000E+00  0.00000000E+00
  0.00000000E+00  0.00000000E+00  0.00000000E+00
  0.00000000E+00  0.00000000E+00  0.00000000E+00
  0.00000000E+00  0.00000000E+00  0.00000000E+00
  0.00000000E+00  0.00000000E+00  0.00000000E+00
  0.00000000E+00  0.00000000E+00  0.00000000E+00
  0.00000000E+00  0.00000000E+00  0.00000000E+00
  0.00000000E+00  0.00000000E+00  0.00000000E+00
  0.00000000E+00  0.00000000E+00  0.00000000E+00
  0.00000000E+00  0.00000000E+00  0.00000000E+00
  0.00000000E+00  0.00000000E+00  0.00000000E+00
  0.00000000E+00  0.00000000E+00  0.00000000E+00
  0.00000000E+00  0.00000000E+00  0.00000000E+00
  0.00000000E+00  0.00000000E+00  0.00000000E+00
  0.00000000E+00  0.00000000E+00  0.00000000E+00
  0.00000000E+00  0.00000000E+00  0.00000000E+00
  0.00000000E+00  0.00000000E+00  0.00000000E+00
  0.00000000E+00  0.00000000E+00  0.00000000E+00
  0.00000000E+00  0.00000000E+00  0.00000000E+00
  0.00000000E+00  0.00000000E+00  0.00000000E+00
  0.00000000E+00  0.00000000E+00  0.00000000E+00
  0.00000000E+00  0.00000000E+00  0.00000000E+00
  0.00000000E+00  0.00000000E+00  0.00000000E+00
  0.00000000E+00  0.00000000E+00  0.00000000E+00
  0.00000000E+00  0.00000000E+00  0.00000000E+00
  0.00000000E+00  0.00000000E+00  0.00000000E+00
  0.00000000E+00  0.00000000E+00  0.00000000E+00
  0.00000000E+00  0.00000000E+00  0.00000000E+00
  0.00000000E+00  0.00000000E+00  0.00000000E+00
  0.00000000E+00  0.00000000E+00  0.00000000E+00
  0.00000000E+00  0.00000000E+00  0.00000000E+00
  0.00000000E+00  0.00000000E+00  0.00000000E+00
  0.00000000E+00  0.00000000E+00  0.00000000E+00
  0.00000000E+00  0.00000000E+00  0.00000000E+00
  0.00000000E+00  0.00000000E+00  0.00000000E+00
  0.00000000E+00  0.00000000E+00  0.00000000E+00
  0.00000000E+00  0.00000000E+00  0.00000000E+00
  0.00000000E+00  0.00000000E+00  0.00000000E+00
  0.00000000E+00  0.00000000E+00  0.00000000E+00
  0.00000000E+00  0.00000000E+00  0.00000000E+00
  0.00000000E+00  0.00000000E+00  0.00000000E+00
  0.00000000E+00  0.00000000E+00  0.00000000E+00
  0.00000000E+00  0.00000000E+00  0.00000000E+00
  0.00000000E+00  0.00000000E+00  0.00000000E+00
  0.00000000E+00  0.00000000E+00  0.00000000E+00
  0.00000000E+00  0.00000000E+00  0.00000000E+00
  0.00000000E+00  0.00000000E+00  0.00000000E+00
  0.00000000E+00  0.00000000E+00  0.00000000E+00
  0.00000000E+00  0.00000000E+00  0.00000000E+00
