Sc   Al   N                             
   1.00000000000000     
   -10.2944929103950393   -0.0193265449157087    0.0044022462379139
    -5.1260400979227310    8.8780171571498592   -0.0071290667944432
     0.0049076875275759   -0.0315927910133108   -9.6734528628030567
   Sc   Al   N 
    16    20    36
Direct
  0.1137769637844954  0.0840545192571653  0.3518535075950453
  0.2281468932378914  0.2036667436875632  0.1089220379209479
  0.8769962704372745  0.2094037004212979  0.6167290375095789
  0.2245870063221176  0.2029017911317297  0.6249084747564808
  0.1154456030505244  0.4289739803074823  0.3709413224418583
  0.2281078091455200  0.5469203997610208  0.1149545054301271
  0.5526987141177955  0.5383799642006579  0.1091598714789299
  0.1067704616324505  0.4337732552338238  0.8639539237226472
  0.2343688222246172  0.5407797853043306  0.6173562324546893
  0.7694193923498034  0.4329088355006334  0.3629648791689206
  0.7779555242812179  0.7652419191838860  0.8716171946965474
  0.5475877627942012  0.8737157709974710  0.1262173759552141
  0.2096884036947841  0.8758812958828486  0.6118430768224314
  0.7854216916256505  0.7646005207617321  0.3678648175125758
  0.4380325768172213  0.7602364275703692  0.8524198533007166
  0.5568665989830066  0.8751347426362628  0.6102413735102772
  0.7771604882929992  0.0970865296227927  0.8841144943851234
  0.4484833968836739  0.1008618788237428  0.3815886126034727
  0.5656273242401255  0.1992424473356991  0.1328882546700214
  0.0956651591260922  0.1011400066128658  0.8852501094273322
  0.7749544798294252  0.0884722177015931  0.3801293813689313
  0.8806814468643438  0.2000703287325507  0.1328853079648411
  0.4532742235247582  0.0966407381477481  0.8815785324822869
  0.5652696125623251  0.2006365885984707  0.6300038119261302
  0.7843043798966178  0.4149677285325026  0.8889398059696560
  0.8807685763053499  0.5411556439550509  0.6363917160746126
  0.4561110001557793  0.4229584394570480  0.3823103354467321
  0.8920915704527488  0.5386548509565188  0.1269445507619977
  0.4581172454066191  0.4119547155774228  0.8798355905347961
  0.5701870412205210  0.5229807677911325  0.6400700502126639
  0.1115511519334973  0.7635052907693733  0.3815931323341886
  0.2078695246331819  0.8775960686395265  0.0771296582166414
  0.8836108063647856  0.8755411405405056  0.6350823991492405
  0.4396654052340310  0.7495365925198314  0.3919176865540521
  0.1005811663499401  0.7732843658222350  0.8731542581453127
  0.8916424081799974  0.8803162964778011  0.1287016978283404
  0.2433618453342916  0.1963268638109028  0.3345252324352685
  0.0946611308082765  0.0902549314726215  0.0941927722972054
  0.8852565392606806  0.2053307047295405  0.8425168510395551
  0.7689506364821028  0.0786888254652922  0.5764915998582723
  0.5605756394853643  0.2016322150497771  0.3296932061757261
  0.4622747835216643  0.0996746235259636  0.0774694349005571
  0.2278573213662867  0.1893268977644809  0.8563864166111159
  0.1021840161437950  0.1031269338896763  0.5742505252439400
  0.8717669651815001  0.1977604296876976  0.3334722157553784
  0.7757921438529394  0.0942895359169569  0.0809510954405255
  0.5612570969015849  0.2010232083198673  0.8278673504274394
  0.4522942055593617  0.1108386841467279  0.5774949519084416
  0.2375758725571089  0.5453071389257573  0.3511654193862341
  0.0997209089086226  0.4403763818573978  0.0897467163663634
  0.8734412776903469  0.5300471058813088  0.8360234999008043
  0.7702996799063158  0.4466869813580843  0.5836029850833810
  0.5364292664703569  0.5481313878053271  0.3291594568637137
  0.4593587615532044  0.4011165644010362  0.0756349867693729
  0.2377005461415962  0.5511733646314951  0.8465672719541999
  0.0955053813773787  0.4395599623942985  0.6062148885221177
  0.8914003115873896  0.5394815234068417  0.3228140730289866
  0.7964940078334237  0.4159902585743751  0.0912288822804825
  0.5729834589839271  0.5108113915281791  0.8445516394305130
  0.4793980348168958  0.4089272252155567  0.5808344444289517
  0.2325963168517333  0.8511111082124501  0.3684427963936869
  0.0952805254800921  0.7812065324359239  0.0743250039437413
  0.8913158033743684  0.8875837459685414  0.8321190954379958
  0.7939207769383501  0.7529606618361271  0.5995644925647028
  0.5385684537907665  0.8751827543495878  0.3582329359139749
  0.4166397731198970  0.7736229162455857  0.0743949018399519
  0.1957645677305493  0.8908468454154530  0.8481303016740966
  0.0856668804357312  0.7689627077150476  0.5850089735289856
  0.9040709099151272  0.8809911269458723  0.3248948334302852
  0.7894105034747341  0.7589895192110703  0.0995878400359587
  0.5460655377410504  0.8900895984596744  0.8381131326591884
  0.4518247269496953  0.7352118906048091  0.6046327063179575
 
  0.00000000E+00  0.00000000E+00  0.00000000E+00
  0.00000000E+00  0.00000000E+00  0.00000000E+00
  0.00000000E+00  0.00000000E+00  0.00000000E+00
  0.00000000E+00  0.00000000E+00  0.00000000E+00
  0.00000000E+00  0.00000000E+00  0.00000000E+00
  0.00000000E+00  0.00000000E+00  0.00000000E+00
  0.00000000E+00  0.00000000E+00  0.00000000E+00
  0.00000000E+00  0.00000000E+00  0.00000000E+00
  0.00000000E+00  0.00000000E+00  0.00000000E+00
  0.00000000E+00  0.00000000E+00  0.00000000E+00
  0.00000000E+00  0.00000000E+00  0.00000000E+00
  0.00000000E+00  0.00000000E+00  0.00000000E+00
  0.00000000E+00  0.00000000E+00  0.00000000E+00
  0.00000000E+00  0.00000000E+00  0.00000000E+00
  0.00000000E+00  0.00000000E+00  0.00000000E+00
  0.00000000E+00  0.00000000E+00  0.00000000E+00
  0.00000000E+00  0.00000000E+00  0.00000000E+00
  0.00000000E+00  0.00000000E+00  0.00000000E+00
  0.00000000E+00  0.00000000E+00  0.00000000E+00
  0.00000000E+00  0.00000000E+00  0.00000000E+00
  0.00000000E+00  0.00000000E+00  0.00000000E+00
  0.00000000E+00  0.00000000E+00  0.00000000E+00
  0.00000000E+00  0.00000000E+00  0.00000000E+00
  0.00000000E+00  0.00000000E+00  0.00000000E+00
  0.00000000E+00  0.00000000E+00  0.00000000E+00
  0.00000000E+00  0.00000000E+00  0.00000000E+00
  0.00000000E+00  0.00000000E+00  0.00000000E+00
  0.00000000E+00  0.00000000E+00  0.00000000E+00
  0.00000000E+00  0.00000000E+00  0.00000000E+00
  0.00000000E+00  0.00000000E+00  0.00000000E+00
  0.00000000E+00  0.00000000E+00  0.00000000E+00
  0.00000000E+00  0.00000000E+00  0.00000000E+00
  0.00000000E+00  0.00000000E+00  0.00000000E+00
  0.00000000E+00  0.00000000E+00  0.00000000E+00
  0.00000000E+00  0.00000000E+00  0.00000000E+00
  0.00000000E+00  0.00000000E+00  0.00000000E+00
  0.00000000E+00  0.00000000E+00  0.00000000E+00
  0.00000000E+00  0.00000000E+00  0.00000000E+00
  0.00000000E+00  0.00000000E+00  0.00000000E+00
  0.00000000E+00  0.00000000E+00  0.00000000E+00
  0.00000000E+00  0.00000000E+00  0.00000000E+00
  0.00000000E+00  0.00000000E+00  0.00000000E+00
  0.00000000E+00  0.00000000E+00  0.00000000E+00
  0.00000000E+00  0.00000000E+00  0.00000000E+00
  0.00000000E+00  0.00000000E+00  0.00000000E+00
  0.00000000E+00  0.00000000E+00  0.00000000E+00
  0.00000000E+00  0.00000000E+00  0.00000000E+00
  0.00000000E+00  0.00000000E+00  0.00000000E+00
  0.00000000E+00  0.00000000E+00  0.00000000E+00
  0.00000000E+00  0.00000000E+00  0.00000000E+00
  0.00000000E+00  0.00000000E+00  0.00000000E+00
  0.00000000E+00  0.00000000E+00  0.00000000E+00
  0.00000000E+00  0.00000000E+00  0.00000000E+00
  0.00000000E+00  0.00000000E+00  0.00000000E+00
  0.00000000E+00  0.00000000E+00  0.00000000E+00
  0.00000000E+00  0.00000000E+00  0.00000000E+00
  0.00000000E+00  0.00000000E+00  0.00000000E+00
  0.00000000E+00  0.00000000E+00  0.00000000E+00
  0.00000000E+00  0.00000000E+00  0.00000000E+00
  0.00000000E+00  0.00000000E+00  0.00000000E+00
  0.00000000E+00  0.00000000E+00  0.00000000E+00
  0.00000000E+00  0.00000000E+00  0.00000000E+00
  0.00000000E+00  0.00000000E+00  0.00000000E+00
  0.00000000E+00  0.00000000E+00  0.00000000E+00
  0.00000000E+00  0.00000000E+00  0.00000000E+00
  0.00000000E+00  0.00000000E+00  0.00000000E+00
  0.00000000E+00  0.00000000E+00  0.00000000E+00
  0.00000000E+00  0.00000000E+00  0.00000000E+00
  0.00000000E+00  0.00000000E+00  0.00000000E+00
  0.00000000E+00  0.00000000E+00  0.00000000E+00
  0.00000000E+00  0.00000000E+00  0.00000000E+00
  0.00000000E+00  0.00000000E+00  0.00000000E+00
