Sc   Al   N                             
   1.00000000000000     
   -10.3421354313787575   -0.0257198416043091   -0.0004635604707013
    -5.1419640222313685    8.9276458833524668   -0.0091853263078657
     0.0175834642296803   -0.0028644397703317   -9.5449166602971189
   Sc   Al   N 
    16    20    36
Direct
  0.1109327373257827  0.0887093260273133  0.3444038511075291
  0.2282894958680473  0.2035320838212868  0.1015133841335469
  0.8797154566162035  0.2078242577333427  0.6073913450302442
  0.2261772733026390  0.2023358130463393  0.6115461390703913
  0.1144450457659332  0.4322137991612323  0.3583473033675091
  0.2298393694429777  0.5445234062467819  0.0965683902671941
  0.5589223696951606  0.5289409876956626  0.0944402139355134
  0.1079617785759908  0.4320391839622459  0.8530592760330791
  0.2331270539869124  0.5433504385310997  0.6033010372226357
  0.7649961582450118  0.4364222745608544  0.3563418603213577
  0.7813744688514248  0.7637035457828318  0.8538824838893575
  0.5526270492737666  0.8782349224168939  0.1015547547784266
  0.2208529580262422  0.8674241896574273  0.5895790071892790
  0.7809851231577198  0.7650269926601325  0.3478893726678791
  0.4364512442524529  0.7592815863136764  0.8500926130829214
  0.5533279845870922  0.8673691360327069  0.5982792502782175
  0.7765508099666789  0.0991999594453929  0.8768513418139463
  0.4489494701963253  0.0991151025985104  0.3718239175583733
  0.5650255217411910  0.2007561396611024  0.1277088621154618
  0.0967209309653256  0.1002954969114569  0.8764516604562900
  0.7726406935799588  0.0915112669446501  0.3724144141785075
  0.8814078966634682  0.2009483751630512  0.1272214849307147
  0.4525190344607211  0.0980093592132079  0.8713585981093814
  0.5648380488196665  0.1996368321542477  0.6212202310121455
  0.7877737883597220  0.4123769636771897  0.8797674483286357
  0.8814833249485332  0.5399150233459551  0.6261699553336868
  0.4541720929338666  0.4267822432892885  0.3745012421313376
  0.8930593665412516  0.5365585512636954  0.1171311287482624
  0.4582300046429921  0.4095322055090378  0.8709018588474748
  0.5683264332983811  0.5249834974117888  0.6372930444004368
  0.1129551694523485  0.7674584002651272  0.3173575750787236
  0.2027243541474633  0.8797955602938856  0.0665034158836164
  0.8854002804114387  0.8729135191798321  0.5872301532966091
  0.4291816263092727  0.7610031902142325  0.3106186282246099
  0.0999666917704616  0.7749552806339821  0.8248943724812534
  0.8899687508480199  0.8800262873594349  0.0875234621951790
  0.2420981039230696  0.1985094113988382  0.3324198125639910
  0.0940561106829705  0.0922211074053152  0.0906765170154173
  0.8869128865752387  0.2038921610169453  0.8358507980683925
  0.7684222433455190  0.0818117299967582  0.5749231555722574
  0.5588910262913345  0.2036097120766840  0.3266658880895861
  0.4600238823465048  0.1051055883113463  0.0711771883823147
  0.2285277715344307  0.1886593116860809  0.8481373470282421
  0.1063498133758500  0.0980593053477108  0.5710987079994752
  0.8708430032663870  0.2002263077842485  0.3315547242503030
  0.7735776946062956  0.0991033457084001  0.0798100485088824
  0.5614804223063175  0.2003394883895595  0.8211065114651674
  0.4561372414823097  0.1033750554598498  0.5722820817329435
  0.2362013830464562  0.5488266242240130  0.3478294188687059
  0.1005418511311120  0.4390550403293005  0.0846528103594579
  0.8760213725389789  0.5279871584643487  0.8296458411964522
  0.7684159871395551  0.4469215733204166  0.5799529861550923
  0.5345407906909756  0.5493034899769711  0.3173310129104365
  0.4593583331060387  0.3992871151251549  0.0699018828766000
  0.2382413249322042  0.5504261878313983  0.8455501859210202
  0.0959637457308702  0.4402789633716111  0.5981968407798490
  0.8901525965804069  0.5385554338417933  0.3169560680035772
  0.7998274717766378  0.4134637149876639  0.0847239083095062
  0.5749525444260328  0.5077709255593206  0.8461590841271018
  0.4780755562263863  0.4100616496809550  0.5767885307970957
  0.2297605886646963  0.8542799256930493  0.3606531851588102
  0.0990928845484262  0.7812719325944073  0.1134619804987693
  0.8938209533801214  0.8860203877922359  0.8647624282871007
  0.7915543508495944  0.7534513604119013  0.5946359308416547
  0.5353710654028347  0.8772407047499868  0.3405239530191793
  0.4148876457090438  0.7740397949195881  0.0936239457533787
  0.1963862474452327  0.8886035186380994  0.8579555414301225
  0.0872384690337142  0.7724071820732803  0.6238382609854440
  0.9011152557043829  0.8798789847850657  0.3469257608895333
  0.7923914998511776  0.7561629139727728  0.0932002255992046
  0.5466320246630687  0.8882369154952912  0.8437470631591424
  0.4510687166862866  0.7343816615111933  0.6261346047910976
 
  0.00000000E+00  0.00000000E+00  0.00000000E+00
  0.00000000E+00  0.00000000E+00  0.00000000E+00
  0.00000000E+00  0.00000000E+00  0.00000000E+00
  0.00000000E+00  0.00000000E+00  0.00000000E+00
  0.00000000E+00  0.00000000E+00  0.00000000E+00
  0.00000000E+00  0.00000000E+00  0.00000000E+00
  0.00000000E+00  0.00000000E+00  0.00000000E+00
  0.00000000E+00  0.00000000E+00  0.00000000E+00
  0.00000000E+00  0.00000000E+00  0.00000000E+00
  0.00000000E+00  0.00000000E+00  0.00000000E+00
  0.00000000E+00  0.00000000E+00  0.00000000E+00
  0.00000000E+00  0.00000000E+00  0.00000000E+00
  0.00000000E+00  0.00000000E+00  0.00000000E+00
  0.00000000E+00  0.00000000E+00  0.00000000E+00
  0.00000000E+00  0.00000000E+00  0.00000000E+00
  0.00000000E+00  0.00000000E+00  0.00000000E+00
  0.00000000E+00  0.00000000E+00  0.00000000E+00
  0.00000000E+00  0.00000000E+00  0.00000000E+00
  0.00000000E+00  0.00000000E+00  0.00000000E+00
  0.00000000E+00  0.00000000E+00  0.00000000E+00
  0.00000000E+00  0.00000000E+00  0.00000000E+00
  0.00000000E+00  0.00000000E+00  0.00000000E+00
  0.00000000E+00  0.00000000E+00  0.00000000E+00
  0.00000000E+00  0.00000000E+00  0.00000000E+00
  0.00000000E+00  0.00000000E+00  0.00000000E+00
  0.00000000E+00  0.00000000E+00  0.00000000E+00
  0.00000000E+00  0.00000000E+00  0.00000000E+00
  0.00000000E+00  0.00000000E+00  0.00000000E+00
  0.00000000E+00  0.00000000E+00  0.00000000E+00
  0.00000000E+00  0.00000000E+00  0.00000000E+00
  0.00000000E+00  0.00000000E+00  0.00000000E+00
  0.00000000E+00  0.00000000E+00  0.00000000E+00
  0.00000000E+00  0.00000000E+00  0.00000000E+00
  0.00000000E+00  0.00000000E+00  0.00000000E+00
  0.00000000E+00  0.00000000E+00  0.00000000E+00
  0.00000000E+00  0.00000000E+00  0.00000000E+00
  0.00000000E+00  0.00000000E+00  0.00000000E+00
  0.00000000E+00  0.00000000E+00  0.00000000E+00
  0.00000000E+00  0.00000000E+00  0.00000000E+00
  0.00000000E+00  0.00000000E+00  0.00000000E+00
  0.00000000E+00  0.00000000E+00  0.00000000E+00
  0.00000000E+00  0.00000000E+00  0.00000000E+00
  0.00000000E+00  0.00000000E+00  0.00000000E+00
  0.00000000E+00  0.00000000E+00  0.00000000E+00
  0.00000000E+00  0.00000000E+00  0.00000000E+00
  0.00000000E+00  0.00000000E+00  0.00000000E+00
  0.00000000E+00  0.00000000E+00  0.00000000E+00
  0.00000000E+00  0.00000000E+00  0.00000000E+00
  0.00000000E+00  0.00000000E+00  0.00000000E+00
  0.00000000E+00  0.00000000E+00  0.00000000E+00
  0.00000000E+00  0.00000000E+00  0.00000000E+00
  0.00000000E+00  0.00000000E+00  0.00000000E+00
  0.00000000E+00  0.00000000E+00  0.00000000E+00
  0.00000000E+00  0.00000000E+00  0.00000000E+00
  0.00000000E+00  0.00000000E+00  0.00000000E+00
  0.00000000E+00  0.00000000E+00  0.00000000E+00
  0.00000000E+00  0.00000000E+00  0.00000000E+00
  0.00000000E+00  0.00000000E+00  0.00000000E+00
  0.00000000E+00  0.00000000E+00  0.00000000E+00
  0.00000000E+00  0.00000000E+00  0.00000000E+00
  0.00000000E+00  0.00000000E+00  0.00000000E+00
  0.00000000E+00  0.00000000E+00  0.00000000E+00
  0.00000000E+00  0.00000000E+00  0.00000000E+00
  0.00000000E+00  0.00000000E+00  0.00000000E+00
  0.00000000E+00  0.00000000E+00  0.00000000E+00
  0.00000000E+00  0.00000000E+00  0.00000000E+00
  0.00000000E+00  0.00000000E+00  0.00000000E+00
  0.00000000E+00  0.00000000E+00  0.00000000E+00
  0.00000000E+00  0.00000000E+00  0.00000000E+00
  0.00000000E+00  0.00000000E+00  0.00000000E+00
  0.00000000E+00  0.00000000E+00  0.00000000E+00
  0.00000000E+00  0.00000000E+00  0.00000000E+00
