supercell of POSCAR                     
   1.03600000000000     
     9.6051007291200001   -5.6678653607799996   -9.9907275475200006
     9.5551777488200003    5.5783510108199996    9.9928581731800001
    -1.5573508785200001   -8.3719044994900003    4.9655686364999996
   Al   Gd   N 
    72    24    95
Direct
  0.3016139813265966  0.2876912606962350  0.5377123401445658
  0.1417518469544632  0.2450143513991705  0.3109142838343431
  0.3069617067603332  0.4102655856011026  0.3093911961245510
  0.4630030632428728  0.3220596475207671  0.7858960665753045
  0.1418118536604922  0.4984669303062219  0.7842820812693745
  0.2969454423221904  0.1644622708635097  0.7750724915600742
  0.4695963818608533  0.4476765200259507  0.5346108790224022
  0.1416302330017629  0.1191480765462032  0.5395670321877617
  0.5028344248404011  0.0448794180783167  0.2734025424142388
  0.2684423544236978  0.1091590764456853  0.3354358400522344
  0.1148548014845900  0.0703569234407837  0.1011229307809813
  0.1154047084539513  0.1963215843085635  0.8165827846478848
  0.2736968005941236  0.3560020497043226  0.8124614306250848
  0.1118252563424349  0.3243817655353709  0.5892615683922457
  0.2708241908276818  0.4848836630478317  0.5769607742062064
  0.4472554547631660  0.2857994338456891  0.3368470571794759
  0.1108269374342612  0.4463294590969156  0.3413028187033973
  0.4479580217965307  0.4040959181778021  0.1028202137611700
  0.8011367263844349  0.2885245649451491  0.5388306672925722
  0.6436460065341336  0.2438641414069807  0.3122879643934766
  0.8081695506950197  0.4092150649399073  0.3106431755808856
  0.9631505035329653  0.3251538112742764  0.7892486004493833
  0.6419189794020568  0.4983246939304209  0.7845306080044594
  0.7955385937243378  0.1652118938628462  0.7792707189063819
  0.9692966197852826  0.4462450615124141  0.5341633018706204
  0.6447176464040680  0.1185998448521488  0.5388684708339042
  0.9785564755219056  0.0723841939226233  0.2981539288507378
  0.7773573525339117  0.1086204973762008  0.3355580741827353
  0.6181854113177820  0.0736753728658144  0.0947392003382390
  0.6137356660732323  0.1954678800635108  0.8150253032606400
  0.7744157420662106  0.3553195498258930  0.8121121836456808
  0.6108715391370581  0.3243066321438590  0.5893235336455334
  0.7704251689008643  0.4846374376218208  0.5770987040205640
  0.9481082569280872  0.2801567377805654  0.3370391692502182
  0.6116048222411692  0.4461984861627428  0.3401779434846759
  0.9477698439572890  0.4052235306993097  0.1049436022181496
  0.3014698324516587  0.7884404415956823  0.5381650065940420
  0.1434821141885436  0.7439313866379180  0.3116732013478511
  0.3085851454357709  0.9095538918413553  0.3104858967855293
  0.4635475075661475  0.8256268801600939  0.7881672459395119
  0.1429012191141368  0.9984214655623873  0.7840032749386552
  0.2954730602044506  0.6650257337297845  0.7787850486574186
  0.4703705163790062  0.9449741559917371  0.5321896499645433
  0.1433217943431515  0.6196639608064274  0.5389232819455003
  0.4777357654476049  0.5715502038010030  0.2978257287954449
  0.2760030052108320  0.6088713470702203  0.3364555244917753
  0.1144256383450895  0.5712188229829565  0.1026549468788218
  0.1150370040087410  0.6961857970111538  0.8173920279836224
  0.2748107817559742  0.8555683023751897  0.8111992409452071
  0.1121353421051055  0.8247742343592037  0.5890800046350364
  0.2709414213634318  0.9856520938102022  0.5752131740427231
  0.4484616853465866  0.7786916629650378  0.3355679920387971
  0.1103204300255882  0.9448392497374130  0.3397957274971688
  0.4443194609944001  0.9011653088510414  0.0973103239551634
  0.8014884224286689  0.7882275713751170  0.5395138940323889
  0.6431726219674800  0.7416889414918728  0.3118315832969856
  0.8102236609445868  0.9093572675575530  0.3107866196262137
  0.9630552868982676  0.8251318950279867  0.7892407567717754
  0.6422740728735405  0.9972426275303050  0.7832177965482430
  0.7954738850843555  0.6648506515548718  0.7790890301993372
  0.9699034973658058  0.9460544741907029  0.5338823418173533
  0.6432728661146001  0.6192075171456324  0.5392448325287944
  0.9781741548429039  0.5721851058487388  0.2981948616477226
  0.7767750642916482  0.6087808546484723  0.3368301634209487
  0.6149354607409450  0.5698302174101357  0.1027976527743917
  0.6149773453905567  0.6964228205390697  0.8181622396275756
  0.7744340404063408  0.8553007977912799  0.8134451956454711
  0.6121625092479235  0.8232172708653991  0.5906793035220943
  0.7724820421582947  0.9849140822674443  0.5787907173374194
  0.9480922177448718  0.7792598922086142  0.3372067191547501
  0.6186465097059752  0.9389017297313771  0.3463078424625294
  0.9488020676127604  0.9044789826372792  0.1045573333094936
  0.4819886433395268  0.1951111113661810  0.0412778305021178
  0.1346014672716933  0.3671630674977990  0.0336745296131582
  0.3089803054072533  0.0224083498132046  0.0399897055764313
  0.2823162911695434  0.2344485215846106  0.0793639228117442
  0.4482043498765123  0.0221600229336119  0.8155721174113424
  0.4431754621201378  0.1530402875666681  0.5520484904623544
  0.9829063645074996  0.1954413754104110  0.0401324980149766
  0.6362035352074074  0.3647342903563597  0.0320130954008633
  0.8099658585387246  0.0207163548930325  0.0388844282457583
  0.7849004390973207  0.2341854926178257  0.0818937003770941
  0.9501444690159246  0.0200807281162128  0.8207270958849975
  0.9428676609165692  0.1551767372006978  0.5732876773164861
  0.4837416129231045  0.6934045608928159  0.0384657757217752
  0.1369940913606484  0.8654570131380694  0.0320950403736546
  0.3078850486486147  0.5220270005791434  0.0400640184881169
  0.2838261680132703  0.7327112494378198  0.0828351691997398
  0.4483219967900069  0.5179058993129004  0.8204424714027994
  0.4434400958800566  0.6552369200247270  0.5730621825138726
  0.9817368763504888  0.6959452193058411  0.0408327868699701
  0.6323605997381989  0.8698685682406406  0.0358012779353629
  0.8075329425285034  0.5225031923982542  0.0407788552062129
  0.7820041237804674  0.7352384286796649  0.0830996750165767
  0.9484605066726033  0.5198695055081117  0.8213790077427063
  0.9440820057255337  0.6545255651154847  0.5738616468029107
  0.2381473311667222  0.3670920283151204  0.6262690271839304
  0.0745966272244587  0.3257494725480754  0.4006209897585720
  0.2383480838760477  0.4904073260073005  0.3912549111300976
  0.4254344856820111  0.2917973770336033  0.1570365720047775
  0.0689054322949829  0.4579854051281345  0.1539415820528802
  0.2353346783716574  0.1042488104875972  0.1552098822840264
  0.3994423704053105  0.3902827133529598  0.9065278518921929
  0.0949794152087122  0.0835672110063967  0.9023784178868652
  0.2346538375923330  0.2435023505102265  0.8621602645170725
  0.3962723144702238  0.0181510233123134  0.6031308702290445
  0.0887906702562375  0.2032642494647519  0.6320966003999899
  0.2160720933632163  0.1918781233358118  0.4357372743371428
  0.0621076305089829  0.1456303038671365  0.2091484986438985
  0.2148925277876614  0.3205981873885904  0.2094857885904560
  0.3655486964007721  0.1180453640265569  0.9079312814775236
  0.0423483715371233  0.2688348511357077  0.8860306552080388
  0.2100057217799502  0.4355539302018840  0.8890963305006565
  0.3704594697297452  0.2412391299112784  0.6741021364522268
  0.0397493101589745  0.4065729441813275  0.6836168621599370
  0.2121249663864901  0.0677525844113589  0.6693466112676347
  0.3807052759329608  0.3555611577752842  0.4340079840258610
  0.0484065079034579  0.0258070499943130  0.4398150848633264
  0.3902797450889892  0.4744114764521541  0.2089886545276229
  0.7362906695658253  0.3669883240927732  0.6259113983060089
  0.5743162832023714  0.3248252048586053  0.4002088964823329
  0.7385612729804762  0.4898931740786452  0.3910684016614638
  0.9277259079755424  0.2929767955383724  0.1572036367398368
  0.5696184369091881  0.4557419245913934  0.1522688419769551
  0.7364893168190747  0.1024642612500202  0.1547549281741780
  0.8996410438378533  0.3928391263239632  0.9090114753673078
  0.5934202062780898  0.0821019425921250  0.9006115787315281
  0.7323920007741549  0.2438714149167467  0.8660701397205557
  0.8961798609049083  0.0158755335630616  0.6111509957299219
  0.5868979860474894  0.2012478160709605  0.6292132109618862
  0.9044279229460130  0.1558234039167630  0.3554074040937607
  0.7193149568183728  0.1902451199427304  0.4348785083457543
  0.5636936803977477  0.1457873577138216  0.2082502364019234
  0.7157958627250451  0.3194941139237883  0.2106465244186211
  0.8658554573956962  0.1178709045791422  0.9078119863233312
  0.5413937988927913  0.2673402358564871  0.8864420402200608
  0.7101675031461667  0.4354833541802350  0.8887766774865042
  0.8666257607719103  0.2466865723936706  0.6821276779776966
  0.5392933003333908  0.4061110270577331  0.6831752916800724
  0.7125930453033931  0.0677881172138797  0.6713375819797349
  0.8815136372290553  0.3526632829419967  0.4335948144684423
  0.5536511635565944  0.0215526360960894  0.4412663990249825
  0.8897523573867332  0.4753430140728483  0.2104092769195915
  0.2383283281192163  0.8686265306961971  0.6254061116696903
  0.0749688904306822  0.8251591179878659  0.4001822004315088
  0.2381172991590645  0.9901768087670888  0.3895860066330101
  0.4284482122217597  0.7914396654883831  0.1550903981941474
  0.0703665003723728  0.9565053532689589  0.1520312390707801
  0.2344076058526454  0.6028797344462902  0.1564307671191330
  0.4008640601932640  0.8950148574382837  0.9065579041457426
  0.0937234325651275  0.5833735600234107  0.9022780475523646
  0.2340082280716160  0.7448405992468778  0.8675199208047957
  0.3950821584866162  0.5167039184293927  0.6109866952864351
  0.0904911454556654  0.7040575156932007  0.6324771282447799
  0.4037504469643167  0.6552224055358167  0.3550200569781339
  0.2192779609056075  0.6911270386479202  0.4352457117749680
  0.0614678814692837  0.6466468124748843  0.2097791901754960
  0.2166553190506093  0.8203471336155985  0.2106563902248482
  0.3655612509764623  0.6173977479775772  0.9076296897161527
  0.0418351837583160  0.7688874846206559  0.8863954489347350
  0.2114862462002165  0.9359955348063025  0.8885454794274850
  0.3670828384056435  0.7469078142028067  0.6819729716828320
  0.0401673711702841  0.9068513704877574  0.6838858525463181
  0.2119022009086464  0.5680024881537378  0.6707628830081376
  0.3823727459156672  0.8523647304076718  0.4321434946215561
  0.0481335493186776  0.5265679617716827  0.4408636660833949
  0.3911440770097130  0.9742191889478917  0.2093734743601843
  0.7374469813773317  0.8677646769532643  0.6273419283162127
  0.5754465991393474  0.8222623566605591  0.4016117903944902
  0.7420226501586455  0.9898926021466963  0.3925694521663203
  0.9254635190221023  0.7927086215906627  0.1578168262281494
  0.5651376331495115  0.9634581726806033  0.1620475549621005
  0.7346558185214889  0.6045836512213185  0.1570987351464694
  0.8997475808334627  0.8937776265778439  0.9090198558928790
  0.5928206358870298  0.5833062481691371  0.9028245548254290
  0.7336884030531650  0.7440342197358518  0.8669299743471868
  0.8946396027697645  0.5154106622763308  0.6110382794117726
  0.5897066995904225  0.7029034610603588  0.6333211458054890
  0.9042154879459972  0.6554602867880277  0.3567246053696067
  0.7194285766868234  0.6907434195198476  0.4357801661661469
  0.5615105776551204  0.6448109970316551  0.2100469512954106
  0.7126914575798935  0.8230018465842051  0.2110430432486368
  0.8652786849196659  0.6177106545105104  0.9087320301890287
  0.5427164397213460  0.7705493669673160  0.8873192221108042
  0.7091945261805961  0.9347753805284498  0.8904615227087831
  0.8672130944678855  0.7461653953773180  0.6820856520020158
  0.5395761889373532  0.9064284923672830  0.6827640238023776
  0.7117042518545489  0.5677752678880594  0.6710134339470315
  0.8818840643217314  0.8523086063152689  0.4339157454889744
  0.5483499572893251  0.5260694461644064  0.4400903313439741
  0.8913588932591239  0.9751174680563608  0.2105046762268401
 
  0.00000000E+00  0.00000000E+00  0.00000000E+00
  0.00000000E+00  0.00000000E+00  0.00000000E+00
  0.00000000E+00  0.00000000E+00  0.00000000E+00
  0.00000000E+00  0.00000000E+00  0.00000000E+00
  0.00000000E+00  0.00000000E+00  0.00000000E+00
  0.00000000E+00  0.00000000E+00  0.00000000E+00
  0.00000000E+00  0.00000000E+00  0.00000000E+00
  0.00000000E+00  0.00000000E+00  0.00000000E+00
  0.00000000E+00  0.00000000E+00  0.00000000E+00
  0.00000000E+00  0.00000000E+00  0.00000000E+00
  0.00000000E+00  0.00000000E+00  0.00000000E+00
  0.00000000E+00  0.00000000E+00  0.00000000E+00
  0.00000000E+00  0.00000000E+00  0.00000000E+00
  0.00000000E+00  0.00000000E+00  0.00000000E+00
  0.00000000E+00  0.00000000E+00  0.00000000E+00
  0.00000000E+00  0.00000000E+00  0.00000000E+00
  0.00000000E+00  0.00000000E+00  0.00000000E+00
  0.00000000E+00  0.00000000E+00  0.00000000E+00
  0.00000000E+00  0.00000000E+00  0.00000000E+00
  0.00000000E+00  0.00000000E+00  0.00000000E+00
  0.00000000E+00  0.00000000E+00  0.00000000E+00
  0.00000000E+00  0.00000000E+00  0.00000000E+00
  0.00000000E+00  0.00000000E+00  0.00000000E+00
  0.00000000E+00  0.00000000E+00  0.00000000E+00
  0.00000000E+00  0.00000000E+00  0.00000000E+00
  0.00000000E+00  0.00000000E+00  0.00000000E+00
  0.00000000E+00  0.00000000E+00  0.00000000E+00
  0.00000000E+00  0.00000000E+00  0.00000000E+00
  0.00000000E+00  0.00000000E+00  0.00000000E+00
  0.00000000E+00  0.00000000E+00  0.00000000E+00
  0.00000000E+00  0.00000000E+00  0.00000000E+00
  0.00000000E+00  0.00000000E+00  0.00000000E+00
  0.00000000E+00  0.00000000E+00  0.00000000E+00
  0.00000000E+00  0.00000000E+00  0.00000000E+00
  0.00000000E+00  0.00000000E+00  0.00000000E+00
  0.00000000E+00  0.00000000E+00  0.00000000E+00
  0.00000000E+00  0.00000000E+00  0.00000000E+00
  0.00000000E+00  0.00000000E+00  0.00000000E+00
  0.00000000E+00  0.00000000E+00  0.00000000E+00
  0.00000000E+00  0.00000000E+00  0.00000000E+00
  0.00000000E+00  0.00000000E+00  0.00000000E+00
  0.00000000E+00  0.00000000E+00  0.00000000E+00
  0.00000000E+00  0.00000000E+00  0.00000000E+00
  0.00000000E+00  0.00000000E+00  0.00000000E+00
  0.00000000E+00  0.00000000E+00  0.00000000E+00
  0.00000000E+00  0.00000000E+00  0.00000000E+00
  0.00000000E+00  0.00000000E+00  0.00000000E+00
  0.00000000E+00  0.00000000E+00  0.00000000E+00
  0.00000000E+00  0.00000000E+00  0.00000000E+00
  0.00000000E+00  0.00000000E+00  0.00000000E+00
  0.00000000E+00  0.00000000E+00  0.00000000E+00
  0.00000000E+00  0.00000000E+00  0.00000000E+00
  0.00000000E+00  0.00000000E+00  0.00000000E+00
  0.00000000E+00  0.00000000E+00  0.00000000E+00
  0.00000000E+00  0.00000000E+00  0.00000000E+00
  0.00000000E+00  0.00000000E+00  0.00000000E+00
  0.00000000E+00  0.00000000E+00  0.00000000E+00
  0.00000000E+00  0.00000000E+00  0.00000000E+00
  0.00000000E+00  0.00000000E+00  0.00000000E+00
  0.00000000E+00  0.00000000E+00  0.00000000E+00
  0.00000000E+00  0.00000000E+00  0.00000000E+00
  0.00000000E+00  0.00000000E+00  0.00000000E+00
  0.00000000E+00  0.00000000E+00  0.00000000E+00
  0.00000000E+00  0.00000000E+00  0.00000000E+00
  0.00000000E+00  0.00000000E+00  0.00000000E+00
  0.00000000E+00  0.00000000E+00  0.00000000E+00
  0.00000000E+00  0.00000000E+00  0.00000000E+00
  0.00000000E+00  0.00000000E+00  0.00000000E+00
  0.00000000E+00  0.00000000E+00  0.00000000E+00
  0.00000000E+00  0.00000000E+00  0.00000000E+00
  0.00000000E+00  0.00000000E+00  0.00000000E+00
  0.00000000E+00  0.00000000E+00  0.00000000E+00
  0.00000000E+00  0.00000000E+00  0.00000000E+00
  0.00000000E+00  0.00000000E+00  0.00000000E+00
  0.00000000E+00  0.00000000E+00  0.00000000E+00
  0.00000000E+00  0.00000000E+00  0.00000000E+00
  0.00000000E+00  0.00000000E+00  0.00000000E+00
  0.00000000E+00  0.00000000E+00  0.00000000E+00
  0.00000000E+00  0.00000000E+00  0.00000000E+00
  0.00000000E+00  0.00000000E+00  0.00000000E+00
  0.00000000E+00  0.00000000E+00  0.00000000E+00
  0.00000000E+00  0.00000000E+00  0.00000000E+00
  0.00000000E+00  0.00000000E+00  0.00000000E+00
  0.00000000E+00  0.00000000E+00  0.00000000E+00
  0.00000000E+00  0.00000000E+00  0.00000000E+00
  0.00000000E+00  0.00000000E+00  0.00000000E+00
  0.00000000E+00  0.00000000E+00  0.00000000E+00
  0.00000000E+00  0.00000000E+00  0.00000000E+00
  0.00000000E+00  0.00000000E+00  0.00000000E+00
  0.00000000E+00  0.00000000E+00  0.00000000E+00
  0.00000000E+00  0.00000000E+00  0.00000000E+00
  0.00000000E+00  0.00000000E+00  0.00000000E+00
  0.00000000E+00  0.00000000E+00  0.00000000E+00
  0.00000000E+00  0.00000000E+00  0.00000000E+00
  0.00000000E+00  0.00000000E+00  0.00000000E+00
  0.00000000E+00  0.00000000E+00  0.00000000E+00
  0.00000000E+00  0.00000000E+00  0.00000000E+00
  0.00000000E+00  0.00000000E+00  0.00000000E+00
  0.00000000E+00  0.00000000E+00  0.00000000E+00
  0.00000000E+00  0.00000000E+00  0.00000000E+00
  0.00000000E+00  0.00000000E+00  0.00000000E+00
  0.00000000E+00  0.00000000E+00  0.00000000E+00
  0.00000000E+00  0.00000000E+00  0.00000000E+00
  0.00000000E+00  0.00000000E+00  0.00000000E+00
  0.00000000E+00  0.00000000E+00  0.00000000E+00
  0.00000000E+00  0.00000000E+00  0.00000000E+00
  0.00000000E+00  0.00000000E+00  0.00000000E+00
  0.00000000E+00  0.00000000E+00  0.00000000E+00
  0.00000000E+00  0.00000000E+00  0.00000000E+00
  0.00000000E+00  0.00000000E+00  0.00000000E+00
  0.00000000E+00  0.00000000E+00  0.00000000E+00
  0.00000000E+00  0.00000000E+00  0.00000000E+00
  0.00000000E+00  0.00000000E+00  0.00000000E+00
  0.00000000E+00  0.00000000E+00  0.00000000E+00
  0.00000000E+00  0.00000000E+00  0.00000000E+00
  0.00000000E+00  0.00000000E+00  0.00000000E+00
  0.00000000E+00  0.00000000E+00  0.00000000E+00
  0.00000000E+00  0.00000000E+00  0.00000000E+00
  0.00000000E+00  0.00000000E+00  0.00000000E+00
  0.00000000E+00  0.00000000E+00  0.00000000E+00
  0.00000000E+00  0.00000000E+00  0.00000000E+00
  0.00000000E+00  0.00000000E+00  0.00000000E+00
  0.00000000E+00  0.00000000E+00  0.00000000E+00
  0.00000000E+00  0.00000000E+00  0.00000000E+00
  0.00000000E+00  0.00000000E+00  0.00000000E+00
  0.00000000E+00  0.00000000E+00  0.00000000E+00
  0.00000000E+00  0.00000000E+00  0.00000000E+00
  0.00000000E+00  0.00000000E+00  0.00000000E+00
  0.00000000E+00  0.00000000E+00  0.00000000E+00
  0.00000000E+00  0.00000000E+00  0.00000000E+00
  0.00000000E+00  0.00000000E+00  0.00000000E+00
  0.00000000E+00  0.00000000E+00  0.00000000E+00
  0.00000000E+00  0.00000000E+00  0.00000000E+00
  0.00000000E+00  0.00000000E+00  0.00000000E+00
  0.00000000E+00  0.00000000E+00  0.00000000E+00
  0.00000000E+00  0.00000000E+00  0.00000000E+00
  0.00000000E+00  0.00000000E+00  0.00000000E+00
  0.00000000E+00  0.00000000E+00  0.00000000E+00
  0.00000000E+00  0.00000000E+00  0.00000000E+00
  0.00000000E+00  0.00000000E+00  0.00000000E+00
  0.00000000E+00  0.00000000E+00  0.00000000E+00
  0.00000000E+00  0.00000000E+00  0.00000000E+00
  0.00000000E+00  0.00000000E+00  0.00000000E+00
  0.00000000E+00  0.00000000E+00  0.00000000E+00
  0.00000000E+00  0.00000000E+00  0.00000000E+00
  0.00000000E+00  0.00000000E+00  0.00000000E+00
  0.00000000E+00  0.00000000E+00  0.00000000E+00
  0.00000000E+00  0.00000000E+00  0.00000000E+00
  0.00000000E+00  0.00000000E+00  0.00000000E+00
  0.00000000E+00  0.00000000E+00  0.00000000E+00
  0.00000000E+00  0.00000000E+00  0.00000000E+00
  0.00000000E+00  0.00000000E+00  0.00000000E+00
  0.00000000E+00  0.00000000E+00  0.00000000E+00
  0.00000000E+00  0.00000000E+00  0.00000000E+00
  0.00000000E+00  0.00000000E+00  0.00000000E+00
  0.00000000E+00  0.00000000E+00  0.00000000E+00
  0.00000000E+00  0.00000000E+00  0.00000000E+00
  0.00000000E+00  0.00000000E+00  0.00000000E+00
  0.00000000E+00  0.00000000E+00  0.00000000E+00
  0.00000000E+00  0.00000000E+00  0.00000000E+00
  0.00000000E+00  0.00000000E+00  0.00000000E+00
  0.00000000E+00  0.00000000E+00  0.00000000E+00
  0.00000000E+00  0.00000000E+00  0.00000000E+00
  0.00000000E+00  0.00000000E+00  0.00000000E+00
  0.00000000E+00  0.00000000E+00  0.00000000E+00
  0.00000000E+00  0.00000000E+00  0.00000000E+00
  0.00000000E+00  0.00000000E+00  0.00000000E+00
  0.00000000E+00  0.00000000E+00  0.00000000E+00
  0.00000000E+00  0.00000000E+00  0.00000000E+00
  0.00000000E+00  0.00000000E+00  0.00000000E+00
  0.00000000E+00  0.00000000E+00  0.00000000E+00
  0.00000000E+00  0.00000000E+00  0.00000000E+00
  0.00000000E+00  0.00000000E+00  0.00000000E+00
  0.00000000E+00  0.00000000E+00  0.00000000E+00
  0.00000000E+00  0.00000000E+00  0.00000000E+00
  0.00000000E+00  0.00000000E+00  0.00000000E+00
  0.00000000E+00  0.00000000E+00  0.00000000E+00
  0.00000000E+00  0.00000000E+00  0.00000000E+00
  0.00000000E+00  0.00000000E+00  0.00000000E+00
  0.00000000E+00  0.00000000E+00  0.00000000E+00
  0.00000000E+00  0.00000000E+00  0.00000000E+00
  0.00000000E+00  0.00000000E+00  0.00000000E+00
  0.00000000E+00  0.00000000E+00  0.00000000E+00
  0.00000000E+00  0.00000000E+00  0.00000000E+00
  0.00000000E+00  0.00000000E+00  0.00000000E+00
  0.00000000E+00  0.00000000E+00  0.00000000E+00
  0.00000000E+00  0.00000000E+00  0.00000000E+00
  0.00000000E+00  0.00000000E+00  0.00000000E+00
  0.00000000E+00  0.00000000E+00  0.00000000E+00
  0.00000000E+00  0.00000000E+00  0.00000000E+00
  0.00000000E+00  0.00000000E+00  0.00000000E+00
