supercell of POSCAR                     
   1.01800000000000     
     3.1310994802600001   -5.4896946145000003   10.0244832682999991
    -9.4821132118399998   -5.5089477087900001    0.0170740616273000
     6.3359946057599998  -11.0114127993000004  -10.0652216442999993
   Al   Gd   N 
    83    12    96
Direct
  0.0922686718787418  0.5810089126794153  0.3305138113252752
  0.5009926191484055  0.3244932497682385  0.2551854109859519
  0.0888582667822320  0.0813610274741023  0.3330674477240123
  0.2592563286802090  0.5764808082378465  0.4910969944947610
  0.3317005062463636  0.3239618388447951  0.0797850774276156
  0.4181043766392847  0.0870467762153311  0.1693208673332620
  0.0090566789341437  0.8416217453655364  0.2547389100254804
  0.1688018845665695  0.3295382179731732  0.4117354261296526
  0.2497310498187986  0.0836425278296176  0.4946278026791617
  0.1710161492257924  0.8330697950824586  0.4114313486480015
  0.1425388601608120  0.6727661820667379  0.1635324537394354
  0.2442315044527703  0.3963066909261315  0.2500096676151671
  0.3353674002089662  0.1616190471306922  0.3332738298215219
  0.0127457571592302  0.6724181415965660  0.4939583597551902
  0.1674100830006253  0.1552658244693816  0.1671951208245517
  0.2562975911774004  0.9172369386285908  0.2558186694017124
  0.4153922484060644  0.4122908364694027  0.4158749492069447
  0.5000503543489430  0.1577359876803897  0.4968365945736650
  0.0815704719634809  0.9220030222917117  0.0795189685715130
  0.4191797761974740  0.9163126636871652  0.4087303862225085
  0.0885700030796954  0.5864601289466691  0.8355796591405564
  0.4984454420966813  0.3246652335525440  0.7533732457126590
  0.0853999769773068  0.0863083710789141  0.8347805494583227
  0.2509272627434456  0.5791671933361755  0.9974441752519994
  0.3314908302298818  0.3164822955887416  0.5766497416072198
  0.4171492043846712  0.0861830640444907  0.6697972987695877
  0.0065708063312542  0.8444757660999258  0.7560274432825480
  0.1661451892098427  0.3336709348757694  0.9139451197797399
  0.2481661219796436  0.0871369072638402  0.9967363489471950
  0.1616364636806651  0.8381646196993344  0.9168580755791638
  0.3347918412400617  0.6752960562568902  0.8393045644311670
  0.1552871598696015  0.6761831401185248  0.6658524040057472
  0.2488485716187796  0.4035310851715082  0.7518597207536004
  0.3333202879627493  0.1664345326231143  0.8336377098478920
  0.0010695768865645  0.6767834692177459  0.9929447493544430
  0.1669554943735392  0.1592688263316759  0.6686072841423609
  0.2522369812075311  0.9207215143061589  0.7547381826670616
  0.4113608995651745  0.4177363712388242  0.9154077668621809
  0.4979659920250015  0.1672905592450817  0.9971134449529728
  0.0848778781353090  0.9224268000095535  0.5788707573006988
  0.4187329844344845  0.9232388897208921  0.9110140721456403
  0.6053569659237112  0.5811738209130155  0.3356213472181508
  0.0013353007778960  0.3188582905186834  0.2553609554901541
  0.5876290769493195  0.0855667261982305  0.3341026157329807
  0.7556569133292399  0.5783086397911745  0.4966701772148880
  0.8305932850721547  0.3198194753104957  0.0787948790966908
  0.9183237010927314  0.0850777049330631  0.1695247981198733
  0.5168804330356949  0.8499675820700432  0.2521743569370116
  0.6699418408766178  0.3297373160550379  0.4129389215417447
  0.7496991629973166  0.0847715610418689  0.4959769962413532
  0.6634130618949499  0.8345134690660245  0.4149807731930366
  0.8426709850233181  0.6703639646912265  0.3429003700525541
  0.6280720987345561  0.6814730560721785  0.1735033556309915
  0.7547770754208543  0.3969715744627607  0.2552025048306845
  0.8372376942836794  0.1605781649408087  0.3347189190098376
  0.5076997183415202  0.6710887144361166  0.4939729206224825
  0.6678315225750566  0.1613042738991979  0.1687310882111603
  0.7559951770735793  0.9214575280525992  0.2545180719914697
  0.9149614065304235  0.4125254689171101  0.4158900456398769
  0.0003822044160486  0.1603183187051727  0.4968222538473483
  0.5839688391107387  0.9295766274153934  0.0770288348020358
  0.9228370616491901  0.9171599134958726  0.4114810775957594
  0.5871662121528303  0.5862521814395905  0.8345847186213788
  0.9990551730392951  0.3239626550419459  0.7551946191680798
  0.5850615900084080  0.0873759453221794  0.8338767865724392
  0.7459837363359796  0.5783612710295571  0.9969616209495129
  0.8314953653418726  0.3183756978633880  0.5789314753600863
  0.9175523122672189  0.0872716834189546  0.6706942918684291
  0.5067179310228482  0.8439935314996916  0.7540777927874132
  0.6654736536051686  0.3338760082265182  0.9137957924464359
  0.7482873485315267  0.0881477781103897  0.9957576524275140
  0.6597962982655048  0.8383000657301309  0.9156738921635394
  0.8336865768627320  0.6753506717941775  0.8404640636845713
  0.6577188925886759  0.6766567831112695  0.6682918795218171
  0.7473914838823319  0.4037272217176167  0.7516820994833324
  0.8334170177583857  0.1671778384076816  0.8338333516651204
  0.5021985023363484  0.6756325796167530  0.9951941102635615
  0.6661621509362163  0.1609610558108585  0.6680532302869011
  0.7522597852366886  0.9226130286410879  0.7556151076966842
  0.9109208284336390  0.4172637474884482  0.9165024202101577
  0.9985735946936387  0.1648883622588286  0.9975727082148182
  0.5849296882135846  0.9218308534584096  0.5789359108260683
  0.9173948138461370  0.9227392751043269  0.9127595641847250
  0.3814461687900774  0.5932045434709181  0.2039746958540576
  0.3338528421194269  0.8277782437760024  0.0837025942869190
  0.0807252640909866  0.4287621738387770  0.0908740271363087
  0.3980222881298516  0.5809163678622582  0.6773450679455308
  0.3346710477396968  0.8334506295546475  0.5809208871812928
  0.0832584987857032  0.4216082057446684  0.5838393903463128
  0.8850897569629623  0.5793985573048772  0.1818104741250721
  0.8244786918223852  0.8262690180916366  0.0860663584804513
  0.5752887957886230  0.4338106210808732  0.0902788131058969
  0.9011124728869362  0.5787202068246557  0.6808011219100081
  0.8349343906028963  0.8344759240957913  0.5839274780254442
  0.5759384082721581  0.4253142120501110  0.5802466929699293
  0.1897337981118454  0.5583466687606844  0.2481720404459509
  0.0155114218756509  0.6195438683022445  0.0984408217370500
  0.1279034581591176  0.3083621854710543  0.1975837568344758
  0.2139261096717888  0.0815804530560982  0.2695245656088545
  0.3978850016424289  0.5661042527603186  0.4530550315979980
  0.4492789415595837  0.3251414154526628  0.0112534050788753
  0.0405821426701038  0.0843964551755789  0.1017731375585527
  0.1316480908791533  0.8423269628690093  0.1847942050339668
  0.2966347362633144  0.3273175634454120  0.3510113496378082
  0.3791805803831920  0.0798514090971736  0.4348428176158521
  0.4763537955719386  0.8427607978467719  0.0058709950354867
  0.2945638591517650  0.8467313258749414  0.3548353558480031
  0.5322238911016299  0.6867748671879568  0.2638785102628987
  0.2572464176415110  0.6515687321883235  0.0979159544377168
  0.3769224715521986  0.3903976165618772  0.1861324633544115
  0.4633961855979720  0.1630885984353867  0.2727422556460724
  0.1380532302935364  0.6613482768462049  0.4310356925518306
  0.2204609359474574  0.4126604857896581  0.0106961911944339
  0.2918490852233120  0.1599354127354502  0.1014123426779676
  0.3881987573109740  0.9264924353352839  0.1989908674929382
  0.0425574738334049  0.4144530115785159  0.3526880091701869
  0.1279865305496202  0.1676475427987398  0.4338970182089739
  0.1983661485167474  0.9309124443853278  0.0113829226726949
  0.0499731873774749  0.9215808225570754  0.3524815640328569
  0.2164401466684254  0.5824814855866762  0.7669366196547003
  0.0328416555898201  0.6135080423318797  0.6017862855318938
  0.1287950981086610  0.3179550775227042  0.6995766164201456
  0.2116791307917154  0.0835706727666619  0.7720377592983851
  0.3781173337740285  0.5860739962876096  0.9360735431189511
  0.4492784756878905  0.3118924530954459  0.5106851666087735
  0.0410571806021736  0.0844051621573740  0.6037317291266575
  0.1309349321472197  0.8433804379338028  0.6865664458524137
  0.2942758937975967  0.3314383377830481  0.8525507586433818
  0.3763382034924092  0.0843513365566579  0.9346007698536809
  0.4790452525607378  0.8376679483221565  0.5066283854827773
  0.2913765293195709  0.8373657560129075  0.8559855554462033
  0.4695019131480862  0.6866735489353886  0.7866951419430492
  0.2619733008507481  0.6541651910588584  0.5940249372472977
  0.3716452329475075  0.3828344554449075  0.6842033555883944
  0.4608231905259146  0.1643207913795095  0.7728842980020261
  0.1323304346629754  0.6670207738382032  0.9342929496126828
  0.2231593436278629  0.4084648603057133  0.5085890618699764
  0.2897466517996889  0.1556474991625265  0.6016919494909061
  0.3835889285008065  0.9274841136685268  0.7005254334663178
  0.0409567400222883  0.4209891591138231  0.8523068755426593
  0.1264971071827077  0.1714480590755230  0.9348203578173155
  0.1978990979098754  0.9289021622524203  0.5098975942281996
  0.0473886554890512  0.9256366566051923  0.8535230987204514
  0.7376320578696109  0.5669296980109308  0.2766276907538838
  0.5073530620865085  0.6196805888003851  0.1017044949414796
  0.6317934375121581  0.3192287142582728  0.2000074853486282
  0.7143887997211920  0.0837682676325429  0.2719429431051807
  0.8873824933966006  0.5817601915004857  0.4411318952322816
  0.9499621175108359  0.3235597919411504  0.0119713646454898
  0.5411283604244232  0.0905627941782186  0.1019391155165152
  0.6385930032794249  0.8565145082028351  0.1795003487662470
  0.7992297891115996  0.3230703493302514  0.3548364712319909
  0.8789433816150662  0.0778788403493493  0.4358698106359782
  0.9705420100361124  0.8412304547689899  0.0081850598202280
  0.7945224910325805  0.8336859474217775  0.3554324725001621
  0.9727462516515573  0.6845887955858601  0.2868833415170542
  0.7418536452403401  0.6479181649045458  0.0995910035307972
  0.8769424430922683  0.3797160728088897  0.1856765269897878
  0.9630390790335213  0.1586774177128305  0.2736485963422979
  0.6388147324932092  0.6642726881093921  0.4354769782551102
  0.7194356392522963  0.4116043686507069  0.0112175811565436
  0.7909666756623395  0.1575444958416341  0.1015991254492050
  0.8867457679768620  0.9260495992528064  0.1999130152293205
  0.5467192672817873  0.4172301482131644  0.3522562430656606
  0.6288046548732353  0.1686176158204233  0.4351185840726330
  0.6991696002691157  0.9326996050645349  0.0084599607766407
  0.5512880392195925  0.9250006156376571  0.3521950340131994
  0.7175359008864746  0.5827038224151693  0.7682402749936657
  0.5357727151695642  0.6188322366583776  0.6049246747100057
  0.6275220782519781  0.3206457091312416  0.6967070445860202
  0.7116076324897307  0.0857896512766985  0.7717567029938834
  0.8763713558093400  0.5858917855668082  0.9376879588050002
  0.9499040332028699  0.3175559312465879  0.5121712823970341
  0.5417656436132319  0.0831978943916027  0.6039163970232053
  0.6333910336759061  0.8445505225561476  0.6865750263038350
  0.7937087785020012  0.3318962241978838  0.8526447245818716
  0.8763489737290939  0.0849241181036362  0.9344404619555462
  0.9772267388219760  0.8361999816275159  0.5081536168574345
  0.7906422397150408  0.8375085983309134  0.8560049101058240
  0.9697885113027382  0.6871103468472555  0.7887795015452070
  0.7669382443025228  0.6538718666382124  0.5977920276979418
  0.8720216774498581  0.3817722368900149  0.6861933944764687
  0.9614413916779228  0.1639509834893289  0.7739552943025743
  0.6308894552577797  0.6667132465976735  0.9334431001740384
  0.7243980118877431  0.4115528526778718  0.5100205667101037
  0.7903881564974711  0.1568625532177634  0.6020357204110027
  0.8843534088970273  0.9292213458622456  0.7024087325156358
  0.5409924780648154  0.4205523988293365  0.8511703400205022
  0.6257346228251350  0.1719131648933185  0.9342204782606203
  0.6996016685297448  0.9294909374879197  0.5102833992749396
  0.5472170808918548  0.9262850034011194  0.8511947695859163
 
  0.00000000E+00  0.00000000E+00  0.00000000E+00
  0.00000000E+00  0.00000000E+00  0.00000000E+00
  0.00000000E+00  0.00000000E+00  0.00000000E+00
  0.00000000E+00  0.00000000E+00  0.00000000E+00
  0.00000000E+00  0.00000000E+00  0.00000000E+00
  0.00000000E+00  0.00000000E+00  0.00000000E+00
  0.00000000E+00  0.00000000E+00  0.00000000E+00
  0.00000000E+00  0.00000000E+00  0.00000000E+00
  0.00000000E+00  0.00000000E+00  0.00000000E+00
  0.00000000E+00  0.00000000E+00  0.00000000E+00
  0.00000000E+00  0.00000000E+00  0.00000000E+00
  0.00000000E+00  0.00000000E+00  0.00000000E+00
  0.00000000E+00  0.00000000E+00  0.00000000E+00
  0.00000000E+00  0.00000000E+00  0.00000000E+00
  0.00000000E+00  0.00000000E+00  0.00000000E+00
  0.00000000E+00  0.00000000E+00  0.00000000E+00
  0.00000000E+00  0.00000000E+00  0.00000000E+00
  0.00000000E+00  0.00000000E+00  0.00000000E+00
  0.00000000E+00  0.00000000E+00  0.00000000E+00
  0.00000000E+00  0.00000000E+00  0.00000000E+00
  0.00000000E+00  0.00000000E+00  0.00000000E+00
  0.00000000E+00  0.00000000E+00  0.00000000E+00
  0.00000000E+00  0.00000000E+00  0.00000000E+00
  0.00000000E+00  0.00000000E+00  0.00000000E+00
  0.00000000E+00  0.00000000E+00  0.00000000E+00
  0.00000000E+00  0.00000000E+00  0.00000000E+00
  0.00000000E+00  0.00000000E+00  0.00000000E+00
  0.00000000E+00  0.00000000E+00  0.00000000E+00
  0.00000000E+00  0.00000000E+00  0.00000000E+00
  0.00000000E+00  0.00000000E+00  0.00000000E+00
  0.00000000E+00  0.00000000E+00  0.00000000E+00
  0.00000000E+00  0.00000000E+00  0.00000000E+00
  0.00000000E+00  0.00000000E+00  0.00000000E+00
  0.00000000E+00  0.00000000E+00  0.00000000E+00
  0.00000000E+00  0.00000000E+00  0.00000000E+00
  0.00000000E+00  0.00000000E+00  0.00000000E+00
  0.00000000E+00  0.00000000E+00  0.00000000E+00
  0.00000000E+00  0.00000000E+00  0.00000000E+00
  0.00000000E+00  0.00000000E+00  0.00000000E+00
  0.00000000E+00  0.00000000E+00  0.00000000E+00
  0.00000000E+00  0.00000000E+00  0.00000000E+00
  0.00000000E+00  0.00000000E+00  0.00000000E+00
  0.00000000E+00  0.00000000E+00  0.00000000E+00
  0.00000000E+00  0.00000000E+00  0.00000000E+00
  0.00000000E+00  0.00000000E+00  0.00000000E+00
  0.00000000E+00  0.00000000E+00  0.00000000E+00
  0.00000000E+00  0.00000000E+00  0.00000000E+00
  0.00000000E+00  0.00000000E+00  0.00000000E+00
  0.00000000E+00  0.00000000E+00  0.00000000E+00
  0.00000000E+00  0.00000000E+00  0.00000000E+00
  0.00000000E+00  0.00000000E+00  0.00000000E+00
  0.00000000E+00  0.00000000E+00  0.00000000E+00
  0.00000000E+00  0.00000000E+00  0.00000000E+00
  0.00000000E+00  0.00000000E+00  0.00000000E+00
  0.00000000E+00  0.00000000E+00  0.00000000E+00
  0.00000000E+00  0.00000000E+00  0.00000000E+00
  0.00000000E+00  0.00000000E+00  0.00000000E+00
  0.00000000E+00  0.00000000E+00  0.00000000E+00
  0.00000000E+00  0.00000000E+00  0.00000000E+00
  0.00000000E+00  0.00000000E+00  0.00000000E+00
  0.00000000E+00  0.00000000E+00  0.00000000E+00
  0.00000000E+00  0.00000000E+00  0.00000000E+00
  0.00000000E+00  0.00000000E+00  0.00000000E+00
  0.00000000E+00  0.00000000E+00  0.00000000E+00
  0.00000000E+00  0.00000000E+00  0.00000000E+00
  0.00000000E+00  0.00000000E+00  0.00000000E+00
  0.00000000E+00  0.00000000E+00  0.00000000E+00
  0.00000000E+00  0.00000000E+00  0.00000000E+00
  0.00000000E+00  0.00000000E+00  0.00000000E+00
  0.00000000E+00  0.00000000E+00  0.00000000E+00
  0.00000000E+00  0.00000000E+00  0.00000000E+00
  0.00000000E+00  0.00000000E+00  0.00000000E+00
  0.00000000E+00  0.00000000E+00  0.00000000E+00
  0.00000000E+00  0.00000000E+00  0.00000000E+00
  0.00000000E+00  0.00000000E+00  0.00000000E+00
  0.00000000E+00  0.00000000E+00  0.00000000E+00
  0.00000000E+00  0.00000000E+00  0.00000000E+00
  0.00000000E+00  0.00000000E+00  0.00000000E+00
  0.00000000E+00  0.00000000E+00  0.00000000E+00
  0.00000000E+00  0.00000000E+00  0.00000000E+00
  0.00000000E+00  0.00000000E+00  0.00000000E+00
  0.00000000E+00  0.00000000E+00  0.00000000E+00
  0.00000000E+00  0.00000000E+00  0.00000000E+00
  0.00000000E+00  0.00000000E+00  0.00000000E+00
  0.00000000E+00  0.00000000E+00  0.00000000E+00
  0.00000000E+00  0.00000000E+00  0.00000000E+00
  0.00000000E+00  0.00000000E+00  0.00000000E+00
  0.00000000E+00  0.00000000E+00  0.00000000E+00
  0.00000000E+00  0.00000000E+00  0.00000000E+00
  0.00000000E+00  0.00000000E+00  0.00000000E+00
  0.00000000E+00  0.00000000E+00  0.00000000E+00
  0.00000000E+00  0.00000000E+00  0.00000000E+00
  0.00000000E+00  0.00000000E+00  0.00000000E+00
  0.00000000E+00  0.00000000E+00  0.00000000E+00
  0.00000000E+00  0.00000000E+00  0.00000000E+00
  0.00000000E+00  0.00000000E+00  0.00000000E+00
  0.00000000E+00  0.00000000E+00  0.00000000E+00
  0.00000000E+00  0.00000000E+00  0.00000000E+00
  0.00000000E+00  0.00000000E+00  0.00000000E+00
  0.00000000E+00  0.00000000E+00  0.00000000E+00
  0.00000000E+00  0.00000000E+00  0.00000000E+00
  0.00000000E+00  0.00000000E+00  0.00000000E+00
  0.00000000E+00  0.00000000E+00  0.00000000E+00
  0.00000000E+00  0.00000000E+00  0.00000000E+00
  0.00000000E+00  0.00000000E+00  0.00000000E+00
  0.00000000E+00  0.00000000E+00  0.00000000E+00
  0.00000000E+00  0.00000000E+00  0.00000000E+00
  0.00000000E+00  0.00000000E+00  0.00000000E+00
  0.00000000E+00  0.00000000E+00  0.00000000E+00
  0.00000000E+00  0.00000000E+00  0.00000000E+00
  0.00000000E+00  0.00000000E+00  0.00000000E+00
  0.00000000E+00  0.00000000E+00  0.00000000E+00
  0.00000000E+00  0.00000000E+00  0.00000000E+00
  0.00000000E+00  0.00000000E+00  0.00000000E+00
  0.00000000E+00  0.00000000E+00  0.00000000E+00
  0.00000000E+00  0.00000000E+00  0.00000000E+00
  0.00000000E+00  0.00000000E+00  0.00000000E+00
  0.00000000E+00  0.00000000E+00  0.00000000E+00
  0.00000000E+00  0.00000000E+00  0.00000000E+00
  0.00000000E+00  0.00000000E+00  0.00000000E+00
  0.00000000E+00  0.00000000E+00  0.00000000E+00
  0.00000000E+00  0.00000000E+00  0.00000000E+00
  0.00000000E+00  0.00000000E+00  0.00000000E+00
  0.00000000E+00  0.00000000E+00  0.00000000E+00
  0.00000000E+00  0.00000000E+00  0.00000000E+00
  0.00000000E+00  0.00000000E+00  0.00000000E+00
  0.00000000E+00  0.00000000E+00  0.00000000E+00
  0.00000000E+00  0.00000000E+00  0.00000000E+00
  0.00000000E+00  0.00000000E+00  0.00000000E+00
  0.00000000E+00  0.00000000E+00  0.00000000E+00
  0.00000000E+00  0.00000000E+00  0.00000000E+00
  0.00000000E+00  0.00000000E+00  0.00000000E+00
  0.00000000E+00  0.00000000E+00  0.00000000E+00
  0.00000000E+00  0.00000000E+00  0.00000000E+00
  0.00000000E+00  0.00000000E+00  0.00000000E+00
  0.00000000E+00  0.00000000E+00  0.00000000E+00
  0.00000000E+00  0.00000000E+00  0.00000000E+00
  0.00000000E+00  0.00000000E+00  0.00000000E+00
  0.00000000E+00  0.00000000E+00  0.00000000E+00
  0.00000000E+00  0.00000000E+00  0.00000000E+00
  0.00000000E+00  0.00000000E+00  0.00000000E+00
  0.00000000E+00  0.00000000E+00  0.00000000E+00
  0.00000000E+00  0.00000000E+00  0.00000000E+00
  0.00000000E+00  0.00000000E+00  0.00000000E+00
  0.00000000E+00  0.00000000E+00  0.00000000E+00
  0.00000000E+00  0.00000000E+00  0.00000000E+00
  0.00000000E+00  0.00000000E+00  0.00000000E+00
  0.00000000E+00  0.00000000E+00  0.00000000E+00
  0.00000000E+00  0.00000000E+00  0.00000000E+00
  0.00000000E+00  0.00000000E+00  0.00000000E+00
  0.00000000E+00  0.00000000E+00  0.00000000E+00
  0.00000000E+00  0.00000000E+00  0.00000000E+00
  0.00000000E+00  0.00000000E+00  0.00000000E+00
  0.00000000E+00  0.00000000E+00  0.00000000E+00
  0.00000000E+00  0.00000000E+00  0.00000000E+00
  0.00000000E+00  0.00000000E+00  0.00000000E+00
  0.00000000E+00  0.00000000E+00  0.00000000E+00
  0.00000000E+00  0.00000000E+00  0.00000000E+00
  0.00000000E+00  0.00000000E+00  0.00000000E+00
  0.00000000E+00  0.00000000E+00  0.00000000E+00
  0.00000000E+00  0.00000000E+00  0.00000000E+00
  0.00000000E+00  0.00000000E+00  0.00000000E+00
  0.00000000E+00  0.00000000E+00  0.00000000E+00
  0.00000000E+00  0.00000000E+00  0.00000000E+00
  0.00000000E+00  0.00000000E+00  0.00000000E+00
  0.00000000E+00  0.00000000E+00  0.00000000E+00
  0.00000000E+00  0.00000000E+00  0.00000000E+00
  0.00000000E+00  0.00000000E+00  0.00000000E+00
  0.00000000E+00  0.00000000E+00  0.00000000E+00
  0.00000000E+00  0.00000000E+00  0.00000000E+00
  0.00000000E+00  0.00000000E+00  0.00000000E+00
  0.00000000E+00  0.00000000E+00  0.00000000E+00
  0.00000000E+00  0.00000000E+00  0.00000000E+00
  0.00000000E+00  0.00000000E+00  0.00000000E+00
  0.00000000E+00  0.00000000E+00  0.00000000E+00
  0.00000000E+00  0.00000000E+00  0.00000000E+00
  0.00000000E+00  0.00000000E+00  0.00000000E+00
  0.00000000E+00  0.00000000E+00  0.00000000E+00
  0.00000000E+00  0.00000000E+00  0.00000000E+00
  0.00000000E+00  0.00000000E+00  0.00000000E+00
  0.00000000E+00  0.00000000E+00  0.00000000E+00
  0.00000000E+00  0.00000000E+00  0.00000000E+00
  0.00000000E+00  0.00000000E+00  0.00000000E+00
  0.00000000E+00  0.00000000E+00  0.00000000E+00
  0.00000000E+00  0.00000000E+00  0.00000000E+00
  0.00000000E+00  0.00000000E+00  0.00000000E+00
  0.00000000E+00  0.00000000E+00  0.00000000E+00
  0.00000000E+00  0.00000000E+00  0.00000000E+00
  0.00000000E+00  0.00000000E+00  0.00000000E+00
  0.00000000E+00  0.00000000E+00  0.00000000E+00
  0.00000000E+00  0.00000000E+00  0.00000000E+00
