generated by phonopy                    
   1.00000000000000     
    10.0351470768999995   -0.0000022330999784   -0.0000001056124209
    -5.0175765436399997    8.6906901959899994    0.0000001395531216
    -0.0000001735893656    0.0000001431815548   14.9533752540999991
   Pb   Cu   P    O 
    20     1    11    50
Direct
  0.9542943827858252  0.7462405214608197  0.1234138396530682
  0.9963582438125016  0.7667425414171163  0.6233982343968734
  0.0038196956968619  0.2619850504969250  0.3688761655244335
  0.0026069975353806  0.2596445474449993  0.8783724418073362
  0.2097437579789201  0.2115140614131974  0.1235183710630494
  0.2314195774063066  0.2252260754253115  0.6238105511064092
  0.7521746247084309  0.7384746208369819  0.3598412968160929
  0.7506813945799067  0.7367865992386626  0.8873103934067643
  0.7497624261346871  0.9930980769431486  0.1235322574229514
  0.7762698256136105  0.0027997611879655  0.6234946091566016
  0.2575473939157931  0.9984470366602736  0.3701334300900001
  0.2566424197855355  0.9970834350850666  0.8772132732999722
  0.6594611129834718  0.3574678088913217  0.0065258294107906
  0.6705429553806610  0.3346580912465882  0.4993849348345378
  0.3375927120928779  0.6791655666989342  0.0087726123171095
  0.3460721741034121  0.6718433497094978  0.5023240478632900
  0.3393480259469328  0.6799714658376672  0.2391280713597084
  0.3455489477176172  0.6712587814454878  0.7453015939369010
  0.6577868883390323  0.3581108601593215  0.2412580675756502
  0.6689264454320281  0.3338580184532773  0.7488213361776914
  0.5792744250749848  0.5797322555854478  0.1232818649970824
  0.6257912564403938  0.5916377294602881  0.6238870225540865
  0.3724146869283942  0.4002653902202340  0.3759126083794797
  0.3706182772967423  0.3970497931590202  0.8728198202984672
  0.3780900050721385  0.0189504716705358  0.1235427435018721
  0.4101602223609646  0.0292948514499471  0.6241032472425800
  0.6114018983060774  0.9814039795452061  0.3784948456483050
  0.6107392477339317  0.9802027185362761  0.8690518596632657
  0.9795194752383409  0.3737903756515308  0.1241071253569928
  0.9778574601313323  0.3738153914831344  0.6241111044717371
  0.0324574157677162  0.6340141814442575  0.3823247070800022
  0.0324576130970371  0.6323729871335431  0.8652482234643628
  0.5094990089430240  0.7205850791684298  0.1236919633305860
  0.5051008240935246  0.6477691069435068  0.6236399257369669
  0.4705238806315464  0.3192963493716263  0.3764958424906055
  0.4690104083266462  0.3162641274273810  0.8726804783996442
  0.3108102680093765  0.8405536146722525  0.1238811124103805
  0.3575691934335978  0.8542939391263999  0.6241829747247394
  0.6992481611111714  0.1595311785878764  0.3838320642493258
  0.6986334717091722  0.1583128796346571  0.8632955598388250
  0.1519139413095161  0.5054029424419255  0.1240449461578237
  0.1521518267984661  0.4972176692733257  0.6239653019607445
  0.8547706003072832  0.5382393862722523  0.3889641939227459
  0.8547223577522232  0.5378228264537341  0.8587622596840987
  0.7303635989326480  0.6261810836025532  0.0204790778798980
  0.7313445386861446  0.6506285740041875  0.5396008600299567
  0.2677176620915276  0.3584228939200145  0.4605435348586937
  0.2626237722726472  0.3488536256588404  0.9562878487118809
  0.3123085128283591  0.0622907053935506  0.0398100351935824
  0.3485909575455537  0.0740382634219543  0.5396076897468163
  0.6237906823524995  0.9056360917048494  0.4666122194472351
  0.6727769380648283  0.9246246482383782  0.9483951981819416
  0.9452625963582406  0.2711051835024492  0.0393722187541741
  0.9329479154888034  0.2673015943753683  0.5396535662859279
  0.1079187019013617  0.7412943754940429  0.4652766198072840
  0.0864073679318977  0.7396143509486350  0.9491488217476345
  0.2646196148050777  0.3515934225496267  0.2923965274780258
  0.2654669452234160  0.3536574280588596  0.7882802759256720
  0.7288648301391731  0.6257041595698283  0.2272774798360402
  0.7313768637819535  0.6517317930947257  0.7080671074079419
  0.6731971492240163  0.9253570442954171  0.2992447011522898
  0.6230174387251779  0.9037499121536143  0.7812022029118637
  0.3156069105947736  0.0639873292631066  0.2081068779991924
  0.3478868697819735  0.0738689497368341  0.7084014023444212
  0.0852370153093318  0.7425726586742627  0.2990062599860650
  0.1080023419218819  0.7406769993319102  0.7826973048899930
  0.9460849205287545  0.2706853581222148  0.2085846326900267
  0.9341538954728534  0.2656314382460891  0.7077318255348288
  0.5192603412702681  0.3726897711751178  0.1232579570657037
  0.5396367951623802  0.4110897812989265  0.6241884108883369
  0.4821041425475414  0.5805677098718220  0.3745479718449687
  0.4804467641732515  0.5773718328276942  0.8735842533454701
  0.5556767182051985  0.1059191005837121  0.1223161408127069
  0.5903124554941144  0.1283240046225131  0.6243799456136330
  0.4337845464018031  0.9181425426336389  0.3605953162067337
  0.4331498453420721  0.9172416553127576  0.8868910535662877
  0.8701576046126220  0.4425925976704974  0.1245032357522646
  0.8764916609490143  0.4528381974902587  0.6249500035761173
  0.1001240150490190  0.5224920681632383  0.3760720448031449
  0.0990578727807119  0.5198356235869426  0.8701910896758207
  0.9723625263952584  0.9807984273059134  0.1234349182029675
  0.0029345592840500  0.9975874120397066  0.6222885719231002
 
  0.00000000E+00  0.00000000E+00  0.00000000E+00
  0.00000000E+00  0.00000000E+00  0.00000000E+00
  0.00000000E+00  0.00000000E+00  0.00000000E+00
  0.00000000E+00  0.00000000E+00  0.00000000E+00
  0.00000000E+00  0.00000000E+00  0.00000000E+00
  0.00000000E+00  0.00000000E+00  0.00000000E+00
  0.00000000E+00  0.00000000E+00  0.00000000E+00
  0.00000000E+00  0.00000000E+00  0.00000000E+00
  0.00000000E+00  0.00000000E+00  0.00000000E+00
  0.00000000E+00  0.00000000E+00  0.00000000E+00
  0.00000000E+00  0.00000000E+00  0.00000000E+00
  0.00000000E+00  0.00000000E+00  0.00000000E+00
  0.00000000E+00  0.00000000E+00  0.00000000E+00
  0.00000000E+00  0.00000000E+00  0.00000000E+00
  0.00000000E+00  0.00000000E+00  0.00000000E+00
  0.00000000E+00  0.00000000E+00  0.00000000E+00
  0.00000000E+00  0.00000000E+00  0.00000000E+00
  0.00000000E+00  0.00000000E+00  0.00000000E+00
  0.00000000E+00  0.00000000E+00  0.00000000E+00
  0.00000000E+00  0.00000000E+00  0.00000000E+00
  0.00000000E+00  0.00000000E+00  0.00000000E+00
  0.00000000E+00  0.00000000E+00  0.00000000E+00
  0.00000000E+00  0.00000000E+00  0.00000000E+00
  0.00000000E+00  0.00000000E+00  0.00000000E+00
  0.00000000E+00  0.00000000E+00  0.00000000E+00
  0.00000000E+00  0.00000000E+00  0.00000000E+00
  0.00000000E+00  0.00000000E+00  0.00000000E+00
  0.00000000E+00  0.00000000E+00  0.00000000E+00
  0.00000000E+00  0.00000000E+00  0.00000000E+00
  0.00000000E+00  0.00000000E+00  0.00000000E+00
  0.00000000E+00  0.00000000E+00  0.00000000E+00
  0.00000000E+00  0.00000000E+00  0.00000000E+00
  0.00000000E+00  0.00000000E+00  0.00000000E+00
  0.00000000E+00  0.00000000E+00  0.00000000E+00
  0.00000000E+00  0.00000000E+00  0.00000000E+00
  0.00000000E+00  0.00000000E+00  0.00000000E+00
  0.00000000E+00  0.00000000E+00  0.00000000E+00
  0.00000000E+00  0.00000000E+00  0.00000000E+00
  0.00000000E+00  0.00000000E+00  0.00000000E+00
  0.00000000E+00  0.00000000E+00  0.00000000E+00
  0.00000000E+00  0.00000000E+00  0.00000000E+00
  0.00000000E+00  0.00000000E+00  0.00000000E+00
  0.00000000E+00  0.00000000E+00  0.00000000E+00
  0.00000000E+00  0.00000000E+00  0.00000000E+00
  0.00000000E+00  0.00000000E+00  0.00000000E+00
  0.00000000E+00  0.00000000E+00  0.00000000E+00
  0.00000000E+00  0.00000000E+00  0.00000000E+00
  0.00000000E+00  0.00000000E+00  0.00000000E+00
  0.00000000E+00  0.00000000E+00  0.00000000E+00
  0.00000000E+00  0.00000000E+00  0.00000000E+00
  0.00000000E+00  0.00000000E+00  0.00000000E+00
  0.00000000E+00  0.00000000E+00  0.00000000E+00
  0.00000000E+00  0.00000000E+00  0.00000000E+00
  0.00000000E+00  0.00000000E+00  0.00000000E+00
  0.00000000E+00  0.00000000E+00  0.00000000E+00
  0.00000000E+00  0.00000000E+00  0.00000000E+00
  0.00000000E+00  0.00000000E+00  0.00000000E+00
  0.00000000E+00  0.00000000E+00  0.00000000E+00
  0.00000000E+00  0.00000000E+00  0.00000000E+00
  0.00000000E+00  0.00000000E+00  0.00000000E+00
  0.00000000E+00  0.00000000E+00  0.00000000E+00
  0.00000000E+00  0.00000000E+00  0.00000000E+00
  0.00000000E+00  0.00000000E+00  0.00000000E+00
  0.00000000E+00  0.00000000E+00  0.00000000E+00
  0.00000000E+00  0.00000000E+00  0.00000000E+00
  0.00000000E+00  0.00000000E+00  0.00000000E+00
  0.00000000E+00  0.00000000E+00  0.00000000E+00
  0.00000000E+00  0.00000000E+00  0.00000000E+00
  0.00000000E+00  0.00000000E+00  0.00000000E+00
  0.00000000E+00  0.00000000E+00  0.00000000E+00
  0.00000000E+00  0.00000000E+00  0.00000000E+00
  0.00000000E+00  0.00000000E+00  0.00000000E+00
  0.00000000E+00  0.00000000E+00  0.00000000E+00
  0.00000000E+00  0.00000000E+00  0.00000000E+00
  0.00000000E+00  0.00000000E+00  0.00000000E+00
  0.00000000E+00  0.00000000E+00  0.00000000E+00
  0.00000000E+00  0.00000000E+00  0.00000000E+00
  0.00000000E+00  0.00000000E+00  0.00000000E+00
  0.00000000E+00  0.00000000E+00  0.00000000E+00
  0.00000000E+00  0.00000000E+00  0.00000000E+00
  0.00000000E+00  0.00000000E+00  0.00000000E+00
  0.00000000E+00  0.00000000E+00  0.00000000E+00
