generated by phonopy                    
   1.00000000000000     
    10.0351470768999995   -0.0000022330999784   -0.0000001056124209
    -5.0175765436399997    8.6906901959899994    0.0000001395531216
    -0.0000001735893656    0.0000001431815548   14.9533752540999991
   Pb   P    O 
    19    12    50
Direct
  0.0020235754749081  0.7678536915260565  0.1145520368540858
  0.0042286676502528  0.7509887497094709  0.6140752649737848
  0.0049896264120335  0.2707667324389007  0.8765985086098382
  0.2521449592968921  0.2579094379199063  0.1376335107208888
  0.2409113605221194  0.2197088596360857  0.6191661739473346
  0.7392306868868133  0.7429753509686350  0.3579761570494924
  0.7347835291533755  0.7382505050208934  0.8699330132778300
  0.7780331627663202  0.0179433536622255  0.1299700813642488
  0.7518495240056140  0.9843542234557461  0.6064171832522760
  0.2691049716387255  0.0055711225452697  0.3688837015723863
  0.2561574841606529  0.9979254148700321  0.8689628496774162
  0.6573708591121772  0.3196125011139372  0.9980989340377207
  0.6665195172786227  0.3229139384908279  0.4959875906252122
  0.3561415751113444  0.6837642148740173  0.0037673409806445
  0.3192682019246860  0.6154850203070481  0.4956648863379058
  0.3113471782592967  0.6600061937720980  0.2510987513546752
  0.3241608165999210  0.6581614252541215  0.7445778820242523
  0.7035982406437569  0.3330067194203394  0.2534145471464271
  0.6632761568871501  0.3337985753365018  0.7530701392023147
  0.6156269517486308  0.5954080943419271  0.1245647397762824
  0.6236716110555420  0.5905851266720248  0.6326950265480562
  0.3796701841555361  0.3932249090779507  0.3655773675043434
  0.3715629780067147  0.3947947393917772  0.8816355765517585
  0.4030873123592613  0.0282311338264520  0.1193900434325599
  0.3895978529762019  0.0134754568719586  0.6227249047721131
  0.6035579343573261  0.9728218453399506  0.3700624214770230
  0.5963377240396284  0.9725799160769810  0.8747066061251019
  0.9834486246706717  0.3761774111733942  0.1205725407110521
  0.9727528142289898  0.3842599239739997  0.6327335161587087
  0.0240063533935526  0.6448080256926687  0.3818510352013291
  0.0190973168050661  0.6290021761710349  0.8690198228186716
  0.5130728110671754  0.6704556901183807  0.1254016711572490
  0.5193091397123695  0.6649451943923737  0.6290412371741496
  0.4936835495258620  0.3304388954806541  0.3697367761171861
  0.4834602114749131  0.3284835754334665  0.8768590713186697
  0.3192148892740576  0.8481776972095432  0.1235833573990348
  0.2797960777863580  0.8327188286741318  0.6239097200738186
  0.6593939296261411  0.1479288892227473  0.3717730826996331
  0.6665645494657824  0.1511441413330061  0.8780442501676191
  0.1629180250780209  0.4397256407779366  0.1258357459084110
  0.1517568676070269  0.4757102778891706  0.6247395026690725
  0.8475641549979329  0.5264797793631502  0.3806424494065794
  0.8424976110986790  0.5143864603338884  0.8721835702349736
  0.7190203938789921  0.6332779013074799  0.0399314250709324
  0.7543159492453455  0.6692964032504278  0.5598581844875881
  0.2882596852613446  0.3633849519424572  0.4545238988365909
  0.2700150776973445  0.3421289858064327  0.9679208118018749
  0.3816786073825753  0.0851796010793109  0.0259625123845595
  0.3556504510389615  0.0845538049598815  0.5375046282007645
  0.6495358157491893  0.9149367833659099  0.4552041954478554
  0.6199353177680820  0.9073886465067247  0.9650498998892800
  0.9119901165890809  0.2825559903207875  0.0327049926622038
  0.8952577448944723  0.2581348722663606  0.5605307264086221
  0.0664110572189927  0.7581775335256467  0.4648327743993832
  0.0702766966767783  0.7483284968270709  0.9478582889731513
  0.2658404518157482  0.3234953624357644  0.2849422775999315
  0.2617911285268519  0.3450001711663191  0.7987882684892256
  0.7274190484513525  0.6474531811394328  0.2067466705670711
  0.7033389997698904  0.6135533402872184  0.7261967651177841
  0.6658504553889912  0.9222995133563288  0.2881922861734765
  0.6672763073079579  0.9225924706661530  0.7979940243307837
  0.3314813814955713  0.0861455609729944  0.1935297226358088
  0.3579585755236039  0.0895568657681594  0.7060509580519678
  0.0728449680074661  0.7551124515537282  0.2985307756864728
  0.0728899146460691  0.7267529266011294  0.7804213174791244
  0.9000341393578566  0.2640749387498431  0.2007528504424911
  0.9197688242243132  0.3169879318755662  0.7276355735601570
  0.5077646064030930  0.4112473180423919  0.1283357693421934
  0.5298084289380185  0.4131115760663278  0.6139976574720123
  0.4711102072023223  0.5765654317666318  0.3534820851184861
  0.4685142304632706  0.5781574797938021  0.8812244570645973
  0.5802257969347266  0.1044045224491654  0.1377207171950943
  0.5616010677556744  0.0595066769851087  0.6224904956219532
  0.4207918666412311  0.8842100713671073  0.3626895200348130
  0.4154915717232939  0.8920568169270595  0.8594069485027447
  0.9509305454090935  0.5114241888383191  0.1283560548680924
  0.9077748120232485  0.5004563893089369  0.6139133579953651
  0.1206953885809554  0.5626469753406553  0.3831651851451667
  0.1110323339944586  0.5389159918921109  0.8769446228580762
  0.0394641617627727  0.0664573771143324  0.1163994790121592
  0.0249171821545318  0.9629885739557267  0.6308534311815919
 
  0.00000000E+00  0.00000000E+00  0.00000000E+00
  0.00000000E+00  0.00000000E+00  0.00000000E+00
  0.00000000E+00  0.00000000E+00  0.00000000E+00
  0.00000000E+00  0.00000000E+00  0.00000000E+00
  0.00000000E+00  0.00000000E+00  0.00000000E+00
  0.00000000E+00  0.00000000E+00  0.00000000E+00
  0.00000000E+00  0.00000000E+00  0.00000000E+00
  0.00000000E+00  0.00000000E+00  0.00000000E+00
  0.00000000E+00  0.00000000E+00  0.00000000E+00
  0.00000000E+00  0.00000000E+00  0.00000000E+00
  0.00000000E+00  0.00000000E+00  0.00000000E+00
  0.00000000E+00  0.00000000E+00  0.00000000E+00
  0.00000000E+00  0.00000000E+00  0.00000000E+00
  0.00000000E+00  0.00000000E+00  0.00000000E+00
  0.00000000E+00  0.00000000E+00  0.00000000E+00
  0.00000000E+00  0.00000000E+00  0.00000000E+00
  0.00000000E+00  0.00000000E+00  0.00000000E+00
  0.00000000E+00  0.00000000E+00  0.00000000E+00
  0.00000000E+00  0.00000000E+00  0.00000000E+00
  0.00000000E+00  0.00000000E+00  0.00000000E+00
  0.00000000E+00  0.00000000E+00  0.00000000E+00
  0.00000000E+00  0.00000000E+00  0.00000000E+00
  0.00000000E+00  0.00000000E+00  0.00000000E+00
  0.00000000E+00  0.00000000E+00  0.00000000E+00
  0.00000000E+00  0.00000000E+00  0.00000000E+00
  0.00000000E+00  0.00000000E+00  0.00000000E+00
  0.00000000E+00  0.00000000E+00  0.00000000E+00
  0.00000000E+00  0.00000000E+00  0.00000000E+00
  0.00000000E+00  0.00000000E+00  0.00000000E+00
  0.00000000E+00  0.00000000E+00  0.00000000E+00
  0.00000000E+00  0.00000000E+00  0.00000000E+00
  0.00000000E+00  0.00000000E+00  0.00000000E+00
  0.00000000E+00  0.00000000E+00  0.00000000E+00
  0.00000000E+00  0.00000000E+00  0.00000000E+00
  0.00000000E+00  0.00000000E+00  0.00000000E+00
  0.00000000E+00  0.00000000E+00  0.00000000E+00
  0.00000000E+00  0.00000000E+00  0.00000000E+00
  0.00000000E+00  0.00000000E+00  0.00000000E+00
  0.00000000E+00  0.00000000E+00  0.00000000E+00
  0.00000000E+00  0.00000000E+00  0.00000000E+00
  0.00000000E+00  0.00000000E+00  0.00000000E+00
  0.00000000E+00  0.00000000E+00  0.00000000E+00
  0.00000000E+00  0.00000000E+00  0.00000000E+00
  0.00000000E+00  0.00000000E+00  0.00000000E+00
  0.00000000E+00  0.00000000E+00  0.00000000E+00
  0.00000000E+00  0.00000000E+00  0.00000000E+00
  0.00000000E+00  0.00000000E+00  0.00000000E+00
  0.00000000E+00  0.00000000E+00  0.00000000E+00
  0.00000000E+00  0.00000000E+00  0.00000000E+00
  0.00000000E+00  0.00000000E+00  0.00000000E+00
  0.00000000E+00  0.00000000E+00  0.00000000E+00
  0.00000000E+00  0.00000000E+00  0.00000000E+00
  0.00000000E+00  0.00000000E+00  0.00000000E+00
  0.00000000E+00  0.00000000E+00  0.00000000E+00
  0.00000000E+00  0.00000000E+00  0.00000000E+00
  0.00000000E+00  0.00000000E+00  0.00000000E+00
  0.00000000E+00  0.00000000E+00  0.00000000E+00
  0.00000000E+00  0.00000000E+00  0.00000000E+00
  0.00000000E+00  0.00000000E+00  0.00000000E+00
  0.00000000E+00  0.00000000E+00  0.00000000E+00
  0.00000000E+00  0.00000000E+00  0.00000000E+00
  0.00000000E+00  0.00000000E+00  0.00000000E+00
  0.00000000E+00  0.00000000E+00  0.00000000E+00
  0.00000000E+00  0.00000000E+00  0.00000000E+00
  0.00000000E+00  0.00000000E+00  0.00000000E+00
  0.00000000E+00  0.00000000E+00  0.00000000E+00
  0.00000000E+00  0.00000000E+00  0.00000000E+00
  0.00000000E+00  0.00000000E+00  0.00000000E+00
  0.00000000E+00  0.00000000E+00  0.00000000E+00
  0.00000000E+00  0.00000000E+00  0.00000000E+00
  0.00000000E+00  0.00000000E+00  0.00000000E+00
  0.00000000E+00  0.00000000E+00  0.00000000E+00
  0.00000000E+00  0.00000000E+00  0.00000000E+00
  0.00000000E+00  0.00000000E+00  0.00000000E+00
  0.00000000E+00  0.00000000E+00  0.00000000E+00
  0.00000000E+00  0.00000000E+00  0.00000000E+00
  0.00000000E+00  0.00000000E+00  0.00000000E+00
  0.00000000E+00  0.00000000E+00  0.00000000E+00
  0.00000000E+00  0.00000000E+00  0.00000000E+00
  0.00000000E+00  0.00000000E+00  0.00000000E+00
  0.00000000E+00  0.00000000E+00  0.00000000E+00
