supercell of icsd_608626.cif            
   1.00000000000000     
     9.4905754415502415   -0.0080982260748321   -0.0005605901812201
    -4.7523006879824381    8.2150248597046076    0.0005602448472782
    -0.0005560710910021    0.0003205825546036    9.9198688032836788
   Al   Sc   N 
    32     4    36
Direct
  0.2243408306371037  0.1109575553995441  0.2528888547194086
  0.1102131865861296  0.2223150682330939  0.5013578256856306
  0.8875297737028447  0.1116014787594892  0.7485409281062232
  0.7787563915544595  0.2195538801451207  0.9991629389412608
  0.5551852981306524  0.1114811268680995  0.2475576252224130
  0.4451043994872492  0.2215622371464931  0.4986164666846946
  0.2254484682500788  0.1165734223669475  0.7457333635283590
  0.1079840954956595  0.2192768317365008  0.9959194182575430
  0.8850825119882799  0.1107083677269856  0.2493659243052377
  0.7765078800974550  0.2205230121148318  0.4984887027320468
  0.5554221307794052  0.1112442461128254  0.7488594996987885
  0.4425871229001785  0.2240803065624632  0.9994005212613288
  0.1118921021565171  0.5547744670732300  0.5009682706444423
  0.8913219495170424  0.4398952547889579  0.7453729401509506
  0.5557095098650180  0.4423262358059219  0.2528887922882461
  0.4443514019649797  0.5564531914157982  0.5013580871802432
  0.2223598997385068  0.4443066711703878  0.7512016980363398
  0.1125907650869138  0.5540758688736034  0.9963798138776951
  0.8861717299303322  0.4418293697934388  0.2526469551015680
  0.7769794756205286  0.5531633578823687  0.5044474368487073
  0.5500934627857461  0.4412183406217238  0.7457336365477545
  0.4473900106306488  0.5586823968350529  0.9959193838665783
  0.2248374570649858  0.7804948015436111  0.2526469767071475
  0.1135032528065523  0.8896868526835249  0.5044475432316275
  0.8863931765062176  0.7802735034458337  0.7443701727099139
  0.7727588155051919  0.8939071256507489  0.9968635786830902
  0.5559580986075616  0.7815839113927296  0.2493660412566712
  0.4461433168794926  0.8901584568076188  0.4984886612817121
  0.2267713919645686  0.7753447208255153  0.7453730440426298
  0.7761718562257158  0.8904942490288121  0.5024697759576640
  0.5550648159383371  0.7791365524264862  0.7485410039527096
  0.4471127142799887  0.8879100039941790  0.9991630269940970
  0.2226071038802147  0.4440603688422300  0.2387104374736566
  0.7737154252343998  0.5476971260524266  0.9880906039639399
  0.1189702242782857  0.8929525062840042  0.9880903243080681
  0.8873214305328219  0.7793461794935013  0.2490361317969914
  0.2221530709411255  0.1118676244583767  0.4459396215944622
  0.1007629422843408  0.2017292883562902  0.1876807512806167
  0.8875616253888126  0.1116752520647353  0.9392397597736917
  0.7756381521771090  0.2196032209715000  0.6894621098472484
  0.5554580662504947  0.1112085285860474  0.4397853131407530
  0.4435832061814224  0.2230835213847584  0.1931588985833201
  0.2308034710654638  0.1295549821731541  0.9339963622174352
  0.1096256142711667  0.2225517995551343  0.6928133181074188
  0.8887749535909180  0.1111461766216166  0.4420866788194431
  0.7780787710898878  0.2230598908777353  0.1923631355042374
  0.5546288450099226  0.1120377457385047  0.9432235870935770
  0.4455363673097850  0.2211303047932347  0.6888026358466774
  0.2225988158229555  0.4440676208979681  0.4492886802539147
  0.1013915209969554  0.5652749483015711  0.1882620757414557
  0.8989941876280554  0.4327071193622345  0.9340104432093455
  0.7769199684940560  0.5525280850648713  0.6992463444692660
  0.5547988869881664  0.4445134858800799  0.4459396145242849
  0.4649376895727215  0.5659036953931178  0.1876805653053495
  0.2230339021044259  0.4436325901715819  0.9488154781833487
  0.1122485705161509  0.5544179892879058  0.6911364303217695
  0.8893157249530574  0.4435805965897472  0.4456845249053600
  0.7698001085523103  0.5392935177389901  0.1977710471340117
  0.5371127622083449  0.4358636750122074  0.9339966165451585
  0.4441144885817323  0.5570405195327339  0.6928135061170053
  0.2230858945809544  0.7773507829813155  0.4456844271185005
  0.1273739994437619  0.8968672921836074  0.1977705853324920
  0.8797607445345577  0.7869065208828090  0.9369182398692288
  0.7755543295852121  0.8911120357978817  0.6919391463680142
  0.5555201900549989  0.7778914458020552  0.4420868236560622
  0.4436065681582519  0.8885876744729728  0.1923631949341313
  0.2339592392207166  0.7676726839295256  0.9340105668453660
  0.1141385149606577  0.8897466859227237  0.6992464812435557
  0.8887677529185751  0.7778990115832798  0.4603066106973586
  0.7679554158152087  0.8987115346332644  0.1873081562687986
  0.5549910234038364  0.7791048155833451  0.9392397306542364
  0.4470631387338599  0.8910282915090448  0.6894621324477441
 
  0.00000000E+00  0.00000000E+00  0.00000000E+00
  0.00000000E+00  0.00000000E+00  0.00000000E+00
  0.00000000E+00  0.00000000E+00  0.00000000E+00
  0.00000000E+00  0.00000000E+00  0.00000000E+00
  0.00000000E+00  0.00000000E+00  0.00000000E+00
  0.00000000E+00  0.00000000E+00  0.00000000E+00
  0.00000000E+00  0.00000000E+00  0.00000000E+00
  0.00000000E+00  0.00000000E+00  0.00000000E+00
  0.00000000E+00  0.00000000E+00  0.00000000E+00
  0.00000000E+00  0.00000000E+00  0.00000000E+00
  0.00000000E+00  0.00000000E+00  0.00000000E+00
  0.00000000E+00  0.00000000E+00  0.00000000E+00
  0.00000000E+00  0.00000000E+00  0.00000000E+00
  0.00000000E+00  0.00000000E+00  0.00000000E+00
  0.00000000E+00  0.00000000E+00  0.00000000E+00
  0.00000000E+00  0.00000000E+00  0.00000000E+00
  0.00000000E+00  0.00000000E+00  0.00000000E+00
  0.00000000E+00  0.00000000E+00  0.00000000E+00
  0.00000000E+00  0.00000000E+00  0.00000000E+00
  0.00000000E+00  0.00000000E+00  0.00000000E+00
  0.00000000E+00  0.00000000E+00  0.00000000E+00
  0.00000000E+00  0.00000000E+00  0.00000000E+00
  0.00000000E+00  0.00000000E+00  0.00000000E+00
  0.00000000E+00  0.00000000E+00  0.00000000E+00
  0.00000000E+00  0.00000000E+00  0.00000000E+00
  0.00000000E+00  0.00000000E+00  0.00000000E+00
  0.00000000E+00  0.00000000E+00  0.00000000E+00
  0.00000000E+00  0.00000000E+00  0.00000000E+00
  0.00000000E+00  0.00000000E+00  0.00000000E+00
  0.00000000E+00  0.00000000E+00  0.00000000E+00
  0.00000000E+00  0.00000000E+00  0.00000000E+00
  0.00000000E+00  0.00000000E+00  0.00000000E+00
  0.00000000E+00  0.00000000E+00  0.00000000E+00
  0.00000000E+00  0.00000000E+00  0.00000000E+00
  0.00000000E+00  0.00000000E+00  0.00000000E+00
  0.00000000E+00  0.00000000E+00  0.00000000E+00
  0.00000000E+00  0.00000000E+00  0.00000000E+00
  0.00000000E+00  0.00000000E+00  0.00000000E+00
  0.00000000E+00  0.00000000E+00  0.00000000E+00
  0.00000000E+00  0.00000000E+00  0.00000000E+00
  0.00000000E+00  0.00000000E+00  0.00000000E+00
  0.00000000E+00  0.00000000E+00  0.00000000E+00
  0.00000000E+00  0.00000000E+00  0.00000000E+00
  0.00000000E+00  0.00000000E+00  0.00000000E+00
  0.00000000E+00  0.00000000E+00  0.00000000E+00
  0.00000000E+00  0.00000000E+00  0.00000000E+00
  0.00000000E+00  0.00000000E+00  0.00000000E+00
  0.00000000E+00  0.00000000E+00  0.00000000E+00
  0.00000000E+00  0.00000000E+00  0.00000000E+00
  0.00000000E+00  0.00000000E+00  0.00000000E+00
  0.00000000E+00  0.00000000E+00  0.00000000E+00
  0.00000000E+00  0.00000000E+00  0.00000000E+00
  0.00000000E+00  0.00000000E+00  0.00000000E+00
  0.00000000E+00  0.00000000E+00  0.00000000E+00
  0.00000000E+00  0.00000000E+00  0.00000000E+00
  0.00000000E+00  0.00000000E+00  0.00000000E+00
  0.00000000E+00  0.00000000E+00  0.00000000E+00
  0.00000000E+00  0.00000000E+00  0.00000000E+00
  0.00000000E+00  0.00000000E+00  0.00000000E+00
  0.00000000E+00  0.00000000E+00  0.00000000E+00
  0.00000000E+00  0.00000000E+00  0.00000000E+00
  0.00000000E+00  0.00000000E+00  0.00000000E+00
  0.00000000E+00  0.00000000E+00  0.00000000E+00
  0.00000000E+00  0.00000000E+00  0.00000000E+00
  0.00000000E+00  0.00000000E+00  0.00000000E+00
  0.00000000E+00  0.00000000E+00  0.00000000E+00
  0.00000000E+00  0.00000000E+00  0.00000000E+00
  0.00000000E+00  0.00000000E+00  0.00000000E+00
  0.00000000E+00  0.00000000E+00  0.00000000E+00
  0.00000000E+00  0.00000000E+00  0.00000000E+00
  0.00000000E+00  0.00000000E+00  0.00000000E+00
  0.00000000E+00  0.00000000E+00  0.00000000E+00
