generated by phonopy                    
   1.00000000000000     
    10.0351470768999995   -0.0000022330999784   -0.0000001056124209
    -5.0175765436399997    8.6906901959899994    0.0000001395531216
    -0.0000001735893656    0.0000001431815548   14.9533752540999991
   Cu   Pb   P    O 
     1    19    12    50
Direct
  0.9052103032552878  0.8220341946994054  0.0772883270026270
  0.9990956225507333  0.7685037030079656  0.6213974143290244
  0.0058095878319548  0.2586327903480097  0.3757762921106433
  0.0050017464180314  0.2599157727228487  0.8743704797414367
  0.2306645053002043  0.2265197358643505  0.1226046119483755
  0.2310177279326808  0.2231496387888825  0.6232634893433229
  0.7356203680967468  0.7373442716570153  0.3682777798425789
  0.7343126267144342  0.7393066547709779  0.8706429814904268
  0.7704080216763103  0.0114289871339608  0.1256003201238443
  0.7775561010974883  0.0022730655993399  0.6229201677974245
  0.2579485056183017  0.9922211332841542  0.3637728164913554
  0.2569623263294289  0.9925900608774825  0.8818513561279389
  0.6788569223570491  0.3440233209602681  0.0030563095577349
  0.6643111179877508  0.3303594218272821  0.5012199821805368
  0.3280027602663438  0.6700601589350157  0.0049487420841103
  0.3415402178167284  0.6717021447647369  0.5041892984423555
  0.3200295351881834  0.6657143266575289  0.2436709308179630
  0.3300004877723168  0.6653118514460772  0.7442417682135201
  0.6766616833817238  0.3477359845069543  0.2467347140079283
  0.6645969367875040  0.3294897656696563  0.7485429971696220
  0.6103931378135528  0.5799589964869583  0.1271503694056548
  0.6248437072425403  0.5942427949022715  0.6251809848785399
  0.3684255535177030  0.3949266616511409  0.3760050395331334
  0.3676203411869636  0.3941102321393757  0.8738219364461131
  0.4076132813770101  0.0286267732705383  0.1241298623490579
  0.4087525512753487  0.0306279161243594  0.6247593803114597
  0.6093219525408955  0.9751532500133990  0.3759929135682896
  0.6072986400714271  0.9732890091988935  0.8740295584470346
  0.9710990249768869  0.3825725981648418  0.1248721221312437
  0.9732743051039137  0.3743823541598132  0.6247410860239668
  0.0333357400074448  0.6304888577011099  0.3776270181124630
  0.0313196888375060  0.6321008124047509  0.8715965744968059
  0.4916821984434350  0.6358071630475663  0.1212617526494526
  0.5013914029021365  0.6455900953220350  0.6245046186610210
  0.4727535383971997  0.3214861297909550  0.3747003098491959
  0.4711305303225046  0.3199907379107714  0.8737148589404242
  0.3671353364496284  0.8568608727903282  0.1248093981318874
  0.3559084737350702  0.8553798202165410  0.6248377423242673
  0.6868277137764665  0.1531120058738225  0.3781147732388703
  0.6854746578407216  0.1512683236722836  0.8715202449130146
  0.1472026016367138  0.5024117187994364  0.1238373465144136
  0.1475948263981763  0.4991421688763680  0.6243175864217676
  0.8549436579683842  0.5338324492819240  0.3738523963646472
  0.8530042006963328  0.5347214243045926  0.8724507440377920
  0.7237050848064328  0.6396348335427859  0.0439018478957962
  0.7328267891754976  0.6572537240125840  0.5416742038288689
  0.2591878075786838  0.3440737279212627  0.4593131588050312
  0.2592199807028521  0.3460709000067439  0.9573692444476194
  0.3414359427729181  0.0682294676546746  0.0398724002592488
  0.3487277389382868  0.0758742235468475  0.5398930608166950
  0.6445727636299310  0.9072918568424271  0.4610823706304430
  0.6528117339759163  0.9133687223686096  0.9584466531848648
  0.9257779831887234  0.2764863149833090  0.0398261972232845
  0.9302051463571743  0.2667034633318153  0.5407365890419626
  0.0916654931535987  0.7386978720175108  0.4610275670138577
  0.0984467157201365  0.7384802897805116  0.9552498923445114
  0.2619273843284660  0.3508750182350511  0.2919076271440773
  0.2599402109840199  0.3490440094067466  0.7900438302184583
  0.6991024540614745  0.6272484511417886  0.2174928616397622
  0.7288923647489867  0.6559462432286551  0.7107492684431875
  0.6636307550038296  0.9176258804846071  0.2937907958483663
  0.6510573951033365  0.9072453522541721  0.7909581223950184
  0.3449233181018982  0.0704837418628728  0.2090191417692537
  0.3486238064006741  0.0760264602375358  0.7095077876887004
  0.1065842970629518  0.7350441000392607  0.2937052693480169
  0.0945216451092961  0.7379630305603229  0.7872384596192461
  0.9291250483486664  0.2773747339278358  0.2099157162271652
  0.9304569033284693  0.2680993159084366  0.7092161655837046
  0.5335331150272253  0.4001798614137897  0.1205713582131622
  0.5450964150108035  0.4140179450649129  0.6250328175570914
  0.4722685972061669  0.5768264546343858  0.3798276024889731
  0.4720401079436485  0.5761589930391153  0.8741556883012436
  0.5876165934221476  0.1351013742697234  0.1229091491402201
  0.5898149302609283  0.1294338665518495  0.6246393114336968
  0.4280627148342546  0.9004380209204328  0.3702697750865696
  0.4258270162013602  0.8993337140499378  0.8737960472146611
  0.8725076576843733  0.4632415461574837  0.1252686193740900
  0.8712639056099434  0.4524808438570460  0.6243011572780546
  0.1030248042582613  0.5192876360373617  0.3819854189039376
  0.1018634270953882  0.5211396641690200  0.8705312952461668
  0.0009920378684427  0.0143337201763529  0.1228507213771621
  0.0020880830909817  0.9974841080759660  0.6209549927722051
 
  0.00000000E+00  0.00000000E+00  0.00000000E+00
  0.00000000E+00  0.00000000E+00  0.00000000E+00
  0.00000000E+00  0.00000000E+00  0.00000000E+00
  0.00000000E+00  0.00000000E+00  0.00000000E+00
  0.00000000E+00  0.00000000E+00  0.00000000E+00
  0.00000000E+00  0.00000000E+00  0.00000000E+00
  0.00000000E+00  0.00000000E+00  0.00000000E+00
  0.00000000E+00  0.00000000E+00  0.00000000E+00
  0.00000000E+00  0.00000000E+00  0.00000000E+00
  0.00000000E+00  0.00000000E+00  0.00000000E+00
  0.00000000E+00  0.00000000E+00  0.00000000E+00
  0.00000000E+00  0.00000000E+00  0.00000000E+00
  0.00000000E+00  0.00000000E+00  0.00000000E+00
  0.00000000E+00  0.00000000E+00  0.00000000E+00
  0.00000000E+00  0.00000000E+00  0.00000000E+00
  0.00000000E+00  0.00000000E+00  0.00000000E+00
  0.00000000E+00  0.00000000E+00  0.00000000E+00
  0.00000000E+00  0.00000000E+00  0.00000000E+00
  0.00000000E+00  0.00000000E+00  0.00000000E+00
  0.00000000E+00  0.00000000E+00  0.00000000E+00
  0.00000000E+00  0.00000000E+00  0.00000000E+00
  0.00000000E+00  0.00000000E+00  0.00000000E+00
  0.00000000E+00  0.00000000E+00  0.00000000E+00
  0.00000000E+00  0.00000000E+00  0.00000000E+00
  0.00000000E+00  0.00000000E+00  0.00000000E+00
  0.00000000E+00  0.00000000E+00  0.00000000E+00
  0.00000000E+00  0.00000000E+00  0.00000000E+00
  0.00000000E+00  0.00000000E+00  0.00000000E+00
  0.00000000E+00  0.00000000E+00  0.00000000E+00
  0.00000000E+00  0.00000000E+00  0.00000000E+00
  0.00000000E+00  0.00000000E+00  0.00000000E+00
  0.00000000E+00  0.00000000E+00  0.00000000E+00
  0.00000000E+00  0.00000000E+00  0.00000000E+00
  0.00000000E+00  0.00000000E+00  0.00000000E+00
  0.00000000E+00  0.00000000E+00  0.00000000E+00
  0.00000000E+00  0.00000000E+00  0.00000000E+00
  0.00000000E+00  0.00000000E+00  0.00000000E+00
  0.00000000E+00  0.00000000E+00  0.00000000E+00
  0.00000000E+00  0.00000000E+00  0.00000000E+00
  0.00000000E+00  0.00000000E+00  0.00000000E+00
  0.00000000E+00  0.00000000E+00  0.00000000E+00
  0.00000000E+00  0.00000000E+00  0.00000000E+00
  0.00000000E+00  0.00000000E+00  0.00000000E+00
  0.00000000E+00  0.00000000E+00  0.00000000E+00
  0.00000000E+00  0.00000000E+00  0.00000000E+00
  0.00000000E+00  0.00000000E+00  0.00000000E+00
  0.00000000E+00  0.00000000E+00  0.00000000E+00
  0.00000000E+00  0.00000000E+00  0.00000000E+00
  0.00000000E+00  0.00000000E+00  0.00000000E+00
  0.00000000E+00  0.00000000E+00  0.00000000E+00
  0.00000000E+00  0.00000000E+00  0.00000000E+00
  0.00000000E+00  0.00000000E+00  0.00000000E+00
  0.00000000E+00  0.00000000E+00  0.00000000E+00
  0.00000000E+00  0.00000000E+00  0.00000000E+00
  0.00000000E+00  0.00000000E+00  0.00000000E+00
  0.00000000E+00  0.00000000E+00  0.00000000E+00
  0.00000000E+00  0.00000000E+00  0.00000000E+00
  0.00000000E+00  0.00000000E+00  0.00000000E+00
  0.00000000E+00  0.00000000E+00  0.00000000E+00
  0.00000000E+00  0.00000000E+00  0.00000000E+00
  0.00000000E+00  0.00000000E+00  0.00000000E+00
  0.00000000E+00  0.00000000E+00  0.00000000E+00
  0.00000000E+00  0.00000000E+00  0.00000000E+00
  0.00000000E+00  0.00000000E+00  0.00000000E+00
  0.00000000E+00  0.00000000E+00  0.00000000E+00
  0.00000000E+00  0.00000000E+00  0.00000000E+00
  0.00000000E+00  0.00000000E+00  0.00000000E+00
  0.00000000E+00  0.00000000E+00  0.00000000E+00
  0.00000000E+00  0.00000000E+00  0.00000000E+00
  0.00000000E+00  0.00000000E+00  0.00000000E+00
  0.00000000E+00  0.00000000E+00  0.00000000E+00
  0.00000000E+00  0.00000000E+00  0.00000000E+00
  0.00000000E+00  0.00000000E+00  0.00000000E+00
  0.00000000E+00  0.00000000E+00  0.00000000E+00
  0.00000000E+00  0.00000000E+00  0.00000000E+00
  0.00000000E+00  0.00000000E+00  0.00000000E+00
  0.00000000E+00  0.00000000E+00  0.00000000E+00
  0.00000000E+00  0.00000000E+00  0.00000000E+00
  0.00000000E+00  0.00000000E+00  0.00000000E+00
  0.00000000E+00  0.00000000E+00  0.00000000E+00
  0.00000000E+00  0.00000000E+00  0.00000000E+00
  0.00000000E+00  0.00000000E+00  0.00000000E+00
