Ge   O    Li
1.0
  -4.900848388558529 -2.800979174962364 -0.0340308973685204
  0.0006906880965356 5.601360127775905 -3.05592387571e-05
  0.0259775957292416 -2.98894746065e-05 -4.93129154651352
 Ge  O  Li 
2 6 4 
direct
   -0.0000055423292024   0.8115296366237779   0.1464696533732400
   -0.0000411326712746   0.1760661906459937   0.5249918396883476
   -0.9998855212006325   0.1365016694071692   0.1150427543909341
   -0.0001175921548905   0.8476526588555099   0.5316511207625386
   -0.6964709326305258   0.8288196047635662   0.0538259549610393
   -0.3033596078045797   0.5253958810177050   0.0539484754974270
   -0.6889374122575413   0.4691114022831324   0.5648635510775603
   -0.3110993079688663   0.1581204554063062   0.5650353884943838
   -0.6459757788408220   0.5137256563538362   0.1267471980044440
   -0.3538775454774984   0.1596831366771516   0.1269178581236318
   -0.6551255590839350   0.8258685977993011   0.6572724447165799
   -0.3450874543202548   0.4809048587568656   0.6574847855972337
