Ge   O    Li
1.0
  -4.884629012189606 -2.7876102013314443 -0.0271265662136021
  0.0004825761922048 5.57513898161153 -3.16760809024e-05
  0.0252943127327256 -3.13644962734e-05 -4.93129770807571
 Ge  O  Li 
2 6 4 
direct
    0.0000031444652356   0.8177529381380574   0.1430720037106306
   -0.0000265649356852   0.1725132076824989   0.6305544148816533
   -0.9999689982732954   0.1319215932041829   0.0272413010106259
   -0.0000576251344344   0.8568693500411161   0.5192240522775348
   -0.6964906400536354   0.8290016241026767   0.0529636103571075
   -0.3034460014757001   0.5254927003143600   0.0530227788397892
   -0.6924944714507655   0.4654688546234850   0.5553389310650957
   -0.3074438976477161   0.1580072144582370   0.5554418319431168
   -0.6507298018001209   0.5098001217018132   0.1386177798681684
   -0.3492161908226407   0.1605138801666580   0.1387440076265982
   -0.6536895597115475   0.8262184599531676   0.6549460982606916
   -0.3464227798997181   0.4798198042040647   0.6550842148464103
