Ge   O    Li                            
   1.00000000000000     
     0.0257923640027708   -0.0000291519637731   -4.9312884657324201
    -0.0079233392832509    5.6104937879834580   -0.0000300008176844
     4.9002987652607128    2.7983497284390264    0.0502917053668469
   Ge   O    Li
     2     6     4
Direct
  0.1536880625446100  0.8090843816413170  0.0000998067019781
  0.5183243012141981  0.1767163597408039  0.0021946800874931
  0.1302996589451942  0.1360548688708054  0.0031980982959002
  0.5354316164931051  0.8464616912329981  0.0005390221043575
  0.0555835567240238  0.8293307250615118  0.6969155912714697
  0.0565721294808033  0.5277498221839352  0.3028300682730787
  0.5688041285343006  0.4676227876483579  0.6910979353437888
  0.6007913054013351  0.1570365284752260  0.3079081639781047
  0.1236869608672023  0.5158057986093374  0.6444858127733052
  0.0697333286992448  0.1606366722945016  0.3469282216338418
  0.6556726829738476  0.8228494451827614  0.6585763351902649
  0.6556632930160063  0.4840306676482678  0.3452096510874882
 
             NaN             NaN             NaN
             NaN             NaN             NaN
             NaN             NaN             NaN
             NaN             NaN             NaN
             NaN             NaN             NaN
             NaN             NaN             NaN
             NaN             NaN             NaN
             NaN             NaN             NaN
             NaN             NaN             NaN
             NaN             NaN             NaN
             NaN             NaN             NaN
             NaN             NaN             NaN
