Ge   O    Li
1.0
  -4.901053961904251 -2.800890903549131 -0.0319316793517531
  0.000786263493727 5.601549098351326 -2.77671333936e-05
  0.0238179309366549 -2.62019204394e-05 -4.93127614260803
 Ge  O  Li 
2 6 4 
direct
   -0.9999611468181662   0.8127916688920249   0.1627386334257097
   -0.9999919779380071   0.1774540856739745   0.5407878791093474
   -0.9998768199375659   0.1412682555690111   0.1556669088450816
   -0.0001139360007014   0.8523967997876326   0.5719938794102895
   -0.6889058338066740   0.8307647082282509   0.1222188456538870
   -0.3110212390428760   0.5198082144536909   0.1224160442797240
   -0.6966539321220095   0.4634759370734090   0.6334154997136896
   -0.3035311681018399   0.1600710320317895   0.6335394581380430
   -0.6549217232669013   0.5079615215453278   0.0299091619310322
   -0.3448563142168030   0.1630334689510278   0.0301215500313030
   -0.6460904652162991   0.8292129077854732   0.5606634796622776
   -0.3540588302809325   0.4751411485952293   0.5607796947465077
