Ge   O    Li                            
   1.00000000000000     
     0.0254385238304175   -0.0000306269854400   -4.9312946272946103
     0.0006501025977048    5.5921973539743997   -0.0000311176598297
     4.8955636725112113    2.7963212145276954    0.0308329044579647
   Ge   O    Li
     2     6     4
Direct
  0.1417827645753723  0.8170771105938303  1.0000030369092763
  0.5793383306348038  0.1739467271176883  0.0000366831824063
  0.0719248440182114  0.1342988027244742  0.9999332630717694
  0.5267834553377735  0.8515259794570809  0.0000908920179722
  0.0539239017659443  0.8280219114247679  0.6966486313491629
  0.0540224062583511  0.5247247941780886  0.3032232247391007
  0.5599358099347206  0.4688194837085631  0.6889578102628544
  0.5600894685575450  0.1578414274481798  0.3110067187675539
  0.1308009781926358  0.5104243482148803  0.6492662765556183
  0.1309539998613889  0.1596662358301747  0.3506434076729459
  0.6572524753016797  0.8260466799624887  0.6550378476006512
  0.6574425902489236  0.4809862479300968  0.3451355946107122
 
             NaN             NaN             NaN
             NaN             NaN             NaN
             NaN             NaN             NaN
             NaN             NaN             NaN
             NaN             NaN             NaN
             NaN             NaN             NaN
             NaN             NaN             NaN
             NaN             NaN             NaN
             NaN             NaN             NaN
             NaN             NaN             NaN
             NaN             NaN             NaN
             NaN             NaN             NaN
