Ge   O    Li
1.0
  -4.895741251676957 -2.7962181846097276 -0.028682245651125
  0.0007364646577846 5.59237028889557 -2.7208712321e-05
  0.0232029769989425 -2.54644096059e-05 -4.93127306182693
 Ge  O  Li 
2 6 4 
direct
   -0.9999435666205890   0.8149284045838601   0.1084466232075279
   -1.0000069740225173   0.1718342427038580   0.5455630312433470
   -0.9999040797736748   0.1373882205285042   0.1605152382170913
   -0.0000675672793703   0.8545965132592959   0.6150868027528262
   -0.6889712540086850   0.8310460854600693   0.1271820212285968
   -0.3110485509014749   0.5200581491324859   0.1273591741515956
   -0.6967879047850973   0.4641710260517137   0.6333315181949887
   -0.3033419126756136   0.1608938684729821   0.6334271121043205
   -0.6548922271024900   0.5078454528221343   0.0299341222096323
   -0.3449276008730245   0.1628581255522883   0.0301186491850327
   -0.6493732854217020   0.8292494238934072   0.5565921930843972
   -0.3507184632845294   0.4785102361262397   0.5566945493675420
