Ge   O    Li
1.0
  -4.895563672511211 -2.7963212145276954 -0.0308329044579647
  0.0006501025977048 5.5921973539744 -3.11176598297e-05
  0.0254385238304175 -3.062698544e-05 -4.93129462729461
 Ge  O  Li 
2 6 4 
direct
   -1.0000030369092763   0.8170771105938301   0.1417827645753723
   -0.0000366831824063   0.1739467271176883   0.5793383306348038
   -0.9999332630717693   0.1342988027244742   0.0719248440182114
   -0.0000908920179722   0.8515259794570809   0.5267834553377736
   -0.6966486313491628   0.8280219114247678   0.0539239017659443
   -0.3032232247391007   0.5247247941780887   0.0540224062583511
   -0.6889578102628543   0.4688194837085632   0.5599358099347206
   -0.3110067187675540   0.1578414274481798   0.5600894685575452
   -0.6492662765556183   0.5104243482148803   0.1308009781926358
   -0.3506434076729459   0.1596662358301747   0.1309539998613889
   -0.6550378476006511   0.8260466799624886   0.6572524753016797
   -0.3451355946107122   0.4809862479300968   0.6574425902489236
