Ge   O    Li                            
   1.00000000000000     
     0.0400466648454569   -0.0000276769421062   -4.9312823041702201
    -0.0054361461326761    5.6096272461978325   -0.0000288839755390
     4.8982602675671911    2.8006127047290676    0.0625237256195291
   Ge   O    Li
     2     6     4
Direct
  0.1635099034374083  0.8112817335373145  0.9986756611100209
  0.5291051306646983  0.1787945564287435  0.9999171195717109
  0.1486225870262984  0.1431539326714749  0.9993540617721075
  0.5469158785453417  0.8490289430102327  0.9976144071082057
  0.0669147211900322  0.8332269742668226  0.6948012489040666
  0.0853572621283839  0.5260124758467735  0.3058119390181632
  0.6276339096218347  0.4597839295167657  0.6975557212331813
  0.6282864633979001  0.1564980546012138  0.3035093607315615
  0.0341561992408350  0.5030911125006466  0.6577141881714818
  0.0340660191390809  0.1651823015650037  0.3393687212350678
  0.6469469278449731  0.8268765340110675  0.6588975234526491
  0.6127360320443566  0.4804492006330556  0.3467634344358357
 
             NaN             NaN             NaN
             NaN             NaN             NaN
             NaN             NaN             NaN
             NaN             NaN             NaN
             NaN             NaN             NaN
             NaN             NaN             NaN
             NaN             NaN             NaN
             NaN             NaN             NaN
             NaN             NaN             NaN
             NaN             NaN             NaN
             NaN             NaN             NaN
             NaN             NaN             NaN
