Ge   O    Li
1.0
  -4.86165817056191 -2.7702133197184597 2.54141592218e-05
  7.4931962869e-06 5.54040369909744 -3.27929230478e-05
  -1.21744317726e-05 -3.28395179403e-05 -4.93130386963791
 Ge  O  Li 
2 6 4 
direct
   -0.9999974586308297   0.8156291318624938   0.1807765215697401
   -0.9999969903330026   0.1732773667095770   0.6807753422179276
   -0.9999950368133239   0.1290347600514821   0.0518396518671622
   -0.9999990919052095   0.8598731053895463   0.5518403431070027
   -0.6944978749235914   0.8295358503399369   0.0889580887714629
   -0.3054969008173812   0.5240381763019356   0.0889574889019116
   -0.6944982323960716   0.4648689214436104   0.5889574897832403
   -0.3054953271751089   0.1593715855065057   0.5889577643692050
   -0.6507745431884472   0.5106128044113305   0.1901910429365401
   -0.3492228466747278   0.1613929121573960   0.1901919628756588
   -0.6507515166504659   0.8275177310824657   0.6901922287261896
   -0.3492409564341514   0.4782738215244251   0.6901911125495771
