Ge   O    Li
1.0
  -4.898260267567191 -2.8006127047290676 -0.0625237256195291
  -0.0054361461326761 5.6096272461978325 -2.8883975539e-05
  0.0400466648454569 -2.76769421062e-05 -4.93128230417022
 Ge  O  Li 
2 6 4 
direct
   -0.9986756611100209   0.8112817335373143   0.1635099034374083
   -0.9999171195717111   0.1787945564287434   0.5291051306646984
   -0.9993540617721075   0.1431539326714749   0.1486225870262984
   -0.9976144071082058   0.8490289430102325   0.5469158785453416
   -0.6948012489040666   0.8332269742668225   0.0669147211900322
   -0.3058119390181633   0.5260124758467734   0.0853572621283839
   -0.6975557212331813   0.4597839295167657   0.6276339096218347
   -0.3035093607315615   0.1564980546012138   0.6282864633979001
   -0.6577141881714818   0.5030911125006465   0.0341561992408350
   -0.3393687212350678   0.1651823015650036   0.0340660191390809
   -0.6588975234526492   0.8268765340110671   0.6469469278449732
   -0.3467634344358357   0.4804492006330554   0.6127360320443566
