Ge   O    Li
1.0
  -4.861470559001634 -2.7704889305072253 -0.0030006331526898
  1.03404860117e-05 5.54091508533034 -3.22345019751e-05
  0.0030506264563773 -3.21020071069e-05 -4.93130078885681
 Ge  O  Li 
2 6 4 
direct
   -0.9999950169581288   0.8155804024871131   0.1604158104722494
   -0.9999852677770000   0.1733384337309725   0.6604046837659909
   -0.9999895425964144   0.1289445879789037   0.0314362783493277
   -0.9999960167883933   0.8599709488160934   0.5314370064843469
   -0.6944953908165180   0.8294604969081947   0.0686726892336572
   -0.3054905493375986   0.5239658663942796   0.0686712168963282
   -0.6944898786013181   0.4649462657005601   0.5686734838354013
   -0.3054983630402538   0.1594472159818595   0.5686743456580396
   -0.6507607054048602   0.5105676326148089   0.1700463680716719
   -0.3492297018424410   0.1613397265484432   0.1700502892240054
   -0.6507367923177411   0.8275598578736258   0.6700906249224848
   -0.3492444219532124   0.4783120090362994   0.6700881081605454
