Ge   O    Li                            
   1.00000000000000     
     0.0238179309366549   -0.0000262019204394   -4.9312761426080298
     0.0007862634937270    5.6015490983513256   -0.0000277671333936
     4.9010539619042506    2.8008909035491310    0.0319316793517531
   Ge   O    Li
     2     6     4
Direct
  0.1627386334257097  0.8127916688920247  0.9999611468181661
  0.5407878791093474  0.1774540856739744  0.9999919779380070
  0.1556669088450816  0.1412682555690110  0.9998768199375659
  0.5719938794102895  0.8523967997876325  0.0001139360007014
  0.1222188456538870  0.8307647082282509  0.6889058338066741
  0.1224160442797240  0.5198082144536910  0.3110212390428760
  0.6334154997136896  0.4634759370734090  0.6966539321220094
  0.6335394581380429  0.1600710320317894  0.3035311681018399
  0.0299091619310322  0.5079615215453277  0.6549217232669013
  0.0301215500313030  0.1630334689510278  0.3448563142168030
  0.5606634796622775  0.8292129077854733  0.6460904652162991
  0.5607796947465077  0.4751411485952293  0.3540588302809325
 
             NaN             NaN             NaN
             NaN             NaN             NaN
             NaN             NaN             NaN
             NaN             NaN             NaN
             NaN             NaN             NaN
             NaN             NaN             NaN
             NaN             NaN             NaN
             NaN             NaN             NaN
             NaN             NaN             NaN
             NaN             NaN             NaN
             NaN             NaN             NaN
             NaN             NaN             NaN
