Ge   O    Li
1.0
  -4.8849915843965315 -2.787717772551224 -0.0238710383077988
  0.000836765388421 5.575304887006918 -2.66502912483e-05
  0.0219859156154246 -2.47268987725e-05 -4.93126998104583
 Ge  O  Li 
2 6 4 
direct
   -0.9999683512021538   0.8163758915185815   0.0571037479331446
   -0.0000124247302378   0.1711344411121302   0.5443044190655690
   -0.9999347338022020   0.1320752513335320   0.1680645348939339
   -0.0000316279752860   0.8569433665565320   0.6598300201038042
   -0.6925021979554435   0.8308895879410799   0.1318432353977670
   -0.3075291944043810   0.5233965743374096   0.1319636885598754
   -0.6965676228867275   0.4634116698523362   0.6343245241847991
   -0.3034930924253602   0.1599247536285886   0.6343811517824646
   -0.6536190528412913   0.5089950825195416   0.0322725929134864
   -0.3462616931203157   0.1626911209797247   0.0324035803263325
   -0.6507893414058850   0.8284201348478486   0.5488355730080415
   -0.3492740539994867   0.4791218739595447   0.5489239667776361
