Ge   O    Li
   1.00000000000000     
  -0.0000121744317726  -0.0000328395179403  -4.9313038696379099
   0.0000074931962869   5.5404036990974399  -0.0000327929230478
   4.8616581705619097   2.7702133197184597  -0.0000254141592218
Ge   O    Li
2  6  4  
Direct
  0.1807765215697401  0.8156291318624938  0.9999974586308298  
  0.6807753422179275  0.1732773667095771  0.9999969903330026  
  0.0518396518671622  0.1290347600514821  0.9999950368133240  
  0.5518403431070027  0.8598731053895463  0.9999990919052096  
  0.0889580887714629  0.8295358503399370  0.6944978749235915  
  0.0889574889019116  0.5240381763019357  0.3054969008173813  
  0.5889574897832404  0.4648689214436104  0.6944982323960716  
  0.5889577643692050  0.1593715855065057  0.3054953271751089  
  0.1901910429365401  0.5106128044113305  0.6507745431884473  
  0.1901919628756588  0.1613929121573960  0.3492228466747278  
  0.6901922287261897  0.8275177310824660  0.6507515166504660  
  0.6901911125495772  0.4782738215244251  0.3492409564341514  
