Ge   O    Li
1.0
  -4.86166029918376 -2.770200836252 1.3097736308e-05
  7.0145007717e-06 5.54037957061331 -2.55334491029e-05
  3.341300186e-07 -2.32518771056e-05 -4.93126381948364
 Ge  O  Li 
2 6 4 
direct
   -0.0000004462415433   0.8156203841019048   0.0066011015135672
   -0.9999997228879069   0.1732702937372037   0.5066023961924486
   -0.9999977192872580   0.1290256685333231   0.1355393003732672
   -0.0000019174968671   0.8598666827591399   0.6355382593413595
   -0.6944969202707442   0.8295261400122697   0.0984180358332907
   -0.3055030205953102   0.5240249631943711   0.0984184776498154
   -0.6944978109261301   0.4648668009230477   0.5984186634643649
   -0.3055017048904247   0.1593660577659008   0.5984184193807068
   -0.6507779074209951   0.5106035731068487   0.9971785595825935
   -0.3492247515856803   0.1613843105319645   0.9971778972178099
   -0.6507543777188118   0.8275108211607928   0.4971773662522664
   -0.3492437006783150   0.4782676375065974   0.4971788069541390
