Ge   O    Li                            
   1.00000000000000     
     0.0027052035137299   -0.0000239893879390   -4.9312669002647302
     0.0000068225239107    5.5409050040961967   -0.0000260918701756
     4.8614652143840189    2.7704696428976971    0.0026430022298950
   Ge   O    Li
     2     6     4
Direct
  0.0269904410933097  0.8155657840474166  0.0000023976053194
  0.5269856393129161  0.1733206504227416  0.0000141383007071
  0.1559630139817789  0.1289296679817348  0.0000008819739309
  0.6559638734776118  0.8599639661551751  0.0000076756712550
  0.1187273834159809  0.8294526890920514  0.6945040769705803
  0.1187302507278846  0.5239518899816502  0.3055096381736411
  0.6187317005047989  0.4649412825848023  0.6945011768676624
  0.6187270155620079  0.1594426649188036  0.3054962809105758
  0.0173223283761065  0.5105604162316008  0.6507751118155081
  0.0173189431330980  0.1613348447387540  0.3492393643838950
  0.5173351547390126  0.8275573060795072  0.6507437853222803
  0.5173380749054730  0.4783050677931415  0.3492602534082374
 
             NaN             NaN             NaN
             NaN             NaN             NaN
             NaN             NaN             NaN
             NaN             NaN             NaN
             NaN             NaN             NaN
             NaN             NaN             NaN
             NaN             NaN             NaN
             NaN             NaN             NaN
             NaN             NaN             NaN
             NaN             NaN             NaN
             NaN             NaN             NaN
             NaN             NaN             NaN
