supercell of 100% icsd_608626.cif, 0% i 
   1.00000000000000     
    -9.7393626126372617   -0.0060916658563081   -0.0040390840881130
    -4.8643931956057838    8.4410586726736465    0.0095510477835834
    -0.0041315031417601   -0.0142073352749478  -10.2003704155247359
   Mg   Al   Zr   N 
     5    26     5    36
Direct
  0.1201009256513004  0.0894868940253488  0.2982005260145897
  0.5558303895134244  0.5425401801928444  0.0489565510436663
  0.2261433784948537  0.8716766736324573  0.0467325139304577
  0.7719356323434212  0.7579685043739630  0.7900225416318349
  0.5503119113442665  0.8715413598825279  0.0429950704219308
  0.2213353140765051  0.1999247252576168  0.0517390429005715
  0.8948883485301948  0.2082395075193304  0.5502161604516189
  0.4313719828121663  0.0996993449303432  0.2896721120061159
  0.5320084674588230  0.2175806252698962  0.0421796064228346
  0.1202813609499245  0.0863239136803173  0.7932973829703371
  0.2162459290082026  0.2059613682548544  0.5394283270136668
  0.9023643699523163  0.2178045179944590  0.0402024396349532
  0.4365201077024849  0.0853686697807632  0.7985449888527114
  0.1189624985559234  0.4214745402319195  0.2894867998446244
  0.2248473514562761  0.5432961958901643  0.0547060837441151
  0.7712279676864711  0.4349756812268311  0.7937474851536450
  0.8906673144710879  0.5325486291850794  0.5436621051055326
  0.4392983098509404  0.4371183214669330  0.2917238260930617
  0.2162320402081619  0.5462457848663789  0.5398136479482147
  0.7769563429662583  0.4257792101840110  0.2954549733685354
  0.8872209785284753  0.5354977380942785  0.0513388525046352
  0.4405474099393629  0.4443709643967111  0.7984761220932626
  0.5550010153372256  0.5455432521821066  0.5462199942334749
  0.1242544430181880  0.7549762328723659  0.2956022070807123
  0.8993625801547083  0.8644579634816552  0.5502437447997863
  0.4352378449175092  0.7615335404133035  0.2955986592425788
  0.1234325238202274  0.7603046071280133  0.7940160631749649
  0.2242438702723959  0.8683178147550734  0.5480883954611713
  0.9052751993538593  0.8489107713018456  0.0412662065157079
  0.4442908188896268  0.7619476245741268  0.7929984560313343
  0.5458022205066158  0.8716186827571306  0.5509033237466099
  0.7817514614084473  0.0908739444357778  0.8255789927694082
  0.7838326811258156  0.0979169559593416  0.2791166771697959
  0.5501475124375972  0.2084570257626623  0.5560590121575899
  0.1130167585163662  0.4292687101361352  0.8100799732802457
  0.7729256377856828  0.7579103248737056  0.3096318992699878
  0.2279112600671098  0.2163874833290862  0.3573405777151493
  0.1044060277373546  0.1059396564716550  0.0990761017893718
  0.9011498784747829  0.2172717014608878  0.8501791157144396
  0.7947421129330436  0.0847085752501187  0.6075908285962655
  0.5462861352689146  0.2105847835293986  0.3482879255722722
  0.4356959208734139  0.1081996379215511  0.1059926733965213
  0.2271761642175321  0.1898792625001704  0.8593947080725926
  0.1115997348118540  0.0957397520818049  0.6016273273521549
  0.8799476604469234  0.2181772864858615  0.3655304929086967
  0.7747156365126315  0.0965671138542135  0.0645760478136239
  0.5268346305348928  0.2205989080255932  0.8443543810538117
  0.4289927352873804  0.0906456389677288  0.6086717732846907
  0.2218449034673213  0.5373124041129245  0.3528206289086242
  0.1127889051730904  0.4280362129581121  0.0946871616988432
  0.8784308554329456  0.5331426234724006  0.8632654346513249
  0.7781797143231159  0.4284454462392731  0.6044547464234427
  0.5585260026874792  0.5352477242342104  0.3578495513342759
  0.4379826119298116  0.4224613881810910  0.1084273823863029
  0.2329895672125275  0.5519936268871035  0.8638926334828980
  0.1108688513845308  0.4293174428246758  0.5992591172007238
  0.9025413476265456  0.5153923772066662  0.3561502355615218
  0.7905876224450239  0.4205484440168732  0.1117617857922397
  0.5576022945184960  0.5397212764478994  0.8410354175649033
  0.4305695547007957  0.4489110376104009  0.6068909455146070
  0.2272232444963151  0.8562283128149915  0.3644988499505928
  0.1064113442733614  0.7543247062670133  0.1128609318608369
  0.9132268341913061  0.8490843224469629  0.8557085529722031
  0.7774815621699744  0.7595720743568393  0.5753214735163183
  0.5304056915894790  0.8890748092889709  0.3623748290928148
  0.4456520625114706  0.7606152718093000  0.1194335744267718
  0.2244621216234606  0.8720517977517730  0.8367322154579142
  0.1120910921031353  0.7569732813641821  0.6055748393772546
  0.9062201582102531  0.8701416810206339  0.3616383352092782
  0.7924819899020221  0.7533963364706295  0.1048182965058757
  0.5441272062544797  0.8766145375380390  0.8399498632584326
  0.4439736655621473  0.7592322638307962  0.6019704804980677
 
  0.00000000E+00  0.00000000E+00  0.00000000E+00
  0.00000000E+00  0.00000000E+00  0.00000000E+00
  0.00000000E+00  0.00000000E+00  0.00000000E+00
  0.00000000E+00  0.00000000E+00  0.00000000E+00
  0.00000000E+00  0.00000000E+00  0.00000000E+00
  0.00000000E+00  0.00000000E+00  0.00000000E+00
  0.00000000E+00  0.00000000E+00  0.00000000E+00
  0.00000000E+00  0.00000000E+00  0.00000000E+00
  0.00000000E+00  0.00000000E+00  0.00000000E+00
  0.00000000E+00  0.00000000E+00  0.00000000E+00
  0.00000000E+00  0.00000000E+00  0.00000000E+00
  0.00000000E+00  0.00000000E+00  0.00000000E+00
  0.00000000E+00  0.00000000E+00  0.00000000E+00
  0.00000000E+00  0.00000000E+00  0.00000000E+00
  0.00000000E+00  0.00000000E+00  0.00000000E+00
  0.00000000E+00  0.00000000E+00  0.00000000E+00
  0.00000000E+00  0.00000000E+00  0.00000000E+00
  0.00000000E+00  0.00000000E+00  0.00000000E+00
  0.00000000E+00  0.00000000E+00  0.00000000E+00
  0.00000000E+00  0.00000000E+00  0.00000000E+00
  0.00000000E+00  0.00000000E+00  0.00000000E+00
  0.00000000E+00  0.00000000E+00  0.00000000E+00
  0.00000000E+00  0.00000000E+00  0.00000000E+00
  0.00000000E+00  0.00000000E+00  0.00000000E+00
  0.00000000E+00  0.00000000E+00  0.00000000E+00
  0.00000000E+00  0.00000000E+00  0.00000000E+00
  0.00000000E+00  0.00000000E+00  0.00000000E+00
  0.00000000E+00  0.00000000E+00  0.00000000E+00
  0.00000000E+00  0.00000000E+00  0.00000000E+00
  0.00000000E+00  0.00000000E+00  0.00000000E+00
  0.00000000E+00  0.00000000E+00  0.00000000E+00
  0.00000000E+00  0.00000000E+00  0.00000000E+00
  0.00000000E+00  0.00000000E+00  0.00000000E+00
  0.00000000E+00  0.00000000E+00  0.00000000E+00
  0.00000000E+00  0.00000000E+00  0.00000000E+00
  0.00000000E+00  0.00000000E+00  0.00000000E+00
  0.00000000E+00  0.00000000E+00  0.00000000E+00
  0.00000000E+00  0.00000000E+00  0.00000000E+00
  0.00000000E+00  0.00000000E+00  0.00000000E+00
  0.00000000E+00  0.00000000E+00  0.00000000E+00
  0.00000000E+00  0.00000000E+00  0.00000000E+00
  0.00000000E+00  0.00000000E+00  0.00000000E+00
  0.00000000E+00  0.00000000E+00  0.00000000E+00
  0.00000000E+00  0.00000000E+00  0.00000000E+00
  0.00000000E+00  0.00000000E+00  0.00000000E+00
  0.00000000E+00  0.00000000E+00  0.00000000E+00
  0.00000000E+00  0.00000000E+00  0.00000000E+00
  0.00000000E+00  0.00000000E+00  0.00000000E+00
  0.00000000E+00  0.00000000E+00  0.00000000E+00
  0.00000000E+00  0.00000000E+00  0.00000000E+00
  0.00000000E+00  0.00000000E+00  0.00000000E+00
  0.00000000E+00  0.00000000E+00  0.00000000E+00
  0.00000000E+00  0.00000000E+00  0.00000000E+00
  0.00000000E+00  0.00000000E+00  0.00000000E+00
  0.00000000E+00  0.00000000E+00  0.00000000E+00
  0.00000000E+00  0.00000000E+00  0.00000000E+00
  0.00000000E+00  0.00000000E+00  0.00000000E+00
  0.00000000E+00  0.00000000E+00  0.00000000E+00
  0.00000000E+00  0.00000000E+00  0.00000000E+00
  0.00000000E+00  0.00000000E+00  0.00000000E+00
  0.00000000E+00  0.00000000E+00  0.00000000E+00
  0.00000000E+00  0.00000000E+00  0.00000000E+00
  0.00000000E+00  0.00000000E+00  0.00000000E+00
  0.00000000E+00  0.00000000E+00  0.00000000E+00
  0.00000000E+00  0.00000000E+00  0.00000000E+00
  0.00000000E+00  0.00000000E+00  0.00000000E+00
  0.00000000E+00  0.00000000E+00  0.00000000E+00
  0.00000000E+00  0.00000000E+00  0.00000000E+00
  0.00000000E+00  0.00000000E+00  0.00000000E+00
  0.00000000E+00  0.00000000E+00  0.00000000E+00
  0.00000000E+00  0.00000000E+00  0.00000000E+00
  0.00000000E+00  0.00000000E+00  0.00000000E+00
