supercell of 100% icsd_608626.cif, 0% i 
   1.00000000000000     
    -9.7670846950447547   -0.0101530916103996   -0.0059726606465949
    -4.8747306241937771    8.4491478459032336   -0.0022193467236096
    -0.0065971448186647   -0.0010068329447116  -10.1507407698236101
   Al   Zr   Mg   N 
    26     5     5    36
Direct
  0.1053156024809354  0.1012218710052508  0.2956402049525906
  0.2137015524415276  0.2090248404827264  0.0412203177028161
  0.7863434483421372  0.0985198596696932  0.8002866037324949
  0.8966991694708142  0.2051277498837152  0.5472455914203138
  0.5590489879129592  0.2017252051963965  0.0301783924268335
  0.1052951940096278  0.1048828083713573  0.7947224097511878
  0.2109736771935289  0.2090870758422056  0.5497844753247634
  0.7843809364810141  0.0954130936280535  0.2915807446344303
  0.0977268760446179  0.4260841314087642  0.2945528722260491
  0.2233745548571733  0.5260879141892829  0.0419081205340675
  0.7817458578556327  0.4240360462454333  0.7940323039395025
  0.8900863495768405  0.5336398932475532  0.5479373863351924
  0.1049397224800046  0.4231299970249083  0.7962057948878396
  0.2120898081496350  0.5376029764032708  0.5519114899285142
  0.7863996817012620  0.4295190164470171  0.2931756836982302
  0.8867039631423452  0.5406950435481619  0.0443577628576151
  0.4471355961158423  0.4323321230389539  0.7975327321488521
  0.2320741397824762  0.8834047474159163  0.0462141818934825
  0.7729157774805060  0.7567798621477309  0.7966932677545273
  0.8877673734231237  0.8703404351303092  0.5482604335275099
  0.4493751651221629  0.7615557465268097  0.2925934706687343
  0.5615614905356239  0.8632462391573696  0.0386029922481370
  0.2271334042036273  0.8787999420896853  0.5483538052811667
  0.8718997794865686  0.8779431899919956  0.0438528412356334
  0.4516242019911232  0.7596472921606718  0.7934719729188160
  0.5526692389753478  0.8656928437889775  0.5511125988338605
  0.4425965090230335  0.0886327699537617  0.2959289895537580
  0.5593688321354691  0.2004637048524813  0.5780115339167651
  0.4505028155489228  0.4281144245280331  0.2985109290670778
  0.1061281905536333  0.7673443699351665  0.2941482684347676
  0.1116750094068450  0.7638848527206079  0.8087362892606649
  0.8907902698914327  0.2086332486821192  0.0496978285191645
  0.4358205353039040  0.0882501045334010  0.8081869212473265
  0.5633589471208040  0.5423325867318880  0.0423608340559767
  0.5606714671667419  0.5455560025799926  0.5583899854286827
  0.7783179075261302  0.7513990470494463  0.2968280725939607
  0.2042902955240109  0.2145753312031644  0.3593118975873324
  0.1261590891203213  0.0895012579791938  0.1122388042908824
  0.8917698651186825  0.2049363846695016  0.8462414613496350
  0.8061196191887632  0.0797215428258298  0.6111595435978145
  0.5760336071098493  0.1941716854826367  0.3630930177764213
  0.4446010726795322  0.0949483393972983  0.0828073293536349
  0.2018565158013104  0.2159642662781422  0.8565903016146166
  0.1114843295942762  0.0938286900664664  0.6039407158894718
  0.8886818266139542  0.2047563375242234  0.3533323615837531
  0.7664546164241770  0.0892113283202747  0.1054976677081925
  0.5648006698105235  0.2110100156174397  0.8353316083207574
  0.4302657073761722  0.0872632111422718  0.5897359527619486
  0.2100695608616832  0.5305004860218361  0.3608864154333276
  0.1103986885884396  0.4282458301169143  0.1055794959628997
  0.8899406945264374  0.5396168157208265  0.8523074074024919
  0.7963089052180337  0.4162701180338502  0.6069803013243202
  0.5652527103874050  0.5477267754679929  0.3470467057328150
  0.4390671483333506  0.4164991775039155  0.0930695754242095
  0.2291670716275007  0.5199346043584612  0.8543283216602262
  0.1087340439218636  0.4275441214401496  0.6076985893047109
  0.8967143774785598  0.5251783795851352  0.3631028118153807
  0.7885234763442881  0.4357986984938407  0.1108321900211919
  0.5561446945908060  0.5398697737605147  0.8359803138668980
  0.4227104303793965  0.4421889401513681  0.6048608484003424
  0.2294478641069446  0.8810058523693414  0.3578748385767625
  0.1111986483603005  0.7615742073878309  0.0793733725893233
  0.8698958079584287  0.8819193972666852  0.8546163090614627
  0.7770579410180503  0.7611630087206720  0.6040389843916429
  0.5511774587865617  0.8624994131742341  0.3636864045967343
  0.4392551341828721  0.7767575201776040  0.1081947198374067
  0.2317007853334943  0.8854993556449386  0.8568084482560323
  0.1110537859239571  0.7608777453389806  0.5935653845749727
  0.8790420557292222  0.8879054159174657  0.3608073858062042
  0.7782564784672843  0.7601988400544144  0.0932983080861334
  0.5645787746428397  0.8539992834958028  0.8540974249047579
  0.4335742159373268  0.7771867936817500  0.6094566781939434
 
  0.00000000E+00  0.00000000E+00  0.00000000E+00
  0.00000000E+00  0.00000000E+00  0.00000000E+00
  0.00000000E+00  0.00000000E+00  0.00000000E+00
  0.00000000E+00  0.00000000E+00  0.00000000E+00
  0.00000000E+00  0.00000000E+00  0.00000000E+00
  0.00000000E+00  0.00000000E+00  0.00000000E+00
  0.00000000E+00  0.00000000E+00  0.00000000E+00
  0.00000000E+00  0.00000000E+00  0.00000000E+00
  0.00000000E+00  0.00000000E+00  0.00000000E+00
  0.00000000E+00  0.00000000E+00  0.00000000E+00
  0.00000000E+00  0.00000000E+00  0.00000000E+00
  0.00000000E+00  0.00000000E+00  0.00000000E+00
  0.00000000E+00  0.00000000E+00  0.00000000E+00
  0.00000000E+00  0.00000000E+00  0.00000000E+00
  0.00000000E+00  0.00000000E+00  0.00000000E+00
  0.00000000E+00  0.00000000E+00  0.00000000E+00
  0.00000000E+00  0.00000000E+00  0.00000000E+00
  0.00000000E+00  0.00000000E+00  0.00000000E+00
  0.00000000E+00  0.00000000E+00  0.00000000E+00
  0.00000000E+00  0.00000000E+00  0.00000000E+00
  0.00000000E+00  0.00000000E+00  0.00000000E+00
  0.00000000E+00  0.00000000E+00  0.00000000E+00
  0.00000000E+00  0.00000000E+00  0.00000000E+00
  0.00000000E+00  0.00000000E+00  0.00000000E+00
  0.00000000E+00  0.00000000E+00  0.00000000E+00
  0.00000000E+00  0.00000000E+00  0.00000000E+00
  0.00000000E+00  0.00000000E+00  0.00000000E+00
  0.00000000E+00  0.00000000E+00  0.00000000E+00
  0.00000000E+00  0.00000000E+00  0.00000000E+00
  0.00000000E+00  0.00000000E+00  0.00000000E+00
  0.00000000E+00  0.00000000E+00  0.00000000E+00
  0.00000000E+00  0.00000000E+00  0.00000000E+00
  0.00000000E+00  0.00000000E+00  0.00000000E+00
  0.00000000E+00  0.00000000E+00  0.00000000E+00
  0.00000000E+00  0.00000000E+00  0.00000000E+00
  0.00000000E+00  0.00000000E+00  0.00000000E+00
  0.00000000E+00  0.00000000E+00  0.00000000E+00
  0.00000000E+00  0.00000000E+00  0.00000000E+00
  0.00000000E+00  0.00000000E+00  0.00000000E+00
  0.00000000E+00  0.00000000E+00  0.00000000E+00
  0.00000000E+00  0.00000000E+00  0.00000000E+00
  0.00000000E+00  0.00000000E+00  0.00000000E+00
  0.00000000E+00  0.00000000E+00  0.00000000E+00
  0.00000000E+00  0.00000000E+00  0.00000000E+00
  0.00000000E+00  0.00000000E+00  0.00000000E+00
  0.00000000E+00  0.00000000E+00  0.00000000E+00
  0.00000000E+00  0.00000000E+00  0.00000000E+00
  0.00000000E+00  0.00000000E+00  0.00000000E+00
  0.00000000E+00  0.00000000E+00  0.00000000E+00
  0.00000000E+00  0.00000000E+00  0.00000000E+00
  0.00000000E+00  0.00000000E+00  0.00000000E+00
  0.00000000E+00  0.00000000E+00  0.00000000E+00
  0.00000000E+00  0.00000000E+00  0.00000000E+00
  0.00000000E+00  0.00000000E+00  0.00000000E+00
  0.00000000E+00  0.00000000E+00  0.00000000E+00
  0.00000000E+00  0.00000000E+00  0.00000000E+00
  0.00000000E+00  0.00000000E+00  0.00000000E+00
  0.00000000E+00  0.00000000E+00  0.00000000E+00
  0.00000000E+00  0.00000000E+00  0.00000000E+00
  0.00000000E+00  0.00000000E+00  0.00000000E+00
  0.00000000E+00  0.00000000E+00  0.00000000E+00
  0.00000000E+00  0.00000000E+00  0.00000000E+00
  0.00000000E+00  0.00000000E+00  0.00000000E+00
  0.00000000E+00  0.00000000E+00  0.00000000E+00
  0.00000000E+00  0.00000000E+00  0.00000000E+00
  0.00000000E+00  0.00000000E+00  0.00000000E+00
  0.00000000E+00  0.00000000E+00  0.00000000E+00
  0.00000000E+00  0.00000000E+00  0.00000000E+00
  0.00000000E+00  0.00000000E+00  0.00000000E+00
  0.00000000E+00  0.00000000E+00  0.00000000E+00
  0.00000000E+00  0.00000000E+00  0.00000000E+00
  0.00000000E+00  0.00000000E+00  0.00000000E+00
