supercell of POSCAR                     
   1.01800000000000     
     3.1310994802600001   -5.4896946145000003   10.0244832682999991
    -9.4821132118399998   -5.5089477087900001    0.0170740616273000
     6.3359946057599998  -11.0114127993000004  -10.0652216442999993
   Al   Gd   N    O 
    84    12    95     1
Direct
  0.0875903361807033  0.5846844849774087  0.3350580351619925
  0.4990908135283192  0.3221039319470762  0.2543394216617401
  0.0856986262904513  0.0855168943582214  0.3341664459013813
  0.2516724518905704  0.5783841468289808  0.4957994854439391
  0.3317968437198076  0.3182121384128394  0.0775263522918905
  0.4165900880346740  0.0863781498960705  0.1703582723726313
  0.0069658245225384  0.8434267359177525  0.2547128795169158
  0.1676644124034610  0.3321536236856986  0.4121319877233276
  0.2475648669939403  0.0876458599736836  0.4961200084674360
  0.1611061122715327  0.8380817246984478  0.4167133780345438
  0.3268812386331561  0.6731016541897930  0.3443532860254948
  0.1543905001646522  0.6751536066396113  0.1653768966416322
  0.2498335602911084  0.4008742552511322  0.2518082607079748
  0.3339705037475937  0.1638562190068242  0.3340155213196923
  0.0070055738980415  0.6732439666843248  0.4946043087363137
  0.1665550043542297  0.1589170774546105  0.1690632358511124
  0.2516384718286702  0.9201408891930782  0.2554524132632991
  0.4117070817885420  0.4143362512406270  0.4154966462935619
  0.4984469510799840  0.1617319333387286  0.4971263402272541
  0.0832488583569244  0.9239857271913792  0.0793043725345015
  0.4197266235982013  0.9206740316945101  0.4127461090927795
  0.0899048680738801  0.5849066492693495  0.8348230957561924
  0.5000451269233892  0.3225104970430621  0.7554871454017373
  0.0860538117803031  0.0852216224528135  0.8342671171326685
  0.2523699640176531  0.5774721407053676  0.9948187518793219
  0.3321744279345822  0.3183813368464712  0.5784465399634442
  0.4172876708252673  0.0872391222105335  0.6712613237967275
  0.0076764955596289  0.8434338627645275  0.7550284158690630
  0.1680907440696444  0.3317130138212718  0.9117840850884846
  0.2478007124995898  0.0868408757915162  0.9957014767079784
  0.1622014022936966  0.8367750062536530  0.9159495169105227
  0.3371892571203574  0.6736451400532886  0.8405552059573225
  0.1549589927970771  0.6749429357691668  0.6659972957640576
  0.2504963289813986  0.4018456765313587  0.7520815896533293
  0.3345968265874362  0.1640703808311841  0.8340056138870295
  0.0070418764909519  0.6728957422935338  0.9941262305570433
  0.1670878441498047  0.1590554150138530  0.6695389624954942
  0.2529336896034451  0.9203010141384027  0.7561193816528871
  0.4130988121147823  0.4144495154581733  0.9151198345894684
  0.4987925448987340  0.1613847402775974  0.9966433687704210
  0.0835433882090442  0.9241106222565847  0.5798778622681269
  0.4203109138414902  0.9200751643092531  0.9114650621005751
  0.5933176651732595  0.5824225852525444  0.3367630182088774
  0.9991960511881786  0.3224552019642033  0.2550119695411937
  0.5857002540771319  0.0855740288871800  0.3344164317064013
  0.7518892564360726  0.5794213881027019  0.4948935536738190
  0.8313011791273794  0.3180424661415984  0.0779325709551770
  0.9167969013352106  0.0868974999100800  0.1706294439394966
  0.5088596106186287  0.8488481663430676  0.2545414712788983
  0.6678669666059136  0.3321866389765162  0.4121651540363445
  0.7476531822028036  0.0876223402746490  0.4960366463334793
  0.6628892584103951  0.8379027558531789  0.4167635967438628
  0.8371197903086127  0.6745718701027457  0.3403055358539078
  0.6552960099460421  0.6752744768980463  0.1649614709688620
  0.7497361356774377  0.4007931768679214  0.2512945285628021
  0.8340958834349124  0.1640462780931458  0.3339156395672944
  0.5066212259381260  0.6739144542754616  0.4956254675931433
  0.6666074892680527  0.1586733973246908  0.1689491361264217
  0.7533182800053382  0.9203858472107882  0.2559736189069923
  0.9121025497894024  0.4147555143663908  0.4151680887930667
  0.9984097543243422  0.1616137312880355  0.4967990974372185
  0.5828185059865660  0.9237019769397108  0.0791947637963943
  0.9203408759015659  0.9203885119046973  0.4116635655473146
  0.5895751597261878  0.5850796544625467  0.8349039262263958
  0.9998538325738124  0.3226417400956407  0.7553130870923326
  0.5862343153416347  0.0851802613745392  0.8343887595686965
  0.7520511561914418  0.5782797080156001  0.9943396251053827
  0.8319066041307295  0.3186300252975229  0.5781607593295846
  0.9172061351378886  0.0872126515558946  0.6710752596803644
  0.5076047019953975  0.8435537107950211  0.7553886971331423
  0.6680562610685641  0.3320508533188757  0.9122324775659223
  0.7477725922906231  0.0867950148589856  0.9958224599394043
  0.6623177320615383  0.8366212124368033  0.9162255485909370
  0.8372785695480758  0.6735884747613099  0.8401587574686076
  0.6549871339173166  0.6754711918920648  0.6659563945053222
  0.7504884158055773  0.4021014894726918  0.7521498747102413
  0.8344440821918298  0.1640836876776604  0.8340313648468936
  0.5065956311833517  0.6732903319748686  0.9948316249165785
  0.6671338789794063  0.1591596156539126  0.6696014276581437
  0.7529276774344780  0.9201891795813566  0.7559751491023405
  0.9129257014307726  0.4144548700184743  0.9150342577671822
  0.9984138737870154  0.1612777398925118  0.9965446226923333
  0.5833111937793163  0.9241908203357170  0.5802587373721551
  0.9203751157762738  0.9197831714649780  0.9113249592194279
  0.3972791437705752  0.5806347454752370  0.1819265340822440
  0.3317312873709284  0.8345845737944870  0.0822315716731836
  0.0815281873367297  0.4183412983589747  0.0839225073316641
  0.3982092415585399  0.5798071095123518  0.6791742729903802
  0.3318765932392438  0.8371959125422563  0.5841634975761067
  0.0816610502879982  0.4182419316272217  0.5848557450314402
  0.8981601967423529  0.5793903362796939  0.1780004269830329
  0.8329466162975763  0.8361285249016461  0.0825588177000682
  0.5808484644052641  0.4205945172957257  0.0846242355304909
  0.8979995087932480  0.5802323178380320  0.6784690361448042
  0.8326790497924605  0.8375298671391036  0.5832774866571597
  0.5819182279338264  0.4187074063268454  0.5852172711948214
  0.2199975610498228  0.5824780000386554  0.2675883310750748
  0.0332275495731409  0.6109411008778523  0.1007060917862717
  0.1294202084625695  0.3176616618185335  0.1998860684805734
  0.2122603543502919  0.0825077427708010  0.2718921081084318
  0.3826400572396551  0.5841587334131688  0.4370772672331000
  0.4492217846490263  0.3190970524854606  0.0105170132968482
  0.0402981912436218  0.0854452882526431  0.1036117251599862
  0.1320987188274572  0.8422356487048432  0.1856048076850172
  0.2959770273839624  0.3295167924447213  0.3518583996225289
  0.3766470021604462  0.0810567937942608  0.4350173257865748
  0.4759720270494228  0.8378363376042870  0.0078820118815699
  0.2931747724345755  0.8355356911528133  0.3561774182718338
  0.2653253913562068  0.6518379300446995  0.0965307127685122
  0.3739344551213435  0.3844266198869661  0.1843974956884651
  0.4611886201826962  0.1623110175424998  0.2735267690159162
  0.1359022668859211  0.6658233959994817  0.4325625516428317
  0.2241208410913131  0.4112050138462848  0.0089276059868126
  0.2899491926711946  0.1572680237594710  0.1021834784440045
  0.3840460775851540  0.9251612824706115  0.2017619838461044
  0.0425470334444427  0.4197535691668719  0.3515756003110155
  0.1266665175798636  0.1711437406444105  0.4342983020970266
  0.1969945537821474  0.9315722373248505  0.0102996131870228
  0.0486843803232375  0.9241741866853417  0.3520298424644892
  0.2187486441237780  0.5812121871287204  0.7668228576678615
  0.0334949063473502  0.6107586354877128  0.6004040964247110
  0.1300087797018179  0.3174362103170623  0.7002421589451870
  0.2124473314398116  0.0827634104957085  0.7722227526116114
  0.3827881846979437  0.5834346951170701  0.9379535650951851
  0.4488516553491166  0.3196008414013747  0.5100868488817625
  0.0404289142433285  0.0858439323980917  0.6035125183769949
  0.1325788640275718  0.8427018519066607  0.6856535786355309
  0.2965006829826322  0.3295115372384814  0.8521797720592303
  0.3768553366923229  0.0806453387431887  0.9351523328927343
  0.4757623515324454  0.8382270565657635  0.5082857874082620
  0.2929230213145146  0.8350524466312237  0.8566423200392776
  0.4717434105256331  0.6852759871894420  0.7872462016234749
  0.2642442437608139  0.6556551362115144  0.5952896641648167
  0.3745902734746238  0.3823535964586569  0.6851635993628733
  0.4621313064154720  0.1628016730483637  0.7741363139417814
  0.1353987426556671  0.6652187084722243  0.9337119255528634
  0.2244804333842438  0.4120579357708110  0.5089376886521819
  0.2900377602118738  0.1575745084718037  0.6020195784635121
  0.3848210202030486  0.9282042962019759  0.7024788962575599
  0.0430654166543860  0.4195605449874407  0.8519569155772260
  0.1268227972747056  0.1707365815560777  0.9346008597593212
  0.1969701477176358  0.9324057750092862  0.5101204650465547
  0.0490514164551001  0.9240253119455986  0.8524464646939194
  0.7153513959889253  0.5822158663572807  0.2667035866896939
  0.5301960999810973  0.6134353362922838  0.1029171126580195
  0.6288966364521116  0.3172519654270900  0.1994241679660504
  0.7116701457254919  0.0824427390538318  0.2720969929416981
  0.8820566037279463  0.5841012970191102  0.4369797205564510
  0.9482177608237379  0.3188062399159008  0.0102583896153305
  0.5400574022375864  0.0847885919370910  0.1037755116219472
  0.6307963216437074  0.8416068846935119  0.1870124948828362
  0.7953668808608327  0.3298397187892874  0.3517703940132364
  0.8765158753089608  0.0808294980453255  0.4349118710796276
  0.9766488719345645  0.8375950858290793  0.0075982479034522
  0.7926775555569776  0.8355374202839556  0.3565174875157808
  0.9709103320153929  0.6849361601109223  0.2865077418653357
  0.7633473837085845  0.6550601693937068  0.0949738065076389
  0.8733959308483534  0.3823304001478860  0.1851895982655023
  0.9614605841279200  0.1626830495830234  0.2737482148926631
  0.6331753028818099  0.6666225890795232  0.4326289565760533
  0.7236088351597587  0.4120145421470056  0.0094813672753418
  0.7896344514791735  0.1571632076445724  0.1020556421983159
  0.8839967073713098  0.9274491441364461  0.2015592329355513
  0.5411075112582964  0.4213925509197765  0.3506753563835829
  0.6262513132000720  0.1713432290088264  0.4342061400863599
  0.6968013139575007  0.9315070225973230  0.0106403981770029
  0.5480262259522348  0.9230987992858530  0.3528883690522733
  0.7185752547368125  0.5814777539592058  0.7666566709679401
  0.5332753458249258  0.6109542875881004  0.6008686848406910
  0.6301240759929527  0.3174708535090716  0.7003609312306054
  0.7125007184008680  0.0826656753684318  0.7721965226158929
  0.8825596358970600  0.5834629531631705  0.9374790699986519
  0.9483635916725817  0.3193533931503225  0.5099094015389909
  0.5404205828145763  0.0860580327577907  0.6036639038907481
  0.6322353481259100  0.8428928446851813  0.6858939113884048
  0.7962503531115530  0.3296169704895604  0.8522337758044785
  0.8767179869751232  0.0802560165653787  0.9350659539525665
  0.9768648467986480  0.8379116197836041  0.5074666612144014
  0.7928539110827444  0.8348624807870806  0.8565612400719331
  0.9720071186391834  0.6850133848289701  0.7869252382606291
  0.7637346016499578  0.6565666311698592  0.5946664161600310
  0.8744096051318522  0.3827840273066414  0.6849759948731986
  0.9619187264487223  0.1628721069952661  0.7739902646440910
  0.6344243559064040  0.6651838985007714  0.9338073531910993
  0.7237623105683113  0.4127410637470206  0.5086664306218722
  0.7898586272242838  0.1577775976381304  0.6019103006712996
  0.8847250650839342  0.9279053789010590  0.7020702257312053
  0.5430456788941527  0.4196688123768837  0.8519950164466579
  0.6269722938620745  0.1708125441387836  0.9346761337141203
  0.6964280938520204  0.9325539096277140  0.5102708201063209
  0.5491605713812859  0.9240855346168289  0.8528144724491398
  0.4721615523627705  0.6877351476762641  0.2907933783279120
 
  0.00000000E+00  0.00000000E+00  0.00000000E+00
  0.00000000E+00  0.00000000E+00  0.00000000E+00
  0.00000000E+00  0.00000000E+00  0.00000000E+00
  0.00000000E+00  0.00000000E+00  0.00000000E+00
  0.00000000E+00  0.00000000E+00  0.00000000E+00
  0.00000000E+00  0.00000000E+00  0.00000000E+00
  0.00000000E+00  0.00000000E+00  0.00000000E+00
  0.00000000E+00  0.00000000E+00  0.00000000E+00
  0.00000000E+00  0.00000000E+00  0.00000000E+00
  0.00000000E+00  0.00000000E+00  0.00000000E+00
  0.00000000E+00  0.00000000E+00  0.00000000E+00
  0.00000000E+00  0.00000000E+00  0.00000000E+00
  0.00000000E+00  0.00000000E+00  0.00000000E+00
  0.00000000E+00  0.00000000E+00  0.00000000E+00
  0.00000000E+00  0.00000000E+00  0.00000000E+00
  0.00000000E+00  0.00000000E+00  0.00000000E+00
  0.00000000E+00  0.00000000E+00  0.00000000E+00
  0.00000000E+00  0.00000000E+00  0.00000000E+00
  0.00000000E+00  0.00000000E+00  0.00000000E+00
  0.00000000E+00  0.00000000E+00  0.00000000E+00
  0.00000000E+00  0.00000000E+00  0.00000000E+00
  0.00000000E+00  0.00000000E+00  0.00000000E+00
  0.00000000E+00  0.00000000E+00  0.00000000E+00
  0.00000000E+00  0.00000000E+00  0.00000000E+00
  0.00000000E+00  0.00000000E+00  0.00000000E+00
  0.00000000E+00  0.00000000E+00  0.00000000E+00
  0.00000000E+00  0.00000000E+00  0.00000000E+00
  0.00000000E+00  0.00000000E+00  0.00000000E+00
  0.00000000E+00  0.00000000E+00  0.00000000E+00
  0.00000000E+00  0.00000000E+00  0.00000000E+00
  0.00000000E+00  0.00000000E+00  0.00000000E+00
  0.00000000E+00  0.00000000E+00  0.00000000E+00
  0.00000000E+00  0.00000000E+00  0.00000000E+00
  0.00000000E+00  0.00000000E+00  0.00000000E+00
  0.00000000E+00  0.00000000E+00  0.00000000E+00
  0.00000000E+00  0.00000000E+00  0.00000000E+00
  0.00000000E+00  0.00000000E+00  0.00000000E+00
  0.00000000E+00  0.00000000E+00  0.00000000E+00
  0.00000000E+00  0.00000000E+00  0.00000000E+00
  0.00000000E+00  0.00000000E+00  0.00000000E+00
  0.00000000E+00  0.00000000E+00  0.00000000E+00
  0.00000000E+00  0.00000000E+00  0.00000000E+00
  0.00000000E+00  0.00000000E+00  0.00000000E+00
  0.00000000E+00  0.00000000E+00  0.00000000E+00
  0.00000000E+00  0.00000000E+00  0.00000000E+00
  0.00000000E+00  0.00000000E+00  0.00000000E+00
  0.00000000E+00  0.00000000E+00  0.00000000E+00
  0.00000000E+00  0.00000000E+00  0.00000000E+00
  0.00000000E+00  0.00000000E+00  0.00000000E+00
  0.00000000E+00  0.00000000E+00  0.00000000E+00
  0.00000000E+00  0.00000000E+00  0.00000000E+00
  0.00000000E+00  0.00000000E+00  0.00000000E+00
  0.00000000E+00  0.00000000E+00  0.00000000E+00
  0.00000000E+00  0.00000000E+00  0.00000000E+00
  0.00000000E+00  0.00000000E+00  0.00000000E+00
  0.00000000E+00  0.00000000E+00  0.00000000E+00
  0.00000000E+00  0.00000000E+00  0.00000000E+00
  0.00000000E+00  0.00000000E+00  0.00000000E+00
  0.00000000E+00  0.00000000E+00  0.00000000E+00
  0.00000000E+00  0.00000000E+00  0.00000000E+00
  0.00000000E+00  0.00000000E+00  0.00000000E+00
  0.00000000E+00  0.00000000E+00  0.00000000E+00
  0.00000000E+00  0.00000000E+00  0.00000000E+00
  0.00000000E+00  0.00000000E+00  0.00000000E+00
  0.00000000E+00  0.00000000E+00  0.00000000E+00
  0.00000000E+00  0.00000000E+00  0.00000000E+00
  0.00000000E+00  0.00000000E+00  0.00000000E+00
  0.00000000E+00  0.00000000E+00  0.00000000E+00
  0.00000000E+00  0.00000000E+00  0.00000000E+00
  0.00000000E+00  0.00000000E+00  0.00000000E+00
  0.00000000E+00  0.00000000E+00  0.00000000E+00
  0.00000000E+00  0.00000000E+00  0.00000000E+00
  0.00000000E+00  0.00000000E+00  0.00000000E+00
  0.00000000E+00  0.00000000E+00  0.00000000E+00
  0.00000000E+00  0.00000000E+00  0.00000000E+00
  0.00000000E+00  0.00000000E+00  0.00000000E+00
  0.00000000E+00  0.00000000E+00  0.00000000E+00
  0.00000000E+00  0.00000000E+00  0.00000000E+00
  0.00000000E+00  0.00000000E+00  0.00000000E+00
  0.00000000E+00  0.00000000E+00  0.00000000E+00
  0.00000000E+00  0.00000000E+00  0.00000000E+00
  0.00000000E+00  0.00000000E+00  0.00000000E+00
  0.00000000E+00  0.00000000E+00  0.00000000E+00
  0.00000000E+00  0.00000000E+00  0.00000000E+00
  0.00000000E+00  0.00000000E+00  0.00000000E+00
  0.00000000E+00  0.00000000E+00  0.00000000E+00
  0.00000000E+00  0.00000000E+00  0.00000000E+00
  0.00000000E+00  0.00000000E+00  0.00000000E+00
  0.00000000E+00  0.00000000E+00  0.00000000E+00
  0.00000000E+00  0.00000000E+00  0.00000000E+00
  0.00000000E+00  0.00000000E+00  0.00000000E+00
  0.00000000E+00  0.00000000E+00  0.00000000E+00
  0.00000000E+00  0.00000000E+00  0.00000000E+00
  0.00000000E+00  0.00000000E+00  0.00000000E+00
  0.00000000E+00  0.00000000E+00  0.00000000E+00
  0.00000000E+00  0.00000000E+00  0.00000000E+00
  0.00000000E+00  0.00000000E+00  0.00000000E+00
  0.00000000E+00  0.00000000E+00  0.00000000E+00
  0.00000000E+00  0.00000000E+00  0.00000000E+00
  0.00000000E+00  0.00000000E+00  0.00000000E+00
  0.00000000E+00  0.00000000E+00  0.00000000E+00
  0.00000000E+00  0.00000000E+00  0.00000000E+00
  0.00000000E+00  0.00000000E+00  0.00000000E+00
  0.00000000E+00  0.00000000E+00  0.00000000E+00
  0.00000000E+00  0.00000000E+00  0.00000000E+00
  0.00000000E+00  0.00000000E+00  0.00000000E+00
  0.00000000E+00  0.00000000E+00  0.00000000E+00
  0.00000000E+00  0.00000000E+00  0.00000000E+00
  0.00000000E+00  0.00000000E+00  0.00000000E+00
  0.00000000E+00  0.00000000E+00  0.00000000E+00
  0.00000000E+00  0.00000000E+00  0.00000000E+00
  0.00000000E+00  0.00000000E+00  0.00000000E+00
  0.00000000E+00  0.00000000E+00  0.00000000E+00
  0.00000000E+00  0.00000000E+00  0.00000000E+00
  0.00000000E+00  0.00000000E+00  0.00000000E+00
  0.00000000E+00  0.00000000E+00  0.00000000E+00
  0.00000000E+00  0.00000000E+00  0.00000000E+00
  0.00000000E+00  0.00000000E+00  0.00000000E+00
  0.00000000E+00  0.00000000E+00  0.00000000E+00
  0.00000000E+00  0.00000000E+00  0.00000000E+00
  0.00000000E+00  0.00000000E+00  0.00000000E+00
  0.00000000E+00  0.00000000E+00  0.00000000E+00
  0.00000000E+00  0.00000000E+00  0.00000000E+00
  0.00000000E+00  0.00000000E+00  0.00000000E+00
  0.00000000E+00  0.00000000E+00  0.00000000E+00
  0.00000000E+00  0.00000000E+00  0.00000000E+00
  0.00000000E+00  0.00000000E+00  0.00000000E+00
  0.00000000E+00  0.00000000E+00  0.00000000E+00
  0.00000000E+00  0.00000000E+00  0.00000000E+00
  0.00000000E+00  0.00000000E+00  0.00000000E+00
  0.00000000E+00  0.00000000E+00  0.00000000E+00
  0.00000000E+00  0.00000000E+00  0.00000000E+00
  0.00000000E+00  0.00000000E+00  0.00000000E+00
  0.00000000E+00  0.00000000E+00  0.00000000E+00
  0.00000000E+00  0.00000000E+00  0.00000000E+00
  0.00000000E+00  0.00000000E+00  0.00000000E+00
  0.00000000E+00  0.00000000E+00  0.00000000E+00
  0.00000000E+00  0.00000000E+00  0.00000000E+00
  0.00000000E+00  0.00000000E+00  0.00000000E+00
  0.00000000E+00  0.00000000E+00  0.00000000E+00
  0.00000000E+00  0.00000000E+00  0.00000000E+00
  0.00000000E+00  0.00000000E+00  0.00000000E+00
  0.00000000E+00  0.00000000E+00  0.00000000E+00
  0.00000000E+00  0.00000000E+00  0.00000000E+00
  0.00000000E+00  0.00000000E+00  0.00000000E+00
  0.00000000E+00  0.00000000E+00  0.00000000E+00
  0.00000000E+00  0.00000000E+00  0.00000000E+00
  0.00000000E+00  0.00000000E+00  0.00000000E+00
  0.00000000E+00  0.00000000E+00  0.00000000E+00
  0.00000000E+00  0.00000000E+00  0.00000000E+00
  0.00000000E+00  0.00000000E+00  0.00000000E+00
  0.00000000E+00  0.00000000E+00  0.00000000E+00
  0.00000000E+00  0.00000000E+00  0.00000000E+00
  0.00000000E+00  0.00000000E+00  0.00000000E+00
  0.00000000E+00  0.00000000E+00  0.00000000E+00
  0.00000000E+00  0.00000000E+00  0.00000000E+00
  0.00000000E+00  0.00000000E+00  0.00000000E+00
  0.00000000E+00  0.00000000E+00  0.00000000E+00
  0.00000000E+00  0.00000000E+00  0.00000000E+00
  0.00000000E+00  0.00000000E+00  0.00000000E+00
  0.00000000E+00  0.00000000E+00  0.00000000E+00
  0.00000000E+00  0.00000000E+00  0.00000000E+00
  0.00000000E+00  0.00000000E+00  0.00000000E+00
  0.00000000E+00  0.00000000E+00  0.00000000E+00
  0.00000000E+00  0.00000000E+00  0.00000000E+00
  0.00000000E+00  0.00000000E+00  0.00000000E+00
  0.00000000E+00  0.00000000E+00  0.00000000E+00
  0.00000000E+00  0.00000000E+00  0.00000000E+00
  0.00000000E+00  0.00000000E+00  0.00000000E+00
  0.00000000E+00  0.00000000E+00  0.00000000E+00
  0.00000000E+00  0.00000000E+00  0.00000000E+00
  0.00000000E+00  0.00000000E+00  0.00000000E+00
  0.00000000E+00  0.00000000E+00  0.00000000E+00
  0.00000000E+00  0.00000000E+00  0.00000000E+00
  0.00000000E+00  0.00000000E+00  0.00000000E+00
  0.00000000E+00  0.00000000E+00  0.00000000E+00
  0.00000000E+00  0.00000000E+00  0.00000000E+00
  0.00000000E+00  0.00000000E+00  0.00000000E+00
  0.00000000E+00  0.00000000E+00  0.00000000E+00
  0.00000000E+00  0.00000000E+00  0.00000000E+00
  0.00000000E+00  0.00000000E+00  0.00000000E+00
  0.00000000E+00  0.00000000E+00  0.00000000E+00
  0.00000000E+00  0.00000000E+00  0.00000000E+00
  0.00000000E+00  0.00000000E+00  0.00000000E+00
  0.00000000E+00  0.00000000E+00  0.00000000E+00
  0.00000000E+00  0.00000000E+00  0.00000000E+00
  0.00000000E+00  0.00000000E+00  0.00000000E+00
  0.00000000E+00  0.00000000E+00  0.00000000E+00
  0.00000000E+00  0.00000000E+00  0.00000000E+00
  0.00000000E+00  0.00000000E+00  0.00000000E+00
  0.00000000E+00  0.00000000E+00  0.00000000E+00
  0.00000000E+00  0.00000000E+00  0.00000000E+00
