supercell of icsd_608626.cif            
   1.14557275840605     
     9.5859274899105014    0.2127854879882378   -0.1355808460599607
    -4.6033984051879919    7.9104610079421125    0.2204506580167014
    -0.1484134547751858    0.1777807558831484    9.3098992963806406
   Al   La   N 
    20    16    36
Direct
  0.2727968036200892  0.1279324125024957  0.2719404188517203
  0.7755779358168553  0.2281960569234869  0.0177768109720233
  0.5498357466850976  0.1104814950261641  0.2603553300463588
  0.4698798275088620  0.2158549052895324  0.5119918127944771
  0.7923338552002193  0.0615711970863018  0.2136218119603868
  0.5939197013588355  0.1404014083671896  0.7372888530155208
  0.2064313988833248  0.4495700041923598  0.2633019673356713
  0.8726419705531967  0.4254834573338542  0.7587884235671538
  0.0752844556064076  0.5234008610093710  0.0090945331467154
  0.8776280456926173  0.4394818276403569  0.2335330263911501
  0.7489083835511749  0.5246966027499838  0.5057184472758465
  0.5624545339668430  0.4357399211170048  0.7379660078938102
  0.2100054960958389  0.9172773721526823  0.5122159671985855
  0.8874017690455034  0.7695473752168525  0.6225473569421993
  0.7666841534448636  0.8914261506142438  0.0328194899324856
  0.5390021176644098  0.7991367643411920  0.2669144518717701
  0.4691257649710749  0.9139889529482019  0.5108130354135554
  0.1064827461160718  0.7239158706942206  0.7758508599607907
  0.1072837938544922  0.9072551679965599  0.0190655184739370
  0.7626753089975509  0.8790012381848200  0.4645209054991213
  0.0887007608622739  0.1822067512361087  0.4642822994392120
  0.8714574696752919  0.0934804963717042  0.7852043605569961
  0.2272380766303073  0.0974495538059941  0.7346844765108642
  0.1034666744368380  0.2009142628496576  0.0479455272981397
  0.7804397032493000  0.2126282889974576  0.4691470216894444
  0.4652155411973808  0.2154202577498268  0.9902446568444034
  0.0769421328107711  0.5742040231773800  0.4956616481635265
  0.8131170589484924  0.6062598401039807  0.9476729798621122
  0.5904139984231165  0.4488331577511318  0.2518215558349368
  0.4302181845021025  0.5388520562148571  0.4674293720411953
  0.2153026414795605  0.4518864351356626  0.7484948065773480
  0.4468027079686649  0.5661651353766572  0.0229140897430327
  0.2471654663888287  0.7790048496892510  0.2292861656923577
  0.9027906070667342  0.7954143009848025  0.2478235171717174
  0.5941930746991559  0.7727989850715460  0.7101480289172386
  0.4595921336693891  0.8963610573786411  0.9448887022502674
  0.2736880347277832  0.1070846986342247  0.4622676449319627
  0.2102245688400046  0.2696262288610640  0.2433683786833498
  0.8500469626417342  0.0989183912689384  0.0409670430947742
  0.7835192844192278  0.2448520474171474  0.6880091590588009
  0.5447754392842228  0.1054943501276568  0.4398263168775927
  0.4536200322249755  0.2092369427591052  0.2120818159079150
  0.2236895735449806  0.0898238860798060  0.9460066418788386
  0.0936786076369600  0.2114274897315980  0.7089194382353625
  0.8657647996474083  0.0581625768450493  0.3727091473722268
  0.7457130496138475  0.2255146112458775  0.2027556036034497
  0.6149035869462338  0.1318580602500674  0.9156565909833319
  0.4868200646769907  0.2342860017637989  0.6948259834087054
  0.1784120581007897  0.4337998389408213  0.4458020751521730
  0.0694815577792980  0.5011449431716670  0.1912074977501419
  0.8926411155724665  0.4117627623627271  0.9385872323782394
  0.7791789497153871  0.5527345393521230  0.6901541371603273
  0.5631371690202087  0.4119939866929272  0.4638146340663809
  0.3957998591670986  0.6071738830560207  0.2373324592398376
  0.2117479898359917  0.4685274856537447  0.9692363093748639
  0.0593796131586473  0.5499427100590566  0.7140995693863204
  0.8507176595081347  0.4601793830720879  0.4079299845795745
  0.8082044937203179  0.5581341637740209  0.1615682176690214
  0.5653180135366114  0.4542728219507026  0.9194360718024512
  0.4500716341811568  0.5235563053788184  0.6884198555642271
  0.2792747349470304  0.8093508892134196  0.4540504834488885
  0.1530030978590844  0.9415633624405757  0.1989061110635930
  0.9194012143397927  0.8624545942181570  0.0079097749708126
  0.8279275009445328  0.9081913390163052  0.6393385726284180
  0.5670286552602661  0.8166697366599180  0.4523121408485622
  0.4825882501311014  0.9285084654074680  0.1890196346406796
  0.1304871627170456  0.7452473253238665  0.9481730988795078
  0.0858191134554929  0.8412484403414595  0.6472972489112081
  0.8105852198488321  0.7242377974339362  0.4595216582312958
  0.7106743129162396  0.8470241249451007  0.2002914607000434
  0.6087686708023909  0.8028852276844702  0.9304482329203765
  0.4944979086362409  0.9368720955847323  0.6919755374606709
 
  0.00000000E+00  0.00000000E+00  0.00000000E+00
  0.00000000E+00  0.00000000E+00  0.00000000E+00
  0.00000000E+00  0.00000000E+00  0.00000000E+00
  0.00000000E+00  0.00000000E+00  0.00000000E+00
  0.00000000E+00  0.00000000E+00  0.00000000E+00
  0.00000000E+00  0.00000000E+00  0.00000000E+00
  0.00000000E+00  0.00000000E+00  0.00000000E+00
  0.00000000E+00  0.00000000E+00  0.00000000E+00
  0.00000000E+00  0.00000000E+00  0.00000000E+00
  0.00000000E+00  0.00000000E+00  0.00000000E+00
  0.00000000E+00  0.00000000E+00  0.00000000E+00
  0.00000000E+00  0.00000000E+00  0.00000000E+00
  0.00000000E+00  0.00000000E+00  0.00000000E+00
  0.00000000E+00  0.00000000E+00  0.00000000E+00
  0.00000000E+00  0.00000000E+00  0.00000000E+00
  0.00000000E+00  0.00000000E+00  0.00000000E+00
  0.00000000E+00  0.00000000E+00  0.00000000E+00
  0.00000000E+00  0.00000000E+00  0.00000000E+00
  0.00000000E+00  0.00000000E+00  0.00000000E+00
  0.00000000E+00  0.00000000E+00  0.00000000E+00
  0.00000000E+00  0.00000000E+00  0.00000000E+00
  0.00000000E+00  0.00000000E+00  0.00000000E+00
  0.00000000E+00  0.00000000E+00  0.00000000E+00
  0.00000000E+00  0.00000000E+00  0.00000000E+00
  0.00000000E+00  0.00000000E+00  0.00000000E+00
  0.00000000E+00  0.00000000E+00  0.00000000E+00
  0.00000000E+00  0.00000000E+00  0.00000000E+00
  0.00000000E+00  0.00000000E+00  0.00000000E+00
  0.00000000E+00  0.00000000E+00  0.00000000E+00
  0.00000000E+00  0.00000000E+00  0.00000000E+00
  0.00000000E+00  0.00000000E+00  0.00000000E+00
  0.00000000E+00  0.00000000E+00  0.00000000E+00
  0.00000000E+00  0.00000000E+00  0.00000000E+00
  0.00000000E+00  0.00000000E+00  0.00000000E+00
  0.00000000E+00  0.00000000E+00  0.00000000E+00
  0.00000000E+00  0.00000000E+00  0.00000000E+00
  0.00000000E+00  0.00000000E+00  0.00000000E+00
  0.00000000E+00  0.00000000E+00  0.00000000E+00
  0.00000000E+00  0.00000000E+00  0.00000000E+00
  0.00000000E+00  0.00000000E+00  0.00000000E+00
  0.00000000E+00  0.00000000E+00  0.00000000E+00
  0.00000000E+00  0.00000000E+00  0.00000000E+00
  0.00000000E+00  0.00000000E+00  0.00000000E+00
  0.00000000E+00  0.00000000E+00  0.00000000E+00
  0.00000000E+00  0.00000000E+00  0.00000000E+00
  0.00000000E+00  0.00000000E+00  0.00000000E+00
  0.00000000E+00  0.00000000E+00  0.00000000E+00
  0.00000000E+00  0.00000000E+00  0.00000000E+00
  0.00000000E+00  0.00000000E+00  0.00000000E+00
  0.00000000E+00  0.00000000E+00  0.00000000E+00
  0.00000000E+00  0.00000000E+00  0.00000000E+00
  0.00000000E+00  0.00000000E+00  0.00000000E+00
  0.00000000E+00  0.00000000E+00  0.00000000E+00
  0.00000000E+00  0.00000000E+00  0.00000000E+00
  0.00000000E+00  0.00000000E+00  0.00000000E+00
  0.00000000E+00  0.00000000E+00  0.00000000E+00
  0.00000000E+00  0.00000000E+00  0.00000000E+00
  0.00000000E+00  0.00000000E+00  0.00000000E+00
  0.00000000E+00  0.00000000E+00  0.00000000E+00
  0.00000000E+00  0.00000000E+00  0.00000000E+00
  0.00000000E+00  0.00000000E+00  0.00000000E+00
  0.00000000E+00  0.00000000E+00  0.00000000E+00
  0.00000000E+00  0.00000000E+00  0.00000000E+00
  0.00000000E+00  0.00000000E+00  0.00000000E+00
  0.00000000E+00  0.00000000E+00  0.00000000E+00
  0.00000000E+00  0.00000000E+00  0.00000000E+00
  0.00000000E+00  0.00000000E+00  0.00000000E+00
  0.00000000E+00  0.00000000E+00  0.00000000E+00
  0.00000000E+00  0.00000000E+00  0.00000000E+00
  0.00000000E+00  0.00000000E+00  0.00000000E+00
  0.00000000E+00  0.00000000E+00  0.00000000E+00
  0.00000000E+00  0.00000000E+00  0.00000000E+00
