supercell of POSCAR                     
   1.03600000000000     
     9.6051007291200001   -5.6678653607799996   -9.9907275475200006
     9.5551777488200003    5.5783510108199996    9.9928581731800001
    -1.5573508785200001   -8.3719044994900003    4.9655686364999996
   Al   Gd   N 
    72    23    96
Direct
  0.3025683533105337  0.2866811465223904  0.5398102569389565
  0.1437066248450449  0.2421590417640900  0.3120400650539068
  0.3095419495509049  0.4084879133860611  0.3111738250016316
  0.4635469559994192  0.3213459521647906  0.7884848817125985
  0.1446347376947443  0.4969297863989155  0.7821145603108945
  0.2939564255758995  0.1674959783245527  0.7835754797795431
  0.4695655354664865  0.4460212474967946  0.5330602338616615
  0.1439201540028492  0.1192888044674945  0.5395213969278458
  0.4753167176527171  0.0760272623385561  0.3100281248282712
  0.2798861881212460  0.1085607155828612  0.3396999406795089
  0.1136189728231045  0.0687962420056820  0.1018185828906013
  0.1134723215056042  0.1946009575587624  0.8189098679572240
  0.2813411667498116  0.3472893795371235  0.8049835391548896
  0.1117966208410195  0.3241655430787418  0.5885940569684891
  0.2710327847957359  0.4845742328881357  0.5751289252709668
  0.4483760454294838  0.2759923996453537  0.3438256254739400
  0.1124172088555184  0.4430002805764985  0.3385688257292969
  0.4501164756263734  0.4063310797257955  0.1068476189506953
  0.7991683346442073  0.2871353122194833  0.5399389096706457
  0.6426934247414167  0.2427832060555346  0.3138252441173535
  0.8083260953670290  0.4082358607167293  0.3121864813224562
  0.9614862983433454  0.3245030554340715  0.7885476490157259
  0.6429463248708700  0.4983122376806790  0.7840239630397718
  0.7928964082601340  0.1646435067155210  0.7785487847528287
  0.9689889825091171  0.4460161009048846  0.5354608233011078
  0.6363584241374198  0.1202950769551734  0.5411682329479532
  0.9777602077008964  0.0711786824387772  0.2976347943675250
  0.7748188997397705  0.1082144591874510  0.3368751818849134
  0.6145538333901328  0.0698677747652070  0.1012454470969431
  0.6127961799160886  0.1970265201812467  0.8149453741165900
  0.7736519483075881  0.3552354978271950  0.8115361213506063
  0.6082796708739977  0.3188116777916363  0.5894694762478423
  0.7709350437708267  0.4844287041580202  0.5779130547957720
  0.9472822578707820  0.2794178346222012  0.3364458210910684
  0.6119099196945541  0.4441145155653601  0.3414288893129012
  0.9499399894574125  0.4059945020070970  0.1041041976287929
  0.3018558635449722  0.7907680839413231  0.5387152421035779
  0.1446671394368622  0.7435051132718868  0.3120997431709824
  0.3095730851722536  0.9096017321909287  0.3113850561251681
  0.4634534240286001  0.8328537457042131  0.7871707836406046
  0.1415251197572545  0.9979630128976993  0.7849187435787286
  0.2966268798524041  0.6667913171103166  0.7787599626285129
  0.4685599847188371  0.9502061990954971  0.5325819057037222
  0.1444741940108258  0.6187856928226836  0.5365510005757059
  0.4788112335613022  0.5722504701193003  0.2976205382923141
  0.2771503008461664  0.6077470494679176  0.3332030710930880
  0.1140824814261805  0.5676530889597089  0.1021168932556265
  0.1170519991670389  0.6954843041773984  0.8148738693932245
  0.2770231429005605  0.8589355639340681  0.8114514385000078
  0.1118378152588875  0.8241133131194118  0.5881589854621296
  0.2727568086944956  0.9871790013828985  0.5764531967056499
  0.4490679000185054  0.7802772994877003  0.3332523304897492
  0.1120055641743676  0.9451012361012729  0.3396304165138702
  0.4495812157543639  0.9063566794437463  0.1018139469546284
  0.8010776512508926  0.7883377320441340  0.5362104516520176
  0.6442580628613683  0.7433963096924572  0.3087015304591461
  0.8083126313915159  0.9077472001837279  0.3078316948243440
  0.9624941054782994  0.8235847835909098  0.7887707908947093
  0.6406314082427045  0.9989982806103015  0.7835798141731729
  0.7928444569209532  0.6665631715209770  0.7753607872183750
  0.9692641334122740  0.9456079799369164  0.5324481074805121
  0.6424090157714843  0.6189879114557186  0.5360840118241086
  0.9792475951550301  0.5708250811242337  0.2982365312585458
  0.7775774051046795  0.6077935633659663  0.3354553352526111
  0.6173576342914231  0.5710855858254220  0.1029646076722699
  0.6127210364788667  0.6974093599999662  0.8133437608906178
  0.7734914739009682  0.8562895470533860  0.8091708619754812
  0.6109310893799247  0.8256308407563822  0.5856510193028441
  0.7695304986813127  0.9854479158053948  0.5744243086885064
  0.9485982264879382  0.7781138466682265  0.3354261244375607
  0.6109309493253434  0.9460506475212682  0.3380513377589622
  0.9477936340327204  0.9019371050570797  0.1037455400336071
  0.4828215231358826  0.1962585744521945  0.0497539474806885
  0.1407671386207596  0.3614813219024953  0.0264812608670155
  0.3096411360837124  0.0211033429565717  0.0433720242004512
  0.2880792608506368  0.2304228033655349  0.0920788625705953
  0.4462153576498125  0.0360512535224871  0.8096086564536975
  0.9811259661004570  0.1961057269759152  0.0405207557130112
  0.6368593346231819  0.3672725660419616  0.0336457703252577
  0.8073264880301991  0.0217952002039468  0.0402263967998167
  0.7822324976788693  0.2335122250691413  0.0830497133106718
  0.9462210297868410  0.0186687504515746  0.8190268835622803
  0.9433688284676691  0.1549401124223877  0.5724530219454564
  0.4832865046343500  0.6948135401022810  0.0357772515661807
  0.1353560263247147  0.8637333225548005  0.0313580064149690
  0.3092350363779843  0.5190849811347178  0.0344241585889051
  0.2841245850533767  0.7323079650024340  0.0827020115437023
  0.4507550219125491  0.5174490599902342  0.8169682324066017
  0.4417813075612287  0.6572619238365363  0.5725100116196415
  0.9834477611635819  0.6899972278296005  0.0387590442211234
  0.6369427188176644  0.8643111074794589  0.0296958679407382
  0.8140182581498649  0.5218464604232125  0.0391366679517375
  0.7850411468079415  0.7310071458479754  0.0748179623784182
  0.9513304732323675  0.5202711542609890  0.8279399301444457
  0.9440563831502118  0.6541873199742483  0.5751941409736219
  0.2349229018884458  0.3685323015222082  0.6212374971860157
  0.0737579896629939  0.3229965792516865  0.3993392747902718
  0.2391380660049336  0.4898965818592984  0.3895344821077842
  0.4313939542038625  0.2965077109808547  0.1631102024328257
  0.0726232183486104  0.4526379191349434  0.1511635960454285
  0.2318008955327144  0.0989746724595832  0.1575479587408353
  0.4035889971073772  0.3979737629151785  0.9166757695081031
  0.0897653139217596  0.0808208080730424  0.9010335577050625
  0.2295089774212400  0.2444674006682561  0.8802854705305734
  0.3929051507755901  0.0118846946843476  0.6077320111424314
  0.0898447032553804  0.2028781307531062  0.6335697236732756
  0.3999793975118422  0.1558926699922552  0.3403998131910910
  0.2186569616275946  0.1899120420691744  0.4356938897155658
  0.0602018906284130  0.1447877625876970  0.2081861723110521
  0.2166202997341600  0.3189669661120575  0.2126085661942412
  0.3620665910067231  0.1232799277020220  0.9178199580434665
  0.0397123388622802  0.2677277422553672  0.8851287092724576
  0.2132360764800296  0.4325290121663699  0.8826284761461594
  0.3545726328110916  0.2611850654415022  0.7024337851544118
  0.0392696392833400  0.4057840816548079  0.6835529779227727
  0.2111150604913092  0.0687355921786832  0.6734109335746510
  0.3821534423484962  0.3526739651963027  0.4352030594405392
  0.0482756166604901  0.0255634280657091  0.4396350009885950
  0.3904083024888862  0.4762967740129866  0.2110911396728952
  0.7363778329597892  0.3675743254607440  0.6263834003518198
  0.5758678868026479  0.3254118166839461  0.4016209263480519
  0.7394289404745749  0.4898521731278649  0.3920327110695965
  0.9253543375802593  0.2929731024759974  0.1571299916723348
  0.5717374899429188  0.4587076238255605  0.1547924584245095
  0.7350329711684864  0.1026407628664927  0.1565593620310679
  0.8992029928547964  0.3910907402372885  0.9066511442479168
  0.5958910863158948  0.0832891402311660  0.9023403505224508
  0.7331334611249716  0.2449253968069343  0.8688051730015829
  0.8946278321287977  0.0155225962772718  0.6080981341051341
  0.5892797733377151  0.2038139378808168  0.6357187752845732
  0.9034940240441429  0.1546031618848076  0.3550912533725494
  0.7183584826943701  0.1897456851626558  0.4362139394682103
  0.5632597287411798  0.1440904537637593  0.2130041732057961
  0.7151554839870045  0.3199355710060274  0.2118637224870383
  0.8646998326085864  0.1173899791557673  0.9086479647501804
  0.5415995154538464  0.2686455853791969  0.8930243034184002
  0.7117896863929687  0.4368415758942916  0.8892363941247154
  0.8660367379677183  0.2447033413691457  0.6814262507621578
  0.5390239679493689  0.4079412008137666  0.6859339703559613
  0.7113536039652999  0.0674423864068459  0.6693664660996106
  0.8812934935648684  0.3514035774525510  0.4358591188502317
  0.5502948561968140  0.0232585678590667  0.4369152556694473
  0.8911356497760394  0.4731040992614695  0.2151218097873056
  0.2356791872568564  0.8682230964066591  0.6254701462909296
  0.0748349501542620  0.8245706083427891  0.3994945077489334
  0.2375773479229437  0.9887508166423302  0.3904656318951893
  0.4278041083522197  0.7924659801391982  0.1520027949436624
  0.0684387308135257  0.9547245537209221  0.1513504681134421
  0.2352403075110914  0.6009545836649153  0.1532252971952701
  0.4019862297183181  0.9024695419380961  0.9052539243208031
  0.0978708617747799  0.5827573398656938  0.8985185681659615
  0.2352963949700495  0.7467689303740741  0.8674343063701002
  0.3952922375770314  0.5173496014724748  0.6074291654866784
  0.0908362872345521  0.7026257339179622  0.6299821741229579
  0.4050425823590800  0.6560568608715371  0.3537751756309433
  0.2213095679507191  0.6909182909148228  0.4347947757339625
  0.0645761591266165  0.6452466962385586  0.2136055443849969
  0.2162308177967560  0.8197021859027060  0.2095817437102312
  0.3663797323173412  0.6173470839359538  0.9060027223462583
  0.0416171240924825  0.7659372085679408  0.8828207485086850
  0.2097116156774987  0.9359512563148513  0.8902003905695111
  0.3672025662996035  0.7499047868661535  0.6832913291927412
  0.0386640234730251  0.9056202276680096  0.6827719569130721
  0.2136704683264838  0.5691930091571251  0.6694522454712128
  0.3827559193155636  0.8511686297996235  0.4311111185638410
  0.0493570688070122  0.5243358049218116  0.4404599000952985
  0.3922595974642817  0.9738751082602448  0.2122445925289966
  0.7372835460823879  0.8676877138656138  0.6232334837329105
  0.5761285099371349  0.8239426881184997  0.3958936246087958
  0.7394752223991574  0.9883958694145250  0.3881309036114402
  0.9275159128563999  0.7895396073249472  0.1554416473790354
  0.5717819974002438  0.9549909368061194  0.1488695585082525
  0.7375013133992141  0.6024748935270381  0.1552672517998346
  0.8994068819367982  0.8914924732599445  0.9078190443519745
  0.5941793363129193  0.5852303169273867  0.9023656225023657
  0.7306853955407959  0.7461548437247814  0.8620778110462339
  0.8953925492572097  0.5159772396798559  0.6138525270557196
  0.5886475226112680  0.7034226943857291  0.6281840643557430
  0.9052930050903072  0.6545436030591887  0.3575152010068834
  0.7194618990261787  0.6902733410832695  0.4332697617557457
  0.5623188344350254  0.6459692674266293  0.2075259154956797
  0.7175945016836991  0.8180116420363461  0.2066195847372967
  0.8605609922490061  0.6235596745750271  0.9066758802521520
  0.5399407905073303  0.7707506340287935  0.8820761839383451
  0.7107615312899611  0.9362819583816631  0.8872532253500225
  0.8662418131156429  0.7467429307884075  0.6790542940100863
  0.5418620346848826  0.9067723159427672  0.6790702679222989
  0.7108038248274440  0.5683106929537161  0.6687137008007511
  0.8821377236073218  0.8519370834472539  0.4313224352316922
  0.5488206256212393  0.5256882620267191  0.4390908970741734
  0.8907019588647387  0.9737333786727689  0.2082813261511944
 
  0.00000000E+00  0.00000000E+00  0.00000000E+00
  0.00000000E+00  0.00000000E+00  0.00000000E+00
  0.00000000E+00  0.00000000E+00  0.00000000E+00
  0.00000000E+00  0.00000000E+00  0.00000000E+00
  0.00000000E+00  0.00000000E+00  0.00000000E+00
  0.00000000E+00  0.00000000E+00  0.00000000E+00
  0.00000000E+00  0.00000000E+00  0.00000000E+00
  0.00000000E+00  0.00000000E+00  0.00000000E+00
  0.00000000E+00  0.00000000E+00  0.00000000E+00
  0.00000000E+00  0.00000000E+00  0.00000000E+00
  0.00000000E+00  0.00000000E+00  0.00000000E+00
  0.00000000E+00  0.00000000E+00  0.00000000E+00
  0.00000000E+00  0.00000000E+00  0.00000000E+00
  0.00000000E+00  0.00000000E+00  0.00000000E+00
  0.00000000E+00  0.00000000E+00  0.00000000E+00
  0.00000000E+00  0.00000000E+00  0.00000000E+00
  0.00000000E+00  0.00000000E+00  0.00000000E+00
  0.00000000E+00  0.00000000E+00  0.00000000E+00
  0.00000000E+00  0.00000000E+00  0.00000000E+00
  0.00000000E+00  0.00000000E+00  0.00000000E+00
  0.00000000E+00  0.00000000E+00  0.00000000E+00
  0.00000000E+00  0.00000000E+00  0.00000000E+00
  0.00000000E+00  0.00000000E+00  0.00000000E+00
  0.00000000E+00  0.00000000E+00  0.00000000E+00
  0.00000000E+00  0.00000000E+00  0.00000000E+00
  0.00000000E+00  0.00000000E+00  0.00000000E+00
  0.00000000E+00  0.00000000E+00  0.00000000E+00
  0.00000000E+00  0.00000000E+00  0.00000000E+00
  0.00000000E+00  0.00000000E+00  0.00000000E+00
  0.00000000E+00  0.00000000E+00  0.00000000E+00
  0.00000000E+00  0.00000000E+00  0.00000000E+00
  0.00000000E+00  0.00000000E+00  0.00000000E+00
  0.00000000E+00  0.00000000E+00  0.00000000E+00
  0.00000000E+00  0.00000000E+00  0.00000000E+00
  0.00000000E+00  0.00000000E+00  0.00000000E+00
  0.00000000E+00  0.00000000E+00  0.00000000E+00
  0.00000000E+00  0.00000000E+00  0.00000000E+00
  0.00000000E+00  0.00000000E+00  0.00000000E+00
  0.00000000E+00  0.00000000E+00  0.00000000E+00
  0.00000000E+00  0.00000000E+00  0.00000000E+00
  0.00000000E+00  0.00000000E+00  0.00000000E+00
  0.00000000E+00  0.00000000E+00  0.00000000E+00
  0.00000000E+00  0.00000000E+00  0.00000000E+00
  0.00000000E+00  0.00000000E+00  0.00000000E+00
  0.00000000E+00  0.00000000E+00  0.00000000E+00
  0.00000000E+00  0.00000000E+00  0.00000000E+00
  0.00000000E+00  0.00000000E+00  0.00000000E+00
  0.00000000E+00  0.00000000E+00  0.00000000E+00
  0.00000000E+00  0.00000000E+00  0.00000000E+00
  0.00000000E+00  0.00000000E+00  0.00000000E+00
  0.00000000E+00  0.00000000E+00  0.00000000E+00
  0.00000000E+00  0.00000000E+00  0.00000000E+00
  0.00000000E+00  0.00000000E+00  0.00000000E+00
  0.00000000E+00  0.00000000E+00  0.00000000E+00
  0.00000000E+00  0.00000000E+00  0.00000000E+00
  0.00000000E+00  0.00000000E+00  0.00000000E+00
  0.00000000E+00  0.00000000E+00  0.00000000E+00
  0.00000000E+00  0.00000000E+00  0.00000000E+00
  0.00000000E+00  0.00000000E+00  0.00000000E+00
  0.00000000E+00  0.00000000E+00  0.00000000E+00
  0.00000000E+00  0.00000000E+00  0.00000000E+00
  0.00000000E+00  0.00000000E+00  0.00000000E+00
  0.00000000E+00  0.00000000E+00  0.00000000E+00
  0.00000000E+00  0.00000000E+00  0.00000000E+00
  0.00000000E+00  0.00000000E+00  0.00000000E+00
  0.00000000E+00  0.00000000E+00  0.00000000E+00
  0.00000000E+00  0.00000000E+00  0.00000000E+00
  0.00000000E+00  0.00000000E+00  0.00000000E+00
  0.00000000E+00  0.00000000E+00  0.00000000E+00
  0.00000000E+00  0.00000000E+00  0.00000000E+00
  0.00000000E+00  0.00000000E+00  0.00000000E+00
  0.00000000E+00  0.00000000E+00  0.00000000E+00
  0.00000000E+00  0.00000000E+00  0.00000000E+00
  0.00000000E+00  0.00000000E+00  0.00000000E+00
  0.00000000E+00  0.00000000E+00  0.00000000E+00
  0.00000000E+00  0.00000000E+00  0.00000000E+00
  0.00000000E+00  0.00000000E+00  0.00000000E+00
  0.00000000E+00  0.00000000E+00  0.00000000E+00
  0.00000000E+00  0.00000000E+00  0.00000000E+00
  0.00000000E+00  0.00000000E+00  0.00000000E+00
  0.00000000E+00  0.00000000E+00  0.00000000E+00
  0.00000000E+00  0.00000000E+00  0.00000000E+00
  0.00000000E+00  0.00000000E+00  0.00000000E+00
  0.00000000E+00  0.00000000E+00  0.00000000E+00
  0.00000000E+00  0.00000000E+00  0.00000000E+00
  0.00000000E+00  0.00000000E+00  0.00000000E+00
  0.00000000E+00  0.00000000E+00  0.00000000E+00
  0.00000000E+00  0.00000000E+00  0.00000000E+00
  0.00000000E+00  0.00000000E+00  0.00000000E+00
  0.00000000E+00  0.00000000E+00  0.00000000E+00
  0.00000000E+00  0.00000000E+00  0.00000000E+00
  0.00000000E+00  0.00000000E+00  0.00000000E+00
  0.00000000E+00  0.00000000E+00  0.00000000E+00
  0.00000000E+00  0.00000000E+00  0.00000000E+00
  0.00000000E+00  0.00000000E+00  0.00000000E+00
  0.00000000E+00  0.00000000E+00  0.00000000E+00
  0.00000000E+00  0.00000000E+00  0.00000000E+00
  0.00000000E+00  0.00000000E+00  0.00000000E+00
  0.00000000E+00  0.00000000E+00  0.00000000E+00
  0.00000000E+00  0.00000000E+00  0.00000000E+00
  0.00000000E+00  0.00000000E+00  0.00000000E+00
  0.00000000E+00  0.00000000E+00  0.00000000E+00
  0.00000000E+00  0.00000000E+00  0.00000000E+00
  0.00000000E+00  0.00000000E+00  0.00000000E+00
  0.00000000E+00  0.00000000E+00  0.00000000E+00
  0.00000000E+00  0.00000000E+00  0.00000000E+00
  0.00000000E+00  0.00000000E+00  0.00000000E+00
  0.00000000E+00  0.00000000E+00  0.00000000E+00
  0.00000000E+00  0.00000000E+00  0.00000000E+00
  0.00000000E+00  0.00000000E+00  0.00000000E+00
  0.00000000E+00  0.00000000E+00  0.00000000E+00
  0.00000000E+00  0.00000000E+00  0.00000000E+00
  0.00000000E+00  0.00000000E+00  0.00000000E+00
  0.00000000E+00  0.00000000E+00  0.00000000E+00
  0.00000000E+00  0.00000000E+00  0.00000000E+00
  0.00000000E+00  0.00000000E+00  0.00000000E+00
  0.00000000E+00  0.00000000E+00  0.00000000E+00
  0.00000000E+00  0.00000000E+00  0.00000000E+00
  0.00000000E+00  0.00000000E+00  0.00000000E+00
  0.00000000E+00  0.00000000E+00  0.00000000E+00
  0.00000000E+00  0.00000000E+00  0.00000000E+00
  0.00000000E+00  0.00000000E+00  0.00000000E+00
  0.00000000E+00  0.00000000E+00  0.00000000E+00
  0.00000000E+00  0.00000000E+00  0.00000000E+00
  0.00000000E+00  0.00000000E+00  0.00000000E+00
  0.00000000E+00  0.00000000E+00  0.00000000E+00
  0.00000000E+00  0.00000000E+00  0.00000000E+00
  0.00000000E+00  0.00000000E+00  0.00000000E+00
  0.00000000E+00  0.00000000E+00  0.00000000E+00
  0.00000000E+00  0.00000000E+00  0.00000000E+00
  0.00000000E+00  0.00000000E+00  0.00000000E+00
  0.00000000E+00  0.00000000E+00  0.00000000E+00
  0.00000000E+00  0.00000000E+00  0.00000000E+00
  0.00000000E+00  0.00000000E+00  0.00000000E+00
  0.00000000E+00  0.00000000E+00  0.00000000E+00
  0.00000000E+00  0.00000000E+00  0.00000000E+00
  0.00000000E+00  0.00000000E+00  0.00000000E+00
  0.00000000E+00  0.00000000E+00  0.00000000E+00
  0.00000000E+00  0.00000000E+00  0.00000000E+00
  0.00000000E+00  0.00000000E+00  0.00000000E+00
  0.00000000E+00  0.00000000E+00  0.00000000E+00
  0.00000000E+00  0.00000000E+00  0.00000000E+00
  0.00000000E+00  0.00000000E+00  0.00000000E+00
  0.00000000E+00  0.00000000E+00  0.00000000E+00
  0.00000000E+00  0.00000000E+00  0.00000000E+00
  0.00000000E+00  0.00000000E+00  0.00000000E+00
  0.00000000E+00  0.00000000E+00  0.00000000E+00
  0.00000000E+00  0.00000000E+00  0.00000000E+00
  0.00000000E+00  0.00000000E+00  0.00000000E+00
  0.00000000E+00  0.00000000E+00  0.00000000E+00
  0.00000000E+00  0.00000000E+00  0.00000000E+00
  0.00000000E+00  0.00000000E+00  0.00000000E+00
  0.00000000E+00  0.00000000E+00  0.00000000E+00
  0.00000000E+00  0.00000000E+00  0.00000000E+00
  0.00000000E+00  0.00000000E+00  0.00000000E+00
  0.00000000E+00  0.00000000E+00  0.00000000E+00
  0.00000000E+00  0.00000000E+00  0.00000000E+00
  0.00000000E+00  0.00000000E+00  0.00000000E+00
  0.00000000E+00  0.00000000E+00  0.00000000E+00
  0.00000000E+00  0.00000000E+00  0.00000000E+00
  0.00000000E+00  0.00000000E+00  0.00000000E+00
  0.00000000E+00  0.00000000E+00  0.00000000E+00
  0.00000000E+00  0.00000000E+00  0.00000000E+00
  0.00000000E+00  0.00000000E+00  0.00000000E+00
  0.00000000E+00  0.00000000E+00  0.00000000E+00
  0.00000000E+00  0.00000000E+00  0.00000000E+00
  0.00000000E+00  0.00000000E+00  0.00000000E+00
  0.00000000E+00  0.00000000E+00  0.00000000E+00
  0.00000000E+00  0.00000000E+00  0.00000000E+00
  0.00000000E+00  0.00000000E+00  0.00000000E+00
  0.00000000E+00  0.00000000E+00  0.00000000E+00
  0.00000000E+00  0.00000000E+00  0.00000000E+00
  0.00000000E+00  0.00000000E+00  0.00000000E+00
  0.00000000E+00  0.00000000E+00  0.00000000E+00
  0.00000000E+00  0.00000000E+00  0.00000000E+00
  0.00000000E+00  0.00000000E+00  0.00000000E+00
  0.00000000E+00  0.00000000E+00  0.00000000E+00
  0.00000000E+00  0.00000000E+00  0.00000000E+00
  0.00000000E+00  0.00000000E+00  0.00000000E+00
  0.00000000E+00  0.00000000E+00  0.00000000E+00
  0.00000000E+00  0.00000000E+00  0.00000000E+00
  0.00000000E+00  0.00000000E+00  0.00000000E+00
  0.00000000E+00  0.00000000E+00  0.00000000E+00
  0.00000000E+00  0.00000000E+00  0.00000000E+00
  0.00000000E+00  0.00000000E+00  0.00000000E+00
  0.00000000E+00  0.00000000E+00  0.00000000E+00
  0.00000000E+00  0.00000000E+00  0.00000000E+00
  0.00000000E+00  0.00000000E+00  0.00000000E+00
  0.00000000E+00  0.00000000E+00  0.00000000E+00
  0.00000000E+00  0.00000000E+00  0.00000000E+00
  0.00000000E+00  0.00000000E+00  0.00000000E+00
