supercell of icsd_608626.cif            
  0.939760012806631     
     9.2835055658648020    0.0114052822616057   -0.0153133572364054
    -4.6318899383618799    8.0280725867710334   -0.0042614729254583
    -0.0167643028216488   -0.0150911025612559    9.8800133800823975
   Al   B    N 
    22    14    36
Direct
  0.2245826835216036  0.1147283714300755  0.2330601113614605
  0.1129416744979750  0.2256975559672512  0.4971073581426069
  0.7792427344191140  0.2167736082152487  0.9887114424527326
  0.5551857452960576  0.1120504418195551  0.2505270428262918
  0.2219357776024040  0.1122293321085550  0.7561225639158309
  0.7760911395851338  0.2149050779156383  0.5036700521954671
  0.2187317072527577  0.4442751884916305  0.2470234569551906
  0.8889562041012553  0.4416408520888524  0.7465685800042294
  0.7770609415196361  0.5582778907020014  0.9807279458805880
  0.5518202290307954  0.4392895322563746  0.2516638599638625
  0.2142143592850303  0.4357549134766856  0.7522179177671688
  0.8918529351727571  0.4422937889348049  0.2485967501532400
  0.7741476519590549  0.5568196886757164  0.5115982658402984
  0.4424115056064366  0.5521456448628399  0.9946674746235971
  0.2228271912045585  0.7755987737994019  0.2489351564572573
  0.1149298080849874  0.8881681238953405  0.5034716459540078
  0.5622043770481540  0.7845529397531124  0.2563345070205898
  0.2148430632231921  0.7775313825170613  0.7518839600184037
  0.8881311273046038  0.7831796265747428  0.2350881994187617
  0.7834932367779643  0.8936171896161582  0.5043156798332120
  0.5662482862151776  0.7827767810286517  0.7401171187103586
  0.4420158379086985  0.8905216247792822  0.9939004325014906
  0.8923926787712162  0.0983830218039046  0.7623778775910921
  0.4452236643231871  0.2221530553384667  0.5090249962646070
  0.0995601427294517  0.2146892199571866  0.0057778267195800
  0.8872149166478209  0.1100646785847914  0.2372632825782190
  0.5550217453106114  0.1151657189830146  0.7484469841043904
  0.4379104333679393  0.2194266728770629  0.9894506386823778
  0.1292833524771382  0.5641670416833051  0.5082114358501926
  0.4356289797362507  0.5472143514843495  0.5136523249355989
  0.1021898575225251  0.5511559947923814  0.0058477529491725
  0.5531951212664552  0.4371578825019071  0.7496164742173619
  0.8944139260571760  0.7982390188206949  0.7658373156115346
  0.7951024561287952  0.9037646315307626  0.9981622905433909
  0.4364343012324881  0.8876358703809828  0.5136941495932703
  0.1081230153964299  0.8910949703463729  0.0037535371905904
  0.2483449763759182  0.1238013591467464  0.4444149669780586
  0.0858175274465083  0.2113423114271455  0.1772835466577334
  0.9039493465842483  0.1005008540637817  0.9352174364031498
  0.7653775715939091  0.1935484666465968  0.7085995802461156
  0.5344113998707627  0.1038806165434849  0.4521304826721533
  0.4504129308712379  0.2248892296095235  0.1601028809397675
  0.2217989540194125  0.1117958255399500  0.9569759168687497
  0.0809622958942313  0.2058603399157946  0.6954121176177352
  0.8904533080311268  0.1091117192243871  0.4115188481490151
  0.7859143020197124  0.2087960290493385  0.1921819414002925
  0.5383652333137050  0.1204270176960662  0.9204469753804858
  0.4666004216006883  0.2325696056123192  0.6825504716229958
  0.2365089765873307  0.4668266273477144  0.4546258286004772
  0.1098374663075319  0.5557222099553130  0.1729628307466484
  0.9123448944139625  0.4539941609931475  0.9444745180253165
  0.7644038191716831  0.5671880237184368  0.7153388885150491
  0.5341846098343055  0.4302631578869338  0.4533983576447795
  0.4469329166090290  0.5581641622284010  0.1912203087961899
  0.1982227949157931  0.4325341546046317  0.9530421930421014
  0.1162170243110623  0.5576199444074419  0.6734049843581502
  0.9165645391750772  0.4576296665337338  0.4545474182024094
  0.7737922100236574  0.5523073736918604  0.1831439680052114
  0.5346109371401937  0.4159675620077792  0.9199205721281416
  0.4487284855453879  0.5356442875436187  0.6853594295078835
  0.2362365467149985  0.7694973714633235  0.4561288473218568
  0.1119717454797069  0.8877583263638229  0.1706649508797327
  0.9039566403003860  0.8065282513266396  0.9402653864723831
  0.8058819804771460  0.9034136181261374  0.7047416621992255
  0.5398373434544439  0.7710380565898660  0.4676469457414498
  0.4460695758416335  0.8897205300016608  0.1894947886498883
  0.1990948161442958  0.7635231147338857  0.9505306399212969
  0.0827590370107245  0.8769231916517199  0.7010340618142621
  0.8893136171002496  0.7774052862460437  0.4326841610864278
  0.7898608459907592  0.9148698227837713  0.1722813099629974
  0.5855368469822295  0.7929709910607556  0.9414287231635399
  0.4491612552621618  0.9128262762640773  0.6853976514502946
 
  0.00000000E+00  0.00000000E+00  0.00000000E+00
  0.00000000E+00  0.00000000E+00  0.00000000E+00
  0.00000000E+00  0.00000000E+00  0.00000000E+00
  0.00000000E+00  0.00000000E+00  0.00000000E+00
  0.00000000E+00  0.00000000E+00  0.00000000E+00
  0.00000000E+00  0.00000000E+00  0.00000000E+00
  0.00000000E+00  0.00000000E+00  0.00000000E+00
  0.00000000E+00  0.00000000E+00  0.00000000E+00
  0.00000000E+00  0.00000000E+00  0.00000000E+00
  0.00000000E+00  0.00000000E+00  0.00000000E+00
  0.00000000E+00  0.00000000E+00  0.00000000E+00
  0.00000000E+00  0.00000000E+00  0.00000000E+00
  0.00000000E+00  0.00000000E+00  0.00000000E+00
  0.00000000E+00  0.00000000E+00  0.00000000E+00
  0.00000000E+00  0.00000000E+00  0.00000000E+00
  0.00000000E+00  0.00000000E+00  0.00000000E+00
  0.00000000E+00  0.00000000E+00  0.00000000E+00
  0.00000000E+00  0.00000000E+00  0.00000000E+00
  0.00000000E+00  0.00000000E+00  0.00000000E+00
  0.00000000E+00  0.00000000E+00  0.00000000E+00
  0.00000000E+00  0.00000000E+00  0.00000000E+00
  0.00000000E+00  0.00000000E+00  0.00000000E+00
  0.00000000E+00  0.00000000E+00  0.00000000E+00
  0.00000000E+00  0.00000000E+00  0.00000000E+00
  0.00000000E+00  0.00000000E+00  0.00000000E+00
  0.00000000E+00  0.00000000E+00  0.00000000E+00
  0.00000000E+00  0.00000000E+00  0.00000000E+00
  0.00000000E+00  0.00000000E+00  0.00000000E+00
  0.00000000E+00  0.00000000E+00  0.00000000E+00
  0.00000000E+00  0.00000000E+00  0.00000000E+00
  0.00000000E+00  0.00000000E+00  0.00000000E+00
  0.00000000E+00  0.00000000E+00  0.00000000E+00
  0.00000000E+00  0.00000000E+00  0.00000000E+00
  0.00000000E+00  0.00000000E+00  0.00000000E+00
  0.00000000E+00  0.00000000E+00  0.00000000E+00
  0.00000000E+00  0.00000000E+00  0.00000000E+00
  0.00000000E+00  0.00000000E+00  0.00000000E+00
  0.00000000E+00  0.00000000E+00  0.00000000E+00
  0.00000000E+00  0.00000000E+00  0.00000000E+00
  0.00000000E+00  0.00000000E+00  0.00000000E+00
  0.00000000E+00  0.00000000E+00  0.00000000E+00
  0.00000000E+00  0.00000000E+00  0.00000000E+00
  0.00000000E+00  0.00000000E+00  0.00000000E+00
  0.00000000E+00  0.00000000E+00  0.00000000E+00
  0.00000000E+00  0.00000000E+00  0.00000000E+00
  0.00000000E+00  0.00000000E+00  0.00000000E+00
  0.00000000E+00  0.00000000E+00  0.00000000E+00
  0.00000000E+00  0.00000000E+00  0.00000000E+00
  0.00000000E+00  0.00000000E+00  0.00000000E+00
  0.00000000E+00  0.00000000E+00  0.00000000E+00
  0.00000000E+00  0.00000000E+00  0.00000000E+00
  0.00000000E+00  0.00000000E+00  0.00000000E+00
  0.00000000E+00  0.00000000E+00  0.00000000E+00
  0.00000000E+00  0.00000000E+00  0.00000000E+00
  0.00000000E+00  0.00000000E+00  0.00000000E+00
  0.00000000E+00  0.00000000E+00  0.00000000E+00
  0.00000000E+00  0.00000000E+00  0.00000000E+00
  0.00000000E+00  0.00000000E+00  0.00000000E+00
  0.00000000E+00  0.00000000E+00  0.00000000E+00
  0.00000000E+00  0.00000000E+00  0.00000000E+00
  0.00000000E+00  0.00000000E+00  0.00000000E+00
  0.00000000E+00  0.00000000E+00  0.00000000E+00
  0.00000000E+00  0.00000000E+00  0.00000000E+00
  0.00000000E+00  0.00000000E+00  0.00000000E+00
  0.00000000E+00  0.00000000E+00  0.00000000E+00
  0.00000000E+00  0.00000000E+00  0.00000000E+00
  0.00000000E+00  0.00000000E+00  0.00000000E+00
  0.00000000E+00  0.00000000E+00  0.00000000E+00
  0.00000000E+00  0.00000000E+00  0.00000000E+00
  0.00000000E+00  0.00000000E+00  0.00000000E+00
  0.00000000E+00  0.00000000E+00  0.00000000E+00
  0.00000000E+00  0.00000000E+00  0.00000000E+00
