supercell of 100% icsd_608626.cif, 0% i 
   1.00000000000000     
    -9.7468089388318617   -0.0092531081902617   -0.0061742314403031
    -4.8653792197492285    8.4369239308529753   -0.0015411197371694
    -0.0068330632344565   -0.0019937262149177  -10.1270831800198682
   Al   Hf   Mg   N 
    26     5     5    36
Direct
  0.1056880866711296  0.1006418017485657  0.2956530092337672
  0.2140064097922547  0.2086492731228020  0.0418868034868822
  0.7860234759319127  0.0983059538052728  0.7999841182839731
  0.8964161604600136  0.2054943756859373  0.5472470023590361
  0.5585109166095563  0.2018004372761126  0.0310890382091884
  0.1054571194542575  0.1044110877489217  0.7947838894647461
  0.2121313585619333  0.2087999394403681  0.5494755107902307
  0.7844589498066128  0.0950186070373746  0.2922588374551154
  0.0983466565634430  0.4262221364678069  0.2944413572824303
  0.2236534278444040  0.5262364709322327  0.0424144126001238
  0.7815020670972430  0.4242132493177735  0.7941437190502967
  0.8902093300702134  0.5338212532140787  0.5480114680461199
  0.1053959173004060  0.4231551188071236  0.7963313031679746
  0.2126965721338436  0.5379236063298336  0.5520486341734241
  0.7857501927878374  0.4296908500325429  0.2930899065095858
  0.8866600641495879  0.5407469960450584  0.0443160499386437
  0.4470315754990111  0.4321820013604381  0.7965455210939183
  0.2316343832618628  0.8831612561848701  0.0459090236809843
  0.7729416105156446  0.7571018653518280  0.7967530103513454
  0.8880819939102125  0.8703976821913670  0.5482030672198306
  0.4489957091134826  0.7613913709335378  0.2925185214461052
  0.5611833245370974  0.8634048055947119  0.0394045351157501
  0.2268148803377272  0.8784675311495747  0.5485369009640024
  0.8720220172271667  0.8779236067740896  0.0439606082767696
  0.4512069993938397  0.7597449151899198  0.7935811064401079
  0.5525961429088682  0.8663012643990342  0.5502183517432258
  0.4431151452370301  0.0893669763711529  0.2966088541863883
  0.5597674336705580  0.2005960721461548  0.5764457476365763
  0.4498860228117820  0.4277737917149196  0.2993754120066328
  0.1067015158851135  0.7670073644307038  0.2928389771581834
  0.1115996016178897  0.7634214622195756  0.8086237940158441
  0.8904408396382664  0.2085651942956162  0.0496571725183799
  0.4361464425490809  0.0882264631057907  0.8063566725678726
  0.5628250510474189  0.5419171575573429  0.0429998654645303
  0.5605664225147535  0.5455823315281378  0.5576791244632915
  0.7782695353919351  0.7519883241984218  0.2971197877663627
  0.2068547341500349  0.2135293136776539  0.3582385716746188
  0.1257387464864479  0.0892867260448824  0.1119616478485597
  0.8915569178087708  0.2048917321653505  0.8458525725333459
  0.8038140122537314  0.0809111906623627  0.6102831752213618
  0.5741075962858062  0.1953721938992388  0.3640435261099597
  0.4444848891344435  0.0948517116489072  0.0862266878392148
  0.2025577659162252  0.2155549577047680  0.8567569695414292
  0.1117656576313735  0.0939303764222785  0.6034686024105227
  0.8885970453795267  0.2050059359290515  0.3533722848487812
  0.7660546914455253  0.0892281674578470  0.1059032965313307
  0.5642157398444567  0.2110102682023296  0.8355101647731686
  0.4318636525067987  0.0881863145038722  0.5891715165962879
  0.2111066358122500  0.5326803938807814  0.3599554071656215
  0.1104922166062750  0.4283012521626333  0.1054254444976763
  0.8900706801353095  0.5396779860223333  0.8520341118538255
  0.7961040285779433  0.4166297590347767  0.6068338650443579
  0.5638911087644658  0.5468340938567025  0.3462621658595282
  0.4387960403562019  0.4161195094558465  0.0960999916035874
  0.2287074978932395  0.5218694423085637  0.8543643678113497
  0.1093943285578263  0.4274728774436909  0.6072879082674376
  0.8970213615860203  0.5250999633005051  0.3629090838628599
  0.7884050569232741  0.4357327338487096  0.1105044318776862
  0.5557835538909188  0.5397951239647298  0.8360563622043955
  0.4240902416433769  0.4400246543958488  0.6036436995000898
  0.2278997972825110  0.8795879668670494  0.3575521153639869
  0.1110319247054932  0.7615899989729868  0.0812508097396076
  0.8719457991261024  0.8810803369143798  0.8542652913219015
  0.7770753426068282  0.7613383170766923  0.6036623654718909
  0.5498518021432659  0.8642526228818070  0.3624272913793192
  0.4388186222635824  0.7763922244484505  0.1077990147584487
  0.2302720604189687  0.8843209212072338  0.8561990341906665
  0.1111607830386134  0.7607763057210661  0.5969586505987934
  0.8815865680169708  0.8867995809323830  0.3604689572505606
  0.7783028923825697  0.7601796494509401  0.0932598089545351
  0.5641585201834332  0.8546102066005545  0.8544120318138724
  0.4336883359379868  0.7774225972238753  0.6090676595117586
 
  0.00000000E+00  0.00000000E+00  0.00000000E+00
  0.00000000E+00  0.00000000E+00  0.00000000E+00
  0.00000000E+00  0.00000000E+00  0.00000000E+00
  0.00000000E+00  0.00000000E+00  0.00000000E+00
  0.00000000E+00  0.00000000E+00  0.00000000E+00
  0.00000000E+00  0.00000000E+00  0.00000000E+00
  0.00000000E+00  0.00000000E+00  0.00000000E+00
  0.00000000E+00  0.00000000E+00  0.00000000E+00
  0.00000000E+00  0.00000000E+00  0.00000000E+00
  0.00000000E+00  0.00000000E+00  0.00000000E+00
  0.00000000E+00  0.00000000E+00  0.00000000E+00
  0.00000000E+00  0.00000000E+00  0.00000000E+00
  0.00000000E+00  0.00000000E+00  0.00000000E+00
  0.00000000E+00  0.00000000E+00  0.00000000E+00
  0.00000000E+00  0.00000000E+00  0.00000000E+00
  0.00000000E+00  0.00000000E+00  0.00000000E+00
  0.00000000E+00  0.00000000E+00  0.00000000E+00
  0.00000000E+00  0.00000000E+00  0.00000000E+00
  0.00000000E+00  0.00000000E+00  0.00000000E+00
  0.00000000E+00  0.00000000E+00  0.00000000E+00
  0.00000000E+00  0.00000000E+00  0.00000000E+00
  0.00000000E+00  0.00000000E+00  0.00000000E+00
  0.00000000E+00  0.00000000E+00  0.00000000E+00
  0.00000000E+00  0.00000000E+00  0.00000000E+00
  0.00000000E+00  0.00000000E+00  0.00000000E+00
  0.00000000E+00  0.00000000E+00  0.00000000E+00
  0.00000000E+00  0.00000000E+00  0.00000000E+00
  0.00000000E+00  0.00000000E+00  0.00000000E+00
  0.00000000E+00  0.00000000E+00  0.00000000E+00
  0.00000000E+00  0.00000000E+00  0.00000000E+00
  0.00000000E+00  0.00000000E+00  0.00000000E+00
  0.00000000E+00  0.00000000E+00  0.00000000E+00
  0.00000000E+00  0.00000000E+00  0.00000000E+00
  0.00000000E+00  0.00000000E+00  0.00000000E+00
  0.00000000E+00  0.00000000E+00  0.00000000E+00
  0.00000000E+00  0.00000000E+00  0.00000000E+00
  0.00000000E+00  0.00000000E+00  0.00000000E+00
  0.00000000E+00  0.00000000E+00  0.00000000E+00
  0.00000000E+00  0.00000000E+00  0.00000000E+00
  0.00000000E+00  0.00000000E+00  0.00000000E+00
  0.00000000E+00  0.00000000E+00  0.00000000E+00
  0.00000000E+00  0.00000000E+00  0.00000000E+00
  0.00000000E+00  0.00000000E+00  0.00000000E+00
  0.00000000E+00  0.00000000E+00  0.00000000E+00
  0.00000000E+00  0.00000000E+00  0.00000000E+00
  0.00000000E+00  0.00000000E+00  0.00000000E+00
  0.00000000E+00  0.00000000E+00  0.00000000E+00
  0.00000000E+00  0.00000000E+00  0.00000000E+00
  0.00000000E+00  0.00000000E+00  0.00000000E+00
  0.00000000E+00  0.00000000E+00  0.00000000E+00
  0.00000000E+00  0.00000000E+00  0.00000000E+00
  0.00000000E+00  0.00000000E+00  0.00000000E+00
  0.00000000E+00  0.00000000E+00  0.00000000E+00
  0.00000000E+00  0.00000000E+00  0.00000000E+00
  0.00000000E+00  0.00000000E+00  0.00000000E+00
  0.00000000E+00  0.00000000E+00  0.00000000E+00
  0.00000000E+00  0.00000000E+00  0.00000000E+00
  0.00000000E+00  0.00000000E+00  0.00000000E+00
  0.00000000E+00  0.00000000E+00  0.00000000E+00
  0.00000000E+00  0.00000000E+00  0.00000000E+00
  0.00000000E+00  0.00000000E+00  0.00000000E+00
  0.00000000E+00  0.00000000E+00  0.00000000E+00
  0.00000000E+00  0.00000000E+00  0.00000000E+00
  0.00000000E+00  0.00000000E+00  0.00000000E+00
  0.00000000E+00  0.00000000E+00  0.00000000E+00
  0.00000000E+00  0.00000000E+00  0.00000000E+00
  0.00000000E+00  0.00000000E+00  0.00000000E+00
  0.00000000E+00  0.00000000E+00  0.00000000E+00
  0.00000000E+00  0.00000000E+00  0.00000000E+00
  0.00000000E+00  0.00000000E+00  0.00000000E+00
  0.00000000E+00  0.00000000E+00  0.00000000E+00
  0.00000000E+00  0.00000000E+00  0.00000000E+00
