supercell of 100% icsd_608626.cif, 0% i 
   1.00000000000000     
    -9.7013193763870138   -0.0065715765091722   -0.0002588976250754
    -4.8449429586448076    8.4272105351715521    0.0212671131615237
    -0.0002884187130380   -0.0262912437705779  -10.1887087628685116
   Al   Hf   Mg   N 
    26     5     5    36
Direct
  0.1097216003920352  0.0893420765556101  0.2995340880950437
  0.8766096617856505  0.2103467232808072  0.5381828510531790
  0.4545666381721958  0.0884986633707570  0.3002859459366647
  0.5610290211530966  0.1960711085785292  0.0451537785816711
  0.2298481873152909  0.2018864759405261  0.5438550362258212
  0.7768085311123443  0.0902801367763857  0.2974829404160602
  0.4520277345723827  0.0965916644015010  0.7902811933935254
  0.5598153592474517  0.2055629878469531  0.5456404490914366
  0.2181792082892429  0.5431956989743085  0.0416373365118972
  0.7812362674619777  0.4228248488836144  0.7878245006223636
  0.4450809196006134  0.4222214017898622  0.3006337336896152
  0.1114189114174664  0.4340084744942132  0.7847811948691259
  0.2297590857223426  0.5459803993235610  0.5516677360842550
  0.7797349580162347  0.4289566859764875  0.2986857102360361
  0.8846680357513179  0.5480636150211993  0.0411547128192566
  0.4422609090605292  0.4166722123282725  0.7934483540719128
  0.5577505249112491  0.5317296286718332  0.5381364298307858
  0.1090209696809552  0.7663061677642986  0.2948630363281879
  0.2216400850530462  0.8687994076863674  0.0562467234345760
  0.7801715148215393  0.7677059957673933  0.7977988028221716
  0.4447804511865741  0.7661977485417566  0.3020673700235079
  0.5627692896013343  0.8731079407190308  0.0505924950674128
  0.2202982598064054  0.8675930395524247  0.5331650710051790
  0.7749873690996552  0.7664396345708369  0.2930381645112732
  0.8851264799272087  0.8734866671121537  0.0486502665623476
  0.5608796778098650  0.8750012433137329  0.5420937053962049
  0.2250670118876315  0.2082601647924278  0.0504476194715409
  0.1046848249355179  0.0915140682364068  0.7885956319288212
  0.1052115045052631  0.4377675606403315  0.3182148552767430
  0.5572403742366703  0.5321217818789776  0.0614552316483667
  0.4521812928274116  0.7561207282152367  0.7899036977003462
  0.7722459763181817  0.0923016533553067  0.7936547471004971
  0.8866244246776773  0.2001261546213371  0.0533545657281635
  0.8764086864474692  0.5495105423212365  0.5578649460480420
  0.8889650182223647  0.8724967617818820  0.5476827632018910
  0.1060101657982528  0.7544552584383553  0.7988633049920892
  0.2316705955336005  0.1909728904465382  0.3495318186279448
  0.1213386081251144  0.0813363087095951  0.1110860752030476
  0.8829079333583039  0.2193263871109110  0.8526880573700168
  0.7706928359418939  0.1079146602374479  0.5908832444331011
  0.5520113386869383  0.2068595615492086  0.3562269709643715
  0.4583428961109561  0.0851959451109394  0.1122541278866294
  0.2258645751729205  0.2108518024662516  0.8433513180853325
  0.1108798317008279  0.0950150902920583  0.5829471524186687
  0.8883506378362824  0.2082075375051105  0.3474361568429742
  0.7675381855977506  0.0884438787661566  0.1108327187265346
  0.5400078917677860  0.2111020821359091  0.8604065921075801
  0.4446129069241209  0.0941395603031907  0.6017204301018424
  0.2324658004329692  0.5511625796853679  0.3598517258334084
  0.0997216619174779  0.4476407313542197  0.1086701790650650
  0.8891158046254048  0.5376432714853436  0.8488137527122035
  0.7667914198467898  0.4232546066204819  0.6023607074798178
  0.5547317472915552  0.5373798099700053  0.3426685227246082
  0.4329768866250063  0.4145021508428357  0.1119728577272454
  0.2303632290123829  0.5208999540810026  0.8570850022958112
  0.1269363195510422  0.4220648659655666  0.5915892211168980
  0.8676441694770745  0.5537968051994326  0.3527955836229211
  0.7894282213956529  0.4350021115831453  0.1118788514332678
  0.5621548115568729  0.5221266489643810  0.8547575026564971
  0.4468758067443019  0.4271246324195417  0.6034251341798722
  0.2233950240995526  0.8721014397602858  0.3468284683897664
  0.1155830861156986  0.7572928214011583  0.1048599370111489
  0.8827294988741414  0.8667513709090215  0.8669622893243769
  0.7567775487153696  0.7751145068926633  0.6178869951112702
  0.5570382769782967  0.8738668254061182  0.3534069061921130
  0.4424512610021125  0.7732257457021987  0.1087087550007553
  0.2295898433133914  0.8666095170831341  0.8699137314472196
  0.1279337025507630  0.7574992277399701  0.5991459582260887
  0.8909798953345955  0.8686915975132550  0.3392918240294662
  0.7760612865501528  0.7597823470085743  0.1041310401776983
  0.5553897180091099  0.8835062364371495  0.8628425269152302
  0.4438178123993666  0.7620491698179777  0.5838488747831505
 
  0.00000000E+00  0.00000000E+00  0.00000000E+00
  0.00000000E+00  0.00000000E+00  0.00000000E+00
  0.00000000E+00  0.00000000E+00  0.00000000E+00
  0.00000000E+00  0.00000000E+00  0.00000000E+00
  0.00000000E+00  0.00000000E+00  0.00000000E+00
  0.00000000E+00  0.00000000E+00  0.00000000E+00
  0.00000000E+00  0.00000000E+00  0.00000000E+00
  0.00000000E+00  0.00000000E+00  0.00000000E+00
  0.00000000E+00  0.00000000E+00  0.00000000E+00
  0.00000000E+00  0.00000000E+00  0.00000000E+00
  0.00000000E+00  0.00000000E+00  0.00000000E+00
  0.00000000E+00  0.00000000E+00  0.00000000E+00
  0.00000000E+00  0.00000000E+00  0.00000000E+00
  0.00000000E+00  0.00000000E+00  0.00000000E+00
  0.00000000E+00  0.00000000E+00  0.00000000E+00
  0.00000000E+00  0.00000000E+00  0.00000000E+00
  0.00000000E+00  0.00000000E+00  0.00000000E+00
  0.00000000E+00  0.00000000E+00  0.00000000E+00
  0.00000000E+00  0.00000000E+00  0.00000000E+00
  0.00000000E+00  0.00000000E+00  0.00000000E+00
  0.00000000E+00  0.00000000E+00  0.00000000E+00
  0.00000000E+00  0.00000000E+00  0.00000000E+00
  0.00000000E+00  0.00000000E+00  0.00000000E+00
  0.00000000E+00  0.00000000E+00  0.00000000E+00
  0.00000000E+00  0.00000000E+00  0.00000000E+00
  0.00000000E+00  0.00000000E+00  0.00000000E+00
  0.00000000E+00  0.00000000E+00  0.00000000E+00
  0.00000000E+00  0.00000000E+00  0.00000000E+00
  0.00000000E+00  0.00000000E+00  0.00000000E+00
  0.00000000E+00  0.00000000E+00  0.00000000E+00
  0.00000000E+00  0.00000000E+00  0.00000000E+00
  0.00000000E+00  0.00000000E+00  0.00000000E+00
  0.00000000E+00  0.00000000E+00  0.00000000E+00
  0.00000000E+00  0.00000000E+00  0.00000000E+00
  0.00000000E+00  0.00000000E+00  0.00000000E+00
  0.00000000E+00  0.00000000E+00  0.00000000E+00
  0.00000000E+00  0.00000000E+00  0.00000000E+00
  0.00000000E+00  0.00000000E+00  0.00000000E+00
  0.00000000E+00  0.00000000E+00  0.00000000E+00
  0.00000000E+00  0.00000000E+00  0.00000000E+00
  0.00000000E+00  0.00000000E+00  0.00000000E+00
  0.00000000E+00  0.00000000E+00  0.00000000E+00
  0.00000000E+00  0.00000000E+00  0.00000000E+00
  0.00000000E+00  0.00000000E+00  0.00000000E+00
  0.00000000E+00  0.00000000E+00  0.00000000E+00
  0.00000000E+00  0.00000000E+00  0.00000000E+00
  0.00000000E+00  0.00000000E+00  0.00000000E+00
  0.00000000E+00  0.00000000E+00  0.00000000E+00
  0.00000000E+00  0.00000000E+00  0.00000000E+00
  0.00000000E+00  0.00000000E+00  0.00000000E+00
  0.00000000E+00  0.00000000E+00  0.00000000E+00
  0.00000000E+00  0.00000000E+00  0.00000000E+00
  0.00000000E+00  0.00000000E+00  0.00000000E+00
  0.00000000E+00  0.00000000E+00  0.00000000E+00
  0.00000000E+00  0.00000000E+00  0.00000000E+00
  0.00000000E+00  0.00000000E+00  0.00000000E+00
  0.00000000E+00  0.00000000E+00  0.00000000E+00
  0.00000000E+00  0.00000000E+00  0.00000000E+00
  0.00000000E+00  0.00000000E+00  0.00000000E+00
  0.00000000E+00  0.00000000E+00  0.00000000E+00
  0.00000000E+00  0.00000000E+00  0.00000000E+00
  0.00000000E+00  0.00000000E+00  0.00000000E+00
  0.00000000E+00  0.00000000E+00  0.00000000E+00
  0.00000000E+00  0.00000000E+00  0.00000000E+00
  0.00000000E+00  0.00000000E+00  0.00000000E+00
  0.00000000E+00  0.00000000E+00  0.00000000E+00
  0.00000000E+00  0.00000000E+00  0.00000000E+00
  0.00000000E+00  0.00000000E+00  0.00000000E+00
  0.00000000E+00  0.00000000E+00  0.00000000E+00
  0.00000000E+00  0.00000000E+00  0.00000000E+00
  0.00000000E+00  0.00000000E+00  0.00000000E+00
  0.00000000E+00  0.00000000E+00  0.00000000E+00
