supercell of 100% icsd_608626.cif, 0% i 
   1.00000000000000     
    -9.7247962183968824   -0.0056459860727940   -0.0055505544712127
    -4.8574917752179028    8.4284584337336312    0.0085284764320968
    -0.0057587432017437   -0.0139127020741966  -10.1667167772614810
   Mg   Al   Hf   N 
     5    26     5    36
Direct
  0.1191549660767350  0.0899138683117542  0.2983099469283559
  0.5557816229343899  0.5422866807696209  0.0488933508856135
  0.2258762618082670  0.8717575261601027  0.0466412848514537
  0.7723515484679737  0.7580931650773337  0.7896492239263040
  0.5509981700021029  0.8712011740029197  0.0436591485020656
  0.2215676749589690  0.2000976543332911  0.0513115627318257
  0.8943826562190367  0.2080351133252805  0.5499387988568074
  0.4321302258101269  0.0990543173089762  0.2900626581867058
  0.5322496062818658  0.2174616813851387  0.0419383209358273
  0.1197255101316372  0.0867980354644402  0.7936046026215138
  0.2167945889837668  0.2060873886700705  0.5400542391815719
  0.9022645704551380  0.2177868909470249  0.0403869320288663
  0.4370425280644383  0.0857155171912325  0.7981226830826671
  0.1186508000932633  0.4215572894671951  0.2892312153155103
  0.2247171381877138  0.5429908351890091  0.0543558550846441
  0.7715892362696692  0.4347202031337858  0.7940269899652108
  0.8909400996579322  0.5322694322524839  0.5438906909327770
  0.4392776155447962  0.4370283572500568  0.2922950147350605
  0.2164474969251202  0.5457174499758111  0.5404408590487293
  0.7769441193882685  0.4255196684069134  0.2956632708267577
  0.8868821109744331  0.5360203978872633  0.0514944103121309
  0.4406486352588246  0.4436127441116327  0.7980492189824204
  0.5550812210559499  0.5452024651813971  0.5463712376648715
  0.1236815379479097  0.7556391238498392  0.2955841627381517
  0.8988049443071304  0.8657130282412524  0.5502931448934731
  0.4358206386538725  0.7613132809336776  0.2952129749667805
  0.1223879054727774  0.7605269624745787  0.7943057456890159
  0.2243103087463254  0.8684719012991877  0.5482258881133291
  0.9046070074831860  0.8489476928814454  0.0418102642255818
  0.4442627086404869  0.7620485704244118  0.7933019955752627
  0.5461992180684092  0.8718234616647820  0.5504279439083462
  0.7815719857588377  0.0912195998892003  0.8260106443149127
  0.7821401839930076  0.0982803346836008  0.2783383197896327
  0.5514871575707900  0.2079208886545487  0.5559672588039248
  0.1126539564521423  0.4291768717945956  0.8100075607910071
  0.7743804442544686  0.7578091564052087  0.3111181268751082
  0.2281101142765181  0.2163630616092220  0.3574833985231578
  0.1047055115947515  0.1060424717068358  0.0985733650268088
  0.8999650250098483  0.2163981068840855  0.8501044698245224
  0.7928303179099530  0.0856395247329473  0.6105045349080029
  0.5485246177126513  0.2092482011317145  0.3500342251132835
  0.4359611079353840  0.1082120342372477  0.1059605039154548
  0.2267320495037666  0.1918173692126501  0.8581085176615915
  0.1114475593511557  0.0959254350750101  0.6014228146672309
  0.8783072014623272  0.2168816829195137  0.3646795076293330
  0.7746167945005311  0.0966897293409730  0.0656663799571859
  0.5295746477843011  0.2193085089543843  0.8443432825176131
  0.4307413452309135  0.0916631990582957  0.6076444646305106
  0.2212340563073028  0.5375333091399028  0.3530528902391765
  0.1127142909195484  0.4280167214115309  0.0943143872697405
  0.8797668061253958  0.5327723251703063  0.8626572213729844
  0.7783271182542322  0.4282467747800638  0.6042132903868875
  0.5583184991014818  0.5352918055282174  0.3577352315037530
  0.4379258341190138  0.4221997679026614  0.1085201641781453
  0.2319168662916837  0.5504806741298012  0.8625772454889145
  0.1107676789196717  0.4292963358441426  0.6015176071586126
  0.9019111864860747  0.5167261169178374  0.3558863918603734
  0.7904611833324182  0.4206869252454197  0.1115259711866443
  0.5573421790746806  0.5395610161994071  0.8406363075944583
  0.4317773850484627  0.4462875985606729  0.6060811815513176
  0.2273170757256580  0.8564344873591025  0.3642270064265603
  0.1063770203824390  0.7541151626618685  0.1124288294221714
  0.9116876902100941  0.8512279804665326  0.8558741942583623
  0.7779456064194505  0.7596434480366838  0.5740217518808493
  0.5332375075868043  0.8874202490537542  0.3611612889097486
  0.4453490356868741  0.7605102391905589  0.1186063334023331
  0.2241662234749953  0.8720223934085425  0.8365261580675138
  0.1117756686213554  0.7572013007603360  0.6052548191526270
  0.9034679770003251  0.8728064979191927  0.3604719524704407
  0.7923955706489849  0.7533400269174848  0.1076521209721264
  0.5443109622674314  0.8768036402906247  0.8398065978736184
  0.4441838848237722  0.7593671492434666  0.6017300467256632
 
  0.00000000E+00  0.00000000E+00  0.00000000E+00
  0.00000000E+00  0.00000000E+00  0.00000000E+00
  0.00000000E+00  0.00000000E+00  0.00000000E+00
  0.00000000E+00  0.00000000E+00  0.00000000E+00
  0.00000000E+00  0.00000000E+00  0.00000000E+00
  0.00000000E+00  0.00000000E+00  0.00000000E+00
  0.00000000E+00  0.00000000E+00  0.00000000E+00
  0.00000000E+00  0.00000000E+00  0.00000000E+00
  0.00000000E+00  0.00000000E+00  0.00000000E+00
  0.00000000E+00  0.00000000E+00  0.00000000E+00
  0.00000000E+00  0.00000000E+00  0.00000000E+00
  0.00000000E+00  0.00000000E+00  0.00000000E+00
  0.00000000E+00  0.00000000E+00  0.00000000E+00
  0.00000000E+00  0.00000000E+00  0.00000000E+00
  0.00000000E+00  0.00000000E+00  0.00000000E+00
  0.00000000E+00  0.00000000E+00  0.00000000E+00
  0.00000000E+00  0.00000000E+00  0.00000000E+00
  0.00000000E+00  0.00000000E+00  0.00000000E+00
  0.00000000E+00  0.00000000E+00  0.00000000E+00
  0.00000000E+00  0.00000000E+00  0.00000000E+00
  0.00000000E+00  0.00000000E+00  0.00000000E+00
  0.00000000E+00  0.00000000E+00  0.00000000E+00
  0.00000000E+00  0.00000000E+00  0.00000000E+00
  0.00000000E+00  0.00000000E+00  0.00000000E+00
  0.00000000E+00  0.00000000E+00  0.00000000E+00
  0.00000000E+00  0.00000000E+00  0.00000000E+00
  0.00000000E+00  0.00000000E+00  0.00000000E+00
  0.00000000E+00  0.00000000E+00  0.00000000E+00
  0.00000000E+00  0.00000000E+00  0.00000000E+00
  0.00000000E+00  0.00000000E+00  0.00000000E+00
  0.00000000E+00  0.00000000E+00  0.00000000E+00
  0.00000000E+00  0.00000000E+00  0.00000000E+00
  0.00000000E+00  0.00000000E+00  0.00000000E+00
  0.00000000E+00  0.00000000E+00  0.00000000E+00
  0.00000000E+00  0.00000000E+00  0.00000000E+00
  0.00000000E+00  0.00000000E+00  0.00000000E+00
  0.00000000E+00  0.00000000E+00  0.00000000E+00
  0.00000000E+00  0.00000000E+00  0.00000000E+00
  0.00000000E+00  0.00000000E+00  0.00000000E+00
  0.00000000E+00  0.00000000E+00  0.00000000E+00
  0.00000000E+00  0.00000000E+00  0.00000000E+00
  0.00000000E+00  0.00000000E+00  0.00000000E+00
  0.00000000E+00  0.00000000E+00  0.00000000E+00
  0.00000000E+00  0.00000000E+00  0.00000000E+00
  0.00000000E+00  0.00000000E+00  0.00000000E+00
  0.00000000E+00  0.00000000E+00  0.00000000E+00
  0.00000000E+00  0.00000000E+00  0.00000000E+00
  0.00000000E+00  0.00000000E+00  0.00000000E+00
  0.00000000E+00  0.00000000E+00  0.00000000E+00
  0.00000000E+00  0.00000000E+00  0.00000000E+00
  0.00000000E+00  0.00000000E+00  0.00000000E+00
  0.00000000E+00  0.00000000E+00  0.00000000E+00
  0.00000000E+00  0.00000000E+00  0.00000000E+00
  0.00000000E+00  0.00000000E+00  0.00000000E+00
  0.00000000E+00  0.00000000E+00  0.00000000E+00
  0.00000000E+00  0.00000000E+00  0.00000000E+00
  0.00000000E+00  0.00000000E+00  0.00000000E+00
  0.00000000E+00  0.00000000E+00  0.00000000E+00
  0.00000000E+00  0.00000000E+00  0.00000000E+00
  0.00000000E+00  0.00000000E+00  0.00000000E+00
  0.00000000E+00  0.00000000E+00  0.00000000E+00
  0.00000000E+00  0.00000000E+00  0.00000000E+00
  0.00000000E+00  0.00000000E+00  0.00000000E+00
  0.00000000E+00  0.00000000E+00  0.00000000E+00
  0.00000000E+00  0.00000000E+00  0.00000000E+00
  0.00000000E+00  0.00000000E+00  0.00000000E+00
  0.00000000E+00  0.00000000E+00  0.00000000E+00
  0.00000000E+00  0.00000000E+00  0.00000000E+00
  0.00000000E+00  0.00000000E+00  0.00000000E+00
  0.00000000E+00  0.00000000E+00  0.00000000E+00
  0.00000000E+00  0.00000000E+00  0.00000000E+00
  0.00000000E+00  0.00000000E+00  0.00000000E+00
