supercell of supercell of icsd_608626.ci
   1.00600000000000     
    18.8433725412000008    0.0042597715995000    0.0111656436851000
    -6.2786657403800001   10.8752831735999997   -0.0012954496991100
     0.0059525623905900    0.0022414031449000   10.0498800689000003
   Al   Gd   N 
    92     4    96
Direct
  0.1117006463495684  0.0837830637913797  0.2482522610841187
  0.0510958915837705  0.1616730962722244  0.9982320934260827
  0.4450326896245329  0.3345739403750514  0.7500934197189650
  0.3900330095431315  0.4171408214433328  0.4998420860211539
  0.2792064880143599  0.0858078710159731  0.2582959552218611
  0.2250823679132523  0.1688874002833316  0.9978996100534019
  0.1068068490832914  0.3299160746684962  0.7431653167309662
  0.0550504980211883  0.4178004139172486  0.4998093606571317
  0.4442499532463628  0.0831150152898061  0.2488750609342105
  0.3919183241528614  0.1720385778742326  0.9978878306444514
  0.2792918081727791  0.3316771114776529  0.7442772946649328
  0.2222487670238706  0.4167162167880889  0.4997582084711070
  0.1111574300256706  0.0832456940670099  0.7494707920602792
  0.0546384222197744  0.1642458335320285  0.4999986122058218
  0.4448445959160239  0.3336857824377049  0.2490953040379509
  0.3895088181271902  0.4145534368228425  0.9992719796214828
  0.2798897168642682  0.0879757542262354  0.7442929541070242
  0.2215355211231511  0.1660797830646530  0.5011916859230325
  0.1095331354666911  0.3318459096073028  0.2588575743933248
  0.0532333734809498  0.4161316965652730  0.9988228950399289
  0.4440779312366274  0.0824023348626781  0.7497728535874373
  0.3907134786130158  0.1684044109649037  0.5001812116016495
  0.2788524920585189  0.3326340758295387  0.2585368826132068
  0.6117006463495684  0.0837830637913797  0.2482522610841187
  0.5510958915837776  0.1616730962722244  0.9982320934260827
  0.9450326896245400  0.3345739403750514  0.7500934197189650
  0.8900330095431315  0.4171408214433328  0.4998420860211539
  0.7792064880143599  0.0858078710159731  0.2582959552218611
  0.7250823679132523  0.1688874002833316  0.9978996100534019
  0.6068068490832914  0.3299160746684962  0.7431653167309662
  0.5550504980211883  0.4178004139172486  0.4998093606571317
  0.9442499532463628  0.0831150152898061  0.2488750609342105
  0.8919183241528614  0.1720385778742326  0.9978878306444514
  0.7792918081727791  0.3316771114776529  0.7442772946649328
  0.7222487670238706  0.4167162167880889  0.4997582084711070
  0.6111574300256706  0.0832456940670099  0.7494707920602792
  0.5546384222197744  0.1642458335320285  0.4999986122058218
  0.9448445959160239  0.3336857824377049  0.2490953040379509
  0.8895088181271902  0.4145534368228425  0.9992719796214828
  0.7798897168642682  0.0879757542262354  0.7442929541070242
  0.7215355211231511  0.1660797830646530  0.5011916859230325
  0.6095331354666982  0.3318459096073028  0.2588575743933248
  0.5532333734809498  0.4161316965652730  0.9988228950399289
  0.9440779312366274  0.0824023348626781  0.7497728535874373
  0.8907134786130158  0.1684044109649037  0.5001812116016495
  0.7788524920585260  0.3326340758295387  0.2585368826132068
  0.1117006463495684  0.5837830637913797  0.2482522610841187
  0.0510958915837705  0.6616730962722244  0.9982320934260827
  0.4450326896245329  0.8345739403750514  0.7500934197189650
  0.3900330095431315  0.9171408214433328  0.4998420860211539
  0.2792064880143599  0.5858078710159731  0.2582959552218611
  0.2250823679132523  0.6688874002833387  0.9978996100534019
  0.1068068490832914  0.8299160746684962  0.7431653167309662
  0.0550504980211883  0.9178004139172486  0.4998093606571317
  0.4442499532463557  0.5831150152898061  0.2488750609342105
  0.3919183241528543  0.6720385778742326  0.9978878306444514
  0.2792918081727791  0.8316771114776529  0.7442772946649328
  0.2222487670238706  0.9167162167880889  0.4997582084711070
  0.1111574300256635  0.5832456940670099  0.7494707920602792
  0.0546384222197744  0.6642458335320285  0.4999986122058218
  0.4448445959160239  0.8336857824377049  0.2490953040379509
  0.3895088181271902  0.9145534368228425  0.9992719796214828
  0.2798897168642682  0.5879757542262354  0.7442929541070242
  0.2215355211231440  0.6660797830646530  0.5011916859230325
  0.1095331354666911  0.8318459096073099  0.2588575743933248
  0.0532333734809498  0.9161316965652730  0.9988228950399289
  0.4440779312366203  0.5824023348626781  0.7497728535874373
  0.3907134786130086  0.6684044109649037  0.5001812116016495
  0.2788524920585189  0.8326340758295387  0.2585368826132068
  0.6117006463495684  0.5837830637913797  0.2482522610841187
  0.5510958915837776  0.6616730962722244  0.9982320934260827
  0.9450326896245329  0.8345739403750514  0.7500934197189650
  0.8900330095431315  0.9171408214433328  0.4998420860211539
  0.7792064880143599  0.5858078710159731  0.2582959552218611
  0.7250823679132523  0.6688874002833316  0.9978996100534019
  0.6068068490832914  0.8299160746684962  0.7431653167309662
  0.5550504980211883  0.9178004139172486  0.4998093606571317
  0.9442499532463628  0.5831150152898061  0.2488750609342105
  0.8919183241528614  0.6720385778742326  0.9978878306444514
  0.7792918081727791  0.8316771114776529  0.7442772946649328
  0.7222487670238706  0.9167162167880889  0.4997582084711070
  0.6111574300256635  0.5832456940670099  0.7494707920602792
  0.5546384222197744  0.6642458335320285  0.4999986122058218
  0.9448445959160239  0.8336857824377049  0.2490953040379509
  0.8895088181271902  0.9145534368228425  0.9992719796214828
  0.7798897168642682  0.5879757542262354  0.7442929541070242
  0.7215355211231440  0.6660797830646530  0.5011916859230325
  0.6095331354666911  0.8318459096073028  0.2588575743933248
  0.5532333734809498  0.9161316965652730  0.9988228950399289
  0.9440779312366274  0.5824023348626781  0.7497728535874373
  0.8907134786130086  0.6684044109649037  0.5001812116016495
  0.7788524920585189  0.8326340758295387  0.2585368826132068
  0.2196414806444338  0.4153800658633813  0.9986304212779373
  0.7196414806444338  0.4153800658633813  0.9986304212779373
  0.2196414806444338  0.9153800658633813  0.9986304212779373
  0.7196414806444338  0.9153800658633813  0.9986304212779373
  0.1114194169022227  0.0835874423022602  0.4382417132091874
  0.0558725070625812  0.1673065373000497  0.1899374623126704
  0.4459572095115192  0.3370563092854084  0.9402152763350671
  0.3901102633085500  0.4173878783491034  0.6881049293530452
  0.2791710268064946  0.0858411343277794  0.4470259756549879
  0.2234235463616088  0.1674381028015333  0.1908457151681802
  0.0930001385851114  0.3189380114631746  0.9284898323831570
  0.0549436525317688  0.4184440758990533  0.6880062408246843
  0.4443405718091782  0.0830076772215804  0.4387506390728220
  0.3888778932979164  0.1668223300037113  0.1900908633637997
  0.2849115065047343  0.3259623673269871  0.9301125545783080
  0.2217129474843773  0.4165094533736564  0.6952355579870400
  0.1123678397308225  0.0843230346701347  0.9416098662857380
  0.0544068821015316  0.1632563111783938  0.6885474236825786
  0.4449643793377049  0.3339426637090597  0.4386038304470219
  0.3884318220425129  0.4161571948677008  0.1909424108264943
  0.2865235364441290  0.1034024789875048  0.9300156136807800
  0.2208390571873835  0.1655765197536354  0.6880808513270011
  0.1093589311512133  0.3317613039773306  0.4474291984242669
  0.0564708807564003  0.4165925313297336  0.1903536232140226
  0.4412780487711174  0.0790616775983963  0.9407489769667166
  0.3912693709586321  0.1687282170177298  0.6888693973310396
  0.2787034784126377  0.3324975669933607  0.4469361014141029
  0.2223014044345533  0.4166847992222600  0.2202942820598963
  0.6114194169022298  0.0835874423022673  0.4382417132091874
  0.5558725070625812  0.1673065373000497  0.1899374623126704
  0.9459572095115263  0.3370563092854084  0.9402152763350671
  0.8901102633085500  0.4173878783491034  0.6881049293530452
  0.7791710268064946  0.0858411343277794  0.4470259756549879
  0.7234235463616088  0.1674381028015333  0.1908457151681802
  0.5930001385851114  0.3189380114631746  0.9284898323831570
  0.5549436525317688  0.4184440758990533  0.6880062408246843
  0.9443405718091782  0.0830076772215804  0.4387506390728220
  0.8888778932979164  0.1668223300037113  0.1900908633637997
  0.7849115065047414  0.3259623673269871  0.9301125545783080
  0.7217129474843773  0.4165094533736564  0.6952355579870400
  0.6123678397308225  0.0843230346701347  0.9416098662857380
  0.5544068821015316  0.1632563111783938  0.6885474236825786
  0.9449643793377120  0.3339426637090597  0.4386038304470219
  0.8884318220425129  0.4161571948677008  0.1909424108264943
  0.7865235364441290  0.1034024789875048  0.9300156136807800
  0.7208390571873835  0.1655765197536354  0.6880808513270011
  0.6093589311512204  0.3317613039773306  0.4474291984242669
  0.5564708807564074  0.4165925313297336  0.1903536232140226
  0.9412780487711174  0.0790616775983963  0.9407489769667166
  0.8912693709586321  0.1687282170177298  0.6888693973310396
  0.7787034784126377  0.3324975669933607  0.4469361014141029
  0.7223014044345604  0.4166847992222600  0.2202942820598963
  0.1114194169022227  0.5835874423022602  0.4382417132091874
  0.0558725070625812  0.6673065373000497  0.1899374623126704
  0.4459572095115192  0.8370563092854084  0.9402152763350671
  0.3901102633085500  0.9173878783491034  0.6881049293530452
  0.2791710268064946  0.5858411343277794  0.4470259756549879
  0.2234235463616088  0.6674381028015333  0.1908457151681802
  0.0930001385851114  0.8189380114631746  0.9284898323831570
  0.0549436525317688  0.9184440758990533  0.6880062408246843
  0.4443405718091782  0.5830076772215804  0.4387506390728220
  0.3888778932979164  0.6668223300037113  0.1900908633637997
  0.2849115065047343  0.8259623673269871  0.9301125545783080
  0.2217129474843773  0.9165094533736564  0.6952355579870400
  0.1123678397308225  0.5843230346701347  0.9416098662857380
  0.0544068821015316  0.6632563111783938  0.6885474236825786
  0.4449643793377049  0.8339426637090597  0.4386038304470219
  0.3884318220425129  0.9161571948677008  0.1909424108264943
  0.2865235364441290  0.6034024789875048  0.9300156136807800
  0.2208390571873835  0.6655765197536354  0.6880808513270011
  0.1093589311512133  0.8317613039773306  0.4474291984242669
  0.0564708807564003  0.9165925313297336  0.1903536232140226
  0.4412780487711174  0.5790616775983963  0.9407489769667166
  0.3912693709586321  0.6687282170177298  0.6888693973310396
  0.2787034784126377  0.8324975669933607  0.4469361014141029
  0.2223014044345533  0.9166847992222600  0.2202942820598963
  0.6114194169022298  0.5835874423022602  0.4382417132091874
  0.5558725070625812  0.6673065373000497  0.1899374623126704
  0.9459572095115192  0.8370563092854084  0.9402152763350671
  0.8901102633085500  0.9173878783491034  0.6881049293530452
  0.7791710268064946  0.5858411343277794  0.4470259756549879
  0.7234235463616088  0.6674381028015333  0.1908457151681802
  0.5930001385851114  0.8189380114631746  0.9284898323831570
  0.5549436525317688  0.9184440758990533  0.6880062408246843
  0.9443405718091782  0.5830076772215804  0.4387506390728220
  0.8888778932979164  0.6668223300037113  0.1900908633637997
  0.7849115065047343  0.8259623673269871  0.9301125545783080
  0.7217129474843773  0.9165094533736564  0.6952355579870400
  0.6123678397308225  0.5843230346701347  0.9416098662857380
  0.5544068821015316  0.6632563111783938  0.6885474236825786
  0.9449643793377049  0.8339426637090597  0.4386038304470219
  0.8884318220425129  0.9161571948677008  0.1909424108264943
  0.7865235364441290  0.6034024789875048  0.9300156136807800
  0.7208390571873835  0.6655765197536354  0.6880808513270011
  0.6093589311512133  0.8317613039773306  0.4474291984242669
  0.5564708807564003  0.9165925313297336  0.1903536232140226
  0.9412780487711174  0.5790616775983963  0.9407489769667166
  0.8912693709586321  0.6687282170177298  0.6888693973310396
  0.7787034784126377  0.8324975669933607  0.4469361014141029
  0.7223014044345533  0.9166847992222600  0.2202942820598963
 
  0.00000000E+00  0.00000000E+00  0.00000000E+00
  0.00000000E+00  0.00000000E+00  0.00000000E+00
  0.00000000E+00  0.00000000E+00  0.00000000E+00
  0.00000000E+00  0.00000000E+00  0.00000000E+00
  0.00000000E+00  0.00000000E+00  0.00000000E+00
  0.00000000E+00  0.00000000E+00  0.00000000E+00
  0.00000000E+00  0.00000000E+00  0.00000000E+00
  0.00000000E+00  0.00000000E+00  0.00000000E+00
  0.00000000E+00  0.00000000E+00  0.00000000E+00
  0.00000000E+00  0.00000000E+00  0.00000000E+00
  0.00000000E+00  0.00000000E+00  0.00000000E+00
  0.00000000E+00  0.00000000E+00  0.00000000E+00
  0.00000000E+00  0.00000000E+00  0.00000000E+00
  0.00000000E+00  0.00000000E+00  0.00000000E+00
  0.00000000E+00  0.00000000E+00  0.00000000E+00
  0.00000000E+00  0.00000000E+00  0.00000000E+00
  0.00000000E+00  0.00000000E+00  0.00000000E+00
  0.00000000E+00  0.00000000E+00  0.00000000E+00
  0.00000000E+00  0.00000000E+00  0.00000000E+00
  0.00000000E+00  0.00000000E+00  0.00000000E+00
  0.00000000E+00  0.00000000E+00  0.00000000E+00
  0.00000000E+00  0.00000000E+00  0.00000000E+00
  0.00000000E+00  0.00000000E+00  0.00000000E+00
  0.00000000E+00  0.00000000E+00  0.00000000E+00
  0.00000000E+00  0.00000000E+00  0.00000000E+00
  0.00000000E+00  0.00000000E+00  0.00000000E+00
  0.00000000E+00  0.00000000E+00  0.00000000E+00
  0.00000000E+00  0.00000000E+00  0.00000000E+00
  0.00000000E+00  0.00000000E+00  0.00000000E+00
  0.00000000E+00  0.00000000E+00  0.00000000E+00
  0.00000000E+00  0.00000000E+00  0.00000000E+00
  0.00000000E+00  0.00000000E+00  0.00000000E+00
  0.00000000E+00  0.00000000E+00  0.00000000E+00
  0.00000000E+00  0.00000000E+00  0.00000000E+00
  0.00000000E+00  0.00000000E+00  0.00000000E+00
  0.00000000E+00  0.00000000E+00  0.00000000E+00
  0.00000000E+00  0.00000000E+00  0.00000000E+00
  0.00000000E+00  0.00000000E+00  0.00000000E+00
  0.00000000E+00  0.00000000E+00  0.00000000E+00
  0.00000000E+00  0.00000000E+00  0.00000000E+00
  0.00000000E+00  0.00000000E+00  0.00000000E+00
  0.00000000E+00  0.00000000E+00  0.00000000E+00
  0.00000000E+00  0.00000000E+00  0.00000000E+00
  0.00000000E+00  0.00000000E+00  0.00000000E+00
  0.00000000E+00  0.00000000E+00  0.00000000E+00
  0.00000000E+00  0.00000000E+00  0.00000000E+00
  0.00000000E+00  0.00000000E+00  0.00000000E+00
  0.00000000E+00  0.00000000E+00  0.00000000E+00
  0.00000000E+00  0.00000000E+00  0.00000000E+00
  0.00000000E+00  0.00000000E+00  0.00000000E+00
  0.00000000E+00  0.00000000E+00  0.00000000E+00
  0.00000000E+00  0.00000000E+00  0.00000000E+00
  0.00000000E+00  0.00000000E+00  0.00000000E+00
  0.00000000E+00  0.00000000E+00  0.00000000E+00
  0.00000000E+00  0.00000000E+00  0.00000000E+00
  0.00000000E+00  0.00000000E+00  0.00000000E+00
  0.00000000E+00  0.00000000E+00  0.00000000E+00
  0.00000000E+00  0.00000000E+00  0.00000000E+00
  0.00000000E+00  0.00000000E+00  0.00000000E+00
  0.00000000E+00  0.00000000E+00  0.00000000E+00
  0.00000000E+00  0.00000000E+00  0.00000000E+00
  0.00000000E+00  0.00000000E+00  0.00000000E+00
  0.00000000E+00  0.00000000E+00  0.00000000E+00
  0.00000000E+00  0.00000000E+00  0.00000000E+00
  0.00000000E+00  0.00000000E+00  0.00000000E+00
  0.00000000E+00  0.00000000E+00  0.00000000E+00
  0.00000000E+00  0.00000000E+00  0.00000000E+00
  0.00000000E+00  0.00000000E+00  0.00000000E+00
  0.00000000E+00  0.00000000E+00  0.00000000E+00
  0.00000000E+00  0.00000000E+00  0.00000000E+00
  0.00000000E+00  0.00000000E+00  0.00000000E+00
  0.00000000E+00  0.00000000E+00  0.00000000E+00
  0.00000000E+00  0.00000000E+00  0.00000000E+00
  0.00000000E+00  0.00000000E+00  0.00000000E+00
  0.00000000E+00  0.00000000E+00  0.00000000E+00
  0.00000000E+00  0.00000000E+00  0.00000000E+00
  0.00000000E+00  0.00000000E+00  0.00000000E+00
  0.00000000E+00  0.00000000E+00  0.00000000E+00
  0.00000000E+00  0.00000000E+00  0.00000000E+00
  0.00000000E+00  0.00000000E+00  0.00000000E+00
  0.00000000E+00  0.00000000E+00  0.00000000E+00
  0.00000000E+00  0.00000000E+00  0.00000000E+00
  0.00000000E+00  0.00000000E+00  0.00000000E+00
  0.00000000E+00  0.00000000E+00  0.00000000E+00
  0.00000000E+00  0.00000000E+00  0.00000000E+00
  0.00000000E+00  0.00000000E+00  0.00000000E+00
  0.00000000E+00  0.00000000E+00  0.00000000E+00
  0.00000000E+00  0.00000000E+00  0.00000000E+00
  0.00000000E+00  0.00000000E+00  0.00000000E+00
  0.00000000E+00  0.00000000E+00  0.00000000E+00
  0.00000000E+00  0.00000000E+00  0.00000000E+00
  0.00000000E+00  0.00000000E+00  0.00000000E+00
  0.00000000E+00  0.00000000E+00  0.00000000E+00
  0.00000000E+00  0.00000000E+00  0.00000000E+00
  0.00000000E+00  0.00000000E+00  0.00000000E+00
  0.00000000E+00  0.00000000E+00  0.00000000E+00
  0.00000000E+00  0.00000000E+00  0.00000000E+00
  0.00000000E+00  0.00000000E+00  0.00000000E+00
  0.00000000E+00  0.00000000E+00  0.00000000E+00
  0.00000000E+00  0.00000000E+00  0.00000000E+00
  0.00000000E+00  0.00000000E+00  0.00000000E+00
  0.00000000E+00  0.00000000E+00  0.00000000E+00
  0.00000000E+00  0.00000000E+00  0.00000000E+00
  0.00000000E+00  0.00000000E+00  0.00000000E+00
  0.00000000E+00  0.00000000E+00  0.00000000E+00
  0.00000000E+00  0.00000000E+00  0.00000000E+00
  0.00000000E+00  0.00000000E+00  0.00000000E+00
  0.00000000E+00  0.00000000E+00  0.00000000E+00
  0.00000000E+00  0.00000000E+00  0.00000000E+00
  0.00000000E+00  0.00000000E+00  0.00000000E+00
  0.00000000E+00  0.00000000E+00  0.00000000E+00
  0.00000000E+00  0.00000000E+00  0.00000000E+00
  0.00000000E+00  0.00000000E+00  0.00000000E+00
  0.00000000E+00  0.00000000E+00  0.00000000E+00
  0.00000000E+00  0.00000000E+00  0.00000000E+00
  0.00000000E+00  0.00000000E+00  0.00000000E+00
  0.00000000E+00  0.00000000E+00  0.00000000E+00
  0.00000000E+00  0.00000000E+00  0.00000000E+00
  0.00000000E+00  0.00000000E+00  0.00000000E+00
  0.00000000E+00  0.00000000E+00  0.00000000E+00
  0.00000000E+00  0.00000000E+00  0.00000000E+00
  0.00000000E+00  0.00000000E+00  0.00000000E+00
  0.00000000E+00  0.00000000E+00  0.00000000E+00
  0.00000000E+00  0.00000000E+00  0.00000000E+00
  0.00000000E+00  0.00000000E+00  0.00000000E+00
  0.00000000E+00  0.00000000E+00  0.00000000E+00
  0.00000000E+00  0.00000000E+00  0.00000000E+00
  0.00000000E+00  0.00000000E+00  0.00000000E+00
  0.00000000E+00  0.00000000E+00  0.00000000E+00
  0.00000000E+00  0.00000000E+00  0.00000000E+00
  0.00000000E+00  0.00000000E+00  0.00000000E+00
  0.00000000E+00  0.00000000E+00  0.00000000E+00
  0.00000000E+00  0.00000000E+00  0.00000000E+00
  0.00000000E+00  0.00000000E+00  0.00000000E+00
  0.00000000E+00  0.00000000E+00  0.00000000E+00
  0.00000000E+00  0.00000000E+00  0.00000000E+00
  0.00000000E+00  0.00000000E+00  0.00000000E+00
  0.00000000E+00  0.00000000E+00  0.00000000E+00
  0.00000000E+00  0.00000000E+00  0.00000000E+00
  0.00000000E+00  0.00000000E+00  0.00000000E+00
  0.00000000E+00  0.00000000E+00  0.00000000E+00
  0.00000000E+00  0.00000000E+00  0.00000000E+00
  0.00000000E+00  0.00000000E+00  0.00000000E+00
  0.00000000E+00  0.00000000E+00  0.00000000E+00
  0.00000000E+00  0.00000000E+00  0.00000000E+00
  0.00000000E+00  0.00000000E+00  0.00000000E+00
  0.00000000E+00  0.00000000E+00  0.00000000E+00
  0.00000000E+00  0.00000000E+00  0.00000000E+00
  0.00000000E+00  0.00000000E+00  0.00000000E+00
  0.00000000E+00  0.00000000E+00  0.00000000E+00
  0.00000000E+00  0.00000000E+00  0.00000000E+00
  0.00000000E+00  0.00000000E+00  0.00000000E+00
  0.00000000E+00  0.00000000E+00  0.00000000E+00
  0.00000000E+00  0.00000000E+00  0.00000000E+00
  0.00000000E+00  0.00000000E+00  0.00000000E+00
  0.00000000E+00  0.00000000E+00  0.00000000E+00
  0.00000000E+00  0.00000000E+00  0.00000000E+00
  0.00000000E+00  0.00000000E+00  0.00000000E+00
  0.00000000E+00  0.00000000E+00  0.00000000E+00
  0.00000000E+00  0.00000000E+00  0.00000000E+00
  0.00000000E+00  0.00000000E+00  0.00000000E+00
  0.00000000E+00  0.00000000E+00  0.00000000E+00
  0.00000000E+00  0.00000000E+00  0.00000000E+00
  0.00000000E+00  0.00000000E+00  0.00000000E+00
  0.00000000E+00  0.00000000E+00  0.00000000E+00
  0.00000000E+00  0.00000000E+00  0.00000000E+00
  0.00000000E+00  0.00000000E+00  0.00000000E+00
  0.00000000E+00  0.00000000E+00  0.00000000E+00
  0.00000000E+00  0.00000000E+00  0.00000000E+00
  0.00000000E+00  0.00000000E+00  0.00000000E+00
  0.00000000E+00  0.00000000E+00  0.00000000E+00
  0.00000000E+00  0.00000000E+00  0.00000000E+00
  0.00000000E+00  0.00000000E+00  0.00000000E+00
  0.00000000E+00  0.00000000E+00  0.00000000E+00
  0.00000000E+00  0.00000000E+00  0.00000000E+00
  0.00000000E+00  0.00000000E+00  0.00000000E+00
  0.00000000E+00  0.00000000E+00  0.00000000E+00
  0.00000000E+00  0.00000000E+00  0.00000000E+00
  0.00000000E+00  0.00000000E+00  0.00000000E+00
  0.00000000E+00  0.00000000E+00  0.00000000E+00
  0.00000000E+00  0.00000000E+00  0.00000000E+00
  0.00000000E+00  0.00000000E+00  0.00000000E+00
  0.00000000E+00  0.00000000E+00  0.00000000E+00
  0.00000000E+00  0.00000000E+00  0.00000000E+00
  0.00000000E+00  0.00000000E+00  0.00000000E+00
  0.00000000E+00  0.00000000E+00  0.00000000E+00
  0.00000000E+00  0.00000000E+00  0.00000000E+00
  0.00000000E+00  0.00000000E+00  0.00000000E+00
  0.00000000E+00  0.00000000E+00  0.00000000E+00
  0.00000000E+00  0.00000000E+00  0.00000000E+00
  0.00000000E+00  0.00000000E+00  0.00000000E+00
  0.00000000E+00  0.00000000E+00  0.00000000E+00
