supercell of 100% icsd_608626.cif, 0% i 
   1.00000000000000     
    -9.4443908032838237    0.0100933202259712   -0.0030565359616346
    -4.7309415191816946    8.1903706790600967   -0.0005059012669536
    -0.0032738692881553   -0.0012665204773122  -10.0239790916864049
   Al   Be   Zr   N 
    32     2     2    36
Direct
  0.1078124609405080  0.0966570500771127  0.2958300996291356
  0.2114188923442484  0.2132434105007661  0.0511590196483453
  0.8856885870160838  0.2060474974585134  0.5491348889605305
  0.4449436179281605  0.0949420158306324  0.2912375805529948
  0.5628550268630690  0.2090062450975196  0.0489233358575092
  0.1022147104476687  0.1016634101603344  0.7941582868363071
  0.2192816819954686  0.2075743154668928  0.5402868200920139
  0.7792606237917425  0.0953134067237613  0.2971507622956508
  0.8868882957092623  0.2079205843426095  0.0423946020923793
  0.5602957296533120  0.2058442278978490  0.5426140496611751
  0.1060245644255886  0.4303289750981563  0.2916448577604882
  0.2224762977684094  0.5314624628375881  0.0510966969255406
  0.7801198572172723  0.4245966619053547  0.8006988292905461
  0.8877952617826779  0.5379495070209828  0.5468413260578018
  0.4454538858009371  0.4285260992912683  0.2953587458071780
  0.5604028761674442  0.5378093063812628  0.0465429207965968
  0.1028464411866139  0.4285442514857891  0.7979326457785518
  0.2228866704662735  0.5359349037917553  0.5408550046045590
  0.7801246158093704  0.4279131032244550  0.2906773133008826
  0.4535494791421968  0.4255644514988504  0.7943620118677543
  0.5582386452322012  0.5372691796102416  0.5448469921200072
  0.1095088129346209  0.7615699249471533  0.2918220466372574
  0.2255962516433883  0.8764289710589637  0.0514122408409818
  0.7798048233849357  0.7525487058913498  0.7987426289488866
  0.8825435539242577  0.8769848013427790  0.5439104782957287
  0.4456933493239035  0.7589787200663309  0.2958745828691391
  0.5640935819801456  0.8604813782499718  0.0523715471541593
  0.2227523859189944  0.8740589774454222  0.5403914452900551
  0.7810122902594685  0.7560187518625412  0.2921970878721254
  0.8784884427112658  0.8752499838662260  0.0491881541271084
  0.4499541112601904  0.7553038445120848  0.7935823751176514
  0.5579712875884084  0.8691774538126467  0.5399905925080901
  0.7764923800343198  0.1037950189334182  0.7931964876260622
  0.8889702681252487  0.5378335675215098  0.0435660546609427
  0.4514436188217559  0.0941916466655286  0.8064370225679056
  0.1045054927907643  0.7662548707666943  0.8068226210220288
  0.2220927240427741  0.2061664071508176  0.3502219444901229
  0.1086783729548984  0.0956844802801839  0.1066258164487266
  0.8858105505692109  0.2000828104796781  0.8514434932362533
  0.7769559567082709  0.0945124436612517  0.6081495510499053
  0.5551268660109585  0.2059141773152788  0.3519659270412916
  0.4454863759630427  0.0943615808177327  0.0939018244293308
  0.2042750695638276  0.2137164295137239  0.8597653134482783
  0.1121100944470186  0.0942057059667007  0.6028535149193388
  0.8880090717816742  0.2071870663250408  0.3571442729013441
  0.7803307515302791  0.0946924475230091  0.1091043513358869
  0.5750897948417162  0.2135649660325640  0.8589743320648466
  0.4446889141838781  0.0943896182573596  0.5946107576453343
  0.2212308414247772  0.5392938785774533  0.3504835669487321
  0.1026494728394880  0.4323039528120916  0.1041780731496473
  0.8888229711652045  0.5374266261672886  0.8592637485118786
  0.7774492560673920  0.4280275497430779  0.6076291332856769
  0.5570592352568937  0.5381637392015293  0.3546908532371873
  0.4452221404986503  0.4295344619801256  0.1061019691330287
  0.2336599093309673  0.5173190832283652  0.8582338890804024
  0.1117283198219283  0.4272533471708186  0.6049553330902881
  0.8883001985157151  0.5381674577359377  0.3577126627400773
  0.7816643382506001  0.4294012265306151  0.1007609845507105
  0.5545833581017092  0.5401384007992931  0.8545983031531037
  0.4439843402705677  0.4282203634894515  0.6028582675558525
  0.2214852252262460  0.8722468888070978  0.3505598248590545
  0.1105585057721257  0.7620428643267090  0.0937241798053563
  0.8606065795817273  0.8898613247922569  0.8577712427015527
  0.7769638419330462  0.7609593234792129  0.6054337245718315
  0.5559086521429961  0.8722327718157459  0.3502380274341448
  0.4451736152157437  0.7590211084658449  0.1071662846747259
  0.2332958984085280  0.8841758731099603  0.8591227343626571
  0.1106060093435843  0.7613260536251687  0.5953857084298946
  0.8883762199620548  0.8716826892994760  0.3525485995547655
  0.7832501394001099  0.7517647293244281  0.1047488641843231
  0.5652193462813599  0.8503892054716502  0.8614518264161148
  0.4441381702008513  0.7615812640787993  0.6023689440841977
 
  0.00000000E+00  0.00000000E+00  0.00000000E+00
  0.00000000E+00  0.00000000E+00  0.00000000E+00
  0.00000000E+00  0.00000000E+00  0.00000000E+00
  0.00000000E+00  0.00000000E+00  0.00000000E+00
  0.00000000E+00  0.00000000E+00  0.00000000E+00
  0.00000000E+00  0.00000000E+00  0.00000000E+00
  0.00000000E+00  0.00000000E+00  0.00000000E+00
  0.00000000E+00  0.00000000E+00  0.00000000E+00
  0.00000000E+00  0.00000000E+00  0.00000000E+00
  0.00000000E+00  0.00000000E+00  0.00000000E+00
  0.00000000E+00  0.00000000E+00  0.00000000E+00
  0.00000000E+00  0.00000000E+00  0.00000000E+00
  0.00000000E+00  0.00000000E+00  0.00000000E+00
  0.00000000E+00  0.00000000E+00  0.00000000E+00
  0.00000000E+00  0.00000000E+00  0.00000000E+00
  0.00000000E+00  0.00000000E+00  0.00000000E+00
  0.00000000E+00  0.00000000E+00  0.00000000E+00
  0.00000000E+00  0.00000000E+00  0.00000000E+00
  0.00000000E+00  0.00000000E+00  0.00000000E+00
  0.00000000E+00  0.00000000E+00  0.00000000E+00
  0.00000000E+00  0.00000000E+00  0.00000000E+00
  0.00000000E+00  0.00000000E+00  0.00000000E+00
  0.00000000E+00  0.00000000E+00  0.00000000E+00
  0.00000000E+00  0.00000000E+00  0.00000000E+00
  0.00000000E+00  0.00000000E+00  0.00000000E+00
  0.00000000E+00  0.00000000E+00  0.00000000E+00
  0.00000000E+00  0.00000000E+00  0.00000000E+00
  0.00000000E+00  0.00000000E+00  0.00000000E+00
  0.00000000E+00  0.00000000E+00  0.00000000E+00
  0.00000000E+00  0.00000000E+00  0.00000000E+00
  0.00000000E+00  0.00000000E+00  0.00000000E+00
  0.00000000E+00  0.00000000E+00  0.00000000E+00
  0.00000000E+00  0.00000000E+00  0.00000000E+00
  0.00000000E+00  0.00000000E+00  0.00000000E+00
  0.00000000E+00  0.00000000E+00  0.00000000E+00
  0.00000000E+00  0.00000000E+00  0.00000000E+00
  0.00000000E+00  0.00000000E+00  0.00000000E+00
  0.00000000E+00  0.00000000E+00  0.00000000E+00
  0.00000000E+00  0.00000000E+00  0.00000000E+00
  0.00000000E+00  0.00000000E+00  0.00000000E+00
  0.00000000E+00  0.00000000E+00  0.00000000E+00
  0.00000000E+00  0.00000000E+00  0.00000000E+00
  0.00000000E+00  0.00000000E+00  0.00000000E+00
  0.00000000E+00  0.00000000E+00  0.00000000E+00
  0.00000000E+00  0.00000000E+00  0.00000000E+00
  0.00000000E+00  0.00000000E+00  0.00000000E+00
  0.00000000E+00  0.00000000E+00  0.00000000E+00
  0.00000000E+00  0.00000000E+00  0.00000000E+00
  0.00000000E+00  0.00000000E+00  0.00000000E+00
  0.00000000E+00  0.00000000E+00  0.00000000E+00
  0.00000000E+00  0.00000000E+00  0.00000000E+00
  0.00000000E+00  0.00000000E+00  0.00000000E+00
  0.00000000E+00  0.00000000E+00  0.00000000E+00
  0.00000000E+00  0.00000000E+00  0.00000000E+00
  0.00000000E+00  0.00000000E+00  0.00000000E+00
  0.00000000E+00  0.00000000E+00  0.00000000E+00
  0.00000000E+00  0.00000000E+00  0.00000000E+00
  0.00000000E+00  0.00000000E+00  0.00000000E+00
  0.00000000E+00  0.00000000E+00  0.00000000E+00
  0.00000000E+00  0.00000000E+00  0.00000000E+00
  0.00000000E+00  0.00000000E+00  0.00000000E+00
  0.00000000E+00  0.00000000E+00  0.00000000E+00
  0.00000000E+00  0.00000000E+00  0.00000000E+00
  0.00000000E+00  0.00000000E+00  0.00000000E+00
  0.00000000E+00  0.00000000E+00  0.00000000E+00
  0.00000000E+00  0.00000000E+00  0.00000000E+00
  0.00000000E+00  0.00000000E+00  0.00000000E+00
  0.00000000E+00  0.00000000E+00  0.00000000E+00
  0.00000000E+00  0.00000000E+00  0.00000000E+00
  0.00000000E+00  0.00000000E+00  0.00000000E+00
  0.00000000E+00  0.00000000E+00  0.00000000E+00
  0.00000000E+00  0.00000000E+00  0.00000000E+00
