supercell of 100% icsd_608626.cif, 0% i 
   1.00000000000000     
    -9.4585813345998773   -0.0000003846534765   -0.0000004203268714
    -4.7292903351442215    8.1853848421161786    0.0088305083236225
    -0.0000004403883424   -0.0108921280118431  -10.0134465543759568
   Be   Al   Zr   N 
     2    32     2    36
Direct
  0.1128153734900792  0.0929877351407669  0.2857649481648039
  0.7775300179345024  0.0929877678400928  0.2857649517933822
  0.2194829682768926  0.2054941268131643  0.0508537499162003
  0.7758817623372849  0.0922772976919219  0.8030119612866855
  0.4418556325257086  0.0996214023071857  0.2908605466668490
  0.5583556401537706  0.2054939762510912  0.0508537141416028
  0.1151745851678712  0.0922771465384713  0.8030119214106080
  0.2215917048875866  0.2097610208203662  0.5393946414942121
  0.8907944274343933  0.2017440643703381  0.0556115764533232
  0.4402074334000829  0.1029184333876572  0.8037768610014737
  0.5519809504044488  0.2097610111777399  0.5393946008053021
  0.1122205298863150  0.4255907247653568  0.2954316098542762
  0.2218878296104094  0.5395574962213772  0.0466640993686056
  0.7771582384774334  0.4290170416052561  0.8014074107239537
  0.8950850623219395  0.5372287656494592  0.5429316583817467
  0.4455220524083003  0.4255904203565564  0.2954315859626178
  0.5549940574838033  0.5377082518703062  0.0463698148982772
  0.1120301448991086  0.4267394485871492  0.7967654980903518
  0.2220795402251241  0.5391745379472752  0.5447007724695752
  0.7781373747041087  0.4270587246075124  0.2896043332118197
  0.8906308032094401  0.5377084910926513  0.0463699014784709
  0.4445637143330075  0.4267393419013601  0.7967655013572639
  0.5510198535547914  0.5372287176705868  0.5429316757232314
  0.1078126738782998  0.7677082629611220  0.2955930850142536
  0.2189687439221899  0.8752483372476050  0.0503857595013812
  0.7857396059482156  0.7575243737569863  0.8030878650675888
  0.8934493626799664  0.8678106579034122  0.5399883196521174
  0.4382082579317483  0.7636822651337027  0.2902385955988080
  0.5552806315343659  0.8727718183039102  0.0440254432511367
  0.1108372074141357  0.7616588040188006  0.7972505555336227
  0.2220738713969439  0.8678106003359360  0.5399884039248732
  0.7814426219983162  0.7636827170779128  0.2902387552200452
  0.8891158897216584  0.8752484029292233  0.0503858380888786
  0.4400695292984338  0.7575242651919396  0.8030880146103314
  0.8922364487808920  0.1988608882978937  0.5380892847360954
  0.5552577412330137  0.8728183486324141  0.5546104967979772
  0.2200862303917788  0.2029739816276859  0.3507611753001711
  0.1124789209723644  0.0939224725331016  0.1074333301935226
  0.8894501692468282  0.2044333191543259  0.8520829759952804
  0.7668598224937639  0.0831219587322352  0.6108903530338026
  0.5602728384092970  0.2029736724559328  0.3507611284150371
  0.4444996265301597  0.0943333119532355  0.1005354290730125
  0.2205638169248445  0.2076228776438143  0.8589048824152385
  0.1333520212530459  0.0831218829298024  0.6108903744235192
  0.8908018373048137  0.2017294819536630  0.3343949035048226
  0.7769313145872943  0.0939225494591156  0.1074332897231969
  0.5551466811167884  0.2076227184539761  0.8589048383550733
  0.4333996087859688  0.1165344245338602  0.6117348416934121
  0.2213298531294967  0.5406735921487353  0.3544740502467860
  0.1109950339142571  0.4290357979323360  0.1048684778357014
  0.8909875382718795  0.5368655915449381  0.8559923211918559
  0.7697320410545885  0.4438696131830753  0.6072273685180392
  0.5550212693600471  0.5408224874259346  0.3527611210791193
  0.4433023098269047  0.4290356446924406  0.1048684286768022
  0.2222231356938522  0.5388869207243516  0.8536636260642183
  0.1116369359209273  0.4269458704710871  0.6043691920068710
  0.8874893587890611  0.5408228813960250  0.3527611598076419
  0.7767677182208459  0.4297979065893429  0.1003050004357888
  0.5554803820390362  0.5368653618375276  0.8559922212547022
  0.4447507698439992  0.4269458814753406  0.6043691614484175
  0.2193883332264619  0.8790164556172471  0.3514591746878608
  0.1114178403882917  0.7604972970042851  0.1050294145455339
  0.8910044343446089  0.8714779126554504  0.8586424397545400
  0.7992565333876485  0.7498268932628065  0.6114655432164184
  0.5554979173629206  0.8723372963730611  0.3446984824102941
  0.4447089029487330  0.7611248850622658  0.1000778417277459
  0.2208510012406748  0.8714777992259926  0.8586423664756424
  0.1105713512546060  0.7621910770175120  0.6044582406781629
  0.8849287748446102  0.8790165779489740  0.3514591246855261
  0.7774992103965204  0.7611250509175989  0.1000780332376010
  0.5555737369199321  0.8721859946598371  0.8455003157325436
  0.4342504467385808  0.7498268729986322  0.6114656205043048
 
  0.00000000E+00  0.00000000E+00  0.00000000E+00
  0.00000000E+00  0.00000000E+00  0.00000000E+00
  0.00000000E+00  0.00000000E+00  0.00000000E+00
  0.00000000E+00  0.00000000E+00  0.00000000E+00
  0.00000000E+00  0.00000000E+00  0.00000000E+00
  0.00000000E+00  0.00000000E+00  0.00000000E+00
  0.00000000E+00  0.00000000E+00  0.00000000E+00
  0.00000000E+00  0.00000000E+00  0.00000000E+00
  0.00000000E+00  0.00000000E+00  0.00000000E+00
  0.00000000E+00  0.00000000E+00  0.00000000E+00
  0.00000000E+00  0.00000000E+00  0.00000000E+00
  0.00000000E+00  0.00000000E+00  0.00000000E+00
  0.00000000E+00  0.00000000E+00  0.00000000E+00
  0.00000000E+00  0.00000000E+00  0.00000000E+00
  0.00000000E+00  0.00000000E+00  0.00000000E+00
  0.00000000E+00  0.00000000E+00  0.00000000E+00
  0.00000000E+00  0.00000000E+00  0.00000000E+00
  0.00000000E+00  0.00000000E+00  0.00000000E+00
  0.00000000E+00  0.00000000E+00  0.00000000E+00
  0.00000000E+00  0.00000000E+00  0.00000000E+00
  0.00000000E+00  0.00000000E+00  0.00000000E+00
  0.00000000E+00  0.00000000E+00  0.00000000E+00
  0.00000000E+00  0.00000000E+00  0.00000000E+00
  0.00000000E+00  0.00000000E+00  0.00000000E+00
  0.00000000E+00  0.00000000E+00  0.00000000E+00
  0.00000000E+00  0.00000000E+00  0.00000000E+00
  0.00000000E+00  0.00000000E+00  0.00000000E+00
  0.00000000E+00  0.00000000E+00  0.00000000E+00
  0.00000000E+00  0.00000000E+00  0.00000000E+00
  0.00000000E+00  0.00000000E+00  0.00000000E+00
  0.00000000E+00  0.00000000E+00  0.00000000E+00
  0.00000000E+00  0.00000000E+00  0.00000000E+00
  0.00000000E+00  0.00000000E+00  0.00000000E+00
  0.00000000E+00  0.00000000E+00  0.00000000E+00
  0.00000000E+00  0.00000000E+00  0.00000000E+00
  0.00000000E+00  0.00000000E+00  0.00000000E+00
  0.00000000E+00  0.00000000E+00  0.00000000E+00
  0.00000000E+00  0.00000000E+00  0.00000000E+00
  0.00000000E+00  0.00000000E+00  0.00000000E+00
  0.00000000E+00  0.00000000E+00  0.00000000E+00
  0.00000000E+00  0.00000000E+00  0.00000000E+00
  0.00000000E+00  0.00000000E+00  0.00000000E+00
  0.00000000E+00  0.00000000E+00  0.00000000E+00
  0.00000000E+00  0.00000000E+00  0.00000000E+00
  0.00000000E+00  0.00000000E+00  0.00000000E+00
  0.00000000E+00  0.00000000E+00  0.00000000E+00
  0.00000000E+00  0.00000000E+00  0.00000000E+00
  0.00000000E+00  0.00000000E+00  0.00000000E+00
  0.00000000E+00  0.00000000E+00  0.00000000E+00
  0.00000000E+00  0.00000000E+00  0.00000000E+00
  0.00000000E+00  0.00000000E+00  0.00000000E+00
  0.00000000E+00  0.00000000E+00  0.00000000E+00
  0.00000000E+00  0.00000000E+00  0.00000000E+00
  0.00000000E+00  0.00000000E+00  0.00000000E+00
  0.00000000E+00  0.00000000E+00  0.00000000E+00
  0.00000000E+00  0.00000000E+00  0.00000000E+00
  0.00000000E+00  0.00000000E+00  0.00000000E+00
  0.00000000E+00  0.00000000E+00  0.00000000E+00
  0.00000000E+00  0.00000000E+00  0.00000000E+00
  0.00000000E+00  0.00000000E+00  0.00000000E+00
  0.00000000E+00  0.00000000E+00  0.00000000E+00
  0.00000000E+00  0.00000000E+00  0.00000000E+00
  0.00000000E+00  0.00000000E+00  0.00000000E+00
  0.00000000E+00  0.00000000E+00  0.00000000E+00
  0.00000000E+00  0.00000000E+00  0.00000000E+00
  0.00000000E+00  0.00000000E+00  0.00000000E+00
  0.00000000E+00  0.00000000E+00  0.00000000E+00
  0.00000000E+00  0.00000000E+00  0.00000000E+00
  0.00000000E+00  0.00000000E+00  0.00000000E+00
  0.00000000E+00  0.00000000E+00  0.00000000E+00
  0.00000000E+00  0.00000000E+00  0.00000000E+00
  0.00000000E+00  0.00000000E+00  0.00000000E+00
