supercell of 100% icsd_608626.cif, 0% i 
   1.00000000000000     
    -9.4580565828609302   -0.0002653244529964   -0.0072992967107484
    -4.7287960879632251    8.1949369184235348    0.0051767321109631
    -0.0078459891150528   -0.0109611909240183  -10.0049740907734943
   Al   Zr   Be   N 
    32     2     2    36
Direct
  0.1100202672714516  0.0930856002144154  0.2968842797708362
  0.2164094669258105  0.2076902369469380  0.0508250175555887
  0.7820469053724750  0.0965568506686196  0.7953366515983120
  0.8850517681007375  0.2103616259368479  0.5462832689082759
  0.4394617746593639  0.0981928717502782  0.2965333020743088
  0.5571234138960506  0.2096687766057173  0.0514047644604219
  0.1058818211556414  0.0940329653977656  0.7935726957725748
  0.2206610575294050  0.2054034984985904  0.5404856814732142
  0.7792906830008590  0.0997084491269362  0.2949742174339107
  0.8891720654756838  0.2062270394035579  0.0457962557833653
  0.5563181377869100  0.2102561354303560  0.5410294639763435
  0.1149544759118442  0.4246474852196158  0.2953183981067653
  0.2235431957895315  0.5385200785249395  0.0457709381214144
  0.7736307659019133  0.4284593870325892  0.7922577765779053
  0.8873907187628305  0.5316353457178593  0.5524743071335152
  0.4451631267282110  0.4317030189725131  0.3004241050529473
  0.5546254914632343  0.5394532474507088  0.0472857182155551
  0.1075571949825900  0.4322270464826019  0.7942709299078743
  0.2260207763553339  0.5389696273005029  0.5466774476708096
  0.7740583201845297  0.4237356041565192  0.2988631847363834
  0.8887696548707495  0.5370203828753546  0.0423683318043544
  0.4465104012299648  0.4341031804784592  0.7891634711849917
  0.1163371297849096  0.7617634101919748  0.2951456994534283
  0.2239160181477047  0.8716227904016165  0.0454097440372081
  0.7813391488504777  0.7552925143787093  0.7853009773455497
  0.8926845833828239  0.8759264562960709  0.5525748692149932
  0.4400847872649649  0.7582333124457392  0.3026020391422435
  0.5560340642742716  0.8657673550487317  0.0488509233478993
  0.1140060239239844  0.7600487846235708  0.7956312194240738
  0.2307832706102317  0.8683457661364287  0.5467005503435161
  0.8898080433782383  0.8724129190451180  0.0421684008334537
  0.4485467342293248  0.7516554432010167  0.7857572157607180
  0.4462201374830173  0.0911252105422804  0.7958998314596570
  0.7748153864820253  0.7620309133730743  0.3172154247784675
  0.5567448203396452  0.5437177718576436  0.5421525480253635
  0.5443805778596911  0.8686884506825479  0.5413188369223434
  0.2200749121647618  0.2064265253009196  0.3499381972275373
  0.1100520918283436  0.0931652655361646  0.1055374394832285
  0.8887930080364157  0.2066022512820140  0.8552761173370840
  0.7763008129808924  0.0970659685477813  0.6058081701798557
  0.5565802451130466  0.2051401892947737  0.3493741740484779
  0.4444226991641500  0.0937508078894354  0.0982815852318595
  0.2030457564124717  0.2146745527294200  0.8597879679612745
  0.1105868000848531  0.0949267491994235  0.6028645513889472
  0.8892035189179595  0.2053882226265955  0.3548650100713360
  0.7797272386792713  0.0930518021086044  0.1041904956735706
  0.5643367092164269  0.2160113198061495  0.8598008854186787
  0.4459030288317152  0.0921631064730875  0.5894709621730740
  0.2199062769818099  0.5406014143566367  0.3540420820523593
  0.1094876793393240  0.4300320267105278  0.1042980225361276
  0.8880481175865853  0.5388159660118959  0.8508085196089610
  0.7703045628250607  0.4294056683177345  0.6041720406100382
  0.5564758111795243  0.5391394328766665  0.3592425192103690
  0.4431256010489193  0.4298173621064905  0.1079160739676155
  0.2239638914746891  0.5375093324953895  0.8540418652429906
  0.1131925678928525  0.4263866787997230  0.6043956696111294
  0.9001683822904099  0.5149340517120109  0.3609231556199006
  0.7777164259005858  0.4279568403042759  0.1052404528632493
  0.5554391058169088  0.5387407909988156  0.8572655368712390
  0.4472828252498928  0.4303107852178414  0.6002017107192827
  0.2203889948069389  0.8733134260348976  0.3551219743837848
  0.1105864734031030  0.7614992761260027  0.1027974054093477
  0.8876386381528505  0.8719017109511000  0.8499639983733047
  0.7753992208768494  0.7626803935672228  0.5900880691262245
  0.5309893869109459  0.8845056072941588  0.3611028388956328
  0.4433282234518998  0.7600841053244949  0.1086466545315261
  0.2248510529216432  0.8721726905873766  0.8534332651543863
  0.1141837190082740  0.7609006400465717  0.6061764270098990
  0.9001648635580750  0.8847778162614972  0.3607006735075160
  0.7794631086106278  0.7601586702977912  0.1019830115949176
  0.5676678525950152  0.8491442215900378  0.8587831764106824
  0.4518381873205115  0.7585547788003240  0.5987308130859361
 
  0.00000000E+00  0.00000000E+00  0.00000000E+00
  0.00000000E+00  0.00000000E+00  0.00000000E+00
  0.00000000E+00  0.00000000E+00  0.00000000E+00
  0.00000000E+00  0.00000000E+00  0.00000000E+00
  0.00000000E+00  0.00000000E+00  0.00000000E+00
  0.00000000E+00  0.00000000E+00  0.00000000E+00
  0.00000000E+00  0.00000000E+00  0.00000000E+00
  0.00000000E+00  0.00000000E+00  0.00000000E+00
  0.00000000E+00  0.00000000E+00  0.00000000E+00
  0.00000000E+00  0.00000000E+00  0.00000000E+00
  0.00000000E+00  0.00000000E+00  0.00000000E+00
  0.00000000E+00  0.00000000E+00  0.00000000E+00
  0.00000000E+00  0.00000000E+00  0.00000000E+00
  0.00000000E+00  0.00000000E+00  0.00000000E+00
  0.00000000E+00  0.00000000E+00  0.00000000E+00
  0.00000000E+00  0.00000000E+00  0.00000000E+00
  0.00000000E+00  0.00000000E+00  0.00000000E+00
  0.00000000E+00  0.00000000E+00  0.00000000E+00
  0.00000000E+00  0.00000000E+00  0.00000000E+00
  0.00000000E+00  0.00000000E+00  0.00000000E+00
  0.00000000E+00  0.00000000E+00  0.00000000E+00
  0.00000000E+00  0.00000000E+00  0.00000000E+00
  0.00000000E+00  0.00000000E+00  0.00000000E+00
  0.00000000E+00  0.00000000E+00  0.00000000E+00
  0.00000000E+00  0.00000000E+00  0.00000000E+00
  0.00000000E+00  0.00000000E+00  0.00000000E+00
  0.00000000E+00  0.00000000E+00  0.00000000E+00
  0.00000000E+00  0.00000000E+00  0.00000000E+00
  0.00000000E+00  0.00000000E+00  0.00000000E+00
  0.00000000E+00  0.00000000E+00  0.00000000E+00
  0.00000000E+00  0.00000000E+00  0.00000000E+00
  0.00000000E+00  0.00000000E+00  0.00000000E+00
  0.00000000E+00  0.00000000E+00  0.00000000E+00
  0.00000000E+00  0.00000000E+00  0.00000000E+00
  0.00000000E+00  0.00000000E+00  0.00000000E+00
  0.00000000E+00  0.00000000E+00  0.00000000E+00
  0.00000000E+00  0.00000000E+00  0.00000000E+00
  0.00000000E+00  0.00000000E+00  0.00000000E+00
  0.00000000E+00  0.00000000E+00  0.00000000E+00
  0.00000000E+00  0.00000000E+00  0.00000000E+00
  0.00000000E+00  0.00000000E+00  0.00000000E+00
  0.00000000E+00  0.00000000E+00  0.00000000E+00
  0.00000000E+00  0.00000000E+00  0.00000000E+00
  0.00000000E+00  0.00000000E+00  0.00000000E+00
  0.00000000E+00  0.00000000E+00  0.00000000E+00
  0.00000000E+00  0.00000000E+00  0.00000000E+00
  0.00000000E+00  0.00000000E+00  0.00000000E+00
  0.00000000E+00  0.00000000E+00  0.00000000E+00
  0.00000000E+00  0.00000000E+00  0.00000000E+00
  0.00000000E+00  0.00000000E+00  0.00000000E+00
  0.00000000E+00  0.00000000E+00  0.00000000E+00
  0.00000000E+00  0.00000000E+00  0.00000000E+00
  0.00000000E+00  0.00000000E+00  0.00000000E+00
  0.00000000E+00  0.00000000E+00  0.00000000E+00
  0.00000000E+00  0.00000000E+00  0.00000000E+00
  0.00000000E+00  0.00000000E+00  0.00000000E+00
  0.00000000E+00  0.00000000E+00  0.00000000E+00
  0.00000000E+00  0.00000000E+00  0.00000000E+00
  0.00000000E+00  0.00000000E+00  0.00000000E+00
  0.00000000E+00  0.00000000E+00  0.00000000E+00
  0.00000000E+00  0.00000000E+00  0.00000000E+00
  0.00000000E+00  0.00000000E+00  0.00000000E+00
  0.00000000E+00  0.00000000E+00  0.00000000E+00
  0.00000000E+00  0.00000000E+00  0.00000000E+00
  0.00000000E+00  0.00000000E+00  0.00000000E+00
  0.00000000E+00  0.00000000E+00  0.00000000E+00
  0.00000000E+00  0.00000000E+00  0.00000000E+00
  0.00000000E+00  0.00000000E+00  0.00000000E+00
  0.00000000E+00  0.00000000E+00  0.00000000E+00
  0.00000000E+00  0.00000000E+00  0.00000000E+00
  0.00000000E+00  0.00000000E+00  0.00000000E+00
  0.00000000E+00  0.00000000E+00  0.00000000E+00
