Al   Sc   N                             
   1.00000000000000     
   -10.0057922799526331    0.0002311629962027    0.0034261920450010
    -5.0023356279919478    8.5954105256222402    0.0001017756931836
     0.0160894752381584    0.0026997853158226   -9.7791372131407091
   Al   Sc   N 
    26    10    36
Direct
  0.1243327231289868  0.0887382003010799  0.3276237582708461
  0.2153630565630706  0.2047919462845513  0.0778994494808956
  0.7892399572500821  0.0969940785961683  0.8174688637449634
  0.9037181363040077  0.2052525077293978  0.5714667751232625
  0.4330323888733645  0.1026671273774227  0.3183536292478024
  0.5597961428345286  0.2087983969543075  0.0714660071583140
  0.1082479102066998  0.0942585987942408  0.8221127627263556
  0.2187017094059485  0.2005161207212467  0.5741874520220946
  0.1089990582081910  0.4190109904262442  0.3250940097413348
  0.7849469312373714  0.4191618462562090  0.8259788225548519
  0.8947507281412257  0.5253790582837468  0.5754044531722400
  0.4461309119370256  0.4277356481426011  0.3190565336699365
  0.5575451999929726  0.5432157161332540  0.0728282030376661
  0.1044194892005166  0.4216587511203187  0.8257715507646353
  0.7779581986497064  0.4312694964678272  0.3236118034910547
  0.8835983276991755  0.5351502072487406  0.0745626156396000
  0.4452633216094029  0.4326379308852779  0.8326259294225977
  0.1235723704167810  0.7614626752436990  0.3246548093985240
  0.2325590301148708  0.8718444977320203  0.0733636296758178
  0.8994958328177063  0.8711751250068716  0.5742792149159257
  0.4382223706288144  0.7622435438281556  0.3229584503593586
  0.5518538859589199  0.8653554594973443  0.0812750076213788
  0.1126002818619796  0.7685624105086220  0.8249445212786242
  0.2203977148225036  0.8793028212781593  0.5765567042783246
  0.4373643111208452  0.7644829734592378  0.8263339847461850
  0.5375306853335644  0.8819070699469478  0.5703530863799173
  0.7737831275774525  0.1020310927713197  0.3483731653744471
  0.8957440398978491  0.2062354155936248  0.0897807840400873
  0.4352614393295227  0.0958837361811504  0.8491674028416796
  0.5497685534554364  0.2025437108485661  0.5936552007739166
  0.2217757202678570  0.5349642695569443  0.0888078272258568
  0.2142266372797366  0.5413394984418645  0.5839040942626141
  0.5592560014333756  0.5429672713977851  0.5880683924535717
  0.7764938272086184  0.7592914005569611  0.8301164900889688
  0.7748400447182320  0.7567767804866108  0.3449298041953384
  0.8903942767932875  0.8740963004914093  0.0871748717593519
  0.2230805385806676  0.2046359102895750  0.3777535237624576
  0.1376632698725686  0.0785040856795831  0.1352765845622272
  0.8929817057394658  0.2023448010830080  0.8704280319088085
  0.7973944382365161  0.0906848100767306  0.6117756934626044
  0.5291253870745294  0.2171392488758173  0.3755374094178237
  0.4417310862869215  0.1003633145749419  0.1139987171970915
  0.1971418009588177  0.2130804908941997  0.8850714401226440
  0.1132335865924716  0.0934269218694794  0.6258239919839212
  0.9054241079970353  0.2139178235625323  0.3704244829374019
  0.7611223509389191  0.1061327982274491  0.1336513881691346
  0.5708314506894041  0.2108659298981053  0.8689440583232084
  0.4276267999792935  0.0877729332260913  0.6321735987118018
  0.2232230868402922  0.5362192831507713  0.3554458618939691
  0.0954653739846947  0.4171063624434836  0.1316825593856166
  0.8942040828782751  0.5215275134376469  0.8795968946476762
  0.7976580924120924  0.4147183007540605  0.6317515378317751
  0.5560722540186021  0.5383376630382699  0.3697200463102774
  0.4631505903267978  0.4221272635866598  0.1206537184625702
  0.2160780459176550  0.5395319940468184  0.8639802560982304
  0.1035748683696056  0.4135401920481812  0.6309854742249357
  0.8993247779995812  0.5177341122362051  0.3828904630166008
  0.7656213881569016  0.4467072068811078  0.1296603311274254
  0.5575311599791561  0.5409933206120812  0.8710652234539040
  0.4406655233930579  0.4333907438338187  0.6404387416926411
  0.2261619259433658  0.8705928003369650  0.3821534706100920
  0.1267690682241849  0.7715425785559944  0.1313024965456862
  0.8968007635180157  0.8830353675350011  0.8674521473790620
  0.7741188786903095  0.7625728249379407  0.6033569402696415
  0.5284772534465816  0.8870559326865006  0.3734094780099824
  0.4441739087725551  0.7582834499174780  0.1282637046333832
  0.2223420809424823  0.8740336656591410  0.8777046140174534
  0.1073987200769793  0.7801839344174368  0.6303570284832674
  0.9131848967557517  0.8590646431811351  0.3753895086648740
  0.7697476990079579  0.7522321830334349  0.1184772147231357
  0.5456309259846108  0.8594422114574130  0.8883133025918966
  0.4314331130954727  0.7817400802329075  0.6324307086123540
 
  0.00000000E+00  0.00000000E+00  0.00000000E+00
  0.00000000E+00  0.00000000E+00  0.00000000E+00
  0.00000000E+00  0.00000000E+00  0.00000000E+00
  0.00000000E+00  0.00000000E+00  0.00000000E+00
  0.00000000E+00  0.00000000E+00  0.00000000E+00
  0.00000000E+00  0.00000000E+00  0.00000000E+00
  0.00000000E+00  0.00000000E+00  0.00000000E+00
  0.00000000E+00  0.00000000E+00  0.00000000E+00
  0.00000000E+00  0.00000000E+00  0.00000000E+00
  0.00000000E+00  0.00000000E+00  0.00000000E+00
  0.00000000E+00  0.00000000E+00  0.00000000E+00
  0.00000000E+00  0.00000000E+00  0.00000000E+00
  0.00000000E+00  0.00000000E+00  0.00000000E+00
  0.00000000E+00  0.00000000E+00  0.00000000E+00
  0.00000000E+00  0.00000000E+00  0.00000000E+00
  0.00000000E+00  0.00000000E+00  0.00000000E+00
  0.00000000E+00  0.00000000E+00  0.00000000E+00
  0.00000000E+00  0.00000000E+00  0.00000000E+00
  0.00000000E+00  0.00000000E+00  0.00000000E+00
  0.00000000E+00  0.00000000E+00  0.00000000E+00
  0.00000000E+00  0.00000000E+00  0.00000000E+00
  0.00000000E+00  0.00000000E+00  0.00000000E+00
  0.00000000E+00  0.00000000E+00  0.00000000E+00
  0.00000000E+00  0.00000000E+00  0.00000000E+00
  0.00000000E+00  0.00000000E+00  0.00000000E+00
  0.00000000E+00  0.00000000E+00  0.00000000E+00
  0.00000000E+00  0.00000000E+00  0.00000000E+00
  0.00000000E+00  0.00000000E+00  0.00000000E+00
  0.00000000E+00  0.00000000E+00  0.00000000E+00
  0.00000000E+00  0.00000000E+00  0.00000000E+00
  0.00000000E+00  0.00000000E+00  0.00000000E+00
  0.00000000E+00  0.00000000E+00  0.00000000E+00
  0.00000000E+00  0.00000000E+00  0.00000000E+00
  0.00000000E+00  0.00000000E+00  0.00000000E+00
  0.00000000E+00  0.00000000E+00  0.00000000E+00
  0.00000000E+00  0.00000000E+00  0.00000000E+00
  0.00000000E+00  0.00000000E+00  0.00000000E+00
  0.00000000E+00  0.00000000E+00  0.00000000E+00
  0.00000000E+00  0.00000000E+00  0.00000000E+00
  0.00000000E+00  0.00000000E+00  0.00000000E+00
  0.00000000E+00  0.00000000E+00  0.00000000E+00
  0.00000000E+00  0.00000000E+00  0.00000000E+00
  0.00000000E+00  0.00000000E+00  0.00000000E+00
  0.00000000E+00  0.00000000E+00  0.00000000E+00
  0.00000000E+00  0.00000000E+00  0.00000000E+00
  0.00000000E+00  0.00000000E+00  0.00000000E+00
  0.00000000E+00  0.00000000E+00  0.00000000E+00
  0.00000000E+00  0.00000000E+00  0.00000000E+00
  0.00000000E+00  0.00000000E+00  0.00000000E+00
  0.00000000E+00  0.00000000E+00  0.00000000E+00
  0.00000000E+00  0.00000000E+00  0.00000000E+00
  0.00000000E+00  0.00000000E+00  0.00000000E+00
  0.00000000E+00  0.00000000E+00  0.00000000E+00
  0.00000000E+00  0.00000000E+00  0.00000000E+00
  0.00000000E+00  0.00000000E+00  0.00000000E+00
  0.00000000E+00  0.00000000E+00  0.00000000E+00
  0.00000000E+00  0.00000000E+00  0.00000000E+00
  0.00000000E+00  0.00000000E+00  0.00000000E+00
  0.00000000E+00  0.00000000E+00  0.00000000E+00
  0.00000000E+00  0.00000000E+00  0.00000000E+00
  0.00000000E+00  0.00000000E+00  0.00000000E+00
  0.00000000E+00  0.00000000E+00  0.00000000E+00
  0.00000000E+00  0.00000000E+00  0.00000000E+00
  0.00000000E+00  0.00000000E+00  0.00000000E+00
  0.00000000E+00  0.00000000E+00  0.00000000E+00
  0.00000000E+00  0.00000000E+00  0.00000000E+00
  0.00000000E+00  0.00000000E+00  0.00000000E+00
  0.00000000E+00  0.00000000E+00  0.00000000E+00
  0.00000000E+00  0.00000000E+00  0.00000000E+00
  0.00000000E+00  0.00000000E+00  0.00000000E+00
  0.00000000E+00  0.00000000E+00  0.00000000E+00
  0.00000000E+00  0.00000000E+00  0.00000000E+00
