Al   Sc   N                             
   1.00000000000000     
   -10.2416167406197882    0.0002093538916611    0.0013379640471011
    -5.1319794729448285    8.8037751388007042   -0.0010813018382380
     0.0200477086488863   -0.0001314062081889   -9.0905085491150608
   Al   Sc   N 
    26    10    36
Direct
  0.1220569564112211  0.0887696862916414  0.3358472420024370
  0.2161073258115636  0.2044060761709972  0.0885421570362013
  0.7852880419628505  0.0988358292577374  0.8360871926021360
  0.9019210287840167  0.2042041500288434  0.5868800531638740
  0.4332281612064293  0.1016080275175852  0.3301016258020084
  0.5564216161871016  0.2083695954426688  0.0899417124070681
  0.1110308308214698  0.0934361159020156  0.8295031510805231
  0.2180215969391597  0.2008671473177657  0.5792838001773220
  0.1078422879158438  0.4201911019557656  0.3345980176913699
  0.7825261624105622  0.4212638370725301  0.8345379492688565
  0.8938824138148149  0.5254095201048230  0.5867679868056968
  0.4443352170813100  0.4296593841299980  0.3296770438045868
  0.5571055834261642  0.5433180307910987  0.0865581068045387
  0.1052526234069973  0.4197718360727762  0.8334123312132178
  0.7794790421500224  0.4298454456569019  0.3333360995936232
  0.8848664170609908  0.5344982818937396  0.0808426141560830
  0.4479793366041918  0.4306104738996197  0.8442059258975476
  0.1224626861169327  0.7620468040832193  0.3346605629939674
  0.2320203996151378  0.8722057391892974  0.0795199166305665
  0.8978967743265258  0.8737862078693226  0.5953084422247841
  0.4367856478819832  0.7633621442776715  0.3311596288257590
  0.5499106953788058  0.8670789292552215  0.0937400466890992
  0.1144947812655346  0.7685241238141245  0.8346202626841688
  0.2210805798889197  0.8789528422767106  0.5845862450980874
  0.4384748355469057  0.7640043502730549  0.8346600991593860
  0.5396158359196690  0.8804230631044945  0.5769500050972525
  0.7774962371421523  0.0999960142815794  0.3536642908283341
  0.8970455884272326  0.2072513982131099  0.0972984808093713
  0.4357229165913878  0.0958798228294242  0.8553968688633944
  0.5519740565456530  0.2030579033010866  0.6011295120360032
  0.2212266022127736  0.5350277024820329  0.0955534404077696
  0.2140376725368398  0.5412136245761872  0.5974982799832205
  0.5584679669303441  0.5434222011732146  0.5964736669061779
  0.7740562822273063  0.7594809211442808  0.8435706474439115
  0.7766860568154073  0.7562663553721336  0.3520826550595331
  0.8931408969818975  0.8718601781669406  0.0963792378945669
  0.2214857957845169  0.2048683627286181  0.3665064593347580
  0.1354742160886246  0.0790046934840447  0.1254165464793502
  0.8943819695483555  0.2030362432826323  0.8583499017555951
  0.7953046728770019  0.0919297329848163  0.6085102636484265
  0.5344525482743947  0.2153632825123779  0.3580062997700963
  0.4404069690573706  0.0999936685276381  0.1119791845613634
  0.2005112767207962  0.2114950537533673  0.8766360674886116
  0.1142451670536175  0.0930858784908963  0.6163525080928522
  0.9041175039573730  0.2131367878805293  0.3627567601429504
  0.7649205286609515  0.1045652064171989  0.1140638556922653
  0.5672460383594498  0.2106256251514509  0.8628470132089134
  0.4291408771801102  0.0893575058139007  0.6156233676425842
  0.2225877817792181  0.5368651485726161  0.3528493768685834
  0.0962609756255830  0.4183779480559622  0.1224671639259043
  0.8944838671008171  0.5214464731141604  0.8667466313858796
  0.7945373863144951  0.4158285461194566  0.6211803182406186
  0.5557331886518995  0.5390438624918090  0.3576746280330099
  0.4603027023054622  0.4237633463850941  0.1095402705600392
  0.2163134978340295  0.5387661779500590  0.8560155375936631
  0.1044300352510206  0.4127260973514737  0.6200897378700958
  0.8975720313743736  0.5202045663784887  0.3752430329981351
  0.7673956971693343  0.4453761841021020  0.1191162137938306
  0.5573583775136299  0.5416002105303406  0.8646740770364048
  0.4421142011153592  0.4321467588702035  0.6272314302945361
  0.2251273831738771  0.8714915340138134  0.3739058068793213
  0.1275709730501688  0.7697535193627090  0.1185544285258828
  0.8972896918864350  0.8810233462190382  0.8528085532338778
  0.7719116247702971  0.7637025617440685  0.6027163870296022
  0.5320430179783813  0.8841838120813179  0.3600490344697249
  0.4427525760488464  0.7588241810935727  0.1200115392532766
  0.2232854417173655  0.8745167374835319  0.8675495977211014
  0.1093596669483290  0.7789841957261956  0.6204308504283702
  0.9107633530310792  0.8604383710609724  0.3645115330247535
  0.7708742866484357  0.7519537119113977  0.1074077556054505
  0.5429617728019451  0.8631698194383119  0.8800275746333739
  0.4326884839004492  0.7807318245064607  0.6214734388056229
 
  0.00000000E+00  0.00000000E+00  0.00000000E+00
  0.00000000E+00  0.00000000E+00  0.00000000E+00
  0.00000000E+00  0.00000000E+00  0.00000000E+00
  0.00000000E+00  0.00000000E+00  0.00000000E+00
  0.00000000E+00  0.00000000E+00  0.00000000E+00
  0.00000000E+00  0.00000000E+00  0.00000000E+00
  0.00000000E+00  0.00000000E+00  0.00000000E+00
  0.00000000E+00  0.00000000E+00  0.00000000E+00
  0.00000000E+00  0.00000000E+00  0.00000000E+00
  0.00000000E+00  0.00000000E+00  0.00000000E+00
  0.00000000E+00  0.00000000E+00  0.00000000E+00
  0.00000000E+00  0.00000000E+00  0.00000000E+00
  0.00000000E+00  0.00000000E+00  0.00000000E+00
  0.00000000E+00  0.00000000E+00  0.00000000E+00
  0.00000000E+00  0.00000000E+00  0.00000000E+00
  0.00000000E+00  0.00000000E+00  0.00000000E+00
  0.00000000E+00  0.00000000E+00  0.00000000E+00
  0.00000000E+00  0.00000000E+00  0.00000000E+00
  0.00000000E+00  0.00000000E+00  0.00000000E+00
  0.00000000E+00  0.00000000E+00  0.00000000E+00
  0.00000000E+00  0.00000000E+00  0.00000000E+00
  0.00000000E+00  0.00000000E+00  0.00000000E+00
  0.00000000E+00  0.00000000E+00  0.00000000E+00
  0.00000000E+00  0.00000000E+00  0.00000000E+00
  0.00000000E+00  0.00000000E+00  0.00000000E+00
  0.00000000E+00  0.00000000E+00  0.00000000E+00
  0.00000000E+00  0.00000000E+00  0.00000000E+00
  0.00000000E+00  0.00000000E+00  0.00000000E+00
  0.00000000E+00  0.00000000E+00  0.00000000E+00
  0.00000000E+00  0.00000000E+00  0.00000000E+00
  0.00000000E+00  0.00000000E+00  0.00000000E+00
  0.00000000E+00  0.00000000E+00  0.00000000E+00
  0.00000000E+00  0.00000000E+00  0.00000000E+00
  0.00000000E+00  0.00000000E+00  0.00000000E+00
  0.00000000E+00  0.00000000E+00  0.00000000E+00
  0.00000000E+00  0.00000000E+00  0.00000000E+00
  0.00000000E+00  0.00000000E+00  0.00000000E+00
  0.00000000E+00  0.00000000E+00  0.00000000E+00
  0.00000000E+00  0.00000000E+00  0.00000000E+00
  0.00000000E+00  0.00000000E+00  0.00000000E+00
  0.00000000E+00  0.00000000E+00  0.00000000E+00
  0.00000000E+00  0.00000000E+00  0.00000000E+00
  0.00000000E+00  0.00000000E+00  0.00000000E+00
  0.00000000E+00  0.00000000E+00  0.00000000E+00
  0.00000000E+00  0.00000000E+00  0.00000000E+00
  0.00000000E+00  0.00000000E+00  0.00000000E+00
  0.00000000E+00  0.00000000E+00  0.00000000E+00
  0.00000000E+00  0.00000000E+00  0.00000000E+00
  0.00000000E+00  0.00000000E+00  0.00000000E+00
  0.00000000E+00  0.00000000E+00  0.00000000E+00
  0.00000000E+00  0.00000000E+00  0.00000000E+00
  0.00000000E+00  0.00000000E+00  0.00000000E+00
  0.00000000E+00  0.00000000E+00  0.00000000E+00
  0.00000000E+00  0.00000000E+00  0.00000000E+00
  0.00000000E+00  0.00000000E+00  0.00000000E+00
  0.00000000E+00  0.00000000E+00  0.00000000E+00
  0.00000000E+00  0.00000000E+00  0.00000000E+00
  0.00000000E+00  0.00000000E+00  0.00000000E+00
  0.00000000E+00  0.00000000E+00  0.00000000E+00
  0.00000000E+00  0.00000000E+00  0.00000000E+00
  0.00000000E+00  0.00000000E+00  0.00000000E+00
  0.00000000E+00  0.00000000E+00  0.00000000E+00
  0.00000000E+00  0.00000000E+00  0.00000000E+00
  0.00000000E+00  0.00000000E+00  0.00000000E+00
  0.00000000E+00  0.00000000E+00  0.00000000E+00
  0.00000000E+00  0.00000000E+00  0.00000000E+00
  0.00000000E+00  0.00000000E+00  0.00000000E+00
  0.00000000E+00  0.00000000E+00  0.00000000E+00
  0.00000000E+00  0.00000000E+00  0.00000000E+00
  0.00000000E+00  0.00000000E+00  0.00000000E+00
  0.00000000E+00  0.00000000E+00  0.00000000E+00
  0.00000000E+00  0.00000000E+00  0.00000000E+00
