Al   Sc   N                             
   1.00000000000000     
    -9.8676842251925141    0.0001133938316781   -0.0078502391436583
    -4.9323774109465397    8.4888399767149085   -0.0062868429764932
    -0.0074215177280155    0.0036050471662651  -10.1329751797305505
   Al   Sc   N 
    26    10    36
Direct
  0.1149014645807824  0.0941643333272069  0.4067404381994422
  0.2239364109973749  0.2001510253626364  0.1586499830555042
  0.7771707112243433  0.1026107535325309  0.9052579397671821
  0.8995004688570347  0.2023156526146153  0.6602559083742108
  0.4325769396531669  0.0969029658401865  0.4021405195019199
  0.5508079614643435  0.2077720134877197  0.1596675025501355
  0.1176584445525748  0.0891953682531508  0.9009892281787870
  0.2133604846837613  0.2036595037220934  0.6499384113828839
  0.1103445390990174  0.4220018858609933  0.4024720574387288
  0.7741494673896554  0.4296507315632709  0.9058494712740526
  0.8950916644344247  0.5258690800524946  0.6551191310483588
  0.4392187010998185  0.4325051826670432  0.3985697852303574
  0.5576852153277301  0.5428057799370691  0.1566122968503976
  0.1042294243697341  0.4193593745040758  0.9070167124596296
  0.7871545414577312  0.4226561358068253  0.4039292288182423
  0.8823840638555183  0.5361735503030758  0.1546285978363997
  0.4519556449282618  0.4277341422661323  0.9138957542655959
  0.1164271137497508  0.7623632098348097  0.4065060627003021
  0.2317101116948095  0.8723640117950282  0.1553107772404374
  0.8968619068816608  0.8772178537534714  0.6625330016800177
  0.4369229849908365  0.7675678601550047  0.4008028933667589
  0.5487764732273419  0.8728353875319854  0.1572859111166593
  0.1193348724623462  0.7657421631078876  0.9043332180070180
  0.2203475481157682  0.8790063392397016  0.6522762908470767
  0.4387498422047642  0.7591534919218859  0.9093977739267984
  0.5417704518852346  0.8759894471140797  0.6532321901832887
  0.7841624129090192  0.0971052745462870  0.3983412386925167
  0.8984416966100142  0.2086270538781108  0.1383357432251913
  0.4368047702178615  0.0997129543804860  0.9024559793646745
  0.5581963526726952  0.2019079256315450  0.6448766204372376
  0.2217749877728892  0.5357109337546433  0.1425915745768762
  0.2154757228776845  0.5400019281819866  0.6525284209002535
  0.5582637794941618  0.5438901559201526  0.6467073685403193
  0.7749867549593219  0.7563909759162115  0.8866792812701405
  0.7765974753096856  0.7584884386662196  0.4053570786624618
  0.8908511973307043  0.8693576206011855  0.1398781817785490
  0.2194824400939552  0.2049644743637984  0.3477883485526760
  0.1410157003169417  0.0794416193598551  0.0881414909939124
  0.8924664217940972  0.2059202319038960  0.8580074614269222
  0.7992872781736509  0.0886459251890344  0.6075223587792138
  0.5374606237672452  0.2124122872374983  0.3519543873742066
  0.4427817187495151  0.0976240864477234  0.1114925870147303
  0.2037662687045199  0.2126142331872458  0.8375904274330068
  0.1105368530628610  0.0933700777145177  0.5974205938922950
  0.9046409638803254  0.2118902678771946  0.3463722803720941
  0.7589825252261946  0.1072855444035667  0.0968348237012080
  0.5632176390450141  0.2158101145772875  0.8527852751589506
  0.4298318602698430  0.0890078759147386  0.5950559065521617
  0.2181096842590193  0.5405772631951962  0.3588831702228319
  0.0968717883462631  0.4137022985179186  0.0951858018542566
  0.8966258426318419  0.5162594500955322  0.8415725700778722
  0.7972337694907949  0.4146406012059245  0.5934241265147264
  0.5589126726531717  0.5397041951468395  0.3513660270162404
  0.4627946716644260  0.4215559058986358  0.1033198384223653
  0.2221780879663200  0.5342999327178077  0.8711833583100272
  0.1025765077632741  0.4171505944083052  0.5903025825270873
  0.8973293452618520  0.5227345966349901  0.3431584137039607
  0.7648134432537930  0.4478334095893501  0.0923921379752670
  0.5531952873558410  0.5404161415411650  0.8577280187717164
  0.4418974251329217  0.4321064665814589  0.5840660320322257
  0.2212189362994934  0.8739115450957797  0.3459172682500977
  0.1272293623231704  0.7718949000007598  0.0891071210098957
  0.9005317890117084  0.8819413749848266  0.8554539239297299
  0.7782901539947531  0.7621785042277196  0.6237712648641462
  0.5364781456478269  0.8816486571095723  0.3454613075645838
  0.4451438520681208  0.7606952087011223  0.1001939574584370
  0.2257144132576201  0.8705665038093571  0.8420185496127957
  0.1057423958988224  0.7789749603154306  0.5968145146069475
  0.9079176952889014  0.8604918107305366  0.3475177610413240
  0.7646225533489215  0.7528958761086599  0.1035166343642615
  0.5367318153776566  0.8659708307926195  0.8396271458588842
  0.4307946091891495  0.7804523859241712  0.5874762905689366
 
  0.00000000E+00  0.00000000E+00  0.00000000E+00
  0.00000000E+00  0.00000000E+00  0.00000000E+00
  0.00000000E+00  0.00000000E+00  0.00000000E+00
  0.00000000E+00  0.00000000E+00  0.00000000E+00
  0.00000000E+00  0.00000000E+00  0.00000000E+00
  0.00000000E+00  0.00000000E+00  0.00000000E+00
  0.00000000E+00  0.00000000E+00  0.00000000E+00
  0.00000000E+00  0.00000000E+00  0.00000000E+00
  0.00000000E+00  0.00000000E+00  0.00000000E+00
  0.00000000E+00  0.00000000E+00  0.00000000E+00
  0.00000000E+00  0.00000000E+00  0.00000000E+00
  0.00000000E+00  0.00000000E+00  0.00000000E+00
  0.00000000E+00  0.00000000E+00  0.00000000E+00
  0.00000000E+00  0.00000000E+00  0.00000000E+00
  0.00000000E+00  0.00000000E+00  0.00000000E+00
  0.00000000E+00  0.00000000E+00  0.00000000E+00
  0.00000000E+00  0.00000000E+00  0.00000000E+00
  0.00000000E+00  0.00000000E+00  0.00000000E+00
  0.00000000E+00  0.00000000E+00  0.00000000E+00
  0.00000000E+00  0.00000000E+00  0.00000000E+00
  0.00000000E+00  0.00000000E+00  0.00000000E+00
  0.00000000E+00  0.00000000E+00  0.00000000E+00
  0.00000000E+00  0.00000000E+00  0.00000000E+00
  0.00000000E+00  0.00000000E+00  0.00000000E+00
  0.00000000E+00  0.00000000E+00  0.00000000E+00
  0.00000000E+00  0.00000000E+00  0.00000000E+00
  0.00000000E+00  0.00000000E+00  0.00000000E+00
  0.00000000E+00  0.00000000E+00  0.00000000E+00
  0.00000000E+00  0.00000000E+00  0.00000000E+00
  0.00000000E+00  0.00000000E+00  0.00000000E+00
  0.00000000E+00  0.00000000E+00  0.00000000E+00
  0.00000000E+00  0.00000000E+00  0.00000000E+00
  0.00000000E+00  0.00000000E+00  0.00000000E+00
  0.00000000E+00  0.00000000E+00  0.00000000E+00
  0.00000000E+00  0.00000000E+00  0.00000000E+00
  0.00000000E+00  0.00000000E+00  0.00000000E+00
  0.00000000E+00  0.00000000E+00  0.00000000E+00
  0.00000000E+00  0.00000000E+00  0.00000000E+00
  0.00000000E+00  0.00000000E+00  0.00000000E+00
  0.00000000E+00  0.00000000E+00  0.00000000E+00
  0.00000000E+00  0.00000000E+00  0.00000000E+00
  0.00000000E+00  0.00000000E+00  0.00000000E+00
  0.00000000E+00  0.00000000E+00  0.00000000E+00
  0.00000000E+00  0.00000000E+00  0.00000000E+00
  0.00000000E+00  0.00000000E+00  0.00000000E+00
  0.00000000E+00  0.00000000E+00  0.00000000E+00
  0.00000000E+00  0.00000000E+00  0.00000000E+00
  0.00000000E+00  0.00000000E+00  0.00000000E+00
  0.00000000E+00  0.00000000E+00  0.00000000E+00
  0.00000000E+00  0.00000000E+00  0.00000000E+00
  0.00000000E+00  0.00000000E+00  0.00000000E+00
  0.00000000E+00  0.00000000E+00  0.00000000E+00
  0.00000000E+00  0.00000000E+00  0.00000000E+00
  0.00000000E+00  0.00000000E+00  0.00000000E+00
  0.00000000E+00  0.00000000E+00  0.00000000E+00
  0.00000000E+00  0.00000000E+00  0.00000000E+00
  0.00000000E+00  0.00000000E+00  0.00000000E+00
  0.00000000E+00  0.00000000E+00  0.00000000E+00
  0.00000000E+00  0.00000000E+00  0.00000000E+00
  0.00000000E+00  0.00000000E+00  0.00000000E+00
  0.00000000E+00  0.00000000E+00  0.00000000E+00
  0.00000000E+00  0.00000000E+00  0.00000000E+00
  0.00000000E+00  0.00000000E+00  0.00000000E+00
  0.00000000E+00  0.00000000E+00  0.00000000E+00
  0.00000000E+00  0.00000000E+00  0.00000000E+00
  0.00000000E+00  0.00000000E+00  0.00000000E+00
  0.00000000E+00  0.00000000E+00  0.00000000E+00
  0.00000000E+00  0.00000000E+00  0.00000000E+00
  0.00000000E+00  0.00000000E+00  0.00000000E+00
  0.00000000E+00  0.00000000E+00  0.00000000E+00
  0.00000000E+00  0.00000000E+00  0.00000000E+00
  0.00000000E+00  0.00000000E+00  0.00000000E+00
