Al   Gd   N                             
   1.00000000000000     
    -9.8698166669534473   -0.0079661609043613    0.0082326300468815
    -4.9247213795351108    8.5401537601827595    0.0161276966978979
    -0.0771556251932248   -0.0123013371690646  -10.4735851365328685
   Al   Gd   N 
    28     8    36
Direct
  0.1179755366161857  0.0899216227823629  0.3389311735218428
  0.7754907824954529  0.0924901793078163  0.7862083445655017
  0.8978769830239060  0.2051988328280459  0.5557280650500687
  0.4423516874222599  0.0974811467414582  0.3224800797929603
  0.2240113636398675  0.2089722555173452  0.5485544146646149
  0.8835006712331079  0.2015081538465182  0.0349431972641341
  0.4474639117032169  0.0938598298328230  0.7805130203139612
  0.5466332879530285  0.2084376879888055  0.5582997813494401
  0.1054042419170358  0.4360452231736787  0.3190647625634924
  0.7806397543541195  0.4274246837295053  0.8130848934103767
  0.8980582048977794  0.5381285557866349  0.5623679825402093
  0.4377748393131640  0.4348061010679771  0.3095205036821014
  0.5473702168700783  0.5433567400364439  0.0415796023152595
  0.1168146856499490  0.4300842747444804  0.7894199454813631
  0.2189100348648978  0.5400760932242221  0.5488351319791249
  0.8874310105593821  0.5435342816283395  0.0428638913428685
  0.4354433299396447  0.4266356820371584  0.7876934607930508
  0.1110913970842446  0.7617723826947795  0.3104205254859735
  0.2130362030508834  0.8677648790139756  0.0579853057603898
  0.7794834425040875  0.7622618122717100  0.7964136087281730
  0.8945642850905742  0.8642502931242220  0.5572068450613088
  0.4356681649815854  0.7598561014931704  0.3026098092572695
  0.1158131872462960  0.7521065935939717  0.7967137667029363
  0.2227328015016141  0.8717530156305386  0.5490214447606405
  0.7934847649862604  0.7530172704675522  0.3126739660920492
  0.8961313859043045  0.8727007133507811  0.0490413959036715
  0.4409906674326081  0.7625642235737544  0.8019773628962028
  0.5550048007412656  0.8746347414792268  0.5531574278021765
  0.2160351320160245  0.2072491413843167  0.0671363936452849
  0.5562828099765937  0.2083601345422110  0.0355320304981817
  0.1165673530591960  0.0854997029324238  0.8006855082264437
  0.7780501444564791  0.0884118396177271  0.3107828390814475
  0.2103124856520822  0.5469428566735886  0.0626888206999183
  0.7853838354587097  0.4349598742990040  0.2854077080256872
  0.5617730969409322  0.5403686694636463  0.5676241445272936
  0.5623968689455410  0.8625781404908253  0.0606829704954635
  0.2207737856999117  0.2090396006395565  0.3625525036828066
  0.0910205688016035  0.0828316639749218  0.0951999716401630
  0.8617665883753176  0.2118538690314438  0.8549817361430243
  0.7823739925368116  0.0916582507676580  0.5995455951164956
  0.5264444402490156  0.2254363880354333  0.3766667298999735
  0.4536253225640650  0.0932146559768725  0.1459732966069680
  0.2401079483098485  0.2192368081843270  0.8467676799625110
  0.1178980847870008  0.0911947982894432  0.5837804492748120
  0.9075782196452593  0.2034662921214192  0.3760311520563917
  0.7960279773129670  0.0837257045623545  0.0955950327633133
  0.5564721975513578  0.2023933190943765  0.8177723937533443
  0.4428838599935148  0.0922193317814859  0.5976154300416141
  0.2203786074513800  0.5426596665415460  0.3594920450135177
  0.0681655747827179  0.4425416417728272  0.1419012604477814
  0.8963728641060271  0.5422494823056354  0.8574645125758238
  0.8163535074216810  0.4103512788473296  0.6276663230974791
  0.5360917408391686  0.5507141643620557  0.3571968391956730
  0.4584206590203621  0.4381824562057730  0.1267358676589581
  0.2210420872047933  0.5373028802862763  0.8428870737806449
  0.1153950123298202  0.4280278516492118  0.6053884096201472
  0.8987595471045040  0.5508819621733636  0.3839053461059336
  0.7710406106883525  0.4346730011826310  0.0654790401016712
  0.5504217923910133  0.5395559009865707  0.8461298320347268
  0.4260285122259972  0.4215159275705602  0.6093913171056542
  0.2234076696357619  0.8692440912982420  0.3651870057627491
  0.0928392903360091  0.7880180271870358  0.1293176865533709
  0.8919473234473045  0.8696064242683192  0.8558065136654918
  0.7774254162431831  0.7613504319730282  0.6140814942652284
  0.5609221196409280  0.8645368209966477  0.3627497001362698
  0.4245567051738277  0.7498910430245402  0.1184466892373592
  0.2356640377968944  0.8359109035392009  0.8736438957496873
  0.1143056580998945  0.7615734243246450  0.6109834406464216
  0.9068923711707058  0.8438926683823169  0.3785957589365907
  0.8106601274893350  0.7478085534999295  0.1221576588861168
  0.5547178337784047  0.8759491510579167  0.8415776014745830
  0.4245058134562427  0.7950681438317915  0.6208731975722515
 
  0.00000000E+00  0.00000000E+00  0.00000000E+00
  0.00000000E+00  0.00000000E+00  0.00000000E+00
  0.00000000E+00  0.00000000E+00  0.00000000E+00
  0.00000000E+00  0.00000000E+00  0.00000000E+00
  0.00000000E+00  0.00000000E+00  0.00000000E+00
  0.00000000E+00  0.00000000E+00  0.00000000E+00
  0.00000000E+00  0.00000000E+00  0.00000000E+00
  0.00000000E+00  0.00000000E+00  0.00000000E+00
  0.00000000E+00  0.00000000E+00  0.00000000E+00
  0.00000000E+00  0.00000000E+00  0.00000000E+00
  0.00000000E+00  0.00000000E+00  0.00000000E+00
  0.00000000E+00  0.00000000E+00  0.00000000E+00
  0.00000000E+00  0.00000000E+00  0.00000000E+00
  0.00000000E+00  0.00000000E+00  0.00000000E+00
  0.00000000E+00  0.00000000E+00  0.00000000E+00
  0.00000000E+00  0.00000000E+00  0.00000000E+00
  0.00000000E+00  0.00000000E+00  0.00000000E+00
  0.00000000E+00  0.00000000E+00  0.00000000E+00
  0.00000000E+00  0.00000000E+00  0.00000000E+00
  0.00000000E+00  0.00000000E+00  0.00000000E+00
  0.00000000E+00  0.00000000E+00  0.00000000E+00
  0.00000000E+00  0.00000000E+00  0.00000000E+00
  0.00000000E+00  0.00000000E+00  0.00000000E+00
  0.00000000E+00  0.00000000E+00  0.00000000E+00
  0.00000000E+00  0.00000000E+00  0.00000000E+00
  0.00000000E+00  0.00000000E+00  0.00000000E+00
  0.00000000E+00  0.00000000E+00  0.00000000E+00
  0.00000000E+00  0.00000000E+00  0.00000000E+00
  0.00000000E+00  0.00000000E+00  0.00000000E+00
  0.00000000E+00  0.00000000E+00  0.00000000E+00
  0.00000000E+00  0.00000000E+00  0.00000000E+00
  0.00000000E+00  0.00000000E+00  0.00000000E+00
  0.00000000E+00  0.00000000E+00  0.00000000E+00
  0.00000000E+00  0.00000000E+00  0.00000000E+00
  0.00000000E+00  0.00000000E+00  0.00000000E+00
  0.00000000E+00  0.00000000E+00  0.00000000E+00
  0.00000000E+00  0.00000000E+00  0.00000000E+00
  0.00000000E+00  0.00000000E+00  0.00000000E+00
  0.00000000E+00  0.00000000E+00  0.00000000E+00
  0.00000000E+00  0.00000000E+00  0.00000000E+00
  0.00000000E+00  0.00000000E+00  0.00000000E+00
  0.00000000E+00  0.00000000E+00  0.00000000E+00
  0.00000000E+00  0.00000000E+00  0.00000000E+00
  0.00000000E+00  0.00000000E+00  0.00000000E+00
  0.00000000E+00  0.00000000E+00  0.00000000E+00
  0.00000000E+00  0.00000000E+00  0.00000000E+00
  0.00000000E+00  0.00000000E+00  0.00000000E+00
  0.00000000E+00  0.00000000E+00  0.00000000E+00
  0.00000000E+00  0.00000000E+00  0.00000000E+00
  0.00000000E+00  0.00000000E+00  0.00000000E+00
  0.00000000E+00  0.00000000E+00  0.00000000E+00
  0.00000000E+00  0.00000000E+00  0.00000000E+00
  0.00000000E+00  0.00000000E+00  0.00000000E+00
  0.00000000E+00  0.00000000E+00  0.00000000E+00
  0.00000000E+00  0.00000000E+00  0.00000000E+00
  0.00000000E+00  0.00000000E+00  0.00000000E+00
  0.00000000E+00  0.00000000E+00  0.00000000E+00
  0.00000000E+00  0.00000000E+00  0.00000000E+00
  0.00000000E+00  0.00000000E+00  0.00000000E+00
  0.00000000E+00  0.00000000E+00  0.00000000E+00
  0.00000000E+00  0.00000000E+00  0.00000000E+00
  0.00000000E+00  0.00000000E+00  0.00000000E+00
  0.00000000E+00  0.00000000E+00  0.00000000E+00
  0.00000000E+00  0.00000000E+00  0.00000000E+00
  0.00000000E+00  0.00000000E+00  0.00000000E+00
  0.00000000E+00  0.00000000E+00  0.00000000E+00
  0.00000000E+00  0.00000000E+00  0.00000000E+00
  0.00000000E+00  0.00000000E+00  0.00000000E+00
  0.00000000E+00  0.00000000E+00  0.00000000E+00
  0.00000000E+00  0.00000000E+00  0.00000000E+00
  0.00000000E+00  0.00000000E+00  0.00000000E+00
  0.00000000E+00  0.00000000E+00  0.00000000E+00
