Al   Gd   N                             
   1.00000000000000     
    -9.9038756373411658   -0.0111778584684152    0.0329622498095570
    -4.9083206463937330    8.5682697930959062    0.0266560081396886
    -0.1669819246840386   -0.1195744511404171  -10.5925650332330150
   Al   Gd   N 
    28     8    36
Direct
  0.1301922839154841  0.0802156993196235  0.4289310128558768
  0.7787232291596240  0.0965860258629831  0.8274578896714218
  0.9009342195232577  0.2048603390494890  0.5977791775446519
  0.4457635549150893  0.0944985209208866  0.4187933878475221
  0.2339653321309143  0.2090198892940620  0.6418218007726466
  0.8799109196684540  0.2036299826909271  0.0733680773550276
  0.4446342730057538  0.0917589409217783  0.8884699145911554
  0.5487649005849917  0.2014352543643341  0.6646236459164712
  0.1142030075165010  0.4286496186986284  0.4306040141717062
  0.7751209604175884  0.4239369708308587  0.8391199058915646
  0.8977700781244309  0.5393951011312907  0.6574432610188623
  0.4329320298407069  0.4321982389108285  0.3665738117234838
  0.5466793515509636  0.5437387865243650  0.0554783954216376
  0.1210449320309195  0.4268556811271580  0.8824544073601359
  0.2119013168729893  0.5458048308711625  0.6597653078737409
  0.8804257213648086  0.5410235720861962  0.0485172728746406
  0.4328207187333390  0.4323256198897880  0.8514517772529828
  0.1200937622648439  0.7515918221750439  0.4087622841341130
  0.2111794221121173  0.8788227637341279  0.1465647200796525
  0.7780288751232405  0.7768063622236951  0.8859466860922396
  0.8979988612711693  0.8648695802193203  0.6522122134584976
  0.4372236656135868  0.7728664740323836  0.4107357835839949
  0.1086643601468467  0.7666373583807911  0.8976007045278038
  0.2256289032171992  0.8681706610296445  0.6512181826740715
  0.7953324061383640  0.7447077602956114  0.4130076220122376
  0.8987121316380922  0.8725894958767952  0.1501501716057021
  0.4395947133134257  0.7648114705699314  0.8881085361216847
  0.5576937148386492  0.8776246822290261  0.6475950101806802
  0.2061560595023764  0.2113516699250297  0.1715412142695101
  0.5570020358813821  0.2063978216205342  0.1135686796934579
  0.1205183690281899  0.0944112936032369  0.8766916005658700
  0.7785512564905517  0.0815291020810420  0.3812893537298550
  0.1860924664088799  0.5590496154077371  0.1500747868376777
  0.7821546776506523  0.4243047890350553  0.3215348947907728
  0.5571274851472481  0.5373886891573036  0.6149429856590061
  0.5656434455214665  0.8535593892492699  0.1498771206671350
  0.2266084259509356  0.2009600014157513  0.3963772087310247
  0.0963479290258604  0.0889550971985855  0.0943689196813651
  0.8569002240785721  0.2164440565240824  0.8940876024031041
  0.7785797597260995  0.0981260477484440  0.6369531541533817
  0.5184454250754698  0.2198322699858508  0.3401521475825646
  0.4273245999260951  0.0831797369724541  0.0639100089115203
  0.2459255698976150  0.2222159770517464  0.8198203163132121
  0.1227264270147330  0.0870135539818122  0.6197250403271681
  0.9159351725486360  0.1958223224699935  0.4204877914991627
  0.8057125171708108  0.0903415994759200  0.1598984170710551
  0.5594710513313004  0.1976614826433831  0.8530491757483745
  0.4581537093545691  0.0911740260116645  0.5985544444992641
  0.2213519789002021  0.5348177847233586  0.3703707881118277
  0.0902080555329690  0.4214418412957031  0.0562468571166690
  0.8852380795882269  0.5469983245234644  0.8530587237021336
  0.8116820280209254  0.4076657897668170  0.6605018530737752
  0.5305912782793598  0.5489251162688547  0.3948451098208210
  0.4297962298583968  0.4545923321354906  0.0895653701951176
  0.2069645132619442  0.5541722536874971  0.8449836993719160
  0.1107179759125643  0.4342813124288440  0.6103359086334024
  0.9105717233648107  0.5352740211678508  0.3769061685966761
  0.7653400701421162  0.4422200816817394  0.0981011615838554
  0.5549418925396807  0.5402517145878605  0.8662294180618844
  0.4272815495600568  0.4150786464227636  0.6561689537133475
  0.2258363161096355  0.8719959634304359  0.3432501961889685
  0.0944816576676430  0.7959707835088778  0.0749619427210462
  0.8952090394250050  0.8732821150871857  0.8322159166883623
  0.7838714435327603  0.7602854472686076  0.6014261914079810
  0.5670000895532397  0.8687337585570063  0.3683041563114884
  0.4192398284138505  0.7626388520161598  0.0698831202755770
  0.2381617627513535  0.8397390083721774  0.8260869318094635
  0.1126937532489052  0.7631377428572108  0.5918400972743925
  0.9192521724296796  0.8251169020020370  0.3334763107111414
  0.8069452210217847  0.7593630343976585  0.0656746640037937
  0.5577050239394552  0.8704234853302211  0.8337305910587816
  0.4289818910203493  0.7982521960062385  0.5895867858481765
 
  0.00000000E+00  0.00000000E+00  0.00000000E+00
  0.00000000E+00  0.00000000E+00  0.00000000E+00
  0.00000000E+00  0.00000000E+00  0.00000000E+00
  0.00000000E+00  0.00000000E+00  0.00000000E+00
  0.00000000E+00  0.00000000E+00  0.00000000E+00
  0.00000000E+00  0.00000000E+00  0.00000000E+00
  0.00000000E+00  0.00000000E+00  0.00000000E+00
  0.00000000E+00  0.00000000E+00  0.00000000E+00
  0.00000000E+00  0.00000000E+00  0.00000000E+00
  0.00000000E+00  0.00000000E+00  0.00000000E+00
  0.00000000E+00  0.00000000E+00  0.00000000E+00
  0.00000000E+00  0.00000000E+00  0.00000000E+00
  0.00000000E+00  0.00000000E+00  0.00000000E+00
  0.00000000E+00  0.00000000E+00  0.00000000E+00
  0.00000000E+00  0.00000000E+00  0.00000000E+00
  0.00000000E+00  0.00000000E+00  0.00000000E+00
  0.00000000E+00  0.00000000E+00  0.00000000E+00
  0.00000000E+00  0.00000000E+00  0.00000000E+00
  0.00000000E+00  0.00000000E+00  0.00000000E+00
  0.00000000E+00  0.00000000E+00  0.00000000E+00
  0.00000000E+00  0.00000000E+00  0.00000000E+00
  0.00000000E+00  0.00000000E+00  0.00000000E+00
  0.00000000E+00  0.00000000E+00  0.00000000E+00
  0.00000000E+00  0.00000000E+00  0.00000000E+00
  0.00000000E+00  0.00000000E+00  0.00000000E+00
  0.00000000E+00  0.00000000E+00  0.00000000E+00
  0.00000000E+00  0.00000000E+00  0.00000000E+00
  0.00000000E+00  0.00000000E+00  0.00000000E+00
  0.00000000E+00  0.00000000E+00  0.00000000E+00
  0.00000000E+00  0.00000000E+00  0.00000000E+00
  0.00000000E+00  0.00000000E+00  0.00000000E+00
  0.00000000E+00  0.00000000E+00  0.00000000E+00
  0.00000000E+00  0.00000000E+00  0.00000000E+00
  0.00000000E+00  0.00000000E+00  0.00000000E+00
  0.00000000E+00  0.00000000E+00  0.00000000E+00
  0.00000000E+00  0.00000000E+00  0.00000000E+00
  0.00000000E+00  0.00000000E+00  0.00000000E+00
  0.00000000E+00  0.00000000E+00  0.00000000E+00
  0.00000000E+00  0.00000000E+00  0.00000000E+00
  0.00000000E+00  0.00000000E+00  0.00000000E+00
  0.00000000E+00  0.00000000E+00  0.00000000E+00
  0.00000000E+00  0.00000000E+00  0.00000000E+00
  0.00000000E+00  0.00000000E+00  0.00000000E+00
  0.00000000E+00  0.00000000E+00  0.00000000E+00
  0.00000000E+00  0.00000000E+00  0.00000000E+00
  0.00000000E+00  0.00000000E+00  0.00000000E+00
  0.00000000E+00  0.00000000E+00  0.00000000E+00
  0.00000000E+00  0.00000000E+00  0.00000000E+00
  0.00000000E+00  0.00000000E+00  0.00000000E+00
  0.00000000E+00  0.00000000E+00  0.00000000E+00
  0.00000000E+00  0.00000000E+00  0.00000000E+00
  0.00000000E+00  0.00000000E+00  0.00000000E+00
  0.00000000E+00  0.00000000E+00  0.00000000E+00
  0.00000000E+00  0.00000000E+00  0.00000000E+00
  0.00000000E+00  0.00000000E+00  0.00000000E+00
  0.00000000E+00  0.00000000E+00  0.00000000E+00
  0.00000000E+00  0.00000000E+00  0.00000000E+00
  0.00000000E+00  0.00000000E+00  0.00000000E+00
  0.00000000E+00  0.00000000E+00  0.00000000E+00
  0.00000000E+00  0.00000000E+00  0.00000000E+00
  0.00000000E+00  0.00000000E+00  0.00000000E+00
  0.00000000E+00  0.00000000E+00  0.00000000E+00
  0.00000000E+00  0.00000000E+00  0.00000000E+00
  0.00000000E+00  0.00000000E+00  0.00000000E+00
  0.00000000E+00  0.00000000E+00  0.00000000E+00
  0.00000000E+00  0.00000000E+00  0.00000000E+00
  0.00000000E+00  0.00000000E+00  0.00000000E+00
  0.00000000E+00  0.00000000E+00  0.00000000E+00
  0.00000000E+00  0.00000000E+00  0.00000000E+00
  0.00000000E+00  0.00000000E+00  0.00000000E+00
  0.00000000E+00  0.00000000E+00  0.00000000E+00
  0.00000000E+00  0.00000000E+00  0.00000000E+00
