Al   Gd   N                             
   1.00000000000000     
    -9.8555896579573101   -0.0099150718635148    0.0225226350532901
    -4.9173838652616650    8.4882520043694623    0.0123122565732261
    -0.1443655794506151    0.0494369029005447  -10.7758373597795636
   Al   Gd   N 
    28     8    36
Direct
  0.1258006482969307  0.0843063065938168  0.3835757800050601
  0.7715310779980058  0.0971662382523988  0.7826607318747207
  0.8944148813060409  0.2039424911145034  0.5548114141058349
  0.4438465914027034  0.1003800394250618  0.3225474591298507
  0.2306656044769042  0.2095969848972956  0.5519802558980871
  0.8743925061359334  0.2059965772959842  0.0245397752619638
  0.4446558652373582  0.1005560939764152  0.7861270575919761
  0.5470994172419026  0.2074395839867051  0.5548759128397407
  0.1053512324310546  0.4372725553408046  0.3180080678425483
  0.7775248520075237  0.4274358869103381  0.8032030160874015
  0.9051925355001771  0.5279070124744365  0.5689709688680580
  0.4397553911719214  0.4384917520832730  0.3072300796233378
  0.5485436342026873  0.5333909640205334  0.0326472915488125
  0.1208263366990252  0.4291389426042400  0.7918080005224226
  0.2190865003950648  0.5373075458613812  0.5455969038175681
  0.8892161985936085  0.5342027362772939  0.0305629442352355
  0.4351458801923798  0.4256401694905705  0.7864576994416339
  0.1079185834102745  0.7607468242986002  0.3095690920313032
  0.2099653640949484  0.8795684457994852  0.1182006413420709
  0.7800007242109999  0.7630329000747551  0.8521155441764350
  0.8970075763624976  0.8716241870020482  0.5598789780344688
  0.4369822718143368  0.7763316399314277  0.3790241851094152
  0.1137524235918903  0.7502481078989973  0.7829043848632082
  0.2296165091171503  0.8656110854757628  0.6128545529334772
  0.7804774990170600  0.7588677841603158  0.4012292677947897
  0.8995607133785910  0.8806069179621190  0.0312249037120793
  0.4369780954774711  0.7614225864626647  0.8603329832216673
  0.5561096732306794  0.8727308243302616  0.6173317961832439
  0.2119054518131023  0.2040187129534843  0.0731628123837780
  0.5506844245155307  0.2037976038824212  0.0347517016826586
  0.1073722596802753  0.0999131589441689  0.8155762555228634
  0.7815634802664704  0.0863631869230232  0.3019714152628552
  0.2055329238487573  0.5512880216451919  0.0600499121842191
  0.7900972726905735  0.4353473998601203  0.2863801197139892
  0.5630213440818608  0.5344735067451509  0.5712025272708345
  0.5740580690779851  0.8339664825950166  0.1293629273631893
  0.2249174378292054  0.2102283695728531  0.3704938152098833
  0.0915790730963693  0.0744642672336724  0.0397993752664050
  0.8489172785877201  0.2194641116032443  0.8512555573637215
  0.7786076476447050  0.0962469786196962  0.6016005916923248
  0.5308874083013464  0.2249535878758451  0.3767971608984269
  0.4508589948865236  0.0879611986300191  0.1480974753643878
  0.2453117189218617  0.2229104431530402  0.8603312928246609
  0.1202498787290622  0.0869103612252147  0.5744790518531886
  0.9086482166592518  0.2007531015435333  0.3779514545972802
  0.7923880495040336  0.0863678838155693  0.0909875354666525
  0.5561091709192709  0.2024154306872532  0.8231221450270354
  0.4421075957585430  0.0966513329463865  0.6071255348902937
  0.2220492748383407  0.5421292844316881  0.3596470566402630
  0.0577712698058903  0.4487609355782851  0.1444361877431177
  0.9027014788716485  0.5258891591431336  0.8494368174930784
  0.8176430626728148  0.4059040582521334  0.6263775301847829
  0.5388747668209248  0.5534960270703024  0.3588183706306154
  0.4556947555774258  0.4379081056541168  0.1275799983968184
  0.2202181530583616  0.5420325509275798  0.8446221129660572
  0.1200239305200270  0.4235819416539996  0.6120828592012302
  0.9061715223621150  0.5410313592039557  0.3927822681397757
  0.7674693282469889  0.4360266818429679  0.0689324969198637
  0.5523997453793967  0.5324151171589548  0.8405939396918924
  0.4239282414306160  0.4188797802432944  0.6110653838191027
  0.2290274912459438  0.8811954668695137  0.3074903885455456
  0.0818516303405232  0.7897261445146952  0.1321840309100679
  0.8987742158037193  0.8777553498348496  0.8425985884535478
  0.7768528843082763  0.7615816696019380  0.5838201922539241
  0.5707685206327469  0.8656150273978511  0.3435475900757723
  0.4122854676180694  0.7565612782002589  0.0384307367634307
  0.2418916298137859  0.8418457750906114  0.7873579719253740
  0.1128521400836320  0.7535919156940949  0.6025780585801570
  0.9082364420671212  0.8493643180993828  0.3839607863055292
  0.8020670737508695  0.7556222075586660  0.0323967880697893
  0.5557482691728168  0.8668521824156699  0.8065465785618713
  0.4297681314837192  0.7957238758512588  0.5536267366789431
 
  0.00000000E+00  0.00000000E+00  0.00000000E+00
  0.00000000E+00  0.00000000E+00  0.00000000E+00
  0.00000000E+00  0.00000000E+00  0.00000000E+00
  0.00000000E+00  0.00000000E+00  0.00000000E+00
  0.00000000E+00  0.00000000E+00  0.00000000E+00
  0.00000000E+00  0.00000000E+00  0.00000000E+00
  0.00000000E+00  0.00000000E+00  0.00000000E+00
  0.00000000E+00  0.00000000E+00  0.00000000E+00
  0.00000000E+00  0.00000000E+00  0.00000000E+00
  0.00000000E+00  0.00000000E+00  0.00000000E+00
  0.00000000E+00  0.00000000E+00  0.00000000E+00
  0.00000000E+00  0.00000000E+00  0.00000000E+00
  0.00000000E+00  0.00000000E+00  0.00000000E+00
  0.00000000E+00  0.00000000E+00  0.00000000E+00
  0.00000000E+00  0.00000000E+00  0.00000000E+00
  0.00000000E+00  0.00000000E+00  0.00000000E+00
  0.00000000E+00  0.00000000E+00  0.00000000E+00
  0.00000000E+00  0.00000000E+00  0.00000000E+00
  0.00000000E+00  0.00000000E+00  0.00000000E+00
  0.00000000E+00  0.00000000E+00  0.00000000E+00
  0.00000000E+00  0.00000000E+00  0.00000000E+00
  0.00000000E+00  0.00000000E+00  0.00000000E+00
  0.00000000E+00  0.00000000E+00  0.00000000E+00
  0.00000000E+00  0.00000000E+00  0.00000000E+00
  0.00000000E+00  0.00000000E+00  0.00000000E+00
  0.00000000E+00  0.00000000E+00  0.00000000E+00
  0.00000000E+00  0.00000000E+00  0.00000000E+00
  0.00000000E+00  0.00000000E+00  0.00000000E+00
  0.00000000E+00  0.00000000E+00  0.00000000E+00
  0.00000000E+00  0.00000000E+00  0.00000000E+00
  0.00000000E+00  0.00000000E+00  0.00000000E+00
  0.00000000E+00  0.00000000E+00  0.00000000E+00
  0.00000000E+00  0.00000000E+00  0.00000000E+00
  0.00000000E+00  0.00000000E+00  0.00000000E+00
  0.00000000E+00  0.00000000E+00  0.00000000E+00
  0.00000000E+00  0.00000000E+00  0.00000000E+00
  0.00000000E+00  0.00000000E+00  0.00000000E+00
  0.00000000E+00  0.00000000E+00  0.00000000E+00
  0.00000000E+00  0.00000000E+00  0.00000000E+00
  0.00000000E+00  0.00000000E+00  0.00000000E+00
  0.00000000E+00  0.00000000E+00  0.00000000E+00
  0.00000000E+00  0.00000000E+00  0.00000000E+00
  0.00000000E+00  0.00000000E+00  0.00000000E+00
  0.00000000E+00  0.00000000E+00  0.00000000E+00
  0.00000000E+00  0.00000000E+00  0.00000000E+00
  0.00000000E+00  0.00000000E+00  0.00000000E+00
  0.00000000E+00  0.00000000E+00  0.00000000E+00
  0.00000000E+00  0.00000000E+00  0.00000000E+00
  0.00000000E+00  0.00000000E+00  0.00000000E+00
  0.00000000E+00  0.00000000E+00  0.00000000E+00
  0.00000000E+00  0.00000000E+00  0.00000000E+00
  0.00000000E+00  0.00000000E+00  0.00000000E+00
  0.00000000E+00  0.00000000E+00  0.00000000E+00
  0.00000000E+00  0.00000000E+00  0.00000000E+00
  0.00000000E+00  0.00000000E+00  0.00000000E+00
  0.00000000E+00  0.00000000E+00  0.00000000E+00
  0.00000000E+00  0.00000000E+00  0.00000000E+00
  0.00000000E+00  0.00000000E+00  0.00000000E+00
  0.00000000E+00  0.00000000E+00  0.00000000E+00
  0.00000000E+00  0.00000000E+00  0.00000000E+00
  0.00000000E+00  0.00000000E+00  0.00000000E+00
  0.00000000E+00  0.00000000E+00  0.00000000E+00
  0.00000000E+00  0.00000000E+00  0.00000000E+00
  0.00000000E+00  0.00000000E+00  0.00000000E+00
  0.00000000E+00  0.00000000E+00  0.00000000E+00
  0.00000000E+00  0.00000000E+00  0.00000000E+00
  0.00000000E+00  0.00000000E+00  0.00000000E+00
  0.00000000E+00  0.00000000E+00  0.00000000E+00
  0.00000000E+00  0.00000000E+00  0.00000000E+00
  0.00000000E+00  0.00000000E+00  0.00000000E+00
  0.00000000E+00  0.00000000E+00  0.00000000E+00
  0.00000000E+00  0.00000000E+00  0.00000000E+00
