Al   Gd   N                             
   1.00000000000000     
    -9.7358168016787534   -0.0133554108874063    0.0352565488522168
    -4.9102478678049781    8.4805472600389429    0.0167254802142962
    -0.1025967158321112   -0.0217064534883778  -11.0861036090271021
   Al   Gd   N 
    28     8    36
Direct
  0.1259495642013846  0.0847570467814975  0.4075269316876273
  0.7788059670441072  0.0950457186336138  0.7953605553798653
  0.8970533501881803  0.2018243862190587  0.5705859349862052
  0.4434483495875270  0.0942688377374665  0.4098024210042155
  0.2255136420703607  0.2093003393511665  0.6273963113025474
  0.8703040711795751  0.2093313461217434  0.0441491562758216
  0.4512172046520107  0.0917090393348232  0.8237889736410224
  0.5566735762680040  0.2094904720566788  0.5709109290446364
  0.1258052866752237  0.4269803004054893  0.4132010760317328
  0.7811818101992785  0.4194345223712972  0.8081365580225182
  0.8968152521373796  0.5315020561811536  0.5823042481172394
  0.4384059646332332  0.4379823510109091  0.3195818577369920
  0.5446959182512927  0.5387871599956426  0.0504327683030326
  0.1188197031905958  0.4262950579553006  0.8636962581825287
  0.2133057948079227  0.5430428066131938  0.6407551375651721
  0.8819009694389521  0.5312331667827124  0.0206236405413449
  0.4463490101675447  0.4210624231538702  0.8003276058014137
  0.1274379521999975  0.7506634441253368  0.4030442509804075
  0.2105310088080117  0.8767615034393899  0.1238835470156729
  0.7775584261040933  0.7615407655216657  0.8556354270815731
  0.8945084380626795  0.8737564604994859  0.5754790482161809
  0.4332489931742316  0.7807183374936244  0.3906355098693695
  0.1225342448893940  0.7558769191955079  0.8666046498804150
  0.2276304755784366  0.8704993392431533  0.6334788789900401
  0.7761575490727637  0.7608410777959094  0.4130515737734299
  0.8843838153879986  0.8884295968200036  0.0239787768021742
  0.4459488899212687  0.7531132632871547  0.8723175904985965
  0.5560261039274508  0.8724592464449756  0.6312727420886759
  0.2032299442192667  0.2114761055089218  0.1555178753866500
  0.5389218187341740  0.2221220309878689  0.0420673057479348
  0.1324488710405873  0.0835803119316907  0.8763772157175040
  0.7854261109533311  0.0819747379855826  0.3117078029341158
  0.1725971610901667  0.5719331491810138  0.1380315228411604
  0.7842962993460461  0.4329697512664765  0.3018322025965574
  0.5582412626184734  0.5364394287497873  0.5739532396779126
  0.5703777905730405  0.8518650760238415  0.1362158100867887
  0.2256508870169753  0.2050748389722941  0.3693538162199914
  0.0872990326876533  0.0901987893053473  0.0817813097018103
  0.8649785722681784  0.2118599913287369  0.8689724080545957
  0.7824186655013179  0.0956362781662392  0.6202276453200213
  0.5347341720860967  0.2278334529517494  0.3930905364234931
  0.4265748917867853  0.0819428569403868  0.0581658927509139
  0.2365776911072928  0.2221340753796568  0.7970756409235378
  0.1220990544564557  0.0870111430538643  0.5874817015004012
  0.9047746676170050  0.2009235021494717  0.3972791823915500
  0.7873241784999792  0.0822679908700934  0.1029123946721811
  0.5597644105977793  0.2008761546479576  0.8374896538953251
  0.4526027185666877  0.0896867297223309  0.5887032512050041
  0.2159587326699324  0.5417311968652783  0.3463712069934886
  0.1016085951197709  0.4201680068814184  0.0358391719552102
  0.8855860691895785  0.5347990318099534  0.8465727360255784
  0.8118935966293250  0.4062697327787390  0.6367402616133973
  0.5335112422094568  0.5577740503645714  0.3708866151188062
  0.4428786645779326  0.4519822970866301  0.1435643748588333
  0.2158824665246613  0.5438037793730075  0.8180678265049650
  0.1198482973316572  0.4279650627398865  0.5847245457984442
  0.8996076669101001  0.5428722606322154  0.3989241231098859
  0.7697554103786146  0.4350121868285299  0.0876930157092275
  0.5573540278675040  0.5253102770916271  0.8618842050941637
  0.4344546601572503  0.4131126754234344  0.6322533577425347
  0.2197347118752546  0.8757029914445198  0.3232639562438351
  0.1041395386842794  0.7906686184048652  0.0394747064525731
  0.8888301804994541  0.8789603073952890  0.8452879120072367
  0.7766126885047342  0.7604443858886327  0.5918723630988438
  0.5626944484650593  0.8771478444888388  0.3511022758149096
  0.4209621794916814  0.7610691291669980  0.0480704222995598
  0.2451946699729248  0.8378693231604331  0.8010200670491017
  0.1264278632493117  0.7556564426526933  0.5793111043347849
  0.9034076957475108  0.8519630138112291  0.3989555234220816
  0.8022042243806098  0.7501454894076147  0.0377521454090655
  0.5539699963250158  0.8657029596739036  0.8084935209648734
  0.4287273683566895  0.7981512345784694  0.5639017979757313
 
  0.00000000E+00  0.00000000E+00  0.00000000E+00
  0.00000000E+00  0.00000000E+00  0.00000000E+00
  0.00000000E+00  0.00000000E+00  0.00000000E+00
  0.00000000E+00  0.00000000E+00  0.00000000E+00
  0.00000000E+00  0.00000000E+00  0.00000000E+00
  0.00000000E+00  0.00000000E+00  0.00000000E+00
  0.00000000E+00  0.00000000E+00  0.00000000E+00
  0.00000000E+00  0.00000000E+00  0.00000000E+00
  0.00000000E+00  0.00000000E+00  0.00000000E+00
  0.00000000E+00  0.00000000E+00  0.00000000E+00
  0.00000000E+00  0.00000000E+00  0.00000000E+00
  0.00000000E+00  0.00000000E+00  0.00000000E+00
  0.00000000E+00  0.00000000E+00  0.00000000E+00
  0.00000000E+00  0.00000000E+00  0.00000000E+00
  0.00000000E+00  0.00000000E+00  0.00000000E+00
  0.00000000E+00  0.00000000E+00  0.00000000E+00
  0.00000000E+00  0.00000000E+00  0.00000000E+00
  0.00000000E+00  0.00000000E+00  0.00000000E+00
  0.00000000E+00  0.00000000E+00  0.00000000E+00
  0.00000000E+00  0.00000000E+00  0.00000000E+00
  0.00000000E+00  0.00000000E+00  0.00000000E+00
  0.00000000E+00  0.00000000E+00  0.00000000E+00
  0.00000000E+00  0.00000000E+00  0.00000000E+00
  0.00000000E+00  0.00000000E+00  0.00000000E+00
  0.00000000E+00  0.00000000E+00  0.00000000E+00
  0.00000000E+00  0.00000000E+00  0.00000000E+00
  0.00000000E+00  0.00000000E+00  0.00000000E+00
  0.00000000E+00  0.00000000E+00  0.00000000E+00
  0.00000000E+00  0.00000000E+00  0.00000000E+00
  0.00000000E+00  0.00000000E+00  0.00000000E+00
  0.00000000E+00  0.00000000E+00  0.00000000E+00
  0.00000000E+00  0.00000000E+00  0.00000000E+00
  0.00000000E+00  0.00000000E+00  0.00000000E+00
  0.00000000E+00  0.00000000E+00  0.00000000E+00
  0.00000000E+00  0.00000000E+00  0.00000000E+00
  0.00000000E+00  0.00000000E+00  0.00000000E+00
  0.00000000E+00  0.00000000E+00  0.00000000E+00
  0.00000000E+00  0.00000000E+00  0.00000000E+00
  0.00000000E+00  0.00000000E+00  0.00000000E+00
  0.00000000E+00  0.00000000E+00  0.00000000E+00
  0.00000000E+00  0.00000000E+00  0.00000000E+00
  0.00000000E+00  0.00000000E+00  0.00000000E+00
  0.00000000E+00  0.00000000E+00  0.00000000E+00
  0.00000000E+00  0.00000000E+00  0.00000000E+00
  0.00000000E+00  0.00000000E+00  0.00000000E+00
  0.00000000E+00  0.00000000E+00  0.00000000E+00
  0.00000000E+00  0.00000000E+00  0.00000000E+00
  0.00000000E+00  0.00000000E+00  0.00000000E+00
  0.00000000E+00  0.00000000E+00  0.00000000E+00
  0.00000000E+00  0.00000000E+00  0.00000000E+00
  0.00000000E+00  0.00000000E+00  0.00000000E+00
  0.00000000E+00  0.00000000E+00  0.00000000E+00
  0.00000000E+00  0.00000000E+00  0.00000000E+00
  0.00000000E+00  0.00000000E+00  0.00000000E+00
  0.00000000E+00  0.00000000E+00  0.00000000E+00
  0.00000000E+00  0.00000000E+00  0.00000000E+00
  0.00000000E+00  0.00000000E+00  0.00000000E+00
  0.00000000E+00  0.00000000E+00  0.00000000E+00
  0.00000000E+00  0.00000000E+00  0.00000000E+00
  0.00000000E+00  0.00000000E+00  0.00000000E+00
  0.00000000E+00  0.00000000E+00  0.00000000E+00
  0.00000000E+00  0.00000000E+00  0.00000000E+00
  0.00000000E+00  0.00000000E+00  0.00000000E+00
  0.00000000E+00  0.00000000E+00  0.00000000E+00
  0.00000000E+00  0.00000000E+00  0.00000000E+00
  0.00000000E+00  0.00000000E+00  0.00000000E+00
  0.00000000E+00  0.00000000E+00  0.00000000E+00
  0.00000000E+00  0.00000000E+00  0.00000000E+00
  0.00000000E+00  0.00000000E+00  0.00000000E+00
  0.00000000E+00  0.00000000E+00  0.00000000E+00
  0.00000000E+00  0.00000000E+00  0.00000000E+00
  0.00000000E+00  0.00000000E+00  0.00000000E+00
