Al   Gd   N                             
   1.00000000000000     
    -9.9542650143899785   -0.0088014084582842    0.0143569179067709
    -4.9391098124222275    8.5552203445511577    0.0144925080730386
    -0.2485522982383115    0.0450460090465276  -10.4941316075133582
   Al   Gd   N 
    28     8    36
Direct
  0.1232031360902539  0.0920501707645798  0.3867740426981072
  0.7708580127841174  0.0928406913638611  0.7849860869636700
  0.8933413914781312  0.2098411859250078  0.5595721864230683
  0.4445106857799175  0.1015480385596774  0.3231590176207177
  0.2310987497439712  0.2132479757899048  0.5562711536989156
  0.8749555034358849  0.2026493437039534  0.0255890645011192
  0.4479079277484672  0.0909880456576175  0.7886361923997782
  0.5457769238913457  0.2088349527702178  0.5584071973577949
  0.1070085581250595  0.4361752992837822  0.3201535973846603
  0.7798790157075572  0.4283888004526943  0.8098344349116076
  0.9004092756142654  0.5400358697849370  0.5639582564756296
  0.4413048089842277  0.4383957210496803  0.3108495041039134
  0.5527737085604869  0.5278904228096621  0.0321928305893451
  0.1179908494136797  0.4316705752357208  0.7941602835607284
  0.2185070774343671  0.5392516212439205  0.5456026021688061
  0.8890311642075091  0.5412693254461729  0.0417782160175193
  0.4316715669728808  0.4216869554551010  0.7885554935570269
  0.1159759824610092  0.7668917353097129  0.3083804693090286
  0.2021894988271100  0.8664321847737000  0.0310992397239502
  0.7766500875253115  0.7637218508167791  0.8003764292184670
  0.8946456817006023  0.8644694500582943  0.5541264366661096
  0.4402169071392663  0.7705271376575951  0.3825933627639770
  0.1090541479447040  0.7508483282806964  0.7897505312622783
  0.2196061631506296  0.8684384174374529  0.5686999673572259
  0.8012542548287058  0.7544048986594234  0.3112021012125155
  0.8954730369060186  0.8718349615285490  0.0486399021347168
  0.4408833833572317  0.7554441817151840  0.8520108226965917
  0.5648090039501241  0.8779157831964994  0.5550764891584805
  0.2102216033830402  0.2006280735485575  0.0742968821792118
  0.5564771746116506  0.2005891809635756  0.0396087094480322
  0.1056049646902082  0.1014949181989877  0.8065212788020730
  0.7823403245460057  0.0945936688918181  0.3129723647470897
  0.2143602490519356  0.5426146167444230  0.0680662205830345
  0.7857949591512536  0.4412816516091240  0.2876767294768925
  0.5642338761508938  0.5338750589323098  0.5829751139870751
  0.5587137003255194  0.8512468590560616  0.0819036875994783
  0.2257840083184277  0.2111423108883201  0.3708508009348606
  0.0872368558256653  0.0793796744659758  0.0372014613992206
  0.8473631482258810  0.2176955176987789  0.8479668993312046
  0.7806954381439084  0.0932550257845435  0.5980510288546697
  0.5290328287679742  0.2265274096418821  0.3767707066532324
  0.4473749526390804  0.0900219577303432  0.1477113281088549
  0.2425007134738593  0.2227556535479209  0.8539976838851189
  0.1182656677760150  0.0935528907597885  0.5797761620050395
  0.9105670023535311  0.2092871718313205  0.3788907178451879
  0.7958243455248493  0.0822404873504823  0.0983392587291689
  0.5549690692038709  0.1998221407872265  0.8218149210567702
  0.4457708529634132  0.0915312840585401  0.6047550125640697
  0.2222205587209629  0.5438953384315255  0.3557980373676486
  0.0659610903126264  0.4398856778840710  0.1437050813916088
  0.8962061065555034  0.5408219999381032  0.8571068739425272
  0.8201683538873397  0.4121382110257770  0.6272348817203977
  0.5383477914832682  0.5530967802221696  0.3628876035149133
  0.4638065517448524  0.4318664999729549  0.1284997942976531
  0.2191410666549416  0.5398374412570064  0.8478679538146068
  0.1156319856040398  0.4295673941745903  0.6094302754291974
  0.9020864196969285  0.5537440903050452  0.3857535916742520
  0.7702359998193558  0.4336731374959868  0.0652017803963432
  0.5534701147351129  0.5288511587270790  0.8343247932571813
  0.4209468686947275  0.4195719186539577  0.6101101659939800
  0.2202500767335707  0.8734337769581160  0.3707610316757979
  0.0941926850865258  0.7883066118647832  0.1243673816699626
  0.8892968295473125  0.8702476368043008  0.8554735411653525
  0.7791548514424420  0.7633978685174228  0.6165876660315774
  0.5716431531866490  0.8704935282366009  0.3627266550918335
  0.4165176016685379  0.7418264920902615  0.0385000870768550
  0.2264980765873830  0.8435889872232991  0.8300449204808302
  0.1094837527173027  0.7561881849394680  0.6065813872671271
  0.9099951651187794  0.8477550357265073  0.3749904844275491
  0.8125263822694677  0.7450450201918954  0.1205794983983566
  0.5553291394931961  0.8726896671232609  0.8498656162644878
  0.4340675061790833  0.7917757977118640  0.5709706604803344
 
  0.00000000E+00  0.00000000E+00  0.00000000E+00
  0.00000000E+00  0.00000000E+00  0.00000000E+00
  0.00000000E+00  0.00000000E+00  0.00000000E+00
  0.00000000E+00  0.00000000E+00  0.00000000E+00
  0.00000000E+00  0.00000000E+00  0.00000000E+00
  0.00000000E+00  0.00000000E+00  0.00000000E+00
  0.00000000E+00  0.00000000E+00  0.00000000E+00
  0.00000000E+00  0.00000000E+00  0.00000000E+00
  0.00000000E+00  0.00000000E+00  0.00000000E+00
  0.00000000E+00  0.00000000E+00  0.00000000E+00
  0.00000000E+00  0.00000000E+00  0.00000000E+00
  0.00000000E+00  0.00000000E+00  0.00000000E+00
  0.00000000E+00  0.00000000E+00  0.00000000E+00
  0.00000000E+00  0.00000000E+00  0.00000000E+00
  0.00000000E+00  0.00000000E+00  0.00000000E+00
  0.00000000E+00  0.00000000E+00  0.00000000E+00
  0.00000000E+00  0.00000000E+00  0.00000000E+00
  0.00000000E+00  0.00000000E+00  0.00000000E+00
  0.00000000E+00  0.00000000E+00  0.00000000E+00
  0.00000000E+00  0.00000000E+00  0.00000000E+00
  0.00000000E+00  0.00000000E+00  0.00000000E+00
  0.00000000E+00  0.00000000E+00  0.00000000E+00
  0.00000000E+00  0.00000000E+00  0.00000000E+00
  0.00000000E+00  0.00000000E+00  0.00000000E+00
  0.00000000E+00  0.00000000E+00  0.00000000E+00
  0.00000000E+00  0.00000000E+00  0.00000000E+00
  0.00000000E+00  0.00000000E+00  0.00000000E+00
  0.00000000E+00  0.00000000E+00  0.00000000E+00
  0.00000000E+00  0.00000000E+00  0.00000000E+00
  0.00000000E+00  0.00000000E+00  0.00000000E+00
  0.00000000E+00  0.00000000E+00  0.00000000E+00
  0.00000000E+00  0.00000000E+00  0.00000000E+00
  0.00000000E+00  0.00000000E+00  0.00000000E+00
  0.00000000E+00  0.00000000E+00  0.00000000E+00
  0.00000000E+00  0.00000000E+00  0.00000000E+00
  0.00000000E+00  0.00000000E+00  0.00000000E+00
  0.00000000E+00  0.00000000E+00  0.00000000E+00
  0.00000000E+00  0.00000000E+00  0.00000000E+00
  0.00000000E+00  0.00000000E+00  0.00000000E+00
  0.00000000E+00  0.00000000E+00  0.00000000E+00
  0.00000000E+00  0.00000000E+00  0.00000000E+00
  0.00000000E+00  0.00000000E+00  0.00000000E+00
  0.00000000E+00  0.00000000E+00  0.00000000E+00
  0.00000000E+00  0.00000000E+00  0.00000000E+00
  0.00000000E+00  0.00000000E+00  0.00000000E+00
  0.00000000E+00  0.00000000E+00  0.00000000E+00
  0.00000000E+00  0.00000000E+00  0.00000000E+00
  0.00000000E+00  0.00000000E+00  0.00000000E+00
  0.00000000E+00  0.00000000E+00  0.00000000E+00
  0.00000000E+00  0.00000000E+00  0.00000000E+00
  0.00000000E+00  0.00000000E+00  0.00000000E+00
  0.00000000E+00  0.00000000E+00  0.00000000E+00
  0.00000000E+00  0.00000000E+00  0.00000000E+00
  0.00000000E+00  0.00000000E+00  0.00000000E+00
  0.00000000E+00  0.00000000E+00  0.00000000E+00
  0.00000000E+00  0.00000000E+00  0.00000000E+00
  0.00000000E+00  0.00000000E+00  0.00000000E+00
  0.00000000E+00  0.00000000E+00  0.00000000E+00
  0.00000000E+00  0.00000000E+00  0.00000000E+00
  0.00000000E+00  0.00000000E+00  0.00000000E+00
  0.00000000E+00  0.00000000E+00  0.00000000E+00
  0.00000000E+00  0.00000000E+00  0.00000000E+00
  0.00000000E+00  0.00000000E+00  0.00000000E+00
  0.00000000E+00  0.00000000E+00  0.00000000E+00
  0.00000000E+00  0.00000000E+00  0.00000000E+00
  0.00000000E+00  0.00000000E+00  0.00000000E+00
  0.00000000E+00  0.00000000E+00  0.00000000E+00
  0.00000000E+00  0.00000000E+00  0.00000000E+00
  0.00000000E+00  0.00000000E+00  0.00000000E+00
  0.00000000E+00  0.00000000E+00  0.00000000E+00
  0.00000000E+00  0.00000000E+00  0.00000000E+00
  0.00000000E+00  0.00000000E+00  0.00000000E+00
