Al   Gd   N                             
   1.00000000000000     
    -9.8361795008578774   -0.0118010867528717    0.0311824905553517
    -4.8998134507554436    8.4285074539461942    0.0132331125002123
    -0.2043827428603805    0.1308133142910319  -11.1418079686152325
   Al   Gd   N 
    28     8    36
Direct
  0.1261714168170442  0.0870678120278257  0.4262498479432679
  0.7683705242249630  0.0964211498005056  0.7937020539848518
  0.8936811516436549  0.2088362228747087  0.5754086570977037
  0.4481110836806224  0.1052608192649558  0.3435534546390215
  0.2350199150359416  0.2131161254017471  0.5860807949276463
  0.8679212571737054  0.2034430999428025  0.0295769700949222
  0.4511474694401016  0.0986448481491280  0.7891186568371111
  0.5547171374318012  0.2059533701873448  0.5610169926296180
  0.1033504697103638  0.4449098896642099  0.3509611734729887
  0.7751251303246960  0.4260701892653245  0.8120785855886439
  0.9021701191668967  0.5340749684504473  0.5798683794408603
  0.4440822618660718  0.4437367089265933  0.3117985991293182
  0.5513608172619584  0.5284450205631259  0.0388591212748821
  0.1115873511923411  0.4289854633783037  0.8002612035587688
  0.2207160699733350  0.5455957272885641  0.6354082342886187
  0.8873811917120236  0.5244956993443708  0.0426358919979322
  0.4478603404345662  0.4167181578494734  0.7995303140637162
  0.1296687130062395  0.7598379188929272  0.3996220778487185
  0.2123034625429554  0.8685216854616442  0.0555730236178746
  0.7756505919460324  0.7574485362551115  0.8630236140027137
  0.8965441710551474  0.8769362610901226  0.5753127627055363
  0.4346547230018558  0.7871597836560440  0.3994668260829357
  0.1150443970463044  0.7539200544530544  0.8573932911886075
  0.2345484718130777  0.8631624902945561  0.6338606142059859
  0.7780147499108097  0.7682563682874886  0.4178200685061952
  0.8840433289289891  0.8814803908218494  0.0234329676294180
  0.4475150297197175  0.7553993181986911  0.8631064164582156
  0.5637807455894404  0.8679116445488972  0.6326198436951884
  0.1776502839381493  0.1732147466617064  0.1797449786059886
  0.5397636762582820  0.1998990465547195  0.0496176531920298
  0.1076974266683806  0.1048575172789370  0.8327286775491345
  0.7943699852390793  0.0887224623496152  0.3090446154196513
  0.1951093152659737  0.5446690624852693  0.1240711239307331
  0.7922764316282738  0.4430790670465257  0.2961663681669506
  0.5691144398092121  0.5264524166751556  0.5680074415255021
  0.5667548432249276  0.8388642672873132  0.1481041071429630
  0.2268420010491496  0.2139500232725737  0.3979844318083181
  0.0894992894407665  0.0815774018999207  0.0416586375565942
  0.8450121275637699  0.2184061991174744  0.8615961836161645
  0.7795222170266385  0.1003037526587249  0.6175977512938360
  0.5403930669207426  0.2292874733062078  0.3867066748032784
  0.4279150773272278  0.1005875124857525  0.1702150000713516
  0.2456248761468700  0.2199031622050001  0.8272648274842638
  0.1204966111819274  0.0901940432817270  0.5995290567845188
  0.9090322026475164  0.2117009222516302  0.3997456967257733
  0.7920882729669998  0.0759546776960889  0.1006323961371010
  0.5571744205373363  0.1976491140601198  0.8439773267992834
  0.4561135707274175  0.0922119631093778  0.6144532058046153
  0.2188375729515784  0.5533378482272084  0.3320941646698188
  0.0393367142619496  0.4379953377630059  0.1727761724520747
  0.9007873097965557  0.5212252142956189  0.8659061183638457
  0.8151337403208672  0.4123640008413147  0.6423743928975227
  0.5362024932193918  0.5646191050055407  0.3638052305301613
  0.4605432365007047  0.4334752000435103  0.1347149118983282
  0.2199127728159311  0.5420534679227060  0.8158555707806485
  0.1126518036298094  0.4336696181929725  0.6231638395923582
  0.8996625683737420  0.5486359263382852  0.4100951533360941
  0.7673806353463206  0.4260093216981744  0.0824966007271826
  0.5544273366648511  0.5281194112787446  0.8553604418159892
  0.4379585060721567  0.4103443053679570  0.6286755393825558
  0.2212086194037539  0.8914933583253131  0.3496206387198342
  0.1010710735146603  0.7716165409816114  0.0298495030761572
  0.8849517273082697  0.8765106753608691  0.8436976265770184
  0.7806451531301946  0.7645617360659855  0.5938999445856155
  0.5702316127125471  0.8722043460739499  0.3579375932529558
  0.4271630489316607  0.7559182102533839  0.0377141260983578
  0.2416370545347419  0.8394225501191031  0.8038479465637778
  0.1278564847300743  0.7578473455413359  0.5778095345666756
  0.9057334680125564  0.8589705349931833  0.3996923258530956
  0.7902854104103625  0.7535674069879050  0.0409398924233386
  0.5595299075074891  0.8616854386514206  0.8092478472632436
  0.4376120011786639  0.7897497045793926  0.5727047823011588
 
  0.00000000E+00  0.00000000E+00  0.00000000E+00
  0.00000000E+00  0.00000000E+00  0.00000000E+00
  0.00000000E+00  0.00000000E+00  0.00000000E+00
  0.00000000E+00  0.00000000E+00  0.00000000E+00
  0.00000000E+00  0.00000000E+00  0.00000000E+00
  0.00000000E+00  0.00000000E+00  0.00000000E+00
  0.00000000E+00  0.00000000E+00  0.00000000E+00
  0.00000000E+00  0.00000000E+00  0.00000000E+00
  0.00000000E+00  0.00000000E+00  0.00000000E+00
  0.00000000E+00  0.00000000E+00  0.00000000E+00
  0.00000000E+00  0.00000000E+00  0.00000000E+00
  0.00000000E+00  0.00000000E+00  0.00000000E+00
  0.00000000E+00  0.00000000E+00  0.00000000E+00
  0.00000000E+00  0.00000000E+00  0.00000000E+00
  0.00000000E+00  0.00000000E+00  0.00000000E+00
  0.00000000E+00  0.00000000E+00  0.00000000E+00
  0.00000000E+00  0.00000000E+00  0.00000000E+00
  0.00000000E+00  0.00000000E+00  0.00000000E+00
  0.00000000E+00  0.00000000E+00  0.00000000E+00
  0.00000000E+00  0.00000000E+00  0.00000000E+00
  0.00000000E+00  0.00000000E+00  0.00000000E+00
  0.00000000E+00  0.00000000E+00  0.00000000E+00
  0.00000000E+00  0.00000000E+00  0.00000000E+00
  0.00000000E+00  0.00000000E+00  0.00000000E+00
  0.00000000E+00  0.00000000E+00  0.00000000E+00
  0.00000000E+00  0.00000000E+00  0.00000000E+00
  0.00000000E+00  0.00000000E+00  0.00000000E+00
  0.00000000E+00  0.00000000E+00  0.00000000E+00
  0.00000000E+00  0.00000000E+00  0.00000000E+00
  0.00000000E+00  0.00000000E+00  0.00000000E+00
  0.00000000E+00  0.00000000E+00  0.00000000E+00
  0.00000000E+00  0.00000000E+00  0.00000000E+00
  0.00000000E+00  0.00000000E+00  0.00000000E+00
  0.00000000E+00  0.00000000E+00  0.00000000E+00
  0.00000000E+00  0.00000000E+00  0.00000000E+00
  0.00000000E+00  0.00000000E+00  0.00000000E+00
  0.00000000E+00  0.00000000E+00  0.00000000E+00
  0.00000000E+00  0.00000000E+00  0.00000000E+00
  0.00000000E+00  0.00000000E+00  0.00000000E+00
  0.00000000E+00  0.00000000E+00  0.00000000E+00
  0.00000000E+00  0.00000000E+00  0.00000000E+00
  0.00000000E+00  0.00000000E+00  0.00000000E+00
  0.00000000E+00  0.00000000E+00  0.00000000E+00
  0.00000000E+00  0.00000000E+00  0.00000000E+00
  0.00000000E+00  0.00000000E+00  0.00000000E+00
  0.00000000E+00  0.00000000E+00  0.00000000E+00
  0.00000000E+00  0.00000000E+00  0.00000000E+00
  0.00000000E+00  0.00000000E+00  0.00000000E+00
  0.00000000E+00  0.00000000E+00  0.00000000E+00
  0.00000000E+00  0.00000000E+00  0.00000000E+00
  0.00000000E+00  0.00000000E+00  0.00000000E+00
  0.00000000E+00  0.00000000E+00  0.00000000E+00
  0.00000000E+00  0.00000000E+00  0.00000000E+00
  0.00000000E+00  0.00000000E+00  0.00000000E+00
  0.00000000E+00  0.00000000E+00  0.00000000E+00
  0.00000000E+00  0.00000000E+00  0.00000000E+00
  0.00000000E+00  0.00000000E+00  0.00000000E+00
  0.00000000E+00  0.00000000E+00  0.00000000E+00
  0.00000000E+00  0.00000000E+00  0.00000000E+00
  0.00000000E+00  0.00000000E+00  0.00000000E+00
  0.00000000E+00  0.00000000E+00  0.00000000E+00
  0.00000000E+00  0.00000000E+00  0.00000000E+00
  0.00000000E+00  0.00000000E+00  0.00000000E+00
  0.00000000E+00  0.00000000E+00  0.00000000E+00
  0.00000000E+00  0.00000000E+00  0.00000000E+00
  0.00000000E+00  0.00000000E+00  0.00000000E+00
  0.00000000E+00  0.00000000E+00  0.00000000E+00
  0.00000000E+00  0.00000000E+00  0.00000000E+00
  0.00000000E+00  0.00000000E+00  0.00000000E+00
  0.00000000E+00  0.00000000E+00  0.00000000E+00
  0.00000000E+00  0.00000000E+00  0.00000000E+00
  0.00000000E+00  0.00000000E+00  0.00000000E+00
