Al   Sc   N                             
   1.00000000000000     
   -10.2755588635929218    0.0110857040265674    0.0008197855780803
    -5.1703931134596175    8.8574096171306422    0.0027397958370435
    -0.0099155113314555    0.0035002617484922   -8.6470628850725451
   Al   Sc   N 
    28     8    36
Direct
  0.1036852339959609  0.0969840860401732  0.3457801988923990
  0.2100794329198408  0.2069153861437840  0.1028116142826079
  0.7868399330126579  0.0992197692912455  0.8455928362634992
  0.8931358934674734  0.2075122550978108  0.5962955043337601
  0.1062566833276932  0.0967785880854279  0.8498339755692683
  0.2073632875883362  0.2066435968914249  0.5974832196521476
  0.7881034177347175  0.0960302100334829  0.3481604760006363
  0.8921226226988566  0.2075648348771395  0.0984401070254890
  0.1028674180158831  0.4273856130746339  0.3463362804945547
  0.2205789264847127  0.5373467107785856  0.1066120423960015
  0.7771868834271487  0.4261228897997213  0.8519341536356109
  0.8892323209187154  0.5319930668839206  0.5951899065907398
  0.4458425294983357  0.4357632639787710  0.3495886635432228
  0.5557158016814157  0.5424092184166085  0.1038554841459174
  0.1062827551621766  0.4222324517161553  0.8599051494144803
  0.7754161291568167  0.4282967629936181  0.3485983641770076
  0.8879437095091376  0.5341891163970658  0.1049794954537262
  0.4462953528606022  0.4334184318084127  0.8567813933063348
  0.5566971503765998  0.5412333218959233  0.6030490697432001
  0.1130978237720726  0.7622387263380332  0.3462920296022247
  0.2228980748587333  0.8763862509679896  0.1057854963416531
  0.8959103561616288  0.8728887017713234  0.5850338238724575
  0.4437292029812028  0.7552971922633489  0.3479340267652304
  0.5562084389640773  0.8640236971124722  0.1062899084624576
  0.2198355899665856  0.8762302393774064  0.5899971427336226
  0.7849029318327467  0.7549104357525493  0.3469129374274047
  0.8930164019736964  0.8752272875892046  0.1072411944619276
  0.4415359209812664  0.7588849781119507  0.8602750749290493
  0.4360190573514515  0.0968303199669265  0.3499356114182675
  0.5634448929795610  0.2084571515474849  0.1025257390755314
  0.4339141709340169  0.0982659064474518  0.8544897746353470
  0.5639160419982403  0.2077376366931318  0.6015004306104217
  0.2181502314914070  0.5343632930570692  0.5991223725719337
  0.7870098984651150  0.7566244439797600  0.8563559624635317
  0.1154171044523551  0.7646466966375414  0.8559022075569942
  0.5577855745760303  0.8606695314109061  0.5996583954238588
  0.1993008886899261  0.2134199105016137  0.3494433528202592
  0.1066296269148026  0.0953336654025776  0.1082030738312980
  0.8891823711998370  0.2090081444955914  0.8546892860984343
  0.8011051647745262  0.0856880939563140  0.6019377853492571
  0.5650921728267093  0.2140138667469103  0.3518851647608585
  0.4346949258225692  0.0885722576645307  0.1031317161292762
  0.1994347210439571  0.2128012947075248  0.8599995778983853
  0.1096406455585353  0.0922393805485555  0.6042012401427641
  0.8885927515016974  0.2106602487386340  0.3590813059139961
  0.7998385927935701  0.0894474558107561  0.1138728430364822
  0.5680857343300403  0.2141888331217459  0.8533933614239047
  0.4244691735941046  0.1035656265354064  0.6019773560516342
  0.2209441868020861  0.5354019893155453  0.3439980889504852
  0.1081487836559631  0.4278257171745636  0.1070982506545874
  0.8943238081288953  0.5211639280693916  0.8606607357226750
  0.7746368359402069  0.4306703026317393  0.6042809420133679
  0.5575928405077804  0.5389627799653809  0.3493720443104635
  0.4363262593678883  0.4480172195715184  0.1034166508804546
  0.2274242818169299  0.5191898288791421  0.8605042498218936
  0.0987762738578937  0.4171943425295623  0.5989210068019091
  0.8856814986680632  0.5363955161493195  0.3495666555696957
  0.7758569796105874  0.4268140093346418  0.1055254795884366
  0.5557672252438479  0.5410074056707970  0.8557744024720080
  0.4503608712859517  0.4403600969981767  0.6010967336520991
  0.2217495448447337  0.8751768471057417  0.3494650112033995
  0.1144241807602455  0.7604017002479395  0.1131675196558888
  0.8836629130912570  0.8916114358709635  0.8656879346267772
  0.8016786163140068  0.7499649671825708  0.5947225043909228
  0.5644420843158215  0.8529739532285987  0.3454252328347991
  0.4431148421270663  0.7600289909306355  0.1064589798413493
  0.2298229860775649  0.8836629067929422  0.8621778833115101
  0.1081870732082280  0.7744899588866616  0.5942250809237279
  0.8904163661456224  0.8728285846450987  0.3508386074949499
  0.7821465486689050  0.7597209739804143  0.1130920538840527
  0.5522279898815867  0.8587622670477089  0.8584765046975633
  0.4322889827808254  0.7534230571945528  0.5978404691782515
 
  0.00000000E+00  0.00000000E+00  0.00000000E+00
  0.00000000E+00  0.00000000E+00  0.00000000E+00
  0.00000000E+00  0.00000000E+00  0.00000000E+00
  0.00000000E+00  0.00000000E+00  0.00000000E+00
  0.00000000E+00  0.00000000E+00  0.00000000E+00
  0.00000000E+00  0.00000000E+00  0.00000000E+00
  0.00000000E+00  0.00000000E+00  0.00000000E+00
  0.00000000E+00  0.00000000E+00  0.00000000E+00
  0.00000000E+00  0.00000000E+00  0.00000000E+00
  0.00000000E+00  0.00000000E+00  0.00000000E+00
  0.00000000E+00  0.00000000E+00  0.00000000E+00
  0.00000000E+00  0.00000000E+00  0.00000000E+00
  0.00000000E+00  0.00000000E+00  0.00000000E+00
  0.00000000E+00  0.00000000E+00  0.00000000E+00
  0.00000000E+00  0.00000000E+00  0.00000000E+00
  0.00000000E+00  0.00000000E+00  0.00000000E+00
  0.00000000E+00  0.00000000E+00  0.00000000E+00
  0.00000000E+00  0.00000000E+00  0.00000000E+00
  0.00000000E+00  0.00000000E+00  0.00000000E+00
  0.00000000E+00  0.00000000E+00  0.00000000E+00
  0.00000000E+00  0.00000000E+00  0.00000000E+00
  0.00000000E+00  0.00000000E+00  0.00000000E+00
  0.00000000E+00  0.00000000E+00  0.00000000E+00
  0.00000000E+00  0.00000000E+00  0.00000000E+00
  0.00000000E+00  0.00000000E+00  0.00000000E+00
  0.00000000E+00  0.00000000E+00  0.00000000E+00
  0.00000000E+00  0.00000000E+00  0.00000000E+00
  0.00000000E+00  0.00000000E+00  0.00000000E+00
  0.00000000E+00  0.00000000E+00  0.00000000E+00
  0.00000000E+00  0.00000000E+00  0.00000000E+00
  0.00000000E+00  0.00000000E+00  0.00000000E+00
  0.00000000E+00  0.00000000E+00  0.00000000E+00
  0.00000000E+00  0.00000000E+00  0.00000000E+00
  0.00000000E+00  0.00000000E+00  0.00000000E+00
  0.00000000E+00  0.00000000E+00  0.00000000E+00
  0.00000000E+00  0.00000000E+00  0.00000000E+00
  0.00000000E+00  0.00000000E+00  0.00000000E+00
  0.00000000E+00  0.00000000E+00  0.00000000E+00
  0.00000000E+00  0.00000000E+00  0.00000000E+00
  0.00000000E+00  0.00000000E+00  0.00000000E+00
  0.00000000E+00  0.00000000E+00  0.00000000E+00
  0.00000000E+00  0.00000000E+00  0.00000000E+00
  0.00000000E+00  0.00000000E+00  0.00000000E+00
  0.00000000E+00  0.00000000E+00  0.00000000E+00
  0.00000000E+00  0.00000000E+00  0.00000000E+00
  0.00000000E+00  0.00000000E+00  0.00000000E+00
  0.00000000E+00  0.00000000E+00  0.00000000E+00
  0.00000000E+00  0.00000000E+00  0.00000000E+00
  0.00000000E+00  0.00000000E+00  0.00000000E+00
  0.00000000E+00  0.00000000E+00  0.00000000E+00
  0.00000000E+00  0.00000000E+00  0.00000000E+00
  0.00000000E+00  0.00000000E+00  0.00000000E+00
  0.00000000E+00  0.00000000E+00  0.00000000E+00
  0.00000000E+00  0.00000000E+00  0.00000000E+00
  0.00000000E+00  0.00000000E+00  0.00000000E+00
  0.00000000E+00  0.00000000E+00  0.00000000E+00
  0.00000000E+00  0.00000000E+00  0.00000000E+00
  0.00000000E+00  0.00000000E+00  0.00000000E+00
  0.00000000E+00  0.00000000E+00  0.00000000E+00
  0.00000000E+00  0.00000000E+00  0.00000000E+00
  0.00000000E+00  0.00000000E+00  0.00000000E+00
  0.00000000E+00  0.00000000E+00  0.00000000E+00
  0.00000000E+00  0.00000000E+00  0.00000000E+00
  0.00000000E+00  0.00000000E+00  0.00000000E+00
  0.00000000E+00  0.00000000E+00  0.00000000E+00
  0.00000000E+00  0.00000000E+00  0.00000000E+00
  0.00000000E+00  0.00000000E+00  0.00000000E+00
  0.00000000E+00  0.00000000E+00  0.00000000E+00
  0.00000000E+00  0.00000000E+00  0.00000000E+00
  0.00000000E+00  0.00000000E+00  0.00000000E+00
  0.00000000E+00  0.00000000E+00  0.00000000E+00
  0.00000000E+00  0.00000000E+00  0.00000000E+00
