Al   Sc   N                             
   1.00000000000000     
   -10.1321477740791934    0.0105060074735312    0.0018913687315771
    -5.0985873614223101    8.7365433600457738    0.0023242596185096
    -0.0041905044775480    0.0067899184304169   -9.0578598710713134
   Al   Sc   N 
    28     8    36
Direct
  0.1051898242102354  0.0966403615557425  0.3715950598787430
  0.2104575270669713  0.2054959858039993  0.1164304809702870
  0.7872678326102260  0.1006839636752872  0.8751375524863647
  0.8927191661726823  0.2063096570431071  0.6182736330991290
  0.1044088045554474  0.0973644101432853  0.8725404491212601
  0.2057037353286049  0.2081474695115944  0.6241263403544153
  0.7884739217535000  0.0948878306898919  0.3642287026453772
  0.8936564935744755  0.2081808240660621  0.1257193311797877
  0.1000361186442618  0.4250177587441044  0.3615907251769741
  0.2191586715682519  0.5402843931865888  0.1218619932479399
  0.7785943054762399  0.4238344746902314  0.8704008823342448
  0.8917150768328597  0.5289705379931959  0.6203396085355095
  0.4492570770184727  0.4351464689738620  0.3644599777456250
  0.5563744103148736  0.5423876372736771  0.1181103080525574
  0.1078838351869749  0.4233933686831648  0.8788873708011167
  0.7747182280503182  0.4301991908459470  0.3723765499901006
  0.8860847236254799  0.5361357619129805  0.1205147641125848
  0.4438328962373959  0.4341076384324651  0.8732992231938255
  0.5558196754995777  0.5419230475019674  0.6253710006947273
  0.1120536060492654  0.7647173721169764  0.3610858407398396
  0.2208558913811061  0.8760580250572829  0.1230790138619540
  0.8952185786840516  0.8758058367244814  0.6087279229835261
  0.4424651666592183  0.7533731196463620  0.3633551355248912
  0.5566113998051918  0.8647899704502535  0.1193437562929773
  0.2220048171161793  0.8768159897512433  0.6160520000975538
  0.7869003822514458  0.7532728370749240  0.3591454298027159
  0.8942562164077472  0.8717485099021403  0.1243745231049331
  0.4419870514290167  0.7603577856471162  0.8776096269457909
  0.4337851455622754  0.0990383102919523  0.3537304030936923
  0.5611239597250730  0.2092544735884729  0.1071870003231794
  0.4361848186172779  0.0970688976250784  0.8565321682765159
  0.5661035344544345  0.2073041064681362  0.6061035507408263
  0.2188941396551201  0.5325415748929672  0.5997863707242743
  0.7849534093058281  0.7576779513771896  0.8590284924905021
  0.1164810394020037  0.7618677497573216  0.8585543108797253
  0.5573304194489168  0.8608177983205536  0.6002526049052648
  0.1975093931307086  0.2128794185822542  0.3274212400450693
  0.1073319689407555  0.0934642861844921  0.0848378738497146
  0.8891102414850280  0.2084621666813362  0.8322297335112125
  0.8018420865938154  0.0874514945018703  0.5770693930623807
  0.5657863676093129  0.2132586280854127  0.3473404542095722
  0.4347214574820413  0.0872411121996635  0.1012534646595427
  0.1977981998459271  0.2144189171171220  0.8410211396527103
  0.1093393891003487  0.0939074165166502  0.5837507564552169
  0.8889450630541589  0.2112260192384383  0.3369785117605062
  0.8023111723840515  0.0865215799806833  0.0927504892238886
  0.5683837765088526  0.2155348665874541  0.8533945198612685
  0.4231069160164722  0.1058475423477105  0.5998153588361959
  0.2206445064591307  0.5361424050974435  0.3412382153869160
  0.1078268852117148  0.4293886398950733  0.0931785429946146
  0.8968100785876416  0.5188913865048832  0.8371941586363150
  0.7736053648370671  0.4306954636024756  0.5867436205249064
  0.5595324955669909  0.5381715212634077  0.3289820419309777
  0.4334301530249505  0.4507114840674689  0.0900701188004405
  0.2284755102747908  0.5167894603541683  0.8436524415783282
  0.0980352133200171  0.4144684433088059  0.5749911144835380
  0.8839806757083295  0.5368078670269512  0.3324550866270854
  0.7769820228945932  0.4266352342187503  0.0835949234512867
  0.5539832613718119  0.5419052765247940  0.8406011077609890
  0.4533214666742182  0.4401311570250925  0.5804019556721869
  0.2206027628986931  0.8760753164169728  0.3353724969080361
  0.1132570594541846  0.7607728629540631  0.1022242895740035
  0.8824619958331823  0.8939446761646579  0.8330757532239659
  0.8036328209718846  0.7475728797764347  0.5882657043752815
  0.5647887136768261  0.8523821023471783  0.3431982622326757
  0.4419347008862289  0.7620448606546120  0.0926362877425007
  0.2314164427295609  0.8838250218269081  0.8346256709284887
  0.1094657282633094  0.7748076856802868  0.5876931626529895
  0.8906188173784741  0.8718323520020590  0.3397383382054784
  0.7806724549899258  0.7614315505360452  0.1025790196484451
  0.5511390295222043  0.8588733613501489  0.8434212496664486
  0.4331398065500451  0.7505741176119329  0.5770933011356263
 
  0.00000000E+00  0.00000000E+00  0.00000000E+00
  0.00000000E+00  0.00000000E+00  0.00000000E+00
  0.00000000E+00  0.00000000E+00  0.00000000E+00
  0.00000000E+00  0.00000000E+00  0.00000000E+00
  0.00000000E+00  0.00000000E+00  0.00000000E+00
  0.00000000E+00  0.00000000E+00  0.00000000E+00
  0.00000000E+00  0.00000000E+00  0.00000000E+00
  0.00000000E+00  0.00000000E+00  0.00000000E+00
  0.00000000E+00  0.00000000E+00  0.00000000E+00
  0.00000000E+00  0.00000000E+00  0.00000000E+00
  0.00000000E+00  0.00000000E+00  0.00000000E+00
  0.00000000E+00  0.00000000E+00  0.00000000E+00
  0.00000000E+00  0.00000000E+00  0.00000000E+00
  0.00000000E+00  0.00000000E+00  0.00000000E+00
  0.00000000E+00  0.00000000E+00  0.00000000E+00
  0.00000000E+00  0.00000000E+00  0.00000000E+00
  0.00000000E+00  0.00000000E+00  0.00000000E+00
  0.00000000E+00  0.00000000E+00  0.00000000E+00
  0.00000000E+00  0.00000000E+00  0.00000000E+00
  0.00000000E+00  0.00000000E+00  0.00000000E+00
  0.00000000E+00  0.00000000E+00  0.00000000E+00
  0.00000000E+00  0.00000000E+00  0.00000000E+00
  0.00000000E+00  0.00000000E+00  0.00000000E+00
  0.00000000E+00  0.00000000E+00  0.00000000E+00
  0.00000000E+00  0.00000000E+00  0.00000000E+00
  0.00000000E+00  0.00000000E+00  0.00000000E+00
  0.00000000E+00  0.00000000E+00  0.00000000E+00
  0.00000000E+00  0.00000000E+00  0.00000000E+00
  0.00000000E+00  0.00000000E+00  0.00000000E+00
  0.00000000E+00  0.00000000E+00  0.00000000E+00
  0.00000000E+00  0.00000000E+00  0.00000000E+00
  0.00000000E+00  0.00000000E+00  0.00000000E+00
  0.00000000E+00  0.00000000E+00  0.00000000E+00
  0.00000000E+00  0.00000000E+00  0.00000000E+00
  0.00000000E+00  0.00000000E+00  0.00000000E+00
  0.00000000E+00  0.00000000E+00  0.00000000E+00
  0.00000000E+00  0.00000000E+00  0.00000000E+00
  0.00000000E+00  0.00000000E+00  0.00000000E+00
  0.00000000E+00  0.00000000E+00  0.00000000E+00
  0.00000000E+00  0.00000000E+00  0.00000000E+00
  0.00000000E+00  0.00000000E+00  0.00000000E+00
  0.00000000E+00  0.00000000E+00  0.00000000E+00
  0.00000000E+00  0.00000000E+00  0.00000000E+00
  0.00000000E+00  0.00000000E+00  0.00000000E+00
  0.00000000E+00  0.00000000E+00  0.00000000E+00
  0.00000000E+00  0.00000000E+00  0.00000000E+00
  0.00000000E+00  0.00000000E+00  0.00000000E+00
  0.00000000E+00  0.00000000E+00  0.00000000E+00
  0.00000000E+00  0.00000000E+00  0.00000000E+00
  0.00000000E+00  0.00000000E+00  0.00000000E+00
  0.00000000E+00  0.00000000E+00  0.00000000E+00
  0.00000000E+00  0.00000000E+00  0.00000000E+00
  0.00000000E+00  0.00000000E+00  0.00000000E+00
  0.00000000E+00  0.00000000E+00  0.00000000E+00
  0.00000000E+00  0.00000000E+00  0.00000000E+00
  0.00000000E+00  0.00000000E+00  0.00000000E+00
  0.00000000E+00  0.00000000E+00  0.00000000E+00
  0.00000000E+00  0.00000000E+00  0.00000000E+00
  0.00000000E+00  0.00000000E+00  0.00000000E+00
  0.00000000E+00  0.00000000E+00  0.00000000E+00
  0.00000000E+00  0.00000000E+00  0.00000000E+00
  0.00000000E+00  0.00000000E+00  0.00000000E+00
  0.00000000E+00  0.00000000E+00  0.00000000E+00
  0.00000000E+00  0.00000000E+00  0.00000000E+00
  0.00000000E+00  0.00000000E+00  0.00000000E+00
  0.00000000E+00  0.00000000E+00  0.00000000E+00
  0.00000000E+00  0.00000000E+00  0.00000000E+00
  0.00000000E+00  0.00000000E+00  0.00000000E+00
  0.00000000E+00  0.00000000E+00  0.00000000E+00
  0.00000000E+00  0.00000000E+00  0.00000000E+00
  0.00000000E+00  0.00000000E+00  0.00000000E+00
  0.00000000E+00  0.00000000E+00  0.00000000E+00
