Al   Sc   N                             
   1.00000000000000     
    -9.7994882147940334    0.0123610364432472   -0.0015376973596127
    -4.9178182902101346    8.4531675789022014    0.0036539755178181
    -0.0060399485426880   -0.0062176028414945  -10.0182851847422203
   Al   Sc   N 
    28     8    36
Direct
  0.1032477276560968  0.0976927113463475  0.3242933526635596
  0.2104899275112686  0.2074078827837553  0.0738468855782202
  0.7860946159671798  0.0991713752475292  0.8227413605517029
  0.8936682427526321  0.2058731293459815  0.5753126423277379
  0.1066602465115309  0.0973685491878413  0.8237854972325138
  0.2063964775509461  0.2077685448558597  0.5725681576402053
  0.7885651959955737  0.0944616203551831  0.3239904971628746
  0.8942118065318354  0.2057863038410304  0.0729856064771113
  0.1044236615605456  0.4303222390634431  0.3212780295610926
  0.2212146551951477  0.5359430979240685  0.0750190855751356
  0.7767993932142261  0.4255687060737117  0.8248006321513017
  0.8893246414618972  0.5338732846673935  0.5706900593654183
  0.4420418326169298  0.4385639650354847  0.3193212062641138
  0.5548946056484212  0.5440834112275965  0.0739597586316449
  0.1039773237940338  0.4193944594663321  0.8268399353902325
  0.7759980865460463  0.4274852318024003  0.3253571119374783
  0.8899130503515167  0.5315361134933880  0.0782396605501887
  0.4499151279760625  0.4304524117893038  0.8266975198531910
  0.5553932956925181  0.5411095682996390  0.5739320468493077
  0.1130931629294594  0.7603658245445430  0.3183018314518264
  0.2249606542774316  0.8770748702545177  0.0785499536600724
  0.8972348824551020  0.8713218328788912  0.5679829653594055
  0.4456481234680396  0.7558963482997640  0.3216179987365209
  0.5532461132869670  0.8650080403090286  0.0720433977326493
  0.2186233752855031  0.8752005558226870  0.5705637134264236
  0.7818528757569467  0.7560943810820220  0.3193852826976666
  0.8929414917060328  0.8757507853433850  0.0809483647090659
  0.4404707092149778  0.7572384847338611  0.8254063891702970
  0.4368685023019836  0.0944380956114799  0.3276411974652049
  0.5637438135630077  0.2083284886602570  0.0843561141525271
  0.4347299902367894  0.1016932401147983  0.8367041811103704
  0.5637612666049492  0.2081994501133622  0.5778113554951574
  0.2164704516825324  0.5379410958858557  0.5814507698165983
  0.7879335912482901  0.7547324575990260  0.8378426522383151
  0.1150812850448730  0.7651269022530300  0.8373410379524486
  0.5599965553949104  0.8619692799706868  0.5818974546832649
  0.1960658171388943  0.2175462011462699  0.3822524417073865
  0.1087961198285399  0.0961900042676902  0.1344179692426479
  0.8893493092318465  0.2081103289454589  0.8807408518364070
  0.8021723986266949  0.0838468937677135  0.6317590625336322
  0.5645013731929680  0.2153764853514630  0.3584685668114602
  0.4340420493947690  0.0876374319866500  0.1100004932728709
  0.1976484080607790  0.2126241787990963  0.8867345758061234
  0.1101670401166359  0.0921280534004580  0.6311454175615836
  0.8880919378381336  0.2083179446474333  0.3844188329285245
  0.8039152927302808  0.0871131514440791  0.1374716232744362
  0.5697256848738519  0.2140800204023492  0.8683537275462427
  0.4236421124383369  0.1061568224393596  0.6167154711115970
  0.2200623849534509  0.5382833627520256  0.3678935851092149
  0.1101234363841002  0.4269655936557868  0.1313196011127431
  0.8945011974508219  0.5171691629011335  0.8903249121094277
  0.7748644180801492  0.4305949939334397  0.6301899340145951
  0.5550927442466858  0.5398079810033707  0.3815505427938888
  0.4343068745759311  0.4517156985655788  0.1304010007922045
  0.2298068291666482  0.5146729033592905  0.8796647444258170
  0.0963089908473833  0.4163530881633051  0.6367568125032861
  0.8871029796610301  0.5384415677349423  0.3769113268426807
  0.7755374900731482  0.4266717916793397  0.1334294772018723
  0.5559488972399649  0.5402433340197135  0.8834490173475515
  0.4513549889285215  0.4403150248034109  0.6382791437457911
  0.2221998263400593  0.8730767749507038  0.3758878102592931
  0.1149274660861010  0.7596423693995291  0.1225733066498478
  0.8807329941703941  0.8957377835898299  0.8945074764665932
  0.8048445798036212  0.7494747270784146  0.6250585819454031
  0.5661931547709784  0.8512956192038956  0.3709218059328094
  0.4445788686597467  0.7602561006986193  0.1314961037839026
  0.2310513925214934  0.8860419687656105  0.8894609747927689
  0.1059216714040119  0.7776853243733370  0.6255514362925325
  0.8906406805286267  0.8709244557541993  0.3737039786546106
  0.7798682459728710  0.7598472966846899  0.1230379006305284
  0.5498494589419209  0.8586879467514166  0.8783193606783755
  0.4306991378869469  0.7534162247273599  0.6348438780357242
 
  0.00000000E+00  0.00000000E+00  0.00000000E+00
  0.00000000E+00  0.00000000E+00  0.00000000E+00
  0.00000000E+00  0.00000000E+00  0.00000000E+00
  0.00000000E+00  0.00000000E+00  0.00000000E+00
  0.00000000E+00  0.00000000E+00  0.00000000E+00
  0.00000000E+00  0.00000000E+00  0.00000000E+00
  0.00000000E+00  0.00000000E+00  0.00000000E+00
  0.00000000E+00  0.00000000E+00  0.00000000E+00
  0.00000000E+00  0.00000000E+00  0.00000000E+00
  0.00000000E+00  0.00000000E+00  0.00000000E+00
  0.00000000E+00  0.00000000E+00  0.00000000E+00
  0.00000000E+00  0.00000000E+00  0.00000000E+00
  0.00000000E+00  0.00000000E+00  0.00000000E+00
  0.00000000E+00  0.00000000E+00  0.00000000E+00
  0.00000000E+00  0.00000000E+00  0.00000000E+00
  0.00000000E+00  0.00000000E+00  0.00000000E+00
  0.00000000E+00  0.00000000E+00  0.00000000E+00
  0.00000000E+00  0.00000000E+00  0.00000000E+00
  0.00000000E+00  0.00000000E+00  0.00000000E+00
  0.00000000E+00  0.00000000E+00  0.00000000E+00
  0.00000000E+00  0.00000000E+00  0.00000000E+00
  0.00000000E+00  0.00000000E+00  0.00000000E+00
  0.00000000E+00  0.00000000E+00  0.00000000E+00
  0.00000000E+00  0.00000000E+00  0.00000000E+00
  0.00000000E+00  0.00000000E+00  0.00000000E+00
  0.00000000E+00  0.00000000E+00  0.00000000E+00
  0.00000000E+00  0.00000000E+00  0.00000000E+00
  0.00000000E+00  0.00000000E+00  0.00000000E+00
  0.00000000E+00  0.00000000E+00  0.00000000E+00
  0.00000000E+00  0.00000000E+00  0.00000000E+00
  0.00000000E+00  0.00000000E+00  0.00000000E+00
  0.00000000E+00  0.00000000E+00  0.00000000E+00
  0.00000000E+00  0.00000000E+00  0.00000000E+00
  0.00000000E+00  0.00000000E+00  0.00000000E+00
  0.00000000E+00  0.00000000E+00  0.00000000E+00
  0.00000000E+00  0.00000000E+00  0.00000000E+00
  0.00000000E+00  0.00000000E+00  0.00000000E+00
  0.00000000E+00  0.00000000E+00  0.00000000E+00
  0.00000000E+00  0.00000000E+00  0.00000000E+00
  0.00000000E+00  0.00000000E+00  0.00000000E+00
  0.00000000E+00  0.00000000E+00  0.00000000E+00
  0.00000000E+00  0.00000000E+00  0.00000000E+00
  0.00000000E+00  0.00000000E+00  0.00000000E+00
  0.00000000E+00  0.00000000E+00  0.00000000E+00
  0.00000000E+00  0.00000000E+00  0.00000000E+00
  0.00000000E+00  0.00000000E+00  0.00000000E+00
  0.00000000E+00  0.00000000E+00  0.00000000E+00
  0.00000000E+00  0.00000000E+00  0.00000000E+00
  0.00000000E+00  0.00000000E+00  0.00000000E+00
  0.00000000E+00  0.00000000E+00  0.00000000E+00
  0.00000000E+00  0.00000000E+00  0.00000000E+00
  0.00000000E+00  0.00000000E+00  0.00000000E+00
  0.00000000E+00  0.00000000E+00  0.00000000E+00
  0.00000000E+00  0.00000000E+00  0.00000000E+00
  0.00000000E+00  0.00000000E+00  0.00000000E+00
  0.00000000E+00  0.00000000E+00  0.00000000E+00
  0.00000000E+00  0.00000000E+00  0.00000000E+00
  0.00000000E+00  0.00000000E+00  0.00000000E+00
  0.00000000E+00  0.00000000E+00  0.00000000E+00
  0.00000000E+00  0.00000000E+00  0.00000000E+00
  0.00000000E+00  0.00000000E+00  0.00000000E+00
  0.00000000E+00  0.00000000E+00  0.00000000E+00
  0.00000000E+00  0.00000000E+00  0.00000000E+00
  0.00000000E+00  0.00000000E+00  0.00000000E+00
  0.00000000E+00  0.00000000E+00  0.00000000E+00
  0.00000000E+00  0.00000000E+00  0.00000000E+00
  0.00000000E+00  0.00000000E+00  0.00000000E+00
  0.00000000E+00  0.00000000E+00  0.00000000E+00
  0.00000000E+00  0.00000000E+00  0.00000000E+00
  0.00000000E+00  0.00000000E+00  0.00000000E+00
  0.00000000E+00  0.00000000E+00  0.00000000E+00
  0.00000000E+00  0.00000000E+00  0.00000000E+00
