Al   Sc   N                             
   1.00000000000000     
    -9.7716789178563328    0.0130566723068907   -0.0028235971438089
    -4.8975845704553231    8.4309009918260962    0.0041526189800588
    -0.0041658252491952   -0.0065044754052939  -10.0925322675138016
   Al   Sc   N 
    28     8    36
Direct
  0.1034607136783166  0.0976649318258254  0.3005914123142404
  0.2106732210061537  0.2074009877259897  0.0493247989280121
  0.7861554624201474  0.0987715128229070  0.7991271329059799
  0.8937081795960751  0.2055662590531782  0.5515050152112053
  0.1067252635507501  0.0972230000599694  0.8001342211400342
  0.2066744713209587  0.2078915066203564  0.5491634535961722
  0.7884884817690576  0.0942175571258801  0.2993732136845182
  0.8945197926656832  0.2055452888043448  0.0494074517265162
  0.1042112781518156  0.4302060499430667  0.2970172388449797
  0.2212719622357753  0.5363314411268334  0.0517115776732524
  0.7770687621120587  0.4252341971919691  0.8012517023279173
  0.8894190802408986  0.5335965674806431  0.5469383805514383
  0.4424329948229229  0.4383273868098883  0.2948454215860750
  0.5550625587838809  0.5440143746890769  0.0498671615195647
  0.1044406770452397  0.4196962689225501  0.8033816767598481
  0.7759939497979573  0.4274803816013701  0.3015575682277145
  0.8898344062097721  0.5320526462743800  0.0540918209433912
  0.4498568018385498  0.4301607166494961  0.8028416334146868
  0.5553856697155624  0.5409497394165683  0.5506447950705180
  0.1128378780278680  0.7608037746392924  0.2945036794291696
  0.2247778938862979  0.8767494763782793  0.0543149585930323
  0.8968715071074129  0.8715510511893001  0.5437978815804172
  0.4453498972501890  0.7557968731855595  0.2971914505490929
  0.5537258374993357  0.8648579535949281  0.0487008664776596
  0.2188717009049626  0.8751507667773595  0.5468932536241766
  0.7820319923601033  0.7561171599831980  0.2955145790864151
  0.8932999057753648  0.8749980762151424  0.0565005631526461
  0.4409473954818779  0.7572865790337673  0.8019964009863401
  0.4363241995184666  0.0950987774127725  0.3015167527362834
  0.5639271165843667  0.2082715040516376  0.0591631784608779
  0.4352806521038630  0.1010960523866018  0.8119329858216702
  0.5639215209142350  0.2080464447803507  0.5524656253512319
  0.2168986770280696  0.5374588249994687  0.5553541063567096
  0.7872474702999881  0.7548259870898377  0.8119238774839772
  0.1154080902815124  0.7643171843646073  0.8115694674571543
  0.5592514450592958  0.8624665131179086  0.5552703042134155
  0.1961585708653217  0.2177362397200469  0.3600340179926391
  0.1092503088770087  0.0960256331228493  0.1115858429746410
  0.8895681999083394  0.2077577748915047  0.8581705402116313
  0.8019249417682559  0.0837534355306389  0.6093864117529222
  0.5645142734114401  0.2152527908166704  0.3351872736124974
  0.4340192909458338  0.0878957424100832  0.0866774837004627
  0.1979814632521979  0.2125282839679556  0.8635778314183398
  0.1102194968798287  0.0921125778158967  0.6084625348214487
  0.8880348250629027  0.2080300368712500  0.3614529413686967
  0.8040876838070119  0.0865881640299335  0.1141547367303346
  0.5699121324415515  0.2138225003197292  0.8457177382850034
  0.4239930980595830  0.1060818100914673  0.5944638291966911
  0.2202306788637713  0.5381512175430458  0.3437051362209473
  0.1100724986603652  0.4267979523165764  0.1082553320153679
  0.8945285483381724  0.5176142544371700  0.8673049394606878
  0.7750607500231084  0.4301674597733509  0.6075144074455423
  0.5550087732471809  0.5398770368190071  0.3590403210653363
  0.4347342001512828  0.4515076377638465  0.1075083685623071
  0.2302025035805784  0.5147284498516385  0.8579878515888311
  0.0964998764400988  0.4168319460329215  0.6143580865367539
  0.8871598482240373  0.5383750784038170  0.3543149038027735
  0.7756811112563682  0.4267235572003827  0.1105091087673244
  0.5561588018763644  0.5399784581193146  0.8604156466281836
  0.4511495331561051  0.4399324235046862  0.6156938905431701
  0.2223978626857104  0.8731616570545029  0.3533429100546215
  0.1148017420033298  0.7598684126842699  0.1004150194802591
  0.8811948277189572  0.8946765692467977  0.8712381666361040
  0.8036201211405327  0.7499838520190139  0.6008288804807975
  0.5656502811866275  0.8519850206786117  0.3463235814484733
  0.4444181267713816  0.7601349864204536  0.1083725575303376
  0.2309014362733421  0.8855402397769296  0.8663393836996178
  0.1059957207048043  0.7770572136235501  0.6014355705705867
  0.8904520010224886  0.8712205052926265  0.3510070106048744
  0.7801919474301968  0.7597223400739352  0.1008851820771994
  0.5500788685439133  0.8585560926998994  0.8571903923981949
  0.4310198722510137  0.7535367610895847  0.6125059020064398
 
  0.00000000E+00  0.00000000E+00  0.00000000E+00
  0.00000000E+00  0.00000000E+00  0.00000000E+00
  0.00000000E+00  0.00000000E+00  0.00000000E+00
  0.00000000E+00  0.00000000E+00  0.00000000E+00
  0.00000000E+00  0.00000000E+00  0.00000000E+00
  0.00000000E+00  0.00000000E+00  0.00000000E+00
  0.00000000E+00  0.00000000E+00  0.00000000E+00
  0.00000000E+00  0.00000000E+00  0.00000000E+00
  0.00000000E+00  0.00000000E+00  0.00000000E+00
  0.00000000E+00  0.00000000E+00  0.00000000E+00
  0.00000000E+00  0.00000000E+00  0.00000000E+00
  0.00000000E+00  0.00000000E+00  0.00000000E+00
  0.00000000E+00  0.00000000E+00  0.00000000E+00
  0.00000000E+00  0.00000000E+00  0.00000000E+00
  0.00000000E+00  0.00000000E+00  0.00000000E+00
  0.00000000E+00  0.00000000E+00  0.00000000E+00
  0.00000000E+00  0.00000000E+00  0.00000000E+00
  0.00000000E+00  0.00000000E+00  0.00000000E+00
  0.00000000E+00  0.00000000E+00  0.00000000E+00
  0.00000000E+00  0.00000000E+00  0.00000000E+00
  0.00000000E+00  0.00000000E+00  0.00000000E+00
  0.00000000E+00  0.00000000E+00  0.00000000E+00
  0.00000000E+00  0.00000000E+00  0.00000000E+00
  0.00000000E+00  0.00000000E+00  0.00000000E+00
  0.00000000E+00  0.00000000E+00  0.00000000E+00
  0.00000000E+00  0.00000000E+00  0.00000000E+00
  0.00000000E+00  0.00000000E+00  0.00000000E+00
  0.00000000E+00  0.00000000E+00  0.00000000E+00
  0.00000000E+00  0.00000000E+00  0.00000000E+00
  0.00000000E+00  0.00000000E+00  0.00000000E+00
  0.00000000E+00  0.00000000E+00  0.00000000E+00
  0.00000000E+00  0.00000000E+00  0.00000000E+00
  0.00000000E+00  0.00000000E+00  0.00000000E+00
  0.00000000E+00  0.00000000E+00  0.00000000E+00
  0.00000000E+00  0.00000000E+00  0.00000000E+00
  0.00000000E+00  0.00000000E+00  0.00000000E+00
  0.00000000E+00  0.00000000E+00  0.00000000E+00
  0.00000000E+00  0.00000000E+00  0.00000000E+00
  0.00000000E+00  0.00000000E+00  0.00000000E+00
  0.00000000E+00  0.00000000E+00  0.00000000E+00
  0.00000000E+00  0.00000000E+00  0.00000000E+00
  0.00000000E+00  0.00000000E+00  0.00000000E+00
  0.00000000E+00  0.00000000E+00  0.00000000E+00
  0.00000000E+00  0.00000000E+00  0.00000000E+00
  0.00000000E+00  0.00000000E+00  0.00000000E+00
  0.00000000E+00  0.00000000E+00  0.00000000E+00
  0.00000000E+00  0.00000000E+00  0.00000000E+00
  0.00000000E+00  0.00000000E+00  0.00000000E+00
  0.00000000E+00  0.00000000E+00  0.00000000E+00
  0.00000000E+00  0.00000000E+00  0.00000000E+00
  0.00000000E+00  0.00000000E+00  0.00000000E+00
  0.00000000E+00  0.00000000E+00  0.00000000E+00
  0.00000000E+00  0.00000000E+00  0.00000000E+00
  0.00000000E+00  0.00000000E+00  0.00000000E+00
  0.00000000E+00  0.00000000E+00  0.00000000E+00
  0.00000000E+00  0.00000000E+00  0.00000000E+00
  0.00000000E+00  0.00000000E+00  0.00000000E+00
  0.00000000E+00  0.00000000E+00  0.00000000E+00
  0.00000000E+00  0.00000000E+00  0.00000000E+00
  0.00000000E+00  0.00000000E+00  0.00000000E+00
  0.00000000E+00  0.00000000E+00  0.00000000E+00
  0.00000000E+00  0.00000000E+00  0.00000000E+00
  0.00000000E+00  0.00000000E+00  0.00000000E+00
  0.00000000E+00  0.00000000E+00  0.00000000E+00
  0.00000000E+00  0.00000000E+00  0.00000000E+00
  0.00000000E+00  0.00000000E+00  0.00000000E+00
  0.00000000E+00  0.00000000E+00  0.00000000E+00
  0.00000000E+00  0.00000000E+00  0.00000000E+00
  0.00000000E+00  0.00000000E+00  0.00000000E+00
  0.00000000E+00  0.00000000E+00  0.00000000E+00
  0.00000000E+00  0.00000000E+00  0.00000000E+00
  0.00000000E+00  0.00000000E+00  0.00000000E+00
