Al   Sc   N                             
   1.00000000000000     
    -9.9004283607580543    0.0099263109204949    0.0029629518850739
    -4.9737938278415772    8.5341412575873097    0.0019087233999757
     0.0039027909407222    0.0041237288273852   -9.7396080212394036
   Al   Sc   N 
    28     8    36
Direct
  0.1043839639018529  0.0967560360474735  0.3796514591787954
  0.2100725519527842  0.2067109039862274  0.1273612131433666
  0.7885116265830021  0.0987111208264935  0.8828925038598001
  0.8930407072104387  0.2065153074389272  0.6278388161728614
  0.1049305211655422  0.0977014074358209  0.8796370952135391
  0.2055812998295465  0.2080901944268803  0.6311765814805383
  0.7877528243059331  0.0951414734771632  0.3757104437600418
  0.8945643329802735  0.2059994395173916  0.1309633002645683
  0.0985848109744580  0.4252284661356711  0.3745462080143511
  0.2178658629535875  0.5425710272792656  0.1363758357963647
  0.7779230739368330  0.4243236534759518  0.8787612804515277
  0.8914956548970636  0.5282841001768759  0.6287504876717165
  0.4517981231260890  0.4329482214327385  0.3749930637070875
  0.5549580036842912  0.5440761243046168  0.1271970607886814
  0.1086177727832194  0.4233005039251196  0.8826189301795182
  0.7753797393316546  0.4292598263796137  0.3788565436528160
  0.8865109560074700  0.5382098924218397  0.1297836785891704
  0.4422478636950942  0.4353152824576654  0.8828974144807233
  0.5560278012492574  0.5413188175647008  0.6317851004611086
  0.1104258981172279  0.7674771575473542  0.3791130312316113
  0.2209409015818409  0.8743044474174511  0.1303715192124031
  0.8953455006020334  0.8773938773685259  0.6226243754007470
  0.4410237778119637  0.7528636487544986  0.3759614759729644
  0.5579116415016827  0.8631203308218431  0.1374878555350278
  0.2218089427493837  0.8776798067069222  0.6273105520235021
  0.7897905658235658  0.7523079909715236  0.3779935913984431
  0.8948291443214558  0.8697465646656823  0.1347627370316928
  0.4433932694682312  0.7603202039417312  0.8825871757737644
  0.4345027500471019  0.1017121024506693  0.3617320748780983
  0.5618390583068020  0.2088563982180531  0.1129772236318303
  0.4359978891457459  0.0953289419539018  0.8678979371886300
  0.5663512592859092  0.2072947503463638  0.6216861339682964
  0.2197936034763899  0.5319300240660567  0.6061354810987751
  0.7817394427870354  0.7585511727150447  0.8688399842528298
  0.1169178893226785  0.7592445892625435  0.8687214972429231
  0.5566108010647923  0.8632155570022704  0.6056648921406378
  0.1948172063186462  0.2149873384335379  0.3197285396596570
  0.1090848325637097  0.0933127924715862  0.0752179671125717
  0.8887527847463943  0.2082941521726838  0.8245270673908607
  0.8020727124381537  0.0881259041235936  0.5685105783294802
  0.5680107125872098  0.2135430827823228  0.3370753676122220
  0.4347077915525404  0.0852183642025679  0.0996620792733722
  0.1973416249803819  0.2144015299958681  0.8275356424990861
  0.1091233114130929  0.0939452214334295  0.5748478206021446
  0.8888512825802195  0.2094969241383566  0.3257921972352733
  0.8055973678573380  0.0824967896852939  0.0783261873086261
  0.5677535770906061  0.2151654548569581  0.8522954479487552
  0.4220541103871653  0.1097209083718909  0.5902853817868490
  0.2200667438521293  0.5370345703078243  0.3390413858624370
  0.1088064299671387  0.4301507035380538  0.0807604858408482
  0.8966033886553788  0.5184251591024989  0.8248291227587288
  0.7738350695946039  0.4301365367604859  0.5763763460707878
  0.5585474696357693  0.5390411493281206  0.3211630041735773
  0.4302063327480070  0.4542180481369940  0.0793760196521660
  0.2306351541141609  0.5141015122647872  0.8265134809631292
  0.0962310364048804  0.4134374832259553  0.5670327750116329
  0.8844367929565777  0.5379987486523632  0.3243996445722246
  0.7769164897034742  0.4274471349699098  0.0758283576437151
  0.5538454409512923  0.5410467318436218  0.8295690442124268
  0.4566079321581782  0.4381166174003681  0.5682140777684666
  0.2206357440690425  0.8752888685758720  0.3259994068088830
  0.1122704904142182  0.7599247074653164  0.0894300723573025
  0.8814713552545399  0.8943685585517684  0.8169996623367979
  0.8065177707763951  0.7468980202808382  0.5786489107095107
  0.5660945790661742  0.8508853447472120  0.3413820660870215
  0.4433547449358528  0.7629768474268204  0.0807536355359204
  0.2314560959288627  0.8837160994303588  0.8244192836920377
  0.1086238210694077  0.7772697427129884  0.5788442977456683
  0.8906028371811843  0.8720534443320958  0.3303646765936890
  0.7783211016823159  0.7626763110961789  0.0902306098819352
  0.5493817714678073  0.8589565443714520  0.8232443010087067
  0.4314000722780804  0.7500230475541656  0.5692425954750959
 
  0.00000000E+00  0.00000000E+00  0.00000000E+00
  0.00000000E+00  0.00000000E+00  0.00000000E+00
  0.00000000E+00  0.00000000E+00  0.00000000E+00
  0.00000000E+00  0.00000000E+00  0.00000000E+00
  0.00000000E+00  0.00000000E+00  0.00000000E+00
  0.00000000E+00  0.00000000E+00  0.00000000E+00
  0.00000000E+00  0.00000000E+00  0.00000000E+00
  0.00000000E+00  0.00000000E+00  0.00000000E+00
  0.00000000E+00  0.00000000E+00  0.00000000E+00
  0.00000000E+00  0.00000000E+00  0.00000000E+00
  0.00000000E+00  0.00000000E+00  0.00000000E+00
  0.00000000E+00  0.00000000E+00  0.00000000E+00
  0.00000000E+00  0.00000000E+00  0.00000000E+00
  0.00000000E+00  0.00000000E+00  0.00000000E+00
  0.00000000E+00  0.00000000E+00  0.00000000E+00
  0.00000000E+00  0.00000000E+00  0.00000000E+00
  0.00000000E+00  0.00000000E+00  0.00000000E+00
  0.00000000E+00  0.00000000E+00  0.00000000E+00
  0.00000000E+00  0.00000000E+00  0.00000000E+00
  0.00000000E+00  0.00000000E+00  0.00000000E+00
  0.00000000E+00  0.00000000E+00  0.00000000E+00
  0.00000000E+00  0.00000000E+00  0.00000000E+00
  0.00000000E+00  0.00000000E+00  0.00000000E+00
  0.00000000E+00  0.00000000E+00  0.00000000E+00
  0.00000000E+00  0.00000000E+00  0.00000000E+00
  0.00000000E+00  0.00000000E+00  0.00000000E+00
  0.00000000E+00  0.00000000E+00  0.00000000E+00
  0.00000000E+00  0.00000000E+00  0.00000000E+00
  0.00000000E+00  0.00000000E+00  0.00000000E+00
  0.00000000E+00  0.00000000E+00  0.00000000E+00
  0.00000000E+00  0.00000000E+00  0.00000000E+00
  0.00000000E+00  0.00000000E+00  0.00000000E+00
  0.00000000E+00  0.00000000E+00  0.00000000E+00
  0.00000000E+00  0.00000000E+00  0.00000000E+00
  0.00000000E+00  0.00000000E+00  0.00000000E+00
  0.00000000E+00  0.00000000E+00  0.00000000E+00
  0.00000000E+00  0.00000000E+00  0.00000000E+00
  0.00000000E+00  0.00000000E+00  0.00000000E+00
  0.00000000E+00  0.00000000E+00  0.00000000E+00
  0.00000000E+00  0.00000000E+00  0.00000000E+00
  0.00000000E+00  0.00000000E+00  0.00000000E+00
  0.00000000E+00  0.00000000E+00  0.00000000E+00
  0.00000000E+00  0.00000000E+00  0.00000000E+00
  0.00000000E+00  0.00000000E+00  0.00000000E+00
  0.00000000E+00  0.00000000E+00  0.00000000E+00
  0.00000000E+00  0.00000000E+00  0.00000000E+00
  0.00000000E+00  0.00000000E+00  0.00000000E+00
  0.00000000E+00  0.00000000E+00  0.00000000E+00
  0.00000000E+00  0.00000000E+00  0.00000000E+00
  0.00000000E+00  0.00000000E+00  0.00000000E+00
  0.00000000E+00  0.00000000E+00  0.00000000E+00
  0.00000000E+00  0.00000000E+00  0.00000000E+00
  0.00000000E+00  0.00000000E+00  0.00000000E+00
  0.00000000E+00  0.00000000E+00  0.00000000E+00
  0.00000000E+00  0.00000000E+00  0.00000000E+00
  0.00000000E+00  0.00000000E+00  0.00000000E+00
  0.00000000E+00  0.00000000E+00  0.00000000E+00
  0.00000000E+00  0.00000000E+00  0.00000000E+00
  0.00000000E+00  0.00000000E+00  0.00000000E+00
  0.00000000E+00  0.00000000E+00  0.00000000E+00
  0.00000000E+00  0.00000000E+00  0.00000000E+00
  0.00000000E+00  0.00000000E+00  0.00000000E+00
  0.00000000E+00  0.00000000E+00  0.00000000E+00
  0.00000000E+00  0.00000000E+00  0.00000000E+00
  0.00000000E+00  0.00000000E+00  0.00000000E+00
  0.00000000E+00  0.00000000E+00  0.00000000E+00
  0.00000000E+00  0.00000000E+00  0.00000000E+00
  0.00000000E+00  0.00000000E+00  0.00000000E+00
  0.00000000E+00  0.00000000E+00  0.00000000E+00
  0.00000000E+00  0.00000000E+00  0.00000000E+00
  0.00000000E+00  0.00000000E+00  0.00000000E+00
  0.00000000E+00  0.00000000E+00  0.00000000E+00
