supercell of POSCAR                     
   1.03600000000000     
     9.6051007291200001   -5.6678653607799996   -9.9907275475200006
     9.5551777488200003    5.5783510108199996    9.9928581731800001
    -1.5573508785200001   -8.3719044994900003    4.9655686364999996
   Al   Gd   N    O 
    72    24    95     1
Direct
  0.3012397558850850  0.2882439661564078  0.5388115910237516
  0.1425332497328995  0.2455835100715120  0.3123880576763938
  0.3068216450718850  0.4101227969476255  0.3104792130922149
  0.4628879984582852  0.3227538569515573  0.7863173199924631
  0.1412401224117801  0.4983516313275587  0.7837322126728665
  0.2967670236242981  0.1646167496536535  0.7759769681234232
  0.4692132228267809  0.4473612808775229  0.5340000920135779
  0.1422430885133181  0.1195931884327450  0.5395815731495546
  0.5034073773058267  0.0441157406081132  0.2736740211337505
  0.2697347648068202  0.1111230310925748  0.3346673345740001
  0.1148716751140313  0.0697848726701054  0.0980402116200665
  0.1151824148838756  0.1962750033043790  0.8158140111244307
  0.2734849424155854  0.3560992627349790  0.8123245588170818
  0.1117852496256191  0.3245478080726016  0.5894213970400060
  0.2707540110862041  0.4852790801770013  0.5770582701995153
  0.4452487986986498  0.2856709358245695  0.3350796885547709
  0.1112054161212228  0.4462528550847367  0.3414457333569061
  0.4478434703790910  0.4037797506748220  0.1003205443998780
  0.8006371938186589  0.2883234338414837  0.5390107882693229
  0.6428079806881755  0.2429337452565647  0.3125381310484130
  0.8075253482893316  0.4084292894145278  0.3115899931073685
  0.9628041874578841  0.3256041491150938  0.7886677369757749
  0.6415272661593292  0.4979619272851821  0.7840383234990682
  0.7956756001435608  0.1650643009788695  0.7806310090326747
  0.9692567294938925  0.4461671204463400  0.5336113631689656
  0.6453655536233143  0.1185725167407696  0.5401055676927413
  0.9794651621487205  0.0711682356143442  0.2995923622841730
  0.7766687243636454  0.1078521268019017  0.3353347480161233
  0.6182848131313605  0.0738049873020756  0.0950736236141054
  0.6143426897611093  0.1955735092117266  0.8164009975960909
  0.7742949146826064  0.3549298556210090  0.8118931239811360
  0.6108234575439795  0.3239218039471297  0.5894667283906116
  0.7701604594023337  0.4846332031429483  0.5769124332164211
  0.9487887000886559  0.2806813013684391  0.3365670909168088
  0.6109858345522028  0.4448037204666520  0.3400051300797671
  0.9474884493958697  0.4046411884500429  0.1026665607334323
  0.3015881546148123  0.7888340677322461  0.5390477582613968
  0.1446508632400167  0.7449912607843459  0.3130056272340838
  0.3093742991548680  0.9103080061643993  0.3111325586242302
  0.4635128114384841  0.8255101652630401  0.7886547113665543
  0.1427607773068900  0.9983540113502372  0.7839911258758718
  0.2956624139812618  0.6649853413299027  0.7796971458734916
  0.4705598552873838  0.9447467190829997  0.5334506311913358
  0.1437000592067292  0.6197537224575314  0.5393892480913038
  0.4788646350500088  0.5706031404621541  0.2989789170732635
  0.2754706659039314  0.6085689495745470  0.3363824737844752
  0.1145323175437554  0.5707069234109028  0.0991628112471972
  0.1151313812186459  0.6960812690937885  0.8169291723328342
  0.2745567621163119  0.8556051953726040  0.8119160657144064
  0.1123593374007257  0.8249764202587926  0.5894949243802188
  0.2711765993451891  0.9858996015769108  0.5758308029722272
  0.4490910563356962  0.7793369142864321  0.3353885023695327
  0.1121427455853379  0.9457322948690958  0.3400072627241784
  0.4440384485335116  0.9008811004854707  0.0977389729617357
  0.8015628795382526  0.7881079121102630  0.5402765028612606
  0.6440965344168035  0.7422524411688656  0.3129243436517584
  0.8098858176317236  0.9087346004878825  0.3118173552895982
  0.9628735248566400  0.8251302712810471  0.7887817137002315
  0.6420285043975014  0.9971453148773222  0.7838247466784338
  0.7956816956022692  0.6644953509281990  0.7795545539683388
  0.9703708730942253  0.9460555789307108  0.5334372771176916
  0.6433962894846843  0.6188685857139333  0.5397883291494310
  0.9793518148021931  0.5706750354038235  0.2989539774222862
  0.7757829101220608  0.6079796389025276  0.3366722176087080
  0.6150867746414406  0.5688928444506374  0.0998376540808579
  0.6152711626844791  0.6962988030497925  0.8182170758386178
  0.7742877681139220  0.8549204280183105  0.8138155535901390
  0.6124221268377497  0.8231712204275965  0.5914997458188083
  0.7725674983350146  0.9848488365410972  0.5791956501646709
  0.9491128846040624  0.7801271478459810  0.3365713608466976
  0.6185131303220217  0.9390821786576709  0.3474884469785948
  0.9491894577143469  0.9038866546766329  0.1027438604787108
  0.4816337578328884  0.1954582993283083  0.0407515655019779
  0.1338636124797787  0.3671665438599447  0.0340275247093018
  0.3078958422542541  0.0224975439166926  0.0406916194640417
  0.2820428804607502  0.2348732974295160  0.0790181806555168
  0.4477414934423436  0.0212425729451908  0.8171129786509326
  0.4446574814017481  0.1526821663745181  0.5570361908653538
  0.9839759743701890  0.1950762810507882  0.0389514646340956
  0.6363495620432360  0.3640980206099442  0.0318977331727339
  0.8099398213051643  0.0194212007075407  0.0386761255888217
  0.7854638629543444  0.2334045726709704  0.0835394654000226
  0.9496098724803872  0.0194539345209677  0.8186026878914987
  0.9424706691728133  0.1557578272062656  0.5720731028528192
  0.4846280793329427  0.6930154970742990  0.0380231668100848
  0.1368086447325041  0.8648470266161894  0.0322056056644868
  0.3074605829847030  0.5209996489152715  0.0398617360107707
  0.2848142720843683  0.7329155164421124  0.0834457221370286
  0.4481052383073632  0.5181735448685885  0.8184044936586048
  0.4433162868151257  0.6559021879841822  0.5715216483418430
  0.9827155538375507  0.6953555191224652  0.0398096537118136
  0.6320441879095569  0.8698864235644521  0.0372646794787883
  0.8071457368967927  0.5215068244929171  0.0406479010463698
  0.7828573301303479  0.7350811855116604  0.0830566876243921
  0.9477328723178999  0.5197594663036753  0.8190984246983675
  0.9440296202211158  0.6550227070579524  0.5715917363652494
  0.2377840405029445  0.3678475986227596  0.6269006173734866
  0.0747294642009706  0.3258149389377962  0.4005456500954097
  0.2383429433925244  0.4905522104193096  0.3910827774423780
  0.4252179709006683  0.2925797180218552  0.1556878061194880
  0.0682706029125342  0.4587308991919841  0.1535131946072283
  0.2340948922181525  0.1046960124152960  0.1548496077532278
  0.3988101001642619  0.3917046511868847  0.9066805712252375
  0.0938329785441567  0.0838819822566208  0.9022766211200306
  0.2340971526774140  0.2438837144612833  0.8625377890074191
  0.3963328489332270  0.0170199522347971  0.6056817570840352
  0.0882947481347074  0.2033561022815675  0.6317730699121000
  0.2163398141957416  0.1921202123240278  0.4356087643217421
  0.0620977806181102  0.1450019335313186  0.2096523353053072
  0.2144645694475003  0.3210887099029591  0.2093518639691681
  0.3652786781818165  0.1176840689181375  0.9092698475523235
  0.0418096549199376  0.2690421340540041  0.8854528290882016
  0.2091200055381250  0.4357220924223313  0.8895644592302219
  0.3698363520733565  0.2422444908551000  0.6756504060042516
  0.0392641059146115  0.4069302728354529  0.6837682636551250
  0.2120543133007118  0.0679977019417493  0.6701203040808252
  0.3804119247949700  0.3554409326354317  0.4336499828998228
  0.0493068096091989  0.0255885960426028  0.4398865642072565
  0.3908758471616025  0.4745959370591848  0.2091955054172914
  0.7363201907581569  0.3672050590536742  0.6259738453882449
  0.5720808778728994  0.3227261349537756  0.3999853739926991
  0.7381289381661134  0.4891677122680633  0.3905912786962702
  0.9289077537165582  0.2928324304621128  0.1563386723493707
  0.5693449044386085  0.4557649319197665  0.1513200726571355
  0.7366810731353794  0.1012035592952856  0.1544988008373025
  0.8995308482536331  0.3936145250424872  0.9090703863609377
  0.5932485122703497  0.0820837014693154  0.9015364048109760
  0.7329860603477698  0.2441356590919170  0.8684246483300342
  0.8964229957953549  0.0163833065994154  0.6093150408980819
  0.5889686335467772  0.2017008857534250  0.6312063275346773
  0.9046357111136132  0.1555256781927170  0.3530087814764542
  0.7194797211123287  0.1897904122995939  0.4347673053305883
  0.5628529836921103  0.1452328442277349  0.2078395977154202
  0.7153756470021690  0.3189254973797162  0.2111203543086972
  0.8664204926680412  0.1175904375460775  0.9098219523910629
  0.5413504973446521  0.2677035369093801  0.8865138688059915
  0.7100816451537710  0.4356191261637292  0.8889337553495409
  0.8662421184273938  0.2467609064945719  0.6829809609551063
  0.5389858829050382  0.4064976316912876  0.6835311411009783
  0.7131170084278224  0.0675516249905002  0.6727004195695443
  0.8816042610628969  0.3521666675956965  0.4334291323010078
  0.5536845601527247  0.0216375682384751  0.4421454007757930
  0.8900789415827219  0.4747794108119692  0.2108257610200255
  0.2382102843005924  0.8687247669777776  0.6260527001180591
  0.0757444107761884  0.8253820295367120  0.4000926126515552
  0.2400615820085434  0.9921562005524436  0.3896751126016014
  0.4296574319192814  0.7910027020297576  0.1548420821507079
  0.0703669986612567  0.9568490274135684  0.1514602317306171
  0.2340446880901936  0.6026336538234673  0.1561384884774668
  0.4005416238630914  0.8943051790010585  0.9076352621387116
  0.0927675056976440  0.5835130976161622  0.9025419271895174
  0.2338294070541025  0.7447465023873221  0.8683673316014264
  0.3950603314172483  0.5175839424962803  0.6095041860361690
  0.0902159139298604  0.7039273968473907  0.6323828663112607
  0.4038154958033502  0.6547990872875573  0.3523503813826494
  0.2196439484754151  0.6911961323947509  0.4354795851166742
  0.0621805754947147  0.6461698316758202  0.2104025380058374
  0.2171725400575895  0.8208388217383416  0.2108642696453060
  0.3657420122476012  0.6171927512297373  0.9097644521592514
  0.0413399258893534  0.7685122732277492  0.8860208256407205
  0.2107951092227438  0.9358971564265559  0.8894700721532232
  0.3671202536722404  0.7466808190613534  0.6827087537908341
  0.0399099400674103  0.9068855541543215  0.6842345050032179
  0.2119026102054136  0.5682117542688090  0.6717087658453380
  0.3827905923635555  0.8521122154787335  0.4324168513354110
  0.0487047591479524  0.5263574617520703  0.4410627707351793
  0.3914977712477139  0.9745865209082396  0.2091181285134169
  0.7378149628574207  0.8676854354646295  0.6280840138332096
  0.5759060347488898  0.8219803381708033  0.4019553992857325
  0.7420357297592446  0.9894292164507519  0.3927715578164594
  0.9268781914364723  0.7924120922603208  0.1569367738805170
  0.5650173191865733  0.9633952692737253  0.1621941869987751
  0.7344801478885472  0.6041837160835399  0.1568570043765192
  0.8996649184276606  0.8939018641864962  0.9093988452413981
  0.5925467355316485  0.5832980831911456  0.9033579188086804
  0.7339187919524761  0.7436962282980275  0.8673891706053496
  0.8945583869011031  0.5161733561974771  0.6089043650261416
  0.5895518869318934  0.7025636282833787  0.6336366788394372
  0.9042926256406147  0.6549329281451861  0.3531113560074672
  0.7197340515337203  0.6903928085377018  0.4361095302530842
  0.5624054134979772  0.6441399134675549  0.2105178795905829
  0.7132264091187466  0.8224900234495891  0.2108496796145047
  0.8655700050661252  0.6174263786785730  0.9105913156420655
  0.5427977648584843  0.7703126984702990  0.8878272704555883
  0.7089045090458299  0.9344732078158700  0.8912842645648240
  0.8674355873488437  0.7456396711900837  0.6823939161475394
  0.5399058675654445  0.9059759482404459  0.6836184453384604
  0.7118374509938263  0.5676263311770668  0.6716893924638825
  0.8823296859821497  0.8517873756019796  0.4338827879633200
  0.5487904314162506  0.5255206405682458  0.4400927705973956
  0.8920204835468013  0.9743844187499064  0.2112016136625456
  0.3892448864219276  0.1696480853153943  0.3553444331269802
 
  0.00000000E+00  0.00000000E+00  0.00000000E+00
  0.00000000E+00  0.00000000E+00  0.00000000E+00
  0.00000000E+00  0.00000000E+00  0.00000000E+00
  0.00000000E+00  0.00000000E+00  0.00000000E+00
  0.00000000E+00  0.00000000E+00  0.00000000E+00
  0.00000000E+00  0.00000000E+00  0.00000000E+00
  0.00000000E+00  0.00000000E+00  0.00000000E+00
  0.00000000E+00  0.00000000E+00  0.00000000E+00
  0.00000000E+00  0.00000000E+00  0.00000000E+00
  0.00000000E+00  0.00000000E+00  0.00000000E+00
  0.00000000E+00  0.00000000E+00  0.00000000E+00
  0.00000000E+00  0.00000000E+00  0.00000000E+00
  0.00000000E+00  0.00000000E+00  0.00000000E+00
  0.00000000E+00  0.00000000E+00  0.00000000E+00
  0.00000000E+00  0.00000000E+00  0.00000000E+00
  0.00000000E+00  0.00000000E+00  0.00000000E+00
  0.00000000E+00  0.00000000E+00  0.00000000E+00
  0.00000000E+00  0.00000000E+00  0.00000000E+00
  0.00000000E+00  0.00000000E+00  0.00000000E+00
  0.00000000E+00  0.00000000E+00  0.00000000E+00
  0.00000000E+00  0.00000000E+00  0.00000000E+00
  0.00000000E+00  0.00000000E+00  0.00000000E+00
  0.00000000E+00  0.00000000E+00  0.00000000E+00
  0.00000000E+00  0.00000000E+00  0.00000000E+00
  0.00000000E+00  0.00000000E+00  0.00000000E+00
  0.00000000E+00  0.00000000E+00  0.00000000E+00
  0.00000000E+00  0.00000000E+00  0.00000000E+00
  0.00000000E+00  0.00000000E+00  0.00000000E+00
  0.00000000E+00  0.00000000E+00  0.00000000E+00
  0.00000000E+00  0.00000000E+00  0.00000000E+00
  0.00000000E+00  0.00000000E+00  0.00000000E+00
  0.00000000E+00  0.00000000E+00  0.00000000E+00
  0.00000000E+00  0.00000000E+00  0.00000000E+00
  0.00000000E+00  0.00000000E+00  0.00000000E+00
  0.00000000E+00  0.00000000E+00  0.00000000E+00
  0.00000000E+00  0.00000000E+00  0.00000000E+00
  0.00000000E+00  0.00000000E+00  0.00000000E+00
  0.00000000E+00  0.00000000E+00  0.00000000E+00
  0.00000000E+00  0.00000000E+00  0.00000000E+00
  0.00000000E+00  0.00000000E+00  0.00000000E+00
  0.00000000E+00  0.00000000E+00  0.00000000E+00
  0.00000000E+00  0.00000000E+00  0.00000000E+00
  0.00000000E+00  0.00000000E+00  0.00000000E+00
  0.00000000E+00  0.00000000E+00  0.00000000E+00
  0.00000000E+00  0.00000000E+00  0.00000000E+00
  0.00000000E+00  0.00000000E+00  0.00000000E+00
  0.00000000E+00  0.00000000E+00  0.00000000E+00
  0.00000000E+00  0.00000000E+00  0.00000000E+00
  0.00000000E+00  0.00000000E+00  0.00000000E+00
  0.00000000E+00  0.00000000E+00  0.00000000E+00
  0.00000000E+00  0.00000000E+00  0.00000000E+00
  0.00000000E+00  0.00000000E+00  0.00000000E+00
  0.00000000E+00  0.00000000E+00  0.00000000E+00
  0.00000000E+00  0.00000000E+00  0.00000000E+00
  0.00000000E+00  0.00000000E+00  0.00000000E+00
  0.00000000E+00  0.00000000E+00  0.00000000E+00
  0.00000000E+00  0.00000000E+00  0.00000000E+00
  0.00000000E+00  0.00000000E+00  0.00000000E+00
  0.00000000E+00  0.00000000E+00  0.00000000E+00
  0.00000000E+00  0.00000000E+00  0.00000000E+00
  0.00000000E+00  0.00000000E+00  0.00000000E+00
  0.00000000E+00  0.00000000E+00  0.00000000E+00
  0.00000000E+00  0.00000000E+00  0.00000000E+00
  0.00000000E+00  0.00000000E+00  0.00000000E+00
  0.00000000E+00  0.00000000E+00  0.00000000E+00
  0.00000000E+00  0.00000000E+00  0.00000000E+00
  0.00000000E+00  0.00000000E+00  0.00000000E+00
  0.00000000E+00  0.00000000E+00  0.00000000E+00
  0.00000000E+00  0.00000000E+00  0.00000000E+00
  0.00000000E+00  0.00000000E+00  0.00000000E+00
  0.00000000E+00  0.00000000E+00  0.00000000E+00
  0.00000000E+00  0.00000000E+00  0.00000000E+00
  0.00000000E+00  0.00000000E+00  0.00000000E+00
  0.00000000E+00  0.00000000E+00  0.00000000E+00
  0.00000000E+00  0.00000000E+00  0.00000000E+00
  0.00000000E+00  0.00000000E+00  0.00000000E+00
  0.00000000E+00  0.00000000E+00  0.00000000E+00
  0.00000000E+00  0.00000000E+00  0.00000000E+00
  0.00000000E+00  0.00000000E+00  0.00000000E+00
  0.00000000E+00  0.00000000E+00  0.00000000E+00
  0.00000000E+00  0.00000000E+00  0.00000000E+00
  0.00000000E+00  0.00000000E+00  0.00000000E+00
  0.00000000E+00  0.00000000E+00  0.00000000E+00
  0.00000000E+00  0.00000000E+00  0.00000000E+00
  0.00000000E+00  0.00000000E+00  0.00000000E+00
  0.00000000E+00  0.00000000E+00  0.00000000E+00
  0.00000000E+00  0.00000000E+00  0.00000000E+00
  0.00000000E+00  0.00000000E+00  0.00000000E+00
  0.00000000E+00  0.00000000E+00  0.00000000E+00
  0.00000000E+00  0.00000000E+00  0.00000000E+00
  0.00000000E+00  0.00000000E+00  0.00000000E+00
  0.00000000E+00  0.00000000E+00  0.00000000E+00
  0.00000000E+00  0.00000000E+00  0.00000000E+00
  0.00000000E+00  0.00000000E+00  0.00000000E+00
  0.00000000E+00  0.00000000E+00  0.00000000E+00
  0.00000000E+00  0.00000000E+00  0.00000000E+00
  0.00000000E+00  0.00000000E+00  0.00000000E+00
  0.00000000E+00  0.00000000E+00  0.00000000E+00
  0.00000000E+00  0.00000000E+00  0.00000000E+00
  0.00000000E+00  0.00000000E+00  0.00000000E+00
  0.00000000E+00  0.00000000E+00  0.00000000E+00
  0.00000000E+00  0.00000000E+00  0.00000000E+00
  0.00000000E+00  0.00000000E+00  0.00000000E+00
  0.00000000E+00  0.00000000E+00  0.00000000E+00
  0.00000000E+00  0.00000000E+00  0.00000000E+00
  0.00000000E+00  0.00000000E+00  0.00000000E+00
  0.00000000E+00  0.00000000E+00  0.00000000E+00
  0.00000000E+00  0.00000000E+00  0.00000000E+00
  0.00000000E+00  0.00000000E+00  0.00000000E+00
  0.00000000E+00  0.00000000E+00  0.00000000E+00
  0.00000000E+00  0.00000000E+00  0.00000000E+00
  0.00000000E+00  0.00000000E+00  0.00000000E+00
  0.00000000E+00  0.00000000E+00  0.00000000E+00
  0.00000000E+00  0.00000000E+00  0.00000000E+00
  0.00000000E+00  0.00000000E+00  0.00000000E+00
  0.00000000E+00  0.00000000E+00  0.00000000E+00
  0.00000000E+00  0.00000000E+00  0.00000000E+00
  0.00000000E+00  0.00000000E+00  0.00000000E+00
  0.00000000E+00  0.00000000E+00  0.00000000E+00
  0.00000000E+00  0.00000000E+00  0.00000000E+00
  0.00000000E+00  0.00000000E+00  0.00000000E+00
  0.00000000E+00  0.00000000E+00  0.00000000E+00
  0.00000000E+00  0.00000000E+00  0.00000000E+00
  0.00000000E+00  0.00000000E+00  0.00000000E+00
  0.00000000E+00  0.00000000E+00  0.00000000E+00
  0.00000000E+00  0.00000000E+00  0.00000000E+00
  0.00000000E+00  0.00000000E+00  0.00000000E+00
  0.00000000E+00  0.00000000E+00  0.00000000E+00
  0.00000000E+00  0.00000000E+00  0.00000000E+00
  0.00000000E+00  0.00000000E+00  0.00000000E+00
  0.00000000E+00  0.00000000E+00  0.00000000E+00
  0.00000000E+00  0.00000000E+00  0.00000000E+00
  0.00000000E+00  0.00000000E+00  0.00000000E+00
  0.00000000E+00  0.00000000E+00  0.00000000E+00
  0.00000000E+00  0.00000000E+00  0.00000000E+00
  0.00000000E+00  0.00000000E+00  0.00000000E+00
  0.00000000E+00  0.00000000E+00  0.00000000E+00
  0.00000000E+00  0.00000000E+00  0.00000000E+00
  0.00000000E+00  0.00000000E+00  0.00000000E+00
  0.00000000E+00  0.00000000E+00  0.00000000E+00
  0.00000000E+00  0.00000000E+00  0.00000000E+00
  0.00000000E+00  0.00000000E+00  0.00000000E+00
  0.00000000E+00  0.00000000E+00  0.00000000E+00
  0.00000000E+00  0.00000000E+00  0.00000000E+00
  0.00000000E+00  0.00000000E+00  0.00000000E+00
  0.00000000E+00  0.00000000E+00  0.00000000E+00
  0.00000000E+00  0.00000000E+00  0.00000000E+00
  0.00000000E+00  0.00000000E+00  0.00000000E+00
  0.00000000E+00  0.00000000E+00  0.00000000E+00
  0.00000000E+00  0.00000000E+00  0.00000000E+00
  0.00000000E+00  0.00000000E+00  0.00000000E+00
  0.00000000E+00  0.00000000E+00  0.00000000E+00
  0.00000000E+00  0.00000000E+00  0.00000000E+00
  0.00000000E+00  0.00000000E+00  0.00000000E+00
  0.00000000E+00  0.00000000E+00  0.00000000E+00
  0.00000000E+00  0.00000000E+00  0.00000000E+00
  0.00000000E+00  0.00000000E+00  0.00000000E+00
  0.00000000E+00  0.00000000E+00  0.00000000E+00
  0.00000000E+00  0.00000000E+00  0.00000000E+00
  0.00000000E+00  0.00000000E+00  0.00000000E+00
  0.00000000E+00  0.00000000E+00  0.00000000E+00
  0.00000000E+00  0.00000000E+00  0.00000000E+00
  0.00000000E+00  0.00000000E+00  0.00000000E+00
  0.00000000E+00  0.00000000E+00  0.00000000E+00
  0.00000000E+00  0.00000000E+00  0.00000000E+00
  0.00000000E+00  0.00000000E+00  0.00000000E+00
  0.00000000E+00  0.00000000E+00  0.00000000E+00
  0.00000000E+00  0.00000000E+00  0.00000000E+00
  0.00000000E+00  0.00000000E+00  0.00000000E+00
  0.00000000E+00  0.00000000E+00  0.00000000E+00
  0.00000000E+00  0.00000000E+00  0.00000000E+00
  0.00000000E+00  0.00000000E+00  0.00000000E+00
  0.00000000E+00  0.00000000E+00  0.00000000E+00
  0.00000000E+00  0.00000000E+00  0.00000000E+00
  0.00000000E+00  0.00000000E+00  0.00000000E+00
  0.00000000E+00  0.00000000E+00  0.00000000E+00
  0.00000000E+00  0.00000000E+00  0.00000000E+00
  0.00000000E+00  0.00000000E+00  0.00000000E+00
  0.00000000E+00  0.00000000E+00  0.00000000E+00
  0.00000000E+00  0.00000000E+00  0.00000000E+00
  0.00000000E+00  0.00000000E+00  0.00000000E+00
  0.00000000E+00  0.00000000E+00  0.00000000E+00
  0.00000000E+00  0.00000000E+00  0.00000000E+00
  0.00000000E+00  0.00000000E+00  0.00000000E+00
  0.00000000E+00  0.00000000E+00  0.00000000E+00
  0.00000000E+00  0.00000000E+00  0.00000000E+00
  0.00000000E+00  0.00000000E+00  0.00000000E+00
  0.00000000E+00  0.00000000E+00  0.00000000E+00
  0.00000000E+00  0.00000000E+00  0.00000000E+00
  0.00000000E+00  0.00000000E+00  0.00000000E+00
  0.00000000E+00  0.00000000E+00  0.00000000E+00
  0.00000000E+00  0.00000000E+00  0.00000000E+00
