generated by phonopy                    
   1.00000000000000     
    10.0351470768999995   -0.0000022330999784   -0.0000001056124209
    -5.0175765436399997    8.6906901959899994    0.0000001395531216
    -0.0000001735893656    0.0000001431815548   14.9533752540999991
   Pb   P    O 
    21    12    49
Direct
  0.0203687758314359  0.8104867719553681  0.1480140330610809
  0.0050234762014796  0.7703940157237952  0.6112538367227671
  0.0017358718445948  0.2513635136853054  0.3688483798404008
  0.9970635670499775  0.2700297817613020  0.8694425629136191
  0.2336290220421873  0.2401217375568905  0.1360394799476197
  0.2214250028373357  0.2194689853506304  0.6180721873893091
  0.7432066310580439  0.7435323512952934  0.3698688505331802
  0.8318675323191442  0.8451182598142850  0.8032683816057826
  0.7876814117848880  0.0077962996161460  0.1309810986499684
  0.7812628707940235  0.0057937540513038  0.6054724381913701
  0.2602561590762207  0.0046254705031430  0.3772993761343670
  0.2491430623073825  0.9979218658513460  0.8753209677346305
  0.6659629253315416  0.3404421884716200  0.9970918686501875
  0.6662773464575409  0.3280573829176490  0.5014078921182943
  0.3264602198521089  0.6606963092776610  0.0039527390466887
  0.3236857091573953  0.6584833953598093  0.5055746137477115
  0.3324700719563083  0.6746240159423067  0.2489788609128212
  0.3615746914975730  0.6781016440545997  0.7470761339659688
  0.6720335073976500  0.3329739930375339  0.2439425951721219
  0.6601741598869069  0.3357913754284922  0.7510094986453311
  0.8016500659681327  0.7379654407131611  0.9882739024192873
  0.6115951129659720  0.5963454250365885  0.1271440853331356
  0.6243911425405955  0.5890928113592793  0.6151296622127944
  0.3715788644415952  0.3952751200946025  0.3773460437389744
  0.3502521812867485  0.3770588362364720  0.8733049627275449
  0.4030326372883408  0.0271016888916762  0.1293070688953932
  0.4023307970729135  0.0291461722182191  0.6235428888590278
  0.6055616252758469  0.9761827910668330  0.3745225043376195
  0.5859990843573755  0.9678208457197570  0.8788039782455712
  0.9721193103499886  0.3837001028430294  0.1300271359840153
  0.9703653701773121  0.3720195696623634  0.6246088760667945
  0.0245314682103626  0.6253616668391757  0.3801307541152710
  0.0338442145590392  0.6180825466533619  0.8711014467067102
  0.4787079619562391  0.6344192291183859  0.1378984139553197
  0.5148983340789997  0.6562383553792799  0.6139171635861231
  0.4668560361073659  0.3117884353976592  0.3768835054953072
  0.4539024885342187  0.3005499148728390  0.8818820180677349
  0.3557956039845109  0.8533667819009452  0.1309611378374171
  0.3451825767542616  0.8543770783442355  0.6169906712843556
  0.6880983507448093  0.1544690192829350  0.3716196695269076
  0.6591791202073551  0.1453214805279828  0.8727362142908248
  0.1475893667528325  0.5037246359306735  0.1316684150998384
  0.1449247616126002  0.4926224217517046  0.6206892637893873
  0.8463905530677778  0.5331139946853440  0.3766145406336037
  0.8660733629163460  0.4788203623553002  0.8723529635734977
  0.7375843856611155  0.6474486566896047  0.5335699853828473
  0.2623088034515320  0.3510026681185536  0.4600529638828732
  0.2626593654586387  0.3650999639604748  0.9625847031289965
  0.3179580500782180  0.0574865780886071  0.0509017583910705
  0.3509147631378724  0.0855687427958358  0.5386907956076925
  0.6651941263146739  0.9193200408602706  0.4546221172583316
  0.6236115032255114  0.9123413467710151  0.9660542521255238
  0.9361987847803235  0.2656369922345831  0.0524684112867035
  0.9178508553090481  0.2657414957841553  0.5387586702775167
  0.0882103517975352  0.7314906637210328  0.4646649426654434
  0.0919796590318498  0.7026230430671561  0.9620717452446925
  0.2644337003832291  0.3520227820594286  0.2930406267837284
  0.2217401098224698  0.2810305341161197  0.8016993411391695
  0.7284308620625666  0.6605388117244431  0.2089164842379603
  0.7255557794520087  0.6392952098717259  0.7024716102599129
  0.6341374724920854  0.9052459607189789  0.2886126414532839
  0.6330681951536121  0.9060025314601461  0.7939952459300130
  0.3549075509249064  0.0763217894778734  0.2181850621217052
  0.3307223745706480  0.0655596013747726  0.7068196556419934
  0.0948175327538721  0.7361411139497918  0.2984902620544432
  0.0564475214438005  0.7391997071902097  0.7984071504981785
  0.9205161493922560  0.2893999220872203  0.2200914887934431
  0.9322856349224651  0.2617403001367720  0.7064881571550004
  0.5399035428424881  0.4152214748916236  0.1284114019001663
  0.5344809591001578  0.4095346292861990  0.6150570935336646
  0.4812633884080881  0.5750617111025207  0.3778676525321600
  0.4494399492082053  0.5483974465548016  0.8456182137334380
  0.5820381373847496  0.1310706440102010  0.1204563614323533
  0.5823337563667437  0.1261968731268936  0.6289784445845044
  0.4268139710809962  0.9071666754333094  0.3857883094063013
  0.4039334087309072  0.8878027724203505  0.8702321506501818
  0.8728122301475878  0.4632211541221238  0.1205702854851225
  0.8709507822138676  0.4525153343040245  0.6291888250715587
  0.0926479113016825  0.5141284381477149  0.3823428717848714
  0.1363567034082038  0.5412685750549358  0.8497020869823402
  0.0108124871179669  0.0245952910662623  0.1902632773067268
  0.0014851137834953  0.9952310355362357  0.5787215477344603
 
  0.00000000E+00  0.00000000E+00  0.00000000E+00
  0.00000000E+00  0.00000000E+00  0.00000000E+00
  0.00000000E+00  0.00000000E+00  0.00000000E+00
  0.00000000E+00  0.00000000E+00  0.00000000E+00
  0.00000000E+00  0.00000000E+00  0.00000000E+00
  0.00000000E+00  0.00000000E+00  0.00000000E+00
  0.00000000E+00  0.00000000E+00  0.00000000E+00
  0.00000000E+00  0.00000000E+00  0.00000000E+00
  0.00000000E+00  0.00000000E+00  0.00000000E+00
  0.00000000E+00  0.00000000E+00  0.00000000E+00
  0.00000000E+00  0.00000000E+00  0.00000000E+00
  0.00000000E+00  0.00000000E+00  0.00000000E+00
  0.00000000E+00  0.00000000E+00  0.00000000E+00
  0.00000000E+00  0.00000000E+00  0.00000000E+00
  0.00000000E+00  0.00000000E+00  0.00000000E+00
  0.00000000E+00  0.00000000E+00  0.00000000E+00
  0.00000000E+00  0.00000000E+00  0.00000000E+00
  0.00000000E+00  0.00000000E+00  0.00000000E+00
  0.00000000E+00  0.00000000E+00  0.00000000E+00
  0.00000000E+00  0.00000000E+00  0.00000000E+00
  0.00000000E+00  0.00000000E+00  0.00000000E+00
  0.00000000E+00  0.00000000E+00  0.00000000E+00
  0.00000000E+00  0.00000000E+00  0.00000000E+00
  0.00000000E+00  0.00000000E+00  0.00000000E+00
  0.00000000E+00  0.00000000E+00  0.00000000E+00
  0.00000000E+00  0.00000000E+00  0.00000000E+00
  0.00000000E+00  0.00000000E+00  0.00000000E+00
  0.00000000E+00  0.00000000E+00  0.00000000E+00
  0.00000000E+00  0.00000000E+00  0.00000000E+00
  0.00000000E+00  0.00000000E+00  0.00000000E+00
  0.00000000E+00  0.00000000E+00  0.00000000E+00
  0.00000000E+00  0.00000000E+00  0.00000000E+00
  0.00000000E+00  0.00000000E+00  0.00000000E+00
  0.00000000E+00  0.00000000E+00  0.00000000E+00
  0.00000000E+00  0.00000000E+00  0.00000000E+00
  0.00000000E+00  0.00000000E+00  0.00000000E+00
  0.00000000E+00  0.00000000E+00  0.00000000E+00
  0.00000000E+00  0.00000000E+00  0.00000000E+00
  0.00000000E+00  0.00000000E+00  0.00000000E+00
  0.00000000E+00  0.00000000E+00  0.00000000E+00
  0.00000000E+00  0.00000000E+00  0.00000000E+00
  0.00000000E+00  0.00000000E+00  0.00000000E+00
  0.00000000E+00  0.00000000E+00  0.00000000E+00
  0.00000000E+00  0.00000000E+00  0.00000000E+00
  0.00000000E+00  0.00000000E+00  0.00000000E+00
  0.00000000E+00  0.00000000E+00  0.00000000E+00
  0.00000000E+00  0.00000000E+00  0.00000000E+00
  0.00000000E+00  0.00000000E+00  0.00000000E+00
  0.00000000E+00  0.00000000E+00  0.00000000E+00
  0.00000000E+00  0.00000000E+00  0.00000000E+00
  0.00000000E+00  0.00000000E+00  0.00000000E+00
  0.00000000E+00  0.00000000E+00  0.00000000E+00
  0.00000000E+00  0.00000000E+00  0.00000000E+00
  0.00000000E+00  0.00000000E+00  0.00000000E+00
  0.00000000E+00  0.00000000E+00  0.00000000E+00
  0.00000000E+00  0.00000000E+00  0.00000000E+00
  0.00000000E+00  0.00000000E+00  0.00000000E+00
  0.00000000E+00  0.00000000E+00  0.00000000E+00
  0.00000000E+00  0.00000000E+00  0.00000000E+00
  0.00000000E+00  0.00000000E+00  0.00000000E+00
  0.00000000E+00  0.00000000E+00  0.00000000E+00
  0.00000000E+00  0.00000000E+00  0.00000000E+00
  0.00000000E+00  0.00000000E+00  0.00000000E+00
  0.00000000E+00  0.00000000E+00  0.00000000E+00
  0.00000000E+00  0.00000000E+00  0.00000000E+00
  0.00000000E+00  0.00000000E+00  0.00000000E+00
  0.00000000E+00  0.00000000E+00  0.00000000E+00
  0.00000000E+00  0.00000000E+00  0.00000000E+00
  0.00000000E+00  0.00000000E+00  0.00000000E+00
  0.00000000E+00  0.00000000E+00  0.00000000E+00
  0.00000000E+00  0.00000000E+00  0.00000000E+00
  0.00000000E+00  0.00000000E+00  0.00000000E+00
  0.00000000E+00  0.00000000E+00  0.00000000E+00
  0.00000000E+00  0.00000000E+00  0.00000000E+00
  0.00000000E+00  0.00000000E+00  0.00000000E+00
  0.00000000E+00  0.00000000E+00  0.00000000E+00
  0.00000000E+00  0.00000000E+00  0.00000000E+00
  0.00000000E+00  0.00000000E+00  0.00000000E+00
  0.00000000E+00  0.00000000E+00  0.00000000E+00
  0.00000000E+00  0.00000000E+00  0.00000000E+00
  0.00000000E+00  0.00000000E+00  0.00000000E+00
  0.00000000E+00  0.00000000E+00  0.00000000E+00
