supercell of icsd_181358.cif            
   1.00000000000000     
     9.8388548333325687   -0.0011768935719248   -0.0012467211817271
    -4.9204463473480482    8.5312018639324254    0.0007037560360762
    -0.0013469069754421    0.0000830491352348   10.5512717262916436
   N    Ga   Sc
    36    30     6
Direct
  0.2231997481321955  0.1103118716171636  0.4407628492023434
  0.1246537849555907  0.2290273323983101  0.1947937705430434
  0.8736153342413289  0.1029637597493931  0.9414029334388161
  0.7711768512779358  0.2085390953789172  0.6856051343326399
  0.5541973372521696  0.1108418589532718  0.4413121573143002
  0.4360516164616186  0.2060298255201332  0.1846912259236575
  0.2294675453839403  0.1008991767601088  0.9338526799939189
  0.1040548976497178  0.2076056819153820  0.6928074156580095
  0.8887350548755606  0.1096964454772618  0.4473766210657288
  0.7687605844884473  0.2291504148680943  0.1891800265621910
  0.5630569900314768  0.1248221954668125  0.9328876361558827
  0.4455364851855776  0.2245007776650567  0.6896317834788377
  0.2233713674535238  0.4443087087087534  0.4454185266262130
  0.1116558074151470  0.5563606660394811  0.1946717035286909
  0.8908872143007756  0.4449239263874389  0.9476747774767276
  0.7723906059352288  0.5644131271214263  0.6870112950820726
  0.5555708394012768  0.4432529596611658  0.4433302333686484
  0.4372170041389936  0.5636845982515055  0.1879232579221721
  0.2282224877835475  0.4592805970863836  0.9407637789134711
  0.1155006100215203  0.5700999326169480  0.6794869399188244
  0.8871116418289375  0.4438261591950479  0.4414763245805844
  0.7926306855171887  0.5639789166343832  0.1868979072606862
  0.5556445376798962  0.4447244678512021  0.9441221968797393
  0.4609972362239745  0.5644297809831258  0.6848745342546252
  0.2232387275698358  0.7805150071946656  0.4387072178244722
  0.1108797338384591  0.8889471616833688  0.1891220882502864
  0.8902300249876660  0.7783756746927111  0.9372695249165091
  0.7786439223317601  0.8881254886802381  0.6889084276701780
  0.5568149437329382  0.7793427211770023  0.4410083009969057
  0.4451203999423754  0.8892815013194380  0.1967931332269757
  0.2073277090983936  0.7695851410970675  0.9360353371597938
  0.1099218233793451  0.8881371396565285  0.6866392813764861
  0.8894575197742185  0.7787769635786148  0.4384317565561560
  0.7696229157246037  0.8728672776232074  0.1860204939906538
  0.5619500612488437  0.7709522120719257  0.9334431491345825
  0.4436689987934344  0.8884156205786269  0.6924712050400288
  0.2231366814842062  0.1079692902510700  0.2517083084929794
  0.8819083985201175  0.1032925517073124  0.7503101372208718
  0.7757956882856192  0.2189144805673493  0.5002659834532466
  0.5510860608790722  0.1087553556953793  0.2528956704903180
  0.4454568224920692  0.2194809990382467  0.9973064068158521
  0.2232884070419630  0.1052193484559822  0.7479506047620816
  0.1096935818671909  0.2177324463713006  0.5026521965624084
  0.7744971173021042  0.2256078695841879  0.0016284994833242
  0.5551944775347337  0.1115439634246513  0.7472982731348381
  0.4448053594924204  0.2229414576299504  0.5022039218577063
  0.2234763526410788  0.4475131933489180  0.2540596064472780
  0.1097090942378856  0.5567901229332861  0.0053309783188880
  0.7763538855354355  0.5579855729617407  0.5003679655093549
  0.4454350576058630  0.5592044294145495  0.0004211302343506
  0.1119282114607429  0.5598843784609215  0.4956925149575468
  0.8900050725948105  0.4475258964447306  0.2509357231201932
  0.7828664014152480  0.5588234505224747  0.0007841139273808
  0.5572925724662170  0.4475641521532481  0.7514510226729101
  0.4499614274763744  0.5580727076720464  0.4997864676570245
  0.2228728313331629  0.7794580349979938  0.2517921531085179
  0.1088684473615018  0.8851764009105807  0.9997301652473070
  0.8892495691920814  0.7808002816544146  0.7491560154165526
  0.7783334744554651  0.8881828554003235  0.5022788407021324
  0.5528875522009002  0.7771917056853255  0.2525903237446059
  0.2195682792475679  0.7800005521696605  0.7482922853090699
  0.1107621338109155  0.8885198087584030  0.4996062400494452
  0.8913176364371793  0.7774696837788966  0.2497607923594884
  0.7745952155677145  0.8809779530484079  0.9987633945750147
  0.5610225608213852  0.7788145382814804  0.7476842147659326
  0.4440254589962294  0.8889350713521580  0.5015254718395852
  0.1148427854053651  0.2224542130245837  0.9942836410977733
  0.8864283311461065  0.1092240958478783  0.2475796059533195
  0.8860771505134935  0.4446179108985433  0.7468259213182975
  0.5549982508608835  0.4432352831120383  0.2426714851743483
  0.2271319878560547  0.4499104481265306  0.7406273134112737
  0.4445446164033910  0.8892153106552669  0.9949769851839889
 
  0.00000000E+00  0.00000000E+00  0.00000000E+00
  0.00000000E+00  0.00000000E+00  0.00000000E+00
  0.00000000E+00  0.00000000E+00  0.00000000E+00
  0.00000000E+00  0.00000000E+00  0.00000000E+00
  0.00000000E+00  0.00000000E+00  0.00000000E+00
  0.00000000E+00  0.00000000E+00  0.00000000E+00
  0.00000000E+00  0.00000000E+00  0.00000000E+00
  0.00000000E+00  0.00000000E+00  0.00000000E+00
  0.00000000E+00  0.00000000E+00  0.00000000E+00
  0.00000000E+00  0.00000000E+00  0.00000000E+00
  0.00000000E+00  0.00000000E+00  0.00000000E+00
  0.00000000E+00  0.00000000E+00  0.00000000E+00
  0.00000000E+00  0.00000000E+00  0.00000000E+00
  0.00000000E+00  0.00000000E+00  0.00000000E+00
  0.00000000E+00  0.00000000E+00  0.00000000E+00
  0.00000000E+00  0.00000000E+00  0.00000000E+00
  0.00000000E+00  0.00000000E+00  0.00000000E+00
  0.00000000E+00  0.00000000E+00  0.00000000E+00
  0.00000000E+00  0.00000000E+00  0.00000000E+00
  0.00000000E+00  0.00000000E+00  0.00000000E+00
  0.00000000E+00  0.00000000E+00  0.00000000E+00
  0.00000000E+00  0.00000000E+00  0.00000000E+00
  0.00000000E+00  0.00000000E+00  0.00000000E+00
  0.00000000E+00  0.00000000E+00  0.00000000E+00
  0.00000000E+00  0.00000000E+00  0.00000000E+00
  0.00000000E+00  0.00000000E+00  0.00000000E+00
  0.00000000E+00  0.00000000E+00  0.00000000E+00
  0.00000000E+00  0.00000000E+00  0.00000000E+00
  0.00000000E+00  0.00000000E+00  0.00000000E+00
  0.00000000E+00  0.00000000E+00  0.00000000E+00
  0.00000000E+00  0.00000000E+00  0.00000000E+00
  0.00000000E+00  0.00000000E+00  0.00000000E+00
  0.00000000E+00  0.00000000E+00  0.00000000E+00
  0.00000000E+00  0.00000000E+00  0.00000000E+00
  0.00000000E+00  0.00000000E+00  0.00000000E+00
  0.00000000E+00  0.00000000E+00  0.00000000E+00
  0.00000000E+00  0.00000000E+00  0.00000000E+00
  0.00000000E+00  0.00000000E+00  0.00000000E+00
  0.00000000E+00  0.00000000E+00  0.00000000E+00
  0.00000000E+00  0.00000000E+00  0.00000000E+00
  0.00000000E+00  0.00000000E+00  0.00000000E+00
  0.00000000E+00  0.00000000E+00  0.00000000E+00
  0.00000000E+00  0.00000000E+00  0.00000000E+00
  0.00000000E+00  0.00000000E+00  0.00000000E+00
  0.00000000E+00  0.00000000E+00  0.00000000E+00
  0.00000000E+00  0.00000000E+00  0.00000000E+00
  0.00000000E+00  0.00000000E+00  0.00000000E+00
  0.00000000E+00  0.00000000E+00  0.00000000E+00
  0.00000000E+00  0.00000000E+00  0.00000000E+00
  0.00000000E+00  0.00000000E+00  0.00000000E+00
  0.00000000E+00  0.00000000E+00  0.00000000E+00
  0.00000000E+00  0.00000000E+00  0.00000000E+00
  0.00000000E+00  0.00000000E+00  0.00000000E+00
  0.00000000E+00  0.00000000E+00  0.00000000E+00
  0.00000000E+00  0.00000000E+00  0.00000000E+00
  0.00000000E+00  0.00000000E+00  0.00000000E+00
  0.00000000E+00  0.00000000E+00  0.00000000E+00
  0.00000000E+00  0.00000000E+00  0.00000000E+00
  0.00000000E+00  0.00000000E+00  0.00000000E+00
  0.00000000E+00  0.00000000E+00  0.00000000E+00
  0.00000000E+00  0.00000000E+00  0.00000000E+00
  0.00000000E+00  0.00000000E+00  0.00000000E+00
  0.00000000E+00  0.00000000E+00  0.00000000E+00
  0.00000000E+00  0.00000000E+00  0.00000000E+00
  0.00000000E+00  0.00000000E+00  0.00000000E+00
  0.00000000E+00  0.00000000E+00  0.00000000E+00
  0.00000000E+00  0.00000000E+00  0.00000000E+00
  0.00000000E+00  0.00000000E+00  0.00000000E+00
  0.00000000E+00  0.00000000E+00  0.00000000E+00
  0.00000000E+00  0.00000000E+00  0.00000000E+00
  0.00000000E+00  0.00000000E+00  0.00000000E+00
  0.00000000E+00  0.00000000E+00  0.00000000E+00
