supercell of icsd_181358.cif            
   1.00000000000000     
    10.4279225297861782   -0.0253458756762714    0.0051043958771904
    -5.2363373471395223    8.9219658648309625   -0.0146665134328214
     0.0064323155338562   -0.0142890695834260   10.5867468424859954
   N    Ga   Y 
    36    22    14
Direct
  0.2122230277411390  0.1312531608873044  0.4337434648227401
  0.1095533754781073  0.2239628987976729  0.1923028364361343
  0.8908482193780927  0.1060375855482576  0.9429697736114875
  0.7866012987848521  0.2467522269719638  0.6694618601941471
  0.5814599583162661  0.1255645332989843  0.4399481331489028
  0.4267256682755942  0.2193339842483155  0.2041900637864913
  0.1886775240455023  0.0962437768949798  0.9549921941409707
  0.1250379397689869  0.2526087343454222  0.6691001834837635
  0.8900290842978364  0.1081801900868697  0.4424329743068327
  0.8212728853364908  0.2411949591600830  0.1853203287690519
  0.5725801436764399  0.1066331812583599  0.9791878445317863
  0.4576226469966755  0.2398154355432283  0.7229405006519158
  0.2301230064484585  0.4492936104439025  0.4316608752040736
  0.1140499818129115  0.5529515058732528  0.1850455308016521
  0.9128283167363236  0.4235919200773708  0.9304261910619331
  0.7763360610864893  0.5423775111884410  0.7291773609995573
  0.5513487105762493  0.4579015303174572  0.4553227526811696
  0.4229785376019493  0.5681464594857886  0.1754646038855157
  0.2209707673916128  0.4430173706574578  0.9347070338902128
  0.1035512501689482  0.5334286696614470  0.6786356924562043
  0.9108354582685365  0.4314470630419294  0.4289557788721581
  0.7862693187779328  0.5325878755543840  0.1977346172486634
  0.5420948744782308  0.4637978221425669  0.9461991960707294
  0.4415274500950517  0.5576861412579461  0.6921079453681713
  0.2089864553835810  0.7468207017772599  0.4310221505413452
  0.1309447409388795  0.8979993590889848  0.2084131317352558
  0.8905168210861731  0.7916710228551054  0.9834295170922687
  0.7477367527148644  0.8779950138112795  0.6755473498459992
  0.5631482104186176  0.7557491672996974  0.4239344453330816
  0.4299594135227096  0.8676677755682931  0.1989814914261743
  0.2197979691469953  0.7792794209562572  0.9644719919010853
  0.1043324323454371  0.8880381950767600  0.6819575775390234
  0.8667934680715206  0.7742243989398432  0.4395243563120417
  0.7535197297042302  0.9075878169376850  0.1874200675208968
  0.5520702340455230  0.7806879951449091  0.9385889667315865
  0.4489956882934152  0.8770596620885982  0.6920234514568975
  0.2197691010008924  0.1218157471870072  0.2496812043931556
  0.0998563411831555  0.2167863154590961  0.0070369380821091
  0.7915190388583966  0.2266341435182966  0.4865566598518996
  0.1141794129074896  0.2371532034679547  0.4865444999912185
  0.8943423056623772  0.1182873220449636  0.2529583769992456
  0.8032820760598653  0.2210288290907414  0.0053207417363410
  0.2206098464203734  0.4508207019783370  0.2453419847914304
  0.1161357370942753  0.5459125489375296  0.0018954186971172
  0.9002948520399201  0.4377825710512582  0.7475753863353773
  0.4332515852460048  0.5632551359979914  0.9937531020104018
  0.2234982905419400  0.4486135572412451  0.7449565059954111
  0.1136900234880400  0.5400343140598665  0.4919931509919451
  0.9082013945626386  0.4442780202546430  0.2470117298366787
  0.5512988395765603  0.4539561502970457  0.7587820356286130
  0.4426993600207680  0.5551737140424393  0.5020647016443718
  0.2196020967359260  0.7636842860897772  0.2445122467072594
  0.1132583479896994  0.8924070940532829  0.0195027695983825
  0.7662962797892519  0.8774082745249103  0.4906029387688520
  0.5438138644141972  0.7724132722681674  0.2426081731485468
  0.4417159357484124  0.8784481304258804  0.0111184004883569
  0.7677557187409718  0.8998010555888598  0.0064491408275629
  0.5479557688355712  0.7718675683478793  0.7490600034993804
  0.8915826823885880  0.1217086797465683  0.7260510979149402
  0.5738437277217798  0.1189800845682853  0.2250177684885344
  0.4302871155317334  0.2199297249207675  0.9940514413977084
  0.2151056791487775  0.1210593869942898  0.7461393014755799
  0.5699723897089157  0.1120802333820237  0.7593319004187578
  0.4446674225298679  0.2251972778472577  0.5003169169823920
  0.7852494247647641  0.5439761039864521  0.5047667128635283
  0.5486197477489156  0.4595607075711570  0.2458843585963422
  0.7839113589137767  0.5394457713061911  0.9835438352997201
  0.8793302074130764  0.7865145576558987  0.7616097219818414
  0.2151512552049368  0.7670732715292701  0.7504814685781795
  0.1051183130539073  0.8872678413987458  0.4698855737706609
  0.8804744236690851  0.7826649573922069  0.2233365440517261
  0.4513126140745314  0.8783907694856268  0.4809150142965777
 
  0.00000000E+00  0.00000000E+00  0.00000000E+00
  0.00000000E+00  0.00000000E+00  0.00000000E+00
  0.00000000E+00  0.00000000E+00  0.00000000E+00
  0.00000000E+00  0.00000000E+00  0.00000000E+00
  0.00000000E+00  0.00000000E+00  0.00000000E+00
  0.00000000E+00  0.00000000E+00  0.00000000E+00
  0.00000000E+00  0.00000000E+00  0.00000000E+00
  0.00000000E+00  0.00000000E+00  0.00000000E+00
  0.00000000E+00  0.00000000E+00  0.00000000E+00
  0.00000000E+00  0.00000000E+00  0.00000000E+00
  0.00000000E+00  0.00000000E+00  0.00000000E+00
  0.00000000E+00  0.00000000E+00  0.00000000E+00
  0.00000000E+00  0.00000000E+00  0.00000000E+00
  0.00000000E+00  0.00000000E+00  0.00000000E+00
  0.00000000E+00  0.00000000E+00  0.00000000E+00
  0.00000000E+00  0.00000000E+00  0.00000000E+00
  0.00000000E+00  0.00000000E+00  0.00000000E+00
  0.00000000E+00  0.00000000E+00  0.00000000E+00
  0.00000000E+00  0.00000000E+00  0.00000000E+00
  0.00000000E+00  0.00000000E+00  0.00000000E+00
  0.00000000E+00  0.00000000E+00  0.00000000E+00
  0.00000000E+00  0.00000000E+00  0.00000000E+00
  0.00000000E+00  0.00000000E+00  0.00000000E+00
  0.00000000E+00  0.00000000E+00  0.00000000E+00
  0.00000000E+00  0.00000000E+00  0.00000000E+00
  0.00000000E+00  0.00000000E+00  0.00000000E+00
  0.00000000E+00  0.00000000E+00  0.00000000E+00
  0.00000000E+00  0.00000000E+00  0.00000000E+00
  0.00000000E+00  0.00000000E+00  0.00000000E+00
  0.00000000E+00  0.00000000E+00  0.00000000E+00
  0.00000000E+00  0.00000000E+00  0.00000000E+00
  0.00000000E+00  0.00000000E+00  0.00000000E+00
  0.00000000E+00  0.00000000E+00  0.00000000E+00
  0.00000000E+00  0.00000000E+00  0.00000000E+00
  0.00000000E+00  0.00000000E+00  0.00000000E+00
  0.00000000E+00  0.00000000E+00  0.00000000E+00
  0.00000000E+00  0.00000000E+00  0.00000000E+00
  0.00000000E+00  0.00000000E+00  0.00000000E+00
  0.00000000E+00  0.00000000E+00  0.00000000E+00
  0.00000000E+00  0.00000000E+00  0.00000000E+00
  0.00000000E+00  0.00000000E+00  0.00000000E+00
  0.00000000E+00  0.00000000E+00  0.00000000E+00
  0.00000000E+00  0.00000000E+00  0.00000000E+00
  0.00000000E+00  0.00000000E+00  0.00000000E+00
  0.00000000E+00  0.00000000E+00  0.00000000E+00
  0.00000000E+00  0.00000000E+00  0.00000000E+00
  0.00000000E+00  0.00000000E+00  0.00000000E+00
  0.00000000E+00  0.00000000E+00  0.00000000E+00
  0.00000000E+00  0.00000000E+00  0.00000000E+00
  0.00000000E+00  0.00000000E+00  0.00000000E+00
  0.00000000E+00  0.00000000E+00  0.00000000E+00
  0.00000000E+00  0.00000000E+00  0.00000000E+00
  0.00000000E+00  0.00000000E+00  0.00000000E+00
  0.00000000E+00  0.00000000E+00  0.00000000E+00
  0.00000000E+00  0.00000000E+00  0.00000000E+00
  0.00000000E+00  0.00000000E+00  0.00000000E+00
  0.00000000E+00  0.00000000E+00  0.00000000E+00
  0.00000000E+00  0.00000000E+00  0.00000000E+00
  0.00000000E+00  0.00000000E+00  0.00000000E+00
  0.00000000E+00  0.00000000E+00  0.00000000E+00
  0.00000000E+00  0.00000000E+00  0.00000000E+00
  0.00000000E+00  0.00000000E+00  0.00000000E+00
  0.00000000E+00  0.00000000E+00  0.00000000E+00
  0.00000000E+00  0.00000000E+00  0.00000000E+00
  0.00000000E+00  0.00000000E+00  0.00000000E+00
  0.00000000E+00  0.00000000E+00  0.00000000E+00
  0.00000000E+00  0.00000000E+00  0.00000000E+00
  0.00000000E+00  0.00000000E+00  0.00000000E+00
  0.00000000E+00  0.00000000E+00  0.00000000E+00
  0.00000000E+00  0.00000000E+00  0.00000000E+00
  0.00000000E+00  0.00000000E+00  0.00000000E+00
  0.00000000E+00  0.00000000E+00  0.00000000E+00
