supercell of icsd_181358.cif            
   1.00000000000000     
     9.7121004820119712   -0.0000091973803903   -0.0000006800435509
    -4.8560581996591363    8.3926551901206565    0.0141338776507532
    -0.0000006935435579    0.0179413593715327   10.3975479097992896
   N    Ga   La
    36    34     2
Direct
  0.2182577812117330  0.1067666733176793  0.4389399299808332
  0.1102631559595224  0.2205262565876325  0.1892984581794224
  0.8918543835116921  0.1159540825775167  0.9354447528632761
  0.7787859155842582  0.2261555160357105  0.6870863813929802
  0.5566951492792924  0.1133905222498797  0.4380262788205869
  0.4430499924657951  0.2186840843145035  0.1861791604665584
  0.2240991725653245  0.1159533810021927  0.9354448583969628
  0.1120354502589791  0.2240696398706561  0.6864517837065591
  0.8885091484301668  0.1067676355184801  0.4389400113919493
  0.7756335956034022  0.2186845291591837  0.1861794977417759
  0.5558570724536764  0.1117149582603716  0.9372780861901262
  0.4473696475155151  0.2261549300334735  0.6870866363601138
  0.2216782400831292  0.4433563122595743  0.4376236049892839
  0.1148271811463459  0.5587940366397461  0.1870069095377076
  0.8936712686527599  0.4414124709543756  0.9445527023088971
  0.7787712251979784  0.5575421859866054  0.7331511908407151
  0.5168589289777543  0.4250625830648715  0.4262730450090046
  0.4439675306809505  0.5587938691991283  0.1870071397867932
  0.2224279263270148  0.4448561966999307  0.9374689297070518
  0.1110186019422414  0.5563911298558253  0.6876863507271551
  0.9082040754367000  0.4250631822451183  0.4262727252655125
  0.7593762801557418  0.5187523431433760  0.1831596873243839
  0.5477405529733161  0.4414131328481758  0.9445528212592791
  0.4453733028482958  0.5563914323317363  0.6876865150353666
  0.2210711938270649  0.7774898764738793  0.4402395475879501
  0.1518694103733296  0.9089951326216408  0.1774646286375372
  0.8915638204827943  0.7831282931304528  0.9558415483986877
  0.7773150820365800  0.8918055793913737  0.6968864184278161
  0.5564185940654696  0.7774897279288950  0.4402398666010541
  0.4448433301626693  0.8896861450026066  0.1888841513414263
  0.2251811448904064  0.7772310088756171  0.9356154952891274
  0.1144907776791513  0.8918044978495203  0.6968862027556710
  0.8984635336050175  0.7969276088166950  0.4609288583232853
  0.7571257187928069  0.9089954689225053  0.1774646718331638
  0.5520499530941692  0.7772317617376032  0.9356155271823781
  0.4456479293671336  0.8912951472375212  0.6868620513359787
  0.2294299884744504  0.1155520499448102  0.2498286110931005
  0.1116428012422759  0.2232852824954676  0.9992721380650735
  0.8910588181616390  0.1157174427817722  0.7489383128745644
  0.7807383825861649  0.2157689601059118  0.4973705445703089
  0.5557657586110878  0.1115332903658626  0.2476840190740646
  0.4425925835483540  0.2197110201020607  0.0003563662488659
  0.2246578797112093  0.1157158287237721  0.7489385520779663
  0.1105994072492678  0.2211976701624039  0.4973942461291969
  0.8861213903517822  0.1155530120115316  0.2498287790051990
  0.7771178192216937  0.2197096741990734  0.0003567050786799
  0.5565167267051834  0.1130331985780302  0.7483723010826324
  0.4350307212919517  0.2157684155075046  0.4973706020643505
  0.2223962101258365  0.4447924514201205  0.2496136306513179
  0.1150810626160350  0.5573686643911202  0.9999830358301338
  0.8937843884748631  0.4437774325531763  0.7598435799489209
  0.5434248239324830  0.4346736735547481  0.2423519311135891
  0.4422876353954095  0.5573694102170350  0.9999831978859888
  0.2225634860862442  0.4451270870698707  0.7486729446600151
  0.1155105970801529  0.5528280083048003  0.4976541217821548
  0.8912493946815445  0.4346746424425803  0.2423514756725709
  0.7730458617859171  0.5460922769355960  0.9924921201392749
  0.5499922500008552  0.4437763186498103  0.7598436615803834
  0.4373176707407893  0.5528271308289732  0.4976547931065483
  0.2297361297148939  0.7804811064284323  0.2498075031267248
  0.1243906626722548  0.8962223563452412  0.9944540723895017
  0.8920434725117872  0.7840873096089425  0.7619655740496327
  0.7781623766944676  0.8925577537701130  0.5080983751585748
  0.5507445387080878  0.7804804433540227  0.2498081557214675
  0.4447720128165926  0.8895441698220452  0.0000793763984532
  0.2248009611989872  0.7784353121413545  0.7489131850408839
  0.1143949614034057  0.8925566650244292  0.5080981701167104
  0.7718324116794193  0.8962232576039142  0.9944539848303506
  0.5536350391668847  0.7784357641862414  0.7489132113032824
  0.4448510996037811  0.8897012578139325  0.4988459002718386
  0.7684754652782004  0.5369502020478905  0.5083062967622922
  0.8918691428378267  0.7837401283633483  0.2343741000990391
 
  0.00000000E+00  0.00000000E+00  0.00000000E+00
  0.00000000E+00  0.00000000E+00  0.00000000E+00
  0.00000000E+00  0.00000000E+00  0.00000000E+00
  0.00000000E+00  0.00000000E+00  0.00000000E+00
  0.00000000E+00  0.00000000E+00  0.00000000E+00
  0.00000000E+00  0.00000000E+00  0.00000000E+00
  0.00000000E+00  0.00000000E+00  0.00000000E+00
  0.00000000E+00  0.00000000E+00  0.00000000E+00
  0.00000000E+00  0.00000000E+00  0.00000000E+00
  0.00000000E+00  0.00000000E+00  0.00000000E+00
  0.00000000E+00  0.00000000E+00  0.00000000E+00
  0.00000000E+00  0.00000000E+00  0.00000000E+00
  0.00000000E+00  0.00000000E+00  0.00000000E+00
  0.00000000E+00  0.00000000E+00  0.00000000E+00
  0.00000000E+00  0.00000000E+00  0.00000000E+00
  0.00000000E+00  0.00000000E+00  0.00000000E+00
  0.00000000E+00  0.00000000E+00  0.00000000E+00
  0.00000000E+00  0.00000000E+00  0.00000000E+00
  0.00000000E+00  0.00000000E+00  0.00000000E+00
  0.00000000E+00  0.00000000E+00  0.00000000E+00
  0.00000000E+00  0.00000000E+00  0.00000000E+00
  0.00000000E+00  0.00000000E+00  0.00000000E+00
  0.00000000E+00  0.00000000E+00  0.00000000E+00
  0.00000000E+00  0.00000000E+00  0.00000000E+00
  0.00000000E+00  0.00000000E+00  0.00000000E+00
  0.00000000E+00  0.00000000E+00  0.00000000E+00
  0.00000000E+00  0.00000000E+00  0.00000000E+00
  0.00000000E+00  0.00000000E+00  0.00000000E+00
  0.00000000E+00  0.00000000E+00  0.00000000E+00
  0.00000000E+00  0.00000000E+00  0.00000000E+00
  0.00000000E+00  0.00000000E+00  0.00000000E+00
  0.00000000E+00  0.00000000E+00  0.00000000E+00
  0.00000000E+00  0.00000000E+00  0.00000000E+00
  0.00000000E+00  0.00000000E+00  0.00000000E+00
  0.00000000E+00  0.00000000E+00  0.00000000E+00
  0.00000000E+00  0.00000000E+00  0.00000000E+00
  0.00000000E+00  0.00000000E+00  0.00000000E+00
  0.00000000E+00  0.00000000E+00  0.00000000E+00
  0.00000000E+00  0.00000000E+00  0.00000000E+00
  0.00000000E+00  0.00000000E+00  0.00000000E+00
  0.00000000E+00  0.00000000E+00  0.00000000E+00
  0.00000000E+00  0.00000000E+00  0.00000000E+00
  0.00000000E+00  0.00000000E+00  0.00000000E+00
  0.00000000E+00  0.00000000E+00  0.00000000E+00
  0.00000000E+00  0.00000000E+00  0.00000000E+00
  0.00000000E+00  0.00000000E+00  0.00000000E+00
  0.00000000E+00  0.00000000E+00  0.00000000E+00
  0.00000000E+00  0.00000000E+00  0.00000000E+00
  0.00000000E+00  0.00000000E+00  0.00000000E+00
  0.00000000E+00  0.00000000E+00  0.00000000E+00
  0.00000000E+00  0.00000000E+00  0.00000000E+00
  0.00000000E+00  0.00000000E+00  0.00000000E+00
  0.00000000E+00  0.00000000E+00  0.00000000E+00
  0.00000000E+00  0.00000000E+00  0.00000000E+00
  0.00000000E+00  0.00000000E+00  0.00000000E+00
  0.00000000E+00  0.00000000E+00  0.00000000E+00
  0.00000000E+00  0.00000000E+00  0.00000000E+00
  0.00000000E+00  0.00000000E+00  0.00000000E+00
  0.00000000E+00  0.00000000E+00  0.00000000E+00
  0.00000000E+00  0.00000000E+00  0.00000000E+00
  0.00000000E+00  0.00000000E+00  0.00000000E+00
  0.00000000E+00  0.00000000E+00  0.00000000E+00
  0.00000000E+00  0.00000000E+00  0.00000000E+00
  0.00000000E+00  0.00000000E+00  0.00000000E+00
  0.00000000E+00  0.00000000E+00  0.00000000E+00
  0.00000000E+00  0.00000000E+00  0.00000000E+00
  0.00000000E+00  0.00000000E+00  0.00000000E+00
  0.00000000E+00  0.00000000E+00  0.00000000E+00
  0.00000000E+00  0.00000000E+00  0.00000000E+00
  0.00000000E+00  0.00000000E+00  0.00000000E+00
  0.00000000E+00  0.00000000E+00  0.00000000E+00
  0.00000000E+00  0.00000000E+00  0.00000000E+00
