supercell of icsd_608626.cif            
   1.11267248002495     
     9.0614215259851090   -0.0341134535254627    0.2602776033487388
    -4.5596567923152627    8.0900776331905515    0.2618637258451549
     0.2768668682528858    0.4661394532934571    9.7864137324122566
   La   Al   N 
    12    24    36
Direct
  0.2628597928749912  0.1506473546247591  0.2273729047669590
  0.6994506760763670  0.1683826642780986  0.0038447539072450
  0.4764961061773576  0.2660333322192301  0.4863007085784474
  0.0548749864974241  0.2033347624544177  0.0080641898428695
  0.1318947910853154  0.5532360420534772  0.4830672907498865
  0.9416745109938205  0.4833044945299676  0.1984480742143973
  0.7158495915298317  0.8002060721155573  0.0160809542623568
  0.2135870479454383  0.7789151806123655  0.7344180967026688
  0.0598349073161728  0.8452525129404904  0.9908221865480868
  0.8846809364102981  0.7691053905764420  0.2961033881149078
  0.5610087359607334  0.7574584240474991  0.7194830367993177
  0.3661972675735896  0.7889259673705453  0.0495565797037258
  0.1335741723986317  0.2390093259834458  0.5072284995916050
  0.8784372177302302  0.1084916650982279  0.7396413118776550
  0.6043386887054467  0.1460746513271900  0.2829215977382802
  0.2019562800300392  0.1151724501364129  0.7474759507889104
  0.9193222852188612  0.1672057272919787  0.2942353901699661
  0.7895234041228747  0.2384765815522840  0.5146226034842556
  0.5415621933140784  0.0967153227934858  0.7470463744227018
  0.4072324218778434  0.1917180373063729  0.9035571210691202
  0.2644481893968660  0.4647466522170873  0.2595964344331563
  0.8524483375900047  0.4090820416878387  0.7381691103238381
  0.7457800826468031  0.5269487261576273  0.9486187485592836
  0.5872665384379872  0.4746575219935920  0.2272406043700030
  0.4678567465247809  0.5672484714665273  0.4859298928063822
  0.2194113898427190  0.4154033791539433  0.7357527505454087
  0.0711399229724989  0.5043771168129041  0.8930932013362352
  0.7873450409006111  0.5596853543781677  0.5154236566010937
  0.5388524744639653  0.4206508862922576  0.7395309684497278
  0.4122195065317484  0.4985703948965750  0.9840057354089566
  0.2711220298727426  0.8256770265216318  0.2963612164614133
  0.1290486238678596  0.9210515542340900  0.5176255205003883
  0.8972940515023993  0.8110338814631106  0.7032563358273762
  0.6026916149860355  0.8800049246888975  0.3279194864404786
  0.4584312699124027  0.9167129387891464  0.5144129179126011
  0.8531862760592688  0.9641366413481194  0.4920848228037329
  0.2007640897577332  0.1126198048843108  0.4485357971602681
  0.1129302895770579  0.2781460106593556  0.2137140328185367
  0.8300819987320693  0.0545695410834028  0.9142076650360380
  0.7620585538254900  0.2104021863046910  0.6958493378545327
  0.6012143200386788  0.1120388808883632  0.4527498431032413
  0.5224372251682112  0.2699109228270871  0.2562039356938541
  0.1993054954734461  0.1061974740762892  0.9266710628910459
  0.1052406502907601  0.2215992830858013  0.6894640439961464
  0.9328857801241526  0.1787260173508614  0.4655808243867412
  0.8023074354446749  0.2235857325257200  0.2044089338157136
  0.4693070049106893  0.0507590979885748  0.9204894106344383
  0.4268725676885978  0.2075618456297121  0.7227946034538419
  0.2787612296552098  0.4313752630342691  0.4327029130819895
  0.2078348612467309  0.6213764053828115  0.2564258417904242
  0.8547330186498456  0.4212434471435174  0.9153487542981651
  0.7380534444359981  0.4938598881636551  0.6778917831736919
  0.6270652035802868  0.5396743981213419  0.4056157428124578
  0.4368328044339975  0.5042663138844645  0.1564444844174204
  0.2162933076639817  0.4361111625261032  0.9082770477956430
  0.0818571774249648  0.5042820676957831  0.7166068390561335
  0.8701560512637627  0.4462571860768136  0.4445764542583959
  0.7778786737705801  0.5929435161334737  0.1225100063739788
  0.5263242390307568  0.4051887855175664  0.9184994649800657
  0.4278237801964195  0.5001444223305711  0.6613771086218208
  0.2534191321058472  0.8387837597393499  0.4714163168999264
  0.1441002773721110  0.8759922091633783  0.2060109931662950
  0.8280279193540778  0.7217409032164284  0.8666967324423851
  0.8165061907923743  0.9343083062430608  0.6596245320966645
  0.5107156714822594  0.7678159745917910  0.4730368772148736
  0.4916599930688506  0.9421619538906612  0.2352105723632505
  0.1453585078795427  0.6872446736278306  0.9509782854498141
  0.1094694190928109  0.9262798481815082  0.6940919157963137
  0.9122827166237286  0.7821576266029098  0.5131824670971454
  0.8100960667798489  0.9508795833693640  0.3162310928241538
  0.5016881017469217  0.7036147704208418  0.9338784848980097
  0.4647586919695073  0.9185272662246220  0.6813833821331698
 
  0.00000000E+00  0.00000000E+00  0.00000000E+00
  0.00000000E+00  0.00000000E+00  0.00000000E+00
  0.00000000E+00  0.00000000E+00  0.00000000E+00
  0.00000000E+00  0.00000000E+00  0.00000000E+00
  0.00000000E+00  0.00000000E+00  0.00000000E+00
  0.00000000E+00  0.00000000E+00  0.00000000E+00
  0.00000000E+00  0.00000000E+00  0.00000000E+00
  0.00000000E+00  0.00000000E+00  0.00000000E+00
  0.00000000E+00  0.00000000E+00  0.00000000E+00
  0.00000000E+00  0.00000000E+00  0.00000000E+00
  0.00000000E+00  0.00000000E+00  0.00000000E+00
  0.00000000E+00  0.00000000E+00  0.00000000E+00
  0.00000000E+00  0.00000000E+00  0.00000000E+00
  0.00000000E+00  0.00000000E+00  0.00000000E+00
  0.00000000E+00  0.00000000E+00  0.00000000E+00
  0.00000000E+00  0.00000000E+00  0.00000000E+00
  0.00000000E+00  0.00000000E+00  0.00000000E+00
  0.00000000E+00  0.00000000E+00  0.00000000E+00
  0.00000000E+00  0.00000000E+00  0.00000000E+00
  0.00000000E+00  0.00000000E+00  0.00000000E+00
  0.00000000E+00  0.00000000E+00  0.00000000E+00
  0.00000000E+00  0.00000000E+00  0.00000000E+00
  0.00000000E+00  0.00000000E+00  0.00000000E+00
  0.00000000E+00  0.00000000E+00  0.00000000E+00
  0.00000000E+00  0.00000000E+00  0.00000000E+00
  0.00000000E+00  0.00000000E+00  0.00000000E+00
  0.00000000E+00  0.00000000E+00  0.00000000E+00
  0.00000000E+00  0.00000000E+00  0.00000000E+00
  0.00000000E+00  0.00000000E+00  0.00000000E+00
  0.00000000E+00  0.00000000E+00  0.00000000E+00
  0.00000000E+00  0.00000000E+00  0.00000000E+00
  0.00000000E+00  0.00000000E+00  0.00000000E+00
  0.00000000E+00  0.00000000E+00  0.00000000E+00
  0.00000000E+00  0.00000000E+00  0.00000000E+00
  0.00000000E+00  0.00000000E+00  0.00000000E+00
  0.00000000E+00  0.00000000E+00  0.00000000E+00
  0.00000000E+00  0.00000000E+00  0.00000000E+00
  0.00000000E+00  0.00000000E+00  0.00000000E+00
  0.00000000E+00  0.00000000E+00  0.00000000E+00
  0.00000000E+00  0.00000000E+00  0.00000000E+00
  0.00000000E+00  0.00000000E+00  0.00000000E+00
  0.00000000E+00  0.00000000E+00  0.00000000E+00
  0.00000000E+00  0.00000000E+00  0.00000000E+00
  0.00000000E+00  0.00000000E+00  0.00000000E+00
  0.00000000E+00  0.00000000E+00  0.00000000E+00
  0.00000000E+00  0.00000000E+00  0.00000000E+00
  0.00000000E+00  0.00000000E+00  0.00000000E+00
  0.00000000E+00  0.00000000E+00  0.00000000E+00
  0.00000000E+00  0.00000000E+00  0.00000000E+00
  0.00000000E+00  0.00000000E+00  0.00000000E+00
  0.00000000E+00  0.00000000E+00  0.00000000E+00
  0.00000000E+00  0.00000000E+00  0.00000000E+00
  0.00000000E+00  0.00000000E+00  0.00000000E+00
  0.00000000E+00  0.00000000E+00  0.00000000E+00
  0.00000000E+00  0.00000000E+00  0.00000000E+00
  0.00000000E+00  0.00000000E+00  0.00000000E+00
  0.00000000E+00  0.00000000E+00  0.00000000E+00
  0.00000000E+00  0.00000000E+00  0.00000000E+00
  0.00000000E+00  0.00000000E+00  0.00000000E+00
  0.00000000E+00  0.00000000E+00  0.00000000E+00
  0.00000000E+00  0.00000000E+00  0.00000000E+00
  0.00000000E+00  0.00000000E+00  0.00000000E+00
  0.00000000E+00  0.00000000E+00  0.00000000E+00
  0.00000000E+00  0.00000000E+00  0.00000000E+00
  0.00000000E+00  0.00000000E+00  0.00000000E+00
  0.00000000E+00  0.00000000E+00  0.00000000E+00
  0.00000000E+00  0.00000000E+00  0.00000000E+00
  0.00000000E+00  0.00000000E+00  0.00000000E+00
  0.00000000E+00  0.00000000E+00  0.00000000E+00
  0.00000000E+00  0.00000000E+00  0.00000000E+00
  0.00000000E+00  0.00000000E+00  0.00000000E+00
  0.00000000E+00  0.00000000E+00  0.00000000E+00
