supercell of 100% icsd_608626.cif, 0% i 
   1.00000000000000     
    -9.4776574139775427    0.0010787548984794   -0.0008573958672240
    -4.7397664991410515    8.2245256900630164   -0.0052361265922790
    -0.0009200580565776    0.0059243090987531  -10.1072637343864642
   Al   Zr   Ca   N 
    34     1     1    36
Direct
  0.1159189911912151  0.0913200799377378  0.2896769015098144
  0.2214865521611458  0.2067976480397888  0.0448337538214290
  0.7794616777922769  0.0896838774685378  0.8060176693875079
  0.4448967533321095  0.0928313431530867  0.2881753547742463
  0.5534536197431521  0.2067115706989142  0.0472668742437889
  0.1166287077436650  0.0914953258356874  0.8012192466888450
  0.2266820217624357  0.2013244502314890  0.5467476002142888
  0.7772039666985862  0.0914336490489021  0.2820450643106014
  0.8902669347107590  0.2065078366263648  0.0430735634141683
  0.4425553729896876  0.0914087917826549  0.7992271382890479
  0.1121404321738453  0.4270289849805451  0.2966639480997983
  0.2202893376662374  0.5400626163549020  0.0450929747554270
  0.7739672510499744  0.4356531298387480  0.8022581238790281
  0.8883494351230041  0.5449913985691097  0.5458948176365439
  0.4439935987375918  0.4285644109226681  0.2884395022684316
  0.5537519074095840  0.5417737750016371  0.0452148124238434
  0.1113679536497045  0.4277494989257704  0.7959959668961574
  0.2214532229919541  0.5422192598992908  0.5468917424620443
  0.7756032778688464  0.4317107414085442  0.2897479008694646
  0.8901099069128620  0.5401064867704619  0.0458644397213064
  0.4411912654012298  0.4338180603543833  0.7988467044893000
  0.5471015160682811  0.5489855717429961  0.5467547633929257
  0.1118282336592031  0.7600023319908971  0.2960302451662216
  0.2234034946170880  0.8698648963098918  0.0455211792551324
  0.7778595567642128  0.7614150829594379  0.7959387850791515
  0.8929483053326237  0.8649706034442630  0.5453737517350561
  0.4448602479610599  0.7612913113005177  0.2961812375715596
  0.5562882654410970  0.8700745558611160  0.0452635312411971
  0.1110561761123421  0.7599393748925252  0.7947758224465815
  0.2272587775568198  0.8656363832593001  0.5465766011539301
  0.7770929015443926  0.7615223047430533  0.2961637204454277
  0.8914554142195144  0.8680632444460485  0.0450486221304445
  0.4449179243470880  0.7613099931495739  0.7948283919918495
  0.5530080899255267  0.8712411500977026  0.5471014703999089
  0.8898179674264384  0.2073848040565238  0.5497984091955814
  0.5494795598883400  0.2066792833302173  0.5455833496667850
  0.2229949278533354  0.2039581977672853  0.3544038420818652
  0.1125621304011020  0.0930340600025303  0.1011112226163746
  0.8897722539228212  0.2085811094170964  0.8507465321268981
  0.8009991825197815  0.0693274533944503  0.6211870780336994
  0.5565156104946993  0.2049767002649787  0.3224695265197397
  0.4426397465444509  0.0918048235312270  0.0990168700484375
  0.2199724004126651  0.2080931929069507  0.8573016129639726
  0.1280310646623306  0.0831227152623484  0.6110628185216100
  0.8890618212541881  0.2044941862076897  0.3389074450284397
  0.7816591901683623  0.0917455595687215  0.0935529235053707
  0.5534053152279981  0.2070461328376325  0.8533288786522917
  0.4308322507030482  0.0772427341914153  0.6163742494002520
  0.2233533056897059  0.5378550391001511  0.3549417386816316
  0.1112096383169927  0.4274950755578857  0.1065203432747168
  0.8902257294563327  0.5404763290486869  0.8562521500848348
  0.7658905709841406  0.4508870005273451  0.6123299407104454
  0.5561560156492078  0.5380197551086212  0.3541632848304914
  0.4419969510340707  0.4321167211921022  0.0991894146518888
  0.2187438640614943  0.5401912054963915  0.8565212152445838
  0.1112274810137848  0.4260702065803059  0.6038418202044866
  0.8887509080876583  0.5381642782976144  0.3551892260214302
  0.7775661951597428  0.4291023282509059  0.1012644005992342
  0.5545326701980500  0.5423180170833533  0.8582087744317093
  0.4290744624258735  0.4597534279060937  0.6151820395115593
  0.2220139563551129  0.8723089148639076  0.3552193313237524
  0.1117290156034727  0.7605753537621709  0.1063122476726832
  0.8915321817622299  0.8670657895893683  0.8577036604195101
  0.7771700795235361  0.7622576282713496  0.6045773682209941
  0.5554024767397934  0.8727774108715778  0.3547383595837061
  0.4440942730570328  0.7614716926388780  0.1066313258747513
  0.2230096961649295  0.8699777765340642  0.8556226923868024
  0.1103710754027105  0.7608495921125140  0.6039433216030332
  0.8885082839479992  0.8732376196699008  0.3536208944690173
  0.7780073111933348  0.7606290815233763  0.1065085174264411
  0.5577610189555244  0.8687019524060702  0.8569591948512212
  0.4440783270786213  0.7626971108217973  0.6049617573951878
 
  0.00000000E+00  0.00000000E+00  0.00000000E+00
  0.00000000E+00  0.00000000E+00  0.00000000E+00
  0.00000000E+00  0.00000000E+00  0.00000000E+00
  0.00000000E+00  0.00000000E+00  0.00000000E+00
  0.00000000E+00  0.00000000E+00  0.00000000E+00
  0.00000000E+00  0.00000000E+00  0.00000000E+00
  0.00000000E+00  0.00000000E+00  0.00000000E+00
  0.00000000E+00  0.00000000E+00  0.00000000E+00
  0.00000000E+00  0.00000000E+00  0.00000000E+00
  0.00000000E+00  0.00000000E+00  0.00000000E+00
  0.00000000E+00  0.00000000E+00  0.00000000E+00
  0.00000000E+00  0.00000000E+00  0.00000000E+00
  0.00000000E+00  0.00000000E+00  0.00000000E+00
  0.00000000E+00  0.00000000E+00  0.00000000E+00
  0.00000000E+00  0.00000000E+00  0.00000000E+00
  0.00000000E+00  0.00000000E+00  0.00000000E+00
  0.00000000E+00  0.00000000E+00  0.00000000E+00
  0.00000000E+00  0.00000000E+00  0.00000000E+00
  0.00000000E+00  0.00000000E+00  0.00000000E+00
  0.00000000E+00  0.00000000E+00  0.00000000E+00
  0.00000000E+00  0.00000000E+00  0.00000000E+00
  0.00000000E+00  0.00000000E+00  0.00000000E+00
  0.00000000E+00  0.00000000E+00  0.00000000E+00
  0.00000000E+00  0.00000000E+00  0.00000000E+00
  0.00000000E+00  0.00000000E+00  0.00000000E+00
  0.00000000E+00  0.00000000E+00  0.00000000E+00
  0.00000000E+00  0.00000000E+00  0.00000000E+00
  0.00000000E+00  0.00000000E+00  0.00000000E+00
  0.00000000E+00  0.00000000E+00  0.00000000E+00
  0.00000000E+00  0.00000000E+00  0.00000000E+00
  0.00000000E+00  0.00000000E+00  0.00000000E+00
  0.00000000E+00  0.00000000E+00  0.00000000E+00
  0.00000000E+00  0.00000000E+00  0.00000000E+00
  0.00000000E+00  0.00000000E+00  0.00000000E+00
  0.00000000E+00  0.00000000E+00  0.00000000E+00
  0.00000000E+00  0.00000000E+00  0.00000000E+00
  0.00000000E+00  0.00000000E+00  0.00000000E+00
  0.00000000E+00  0.00000000E+00  0.00000000E+00
  0.00000000E+00  0.00000000E+00  0.00000000E+00
  0.00000000E+00  0.00000000E+00  0.00000000E+00
  0.00000000E+00  0.00000000E+00  0.00000000E+00
  0.00000000E+00  0.00000000E+00  0.00000000E+00
  0.00000000E+00  0.00000000E+00  0.00000000E+00
  0.00000000E+00  0.00000000E+00  0.00000000E+00
  0.00000000E+00  0.00000000E+00  0.00000000E+00
  0.00000000E+00  0.00000000E+00  0.00000000E+00
  0.00000000E+00  0.00000000E+00  0.00000000E+00
  0.00000000E+00  0.00000000E+00  0.00000000E+00
  0.00000000E+00  0.00000000E+00  0.00000000E+00
  0.00000000E+00  0.00000000E+00  0.00000000E+00
  0.00000000E+00  0.00000000E+00  0.00000000E+00
  0.00000000E+00  0.00000000E+00  0.00000000E+00
  0.00000000E+00  0.00000000E+00  0.00000000E+00
  0.00000000E+00  0.00000000E+00  0.00000000E+00
  0.00000000E+00  0.00000000E+00  0.00000000E+00
  0.00000000E+00  0.00000000E+00  0.00000000E+00
  0.00000000E+00  0.00000000E+00  0.00000000E+00
  0.00000000E+00  0.00000000E+00  0.00000000E+00
  0.00000000E+00  0.00000000E+00  0.00000000E+00
  0.00000000E+00  0.00000000E+00  0.00000000E+00
  0.00000000E+00  0.00000000E+00  0.00000000E+00
  0.00000000E+00  0.00000000E+00  0.00000000E+00
  0.00000000E+00  0.00000000E+00  0.00000000E+00
  0.00000000E+00  0.00000000E+00  0.00000000E+00
  0.00000000E+00  0.00000000E+00  0.00000000E+00
  0.00000000E+00  0.00000000E+00  0.00000000E+00
  0.00000000E+00  0.00000000E+00  0.00000000E+00
  0.00000000E+00  0.00000000E+00  0.00000000E+00
  0.00000000E+00  0.00000000E+00  0.00000000E+00
  0.00000000E+00  0.00000000E+00  0.00000000E+00
  0.00000000E+00  0.00000000E+00  0.00000000E+00
  0.00000000E+00  0.00000000E+00  0.00000000E+00
