supercell of 100% icsd_608626.cif, 0% i 
   1.00000000000000     
    -9.4906573464513357    0.0085901260184277   -0.0043784744634958
    -4.7527643741127790    8.2170231971842060   -0.0052359472616046
    -0.0046703142657333    0.0037588780746102  -10.1072636155139310
   Al   Ca   Zr   N 
    34     1     1    36
Direct
  0.1066516939537863  0.0946732377389168  0.2967475741926506
  0.2211922738628544  0.2058364479691619  0.0466639555844992
  0.7770450818283337  0.0930295349172923  0.7952634514340673
  0.8907781347652062  0.2006309041470757  0.5492268983995601
  0.4449835055662277  0.1000081255878271  0.2958947356351302
  0.5562405119338152  0.2052814069274334  0.0461636607800457
  0.1118466889238050  0.0949504742464029  0.7948336250154995
  0.2219651848556268  0.2057842713663263  0.5459959627315030
  0.7803252869757102  0.0909165240565315  0.2971015510525490
  0.8884369046264169  0.2043942994903745  0.0381755994013986
  0.4432230258135021  0.0968827059569222  0.7958644750772876
  0.5554739231138939  0.2059410129258339  0.5459387861290423
  0.1118793679916337  0.4303400959379147  0.2968917079806133
  0.2215046093227713  0.5384975101045057  0.0460301754140744
  0.7798797629037892  0.4268314933815702  0.7972670362455929
  0.8921418012265079  0.5416762415868774  0.5488469291438776
  0.4403847913527699  0.4245857897333423  0.2953736469681019
  0.5561297702049046  0.5353032281629808  0.0320449857235019
  0.1130433685768679  0.4270186677049495  0.7950930308856599
  0.2222768847792764  0.5376624169137116  0.5447758322328653
  0.8893390032847677  0.5392253408146033  0.0384394183988732
  0.4418776287683102  0.4261847374088177  0.7950486591211359
  0.5538719645722949  0.5358114486434289  0.5560177206763015
  0.1060748561133948  0.7595623008865857  0.2965765978226855
  0.2174151352684390  0.8739051594128497  0.0396769110726112
  0.7795813269195833  0.7621927868325074  0.7952147366609665
  0.8884156612915675  0.8728946685867811  0.5448283653617167
  0.5577298954816357  0.8739806233333312  0.0397478879407061
  0.1099300085579245  0.7599349785538365  0.7955211705136378
  0.2167056248001629  0.8747901033979986  0.5512192618104734
  0.7862317461641695  0.7627546495056379  0.2967549720694009
  0.8884731484660549  0.8728183178204176  0.0461812572156504
  0.4430668067869661  0.7634406362881663  0.7930736301328949
  0.5593661446116371  0.8762869978365373  0.5522581159160680
  0.7838537537291757  0.4228260803779520  0.2955832305088535
  0.4435161302239337  0.7638692205611477  0.2997983302491463
  0.2221054354614722  0.2039652434093355  0.3538417769615023
  0.1103387724951546  0.0936192248489007  0.1044038337701281
  0.8906936692098455  0.2011109969903728  0.8490171023793707
  0.7755725809478804  0.0931296871294833  0.6069591088286188
  0.5561632350251173  0.2060946466473936  0.3545773479800545
  0.4445820147819433  0.0935818467372158  0.1051891294045859
  0.2221231132805883  0.2053714056548159  0.8565203257898304
  0.1133611776067056  0.0947317865733694  0.6073014553602292
  0.9025013123524843  0.1747423060140534  0.3663739845994272
  0.7779309613145386  0.0948464377600331  0.1047384835003911
  0.5553260288964736  0.2053024413189064  0.8565084290344984
  0.4431074772161665  0.0973686042916100  0.6062521653637205
  0.2229619270223822  0.5378878731533661  0.3539432973630312
  0.1099791950362601  0.4278755924949564  0.1049416985051224
  0.8913356634420495  0.5407808164870218  0.8491893901206922
  0.7799282292257459  0.4271178538960783  0.6033290725058791
  0.5323341771102150  0.5369932272052509  0.3711871357058314
  0.4448248033681352  0.4284122413877540  0.1036207265342242
  0.2216038850835247  0.5389710031819419  0.8563121782847389
  0.1145891903117189  0.4256018554601155  0.6065212716960175
  0.9042582506806127  0.5554954810536614  0.3651823511379817
  0.7768180715663249  0.4281585590047854  0.0724695606438601
  0.5516741996334176  0.5400705861200663  0.8435528982346909
  0.4418009867676460  0.4252643139288921  0.6077036425936200
  0.2053030255742172  0.8778205027008283  0.3610627774457384
  0.1113194467766974  0.7609897305457238  0.1052193458789077
  0.8892392315849094  0.8722327914233219  0.8566313252658375
  0.7788007109279391  0.7635176317532029  0.6082087771189819
  0.5674425892960215  0.8834448954094967  0.3623299408085572
  0.4442723232552126  0.7602216612130732  0.0889073843138632
  0.2207715742458944  0.8722624953862166  0.8511112237723140
  0.1103239165051519  0.7596542318164623  0.6056227097755453
  0.8892553019409206  0.8734427208095781  0.3549617613889140
  0.7771770814828400  0.7608428602085198  0.1041634444382353
  0.5557670657864691  0.8733348669906249  0.8512644139860015
  0.4435619671695434  0.7650191418770618  0.6007466440103286
 
  0.00000000E+00  0.00000000E+00  0.00000000E+00
  0.00000000E+00  0.00000000E+00  0.00000000E+00
  0.00000000E+00  0.00000000E+00  0.00000000E+00
  0.00000000E+00  0.00000000E+00  0.00000000E+00
  0.00000000E+00  0.00000000E+00  0.00000000E+00
  0.00000000E+00  0.00000000E+00  0.00000000E+00
  0.00000000E+00  0.00000000E+00  0.00000000E+00
  0.00000000E+00  0.00000000E+00  0.00000000E+00
  0.00000000E+00  0.00000000E+00  0.00000000E+00
  0.00000000E+00  0.00000000E+00  0.00000000E+00
  0.00000000E+00  0.00000000E+00  0.00000000E+00
  0.00000000E+00  0.00000000E+00  0.00000000E+00
  0.00000000E+00  0.00000000E+00  0.00000000E+00
  0.00000000E+00  0.00000000E+00  0.00000000E+00
  0.00000000E+00  0.00000000E+00  0.00000000E+00
  0.00000000E+00  0.00000000E+00  0.00000000E+00
  0.00000000E+00  0.00000000E+00  0.00000000E+00
  0.00000000E+00  0.00000000E+00  0.00000000E+00
  0.00000000E+00  0.00000000E+00  0.00000000E+00
  0.00000000E+00  0.00000000E+00  0.00000000E+00
  0.00000000E+00  0.00000000E+00  0.00000000E+00
  0.00000000E+00  0.00000000E+00  0.00000000E+00
  0.00000000E+00  0.00000000E+00  0.00000000E+00
  0.00000000E+00  0.00000000E+00  0.00000000E+00
  0.00000000E+00  0.00000000E+00  0.00000000E+00
  0.00000000E+00  0.00000000E+00  0.00000000E+00
  0.00000000E+00  0.00000000E+00  0.00000000E+00
  0.00000000E+00  0.00000000E+00  0.00000000E+00
  0.00000000E+00  0.00000000E+00  0.00000000E+00
  0.00000000E+00  0.00000000E+00  0.00000000E+00
  0.00000000E+00  0.00000000E+00  0.00000000E+00
  0.00000000E+00  0.00000000E+00  0.00000000E+00
  0.00000000E+00  0.00000000E+00  0.00000000E+00
  0.00000000E+00  0.00000000E+00  0.00000000E+00
  0.00000000E+00  0.00000000E+00  0.00000000E+00
  0.00000000E+00  0.00000000E+00  0.00000000E+00
  0.00000000E+00  0.00000000E+00  0.00000000E+00
  0.00000000E+00  0.00000000E+00  0.00000000E+00
  0.00000000E+00  0.00000000E+00  0.00000000E+00
  0.00000000E+00  0.00000000E+00  0.00000000E+00
  0.00000000E+00  0.00000000E+00  0.00000000E+00
  0.00000000E+00  0.00000000E+00  0.00000000E+00
  0.00000000E+00  0.00000000E+00  0.00000000E+00
  0.00000000E+00  0.00000000E+00  0.00000000E+00
  0.00000000E+00  0.00000000E+00  0.00000000E+00
  0.00000000E+00  0.00000000E+00  0.00000000E+00
  0.00000000E+00  0.00000000E+00  0.00000000E+00
  0.00000000E+00  0.00000000E+00  0.00000000E+00
  0.00000000E+00  0.00000000E+00  0.00000000E+00
  0.00000000E+00  0.00000000E+00  0.00000000E+00
  0.00000000E+00  0.00000000E+00  0.00000000E+00
  0.00000000E+00  0.00000000E+00  0.00000000E+00
  0.00000000E+00  0.00000000E+00  0.00000000E+00
  0.00000000E+00  0.00000000E+00  0.00000000E+00
  0.00000000E+00  0.00000000E+00  0.00000000E+00
  0.00000000E+00  0.00000000E+00  0.00000000E+00
  0.00000000E+00  0.00000000E+00  0.00000000E+00
  0.00000000E+00  0.00000000E+00  0.00000000E+00
  0.00000000E+00  0.00000000E+00  0.00000000E+00
  0.00000000E+00  0.00000000E+00  0.00000000E+00
  0.00000000E+00  0.00000000E+00  0.00000000E+00
  0.00000000E+00  0.00000000E+00  0.00000000E+00
  0.00000000E+00  0.00000000E+00  0.00000000E+00
  0.00000000E+00  0.00000000E+00  0.00000000E+00
  0.00000000E+00  0.00000000E+00  0.00000000E+00
  0.00000000E+00  0.00000000E+00  0.00000000E+00
  0.00000000E+00  0.00000000E+00  0.00000000E+00
  0.00000000E+00  0.00000000E+00  0.00000000E+00
  0.00000000E+00  0.00000000E+00  0.00000000E+00
  0.00000000E+00  0.00000000E+00  0.00000000E+00
  0.00000000E+00  0.00000000E+00  0.00000000E+00
  0.00000000E+00  0.00000000E+00  0.00000000E+00
