supercell of 100% icsd_608626.cif, 0% i 
   1.00000000000000     
    -9.4876547009110226   -0.0035191477279379    0.0035343540878792
    -4.7407796699336249    8.2112745399932763   -0.0000009299794930
     0.0037652038304853    0.0021749918189321  -10.1010914219127930
   Zr   Al   Ca   N 
     1    34     1    36
Direct
  0.1105503189304997  0.0947250196112392  0.2952318840123951
  0.2222496389018076  0.2062771081799042  0.0393720585228436
  0.7767912858188524  0.0934662951261345  0.7961362056162997
  0.8828250116024421  0.2085878717982226  0.5516103188363388
  0.4500607828251617  0.0942338813540431  0.2947678124506723
  0.5585104881722529  0.2057869849875686  0.0460107728097015
  0.1108494836220402  0.0945755024526918  0.7947771146574283
  0.2260103352431813  0.2060636896549752  0.5515612978719844
  0.7714979273116640  0.0945348554809584  0.2936808360260983
  0.8837101760291333  0.2081452093657603  0.0398066701696180
  0.4466990507795572  0.0936337833105085  0.7963316284927089
  0.5566938535268093  0.2038650720314976  0.5457922832707141
  0.1085237277327664  0.4300329107962995  0.2992384437303173
  0.7767909396758128  0.4297435215432657  0.7961362313367317
  0.8864926099119970  0.5400520659150558  0.5457875936610606
  0.4497244390124635  0.4251371262385533  0.2984253764626175
  0.5585102528720896  0.5357017336018401  0.0460106568298571
  0.1100108158166009  0.4294142460778687  0.7888786384054498
  0.2223868407772187  0.5388067632839437  0.5478190242552117
  0.7714976785188341  0.4339672489564350  0.2936809309863122
  0.8879351503312947  0.5354189442462243  0.0470651047443482
  0.4450389913326305  0.4274801221162932  0.7896600690913758
  0.5566931300763542  0.5394406778220997  0.5457923891123997
  0.1085237401422958  0.7614438114735975  0.2992383218711012
  0.2222493270606449  0.8714740415186597  0.0393722000587502
  0.7786959755827780  0.7606523935367449  0.7970780893062610
  0.8864926878491559  0.8734553837675634  0.5457877329053247
  0.4500607400028258  0.7557042101874103  0.2947677261594492
  0.5568736822359099  0.8715627251596274  0.0457670011816305
  0.1100108653344094  0.7605754292776865  0.7888789078155867
  0.2260098264135451  0.8679265460819181  0.5515612297344532
  0.7780272313825378  0.7609864454053721  0.2955706708843593
  0.8879350165740121  0.8766461670751724  0.0470650480146020
  0.4466988675500758  0.7596669984714453  0.7963317234933314
  0.5564120517388318  0.8717934948606754  0.5462709121043829
  0.2197241842339892  0.5401383057743132  0.0493966004895086
  0.2342355194276067  0.2105820614959839  0.3631355430560603
  0.1118485075721409  0.0940761452671381  0.0868431729706316
  0.8876977571563387  0.2061516597765163  0.8506016632630988
  0.7768963480006263  0.0937099715480727  0.6067488386150259
  0.5564362054551779  0.2030820579050925  0.3573570471439780
  0.4440159883089336  0.0947049276140106  0.1037058196003713
  0.2228034908155436  0.2066073786692897  0.8492062129921791
  0.1103221222579620  0.0948391503375063  0.6000212483842233
  0.8692379320433687  0.2153810758282191  0.3601674241188064
  0.7772952193661595  0.0953158203778059  0.1038815592978608
  0.5553822274131264  0.2062948987791202  0.8545460954324611
  0.4470267944799957  0.0926390156487855  0.6068468696872031
  0.2226120848497075  0.5386942274265607  0.3523564442621705
  0.0953472585149910  0.4078625661503850  0.1170941909966245
  0.8900713418901276  0.5383385111630687  0.8550843427418187
  0.7768956514303156  0.4293944357796633  0.6067488602581790
  0.5564359126155694  0.5404806712713111  0.3573571107684401
  0.4749101650221732  0.4125443390305961  0.1152044824595322
  0.2226558316441043  0.5386723443059083  0.8261689062614579
  0.1080143490358907  0.4278070522366733  0.5996805854139566
  0.8855509831915782  0.5401700759262980  0.3567337008867852
  0.7772949355928631  0.4273893203781327  0.1038816362265464
  0.5553818540442705  0.5383226356584956  0.8545460205468345
  0.4481936134884705  0.4259026343176515  0.5991094315493868
  0.2342354532249047  0.8551827366426679  0.3631355320109719
  0.0953469704715104  0.7967908737903215  0.1170941685936242
  0.8900713633805566  0.8715909729555449  0.8550843343096801
  0.7775116504768391  0.7612441949787012  0.6060080829002743
  0.5553059779334930  0.8723464470282920  0.3542705885745505
  0.4440158129623768  0.7612782302432350  0.1037057491451137
  0.2228033603832600  0.8705897122186599  0.8492064143469591
  0.1080142728443718  0.7641789050434511  0.5996808618931055
  0.8855511753930827  0.8742789523690817  0.3567338577847607
  0.7793902098430294  0.7603049061034497  0.1048141557424316
  0.5563983746162506  0.8718007161349135  0.8557326048894538
  0.4470261599308003  0.7603337890579098  0.6068469375041303
 
  0.00000000E+00  0.00000000E+00  0.00000000E+00
  0.00000000E+00  0.00000000E+00  0.00000000E+00
  0.00000000E+00  0.00000000E+00  0.00000000E+00
  0.00000000E+00  0.00000000E+00  0.00000000E+00
  0.00000000E+00  0.00000000E+00  0.00000000E+00
  0.00000000E+00  0.00000000E+00  0.00000000E+00
  0.00000000E+00  0.00000000E+00  0.00000000E+00
  0.00000000E+00  0.00000000E+00  0.00000000E+00
  0.00000000E+00  0.00000000E+00  0.00000000E+00
  0.00000000E+00  0.00000000E+00  0.00000000E+00
  0.00000000E+00  0.00000000E+00  0.00000000E+00
  0.00000000E+00  0.00000000E+00  0.00000000E+00
  0.00000000E+00  0.00000000E+00  0.00000000E+00
  0.00000000E+00  0.00000000E+00  0.00000000E+00
  0.00000000E+00  0.00000000E+00  0.00000000E+00
  0.00000000E+00  0.00000000E+00  0.00000000E+00
  0.00000000E+00  0.00000000E+00  0.00000000E+00
  0.00000000E+00  0.00000000E+00  0.00000000E+00
  0.00000000E+00  0.00000000E+00  0.00000000E+00
  0.00000000E+00  0.00000000E+00  0.00000000E+00
  0.00000000E+00  0.00000000E+00  0.00000000E+00
  0.00000000E+00  0.00000000E+00  0.00000000E+00
  0.00000000E+00  0.00000000E+00  0.00000000E+00
  0.00000000E+00  0.00000000E+00  0.00000000E+00
  0.00000000E+00  0.00000000E+00  0.00000000E+00
  0.00000000E+00  0.00000000E+00  0.00000000E+00
  0.00000000E+00  0.00000000E+00  0.00000000E+00
  0.00000000E+00  0.00000000E+00  0.00000000E+00
  0.00000000E+00  0.00000000E+00  0.00000000E+00
  0.00000000E+00  0.00000000E+00  0.00000000E+00
  0.00000000E+00  0.00000000E+00  0.00000000E+00
  0.00000000E+00  0.00000000E+00  0.00000000E+00
  0.00000000E+00  0.00000000E+00  0.00000000E+00
  0.00000000E+00  0.00000000E+00  0.00000000E+00
  0.00000000E+00  0.00000000E+00  0.00000000E+00
  0.00000000E+00  0.00000000E+00  0.00000000E+00
  0.00000000E+00  0.00000000E+00  0.00000000E+00
  0.00000000E+00  0.00000000E+00  0.00000000E+00
  0.00000000E+00  0.00000000E+00  0.00000000E+00
  0.00000000E+00  0.00000000E+00  0.00000000E+00
  0.00000000E+00  0.00000000E+00  0.00000000E+00
  0.00000000E+00  0.00000000E+00  0.00000000E+00
  0.00000000E+00  0.00000000E+00  0.00000000E+00
  0.00000000E+00  0.00000000E+00  0.00000000E+00
  0.00000000E+00  0.00000000E+00  0.00000000E+00
  0.00000000E+00  0.00000000E+00  0.00000000E+00
  0.00000000E+00  0.00000000E+00  0.00000000E+00
  0.00000000E+00  0.00000000E+00  0.00000000E+00
  0.00000000E+00  0.00000000E+00  0.00000000E+00
  0.00000000E+00  0.00000000E+00  0.00000000E+00
  0.00000000E+00  0.00000000E+00  0.00000000E+00
  0.00000000E+00  0.00000000E+00  0.00000000E+00
  0.00000000E+00  0.00000000E+00  0.00000000E+00
  0.00000000E+00  0.00000000E+00  0.00000000E+00
  0.00000000E+00  0.00000000E+00  0.00000000E+00
  0.00000000E+00  0.00000000E+00  0.00000000E+00
  0.00000000E+00  0.00000000E+00  0.00000000E+00
  0.00000000E+00  0.00000000E+00  0.00000000E+00
  0.00000000E+00  0.00000000E+00  0.00000000E+00
  0.00000000E+00  0.00000000E+00  0.00000000E+00
  0.00000000E+00  0.00000000E+00  0.00000000E+00
  0.00000000E+00  0.00000000E+00  0.00000000E+00
  0.00000000E+00  0.00000000E+00  0.00000000E+00
  0.00000000E+00  0.00000000E+00  0.00000000E+00
  0.00000000E+00  0.00000000E+00  0.00000000E+00
  0.00000000E+00  0.00000000E+00  0.00000000E+00
  0.00000000E+00  0.00000000E+00  0.00000000E+00
  0.00000000E+00  0.00000000E+00  0.00000000E+00
  0.00000000E+00  0.00000000E+00  0.00000000E+00
  0.00000000E+00  0.00000000E+00  0.00000000E+00
  0.00000000E+00  0.00000000E+00  0.00000000E+00
  0.00000000E+00  0.00000000E+00  0.00000000E+00
