supercell of 100% icsd_608626.cif, 0% i 
   1.00000000000000     
    -9.4926225651521730   -0.0002301586516148    0.0004921051568138
    -4.7461120033003859    8.2280136807712729   -0.0032573762594092
     0.0005238942325075    0.0043144202414312  -10.0851844986394106
   Al   Zr   Ca   N 
    34     1     1    36
Direct
  0.1109963001744134  0.0945407139344070  0.2970365217239959
  0.2232772690250400  0.2034975988878642  0.0458097133692874
  0.7778323492342096  0.0933402633335803  0.7937233197907574
  0.8897213255083543  0.2033555639516962  0.5474128615202787
  0.4442967302264265  0.0946581073293657  0.2971266647274646
  0.5573553299489404  0.1978383429301047  0.0440274879616638
  0.1123160901690525  0.0944053808180243  0.7935336470994585
  0.2191092838815294  0.2044576216581007  0.5466747494039552
  0.7782678977850779  0.0939187650271620  0.2967542210231215
  0.8950831937594046  0.1994974599848121  0.0445332337608662
  0.4436996708268381  0.0947555925522892  0.7946395048493002
  0.5597636434340032  0.2028675145235042  0.5463126379904040
  0.1112289678278771  0.4272948753613974  0.2901858964361494
  0.2169823621705760  0.5389021295905181  0.0454362735915907
  0.7818626707219138  0.4261647257469363  0.7885393990306966
  0.8883884245972027  0.5368023222624672  0.5469143838264685
  0.4416480124592397  0.4235381038303458  0.2955660534731450
  0.1085473349371497  0.4236788582166540  0.7981707859089795
  0.7856112758189653  0.4235683977320903  0.3027320946539547
  0.8934225348791571  0.5391818718685357  0.0447569137300050
  0.4479643337744008  0.4227420272810818  0.7921955978934676
  0.5588202173519861  0.5361768067763535  0.5439366805537134
  0.1105110927029713  0.7618824708291214  0.2901643682836195
  0.2170452627109682  0.8797037219148578  0.0446302635993732
  0.7780845135016961  0.7612507200396195  0.7952341549679005
  0.8874185693786316  0.8766274892263155  0.5467160630110612
  0.4405833955857545  0.7683369416683448  0.3028650631440399
  0.5553810892640598  0.8784505345943501  0.0449539063373479
  0.1074753981687735  0.7675339567949209  0.7982242821645329
  0.2170825321069856  0.8773133090480840  0.5467450246954968
  0.7785358711898525  0.7610186764692344  0.2973951931664374
  0.8872020853195508  0.8733543922070339  0.0455495253249083
  0.4422798361929239  0.7652603791029193  0.7898351124554992
  0.5565436156345953  0.8732113074260823  0.5463256734037714
  0.5574677120136471  0.5404620932389790  0.0536819114417568
  0.2178930246461306  0.5409566947524098  0.5502111396334897
  0.2219738380635476  0.2060814902289678  0.3537360969604038
  0.1110158491620723  0.0951534424035785  0.1063093075754651
  0.8888097097465604  0.2058933042229327  0.8534740558281513
  0.7770927402156929  0.0942308554825146  0.6043607009758674
  0.5564375186219834  0.2038893129755834  0.3546693399820029
  0.4445399167217445  0.0944088937108702  0.1062293254985178
  0.2244246948598700  0.2017924910189635  0.8573827965426233
  0.1115362926218850  0.0943239981136372  0.6043782170604430
  0.8900596163246419  0.2031372692989137  0.3566201260810757
  0.7780192957908767  0.0952753870908651  0.1050850902487994
  0.5568143218222588  0.2026571813347857  0.8556030016370357
  0.4438098540129047  0.0948561275388897  0.6041926385915914
  0.2203577598415265  0.5400772309044370  0.3272032877107520
  0.1106521499449258  0.4250559076760396  0.0994923469383764
  0.8849721005950570  0.5405228967035072  0.8566053632470840
  0.7773429810954795  0.4277943938729578  0.5996438410290921
  0.5558197041148389  0.5386529252517178  0.3447920133192213
  0.4386622120416135  0.4154750789545574  0.1036848178764487
  0.2224553458500083  0.5387113304807372  0.8506972927455507
  0.0940684506856186  0.4103966415042422  0.6159378135123745
  0.8909334898792594  0.5394636073606520  0.3552910228096522
  0.8000288641947719  0.4158819035785370  0.1116998751075684
  0.5570521947004892  0.5407883505311801  0.8457526966076259
  0.4752333066444905  0.4119104681533585  0.6096247549139093
  0.2196931929775019  0.8730952166572195  0.3552683040681117
  0.1103154834101758  0.7643286144632526  0.0986284091219432
  0.8852482145639229  0.8737328315072972  0.8574664383580952
  0.7784642593954061  0.7608398413589157  0.6044442030674801
  0.5567865226585909  0.8732597579185537  0.3563901421765223
  0.4336038993213620  0.7835132032356427  0.1118125888321586
  0.2247311204143188  0.8734888256902735  0.8563806219779764
  0.0936565999464918  0.7949385595870808  0.6157391277101070
  0.8895015484244340  0.8719953436994317  0.3535461052939866
  0.7769240871052929  0.7605929076157167  0.1055026244539405
  0.5553104936596540  0.8720139570976428  0.8540262882161258
  0.4439531536424255  0.7612247218670731  0.5997789999758396
 
  0.00000000E+00  0.00000000E+00  0.00000000E+00
  0.00000000E+00  0.00000000E+00  0.00000000E+00
  0.00000000E+00  0.00000000E+00  0.00000000E+00
  0.00000000E+00  0.00000000E+00  0.00000000E+00
  0.00000000E+00  0.00000000E+00  0.00000000E+00
  0.00000000E+00  0.00000000E+00  0.00000000E+00
  0.00000000E+00  0.00000000E+00  0.00000000E+00
  0.00000000E+00  0.00000000E+00  0.00000000E+00
  0.00000000E+00  0.00000000E+00  0.00000000E+00
  0.00000000E+00  0.00000000E+00  0.00000000E+00
  0.00000000E+00  0.00000000E+00  0.00000000E+00
  0.00000000E+00  0.00000000E+00  0.00000000E+00
  0.00000000E+00  0.00000000E+00  0.00000000E+00
  0.00000000E+00  0.00000000E+00  0.00000000E+00
  0.00000000E+00  0.00000000E+00  0.00000000E+00
  0.00000000E+00  0.00000000E+00  0.00000000E+00
  0.00000000E+00  0.00000000E+00  0.00000000E+00
  0.00000000E+00  0.00000000E+00  0.00000000E+00
  0.00000000E+00  0.00000000E+00  0.00000000E+00
  0.00000000E+00  0.00000000E+00  0.00000000E+00
  0.00000000E+00  0.00000000E+00  0.00000000E+00
  0.00000000E+00  0.00000000E+00  0.00000000E+00
  0.00000000E+00  0.00000000E+00  0.00000000E+00
  0.00000000E+00  0.00000000E+00  0.00000000E+00
  0.00000000E+00  0.00000000E+00  0.00000000E+00
  0.00000000E+00  0.00000000E+00  0.00000000E+00
  0.00000000E+00  0.00000000E+00  0.00000000E+00
  0.00000000E+00  0.00000000E+00  0.00000000E+00
  0.00000000E+00  0.00000000E+00  0.00000000E+00
  0.00000000E+00  0.00000000E+00  0.00000000E+00
  0.00000000E+00  0.00000000E+00  0.00000000E+00
  0.00000000E+00  0.00000000E+00  0.00000000E+00
  0.00000000E+00  0.00000000E+00  0.00000000E+00
  0.00000000E+00  0.00000000E+00  0.00000000E+00
  0.00000000E+00  0.00000000E+00  0.00000000E+00
  0.00000000E+00  0.00000000E+00  0.00000000E+00
  0.00000000E+00  0.00000000E+00  0.00000000E+00
  0.00000000E+00  0.00000000E+00  0.00000000E+00
  0.00000000E+00  0.00000000E+00  0.00000000E+00
  0.00000000E+00  0.00000000E+00  0.00000000E+00
  0.00000000E+00  0.00000000E+00  0.00000000E+00
  0.00000000E+00  0.00000000E+00  0.00000000E+00
  0.00000000E+00  0.00000000E+00  0.00000000E+00
  0.00000000E+00  0.00000000E+00  0.00000000E+00
  0.00000000E+00  0.00000000E+00  0.00000000E+00
  0.00000000E+00  0.00000000E+00  0.00000000E+00
  0.00000000E+00  0.00000000E+00  0.00000000E+00
  0.00000000E+00  0.00000000E+00  0.00000000E+00
  0.00000000E+00  0.00000000E+00  0.00000000E+00
  0.00000000E+00  0.00000000E+00  0.00000000E+00
  0.00000000E+00  0.00000000E+00  0.00000000E+00
  0.00000000E+00  0.00000000E+00  0.00000000E+00
  0.00000000E+00  0.00000000E+00  0.00000000E+00
  0.00000000E+00  0.00000000E+00  0.00000000E+00
  0.00000000E+00  0.00000000E+00  0.00000000E+00
  0.00000000E+00  0.00000000E+00  0.00000000E+00
  0.00000000E+00  0.00000000E+00  0.00000000E+00
  0.00000000E+00  0.00000000E+00  0.00000000E+00
  0.00000000E+00  0.00000000E+00  0.00000000E+00
  0.00000000E+00  0.00000000E+00  0.00000000E+00
  0.00000000E+00  0.00000000E+00  0.00000000E+00
  0.00000000E+00  0.00000000E+00  0.00000000E+00
  0.00000000E+00  0.00000000E+00  0.00000000E+00
  0.00000000E+00  0.00000000E+00  0.00000000E+00
  0.00000000E+00  0.00000000E+00  0.00000000E+00
  0.00000000E+00  0.00000000E+00  0.00000000E+00
  0.00000000E+00  0.00000000E+00  0.00000000E+00
  0.00000000E+00  0.00000000E+00  0.00000000E+00
  0.00000000E+00  0.00000000E+00  0.00000000E+00
  0.00000000E+00  0.00000000E+00  0.00000000E+00
  0.00000000E+00  0.00000000E+00  0.00000000E+00
  0.00000000E+00  0.00000000E+00  0.00000000E+00
