supercell of POSCAR                     
   1.01800000000000     
     3.1310994802600001   -5.4896946145000003   10.0244832682999991
    -9.4821132118399998   -5.5089477087900001    0.0170740616273000
     6.3359946057599998  -11.0114127993000004  -10.0652216442999993
   Al   Gd   N    O 
    84    12    95     1
Direct
  0.0897161917147713  0.5837545508345556  0.3345250189119113
  0.5010786210840763  0.3218033711489596  0.2557082239926416
  0.0861968702244980  0.0848467955641965  0.3341785779134625
  0.2528985435847559  0.5778433772072944  0.4937513887802325
  0.3327574161118960  0.3181540891632011  0.0788522983313342
  0.4174324716208844  0.0872209951717693  0.1705895583974453
  0.0075698978722727  0.8437466033859735  0.2544354631636665
  0.1682078022997331  0.3312666196452625  0.4119540692224604
  0.2476192090167544  0.0875333653273955  0.4959697367241489
  0.1630348221192222  0.8369574056306277  0.4153168276392876
  0.3383270685219699  0.6743738968624200  0.3407204980700058
  0.1486029569561609  0.6737614684027520  0.1686353096627045
  0.2505078650926151  0.3997668942956594  0.2521113376515913
  0.3346629659375040  0.1634494636295187  0.3341317585936423
  0.0076637659135343  0.6734672134056865  0.4937501720683031
  0.1673302581414333  0.1580729705574768  0.1694126752474432
  0.2537799967218177  0.9200140778839199  0.2554521140235124
  0.4137217469198688  0.4142664385588759  0.4150293545777473
  0.4987250284520499  0.1610607700116802  0.4969098045832538
  0.0826206187168950  0.9241151726977392  0.0795980414473547
  0.4203499333502805  0.9203947789280420  0.4117817928352068
  0.0894861145433694  0.5852044750200704  0.8353297541451639
  0.5004298236961944  0.3223779572948686  0.7553955640310761
  0.0861643012825652  0.0857796824856507  0.8346395637551538
  0.2490813052964285  0.5755180676839586  0.9920220883355100
  0.3324422891162300  0.3176265457408292  0.5784171616416103
  0.4170670202955620  0.0873581701127222  0.6708081463518525
  0.0076223308957779  0.8443482953498744  0.7551697326401481
  0.1680539008252211  0.3319370419610337  0.9130616411670474
  0.2481838628308850  0.0875701601978918  0.9964375610500582
  0.1626650543120149  0.8383848317438449  0.9158880223396011
  0.3364882316749984  0.6752419560620453  0.8410247449113939
  0.1545590965962802  0.6763054327054405  0.6678746623489715
  0.2495113552767307  0.4017364258550771  0.7529370842202852
  0.3343870660757702  0.1648086596716070  0.8343972627197829
  0.0053720915200728  0.6732457727962640  0.9946120047849192
  0.1669960939275441  0.1592836942117515  0.6696257836185922
  0.2529741608247917  0.9213681229558688  0.7558938971001794
  0.4136228728877924  0.4150990650198594  0.9155710000898480
  0.4987786023741521  0.1625028073068790  0.9970343097233325
  0.0828979512817298  0.9245083118268624  0.5806958982035724
  0.4197506638255959  0.9220106917530018  0.9117426374728268
  0.5903015277311709  0.5840511766043477  0.3347011152889081
  0.0004135395326017  0.3217100541218301  0.2556638423358208
  0.5861643431292265  0.0848921719031637  0.3342727055275532
  0.7530547570133450  0.5784271204143181  0.4934848231222375
  0.8306770980391107  0.3172512676044477  0.0779296415533821
  0.9172379921102234  0.0867374961812502  0.1705584432798446
  0.5078367994388415  0.8435420668285403  0.2546129512162523
  0.6685376302402517  0.3315897065436317  0.4119077097860711
  0.7475755338382157  0.0876865652415688  0.4958510545137500
  0.6628666892036534  0.8368427218449668  0.4153079127547841
  0.8373991620412227  0.6737429246554782  0.3398556472193732
  0.6518123823335031  0.6763241760144467  0.1669676951904080
  0.7504823615678546  0.4011668663923231  0.2520542765943645
  0.8346416388561693  0.1636336620607111  0.3340285867739752
  0.5076149881230805  0.6735400187202956  0.4940801815453639
  0.6670317147176590  0.1591160111703758  0.1693178076487740
  0.7534553823157708  0.9205784175555749  0.2555813896378751
  0.9136199904931530  0.4144902574807432  0.4149752958771984
  0.9986806527057155  0.1608994907922892  0.4968438097814456
  0.5824599259943994  0.9254829046833137  0.0804106348597031
  0.9203080093434579  0.9201454515442933  0.4114792133872811
  0.5905266277990577  0.5844519291180958  0.8345726390107160
  0.0004363058985248  0.3222905719735749  0.7558332989318686
  0.5859869374330628  0.0859150992678934  0.8342807225125668
  0.7515781669340242  0.5774979451160362  0.9932083883248382
  0.8326769532256577  0.3176472660530010  0.5784399439617189
  0.9172943065599455  0.0873532887332189  0.6710189081404323
  0.5074988647122751  0.8449699452908419  0.7548029948538186
  0.6675766412579378  0.3319095344414222  0.9121095995790327
  0.7473859732606201  0.0877300343246716  0.9957392670694958
  0.6624925411977287  0.8379566757599761  0.9151175123370123
  0.8375244860704711  0.6744524058471697  0.8402407636966842
  0.6547755979748757  0.6765803420151570  0.6673437593934537
  0.7499778819315992  0.4014502734382290  0.7519677822921764
  0.8342380789262478  0.1640375247824863  0.8341272025707411
  0.5068117431091963  0.6753546163479314  0.9942488879456235
  0.6669499476571303  0.1592021442608385  0.6693185651556490
  0.7531594757286513  0.9210647535468510  0.7558299843081997
  0.9125737280975272  0.4143961306670079  0.9148302590197233
  0.9979777983829834  0.1605039459872515  0.9966755041857027
  0.5826660179663961  0.9245563362988634  0.5806262800433615
  0.9200369992341209  0.9200879534518904  0.9119169427580402
  0.3942334261812732  0.5797068949039073  0.1799619315029517
  0.3316580266697144  0.8334414860134700  0.0831865744256888
  0.0783006768672365  0.4152016145785353  0.0851200156270338
  0.3974668820495353  0.5784356330172997  0.6807993597534221
  0.3305360012823826  0.8354269785338673  0.5832346574677132
  0.0823102481943110  0.4186436917162055  0.5844060545432228
  0.8946759737909886  0.5795401270943756  0.1780902360578835
  0.8292470000854379  0.8355075917853512  0.0827474766473628
  0.5813726791825360  0.4218553801351490  0.0853732137430967
  0.8975236224689951  0.5787797504088701  0.6794843200695553
  0.8306693771847051  0.8366142395877247  0.5829668301585187
  0.5823103500805757  0.4193880872425026  0.5840110678274044
  0.2195649903592525  0.5817342993383079  0.2641662986836266
  0.0332485294089793  0.6092645772401966  0.1005732677570066
  0.1303848108533501  0.3163039866661066  0.2004379574162414
  0.2128601409360229  0.0816314602487793  0.2720671477284213
  0.3832627747868145  0.5837203792425925  0.4372446157406173
  0.4494853379446297  0.3207885166575437  0.0109709032118204
  0.0408334437228532  0.0854393558448052  0.1036010927027320
  0.1343263972119857  0.8408403073626829  0.1847551733815109
  0.2968424340167886  0.3294323819663987  0.3523659560439398
  0.3767086163530351  0.0804345156944564  0.4352984537482030
  0.4748805965671608  0.8397950041028395  0.0084724135281746
  0.2938019841043342  0.8351194488488716  0.3560207438997196
  0.4722839946816109  0.6835459523843426  0.2857190773652007
  0.3760712459519766  0.3839399144259303  0.1858183991657469
  0.4619475209702557  0.1622222433803131  0.2738168634851093
  0.1355478778747639  0.6654261767589418  0.4326125854552387
  0.2237263170776131  0.4129289136997443  0.0113531718726492
  0.2903467093127006  0.1580496128022091  0.1023615824887329
  0.3846435854799779  0.9263623150448268  0.1997428032916275
  0.0439164229706321  0.4194076663509989  0.3518059329462702
  0.1267574103722424  0.1706930935976914  0.4343701674614735
  0.1985616952305378  0.9309167018719009  0.0113377388095088
  0.0489623399785373  0.9231877654710630  0.3521050406748572
  0.2195973008480081  0.5822117836480132  0.7672226437147813
  0.0343053256369075  0.6116654038009202  0.6006858389121348
  0.1298268199072155  0.3181015802714953  0.7001208518716808
  0.2125275507257385  0.0834409392016440  0.7724638357151079
  0.3813143337021714  0.5855198489432425  0.9390399982459456
  0.4491055713601000  0.3191828160408789  0.5105036520362205
  0.0406633065525384  0.0861031004028803  0.6038254287732769
  0.1328042575762183  0.8432239943339397  0.6860525780168558
  0.2962657287186872  0.3306685309426882  0.8531600490607687
  0.3766816090463863  0.0819903633622516  0.9354315838157561
  0.4760395148978915  0.8377597838501245  0.5084593995335425
  0.2930202202121279  0.8362281215661866  0.8565223506575350
  0.4723776070629810  0.6857191528433901  0.7876304925026858
  0.2628800055244014  0.6523804678903176  0.5954678950842123
  0.3740960217696383  0.3822094234048663  0.6854727974975532
  0.4615527982760597  0.1631245079474581  0.7739305586897771
  0.1348699568245735  0.6667684449015070  0.9345539814249832
  0.2256689284674778  0.4117027052571416  0.5089693080559456
  0.2898485801649642  0.1574630845658191  0.6021532197789270
  0.3842307897011565  0.9275943555243558  0.7010523196513319
  0.0436045566695924  0.4201126258981134  0.8524714155439099
  0.1269356310308041  0.1710537945638819  0.9352377341234330
  0.1959607790443059  0.9318263336246986  0.5101149996984233
  0.0487420555767528  0.9244587065095615  0.8528978872612925
  0.7188617272100402  0.5814109945989401  0.2660967051494794
  0.5275776089189037  0.6152528705367857  0.1015005605130952
  0.6301339838070632  0.3178867290574985  0.1995523952207421
  0.7126545792670598  0.0825945842159541  0.2721359937790737
  0.8835706464340873  0.5840064358709967  0.4368965591839142
  0.9466819570204379  0.3178619588947313  0.0094734232531408
  0.5405332473773115  0.0866652700629515  0.1036844859984996
  0.6326398128915685  0.8435069360980805  0.1857279555554570
  0.7970057585154251  0.3295590657150740  0.3520883524112222
  0.8767497950823540  0.0802426965517498  0.4351996901548105
  0.9752041285602999  0.8377278416814278  0.0086482236027763
  0.7937063805349425  0.8349372193514597  0.3560232912351111
  0.9730735610640195  0.6840496914861873  0.2853357543237820
  0.7587692864141786  0.6529371170138987  0.0941336439301281
  0.8752628794691759  0.3824714739898596  0.1847761544055828
  0.9619508990320966  0.1620867903159251  0.2738105291247876
  0.6351695142251188  0.6655838525732918  0.4329867457195533
  0.7236575737698416  0.4119650569310238  0.0091144388761393
  0.7898237971067559  0.1568039636645864  0.1021127955715144
  0.8849197876592925  0.9267497247379382  0.2006937082213653
  0.5437719947782398  0.4193473834649168  0.3519678278430902
  0.6267496041807732  0.1710709756714124  0.4344337633823159
  0.6952504174990253  0.9323556783511648  0.0098140097905102
  0.5485463248943603  0.9234005908981118  0.3523028014336091
  0.7194160615340834  0.5818983097797599  0.7663509304070786
  0.5334080064712978  0.6121014313936968  0.6011873753042636
  0.6295864039095207  0.3181831585098749  0.6994617670116696
  0.7122991699286487  0.0830985349126578  0.7721021831403618
  0.8822321058569642  0.5837553115748477  0.9371667361237144
  0.9492451643557018  0.3191100758226426  0.5103009183861715
  0.5404807934157674  0.0860833557500058  0.6037451497635118
  0.6325249516726004  0.8433092342263819  0.6860176917519354
  0.7958245897341527  0.3298835229373154  0.8520046063696682
  0.8762321158869710  0.0801668079690785  0.9350796093621057
  0.9764942309190445  0.8376625310022661  0.5082564552731696
  0.7930687482057479  0.8353360868728856  0.8562262914133925
  0.9726024236510682  0.6852511995039521  0.7867189752752353
  0.7626770595985448  0.6539517850148329  0.5948109460553255
  0.8749332445026781  0.3822040270756304  0.6854089047591430
  0.9619237804529490  0.1628186053873648  0.7742305589703093
  0.6339764743632870  0.6665345808155223  0.9331311714625485
  0.7259858389795113  0.4120667823978366  0.5089697981131209
  0.7900507378566530  0.1573398464356970  0.6020992552964728
  0.8846028356632871  0.9275502192387606  0.7012901817781270
  0.5427504811149078  0.4205639111304293  0.8517388015785841
  0.6264670820121196  0.1713641764796208  0.9344456613439789
  0.6955095491360908  0.9321479290139223  0.5099271415095075
  0.5481597805895575  0.9246808130935875  0.8524217811632582
  0.2572701310827412  0.6516840138357693  0.0938267227651792
 
  0.00000000E+00  0.00000000E+00  0.00000000E+00
  0.00000000E+00  0.00000000E+00  0.00000000E+00
  0.00000000E+00  0.00000000E+00  0.00000000E+00
  0.00000000E+00  0.00000000E+00  0.00000000E+00
  0.00000000E+00  0.00000000E+00  0.00000000E+00
  0.00000000E+00  0.00000000E+00  0.00000000E+00
  0.00000000E+00  0.00000000E+00  0.00000000E+00
  0.00000000E+00  0.00000000E+00  0.00000000E+00
  0.00000000E+00  0.00000000E+00  0.00000000E+00
  0.00000000E+00  0.00000000E+00  0.00000000E+00
  0.00000000E+00  0.00000000E+00  0.00000000E+00
  0.00000000E+00  0.00000000E+00  0.00000000E+00
  0.00000000E+00  0.00000000E+00  0.00000000E+00
  0.00000000E+00  0.00000000E+00  0.00000000E+00
  0.00000000E+00  0.00000000E+00  0.00000000E+00
  0.00000000E+00  0.00000000E+00  0.00000000E+00
  0.00000000E+00  0.00000000E+00  0.00000000E+00
  0.00000000E+00  0.00000000E+00  0.00000000E+00
  0.00000000E+00  0.00000000E+00  0.00000000E+00
  0.00000000E+00  0.00000000E+00  0.00000000E+00
  0.00000000E+00  0.00000000E+00  0.00000000E+00
  0.00000000E+00  0.00000000E+00  0.00000000E+00
  0.00000000E+00  0.00000000E+00  0.00000000E+00
  0.00000000E+00  0.00000000E+00  0.00000000E+00
  0.00000000E+00  0.00000000E+00  0.00000000E+00
  0.00000000E+00  0.00000000E+00  0.00000000E+00
  0.00000000E+00  0.00000000E+00  0.00000000E+00
  0.00000000E+00  0.00000000E+00  0.00000000E+00
  0.00000000E+00  0.00000000E+00  0.00000000E+00
  0.00000000E+00  0.00000000E+00  0.00000000E+00
  0.00000000E+00  0.00000000E+00  0.00000000E+00
  0.00000000E+00  0.00000000E+00  0.00000000E+00
  0.00000000E+00  0.00000000E+00  0.00000000E+00
  0.00000000E+00  0.00000000E+00  0.00000000E+00
  0.00000000E+00  0.00000000E+00  0.00000000E+00
  0.00000000E+00  0.00000000E+00  0.00000000E+00
  0.00000000E+00  0.00000000E+00  0.00000000E+00
  0.00000000E+00  0.00000000E+00  0.00000000E+00
  0.00000000E+00  0.00000000E+00  0.00000000E+00
  0.00000000E+00  0.00000000E+00  0.00000000E+00
  0.00000000E+00  0.00000000E+00  0.00000000E+00
  0.00000000E+00  0.00000000E+00  0.00000000E+00
  0.00000000E+00  0.00000000E+00  0.00000000E+00
  0.00000000E+00  0.00000000E+00  0.00000000E+00
  0.00000000E+00  0.00000000E+00  0.00000000E+00
  0.00000000E+00  0.00000000E+00  0.00000000E+00
  0.00000000E+00  0.00000000E+00  0.00000000E+00
  0.00000000E+00  0.00000000E+00  0.00000000E+00
  0.00000000E+00  0.00000000E+00  0.00000000E+00
  0.00000000E+00  0.00000000E+00  0.00000000E+00
  0.00000000E+00  0.00000000E+00  0.00000000E+00
  0.00000000E+00  0.00000000E+00  0.00000000E+00
  0.00000000E+00  0.00000000E+00  0.00000000E+00
  0.00000000E+00  0.00000000E+00  0.00000000E+00
  0.00000000E+00  0.00000000E+00  0.00000000E+00
  0.00000000E+00  0.00000000E+00  0.00000000E+00
  0.00000000E+00  0.00000000E+00  0.00000000E+00
  0.00000000E+00  0.00000000E+00  0.00000000E+00
  0.00000000E+00  0.00000000E+00  0.00000000E+00
  0.00000000E+00  0.00000000E+00  0.00000000E+00
  0.00000000E+00  0.00000000E+00  0.00000000E+00
  0.00000000E+00  0.00000000E+00  0.00000000E+00
  0.00000000E+00  0.00000000E+00  0.00000000E+00
  0.00000000E+00  0.00000000E+00  0.00000000E+00
  0.00000000E+00  0.00000000E+00  0.00000000E+00
  0.00000000E+00  0.00000000E+00  0.00000000E+00
  0.00000000E+00  0.00000000E+00  0.00000000E+00
  0.00000000E+00  0.00000000E+00  0.00000000E+00
  0.00000000E+00  0.00000000E+00  0.00000000E+00
  0.00000000E+00  0.00000000E+00  0.00000000E+00
  0.00000000E+00  0.00000000E+00  0.00000000E+00
  0.00000000E+00  0.00000000E+00  0.00000000E+00
  0.00000000E+00  0.00000000E+00  0.00000000E+00
  0.00000000E+00  0.00000000E+00  0.00000000E+00
  0.00000000E+00  0.00000000E+00  0.00000000E+00
  0.00000000E+00  0.00000000E+00  0.00000000E+00
  0.00000000E+00  0.00000000E+00  0.00000000E+00
  0.00000000E+00  0.00000000E+00  0.00000000E+00
  0.00000000E+00  0.00000000E+00  0.00000000E+00
  0.00000000E+00  0.00000000E+00  0.00000000E+00
  0.00000000E+00  0.00000000E+00  0.00000000E+00
  0.00000000E+00  0.00000000E+00  0.00000000E+00
  0.00000000E+00  0.00000000E+00  0.00000000E+00
  0.00000000E+00  0.00000000E+00  0.00000000E+00
  0.00000000E+00  0.00000000E+00  0.00000000E+00
  0.00000000E+00  0.00000000E+00  0.00000000E+00
  0.00000000E+00  0.00000000E+00  0.00000000E+00
  0.00000000E+00  0.00000000E+00  0.00000000E+00
  0.00000000E+00  0.00000000E+00  0.00000000E+00
  0.00000000E+00  0.00000000E+00  0.00000000E+00
  0.00000000E+00  0.00000000E+00  0.00000000E+00
  0.00000000E+00  0.00000000E+00  0.00000000E+00
  0.00000000E+00  0.00000000E+00  0.00000000E+00
  0.00000000E+00  0.00000000E+00  0.00000000E+00
  0.00000000E+00  0.00000000E+00  0.00000000E+00
  0.00000000E+00  0.00000000E+00  0.00000000E+00
  0.00000000E+00  0.00000000E+00  0.00000000E+00
  0.00000000E+00  0.00000000E+00  0.00000000E+00
  0.00000000E+00  0.00000000E+00  0.00000000E+00
  0.00000000E+00  0.00000000E+00  0.00000000E+00
  0.00000000E+00  0.00000000E+00  0.00000000E+00
  0.00000000E+00  0.00000000E+00  0.00000000E+00
  0.00000000E+00  0.00000000E+00  0.00000000E+00
  0.00000000E+00  0.00000000E+00  0.00000000E+00
  0.00000000E+00  0.00000000E+00  0.00000000E+00
  0.00000000E+00  0.00000000E+00  0.00000000E+00
  0.00000000E+00  0.00000000E+00  0.00000000E+00
  0.00000000E+00  0.00000000E+00  0.00000000E+00
  0.00000000E+00  0.00000000E+00  0.00000000E+00
  0.00000000E+00  0.00000000E+00  0.00000000E+00
  0.00000000E+00  0.00000000E+00  0.00000000E+00
  0.00000000E+00  0.00000000E+00  0.00000000E+00
  0.00000000E+00  0.00000000E+00  0.00000000E+00
  0.00000000E+00  0.00000000E+00  0.00000000E+00
  0.00000000E+00  0.00000000E+00  0.00000000E+00
  0.00000000E+00  0.00000000E+00  0.00000000E+00
  0.00000000E+00  0.00000000E+00  0.00000000E+00
  0.00000000E+00  0.00000000E+00  0.00000000E+00
  0.00000000E+00  0.00000000E+00  0.00000000E+00
  0.00000000E+00  0.00000000E+00  0.00000000E+00
  0.00000000E+00  0.00000000E+00  0.00000000E+00
  0.00000000E+00  0.00000000E+00  0.00000000E+00
  0.00000000E+00  0.00000000E+00  0.00000000E+00
  0.00000000E+00  0.00000000E+00  0.00000000E+00
  0.00000000E+00  0.00000000E+00  0.00000000E+00
  0.00000000E+00  0.00000000E+00  0.00000000E+00
  0.00000000E+00  0.00000000E+00  0.00000000E+00
  0.00000000E+00  0.00000000E+00  0.00000000E+00
  0.00000000E+00  0.00000000E+00  0.00000000E+00
  0.00000000E+00  0.00000000E+00  0.00000000E+00
  0.00000000E+00  0.00000000E+00  0.00000000E+00
  0.00000000E+00  0.00000000E+00  0.00000000E+00
  0.00000000E+00  0.00000000E+00  0.00000000E+00
  0.00000000E+00  0.00000000E+00  0.00000000E+00
  0.00000000E+00  0.00000000E+00  0.00000000E+00
  0.00000000E+00  0.00000000E+00  0.00000000E+00
  0.00000000E+00  0.00000000E+00  0.00000000E+00
  0.00000000E+00  0.00000000E+00  0.00000000E+00
  0.00000000E+00  0.00000000E+00  0.00000000E+00
  0.00000000E+00  0.00000000E+00  0.00000000E+00
  0.00000000E+00  0.00000000E+00  0.00000000E+00
  0.00000000E+00  0.00000000E+00  0.00000000E+00
  0.00000000E+00  0.00000000E+00  0.00000000E+00
  0.00000000E+00  0.00000000E+00  0.00000000E+00
  0.00000000E+00  0.00000000E+00  0.00000000E+00
  0.00000000E+00  0.00000000E+00  0.00000000E+00
  0.00000000E+00  0.00000000E+00  0.00000000E+00
  0.00000000E+00  0.00000000E+00  0.00000000E+00
  0.00000000E+00  0.00000000E+00  0.00000000E+00
  0.00000000E+00  0.00000000E+00  0.00000000E+00
  0.00000000E+00  0.00000000E+00  0.00000000E+00
  0.00000000E+00  0.00000000E+00  0.00000000E+00
  0.00000000E+00  0.00000000E+00  0.00000000E+00
  0.00000000E+00  0.00000000E+00  0.00000000E+00
  0.00000000E+00  0.00000000E+00  0.00000000E+00
  0.00000000E+00  0.00000000E+00  0.00000000E+00
  0.00000000E+00  0.00000000E+00  0.00000000E+00
  0.00000000E+00  0.00000000E+00  0.00000000E+00
  0.00000000E+00  0.00000000E+00  0.00000000E+00
  0.00000000E+00  0.00000000E+00  0.00000000E+00
  0.00000000E+00  0.00000000E+00  0.00000000E+00
  0.00000000E+00  0.00000000E+00  0.00000000E+00
  0.00000000E+00  0.00000000E+00  0.00000000E+00
  0.00000000E+00  0.00000000E+00  0.00000000E+00
  0.00000000E+00  0.00000000E+00  0.00000000E+00
  0.00000000E+00  0.00000000E+00  0.00000000E+00
  0.00000000E+00  0.00000000E+00  0.00000000E+00
  0.00000000E+00  0.00000000E+00  0.00000000E+00
  0.00000000E+00  0.00000000E+00  0.00000000E+00
  0.00000000E+00  0.00000000E+00  0.00000000E+00
  0.00000000E+00  0.00000000E+00  0.00000000E+00
  0.00000000E+00  0.00000000E+00  0.00000000E+00
  0.00000000E+00  0.00000000E+00  0.00000000E+00
  0.00000000E+00  0.00000000E+00  0.00000000E+00
  0.00000000E+00  0.00000000E+00  0.00000000E+00
  0.00000000E+00  0.00000000E+00  0.00000000E+00
  0.00000000E+00  0.00000000E+00  0.00000000E+00
  0.00000000E+00  0.00000000E+00  0.00000000E+00
  0.00000000E+00  0.00000000E+00  0.00000000E+00
  0.00000000E+00  0.00000000E+00  0.00000000E+00
  0.00000000E+00  0.00000000E+00  0.00000000E+00
  0.00000000E+00  0.00000000E+00  0.00000000E+00
  0.00000000E+00  0.00000000E+00  0.00000000E+00
  0.00000000E+00  0.00000000E+00  0.00000000E+00
  0.00000000E+00  0.00000000E+00  0.00000000E+00
  0.00000000E+00  0.00000000E+00  0.00000000E+00
  0.00000000E+00  0.00000000E+00  0.00000000E+00
  0.00000000E+00  0.00000000E+00  0.00000000E+00
  0.00000000E+00  0.00000000E+00  0.00000000E+00
  0.00000000E+00  0.00000000E+00  0.00000000E+00
  0.00000000E+00  0.00000000E+00  0.00000000E+00
  0.00000000E+00  0.00000000E+00  0.00000000E+00
