supercell of icsd_191774.cif            
   1.00000000000000     
    11.5574765034097897    0.0714568662201604   -0.0083169463764560
    -5.7164372696808554    9.9086046232502198    0.0361755064755010
    -0.0096385862859476    0.0368855519395755   11.6862893939200454
   N    La   In
    36    20    16
Direct
  0.2296804056169677  0.1272541321437117  0.4462805667122964
  0.1243439535542876  0.2360085885853280  0.1750949474647427
  0.9027801446862540  0.1379623564596457  0.9463287325919438
  0.7942154340616980  0.2135413492846894  0.6856917662278335
  0.5457701166128572  0.1207447662635559  0.4601738806183917
  0.4572211479391441  0.2411564831438326  0.1734193222473621
  0.1955582666142277  0.1004940752402703  0.9374309906712881
  0.1010097291971519  0.2027553810042093  0.6891987095480943
  0.9136247171712455  0.1155116992446494  0.4340217523339547
  0.7882213742608783  0.2440846926527840  0.1930934510272593
  0.5740772239187422  0.1225266184536125  0.9487166801770925
  0.4289739505166779  0.2250249995059477  0.7034886662459741
  0.2186133263353938  0.4420530434098353  0.4583528215121433
  0.1008381618769150  0.5661636788080884  0.1837089022536134
  0.8942097815305345  0.4432099102634268  0.9471810459159613
  0.7607677898355476  0.5392615473056708  0.6934198341148274
  0.5276480598228304  0.4304162347605782  0.4365344494254018
  0.4454511102235585  0.5387807691636937  0.1840483750445117
  0.2212040948940057  0.4526001313868377  0.9477965902512864
  0.1220088478763941  0.5758484804109045  0.6811624861325285
  0.9075716597307490  0.4530539840302907  0.4386725222577184
  0.7654254606785500  0.5409613952721983  0.2214337294929152
  0.5439166608322381  0.4580186075351378  0.9271113531970343
  0.4439283806992265  0.5408405007521253  0.6806451956478625
  0.2123304797063099  0.7593816990769540  0.4271187374594874
  0.1322314403685851  0.8950821691748203  0.1841545450231905
  0.8928321780541708  0.7685615460165778  0.9682547381026012
  0.7896700681399480  0.8942431685518102  0.7291597315812055
  0.5553218470647323  0.7637496620470259  0.4556621546743429
  0.4356542979020617  0.8836288649730974  0.2051224076611646
  0.1981857536986666  0.7654660277994907  0.9353073347350715
  0.1272367137248196  0.8959110017588685  0.6980338599677225
  0.8913024486417314  0.7801219745791315  0.4511798137443250
  0.7817821029882026  0.8905062300384401  0.1906271698353876
  0.5411199552549917  0.7656392370910652  0.9575578461817926
  0.4341009423900033  0.8817788084153619  0.7040358936223612
  0.2369657556212275  0.1269645611610812  0.2404920607316399
  0.5600443786543536  0.1263851231652566  0.2429078529228121
  0.9038932409908753  0.1233391579456580  0.2297115377329888
  0.7930413009892732  0.2239905379576896  0.4858816846423792
  0.5620834247409334  0.1158841298618185  0.7370274255290994
  0.4328269472526216  0.2264008020510886  0.9719985997287139
  0.2228615938370666  0.4535421110443210  0.2449158678036838
  0.8971448813199174  0.4425631613349807  0.7455983036243552
  0.7594271172792730  0.5346993655766639  0.0113119734233393
  0.2199340626374564  0.4384089685007524  0.7362770769393450
  0.7631642069471241  0.5435418614697340  0.4828585858592476
  0.1220827230358026  0.8925759200777605  0.4964504889087067
  0.9012398837566806  0.7690107872660832  0.7598959395191969
  0.7810141499866958  0.8980696335180554  0.9848407372276284
  0.5574349634934066  0.7646302542472299  0.2438062759808304
  0.4320729047428387  0.8753731492605610  0.4922519457764452
  0.9016073134895350  0.7791689598240623  0.2395386392920074
  0.7879682744964853  0.8955480476602631  0.5100538414598290
  0.5490731884423212  0.7615760378336134  0.7505838725043006
  0.4271137416957487  0.8834775611015857  0.9975413653208278
  0.1166724438117228  0.2225112863541341  0.5009453822385765
  0.8974316480036251  0.1131500333352733  0.7553287258650556
  0.7859339165506896  0.2331527721059103  0.9997976525669898
  0.4335411306055121  0.2255478365374302  0.5084117038053932
  0.2116042333217223  0.1053134451352307  0.7469957830145830
  0.1133156707692962  0.2330867964173606  0.9905945235855214
  0.1140444148375792  0.5573136457690211  0.4949602100376396
  0.5470486001857324  0.4370775703254282  0.2509459563415959
  0.4362346631178013  0.5449916750459849  0.4969231827895442
  0.1026533401112033  0.5548320576075838  0.9977757295209884
  0.8969507834811878  0.4534572542441140  0.2489581971371067
  0.5501151142794498  0.4436012302812600  0.7414864092553657
  0.4349467690381559  0.5500811160487800  0.9979973074773270
  0.2196360227023888  0.7745396185505840  0.2421206083198300
  0.2227059205925670  0.7791681528850489  0.7498953019986772
  0.1073432487614241  0.8846815638949650  0.9974982474177096
 
  0.00000000E+00  0.00000000E+00  0.00000000E+00
  0.00000000E+00  0.00000000E+00  0.00000000E+00
  0.00000000E+00  0.00000000E+00  0.00000000E+00
  0.00000000E+00  0.00000000E+00  0.00000000E+00
  0.00000000E+00  0.00000000E+00  0.00000000E+00
  0.00000000E+00  0.00000000E+00  0.00000000E+00
  0.00000000E+00  0.00000000E+00  0.00000000E+00
  0.00000000E+00  0.00000000E+00  0.00000000E+00
  0.00000000E+00  0.00000000E+00  0.00000000E+00
  0.00000000E+00  0.00000000E+00  0.00000000E+00
  0.00000000E+00  0.00000000E+00  0.00000000E+00
  0.00000000E+00  0.00000000E+00  0.00000000E+00
  0.00000000E+00  0.00000000E+00  0.00000000E+00
  0.00000000E+00  0.00000000E+00  0.00000000E+00
  0.00000000E+00  0.00000000E+00  0.00000000E+00
  0.00000000E+00  0.00000000E+00  0.00000000E+00
  0.00000000E+00  0.00000000E+00  0.00000000E+00
  0.00000000E+00  0.00000000E+00  0.00000000E+00
  0.00000000E+00  0.00000000E+00  0.00000000E+00
  0.00000000E+00  0.00000000E+00  0.00000000E+00
  0.00000000E+00  0.00000000E+00  0.00000000E+00
  0.00000000E+00  0.00000000E+00  0.00000000E+00
  0.00000000E+00  0.00000000E+00  0.00000000E+00
  0.00000000E+00  0.00000000E+00  0.00000000E+00
  0.00000000E+00  0.00000000E+00  0.00000000E+00
  0.00000000E+00  0.00000000E+00  0.00000000E+00
  0.00000000E+00  0.00000000E+00  0.00000000E+00
  0.00000000E+00  0.00000000E+00  0.00000000E+00
  0.00000000E+00  0.00000000E+00  0.00000000E+00
  0.00000000E+00  0.00000000E+00  0.00000000E+00
  0.00000000E+00  0.00000000E+00  0.00000000E+00
  0.00000000E+00  0.00000000E+00  0.00000000E+00
  0.00000000E+00  0.00000000E+00  0.00000000E+00
  0.00000000E+00  0.00000000E+00  0.00000000E+00
  0.00000000E+00  0.00000000E+00  0.00000000E+00
  0.00000000E+00  0.00000000E+00  0.00000000E+00
  0.00000000E+00  0.00000000E+00  0.00000000E+00
  0.00000000E+00  0.00000000E+00  0.00000000E+00
  0.00000000E+00  0.00000000E+00  0.00000000E+00
  0.00000000E+00  0.00000000E+00  0.00000000E+00
  0.00000000E+00  0.00000000E+00  0.00000000E+00
  0.00000000E+00  0.00000000E+00  0.00000000E+00
  0.00000000E+00  0.00000000E+00  0.00000000E+00
  0.00000000E+00  0.00000000E+00  0.00000000E+00
  0.00000000E+00  0.00000000E+00  0.00000000E+00
  0.00000000E+00  0.00000000E+00  0.00000000E+00
  0.00000000E+00  0.00000000E+00  0.00000000E+00
  0.00000000E+00  0.00000000E+00  0.00000000E+00
  0.00000000E+00  0.00000000E+00  0.00000000E+00
  0.00000000E+00  0.00000000E+00  0.00000000E+00
  0.00000000E+00  0.00000000E+00  0.00000000E+00
  0.00000000E+00  0.00000000E+00  0.00000000E+00
  0.00000000E+00  0.00000000E+00  0.00000000E+00
  0.00000000E+00  0.00000000E+00  0.00000000E+00
  0.00000000E+00  0.00000000E+00  0.00000000E+00
  0.00000000E+00  0.00000000E+00  0.00000000E+00
  0.00000000E+00  0.00000000E+00  0.00000000E+00
  0.00000000E+00  0.00000000E+00  0.00000000E+00
  0.00000000E+00  0.00000000E+00  0.00000000E+00
  0.00000000E+00  0.00000000E+00  0.00000000E+00
  0.00000000E+00  0.00000000E+00  0.00000000E+00
  0.00000000E+00  0.00000000E+00  0.00000000E+00
  0.00000000E+00  0.00000000E+00  0.00000000E+00
  0.00000000E+00  0.00000000E+00  0.00000000E+00
  0.00000000E+00  0.00000000E+00  0.00000000E+00
  0.00000000E+00  0.00000000E+00  0.00000000E+00
  0.00000000E+00  0.00000000E+00  0.00000000E+00
  0.00000000E+00  0.00000000E+00  0.00000000E+00
  0.00000000E+00  0.00000000E+00  0.00000000E+00
  0.00000000E+00  0.00000000E+00  0.00000000E+00
  0.00000000E+00  0.00000000E+00  0.00000000E+00
  0.00000000E+00  0.00000000E+00  0.00000000E+00
