generated by phonopy                    
   1.00000000000000     
    10.0351470768999995   -0.0000022330999784   -0.0000001056124209
    -5.0175765436399997    8.6906901959899994    0.0000001395531216
    -0.0000001735893656    0.0000001431815548   14.9533752540999991
   Pb   P    Cu   O 
    20    12     1    49
Direct
  0.0290011210767673  0.7777653688012549  0.1324198245174415
  0.0016398504405117  0.7653877793197736  0.6232796129728371
  0.0109394726687171  0.2577146062565632  0.3868482368432353
  0.9973443913285536  0.2403574205054326  0.8585903876149032
  0.2338077439961808  0.2230866536632874  0.1392022253641940
  0.2250291422040220  0.2164620036898341  0.6259231053218670
  0.7443244868076633  0.7424038725664559  0.3881775099883029
  0.7338443025368306  0.7272116188585187  0.8571831812106296
  0.8011590416101626  0.0196433540220724  0.1480824172703166
  0.7741289954716208  0.9946958671248964  0.6219221714437850
  0.2625483457867617  0.9963681495607446  0.3831949493857323
  0.2593980682642396  0.9897231555785098  0.8697216453147263
  0.6902284342485316  0.3264683143987241  0.9907683583571298
  0.6688359335699161  0.3283619237548692  0.5052842756968232
  0.2801237432744657  0.5994388785170628  0.9926785040095609
  0.3341121509939740  0.6583403271242503  0.5051564949466467
  0.3227002379137502  0.6569360143159173  0.2539771257307066
  0.3327870451571897  0.6640230246203558  0.7416551239667442
  0.6726776876660665  0.3219824658858670  0.2602242700898927
  0.6570982690288432  0.3235483767507219  0.7449227437718378
  0.6401544672125823  0.6321714001240082  0.1195976751701266
  0.6214105281422917  0.5876625230503336  0.6221399522877959
  0.3742050438744613  0.3952419368883682  0.3769351839092749
  0.3644154100153898  0.3789001884462166  0.8727489911387281
  0.4066029278473877  0.0356760697394023  0.1301758165020388
  0.4047677116478354  0.0214961043197306  0.6246438080627996
  0.6078825111771735  0.9711861125496952  0.3717867398475008
  0.6064373684143689  0.9683795339369539  0.8688183304516031
  0.9613870499009920  0.3842941998467637  0.1264394878822799
  0.9734637803041863  0.3712888598945483  0.6245879744641911
  0.0275873715655734  0.6262468065100535  0.3701449618168198
  0.0239855601993142  0.6195579740598873  0.8720491274518594
  0.5223848322972842  0.8795181593966461  0.0514430354221318
  0.5021815766442685  0.6434641751625421  0.6225346588532261
  0.4729971042245538  0.3159354127712461  0.3799105447349262
  0.4638916155021633  0.3006841125359045  0.8792271079842493
  0.3692833083057820  0.8620106593452661  0.1351197146853238
  0.3527320555886391  0.8469283967345120  0.6242197227718904
  0.6813811437531783  0.1500336799109263  0.3726411788899640
  0.6851232849721569  0.1474488746162095  0.8710422038583445
  0.1393862512881938  0.4953548308296121  0.1295476072661899
  0.1472163926436849  0.4956385646995756  0.6240608411157353
  0.8495820790170825  0.5234191660952163  0.3671483631761134
  0.8452516846162794  0.5205332690944715  0.8716099483242274
  0.7105867438616400  0.6300850274153404  0.0316164862017132
  0.7289566642506173  0.6479932175969623  0.5378507827703203
  0.2624322339338576  0.3508268604109830  0.4593577159992677
  0.2630452853228888  0.3523522379407709  0.9587345393345359
  0.3191596097835259  0.0549028027955600  0.0499036391087699
  0.3422436189720841  0.0657073493876652  0.5402927770184220
  0.6607960948667682  0.9136322381841069  0.4544778829564535
  0.6505797315252835  0.9066751827103019  0.9544513387749731
  0.9148742388474247  0.2868316289653947  0.0384927835345081
  0.9278520655564648  0.2686944651768215  0.5381264052723722
  0.0810148128240442  0.7380687807054684  0.4515249829520940
  0.0901405348815416  0.7106229747419093  0.9608434270699178
  0.2692811399849617  0.3512182013846044  0.2919145941385821
  0.2478660174088603  0.3130812992929606  0.7927497463082744
  0.7361220257518042  0.6648148406998189  0.2028193111074827
  0.7309108971111371  0.6505860848875145  0.7054778467439249
  0.6556727926614130  0.9139343700681408  0.2869317651747068
  0.6624820179014748  0.9104973309412188  0.7882543841813217
  0.3544056783608198  0.0829085711866497  0.2172823545453966
  0.3421813958859445  0.0659138207700281  0.7091269727398100
  0.0974712240689186  0.7277453227502448  0.2839491363312163
  0.0847391343298085  0.7358852025928400  0.7926068672999875
  0.9109021597042499  0.2711397836934779  0.2095849511621353
  0.9336244969857646  0.2577584234311843  0.7055833708694834
  0.4759242489372255  0.5957906986251515  0.1257569431368353
  0.5408922779363792  0.4078021334002457  0.6229412611229677
  0.4808378399457709  0.5766737595817943  0.3774646141006741
  0.4692365384733961  0.5589068784606042  0.8600156860560588
  0.5850212034045512  0.1396736616591880  0.1202838333874681
  0.5851262208063304  0.1229382414039222  0.6245438591964074
  0.4266936423644623  0.8923605259861347  0.3740585801198151
  0.4268275804884212  0.8937789450138638  0.8651121282464942
  0.8723970101082443  0.4749109011595820  0.1319578365517273
  0.8698231026141059  0.4468639464574338  0.6296680980024405
  0.1052152147846357  0.5219744618627331  0.3764770136543305
  0.0946554434955473  0.5080473028049752  0.8625461571122415
  0.0134085259902790  0.0067100135305793  0.1628021582230943
  0.9981194223683687  0.9892917022642251  0.6224670021343996
 
  0.00000000E+00  0.00000000E+00  0.00000000E+00
  0.00000000E+00  0.00000000E+00  0.00000000E+00
  0.00000000E+00  0.00000000E+00  0.00000000E+00
  0.00000000E+00  0.00000000E+00  0.00000000E+00
  0.00000000E+00  0.00000000E+00  0.00000000E+00
  0.00000000E+00  0.00000000E+00  0.00000000E+00
  0.00000000E+00  0.00000000E+00  0.00000000E+00
  0.00000000E+00  0.00000000E+00  0.00000000E+00
  0.00000000E+00  0.00000000E+00  0.00000000E+00
  0.00000000E+00  0.00000000E+00  0.00000000E+00
  0.00000000E+00  0.00000000E+00  0.00000000E+00
  0.00000000E+00  0.00000000E+00  0.00000000E+00
  0.00000000E+00  0.00000000E+00  0.00000000E+00
  0.00000000E+00  0.00000000E+00  0.00000000E+00
  0.00000000E+00  0.00000000E+00  0.00000000E+00
  0.00000000E+00  0.00000000E+00  0.00000000E+00
  0.00000000E+00  0.00000000E+00  0.00000000E+00
  0.00000000E+00  0.00000000E+00  0.00000000E+00
  0.00000000E+00  0.00000000E+00  0.00000000E+00
  0.00000000E+00  0.00000000E+00  0.00000000E+00
  0.00000000E+00  0.00000000E+00  0.00000000E+00
  0.00000000E+00  0.00000000E+00  0.00000000E+00
  0.00000000E+00  0.00000000E+00  0.00000000E+00
  0.00000000E+00  0.00000000E+00  0.00000000E+00
  0.00000000E+00  0.00000000E+00  0.00000000E+00
  0.00000000E+00  0.00000000E+00  0.00000000E+00
  0.00000000E+00  0.00000000E+00  0.00000000E+00
  0.00000000E+00  0.00000000E+00  0.00000000E+00
  0.00000000E+00  0.00000000E+00  0.00000000E+00
  0.00000000E+00  0.00000000E+00  0.00000000E+00
  0.00000000E+00  0.00000000E+00  0.00000000E+00
  0.00000000E+00  0.00000000E+00  0.00000000E+00
  0.00000000E+00  0.00000000E+00  0.00000000E+00
  0.00000000E+00  0.00000000E+00  0.00000000E+00
  0.00000000E+00  0.00000000E+00  0.00000000E+00
  0.00000000E+00  0.00000000E+00  0.00000000E+00
  0.00000000E+00  0.00000000E+00  0.00000000E+00
  0.00000000E+00  0.00000000E+00  0.00000000E+00
  0.00000000E+00  0.00000000E+00  0.00000000E+00
  0.00000000E+00  0.00000000E+00  0.00000000E+00
  0.00000000E+00  0.00000000E+00  0.00000000E+00
  0.00000000E+00  0.00000000E+00  0.00000000E+00
  0.00000000E+00  0.00000000E+00  0.00000000E+00
  0.00000000E+00  0.00000000E+00  0.00000000E+00
  0.00000000E+00  0.00000000E+00  0.00000000E+00
  0.00000000E+00  0.00000000E+00  0.00000000E+00
  0.00000000E+00  0.00000000E+00  0.00000000E+00
  0.00000000E+00  0.00000000E+00  0.00000000E+00
  0.00000000E+00  0.00000000E+00  0.00000000E+00
  0.00000000E+00  0.00000000E+00  0.00000000E+00
  0.00000000E+00  0.00000000E+00  0.00000000E+00
  0.00000000E+00  0.00000000E+00  0.00000000E+00
  0.00000000E+00  0.00000000E+00  0.00000000E+00
  0.00000000E+00  0.00000000E+00  0.00000000E+00
  0.00000000E+00  0.00000000E+00  0.00000000E+00
  0.00000000E+00  0.00000000E+00  0.00000000E+00
  0.00000000E+00  0.00000000E+00  0.00000000E+00
  0.00000000E+00  0.00000000E+00  0.00000000E+00
  0.00000000E+00  0.00000000E+00  0.00000000E+00
  0.00000000E+00  0.00000000E+00  0.00000000E+00
  0.00000000E+00  0.00000000E+00  0.00000000E+00
  0.00000000E+00  0.00000000E+00  0.00000000E+00
  0.00000000E+00  0.00000000E+00  0.00000000E+00
  0.00000000E+00  0.00000000E+00  0.00000000E+00
  0.00000000E+00  0.00000000E+00  0.00000000E+00
  0.00000000E+00  0.00000000E+00  0.00000000E+00
  0.00000000E+00  0.00000000E+00  0.00000000E+00
  0.00000000E+00  0.00000000E+00  0.00000000E+00
  0.00000000E+00  0.00000000E+00  0.00000000E+00
  0.00000000E+00  0.00000000E+00  0.00000000E+00
  0.00000000E+00  0.00000000E+00  0.00000000E+00
  0.00000000E+00  0.00000000E+00  0.00000000E+00
  0.00000000E+00  0.00000000E+00  0.00000000E+00
  0.00000000E+00  0.00000000E+00  0.00000000E+00
  0.00000000E+00  0.00000000E+00  0.00000000E+00
  0.00000000E+00  0.00000000E+00  0.00000000E+00
  0.00000000E+00  0.00000000E+00  0.00000000E+00
  0.00000000E+00  0.00000000E+00  0.00000000E+00
  0.00000000E+00  0.00000000E+00  0.00000000E+00
  0.00000000E+00  0.00000000E+00  0.00000000E+00
  0.00000000E+00  0.00000000E+00  0.00000000E+00
  0.00000000E+00  0.00000000E+00  0.00000000E+00
