Sc   Al   N                             
   1.00000000000000     
   -10.3944212461723513    0.0052941089182783   -0.0029307609879200
    -5.1916063077331822    8.9967054476403998   -0.0023135018510975
     0.0002768032038663    0.0049832599268278   -8.7065388363759197
   Sc   Al   N 
    11    25    36
Direct
  0.1130717707720663  0.0918641243369152  0.3573890288656045
  0.2198717787151026  0.2177848513297320  0.1027379230257708
  0.7766033653626749  0.0939279149573764  0.8527359398655250
  0.5528401573152379  0.2089553974203255  0.1075187198066985
  0.1130530367383926  0.0954193214990298  0.8470558054538913
  0.5543207769586616  0.5351356774351004  0.0988749114269822
  0.7843477143823989  0.4306985650571420  0.3514132886551522
  0.5541349962880062  0.5357031793824873  0.6059271201082126
  0.2188366886247408  0.8632453199810399  0.1013152553743240
  0.8901816098659481  0.8677765426471851  0.5978669654590050
  0.5608406683550129  0.8707224383692420  0.1017291853451567
  0.8862121234665423  0.2090591573304579  0.6016464026558808
  0.4451430300531172  0.0965685502890068  0.3589922104280987
  0.2224330589330847  0.2154270662695410  0.5985303282036227
  0.7772839041490727  0.0931579934106423  0.3525041756238565
  0.8903448175216937  0.2054813995451354  0.1013708456102762
  0.4440757951600318  0.0975406903245712  0.8264846466490070
  0.5516692900602891  0.2091753639515517  0.5946754559111014
  0.1111797032035327  0.4381765620476017  0.3540510776989407
  0.2112392537441963  0.5438370654502762  0.0931851581738741
  0.7835370434296607  0.4305024142098972  0.8507136517674923
  0.8928394250312692  0.5386182449994834  0.6015654544650175
  0.4329063434710605  0.4324668240396932  0.3532789377483496
  0.1104812063064813  0.4347178284056881  0.8416784254400014
  0.2215229194430322  0.5355683283415118  0.5970810781385509
  0.8953476010888153  0.5417887595936577  0.0903834014991105
  0.4331393784239310  0.4276689784431085  0.8447790262550612
  0.1148405384850264  0.7511177838526422  0.3514794027607593
  0.7806337267656147  0.7562490710442304  0.8448949546276765
  0.4433279385813336  0.7607889378476500  0.3680989493327971
  0.1146352304789602  0.7502581559870052  0.8403082205849515
  0.2250727828049293  0.8650663551304234  0.6040264964714410
  0.7814097435981182  0.7581276238109282  0.3496544953154981
  0.8949759215492534  0.8628945731414817  0.1051639140868303
  0.4440835381075985  0.7614394680057757  0.8494122714490757
  0.5556086957194353  0.8712970697459852  0.6006570874527739
  0.2251677004099335  0.2219763552484864  0.3671637384868589
  0.1006758694232559  0.1004098855764752  0.1024798370459408
  0.8804784021339174  0.2213507785725852  0.8515730135930610
  0.7695207689456325  0.1085000162668877  0.5976032089545811
  0.5552959521259240  0.2091611551144936  0.3635258700466579
  0.4440006218104386  0.0948008255383996  0.1274135341554725
  0.2314824854748778  0.2166536027768942  0.8414496497050337
  0.1110299049240524  0.0932736478417127  0.6025992721467830
  0.8805630179432384  0.1993028740076142  0.3558879688117074
  0.7941269060970768  0.0844227026641207  0.1094281573278835
  0.5391259821884233  0.2127113553243944  0.8478186769560239
  0.4467786118350361  0.0934338486651853  0.5976124822907352
  0.2208184312191861  0.5383201808056128  0.3636737047467165
  0.1013943628902254  0.4476784723206464  0.1038418852174487
  0.8907725851839956  0.5404028983641211  0.8532724444246043
  0.7949461148844676  0.4224982562860760  0.6089526829477521
  0.5411965329347339  0.5449176395268793  0.3547713790861735
  0.4182790779049412  0.4394776789289665  0.1070373989159563
  0.2196511491984836  0.5394546305756549  0.8528598155123674
  0.1081929346032666  0.4338044245411865  0.6096555415154228
  0.9010488033596289  0.5483473415044529  0.3620465032011992
  0.7967920435859241  0.4227841044476364  0.0964792991865764
  0.5564045764735965  0.5344987855334651  0.8504189528582131
  0.4323387215414911  0.4203220273395587  0.6061554413460399
  0.2306886155028565  0.8529937083446697  0.3611520334663467
  0.1026556400232153  0.7494619272685838  0.1129175058588885
  0.8997655185445765  0.8529241064217530  0.8561350131621026
  0.7699769621766634  0.7519316073977720  0.6073984419265983
  0.5578872398036978  0.8667678662313776  0.3643983422458987
  0.4452010610211588  0.7607025144855584  0.0868287193169266
  0.2263113750789501  0.8536786656111346  0.8428873395970413
  0.1263280418483674  0.7492076392938003  0.6021687182589872
  0.8876223014938986  0.8710900503127093  0.3480930567737559
  0.7935233276075735  0.7519161407813471  0.1054746193107192
  0.5553813676070121  0.8777183088318026  0.8419381577123914
  0.4377292223457800  0.7755345407957819  0.6061035432339210
 
  0.00000000E+00  0.00000000E+00  0.00000000E+00
  0.00000000E+00  0.00000000E+00  0.00000000E+00
  0.00000000E+00  0.00000000E+00  0.00000000E+00
  0.00000000E+00  0.00000000E+00  0.00000000E+00
  0.00000000E+00  0.00000000E+00  0.00000000E+00
  0.00000000E+00  0.00000000E+00  0.00000000E+00
  0.00000000E+00  0.00000000E+00  0.00000000E+00
  0.00000000E+00  0.00000000E+00  0.00000000E+00
  0.00000000E+00  0.00000000E+00  0.00000000E+00
  0.00000000E+00  0.00000000E+00  0.00000000E+00
  0.00000000E+00  0.00000000E+00  0.00000000E+00
  0.00000000E+00  0.00000000E+00  0.00000000E+00
  0.00000000E+00  0.00000000E+00  0.00000000E+00
  0.00000000E+00  0.00000000E+00  0.00000000E+00
  0.00000000E+00  0.00000000E+00  0.00000000E+00
  0.00000000E+00  0.00000000E+00  0.00000000E+00
  0.00000000E+00  0.00000000E+00  0.00000000E+00
  0.00000000E+00  0.00000000E+00  0.00000000E+00
  0.00000000E+00  0.00000000E+00  0.00000000E+00
  0.00000000E+00  0.00000000E+00  0.00000000E+00
  0.00000000E+00  0.00000000E+00  0.00000000E+00
  0.00000000E+00  0.00000000E+00  0.00000000E+00
  0.00000000E+00  0.00000000E+00  0.00000000E+00
  0.00000000E+00  0.00000000E+00  0.00000000E+00
  0.00000000E+00  0.00000000E+00  0.00000000E+00
  0.00000000E+00  0.00000000E+00  0.00000000E+00
  0.00000000E+00  0.00000000E+00  0.00000000E+00
  0.00000000E+00  0.00000000E+00  0.00000000E+00
  0.00000000E+00  0.00000000E+00  0.00000000E+00
  0.00000000E+00  0.00000000E+00  0.00000000E+00
  0.00000000E+00  0.00000000E+00  0.00000000E+00
  0.00000000E+00  0.00000000E+00  0.00000000E+00
  0.00000000E+00  0.00000000E+00  0.00000000E+00
  0.00000000E+00  0.00000000E+00  0.00000000E+00
  0.00000000E+00  0.00000000E+00  0.00000000E+00
  0.00000000E+00  0.00000000E+00  0.00000000E+00
  0.00000000E+00  0.00000000E+00  0.00000000E+00
  0.00000000E+00  0.00000000E+00  0.00000000E+00
  0.00000000E+00  0.00000000E+00  0.00000000E+00
  0.00000000E+00  0.00000000E+00  0.00000000E+00
  0.00000000E+00  0.00000000E+00  0.00000000E+00
  0.00000000E+00  0.00000000E+00  0.00000000E+00
  0.00000000E+00  0.00000000E+00  0.00000000E+00
  0.00000000E+00  0.00000000E+00  0.00000000E+00
  0.00000000E+00  0.00000000E+00  0.00000000E+00
  0.00000000E+00  0.00000000E+00  0.00000000E+00
  0.00000000E+00  0.00000000E+00  0.00000000E+00
  0.00000000E+00  0.00000000E+00  0.00000000E+00
  0.00000000E+00  0.00000000E+00  0.00000000E+00
  0.00000000E+00  0.00000000E+00  0.00000000E+00
  0.00000000E+00  0.00000000E+00  0.00000000E+00
  0.00000000E+00  0.00000000E+00  0.00000000E+00
  0.00000000E+00  0.00000000E+00  0.00000000E+00
  0.00000000E+00  0.00000000E+00  0.00000000E+00
  0.00000000E+00  0.00000000E+00  0.00000000E+00
  0.00000000E+00  0.00000000E+00  0.00000000E+00
  0.00000000E+00  0.00000000E+00  0.00000000E+00
  0.00000000E+00  0.00000000E+00  0.00000000E+00
  0.00000000E+00  0.00000000E+00  0.00000000E+00
  0.00000000E+00  0.00000000E+00  0.00000000E+00
  0.00000000E+00  0.00000000E+00  0.00000000E+00
  0.00000000E+00  0.00000000E+00  0.00000000E+00
  0.00000000E+00  0.00000000E+00  0.00000000E+00
  0.00000000E+00  0.00000000E+00  0.00000000E+00
  0.00000000E+00  0.00000000E+00  0.00000000E+00
  0.00000000E+00  0.00000000E+00  0.00000000E+00
  0.00000000E+00  0.00000000E+00  0.00000000E+00
  0.00000000E+00  0.00000000E+00  0.00000000E+00
  0.00000000E+00  0.00000000E+00  0.00000000E+00
  0.00000000E+00  0.00000000E+00  0.00000000E+00
  0.00000000E+00  0.00000000E+00  0.00000000E+00
  0.00000000E+00  0.00000000E+00  0.00000000E+00
