Sc   Al   N                             
   1.00000000000000     
   -10.0503901475323936    0.0055302584316834   -0.0036417437714153
    -5.0254865158366870    8.7067048997774688   -0.0017210426403705
    -0.0020034405703353    0.0129352769585042   -9.6966641855219482
   Sc   Al   N 
    11    25    36
Direct
  0.1135725409218580  0.0876029769600351  0.3768385129919096
  0.2134362485917123  0.2213857990324968  0.1227293700405454
  0.7804663207730158  0.0891912857785968  0.8578192908180995
  0.5593024417418135  0.2085150683923089  0.1189658900050361
  0.1119250418610704  0.0984390136154971  0.8573220526916785
  0.5498487729605941  0.5385386111721786  0.1153658730877893
  0.7843343114317918  0.4290556268945949  0.3567626583000489
  0.5592446046538271  0.5334634369715872  0.6159366316399328
  0.2174662414647486  0.8668893529292063  0.1098089253813228
  0.8948085729196649  0.8622043909324120  0.6037805927719759
  0.5620922435670863  0.8688365332199268  0.1166016822576594
  0.8867198699813628  0.2153376571171606  0.6296672579464726
  0.4469867519588604  0.0950510869284003  0.3647619209286290
  0.2212466313194383  0.2145987701061571  0.6166160392197071
  0.7718711350534022  0.0977421315223168  0.3848696804250977
  0.8905568014487244  0.1976668940385835  0.1270085977998292
  0.4425082441599315  0.0985667831351904  0.8313620483182120
  0.5484480486960948  0.2111240091615088  0.6215352315588092
  0.1112485538635681  0.4391100209977665  0.3861583110347482
  0.2104549916861984  0.5431278460162972  0.1290390386146072
  0.7813356923873513  0.4326085576985577  0.8859019341321570
  0.8896387357773392  0.5358474226759071  0.6318265230797095
  0.4348792081096846  0.4281494139764206  0.3830826777855663
  0.1090870493186031  0.4376784154475075  0.8722209281075877
  0.2219527828997414  0.5372133070765273  0.6299230068310635
  0.8985785454196247  0.5460778570150140  0.1247479670823495
  0.4314075584051409  0.4330460862020047  0.8751180300380383
  0.1239856765611123  0.7499339375661478  0.3769742536761669
  0.7861276267040367  0.7550868633198178  0.8755178125079581
  0.4400995126431511  0.7634393126240653  0.3874103181055801
  0.1092862747932628  0.7479010232981054  0.8794830250935064
  0.2253544956808540  0.8635476121095707  0.6353163498462990
  0.7759370500613514  0.7575925831230137  0.3802907607353347
  0.8925131634778154  0.8670436551608134  0.1350395392107870
  0.4479058090338413  0.7561348051245602  0.8682861233871080
  0.5553869996911516  0.8704146564270729  0.6241361222929100
  0.2254456028446441  0.2202491233464130  0.3533441130836579
  0.0972276814521251  0.1036631767697855  0.0831115668107287
  0.8760875729391699  0.2299710135327047  0.8245497316100199
  0.7691184244162201  0.1132338036720881  0.5882987453137076
  0.5561043380143289  0.2070224501919000  0.3457916925174231
  0.4427288123800821  0.0978224889635513  0.1087285160205624
  0.2274546495472123  0.2226355408190415  0.8247051763561188
  0.1119361710101785  0.0905082885884099  0.6031918113978350
  0.8805026457873169  0.1919667643752589  0.3241494894009662
  0.7996151151388204  0.0775018355315922  0.0782530914450561
  0.5386110675497093  0.2176164746391720  0.8293900955097797
  0.4468996992175605  0.0922882424422085  0.5951277931198362
  0.2222815754740708  0.5369315763767233  0.3267986795617759
  0.1008272199780862  0.4506107074287087  0.0661659868291835
  0.8870687102853907  0.5395200138712113  0.8288822997668035
  0.8000092240200942  0.4197589087916072  0.5742947505197478
  0.5377966548624471  0.5458086635477244  0.3483444142286629
  0.4157158228072291  0.4412691018258172  0.0704599952039189
  0.2198422246291400  0.5400975828835612  0.8230873522410604
  0.1057380851503709  0.4372987521815901  0.5826637083615935
  0.9043322790888837  0.5515559751894799  0.3208173321630028
  0.7976304183794340  0.4212360997988895  0.0902145141252859
  0.5599635623271553  0.5334716568555322  0.8430446907816105
  0.4304761418676435  0.4202037140099364  0.5788981821484285
  0.2327217656643796  0.8527187569237498  0.3304327832792069
  0.0975728776047546  0.7502969839265603  0.0773811173192769
  0.9017150382432533  0.8477689084866427  0.8198188876311860
  0.7673588310546151  0.7461984560454624  0.5757798314443292
  0.5547939936415887  0.8688308416343489  0.3430201309252823
  0.4457100498560038  0.7608641120738824  0.0610354190914890
  0.2275740103350046  0.8491485432223627  0.8345789801649488
  0.1364749202846198  0.7460618602454190  0.5720774684574721
  0.8876860428604658  0.8718399477248084  0.3445625131860197
  0.7970537002676963  0.7551925583122951  0.0727908486179558
  0.5584303218253694  0.8730010677685058  0.8298638017324436
  0.4346780027030448  0.7783313651243873  0.5865155430866835
 
  0.00000000E+00  0.00000000E+00  0.00000000E+00
  0.00000000E+00  0.00000000E+00  0.00000000E+00
  0.00000000E+00  0.00000000E+00  0.00000000E+00
  0.00000000E+00  0.00000000E+00  0.00000000E+00
  0.00000000E+00  0.00000000E+00  0.00000000E+00
  0.00000000E+00  0.00000000E+00  0.00000000E+00
  0.00000000E+00  0.00000000E+00  0.00000000E+00
  0.00000000E+00  0.00000000E+00  0.00000000E+00
  0.00000000E+00  0.00000000E+00  0.00000000E+00
  0.00000000E+00  0.00000000E+00  0.00000000E+00
  0.00000000E+00  0.00000000E+00  0.00000000E+00
  0.00000000E+00  0.00000000E+00  0.00000000E+00
  0.00000000E+00  0.00000000E+00  0.00000000E+00
  0.00000000E+00  0.00000000E+00  0.00000000E+00
  0.00000000E+00  0.00000000E+00  0.00000000E+00
  0.00000000E+00  0.00000000E+00  0.00000000E+00
  0.00000000E+00  0.00000000E+00  0.00000000E+00
  0.00000000E+00  0.00000000E+00  0.00000000E+00
  0.00000000E+00  0.00000000E+00  0.00000000E+00
  0.00000000E+00  0.00000000E+00  0.00000000E+00
  0.00000000E+00  0.00000000E+00  0.00000000E+00
  0.00000000E+00  0.00000000E+00  0.00000000E+00
  0.00000000E+00  0.00000000E+00  0.00000000E+00
  0.00000000E+00  0.00000000E+00  0.00000000E+00
  0.00000000E+00  0.00000000E+00  0.00000000E+00
  0.00000000E+00  0.00000000E+00  0.00000000E+00
  0.00000000E+00  0.00000000E+00  0.00000000E+00
  0.00000000E+00  0.00000000E+00  0.00000000E+00
  0.00000000E+00  0.00000000E+00  0.00000000E+00
  0.00000000E+00  0.00000000E+00  0.00000000E+00
  0.00000000E+00  0.00000000E+00  0.00000000E+00
  0.00000000E+00  0.00000000E+00  0.00000000E+00
  0.00000000E+00  0.00000000E+00  0.00000000E+00
  0.00000000E+00  0.00000000E+00  0.00000000E+00
  0.00000000E+00  0.00000000E+00  0.00000000E+00
  0.00000000E+00  0.00000000E+00  0.00000000E+00
  0.00000000E+00  0.00000000E+00  0.00000000E+00
  0.00000000E+00  0.00000000E+00  0.00000000E+00
  0.00000000E+00  0.00000000E+00  0.00000000E+00
  0.00000000E+00  0.00000000E+00  0.00000000E+00
  0.00000000E+00  0.00000000E+00  0.00000000E+00
  0.00000000E+00  0.00000000E+00  0.00000000E+00
  0.00000000E+00  0.00000000E+00  0.00000000E+00
  0.00000000E+00  0.00000000E+00  0.00000000E+00
  0.00000000E+00  0.00000000E+00  0.00000000E+00
  0.00000000E+00  0.00000000E+00  0.00000000E+00
  0.00000000E+00  0.00000000E+00  0.00000000E+00
  0.00000000E+00  0.00000000E+00  0.00000000E+00
  0.00000000E+00  0.00000000E+00  0.00000000E+00
  0.00000000E+00  0.00000000E+00  0.00000000E+00
  0.00000000E+00  0.00000000E+00  0.00000000E+00
  0.00000000E+00  0.00000000E+00  0.00000000E+00
  0.00000000E+00  0.00000000E+00  0.00000000E+00
  0.00000000E+00  0.00000000E+00  0.00000000E+00
  0.00000000E+00  0.00000000E+00  0.00000000E+00
  0.00000000E+00  0.00000000E+00  0.00000000E+00
  0.00000000E+00  0.00000000E+00  0.00000000E+00
  0.00000000E+00  0.00000000E+00  0.00000000E+00
  0.00000000E+00  0.00000000E+00  0.00000000E+00
  0.00000000E+00  0.00000000E+00  0.00000000E+00
  0.00000000E+00  0.00000000E+00  0.00000000E+00
  0.00000000E+00  0.00000000E+00  0.00000000E+00
  0.00000000E+00  0.00000000E+00  0.00000000E+00
  0.00000000E+00  0.00000000E+00  0.00000000E+00
  0.00000000E+00  0.00000000E+00  0.00000000E+00
  0.00000000E+00  0.00000000E+00  0.00000000E+00
  0.00000000E+00  0.00000000E+00  0.00000000E+00
  0.00000000E+00  0.00000000E+00  0.00000000E+00
  0.00000000E+00  0.00000000E+00  0.00000000E+00
  0.00000000E+00  0.00000000E+00  0.00000000E+00
  0.00000000E+00  0.00000000E+00  0.00000000E+00
  0.00000000E+00  0.00000000E+00  0.00000000E+00
