Sc   Al   N                             
   1.00000000000000     
    -9.8624514994935435    0.0057401691102656   -0.0042737284678556
    -4.9363697894665401    8.5476389163069655   -0.0011944122308354
    -0.0050098107457133   -0.0019928467566215  -10.1794535444179068
   Sc   Al   N 
    11    25    36
Direct
  0.1133693525098707  0.0908216516962312  0.4091387284326018
  0.2170751558629860  0.2161575666933544  0.1449037667309696
  0.7776266169422286  0.0902846499940608  0.8898885668222647
  0.5553558090315391  0.2073891686142630  0.1484646106570082
  0.1127934410398481  0.0961589806648888  0.8786067288375534
  0.5506871137647025  0.5390776090055454  0.1418272803281866
  0.7827969478640640  0.4298405370593414  0.3872195979743012
  0.5572086912754273  0.5353701997285967  0.6432884723369980
  0.2152599351001072  0.8701318682440018  0.1401896351672178
  0.8925615008620511  0.8652998642985210  0.6319214986400468
  0.5600941395995065  0.8721779212090723  0.1443638996947172
  0.8854301099462489  0.2134621616685450  0.6535177211212968
  0.4464803270420674  0.0953134370099207  0.4116145823515041
  0.2247627753359041  0.2132109131806814  0.6511278111606700
  0.7727912569545694  0.0968328729933603  0.4032909202349089
  0.8906123286294445  0.2007613292839352  0.1488715819734381
  0.4430283370357415  0.0995419305523981  0.8889797646226754
  0.5476823566537945  0.2099121533427066  0.6484875509747567
  0.1138129159235604  0.4355216878904145  0.4036684284442771
  0.2116753907410285  0.5426737686400998  0.1481141875248184
  0.7801596320282229  0.4324193511782184  0.9046245015431964
  0.8914919851581260  0.5354367509693176  0.6523619359974901
  0.4353206267521585  0.4276322154828449  0.4049429322168905
  0.1097669066850671  0.4363401612202580  0.8954254613413681
  0.2221832342121886  0.5355617216944140  0.6505030859863368
  0.8971979823117238  0.5437955996630492  0.1453124046395757
  0.4338032275235122  0.4319757322986604  0.8963977184800811
  0.1209404200288802  0.7511595305523784  0.3997851824017076
  0.7835695846549982  0.7550642482708341  0.8971087943741267
  0.4404120919463637  0.7647284349929606  0.4086282540953050
  0.1120275347458985  0.7481164784950352  0.8990238302634381
  0.2269889347657923  0.8631941948311237  0.6552808080303976
  0.7769864447701593  0.7591331554284437  0.4013625993198175
  0.8929771228135905  0.8657623564508938  0.1537420413465327
  0.4479302016684912  0.7570178374354626  0.8933418907571280
  0.5536102850665756  0.8729762164299544  0.6502482624780228
  0.2304064480778862  0.2161075328961601  0.3574057126589310
  0.0959192710090235  0.1045504138137261  0.0897400453841470
  0.8736153044460480  0.2284972111948633  0.8378896612191298
  0.7679495126083680  0.1145291781970172  0.5962892995999027
  0.5537683933557247  0.2046669873937503  0.3582759405774780
  0.4441697869235810  0.0968266900517207  0.0737540611654097
  0.2287912170398840  0.2224625232679287  0.8384070831410853
  0.1126128450473871  0.0916911118569672  0.6233228915441558
  0.8826693604314073  0.1929528258407132  0.3364432666674659
  0.7956132096690922  0.0807785703700148  0.0987633014974350
  0.5386453631220576  0.2178437634739012  0.8376160820933265
  0.4458998156086054  0.0928040379337816  0.5998154232853850
  0.2226807681226788  0.5374726817040383  0.3392431559099691
  0.1022433297861269  0.4470622415166261  0.0816673371531849
  0.8884212088883601  0.5388363010995363  0.8421991121580987
  0.7994097929860615  0.4190519203299274  0.5930323902970613
  0.5368115474392496  0.5468235367461887  0.3601946479752911
  0.4190724636797611  0.4382912940996988  0.0830594763444168
  0.2206327640913699  0.5388550652649684  0.8371640372268701
  0.1083348458346123  0.4329756857441183  0.5936257932753719
  0.9034785676708026  0.5506886926438099  0.3339068633054367
  0.7967034491600984  0.4214192375142218  0.0990793079443151
  0.5586854073025975  0.5351849683283376  0.8576924168790114
  0.4311814623100929  0.4193511625010800  0.5912126661324848
  0.2300055425480281  0.8566855548079104  0.3491214614192799
  0.0992459129355723  0.7506838887116487  0.0885569283642837
  0.9005389672160362  0.8494991795865232  0.8382132571237051
  0.7672064122111948  0.7470313814382266  0.5886695638359427
  0.5532585891343587  0.8741303542430785  0.3561720553306245
  0.4443061049279322  0.7635413547155139  0.0770618315601439
  0.2310115187174944  0.8464100143021795  0.8438238381735772
  0.1351742388048933  0.7461853326902244  0.5867987463326330
  0.8892621822146580  0.8710452920134415  0.3554782218672372
  0.7945178843702720  0.7547142924394734  0.0864661386208212
  0.5578925581079659  0.8719466689817210  0.8415279913609766
  0.4353701367023532  0.7792430998985154  0.5962645038370979
 
  0.00000000E+00  0.00000000E+00  0.00000000E+00
  0.00000000E+00  0.00000000E+00  0.00000000E+00
  0.00000000E+00  0.00000000E+00  0.00000000E+00
  0.00000000E+00  0.00000000E+00  0.00000000E+00
  0.00000000E+00  0.00000000E+00  0.00000000E+00
  0.00000000E+00  0.00000000E+00  0.00000000E+00
  0.00000000E+00  0.00000000E+00  0.00000000E+00
  0.00000000E+00  0.00000000E+00  0.00000000E+00
  0.00000000E+00  0.00000000E+00  0.00000000E+00
  0.00000000E+00  0.00000000E+00  0.00000000E+00
  0.00000000E+00  0.00000000E+00  0.00000000E+00
  0.00000000E+00  0.00000000E+00  0.00000000E+00
  0.00000000E+00  0.00000000E+00  0.00000000E+00
  0.00000000E+00  0.00000000E+00  0.00000000E+00
  0.00000000E+00  0.00000000E+00  0.00000000E+00
  0.00000000E+00  0.00000000E+00  0.00000000E+00
  0.00000000E+00  0.00000000E+00  0.00000000E+00
  0.00000000E+00  0.00000000E+00  0.00000000E+00
  0.00000000E+00  0.00000000E+00  0.00000000E+00
  0.00000000E+00  0.00000000E+00  0.00000000E+00
  0.00000000E+00  0.00000000E+00  0.00000000E+00
  0.00000000E+00  0.00000000E+00  0.00000000E+00
  0.00000000E+00  0.00000000E+00  0.00000000E+00
  0.00000000E+00  0.00000000E+00  0.00000000E+00
  0.00000000E+00  0.00000000E+00  0.00000000E+00
  0.00000000E+00  0.00000000E+00  0.00000000E+00
  0.00000000E+00  0.00000000E+00  0.00000000E+00
  0.00000000E+00  0.00000000E+00  0.00000000E+00
  0.00000000E+00  0.00000000E+00  0.00000000E+00
  0.00000000E+00  0.00000000E+00  0.00000000E+00
  0.00000000E+00  0.00000000E+00  0.00000000E+00
  0.00000000E+00  0.00000000E+00  0.00000000E+00
  0.00000000E+00  0.00000000E+00  0.00000000E+00
  0.00000000E+00  0.00000000E+00  0.00000000E+00
  0.00000000E+00  0.00000000E+00  0.00000000E+00
  0.00000000E+00  0.00000000E+00  0.00000000E+00
  0.00000000E+00  0.00000000E+00  0.00000000E+00
  0.00000000E+00  0.00000000E+00  0.00000000E+00
  0.00000000E+00  0.00000000E+00  0.00000000E+00
  0.00000000E+00  0.00000000E+00  0.00000000E+00
  0.00000000E+00  0.00000000E+00  0.00000000E+00
  0.00000000E+00  0.00000000E+00  0.00000000E+00
  0.00000000E+00  0.00000000E+00  0.00000000E+00
  0.00000000E+00  0.00000000E+00  0.00000000E+00
  0.00000000E+00  0.00000000E+00  0.00000000E+00
  0.00000000E+00  0.00000000E+00  0.00000000E+00
  0.00000000E+00  0.00000000E+00  0.00000000E+00
  0.00000000E+00  0.00000000E+00  0.00000000E+00
  0.00000000E+00  0.00000000E+00  0.00000000E+00
  0.00000000E+00  0.00000000E+00  0.00000000E+00
  0.00000000E+00  0.00000000E+00  0.00000000E+00
  0.00000000E+00  0.00000000E+00  0.00000000E+00
  0.00000000E+00  0.00000000E+00  0.00000000E+00
  0.00000000E+00  0.00000000E+00  0.00000000E+00
  0.00000000E+00  0.00000000E+00  0.00000000E+00
  0.00000000E+00  0.00000000E+00  0.00000000E+00
  0.00000000E+00  0.00000000E+00  0.00000000E+00
  0.00000000E+00  0.00000000E+00  0.00000000E+00
  0.00000000E+00  0.00000000E+00  0.00000000E+00
  0.00000000E+00  0.00000000E+00  0.00000000E+00
  0.00000000E+00  0.00000000E+00  0.00000000E+00
  0.00000000E+00  0.00000000E+00  0.00000000E+00
  0.00000000E+00  0.00000000E+00  0.00000000E+00
  0.00000000E+00  0.00000000E+00  0.00000000E+00
  0.00000000E+00  0.00000000E+00  0.00000000E+00
  0.00000000E+00  0.00000000E+00  0.00000000E+00
  0.00000000E+00  0.00000000E+00  0.00000000E+00
  0.00000000E+00  0.00000000E+00  0.00000000E+00
  0.00000000E+00  0.00000000E+00  0.00000000E+00
  0.00000000E+00  0.00000000E+00  0.00000000E+00
  0.00000000E+00  0.00000000E+00  0.00000000E+00
  0.00000000E+00  0.00000000E+00  0.00000000E+00
