generated by phonopy                    
   1.00000000000000     
    10.0351470768999995   -0.0000022330999784   -0.0000001056124209
    -5.0175765436399997    8.6906901959899994    0.0000001395531216
    -0.0000001735893656    0.0000001431815548   14.9533752540999991
   Pb   P    O 
    20    13    49
Direct
  0.9986687757987838  0.7755736397408555  0.1193548509630418
  0.9992523513156044  0.7758275985945531  0.6267892531902888
  0.9913914871980438  0.2503559376973428  0.3741105459392529
  0.0043646567201208  0.2610349284948228  0.8736938744190041
  0.2274058454976782  0.2257838001618353  0.1198557750441722
  0.2278548526446684  0.2258752529814529  0.6265242539306541
  0.7229945155478035  0.7346377523265915  0.3731386322077768
  0.7439782002770841  0.7436891327778170  0.8735512895596784
  0.7717874976107311  0.0014573140659166  0.1188656439691300
  0.7718494699988767  0.0016696399001077  0.6277597589958290
  0.2421008569448659  0.9914689745182699  0.3731260635137232
  0.2564508324513852  0.9937571421331057  0.8735381920470928
  0.6575041636794694  0.3308144793280050  0.9999332571142077
  0.7014131434439435  0.3493951330048972  0.5071239701942929
  0.3382549347393535  0.6661770477705389  0.0025055556632623
  0.3292267125711064  0.6757442342577420  0.5049797888726673
  0.3270665341358097  0.6746458574285015  0.2423838804433203
  0.3384793635268153  0.6663041572115560  0.7448237889654408
  0.6999397041608901  0.3468140321768658  0.2412563687491485
  0.6579551101397882  0.3301171669794272  0.7482495086454719
  0.6250525036668364  0.5962669936200200  0.1233431372241682
  0.6258950045409577  0.5967552596208847  0.6248054749671184
  0.3496637395508557  0.4012836284149728  0.3734347072700004
  0.3710724734457926  0.3980089026300391  0.8738705225139256
  0.4003509155748119  0.0278074320694941  0.1224171445996092
  0.4010589999003003  0.0282019395377731  0.6253321452872456
  0.6030977433196298  0.9752222563801141  0.3740397461304070
  0.6066034549343726  0.9742983553547333  0.8740141521041025
  0.9770555339057907  0.3777118736244844  0.1186524008050540
  0.9783104942737211  0.3777730231296559  0.6296680722605927
  0.0326827890645163  0.6222523813306537  0.3738099846895437
  0.0232091606436384  0.6313775994145558  0.8738222412959615
  0.4840113770591827  0.2944157094066640  0.3742898887173709
  0.5024253351047676  0.6483607824388073  0.1222269019498370
  0.5035251274105192  0.6492370949566109  0.6249956453417411
  0.4697112161646189  0.3182251165203240  0.8741630913039344
  0.3533859316913350  0.8541499684608098  0.1176190069508962
  0.3543303717442257  0.8545314003571676  0.6296279407778655
  0.6905715212787271  0.1547262498667337  0.3744587936603878
  0.6857298394431055  0.1526503828480230  0.8742765830941437
  0.1524336762377985  0.4968166186700884  0.1202589335715487
  0.1536860727997578  0.4968454922882373  0.6273946593309319
  0.8542070837946341  0.5252445072683756  0.3736546738202691
  0.8444848793068616  0.5324031028057234  0.8740430972467834
  0.7318513792694787  0.6571415351705028  0.0385895372464020
  0.7322900360172540  0.6584729747974478  0.5401202144994528
  0.2469839285274773  0.3521704538101531  0.4588873343204867
  0.2650805107626368  0.3557480756281279  0.9580015533554018
  0.3521866463827834  0.0804405725853243  0.0349899390760839
  0.3189372350070343  0.0567097152198812  0.5450448485803818
  0.6433736589958059  0.9087027144530850  0.4581039094255175
  0.6504381346981134  0.9109978886212886  0.9580532012330281
  0.9335274994822953  0.2631745873132516  0.0385194807129423
  0.9252616585365061  0.2790445827577344  0.5414438143944054
  0.0943351569213959  0.7243719424327182  0.4593559465641945
  0.0870297984081816  0.7395067073380588  0.9575449345337717
  0.2458253673644606  0.3513665358631854  0.2885311215490063
  0.2639114164752456  0.3536934794744440  0.7902411400275895
  0.7322556568764682  0.6611496176258882  0.2075207036040680
  0.7335669137322753  0.6604093985926482  0.7090445810177712
  0.6470378087720334  0.9103483179690741  0.2907036127471372
  0.6524310247094647  0.9119571667195814  0.7903890887415201
  0.3164533756679546  0.0553172579237540  0.2021465546214358
  0.3506277021582562  0.0792234633619415  0.7125290349555868
  0.0946454858196617  0.7241736334805893  0.2881751213146870
  0.0864018372610573  0.7407072324083472  0.7906045856806116
  0.9248324526877241  0.2784552289738258  0.2066775637674212
  0.9357830924206070  0.2623698354188946  0.7093122081338521
  0.5465516728754309  0.4160873710755268  0.1245572706475997
  0.5469726782070694  0.4165715924936464  0.6253560330944623
  0.4557410386321692  0.5828005748791867  0.3730887373968343
  0.4807839785160510  0.5789940430959888  0.8731924942700928
  0.5797341797664117  0.1297115249952157  0.1310307480548829
  0.5805849035612525  0.1305864064607363  0.6180192931349353
  0.4227327445925084  0.9077421367506062  0.3728417457033828
  0.4254610831020784  0.9002245653437200  0.8733603361753026
  0.8817245715508051  0.4624677987939663  0.1104076961009071
  0.8832114811621494  0.4624519570152046  0.6392469190107093
  0.1030430990852267  0.5122796263629539  0.3738765486638229
  0.0961649837116809  0.5233350291907257  0.8731678435966970
  0.9975542308629670  0.0014688532632192  0.1099184681266223
  0.9977689626288253  0.0015624758478552  0.6324093840629743
 
  0.00000000E+00  0.00000000E+00  0.00000000E+00
  0.00000000E+00  0.00000000E+00  0.00000000E+00
  0.00000000E+00  0.00000000E+00  0.00000000E+00
  0.00000000E+00  0.00000000E+00  0.00000000E+00
  0.00000000E+00  0.00000000E+00  0.00000000E+00
  0.00000000E+00  0.00000000E+00  0.00000000E+00
  0.00000000E+00  0.00000000E+00  0.00000000E+00
  0.00000000E+00  0.00000000E+00  0.00000000E+00
  0.00000000E+00  0.00000000E+00  0.00000000E+00
  0.00000000E+00  0.00000000E+00  0.00000000E+00
  0.00000000E+00  0.00000000E+00  0.00000000E+00
  0.00000000E+00  0.00000000E+00  0.00000000E+00
  0.00000000E+00  0.00000000E+00  0.00000000E+00
  0.00000000E+00  0.00000000E+00  0.00000000E+00
  0.00000000E+00  0.00000000E+00  0.00000000E+00
  0.00000000E+00  0.00000000E+00  0.00000000E+00
  0.00000000E+00  0.00000000E+00  0.00000000E+00
  0.00000000E+00  0.00000000E+00  0.00000000E+00
  0.00000000E+00  0.00000000E+00  0.00000000E+00
  0.00000000E+00  0.00000000E+00  0.00000000E+00
  0.00000000E+00  0.00000000E+00  0.00000000E+00
  0.00000000E+00  0.00000000E+00  0.00000000E+00
  0.00000000E+00  0.00000000E+00  0.00000000E+00
  0.00000000E+00  0.00000000E+00  0.00000000E+00
  0.00000000E+00  0.00000000E+00  0.00000000E+00
  0.00000000E+00  0.00000000E+00  0.00000000E+00
  0.00000000E+00  0.00000000E+00  0.00000000E+00
  0.00000000E+00  0.00000000E+00  0.00000000E+00
  0.00000000E+00  0.00000000E+00  0.00000000E+00
  0.00000000E+00  0.00000000E+00  0.00000000E+00
  0.00000000E+00  0.00000000E+00  0.00000000E+00
  0.00000000E+00  0.00000000E+00  0.00000000E+00
  0.00000000E+00  0.00000000E+00  0.00000000E+00
  0.00000000E+00  0.00000000E+00  0.00000000E+00
  0.00000000E+00  0.00000000E+00  0.00000000E+00
  0.00000000E+00  0.00000000E+00  0.00000000E+00
  0.00000000E+00  0.00000000E+00  0.00000000E+00
  0.00000000E+00  0.00000000E+00  0.00000000E+00
  0.00000000E+00  0.00000000E+00  0.00000000E+00
  0.00000000E+00  0.00000000E+00  0.00000000E+00
  0.00000000E+00  0.00000000E+00  0.00000000E+00
  0.00000000E+00  0.00000000E+00  0.00000000E+00
  0.00000000E+00  0.00000000E+00  0.00000000E+00
  0.00000000E+00  0.00000000E+00  0.00000000E+00
  0.00000000E+00  0.00000000E+00  0.00000000E+00
  0.00000000E+00  0.00000000E+00  0.00000000E+00
  0.00000000E+00  0.00000000E+00  0.00000000E+00
  0.00000000E+00  0.00000000E+00  0.00000000E+00
  0.00000000E+00  0.00000000E+00  0.00000000E+00
  0.00000000E+00  0.00000000E+00  0.00000000E+00
  0.00000000E+00  0.00000000E+00  0.00000000E+00
  0.00000000E+00  0.00000000E+00  0.00000000E+00
  0.00000000E+00  0.00000000E+00  0.00000000E+00
  0.00000000E+00  0.00000000E+00  0.00000000E+00
  0.00000000E+00  0.00000000E+00  0.00000000E+00
  0.00000000E+00  0.00000000E+00  0.00000000E+00
  0.00000000E+00  0.00000000E+00  0.00000000E+00
  0.00000000E+00  0.00000000E+00  0.00000000E+00
  0.00000000E+00  0.00000000E+00  0.00000000E+00
  0.00000000E+00  0.00000000E+00  0.00000000E+00
  0.00000000E+00  0.00000000E+00  0.00000000E+00
  0.00000000E+00  0.00000000E+00  0.00000000E+00
  0.00000000E+00  0.00000000E+00  0.00000000E+00
  0.00000000E+00  0.00000000E+00  0.00000000E+00
  0.00000000E+00  0.00000000E+00  0.00000000E+00
  0.00000000E+00  0.00000000E+00  0.00000000E+00
  0.00000000E+00  0.00000000E+00  0.00000000E+00
  0.00000000E+00  0.00000000E+00  0.00000000E+00
  0.00000000E+00  0.00000000E+00  0.00000000E+00
  0.00000000E+00  0.00000000E+00  0.00000000E+00
  0.00000000E+00  0.00000000E+00  0.00000000E+00
  0.00000000E+00  0.00000000E+00  0.00000000E+00
  0.00000000E+00  0.00000000E+00  0.00000000E+00
  0.00000000E+00  0.00000000E+00  0.00000000E+00
  0.00000000E+00  0.00000000E+00  0.00000000E+00
  0.00000000E+00  0.00000000E+00  0.00000000E+00
  0.00000000E+00  0.00000000E+00  0.00000000E+00
  0.00000000E+00  0.00000000E+00  0.00000000E+00
  0.00000000E+00  0.00000000E+00  0.00000000E+00
  0.00000000E+00  0.00000000E+00  0.00000000E+00
  0.00000000E+00  0.00000000E+00  0.00000000E+00
  0.00000000E+00  0.00000000E+00  0.00000000E+00
