supercell of icsd_608626.cif            
   1.12248915506316     
     9.4313928149469213    0.0729484129519185    0.0264382190671875
    -4.6524506480765737    8.0753858656935869    0.0127950398743185
     0.0262368734521034    0.0306035315345910    9.1788362532482850
   Y    Al   N 
    18    18    36
Direct
  0.2256371344854173  0.1220995040882471  0.1992984384246768
  0.0863703787965946  0.2115952014158324  0.4748248204672123
  0.4384316746198067  0.2256062917953940  0.4761438111618190
  0.5647230190374586  0.1222772531358558  0.7261422778705153
  0.8967852431118217  0.4341523234433495  0.7590240873758702
  0.4489889990275060  0.5682094337904786  0.4954352854711459
  0.2125412682417718  0.4185079856143972  0.7380231017397136
  0.8983495044021552  0.4317099973885306  0.2210881804830080
  0.7914520396150024  0.5536925755981201  0.4660417365911158
  0.5596643617016355  0.4403200577647723  0.7537480347450014
  0.4311432138985722  0.5461847060741505  0.9878698128846395
  0.1082564694619208  0.8955116185352523  0.4833467507339151
  0.8719742542775890  0.7786302509375957  0.7308563305120757
  0.5744865615908239  0.7857170306853902  0.2225608172844744
  0.4499581572770524  0.8900929887096751  0.4758028680209492
  0.2228275781562132  0.7637891012156643  0.7304501931610972
  0.0910701015264763  0.8696409702713837  0.9841230399816254
  0.4435823984739073  0.9065105290813520  0.9966769179693458
  0.8802737990250975  0.1000362709338916  0.7467123772691480
  0.7785747399640499  0.2078495550477157  0.0048611938425296
  0.5703177390389129  0.1167634073634787  0.2588874629421341
  0.2030468648210189  0.1067330040994392  0.7656550310173387
  0.0827373036265513  0.2227998883066888  0.0020860373620906
  0.8790800067045197  0.1030700891392584  0.2431196737779615
  0.7895775871803465  0.2170560187297994  0.4924272877298250
  0.5269110906320833  0.2641964278865174  0.0269289619792090
  0.2214858825216552  0.4487657519053698  0.2500154077996299
  0.1048208745983601  0.5385102034954770  0.4865444139923127
  0.7773421679720016  0.5689283644224190  0.0225737373401387
  0.5609692614954014  0.4543636959574542  0.2475124820161270
  0.1159627435829620  0.5519089254463765  0.0114286684172527
  0.2154437787107497  0.7690940003985034  0.2565014200947289
  0.7889689843316177  0.8980869392240081  0.9988427173797305
  0.8921117436452093  0.7913992024034897  0.2527345698360364
  0.7690487920275828  0.8999777422401252  0.4961841169552699
  0.5679152456207390  0.7945387666138473  0.7629587720817526
  0.2178904692346677  0.1160243885242949  0.4103054477144212
  0.0830708476684947  0.2411074724825326  0.1948140943724610
  0.8800309935740742  0.1079825017066298  0.9386048708288115
  0.7985491087279470  0.2104065941563604  0.6773526709463411
  0.5883539692531343  0.1335190267068214  0.4465641190683698
  0.4913620729125583  0.2444791269215116  0.2032433933623849
  0.1949665829021612  0.1217801144162465  0.9617928261584865
  0.0789925608518942  0.1755157863356871  0.6966848969063193
  0.8531749867697158  0.0900682012102507  0.4250363479285753
  0.7567876147621959  0.1773944126824460  0.1842625135753480
  0.5892193484737618  0.1517772169053373  0.9437248628162465
  0.3997259287362311  0.2116518276546628  0.6956599450091048
  0.2173196785946558  0.4530253821860057  0.4355104978447883
  0.1482351436066693  0.5734824110870775  0.1926011412200026
  0.8931363386982625  0.4474610170806059  0.9902672026756534
  0.7810253305739963  0.5425728926135847  0.6813411631075255
  0.5605004576337862  0.4542642463126114  0.4308803231984584
  0.4293784259461333  0.5273718574487347  0.2074238093884588
  0.1810777264872456  0.4238738656669341  0.9497825208306665
  0.1079942558836962  0.5360388708626331  0.6679722733485249
  0.9069333931813759  0.4176122460014966  0.4389563186369685
  0.7718479438343735  0.5777292779749104  0.2105687597657777
  0.5828067633646796  0.4483334886307873  0.9710657991198204
  0.4622952596017953  0.5855140303598816  0.7325908601981723
  0.2030687246415539  0.7464529298780889  0.4451090920888134
  0.0951055099267890  0.8569695411577314  0.2130956619329396
  0.8531745196245097  0.7594266876520805  0.9493214895761355
  0.7563698022900169  0.9029475558381534  0.6867108042391408
  0.5812087334937530  0.7924745047193937  0.4329496930308423
  0.4304310770235418  0.9083435066732832  0.2242476047402988
  0.2126710768325708  0.7449054729364732  0.9457641336980274
  0.1153029087973820  0.9029697916227022  0.7233403380831334
  0.8748397164429278  0.8012527079032523  0.4453944484292336
  0.8202329517226374  0.9105764242161527  0.1800154734477459
  0.5809854716727614  0.8006435851656590  0.9650685582482481
  0.4611033430575233  0.8857249631497126  0.7125452077523846
 
  0.00000000E+00  0.00000000E+00  0.00000000E+00
  0.00000000E+00  0.00000000E+00  0.00000000E+00
  0.00000000E+00  0.00000000E+00  0.00000000E+00
  0.00000000E+00  0.00000000E+00  0.00000000E+00
  0.00000000E+00  0.00000000E+00  0.00000000E+00
  0.00000000E+00  0.00000000E+00  0.00000000E+00
  0.00000000E+00  0.00000000E+00  0.00000000E+00
  0.00000000E+00  0.00000000E+00  0.00000000E+00
  0.00000000E+00  0.00000000E+00  0.00000000E+00
  0.00000000E+00  0.00000000E+00  0.00000000E+00
  0.00000000E+00  0.00000000E+00  0.00000000E+00
  0.00000000E+00  0.00000000E+00  0.00000000E+00
  0.00000000E+00  0.00000000E+00  0.00000000E+00
  0.00000000E+00  0.00000000E+00  0.00000000E+00
  0.00000000E+00  0.00000000E+00  0.00000000E+00
  0.00000000E+00  0.00000000E+00  0.00000000E+00
  0.00000000E+00  0.00000000E+00  0.00000000E+00
  0.00000000E+00  0.00000000E+00  0.00000000E+00
  0.00000000E+00  0.00000000E+00  0.00000000E+00
  0.00000000E+00  0.00000000E+00  0.00000000E+00
  0.00000000E+00  0.00000000E+00  0.00000000E+00
  0.00000000E+00  0.00000000E+00  0.00000000E+00
  0.00000000E+00  0.00000000E+00  0.00000000E+00
  0.00000000E+00  0.00000000E+00  0.00000000E+00
  0.00000000E+00  0.00000000E+00  0.00000000E+00
  0.00000000E+00  0.00000000E+00  0.00000000E+00
  0.00000000E+00  0.00000000E+00  0.00000000E+00
  0.00000000E+00  0.00000000E+00  0.00000000E+00
  0.00000000E+00  0.00000000E+00  0.00000000E+00
  0.00000000E+00  0.00000000E+00  0.00000000E+00
  0.00000000E+00  0.00000000E+00  0.00000000E+00
  0.00000000E+00  0.00000000E+00  0.00000000E+00
  0.00000000E+00  0.00000000E+00  0.00000000E+00
  0.00000000E+00  0.00000000E+00  0.00000000E+00
  0.00000000E+00  0.00000000E+00  0.00000000E+00
  0.00000000E+00  0.00000000E+00  0.00000000E+00
  0.00000000E+00  0.00000000E+00  0.00000000E+00
  0.00000000E+00  0.00000000E+00  0.00000000E+00
  0.00000000E+00  0.00000000E+00  0.00000000E+00
  0.00000000E+00  0.00000000E+00  0.00000000E+00
  0.00000000E+00  0.00000000E+00  0.00000000E+00
  0.00000000E+00  0.00000000E+00  0.00000000E+00
  0.00000000E+00  0.00000000E+00  0.00000000E+00
  0.00000000E+00  0.00000000E+00  0.00000000E+00
  0.00000000E+00  0.00000000E+00  0.00000000E+00
  0.00000000E+00  0.00000000E+00  0.00000000E+00
  0.00000000E+00  0.00000000E+00  0.00000000E+00
  0.00000000E+00  0.00000000E+00  0.00000000E+00
  0.00000000E+00  0.00000000E+00  0.00000000E+00
  0.00000000E+00  0.00000000E+00  0.00000000E+00
  0.00000000E+00  0.00000000E+00  0.00000000E+00
  0.00000000E+00  0.00000000E+00  0.00000000E+00
  0.00000000E+00  0.00000000E+00  0.00000000E+00
  0.00000000E+00  0.00000000E+00  0.00000000E+00
  0.00000000E+00  0.00000000E+00  0.00000000E+00
  0.00000000E+00  0.00000000E+00  0.00000000E+00
  0.00000000E+00  0.00000000E+00  0.00000000E+00
  0.00000000E+00  0.00000000E+00  0.00000000E+00
  0.00000000E+00  0.00000000E+00  0.00000000E+00
  0.00000000E+00  0.00000000E+00  0.00000000E+00
  0.00000000E+00  0.00000000E+00  0.00000000E+00
  0.00000000E+00  0.00000000E+00  0.00000000E+00
  0.00000000E+00  0.00000000E+00  0.00000000E+00
  0.00000000E+00  0.00000000E+00  0.00000000E+00
  0.00000000E+00  0.00000000E+00  0.00000000E+00
  0.00000000E+00  0.00000000E+00  0.00000000E+00
  0.00000000E+00  0.00000000E+00  0.00000000E+00
  0.00000000E+00  0.00000000E+00  0.00000000E+00
  0.00000000E+00  0.00000000E+00  0.00000000E+00
  0.00000000E+00  0.00000000E+00  0.00000000E+00
  0.00000000E+00  0.00000000E+00  0.00000000E+00
  0.00000000E+00  0.00000000E+00  0.00000000E+00
