supercell of icsd_181358.cif            
   1.00000000000000     
     9.8361840211561997   -0.0040882816723734   -0.0003077823100427
    -4.9216331059232585    8.5229899383662229    0.0029394469747222
    -0.0003399824715275    0.0034709022989590   10.5689317943579209
   N    Ga   Sc
    36    30     6
Direct
  0.2223611445556557  0.1108824532523727  0.4357580365111176
  0.1105526954545226  0.2218423701014842  0.1901969470952096
  0.8895268600660486  0.1102585957411932  0.9377985317711861
  0.7794649106710168  0.2234877192269735  0.6907462204260071
  0.5643115356390709  0.1251896900679128  0.4367532448768188
  0.4440819163409913  0.2219865075804037  0.1907777307433065
  0.2225581239729735  0.1108539947856926  0.9392836166594662
  0.1036710731699344  0.2055708350703682  0.6843109003940882
  0.8880245250622139  0.1119565199526562  0.4369511247351028
  0.7708461426471374  0.2069886367440290  0.1829395183048135
  0.5619885348606459  0.1268189660259225  0.9359513605356753
  0.4377121115502902  0.2080749972141334  0.6827095780442107
  0.2207625545590872  0.4436174469830902  0.4418527166126651
  0.1254699444278700  0.5625327946120464  0.1862822911396620
  0.8887346227196247  0.4452638134214340  0.9432528086898202
  0.7838925521943381  0.5502841264816425  0.6836426208367143
  0.5553504393722690  0.4434224873670800  0.4399925292254778
  0.4439063876677452  0.5551994396092397  0.1928487597390571
  0.2234407468835116  0.4439737864106306  0.9464682421384509
  0.1047308816006520  0.5629453480104516  0.6869676289389304
  0.8886805023574382  0.4427413129853974  0.4441776583993686
  0.7712267280552396  0.5632196866024657  0.1906682345477080
  0.5547592622593882  0.4442232525582668  0.9494425430247873
  0.4511741862695402  0.5682640703799535  0.6810865643769546
  0.2086620813895266  0.7707697091022965  0.4358389641824374
  0.1108963974336774  0.8894963317990161  0.1906356128483608
  0.8894981395912893  0.7788131983434639  0.9470467075529854
  0.7702147870240168  0.8969656842003957  0.6833616478204760
  0.5626318555038168  0.7723664668108086  0.4345406319321299
  0.4444690486012135  0.8892252498227791  0.1998629096936426
  0.2070816028537621  0.7715577412861023  0.9372583930282019
  0.1248775883644768  0.8951668508417683  0.6828191425278618
  0.8890362995057046  0.7789959070219297  0.4415372990120972
  0.7786089401266381  0.8898051223738790  0.1899891518620791
  0.5636789722760511  0.7694729983008131  0.9387368195361532
  0.4444247081349673  0.8884670257479925  0.7041929484956313
  0.2220262459939164  0.1111629102111706  0.2492618578591106
  0.1110023042235682  0.2214801869297247  0.0017297114653374
  0.8862458300825793  0.1098009034706564  0.7488570415735367
  0.7805574943505604  0.2251504133189641  0.5022681774024846
  0.5562482169985259  0.1118122873437386  0.2505812152199880
  0.4448408107282518  0.2246846085638339  0.0032536348206804
  0.2228831761605932  0.1069507820391280  0.7486140480576111
  0.1088363826372714  0.2174226561579076  0.4972567776017485
  0.8874409725237484  0.1084922871770146  0.2490416160038365
  0.7785015835580253  0.2216001618258048  0.9971213960179099
  0.5567657585957377  0.1128413873215734  0.7502269128324457
  0.4434958049247797  0.2217347175804321  0.4967687316442664
  0.2242109533943548  0.4449563284165947  0.2509250309334092
  0.1117410396241851  0.5553585733656021  0.0004311242396113
  0.8889672307827823  0.4442306342006006  0.7512665442694626
  0.7790561198953156  0.5540170587780793  0.4982807427133338
  0.5531824290542389  0.4448539012691342  0.2510593181824703
  0.4451661800542581  0.5531683856772815  0.0057001627400979
  0.1063584345860491  0.5552919947359527  0.5004685443523229
  0.7761534688065552  0.5582785437326478  0.0042914975189134
  0.4472837477846525  0.5565495869446764  0.4959902599350059
  0.2216136147753929  0.7780765539854428  0.2504826272934295
  0.1083515022379018  0.8885086259787442  0.0030975887269875
  0.7780728504157963  0.8906433254695187  0.4975097900324386
  0.5577057855702492  0.7767507563688483  0.2501989339004069
  0.2196359369810992  0.7789901635443996  0.7509424421564219
  0.1116217826555754  0.8901279664558999  0.4970796237604986
  0.8882164003392532  0.7808478488570856  0.2515237906094399
  0.7805845935477720  0.8886637763538303  0.0027560938255888
  0.5580741632469923  0.7797214282104790  0.7513187572135323
  0.2189945653094014  0.4430368246201510  0.7450614630025854
  0.8886779234387703  0.4427893993753429  0.2447993658494596
  0.5547514538891818  0.4405583703451157  0.7482940759709251
  0.8920392442254652  0.7825324207391589  0.7458560221843555
  0.4448849288605743  0.8893077617762657  0.9957290272160719
  0.4445022665842515  0.8889053320231071  0.4992764166156789
 
  0.00000000E+00  0.00000000E+00  0.00000000E+00
  0.00000000E+00  0.00000000E+00  0.00000000E+00
  0.00000000E+00  0.00000000E+00  0.00000000E+00
  0.00000000E+00  0.00000000E+00  0.00000000E+00
  0.00000000E+00  0.00000000E+00  0.00000000E+00
  0.00000000E+00  0.00000000E+00  0.00000000E+00
  0.00000000E+00  0.00000000E+00  0.00000000E+00
  0.00000000E+00  0.00000000E+00  0.00000000E+00
  0.00000000E+00  0.00000000E+00  0.00000000E+00
  0.00000000E+00  0.00000000E+00  0.00000000E+00
  0.00000000E+00  0.00000000E+00  0.00000000E+00
  0.00000000E+00  0.00000000E+00  0.00000000E+00
  0.00000000E+00  0.00000000E+00  0.00000000E+00
  0.00000000E+00  0.00000000E+00  0.00000000E+00
  0.00000000E+00  0.00000000E+00  0.00000000E+00
  0.00000000E+00  0.00000000E+00  0.00000000E+00
  0.00000000E+00  0.00000000E+00  0.00000000E+00
  0.00000000E+00  0.00000000E+00  0.00000000E+00
  0.00000000E+00  0.00000000E+00  0.00000000E+00
  0.00000000E+00  0.00000000E+00  0.00000000E+00
  0.00000000E+00  0.00000000E+00  0.00000000E+00
  0.00000000E+00  0.00000000E+00  0.00000000E+00
  0.00000000E+00  0.00000000E+00  0.00000000E+00
  0.00000000E+00  0.00000000E+00  0.00000000E+00
  0.00000000E+00  0.00000000E+00  0.00000000E+00
  0.00000000E+00  0.00000000E+00  0.00000000E+00
  0.00000000E+00  0.00000000E+00  0.00000000E+00
  0.00000000E+00  0.00000000E+00  0.00000000E+00
  0.00000000E+00  0.00000000E+00  0.00000000E+00
  0.00000000E+00  0.00000000E+00  0.00000000E+00
  0.00000000E+00  0.00000000E+00  0.00000000E+00
  0.00000000E+00  0.00000000E+00  0.00000000E+00
  0.00000000E+00  0.00000000E+00  0.00000000E+00
  0.00000000E+00  0.00000000E+00  0.00000000E+00
  0.00000000E+00  0.00000000E+00  0.00000000E+00
  0.00000000E+00  0.00000000E+00  0.00000000E+00
  0.00000000E+00  0.00000000E+00  0.00000000E+00
  0.00000000E+00  0.00000000E+00  0.00000000E+00
  0.00000000E+00  0.00000000E+00  0.00000000E+00
  0.00000000E+00  0.00000000E+00  0.00000000E+00
  0.00000000E+00  0.00000000E+00  0.00000000E+00
  0.00000000E+00  0.00000000E+00  0.00000000E+00
  0.00000000E+00  0.00000000E+00  0.00000000E+00
  0.00000000E+00  0.00000000E+00  0.00000000E+00
  0.00000000E+00  0.00000000E+00  0.00000000E+00
  0.00000000E+00  0.00000000E+00  0.00000000E+00
  0.00000000E+00  0.00000000E+00  0.00000000E+00
  0.00000000E+00  0.00000000E+00  0.00000000E+00
  0.00000000E+00  0.00000000E+00  0.00000000E+00
  0.00000000E+00  0.00000000E+00  0.00000000E+00
  0.00000000E+00  0.00000000E+00  0.00000000E+00
  0.00000000E+00  0.00000000E+00  0.00000000E+00
  0.00000000E+00  0.00000000E+00  0.00000000E+00
  0.00000000E+00  0.00000000E+00  0.00000000E+00
  0.00000000E+00  0.00000000E+00  0.00000000E+00
  0.00000000E+00  0.00000000E+00  0.00000000E+00
  0.00000000E+00  0.00000000E+00  0.00000000E+00
  0.00000000E+00  0.00000000E+00  0.00000000E+00
  0.00000000E+00  0.00000000E+00  0.00000000E+00
  0.00000000E+00  0.00000000E+00  0.00000000E+00
  0.00000000E+00  0.00000000E+00  0.00000000E+00
  0.00000000E+00  0.00000000E+00  0.00000000E+00
  0.00000000E+00  0.00000000E+00  0.00000000E+00
  0.00000000E+00  0.00000000E+00  0.00000000E+00
  0.00000000E+00  0.00000000E+00  0.00000000E+00
  0.00000000E+00  0.00000000E+00  0.00000000E+00
  0.00000000E+00  0.00000000E+00  0.00000000E+00
  0.00000000E+00  0.00000000E+00  0.00000000E+00
  0.00000000E+00  0.00000000E+00  0.00000000E+00
  0.00000000E+00  0.00000000E+00  0.00000000E+00
  0.00000000E+00  0.00000000E+00  0.00000000E+00
  0.00000000E+00  0.00000000E+00  0.00000000E+00
