supercell of icsd_181358.cif            
   1.00000000000000     
     9.6952790892123080    0.0029179791256171   -0.0057042804422494
    -4.8451125276945923    8.3919648743477282    0.0000007256215732
    -0.0062784629589629   -0.0036239882142899   10.4118526988030649
   N    Ga   La
    36    34     2
Direct
  0.2234627670283302  0.1110603370641243  0.4397810191474036
  0.1120428873019890  0.2226880633372090  0.1895985408452319
  0.8893320798577804  0.1113328129229672  0.9370607817534307
  0.7761000545250099  0.2210750255005962  0.6874103466481358
  0.5729324528986623  0.1520630296306038  0.4256435031751664
  0.4249142351627384  0.1897259046828381  0.1753783279146930
  0.2177722219299767  0.1096552390584407  0.9356000972939782
  0.1098436575804627  0.2215884829756547  0.6863927968518695
  0.8855634958514500  0.1094486469010718  0.4381302409561485
  0.7811743134167841  0.2247674957890169  0.1866983268796787
  0.5591809946496369  0.1124081055802790  0.9440122517256384
  0.4424183805218149  0.2174472037156789  0.6977322577237572
  0.2234633152587548  0.4457365221604803  0.4397812636692606
  0.1098653311670077  0.5525291372145134  0.1864488307708925
  0.8905639636990088  0.4428695332847568  0.9358336187618477
  0.7818027047456653  0.5575680921942947  0.6961749000129274
  0.5561496048055758  0.4447411556066498  0.4769720821914660
  0.4249145117704884  0.5685208253701148  0.1753786854716495
  0.2177719563204903  0.4414503332105610  0.9355999422375874
  0.1116020332105307  0.5568781876306659  0.6882508995631582
  0.8889307705508145  0.4462238373565128  0.4387762864937486
  0.8126602472840361  0.5729966597463445  0.1780633088027557
  0.5563143703648095  0.4448242696448546  0.9437638986714347
  0.4424188336174737  0.5583048280986418  0.6977318644986212
  0.1887302198089742  0.7610318637987277  0.4276949073095366
  0.1098648205657327  0.8906689442092528  0.1864491694064370
  0.8905640735933318  0.7810285570437188  0.9358338409520712
  0.7760998691699044  0.8883582574685605  0.6874108083276766
  0.5729334604225400  0.7542029081927595  0.4256431247967214
  0.4445247072958765  0.8889284118220786  0.1969080625247273
  0.2196512470476861  0.7764926201118243  0.9457996963414814
  0.1116018012990025  0.8880570060898592  0.6882509631156495
  0.8889309602909492  0.7760406717003292  0.4387764445807179
  0.7811745889450776  0.8897400332024930  0.1866981237501051
  0.5591802891127031  0.7801059424199934  0.9440125439424136
  0.4433390736365226  0.8883361977421558  0.7158807279918307
  0.2182014905450558  0.1050671790059354  0.2489949221258527
  0.1103640304932583  0.2218482155076131  0.9993260530884811
  0.8882004174541791  0.1107673048333382  0.7480201577552776
  0.7814324101687191  0.2299393330320214  0.4978724614261480
  0.5578570458470651  0.1141981256361007  0.2412818207771465
  0.4390853226127689  0.2160037632375804  0.9934823235971422
  0.2186689750914468  0.1090728001994421  0.7494468707814335
  0.1099894157959156  0.2216612858512619  0.4984493076654744
  0.8891255843257113  0.1112297649431255  0.2488877080137968
  0.7810509831541239  0.2238098276826861  0.9992790914875727
  0.5573250875256974  0.1112579878701325  0.7586340711743205
  0.4443557774856330  0.2249366232439769  0.5103107635116970
  0.2182016009595529  0.4464681292597916  0.2489953286579691
  0.1096933489935665  0.5527721316688456  0.0000756936768340
  0.8903413589249851  0.4434312819453581  0.7498615040109229
  0.7815932621709933  0.5574633365430728  0.5091918444674945
  0.4390843456179212  0.5564139093050215  0.9934826791765872
  0.2186697096334740  0.4429303816176926  0.7494465602686518
  0.1053885443677416  0.5524131854406846  0.4992810509153571
  0.8957849877497139  0.4471349235833202  0.2493519008544851
  0.7861598323317125  0.5597467850330062  0.9939730526688351
  0.5561864926588242  0.4447603659374977  0.7498617671586203
  0.4443572064117447  0.5527527004760984  0.5103103137068032
  0.2129342121831286  0.7731338737556683  0.2427743040796457
  0.1096934722775842  0.8902547654410853  0.0000763571269928
  0.8903413201714230  0.7802437830760311  0.7498619354380835
  0.7814327430858867  0.8848263004984105  0.4978732139517774
  0.5578580182287567  0.7769922978200441  0.2412814741313838
  0.4447237218482627  0.8890283275662298  0.0016888590024351
  0.2199381452833435  0.7766360074168688  0.7578331906258597
  0.1053885935040029  0.8863084307146920  0.4992811400654134
  0.8957842588817115  0.7819831531658252  0.2493522084322706
  0.7810502754027269  0.8905740188402120  0.9992789806996782
  0.5573244005559701  0.7794007080976826  0.7586344821286346
  0.5565941440727542  0.4449632957164695  0.2521882453977398
  0.4480291694771239  0.8906805535585320  0.4904858768533913
 
  0.00000000E+00  0.00000000E+00  0.00000000E+00
  0.00000000E+00  0.00000000E+00  0.00000000E+00
  0.00000000E+00  0.00000000E+00  0.00000000E+00
  0.00000000E+00  0.00000000E+00  0.00000000E+00
  0.00000000E+00  0.00000000E+00  0.00000000E+00
  0.00000000E+00  0.00000000E+00  0.00000000E+00
  0.00000000E+00  0.00000000E+00  0.00000000E+00
  0.00000000E+00  0.00000000E+00  0.00000000E+00
  0.00000000E+00  0.00000000E+00  0.00000000E+00
  0.00000000E+00  0.00000000E+00  0.00000000E+00
  0.00000000E+00  0.00000000E+00  0.00000000E+00
  0.00000000E+00  0.00000000E+00  0.00000000E+00
  0.00000000E+00  0.00000000E+00  0.00000000E+00
  0.00000000E+00  0.00000000E+00  0.00000000E+00
  0.00000000E+00  0.00000000E+00  0.00000000E+00
  0.00000000E+00  0.00000000E+00  0.00000000E+00
  0.00000000E+00  0.00000000E+00  0.00000000E+00
  0.00000000E+00  0.00000000E+00  0.00000000E+00
  0.00000000E+00  0.00000000E+00  0.00000000E+00
  0.00000000E+00  0.00000000E+00  0.00000000E+00
  0.00000000E+00  0.00000000E+00  0.00000000E+00
  0.00000000E+00  0.00000000E+00  0.00000000E+00
  0.00000000E+00  0.00000000E+00  0.00000000E+00
  0.00000000E+00  0.00000000E+00  0.00000000E+00
  0.00000000E+00  0.00000000E+00  0.00000000E+00
  0.00000000E+00  0.00000000E+00  0.00000000E+00
  0.00000000E+00  0.00000000E+00  0.00000000E+00
  0.00000000E+00  0.00000000E+00  0.00000000E+00
  0.00000000E+00  0.00000000E+00  0.00000000E+00
  0.00000000E+00  0.00000000E+00  0.00000000E+00
  0.00000000E+00  0.00000000E+00  0.00000000E+00
  0.00000000E+00  0.00000000E+00  0.00000000E+00
  0.00000000E+00  0.00000000E+00  0.00000000E+00
  0.00000000E+00  0.00000000E+00  0.00000000E+00
  0.00000000E+00  0.00000000E+00  0.00000000E+00
  0.00000000E+00  0.00000000E+00  0.00000000E+00
  0.00000000E+00  0.00000000E+00  0.00000000E+00
  0.00000000E+00  0.00000000E+00  0.00000000E+00
  0.00000000E+00  0.00000000E+00  0.00000000E+00
  0.00000000E+00  0.00000000E+00  0.00000000E+00
  0.00000000E+00  0.00000000E+00  0.00000000E+00
  0.00000000E+00  0.00000000E+00  0.00000000E+00
  0.00000000E+00  0.00000000E+00  0.00000000E+00
  0.00000000E+00  0.00000000E+00  0.00000000E+00
  0.00000000E+00  0.00000000E+00  0.00000000E+00
  0.00000000E+00  0.00000000E+00  0.00000000E+00
  0.00000000E+00  0.00000000E+00  0.00000000E+00
  0.00000000E+00  0.00000000E+00  0.00000000E+00
  0.00000000E+00  0.00000000E+00  0.00000000E+00
  0.00000000E+00  0.00000000E+00  0.00000000E+00
  0.00000000E+00  0.00000000E+00  0.00000000E+00
  0.00000000E+00  0.00000000E+00  0.00000000E+00
  0.00000000E+00  0.00000000E+00  0.00000000E+00
  0.00000000E+00  0.00000000E+00  0.00000000E+00
  0.00000000E+00  0.00000000E+00  0.00000000E+00
  0.00000000E+00  0.00000000E+00  0.00000000E+00
  0.00000000E+00  0.00000000E+00  0.00000000E+00
  0.00000000E+00  0.00000000E+00  0.00000000E+00
  0.00000000E+00  0.00000000E+00  0.00000000E+00
  0.00000000E+00  0.00000000E+00  0.00000000E+00
  0.00000000E+00  0.00000000E+00  0.00000000E+00
  0.00000000E+00  0.00000000E+00  0.00000000E+00
  0.00000000E+00  0.00000000E+00  0.00000000E+00
  0.00000000E+00  0.00000000E+00  0.00000000E+00
  0.00000000E+00  0.00000000E+00  0.00000000E+00
  0.00000000E+00  0.00000000E+00  0.00000000E+00
  0.00000000E+00  0.00000000E+00  0.00000000E+00
  0.00000000E+00  0.00000000E+00  0.00000000E+00
  0.00000000E+00  0.00000000E+00  0.00000000E+00
  0.00000000E+00  0.00000000E+00  0.00000000E+00
  0.00000000E+00  0.00000000E+00  0.00000000E+00
  0.00000000E+00  0.00000000E+00  0.00000000E+00
