Al   Gd   N                             
   1.00000000000000     
    -9.8654215366585287   -0.0050747833122740   -0.0019502791441880
    -5.0464585439002985    8.5267775098087135    0.0013024315294781
     0.1256712439264604   -0.0608863505938818  -10.7649600722265539
   Al   Gd   N 
    28     8    36
Direct
  0.1208925962106093  0.0824251407265564  0.4180996173243585
  0.2237923924303828  0.2075174220208851  0.1565159977710735
  0.8822921407481488  0.2062244837853981  0.5856382368060480
  0.5558407375323924  0.2150279810074096  0.1436338399315318
  0.1216932383765723  0.0967540850615194  0.9065629359261820
  0.2097867246030987  0.1962593477652916  0.6598484017926509
  0.8038895370144417  0.0888949812601751  0.3169529293491919
  0.8970282689020479  0.2165336138752636  0.0734772413581695
  0.4305124191481156  0.0986642271391815  0.8467814397664100
  0.5253568311294288  0.2156381741956324  0.6558216351673209
  0.2221727482322464  0.5403032259739717  0.1456599503194624
  0.7962411128544034  0.4227786660095916  0.8323753866938119
  0.8775330318611410  0.5362599766683118  0.5987917406894425
  0.4438013255976401  0.4374823823464027  0.3901588683932289
  0.5717753033152988  0.5320373121897077  0.0569797566332539
  0.1037161829518212  0.4315403084116198  0.8284868701157890
  0.2176935731153335  0.5333852654751254  0.6490263994492480
  0.9015415475106821  0.5335859070710498  0.0677447261208641
  0.4221735870342584  0.4326473708565999  0.9014898165033429
  0.1329756179163084  0.7614494628156550  0.4077207980550668
  0.7763129924984682  0.7529084505050676  0.8380222397542809
  0.4322281070247982  0.7682520257372190  0.4393374354129378
  0.5610464432402082  0.8822280970031571  0.0612667669738585
  0.1179049244701176  0.7517022432214446  0.8942261007659056
  0.2164700557610573  0.8768644763501499  0.6631422609158406
  0.8924534754776587  0.8613163611427694  0.0629711260410133
  0.4415516580388257  0.7656954056601890  0.8870524605123506
  0.5529383501280734  0.8665298156241050  0.6090014072585248
  0.7643336432613452  0.1113212867356808  0.8611517490285081
  0.4545016826020998  0.1097420268590881  0.4013378926125952
  0.1306950642895117  0.4307604071130129  0.3945073481843622
  0.7690760051985421  0.4236970226491010  0.3335331298460389
  0.5398594354944137  0.5209775715026623  0.6338303186677905
  0.2347048291314735  0.8617227394034472  0.1577268273749226
  0.8765677957174276  0.8785210080787920  0.5966896268576534
  0.7759134936029852  0.7620148431731693  0.3173433402851416
  0.2119243060373108  0.1844780662600840  0.3382188404334912
  0.1198668686175353  0.1091838113114889  0.0846631695608124
  0.9026472628033986  0.2231140067202730  0.8971576892398119
  0.7456041720764972  0.1374890097512633  0.6440578623652655
  0.5811606229841217  0.2362257740015465  0.3161349773803082
  0.4513981576513970  0.0965732396225789  0.1183296736573709
  0.2120089247664296  0.2060200546589357  0.8379213848355533
  0.1101666347246848  0.0880494913741359  0.6014368168521216
  0.9010421826121586  0.1802129223817630  0.4056803160045135
  0.7977495243719730  0.0874361733138045  0.1178384681035496
  0.5027302691298630  0.2365561722747742  0.8319751612940038
  0.4366494556169016  0.0873483284775602  0.6331410156978947
  0.2415350885548619  0.5687725119195264  0.3188213944404055
  0.1092377089412295  0.4315185239338533  0.1392112008099886
  0.8941345050885161  0.5365537890821130  0.8884828835399574
  0.8040745290426088  0.4081239896481250  0.6549656188820876
  0.5356243843310011  0.5546705418740387  0.4192017014879141
  0.4449145362443261  0.4293228163806191  0.0769370280599944
  0.2199778097076646  0.5445391070646295  0.8281130333445006
  0.1002065931087159  0.4268719994026284  0.6404103622770094
  0.8815190354571811  0.5450406145811755  0.4249316966601953
  0.7810992793307960  0.4326116862553562  0.1178686351308045
  0.5601619584017925  0.5298937134381916  0.8698693747611443
  0.4009751187788879  0.3925272688443471  0.5571727413317475
  0.2308110211818217  0.8735457286549533  0.3705384900728248
  0.1131472755323415  0.7399601332597143  0.0701357603484354
  0.8953450795045654  0.8508558223491036  0.8750288150513725
  0.7625519450625191  0.7429912785943031  0.6630958721012732
  0.5559455013742038  0.8605781489020004  0.4268164090267845
  0.4711538783694067  0.7509185101176072  0.0679367567155467
  0.2149703691384275  0.8760588592599063  0.8458441908711265
  0.1454516379806066  0.7392415891137034  0.5909410445282717
  0.9049066435923123  0.8816652490751480  0.3810454613810066
  0.7802094006824305  0.7604883235246831  0.1031614772755347
  0.5523963233015721  0.8828154641348149  0.8801930527057422
  0.4263695729678858  0.7814278588589616  0.6237709680035195
 
  0.00000000E+00  0.00000000E+00  0.00000000E+00
  0.00000000E+00  0.00000000E+00  0.00000000E+00
  0.00000000E+00  0.00000000E+00  0.00000000E+00
  0.00000000E+00  0.00000000E+00  0.00000000E+00
  0.00000000E+00  0.00000000E+00  0.00000000E+00
  0.00000000E+00  0.00000000E+00  0.00000000E+00
  0.00000000E+00  0.00000000E+00  0.00000000E+00
  0.00000000E+00  0.00000000E+00  0.00000000E+00
  0.00000000E+00  0.00000000E+00  0.00000000E+00
  0.00000000E+00  0.00000000E+00  0.00000000E+00
  0.00000000E+00  0.00000000E+00  0.00000000E+00
  0.00000000E+00  0.00000000E+00  0.00000000E+00
  0.00000000E+00  0.00000000E+00  0.00000000E+00
  0.00000000E+00  0.00000000E+00  0.00000000E+00
  0.00000000E+00  0.00000000E+00  0.00000000E+00
  0.00000000E+00  0.00000000E+00  0.00000000E+00
  0.00000000E+00  0.00000000E+00  0.00000000E+00
  0.00000000E+00  0.00000000E+00  0.00000000E+00
  0.00000000E+00  0.00000000E+00  0.00000000E+00
  0.00000000E+00  0.00000000E+00  0.00000000E+00
  0.00000000E+00  0.00000000E+00  0.00000000E+00
  0.00000000E+00  0.00000000E+00  0.00000000E+00
  0.00000000E+00  0.00000000E+00  0.00000000E+00
  0.00000000E+00  0.00000000E+00  0.00000000E+00
  0.00000000E+00  0.00000000E+00  0.00000000E+00
  0.00000000E+00  0.00000000E+00  0.00000000E+00
  0.00000000E+00  0.00000000E+00  0.00000000E+00
  0.00000000E+00  0.00000000E+00  0.00000000E+00
  0.00000000E+00  0.00000000E+00  0.00000000E+00
  0.00000000E+00  0.00000000E+00  0.00000000E+00
  0.00000000E+00  0.00000000E+00  0.00000000E+00
  0.00000000E+00  0.00000000E+00  0.00000000E+00
  0.00000000E+00  0.00000000E+00  0.00000000E+00
  0.00000000E+00  0.00000000E+00  0.00000000E+00
  0.00000000E+00  0.00000000E+00  0.00000000E+00
  0.00000000E+00  0.00000000E+00  0.00000000E+00
  0.00000000E+00  0.00000000E+00  0.00000000E+00
  0.00000000E+00  0.00000000E+00  0.00000000E+00
  0.00000000E+00  0.00000000E+00  0.00000000E+00
  0.00000000E+00  0.00000000E+00  0.00000000E+00
  0.00000000E+00  0.00000000E+00  0.00000000E+00
  0.00000000E+00  0.00000000E+00  0.00000000E+00
  0.00000000E+00  0.00000000E+00  0.00000000E+00
  0.00000000E+00  0.00000000E+00  0.00000000E+00
  0.00000000E+00  0.00000000E+00  0.00000000E+00
  0.00000000E+00  0.00000000E+00  0.00000000E+00
  0.00000000E+00  0.00000000E+00  0.00000000E+00
  0.00000000E+00  0.00000000E+00  0.00000000E+00
  0.00000000E+00  0.00000000E+00  0.00000000E+00
  0.00000000E+00  0.00000000E+00  0.00000000E+00
  0.00000000E+00  0.00000000E+00  0.00000000E+00
  0.00000000E+00  0.00000000E+00  0.00000000E+00
  0.00000000E+00  0.00000000E+00  0.00000000E+00
  0.00000000E+00  0.00000000E+00  0.00000000E+00
  0.00000000E+00  0.00000000E+00  0.00000000E+00
  0.00000000E+00  0.00000000E+00  0.00000000E+00
  0.00000000E+00  0.00000000E+00  0.00000000E+00
  0.00000000E+00  0.00000000E+00  0.00000000E+00
  0.00000000E+00  0.00000000E+00  0.00000000E+00
  0.00000000E+00  0.00000000E+00  0.00000000E+00
  0.00000000E+00  0.00000000E+00  0.00000000E+00
  0.00000000E+00  0.00000000E+00  0.00000000E+00
  0.00000000E+00  0.00000000E+00  0.00000000E+00
  0.00000000E+00  0.00000000E+00  0.00000000E+00
  0.00000000E+00  0.00000000E+00  0.00000000E+00
  0.00000000E+00  0.00000000E+00  0.00000000E+00
  0.00000000E+00  0.00000000E+00  0.00000000E+00
  0.00000000E+00  0.00000000E+00  0.00000000E+00
  0.00000000E+00  0.00000000E+00  0.00000000E+00
  0.00000000E+00  0.00000000E+00  0.00000000E+00
  0.00000000E+00  0.00000000E+00  0.00000000E+00
  0.00000000E+00  0.00000000E+00  0.00000000E+00
