Al   Gd   N                             
   1.00000000000000     
    -9.9370697703071418   -0.0043021814835877   -0.0091550195001879
    -5.0040898694021108    8.5454519443550598    0.0009773763654954
     0.1002189766402739    0.1044301215296116  -10.5482501706212606
   Al   Gd   N 
    28     8    36
Direct
  0.1143879503003404  0.0850339964089102  0.4043176188159663
  0.2202783754343400  0.2071420930931822  0.1424534216137161
  0.8936540352898703  0.2211239819253876  0.6587136132318250
  0.5511787835291742  0.2127738924808611  0.1419015949733833
  0.1176741342445382  0.1005226370490178  0.8967165220478748
  0.2182929857571878  0.2056252944056283  0.6651421208173289
  0.8008104835420795  0.0786229419976578  0.3099763118834531
  0.9070694967794850  0.2025275556790476  0.1357239488999227
  0.4333346448259263  0.0996386642265463  0.9053473370483687
  0.5278676289226851  0.2157028224072022  0.6619000208734036
  0.2203979558099078  0.5397202805314762  0.1422726762182336
  0.7930174358997988  0.4287374062834601  0.8993323414250156
  0.8898077583414832  0.5323205992183659  0.6660824018053120
  0.4371560550609033  0.4322375084758718  0.3956118122150727
  0.5613062677275025  0.5326254423327512  0.0684535266620685
  0.1140521137754718  0.4266271168890938  0.8970641457151345
  0.2183922832029168  0.5311566813943145  0.6585212919151999
  0.8983962749704872  0.5313322922108838  0.1301330271751482
  0.4236619912619162  0.4314719489141794  0.9021076137659563
  0.1339588603530473  0.7565416240807536  0.4141427293089066
  0.7728257349750507  0.7612136769810434  0.8409049690829704
  0.4344358211493500  0.7693726507874743  0.4178624632198691
  0.5542695448166626  0.8657658500947605  0.1366771742164801
  0.1178828195031798  0.7545350810481253  0.8929364097045109
  0.2239769762611701  0.8793808745209333  0.6512886784580445
  0.8874379577403460  0.8573069353310743  0.0649693629484460
  0.4415897501000501  0.7692165851090422  0.8941697013121583
  0.5404315630252512  0.8831335633548960  0.6660154138433541
  0.7634740551491532  0.1230695336763219  0.8795569295114873
  0.4559091425688777  0.0896009398712820  0.3964197306215382
  0.1251725098745524  0.4214332726132923  0.4069836307391341
  0.7732212686668731  0.4106688655764614  0.3804879021821321
  0.5429542925813706  0.5306230145703452  0.6339783204829530
  0.2254432444241061  0.8673524529660028  0.1576953898856956
  0.8849067125678260  0.8933716522982920  0.6149247040229042
  0.7856170419580835  0.7586057366915071  0.3458944945479914
  0.2158355383523798  0.1855454133905141  0.3240667131773876
  0.1098676574159541  0.1127959715895486  0.0738603789337731
  0.9133014604959726  0.2269190132320986  0.8378717068391097
  0.7444097664204889  0.1522931439447177  0.6519231797616030
  0.5768568266578598  0.2240308227556511  0.3199090201474988
  0.4454167987739552  0.0948059362490525  0.0929598207206084
  0.2228986109500823  0.2054195811728263  0.8463103266488616
  0.1051685787597023  0.0997439655932908  0.5937367541125482
  0.9261355807615388  0.1648207396168928  0.3111336763455412
  0.7853759987099949  0.0831453682847823  0.1125310509134678
  0.5069311690394755  0.2289801617564109  0.8437172843106140
  0.4369842484019486  0.0941438575506197  0.6135439122954338
  0.2312786265383409  0.5581332689637009  0.3216299743289568
  0.1195261235519922  0.4242912901168623  0.0834823791947414
  0.8911139200965934  0.5403127841435094  0.8536342297882342
  0.8016404030610573  0.4241032963938807  0.5951994587990299
  0.5218469749858698  0.5570109371689043  0.4064064708614694
  0.4411050354750898  0.4289397699888582  0.0827645440767384
  0.2178791854345192  0.5426686873142401  0.8400317140934206
  0.1025646231505135  0.4293074852767305  0.6252821417011702
  0.9060329857322955  0.5148316472720538  0.3074535707574455
  0.7838847157431701  0.4200716615721731  0.0847114122707282
  0.5579999585889297  0.5306545747993141  0.8735216282100779
  0.4069270410998698  0.4025459831081619  0.5728292330587550
  0.2251408931732755  0.8725966789426636  0.3712462066631232
  0.1067097215995574  0.7442627222541702  0.0731956471128399
  0.8922498228453719  0.8578767457222085  0.8736771696225460
  0.7617313456052273  0.7552251031285593  0.6459321038413961
  0.5321545822521472  0.8547091102364135  0.3186170540352364
  0.4661822434058109  0.7499476299859680  0.0718840897481456
  0.2196898571351369  0.8758496573960670  0.8413376138290900
  0.1524392467103723  0.7380555892429399  0.5988218128448395
  0.9096938323240806  0.8873062634214008  0.3959197919033599
  0.7778363815867309  0.7602764507122686  0.1172174397005321
  0.5469917016698247  0.8808452139894385  0.8499570812107962
  0.4308525929645484  0.7951261762067929  0.6009222818759028
 
  0.00000000E+00  0.00000000E+00  0.00000000E+00
  0.00000000E+00  0.00000000E+00  0.00000000E+00
  0.00000000E+00  0.00000000E+00  0.00000000E+00
  0.00000000E+00  0.00000000E+00  0.00000000E+00
  0.00000000E+00  0.00000000E+00  0.00000000E+00
  0.00000000E+00  0.00000000E+00  0.00000000E+00
  0.00000000E+00  0.00000000E+00  0.00000000E+00
  0.00000000E+00  0.00000000E+00  0.00000000E+00
  0.00000000E+00  0.00000000E+00  0.00000000E+00
  0.00000000E+00  0.00000000E+00  0.00000000E+00
  0.00000000E+00  0.00000000E+00  0.00000000E+00
  0.00000000E+00  0.00000000E+00  0.00000000E+00
  0.00000000E+00  0.00000000E+00  0.00000000E+00
  0.00000000E+00  0.00000000E+00  0.00000000E+00
  0.00000000E+00  0.00000000E+00  0.00000000E+00
  0.00000000E+00  0.00000000E+00  0.00000000E+00
  0.00000000E+00  0.00000000E+00  0.00000000E+00
  0.00000000E+00  0.00000000E+00  0.00000000E+00
  0.00000000E+00  0.00000000E+00  0.00000000E+00
  0.00000000E+00  0.00000000E+00  0.00000000E+00
  0.00000000E+00  0.00000000E+00  0.00000000E+00
  0.00000000E+00  0.00000000E+00  0.00000000E+00
  0.00000000E+00  0.00000000E+00  0.00000000E+00
  0.00000000E+00  0.00000000E+00  0.00000000E+00
  0.00000000E+00  0.00000000E+00  0.00000000E+00
  0.00000000E+00  0.00000000E+00  0.00000000E+00
  0.00000000E+00  0.00000000E+00  0.00000000E+00
  0.00000000E+00  0.00000000E+00  0.00000000E+00
  0.00000000E+00  0.00000000E+00  0.00000000E+00
  0.00000000E+00  0.00000000E+00  0.00000000E+00
  0.00000000E+00  0.00000000E+00  0.00000000E+00
  0.00000000E+00  0.00000000E+00  0.00000000E+00
  0.00000000E+00  0.00000000E+00  0.00000000E+00
  0.00000000E+00  0.00000000E+00  0.00000000E+00
  0.00000000E+00  0.00000000E+00  0.00000000E+00
  0.00000000E+00  0.00000000E+00  0.00000000E+00
  0.00000000E+00  0.00000000E+00  0.00000000E+00
  0.00000000E+00  0.00000000E+00  0.00000000E+00
  0.00000000E+00  0.00000000E+00  0.00000000E+00
  0.00000000E+00  0.00000000E+00  0.00000000E+00
  0.00000000E+00  0.00000000E+00  0.00000000E+00
  0.00000000E+00  0.00000000E+00  0.00000000E+00
  0.00000000E+00  0.00000000E+00  0.00000000E+00
  0.00000000E+00  0.00000000E+00  0.00000000E+00
  0.00000000E+00  0.00000000E+00  0.00000000E+00
  0.00000000E+00  0.00000000E+00  0.00000000E+00
  0.00000000E+00  0.00000000E+00  0.00000000E+00
  0.00000000E+00  0.00000000E+00  0.00000000E+00
  0.00000000E+00  0.00000000E+00  0.00000000E+00
  0.00000000E+00  0.00000000E+00  0.00000000E+00
  0.00000000E+00  0.00000000E+00  0.00000000E+00
  0.00000000E+00  0.00000000E+00  0.00000000E+00
  0.00000000E+00  0.00000000E+00  0.00000000E+00
  0.00000000E+00  0.00000000E+00  0.00000000E+00
  0.00000000E+00  0.00000000E+00  0.00000000E+00
  0.00000000E+00  0.00000000E+00  0.00000000E+00
  0.00000000E+00  0.00000000E+00  0.00000000E+00
  0.00000000E+00  0.00000000E+00  0.00000000E+00
  0.00000000E+00  0.00000000E+00  0.00000000E+00
  0.00000000E+00  0.00000000E+00  0.00000000E+00
  0.00000000E+00  0.00000000E+00  0.00000000E+00
  0.00000000E+00  0.00000000E+00  0.00000000E+00
  0.00000000E+00  0.00000000E+00  0.00000000E+00
  0.00000000E+00  0.00000000E+00  0.00000000E+00
  0.00000000E+00  0.00000000E+00  0.00000000E+00
  0.00000000E+00  0.00000000E+00  0.00000000E+00
  0.00000000E+00  0.00000000E+00  0.00000000E+00
  0.00000000E+00  0.00000000E+00  0.00000000E+00
  0.00000000E+00  0.00000000E+00  0.00000000E+00
  0.00000000E+00  0.00000000E+00  0.00000000E+00
  0.00000000E+00  0.00000000E+00  0.00000000E+00
  0.00000000E+00  0.00000000E+00  0.00000000E+00
