Al   Gd   N                             
   1.00000000000000     
    -9.8498018245734791   -0.0079564641492652    0.0127690831522154
    -4.9296062184983089    8.5799723570777218    0.0138771232649986
     0.1680941377082263   -0.1772677934282203  -10.5972307320119086
   Al   Gd   N 
    28     8    36
Direct
  0.1129615199338403  0.0885362823767721  0.3182599583904775
  0.2316803324954293  0.2170897605171049  0.0480235497896331
  0.8911332092906505  0.1957153480087612  0.5629822842656864
  0.5620048723433158  0.2215205540916401  0.1207094029133984
  0.1084719875776798  0.1075053387560487  0.8122397080073753
  0.2106730589523806  0.1983416212756737  0.5747366406742387
  0.8044170037519720  0.0845749859288318  0.2910563730212061
  0.9019613875993215  0.2288775578823135  0.0571998863236018
  0.4347693600079694  0.0921280333289758  0.8038139028559783
  0.5365236553498391  0.2098284368305841  0.6288577689449184
  0.2333315201130901  0.5356391538877787  0.1046027308141291
  0.7902612895815793  0.4271645982099983  0.8061830654975708
  0.8881558832850658  0.5248737815228992  0.5740296826918296
  0.4262215654842976  0.4393534522263423  0.3683406904573232
  0.5703883763259014  0.5485665400748516  0.0446915561738024
  0.1102774481271354  0.4220197797055434  0.8197919441957069
  0.2214131016009659  0.5198611777270088  0.6325631445869320
  0.8930422296989633  0.5453820859783178  0.0331833279404776
  0.4346440075582265  0.4295013582548108  0.8776402554061633
  0.1133155112596782  0.7633145429896828  0.2860289068236312
  0.7760094763864913  0.7539049215235138  0.8078077968947852
  0.4350105463025002  0.7626487401649555  0.3108476325464196
  0.5648112043652844  0.8824879508115302  0.0487316025747475
  0.1175261640859517  0.7479399614692639  0.8421900207120530
  0.2170774539460254  0.8719992591185104  0.6439401098592796
  0.8952245395388161  0.8629704817361628  0.0431479312625740
  0.4495979727526134  0.7694403659055240  0.8171075775449026
  0.5469680147121494  0.8631438532227520  0.5708790258398153
  0.7748129681857776  0.1045410064213215  0.8360340932354973
  0.4544686890848695  0.1047558411949296  0.3534713678195160
  0.1023461513704973  0.4063510717193211  0.2949404938587321
  0.7523716547952759  0.4126959178758582  0.3140885479812496
  0.5332867168978410  0.5366966656113803  0.5936759159291185
  0.2280647169608443  0.8934402817034552  0.0756484765622076
  0.8944040071527795  0.8641637259156738  0.5580318897459549
  0.7656766119191971  0.7487684640406158  0.2936831866271632
  0.2106617946731220  0.1860018747280563  0.3994580423541336
  0.1001206494612887  0.1544309605889609  0.1383258864619989
  0.9095939030570506  0.2282994923041244  0.8800105776122891
  0.7576780947198287  0.1189688900950969  0.6164053818985735
  0.5870661555494792  0.2423281078586328  0.2965571845678099
  0.4500440134924801  0.1020735129908772  0.1111840047668196
  0.2277170795377543  0.1988708816007971  0.8666933619976049
  0.1016157494924599  0.0912826093322536  0.6329525892992294
  0.9115654961066681  0.1670157838733815  0.3831209874637551
  0.7998182509430265  0.0938312124204757  0.0937877318599831
  0.5158927609059205  0.2297377981800253  0.8103208364025392
  0.4391782369379555  0.0826762443527542  0.6168770835196327
  0.2315970838597892  0.5440303596027789  0.2871617641168598
  0.1144002279027703  0.4358375267388794  0.0715299185125033
  0.8883258780851264  0.5409786066375233  0.8564451112451295
  0.7976865059406890  0.4049749445986350  0.6252954196600271
  0.5116386981887047  0.5689211282593689  0.3825252500794534
  0.4534060274576035  0.4321864172654628  0.0556051066309351
  0.2284000616982738  0.5314362552407061  0.8203727420942570
  0.1034847376085111  0.4148663671721806  0.6332038555073112
  0.8824017242438913  0.5291252084767422  0.3959665653494540
  0.7819012804674017  0.4438144290857409  0.0999597872707909
  0.5595677928172762  0.5440500046975814  0.8555947386028819
  0.4084440463315815  0.3932311004999534  0.5418804125343257
  0.2180936057213430  0.8736554793197300  0.3002765163920600
  0.1094766419366593  0.7501193127029993  0.0765452693856190
  0.8993792805005114  0.8462013242492148  0.8575900312330518
  0.7612654441492523  0.7428875979308955  0.6276609678797129
  0.5375253640805084  0.8594680990682875  0.3920503218679485
  0.4889953066336901  0.7518104599770652  0.1216146981181012
  0.2175064510737599  0.8777541280037084  0.8439563627582345
  0.1445755966285773  0.7349870880866263  0.6178769683931051
  0.9000758857087163  0.8736090023424268  0.3367205640981439
  0.7832098573625927  0.7629898378780524  0.0807707350591329
  0.5540884616992372  0.8813294937531495  0.8681263280893887
  0.4292984803790105  0.7881062681597726  0.6426859087376968
 
  0.00000000E+00  0.00000000E+00  0.00000000E+00
  0.00000000E+00  0.00000000E+00  0.00000000E+00
  0.00000000E+00  0.00000000E+00  0.00000000E+00
  0.00000000E+00  0.00000000E+00  0.00000000E+00
  0.00000000E+00  0.00000000E+00  0.00000000E+00
  0.00000000E+00  0.00000000E+00  0.00000000E+00
  0.00000000E+00  0.00000000E+00  0.00000000E+00
  0.00000000E+00  0.00000000E+00  0.00000000E+00
  0.00000000E+00  0.00000000E+00  0.00000000E+00
  0.00000000E+00  0.00000000E+00  0.00000000E+00
  0.00000000E+00  0.00000000E+00  0.00000000E+00
  0.00000000E+00  0.00000000E+00  0.00000000E+00
  0.00000000E+00  0.00000000E+00  0.00000000E+00
  0.00000000E+00  0.00000000E+00  0.00000000E+00
  0.00000000E+00  0.00000000E+00  0.00000000E+00
  0.00000000E+00  0.00000000E+00  0.00000000E+00
  0.00000000E+00  0.00000000E+00  0.00000000E+00
  0.00000000E+00  0.00000000E+00  0.00000000E+00
  0.00000000E+00  0.00000000E+00  0.00000000E+00
  0.00000000E+00  0.00000000E+00  0.00000000E+00
  0.00000000E+00  0.00000000E+00  0.00000000E+00
  0.00000000E+00  0.00000000E+00  0.00000000E+00
  0.00000000E+00  0.00000000E+00  0.00000000E+00
  0.00000000E+00  0.00000000E+00  0.00000000E+00
  0.00000000E+00  0.00000000E+00  0.00000000E+00
  0.00000000E+00  0.00000000E+00  0.00000000E+00
  0.00000000E+00  0.00000000E+00  0.00000000E+00
  0.00000000E+00  0.00000000E+00  0.00000000E+00
  0.00000000E+00  0.00000000E+00  0.00000000E+00
  0.00000000E+00  0.00000000E+00  0.00000000E+00
  0.00000000E+00  0.00000000E+00  0.00000000E+00
  0.00000000E+00  0.00000000E+00  0.00000000E+00
  0.00000000E+00  0.00000000E+00  0.00000000E+00
  0.00000000E+00  0.00000000E+00  0.00000000E+00
  0.00000000E+00  0.00000000E+00  0.00000000E+00
  0.00000000E+00  0.00000000E+00  0.00000000E+00
  0.00000000E+00  0.00000000E+00  0.00000000E+00
  0.00000000E+00  0.00000000E+00  0.00000000E+00
  0.00000000E+00  0.00000000E+00  0.00000000E+00
  0.00000000E+00  0.00000000E+00  0.00000000E+00
  0.00000000E+00  0.00000000E+00  0.00000000E+00
  0.00000000E+00  0.00000000E+00  0.00000000E+00
  0.00000000E+00  0.00000000E+00  0.00000000E+00
  0.00000000E+00  0.00000000E+00  0.00000000E+00
  0.00000000E+00  0.00000000E+00  0.00000000E+00
  0.00000000E+00  0.00000000E+00  0.00000000E+00
  0.00000000E+00  0.00000000E+00  0.00000000E+00
  0.00000000E+00  0.00000000E+00  0.00000000E+00
  0.00000000E+00  0.00000000E+00  0.00000000E+00
  0.00000000E+00  0.00000000E+00  0.00000000E+00
  0.00000000E+00  0.00000000E+00  0.00000000E+00
  0.00000000E+00  0.00000000E+00  0.00000000E+00
  0.00000000E+00  0.00000000E+00  0.00000000E+00
  0.00000000E+00  0.00000000E+00  0.00000000E+00
  0.00000000E+00  0.00000000E+00  0.00000000E+00
  0.00000000E+00  0.00000000E+00  0.00000000E+00
  0.00000000E+00  0.00000000E+00  0.00000000E+00
  0.00000000E+00  0.00000000E+00  0.00000000E+00
  0.00000000E+00  0.00000000E+00  0.00000000E+00
  0.00000000E+00  0.00000000E+00  0.00000000E+00
  0.00000000E+00  0.00000000E+00  0.00000000E+00
  0.00000000E+00  0.00000000E+00  0.00000000E+00
  0.00000000E+00  0.00000000E+00  0.00000000E+00
  0.00000000E+00  0.00000000E+00  0.00000000E+00
  0.00000000E+00  0.00000000E+00  0.00000000E+00
  0.00000000E+00  0.00000000E+00  0.00000000E+00
  0.00000000E+00  0.00000000E+00  0.00000000E+00
  0.00000000E+00  0.00000000E+00  0.00000000E+00
  0.00000000E+00  0.00000000E+00  0.00000000E+00
  0.00000000E+00  0.00000000E+00  0.00000000E+00
  0.00000000E+00  0.00000000E+00  0.00000000E+00
  0.00000000E+00  0.00000000E+00  0.00000000E+00
