Al   Gd   N                             
   1.00000000000000     
    -9.8797740811736130   -0.0039158805692446   -0.0127573896781878
    -4.9468218884913293    8.5577739978012630    0.0008148487835041
     0.0293176207326418    0.0067828471072867  -10.3956234446685425
   Al   Gd   N 
    28     8    36
Direct
  0.1120845414195415  0.0864477414906162  0.4068276625273270
  0.2140285642472790  0.2128299645548637  0.1389473098412779
  0.8965528581904749  0.2152976676366549  0.6508290944191018
  0.5591649016550662  0.2107956828427646  0.1493281907360426
  0.1123322920194099  0.1021137735381430  0.8956609689413426
  0.2226551139781563  0.2039874071147594  0.6672179261955122
  0.7838216794664348  0.0997219162311751  0.3921608395094367
  0.8956829990935802  0.1999157761213581  0.1483219597213719
  0.4387596941899687  0.0996335384742153  0.9023356424146414
  0.5382532911059954  0.2128492810964318  0.6499632868016789
  0.2207540016207119  0.5391357964715766  0.1423758643345536
  0.7805520637243646  0.4283055478715525  0.9084194586129684
  0.8878466885229273  0.5356326049400479  0.6743094713650848
  0.4360360916619328  0.4360492961008688  0.3890638290130966
  0.5536535413447439  0.5396055381790106  0.1405333433402944
  0.1149331481852300  0.4271540008990300  0.8964531117566850
  0.2246238730951617  0.5313775015004083  0.6616246889339763
  0.8952041521114538  0.5367910088126848  0.1307665336748300
  0.4379298277628081  0.4314073740264774  0.9059493438748802
  0.1266990144643714  0.7570362306695060  0.4032928743982822
  0.7790549233356856  0.7588118334861420  0.9074707367007164
  0.4304191133087087  0.7686237115931576  0.4054617529027524
  0.5569480256830843  0.8682878247230974  0.1357531064698136
  0.1137671176952040  0.7533711422922806  0.9021418484507535
  0.2258562060694445  0.8760681399466250  0.6501410678602113
  0.8928234392476497  0.8694418931248435  0.1533865729633987
  0.4497177435753912  0.7580367391409979  0.8984818724264727
  0.5498259565490926  0.8753638864720230  0.6655272385842750
  0.7761061926713850  0.0997381898972662  0.8950231324931579
  0.4431443817097644  0.0954730307095133  0.3921302308968464
  0.1178485474917537  0.4277313973235337  0.4102980709747044
  0.7784423824261637  0.4168172838230362  0.3811026557166954
  0.5499728325194013  0.5329209998886029  0.6421741265819847
  0.2260615765917962  0.8754951868308680  0.1516188807501280
  0.8933181162246484  0.8709149719406071  0.6373174610320262
  0.7662536600033647  0.7592698171865067  0.3902232151503853
  0.2029214434727820  0.1938232162887203  0.3226980675175142
  0.0969225516379666  0.1213679473265401  0.0753735169860192
  0.9035377586191728  0.2232097122044294  0.8337245878978408
  0.7579739074971386  0.1354826731423557  0.5893794389543885
  0.5720658696239056  0.2248768328204491  0.3302330590874902
  0.4455012351816947  0.0979017791420915  0.0937212868666180
  0.2250350669799346  0.2038899351268810  0.8495715149494742
  0.1125050466665769  0.0967986375420580  0.5963498829512304
  0.9157271317579898  0.1680894980849885  0.3290183945560088
  0.7815196904602359  0.0907531466768603  0.1088056801724662
  0.5231248732976965  0.2252713733483560  0.8358210768557512
  0.4424258929243763  0.0906400294084762  0.6132460503116022
  0.2294503862914468  0.5549253860095149  0.3236641391500044
  0.1170158703356634  0.4274085888749894  0.0841271684253897
  0.8858127759640695  0.5402954525187553  0.8623657198631918
  0.8059825457383027  0.4217649120990359  0.5966197191108478
  0.5214686550302332  0.5616961812843329  0.3408063894183826
  0.4443405287061069  0.4279173605606132  0.0897942671701557
  0.2266138079880875  0.5400881706915470  0.8463788335217828
  0.1060380274251429  0.4295072749047506  0.6337631216890429
  0.8993815338439859  0.5333283520363494  0.3085685389023567
  0.7774065340414964  0.4212197967933662  0.0985916943217333
  0.5586085220709478  0.5328810828290145  0.8589192870605871
  0.4158208491131248  0.4097803662927362  0.5718587738625800
  0.2193659297065267  0.8752357087192451  0.3681616801860415
  0.1000381068236038  0.7503456268205966  0.0848762623390371
  0.9021631305699742  0.8450835639782710  0.8498805069531272
  0.7614237288024768  0.7439423956063678  0.6108181614828396
  0.5277659850810466  0.8610099612120905  0.3144791903802542
  0.4718458146891749  0.7453330765635400  0.0763855046372370
  0.2219316836090854  0.8730404993328733  0.8447837729565464
  0.1498934433299439  0.7371272709809844  0.5901175355868489
  0.9056115136899336  0.8786978607907656  0.3493922977638704
  0.7779799211399023  0.7655291411966516  0.0964782341922970
  0.5560498213905092  0.8751362977244170  0.8517800590745850
  0.4343495920580978  0.7893762438203424  0.5919604871809341
 
  0.00000000E+00  0.00000000E+00  0.00000000E+00
  0.00000000E+00  0.00000000E+00  0.00000000E+00
  0.00000000E+00  0.00000000E+00  0.00000000E+00
  0.00000000E+00  0.00000000E+00  0.00000000E+00
  0.00000000E+00  0.00000000E+00  0.00000000E+00
  0.00000000E+00  0.00000000E+00  0.00000000E+00
  0.00000000E+00  0.00000000E+00  0.00000000E+00
  0.00000000E+00  0.00000000E+00  0.00000000E+00
  0.00000000E+00  0.00000000E+00  0.00000000E+00
  0.00000000E+00  0.00000000E+00  0.00000000E+00
  0.00000000E+00  0.00000000E+00  0.00000000E+00
  0.00000000E+00  0.00000000E+00  0.00000000E+00
  0.00000000E+00  0.00000000E+00  0.00000000E+00
  0.00000000E+00  0.00000000E+00  0.00000000E+00
  0.00000000E+00  0.00000000E+00  0.00000000E+00
  0.00000000E+00  0.00000000E+00  0.00000000E+00
  0.00000000E+00  0.00000000E+00  0.00000000E+00
  0.00000000E+00  0.00000000E+00  0.00000000E+00
  0.00000000E+00  0.00000000E+00  0.00000000E+00
  0.00000000E+00  0.00000000E+00  0.00000000E+00
  0.00000000E+00  0.00000000E+00  0.00000000E+00
  0.00000000E+00  0.00000000E+00  0.00000000E+00
  0.00000000E+00  0.00000000E+00  0.00000000E+00
  0.00000000E+00  0.00000000E+00  0.00000000E+00
  0.00000000E+00  0.00000000E+00  0.00000000E+00
  0.00000000E+00  0.00000000E+00  0.00000000E+00
  0.00000000E+00  0.00000000E+00  0.00000000E+00
  0.00000000E+00  0.00000000E+00  0.00000000E+00
  0.00000000E+00  0.00000000E+00  0.00000000E+00
  0.00000000E+00  0.00000000E+00  0.00000000E+00
  0.00000000E+00  0.00000000E+00  0.00000000E+00
  0.00000000E+00  0.00000000E+00  0.00000000E+00
  0.00000000E+00  0.00000000E+00  0.00000000E+00
  0.00000000E+00  0.00000000E+00  0.00000000E+00
  0.00000000E+00  0.00000000E+00  0.00000000E+00
  0.00000000E+00  0.00000000E+00  0.00000000E+00
  0.00000000E+00  0.00000000E+00  0.00000000E+00
  0.00000000E+00  0.00000000E+00  0.00000000E+00
  0.00000000E+00  0.00000000E+00  0.00000000E+00
  0.00000000E+00  0.00000000E+00  0.00000000E+00
  0.00000000E+00  0.00000000E+00  0.00000000E+00
  0.00000000E+00  0.00000000E+00  0.00000000E+00
  0.00000000E+00  0.00000000E+00  0.00000000E+00
  0.00000000E+00  0.00000000E+00  0.00000000E+00
  0.00000000E+00  0.00000000E+00  0.00000000E+00
  0.00000000E+00  0.00000000E+00  0.00000000E+00
  0.00000000E+00  0.00000000E+00  0.00000000E+00
  0.00000000E+00  0.00000000E+00  0.00000000E+00
  0.00000000E+00  0.00000000E+00  0.00000000E+00
  0.00000000E+00  0.00000000E+00  0.00000000E+00
  0.00000000E+00  0.00000000E+00  0.00000000E+00
  0.00000000E+00  0.00000000E+00  0.00000000E+00
  0.00000000E+00  0.00000000E+00  0.00000000E+00
  0.00000000E+00  0.00000000E+00  0.00000000E+00
  0.00000000E+00  0.00000000E+00  0.00000000E+00
  0.00000000E+00  0.00000000E+00  0.00000000E+00
  0.00000000E+00  0.00000000E+00  0.00000000E+00
  0.00000000E+00  0.00000000E+00  0.00000000E+00
  0.00000000E+00  0.00000000E+00  0.00000000E+00
  0.00000000E+00  0.00000000E+00  0.00000000E+00
  0.00000000E+00  0.00000000E+00  0.00000000E+00
  0.00000000E+00  0.00000000E+00  0.00000000E+00
  0.00000000E+00  0.00000000E+00  0.00000000E+00
  0.00000000E+00  0.00000000E+00  0.00000000E+00
  0.00000000E+00  0.00000000E+00  0.00000000E+00
  0.00000000E+00  0.00000000E+00  0.00000000E+00
  0.00000000E+00  0.00000000E+00  0.00000000E+00
  0.00000000E+00  0.00000000E+00  0.00000000E+00
  0.00000000E+00  0.00000000E+00  0.00000000E+00
  0.00000000E+00  0.00000000E+00  0.00000000E+00
  0.00000000E+00  0.00000000E+00  0.00000000E+00
  0.00000000E+00  0.00000000E+00  0.00000000E+00
