Al   Gd   N                             
   1.00000000000000     
    -9.8798698613509348   -0.0107758591867148    0.0254255189083267
    -4.9301297689544006    8.5635827219228489    0.0278112545201462
     0.0295289225354678   -0.0203184316286351  -10.4095170804591444
   Al   Gd   N 
    28     8    36
Direct
  0.1081438897854525  0.0915069923765444  0.3154437027648385
  0.2192645117184426  0.2118047885155860  0.0381265207926873
  0.8970889843723882  0.1983249750561811  0.5572376701554518
  0.5430789410992531  0.2140289848062125  0.0534562058576356
  0.1168499470596061  0.0934820833644068  0.7986911092342979
  0.2180152764033849  0.2041830782824690  0.5684706354896676
  0.7863048357208626  0.0923451007388962  0.2991277765664577
  0.8954922612070249  0.2182615480357128  0.0502918776621755
  0.4388608607417694  0.0998048436190828  0.8011675255707615
  0.5541294869162101  0.2127695235079798  0.5553697589256146
  0.2206880146554226  0.5365402145623790  0.0441762530806500
  0.7933345877153499  0.4225810129256118  0.8049975805565808
  0.8942314655383967  0.5296411268894303  0.5715133585060883
  0.4398670549884827  0.4393272263647674  0.3011053671551380
  0.5589800259668181  0.5414927784548524  0.0427458279583988
  0.1147939495432055  0.4288676713768353  0.8037957265913818
  0.2290804935544699  0.5323581356740661  0.5593395520446052
  0.8913155335622776  0.5379112748834132  0.0288110527386038
  0.4327936594040409  0.4283416903316919  0.8066514214271336
  0.1134513045890415  0.7582486890622917  0.3050639871548455
  0.7759791310970741  0.7528673401037764  0.8080583970389768
  0.4400184245031369  0.7591992567995689  0.3067636161499863
  0.5574331894502293  0.8741567116676947  0.0377905239007887
  0.1254805202400959  0.7520303217362638  0.8003396727202912
  0.2237756422414066  0.8763134762804157  0.5548489304625761
  0.8961993183737320  0.8568748931515984  0.0435462173609551
  0.4358968584110769  0.7738896706737961  0.8036095801507912
  0.5466097678311925  0.8742086509759730  0.5676996799443330
  0.7740176259628839  0.1029480444713613  0.8246468374446252
  0.4418127436679526  0.0939567595082735  0.3157076547895628
  0.1134687606474074  0.4240985277485905  0.3008753811961569
  0.7743835560319710  0.4155147429909576  0.3021149205666518
  0.5522013603985343  0.5427525733577241  0.5731401755579952
  0.2186099876667527  0.8784408506877881  0.0700373355907828
  0.8910153840975710  0.8670118923403791  0.5628785189714733
  0.7680511853034702  0.7582888919228665  0.2914602369116253
  0.2053275337305678  0.1930134838685618  0.3899096402919540
  0.0966618696069190  0.1349525894406511  0.1298071525688727
  0.9149546461336655  0.2163285052799822  0.8709860433138346
  0.7634611112799732  0.1215955841834102  0.6106068004814418
  0.5716808778158082  0.2262897390211975  0.3646519623153708
  0.4402392153939090  0.0938268697546931  0.0946347523156490
  0.2233014974219785  0.2032721304292977  0.8511108763658797
  0.1101821390605977  0.0891778590634829  0.6157424575357524
  0.9054301902400113  0.1720037698527435  0.3747161026354320
  0.7800984353193954  0.0975049579800640  0.0978454242379669
  0.5199226530410783  0.2240565245126120  0.8728985982845359
  0.4482029014693580  0.0965957698319571  0.6097367433023848
  0.2336824284659400  0.5498747869539145  0.3743728701713778
  0.1099952869881520  0.4284857366485113  0.0782449976356290
  0.8943003250726989  0.5362078895489475  0.8487870542752844
  0.8104057494693180  0.4040970043097545  0.6214063292292735
  0.5280418360727950  0.5548814559413771  0.3572699768966103
  0.4405257849323334  0.4338740861428434  0.1100485388776633
  0.2225078107450713  0.5422091555296831  0.8612382432094421
  0.1146510269034096  0.4288408928298821  0.6163146229581216
  0.8866637060002560  0.5370587098589183  0.3903253069774379
  0.7763067638258221  0.4363220388195757  0.0836704297535036
  0.5538206945554052  0.5409051001095406  0.8502570679452433
  0.4303156484816526  0.4111625927380373  0.6259475200643507
  0.2209569161634874  0.8710971656426167  0.3511222813992276
  0.0996343039375702  0.7395632699856520  0.1197577414165849
  0.9093708947923247  0.8416716171347147  0.8537590649746107
  0.7590153311704029  0.7446629234346247  0.6244412356042375
  0.5393711321945247  0.8565659474191207  0.3868102804904225
  0.4767743107491711  0.7506652383599075  0.1175116444326747
  0.2192998419900221  0.8761514736941862  0.8544847321069327
  0.1463693317399191  0.7440146432099937  0.6170152598656244
  0.8965913439979261  0.8803709450097372  0.3465898305143398
  0.7771932964002701  0.7587088429569846  0.0722733572603644
  0.5507913224867238  0.8783143032521963  0.8556556830552680
  0.4225782418791937  0.7957651626802900  0.6253897894844229
 
  0.00000000E+00  0.00000000E+00  0.00000000E+00
  0.00000000E+00  0.00000000E+00  0.00000000E+00
  0.00000000E+00  0.00000000E+00  0.00000000E+00
  0.00000000E+00  0.00000000E+00  0.00000000E+00
  0.00000000E+00  0.00000000E+00  0.00000000E+00
  0.00000000E+00  0.00000000E+00  0.00000000E+00
  0.00000000E+00  0.00000000E+00  0.00000000E+00
  0.00000000E+00  0.00000000E+00  0.00000000E+00
  0.00000000E+00  0.00000000E+00  0.00000000E+00
  0.00000000E+00  0.00000000E+00  0.00000000E+00
  0.00000000E+00  0.00000000E+00  0.00000000E+00
  0.00000000E+00  0.00000000E+00  0.00000000E+00
  0.00000000E+00  0.00000000E+00  0.00000000E+00
  0.00000000E+00  0.00000000E+00  0.00000000E+00
  0.00000000E+00  0.00000000E+00  0.00000000E+00
  0.00000000E+00  0.00000000E+00  0.00000000E+00
  0.00000000E+00  0.00000000E+00  0.00000000E+00
  0.00000000E+00  0.00000000E+00  0.00000000E+00
  0.00000000E+00  0.00000000E+00  0.00000000E+00
  0.00000000E+00  0.00000000E+00  0.00000000E+00
  0.00000000E+00  0.00000000E+00  0.00000000E+00
  0.00000000E+00  0.00000000E+00  0.00000000E+00
  0.00000000E+00  0.00000000E+00  0.00000000E+00
  0.00000000E+00  0.00000000E+00  0.00000000E+00
  0.00000000E+00  0.00000000E+00  0.00000000E+00
  0.00000000E+00  0.00000000E+00  0.00000000E+00
  0.00000000E+00  0.00000000E+00  0.00000000E+00
  0.00000000E+00  0.00000000E+00  0.00000000E+00
  0.00000000E+00  0.00000000E+00  0.00000000E+00
  0.00000000E+00  0.00000000E+00  0.00000000E+00
  0.00000000E+00  0.00000000E+00  0.00000000E+00
  0.00000000E+00  0.00000000E+00  0.00000000E+00
  0.00000000E+00  0.00000000E+00  0.00000000E+00
  0.00000000E+00  0.00000000E+00  0.00000000E+00
  0.00000000E+00  0.00000000E+00  0.00000000E+00
  0.00000000E+00  0.00000000E+00  0.00000000E+00
  0.00000000E+00  0.00000000E+00  0.00000000E+00
  0.00000000E+00  0.00000000E+00  0.00000000E+00
  0.00000000E+00  0.00000000E+00  0.00000000E+00
  0.00000000E+00  0.00000000E+00  0.00000000E+00
  0.00000000E+00  0.00000000E+00  0.00000000E+00
  0.00000000E+00  0.00000000E+00  0.00000000E+00
  0.00000000E+00  0.00000000E+00  0.00000000E+00
  0.00000000E+00  0.00000000E+00  0.00000000E+00
  0.00000000E+00  0.00000000E+00  0.00000000E+00
  0.00000000E+00  0.00000000E+00  0.00000000E+00
  0.00000000E+00  0.00000000E+00  0.00000000E+00
  0.00000000E+00  0.00000000E+00  0.00000000E+00
  0.00000000E+00  0.00000000E+00  0.00000000E+00
  0.00000000E+00  0.00000000E+00  0.00000000E+00
  0.00000000E+00  0.00000000E+00  0.00000000E+00
  0.00000000E+00  0.00000000E+00  0.00000000E+00
  0.00000000E+00  0.00000000E+00  0.00000000E+00
  0.00000000E+00  0.00000000E+00  0.00000000E+00
  0.00000000E+00  0.00000000E+00  0.00000000E+00
  0.00000000E+00  0.00000000E+00  0.00000000E+00
  0.00000000E+00  0.00000000E+00  0.00000000E+00
  0.00000000E+00  0.00000000E+00  0.00000000E+00
  0.00000000E+00  0.00000000E+00  0.00000000E+00
  0.00000000E+00  0.00000000E+00  0.00000000E+00
  0.00000000E+00  0.00000000E+00  0.00000000E+00
  0.00000000E+00  0.00000000E+00  0.00000000E+00
  0.00000000E+00  0.00000000E+00  0.00000000E+00
  0.00000000E+00  0.00000000E+00  0.00000000E+00
  0.00000000E+00  0.00000000E+00  0.00000000E+00
  0.00000000E+00  0.00000000E+00  0.00000000E+00
  0.00000000E+00  0.00000000E+00  0.00000000E+00
  0.00000000E+00  0.00000000E+00  0.00000000E+00
  0.00000000E+00  0.00000000E+00  0.00000000E+00
  0.00000000E+00  0.00000000E+00  0.00000000E+00
  0.00000000E+00  0.00000000E+00  0.00000000E+00
  0.00000000E+00  0.00000000E+00  0.00000000E+00
