Al   B    N                             
   1.00000000000000     
    -9.1946659413328753    0.0049933338664425    0.0140149668521622
    -4.5418852236160738    7.9448285901819897    0.0174135106980516
    -0.1279750108182172    0.0718451507256804  -10.1463122599012578
   Al   B    N 
    31     5    36
Direct
  0.1058461820125842  0.0887148917249689  0.3298781645110225
  0.2302974343209954  0.2032178176417361  0.1350100527550353
  0.7814970798718122  0.0908266967655749  0.8227275256255737
  0.4476336111826171  0.0901470507619493  0.3939258364766047
  0.5577664588400140  0.2032010463687612  0.0657141589615833
  0.1105608365192268  0.0947957715172763  0.8807883468167574
  0.2148455049916507  0.2094329622785125  0.6420181342542790
  0.8802412136739264  0.2097997280901751  0.1124920297449776
  0.4433916297889056  0.0810217654598375  0.8770204148833329
  0.5778187167971893  0.2008978987917089  0.5639882266448950
  0.1098978265012462  0.4229620495092590  0.3876224855076700
  0.2248296220352799  0.5433467542817141  0.0660971454565882
  0.7754006309504646  0.4319128600153732  0.8880432205017357
  0.8922274404207471  0.5378647339226674  0.6398232467392972
  0.4531542524639960  0.4208885442992027  0.3167525945239120
  0.5452424732743424  0.5562194774891580  0.0650205047110219
  0.1041607140675325  0.4287282153120344  0.8890580011285607
  0.2209599822764972  0.5449535237533141  0.5680327288728222
  0.7863364189959441  0.4097331443195245  0.3865315114962584
  0.8761972843671657  0.5479996340711253  0.1463807952800806
  0.4442128050349936  0.4320881744341563  0.8149814591777940
  0.5524491166235350  0.5367901590864363  0.5722146471437668
  0.1076219074149662  0.7662785147914022  0.3136447404535687
  0.2388900724034855  0.8650566772805917  0.0640725688674806
  0.7634646940344396  0.7619636403432821  0.8850808370500332
  0.4532173617486919  0.7605058862989864  0.3247238924151148
  0.1116523001713787  0.7647823724982103  0.8216352872577630
  0.2119122385180461  0.8791123253224811  0.5694210417653949
  0.7851245544214649  0.7731668303371038  0.3962438694770967
  0.8830775624869105  0.8764195897033247  0.0853511954785731
  0.5564440327369482  0.8754406711020053  0.6151644188806458
  0.9011459094912624  0.1924202743978540  0.6074339949554002
  0.7760987095817029  0.0895124595665209  0.2997745143012551
  0.8986741597393291  0.8755645274119743  0.6066962304305150
  0.5534088019026271  0.8724276372143294  0.1006926112082525
  0.4421331770129981  0.7594702945707681  0.8055670087195210
  0.2290282305672378  0.2028767781417287  0.3221299443339447
  0.1146334987326227  0.0922177835098239  0.0950326709919622
  0.8840163997130759  0.2029460336383053  0.8804776889114478
  0.8090879210197883  0.0772093462541577  0.6268564220128567
  0.5872162339320326  0.1912825502695696  0.3714705330868711
  0.4558471762384073  0.0612809482401531  0.0754569222143573
  0.2202794480040495  0.2088604398988068  0.8295640485752358
  0.0825319836233263  0.1086554433185754  0.6037793468768413
  0.8771639295786500  0.1964818237590436  0.3155267209282613
  0.7628735141392724  0.0960074852432840  0.1404734340888893
  0.5564854118606775  0.2067564273966482  0.8766226986464076
  0.4363222764656740  0.1076397163046749  0.5844816934551957
  0.2266619314618907  0.5420163766281689  0.3777635892998390
  0.1022951449156295  0.4303820353150485  0.0795082696480804
  0.8865815501698506  0.5409696067585301  0.8242396608104272
  0.7950239727109576  0.3883353506418672  0.5845466552453047
  0.5538656697865108  0.5388893904893308  0.3829714947062897
  0.4445145013370748  0.4288297522324314  0.1278202617408226
  0.2245043185705242  0.5420026516680139  0.8760648102317248
  0.1064516695485409  0.4259672798018954  0.5762961519991521
  0.8863317600298686  0.5422358064433226  0.3340304367540270
  0.7726648060451069  0.4384611136541423  0.0790762832130341
  0.5372941902378514  0.5694806815833360  0.8705588144620720
  0.4445253436546821  0.4233369935783955  0.6292221302960286
  0.2272408865972508  0.8671077280797377  0.3805734145776114
  0.1181096258693941  0.7619705108177186  0.1255172525163246
  0.8911118499838864  0.8717467680325228  0.8894616835703957
  0.8014201585590968  0.7810825168424955  0.5919538459988232
  0.5590600049545102  0.8615499270679194  0.3964549217874591
  0.4584301504930863  0.7781883794925193  0.1326583064382874
  0.2509262489471240  0.8579967358733214  0.8718954717554226
  0.0860669006062125  0.7752204079662945  0.6294956483692857
  0.8783748551994321  0.8984433105246978  0.3373816996294323
  0.7405254589243668  0.7746300669978297  0.0816820857858715
  0.5463126588147986  0.8604051492067981  0.8171025284847815
  0.4336415393321431  0.7553740814265097  0.6447096078756758
 
  0.00000000E+00  0.00000000E+00  0.00000000E+00
  0.00000000E+00  0.00000000E+00  0.00000000E+00
  0.00000000E+00  0.00000000E+00  0.00000000E+00
  0.00000000E+00  0.00000000E+00  0.00000000E+00
  0.00000000E+00  0.00000000E+00  0.00000000E+00
  0.00000000E+00  0.00000000E+00  0.00000000E+00
  0.00000000E+00  0.00000000E+00  0.00000000E+00
  0.00000000E+00  0.00000000E+00  0.00000000E+00
  0.00000000E+00  0.00000000E+00  0.00000000E+00
  0.00000000E+00  0.00000000E+00  0.00000000E+00
  0.00000000E+00  0.00000000E+00  0.00000000E+00
  0.00000000E+00  0.00000000E+00  0.00000000E+00
  0.00000000E+00  0.00000000E+00  0.00000000E+00
  0.00000000E+00  0.00000000E+00  0.00000000E+00
  0.00000000E+00  0.00000000E+00  0.00000000E+00
  0.00000000E+00  0.00000000E+00  0.00000000E+00
  0.00000000E+00  0.00000000E+00  0.00000000E+00
  0.00000000E+00  0.00000000E+00  0.00000000E+00
  0.00000000E+00  0.00000000E+00  0.00000000E+00
  0.00000000E+00  0.00000000E+00  0.00000000E+00
  0.00000000E+00  0.00000000E+00  0.00000000E+00
  0.00000000E+00  0.00000000E+00  0.00000000E+00
  0.00000000E+00  0.00000000E+00  0.00000000E+00
  0.00000000E+00  0.00000000E+00  0.00000000E+00
  0.00000000E+00  0.00000000E+00  0.00000000E+00
  0.00000000E+00  0.00000000E+00  0.00000000E+00
  0.00000000E+00  0.00000000E+00  0.00000000E+00
  0.00000000E+00  0.00000000E+00  0.00000000E+00
  0.00000000E+00  0.00000000E+00  0.00000000E+00
  0.00000000E+00  0.00000000E+00  0.00000000E+00
  0.00000000E+00  0.00000000E+00  0.00000000E+00
  0.00000000E+00  0.00000000E+00  0.00000000E+00
  0.00000000E+00  0.00000000E+00  0.00000000E+00
  0.00000000E+00  0.00000000E+00  0.00000000E+00
  0.00000000E+00  0.00000000E+00  0.00000000E+00
  0.00000000E+00  0.00000000E+00  0.00000000E+00
  0.00000000E+00  0.00000000E+00  0.00000000E+00
  0.00000000E+00  0.00000000E+00  0.00000000E+00
  0.00000000E+00  0.00000000E+00  0.00000000E+00
  0.00000000E+00  0.00000000E+00  0.00000000E+00
  0.00000000E+00  0.00000000E+00  0.00000000E+00
  0.00000000E+00  0.00000000E+00  0.00000000E+00
  0.00000000E+00  0.00000000E+00  0.00000000E+00
  0.00000000E+00  0.00000000E+00  0.00000000E+00
  0.00000000E+00  0.00000000E+00  0.00000000E+00
  0.00000000E+00  0.00000000E+00  0.00000000E+00
  0.00000000E+00  0.00000000E+00  0.00000000E+00
  0.00000000E+00  0.00000000E+00  0.00000000E+00
  0.00000000E+00  0.00000000E+00  0.00000000E+00
  0.00000000E+00  0.00000000E+00  0.00000000E+00
  0.00000000E+00  0.00000000E+00  0.00000000E+00
  0.00000000E+00  0.00000000E+00  0.00000000E+00
  0.00000000E+00  0.00000000E+00  0.00000000E+00
  0.00000000E+00  0.00000000E+00  0.00000000E+00
  0.00000000E+00  0.00000000E+00  0.00000000E+00
  0.00000000E+00  0.00000000E+00  0.00000000E+00
  0.00000000E+00  0.00000000E+00  0.00000000E+00
  0.00000000E+00  0.00000000E+00  0.00000000E+00
  0.00000000E+00  0.00000000E+00  0.00000000E+00
  0.00000000E+00  0.00000000E+00  0.00000000E+00
  0.00000000E+00  0.00000000E+00  0.00000000E+00
  0.00000000E+00  0.00000000E+00  0.00000000E+00
  0.00000000E+00  0.00000000E+00  0.00000000E+00
  0.00000000E+00  0.00000000E+00  0.00000000E+00
  0.00000000E+00  0.00000000E+00  0.00000000E+00
  0.00000000E+00  0.00000000E+00  0.00000000E+00
  0.00000000E+00  0.00000000E+00  0.00000000E+00
  0.00000000E+00  0.00000000E+00  0.00000000E+00
  0.00000000E+00  0.00000000E+00  0.00000000E+00
  0.00000000E+00  0.00000000E+00  0.00000000E+00
  0.00000000E+00  0.00000000E+00  0.00000000E+00
  0.00000000E+00  0.00000000E+00  0.00000000E+00
