Al   B    N                             
   1.00000000000000     
    -9.1982437537512034   -0.0065714170018513    0.0124343840270878
    -4.6092442967247260    7.9393513256092358   -0.0021577784386672
    -0.0246169559266698   -0.0651728781418690   -9.9516875529629001
   Al   B    N 
    31     5    36
Direct
  0.1063207774139059  0.0916315455821177  0.3289323074289001
  0.2240963406577734  0.2011177871611736  0.0765466221433613
  0.7815041506203286  0.0877815751104194  0.8257243463072186
  0.4563064632144247  0.0835665847087981  0.3310823460318773
  0.5609224552941257  0.2007264641370909  0.0786401988925078
  0.1090328729749501  0.0942159720230080  0.8189677589669202
  0.2170434489603252  0.2066183127601846  0.5697521389669049
  0.8876249557014404  0.2083580649624324  0.0782144083291740
  0.4415807645589069  0.0918585344968648  0.8222251073141820
  0.5701469259003602  0.1949492228043965  0.5689484638958788
  0.1186123874806455  0.4263307070398099  0.3274250236957528
  0.2237121779855400  0.5404414116783514  0.0714271350938063
  0.7715111441627371  0.4231058475915859  0.8198380263569831
  0.8874910355740440  0.5445046607001487  0.6358653937372978
  0.4511386123273340  0.4238312411598031  0.3222953994040907
  0.5572590214634658  0.5494045787831965  0.0698362045422343
  0.1144990352648279  0.4252406054654330  0.8252682558356739
  0.2188442291073258  0.5416540850649554  0.5744238448362040
  0.7766719912422886  0.4177032579526312  0.3376383630839541
  0.8761384260335063  0.5535599015011670  0.1505593709735678
  0.4445393021613597  0.4301720018584589  0.8231489653113755
  0.5567876991771783  0.5319384543635977  0.5760036095467598
  0.1096842645352325  0.7674753028907020  0.3202542930788610
  0.2335030250386581  0.8746992902703994  0.0672659515031953
  0.7598330969756404  0.7631580784906049  0.8963316637903205
  0.4493315348161318  0.7630909877826895  0.3315368107558783
  0.1078180260022066  0.7641070538141577  0.8311827308014941
  0.2119956356861721  0.8750266455887328  0.5769248248768477
  0.7840306980014304  0.7742989617470144  0.4023792859639670
  0.8832631564591509  0.8818704019190520  0.1042411305978987
  0.5538876128681167  0.8731847952253133  0.6085882661763122
  0.8939640785960066  0.1920061451787305  0.5662146352018240
  0.7775629969441624  0.0915607355104342  0.3195396146942215
  0.8948126918288395  0.8762066938333675  0.6121746704299653
  0.5529286544521952  0.8740255577012519  0.1145919419563555
  0.4431950236377347  0.7615433103329750  0.8118617200253411
  0.2253439134985200  0.2028473830327400  0.3803333055907174
  0.1101414202680218  0.0942405182234722  0.1372804003692423
  0.8871716761762158  0.2037148114595766  0.8884054835983193
  0.8039956213402064  0.0722279311928062  0.6284969376140310
  0.5820890386279842  0.1912318232529131  0.3759600465147983
  0.4597953127740695  0.0658223692072823  0.1331654075254676
  0.2202205610368608  0.2041052267777559  0.8862095907117435
  0.0846607613498094  0.1070193170233438  0.6242659026953561
  0.8810670448687574  0.1899114192320255  0.4000908953820925
  0.7736862257522716  0.1095635411299227  0.1562131885956930
  0.5571498827555104  0.2025395419805207  0.8863440210088527
  0.4385103502607919  0.1052176040242543  0.6320988303461235
  0.2243748736579434  0.5421258177663475  0.3847239469862274
  0.1137219717140141  0.4290747632163203  0.1333886843308463
  0.8815614794958719  0.5442286312017899  0.8344779732420520
  0.7883981424754580  0.3949491181382285  0.6231747902415421
  0.5532592999095058  0.5403934044996248  0.3873249337363944
  0.4461490891044591  0.4306143902726873  0.1310708758209600
  0.2222245103800873  0.5389597210942725  0.8822055823697355
  0.1168746589948597  0.4245642774837890  0.6318767444884728
  0.8857569617544243  0.5473834340550567  0.3496792544188949
  0.7730262656401692  0.4275042638810334  0.1405532774841447
  0.5431225294946032  0.5632551265406534  0.8761082702528427
  0.4459001825667386  0.4213008755805063  0.6328112920336579
  0.2253867903486366  0.8695269569027175  0.3879790803441878
  0.1216166070980194  0.7622414250947998  0.1293596181147691
  0.8874750296635625  0.8744969740443267  0.9004168958229499
  0.7993272122471140  0.7812944770652166  0.5972377777475373
  0.5528933934405487  0.8712082659790568  0.4049936483995822
  0.4589972488345424  0.7786002691933049  0.1357465835756884
  0.2451071842770389  0.8624428840472689  0.8726776351882251
  0.0835127280668431  0.7750216572166408  0.6345883093567437
  0.8767414779489329  0.8972620661636341  0.3389124084953181
  0.7404478758870425  0.7784536619017999  0.0943634452284599
  0.5415947990380943  0.8587688945813028  0.8343292879719115
  0.4360669569163491  0.7531226929863735  0.6488558266019808
 
  0.00000000E+00  0.00000000E+00  0.00000000E+00
  0.00000000E+00  0.00000000E+00  0.00000000E+00
  0.00000000E+00  0.00000000E+00  0.00000000E+00
  0.00000000E+00  0.00000000E+00  0.00000000E+00
  0.00000000E+00  0.00000000E+00  0.00000000E+00
  0.00000000E+00  0.00000000E+00  0.00000000E+00
  0.00000000E+00  0.00000000E+00  0.00000000E+00
  0.00000000E+00  0.00000000E+00  0.00000000E+00
  0.00000000E+00  0.00000000E+00  0.00000000E+00
  0.00000000E+00  0.00000000E+00  0.00000000E+00
  0.00000000E+00  0.00000000E+00  0.00000000E+00
  0.00000000E+00  0.00000000E+00  0.00000000E+00
  0.00000000E+00  0.00000000E+00  0.00000000E+00
  0.00000000E+00  0.00000000E+00  0.00000000E+00
  0.00000000E+00  0.00000000E+00  0.00000000E+00
  0.00000000E+00  0.00000000E+00  0.00000000E+00
  0.00000000E+00  0.00000000E+00  0.00000000E+00
  0.00000000E+00  0.00000000E+00  0.00000000E+00
  0.00000000E+00  0.00000000E+00  0.00000000E+00
  0.00000000E+00  0.00000000E+00  0.00000000E+00
  0.00000000E+00  0.00000000E+00  0.00000000E+00
  0.00000000E+00  0.00000000E+00  0.00000000E+00
  0.00000000E+00  0.00000000E+00  0.00000000E+00
  0.00000000E+00  0.00000000E+00  0.00000000E+00
  0.00000000E+00  0.00000000E+00  0.00000000E+00
  0.00000000E+00  0.00000000E+00  0.00000000E+00
  0.00000000E+00  0.00000000E+00  0.00000000E+00
  0.00000000E+00  0.00000000E+00  0.00000000E+00
  0.00000000E+00  0.00000000E+00  0.00000000E+00
  0.00000000E+00  0.00000000E+00  0.00000000E+00
  0.00000000E+00  0.00000000E+00  0.00000000E+00
  0.00000000E+00  0.00000000E+00  0.00000000E+00
  0.00000000E+00  0.00000000E+00  0.00000000E+00
  0.00000000E+00  0.00000000E+00  0.00000000E+00
  0.00000000E+00  0.00000000E+00  0.00000000E+00
  0.00000000E+00  0.00000000E+00  0.00000000E+00
  0.00000000E+00  0.00000000E+00  0.00000000E+00
  0.00000000E+00  0.00000000E+00  0.00000000E+00
  0.00000000E+00  0.00000000E+00  0.00000000E+00
  0.00000000E+00  0.00000000E+00  0.00000000E+00
  0.00000000E+00  0.00000000E+00  0.00000000E+00
  0.00000000E+00  0.00000000E+00  0.00000000E+00
  0.00000000E+00  0.00000000E+00  0.00000000E+00
  0.00000000E+00  0.00000000E+00  0.00000000E+00
  0.00000000E+00  0.00000000E+00  0.00000000E+00
  0.00000000E+00  0.00000000E+00  0.00000000E+00
  0.00000000E+00  0.00000000E+00  0.00000000E+00
  0.00000000E+00  0.00000000E+00  0.00000000E+00
  0.00000000E+00  0.00000000E+00  0.00000000E+00
  0.00000000E+00  0.00000000E+00  0.00000000E+00
  0.00000000E+00  0.00000000E+00  0.00000000E+00
  0.00000000E+00  0.00000000E+00  0.00000000E+00
  0.00000000E+00  0.00000000E+00  0.00000000E+00
  0.00000000E+00  0.00000000E+00  0.00000000E+00
  0.00000000E+00  0.00000000E+00  0.00000000E+00
  0.00000000E+00  0.00000000E+00  0.00000000E+00
  0.00000000E+00  0.00000000E+00  0.00000000E+00
  0.00000000E+00  0.00000000E+00  0.00000000E+00
  0.00000000E+00  0.00000000E+00  0.00000000E+00
  0.00000000E+00  0.00000000E+00  0.00000000E+00
  0.00000000E+00  0.00000000E+00  0.00000000E+00
  0.00000000E+00  0.00000000E+00  0.00000000E+00
  0.00000000E+00  0.00000000E+00  0.00000000E+00
  0.00000000E+00  0.00000000E+00  0.00000000E+00
  0.00000000E+00  0.00000000E+00  0.00000000E+00
  0.00000000E+00  0.00000000E+00  0.00000000E+00
  0.00000000E+00  0.00000000E+00  0.00000000E+00
  0.00000000E+00  0.00000000E+00  0.00000000E+00
  0.00000000E+00  0.00000000E+00  0.00000000E+00
  0.00000000E+00  0.00000000E+00  0.00000000E+00
  0.00000000E+00  0.00000000E+00  0.00000000E+00
  0.00000000E+00  0.00000000E+00  0.00000000E+00
