Al   B    N                             
   1.00000000000000     
    -9.1639038883416575    0.0062078820122363    0.0082777490543495
    -4.6086494520199839    7.9649844049033742    0.0166973005145654
    -0.1492805316124609    0.0362018997793720  -10.1926323729855230
   Al   B    N 
    31     5    36
Direct
  0.0965376453728553  0.1020103488667630  0.3930698042514180
  0.2224719177174919  0.1971206005069135  0.1370119894033976
  0.7802940687426698  0.0853845293643403  0.8107876214803582
  0.4466689208273209  0.0887785565337538  0.3822386017586652
  0.5574807879557113  0.2044050821022623  0.0707845169254426
  0.1118375359057424  0.0972574950391234  0.8768034221140866
  0.2241078070992586  0.2082155693269669  0.6387809637711399
  0.8862761584919525  0.2093545795139420  0.1395287117149309
  0.4458596088483588  0.0809417995818862  0.8876809546942184
  0.5775451163977294  0.1902782778838841  0.5611019171049918
  0.1102502154060261  0.4247712787797440  0.3839771955957403
  0.2260663657808806  0.5426451235156691  0.0700608130309490
  0.7774657372767919  0.4343853321936919  0.8781877142505081
  0.8960176231308026  0.5414851686004098  0.6397138091731591
  0.4550809820657520  0.4230040439874614  0.3178456472967497
  0.5464644854057283  0.5545047267969210  0.0612265922176576
  0.1094619256666789  0.4265755109884921  0.8902852121668730
  0.2233191603961089  0.5428264780872780  0.5668377403429403
  0.7867890555496118  0.4153358817810044  0.3918547583462200
  0.8780087455594625  0.5424386158400338  0.1407692019250817
  0.4463056178311788  0.4298615259747365  0.8159647844283384
  0.5528174192649047  0.5375997724834463  0.5761410716167035
  0.1087124660452190  0.7706965348554320  0.3161322328977008
  0.2350876567091476  0.8674255506969715  0.0588858564387706
  0.7661811521831510  0.7649683693525589  0.8949155546080902
  0.4447347930745877  0.7623399521606373  0.3212856618500624
  0.1096220413506188  0.7626183253255761  0.8242849461844770
  0.2070449622421080  0.8750699850203461  0.5807436479200874
  0.7815131343326271  0.7704742781823626  0.3843410969934666
  0.8834425501404795  0.8765426322530843  0.0966004891213714
  0.5600250891977225  0.8749571323244183  0.6350090610227994
  0.9149129560138221  0.2354189698619464  0.6517534838335948
  0.7723027311181383  0.0886030526345039  0.3024967745445082
  0.8842966476662610  0.8636770168745045  0.6079933413009613
  0.5545108509661034  0.8715468274929634  0.1273832481895454
  0.4408053174480528  0.7589381512828197  0.8059902440800286
  0.2201479772946513  0.2022538515097523  0.3232097936767033
  0.1019871192604143  0.1005206445548197  0.0647425112827591
  0.8928343961492757  0.2167435515121099  0.7990695287745666
  0.7829186907198533  0.0417394246064973  0.6337084805262805
  0.5854780302802496  0.1932616737004480  0.3704196452126070
  0.4536261940609023  0.0622048128770842  0.0805277297665725
  0.2263297597490350  0.2078891455594203  0.8241601894779578
  0.0816767970750689  0.1178905521896141  0.5877608446477893
  0.8806048486487015  0.1980914478920397  0.3248505854627624
  0.7644452072948056  0.0998702678091234  0.1440294356664111
  0.5611280016270470  0.2082364248652055  0.8827871565532206
  0.4382757127764094  0.0918232167155821  0.5702885171008987
  0.2268379169069874  0.5439387208523883  0.3775227415415401
  0.1067778598802533  0.4255112997422046  0.0796043503512465
  0.8906277992272251  0.5465227858574480  0.8248904368214411
  0.7979471214003269  0.4040495327824232  0.5872202168177623
  0.5533890526795275  0.5425960658466380  0.3877691668292442
  0.4472309508873948  0.4299898314957673  0.1301436399166462
  0.2271191973179683  0.5416900601531509  0.8801179233337990
  0.1111338129294737  0.4231300492238077  0.5735679924568160
  0.8869778038788709  0.5394742227978000  0.3272831709276076
  0.7803570885249442  0.4241603394006290  0.0667169758992614
  0.5385174447330314  0.5699348563682278  0.8675899976953971
  0.4496427839106261  0.4163906690696066  0.6298200598215971
  0.2244555813745635  0.8692057317217987  0.3925600238920737
  0.1215910363566053  0.7620339021119023  0.1285036650251854
  0.8926252565398300  0.8791986858988992  0.8990578813355086
  0.7941273633880428  0.7638337450409622  0.5772910072802588
  0.5618499509268702  0.8714307893842843  0.3338512866587351
  0.4525966784826210  0.7742958803130762  0.1304326638167552
  0.2498157009422428  0.8584425062092365  0.8651716865016610
  0.0788407019108988  0.7693144341653664  0.6338760239025163
  0.8767140620355249  0.8970232928512374  0.3320763357884218
  0.7430481650791592  0.7704879036233194  0.0842957095006867
  0.5490372964881374  0.8623011396564166  0.8215286795560175
  0.4342389198660754  0.7565456368899390  0.6462502599508895
 
  0.00000000E+00  0.00000000E+00  0.00000000E+00
  0.00000000E+00  0.00000000E+00  0.00000000E+00
  0.00000000E+00  0.00000000E+00  0.00000000E+00
  0.00000000E+00  0.00000000E+00  0.00000000E+00
  0.00000000E+00  0.00000000E+00  0.00000000E+00
  0.00000000E+00  0.00000000E+00  0.00000000E+00
  0.00000000E+00  0.00000000E+00  0.00000000E+00
  0.00000000E+00  0.00000000E+00  0.00000000E+00
  0.00000000E+00  0.00000000E+00  0.00000000E+00
  0.00000000E+00  0.00000000E+00  0.00000000E+00
  0.00000000E+00  0.00000000E+00  0.00000000E+00
  0.00000000E+00  0.00000000E+00  0.00000000E+00
  0.00000000E+00  0.00000000E+00  0.00000000E+00
  0.00000000E+00  0.00000000E+00  0.00000000E+00
  0.00000000E+00  0.00000000E+00  0.00000000E+00
  0.00000000E+00  0.00000000E+00  0.00000000E+00
  0.00000000E+00  0.00000000E+00  0.00000000E+00
  0.00000000E+00  0.00000000E+00  0.00000000E+00
  0.00000000E+00  0.00000000E+00  0.00000000E+00
  0.00000000E+00  0.00000000E+00  0.00000000E+00
  0.00000000E+00  0.00000000E+00  0.00000000E+00
  0.00000000E+00  0.00000000E+00  0.00000000E+00
  0.00000000E+00  0.00000000E+00  0.00000000E+00
  0.00000000E+00  0.00000000E+00  0.00000000E+00
  0.00000000E+00  0.00000000E+00  0.00000000E+00
  0.00000000E+00  0.00000000E+00  0.00000000E+00
  0.00000000E+00  0.00000000E+00  0.00000000E+00
  0.00000000E+00  0.00000000E+00  0.00000000E+00
  0.00000000E+00  0.00000000E+00  0.00000000E+00
  0.00000000E+00  0.00000000E+00  0.00000000E+00
  0.00000000E+00  0.00000000E+00  0.00000000E+00
  0.00000000E+00  0.00000000E+00  0.00000000E+00
  0.00000000E+00  0.00000000E+00  0.00000000E+00
  0.00000000E+00  0.00000000E+00  0.00000000E+00
  0.00000000E+00  0.00000000E+00  0.00000000E+00
  0.00000000E+00  0.00000000E+00  0.00000000E+00
  0.00000000E+00  0.00000000E+00  0.00000000E+00
  0.00000000E+00  0.00000000E+00  0.00000000E+00
  0.00000000E+00  0.00000000E+00  0.00000000E+00
  0.00000000E+00  0.00000000E+00  0.00000000E+00
  0.00000000E+00  0.00000000E+00  0.00000000E+00
  0.00000000E+00  0.00000000E+00  0.00000000E+00
  0.00000000E+00  0.00000000E+00  0.00000000E+00
  0.00000000E+00  0.00000000E+00  0.00000000E+00
  0.00000000E+00  0.00000000E+00  0.00000000E+00
  0.00000000E+00  0.00000000E+00  0.00000000E+00
  0.00000000E+00  0.00000000E+00  0.00000000E+00
  0.00000000E+00  0.00000000E+00  0.00000000E+00
  0.00000000E+00  0.00000000E+00  0.00000000E+00
  0.00000000E+00  0.00000000E+00  0.00000000E+00
  0.00000000E+00  0.00000000E+00  0.00000000E+00
  0.00000000E+00  0.00000000E+00  0.00000000E+00
  0.00000000E+00  0.00000000E+00  0.00000000E+00
  0.00000000E+00  0.00000000E+00  0.00000000E+00
  0.00000000E+00  0.00000000E+00  0.00000000E+00
  0.00000000E+00  0.00000000E+00  0.00000000E+00
  0.00000000E+00  0.00000000E+00  0.00000000E+00
  0.00000000E+00  0.00000000E+00  0.00000000E+00
  0.00000000E+00  0.00000000E+00  0.00000000E+00
  0.00000000E+00  0.00000000E+00  0.00000000E+00
  0.00000000E+00  0.00000000E+00  0.00000000E+00
  0.00000000E+00  0.00000000E+00  0.00000000E+00
  0.00000000E+00  0.00000000E+00  0.00000000E+00
  0.00000000E+00  0.00000000E+00  0.00000000E+00
  0.00000000E+00  0.00000000E+00  0.00000000E+00
  0.00000000E+00  0.00000000E+00  0.00000000E+00
  0.00000000E+00  0.00000000E+00  0.00000000E+00
  0.00000000E+00  0.00000000E+00  0.00000000E+00
  0.00000000E+00  0.00000000E+00  0.00000000E+00
  0.00000000E+00  0.00000000E+00  0.00000000E+00
  0.00000000E+00  0.00000000E+00  0.00000000E+00
  0.00000000E+00  0.00000000E+00  0.00000000E+00
