generated by phonopy                    
   1.00000000000000     
    10.0351470768999995   -0.0000022330999784   -0.0000001056124209
    -5.0175765436399997    8.6906901959899994    0.0000001395531216
    -0.0000001735893656    0.0000001431815548   14.9533752540999991
   Pb   P    O 
    20    13    49
Direct
  0.0094185062793883  0.7777635852222389  0.1236328127284310
  0.9995015848655697  0.7725394165384003  0.6230667090298709
  0.0028602226708259  0.2559743091487263  0.3833146793504625
  0.0031622830922302  0.2566094754691974  0.8638264968296028
  0.2355939070641000  0.2368297652281157  0.1237739194602909
  0.2294162649511478  0.2243394954124938  0.6230834177671412
  0.7383370423465578  0.7406338351465251  0.3800308479888699
  0.7384837325901898  0.7408429711571713  0.8671556597571026
  0.7792293840647133  0.0189304541018984  0.1231061496337915
  0.7749814127029424  0.0010441984658485  0.6229500618037349
  0.2668067057672729  0.9993657652066474  0.3766308249122972
  0.2670048631709676  0.9993411335903275  0.8710028923284199
  0.6617993391808596  0.3276020317592199  0.9955859365829909
  0.6655172252505182  0.3313120045975069  0.5028126102771751
  0.2935530190469677  0.6549997673249379  0.9955909434849417
  0.3390491328478404  0.6647288724487552  0.5043825743455770
  0.2935859322105401  0.6559182701941282  0.2521174872301231
  0.3397080829114998  0.6654434095765325  0.7430628160017818
  0.6612030752575961  0.3267789755544470  0.2524437286221684
  0.6649199921416056  0.3312394541665853  0.7453009862060114
  0.6561842351389018  0.6037003203085618  0.1241678163125499
  0.6231925585098210  0.5943551051080078  0.6238642517535382
  0.3668875752786747  0.3957324822884445  0.3713546738547038
  0.3670828506663000  0.3962478431034668  0.8766437252740076
  0.4045192571935630  0.0282356302557503  0.1240846688063826
  0.4073940677106194  0.0257669363514452  0.6239499768812848
  0.6086578815044348  0.9744391123312255  0.3694727644945530
  0.6087764506157498  0.9746965472710940  0.8784334436562560
  0.9595054380698329  0.3681218258064121  0.1240920826122078
  0.9740087852113533  0.3754224935644430  0.6239160052366231
  0.0196218858704995  0.6276994388683121  0.3750109519968987
  0.0197109160951499  0.6279891900307959  0.8728559760110954
  0.5419465845582820  0.7371250337717470  0.1240445189934434
  0.4983628766385806  0.6443443746667867  0.6236408470454862
  0.4674410825871576  0.3174985282322567  0.3719812475795550
  0.4676806569906446  0.3180836513387675  0.8764555373126228
  0.3243964102020982  0.8490729927193144  0.1240739468823335
  0.3558471691550764  0.8512688321733393  0.6237014624084551
  0.6743422026221424  0.1513490727804054  0.3759846194566308
  0.6741288709816189  0.1515269944362103  0.8719338962262739
  0.1380130868730589  0.4772695677366272  0.1239095198221278
  0.1488634045751667  0.4972201951468378  0.6236637139262200
  0.8418958872149815  0.5273674291906119  0.3732806871540859
  0.8419908671155554  0.5271825030416721  0.8746587950883296
  0.7565870761291578  0.6496346032852003  0.0380916373394271
  0.7290205087829094  0.6578262019635943  0.5394116135763412
  0.2597032640818782  0.3496602383351401  0.4560563012833398
  0.2588151551360198  0.3526433971769265  0.9600333360642139
  0.3558413798883038  0.0869829263273232  0.0397255481784597
  0.3452773654339438  0.0701777300690267  0.5391229126574189
  0.6449018303948435  0.9073611503183656  0.4548278197002560
  0.6770714467552423  0.9317375555621581  0.9601981913942481
  0.9056566274076161  0.2559563555743551  0.0405831532245671
  0.9280233658935799  0.2672064166412937  0.5397335886274846
  0.0798029410566627  0.7447855715179585  0.4538692252069296
  0.0889876177778532  0.7242035068812740  0.9613369964429879
  0.2575872712775364  0.3502756666359303  0.2883778495953422
  0.2591361059228134  0.3486246055053570  0.7922855622575611
  0.7572670999807940  0.6508068436273291  0.2099774413953668
  0.7293027459264749  0.6591819040412332  0.7081126750880316
  0.6768733859834981  0.9311462659509004  0.2878712056136479
  0.6454330969963138  0.9076190641919908  0.7932605207344068
  0.3563791175441295  0.0870583430497902  0.2086603952351282
  0.3444321995618935  0.0693651034602780  0.7086915088418877
  0.0890564249950287  0.7250540927574534  0.2869074048004165
  0.0793516718058029  0.7459399701289726  0.7944714468080534
  0.9061668931106439  0.2553537927122420  0.2072387972950480
  0.9294866817739660  0.2663431570721002  0.7075972185130155
  0.5361666916044072  0.4298100606075863  0.1245380968488092
  0.5444806028528149  0.4144943748103600  0.6242260578994561
  0.4734896571503882  0.5770706470124907  0.3719579225800302
  0.4736915888496469  0.5776124152072484  0.8749298427007659
  0.5862808263252361  0.1072904488927122  0.1239422287974250
  0.5875659136847204  0.1279737253098858  0.6241904397419873
  0.4261316577247882  0.8916130346243918  0.3608918380810451
  0.4262172330831504  0.8914868323007923  0.8868560057632422
  0.8759206677377307  0.4629483279665791  0.1243743286016183
  0.8728692653742343  0.4541722841217393  0.6245762805341712
  0.0937048196836514  0.5200756498175849  0.3818768515585731
  0.0942032276772338  0.5207783368086396  0.8651619555513292
  0.9851796153428580  0.0063630525070550  0.1229084481907634
  0.0011099663187153  0.9998794209751409  0.6206913849669320
 
  0.00000000E+00  0.00000000E+00  0.00000000E+00
  0.00000000E+00  0.00000000E+00  0.00000000E+00
  0.00000000E+00  0.00000000E+00  0.00000000E+00
  0.00000000E+00  0.00000000E+00  0.00000000E+00
  0.00000000E+00  0.00000000E+00  0.00000000E+00
  0.00000000E+00  0.00000000E+00  0.00000000E+00
  0.00000000E+00  0.00000000E+00  0.00000000E+00
  0.00000000E+00  0.00000000E+00  0.00000000E+00
  0.00000000E+00  0.00000000E+00  0.00000000E+00
  0.00000000E+00  0.00000000E+00  0.00000000E+00
  0.00000000E+00  0.00000000E+00  0.00000000E+00
  0.00000000E+00  0.00000000E+00  0.00000000E+00
  0.00000000E+00  0.00000000E+00  0.00000000E+00
  0.00000000E+00  0.00000000E+00  0.00000000E+00
  0.00000000E+00  0.00000000E+00  0.00000000E+00
  0.00000000E+00  0.00000000E+00  0.00000000E+00
  0.00000000E+00  0.00000000E+00  0.00000000E+00
  0.00000000E+00  0.00000000E+00  0.00000000E+00
  0.00000000E+00  0.00000000E+00  0.00000000E+00
  0.00000000E+00  0.00000000E+00  0.00000000E+00
  0.00000000E+00  0.00000000E+00  0.00000000E+00
  0.00000000E+00  0.00000000E+00  0.00000000E+00
  0.00000000E+00  0.00000000E+00  0.00000000E+00
  0.00000000E+00  0.00000000E+00  0.00000000E+00
  0.00000000E+00  0.00000000E+00  0.00000000E+00
  0.00000000E+00  0.00000000E+00  0.00000000E+00
  0.00000000E+00  0.00000000E+00  0.00000000E+00
  0.00000000E+00  0.00000000E+00  0.00000000E+00
  0.00000000E+00  0.00000000E+00  0.00000000E+00
  0.00000000E+00  0.00000000E+00  0.00000000E+00
  0.00000000E+00  0.00000000E+00  0.00000000E+00
  0.00000000E+00  0.00000000E+00  0.00000000E+00
  0.00000000E+00  0.00000000E+00  0.00000000E+00
  0.00000000E+00  0.00000000E+00  0.00000000E+00
  0.00000000E+00  0.00000000E+00  0.00000000E+00
  0.00000000E+00  0.00000000E+00  0.00000000E+00
  0.00000000E+00  0.00000000E+00  0.00000000E+00
  0.00000000E+00  0.00000000E+00  0.00000000E+00
  0.00000000E+00  0.00000000E+00  0.00000000E+00
  0.00000000E+00  0.00000000E+00  0.00000000E+00
  0.00000000E+00  0.00000000E+00  0.00000000E+00
  0.00000000E+00  0.00000000E+00  0.00000000E+00
  0.00000000E+00  0.00000000E+00  0.00000000E+00
  0.00000000E+00  0.00000000E+00  0.00000000E+00
  0.00000000E+00  0.00000000E+00  0.00000000E+00
  0.00000000E+00  0.00000000E+00  0.00000000E+00
  0.00000000E+00  0.00000000E+00  0.00000000E+00
  0.00000000E+00  0.00000000E+00  0.00000000E+00
  0.00000000E+00  0.00000000E+00  0.00000000E+00
  0.00000000E+00  0.00000000E+00  0.00000000E+00
  0.00000000E+00  0.00000000E+00  0.00000000E+00
  0.00000000E+00  0.00000000E+00  0.00000000E+00
  0.00000000E+00  0.00000000E+00  0.00000000E+00
  0.00000000E+00  0.00000000E+00  0.00000000E+00
  0.00000000E+00  0.00000000E+00  0.00000000E+00
  0.00000000E+00  0.00000000E+00  0.00000000E+00
  0.00000000E+00  0.00000000E+00  0.00000000E+00
  0.00000000E+00  0.00000000E+00  0.00000000E+00
  0.00000000E+00  0.00000000E+00  0.00000000E+00
  0.00000000E+00  0.00000000E+00  0.00000000E+00
  0.00000000E+00  0.00000000E+00  0.00000000E+00
  0.00000000E+00  0.00000000E+00  0.00000000E+00
  0.00000000E+00  0.00000000E+00  0.00000000E+00
  0.00000000E+00  0.00000000E+00  0.00000000E+00
  0.00000000E+00  0.00000000E+00  0.00000000E+00
  0.00000000E+00  0.00000000E+00  0.00000000E+00
  0.00000000E+00  0.00000000E+00  0.00000000E+00
  0.00000000E+00  0.00000000E+00  0.00000000E+00
  0.00000000E+00  0.00000000E+00  0.00000000E+00
  0.00000000E+00  0.00000000E+00  0.00000000E+00
  0.00000000E+00  0.00000000E+00  0.00000000E+00
  0.00000000E+00  0.00000000E+00  0.00000000E+00
  0.00000000E+00  0.00000000E+00  0.00000000E+00
  0.00000000E+00  0.00000000E+00  0.00000000E+00
  0.00000000E+00  0.00000000E+00  0.00000000E+00
  0.00000000E+00  0.00000000E+00  0.00000000E+00
  0.00000000E+00  0.00000000E+00  0.00000000E+00
  0.00000000E+00  0.00000000E+00  0.00000000E+00
  0.00000000E+00  0.00000000E+00  0.00000000E+00
  0.00000000E+00  0.00000000E+00  0.00000000E+00
  0.00000000E+00  0.00000000E+00  0.00000000E+00
  0.00000000E+00  0.00000000E+00  0.00000000E+00
