generated by phonopy                    
   1.00000000000000     
    10.0351470768999995   -0.0000022330999784   -0.0000001056124209
    -5.0175765436399997    8.6906901959899994    0.0000001395531216
    -0.0000001735893656    0.0000001431815548   14.9533752540999991
   Pb   P    O    Cu
    20    12    49     1
Direct
  0.9900515148571287  0.7674084088689668  0.1108182523592092
  0.0195096468403761  0.7883187864811703  0.6309114986271425
  0.9984037261186103  0.2540606780983694  0.3662260727071001
  0.0027852932410539  0.2648421846132223  0.8735301447159927
  0.2205658917787758  0.2178105786881517  0.1152715076628539
  0.2660667147526183  0.2583590274198997  0.6298109721641225
  0.7218879327352994  0.7415260585090095  0.3662875156512300
  0.7349063756677978  0.7401782895366011  0.8710382563312109
  0.7716033727138552  0.0003719946542660  0.1145911826588346
  0.7769006383141601  0.0217829989156897  0.6241750698405326
  0.2227752080603125  0.9640875491993484  0.3524925008072231
  0.2566748157685481  0.0009667705932657  0.8784039139869932
  0.6676944459416063  0.3372069790401468  0.0040160734086143
  0.7348012223630960  0.3874725306867646  0.5141462970790371
  0.3281368892807350  0.6622410380903858  0.9997717901797927
  0.3383168652670960  0.6659727769952681  0.5013973484182586
  0.3281655377608530  0.6619398947001613  0.2391715347930372
  0.3484672411476737  0.6917346147579124  0.7435851691493838
  0.6590178656354553  0.3314315348293704  0.2440612120574670
  0.6690978725607550  0.3285815432890900  0.7563804602265520
  0.6186605820171707  0.5941173473529702  0.1225101872114891
  0.6247702036609155  0.6073904375811381  0.6263296972754091
  0.3709308233810802  0.3716088223786329  0.3964799920224849
  0.3712549335404134  0.3920537736733891  0.8647702270870994
  0.3988710626864957  0.0229440773159268  0.1217217277311775
  0.4140354458358857  0.0442323869545334  0.6205932441806894
  0.5762796823331939  0.9663727416813970  0.3784367224275371
  0.6045956469492140  0.9780081238751137  0.8709128469249166
  0.9702617487931349  0.3728883970869958  0.1253477044106148
  0.9898716309038420  0.3827943480349489  0.6305014048063313
  0.0263718838204596  0.6174885212010608  0.3719471245225705
  0.0264925142498385  0.6345548876848639  0.8675397820189374
  0.4954520887483440  0.6446059522011396  0.1172147093460865
  0.5207205919333546  0.6808011470464379  0.6229294106577115
  0.4794356466818570  0.3229243623264892  0.8714951281515155
  0.3507237222658119  0.8494972421518199  0.1192986202494808
  0.3308173082866190  0.8642845292025640  0.6211714999242091
  0.6227346873813602  0.1404837302051902  0.3837121854390020
  0.6815772766581389  0.1569191273123067  0.8722315465458408
  0.1434001621279180  0.4996273218842759  0.1201208875932522
  0.1688842131003696  0.4615187723827887  0.6333829066416641
  0.8485537544217010  0.5080653853809238  0.3726375345553805
  0.8482111593387955  0.5316892256056391  0.8695531800134617
  0.7246444054579868  0.6466560875264662  0.0368939884039463
  0.7197925412120512  0.6342711223143667  0.5385996204278882
  0.2819990671139649  0.3660907242745850  0.4873834628608265
  0.2636641250638760  0.3511762706912904  0.9482357834447797
  0.3427516661293311  0.0729795501904533  0.0365002406956094
  0.3640230202742600  0.1045794214016311  0.5369680784099273
  0.6133519659372624  0.9035753536339612  0.4652850401884976
  0.6537135130342264  0.9161959480204942  0.9529775612044915
  0.9200741935751466  0.2691265412280899  0.0393739433285489
  0.9203807247746099  0.2832229343120716  0.5432191727247400
  0.0810621195915857  0.7253934111405727  0.4549787966785175
  0.0880578736088111  0.7416051377443864  0.9520119240840188
  0.2414009015125345  0.2983661542868745  0.3218637655559746
  0.2589076018805585  0.3269496865667776  0.7820578658446991
  0.7256087136325107  0.6670776612322413  0.2061390274445856
  0.7414894716085669  0.6695169026427834  0.7055723473664628
  0.6547080756479957  0.9290870381942042  0.2994172234912895
  0.6458887209068607  0.9166225685056588  0.7847787125304322
  0.3233215730384558  0.0583348271568198  0.2037840867360146
  0.3608082805559647  0.1033486385740829  0.7041002739992379
  0.0788161992387302  0.7213234007261704  0.2855869764956225
  0.0871628451464943  0.7463943360767757  0.7849379162913408
  0.9392222468615259  0.2647679698365835  0.2080526746226568
  0.9130065407351395  0.2727733092977260  0.7123566102652816
  0.5405008404121645  0.4137754362252224  0.1279082569580794
  0.5192765330225484  0.4244145166822122  0.6408802598103378
  0.4674479386402197  0.5528881764166087  0.3737529183624346
  0.4698681734426842  0.5734411823759160  0.8569885725679640
  0.5783041636803006  0.1280811244064495  0.1278377761565253
  0.5930555802140347  0.1201963159108530  0.6244138466995253
  0.3951164760352697  0.8706210516412440  0.3641769989068919
  0.4230898597364074  0.9029304155647040  0.8721959270463771
  0.8651158174028240  0.4476171007971459  0.1328649204198982
  0.9348386479955053  0.5050606800760562  0.6295607396408158
  0.1094910406640039  0.5189031452750044  0.3700007556362905
  0.1044059429229307  0.5310355649017495  0.8658321339823729
  0.9966542723096552  0.9972217899834348  0.0983431426579386
  0.0483005600083288  0.0669375490207713  0.6279230361645318
  0.4746120599978241  0.2232644089857345  0.4202946030990589
 
  0.00000000E+00  0.00000000E+00  0.00000000E+00
  0.00000000E+00  0.00000000E+00  0.00000000E+00
  0.00000000E+00  0.00000000E+00  0.00000000E+00
  0.00000000E+00  0.00000000E+00  0.00000000E+00
  0.00000000E+00  0.00000000E+00  0.00000000E+00
  0.00000000E+00  0.00000000E+00  0.00000000E+00
  0.00000000E+00  0.00000000E+00  0.00000000E+00
  0.00000000E+00  0.00000000E+00  0.00000000E+00
  0.00000000E+00  0.00000000E+00  0.00000000E+00
  0.00000000E+00  0.00000000E+00  0.00000000E+00
  0.00000000E+00  0.00000000E+00  0.00000000E+00
  0.00000000E+00  0.00000000E+00  0.00000000E+00
  0.00000000E+00  0.00000000E+00  0.00000000E+00
  0.00000000E+00  0.00000000E+00  0.00000000E+00
  0.00000000E+00  0.00000000E+00  0.00000000E+00
  0.00000000E+00  0.00000000E+00  0.00000000E+00
  0.00000000E+00  0.00000000E+00  0.00000000E+00
  0.00000000E+00  0.00000000E+00  0.00000000E+00
  0.00000000E+00  0.00000000E+00  0.00000000E+00
  0.00000000E+00  0.00000000E+00  0.00000000E+00
  0.00000000E+00  0.00000000E+00  0.00000000E+00
  0.00000000E+00  0.00000000E+00  0.00000000E+00
  0.00000000E+00  0.00000000E+00  0.00000000E+00
  0.00000000E+00  0.00000000E+00  0.00000000E+00
  0.00000000E+00  0.00000000E+00  0.00000000E+00
  0.00000000E+00  0.00000000E+00  0.00000000E+00
  0.00000000E+00  0.00000000E+00  0.00000000E+00
  0.00000000E+00  0.00000000E+00  0.00000000E+00
  0.00000000E+00  0.00000000E+00  0.00000000E+00
  0.00000000E+00  0.00000000E+00  0.00000000E+00
  0.00000000E+00  0.00000000E+00  0.00000000E+00
  0.00000000E+00  0.00000000E+00  0.00000000E+00
  0.00000000E+00  0.00000000E+00  0.00000000E+00
  0.00000000E+00  0.00000000E+00  0.00000000E+00
  0.00000000E+00  0.00000000E+00  0.00000000E+00
  0.00000000E+00  0.00000000E+00  0.00000000E+00
  0.00000000E+00  0.00000000E+00  0.00000000E+00
  0.00000000E+00  0.00000000E+00  0.00000000E+00
  0.00000000E+00  0.00000000E+00  0.00000000E+00
  0.00000000E+00  0.00000000E+00  0.00000000E+00
  0.00000000E+00  0.00000000E+00  0.00000000E+00
  0.00000000E+00  0.00000000E+00  0.00000000E+00
  0.00000000E+00  0.00000000E+00  0.00000000E+00
  0.00000000E+00  0.00000000E+00  0.00000000E+00
  0.00000000E+00  0.00000000E+00  0.00000000E+00
  0.00000000E+00  0.00000000E+00  0.00000000E+00
  0.00000000E+00  0.00000000E+00  0.00000000E+00
  0.00000000E+00  0.00000000E+00  0.00000000E+00
  0.00000000E+00  0.00000000E+00  0.00000000E+00
  0.00000000E+00  0.00000000E+00  0.00000000E+00
  0.00000000E+00  0.00000000E+00  0.00000000E+00
  0.00000000E+00  0.00000000E+00  0.00000000E+00
  0.00000000E+00  0.00000000E+00  0.00000000E+00
  0.00000000E+00  0.00000000E+00  0.00000000E+00
  0.00000000E+00  0.00000000E+00  0.00000000E+00
  0.00000000E+00  0.00000000E+00  0.00000000E+00
  0.00000000E+00  0.00000000E+00  0.00000000E+00
  0.00000000E+00  0.00000000E+00  0.00000000E+00
  0.00000000E+00  0.00000000E+00  0.00000000E+00
  0.00000000E+00  0.00000000E+00  0.00000000E+00
  0.00000000E+00  0.00000000E+00  0.00000000E+00
  0.00000000E+00  0.00000000E+00  0.00000000E+00
  0.00000000E+00  0.00000000E+00  0.00000000E+00
  0.00000000E+00  0.00000000E+00  0.00000000E+00
  0.00000000E+00  0.00000000E+00  0.00000000E+00
  0.00000000E+00  0.00000000E+00  0.00000000E+00
  0.00000000E+00  0.00000000E+00  0.00000000E+00
  0.00000000E+00  0.00000000E+00  0.00000000E+00
  0.00000000E+00  0.00000000E+00  0.00000000E+00
  0.00000000E+00  0.00000000E+00  0.00000000E+00
  0.00000000E+00  0.00000000E+00  0.00000000E+00
  0.00000000E+00  0.00000000E+00  0.00000000E+00
  0.00000000E+00  0.00000000E+00  0.00000000E+00
  0.00000000E+00  0.00000000E+00  0.00000000E+00
  0.00000000E+00  0.00000000E+00  0.00000000E+00
  0.00000000E+00  0.00000000E+00  0.00000000E+00
  0.00000000E+00  0.00000000E+00  0.00000000E+00
  0.00000000E+00  0.00000000E+00  0.00000000E+00
  0.00000000E+00  0.00000000E+00  0.00000000E+00
  0.00000000E+00  0.00000000E+00  0.00000000E+00
  0.00000000E+00  0.00000000E+00  0.00000000E+00
  0.00000000E+00  0.00000000E+00  0.00000000E+00
