supercell of icsd_191774.cif            
   1.00000000000000     
    10.7781444362670538   -0.0045860287483316   -0.0005237213453178
    -5.3930427822916691    9.3351510629741803   -0.0052047868355033
    -0.0005797540407378   -0.0068751472843774   11.3621509303535824
   N    In   Y 
    36    30     6
Direct
  0.2252239086162007  0.1044796882253820  0.4369196451630089
  0.1115347759569545  0.2229793575220498  0.1925624410238882
  0.8889330451049346  0.1099652320179914  0.9435416057313475
  0.7816643791556146  0.2240803858106162  0.6979620414095962
  0.5518164673359962  0.1083129123948297  0.4424286168641487
  0.4391854924714593  0.2284444813688538  0.1893989669280671
  0.2205152709506706  0.1097243680342928  0.9410792375161634
  0.1100967704400233  0.2217124487892406  0.6944672669485854
  0.8883647079565478  0.1049324797480224  0.4378082637589529
  0.7820375042111252  0.2212521308277431  0.1933945838270787
  0.5534941769567894  0.1103675246030207  0.9546179875607237
  0.4376675171194933  0.2230198986569860  0.6894521231621837
  0.2250737720763496  0.4521157176137436  0.4375509093140337
  0.1206900161594646  0.5598222728809006  0.1852660320943755
  0.8888989631002673  0.4461298858488547  0.9455527318682897
  0.7763264517272859  0.5550714272737380  0.6922376984017689
  0.5561913948705737  0.4435549831426542  0.4407809807171077
  0.4454154960267616  0.5562264542890318  0.1910509748951839
  0.2233723022277587  0.4442239876800258  0.9411077533555172
  0.1106690898679688  0.5547617552936970  0.6928659940204014
  0.8940328951594552  0.4532865699345052  0.4405853266073194
  0.7718274790187820  0.5615561405914065  0.1865917705840943
  0.5539970308679401  0.4447783401953842  0.9373908814799563
  0.4376305532640075  0.5463674683977189  0.6866932052713395
  0.2219708811453955  0.7768914620565468  0.4396077271836205
  0.1110232823536279  0.8867751684974721  0.1894057784488581
  0.8894233769356674  0.7791910524508268  0.9389250571467045
  0.7866344840177604  0.8935148127070036  0.6889493459738247
  0.5576172760791422  0.7781788472637459  0.4439373240185986
  0.4408609135712922  0.8782705908027637  0.1910732415827567
  0.2226460089863451  0.7787720855066311  0.9386024271508120
  0.1111719849250861  0.8884531825667850  0.6893969296760147
  0.8899601259140368  0.7770225244513114  0.4396864251994828
  0.7777905195068371  0.8887711354065146  0.1910205870279569
  0.5562964426183967  0.7769571012894332  0.9419317599784733
  0.4374585185985254  0.8857485031304719  0.6890698334357950
  0.2202588959717460  0.1093232546729936  0.2469303894949206
  0.8921830479018524  0.1121943241132968  0.7527766020064135
  0.7799496581190297  0.2219709918060389  0.0010892113039773
  0.4429988062444679  0.2202558912622194  0.4985315797207051
  0.2187282523941718  0.1100195610939920  0.7503423406165055
  0.1114949020070597  0.2224557041297786  0.0003566506915860
  0.8891196158068979  0.1088070435942541  0.2475456082105580
  0.4412649865223628  0.2255471276825105  0.0003296871657312
  0.2254169774952075  0.4481795117849359  0.2466986825712212
  0.1137278133559576  0.5593899226451171  0.5010354402148920
  0.8901577824587008  0.4461268597413053  0.7524438836188097
  0.7747810713691834  0.5582164400590131  0.9962894699279587
  0.5540092927619398  0.4472324494866911  0.2494427281103313
  0.4441850544514736  0.5548176517844183  0.4966341307756821
  0.2206878819752589  0.4418551198504659  0.7504972566105934
  0.1150778333491829  0.5578167994642982  0.9962306556715319
  0.7790196497503956  0.5576074881888502  0.5004856458018878
  0.5517213045196385  0.4426652359938643  0.7464956828231095
  0.4450047809292599  0.5557866474997155  0.0008170938000447
  0.2225647724891573  0.7758052115481462  0.2488773372349939
  0.1121858774152429  0.8867223055411202  0.4978460944185272
  0.8915816428558117  0.7791935344553451  0.7481706666275940
  0.7776003804659695  0.8878849320883830  0.0008457848467245
  0.5561978354809156  0.7756010682336267  0.2506893516538824
  0.4415391748468593  0.8873988180643551  0.4983251648692217
  0.2198866677178657  0.7769449533396724  0.7479405113353863
  0.1106964934519539  0.8877752139142316  0.9985889869400708
  0.8884704646694104  0.7796498970324279  0.2485994349332046
  0.7816202738338376  0.8887116173658711  0.4976422168471046
  0.4422714539264163  0.8831676248891824  0.0017536810333851
  0.1159858616618195  0.2227988909975167  0.4958200406141842
  0.5497648757438824  0.1079964454230975  0.2423776939434532
  0.7806321756573382  0.2244914534384961  0.4986269052573320
  0.5522189023437249  0.1118793564534570  0.7541115247657117
  0.8934084610824087  0.4532797660990653  0.2419807778296459
  0.5560738036791406  0.7747185089920308  0.7437176123870941
 
  0.00000000E+00  0.00000000E+00  0.00000000E+00
  0.00000000E+00  0.00000000E+00  0.00000000E+00
  0.00000000E+00  0.00000000E+00  0.00000000E+00
  0.00000000E+00  0.00000000E+00  0.00000000E+00
  0.00000000E+00  0.00000000E+00  0.00000000E+00
  0.00000000E+00  0.00000000E+00  0.00000000E+00
  0.00000000E+00  0.00000000E+00  0.00000000E+00
  0.00000000E+00  0.00000000E+00  0.00000000E+00
  0.00000000E+00  0.00000000E+00  0.00000000E+00
  0.00000000E+00  0.00000000E+00  0.00000000E+00
  0.00000000E+00  0.00000000E+00  0.00000000E+00
  0.00000000E+00  0.00000000E+00  0.00000000E+00
  0.00000000E+00  0.00000000E+00  0.00000000E+00
  0.00000000E+00  0.00000000E+00  0.00000000E+00
  0.00000000E+00  0.00000000E+00  0.00000000E+00
  0.00000000E+00  0.00000000E+00  0.00000000E+00
  0.00000000E+00  0.00000000E+00  0.00000000E+00
  0.00000000E+00  0.00000000E+00  0.00000000E+00
  0.00000000E+00  0.00000000E+00  0.00000000E+00
  0.00000000E+00  0.00000000E+00  0.00000000E+00
  0.00000000E+00  0.00000000E+00  0.00000000E+00
  0.00000000E+00  0.00000000E+00  0.00000000E+00
  0.00000000E+00  0.00000000E+00  0.00000000E+00
  0.00000000E+00  0.00000000E+00  0.00000000E+00
  0.00000000E+00  0.00000000E+00  0.00000000E+00
  0.00000000E+00  0.00000000E+00  0.00000000E+00
  0.00000000E+00  0.00000000E+00  0.00000000E+00
  0.00000000E+00  0.00000000E+00  0.00000000E+00
  0.00000000E+00  0.00000000E+00  0.00000000E+00
  0.00000000E+00  0.00000000E+00  0.00000000E+00
  0.00000000E+00  0.00000000E+00  0.00000000E+00
  0.00000000E+00  0.00000000E+00  0.00000000E+00
  0.00000000E+00  0.00000000E+00  0.00000000E+00
  0.00000000E+00  0.00000000E+00  0.00000000E+00
  0.00000000E+00  0.00000000E+00  0.00000000E+00
  0.00000000E+00  0.00000000E+00  0.00000000E+00
  0.00000000E+00  0.00000000E+00  0.00000000E+00
  0.00000000E+00  0.00000000E+00  0.00000000E+00
  0.00000000E+00  0.00000000E+00  0.00000000E+00
  0.00000000E+00  0.00000000E+00  0.00000000E+00
  0.00000000E+00  0.00000000E+00  0.00000000E+00
  0.00000000E+00  0.00000000E+00  0.00000000E+00
  0.00000000E+00  0.00000000E+00  0.00000000E+00
  0.00000000E+00  0.00000000E+00  0.00000000E+00
  0.00000000E+00  0.00000000E+00  0.00000000E+00
  0.00000000E+00  0.00000000E+00  0.00000000E+00
  0.00000000E+00  0.00000000E+00  0.00000000E+00
  0.00000000E+00  0.00000000E+00  0.00000000E+00
  0.00000000E+00  0.00000000E+00  0.00000000E+00
  0.00000000E+00  0.00000000E+00  0.00000000E+00
  0.00000000E+00  0.00000000E+00  0.00000000E+00
  0.00000000E+00  0.00000000E+00  0.00000000E+00
  0.00000000E+00  0.00000000E+00  0.00000000E+00
  0.00000000E+00  0.00000000E+00  0.00000000E+00
  0.00000000E+00  0.00000000E+00  0.00000000E+00
  0.00000000E+00  0.00000000E+00  0.00000000E+00
  0.00000000E+00  0.00000000E+00  0.00000000E+00
  0.00000000E+00  0.00000000E+00  0.00000000E+00
  0.00000000E+00  0.00000000E+00  0.00000000E+00
  0.00000000E+00  0.00000000E+00  0.00000000E+00
  0.00000000E+00  0.00000000E+00  0.00000000E+00
  0.00000000E+00  0.00000000E+00  0.00000000E+00
  0.00000000E+00  0.00000000E+00  0.00000000E+00
  0.00000000E+00  0.00000000E+00  0.00000000E+00
  0.00000000E+00  0.00000000E+00  0.00000000E+00
  0.00000000E+00  0.00000000E+00  0.00000000E+00
  0.00000000E+00  0.00000000E+00  0.00000000E+00
  0.00000000E+00  0.00000000E+00  0.00000000E+00
  0.00000000E+00  0.00000000E+00  0.00000000E+00
  0.00000000E+00  0.00000000E+00  0.00000000E+00
  0.00000000E+00  0.00000000E+00  0.00000000E+00
  0.00000000E+00  0.00000000E+00  0.00000000E+00
