generated by phonopy                    
   1.00000000000000     
    11.7777700938999992   -0.0000006592896312    0.0000118211769744
    -0.0000006477562692   11.7777479613999994   -0.0000130806483528
     0.0000177256125076   -0.0000204342245446   17.8544012557999991
   Bi   Se   Cu   O 
    36    37    35    36
Direct
  0.0000855322937952  0.1677104589798617  0.4290931558297260
  0.3326862743153924  0.1666638854920421  0.4299082071628391
  0.6674858874001046  0.1666633499726800  0.4299060427626813
  0.0000850816658726  0.4993945201049002  0.4311043945672353
  0.3334049644268617  0.5016972975904608  0.4304482024292682
  0.6667649616460309  0.5016963271902526  0.4304467052121268
  0.0000871507730764  0.8345990552440767  0.4315000363640067
  0.3346908068510359  0.8372999853907146  0.4315705233167293
  0.6654798145944554  0.8373018692379190  0.4315680843448533
  0.0000609635927233  0.1672260711497700  0.9261354486753390
  0.3337386654951686  0.1676415778702562  0.9279871047513453
  0.6663820083885099  0.1676402279409857  0.9279859225724536
  0.0000618215135759  0.4994533700972212  0.9268074728462210
  0.3340829256737621  0.4975364988497049  0.9274709075982273
  0.6660391005362243  0.4975373209988803  0.9274702258382703
  0.0000598749090912  0.8320263259934464  0.9243674423127075
  0.3345274764871178  0.8339583553147349  0.9267015519170769
  0.6655931560659454  0.8339572636571191  0.9267022242737681
  0.1659756621822197  0.9996281928009836  0.0680402563310381
  0.5000598253018680  0.0011594510015627  0.0696176644740447
  0.8341420853866168  0.9996285845879243  0.0680400056075072
  0.1642564134338613  0.3307227155296673  0.0705115526271669
  0.5000616314790065  0.3327974251712575  0.0709232022224882
  0.8358637245838310  0.3307228593860359  0.0705092871831781
  0.1702498856346182  0.6629053787600583  0.0676832972975276
  0.5000604837555045  0.6657437781492277  0.0688310220200847
  0.8298701893775515  0.6629041367437409  0.0676831011530510
  0.1666368556458835  0.0026442992057767  0.5722893605842003
  0.5000851923417287  0.0040006602989777  0.5739902557035634
  0.8335320159830246  0.0026433827424768  0.5722877473396863
  0.1678417850936214  0.3348996118820722  0.5721434564155174
  0.5000854044917773  0.3348087602174843  0.5718634223856469
  0.8323273633366526  0.3348984851892283  0.5721424553390762
  0.1673035820410007  0.6681198181292203  0.5719853063489921
  0.5000858172991585  0.6677235092932605  0.5725293217179441
  0.8328645467341431  0.6681212463061428  0.5719826748333574
  0.0000738596498877  0.8764950981171751  0.2457107088781925
  0.1665509635481186  0.3355462435963545  0.3375103742607379
  0.5000790420358072  0.3357484063122698  0.3365375216337441
  0.8336097541742262  0.3355481812927792  0.3375107355152664
  0.1748682143650555  0.6612541187676797  0.3432203520451864
  0.5000764015249217  0.6692945362733553  0.3382294086821034
  0.8252888912715761  0.6612555557915414  0.3432176525604902
  0.1780339511888371  0.0135609560957874  0.3459853223036049
  0.5000764182567394  0.0023277931305898  0.3376855143478537
  0.8221211300310856  0.0135641463500065  0.3459810740709557
  0.1672713917960493  0.3341847016768114  0.8359235330742294
  0.5000676452346227  0.3337343219399003  0.8367584940435222
  0.8328645204392728  0.3341823594636963  0.8359230367934387
  0.1672519187347277  0.6670302180463494  0.8366989410173176
  0.5000665564533264  0.6663395152259213  0.8361042571327175
  0.8328816092332758  0.6670275055642918  0.8366988515454068
  0.1669833795756333  0.0010892970908927  0.8366496834784911
  0.5000688587221020  0.0016755443994185  0.8357743470516468
  0.8331547026521022  0.0010872226058183  0.8366485155720014
  0.3330415654161527  0.1684544126786562  0.1617817493311762
  0.6670935349493021  0.1684549929251986  0.1617801449382270
  0.0000691595404589  0.1664299581833362  0.1627575575426903
  0.3336876930666719  0.5005059870310546  0.1621537026553952
  0.6664443335120041  0.5005022928100686  0.1621537568802793
  0.0000672549576635  0.5095971360645279  0.1648012084175434
  0.3301286555476679  0.8349384187744349  0.1626936206192013
  0.6700035779182443  0.8349379272926640  0.1626963895437044
  0.0000596100278329  0.8266490264120065  0.1203754317788253
  0.3327938863944837  0.1686337729384348  0.6636519026016359
  0.6673652901494407  0.1686335112080712  0.6636516340500336
  0.0000795713206685  0.1677165484855863  0.6632791674949630
  0.3331258420287142  0.5019390288363539  0.6634015299780032
  0.6670339644819450  0.5019389592549501  0.6634021214906056
  0.0000794880126946  0.5022337119131421  0.6630791383214998
  0.3325368722576272  0.8348040451050522  0.6634084123853015
  0.6676213834761100  0.8348032812057653  0.6634081001657179
  0.0000787534247593  0.8348974521528163  0.6632867123840569
  0.3344266773607458  0.0064787724746438  0.2502000228781327
  0.6657216315349856  0.0064807870454189  0.2501986649631505
  0.0000819463651851  0.3342290398649013  0.2484937100053557
  0.3330147712805100  0.3335093959528592  0.2502612190483333
  0.6671461882070631  0.3335046127368102  0.2502621609526940
  0.0000803516182941  0.6576882373443667  0.2638963903958498
  0.3372530390994370  0.6637704577876491  0.2499717039890683
  0.6628991994192219  0.6637641312135756  0.2499720888483949
  0.0000695439203611  0.0013016075262726  0.7498920568829561
  0.3329435555482405  0.0014913913858479  0.7496898035354107
  0.6671917902058624  0.0014889890698768  0.7496896851720081
  0.0000693637507467  0.3351974752429285  0.7492758158736805
  0.3336703064619186  0.3353798630735980  0.7495098608839328
  0.6664663845599321  0.3353780963640389  0.7495092675801018
  0.0000691750900472  0.6678392925352554  0.7499617869750068
  0.3336647504271610  0.6681086351413938  0.7497973441606618
  0.6664728302122498  0.6681063873926263  0.7497970666743186
  0.1650203101495578  0.1672181891310629  0.2499554616395585
  0.5000680915005447  0.1699140663149379  0.2496343231464309
  0.8351159671581669  0.1672252376194976  0.2499522715707556
  0.1686090047163091  0.5012602494587171  0.2504011783651379
  0.5000674028125403  0.5013868468460814  0.2503904858847790
  0.8315256805308664  0.5012595830365569  0.2503994612716127
  0.2018339854109286  0.8349866783864002  0.2684307023995700
  0.5000610774088656  0.8352350230850902  0.2491818424379559
  0.7983125778516182  0.8349851902592604  0.2684282691699522
  0.1665297388789782  0.1671273911666802  0.7498580713942715
  0.5000818794968964  0.1679414123361482  0.7493703041201343
  0.8336334789578359  0.1671260673634336  0.7498577187593796
  0.1666073490667941  0.5012003585459581  0.7495865107719411
  0.5000807959726856  0.5002377407530503  0.7494356953772083
  0.8335525483828263  0.5011982661339545  0.7495868773439369
  0.1667152667783256  0.8337261427642133  0.7499822371741729
  0.5000803859997092  0.8337342221909978  0.7496372929794362
  0.8334437704409652  0.8337241717382611  0.7499822007509351
  0.1664948891969829  0.1690450214044148  0.5020535290665222
  0.5000812860414143  0.1677352374871006  0.5042711472919521
  0.8336678814653098  0.1690454548818892  0.5020525000292935
  0.1661995833144303  0.5015036435951430  0.5017336139948725
  0.5000821307208128  0.5024588978100013  0.5024493893666673
  0.8339660225520760  0.5015040085577596  0.5017322015831098
  0.1661171493347453  0.8354866937904220  0.5012274483015631
  0.5000840738779431  0.8357713082191722  0.5029151723246343
  0.8340460856744727  0.8354869628879982  0.5012255358750082
  0.1664955596170756  0.1688978334208642  0.9976988270422282
  0.5000638396042376  0.1671933582449086  0.9991163384806185
  0.8336311633195876  0.1688988468316310  0.9976973312255595
  0.1671934366046273  0.4974242444621524  0.9970272529820647
  0.5000631920363574  0.4987838568651881  0.9993396622478414
  0.8329324618069762  0.4974224555202937  0.9970269476979468
  0.1698254595854891  0.8331311400570200  0.9943835299999790
  0.5000633832645676  0.8344210913506700  0.0002008469641694
  0.8303005386357896  0.8331300650447204  0.9943837571559584
  0.0000628702604004  0.0028599678189494  0.9937863236146782
  0.3349803949382562  0.0010400408157309  0.9979265566478119
  0.6651465833322447  0.0010389933685033  0.9979259529728139
  0.0000634459730549  0.3342996189616443  0.9992348857771560
  0.3338597438770279  0.3327456484488991  0.9995711921629891
  0.6662672458969610  0.3327455429286843  0.9995700177680646
  0.0000622656208833  0.6648094832941496  0.9955581225826649
  0.3372009513589376  0.6661711727258606  0.9966103174815402
  0.6629248611069514  0.6661703550793732  0.9966102379343127
  0.0000817804292197  0.0012314178523525  0.5010448195686124
  0.3346381318561598  0.0021133883115496  0.5034165338805749
  0.6655276007381730  0.0021162304838853  0.5034143210239250
  0.0000825843765000  0.3350365860190081  0.5010709234502144
  0.3326375983121324  0.3365058982844502  0.5031563879097121
  0.6675283274792818  0.3365073096922515  0.5031571616777910
  0.0000822335439494  0.6689599185673956  0.5011516091863726
  0.3337118867523259  0.6683522046657231  0.5022172849531756
  0.6664529923598153  0.6683510722499904  0.5022152618432472
 
  0.00000000E+00  0.00000000E+00  0.00000000E+00
  0.00000000E+00  0.00000000E+00  0.00000000E+00
  0.00000000E+00  0.00000000E+00  0.00000000E+00
  0.00000000E+00  0.00000000E+00  0.00000000E+00
  0.00000000E+00  0.00000000E+00  0.00000000E+00
  0.00000000E+00  0.00000000E+00  0.00000000E+00
  0.00000000E+00  0.00000000E+00  0.00000000E+00
  0.00000000E+00  0.00000000E+00  0.00000000E+00
  0.00000000E+00  0.00000000E+00  0.00000000E+00
  0.00000000E+00  0.00000000E+00  0.00000000E+00
  0.00000000E+00  0.00000000E+00  0.00000000E+00
  0.00000000E+00  0.00000000E+00  0.00000000E+00
  0.00000000E+00  0.00000000E+00  0.00000000E+00
  0.00000000E+00  0.00000000E+00  0.00000000E+00
  0.00000000E+00  0.00000000E+00  0.00000000E+00
  0.00000000E+00  0.00000000E+00  0.00000000E+00
  0.00000000E+00  0.00000000E+00  0.00000000E+00
  0.00000000E+00  0.00000000E+00  0.00000000E+00
  0.00000000E+00  0.00000000E+00  0.00000000E+00
  0.00000000E+00  0.00000000E+00  0.00000000E+00
  0.00000000E+00  0.00000000E+00  0.00000000E+00
  0.00000000E+00  0.00000000E+00  0.00000000E+00
  0.00000000E+00  0.00000000E+00  0.00000000E+00
  0.00000000E+00  0.00000000E+00  0.00000000E+00
  0.00000000E+00  0.00000000E+00  0.00000000E+00
  0.00000000E+00  0.00000000E+00  0.00000000E+00
  0.00000000E+00  0.00000000E+00  0.00000000E+00
  0.00000000E+00  0.00000000E+00  0.00000000E+00
  0.00000000E+00  0.00000000E+00  0.00000000E+00
  0.00000000E+00  0.00000000E+00  0.00000000E+00
  0.00000000E+00  0.00000000E+00  0.00000000E+00
  0.00000000E+00  0.00000000E+00  0.00000000E+00
  0.00000000E+00  0.00000000E+00  0.00000000E+00
  0.00000000E+00  0.00000000E+00  0.00000000E+00
  0.00000000E+00  0.00000000E+00  0.00000000E+00
  0.00000000E+00  0.00000000E+00  0.00000000E+00
  0.00000000E+00  0.00000000E+00  0.00000000E+00
  0.00000000E+00  0.00000000E+00  0.00000000E+00
  0.00000000E+00  0.00000000E+00  0.00000000E+00
  0.00000000E+00  0.00000000E+00  0.00000000E+00
  0.00000000E+00  0.00000000E+00  0.00000000E+00
  0.00000000E+00  0.00000000E+00  0.00000000E+00
  0.00000000E+00  0.00000000E+00  0.00000000E+00
  0.00000000E+00  0.00000000E+00  0.00000000E+00
  0.00000000E+00  0.00000000E+00  0.00000000E+00
  0.00000000E+00  0.00000000E+00  0.00000000E+00
  0.00000000E+00  0.00000000E+00  0.00000000E+00
  0.00000000E+00  0.00000000E+00  0.00000000E+00
  0.00000000E+00  0.00000000E+00  0.00000000E+00
  0.00000000E+00  0.00000000E+00  0.00000000E+00
  0.00000000E+00  0.00000000E+00  0.00000000E+00
  0.00000000E+00  0.00000000E+00  0.00000000E+00
  0.00000000E+00  0.00000000E+00  0.00000000E+00
  0.00000000E+00  0.00000000E+00  0.00000000E+00
  0.00000000E+00  0.00000000E+00  0.00000000E+00
  0.00000000E+00  0.00000000E+00  0.00000000E+00
  0.00000000E+00  0.00000000E+00  0.00000000E+00
  0.00000000E+00  0.00000000E+00  0.00000000E+00
  0.00000000E+00  0.00000000E+00  0.00000000E+00
  0.00000000E+00  0.00000000E+00  0.00000000E+00
  0.00000000E+00  0.00000000E+00  0.00000000E+00
  0.00000000E+00  0.00000000E+00  0.00000000E+00
  0.00000000E+00  0.00000000E+00  0.00000000E+00
  0.00000000E+00  0.00000000E+00  0.00000000E+00
  0.00000000E+00  0.00000000E+00  0.00000000E+00
  0.00000000E+00  0.00000000E+00  0.00000000E+00
  0.00000000E+00  0.00000000E+00  0.00000000E+00
  0.00000000E+00  0.00000000E+00  0.00000000E+00
  0.00000000E+00  0.00000000E+00  0.00000000E+00
  0.00000000E+00  0.00000000E+00  0.00000000E+00
  0.00000000E+00  0.00000000E+00  0.00000000E+00
  0.00000000E+00  0.00000000E+00  0.00000000E+00
  0.00000000E+00  0.00000000E+00  0.00000000E+00
  0.00000000E+00  0.00000000E+00  0.00000000E+00
  0.00000000E+00  0.00000000E+00  0.00000000E+00
  0.00000000E+00  0.00000000E+00  0.00000000E+00
  0.00000000E+00  0.00000000E+00  0.00000000E+00
  0.00000000E+00  0.00000000E+00  0.00000000E+00
  0.00000000E+00  0.00000000E+00  0.00000000E+00
  0.00000000E+00  0.00000000E+00  0.00000000E+00
  0.00000000E+00  0.00000000E+00  0.00000000E+00
  0.00000000E+00  0.00000000E+00  0.00000000E+00
  0.00000000E+00  0.00000000E+00  0.00000000E+00
  0.00000000E+00  0.00000000E+00  0.00000000E+00
  0.00000000E+00  0.00000000E+00  0.00000000E+00
  0.00000000E+00  0.00000000E+00  0.00000000E+00
  0.00000000E+00  0.00000000E+00  0.00000000E+00
  0.00000000E+00  0.00000000E+00  0.00000000E+00
  0.00000000E+00  0.00000000E+00  0.00000000E+00
  0.00000000E+00  0.00000000E+00  0.00000000E+00
  0.00000000E+00  0.00000000E+00  0.00000000E+00
  0.00000000E+00  0.00000000E+00  0.00000000E+00
  0.00000000E+00  0.00000000E+00  0.00000000E+00
  0.00000000E+00  0.00000000E+00  0.00000000E+00
  0.00000000E+00  0.00000000E+00  0.00000000E+00
  0.00000000E+00  0.00000000E+00  0.00000000E+00
  0.00000000E+00  0.00000000E+00  0.00000000E+00
  0.00000000E+00  0.00000000E+00  0.00000000E+00
  0.00000000E+00  0.00000000E+00  0.00000000E+00
  0.00000000E+00  0.00000000E+00  0.00000000E+00
  0.00000000E+00  0.00000000E+00  0.00000000E+00
  0.00000000E+00  0.00000000E+00  0.00000000E+00
  0.00000000E+00  0.00000000E+00  0.00000000E+00
  0.00000000E+00  0.00000000E+00  0.00000000E+00
  0.00000000E+00  0.00000000E+00  0.00000000E+00
  0.00000000E+00  0.00000000E+00  0.00000000E+00
  0.00000000E+00  0.00000000E+00  0.00000000E+00
  0.00000000E+00  0.00000000E+00  0.00000000E+00
  0.00000000E+00  0.00000000E+00  0.00000000E+00
  0.00000000E+00  0.00000000E+00  0.00000000E+00
  0.00000000E+00  0.00000000E+00  0.00000000E+00
  0.00000000E+00  0.00000000E+00  0.00000000E+00
  0.00000000E+00  0.00000000E+00  0.00000000E+00
  0.00000000E+00  0.00000000E+00  0.00000000E+00
  0.00000000E+00  0.00000000E+00  0.00000000E+00
  0.00000000E+00  0.00000000E+00  0.00000000E+00
  0.00000000E+00  0.00000000E+00  0.00000000E+00
  0.00000000E+00  0.00000000E+00  0.00000000E+00
  0.00000000E+00  0.00000000E+00  0.00000000E+00
  0.00000000E+00  0.00000000E+00  0.00000000E+00
  0.00000000E+00  0.00000000E+00  0.00000000E+00
  0.00000000E+00  0.00000000E+00  0.00000000E+00
  0.00000000E+00  0.00000000E+00  0.00000000E+00
  0.00000000E+00  0.00000000E+00  0.00000000E+00
  0.00000000E+00  0.00000000E+00  0.00000000E+00
  0.00000000E+00  0.00000000E+00  0.00000000E+00
  0.00000000E+00  0.00000000E+00  0.00000000E+00
  0.00000000E+00  0.00000000E+00  0.00000000E+00
  0.00000000E+00  0.00000000E+00  0.00000000E+00
  0.00000000E+00  0.00000000E+00  0.00000000E+00
  0.00000000E+00  0.00000000E+00  0.00000000E+00
  0.00000000E+00  0.00000000E+00  0.00000000E+00
  0.00000000E+00  0.00000000E+00  0.00000000E+00
  0.00000000E+00  0.00000000E+00  0.00000000E+00
  0.00000000E+00  0.00000000E+00  0.00000000E+00
  0.00000000E+00  0.00000000E+00  0.00000000E+00
  0.00000000E+00  0.00000000E+00  0.00000000E+00
  0.00000000E+00  0.00000000E+00  0.00000000E+00
  0.00000000E+00  0.00000000E+00  0.00000000E+00
  0.00000000E+00  0.00000000E+00  0.00000000E+00
  0.00000000E+00  0.00000000E+00  0.00000000E+00
  0.00000000E+00  0.00000000E+00  0.00000000E+00
  0.00000000E+00  0.00000000E+00  0.00000000E+00
  0.00000000E+00  0.00000000E+00  0.00000000E+00
