supercell of supercell of icsd_608626.c 
   1.00600000000000     
    18.8433725412000008    0.0042597715995000    0.0111656436851000
    -6.2786657403800001   10.8752831735999997   -0.0012954496991100
     0.0059525623905900    0.0022414031449000   10.0498800689000003
   Al   Gd   N    O 
    92     4    95     1
Direct
  0.1118537175854897  0.0833283557892415  0.2479012702950101
  0.0512878428427257  0.1616534119727078  0.9987230567272789
  0.4451784649111730  0.3346125749297642  0.7499589339427075
  0.3907506528835469  0.4174091196261358  0.5002182071395751
  0.2793924645653902  0.0857807229225358  0.2580231606866050
  0.2251190266590513  0.1691117509558850  0.9976366076882428
  0.1074918314861222  0.3304991855100781  0.7464958487898272
  0.0528055891325536  0.4208303545437815  0.5018527586424355
  0.4442770912368132  0.0832131772309381  0.2485772319577109
  0.3920610457561864  0.1721821461741584  0.9977072661465627
  0.2793615166296135  0.3315445361981162  0.7442898412705148
  0.2268232040529199  0.4202430913363102  0.5001129825061383
  0.1114241773758877  0.0832122354340328  0.7500798034574956
  0.0523462964969568  0.1579151691933163  0.5020704201352402
  0.4448049768952842  0.3336626049481524  0.2486477316834979
  0.3896116319584095  0.4146583333563925  0.9987910028667528
  0.2801526965932268  0.0880362747105394  0.7444613122487098
  0.2219038151592585  0.1655620796529718  0.5021669484427349
  0.1084156469549526  0.3310481482339753  0.2531037070754962
  0.0534153092416787  0.4165765279112037  0.9992784865437940
  0.4441684071225538  0.0825654310332382  0.7495108057251230
  0.3909042389815909  0.1685040485079199  0.5000317530614211
  0.2789429041139613  0.3316988443816840  0.2594074530267676
  0.6114416796932858  0.0836634745640126  0.2478688530813855
  0.5510317882443374  0.1617333804693359  0.9978915032231939
  0.9445359873891945  0.3339949309556047  0.7505974209840645
  0.8895152850041868  0.4172036321797989  0.4998260886588071
  0.7785677112721388  0.0854246253046469  0.2580233812963328
  0.7249032977839533  0.1687875090106274  0.9976251070258115
  0.6067375701948166  0.3299166045731425  0.7428236575814964
  0.5551416330653751  0.4178896083863748  0.4994619818805717
  0.9432316054465772  0.0823098594187712  0.2485010825189207
  0.8916277445385106  0.1718122294862212  0.9979479014503383
  0.7791352144956392  0.3315780028244149  0.7440919765308038
  0.7221257087269777  0.4167252376532602  0.4991513155879304
  0.6110143350416521  0.0832359611920808  0.7491780781334825
  0.5546057732417680  0.1643080057496462  0.4996884650091928
  0.9438314948170259  0.3330741532177726  0.2486672803478953
  0.8894443059212662  0.4146216755697907  0.9990928587143202
  0.7793987545617469  0.0875873997401726  0.7443878055014395
  0.7212222160442607  0.1659249518613493  0.5010255053706700
  0.6093365135339326  0.3317797169096721  0.2584762694821308
  0.5532338654422588  0.4162566850501008  0.9984861141738364
  0.9436338116388328  0.0823827284856762  0.7502770695686749
  0.8897538306689157  0.1677560510123328  0.5008421335246140
  0.7784338969080480  0.3323910591496784  0.2581532578508146
  0.1118364665451779  0.5845769968266055  0.2478746322818850
  0.0509359386773340  0.6618796102903914  0.9982155245543538
  0.4450817320007090  0.8348513631808530  0.7499622045311298
  0.3901718356261128  0.9174498113449445  0.4996660428286290
  0.2793044174459567  0.5870274946959313  0.2591883389898513
  0.2251033647116927  0.6689219449421060  0.9976239767833874
  0.1069200429030133  0.8300833542779387  0.7432683550524857
  0.0548520647214232  0.9171473732250490  0.4999333941744268
  0.4441152291893928  0.5830527905586678  0.2486093683371067
  0.3920568069005768  0.6722554009880213  0.9973760697921321
  0.2795105618932610  0.8321903535338038  0.7444373325841056
  0.2224417364817057  0.9169502165887877  0.4995545596414672
  0.1114111243039702  0.5838157212737514  0.7500639177903494
  0.0544322530203161  0.6647443920500962  0.5001203711824971
  0.4447376829261245  0.8337382953025667  0.2486390998759944
  0.3895627319666772  0.9147712664243883  0.9991100567871456
  0.2799606730382678  0.5883994815594846  0.7442764076911246
  0.2218971086096460  0.6673013034719872  0.5021396916988081
  0.1095109957641114  0.8318976558279871  0.2585586713223194
  0.0530768063721396  0.9158500922843231  0.9988243983021903
  0.4442071617045684  0.5825587367209621  0.7497998712076068
  0.3914570293458937  0.6693292631086791  0.5005668912286652
  0.2790069461949116  0.8330776698221172  0.2582516987558776
  0.6115628670317435  0.5837364170071595  0.2479275277778257
  0.5510241220424490  0.6616328343374605  0.9979891413151165
  0.9448815804230009  0.8344413146358960  0.7502098784060536
  0.8894987696373917  0.9163249619714549  0.4998963677714201
  0.7789910382812337  0.5857502153363328  0.2579822900353719
  0.7250068400263459  0.6689384232436453  0.9975524050347957
  0.6065725626039722  0.8297900492699668  0.7428770151591806
  0.5550031613069990  0.9178990301228822  0.4995019309725848
  0.9439943587762656  0.5830796095647699  0.2486949775472098
  0.8917165172443191  0.6719303288927989  0.9977580920564435
  0.7791206333851832  0.8317182271298407  0.7441540715291879
  0.7218779117358238  0.9164472505849233  0.4993092865303908
  0.6111561561411634  0.5833269520416451  0.7491714105541547
  0.5546441303164258  0.6642414903337936  0.4997380579052404
  0.9446021304771079  0.8334585169660258  0.2489024982789942
  0.8894203802146237  0.9145184685620862  0.9991447158117168
  0.7797829666407807  0.5879342792085680  0.7440517321749738
  0.7214448844524881  0.6660236144951099  0.5009355354097380
  0.6091968900856415  0.8316212025265415  0.2586306236936693
  0.5531059835456418  0.9161356838858907  0.9984835061845985
  0.9439424944049222  0.5824381264136704  0.7498200354346878
  0.8905288752266998  0.6683409853750675  0.5000345499784160
  0.7784498786490062  0.8322829654387007  0.2582179698794889
  0.2210409293500248  0.4165734933148642  0.0031087402738095
  0.7194923792669812  0.4152411502917417  0.9981178364641394
  0.2198748058970921  0.9156994829197771  0.9984258446568859
  0.7191911064398298  0.9150244975595641  0.9983848099443193
  0.1116153486577716  0.0850237677128689  0.4383382840632208
  0.0556941230512251  0.1674722510427671  0.1920090382813271
  0.4457708647538894  0.3370789865848423  0.9400740733798187
  0.3898744614033518  0.4173496714629223  0.6881623838549515
  0.2790918732147603  0.0860383029912697  0.4467336226858336
  0.2232507755535238  0.1676256056320113  0.1908704384467228
  0.0945714135915878  0.3201961907902131  0.9310614249222695
  0.0555647259271055  0.4174923237659556  0.6872817585075310
  0.4441636533677027  0.0829363643245884  0.4384652232291089
  0.3887437416147748  0.1668255235387193  0.1899057138478000
  0.2844601688325739  0.3265233937578600  0.9298556231365467
  0.2208868087256164  0.4159572169130925  0.6918292165303654
  0.1121425216727943  0.0845448047446595  0.9420183579461252
  0.0550707846721821  0.1653044948827755  0.6877835312408109
  0.4447551738637472  0.3339074003250389  0.4382543119406819
  0.3876781037313251  0.4158816415674096  0.1907969002108629
  0.2864732248608135  0.1038468695911661  0.9300435053943659
  0.2207918642199473  0.1655893504843817  0.6885051627722802
  0.0562861468414511  0.4162716065163750  0.1923623054907964
  0.4410680585458380  0.0789939958549084  0.9404909405659438
  0.3912193768752985  0.1688221502303691  0.6886698747978883
  0.2783225047046756  0.3318101925533696  0.4475414665945721
  0.2207111991925146  0.4155626589409493  0.2273719050743352
  0.6112817785486016  0.0835133009803357  0.4378709175059612
  0.5557563415702020  0.1672922597178541  0.1896295547984437
  0.9464196750593672  0.3371483723678068  0.9405507613078328
  0.8904634692319462  0.4173482271693914  0.6879460820297680
  0.7791315079638750  0.0859710282696824  0.4467115022762158
  0.7233233472220348  0.1673937034974102  0.1905615106045389
  0.5927718243205362  0.3188936576822741  0.9281479044901886
  0.5549112141982420  0.4185395734912873  0.6876577414796614
  0.9447700550642111  0.0842114743511075  0.4388096884555566
  0.8887617207951948  0.1667760054172547  0.1902715200607901
  0.7851103697147082  0.3259466241062725  0.9298769606238935
  0.7218354870229007  0.4165852682539679  0.6948319173592665
  0.6122680142859664  0.0842708516259378  0.9413283532210244
  0.5543773183941454  0.1633145064042125  0.6882171082662580
  0.9454172558639300  0.3334658280117822  0.4386186434452952
  0.8884617012563751  0.4161243524752862  0.1910030229278803
  0.7865758250898480  0.1033262529609473  0.9300304627734519
  0.7208777767403731  0.1656205744195631  0.6878824762163518
  0.6091559159167304  0.3316517826499847  0.4470009013746719
  0.5562673286579951  0.4166187568924187  0.1900900362204325
  0.9418725570382520  0.0798108839418674  0.9410563187442804
  0.8912405954806601  0.1687414665021336  0.6890822377776828
  0.7788048516702020  0.3322816611902724  0.4465094341869857
  0.7222371093274020  0.4167265854250388  0.2201525075902282
  0.1116235933544871  0.5826313032065471  0.4383107265437971
  0.0558644796738434  0.6672037209169233  0.1901525322546362
  0.4456706782095736  0.8368834930716105  0.9400765643788773
  0.3900226228249011  0.9173785581512419  0.6878882297717936
  0.2788190522287763  0.5861379947138445  0.4476347351331924
  0.2232463791035926  0.6671187574846797  0.1908602396566366
  0.0930219314374696  0.8190374566037022  0.9285249746688891
  0.0550525776138926  0.9189595222094553  0.6879575719764475
  0.4438864446971209  0.5827098408473077  0.4386350344109218
  0.3881222160102951  0.6660670838004279  0.1899241438448556
  0.2847949272174972  0.8256580358061285  0.9301287536635243
  0.2217112350330908  0.9166183586510357  0.6951130657515705
  0.1121484809671429  0.5839345519511454  0.9419908464117484
  0.0545363024152650  0.6630803048946419  0.6884760473928466
  0.4446796965130133  0.8337627022800262  0.4382327296827242
  0.3882707293454715  0.9160888530091214  0.1907663360558800
  0.2860947282431709  0.6024212428239295  0.9297199053244256
  0.2207834345433852  0.6656658431026372  0.6884783796725316
  0.1093014073227465  0.8317894532963876  0.4472139750254982
  0.0564699688809185  0.9168243179524467  0.1905773549536534
  0.4410146903909649  0.5789456041661865  0.9407014967081508
  0.3910255971903993  0.6685359492799563  0.6889247339536055
  0.2785905193663680  0.8323320802186771  0.4466179086153943
  0.2221756265594976  0.9166777331530156  0.2203874803439589
  0.6113454078347331  0.5836524842300577  0.4379194478975563
  0.5555440689190050  0.6670865759253601  0.1897931563952184
  0.9459448275652065  0.8371604840446309  0.9402732544991110
  0.8904480297770121  0.9180665919563822  0.6880176780056004
  0.7792774771987467  0.5861259158091414  0.4466526050416135
  0.7233885799545874  0.6675239316921591  0.1905371548804311
  0.5925734693256288  0.8186628617126601  0.9281331769915724
  0.5548019701630196  0.9183863711988423  0.6876758847851718
  0.9444494826762977  0.5828821431029496  0.4386983841763339
  0.8889442027061492  0.6669370810393005  0.1900625795348745
  0.7850396298909814  0.8263453899308644  0.9299509861613160
  0.7216431873155003  0.9165165554569441  0.6949035824169343
  0.6123096541219510  0.5844499609549842  0.9413352604988603
  0.5542645582327452  0.6631737340164037  0.6882281715471592
  0.9450951671648653  0.8343713128677024  0.4385522290322896
  0.8884489315363311  0.9163304997360129  0.1910258633130297
  0.7865103072445478  0.6034745902735636  0.9297992193818914
  0.7209955059890376  0.6658534369513802  0.6878167176825940
  0.6089771908880124  0.8315182895553193  0.4471055674312154
  0.5562116922583868  0.9163628580739740  0.1900820377879811
  0.9412991840465494  0.5790750585355013  0.9407297663406879
  0.8914373554626422  0.6689265469791223  0.6886880060683680
  0.7787909221548119  0.8326918990156713  0.4465922822209833
  0.7221073996542913  0.9165541871514193  0.2203698371148946
  0.1079220916978727  0.3307848200738306  0.4457424405841692
 
  0.00000000E+00  0.00000000E+00  0.00000000E+00
  0.00000000E+00  0.00000000E+00  0.00000000E+00
  0.00000000E+00  0.00000000E+00  0.00000000E+00
  0.00000000E+00  0.00000000E+00  0.00000000E+00
  0.00000000E+00  0.00000000E+00  0.00000000E+00
  0.00000000E+00  0.00000000E+00  0.00000000E+00
  0.00000000E+00  0.00000000E+00  0.00000000E+00
  0.00000000E+00  0.00000000E+00  0.00000000E+00
  0.00000000E+00  0.00000000E+00  0.00000000E+00
  0.00000000E+00  0.00000000E+00  0.00000000E+00
  0.00000000E+00  0.00000000E+00  0.00000000E+00
  0.00000000E+00  0.00000000E+00  0.00000000E+00
  0.00000000E+00  0.00000000E+00  0.00000000E+00
  0.00000000E+00  0.00000000E+00  0.00000000E+00
  0.00000000E+00  0.00000000E+00  0.00000000E+00
  0.00000000E+00  0.00000000E+00  0.00000000E+00
  0.00000000E+00  0.00000000E+00  0.00000000E+00
  0.00000000E+00  0.00000000E+00  0.00000000E+00
  0.00000000E+00  0.00000000E+00  0.00000000E+00
  0.00000000E+00  0.00000000E+00  0.00000000E+00
  0.00000000E+00  0.00000000E+00  0.00000000E+00
  0.00000000E+00  0.00000000E+00  0.00000000E+00
  0.00000000E+00  0.00000000E+00  0.00000000E+00
  0.00000000E+00  0.00000000E+00  0.00000000E+00
  0.00000000E+00  0.00000000E+00  0.00000000E+00
  0.00000000E+00  0.00000000E+00  0.00000000E+00
  0.00000000E+00  0.00000000E+00  0.00000000E+00
  0.00000000E+00  0.00000000E+00  0.00000000E+00
  0.00000000E+00  0.00000000E+00  0.00000000E+00
  0.00000000E+00  0.00000000E+00  0.00000000E+00
  0.00000000E+00  0.00000000E+00  0.00000000E+00
  0.00000000E+00  0.00000000E+00  0.00000000E+00
  0.00000000E+00  0.00000000E+00  0.00000000E+00
  0.00000000E+00  0.00000000E+00  0.00000000E+00
  0.00000000E+00  0.00000000E+00  0.00000000E+00
  0.00000000E+00  0.00000000E+00  0.00000000E+00
  0.00000000E+00  0.00000000E+00  0.00000000E+00
  0.00000000E+00  0.00000000E+00  0.00000000E+00
  0.00000000E+00  0.00000000E+00  0.00000000E+00
  0.00000000E+00  0.00000000E+00  0.00000000E+00
  0.00000000E+00  0.00000000E+00  0.00000000E+00
  0.00000000E+00  0.00000000E+00  0.00000000E+00
  0.00000000E+00  0.00000000E+00  0.00000000E+00
  0.00000000E+00  0.00000000E+00  0.00000000E+00
  0.00000000E+00  0.00000000E+00  0.00000000E+00
  0.00000000E+00  0.00000000E+00  0.00000000E+00
  0.00000000E+00  0.00000000E+00  0.00000000E+00
  0.00000000E+00  0.00000000E+00  0.00000000E+00
  0.00000000E+00  0.00000000E+00  0.00000000E+00
  0.00000000E+00  0.00000000E+00  0.00000000E+00
  0.00000000E+00  0.00000000E+00  0.00000000E+00
  0.00000000E+00  0.00000000E+00  0.00000000E+00
  0.00000000E+00  0.00000000E+00  0.00000000E+00
  0.00000000E+00  0.00000000E+00  0.00000000E+00
  0.00000000E+00  0.00000000E+00  0.00000000E+00
  0.00000000E+00  0.00000000E+00  0.00000000E+00
  0.00000000E+00  0.00000000E+00  0.00000000E+00
  0.00000000E+00  0.00000000E+00  0.00000000E+00
  0.00000000E+00  0.00000000E+00  0.00000000E+00
  0.00000000E+00  0.00000000E+00  0.00000000E+00
  0.00000000E+00  0.00000000E+00  0.00000000E+00
  0.00000000E+00  0.00000000E+00  0.00000000E+00
  0.00000000E+00  0.00000000E+00  0.00000000E+00
  0.00000000E+00  0.00000000E+00  0.00000000E+00
  0.00000000E+00  0.00000000E+00  0.00000000E+00
  0.00000000E+00  0.00000000E+00  0.00000000E+00
  0.00000000E+00  0.00000000E+00  0.00000000E+00
  0.00000000E+00  0.00000000E+00  0.00000000E+00
  0.00000000E+00  0.00000000E+00  0.00000000E+00
  0.00000000E+00  0.00000000E+00  0.00000000E+00
  0.00000000E+00  0.00000000E+00  0.00000000E+00
  0.00000000E+00  0.00000000E+00  0.00000000E+00
  0.00000000E+00  0.00000000E+00  0.00000000E+00
  0.00000000E+00  0.00000000E+00  0.00000000E+00
  0.00000000E+00  0.00000000E+00  0.00000000E+00
  0.00000000E+00  0.00000000E+00  0.00000000E+00
  0.00000000E+00  0.00000000E+00  0.00000000E+00
  0.00000000E+00  0.00000000E+00  0.00000000E+00
  0.00000000E+00  0.00000000E+00  0.00000000E+00
  0.00000000E+00  0.00000000E+00  0.00000000E+00
  0.00000000E+00  0.00000000E+00  0.00000000E+00
  0.00000000E+00  0.00000000E+00  0.00000000E+00
  0.00000000E+00  0.00000000E+00  0.00000000E+00
  0.00000000E+00  0.00000000E+00  0.00000000E+00
  0.00000000E+00  0.00000000E+00  0.00000000E+00
  0.00000000E+00  0.00000000E+00  0.00000000E+00
  0.00000000E+00  0.00000000E+00  0.00000000E+00
  0.00000000E+00  0.00000000E+00  0.00000000E+00
  0.00000000E+00  0.00000000E+00  0.00000000E+00
  0.00000000E+00  0.00000000E+00  0.00000000E+00
  0.00000000E+00  0.00000000E+00  0.00000000E+00
  0.00000000E+00  0.00000000E+00  0.00000000E+00
  0.00000000E+00  0.00000000E+00  0.00000000E+00
  0.00000000E+00  0.00000000E+00  0.00000000E+00
  0.00000000E+00  0.00000000E+00  0.00000000E+00
  0.00000000E+00  0.00000000E+00  0.00000000E+00
  0.00000000E+00  0.00000000E+00  0.00000000E+00
  0.00000000E+00  0.00000000E+00  0.00000000E+00
  0.00000000E+00  0.00000000E+00  0.00000000E+00
  0.00000000E+00  0.00000000E+00  0.00000000E+00
  0.00000000E+00  0.00000000E+00  0.00000000E+00
  0.00000000E+00  0.00000000E+00  0.00000000E+00
  0.00000000E+00  0.00000000E+00  0.00000000E+00
  0.00000000E+00  0.00000000E+00  0.00000000E+00
  0.00000000E+00  0.00000000E+00  0.00000000E+00
  0.00000000E+00  0.00000000E+00  0.00000000E+00
  0.00000000E+00  0.00000000E+00  0.00000000E+00
  0.00000000E+00  0.00000000E+00  0.00000000E+00
  0.00000000E+00  0.00000000E+00  0.00000000E+00
  0.00000000E+00  0.00000000E+00  0.00000000E+00
  0.00000000E+00  0.00000000E+00  0.00000000E+00
  0.00000000E+00  0.00000000E+00  0.00000000E+00
  0.00000000E+00  0.00000000E+00  0.00000000E+00
  0.00000000E+00  0.00000000E+00  0.00000000E+00
  0.00000000E+00  0.00000000E+00  0.00000000E+00
  0.00000000E+00  0.00000000E+00  0.00000000E+00
  0.00000000E+00  0.00000000E+00  0.00000000E+00
  0.00000000E+00  0.00000000E+00  0.00000000E+00
  0.00000000E+00  0.00000000E+00  0.00000000E+00
  0.00000000E+00  0.00000000E+00  0.00000000E+00
  0.00000000E+00  0.00000000E+00  0.00000000E+00
  0.00000000E+00  0.00000000E+00  0.00000000E+00
  0.00000000E+00  0.00000000E+00  0.00000000E+00
  0.00000000E+00  0.00000000E+00  0.00000000E+00
  0.00000000E+00  0.00000000E+00  0.00000000E+00
  0.00000000E+00  0.00000000E+00  0.00000000E+00
  0.00000000E+00  0.00000000E+00  0.00000000E+00
  0.00000000E+00  0.00000000E+00  0.00000000E+00
  0.00000000E+00  0.00000000E+00  0.00000000E+00
  0.00000000E+00  0.00000000E+00  0.00000000E+00
  0.00000000E+00  0.00000000E+00  0.00000000E+00
  0.00000000E+00  0.00000000E+00  0.00000000E+00
  0.00000000E+00  0.00000000E+00  0.00000000E+00
  0.00000000E+00  0.00000000E+00  0.00000000E+00
  0.00000000E+00  0.00000000E+00  0.00000000E+00
  0.00000000E+00  0.00000000E+00  0.00000000E+00
  0.00000000E+00  0.00000000E+00  0.00000000E+00
  0.00000000E+00  0.00000000E+00  0.00000000E+00
  0.00000000E+00  0.00000000E+00  0.00000000E+00
  0.00000000E+00  0.00000000E+00  0.00000000E+00
  0.00000000E+00  0.00000000E+00  0.00000000E+00
  0.00000000E+00  0.00000000E+00  0.00000000E+00
  0.00000000E+00  0.00000000E+00  0.00000000E+00
  0.00000000E+00  0.00000000E+00  0.00000000E+00
  0.00000000E+00  0.00000000E+00  0.00000000E+00
  0.00000000E+00  0.00000000E+00  0.00000000E+00
  0.00000000E+00  0.00000000E+00  0.00000000E+00
  0.00000000E+00  0.00000000E+00  0.00000000E+00
  0.00000000E+00  0.00000000E+00  0.00000000E+00
  0.00000000E+00  0.00000000E+00  0.00000000E+00
  0.00000000E+00  0.00000000E+00  0.00000000E+00
  0.00000000E+00  0.00000000E+00  0.00000000E+00
  0.00000000E+00  0.00000000E+00  0.00000000E+00
  0.00000000E+00  0.00000000E+00  0.00000000E+00
  0.00000000E+00  0.00000000E+00  0.00000000E+00
  0.00000000E+00  0.00000000E+00  0.00000000E+00
  0.00000000E+00  0.00000000E+00  0.00000000E+00
  0.00000000E+00  0.00000000E+00  0.00000000E+00
  0.00000000E+00  0.00000000E+00  0.00000000E+00
  0.00000000E+00  0.00000000E+00  0.00000000E+00
  0.00000000E+00  0.00000000E+00  0.00000000E+00
  0.00000000E+00  0.00000000E+00  0.00000000E+00
  0.00000000E+00  0.00000000E+00  0.00000000E+00
  0.00000000E+00  0.00000000E+00  0.00000000E+00
  0.00000000E+00  0.00000000E+00  0.00000000E+00
  0.00000000E+00  0.00000000E+00  0.00000000E+00
  0.00000000E+00  0.00000000E+00  0.00000000E+00
  0.00000000E+00  0.00000000E+00  0.00000000E+00
  0.00000000E+00  0.00000000E+00  0.00000000E+00
  0.00000000E+00  0.00000000E+00  0.00000000E+00
  0.00000000E+00  0.00000000E+00  0.00000000E+00
  0.00000000E+00  0.00000000E+00  0.00000000E+00
  0.00000000E+00  0.00000000E+00  0.00000000E+00
  0.00000000E+00  0.00000000E+00  0.00000000E+00
  0.00000000E+00  0.00000000E+00  0.00000000E+00
  0.00000000E+00  0.00000000E+00  0.00000000E+00
  0.00000000E+00  0.00000000E+00  0.00000000E+00
  0.00000000E+00  0.00000000E+00  0.00000000E+00
  0.00000000E+00  0.00000000E+00  0.00000000E+00
  0.00000000E+00  0.00000000E+00  0.00000000E+00
  0.00000000E+00  0.00000000E+00  0.00000000E+00
  0.00000000E+00  0.00000000E+00  0.00000000E+00
  0.00000000E+00  0.00000000E+00  0.00000000E+00
  0.00000000E+00  0.00000000E+00  0.00000000E+00
  0.00000000E+00  0.00000000E+00  0.00000000E+00
  0.00000000E+00  0.00000000E+00  0.00000000E+00
  0.00000000E+00  0.00000000E+00  0.00000000E+00
  0.00000000E+00  0.00000000E+00  0.00000000E+00
  0.00000000E+00  0.00000000E+00  0.00000000E+00
  0.00000000E+00  0.00000000E+00  0.00000000E+00
  0.00000000E+00  0.00000000E+00  0.00000000E+00
  0.00000000E+00  0.00000000E+00  0.00000000E+00
