generated by phonopy                    
   1.00000000000000     
    10.0351470768999995   -0.0000022330999784   -0.0000001056124209
    -5.0175765436399997    8.6906901959899994    0.0000001395531216
    -0.0000001735893656    0.0000001431815548   14.9533752540999991
   Pb   P    O    Cu
    20    12    49     1
Direct
  0.0033838490128275  0.7570317149331061  0.1202968727195852
  0.0022801836997814  0.7746695491889781  0.6221238942615912
  0.0115578423529428  0.2666183039648971  0.3857975914040708
  0.0002987314464491  0.2587210807204769  0.8650687519769349
  0.1944036026176903  0.2064366848519228  0.0922590362838989
  0.2275202018235873  0.2281066391746123  0.6242662342424978
  0.7453726519612474  0.7504739353823453  0.3780805094144455
  0.7278310371736012  0.7334465376462234  0.8654801791567905
  0.7630287412331143  0.9918337833418391  0.1153680006436986
  0.7749099789669316  0.0001232101042845  0.6259130274664955
  0.2624261989296812  0.0024231341025001  0.3809158518254634
  0.2569664563552152  0.9954404433267499  0.8656951104584465
  0.6747322782190395  0.3379435119039655  0.9913613547766147
  0.6682593781463737  0.3409234206065221  0.5013054658042861
  0.3324396117061141  0.6720723682915235  0.0010158610966542
  0.3437000885434500  0.6743403536816857  0.5048071778866046
  0.3293764184465644  0.6779641055771819  0.2470982873881269
  0.3259838894219129  0.6647679930313615  0.7423230276641846
  0.7081576009460946  0.3248782213329093  0.2501711665812465
  0.6662057827110104  0.3319821833098118  0.7428384635447642
  0.5971124183211813  0.5788439747451335  0.1402514311226142
  0.6255036177899029  0.5976224976219555  0.6259591590415852
  0.3826280329020477  0.4064887283565639  0.3779223473167335
  0.3644548850208906  0.3930185115780276  0.8685681287156015
  0.4073814723038893  0.0441059168970881  0.1232325219386325
  0.4083048559049445  0.0315083906454561  0.6218359782809273
  0.6097800067857975  0.9765231352718260  0.3743449598487985
  0.6047622851273076  0.9717309400029706  0.8752261489847015
  0.9784158254290318  0.3788322039994938  0.1215242148832942
  0.9740414869969385  0.3797582929547758  0.6224870305967229
  0.0318922806539987  0.6323926398171906  0.3715188454636404
  0.0279314630732941  0.6309125089633270  0.8755556442220822
  0.5009617924900880  0.6615299219887447  0.1292698182502292
  0.5024192822691518  0.6487757830084675  0.6252376175527488
  0.4823735753197624  0.3278416293325321  0.3771561362467182
  0.4698714312263519  0.3210115917146013  0.8689331641336793
  0.3383945499459955  0.8663765894854976  0.1284269394118525
  0.3568251668083775  0.8572710283700218  0.6222611617271312
  0.6905693681325289  0.1566198521987303  0.3729919094531269
  0.6858922397646836  0.1499750787590344  0.8722949122416779
  0.1521591622145237  0.5013285031839985  0.1243650103241194
  0.1480874242796588  0.5032497771387341  0.6227315079407987
  0.8538292397063003  0.5248693672894049  0.3678188387709938
  0.8494506630931937  0.5291607554312705  0.8751945576195368
  0.6592566705474781  0.5639742143600088  0.0476069549921192
  0.7355212680326986  0.6609313962730141  0.5429795493532268
  0.2619511841140891  0.3467578310647426  0.4554445273005712
  0.2540670587524687  0.3429783534019322  0.9516969243554882
  0.3430551557617392  0.0873274622977291  0.0389920214121844
  0.3474230915333152  0.0763386067531542  0.5367601880334760
  0.6584850654015639  0.9189454372147452  0.4587736047755939
  0.6398626388387072  0.9074828535483093  0.9623072106906534
  0.9419270914952449  0.2606691193900161  0.0439286412725224
  0.9319267139540059  0.2729208175992426  0.5380192222992974
  0.0817119734215481  0.7453468606531644  0.4527720880374773
  0.0911322833579433  0.7377791606249673  0.9597102481493422
  0.2933286447512415  0.3734462009249100  0.2868171911232338
  0.2557930343893204  0.3454098935106842  0.7852644733625667
  0.7321447836244204  0.6657711925831791  0.2081205220995201
  0.7302411695357875  0.6594108864376622  0.7116054207280058
  0.6510386780886890  0.9114865612108005  0.2909174106487029
  0.6566625416294087  0.9079873010164548  0.7946707021168180
  0.3619467755720365  0.1073213838373661  0.2083403904546799
  0.3437145422722097  0.0751686199967878  0.7057023141413268
  0.0984041184466591  0.7331291938676685  0.2854593622709842
  0.0881688005959447  0.7384469261081748  0.7916059150838848
  0.9221534406304670  0.2846669627693430  0.2118899694611613
  0.9293002783517181  0.2719277534103952  0.7064543524476221
  0.5463004488880969  0.4172637869611862  0.6255545110443563
  0.4853233931664391  0.5864905731493479  0.3884337314167325
  0.4633045422298068  0.5748978518276218  0.8698031088462130
  0.5876477090645196  0.1293570310947274  0.1182647168185511
  0.5884587830147439  0.1328582659408895  0.6228286245230521
  0.4288920081245493  0.9057701358717125  0.3771139181277192
  0.4238110792878658  0.8987638984134634  0.8699683523673016
  0.8789324250088910  0.4588881873578856  0.1098307489623309
  0.8726635993682450  0.4582727868156482  0.6225615907988100
  0.1109311205066206  0.5298710497622139  0.3800563139285131
  0.1032329098776259  0.5246586493099130  0.8754948898384782
  0.9871813387200916  0.9780263306068164  0.0862532486332341
  0.0015218625633935  0.0011069181230496  0.6261601469301041
  0.4457889099718315  0.3463583123982090  0.2044062915518836
 
  0.00000000E+00  0.00000000E+00  0.00000000E+00
  0.00000000E+00  0.00000000E+00  0.00000000E+00
  0.00000000E+00  0.00000000E+00  0.00000000E+00
  0.00000000E+00  0.00000000E+00  0.00000000E+00
  0.00000000E+00  0.00000000E+00  0.00000000E+00
  0.00000000E+00  0.00000000E+00  0.00000000E+00
  0.00000000E+00  0.00000000E+00  0.00000000E+00
  0.00000000E+00  0.00000000E+00  0.00000000E+00
  0.00000000E+00  0.00000000E+00  0.00000000E+00
  0.00000000E+00  0.00000000E+00  0.00000000E+00
  0.00000000E+00  0.00000000E+00  0.00000000E+00
  0.00000000E+00  0.00000000E+00  0.00000000E+00
  0.00000000E+00  0.00000000E+00  0.00000000E+00
  0.00000000E+00  0.00000000E+00  0.00000000E+00
  0.00000000E+00  0.00000000E+00  0.00000000E+00
  0.00000000E+00  0.00000000E+00  0.00000000E+00
  0.00000000E+00  0.00000000E+00  0.00000000E+00
  0.00000000E+00  0.00000000E+00  0.00000000E+00
  0.00000000E+00  0.00000000E+00  0.00000000E+00
  0.00000000E+00  0.00000000E+00  0.00000000E+00
  0.00000000E+00  0.00000000E+00  0.00000000E+00
  0.00000000E+00  0.00000000E+00  0.00000000E+00
  0.00000000E+00  0.00000000E+00  0.00000000E+00
  0.00000000E+00  0.00000000E+00  0.00000000E+00
  0.00000000E+00  0.00000000E+00  0.00000000E+00
  0.00000000E+00  0.00000000E+00  0.00000000E+00
  0.00000000E+00  0.00000000E+00  0.00000000E+00
  0.00000000E+00  0.00000000E+00  0.00000000E+00
  0.00000000E+00  0.00000000E+00  0.00000000E+00
  0.00000000E+00  0.00000000E+00  0.00000000E+00
  0.00000000E+00  0.00000000E+00  0.00000000E+00
  0.00000000E+00  0.00000000E+00  0.00000000E+00
  0.00000000E+00  0.00000000E+00  0.00000000E+00
  0.00000000E+00  0.00000000E+00  0.00000000E+00
  0.00000000E+00  0.00000000E+00  0.00000000E+00
  0.00000000E+00  0.00000000E+00  0.00000000E+00
  0.00000000E+00  0.00000000E+00  0.00000000E+00
  0.00000000E+00  0.00000000E+00  0.00000000E+00
  0.00000000E+00  0.00000000E+00  0.00000000E+00
  0.00000000E+00  0.00000000E+00  0.00000000E+00
  0.00000000E+00  0.00000000E+00  0.00000000E+00
  0.00000000E+00  0.00000000E+00  0.00000000E+00
  0.00000000E+00  0.00000000E+00  0.00000000E+00
  0.00000000E+00  0.00000000E+00  0.00000000E+00
  0.00000000E+00  0.00000000E+00  0.00000000E+00
  0.00000000E+00  0.00000000E+00  0.00000000E+00
  0.00000000E+00  0.00000000E+00  0.00000000E+00
  0.00000000E+00  0.00000000E+00  0.00000000E+00
  0.00000000E+00  0.00000000E+00  0.00000000E+00
  0.00000000E+00  0.00000000E+00  0.00000000E+00
  0.00000000E+00  0.00000000E+00  0.00000000E+00
  0.00000000E+00  0.00000000E+00  0.00000000E+00
  0.00000000E+00  0.00000000E+00  0.00000000E+00
  0.00000000E+00  0.00000000E+00  0.00000000E+00
  0.00000000E+00  0.00000000E+00  0.00000000E+00
  0.00000000E+00  0.00000000E+00  0.00000000E+00
  0.00000000E+00  0.00000000E+00  0.00000000E+00
  0.00000000E+00  0.00000000E+00  0.00000000E+00
  0.00000000E+00  0.00000000E+00  0.00000000E+00
  0.00000000E+00  0.00000000E+00  0.00000000E+00
  0.00000000E+00  0.00000000E+00  0.00000000E+00
  0.00000000E+00  0.00000000E+00  0.00000000E+00
  0.00000000E+00  0.00000000E+00  0.00000000E+00
  0.00000000E+00  0.00000000E+00  0.00000000E+00
  0.00000000E+00  0.00000000E+00  0.00000000E+00
  0.00000000E+00  0.00000000E+00  0.00000000E+00
  0.00000000E+00  0.00000000E+00  0.00000000E+00
  0.00000000E+00  0.00000000E+00  0.00000000E+00
  0.00000000E+00  0.00000000E+00  0.00000000E+00
  0.00000000E+00  0.00000000E+00  0.00000000E+00
  0.00000000E+00  0.00000000E+00  0.00000000E+00
  0.00000000E+00  0.00000000E+00  0.00000000E+00
  0.00000000E+00  0.00000000E+00  0.00000000E+00
  0.00000000E+00  0.00000000E+00  0.00000000E+00
  0.00000000E+00  0.00000000E+00  0.00000000E+00
  0.00000000E+00  0.00000000E+00  0.00000000E+00
  0.00000000E+00  0.00000000E+00  0.00000000E+00
  0.00000000E+00  0.00000000E+00  0.00000000E+00
  0.00000000E+00  0.00000000E+00  0.00000000E+00
  0.00000000E+00  0.00000000E+00  0.00000000E+00
  0.00000000E+00  0.00000000E+00  0.00000000E+00
  0.00000000E+00  0.00000000E+00  0.00000000E+00
