POSCAR
1.00
  6.25680000  5.41860000  5.01530000
 -7.82100000 -2.70930000  5.01530000
  3.12840000 -5.41860000  0.00000000
  Gd  Al   N
   8  16  24
Direct
  0.36116667  0.13883333  0.62525000
  0.86116667  0.63883333  0.87525000
  0.02783333  0.47216667  0.62525000
  0.19450000  0.30550000  0.87525000
  0.02783333  0.47216667  0.12525000
  0.05550000  0.94450000  0.74975000
  0.22216667  0.77783333  0.99975000
  0.72216667  0.27783333  0.24975000
  0.36116667  0.13883333  0.12525000
  0.52783333  0.97216667  0.87525000
  0.52783333  0.97216667  0.37525000
  0.69450000  0.80550000  0.62525000
  0.69450000  0.80550000  0.12525000
  0.86116667  0.63883333  0.37525000
  0.19450000  0.30550000  0.37525000
  0.05550000  0.94450000  0.24975000
  0.22216667  0.77783333  0.49975000
  0.38883333  0.61116667  0.24975000
  0.55550000  0.44450000  0.49975000
  0.38883333  0.61116667  0.74975000
  0.55550000  0.44450000  0.99975000
  0.88883333  0.11116667  0.49975000
  0.72216667  0.27783333  0.74975000
  0.88883333  0.11116667  0.99975000
  0.55166667  0.32933333  0.72050000
  0.55166667  0.32933333  0.22050000
  0.71833333  0.16266667  0.97050000
  0.71833333  0.16266667  0.47050000
  0.88500000  0.99600000  0.72050000
  0.05166667  0.82933333  0.97050000
  0.88500000  0.99600000  0.22050000
  0.05166667  0.82933333  0.47050000
  0.21833333  0.66266667  0.72050000
  0.38500000  0.49600000  0.97050000
  0.21833333  0.66266667  0.22050000
  0.38500000  0.49600000  0.47050000
  0.24600000  0.13500000  0.34500000
  0.24600000  0.13500000  0.84500000
  0.41266667  0.96833333  0.59500000
  0.41266667  0.96833333  0.09500000
  0.57933333  0.80166667  0.34500000
  0.74600000  0.63500000  0.59500000
  0.57933333  0.80166667  0.84500000
  0.74600000  0.63500000  0.09500000
  0.91266667  0.46833333  0.34500000
  0.07933333  0.30166667  0.59500000
  0.91266667  0.46833333  0.84500000
  0.07933333  0.30166667  0.09500000
