supercell of icsd_181358.cif            
   1.00000000000000     
     9.7740224019156852    0.0041890507720053    0.0014464017901924
    -4.8833836239777888    8.4584464801364998    0.0000729860000760
     0.0015662441467957    0.0010040491119389   10.5461362537098946
   N    Sc   Ga
    36     4    32
Direct
  0.2223465975330399  0.1109857213244609  0.4463851887947285
  0.1031746228542261  0.2296952413155395  0.1858678600576056
  0.9013377618964782  0.1146953782197144  0.9300284964452104
  0.7763144669352755  0.2218925948204316  0.6943694400742828
  0.5549470544851971  0.1109873632907323  0.4414536515631440
  0.4599615811243751  0.2298528447684518  0.1849047836855249
  0.2218534159802559  0.1109883238515863  0.9426591099635004
  0.1135460349021855  0.2238051401433196  0.6892276445632959
  0.8897067512740051  0.1118856359733726  0.4448431120602336
  0.7720570825903579  0.2100703320356843  0.1934622792713085
  0.5387130409529064  0.1013503751848717  0.9329974506542413
  0.4440926569328525  0.2233360687745076  0.6897962587073678
  0.2222217244127265  0.4445595570038634  0.4385675575185957
  0.1257221765274252  0.5629825918675238  0.1842672889883659
  0.8974659629632882  0.4587980608068136  0.9377395927401224
  0.7761119949869695  0.5551058144858558  0.6895863735748264
  0.5557173647541802  0.4443768722968287  0.4382720762684613
  0.4446439071971255  0.5559622706952538  0.1886476830581287
  0.2231803717432683  0.4446947768730567  0.9370896745814363
  0.1132270234191139  0.5565196714966945  0.6902213844908971
  0.8892019388502774  0.4445025593199290  0.4508044786317953
  0.7711063153653441  0.5637364634397244  0.1844219094867157
  0.5555482721117855  0.4454394464160245  0.9374866854523987
  0.4438384040818093  0.5543441517253740  0.6872085001202990
  0.2217372795794930  0.7772893788607078  0.4386558708616093
  0.1033892508063872  0.8735920763169744  0.1852160187458409
  0.8964264958150494  0.7727214127701671  0.9322386102586506
  0.7763432412848061  0.8870120285921956  0.6899246216984594
  0.5544640544418442  0.7769851228483233  0.4404649507267635
  0.4448904305665451  0.8893453314430317  0.1893805992893576
  0.2230748814899215  0.7780687068861312  0.9365782285723583
  0.1125612938226865  0.8893703508420785  0.6898641759726374
  0.8896187908630395  0.7769945723997438  0.4419373348131472
  0.7785174036275464  0.8899458687816235  0.2007920035088588
  0.5408700947865981  0.7706430649320666  0.9347043718451360
  0.4429319696115854  0.8876930408312447  0.6862196696264675
  0.2224044057004662  0.1111095816641452  0.2453101426430706
  0.7754521222633812  0.2212447045416681  0.9930222941558142
  0.8904518723641672  0.4472199471346059  0.2500967163822168
  0.7771641915374872  0.8848097864175415  0.9989715876889562
  0.1127326651535583  0.2259113846177812  0.9981806660223640
  0.8920122632766763  0.1113331346638589  0.7460918287077476
  0.7767700676101867  0.2216856342180904  0.5051351769128090
  0.5563133199812995  0.1092728757475214  0.2524415747156397
  0.4451242554857373  0.2231504348578710  0.9977623021204778
  0.2224012578155268  0.1113964646411958  0.7515024887458353
  0.1126100970870993  0.2233977146842889  0.5025486724981150
  0.8869139333171390  0.1104978094752624  0.2563066965065346
  0.5500816646255586  0.1077095202988190  0.7478999555571306
  0.4444901270912425  0.2229307825801854  0.5022830703391108
  0.2244839445810527  0.4477380425703004  0.2493817951583353
  0.1173799843375463  0.5602805961695054  0.9976911745879278
  0.8911519477767342  0.4485321648306027  0.7492451520151278
  0.7764206453426681  0.5551524204068130  0.5032536033913146
  0.5566690231039786  0.4477014048771579  0.2488256403943296
  0.4413174771371686  0.5535133616066332  0.9996115652074096
  0.2233719659747067  0.4448140511901784  0.7500324912959329
  0.1127866336924157  0.5561981062730936  0.5031202386886520
  0.7783761502240480  0.5585409177299567  0.9975021730866871
  0.5550140271844271  0.4449154676300893  0.7499986636736082
  0.4439936994900293  0.5547111208589968  0.4995993021340723
  0.2246032405119820  0.7770306967763432  0.2496887362686024
  0.1112094275686388  0.8838410611325358  0.9976431554063012
  0.8905419316267569  0.7766931275476452  0.7476062182677126
  0.7770049348103427  0.8877570830231321  0.5008575929759118
  0.5547834549387360  0.7774927235836628  0.2527262385368942
  0.4385000867108602  0.8857271849482231  0.9997979733697804
  0.2232300860959029  0.7782887028583119  0.7500324968392249
  0.1119037252161803  0.8887164349233672  0.5025528328512934
  0.8867632700722794  0.7768327888885693  0.2535076008735331
  0.5513452655889282  0.7755215074782811  0.7478875497660198
  0.4433651241351200  0.8881030475198415  0.4995996955437860
 
  0.00000000E+00  0.00000000E+00  0.00000000E+00
  0.00000000E+00  0.00000000E+00  0.00000000E+00
  0.00000000E+00  0.00000000E+00  0.00000000E+00
  0.00000000E+00  0.00000000E+00  0.00000000E+00
  0.00000000E+00  0.00000000E+00  0.00000000E+00
  0.00000000E+00  0.00000000E+00  0.00000000E+00
  0.00000000E+00  0.00000000E+00  0.00000000E+00
  0.00000000E+00  0.00000000E+00  0.00000000E+00
  0.00000000E+00  0.00000000E+00  0.00000000E+00
  0.00000000E+00  0.00000000E+00  0.00000000E+00
  0.00000000E+00  0.00000000E+00  0.00000000E+00
  0.00000000E+00  0.00000000E+00  0.00000000E+00
  0.00000000E+00  0.00000000E+00  0.00000000E+00
  0.00000000E+00  0.00000000E+00  0.00000000E+00
  0.00000000E+00  0.00000000E+00  0.00000000E+00
  0.00000000E+00  0.00000000E+00  0.00000000E+00
  0.00000000E+00  0.00000000E+00  0.00000000E+00
  0.00000000E+00  0.00000000E+00  0.00000000E+00
  0.00000000E+00  0.00000000E+00  0.00000000E+00
  0.00000000E+00  0.00000000E+00  0.00000000E+00
  0.00000000E+00  0.00000000E+00  0.00000000E+00
  0.00000000E+00  0.00000000E+00  0.00000000E+00
  0.00000000E+00  0.00000000E+00  0.00000000E+00
  0.00000000E+00  0.00000000E+00  0.00000000E+00
  0.00000000E+00  0.00000000E+00  0.00000000E+00
  0.00000000E+00  0.00000000E+00  0.00000000E+00
  0.00000000E+00  0.00000000E+00  0.00000000E+00
  0.00000000E+00  0.00000000E+00  0.00000000E+00
  0.00000000E+00  0.00000000E+00  0.00000000E+00
  0.00000000E+00  0.00000000E+00  0.00000000E+00
  0.00000000E+00  0.00000000E+00  0.00000000E+00
  0.00000000E+00  0.00000000E+00  0.00000000E+00
  0.00000000E+00  0.00000000E+00  0.00000000E+00
  0.00000000E+00  0.00000000E+00  0.00000000E+00
  0.00000000E+00  0.00000000E+00  0.00000000E+00
  0.00000000E+00  0.00000000E+00  0.00000000E+00
  0.00000000E+00  0.00000000E+00  0.00000000E+00
  0.00000000E+00  0.00000000E+00  0.00000000E+00
  0.00000000E+00  0.00000000E+00  0.00000000E+00
  0.00000000E+00  0.00000000E+00  0.00000000E+00
  0.00000000E+00  0.00000000E+00  0.00000000E+00
  0.00000000E+00  0.00000000E+00  0.00000000E+00
  0.00000000E+00  0.00000000E+00  0.00000000E+00
  0.00000000E+00  0.00000000E+00  0.00000000E+00
  0.00000000E+00  0.00000000E+00  0.00000000E+00
  0.00000000E+00  0.00000000E+00  0.00000000E+00
  0.00000000E+00  0.00000000E+00  0.00000000E+00
  0.00000000E+00  0.00000000E+00  0.00000000E+00
  0.00000000E+00  0.00000000E+00  0.00000000E+00
  0.00000000E+00  0.00000000E+00  0.00000000E+00
  0.00000000E+00  0.00000000E+00  0.00000000E+00
  0.00000000E+00  0.00000000E+00  0.00000000E+00
  0.00000000E+00  0.00000000E+00  0.00000000E+00
  0.00000000E+00  0.00000000E+00  0.00000000E+00
  0.00000000E+00  0.00000000E+00  0.00000000E+00
  0.00000000E+00  0.00000000E+00  0.00000000E+00
  0.00000000E+00  0.00000000E+00  0.00000000E+00
  0.00000000E+00  0.00000000E+00  0.00000000E+00
  0.00000000E+00  0.00000000E+00  0.00000000E+00
  0.00000000E+00  0.00000000E+00  0.00000000E+00
  0.00000000E+00  0.00000000E+00  0.00000000E+00
  0.00000000E+00  0.00000000E+00  0.00000000E+00
  0.00000000E+00  0.00000000E+00  0.00000000E+00
  0.00000000E+00  0.00000000E+00  0.00000000E+00
  0.00000000E+00  0.00000000E+00  0.00000000E+00
  0.00000000E+00  0.00000000E+00  0.00000000E+00
  0.00000000E+00  0.00000000E+00  0.00000000E+00
  0.00000000E+00  0.00000000E+00  0.00000000E+00
  0.00000000E+00  0.00000000E+00  0.00000000E+00
  0.00000000E+00  0.00000000E+00  0.00000000E+00
  0.00000000E+00  0.00000000E+00  0.00000000E+00
  0.00000000E+00  0.00000000E+00  0.00000000E+00
