supercell of 100% icsd_608626.cif, 0% i 
   1.00000000000000     
    -9.5215309444714205   -0.0182747242405872   -0.0008474802839935
    -4.7449288356569381    8.2176065078989193    0.0066718121940664
    -0.0008974356022369   -0.0087382275825301  -10.1225736799394888
   Al   Sr   Si   N 
    32     2     2    36
Direct
  0.1147575594513199  0.0917772256622342  0.2961626538787385
  0.2286671079319689  0.2009960345194628  0.0493622598345951
  0.8898045032659923  0.2032894058376868  0.5342916798175992
  0.4426419920199365  0.0931893035794644  0.2943776658794093
  0.5455963325942861  0.2085746112624705  0.0531111653833207
  0.1107409274878322  0.0990482344752337  0.7973806855483119
  0.2226119387181740  0.2024796021567354  0.5454205239009084
  0.7784441072557513  0.0940718249968739  0.2943762727037651
  0.8892502113929197  0.2091962556137048  0.0556277639298415
  0.5558061874072919  0.2072117920364960  0.5375584906083617
  0.1163639789452375  0.4246749842934037  0.3009676088523747
  0.2269338795168778  0.5361665377510931  0.0494747366958777
  0.7806449359465617  0.4293995801547581  0.7827584249024397
  0.8896263463643024  0.5389484768140846  0.5549669401265760
  0.4430376720341727  0.4307008403493597  0.2935600020252238
  0.5542968122328702  0.5350912824665954  0.0492900932167188
  0.1151444287423757  0.4263602989608231  0.7823174773856394
  0.2264346526990622  0.5367598722129969  0.5448136998761370
  0.7741884167067496  0.4279103612364565  0.3024318594484683
  0.4394044653010809  0.4315277664976875  0.7956742924526807
  0.5531407068943111  0.5392186123998073  0.5447045309853635
  0.1141173348620512  0.7587604384638666  0.2957907323682960
  0.2210005459924744  0.8703227535588809  0.0486710327573903
  0.7814819695941324  0.7621834571904742  0.7812408795801389
  0.8875736146724833  0.8753363047622074  0.5354260294447641
  0.4437241161483385  0.7613081107598845  0.2965822758670953
  0.5525652121932367  0.8786939129940876  0.0504025758998310
  0.2222507219059580  0.8724926950098393  0.5487186158927315
  0.7747614592337300  0.7638711353327992  0.3000735424689225
  0.8909930437504201  0.8682650826704545  0.0544893535447031
  0.4435750930933580  0.7598914539221937  0.7964982198747208
  0.5526723169231857  0.8737459788810114  0.5460276772758164
  0.7797301002135768  0.0989539760974409  0.8048149868031231
  0.8893171931493811  0.5345505935532557  0.0330820918617079
  0.4373636625624897  0.1004816243618194  0.7963983237108465
  0.1120338506922138  0.7527097183601583  0.7981981101978732
  0.2254289344948788  0.2002076392734153  0.3594118596992359
  0.1162839819348918  0.0903872989501480  0.1065551394679574
  0.9123549339122548  0.2371874124972351  0.8734203125540247
  0.7765447942130237  0.0954657756670798  0.5715257450222353
  0.5511157913007665  0.2073171015347768  0.3480866987615485
  0.4420010134390111  0.0922252637886700  0.1079987443785981
  0.2329372062699306  0.1975960558805951  0.8503131812537674
  0.1090540411392595  0.0941616121896871  0.6072199956425379
  0.8951131915346480  0.2018760232163856  0.3486364467103584
  0.7768646819917393  0.0941149006223228  0.0954225240126263
  0.5057697223147457  0.2230157274646203  0.8648480733779493
  0.4441102095146547  0.0959744569596808  0.6166453864799948
  0.2242473858960281  0.5412154958815023  0.3588310502553966
  0.1503092664428323  0.4071636480731016  0.1173323678638525
  0.8905626010229426  0.5417947683298650  0.7963670591522103
  0.7743126022591937  0.4224991057855831  0.5943932162956074
  0.5498079128579647  0.5427972110782875  0.3584556535785381
  0.4420380487979614  0.4310328994473025  0.1046863228463621
  0.2196593052136819  0.5470068211700863  0.8510648922444233
  0.1209567891821379  0.4224112576429135  0.5962084393702440
  0.8902033282406308  0.5385814122368942  0.3566557303494235
  0.7540215049305132  0.4126505215424530  0.1240016957411783
  0.5589556459212304  0.5371594493976275  0.8541649278715866
  0.4454908652210321  0.4263505041608724  0.6063746109083397
  0.2226177062271049  0.8704285905444351  0.3588267800874974
  0.1146286193696255  0.7580636975247614  0.1078208230593205
  0.9202761018397965  0.8238426259071190  0.8659739732311635
  0.7730136297206087  0.7721342160646145  0.5945657705145848
  0.5502917643764889  0.8746895497891032  0.3593597902315935
  0.4435613833315699  0.7618754850949685  0.1020773255008436
  0.2129518895982301  0.8650151034089362  0.8525723878949307
  0.1095633308833328  0.7605544849925892  0.6177347922178029
  0.8950901223511991  0.8688151475761927  0.3496837616708888
  0.7563805760162481  0.7970007551457314  0.1187610856887318
  0.5494535921680850  0.8874072201305623  0.8504696880711222
  0.4433301281756599  0.7618206218341257  0.6084904729931324
 
  0.00000000E+00  0.00000000E+00  0.00000000E+00
  0.00000000E+00  0.00000000E+00  0.00000000E+00
  0.00000000E+00  0.00000000E+00  0.00000000E+00
  0.00000000E+00  0.00000000E+00  0.00000000E+00
  0.00000000E+00  0.00000000E+00  0.00000000E+00
  0.00000000E+00  0.00000000E+00  0.00000000E+00
  0.00000000E+00  0.00000000E+00  0.00000000E+00
  0.00000000E+00  0.00000000E+00  0.00000000E+00
  0.00000000E+00  0.00000000E+00  0.00000000E+00
  0.00000000E+00  0.00000000E+00  0.00000000E+00
  0.00000000E+00  0.00000000E+00  0.00000000E+00
  0.00000000E+00  0.00000000E+00  0.00000000E+00
  0.00000000E+00  0.00000000E+00  0.00000000E+00
  0.00000000E+00  0.00000000E+00  0.00000000E+00
  0.00000000E+00  0.00000000E+00  0.00000000E+00
  0.00000000E+00  0.00000000E+00  0.00000000E+00
  0.00000000E+00  0.00000000E+00  0.00000000E+00
  0.00000000E+00  0.00000000E+00  0.00000000E+00
  0.00000000E+00  0.00000000E+00  0.00000000E+00
  0.00000000E+00  0.00000000E+00  0.00000000E+00
  0.00000000E+00  0.00000000E+00  0.00000000E+00
  0.00000000E+00  0.00000000E+00  0.00000000E+00
  0.00000000E+00  0.00000000E+00  0.00000000E+00
  0.00000000E+00  0.00000000E+00  0.00000000E+00
  0.00000000E+00  0.00000000E+00  0.00000000E+00
  0.00000000E+00  0.00000000E+00  0.00000000E+00
  0.00000000E+00  0.00000000E+00  0.00000000E+00
  0.00000000E+00  0.00000000E+00  0.00000000E+00
  0.00000000E+00  0.00000000E+00  0.00000000E+00
  0.00000000E+00  0.00000000E+00  0.00000000E+00
  0.00000000E+00  0.00000000E+00  0.00000000E+00
  0.00000000E+00  0.00000000E+00  0.00000000E+00
  0.00000000E+00  0.00000000E+00  0.00000000E+00
  0.00000000E+00  0.00000000E+00  0.00000000E+00
  0.00000000E+00  0.00000000E+00  0.00000000E+00
  0.00000000E+00  0.00000000E+00  0.00000000E+00
  0.00000000E+00  0.00000000E+00  0.00000000E+00
  0.00000000E+00  0.00000000E+00  0.00000000E+00
  0.00000000E+00  0.00000000E+00  0.00000000E+00
  0.00000000E+00  0.00000000E+00  0.00000000E+00
  0.00000000E+00  0.00000000E+00  0.00000000E+00
  0.00000000E+00  0.00000000E+00  0.00000000E+00
  0.00000000E+00  0.00000000E+00  0.00000000E+00
  0.00000000E+00  0.00000000E+00  0.00000000E+00
  0.00000000E+00  0.00000000E+00  0.00000000E+00
  0.00000000E+00  0.00000000E+00  0.00000000E+00
  0.00000000E+00  0.00000000E+00  0.00000000E+00
  0.00000000E+00  0.00000000E+00  0.00000000E+00
  0.00000000E+00  0.00000000E+00  0.00000000E+00
  0.00000000E+00  0.00000000E+00  0.00000000E+00
  0.00000000E+00  0.00000000E+00  0.00000000E+00
  0.00000000E+00  0.00000000E+00  0.00000000E+00
  0.00000000E+00  0.00000000E+00  0.00000000E+00
  0.00000000E+00  0.00000000E+00  0.00000000E+00
  0.00000000E+00  0.00000000E+00  0.00000000E+00
  0.00000000E+00  0.00000000E+00  0.00000000E+00
  0.00000000E+00  0.00000000E+00  0.00000000E+00
  0.00000000E+00  0.00000000E+00  0.00000000E+00
  0.00000000E+00  0.00000000E+00  0.00000000E+00
  0.00000000E+00  0.00000000E+00  0.00000000E+00
  0.00000000E+00  0.00000000E+00  0.00000000E+00
  0.00000000E+00  0.00000000E+00  0.00000000E+00
  0.00000000E+00  0.00000000E+00  0.00000000E+00
  0.00000000E+00  0.00000000E+00  0.00000000E+00
  0.00000000E+00  0.00000000E+00  0.00000000E+00
  0.00000000E+00  0.00000000E+00  0.00000000E+00
  0.00000000E+00  0.00000000E+00  0.00000000E+00
  0.00000000E+00  0.00000000E+00  0.00000000E+00
  0.00000000E+00  0.00000000E+00  0.00000000E+00
  0.00000000E+00  0.00000000E+00  0.00000000E+00
  0.00000000E+00  0.00000000E+00  0.00000000E+00
  0.00000000E+00  0.00000000E+00  0.00000000E+00
