supercell of 100% icsd_608626.cif, 0% i 
   1.00000000000000     
    -9.4670910438247997   -0.0000004707095732    0.0000007653014446
    -4.7335451158488722    8.2227739731010683   -0.0101316826730844
     0.0000008252064300    0.0125090105991997  -10.1815481933310927
   Sr   Al   Si   N 
     2    32     2    36
Direct
  0.1086102762989825  0.0928249395964258  0.2826295093618540
  0.7818971240890420  0.0928251577378205  0.2826288140669106
  0.2251270108519421  0.2079341734958717  0.0331125003243713
  0.7765221604960288  0.0947522380685228  0.8073175586152459
  0.4389067896813827  0.1055194250352400  0.3028641083843340
  0.5502727317927381  0.2079341339235441  0.0331123139903227
  0.1120594000077233  0.0947523994665076  0.8073166617615612
  0.2186534568614391  0.2098950839879734  0.5490324373376296
  0.8869364175030512  0.2094618745781816  0.0213131619014177
  0.4459897055008923  0.0913542023787457  0.7926391814137688
  0.5547848305982086  0.2098947176193775  0.5490326394682867
  0.1134903648233632  0.4284384668610670  0.2985924589775450
  0.2223551314203647  0.5386232970858842  0.0483021548789750
  0.7744524999821536  0.4344281710454965  0.7969445716820047
  0.8888445112642813  0.5377724000596800  0.5426985929614005
  0.4414040525957716  0.4284383576540804  0.2985925900297133
  0.5562928371823119  0.5376882237378950  0.0494372296233294
  0.1099098867085004  0.4321144723250470  0.7951658539960675
  0.2218859825139745  0.5395612086746766  0.5416183309500013
  0.7748024657815691  0.4337280611204193  0.3022921551005524
  0.8893523079833088  0.5376884760326277  0.0494371519660604
  0.4413088915689656  0.4321143823942606  0.7951658388194502
  0.5567160893534151  0.5377722142463455  0.5426984456399637
  0.1174572984565501  0.7484185458470165  0.3008794107497792
  0.2249842598718530  0.8670441406078524  0.0329785281738424
  0.7745041756951494  0.7598637322803796  0.7966096558636693
  0.8931402781439601  0.8688468054601586  0.5507075970180608
  0.4445979000354185  0.7555508494753411  0.2997884503762904
  0.5547520471657137  0.8738297281815548  0.0489629316144615
  0.1141731444852709  0.7549871455345922  0.7932003998227799
  0.2213464421237461  0.8688466550753660  0.5507075783541069
  0.7831843300959278  0.7555510062013084  0.2997886379424415
  0.8913055213537007  0.8670440272531224  0.0329784124236667
  0.4489653482354399  0.7598637203933549  0.7966097832451737
  0.8847486741194714  0.2138354112110719  0.5582233286396772
  0.5555093420160375  0.8723143588002529  0.5448558101189676
  0.2324003590651031  0.2226659291697430  0.3698825278884712
  0.1120940321967012  0.0938210070879748  0.0478776250204618
  0.8842572792636219  0.2148196478680120  0.8379608967923815
  0.7833816342742494  0.0993414915911615  0.6079162256729376
  0.5282665883865576  0.2226659033797489  0.3698827966362046
  0.4438042910840991  0.0957254611479783  0.1078928658197853
  0.2268027028350232  0.2098913895007968  0.8443480277960091
  0.1006100241003836  0.0993416216266141  0.6079157866593690
  0.8691603402737300  0.2450114544428530  0.3958030466253959
  0.7774192577123387  0.0938211511088554  0.0478767217471301
  0.5466395986190093  0.2098913586159767  0.8443480216737598
  0.4528557652670528  0.0776214227202985  0.6042470033208858
  0.2245166546132396  0.5342994793837192  0.3539350141828734
  0.1119692080278440  0.4250591704078062  0.1056924372549517
  0.8878081980713262  0.5405795658995842  0.8585533984135694
  0.7776147689122865  0.4281033852852474  0.6115892497570812
  0.5561393548352456  0.5386359018816194  0.3548445466255856
  0.4463052009095847  0.4250589383612535  0.1056925648966214
  0.2224351519016921  0.5384630315761001  0.8590358150721968
  0.1072416951506412  0.4335924815269223  0.6074854305129094
  0.8885576192925484  0.5386360397078960  0.3548446895539641
  0.7813923755295065  0.4205489579229464  0.1084798362118420
  0.5549454360163679  0.5405794837100188  0.8585534659858141
  0.4424989770919296  0.4335922341745757  0.6074854562204948
  0.2409968182126718  0.8330028161342327  0.3716748559418619
  0.1097984339798828  0.7637368939574003  0.1050933053734298
  0.8920702383279320  0.8632974811773479  0.8447734198237313
  0.7620938631729715  0.7663976606290746  0.6047937407287449
  0.5550532070638496  0.8732266216213915  0.3665997593636590
  0.4435183034556687  0.7624185893067477  0.1082398979471648
  0.2279654613948665  0.8632978759096090  0.8447734532505606
  0.1135120897124153  0.7563092988850570  0.6095111772669881
  0.9093334499786039  0.8330032128075331  0.3716747886096670
  0.7773968239390285  0.7624187631432946  0.1082400172499760
  0.5550593918102464  0.8732145888588434  0.8594535278571627
  0.4548417188641665  0.7663974860246867  0.6047938206525743
 
  0.00000000E+00  0.00000000E+00  0.00000000E+00
  0.00000000E+00  0.00000000E+00  0.00000000E+00
  0.00000000E+00  0.00000000E+00  0.00000000E+00
  0.00000000E+00  0.00000000E+00  0.00000000E+00
  0.00000000E+00  0.00000000E+00  0.00000000E+00
  0.00000000E+00  0.00000000E+00  0.00000000E+00
  0.00000000E+00  0.00000000E+00  0.00000000E+00
  0.00000000E+00  0.00000000E+00  0.00000000E+00
  0.00000000E+00  0.00000000E+00  0.00000000E+00
  0.00000000E+00  0.00000000E+00  0.00000000E+00
  0.00000000E+00  0.00000000E+00  0.00000000E+00
  0.00000000E+00  0.00000000E+00  0.00000000E+00
  0.00000000E+00  0.00000000E+00  0.00000000E+00
  0.00000000E+00  0.00000000E+00  0.00000000E+00
  0.00000000E+00  0.00000000E+00  0.00000000E+00
  0.00000000E+00  0.00000000E+00  0.00000000E+00
  0.00000000E+00  0.00000000E+00  0.00000000E+00
  0.00000000E+00  0.00000000E+00  0.00000000E+00
  0.00000000E+00  0.00000000E+00  0.00000000E+00
  0.00000000E+00  0.00000000E+00  0.00000000E+00
  0.00000000E+00  0.00000000E+00  0.00000000E+00
  0.00000000E+00  0.00000000E+00  0.00000000E+00
  0.00000000E+00  0.00000000E+00  0.00000000E+00
  0.00000000E+00  0.00000000E+00  0.00000000E+00
  0.00000000E+00  0.00000000E+00  0.00000000E+00
  0.00000000E+00  0.00000000E+00  0.00000000E+00
  0.00000000E+00  0.00000000E+00  0.00000000E+00
  0.00000000E+00  0.00000000E+00  0.00000000E+00
  0.00000000E+00  0.00000000E+00  0.00000000E+00
  0.00000000E+00  0.00000000E+00  0.00000000E+00
  0.00000000E+00  0.00000000E+00  0.00000000E+00
  0.00000000E+00  0.00000000E+00  0.00000000E+00
  0.00000000E+00  0.00000000E+00  0.00000000E+00
  0.00000000E+00  0.00000000E+00  0.00000000E+00
  0.00000000E+00  0.00000000E+00  0.00000000E+00
  0.00000000E+00  0.00000000E+00  0.00000000E+00
  0.00000000E+00  0.00000000E+00  0.00000000E+00
  0.00000000E+00  0.00000000E+00  0.00000000E+00
  0.00000000E+00  0.00000000E+00  0.00000000E+00
  0.00000000E+00  0.00000000E+00  0.00000000E+00
  0.00000000E+00  0.00000000E+00  0.00000000E+00
  0.00000000E+00  0.00000000E+00  0.00000000E+00
  0.00000000E+00  0.00000000E+00  0.00000000E+00
  0.00000000E+00  0.00000000E+00  0.00000000E+00
  0.00000000E+00  0.00000000E+00  0.00000000E+00
  0.00000000E+00  0.00000000E+00  0.00000000E+00
  0.00000000E+00  0.00000000E+00  0.00000000E+00
  0.00000000E+00  0.00000000E+00  0.00000000E+00
  0.00000000E+00  0.00000000E+00  0.00000000E+00
  0.00000000E+00  0.00000000E+00  0.00000000E+00
  0.00000000E+00  0.00000000E+00  0.00000000E+00
  0.00000000E+00  0.00000000E+00  0.00000000E+00
  0.00000000E+00  0.00000000E+00  0.00000000E+00
  0.00000000E+00  0.00000000E+00  0.00000000E+00
  0.00000000E+00  0.00000000E+00  0.00000000E+00
  0.00000000E+00  0.00000000E+00  0.00000000E+00
  0.00000000E+00  0.00000000E+00  0.00000000E+00
  0.00000000E+00  0.00000000E+00  0.00000000E+00
  0.00000000E+00  0.00000000E+00  0.00000000E+00
  0.00000000E+00  0.00000000E+00  0.00000000E+00
  0.00000000E+00  0.00000000E+00  0.00000000E+00
  0.00000000E+00  0.00000000E+00  0.00000000E+00
  0.00000000E+00  0.00000000E+00  0.00000000E+00
  0.00000000E+00  0.00000000E+00  0.00000000E+00
  0.00000000E+00  0.00000000E+00  0.00000000E+00
  0.00000000E+00  0.00000000E+00  0.00000000E+00
  0.00000000E+00  0.00000000E+00  0.00000000E+00
  0.00000000E+00  0.00000000E+00  0.00000000E+00
  0.00000000E+00  0.00000000E+00  0.00000000E+00
  0.00000000E+00  0.00000000E+00  0.00000000E+00
  0.00000000E+00  0.00000000E+00  0.00000000E+00
  0.00000000E+00  0.00000000E+00  0.00000000E+00
