POSCAR                                  
   1.07100000000000     
     3.3189664380199999   -5.7099124243999997   -4.9685255363799996
     9.8145455275000000   -0.0800568833156000   -0.0017848751118700
     1.7491356833300000  -14.2305064666999996    9.9472865287700003
   Tb   Al   N 
    27    27    54
Direct
  0.5579276914405469  0.5617514120638418  0.5123896890373345
  0.5301008565568566  0.8954886961789157  0.5203059413906885
  0.3443192020277692  0.1497045437987410  0.4011753694767179
  0.1083958076320428  0.4251383145332639  0.2910554663232858
  0.1325921719627914  0.0625206909833906  0.2846288089622107
  0.8717389381224265  0.3624404051140431  0.1728110573986754
  0.8741225134580404  0.9966134070586463  0.1818705895853583
  0.6651333758283755  0.2680778969813886  0.0710928277491405
  0.4743316887269415  0.5203687336517291  0.9469595768755212
  0.2069032888121569  0.4530200166816911  0.8533074736157076
  0.2052801577342009  0.7879956942117303  0.8446982566447829
  0.2041487346706035  0.1182958134413283  0.8600916683870707
  0.9556645929616181  0.3843798058515588  0.7446399595578370
  0.7322776949146146  0.3542162646650553  0.3642365830942538
  0.7559141594727450  0.6956678412518471  0.3491774137065278
  0.7556626076582802  0.0263367617213319  0.3630087059509819
  0.3156855155032687  0.2037014037821194  0.1314246559687504
  0.2981086310753724  0.5596959647429927  0.1402101782650433
  0.0828235811425699  0.8018474684558399  0.0282422544555985
  0.8244701672785268  0.0657401428258737  0.9225098661279674
  0.4370052872084642  0.2309698407939820  0.6974109737226257
  0.4443237284269799  0.5741538378834932  0.6984384712250673
  0.4129669648665555  0.9124091310775029  0.7019815151458531
  0.2016346590240019  0.5048633277045766  0.5900116848636543
  0.9590642770682791  0.0950166419889413  0.4920265865229680
  0.9710611436507719  0.4280240147240519  0.4909378125473154
  0.9693234070957146  0.7676110653368440  0.4840211884901535
  0.5202804728648545  0.2304970542793612  0.5248878614549000
  0.3233318401274587  0.4951083262501612  0.4034256991761680
  0.3262085143629392  0.8154453408791724  0.4034190849824171
  0.1041075024791596  0.7489634953085229  0.2925013720232528
  0.8515939457548640  0.6916612813815135  0.1724065608195531
  0.6562888401702480  0.6255349069830842  0.0715378471422454
  0.6308070367467664  0.9288791945757424  0.0748125110273534
  0.4384372968387211  0.8753945581281357  0.9673793183706891
  0.4171006171609548  0.1882059555798676  0.9630359454682136
  0.9764192030237524  0.7209611671561476  0.7410164455578183
  0.9741652629857853  0.0428256412477523  0.7312986029093764
  0.7609730819951110  0.2996146103237933  0.6404071327246825
  0.7589735320951121  0.6491895903371159  0.6491449741422031
  0.7580950798983750  0.9607631660184879  0.6457797899421323
  0.5092293661216871  0.2977982708742601  0.2575783591563550
  0.5082110388405283  0.6293419932723197  0.2502254988296357
  0.5204678881821465  0.9368172771637333  0.2509370204697134
  0.3114566745287917  0.8712897854534560  0.1441078212398281
  0.0771982600355798  0.1437312215816107  0.0355960352435929
  0.0624159518542058  0.4823883738271277  0.0286458647669576
  0.8470642071061008  0.4142787761810851  0.9373875307264541
  0.8383305526257203  0.7306559694928296  0.9275186075275457
  0.6246835269650077  0.2814980192595371  0.8145923457324429
  0.6376201584072447  0.6727286986983856  0.8265632317266025
  0.6409707841570906  0.9749579325087439  0.8199429961293774
  0.1746258145665749  0.1618810411331211  0.5951052614339645
  0.1811277107267699  0.8416747915833653  0.5930146615823375
  0.3248868449434354  0.6515064005662552  0.6004486289560020
  0.2851982954914689  0.9640208047340408  0.6045362193550332
  0.3110541485534029  0.2644369109869800  0.6011163369095271
  0.1275195627557011  0.5475785645923708  0.4831603552241717
  0.1380968038190673  0.8697066217988478  0.4935330090233663
  0.1195108947558481  0.2039315108094115  0.5010510928177538
  0.8658366669475299  0.4754116370442460  0.3896111630107626
  0.9095234253617974  0.8056292447484878  0.3730157952499553
  0.9047212773716709  0.1372960621033954  0.3799944006902649
  0.6241663381350833  0.4230911966170510  0.2597940823273106
  0.6465744159695390  0.7357825619080671  0.2485486163889234
  0.6135604333421085  0.0833329945199637  0.2672947729889472
  0.4255936889555585  0.3378929611247443  0.1709321802220458
  0.4541141914355151  0.6787443064740444  0.1528179457619316
  0.4308277849984705  0.9758428648706499  0.1635230865923276
  0.2135674768799021  0.5688129877123131  0.0336399950799731
  0.2310977179854916  0.9432085762804405  0.0489062090530723
  0.1872545121447189  0.2723183575126882  0.0290171264683181
  0.9634283041544407  0.5309544196862817  0.9428309043244312
  0.9660015370582684  0.8380760217223369  0.9332396786274160
  0.9541438382515821  0.2042306837377268  0.9527071053935359
  0.7441596302729678  0.4680712584537901  0.8515102226013127
  0.7763670281654242  0.7753251143503306  0.8299595030955729
  0.7683384315495232  0.0934273739657172  0.8103062651336259
  0.5753498773503338  0.3513752324642496  0.7260251285593213
  0.5665142247942754  0.6952898941681056  0.7359425287653210
  0.5687602551297672  0.0118352600989766  0.7298868635993330
  0.4978751836898070  0.4020478060627113  0.4656628155934541
  0.5229927345682412  0.7492447748727855  0.4421885838890347
  0.5508719827578119  0.0857748894930310  0.4644668003734864
  0.3285915415819218  0.3549724452362000  0.3454218161921716
  0.3096626509932534  0.6711935874835291  0.3406673558242233
  0.3453878774510954  0.9688150656717553  0.3413991165393355
  0.0827054714783202  0.2714388800917291  0.2298453316420748
  0.0386148551428960  0.6365421158746472  0.2314831655621958
  0.1140155586002507  0.8952452181821684  0.2256229974033843
  0.8900800600616563  0.1787300641197689  0.1169014395730628
  0.8635515579778286  0.5581300370934628  0.1076299386106641
  0.8297880634438926  0.8580393772918953  0.1144244195380679
  0.5825686699418426  0.1119320643070409  0.0254333947794194
  0.6498516278262940  0.4764442401034614  0.0225336000408447
  0.6343698550610384  0.7919649141819463  0.0107013135316620
  0.4537889461350986  0.3321357841213555  0.8992676877313244
  0.4232673026997631  0.7463588502664180  0.9047407236225524
  0.4516579731377846  0.0330495728751572  0.9060634397138898
  0.1890611971508349  0.2998103263986565  0.7889450208760991
  0.1798888310952549  0.6381756038020967  0.7774358976897204
  0.1491580225359854  0.9906044814630093  0.7866693320083868
  0.9651328637938548  0.2068631038266631  0.6717020270554670
  0.9577202493492649  0.5868612244311180  0.6842609007753282
  0.9700059208733336  0.8922286772472887  0.6758162766327516
  0.7016809026562356  0.1707738970712569  0.5873442587240731
  0.7418933680395838  0.4923159546509339  0.5981268126778190
  0.7284841204418768  0.8230416437452703  0.5929633617830490
 
  0.00000000E+00  0.00000000E+00  0.00000000E+00
  0.00000000E+00  0.00000000E+00  0.00000000E+00
  0.00000000E+00  0.00000000E+00  0.00000000E+00
  0.00000000E+00  0.00000000E+00  0.00000000E+00
  0.00000000E+00  0.00000000E+00  0.00000000E+00
  0.00000000E+00  0.00000000E+00  0.00000000E+00
  0.00000000E+00  0.00000000E+00  0.00000000E+00
  0.00000000E+00  0.00000000E+00  0.00000000E+00
  0.00000000E+00  0.00000000E+00  0.00000000E+00
  0.00000000E+00  0.00000000E+00  0.00000000E+00
  0.00000000E+00  0.00000000E+00  0.00000000E+00
  0.00000000E+00  0.00000000E+00  0.00000000E+00
  0.00000000E+00  0.00000000E+00  0.00000000E+00
  0.00000000E+00  0.00000000E+00  0.00000000E+00
  0.00000000E+00  0.00000000E+00  0.00000000E+00
  0.00000000E+00  0.00000000E+00  0.00000000E+00
  0.00000000E+00  0.00000000E+00  0.00000000E+00
  0.00000000E+00  0.00000000E+00  0.00000000E+00
  0.00000000E+00  0.00000000E+00  0.00000000E+00
  0.00000000E+00  0.00000000E+00  0.00000000E+00
  0.00000000E+00  0.00000000E+00  0.00000000E+00
  0.00000000E+00  0.00000000E+00  0.00000000E+00
  0.00000000E+00  0.00000000E+00  0.00000000E+00
  0.00000000E+00  0.00000000E+00  0.00000000E+00
  0.00000000E+00  0.00000000E+00  0.00000000E+00
  0.00000000E+00  0.00000000E+00  0.00000000E+00
  0.00000000E+00  0.00000000E+00  0.00000000E+00
  0.00000000E+00  0.00000000E+00  0.00000000E+00
  0.00000000E+00  0.00000000E+00  0.00000000E+00
  0.00000000E+00  0.00000000E+00  0.00000000E+00
  0.00000000E+00  0.00000000E+00  0.00000000E+00
  0.00000000E+00  0.00000000E+00  0.00000000E+00
  0.00000000E+00  0.00000000E+00  0.00000000E+00
  0.00000000E+00  0.00000000E+00  0.00000000E+00
  0.00000000E+00  0.00000000E+00  0.00000000E+00
  0.00000000E+00  0.00000000E+00  0.00000000E+00
  0.00000000E+00  0.00000000E+00  0.00000000E+00
  0.00000000E+00  0.00000000E+00  0.00000000E+00
  0.00000000E+00  0.00000000E+00  0.00000000E+00
  0.00000000E+00  0.00000000E+00  0.00000000E+00
  0.00000000E+00  0.00000000E+00  0.00000000E+00
  0.00000000E+00  0.00000000E+00  0.00000000E+00
  0.00000000E+00  0.00000000E+00  0.00000000E+00
  0.00000000E+00  0.00000000E+00  0.00000000E+00
  0.00000000E+00  0.00000000E+00  0.00000000E+00
  0.00000000E+00  0.00000000E+00  0.00000000E+00
  0.00000000E+00  0.00000000E+00  0.00000000E+00
  0.00000000E+00  0.00000000E+00  0.00000000E+00
  0.00000000E+00  0.00000000E+00  0.00000000E+00
  0.00000000E+00  0.00000000E+00  0.00000000E+00
  0.00000000E+00  0.00000000E+00  0.00000000E+00
  0.00000000E+00  0.00000000E+00  0.00000000E+00
  0.00000000E+00  0.00000000E+00  0.00000000E+00
  0.00000000E+00  0.00000000E+00  0.00000000E+00
  0.00000000E+00  0.00000000E+00  0.00000000E+00
  0.00000000E+00  0.00000000E+00  0.00000000E+00
  0.00000000E+00  0.00000000E+00  0.00000000E+00
  0.00000000E+00  0.00000000E+00  0.00000000E+00
  0.00000000E+00  0.00000000E+00  0.00000000E+00
  0.00000000E+00  0.00000000E+00  0.00000000E+00
  0.00000000E+00  0.00000000E+00  0.00000000E+00
  0.00000000E+00  0.00000000E+00  0.00000000E+00
  0.00000000E+00  0.00000000E+00  0.00000000E+00
  0.00000000E+00  0.00000000E+00  0.00000000E+00
  0.00000000E+00  0.00000000E+00  0.00000000E+00
  0.00000000E+00  0.00000000E+00  0.00000000E+00
  0.00000000E+00  0.00000000E+00  0.00000000E+00
  0.00000000E+00  0.00000000E+00  0.00000000E+00
  0.00000000E+00  0.00000000E+00  0.00000000E+00
  0.00000000E+00  0.00000000E+00  0.00000000E+00
  0.00000000E+00  0.00000000E+00  0.00000000E+00
  0.00000000E+00  0.00000000E+00  0.00000000E+00
  0.00000000E+00  0.00000000E+00  0.00000000E+00
  0.00000000E+00  0.00000000E+00  0.00000000E+00
  0.00000000E+00  0.00000000E+00  0.00000000E+00
  0.00000000E+00  0.00000000E+00  0.00000000E+00
  0.00000000E+00  0.00000000E+00  0.00000000E+00
  0.00000000E+00  0.00000000E+00  0.00000000E+00
  0.00000000E+00  0.00000000E+00  0.00000000E+00
  0.00000000E+00  0.00000000E+00  0.00000000E+00
  0.00000000E+00  0.00000000E+00  0.00000000E+00
  0.00000000E+00  0.00000000E+00  0.00000000E+00
  0.00000000E+00  0.00000000E+00  0.00000000E+00
  0.00000000E+00  0.00000000E+00  0.00000000E+00
  0.00000000E+00  0.00000000E+00  0.00000000E+00
  0.00000000E+00  0.00000000E+00  0.00000000E+00
  0.00000000E+00  0.00000000E+00  0.00000000E+00
  0.00000000E+00  0.00000000E+00  0.00000000E+00
  0.00000000E+00  0.00000000E+00  0.00000000E+00
  0.00000000E+00  0.00000000E+00  0.00000000E+00
  0.00000000E+00  0.00000000E+00  0.00000000E+00
  0.00000000E+00  0.00000000E+00  0.00000000E+00
  0.00000000E+00  0.00000000E+00  0.00000000E+00
  0.00000000E+00  0.00000000E+00  0.00000000E+00
  0.00000000E+00  0.00000000E+00  0.00000000E+00
  0.00000000E+00  0.00000000E+00  0.00000000E+00
  0.00000000E+00  0.00000000E+00  0.00000000E+00
  0.00000000E+00  0.00000000E+00  0.00000000E+00
  0.00000000E+00  0.00000000E+00  0.00000000E+00
  0.00000000E+00  0.00000000E+00  0.00000000E+00
  0.00000000E+00  0.00000000E+00  0.00000000E+00
  0.00000000E+00  0.00000000E+00  0.00000000E+00
  0.00000000E+00  0.00000000E+00  0.00000000E+00
  0.00000000E+00  0.00000000E+00  0.00000000E+00
  0.00000000E+00  0.00000000E+00  0.00000000E+00
  0.00000000E+00  0.00000000E+00  0.00000000E+00
  0.00000000E+00  0.00000000E+00  0.00000000E+00
  0.00000000E+00  0.00000000E+00  0.00000000E+00
