generated by phonopy                    
   1.00000000000000     
    10.0351470768999995   -0.0000022330999784   -0.0000001056124209
    -5.0175765436399997    8.6906901959899994    0.0000001395531216
    -0.0000001735893656    0.0000001431815548   14.9533752540999991
   Pb   P    Cu   O 
    20    12     1    49
Direct
  0.0060481372941936  0.7715062635365442  0.1236184644097023
  0.9983055114916155  0.7709270652016613  0.6234390389285025
  0.0013075782818461  0.2578759872576839  0.3782384319597583
  0.0013669461243353  0.2583053082786577  0.8689398614053516
  0.2292736369159201  0.2337790371325710  0.1239307496873181
  0.2300581294967472  0.2255032314960630  0.6235231870015383
  0.7388385035558400  0.7384207560869029  0.3740985316539565
  0.7391195194073177  0.7387181403867302  0.8730635593872407
  0.7878227796195674  0.0116709437406541  0.1235126847293770
  0.7743373924570776  0.0000363506175631  0.6232152734256857
  0.2633168647410784  0.9993985667852954  0.3749819824719864
  0.2632630696201730  0.9991940943384705  0.8729264191556041
  0.6613122900672010  0.3328387037703493  0.0008756744027778
  0.6672643456197420  0.3308610413003805  0.5012908772721119
  0.3046745563077664  0.6622451325421679  0.0011308327123061
  0.3390815012434629  0.6639654351193087  0.5032117150239870
  0.3059075623882279  0.6645822567671331  0.2459735862900203
  0.3402926119637684  0.6651911408505242  0.7441892161091985
  0.6611027146964190  0.3326837938259075  0.2474564265642272
  0.6661556103917121  0.3304891331628497  0.7470344859777498
  0.6426690694921930  0.5972274767126962  0.1239859996186468
  0.6236584122885844  0.5925270697502825  0.6238409249809678
  0.3669437545800207  0.3957283065462320  0.3744901413138280
  0.3669097763424460  0.3960624305185760  0.8736688980333156
  0.3975136700152788  0.0368743407826813  0.1241885325063450
  0.4071333284393006  0.0263534660414990  0.6240474462318417
  0.6086367424657482  0.9726216445185614  0.3737100761126015
  0.6083744853563289  0.9723135259635711  0.8739259171694869
  0.9652106632581479  0.3716834934407416  0.1241148399974250
  0.9733575382290809  0.3733502678686307  0.6240051111698861
  0.0228247409040279  0.6300850772302624  0.3776551901229510
  0.0221474448962553  0.6302194471484555  0.8698979145725900
  0.5267961028169381  0.7298413461651521  0.1230528225906227
  0.4980933719270411  0.6417036557711739  0.6236438282662320
  0.4661660389631024  0.3162424284716892  0.3760224733025623
  0.4658533684037494  0.3162697535526675  0.8729442030467425
  0.3221846699861928  0.8581965596939938  0.1241139581182011
  0.3541497786620695  0.8515696179562013  0.6239129867452249
  0.6852578910684528  0.1506975775650972  0.3789673819553627
  0.6849060564606049  0.1503783657053290  0.8687183797771567
  0.1379658171222573  0.5017600360293528  0.1239412926794472
  0.1481387981786426  0.4953025984281041  0.6236755153445444
  0.8446748793057566  0.5330979637245647  0.3761803910176766
  0.8439206471969669  0.5330318132880834  0.8717350392986134
  0.7489449294529749  0.6401494347825434  0.0374158899798900
  0.7288460635581018  0.6554197248895619  0.5392263526653664
  0.2624057744456536  0.3557004604332334  0.4597495529464908
  0.2578774647463078  0.3504738343578353  0.9564944191566980
  0.3441150959754040  0.0901291574248830  0.0391551464249886
  0.3459489985359241  0.0716927155914320  0.5393177287465178
  0.6371098769670098  0.9013149428161782  0.4598382581447851
  0.6704817590024987  0.9203448059323804  0.9546347639501249
  0.9275288573909464  0.2667982537307765  0.0395051359652285
  0.9268979321267707  0.2656992642447946  0.5397506144410329
  0.0854557362659136  0.7460208410344507  0.4573997613247798
  0.0911054430849561  0.7287578493413776  0.9573172206986840
  0.2567353009334852  0.3471983470146327  0.2921374898128875
  0.2612803881815182  0.3536557372912270  0.7887908764824374
  0.7491491451141314  0.6410963428935830  0.2104719558432038
  0.7294485051076336  0.6571334360712200  0.7081009438987138
  0.6708602035793092  0.9205700167956650  0.2930821730780835
  0.6371840228576104  0.9010766945228923  0.7878412646611892
  0.3434560109074454  0.0899099348375003  0.2090514841310238
  0.3453413543415635  0.0712473642266289  0.7087183152797678
  0.0914288629437365  0.7298198574368868  0.2906164989496034
  0.0840379839274021  0.7473026421442697  0.7907357776552928
  0.9283657876404732  0.2663048894711793  0.2084226588478302
  0.9286298728101059  0.2644701687075965  0.7076036820459564
  0.5428873712290923  0.4146177716399535  0.1242392690376732
  0.5447404865381458  0.4124504535597708  0.6243313172256748
  0.4754015337945106  0.5767369972015928  0.3721906280550726
  0.4757079099149095  0.5770470978683235  0.8743001694465491
  0.5774065244865483  0.1218777574545058  0.1244255671604506
  0.5874731658662640  0.1269504305833493  0.6242527553481807
  0.4276327558687711  0.8998153361099597  0.3630749233278081
  0.4272815608233742  0.8992335184626725  0.8842062275564757
  0.8617106841579272  0.4467424659307824  0.1245201369095454
  0.8729507994861123  0.4531648738279230  0.6248855786260421
  0.0919751049598432  0.5192119921112877  0.3847062131500962
  0.0911945883939609  0.5194518192072834  0.8615969592982538
  0.0037877681542469  0.0001007379340479  0.1229106348172024
  0.0018364780848685  0.9995707628583830  0.6217257648950181
 
  0.00000000E+00  0.00000000E+00  0.00000000E+00
  0.00000000E+00  0.00000000E+00  0.00000000E+00
  0.00000000E+00  0.00000000E+00  0.00000000E+00
  0.00000000E+00  0.00000000E+00  0.00000000E+00
  0.00000000E+00  0.00000000E+00  0.00000000E+00
  0.00000000E+00  0.00000000E+00  0.00000000E+00
  0.00000000E+00  0.00000000E+00  0.00000000E+00
  0.00000000E+00  0.00000000E+00  0.00000000E+00
  0.00000000E+00  0.00000000E+00  0.00000000E+00
  0.00000000E+00  0.00000000E+00  0.00000000E+00
  0.00000000E+00  0.00000000E+00  0.00000000E+00
  0.00000000E+00  0.00000000E+00  0.00000000E+00
  0.00000000E+00  0.00000000E+00  0.00000000E+00
  0.00000000E+00  0.00000000E+00  0.00000000E+00
  0.00000000E+00  0.00000000E+00  0.00000000E+00
  0.00000000E+00  0.00000000E+00  0.00000000E+00
  0.00000000E+00  0.00000000E+00  0.00000000E+00
  0.00000000E+00  0.00000000E+00  0.00000000E+00
  0.00000000E+00  0.00000000E+00  0.00000000E+00
  0.00000000E+00  0.00000000E+00  0.00000000E+00
  0.00000000E+00  0.00000000E+00  0.00000000E+00
  0.00000000E+00  0.00000000E+00  0.00000000E+00
  0.00000000E+00  0.00000000E+00  0.00000000E+00
  0.00000000E+00  0.00000000E+00  0.00000000E+00
  0.00000000E+00  0.00000000E+00  0.00000000E+00
  0.00000000E+00  0.00000000E+00  0.00000000E+00
  0.00000000E+00  0.00000000E+00  0.00000000E+00
  0.00000000E+00  0.00000000E+00  0.00000000E+00
  0.00000000E+00  0.00000000E+00  0.00000000E+00
  0.00000000E+00  0.00000000E+00  0.00000000E+00
  0.00000000E+00  0.00000000E+00  0.00000000E+00
  0.00000000E+00  0.00000000E+00  0.00000000E+00
  0.00000000E+00  0.00000000E+00  0.00000000E+00
  0.00000000E+00  0.00000000E+00  0.00000000E+00
  0.00000000E+00  0.00000000E+00  0.00000000E+00
  0.00000000E+00  0.00000000E+00  0.00000000E+00
  0.00000000E+00  0.00000000E+00  0.00000000E+00
  0.00000000E+00  0.00000000E+00  0.00000000E+00
  0.00000000E+00  0.00000000E+00  0.00000000E+00
  0.00000000E+00  0.00000000E+00  0.00000000E+00
  0.00000000E+00  0.00000000E+00  0.00000000E+00
  0.00000000E+00  0.00000000E+00  0.00000000E+00
  0.00000000E+00  0.00000000E+00  0.00000000E+00
  0.00000000E+00  0.00000000E+00  0.00000000E+00
  0.00000000E+00  0.00000000E+00  0.00000000E+00
  0.00000000E+00  0.00000000E+00  0.00000000E+00
  0.00000000E+00  0.00000000E+00  0.00000000E+00
  0.00000000E+00  0.00000000E+00  0.00000000E+00
  0.00000000E+00  0.00000000E+00  0.00000000E+00
  0.00000000E+00  0.00000000E+00  0.00000000E+00
  0.00000000E+00  0.00000000E+00  0.00000000E+00
  0.00000000E+00  0.00000000E+00  0.00000000E+00
  0.00000000E+00  0.00000000E+00  0.00000000E+00
  0.00000000E+00  0.00000000E+00  0.00000000E+00
  0.00000000E+00  0.00000000E+00  0.00000000E+00
  0.00000000E+00  0.00000000E+00  0.00000000E+00
  0.00000000E+00  0.00000000E+00  0.00000000E+00
  0.00000000E+00  0.00000000E+00  0.00000000E+00
  0.00000000E+00  0.00000000E+00  0.00000000E+00
  0.00000000E+00  0.00000000E+00  0.00000000E+00
  0.00000000E+00  0.00000000E+00  0.00000000E+00
  0.00000000E+00  0.00000000E+00  0.00000000E+00
  0.00000000E+00  0.00000000E+00  0.00000000E+00
  0.00000000E+00  0.00000000E+00  0.00000000E+00
  0.00000000E+00  0.00000000E+00  0.00000000E+00
  0.00000000E+00  0.00000000E+00  0.00000000E+00
  0.00000000E+00  0.00000000E+00  0.00000000E+00
  0.00000000E+00  0.00000000E+00  0.00000000E+00
  0.00000000E+00  0.00000000E+00  0.00000000E+00
  0.00000000E+00  0.00000000E+00  0.00000000E+00
  0.00000000E+00  0.00000000E+00  0.00000000E+00
  0.00000000E+00  0.00000000E+00  0.00000000E+00
  0.00000000E+00  0.00000000E+00  0.00000000E+00
  0.00000000E+00  0.00000000E+00  0.00000000E+00
  0.00000000E+00  0.00000000E+00  0.00000000E+00
  0.00000000E+00  0.00000000E+00  0.00000000E+00
  0.00000000E+00  0.00000000E+00  0.00000000E+00
  0.00000000E+00  0.00000000E+00  0.00000000E+00
  0.00000000E+00  0.00000000E+00  0.00000000E+00
  0.00000000E+00  0.00000000E+00  0.00000000E+00
  0.00000000E+00  0.00000000E+00  0.00000000E+00
  0.00000000E+00  0.00000000E+00  0.00000000E+00
