generated by phonopy                    
   1.00000000000000     
    10.0238380785000007   -0.0000029819150532    0.0000000729950356
    -5.0119227052499999    8.6808963311100005    0.0000003363014838
     0.0000001300813014    0.0000005524323835   14.8285292020000004
   Pb   P    O 
    19    12    49
Direct
  0.0084684786051454  0.7420156349713807  0.1186869606505851
  0.9983477079114138  0.7723359820887694  0.6282593522346431
  0.0037977411854655  0.2621943192587466  0.3775726331978575
  0.0078384923093822  0.2660075682926504  0.8772199636681250
  0.2579844393509418  0.2664526689693574  0.1186869544478668
  0.2276641513957145  0.2260118629048051  0.6282592631148631
  0.7378057320381473  0.7416036215869113  0.3775727247275995
  0.7339923022615338  0.7418310828244543  0.8772200245733401
  0.7335472294919114  0.9915318139635261  0.1186869658198759
  0.7739879566702257  0.0016521800733287  0.6282589931477176
  0.2583963859073535  0.9962021046752909  0.3775726447561425
  0.2581690380922552  0.9921612574629037  0.8772199618356638
  0.6666666556071021  0.3333333164303056  0.9930295336270518
  0.6666667334966760  0.3333333600697586  0.5009119393864694
  0.3333332128935496  0.6666667175287913  0.5082532725949278
  0.3333334092571434  0.6666666067741360  0.2298139176866485
  0.3333332693303035  0.6666664998539389  0.7593145438934101
  0.6666668538596738  0.3333335567242770  0.2509849847856671
  0.6666665123173559  0.3333333158562723  0.7441354888551714
  0.6293402784418447  0.6049652939341712  0.1246022329864829
  0.6244041687654303  0.5975757423735786  0.6232412379884522
  0.3733094551162495  0.3975784768430373  0.3707599988729484
  0.3714636076751106  0.3926877908315447  0.8760492177682764
  0.3950346604715236  0.0243748305242946  0.1246022484759237
  0.4024242240099696  0.0268284249255117  0.6232412802523797
  0.6024216905865387  0.9757311081401951  0.3707599861993245
  0.6073121051751542  0.9787757971469517  0.8760491659329190
  0.9756251496544905  0.3706598261506642  0.1246022107377769
  0.9731715075204050  0.3755958176925915  0.6232412688308671
  0.0242691385001876  0.6266905763519972  0.3707600314817228
  0.0212240857627819  0.6285362557207179  0.8760491767245639
  0.5337814282550895  0.6872568527607399  0.1284064288052136
  0.5031820903951782  0.6511718019305235  0.6262375680990857
  0.4771747682218219  0.3222637675688560  0.3709668607197329
  0.4764337150440454  0.3182046142645660  0.8740190098877036
  0.3127429896908112  0.8465242652463729  0.1284063626514822
  0.3488280128147139  0.8520101943181615  0.6262376412718567
  0.6777366609159756  0.1549112579418619  0.3709668570053140
  0.6817953237966989  0.1582291876303259  0.8740189684071282
  0.1534757158567359  0.4662186698526725  0.1284063327034346
  0.1479898204360666  0.4968178691053353  0.6262376011190582
  0.8450889874314456  0.5228253544466455  0.3709669012996528
  0.8417706601073434  0.5235661471042974  0.8740190108381185
  0.7414306510166853  0.6609129849162585  0.0415640710460252
  0.7314732164985145  0.6622385108913846  0.5380283626738702
  0.2564247971023050  0.3374378191689473  0.4510508423379846
  0.2607450165485190  0.3320145109549060  0.9590308081126011
  0.3390870475147807  0.0805175777691360  0.0415641168399787
  0.3377614971128011  0.0692346837882951  0.5380284331161818
  0.6625624050797256  0.9189871294578893  0.4510507995122381
  0.6679853564749223  0.9287305472383238  0.9590307663299740
  0.9194822574330317  0.2585695539609958  0.0415640239105741
  0.9307651790577012  0.2685269224260836  0.5380283492196014
  0.0810133701539186  0.7435749800217621  0.4510509788589872
  0.0712695709641054  0.7392547283140658  0.9590308212038181
  0.2767783195109530  0.3625982729173529  0.2823842338898999
  0.2626951153076291  0.3483651318263554  0.7918792665229475
  0.7293084385871182  0.6329378597563533  0.2111521772664275
  0.7323569336852458  0.6558775334025881  0.7080896483301302
  0.6374016937699380  0.9141800880216451  0.2823842293744292
  0.6516347584195685  0.9143299751607614  0.7918792358014386
  0.3670620613058233  0.0963702965570903  0.2111522032503927
  0.3441225457302366  0.0764794575348446  0.7080897028982136
  0.0858201325836419  0.7232219319948427  0.2823843472438625
  0.0856699223499362  0.7373048464627487  0.7918792694055554
  0.9036295462422075  0.2706915444907807  0.2111521190100518
  0.9235204700890876  0.2676430196607384  0.7080896405187360
  0.5212604891037458  0.4241239399318175  0.1143939046768807
  0.5433020286033994  0.4169335479956473  0.6208629000344033
  0.4774215034565970  0.5781010487202991  0.3807185407583447
  0.4747828276044643  0.5727574125576211  0.8758319086218407
  0.5758759818010546  0.0971364522104636  0.1143939055186465
  0.5830664552150893  0.1263685105917958  0.6208629238661771
  0.4218991684780136  0.8993206660566742  0.3807186630095032
  0.4272425195308784  0.9020253683530370  0.8758318609246274
  0.9028636852903773  0.4787396001018678  0.1143940158890757
  0.8736316115865250  0.4566980557056652  0.6208629603193998
  0.1006794580295178  0.5225784244769045  0.3807183811305137
  0.0979743786080292  0.5252170544822832  0.8758317427034399
  0.9999999352709921  0.0000000158811417  0.6355920670817738
 
  0.00000000E+00  0.00000000E+00  0.00000000E+00
  0.00000000E+00  0.00000000E+00  0.00000000E+00
  0.00000000E+00  0.00000000E+00  0.00000000E+00
  0.00000000E+00  0.00000000E+00  0.00000000E+00
  0.00000000E+00  0.00000000E+00  0.00000000E+00
  0.00000000E+00  0.00000000E+00  0.00000000E+00
  0.00000000E+00  0.00000000E+00  0.00000000E+00
  0.00000000E+00  0.00000000E+00  0.00000000E+00
  0.00000000E+00  0.00000000E+00  0.00000000E+00
  0.00000000E+00  0.00000000E+00  0.00000000E+00
  0.00000000E+00  0.00000000E+00  0.00000000E+00
  0.00000000E+00  0.00000000E+00  0.00000000E+00
  0.00000000E+00  0.00000000E+00  0.00000000E+00
  0.00000000E+00  0.00000000E+00  0.00000000E+00
  0.00000000E+00  0.00000000E+00  0.00000000E+00
  0.00000000E+00  0.00000000E+00  0.00000000E+00
  0.00000000E+00  0.00000000E+00  0.00000000E+00
  0.00000000E+00  0.00000000E+00  0.00000000E+00
  0.00000000E+00  0.00000000E+00  0.00000000E+00
  0.00000000E+00  0.00000000E+00  0.00000000E+00
  0.00000000E+00  0.00000000E+00  0.00000000E+00
  0.00000000E+00  0.00000000E+00  0.00000000E+00
  0.00000000E+00  0.00000000E+00  0.00000000E+00
  0.00000000E+00  0.00000000E+00  0.00000000E+00
  0.00000000E+00  0.00000000E+00  0.00000000E+00
  0.00000000E+00  0.00000000E+00  0.00000000E+00
  0.00000000E+00  0.00000000E+00  0.00000000E+00
  0.00000000E+00  0.00000000E+00  0.00000000E+00
  0.00000000E+00  0.00000000E+00  0.00000000E+00
  0.00000000E+00  0.00000000E+00  0.00000000E+00
  0.00000000E+00  0.00000000E+00  0.00000000E+00
  0.00000000E+00  0.00000000E+00  0.00000000E+00
  0.00000000E+00  0.00000000E+00  0.00000000E+00
  0.00000000E+00  0.00000000E+00  0.00000000E+00
  0.00000000E+00  0.00000000E+00  0.00000000E+00
  0.00000000E+00  0.00000000E+00  0.00000000E+00
  0.00000000E+00  0.00000000E+00  0.00000000E+00
  0.00000000E+00  0.00000000E+00  0.00000000E+00
  0.00000000E+00  0.00000000E+00  0.00000000E+00
  0.00000000E+00  0.00000000E+00  0.00000000E+00
  0.00000000E+00  0.00000000E+00  0.00000000E+00
  0.00000000E+00  0.00000000E+00  0.00000000E+00
  0.00000000E+00  0.00000000E+00  0.00000000E+00
  0.00000000E+00  0.00000000E+00  0.00000000E+00
  0.00000000E+00  0.00000000E+00  0.00000000E+00
  0.00000000E+00  0.00000000E+00  0.00000000E+00
  0.00000000E+00  0.00000000E+00  0.00000000E+00
  0.00000000E+00  0.00000000E+00  0.00000000E+00
  0.00000000E+00  0.00000000E+00  0.00000000E+00
  0.00000000E+00  0.00000000E+00  0.00000000E+00
  0.00000000E+00  0.00000000E+00  0.00000000E+00
  0.00000000E+00  0.00000000E+00  0.00000000E+00
  0.00000000E+00  0.00000000E+00  0.00000000E+00
  0.00000000E+00  0.00000000E+00  0.00000000E+00
  0.00000000E+00  0.00000000E+00  0.00000000E+00
  0.00000000E+00  0.00000000E+00  0.00000000E+00
  0.00000000E+00  0.00000000E+00  0.00000000E+00
  0.00000000E+00  0.00000000E+00  0.00000000E+00
  0.00000000E+00  0.00000000E+00  0.00000000E+00
  0.00000000E+00  0.00000000E+00  0.00000000E+00
  0.00000000E+00  0.00000000E+00  0.00000000E+00
  0.00000000E+00  0.00000000E+00  0.00000000E+00
  0.00000000E+00  0.00000000E+00  0.00000000E+00
  0.00000000E+00  0.00000000E+00  0.00000000E+00
  0.00000000E+00  0.00000000E+00  0.00000000E+00
  0.00000000E+00  0.00000000E+00  0.00000000E+00
  0.00000000E+00  0.00000000E+00  0.00000000E+00
  0.00000000E+00  0.00000000E+00  0.00000000E+00
  0.00000000E+00  0.00000000E+00  0.00000000E+00
  0.00000000E+00  0.00000000E+00  0.00000000E+00
  0.00000000E+00  0.00000000E+00  0.00000000E+00
  0.00000000E+00  0.00000000E+00  0.00000000E+00
  0.00000000E+00  0.00000000E+00  0.00000000E+00
  0.00000000E+00  0.00000000E+00  0.00000000E+00
  0.00000000E+00  0.00000000E+00  0.00000000E+00
  0.00000000E+00  0.00000000E+00  0.00000000E+00
  0.00000000E+00  0.00000000E+00  0.00000000E+00
  0.00000000E+00  0.00000000E+00  0.00000000E+00
  0.00000000E+00  0.00000000E+00  0.00000000E+00
  0.00000000E+00  0.00000000E+00  0.00000000E+00
