supercell of icsd_608626.cif            
   1.09760854154722     
     9.3338267076788490    0.0233184272691769   -0.0079079634928555
    -4.6467052278180256    8.0141022300754869    0.0174164952209951
    -0.0089720339857445    0.0162125173863475    9.4303368366348277
   Al   Y    N 
    22    14    36
Direct
  0.2416571547309729  0.1200428544202765  0.2459796647963515
  0.7895111835411726  0.2294486302525769  0.9969531899538069
  0.4485506344332606  0.2234975357297913  0.5076741391532309
  0.2319627173569643  0.1269621861882939  0.7561042914326777
  0.1047812295054982  0.2316057542409524  0.0148175102925521
  0.8830715905871500  0.1224624926993840  0.2526186721764461
  0.7651800144193572  0.2228961153786173  0.5017602905375753
  0.5562203163555566  0.1052002077934731  0.7393560953052898
  0.2280251211394315  0.4524033721172103  0.2476647978523587
  0.8768560062748421  0.4448993536911985  0.7565229928264614
  0.7755515704813405  0.5436419076350489  0.0074889092834241
  0.5399758767799199  0.4343990737322869  0.2561697739339337
  0.4414413360624110  0.5529063446008493  0.4929238249674768
  0.1030558495781335  0.5512436220620103  0.0079344002987654
  0.8796961782264034  0.4290175940695491  0.2389963072620702
  0.5617089898271033  0.4455930314409926  0.7429112189857889
  0.2385427271291363  0.7823687332957903  0.2393709051258881
  0.5364778744597132  0.7665098437669400  0.2588846736372119
  0.4446033085951200  0.8851669148927144  0.5035858677277361
  0.2273375570270559  0.7759279653437687  0.7597213039898136
  0.5459907309310381  0.7723792425215166  0.7415137122322761
  0.4407786618977951  0.8706889377805993  0.9890211267619833
  0.1196521593465434  0.2212618996040376  0.4668229247970572
  0.8908995519002971  0.1231621050029830  0.7418755839226634
  0.5518957916626803  0.1034568563901601  0.2477108088919238
  0.4593571795521214  0.2261543836211573  0.9760448516167912
  0.1041254156309890  0.5602187699069461  0.4740252928959166
  0.2207248042842096  0.4528544489708182  0.7458580030818283
  0.7636876135403341  0.5371173047298470  0.4849495606837664
  0.4380081953776838  0.5440505200487635  0.9987091061846272
  0.1464807093592171  0.9035037306538456  0.5101095436540533
  0.8824820184729631  0.7655441456214263  0.7538124908696417
  0.7583883259556714  0.8972889172207772  0.0037086396870976
  0.1296406020410430  0.9009777735749722  0.9812096063437394
  0.9004618814428937  0.7785618271306092  0.2314309158410097
  0.7637421022784423  0.8871547544365512  0.4822469297496923
  0.2627125708970581  0.1244284498356194  0.4254126989211002
  0.1093822592661624  0.2207715457715906  0.2090628152578944
  0.9050626003643245  0.1391412753844889  0.9554698465843003
  0.7644345334568285  0.2402910144457948  0.6866328983050138
  0.5524114498158212  0.1077795462219839  0.4695394744302632
  0.4402196175759130  0.2385258155393757  0.1891452068598767
  0.2186403191371014  0.1506795072273448  0.9374025120306158
  0.1284115008837290  0.2147576630290047  0.6811393792452876
  0.8712545791713211  0.1296746373088808  0.4379093595259818
  0.7947001719901081  0.2294760986230173  0.1782336897276835
  0.5750535933250518  0.0881258566836749  0.9327936091137516
  0.4454245812624436  0.2214390870859475  0.7030619297363927
  0.2434104170489775  0.4622134604076109  0.4319814234078194
  0.1050655390015649  0.5583457581699136  0.1998159663588126
  0.8869401367592147  0.4454199882156260  0.9470248399072148
  0.7634144295556666  0.5293814330483855  0.6966154768753654
  0.5230776871765102  0.4271292131411073  0.4400021969031940
  0.4471756449449416  0.5557374910533284  0.2120757579925510
  0.1912378895146603  0.4351243456525822  0.9643874305596469
  0.0867069467567276  0.5728063430416768  0.6957099218111864
  0.8657049142614781  0.4091095207823159  0.4169548187607504
  0.7554747954709029  0.5201505562196402  0.1964694599649803
  0.5881385808548529  0.4626225203743317  0.9237514777607601
  0.4656428167561373  0.5615930442517580  0.6829998217019906
  0.2603585230376311  0.7974957972576391  0.4187324611270284
  0.1557206084368943  0.9113520005870299  0.1982307306770821
  0.8785095248066952  0.7598414133445743  0.9838091791682757
  0.7530739606939747  0.8790006607960663  0.7058511471215070
  0.5223972693093231  0.7613596957633817  0.4407929996228148
  0.4370332150623923  0.8577044902959656  0.1737320711483719
  0.2334200968044158  0.7553906004048656  0.9405645311238118
  0.1448033435056360  0.9091762716529246  0.7370533649950701
  0.9080608890245188  0.7838074289214205  0.4537912897828633
  0.7589485287140505  0.8999787099704690  0.2266407388726535
  0.5319815827628602  0.7704398828106989  0.9200482390239344
  0.4354719024097093  0.8791597261132580  0.6886733088412313
 
  0.00000000E+00  0.00000000E+00  0.00000000E+00
  0.00000000E+00  0.00000000E+00  0.00000000E+00
  0.00000000E+00  0.00000000E+00  0.00000000E+00
  0.00000000E+00  0.00000000E+00  0.00000000E+00
  0.00000000E+00  0.00000000E+00  0.00000000E+00
  0.00000000E+00  0.00000000E+00  0.00000000E+00
  0.00000000E+00  0.00000000E+00  0.00000000E+00
  0.00000000E+00  0.00000000E+00  0.00000000E+00
  0.00000000E+00  0.00000000E+00  0.00000000E+00
  0.00000000E+00  0.00000000E+00  0.00000000E+00
  0.00000000E+00  0.00000000E+00  0.00000000E+00
  0.00000000E+00  0.00000000E+00  0.00000000E+00
  0.00000000E+00  0.00000000E+00  0.00000000E+00
  0.00000000E+00  0.00000000E+00  0.00000000E+00
  0.00000000E+00  0.00000000E+00  0.00000000E+00
  0.00000000E+00  0.00000000E+00  0.00000000E+00
  0.00000000E+00  0.00000000E+00  0.00000000E+00
  0.00000000E+00  0.00000000E+00  0.00000000E+00
  0.00000000E+00  0.00000000E+00  0.00000000E+00
  0.00000000E+00  0.00000000E+00  0.00000000E+00
  0.00000000E+00  0.00000000E+00  0.00000000E+00
  0.00000000E+00  0.00000000E+00  0.00000000E+00
  0.00000000E+00  0.00000000E+00  0.00000000E+00
  0.00000000E+00  0.00000000E+00  0.00000000E+00
  0.00000000E+00  0.00000000E+00  0.00000000E+00
  0.00000000E+00  0.00000000E+00  0.00000000E+00
  0.00000000E+00  0.00000000E+00  0.00000000E+00
  0.00000000E+00  0.00000000E+00  0.00000000E+00
  0.00000000E+00  0.00000000E+00  0.00000000E+00
  0.00000000E+00  0.00000000E+00  0.00000000E+00
  0.00000000E+00  0.00000000E+00  0.00000000E+00
  0.00000000E+00  0.00000000E+00  0.00000000E+00
  0.00000000E+00  0.00000000E+00  0.00000000E+00
  0.00000000E+00  0.00000000E+00  0.00000000E+00
  0.00000000E+00  0.00000000E+00  0.00000000E+00
  0.00000000E+00  0.00000000E+00  0.00000000E+00
  0.00000000E+00  0.00000000E+00  0.00000000E+00
  0.00000000E+00  0.00000000E+00  0.00000000E+00
  0.00000000E+00  0.00000000E+00  0.00000000E+00
  0.00000000E+00  0.00000000E+00  0.00000000E+00
  0.00000000E+00  0.00000000E+00  0.00000000E+00
  0.00000000E+00  0.00000000E+00  0.00000000E+00
  0.00000000E+00  0.00000000E+00  0.00000000E+00
  0.00000000E+00  0.00000000E+00  0.00000000E+00
  0.00000000E+00  0.00000000E+00  0.00000000E+00
  0.00000000E+00  0.00000000E+00  0.00000000E+00
  0.00000000E+00  0.00000000E+00  0.00000000E+00
  0.00000000E+00  0.00000000E+00  0.00000000E+00
  0.00000000E+00  0.00000000E+00  0.00000000E+00
  0.00000000E+00  0.00000000E+00  0.00000000E+00
  0.00000000E+00  0.00000000E+00  0.00000000E+00
  0.00000000E+00  0.00000000E+00  0.00000000E+00
  0.00000000E+00  0.00000000E+00  0.00000000E+00
  0.00000000E+00  0.00000000E+00  0.00000000E+00
  0.00000000E+00  0.00000000E+00  0.00000000E+00
  0.00000000E+00  0.00000000E+00  0.00000000E+00
  0.00000000E+00  0.00000000E+00  0.00000000E+00
  0.00000000E+00  0.00000000E+00  0.00000000E+00
  0.00000000E+00  0.00000000E+00  0.00000000E+00
  0.00000000E+00  0.00000000E+00  0.00000000E+00
  0.00000000E+00  0.00000000E+00  0.00000000E+00
  0.00000000E+00  0.00000000E+00  0.00000000E+00
  0.00000000E+00  0.00000000E+00  0.00000000E+00
  0.00000000E+00  0.00000000E+00  0.00000000E+00
  0.00000000E+00  0.00000000E+00  0.00000000E+00
  0.00000000E+00  0.00000000E+00  0.00000000E+00
  0.00000000E+00  0.00000000E+00  0.00000000E+00
  0.00000000E+00  0.00000000E+00  0.00000000E+00
  0.00000000E+00  0.00000000E+00  0.00000000E+00
  0.00000000E+00  0.00000000E+00  0.00000000E+00
  0.00000000E+00  0.00000000E+00  0.00000000E+00
  0.00000000E+00  0.00000000E+00  0.00000000E+00
