supercell of 100% icsd_608626.cif, 0% i 
   1.00000000000000     
    -9.7779956726786814    0.0416894039685376   -0.0659446514021064
    -4.9259619901203191    8.4122665248027726    0.0774538555251362
    -0.0710216572347629   -0.1360118544248700  -10.4114132510354800
   Sr   Al   Ge   N 
     5    26     5    36
Direct
  0.1396218806364473  0.0657171089138942  0.2590693256152505
  0.5712186043011513  0.5388754608335589  0.0580838795258529
  0.2398529235868168  0.8250839753388064  0.0018811609750173
  0.7787512978868634  0.7634402114630561  0.8030682143969514
  0.5468362883693629  0.8700626260771216  0.0523360729721247
  0.2278859734557983  0.2139766662976328  0.0287759391344764
  0.8950781434965549  0.2074609882391130  0.5499264471137550
  0.4411077936633134  0.1044988016905961  0.2979052913301032
  0.5437381527300431  0.2129450035154363  0.0544038881556332
  0.1147425316261277  0.1017009711326935  0.8101859089607899
  0.2168759952815904  0.2119310760915596  0.5466458546310449
  0.8987540800083025  0.2054639104375298  0.0309770306726946
  0.4407346522330400  0.1016805386604887  0.7836094209310929
  0.1230484197700221  0.4204531160256693  0.2966237448631759
  0.2157746954874682  0.5331444844391271  0.0652120255893252
  0.7712222356392289  0.4315102318976827  0.7844171939711657
  0.8866441705626897  0.5423938701666202  0.5406736160658312
  0.4385984812548926  0.4333855518696268  0.2989145112960472
  0.2135491186490412  0.5415394541012404  0.5428328533818600
  0.7856530575935849  0.4151745596237930  0.3059927113156036
  0.9133247619991707  0.5104994617686387  0.0613890225961171
  0.4395153367828044  0.4382215882809675  0.7921225651776282
  0.5625924868640695  0.5345471172429015  0.5440198555319142
  0.1219065075551100  0.7501009023984082  0.3081229325905426
  0.8839086639396569  0.8686817467120562  0.5395697899728304
  0.4346646615422429  0.7522727385377550  0.3349996506082746
  0.1023763322426134  0.7686761641822315  0.7792804082752411
  0.2113331398353964  0.8780086548245976  0.5732044784564394
  0.8994006944742807  0.8659197557910119  0.0640116404217324
  0.4398610170216841  0.7685266508015474  0.7548722645987880
  0.5600701237455681  0.8746102041709491  0.5380773173080158
  0.7751911124805275  0.1015006384315527  0.8030810363407426
  0.7771454633710420  0.0993921456953615  0.2988006668449046
  0.5524413412499172  0.2093444238983224  0.5452424394355546
  0.1082314329661784  0.4338120355512771  0.7960641430587216
  0.7825647695620077  0.7545847401216648  0.2980931805926303
  0.2372414355117272  0.2208954209212450  0.3706892919954328
  0.1156999542791226  0.1062221014108502  0.0099937744434513
  0.8639359616548177  0.2224123068041166  0.8466145607103357
  0.7732261765160402  0.0948538387011695  0.6112132622343154
  0.5590400721407960  0.2058389605746243  0.3605131949447795
  0.4226840257509821  0.1316242348596433  0.1186436209949449
  0.2321345489175144  0.2256554530304911  0.8414869646177863
  0.1039957278829036  0.1146341567279237  0.6096013764796098
  0.8668089409945381  0.2066191475878938  0.3722747436256952
  0.7761098825363106  0.0966935518250907  0.1132715043215455
  0.5540888528211312  0.2095398618722228  0.8575918141492025
  0.4465333701412462  0.1033717458413577  0.5987351954549496
  0.2218829202448518  0.5329707357009283  0.3618964310958361
  0.1212288366110386  0.4162603313079529  0.1111043304652171
  0.9069029944966900  0.4935865476022556  0.8733731554773669
  0.7815588432962386  0.4307132002828311  0.6002763685406052
  0.5647274582604496  0.5221789038775029  0.3598030175884546
  0.4266234972375145  0.4199075012129541  0.1188571457171790
  0.2137295820650422  0.5510245769546458  0.8587184166425743
  0.1038857152207555  0.4363946471386413  0.6105817383182810
  0.8958448073421010  0.5334061946835860  0.3569229719937326
  0.8339085948012794  0.3876107519128311  0.1315129876384873
  0.5449873347172058  0.5538696545595201  0.8169657670120074
  0.4398069701602978  0.4271666242715781  0.6034521173395291
  0.2213626880375656  0.8406168345377409  0.3958142613119406
  0.0977316447237229  0.7427623816581672  0.1311726849950574
  0.9111169882832755  0.9014990036765127  0.8795376053086699
  0.7758171905411473  0.7626194947065983  0.5742858914034841
  0.5626541553787732  0.8811887400583487  0.3532246259168943
  0.4062870450770006  0.7837616804782641  0.1661883588510449
  0.2173513726129954  0.8719518133770876  0.7698569127527435
  0.0882875768315685  0.7544011405012157  0.6031198442257306
  0.8829507562800174  0.8792509049848150  0.3555451499051259
  0.8163047079835195  0.7313467920851338  0.1174628492575138
  0.5023982009963674  0.8995028337372446  0.8233627040750306
  0.4569348277888281  0.7585103553126160  0.5738488774875350
 
  0.00000000E+00  0.00000000E+00  0.00000000E+00
  0.00000000E+00  0.00000000E+00  0.00000000E+00
  0.00000000E+00  0.00000000E+00  0.00000000E+00
  0.00000000E+00  0.00000000E+00  0.00000000E+00
  0.00000000E+00  0.00000000E+00  0.00000000E+00
  0.00000000E+00  0.00000000E+00  0.00000000E+00
  0.00000000E+00  0.00000000E+00  0.00000000E+00
  0.00000000E+00  0.00000000E+00  0.00000000E+00
  0.00000000E+00  0.00000000E+00  0.00000000E+00
  0.00000000E+00  0.00000000E+00  0.00000000E+00
  0.00000000E+00  0.00000000E+00  0.00000000E+00
  0.00000000E+00  0.00000000E+00  0.00000000E+00
  0.00000000E+00  0.00000000E+00  0.00000000E+00
  0.00000000E+00  0.00000000E+00  0.00000000E+00
  0.00000000E+00  0.00000000E+00  0.00000000E+00
  0.00000000E+00  0.00000000E+00  0.00000000E+00
  0.00000000E+00  0.00000000E+00  0.00000000E+00
  0.00000000E+00  0.00000000E+00  0.00000000E+00
  0.00000000E+00  0.00000000E+00  0.00000000E+00
  0.00000000E+00  0.00000000E+00  0.00000000E+00
  0.00000000E+00  0.00000000E+00  0.00000000E+00
  0.00000000E+00  0.00000000E+00  0.00000000E+00
  0.00000000E+00  0.00000000E+00  0.00000000E+00
  0.00000000E+00  0.00000000E+00  0.00000000E+00
  0.00000000E+00  0.00000000E+00  0.00000000E+00
  0.00000000E+00  0.00000000E+00  0.00000000E+00
  0.00000000E+00  0.00000000E+00  0.00000000E+00
  0.00000000E+00  0.00000000E+00  0.00000000E+00
  0.00000000E+00  0.00000000E+00  0.00000000E+00
  0.00000000E+00  0.00000000E+00  0.00000000E+00
  0.00000000E+00  0.00000000E+00  0.00000000E+00
  0.00000000E+00  0.00000000E+00  0.00000000E+00
  0.00000000E+00  0.00000000E+00  0.00000000E+00
  0.00000000E+00  0.00000000E+00  0.00000000E+00
  0.00000000E+00  0.00000000E+00  0.00000000E+00
  0.00000000E+00  0.00000000E+00  0.00000000E+00
  0.00000000E+00  0.00000000E+00  0.00000000E+00
  0.00000000E+00  0.00000000E+00  0.00000000E+00
  0.00000000E+00  0.00000000E+00  0.00000000E+00
  0.00000000E+00  0.00000000E+00  0.00000000E+00
  0.00000000E+00  0.00000000E+00  0.00000000E+00
  0.00000000E+00  0.00000000E+00  0.00000000E+00
  0.00000000E+00  0.00000000E+00  0.00000000E+00
  0.00000000E+00  0.00000000E+00  0.00000000E+00
  0.00000000E+00  0.00000000E+00  0.00000000E+00
  0.00000000E+00  0.00000000E+00  0.00000000E+00
  0.00000000E+00  0.00000000E+00  0.00000000E+00
  0.00000000E+00  0.00000000E+00  0.00000000E+00
  0.00000000E+00  0.00000000E+00  0.00000000E+00
  0.00000000E+00  0.00000000E+00  0.00000000E+00
  0.00000000E+00  0.00000000E+00  0.00000000E+00
  0.00000000E+00  0.00000000E+00  0.00000000E+00
  0.00000000E+00  0.00000000E+00  0.00000000E+00
  0.00000000E+00  0.00000000E+00  0.00000000E+00
  0.00000000E+00  0.00000000E+00  0.00000000E+00
  0.00000000E+00  0.00000000E+00  0.00000000E+00
  0.00000000E+00  0.00000000E+00  0.00000000E+00
  0.00000000E+00  0.00000000E+00  0.00000000E+00
  0.00000000E+00  0.00000000E+00  0.00000000E+00
  0.00000000E+00  0.00000000E+00  0.00000000E+00
  0.00000000E+00  0.00000000E+00  0.00000000E+00
  0.00000000E+00  0.00000000E+00  0.00000000E+00
  0.00000000E+00  0.00000000E+00  0.00000000E+00
  0.00000000E+00  0.00000000E+00  0.00000000E+00
  0.00000000E+00  0.00000000E+00  0.00000000E+00
  0.00000000E+00  0.00000000E+00  0.00000000E+00
  0.00000000E+00  0.00000000E+00  0.00000000E+00
  0.00000000E+00  0.00000000E+00  0.00000000E+00
  0.00000000E+00  0.00000000E+00  0.00000000E+00
  0.00000000E+00  0.00000000E+00  0.00000000E+00
  0.00000000E+00  0.00000000E+00  0.00000000E+00
  0.00000000E+00  0.00000000E+00  0.00000000E+00
