supercell of 100% icsd_608626.cif, 0% i 
   1.00000000000000     
    -9.8112761680730163    0.0378806544017887    0.0121094936254045
    -4.9385253669019669    8.4156530978673629    0.0092143367461246
     0.0129408798152617   -0.0037291810759070  -10.4519668953220002
   Al   Ge   Sr   N 
    26     5     5    36
Direct
  0.1108709548142244  0.0943133741938169  0.2990140099421126
  0.2117421738494727  0.2089479579339368  0.0527870001753641
  0.7771272139273009  0.1054648054100937  0.7893576303709011
  0.8938993731856684  0.2090370572784437  0.5497181314700512
  0.5589537882006255  0.1928782366591122  0.0591534459577971
  0.1046259740758515  0.1025150945431577  0.7848224001808362
  0.2173095409173769  0.2108079916434775  0.5376859365280211
  0.7899758708691564  0.0887891783675414  0.3040880747442500
  0.1079789169841021  0.4239370668762419  0.2913130199986043
  0.2173383263459812  0.5352033851656444  0.0514894350822601
  0.7822667581024092  0.4276494033736924  0.7734257802683260
  0.8989702456047510  0.5334137833918291  0.5502508972226607
  0.1007174718991806  0.4262400379143756  0.7984177908708858
  0.2167517908945129  0.5305540543827192  0.5570897265227686
  0.7970827207158990  0.4207797242046780  0.2987026181577335
  0.8971162081738626  0.5392334962320078  0.0344385777299721
  0.4528865668674271  0.4243586367412675  0.7973264641709576
  0.2281048541295050  0.8808418561303526  0.0510143352904393
  0.7751936050171651  0.7548891645878939  0.8100025957497010
  0.8900714150462719  0.8697325171703127  0.5557986281355625
  0.4363079434427846  0.7664857470439301  0.2833871524602998
  0.5576513628074196  0.8655270400051052  0.0359801260112107
  0.2210436221772554  0.8832590760529158  0.5473973060669763
  0.8847327785199184  0.8733786005293140  0.0402895523779705
  0.4442600945061415  0.7647839358141297  0.7876440277575654
  0.5484251966174085  0.8784673761444779  0.5429522538609319
  0.4344379150912232  0.0881128169704155  0.2904945632490481
  0.5481448617939577  0.2002289025182122  0.5422372220462606
  0.4416501163219380  0.4283565349002458  0.2902792496982016
  0.1147148439568682  0.7666203966062639  0.3016285138303019
  0.1151479176216199  0.7626660515714931  0.8002376332486776
  0.8851954954662915  0.2028052137314518  0.0374063691779085
  0.4398356321482169  0.1093781516213852  0.7972042477710275
  0.5625449011441503  0.5293279028772773  0.0401676555994612
  0.5420188504664409  0.5450565130130656  0.5482347157391345
  0.7833022966290386  0.7562987190558772  0.2821403292029174
  0.2225042665402626  0.2090333075360817  0.3504651496911109
  0.1400477456096851  0.0812215022290914  0.1247411365773274
  0.8893041412515430  0.2058179294570053  0.8067141563415419
  0.7648102616167876  0.0974234360544983  0.6014045098878995
  0.5552195628702208  0.2055868272232644  0.3561216110574321
  0.4421076981503376  0.0906077598421717  0.1033077645576128
  0.1771997209796083  0.2232003200679173  0.8733782679747222
  0.1134479526442860  0.0982605736283091  0.5957634938363441
  0.8908953353299225  0.2018984623831983  0.3579782667891749
  0.7616664752460238  0.0634994330089285  0.1322138372232828
  0.5861703814071006  0.2278235865472595  0.8846347579964089
  0.4404015018260665  0.0970696023289364  0.5686017715915099
  0.2226422421643264  0.5410981219241080  0.3639145141548852
  0.1105196894418512  0.4336905489451297  0.1074033657420657
  0.8884542839086578  0.5342754536177097  0.8475723504256933
  0.8094499583120864  0.4175928431956066  0.5986441641616125
  0.5535928412041713  0.5354774436498246  0.3133557346667928
  0.4200925947703951  0.4022937626897587  0.1208696260568090
  0.2216282665329672  0.5417875202765359  0.8624519325334674
  0.1144089216551336  0.4241175228869309  0.6134504327558190
  0.9187620960714611  0.5007504548718202  0.3752731458220921
  0.8102610211603221  0.4496034986282851  0.1291464288002615
  0.5544257624975870  0.5411316761548761  0.8027997668497449
  0.4225957073304585  0.3949382915291153  0.6212583873117623
  0.2261460929693513  0.8656009384621299  0.3602279938334831
  0.1136014163872474  0.7618639142047812  0.1119911022742599
  0.8950791446693245  0.8787766017196219  0.8497990411362224
  0.7760545508162480  0.7641998060265038  0.6044016301604245
  0.5189277457243477  0.8848804714723144  0.3600718342494460
  0.4325850668950864  0.7928585654883449  0.1090330262098220
  0.2171082310078205  0.8753670764694519  0.8593532680939688
  0.1183496459017448  0.7575194506070702  0.6144271308178659
  0.9179345442747504  0.8832839071858913  0.3786530007660360
  0.7832592349428111  0.7612155109982695  0.0526567443049473
  0.5635219738778403  0.8421787532717460  0.8597185676978754
  0.4184263256807128  0.8137153247613611  0.6146246709830905
 
  0.00000000E+00  0.00000000E+00  0.00000000E+00
  0.00000000E+00  0.00000000E+00  0.00000000E+00
  0.00000000E+00  0.00000000E+00  0.00000000E+00
  0.00000000E+00  0.00000000E+00  0.00000000E+00
  0.00000000E+00  0.00000000E+00  0.00000000E+00
  0.00000000E+00  0.00000000E+00  0.00000000E+00
  0.00000000E+00  0.00000000E+00  0.00000000E+00
  0.00000000E+00  0.00000000E+00  0.00000000E+00
  0.00000000E+00  0.00000000E+00  0.00000000E+00
  0.00000000E+00  0.00000000E+00  0.00000000E+00
  0.00000000E+00  0.00000000E+00  0.00000000E+00
  0.00000000E+00  0.00000000E+00  0.00000000E+00
  0.00000000E+00  0.00000000E+00  0.00000000E+00
  0.00000000E+00  0.00000000E+00  0.00000000E+00
  0.00000000E+00  0.00000000E+00  0.00000000E+00
  0.00000000E+00  0.00000000E+00  0.00000000E+00
  0.00000000E+00  0.00000000E+00  0.00000000E+00
  0.00000000E+00  0.00000000E+00  0.00000000E+00
  0.00000000E+00  0.00000000E+00  0.00000000E+00
  0.00000000E+00  0.00000000E+00  0.00000000E+00
  0.00000000E+00  0.00000000E+00  0.00000000E+00
  0.00000000E+00  0.00000000E+00  0.00000000E+00
  0.00000000E+00  0.00000000E+00  0.00000000E+00
  0.00000000E+00  0.00000000E+00  0.00000000E+00
  0.00000000E+00  0.00000000E+00  0.00000000E+00
  0.00000000E+00  0.00000000E+00  0.00000000E+00
  0.00000000E+00  0.00000000E+00  0.00000000E+00
  0.00000000E+00  0.00000000E+00  0.00000000E+00
  0.00000000E+00  0.00000000E+00  0.00000000E+00
  0.00000000E+00  0.00000000E+00  0.00000000E+00
  0.00000000E+00  0.00000000E+00  0.00000000E+00
  0.00000000E+00  0.00000000E+00  0.00000000E+00
  0.00000000E+00  0.00000000E+00  0.00000000E+00
  0.00000000E+00  0.00000000E+00  0.00000000E+00
  0.00000000E+00  0.00000000E+00  0.00000000E+00
  0.00000000E+00  0.00000000E+00  0.00000000E+00
  0.00000000E+00  0.00000000E+00  0.00000000E+00
  0.00000000E+00  0.00000000E+00  0.00000000E+00
  0.00000000E+00  0.00000000E+00  0.00000000E+00
  0.00000000E+00  0.00000000E+00  0.00000000E+00
  0.00000000E+00  0.00000000E+00  0.00000000E+00
  0.00000000E+00  0.00000000E+00  0.00000000E+00
  0.00000000E+00  0.00000000E+00  0.00000000E+00
  0.00000000E+00  0.00000000E+00  0.00000000E+00
  0.00000000E+00  0.00000000E+00  0.00000000E+00
  0.00000000E+00  0.00000000E+00  0.00000000E+00
  0.00000000E+00  0.00000000E+00  0.00000000E+00
  0.00000000E+00  0.00000000E+00  0.00000000E+00
  0.00000000E+00  0.00000000E+00  0.00000000E+00
  0.00000000E+00  0.00000000E+00  0.00000000E+00
  0.00000000E+00  0.00000000E+00  0.00000000E+00
  0.00000000E+00  0.00000000E+00  0.00000000E+00
  0.00000000E+00  0.00000000E+00  0.00000000E+00
  0.00000000E+00  0.00000000E+00  0.00000000E+00
  0.00000000E+00  0.00000000E+00  0.00000000E+00
  0.00000000E+00  0.00000000E+00  0.00000000E+00
  0.00000000E+00  0.00000000E+00  0.00000000E+00
  0.00000000E+00  0.00000000E+00  0.00000000E+00
  0.00000000E+00  0.00000000E+00  0.00000000E+00
  0.00000000E+00  0.00000000E+00  0.00000000E+00
  0.00000000E+00  0.00000000E+00  0.00000000E+00
  0.00000000E+00  0.00000000E+00  0.00000000E+00
  0.00000000E+00  0.00000000E+00  0.00000000E+00
  0.00000000E+00  0.00000000E+00  0.00000000E+00
  0.00000000E+00  0.00000000E+00  0.00000000E+00
  0.00000000E+00  0.00000000E+00  0.00000000E+00
  0.00000000E+00  0.00000000E+00  0.00000000E+00
  0.00000000E+00  0.00000000E+00  0.00000000E+00
  0.00000000E+00  0.00000000E+00  0.00000000E+00
  0.00000000E+00  0.00000000E+00  0.00000000E+00
  0.00000000E+00  0.00000000E+00  0.00000000E+00
  0.00000000E+00  0.00000000E+00  0.00000000E+00
