supercell of 100% icsd_608626.cif, 0% i 
   1.00000000000000     
    -9.9679446095838653   -0.0567971043731541    0.0908008227331051
    -4.9347526122868777    8.2950273329891324    0.1306855112964817
     0.0962000880364713   -0.1040220979519721  -10.3455789082484557
   Al   Ge   Sr   N 
    26     5     5    36
Direct
  0.1217304636547567  0.0965734094665933  0.2997347404401438
  0.8813838409486081  0.2075748740162098  0.5245309298707852
  0.4399836415980687  0.0979785804589994  0.2951786399701106
  0.5419891376061514  0.2083778815246831  0.0499727018042364
  0.2337153863752306  0.2119800971693877  0.5486430337081813
  0.7593346845388851  0.0981367053283364  0.3162968935767978
  0.4421854041576552  0.0985119995915937  0.7983385191625132
  0.5453397947118148  0.2119518977850348  0.5281332341742910
  0.2274625101080545  0.5429174011038924  0.0460578971625267
  0.7878961744904700  0.4125172394477516  0.7923259206027851
  0.4414247104203923  0.4333104036830093  0.2948838731719903
  0.1183315279222583  0.4290471177298159  0.8003006903018957
  0.2453221265679773  0.5305599764969600  0.5517811963836508
  0.7772804314677728  0.4298120183203338  0.2874995417453476
  0.8756936973177787  0.5418229229624671  0.0410266075504211
  0.4323271660146375  0.4230606514337012  0.7985938400172117
  0.5552801083477306  0.5275537328760933  0.5498142058565421
  0.1201145044779182  0.7649340364293451  0.2767918164776546
  0.2432985473473792  0.8706015600130002  0.0517676668943565
  0.7645162098388170  0.7681815829344529  0.8213195322385971
  0.4505766191898033  0.7602054950558497  0.3014736994644807
  0.5477167303004933  0.8742185379685168  0.0483075983686376
  0.2406810437318114  0.8655828587725622  0.5387214559050548
  0.7715416101914272  0.7577128103827775  0.2795407821607157
  0.8503638346418541  0.8806671424748558  0.0845819597871582
  0.5585896638084549  0.8814985009323735  0.5566411218824641
  0.2271230277100997  0.2017113436123097  0.0455589728247503
  0.1219248474808126  0.0992859028952608  0.7842354572999994
  0.1102999717849258  0.4329227561169162  0.2936505912890226
  0.5523549670315262  0.5418431710821281  0.0486553492604571
  0.4490662476687959  0.7648180291849300  0.7932406691219427
  0.7579780841007207  0.0836848542976014  0.7553594860255401
  0.8949105834449753  0.1669611713792634  0.0521320901189597
  0.8812765055259604  0.5383198696408016  0.5627482449091730
  0.9190606483975472  0.8266883231272075  0.5143004234759374
  0.0911672943108073  0.7807850724259708  0.8171322736562132
  0.2222466460643417  0.2147014990741525  0.3589429428038855
  0.1572140723520903  0.0796209580616321  0.1196481461700216
  0.9207010883672595  0.1957167538884761  0.8271580780847145
  0.7640886641424771  0.1085121298168517  0.5114216145095014
  0.5222131608316687  0.2237720777474337  0.3492440990090557
  0.4336553918973323  0.0996178771750493  0.1065783004076266
  0.2243122226327330  0.2074514721583327  0.8572485078070571
  0.1263341621344765  0.0951805324457524  0.5957491204894083
  0.9031677383291736  0.2115259613985074  0.3382226990455806
  0.7241416679667410  0.0966556466019242  0.1366798589022125
  0.5223505638707238  0.2198079057720008  0.8702382868079752
  0.4436301412865689  0.1013517968411080  0.6081668981602206
  0.2191461897904290  0.5430679015979791  0.3493186407660858
  0.1112392956738333  0.4278450064800552  0.1037637900578190
  0.8902060058807635  0.5301690746175041  0.8525863748556759
  0.7549820437321060  0.4011826539602268  0.6158092159755384
  0.5580211715145396  0.5376641402053366  0.3588106419573336
  0.4421449498200047  0.4381789702951693  0.1089342227486725
  0.2349350516491242  0.5109259337622518  0.8710321312579978
  0.1500392548566296  0.4195661867018146  0.6186224404646410
  0.8943854347289388  0.5384519225812667  0.3270238250616870
  0.7562371164983190  0.4517784216978100  0.1047215674101665
  0.5515058107532838  0.5392397583954676  0.8584462368937693
  0.4538931371440782  0.4183781866941629  0.6103588368900787
  0.2325235894605271  0.8735339784784983  0.3513862186640253
  0.1351113927838767  0.7638458387160298  0.0947737185293320
  0.8469494477912889  0.8746616686554418  0.9073337605838319
  0.7410024532484414  0.8046377005523198  0.6466128325167801
  0.5595397080268185  0.8735311049568182  0.3601540963790129
  0.4505773387947940  0.7578053426665292  0.1116157998325562
  0.2511416652385066  0.8959018630462765  0.8662030431626064
  0.1692768368862119  0.7409918670986926  0.5938301586268437
  0.8998121047445267  0.8543584900885932  0.2857022674129723
  0.7527808825502831  0.7535433189784726  0.1028343161261489
  0.5436882166781629  0.8752859805641577  0.8646687388450900
  0.4575636346465259  0.7592301501069869  0.6068869161234787
 
  0.00000000E+00  0.00000000E+00  0.00000000E+00
  0.00000000E+00  0.00000000E+00  0.00000000E+00
  0.00000000E+00  0.00000000E+00  0.00000000E+00
  0.00000000E+00  0.00000000E+00  0.00000000E+00
  0.00000000E+00  0.00000000E+00  0.00000000E+00
  0.00000000E+00  0.00000000E+00  0.00000000E+00
  0.00000000E+00  0.00000000E+00  0.00000000E+00
  0.00000000E+00  0.00000000E+00  0.00000000E+00
  0.00000000E+00  0.00000000E+00  0.00000000E+00
  0.00000000E+00  0.00000000E+00  0.00000000E+00
  0.00000000E+00  0.00000000E+00  0.00000000E+00
  0.00000000E+00  0.00000000E+00  0.00000000E+00
  0.00000000E+00  0.00000000E+00  0.00000000E+00
  0.00000000E+00  0.00000000E+00  0.00000000E+00
  0.00000000E+00  0.00000000E+00  0.00000000E+00
  0.00000000E+00  0.00000000E+00  0.00000000E+00
  0.00000000E+00  0.00000000E+00  0.00000000E+00
  0.00000000E+00  0.00000000E+00  0.00000000E+00
  0.00000000E+00  0.00000000E+00  0.00000000E+00
  0.00000000E+00  0.00000000E+00  0.00000000E+00
  0.00000000E+00  0.00000000E+00  0.00000000E+00
  0.00000000E+00  0.00000000E+00  0.00000000E+00
  0.00000000E+00  0.00000000E+00  0.00000000E+00
  0.00000000E+00  0.00000000E+00  0.00000000E+00
  0.00000000E+00  0.00000000E+00  0.00000000E+00
  0.00000000E+00  0.00000000E+00  0.00000000E+00
  0.00000000E+00  0.00000000E+00  0.00000000E+00
  0.00000000E+00  0.00000000E+00  0.00000000E+00
  0.00000000E+00  0.00000000E+00  0.00000000E+00
  0.00000000E+00  0.00000000E+00  0.00000000E+00
  0.00000000E+00  0.00000000E+00  0.00000000E+00
  0.00000000E+00  0.00000000E+00  0.00000000E+00
  0.00000000E+00  0.00000000E+00  0.00000000E+00
  0.00000000E+00  0.00000000E+00  0.00000000E+00
  0.00000000E+00  0.00000000E+00  0.00000000E+00
  0.00000000E+00  0.00000000E+00  0.00000000E+00
  0.00000000E+00  0.00000000E+00  0.00000000E+00
  0.00000000E+00  0.00000000E+00  0.00000000E+00
  0.00000000E+00  0.00000000E+00  0.00000000E+00
  0.00000000E+00  0.00000000E+00  0.00000000E+00
  0.00000000E+00  0.00000000E+00  0.00000000E+00
  0.00000000E+00  0.00000000E+00  0.00000000E+00
  0.00000000E+00  0.00000000E+00  0.00000000E+00
  0.00000000E+00  0.00000000E+00  0.00000000E+00
  0.00000000E+00  0.00000000E+00  0.00000000E+00
  0.00000000E+00  0.00000000E+00  0.00000000E+00
  0.00000000E+00  0.00000000E+00  0.00000000E+00
  0.00000000E+00  0.00000000E+00  0.00000000E+00
  0.00000000E+00  0.00000000E+00  0.00000000E+00
  0.00000000E+00  0.00000000E+00  0.00000000E+00
  0.00000000E+00  0.00000000E+00  0.00000000E+00
  0.00000000E+00  0.00000000E+00  0.00000000E+00
  0.00000000E+00  0.00000000E+00  0.00000000E+00
  0.00000000E+00  0.00000000E+00  0.00000000E+00
  0.00000000E+00  0.00000000E+00  0.00000000E+00
  0.00000000E+00  0.00000000E+00  0.00000000E+00
  0.00000000E+00  0.00000000E+00  0.00000000E+00
  0.00000000E+00  0.00000000E+00  0.00000000E+00
  0.00000000E+00  0.00000000E+00  0.00000000E+00
  0.00000000E+00  0.00000000E+00  0.00000000E+00
  0.00000000E+00  0.00000000E+00  0.00000000E+00
  0.00000000E+00  0.00000000E+00  0.00000000E+00
  0.00000000E+00  0.00000000E+00  0.00000000E+00
  0.00000000E+00  0.00000000E+00  0.00000000E+00
  0.00000000E+00  0.00000000E+00  0.00000000E+00
  0.00000000E+00  0.00000000E+00  0.00000000E+00
  0.00000000E+00  0.00000000E+00  0.00000000E+00
  0.00000000E+00  0.00000000E+00  0.00000000E+00
  0.00000000E+00  0.00000000E+00  0.00000000E+00
  0.00000000E+00  0.00000000E+00  0.00000000E+00
  0.00000000E+00  0.00000000E+00  0.00000000E+00
  0.00000000E+00  0.00000000E+00  0.00000000E+00
