supercell of 100% icsd_608626.cif, 0% i 
   1.00000000000000     
    -9.7811709296721130   -0.0764053899439182    0.0502613318779256
    -4.8242192485000004    8.4502842714549313    0.0286629331229552
     0.0541049238696262   -0.0039631970840178  -10.3034444405579393
   Al   Ge   Sr   N 
    26     5     5    36
Direct
  0.1123947338222422  0.0985707516601835  0.2822266894343315
  0.2223183027371931  0.1991180965449146  0.0390984658933178
  0.7805614755869286  0.0933192574506592  0.7949083399531958
  0.8896721183845315  0.1984041600270743  0.5594541197517131
  0.4385027454828503  0.0937148781392878  0.3052872747431579
  0.1122186137532566  0.0931976531059320  0.7999762828584167
  0.2196794716375763  0.2061326390056593  0.5573137583334073
  0.8910888661557408  0.2109433936893907  0.0352527083893222
  0.4397590931312010  0.0885230305352991  0.7907016991174132
  0.5598343202177105  0.1989031654610329  0.5568902526468094
  0.1123996071190589  0.4163966962259877  0.2712130002672168
  0.7750147972893373  0.4201417366062330  0.7869142723273583
  0.4570759257027461  0.4206744019063677  0.2828787144595921
  0.5678332921258971  0.5376415311188794  0.0333584836774534
  0.1284822405618442  0.4123670110469604  0.8076905265496421
  0.5552322550848245  0.5365510470595325  0.5600151953430483
  0.2262955961885851  0.8733448110185762  0.0702346403542222
  0.7627024219948240  0.7817627488382257  0.8000018405389469
  0.8658308421847281  0.8908077469073845  0.5636952648470270
  0.4452171497723185  0.7602667471959137  0.2851666401899422
  0.5548606154166649  0.8710731957525084  0.0446033263564871
  0.1027174243352675  0.7708146835997169  0.8046528627497977
  0.7677593241293437  0.7712428853255915  0.2949356219916339
  0.8894845043513016  0.8707441607633299  0.0387851877149430
  0.4436611722708577  0.7644126949665235  0.8003161459582699
  0.5554112268590856  0.8726223714671804  0.5509068893173961
  0.5615605735596603  0.1978367637619201  0.0461146380947142
  0.7710063719643188  0.0954848651629874  0.3094688263763814
  0.2250795511651233  0.5362611943103204  0.0691484169781589
  0.8826033553568919  0.5433997838295710  0.0311627648050674
  0.4462164472641703  0.4255649952456295  0.8006633604307538
  0.9005561934890594  0.5515800776916109  0.5663619991162250
  0.2343085274904126  0.5275561986740911  0.5149513036784938
  0.7751416420192001  0.4350533933081522  0.3168260817002349
  0.0920484167764783  0.7604307185990535  0.3062473887907657
  0.2250935513324919  0.8753493631281586  0.5311476110873272
  0.2157454000369441  0.2102356403747976  0.3552524235718408
  0.0998795464780855  0.1101397650255720  0.0946957770684733
  0.8862992526392048  0.2039248925153103  0.8534924713335599
  0.7705098977459954  0.1026368777312996  0.6133179810093807
  0.5521014679599858  0.2137202950394013  0.3608093654883504
  0.4456285495056207  0.0965571271226082  0.1111564646011658
  0.2327859197788698  0.1931298220807349  0.8610827637379828
  0.0926916621572360  0.1276579467655097  0.6210127536962275
  0.9159758939242124  0.1554155961105792  0.3695191110464933
  0.7784117416736791  0.0933607730293602  0.1109290957820050
  0.5566225997971443  0.2001792695028115  0.8598506002272117
  0.4409236242612806  0.0918817915340711  0.6011841576818853
  0.2520769693247260  0.4875024436394000  0.2580203699451502
  0.0994699941139103  0.4223007761724986  0.0790091358690361
  0.8851145610590052  0.5462364488631408  0.8446588489475602
  0.7649125299855513  0.4089714637509090  0.6032829933782367
  0.4965849832113776  0.5655429883608321  0.3748177856542085
  0.4826427780066140  0.4100898164408378  0.0951824277764928
  0.2356123673033181  0.5290218958467676  0.8710606667148326
  0.1559126708121354  0.3911482062910139  0.6373106180789705
  0.9248927790387214  0.5698464141686159  0.3315376130699477
  0.7824628344490989  0.4298858086314326  0.0770872364322130
  0.5558406942112128  0.5358369501864715  0.8519745123767919
  0.4745418721517396  0.4059644812362535  0.6260921129443702
  0.2378663999732140  0.8897723014344550  0.2800791251289567
  0.1060953917941063  0.7611946570611039  0.0716484141214622
  0.8780370597671094  0.8838873766814856  0.8605089360286726
  0.7430695106760368  0.8152750532965385  0.6266165206036476
  0.5518423758022379  0.8676396245867366  0.3545559993300884
  0.4634062295697774  0.7468164588820869  0.0961058993370969
  0.2253688540222427  0.8734658877720278  0.8569602196461332
  0.0706214989755551  0.7711173588598328  0.6234646179534380
  0.8279585618657421  0.9041655370602442  0.3749243689531880
  0.7758520438100476  0.7646223217653159  0.0985751121558849
  0.5498917783855006  0.8789124649558602  0.8631279724780967
  0.4827269390190878  0.7417346180942914  0.6225249330086697
 
  0.00000000E+00  0.00000000E+00  0.00000000E+00
  0.00000000E+00  0.00000000E+00  0.00000000E+00
  0.00000000E+00  0.00000000E+00  0.00000000E+00
  0.00000000E+00  0.00000000E+00  0.00000000E+00
  0.00000000E+00  0.00000000E+00  0.00000000E+00
  0.00000000E+00  0.00000000E+00  0.00000000E+00
  0.00000000E+00  0.00000000E+00  0.00000000E+00
  0.00000000E+00  0.00000000E+00  0.00000000E+00
  0.00000000E+00  0.00000000E+00  0.00000000E+00
  0.00000000E+00  0.00000000E+00  0.00000000E+00
  0.00000000E+00  0.00000000E+00  0.00000000E+00
  0.00000000E+00  0.00000000E+00  0.00000000E+00
  0.00000000E+00  0.00000000E+00  0.00000000E+00
  0.00000000E+00  0.00000000E+00  0.00000000E+00
  0.00000000E+00  0.00000000E+00  0.00000000E+00
  0.00000000E+00  0.00000000E+00  0.00000000E+00
  0.00000000E+00  0.00000000E+00  0.00000000E+00
  0.00000000E+00  0.00000000E+00  0.00000000E+00
  0.00000000E+00  0.00000000E+00  0.00000000E+00
  0.00000000E+00  0.00000000E+00  0.00000000E+00
  0.00000000E+00  0.00000000E+00  0.00000000E+00
  0.00000000E+00  0.00000000E+00  0.00000000E+00
  0.00000000E+00  0.00000000E+00  0.00000000E+00
  0.00000000E+00  0.00000000E+00  0.00000000E+00
  0.00000000E+00  0.00000000E+00  0.00000000E+00
  0.00000000E+00  0.00000000E+00  0.00000000E+00
  0.00000000E+00  0.00000000E+00  0.00000000E+00
  0.00000000E+00  0.00000000E+00  0.00000000E+00
  0.00000000E+00  0.00000000E+00  0.00000000E+00
  0.00000000E+00  0.00000000E+00  0.00000000E+00
  0.00000000E+00  0.00000000E+00  0.00000000E+00
  0.00000000E+00  0.00000000E+00  0.00000000E+00
  0.00000000E+00  0.00000000E+00  0.00000000E+00
  0.00000000E+00  0.00000000E+00  0.00000000E+00
  0.00000000E+00  0.00000000E+00  0.00000000E+00
  0.00000000E+00  0.00000000E+00  0.00000000E+00
  0.00000000E+00  0.00000000E+00  0.00000000E+00
  0.00000000E+00  0.00000000E+00  0.00000000E+00
  0.00000000E+00  0.00000000E+00  0.00000000E+00
  0.00000000E+00  0.00000000E+00  0.00000000E+00
  0.00000000E+00  0.00000000E+00  0.00000000E+00
  0.00000000E+00  0.00000000E+00  0.00000000E+00
  0.00000000E+00  0.00000000E+00  0.00000000E+00
  0.00000000E+00  0.00000000E+00  0.00000000E+00
  0.00000000E+00  0.00000000E+00  0.00000000E+00
  0.00000000E+00  0.00000000E+00  0.00000000E+00
  0.00000000E+00  0.00000000E+00  0.00000000E+00
  0.00000000E+00  0.00000000E+00  0.00000000E+00
  0.00000000E+00  0.00000000E+00  0.00000000E+00
  0.00000000E+00  0.00000000E+00  0.00000000E+00
  0.00000000E+00  0.00000000E+00  0.00000000E+00
  0.00000000E+00  0.00000000E+00  0.00000000E+00
  0.00000000E+00  0.00000000E+00  0.00000000E+00
  0.00000000E+00  0.00000000E+00  0.00000000E+00
  0.00000000E+00  0.00000000E+00  0.00000000E+00
  0.00000000E+00  0.00000000E+00  0.00000000E+00
  0.00000000E+00  0.00000000E+00  0.00000000E+00
  0.00000000E+00  0.00000000E+00  0.00000000E+00
  0.00000000E+00  0.00000000E+00  0.00000000E+00
  0.00000000E+00  0.00000000E+00  0.00000000E+00
  0.00000000E+00  0.00000000E+00  0.00000000E+00
  0.00000000E+00  0.00000000E+00  0.00000000E+00
  0.00000000E+00  0.00000000E+00  0.00000000E+00
  0.00000000E+00  0.00000000E+00  0.00000000E+00
  0.00000000E+00  0.00000000E+00  0.00000000E+00
  0.00000000E+00  0.00000000E+00  0.00000000E+00
  0.00000000E+00  0.00000000E+00  0.00000000E+00
  0.00000000E+00  0.00000000E+00  0.00000000E+00
  0.00000000E+00  0.00000000E+00  0.00000000E+00
  0.00000000E+00  0.00000000E+00  0.00000000E+00
  0.00000000E+00  0.00000000E+00  0.00000000E+00
  0.00000000E+00  0.00000000E+00  0.00000000E+00
