Al   Gd   N                             
   1.00000000000000     
    -9.7064600161780294    0.0000719463436086    0.0036481488636847
    -4.8532779477790502    8.4191884683056806   -0.0102149884522281
     0.0038185501823425    0.0149260541275083  -10.2346937640761997
   Al   Gd   N 
    31     5    36
Direct
  0.1148670360239805  0.0952482961563277  0.2894404207792931
  0.2275806525295252  0.2030284726644211  0.0435030724599272
  0.7804781244420056  0.0895584016149087  0.7927982760152972
  0.8947453842389237  0.2008134796106731  0.5514001186171456
  0.4395628653466090  0.0939675815606833  0.2888257603381987
  0.5610484636365030  0.1952852901188393  0.0432955269609963
  0.1080342628693103  0.0883411256392037  0.8018764029205769
  0.8876570282603922  0.2020149498880741  0.0381584862546021
  0.4558294261127571  0.0827468689172903  0.7992413137102474
  0.5530870133944603  0.2019180239084619  0.5437440695812583
  0.1188865653704880  0.4223499397365060  0.2943823456257988
  0.2167970036827640  0.5439440760728047  0.0514359353695184
  0.7868944102775615  0.4270348585355421  0.7930117705941271
  0.8906026010633852  0.5433942213828260  0.5436935735628481
  0.4376226570443222  0.4283131277830279  0.2857268030023477
  0.5567885650856894  0.5402864767541473  0.0515129022857934
  0.1002549745965453  0.4405850709125403  0.7916641555164361
  0.2162416027355576  0.5444586295160505  0.5388350661228145
  0.7819310892485163  0.4234240896281278  0.2941131894351088
  0.1142598094898517  0.7557234297280999  0.2973526909538009
  0.2211617937234607  0.8717891163360250  0.0473365878836702
  0.7745096073071949  0.7626741719778494  0.7893042183837267
  0.8947283772685495  0.8627486486612312  0.5525248482085132
  0.4419437894654905  0.7649931620725212  0.2895251776312193
  0.5534147730343975  0.8794724701342531  0.0472617941275217
  0.1056850955110207  0.7648887627293064  0.7968271986650066
  0.2154859882299220  0.8740154220567788  0.5492360608660221
  0.7766457271267342  0.7627255772292969  0.3024396279772361
  0.8874488534040097  0.8776925657977230  0.0382346000334195
  0.4431185217919520  0.7727690191176322  0.8028817830156285
  0.5575654160374626  0.8761223927941444  0.5470051264543301
  0.2220589675141866  0.2016599127994567  0.5564680466375691
  0.7830050193210312  0.0894203072217508  0.3024825516765048
  0.8863288192290710  0.5448773691516706  0.0527542056443409
  0.4374696746026459  0.4289794275332497  0.8125459352658524
  0.5541398675696527  0.5450724933220172  0.5455707900079361
  0.2243028058522825  0.2009773600758180  0.3362909274993129
  0.1100889623558601  0.0945755205446517  0.0982554598986596
  0.8864128958949564  0.2070606995816107  0.8515298650622327
  0.7767257529927960  0.0945105365187615  0.5953894115616976
  0.5260104107727344  0.2174213903869244  0.3550384554841060
  0.4439200191286190  0.0941297508811445  0.1009844622548215
  0.2224383315475436  0.2070383112192360  0.8455226791854429
  0.0956242004073999  0.0747924372363400  0.6198854390382138
  0.9093758069551896  0.2170223559152262  0.3659480810061453
  0.7819328622131536  0.0926882724317224  0.0842191903872802
  0.5725259108915708  0.1745424630231369  0.8605033636998627
  0.4764810506552593  0.0780923403584453  0.6157316045987287
  0.2234313407349902  0.5388197828896892  0.3491266895456491
  0.1397299642865732  0.4120571648376199  0.1110326027878941
  0.8858808958109066  0.5434038848671321  0.8362220501040056
  0.8082472468299855  0.4131645708865221  0.6076760888005381
  0.5531076867580680  0.5386152907384556  0.3269791635177839
  0.4433409725971842  0.4266120170740706  0.0895869427466423
  0.1829428875463250  0.5599447897769920  0.8691191455229301
  0.0973859240993775  0.4591393358906828  0.6058086897840411
  0.8887720909532391  0.5383437894262215  0.3455767326898709
  0.7689787502751884  0.4070860778823828  0.1106023849413873
  0.5729690808061605  0.5550024269134823  0.8579408561243866
  0.4284564458816646  0.4149892818340462  0.5942893453690132
  0.2215928726891008  0.8723325066151020  0.3543623081000291
  0.1073192931624902  0.7651564592332250  0.1080020356991511
  0.8876920950955949  0.8715688671609172  0.8469839451763050
  0.7742824996824069  0.7602352837112818  0.6013944046195050
  0.5529210430339049  0.8728201353599871  0.3562650351465564
  0.4438833427536650  0.7656716112283561  0.1024217472924178
  0.2219688630047472  0.8683796236858612  0.8608053986503847
  0.1170380846943928  0.7567802144192086  0.6075697359706211
  0.9083551906780016  0.8380680272935166  0.3696593995107662
  0.7619712011414990  0.7986938892980078  0.1172918718353841
  0.5598995160662099  0.8702536537685575  0.8604042506719125
  0.4261138751649938  0.7976726479722842  0.6151698031316499
 
  0.00000000E+00  0.00000000E+00  0.00000000E+00
  0.00000000E+00  0.00000000E+00  0.00000000E+00
  0.00000000E+00  0.00000000E+00  0.00000000E+00
  0.00000000E+00  0.00000000E+00  0.00000000E+00
  0.00000000E+00  0.00000000E+00  0.00000000E+00
  0.00000000E+00  0.00000000E+00  0.00000000E+00
  0.00000000E+00  0.00000000E+00  0.00000000E+00
  0.00000000E+00  0.00000000E+00  0.00000000E+00
  0.00000000E+00  0.00000000E+00  0.00000000E+00
  0.00000000E+00  0.00000000E+00  0.00000000E+00
  0.00000000E+00  0.00000000E+00  0.00000000E+00
  0.00000000E+00  0.00000000E+00  0.00000000E+00
  0.00000000E+00  0.00000000E+00  0.00000000E+00
  0.00000000E+00  0.00000000E+00  0.00000000E+00
  0.00000000E+00  0.00000000E+00  0.00000000E+00
  0.00000000E+00  0.00000000E+00  0.00000000E+00
  0.00000000E+00  0.00000000E+00  0.00000000E+00
  0.00000000E+00  0.00000000E+00  0.00000000E+00
  0.00000000E+00  0.00000000E+00  0.00000000E+00
  0.00000000E+00  0.00000000E+00  0.00000000E+00
  0.00000000E+00  0.00000000E+00  0.00000000E+00
  0.00000000E+00  0.00000000E+00  0.00000000E+00
  0.00000000E+00  0.00000000E+00  0.00000000E+00
  0.00000000E+00  0.00000000E+00  0.00000000E+00
  0.00000000E+00  0.00000000E+00  0.00000000E+00
  0.00000000E+00  0.00000000E+00  0.00000000E+00
  0.00000000E+00  0.00000000E+00  0.00000000E+00
  0.00000000E+00  0.00000000E+00  0.00000000E+00
  0.00000000E+00  0.00000000E+00  0.00000000E+00
  0.00000000E+00  0.00000000E+00  0.00000000E+00
  0.00000000E+00  0.00000000E+00  0.00000000E+00
  0.00000000E+00  0.00000000E+00  0.00000000E+00
  0.00000000E+00  0.00000000E+00  0.00000000E+00
  0.00000000E+00  0.00000000E+00  0.00000000E+00
  0.00000000E+00  0.00000000E+00  0.00000000E+00
  0.00000000E+00  0.00000000E+00  0.00000000E+00
  0.00000000E+00  0.00000000E+00  0.00000000E+00
  0.00000000E+00  0.00000000E+00  0.00000000E+00
  0.00000000E+00  0.00000000E+00  0.00000000E+00
  0.00000000E+00  0.00000000E+00  0.00000000E+00
  0.00000000E+00  0.00000000E+00  0.00000000E+00
  0.00000000E+00  0.00000000E+00  0.00000000E+00
  0.00000000E+00  0.00000000E+00  0.00000000E+00
  0.00000000E+00  0.00000000E+00  0.00000000E+00
  0.00000000E+00  0.00000000E+00  0.00000000E+00
  0.00000000E+00  0.00000000E+00  0.00000000E+00
  0.00000000E+00  0.00000000E+00  0.00000000E+00
  0.00000000E+00  0.00000000E+00  0.00000000E+00
  0.00000000E+00  0.00000000E+00  0.00000000E+00
  0.00000000E+00  0.00000000E+00  0.00000000E+00
  0.00000000E+00  0.00000000E+00  0.00000000E+00
  0.00000000E+00  0.00000000E+00  0.00000000E+00
  0.00000000E+00  0.00000000E+00  0.00000000E+00
  0.00000000E+00  0.00000000E+00  0.00000000E+00
  0.00000000E+00  0.00000000E+00  0.00000000E+00
  0.00000000E+00  0.00000000E+00  0.00000000E+00
  0.00000000E+00  0.00000000E+00  0.00000000E+00
  0.00000000E+00  0.00000000E+00  0.00000000E+00
  0.00000000E+00  0.00000000E+00  0.00000000E+00
  0.00000000E+00  0.00000000E+00  0.00000000E+00
  0.00000000E+00  0.00000000E+00  0.00000000E+00
  0.00000000E+00  0.00000000E+00  0.00000000E+00
  0.00000000E+00  0.00000000E+00  0.00000000E+00
  0.00000000E+00  0.00000000E+00  0.00000000E+00
  0.00000000E+00  0.00000000E+00  0.00000000E+00
  0.00000000E+00  0.00000000E+00  0.00000000E+00
  0.00000000E+00  0.00000000E+00  0.00000000E+00
  0.00000000E+00  0.00000000E+00  0.00000000E+00
  0.00000000E+00  0.00000000E+00  0.00000000E+00
  0.00000000E+00  0.00000000E+00  0.00000000E+00
  0.00000000E+00  0.00000000E+00  0.00000000E+00
  0.00000000E+00  0.00000000E+00  0.00000000E+00
