Al   Gd   N                             
   1.00000000000000     
    -9.7087119101935535    0.0032757518674423    0.0071741471278132
    -4.8400700943960020    8.4242987876375395    0.0033595437060648
     0.0253859711107797   -0.0242267221452244  -10.2219025537456734
   Al   Gd   N 
    31     5    36
Direct
  0.1112667416688566  0.0929744344346517  0.3884633424322814
  0.2292816563569460  0.2022628490985738  0.1482925091432179
  0.7823398831780395  0.0868764338904384  0.8974129873734498
  0.8934723522980903  0.1975516002895148  0.6563730962346881
  0.4509541914919168  0.0891138377448115  0.3916154196504067
  0.5536948028253690  0.2040949414905242  0.1473309260081805
  0.1131864645685070  0.0931516160620092  0.9026295077428870
  0.8891671560769083  0.2059632321307632  0.1385104411027172
  0.4461281382608249  0.0860293620603372  0.9039293375143416
  0.5623104379776720  0.1914929319908651  0.6538171874920238
  0.1078670597498643  0.4355263854436942  0.3998890007057767
  0.2233400737146738  0.5421029764097653  0.1531083738781192
  0.7760461831342127  0.4281490063704538  0.8943853092291079
  0.8917735232631117  0.5402912565456290  0.6504106520934059
  0.4356300181222750  0.4251575388337940  0.3825566400329450
  0.5542630510194400  0.5405421075712269  0.1559117193292039
  0.1117841128024040  0.4268010758918805  0.8970300770083526
  0.2094325334131995  0.5457305369343572  0.6441650508742072
  0.7945828881507282  0.4236071004617941  0.4006760762917665
  0.1135065466417302  0.7566265218882648  0.3957869828809351
  0.2215416756423352  0.8718717350193188  0.1438941332684180
  0.7714968328414216  0.7695509067597825  0.8909109022595416
  0.8913494136757762  0.8692569708705875  0.6544951347298564
  0.4370009771428727  0.7763573481231134  0.3911410639975159
  0.5538106819874287  0.8774429018342005  0.1451914937795138
  0.1052072009706535  0.7647705752232028  0.8958236855924540
  0.2124285560504191  0.8761912210057190  0.6436315250000888
  0.7793843605791224  0.7571543994078738  0.4035588266343666
  0.8893032690532721  0.8720312499272254  0.1416553120167308
  0.4449077308737728  0.7665890269102107  0.8976711103141568
  0.5587433682144720  0.8745725688225789  0.6456883182413691
  0.2276427106193424  0.1984945144360637  0.6328593500782418
  0.7847785002042329  0.0932620460271920  0.3964129094868554
  0.8878047542516825  0.5418714578844117  0.1377515581136279
  0.4399009814845840  0.4297787335711902  0.8990122192865471
  0.5521349395302551  0.5439122422716522  0.6213970255846348
  0.2249272838696328  0.2049003743648612  0.3468207462963306
  0.1139580456903104  0.0934626837801176  0.0900329987922177
  0.8920981034614641  0.2036806113044847  0.8451154061858404
  0.7803668862905155  0.0922772581237510  0.6158313954478629
  0.5345761220912166  0.2129267852984214  0.3293783790773901
  0.4445159027105632  0.0928830995143670  0.0916141956431318
  0.2239576721648859  0.2031522774299859  0.8544806493794894
  0.0892744468424880  0.0789009121871089  0.5734420440835990
  0.9043532584288130  0.2234180772111642  0.3210058528181250
  0.7792715587868813  0.0933553375624712  0.0933461142801875
  0.5678204872476584  0.1748480915289861  0.8413649776410068
  0.4834448479661404  0.0740563162585062  0.5738381536100761
  0.2176159405694875  0.5420629982509837  0.3394890683878842
  0.1446762959942376  0.4137629764126629  0.0832103830580238
  0.8886380121225770  0.5387254298607971  0.8474418724092629
  0.8138568176728427  0.4055052482485593  0.5876253082599874
  0.5583250301594376  0.5408947257252521  0.3545351578667848
  0.4438031954971038  0.4322315913538404  0.1198725271107506
  0.1894763033737661  0.5565013334786428  0.8290288034764401
  0.0952711511261697  0.4544030218759616  0.5828880962450924
  0.8882629228583383  0.5424817725732822  0.3553445742387424
  0.7580620396053703  0.4161789579751201  0.0787281927118357
  0.5653886490783862  0.5567401812451891  0.8388639546439691
  0.4263060443625974  0.4061324149391368  0.5926568194779378
  0.2189985920375292  0.8715610896265176  0.3312882961968882
  0.1123740856903055  0.7599265609667611  0.0853439668539480
  0.8906807876189120  0.8708652020263372  0.8408853607386746
  0.7780522562011996  0.7593820369559339  0.5953554260806015
  0.5610865278530284  0.8692997593602811  0.3329830285072433
  0.4448086792121444  0.7621061435532894  0.0910623780040893
  0.2209568847635168  0.8728055219723387  0.8378393897732010
  0.1098392233319530  0.7619283392140517  0.5855745568913875
  0.9028781700235271  0.8410311446969985  0.3284698762298106
  0.7596854064638308  0.7937309133089840  0.0745042062743195
  0.5508859246900286  0.8745508037132552  0.8351390426393479
  0.4204573400967675  0.8052990863086293  0.5764761858236653
 
  0.00000000E+00  0.00000000E+00  0.00000000E+00
  0.00000000E+00  0.00000000E+00  0.00000000E+00
  0.00000000E+00  0.00000000E+00  0.00000000E+00
  0.00000000E+00  0.00000000E+00  0.00000000E+00
  0.00000000E+00  0.00000000E+00  0.00000000E+00
  0.00000000E+00  0.00000000E+00  0.00000000E+00
  0.00000000E+00  0.00000000E+00  0.00000000E+00
  0.00000000E+00  0.00000000E+00  0.00000000E+00
  0.00000000E+00  0.00000000E+00  0.00000000E+00
  0.00000000E+00  0.00000000E+00  0.00000000E+00
  0.00000000E+00  0.00000000E+00  0.00000000E+00
  0.00000000E+00  0.00000000E+00  0.00000000E+00
  0.00000000E+00  0.00000000E+00  0.00000000E+00
  0.00000000E+00  0.00000000E+00  0.00000000E+00
  0.00000000E+00  0.00000000E+00  0.00000000E+00
  0.00000000E+00  0.00000000E+00  0.00000000E+00
  0.00000000E+00  0.00000000E+00  0.00000000E+00
  0.00000000E+00  0.00000000E+00  0.00000000E+00
  0.00000000E+00  0.00000000E+00  0.00000000E+00
  0.00000000E+00  0.00000000E+00  0.00000000E+00
  0.00000000E+00  0.00000000E+00  0.00000000E+00
  0.00000000E+00  0.00000000E+00  0.00000000E+00
  0.00000000E+00  0.00000000E+00  0.00000000E+00
  0.00000000E+00  0.00000000E+00  0.00000000E+00
  0.00000000E+00  0.00000000E+00  0.00000000E+00
  0.00000000E+00  0.00000000E+00  0.00000000E+00
  0.00000000E+00  0.00000000E+00  0.00000000E+00
  0.00000000E+00  0.00000000E+00  0.00000000E+00
  0.00000000E+00  0.00000000E+00  0.00000000E+00
  0.00000000E+00  0.00000000E+00  0.00000000E+00
  0.00000000E+00  0.00000000E+00  0.00000000E+00
  0.00000000E+00  0.00000000E+00  0.00000000E+00
  0.00000000E+00  0.00000000E+00  0.00000000E+00
  0.00000000E+00  0.00000000E+00  0.00000000E+00
  0.00000000E+00  0.00000000E+00  0.00000000E+00
  0.00000000E+00  0.00000000E+00  0.00000000E+00
  0.00000000E+00  0.00000000E+00  0.00000000E+00
  0.00000000E+00  0.00000000E+00  0.00000000E+00
  0.00000000E+00  0.00000000E+00  0.00000000E+00
  0.00000000E+00  0.00000000E+00  0.00000000E+00
  0.00000000E+00  0.00000000E+00  0.00000000E+00
  0.00000000E+00  0.00000000E+00  0.00000000E+00
  0.00000000E+00  0.00000000E+00  0.00000000E+00
  0.00000000E+00  0.00000000E+00  0.00000000E+00
  0.00000000E+00  0.00000000E+00  0.00000000E+00
  0.00000000E+00  0.00000000E+00  0.00000000E+00
  0.00000000E+00  0.00000000E+00  0.00000000E+00
  0.00000000E+00  0.00000000E+00  0.00000000E+00
  0.00000000E+00  0.00000000E+00  0.00000000E+00
  0.00000000E+00  0.00000000E+00  0.00000000E+00
  0.00000000E+00  0.00000000E+00  0.00000000E+00
  0.00000000E+00  0.00000000E+00  0.00000000E+00
  0.00000000E+00  0.00000000E+00  0.00000000E+00
  0.00000000E+00  0.00000000E+00  0.00000000E+00
  0.00000000E+00  0.00000000E+00  0.00000000E+00
  0.00000000E+00  0.00000000E+00  0.00000000E+00
  0.00000000E+00  0.00000000E+00  0.00000000E+00
  0.00000000E+00  0.00000000E+00  0.00000000E+00
  0.00000000E+00  0.00000000E+00  0.00000000E+00
  0.00000000E+00  0.00000000E+00  0.00000000E+00
  0.00000000E+00  0.00000000E+00  0.00000000E+00
  0.00000000E+00  0.00000000E+00  0.00000000E+00
  0.00000000E+00  0.00000000E+00  0.00000000E+00
  0.00000000E+00  0.00000000E+00  0.00000000E+00
  0.00000000E+00  0.00000000E+00  0.00000000E+00
  0.00000000E+00  0.00000000E+00  0.00000000E+00
  0.00000000E+00  0.00000000E+00  0.00000000E+00
  0.00000000E+00  0.00000000E+00  0.00000000E+00
  0.00000000E+00  0.00000000E+00  0.00000000E+00
  0.00000000E+00  0.00000000E+00  0.00000000E+00
  0.00000000E+00  0.00000000E+00  0.00000000E+00
  0.00000000E+00  0.00000000E+00  0.00000000E+00
