Al   Gd   N                             
   1.00000000000000     
    -9.7104931531944665    0.0008760705253661    0.0062569829399668
    -4.8255856057847462    8.4392463340213641   -0.0050206087182374
     0.0653197764405508    0.0015099054421928  -10.4922947206382275
   Al   Gd   N 
    31     5    36
Direct
  0.1292176648619972  0.0890062742360485  0.3185507734914381
  0.2220956240058385  0.2059810164621894  0.0771671459557766
  0.7768210466275676  0.0980157806423918  0.9004035028462525
  0.8860396236048587  0.1979658586823021  0.6609801878769019
  0.4536903410108764  0.0863329433098912  0.3936867687609436
  0.5471894232357073  0.2057699637796517  0.1393257200763571
  0.1089526732722206  0.0884242252754888  0.8402148235387727
  0.8863045654636394  0.2085688035271076  0.1419915430179017
  0.4522692496505911  0.0818434782262116  0.9005682788114555
  0.5692796304845587  0.1811153364279434  0.6556440565935588
  0.1350498848192245  0.4146830632491074  0.3314829553513405
  0.2117165040143121  0.5491303850119991  0.0879772956294431
  0.7750231187427232  0.4294059374175916  0.8983441953941664
  0.8823129880407024  0.5444379198862208  0.6566879176906042
  0.4392207651460609  0.4374903361373796  0.3169386372312601
  0.5459305028116006  0.5514084493428655  0.0751714201675782
  0.0969362703994392  0.4423232327184436  0.8391871444202863
  0.2178894920914374  0.5397982943144726  0.5803713777371868
  0.8074485156369846  0.4178965353159754  0.4011659666446832
  0.1149801034812086  0.7565514726140208  0.3343845633831535
  0.2227652033274268  0.8712773149859316  0.0810746194729290
  0.7664093647192445  0.7721024160251133  0.8959286121306818
  0.9007173707350375  0.8596667856208953  0.5891199962871454
  0.4478183561768390  0.7549587018638917  0.3256904879737164
  0.5538252681292519  0.8837740149308715  0.1489322359656668
  0.1020315410046919  0.7683776909170277  0.8316850090150467
  0.2150702083814693  0.8743336440795062  0.5810123215311052
  0.7824944929555926  0.7475998656977367  0.4097855572009337
  0.8934791331389746  0.8765976509795550  0.0763196993889181
  0.4312968277240543  0.7760246321274025  0.8288977284374468
  0.5610164739583254  0.8759407724064090  0.6505769162861696
  0.2173500800289148  0.2079347821498914  0.6009613065954937
  0.7744270339552770  0.1020116272262968  0.3856725729182386
  0.8822401922695562  0.5451837743681907  0.1397163186957897
  0.4275732015295404  0.4282390314019011  0.8565784973370256
  0.5519392936175862  0.5365949582037004  0.5904999395428305
  0.2278990437540145  0.1985605253561360  0.3819617853102173
  0.1206151789015237  0.0893502001481536  0.1303912156635150
  0.8759655790369365  0.2142206449780772  0.8451072726000035
  0.7831540040429559  0.0898059102993543  0.6051000702762721
  0.5232800375498385  0.2169192253833856  0.3176686567700173
  0.4460555624890361  0.0913144356458133  0.0816139736289969
  0.2130066936478769  0.2133553756241184  0.8843938850948732
  0.1030949397583143  0.0700174653866270  0.6592246089040827
  0.9069661762988659  0.2206993392699204  0.3225432073788639
  0.7733535764847517  0.1016940918634148  0.0946617776862340
  0.5729265715774545  0.1669764689152800  0.8394748744224998
  0.4849407025062149  0.0711389911126830  0.5739482339715565
  0.2307789386557459  0.5381576902473810  0.3910617363271669
  0.1476906130219007  0.4079937718276270  0.1489004773672562
  0.8709830718339191  0.5487770804925560  0.8480629177804673
  0.8218030938856558  0.4001997030497577  0.5867375714373964
  0.5666787763297947  0.5315826872239811  0.3715018761659010
  0.4368670794537337  0.4410836641487776  0.1211778355074529
  0.1731411152388276  0.5668024312549491  0.9113666554080311
  0.0991336947323163  0.4614681116697597  0.6581670559532284
  0.9030011249478278  0.5360284220224827  0.3557585142451885
  0.7659120766075986  0.4120724655469061  0.0768979371297789
  0.5521598498607005  0.5659557299801463  0.8847055942744930
  0.4287752829319231  0.4036548890468339  0.6385260291967256
  0.2258126176424824  0.8711356598424302  0.3899047046669750
  0.1058043993944793  0.7672681297205557  0.1484254185029457
  0.8931074746043421  0.8765636314422167  0.8876950678345850
  0.7729780401297930  0.7530552653877081  0.5957867269823254
  0.5677453901458591  0.8680312064507234  0.3346174385641945
  0.4408001120954808  0.7630747937209676  0.1399828925039373
  0.2189355773490220  0.8714597131499744  0.8979700762629790
  0.1193023862484424  0.7545947311318315  0.6450493963517943
  0.9125989498718994  0.8401361176731470  0.4035587302344297
  0.7555074839449532  0.7943441970033263  0.0778806478662588
  0.5540948212183991  0.8780164160066164  0.8350097665286285
  0.4223908704631327  0.7912077003397258  0.6448561544852538
 
  0.00000000E+00  0.00000000E+00  0.00000000E+00
  0.00000000E+00  0.00000000E+00  0.00000000E+00
  0.00000000E+00  0.00000000E+00  0.00000000E+00
  0.00000000E+00  0.00000000E+00  0.00000000E+00
  0.00000000E+00  0.00000000E+00  0.00000000E+00
  0.00000000E+00  0.00000000E+00  0.00000000E+00
  0.00000000E+00  0.00000000E+00  0.00000000E+00
  0.00000000E+00  0.00000000E+00  0.00000000E+00
  0.00000000E+00  0.00000000E+00  0.00000000E+00
  0.00000000E+00  0.00000000E+00  0.00000000E+00
  0.00000000E+00  0.00000000E+00  0.00000000E+00
  0.00000000E+00  0.00000000E+00  0.00000000E+00
  0.00000000E+00  0.00000000E+00  0.00000000E+00
  0.00000000E+00  0.00000000E+00  0.00000000E+00
  0.00000000E+00  0.00000000E+00  0.00000000E+00
  0.00000000E+00  0.00000000E+00  0.00000000E+00
  0.00000000E+00  0.00000000E+00  0.00000000E+00
  0.00000000E+00  0.00000000E+00  0.00000000E+00
  0.00000000E+00  0.00000000E+00  0.00000000E+00
  0.00000000E+00  0.00000000E+00  0.00000000E+00
  0.00000000E+00  0.00000000E+00  0.00000000E+00
  0.00000000E+00  0.00000000E+00  0.00000000E+00
  0.00000000E+00  0.00000000E+00  0.00000000E+00
  0.00000000E+00  0.00000000E+00  0.00000000E+00
  0.00000000E+00  0.00000000E+00  0.00000000E+00
  0.00000000E+00  0.00000000E+00  0.00000000E+00
  0.00000000E+00  0.00000000E+00  0.00000000E+00
  0.00000000E+00  0.00000000E+00  0.00000000E+00
  0.00000000E+00  0.00000000E+00  0.00000000E+00
  0.00000000E+00  0.00000000E+00  0.00000000E+00
  0.00000000E+00  0.00000000E+00  0.00000000E+00
  0.00000000E+00  0.00000000E+00  0.00000000E+00
  0.00000000E+00  0.00000000E+00  0.00000000E+00
  0.00000000E+00  0.00000000E+00  0.00000000E+00
  0.00000000E+00  0.00000000E+00  0.00000000E+00
  0.00000000E+00  0.00000000E+00  0.00000000E+00
  0.00000000E+00  0.00000000E+00  0.00000000E+00
  0.00000000E+00  0.00000000E+00  0.00000000E+00
  0.00000000E+00  0.00000000E+00  0.00000000E+00
  0.00000000E+00  0.00000000E+00  0.00000000E+00
  0.00000000E+00  0.00000000E+00  0.00000000E+00
  0.00000000E+00  0.00000000E+00  0.00000000E+00
  0.00000000E+00  0.00000000E+00  0.00000000E+00
  0.00000000E+00  0.00000000E+00  0.00000000E+00
  0.00000000E+00  0.00000000E+00  0.00000000E+00
  0.00000000E+00  0.00000000E+00  0.00000000E+00
  0.00000000E+00  0.00000000E+00  0.00000000E+00
  0.00000000E+00  0.00000000E+00  0.00000000E+00
  0.00000000E+00  0.00000000E+00  0.00000000E+00
  0.00000000E+00  0.00000000E+00  0.00000000E+00
  0.00000000E+00  0.00000000E+00  0.00000000E+00
  0.00000000E+00  0.00000000E+00  0.00000000E+00
  0.00000000E+00  0.00000000E+00  0.00000000E+00
  0.00000000E+00  0.00000000E+00  0.00000000E+00
  0.00000000E+00  0.00000000E+00  0.00000000E+00
  0.00000000E+00  0.00000000E+00  0.00000000E+00
  0.00000000E+00  0.00000000E+00  0.00000000E+00
  0.00000000E+00  0.00000000E+00  0.00000000E+00
  0.00000000E+00  0.00000000E+00  0.00000000E+00
  0.00000000E+00  0.00000000E+00  0.00000000E+00
  0.00000000E+00  0.00000000E+00  0.00000000E+00
  0.00000000E+00  0.00000000E+00  0.00000000E+00
  0.00000000E+00  0.00000000E+00  0.00000000E+00
  0.00000000E+00  0.00000000E+00  0.00000000E+00
  0.00000000E+00  0.00000000E+00  0.00000000E+00
  0.00000000E+00  0.00000000E+00  0.00000000E+00
  0.00000000E+00  0.00000000E+00  0.00000000E+00
  0.00000000E+00  0.00000000E+00  0.00000000E+00
  0.00000000E+00  0.00000000E+00  0.00000000E+00
  0.00000000E+00  0.00000000E+00  0.00000000E+00
  0.00000000E+00  0.00000000E+00  0.00000000E+00
  0.00000000E+00  0.00000000E+00  0.00000000E+00
