Al   Gd   N                             
   1.00000000000000     
    -9.7567039154501316    0.0006162178763477    0.0057824227279307
    -4.8333612132106323    8.4644424489310133   -0.0063171225103396
     0.0614784120517481    0.0375911326219649  -10.3971507336744402
   Al   Gd   N 
    31     5    36
Direct
  0.1269549594619050  0.0908970553459056  0.2946154524405671
  0.2248829727718729  0.2041316898214873  0.0531848478590575
  0.7773434128522254  0.0967025733456452  0.8759094823304778
  0.8862772049087511  0.1988727222931033  0.6332818630191426
  0.4511337512169646  0.0886670889113645  0.3686512096698848
  0.5479339620221992  0.2053775681576155  0.1145023189056289
  0.1084941983014431  0.0879463209254894  0.8151899019610340
  0.8855382468421951  0.2094736918351785  0.1168295301153606
  0.4533339278210065  0.0807061876132664  0.8764971597595945
  0.5698843467480543  0.1818634971046365  0.6294721433024577
  0.1314341635072935  0.4162100169619549  0.3039221309392062
  0.2139220472883352  0.5494031684969443  0.0638443084612206
  0.7730085250682208  0.4261309901643102  0.8720627275254671
  0.8853365563175331  0.5420657788976513  0.6317460095645799
  0.4376019693873445  0.4378918898527573  0.2929391598630886
  0.5459270463027863  0.5520715331567771  0.0515205553635028
  0.1014071319624250  0.4382858109077290  0.8140890356788049
  0.2179671290621883  0.5402178306462275  0.5552903420967752
  0.8036215363103807  0.4225122572999140  0.3709264922293514
  0.1141997293734107  0.7563956647247494  0.3098547233693623
  0.2211255823331442  0.8721184487086475  0.0567629214452339
  0.7735242359580923  0.7709851284721267  0.8300066703699187
  0.8980109800803930  0.8584379266422957  0.5651469123192996
  0.4443202115947642  0.7560330988106756  0.3014157188446021
  0.5514324362950873  0.8837206734358602  0.1227670183790579
  0.1023944148430189  0.7678472409041888  0.8067967732342112
  0.2140063895559692  0.8748949492653821  0.5559590863756583
  0.7835993598188153  0.7532461160211739  0.3363536164053755
  0.8919602809933949  0.8758500141530732  0.0536841171611329
  0.4296206383055292  0.7760267090067430  0.8053841051503241
  0.5582308403976981  0.8785081270854889  0.6272029944551250
  0.2192125000707819  0.2066462280902854  0.5775668395416673
  0.7740295616486961  0.1021938456174638  0.3589568951436064
  0.8925675773810724  0.5398769004254262  0.0895035973631195
  0.4287303988492752  0.4256081216793888  0.8339407478608578
  0.5523094105017421  0.5374887289438774  0.5680548616618992
  0.2261553308887159  0.2000076025207278  0.3568282299268049
  0.1195146727536311  0.0907618911796391  0.1046549252986182
  0.8763194259632101  0.2123837640011743  0.8195370173223324
  0.7831057741677583  0.0911083026555417  0.5787859368668080
  0.5230400423857873  0.2177915246482414  0.2941564561362640
  0.4467692476293195  0.0914661138369297  0.0578528071765163
  0.2152925395644161  0.2108947717240000  0.8580210503829164
  0.1020567676229334  0.0709602557482754  0.6325947657502837
  0.9059242445856626  0.2213854586959556  0.2988468170732048
  0.7738308753056771  0.1020940206898473  0.0701355786163731
  0.5744818259488085  0.1646532458068606  0.8144391424644297
  0.4850371826077193  0.0718508121490586  0.5495662091885052
  0.2285707123050145  0.5385484758470085  0.3652260246929160
  0.1546278670302499  0.4048384891980561  0.1226628851127245
  0.8774848197665790  0.5401154548774656  0.8308767031072080
  0.8211241454088807  0.4037155111503665  0.5601401072923480
  0.5635165488280691  0.5331648878455439  0.3464229620212009
  0.4376184350460761  0.4411835439175675  0.0954484410926852
  0.1740027592322235  0.5659251748801921  0.8854755796036926
  0.1001911048369877  0.4601445624220801  0.6320241347296545
  0.9002580940181417  0.5367762084883196  0.3194926433401548
  0.7627817624281121  0.4124258853704177  0.0527330611688654
  0.5522166855752459  0.5642305592026773  0.8562069751868862
  0.4286281861656178  0.4042982037973530  0.6133712881424813
  0.2229057448302711  0.8721744220639565  0.3643852195296091
  0.1062909553855107  0.7674766060821767  0.1232324046113860
  0.8932335187658040  0.8748779639970650  0.8651171352840450
  0.7788988000462069  0.7607416157475910  0.6157973761071744
  0.5595031258814629  0.8716309169075913  0.3119570584647775
  0.4388205196562893  0.7641106484371889  0.1137505223367299
  0.2175338767066535  0.8711394244980966  0.8724524213608262
  0.1185174588020246  0.7553145552333973  0.6189573311482448
  0.9097014163469623  0.8387034483475944  0.3788311964866722
  0.7611821298713508  0.7950266662191154  0.0837417687168340
  0.5502971964952437  0.8773169036080688  0.8163057878093412
  0.4215730388693260  0.7931228154228762  0.6190367363325819
 
  0.00000000E+00  0.00000000E+00  0.00000000E+00
  0.00000000E+00  0.00000000E+00  0.00000000E+00
  0.00000000E+00  0.00000000E+00  0.00000000E+00
  0.00000000E+00  0.00000000E+00  0.00000000E+00
  0.00000000E+00  0.00000000E+00  0.00000000E+00
  0.00000000E+00  0.00000000E+00  0.00000000E+00
  0.00000000E+00  0.00000000E+00  0.00000000E+00
  0.00000000E+00  0.00000000E+00  0.00000000E+00
  0.00000000E+00  0.00000000E+00  0.00000000E+00
  0.00000000E+00  0.00000000E+00  0.00000000E+00
  0.00000000E+00  0.00000000E+00  0.00000000E+00
  0.00000000E+00  0.00000000E+00  0.00000000E+00
  0.00000000E+00  0.00000000E+00  0.00000000E+00
  0.00000000E+00  0.00000000E+00  0.00000000E+00
  0.00000000E+00  0.00000000E+00  0.00000000E+00
  0.00000000E+00  0.00000000E+00  0.00000000E+00
  0.00000000E+00  0.00000000E+00  0.00000000E+00
  0.00000000E+00  0.00000000E+00  0.00000000E+00
  0.00000000E+00  0.00000000E+00  0.00000000E+00
  0.00000000E+00  0.00000000E+00  0.00000000E+00
  0.00000000E+00  0.00000000E+00  0.00000000E+00
  0.00000000E+00  0.00000000E+00  0.00000000E+00
  0.00000000E+00  0.00000000E+00  0.00000000E+00
  0.00000000E+00  0.00000000E+00  0.00000000E+00
  0.00000000E+00  0.00000000E+00  0.00000000E+00
  0.00000000E+00  0.00000000E+00  0.00000000E+00
  0.00000000E+00  0.00000000E+00  0.00000000E+00
  0.00000000E+00  0.00000000E+00  0.00000000E+00
  0.00000000E+00  0.00000000E+00  0.00000000E+00
  0.00000000E+00  0.00000000E+00  0.00000000E+00
  0.00000000E+00  0.00000000E+00  0.00000000E+00
  0.00000000E+00  0.00000000E+00  0.00000000E+00
  0.00000000E+00  0.00000000E+00  0.00000000E+00
  0.00000000E+00  0.00000000E+00  0.00000000E+00
  0.00000000E+00  0.00000000E+00  0.00000000E+00
  0.00000000E+00  0.00000000E+00  0.00000000E+00
  0.00000000E+00  0.00000000E+00  0.00000000E+00
  0.00000000E+00  0.00000000E+00  0.00000000E+00
  0.00000000E+00  0.00000000E+00  0.00000000E+00
  0.00000000E+00  0.00000000E+00  0.00000000E+00
  0.00000000E+00  0.00000000E+00  0.00000000E+00
  0.00000000E+00  0.00000000E+00  0.00000000E+00
  0.00000000E+00  0.00000000E+00  0.00000000E+00
  0.00000000E+00  0.00000000E+00  0.00000000E+00
  0.00000000E+00  0.00000000E+00  0.00000000E+00
  0.00000000E+00  0.00000000E+00  0.00000000E+00
  0.00000000E+00  0.00000000E+00  0.00000000E+00
  0.00000000E+00  0.00000000E+00  0.00000000E+00
  0.00000000E+00  0.00000000E+00  0.00000000E+00
  0.00000000E+00  0.00000000E+00  0.00000000E+00
  0.00000000E+00  0.00000000E+00  0.00000000E+00
  0.00000000E+00  0.00000000E+00  0.00000000E+00
  0.00000000E+00  0.00000000E+00  0.00000000E+00
  0.00000000E+00  0.00000000E+00  0.00000000E+00
  0.00000000E+00  0.00000000E+00  0.00000000E+00
  0.00000000E+00  0.00000000E+00  0.00000000E+00
  0.00000000E+00  0.00000000E+00  0.00000000E+00
  0.00000000E+00  0.00000000E+00  0.00000000E+00
  0.00000000E+00  0.00000000E+00  0.00000000E+00
  0.00000000E+00  0.00000000E+00  0.00000000E+00
  0.00000000E+00  0.00000000E+00  0.00000000E+00
  0.00000000E+00  0.00000000E+00  0.00000000E+00
  0.00000000E+00  0.00000000E+00  0.00000000E+00
  0.00000000E+00  0.00000000E+00  0.00000000E+00
  0.00000000E+00  0.00000000E+00  0.00000000E+00
  0.00000000E+00  0.00000000E+00  0.00000000E+00
  0.00000000E+00  0.00000000E+00  0.00000000E+00
  0.00000000E+00  0.00000000E+00  0.00000000E+00
  0.00000000E+00  0.00000000E+00  0.00000000E+00
  0.00000000E+00  0.00000000E+00  0.00000000E+00
  0.00000000E+00  0.00000000E+00  0.00000000E+00
  0.00000000E+00  0.00000000E+00  0.00000000E+00
