Ge   Li   O    Cd                       
   1.00000000000000     
    -0.0000118921284183    0.0000000337377934   -5.2290946400099996
    -0.0000341881500087   -5.6328621914843380    0.0000000468105633
    -6.7821609761902408   -0.0000348959364161   -0.0000169652386493
   Ge   Li   O    Cd
     2     4     8     2
Direct
  0.5956520468661265  0.1711325497925302  0.0166692257905073
  0.9542270130589900  0.8023321916649970  0.5166719400542819
  0.9703375208454990  0.3192512910191486  0.2746882854015280
  0.9703215339342707  0.3192474800213101  0.7586206013230173
  0.4613959348906008  0.6605365442941703  0.2699212152276528
  0.4613914705358047  0.6605146773602215  0.7633997634624450
  0.9862077009379856  0.1861198014081447  0.0166615762745288
  0.5291294749171319  0.8615025410132869  0.0166683195534904
  0.0829387714959179  0.6504645313123589  0.7248153647318102
  0.0829440352040899  0.6504659731482373  0.3085310055067095
  0.5610161630331028  0.3307680148703111  0.7951243949343492
  0.5610153896136252  0.3307733908596777  0.2382104248997356
  0.0320818979890574  0.1129052063014808  0.5166665778054456
  0.6137447242047617  0.7856992134289843  0.5166688764964692
  0.0116673463238352  0.8028669274520208  0.0166713883316626
  0.4575562468708659  0.1554131982605364  0.5166697820491714
 
             NaN             NaN             NaN
             NaN             NaN             NaN
             NaN             NaN             NaN
             NaN             NaN             NaN
             NaN             NaN             NaN
             NaN             NaN             NaN
             NaN             NaN             NaN
             NaN             NaN             NaN
             NaN             NaN             NaN
             NaN             NaN             NaN
             NaN             NaN             NaN
             NaN             NaN             NaN
             NaN             NaN             NaN
             NaN             NaN             NaN
             NaN             NaN             NaN
             NaN             NaN             NaN
