Ge   Li   O    Cd
   1.00000000000000     
   0.0000002021091599   0.0000000337377945  -5.2290946400099996
   0.0000000134297940  -5.5603176967300003   0.0000000468105623
  -6.7072951674199999   0.0000000200392090   0.0000002408048289
Ge   Li   O    Cd
2  4  8  2  
Direct
  0.5851663252274477  0.1722954834664492  0.0166658410335074  
  0.0851657707788007  0.8027025084902277  0.5166658556704320  
  0.0791237665266280  0.3175513591301282  0.2669600888121408  
  0.0791235867758076  0.3175513120652269  0.7663704326309428  
  0.5791229019637427  0.6574474940306558  0.2663704554878947  
  0.5791230803812937  0.6574474457639354  0.7669600585929999  
  0.9258613473299776  0.1906718791465067  0.0166656747454326  
  0.5040025130180226  0.8582624381108488  0.0166657156710954  
  0.9577616124499572  0.6526509140873955  0.7296524492972907  
  0.9577615297618748  0.6526507942822661  0.3036793076945870  
  0.4577626474738494  0.3223472779773360  0.8036796759692777  
  0.4577627292584339  0.3223471653659615  0.2296520741187678  
  0.0040015712831973  0.1167359449360958  0.5166657227087654  
  0.4258592805554002  0.7843265722560275  0.5166656733904631  
  0.0761637211180286  0.8101154045341801  0.0166658993859841  
  0.5761628631890687  0.1648830708025315  0.5166658918337816  
