Ge   Li   O    Cd                       
   1.00000000000000     
     0.0000178721893862    0.0000000337377944   -5.2290946400099996
     0.0000161862672431   -5.6236223418628066    0.0000000468105624
    -6.7677966672113445    0.0000098243275029    0.0000152799878641
   Ge   Li   O    Cd
     2     4     8     2
Direct
  0.5868723161265873  0.1729073391662563  0.0166665566741940
  0.0592657170029393  0.8014641941819808  0.5166664765762740
  0.0797838377257769  0.3150381921426526  0.2634012344993461
  0.0797864595289265  0.3150347154809469  0.7699234777941486
  0.5737086241182064  0.6573506868606914  0.2628785730304657
  0.5736950343870016  0.6573704356086743  0.7704636418071588
  0.9276724107744015  0.1894962575092499  0.0166644415713221
  0.5088565520191647  0.8617305175981942  0.0166690338962376
  0.9691052221182318  0.6475641504320411  0.7347552478465911
  0.9691032966459920  0.6475633267248880  0.2985747231945945
  0.4584283069442218  0.3243451414922104  0.8077983945461686
  0.4584282333157401  0.3243430794002316  0.2255354763265153
  0.0037456775437200  0.1145357092422633  0.5166634218224424
  0.4578532431452841  0.7854474636167228  0.5166658150882482
  0.0833389221263206  0.8185708629442795  0.0166659752525191
  0.5419834171989936  0.1672314598061236  0.5166662519165161
 
             NaN             NaN             NaN
             NaN             NaN             NaN
             NaN             NaN             NaN
             NaN             NaN             NaN
             NaN             NaN             NaN
             NaN             NaN             NaN
             NaN             NaN             NaN
             NaN             NaN             NaN
             NaN             NaN             NaN
             NaN             NaN             NaN
             NaN             NaN             NaN
             NaN             NaN             NaN
             NaN             NaN             NaN
             NaN             NaN             NaN
             NaN             NaN             NaN
             NaN             NaN             NaN
