Ge   Li   O    Cd                       
   1.00000000000000     
     0.0000079040911321    0.0000000337377941   -5.2290946400099996
     0.0000252250032458   -5.6420575115281233    0.0000000468105627
    -6.7812310836269765    0.0000206207436796    0.0000025277013086
   Ge   Li   O    Cd
     2     4     8     2
Direct
  0.5881235732867771  0.1714612247466848  0.0166641541952973
  0.9293894061623571  0.8049259871993923  0.5166663762722267
  0.0768604599969838  0.3147172222475402  0.2644729571300163
  0.0768693707017428  0.3147080840151685  0.7688565048557461
  0.5692279858449492  0.6538442708333067  0.2538949707378902
  0.5692167366609813  0.6538502052934234  0.7794564262244672
  0.9277425680205885  0.1893184373077500  0.0166631654019770
  0.5093318575975458  0.8620187204957099  0.0166679554976268
  0.9882899034830632  0.6447030200564074  0.7371104055561041
  0.9882799167800034  0.6447070485234295  0.2962177722504148
  0.4584535924910467  0.3240779554763434  0.8092626353537966
  0.4584512131999073  0.3240807775956725  0.2240655051136175
  0.0179529303410215  0.1110377485669421  0.5166621404631454
  0.5783359377107022  0.7929307031194729  0.5166712632735970
  0.0808569534885259  0.8182575031145746  0.0166651348731247
  0.5142448649553376  0.1753546236155499  0.5166613746436921
 
             NaN             NaN             NaN
             NaN             NaN             NaN
             NaN             NaN             NaN
             NaN             NaN             NaN
             NaN             NaN             NaN
             NaN             NaN             NaN
             NaN             NaN             NaN
             NaN             NaN             NaN
             NaN             NaN             NaN
             NaN             NaN             NaN
             NaN             NaN             NaN
             NaN             NaN             NaN
             NaN             NaN             NaN
             NaN             NaN             NaN
             NaN             NaN             NaN
             NaN             NaN             NaN
