Ge   Li   O    Cd                       
   1.00000000000000     
    -0.0000090932466490    0.0000000337377933   -5.2290946400099996
    -0.0000285615833199   -5.6292483053997779    0.0000000468105634
    -6.7791596158775267   -0.0000280981640202   -0.0000130468627144
   Ge   Li   O    Cd
     2     4     8     2
Direct
  0.5384883749619646  0.1717193200586393  0.0166684967948152
  0.9550360984976063  0.8020439169188767  0.5166731512433855
  0.9695589671972668  0.3179089700565514  0.2715794003961966
  0.9695422478953964  0.3179060764747100  0.7617346102104436
  0.4608383454872098  0.6605387707906066  0.2703213948369228
  0.4608335528494374  0.6605172999124495  0.7629975057879712
  0.0346836855006766  0.1886352980952734  0.0166616729064824
  0.5330693911311783  0.8593252478057347  0.0166676661380138
  0.0830484380067287  0.6502568682502959  0.7248871087515184
  0.0830543847140149  0.6502573452232898  0.3084572153204114
  0.5673233691003533  0.3299577038756849  0.7959316738285860
  0.5673224063144793  0.3299638226943544  0.2374042750140065
  0.0322379627508719  0.1131518121002978  0.5166657919962165
  0.6136900181030557  0.7857776860866493  0.5166682845086265
  0.0062722257188934  0.8070594106457157  0.0166705653513247
  0.4566278024925410  0.1549739832182953  0.5166699287578694
 
             NaN             NaN             NaN
             NaN             NaN             NaN
             NaN             NaN             NaN
             NaN             NaN             NaN
             NaN             NaN             NaN
             NaN             NaN             NaN
             NaN             NaN             NaN
             NaN             NaN             NaN
             NaN             NaN             NaN
             NaN             NaN             NaN
             NaN             NaN             NaN
             NaN             NaN             NaN
             NaN             NaN             NaN
             NaN             NaN             NaN
             NaN             NaN             NaN
             NaN             NaN             NaN
