Ge   Li   O    Cd                       
   1.00000000000000     
    -0.0007146776005175    0.0000000337377937   -5.2290946400099996
    -0.0000949487779517   -5.6910858157576634    0.0000000468105630
    -6.7768167285710090   -0.0000790947294313   -0.0009345992887358
   Ge   Li   O    Cd
     2     4     8     2
Direct
  0.5927405410870792  0.1685994505792471  0.0167307197084911
  0.9554176112885101  0.8061053858103168  0.5166808514462631
  0.0403018282329035  0.3190706293804226  0.2721228649759110
  0.0384806824709180  0.3191720013485372  0.7610055360910072
  0.4694744414700495  0.6578392324929132  0.2685092150637025
  0.4694523342578209  0.6578039073190765  0.7648273599242630
  0.9361003230400302  0.1880164691632932  0.0168567460158081
  0.5107661288608464  0.8626619156729357  0.0166285433511305
  0.0810560986908497  0.6569321487646155  0.7256382117883480
  0.0810942374949941  0.6570216474543806  0.3076852831243593
  0.4886546867928020  0.3213184982974049  0.8033801468338443
  0.4873273407216370  0.3211250237688761  0.2298395005685931
  0.0317536198648375  0.1134944868593585  0.5167249628309905
  0.6153269463326587  0.7821198384600844  0.5166541416536309
  0.0529580040917835  0.8165754195355815  0.0166533291222033
  0.4807224460239198  0.1521374773003805  0.5167213293442365
 
             NaN             NaN             NaN
             NaN             NaN             NaN
             NaN             NaN             NaN
             NaN             NaN             NaN
             NaN             NaN             NaN
             NaN             NaN             NaN
             NaN             NaN             NaN
             NaN             NaN             NaN
             NaN             NaN             NaN
             NaN             NaN             NaN
             NaN             NaN             NaN
             NaN             NaN             NaN
             NaN             NaN             NaN
             NaN             NaN             NaN
             NaN             NaN             NaN
             NaN             NaN             NaN
