Ge   Li   O    Cd                       
   1.00000000000000     
     0.0000189824904205    0.0000000337377944   -5.2290946400099996
     0.0000263285667969   -5.6131383845725749    0.0000000468105624
    -6.7485178049288255    0.0000220871011330    0.0000167374693948
   Ge   Li   O    Cd
     2     4     8     2
Direct
  0.5872054460403785  0.1728466889207754  0.0166659491904601
  0.0806208241589276  0.8009803962648768  0.5166651295554477
  0.0786466304229098  0.3158976841296534  0.2644982038508396
  0.0786515862136113  0.3158907015694294  0.7688333365470020
  0.5767075189896524  0.6575865191070475  0.2639999843205691
  0.5766987395814971  0.6576014715392442  0.7693333441531818
  0.9275799871223998  0.1899272268281662  0.0166656512464101
  0.5079828070259073  0.8614083254347862  0.0166688718780943
  0.9658300654705674  0.6500880777307810  0.7322029572313340
  0.9658298289518198  0.6500879782377614  0.3011280647202409
  0.4586406280556494  0.3236833640555751  0.8064674928839249
  0.4586405148722923  0.3236818588274439  0.2268667797573535
  0.0010347791255806  0.1129579719826867  0.5166644164115408
  0.4331947261746545  0.7850686733194713  0.5166657934847800
  0.0806828469363125  0.8157668623024025  0.0166659723031689
  0.5536803415793647  0.1665197319572922  0.5166667943084183
 
             NaN             NaN             NaN
             NaN             NaN             NaN
             NaN             NaN             NaN
             NaN             NaN             NaN
             NaN             NaN             NaN
             NaN             NaN             NaN
             NaN             NaN             NaN
             NaN             NaN             NaN
             NaN             NaN             NaN
             NaN             NaN             NaN
             NaN             NaN             NaN
             NaN             NaN             NaN
             NaN             NaN             NaN
             NaN             NaN             NaN
             NaN             NaN             NaN
             NaN             NaN             NaN
