supercell of icsd_181358.cif            
   1.00000000000000     
     9.9955892184016264    0.0479512701933441    0.0187881929329000
    -4.9563143168353028    8.6216826178483519   -0.0140306187765920
     0.0198470515695479   -0.0058639633523138   10.5320554883885702
   N    Ga   Y 
    36    28     8
Direct
  0.1951254506651807  0.0967403817836185  0.4454513816589483
  0.1153029249077591  0.2227869077435116  0.2129804637874670
  0.8483314369071806  0.0919494032663977  0.9221292103484728
  0.8003297788135058  0.2338991006179825  0.6810218963060422
  0.5690743126362463  0.1039100343914328  0.4524908630965783
  0.4362315436390958  0.2315626874964352  0.2239988158920099
  0.2006893105547718  0.1074451926085516  0.9282945927284558
  0.0914266446406415  0.2005169008296548  0.6828176495390252
  0.8847282683834905  0.1075811710632451  0.4388328685400751
  0.8193581493981057  0.2390974579046841  0.1801866886859713
  0.5537959837104651  0.1027133585713358  0.9801039834996814
  0.4322769845677072  0.2309484407893621  0.7092057154992091
  0.2301283825646081  0.4459649488823985  0.4478379836142850
  0.1149590881493765  0.5558633612811192  0.1968593013704663
  0.8911237081445620  0.4473016401535119  0.9372188559970169
  0.7803003544992748  0.5518331558600451  0.6857965449699819
  0.5781929500509193  0.4778578339422666  0.4325373853298089
  0.4483720816899890  0.5547369795359245  0.1889342984697961
  0.2363285602054574  0.4654405930385366  0.9466753030592514
  0.0898104413475380  0.5401122931417603  0.6731416371950587
  0.8882903373255076  0.4442057385509059  0.4319709871952853
  0.7823560918677472  0.5563609352179810  0.1838574011275540
  0.5662320821004769  0.4727008801957808  0.9330159854778302
  0.4803491997907301  0.5733017432525997  0.6776231395440604
  0.2248613395421657  0.7785717420564850  0.4496964358896491
  0.1119100735035019  0.8859513257528846  0.2151724604722673
  0.8598025590296388  0.7678868702478070  0.9276066887734373
  0.7760635075604654  0.8872439749087135  0.6821327486999280
  0.5626239045413541  0.7813642400288785  0.4315927203941641
  0.4304658595343653  0.8551821519901353  0.1917098469701131
  0.2322455400702523  0.7698355592998922  0.9452024639950665
  0.0898838101256274  0.8932752794709700  0.6835089684060094
  0.8850239789650729  0.7752309806504343  0.4394246064146046
  0.7810017597748953  0.8904776781976622  0.1860523624382893
  0.5531667049449425  0.7784473260662637  0.9372187418589064
  0.4620869424556631  0.8765931640071756  0.6790349242160900
  0.2138817177231971  0.1074380374161024  0.2646867698350306
  0.8815971660837576  0.1023340965479349  0.7395759364349672
  0.7861380063354133  0.2250896648411000  0.4984457711324026
  0.2058041019480967  0.1063731462356898  0.7444153670987532
  0.0983161326444275  0.2129406986370483  0.4975083846001240
  0.8965128909511932  0.1110358156548514  0.2555461233319463
  0.7791486721527789  0.2248304867268232  0.9992200960066668
  0.2292240131228382  0.4456791295431515  0.2574027532291510
  0.1193849325134408  0.5605351234593741  0.0076267820750715
  0.8902873087002234  0.4444543488698187  0.7457941545420610
  0.7844231741735541  0.5602905752281799  0.4982482394423187
  0.5642614237990458  0.4576318856212893  0.2517264034040991
  0.4497258007393370  0.5684741895272154  0.0007578859227948
  0.1057907304711847  0.5506519078493852  0.4924056029036237
  0.8980201332355549  0.4487824659780557  0.2459463322878790
  0.7747492654644645  0.5590056847914653  0.9948622525491118
  0.5664848062987886  0.4563182052038783  0.7485002289644882
  0.4629509124244819  0.5715132781651420  0.4953098366430950
  0.2219117390557273  0.7714030186831806  0.2603275032754055
  0.8771186969399594  0.7749686781792775  0.7429570685700142
  0.7764693377191989  0.8874966934429196  0.4971254417157525
  0.5574943210288126  0.7702846412750404  0.2477938314694867
  0.4404939178095475  0.8736708845298722  0.0072995100593261
  0.0983588229197423  0.8850360500035492  0.4969581253192459
  0.8869215502907934  0.7751670728700972  0.2547587146899488
  0.7641548096001003  0.8839379122804090  0.9943037897724807
  0.5679999965177487  0.7778856044791453  0.7477172432913690
  0.4555971855541330  0.8858961729592494  0.4967663588643489
  0.0837744004897871  0.2252962060674761  0.0033595637099282
  0.5682337456839477  0.1055376649291162  0.2350640023390014
  0.4329704781269186  0.2362491897256547  0.0047364817747066
  0.5662115065725430  0.1115013933311886  0.7565908897952838
  0.4434257301592481  0.2302527988801941  0.4888782397548255
  0.2347368323825876  0.4451442297113175  0.7329088760085014
  0.0950048484871857  0.8750395458144524  0.0037545820200435
  0.2201708452719870  0.7769620697450392  0.7333849357059492
 
  0.00000000E+00  0.00000000E+00  0.00000000E+00
  0.00000000E+00  0.00000000E+00  0.00000000E+00
  0.00000000E+00  0.00000000E+00  0.00000000E+00
  0.00000000E+00  0.00000000E+00  0.00000000E+00
  0.00000000E+00  0.00000000E+00  0.00000000E+00
  0.00000000E+00  0.00000000E+00  0.00000000E+00
  0.00000000E+00  0.00000000E+00  0.00000000E+00
  0.00000000E+00  0.00000000E+00  0.00000000E+00
  0.00000000E+00  0.00000000E+00  0.00000000E+00
  0.00000000E+00  0.00000000E+00  0.00000000E+00
  0.00000000E+00  0.00000000E+00  0.00000000E+00
  0.00000000E+00  0.00000000E+00  0.00000000E+00
  0.00000000E+00  0.00000000E+00  0.00000000E+00
  0.00000000E+00  0.00000000E+00  0.00000000E+00
  0.00000000E+00  0.00000000E+00  0.00000000E+00
  0.00000000E+00  0.00000000E+00  0.00000000E+00
  0.00000000E+00  0.00000000E+00  0.00000000E+00
  0.00000000E+00  0.00000000E+00  0.00000000E+00
  0.00000000E+00  0.00000000E+00  0.00000000E+00
  0.00000000E+00  0.00000000E+00  0.00000000E+00
  0.00000000E+00  0.00000000E+00  0.00000000E+00
  0.00000000E+00  0.00000000E+00  0.00000000E+00
  0.00000000E+00  0.00000000E+00  0.00000000E+00
  0.00000000E+00  0.00000000E+00  0.00000000E+00
  0.00000000E+00  0.00000000E+00  0.00000000E+00
  0.00000000E+00  0.00000000E+00  0.00000000E+00
  0.00000000E+00  0.00000000E+00  0.00000000E+00
  0.00000000E+00  0.00000000E+00  0.00000000E+00
  0.00000000E+00  0.00000000E+00  0.00000000E+00
  0.00000000E+00  0.00000000E+00  0.00000000E+00
  0.00000000E+00  0.00000000E+00  0.00000000E+00
  0.00000000E+00  0.00000000E+00  0.00000000E+00
  0.00000000E+00  0.00000000E+00  0.00000000E+00
  0.00000000E+00  0.00000000E+00  0.00000000E+00
  0.00000000E+00  0.00000000E+00  0.00000000E+00
  0.00000000E+00  0.00000000E+00  0.00000000E+00
  0.00000000E+00  0.00000000E+00  0.00000000E+00
  0.00000000E+00  0.00000000E+00  0.00000000E+00
  0.00000000E+00  0.00000000E+00  0.00000000E+00
  0.00000000E+00  0.00000000E+00  0.00000000E+00
  0.00000000E+00  0.00000000E+00  0.00000000E+00
  0.00000000E+00  0.00000000E+00  0.00000000E+00
  0.00000000E+00  0.00000000E+00  0.00000000E+00
  0.00000000E+00  0.00000000E+00  0.00000000E+00
  0.00000000E+00  0.00000000E+00  0.00000000E+00
  0.00000000E+00  0.00000000E+00  0.00000000E+00
  0.00000000E+00  0.00000000E+00  0.00000000E+00
  0.00000000E+00  0.00000000E+00  0.00000000E+00
  0.00000000E+00  0.00000000E+00  0.00000000E+00
  0.00000000E+00  0.00000000E+00  0.00000000E+00
  0.00000000E+00  0.00000000E+00  0.00000000E+00
  0.00000000E+00  0.00000000E+00  0.00000000E+00
  0.00000000E+00  0.00000000E+00  0.00000000E+00
  0.00000000E+00  0.00000000E+00  0.00000000E+00
  0.00000000E+00  0.00000000E+00  0.00000000E+00
  0.00000000E+00  0.00000000E+00  0.00000000E+00
  0.00000000E+00  0.00000000E+00  0.00000000E+00
  0.00000000E+00  0.00000000E+00  0.00000000E+00
  0.00000000E+00  0.00000000E+00  0.00000000E+00
  0.00000000E+00  0.00000000E+00  0.00000000E+00
  0.00000000E+00  0.00000000E+00  0.00000000E+00
  0.00000000E+00  0.00000000E+00  0.00000000E+00
  0.00000000E+00  0.00000000E+00  0.00000000E+00
  0.00000000E+00  0.00000000E+00  0.00000000E+00
  0.00000000E+00  0.00000000E+00  0.00000000E+00
  0.00000000E+00  0.00000000E+00  0.00000000E+00
  0.00000000E+00  0.00000000E+00  0.00000000E+00
  0.00000000E+00  0.00000000E+00  0.00000000E+00
  0.00000000E+00  0.00000000E+00  0.00000000E+00
  0.00000000E+00  0.00000000E+00  0.00000000E+00
  0.00000000E+00  0.00000000E+00  0.00000000E+00
  0.00000000E+00  0.00000000E+00  0.00000000E+00
