generated by phonopy                    
   1.00000000000000     
    11.7777700938999992   -0.0000006592896312    0.0000118211769744
    -0.0000006477562692   11.7777479613999994   -0.0000130806483528
     0.0000177256125076   -0.0000204342245446   17.8544012557999991
   Zr   Bi   Cu   Se   O 
     1    35    36    36    36
Direct
  0.9997826713142146  0.1666756595544925  0.4363768847374985
  0.3347198585714324  0.1666680707211654  0.4279771156186456
  0.6648643987808711  0.1666759476062296  0.4279830086102407
  0.9997896215564950  0.5015961721267317  0.4279811861019525
  0.3331372792083940  0.5000097658309528  0.4293026430556424
  0.6664391641113809  0.5000260208727809  0.4293025517004878
  0.9998135310933165  0.8317419526180814  0.4279792207176598
  0.3331457764199541  0.8333220134352572  0.4293005917496657
  0.6664482461086862  0.8333288925252376  0.4293009525019897
  0.9999573919084455  0.1666455351432958  0.9287136428889156
  0.3337623997777541  0.1666422978243602  0.9290896999612386
  0.6661421111964501  0.1666478173461314  0.9290859062613706
  0.9999550065546785  0.5004522763345562  0.9290899858340396
  0.3332586721456607  0.4999447245304580  0.9292108481379486
  0.6666449183477212  0.4999528901069041  0.9292087295787326
  0.9999623420066115  0.8328330117058940  0.9290867723215754
  0.3332626522029045  0.8333351584418196  0.9292077365668945
  0.6666525553382812  0.8333408308866410  0.9292051739829077
  0.1666517696584364  0.9999453143447425  0.0704142939254808
  0.4999612813922880  0.9997594763063162  0.0712943512172615
  0.8332697641384996  0.9999573691070154  0.0704106683545618
  0.1666413681512040  0.3333266593273052  0.0704187260525089
  0.4999478285834300  0.3335270553663108  0.0712975144869361
  0.8332570904905978  0.3333385476382134  0.0704120867968570
  0.1668401533460511  0.6666338930710225  0.0712978510038056
  0.4999526900162863  0.6666471746982339  0.0708665330299780
  0.8330704183026185  0.6666514496816163  0.0712941850942101
  0.1666134414944622  0.9998617161317256  0.5699577103490938
  0.4997886794879278  0.0007756060443782  0.5712196470205271
  0.8329697438573120  0.9998477289481897  0.5699647137972121
  0.1666010286577873  0.3334861840756886  0.5699553590874586
  0.4997836040897425  0.3325675180304373  0.5712208560131486
  0.8329593232423989  0.3335060059451891  0.5699659001883433
  0.1657022665768082  0.6666665053612135  0.5712225449616568
  0.4997940763282784  0.6666732488809544  0.5708645030440209
  0.8339063056058578  0.6666809185612763  0.5712159000499852
  0.9998911271839930  0.0019732660036809  0.2483072093048762
  0.3289655324446059  0.0024416891636179  0.2521798585596713
  0.6707794542244301  0.0025004694004949  0.2521910348354979
  0.9998441481170417  0.3313030171481586  0.2482981148505843
  0.3289008066756764  0.3307830211313529  0.2521906258481934
  0.6707117451760425  0.3308353067149383  0.2521809108698108
  0.9998236674222554  0.6666242167410843  0.2495380390503144
  0.3342422453481504  0.6666344168470673  0.2499502150572397
  0.6654190364590846  0.6666578301777122  0.2499476597362928
  0.9999081112284358  0.0002371423414758  0.7500542972118893
  0.3327818216347254  0.0001675757906483  0.7496782335809371
  0.6670413265271549  0.0001886836394007  0.7496800199709241
  0.9999037832839761  0.3331124932119636  0.7500515855486469
  0.3327741376187490  0.3331716032835317  0.7496758355968467
  0.6670325440914908  0.3331771284475167  0.7496798752841087
  0.9999145335810340  0.6666771778782987  0.7494037559619571
  0.3330863551267598  0.6666778433843419  0.7493019400572223
  0.6667372228572290  0.6666786250589212  0.7492997147171039
  0.1645798553091495  0.1666128324269849  0.2483025588389651
  0.4999160662251114  0.1666549838436495  0.2495373600752373
  0.8352426479413495  0.1666835886937008  0.2483055946246111
  0.1640585321994763  0.4957093774447046  0.2521929345477147
  0.4999196234109320  0.5010771871780122  0.2499479170972023
  0.8357113110042746  0.4957585636154533  0.2521838835618411
  0.1640975986167703  0.8375082456965686  0.2521752385356422
  0.4999276238963404  0.8322466419107357  0.2499502727329954
  0.8357672450092508  0.8375906115031100  0.2521848384503187
  0.1662787571767410  0.1666601426406871  0.7500535854604991
  0.4998318546715339  0.1666660022658988  0.7494038635227653
  0.8333996079490404  0.1666696258711085  0.7500478008293214
  0.1663303154982430  0.4995361565880714  0.7496793341259931
  0.4998340297294845  0.4998374645616863  0.7493010961518323
  0.8333329778775678  0.4995351980562930  0.7496768672746512
  0.1663332919972973  0.8337884598699006  0.7496786643190774
  0.4998474238505466  0.8334862027397421  0.7493036202261791
  0.8333350955935757  0.8337990029057565  0.7496783744784352
  0.1591644413876026  0.3259729963546363  0.3410031371053819
  0.4998277279313825  0.3329825265682445  0.3370839862233908
  0.8404893344671649  0.3260125979714061  0.3409961411250890
  0.1661520236847309  0.6666440061380570  0.3370875862140323
  0.4998287318927339  0.6666599305257463  0.3385258976902037
  0.8335097826514257  0.6666742171742328  0.3370841818707433
  0.1592104961880381  0.0072846614378790  0.3409977060079683
  0.4998574200753794  0.0003372333427123  0.3370861879439033
  0.8405270684868569  0.0073457418255458  0.3409991796426510
  0.1667938511479292  0.3335377222304174  0.8370853937609439
  0.4999058707740929  0.3333224609978345  0.8363505931738757
  0.8330264164577628  0.3335421011491420  0.8370860895502119
  0.1665822310804401  0.6666538169325591  0.8363521848699378
  0.4999145221723964  0.6666547408951757  0.8361114079851077
  0.8332503406517304  0.6666580618187297  0.8363492975792539
  0.1667990336104808  0.9997697826557967  0.8370852141292460
  0.4999124410035520  0.9999926121112921  0.8363487993148766
  0.8330315290496202  0.9997792553749534  0.8370857441142689
  0.3325182590040825  0.1666324538652617  0.1633195935520462
  0.6673250857693063  0.1666551598068367  0.1633149548932877
  0.9999201935175677  0.1666405992657118  0.1602384235433831
  0.3311779925948315  0.4979032595954251  0.1655942135805688
  0.6686369232857885  0.4979326159378274  0.1655738036052981
  0.9999077493769093  0.4992393344713904  0.1633189828767527
  0.3312046390023227  0.8353594147517711  0.1655749829030455
  0.6686551677672057  0.8353864651084066  0.1655861040130446
  0.9999240206665689  0.8340478731942227  0.1633166790507161
  0.3321545783689075  0.1666667995132940  0.6616551477285455
  0.6675033683356375  0.1666733283493542  0.6616554017217879
  0.9998337610096328  0.1666709958273316  0.6626981491988104
  0.3326371629569564  0.4994735553601402  0.6617050924926318
  0.6670240687462297  0.4994811026595727  0.6617041466928129
  0.9998314224869915  0.4989965687951567  0.6616570916948703
  0.3326432468353886  0.8338599202030963  0.6617048624592883
  0.6670288871620471  0.8338677043047653  0.6617046677031624
  0.9998369635069153  0.8343444323483311  0.6616561955684546
  0.1590829220819145  0.1666754536794741  0.4952560696190602
  0.4998129841036132  0.1666681004287796  0.4995897927653346
  0.8405170779899720  0.1666702813161223  0.4952774625483300
  0.1651182977523575  0.4990895684800876  0.5000270783213239
  0.4998023046643212  0.4994371780207416  0.4994963033586330
  0.8344979654631004  0.4991063353786700  0.5000254703677669
  0.1651259541820025  0.8342455966098683  0.5000295565585020
  0.4998079832936995  0.8339031153517311  0.4994969773872100
  0.8345061080923628  0.8342468872100568  0.5000219884451056
  0.1669913473956015  0.1666427798532197  0.9995661154888253
  0.4999399566217875  0.1666450623050650  0.0007075916528692
  0.8328941396441394  0.1666485210145794  0.9995612933319364
  0.1669485918836315  0.5005852086075393  0.9999452791736516
  0.4999371892263795  0.5006128506171876  0.0009280117072876
  0.8329324964559248  0.5005906296883396  0.9999416474284644
  0.1669511083462254  0.8326971218548707  0.9999425139591978
  0.4999445525268342  0.8326778289488175  0.0009244073438524
  0.8329375893763213  0.8327042229655532  0.9999399686817512
  0.9999471055633862  0.9995986751456485  0.9995623066730204
  0.3338879869498115  0.9996360109807156  0.9999420104116581
  0.6660007023180512  0.9996418472722652  0.9999403842567105
  0.9999427749009726  0.3336940205722883  0.9995664339577388
  0.3338832351353744  0.3336501667099725  0.9999449588954334
  0.6659935114271178  0.3336543287227798  0.9999421563819553
  0.9999441916172600  0.6666452439354558  0.0007077440397012
  0.3339103187365353  0.6666441270550152  0.0009269145677422
  0.6659742633666212  0.6666503306297713  0.0009250576458371
  0.9998149266154925  0.0073902698306938  0.4952693326679878
  0.3322336389512230  0.0013666349348185  0.5000257341601966
  0.6673832392621719  0.0013580877405204  0.5000283810401385
  0.9997968006304063  0.3259560503985526  0.4952682635950225
  0.3322343366771321  0.3319668979246941  0.5000273162077420
  0.6673773683048552  0.3319855928667224  0.5000282587095626
  0.9998177433118300  0.6666710491281975  0.4995910586179519
  0.3325707827688049  0.6666653683989878  0.4994905513880070
  0.6670369595718384  0.6666747631129297  0.4994973171813868
 
  0.00000000E+00  0.00000000E+00  0.00000000E+00
  0.00000000E+00  0.00000000E+00  0.00000000E+00
  0.00000000E+00  0.00000000E+00  0.00000000E+00
  0.00000000E+00  0.00000000E+00  0.00000000E+00
  0.00000000E+00  0.00000000E+00  0.00000000E+00
  0.00000000E+00  0.00000000E+00  0.00000000E+00
  0.00000000E+00  0.00000000E+00  0.00000000E+00
  0.00000000E+00  0.00000000E+00  0.00000000E+00
  0.00000000E+00  0.00000000E+00  0.00000000E+00
  0.00000000E+00  0.00000000E+00  0.00000000E+00
  0.00000000E+00  0.00000000E+00  0.00000000E+00
  0.00000000E+00  0.00000000E+00  0.00000000E+00
  0.00000000E+00  0.00000000E+00  0.00000000E+00
  0.00000000E+00  0.00000000E+00  0.00000000E+00
  0.00000000E+00  0.00000000E+00  0.00000000E+00
  0.00000000E+00  0.00000000E+00  0.00000000E+00
  0.00000000E+00  0.00000000E+00  0.00000000E+00
  0.00000000E+00  0.00000000E+00  0.00000000E+00
  0.00000000E+00  0.00000000E+00  0.00000000E+00
  0.00000000E+00  0.00000000E+00  0.00000000E+00
  0.00000000E+00  0.00000000E+00  0.00000000E+00
  0.00000000E+00  0.00000000E+00  0.00000000E+00
  0.00000000E+00  0.00000000E+00  0.00000000E+00
  0.00000000E+00  0.00000000E+00  0.00000000E+00
  0.00000000E+00  0.00000000E+00  0.00000000E+00
  0.00000000E+00  0.00000000E+00  0.00000000E+00
  0.00000000E+00  0.00000000E+00  0.00000000E+00
  0.00000000E+00  0.00000000E+00  0.00000000E+00
  0.00000000E+00  0.00000000E+00  0.00000000E+00
  0.00000000E+00  0.00000000E+00  0.00000000E+00
  0.00000000E+00  0.00000000E+00  0.00000000E+00
  0.00000000E+00  0.00000000E+00  0.00000000E+00
  0.00000000E+00  0.00000000E+00  0.00000000E+00
  0.00000000E+00  0.00000000E+00  0.00000000E+00
  0.00000000E+00  0.00000000E+00  0.00000000E+00
  0.00000000E+00  0.00000000E+00  0.00000000E+00
  0.00000000E+00  0.00000000E+00  0.00000000E+00
  0.00000000E+00  0.00000000E+00  0.00000000E+00
  0.00000000E+00  0.00000000E+00  0.00000000E+00
  0.00000000E+00  0.00000000E+00  0.00000000E+00
  0.00000000E+00  0.00000000E+00  0.00000000E+00
  0.00000000E+00  0.00000000E+00  0.00000000E+00
  0.00000000E+00  0.00000000E+00  0.00000000E+00
  0.00000000E+00  0.00000000E+00  0.00000000E+00
  0.00000000E+00  0.00000000E+00  0.00000000E+00
  0.00000000E+00  0.00000000E+00  0.00000000E+00
  0.00000000E+00  0.00000000E+00  0.00000000E+00
  0.00000000E+00  0.00000000E+00  0.00000000E+00
  0.00000000E+00  0.00000000E+00  0.00000000E+00
  0.00000000E+00  0.00000000E+00  0.00000000E+00
  0.00000000E+00  0.00000000E+00  0.00000000E+00
  0.00000000E+00  0.00000000E+00  0.00000000E+00
  0.00000000E+00  0.00000000E+00  0.00000000E+00
  0.00000000E+00  0.00000000E+00  0.00000000E+00
  0.00000000E+00  0.00000000E+00  0.00000000E+00
  0.00000000E+00  0.00000000E+00  0.00000000E+00
  0.00000000E+00  0.00000000E+00  0.00000000E+00
  0.00000000E+00  0.00000000E+00  0.00000000E+00
  0.00000000E+00  0.00000000E+00  0.00000000E+00
  0.00000000E+00  0.00000000E+00  0.00000000E+00
  0.00000000E+00  0.00000000E+00  0.00000000E+00
  0.00000000E+00  0.00000000E+00  0.00000000E+00
  0.00000000E+00  0.00000000E+00  0.00000000E+00
  0.00000000E+00  0.00000000E+00  0.00000000E+00
  0.00000000E+00  0.00000000E+00  0.00000000E+00
  0.00000000E+00  0.00000000E+00  0.00000000E+00
  0.00000000E+00  0.00000000E+00  0.00000000E+00
  0.00000000E+00  0.00000000E+00  0.00000000E+00
  0.00000000E+00  0.00000000E+00  0.00000000E+00
  0.00000000E+00  0.00000000E+00  0.00000000E+00
  0.00000000E+00  0.00000000E+00  0.00000000E+00
  0.00000000E+00  0.00000000E+00  0.00000000E+00
  0.00000000E+00  0.00000000E+00  0.00000000E+00
  0.00000000E+00  0.00000000E+00  0.00000000E+00
  0.00000000E+00  0.00000000E+00  0.00000000E+00
  0.00000000E+00  0.00000000E+00  0.00000000E+00
  0.00000000E+00  0.00000000E+00  0.00000000E+00
  0.00000000E+00  0.00000000E+00  0.00000000E+00
  0.00000000E+00  0.00000000E+00  0.00000000E+00
  0.00000000E+00  0.00000000E+00  0.00000000E+00
  0.00000000E+00  0.00000000E+00  0.00000000E+00
  0.00000000E+00  0.00000000E+00  0.00000000E+00
  0.00000000E+00  0.00000000E+00  0.00000000E+00
  0.00000000E+00  0.00000000E+00  0.00000000E+00
  0.00000000E+00  0.00000000E+00  0.00000000E+00
  0.00000000E+00  0.00000000E+00  0.00000000E+00
  0.00000000E+00  0.00000000E+00  0.00000000E+00
  0.00000000E+00  0.00000000E+00  0.00000000E+00
  0.00000000E+00  0.00000000E+00  0.00000000E+00
  0.00000000E+00  0.00000000E+00  0.00000000E+00
  0.00000000E+00  0.00000000E+00  0.00000000E+00
  0.00000000E+00  0.00000000E+00  0.00000000E+00
  0.00000000E+00  0.00000000E+00  0.00000000E+00
  0.00000000E+00  0.00000000E+00  0.00000000E+00
  0.00000000E+00  0.00000000E+00  0.00000000E+00
  0.00000000E+00  0.00000000E+00  0.00000000E+00
  0.00000000E+00  0.00000000E+00  0.00000000E+00
  0.00000000E+00  0.00000000E+00  0.00000000E+00
  0.00000000E+00  0.00000000E+00  0.00000000E+00
  0.00000000E+00  0.00000000E+00  0.00000000E+00
  0.00000000E+00  0.00000000E+00  0.00000000E+00
  0.00000000E+00  0.00000000E+00  0.00000000E+00
  0.00000000E+00  0.00000000E+00  0.00000000E+00
  0.00000000E+00  0.00000000E+00  0.00000000E+00
  0.00000000E+00  0.00000000E+00  0.00000000E+00
  0.00000000E+00  0.00000000E+00  0.00000000E+00
  0.00000000E+00  0.00000000E+00  0.00000000E+00
  0.00000000E+00  0.00000000E+00  0.00000000E+00
  0.00000000E+00  0.00000000E+00  0.00000000E+00
  0.00000000E+00  0.00000000E+00  0.00000000E+00
  0.00000000E+00  0.00000000E+00  0.00000000E+00
  0.00000000E+00  0.00000000E+00  0.00000000E+00
  0.00000000E+00  0.00000000E+00  0.00000000E+00
  0.00000000E+00  0.00000000E+00  0.00000000E+00
  0.00000000E+00  0.00000000E+00  0.00000000E+00
  0.00000000E+00  0.00000000E+00  0.00000000E+00
  0.00000000E+00  0.00000000E+00  0.00000000E+00
  0.00000000E+00  0.00000000E+00  0.00000000E+00
  0.00000000E+00  0.00000000E+00  0.00000000E+00
  0.00000000E+00  0.00000000E+00  0.00000000E+00
  0.00000000E+00  0.00000000E+00  0.00000000E+00
  0.00000000E+00  0.00000000E+00  0.00000000E+00
  0.00000000E+00  0.00000000E+00  0.00000000E+00
  0.00000000E+00  0.00000000E+00  0.00000000E+00
  0.00000000E+00  0.00000000E+00  0.00000000E+00
  0.00000000E+00  0.00000000E+00  0.00000000E+00
  0.00000000E+00  0.00000000E+00  0.00000000E+00
  0.00000000E+00  0.00000000E+00  0.00000000E+00
  0.00000000E+00  0.00000000E+00  0.00000000E+00
  0.00000000E+00  0.00000000E+00  0.00000000E+00
  0.00000000E+00  0.00000000E+00  0.00000000E+00
  0.00000000E+00  0.00000000E+00  0.00000000E+00
  0.00000000E+00  0.00000000E+00  0.00000000E+00
  0.00000000E+00  0.00000000E+00  0.00000000E+00
  0.00000000E+00  0.00000000E+00  0.00000000E+00
  0.00000000E+00  0.00000000E+00  0.00000000E+00
  0.00000000E+00  0.00000000E+00  0.00000000E+00
  0.00000000E+00  0.00000000E+00  0.00000000E+00
  0.00000000E+00  0.00000000E+00  0.00000000E+00
  0.00000000E+00  0.00000000E+00  0.00000000E+00
  0.00000000E+00  0.00000000E+00  0.00000000E+00
  0.00000000E+00  0.00000000E+00  0.00000000E+00
  0.00000000E+00  0.00000000E+00  0.00000000E+00
  0.00000000E+00  0.00000000E+00  0.00000000E+00
