supercell of icsd_181358.cif            
   1.00000000000000     
     9.2305190851994769   -0.0755476723220175    0.0887636438441932
    -4.6812615492946126    8.1514847372285875   -0.1162800745295636
     0.0976640924379636   -0.0914845344962581    9.8755830706229091
   N    Ga   B 
    36    28     8
Direct
  0.2144541800040400  0.1026185688176682  0.4465157459701743
  0.0894485362757536  0.2285066810459710  0.2068736594103413
  0.8819296761306106  0.0955000538951722  0.9247303400007993
  0.7808259494918630  0.2287780228373464  0.6584131619041713
  0.5895911909217304  0.1308148144880477  0.4470788522635729
  0.4443883738334407  0.2276403524680504  0.1984654146058986
  0.2168312961327459  0.1072796876358879  0.9497720976697082
  0.1073227572885145  0.2163585066620968  0.6884812958046140
  0.9041835623991830  0.1881451709288626  0.4174202752364664
  0.8006728527737437  0.2225024770694759  0.1944802447346987
  0.5581652603995764  0.1087885272253715  0.9375466914560633
  0.4417689278082690  0.2198354557476065  0.6954711830916125
  0.2587150432067062  0.4642418372577239  0.4549546985494146
  0.1295861899146402  0.5920876058802662  0.1989561020376556
  0.8902473816349925  0.4371714310209214  0.9390420550747436
  0.7974385387441103  0.5832648275475520  0.7054245011393192
  0.5349743089223722  0.4503158641299621  0.4576047562307934
  0.4656271462894992  0.5883726284170763  0.2018542094406044
  0.2219359652778934  0.4411544327065258  0.9466246118293284
  0.1295595376249423  0.5828704605579063  0.6964527261237308
  0.8767903918181119  0.4378959501718143  0.4551367037301759
  0.7773812121989536  0.5510756379691202  0.1956274938431832
  0.5527619980418876  0.4442713777855190  0.9446315256237909
  0.4388932956700700  0.5414192657107364  0.6666587661314196
  0.2224573942009300  0.7827991539847616  0.4128772660883442
  0.1146517320753802  0.8727358380031376  0.1946083056869696
  0.8961938554420144  0.7676464922577537  0.9154879001002882
  0.7464584196542532  0.8887296663117468  0.6382024169580518
  0.5968963696691105  0.7953923477353939  0.4108016060193336
  0.4055701249231731  0.8850866947900542  0.1926728142432097
  0.2244954539501336  0.7748650370976691  0.9097254664040548
  0.0950291756182082  0.8510740363485780  0.7057435881529557
  0.8677263655957290  0.7864605105065934  0.4482820376907242
  0.7470768217877222  0.8510333601153803  0.1812536320376239
  0.5493845461770661  0.7725534455827798  0.9216861554822486
  0.4034917049211586  0.8699591012829018  0.6819788383749810
  0.2123150935459961  0.1025321588842658  0.2527835162673640
  0.0988461239294480  0.2170175475310714  0.0071799415538720
  0.8735008584546478  0.0946629797876142  0.7260928603799002
  0.5598322690589086  0.1035651764205952  0.2530538637829665
  0.4459654651667222  0.2214134755958526  0.0036780704471866
  0.2103382399176681  0.0965503549217459  0.7551956793458601
  0.1052981079296629  0.2251524511054939  0.4960327636374302
  0.7830268629291268  0.2147624080171227  0.0000619611123298
  0.5509182535049675  0.1014596003494006  0.7401708304947263
  0.4460672838843323  0.2173871663534612  0.5025768963368122
  0.2384974404025542  0.4736289436116436  0.2606726938939659
  0.1172410331966560  0.5649080334132321  0.0009804193444296
  0.8950629292904395  0.4440235908034182  0.7444375351901158
  0.7718452280295196  0.5639900098843000  0.5112767804183491
  0.5525014102676380  0.4499375399139964  0.2600460792075694
  0.4496556160800509  0.5652798674433228  0.0067615773738936
  0.2189285372244640  0.4432145184501195  0.7514692296217689
  0.1225335184286180  0.5686885083510020  0.5018340911164714
  0.8966196512027125  0.4533568437092512  0.2591975882820918
  0.7786852491518772  0.5512934620936107  0.0014579362224438
  0.5581696427055078  0.4488180162325150  0.7534420674812594
  0.1167311930609216  0.8820863083572377  0.9982973672031719
  0.4391069048328973  0.8843075571407866  0.0014620178490574
  0.1000379295181304  0.8790366556594620  0.5064680858095230
  0.8859074939946083  0.7801886140221015  0.2535028442584846
  0.7706272554668487  0.8761875976707145  0.9915988970757894
  0.5391077234814574  0.7717621729465804  0.7283977607371597
  0.4585254875256908  0.8870229809672523  0.4803215221300192
  0.7851621741230943  0.2387816552506834  0.4942760847198926
  0.9212634525622292  0.1929626776201943  0.2729744929101301
  0.4207251151127096  0.5051413220816841  0.5186041197321885
  0.2253130997827384  0.7864547984371697  0.2492936966918435
  0.9221367148187483  0.7428725297002003  0.7701360669020900
  0.7408040048041542  0.8365249396194514  0.4977898686791136
  0.5953521901529868  0.7570406462074146  0.2609053890937076
  0.2204249096427233  0.7687415694525797  0.7500322655559941
 
  0.00000000E+00  0.00000000E+00  0.00000000E+00
  0.00000000E+00  0.00000000E+00  0.00000000E+00
  0.00000000E+00  0.00000000E+00  0.00000000E+00
  0.00000000E+00  0.00000000E+00  0.00000000E+00
  0.00000000E+00  0.00000000E+00  0.00000000E+00
  0.00000000E+00  0.00000000E+00  0.00000000E+00
  0.00000000E+00  0.00000000E+00  0.00000000E+00
  0.00000000E+00  0.00000000E+00  0.00000000E+00
  0.00000000E+00  0.00000000E+00  0.00000000E+00
  0.00000000E+00  0.00000000E+00  0.00000000E+00
  0.00000000E+00  0.00000000E+00  0.00000000E+00
  0.00000000E+00  0.00000000E+00  0.00000000E+00
  0.00000000E+00  0.00000000E+00  0.00000000E+00
  0.00000000E+00  0.00000000E+00  0.00000000E+00
  0.00000000E+00  0.00000000E+00  0.00000000E+00
  0.00000000E+00  0.00000000E+00  0.00000000E+00
  0.00000000E+00  0.00000000E+00  0.00000000E+00
  0.00000000E+00  0.00000000E+00  0.00000000E+00
  0.00000000E+00  0.00000000E+00  0.00000000E+00
  0.00000000E+00  0.00000000E+00  0.00000000E+00
  0.00000000E+00  0.00000000E+00  0.00000000E+00
  0.00000000E+00  0.00000000E+00  0.00000000E+00
  0.00000000E+00  0.00000000E+00  0.00000000E+00
  0.00000000E+00  0.00000000E+00  0.00000000E+00
  0.00000000E+00  0.00000000E+00  0.00000000E+00
  0.00000000E+00  0.00000000E+00  0.00000000E+00
  0.00000000E+00  0.00000000E+00  0.00000000E+00
  0.00000000E+00  0.00000000E+00  0.00000000E+00
  0.00000000E+00  0.00000000E+00  0.00000000E+00
  0.00000000E+00  0.00000000E+00  0.00000000E+00
  0.00000000E+00  0.00000000E+00  0.00000000E+00
  0.00000000E+00  0.00000000E+00  0.00000000E+00
  0.00000000E+00  0.00000000E+00  0.00000000E+00
  0.00000000E+00  0.00000000E+00  0.00000000E+00
  0.00000000E+00  0.00000000E+00  0.00000000E+00
  0.00000000E+00  0.00000000E+00  0.00000000E+00
  0.00000000E+00  0.00000000E+00  0.00000000E+00
  0.00000000E+00  0.00000000E+00  0.00000000E+00
  0.00000000E+00  0.00000000E+00  0.00000000E+00
  0.00000000E+00  0.00000000E+00  0.00000000E+00
  0.00000000E+00  0.00000000E+00  0.00000000E+00
  0.00000000E+00  0.00000000E+00  0.00000000E+00
  0.00000000E+00  0.00000000E+00  0.00000000E+00
  0.00000000E+00  0.00000000E+00  0.00000000E+00
  0.00000000E+00  0.00000000E+00  0.00000000E+00
  0.00000000E+00  0.00000000E+00  0.00000000E+00
  0.00000000E+00  0.00000000E+00  0.00000000E+00
  0.00000000E+00  0.00000000E+00  0.00000000E+00
  0.00000000E+00  0.00000000E+00  0.00000000E+00
  0.00000000E+00  0.00000000E+00  0.00000000E+00
  0.00000000E+00  0.00000000E+00  0.00000000E+00
  0.00000000E+00  0.00000000E+00  0.00000000E+00
  0.00000000E+00  0.00000000E+00  0.00000000E+00
  0.00000000E+00  0.00000000E+00  0.00000000E+00
  0.00000000E+00  0.00000000E+00  0.00000000E+00
  0.00000000E+00  0.00000000E+00  0.00000000E+00
  0.00000000E+00  0.00000000E+00  0.00000000E+00
  0.00000000E+00  0.00000000E+00  0.00000000E+00
  0.00000000E+00  0.00000000E+00  0.00000000E+00
  0.00000000E+00  0.00000000E+00  0.00000000E+00
  0.00000000E+00  0.00000000E+00  0.00000000E+00
  0.00000000E+00  0.00000000E+00  0.00000000E+00
  0.00000000E+00  0.00000000E+00  0.00000000E+00
  0.00000000E+00  0.00000000E+00  0.00000000E+00
  0.00000000E+00  0.00000000E+00  0.00000000E+00
  0.00000000E+00  0.00000000E+00  0.00000000E+00
  0.00000000E+00  0.00000000E+00  0.00000000E+00
  0.00000000E+00  0.00000000E+00  0.00000000E+00
  0.00000000E+00  0.00000000E+00  0.00000000E+00
  0.00000000E+00  0.00000000E+00  0.00000000E+00
  0.00000000E+00  0.00000000E+00  0.00000000E+00
  0.00000000E+00  0.00000000E+00  0.00000000E+00
