Al   Sc   N                             
   1.00000000000000     
    -9.6367779757452574    0.0035964046996481   -0.0021916075480090
    -4.8215031192270787    8.3616223298964290    0.0005663098302200
    -0.0024246772677614   -0.0020202804312662   -9.9269086739887733
   Al   Sc   N 
    28     8    36
Direct
  0.1088715297824265  0.0964186013430250  0.2946108098728217
  0.2282221774938193  0.1971745219830083  0.0481950313889143
  0.7777601522877973  0.0973363019012012  0.7988931346296866
  0.8864943022616956  0.2067480890157540  0.5477241473007624
  0.4407310300559644  0.0948379793638239  0.2964787768784234
  0.5550692599348324  0.2042495030280378  0.0448958758256168
  0.1061944982566416  0.0972841985473138  0.7985663220913821
  0.2191841053674750  0.2062465212357338  0.5446893217402646
  0.7814755150478803  0.0951504183056571  0.2946425637234569
  0.8865033523145129  0.2031975958426031  0.0455371884760467
  0.4435857301629511  0.0958338444755995  0.7967324672480203
  0.5618483397426104  0.1969133924448343  0.5487973012121969
  0.1170741056783058  0.4214942211005805  0.2912523241230147
  0.2284331554032590  0.5403595742897096  0.0436042492173598
  0.7789772840234122  0.4195743428627736  0.7942417166721469
  0.8902792671074806  0.5289944887016134  0.5370085838007697
  0.5581530248926754  0.5277803375702561  0.0455923424407345
  0.7787677249319529  0.4194819799802829  0.2983165922366595
  0.4539085023189315  0.4209016298034385  0.7949874659940122
  0.5650461063000947  0.5383057179203590  0.5473740594124337
  0.1107667780295998  0.7646130637799828  0.2889797745153899
  0.2160658608486301  0.8773954429951516  0.0490769232529402
  0.8882580600769359  0.8823828734060797  0.5421058924943765
  0.4430671536022786  0.7626772008394198  0.2880973822894362
  0.5548766751482432  0.8811209132331328  0.0498039088294249
  0.1056570778037482  0.7717857692822179  0.8037562562538554
  0.8861898530265364  0.8792652989694787  0.0486962880123443
  0.5483021635877563  0.8759698039245549  0.5415495865523141
  0.4476349303479523  0.4246897219464074  0.3056586638728263
  0.1116686650871230  0.4221468052898700  0.8106840248525842
  0.2171087510431704  0.5412700910164503  0.5576286818979810
  0.8821408910821376  0.5396910617527269  0.0646636326117260
  0.7788054183079041  0.7652573543430705  0.7890798234289207
  0.2234011405949730  0.8751687015287430  0.5489447352209851
  0.7752120887642278  0.7684669728254576  0.3178017769451387
  0.4473753577335486  0.7573276503562596  0.8166742869711996
  0.2219534279711795  0.2053287721448456  0.3513959255091308
  0.1072434215115123  0.0982124906349569  0.1037710763708048
  0.8885474241318292  0.2050795407175201  0.8534349797674636
  0.7775942743926336  0.0952547930012386  0.6067696812219978
  0.5671541493958614  0.1829293991593914  0.3577292687801261
  0.4437304720521951  0.0970192355462203  0.1058952742097503
  0.2313534690812702  0.1848788075100671  0.8587046685439148
  0.1016898698113380  0.1104623863623004  0.6064649095589729
  0.8890032667467480  0.2037628153071225  0.3557160186487991
  0.7755621997799551  0.0972020030694196  0.1028132628382323
  0.5546056531923043  0.2039465693708493  0.8514769448378487
  0.4416017803621202  0.0952810238991972  0.6036898956104437
  0.2048996671957539  0.5489124333507860  0.3468494976821290
  0.1303320978456028  0.4180388330785263  0.0947555490261394
  0.8739233843959155  0.5355941528764845  0.8554922452265927
  0.7802588833901751  0.4249519097886534  0.6011911969981369
  0.5641489485513702  0.5495984120738271  0.3556025390262363
  0.4447046954623985  0.4248131766661416  0.0960904397884619
  0.2329523314528572  0.5489248276772187  0.8473860537871829
  0.1011811014074055  0.4199634390954117  0.6006846271275279
  0.8992767297503406  0.5180514282216535  0.3407687293122095
  0.7675307509162224  0.4136309706351611  0.1103612488828887
  0.5689415578414767  0.5148746602518273  0.8564287983757879
  0.4638292634960166  0.4177365082639923  0.5981460439245723
  0.2235081316982743  0.8714713052348202  0.3363093881042971
  0.1099425383339465  0.7612539789426265  0.0981512016501682
  0.8916743468928487  0.8835833277744172  0.8594680122628446
  0.7780824043483889  0.7615587463145417  0.5682903109280772
  0.5299369619727727  0.8841543956111408  0.3527216483635769
  0.4468427124587393  0.7580691861284379  0.0904376575540340
  0.2053063677854681  0.8849111799858917  0.8567825693151434
  0.0921519168232905  0.7751421567091867  0.6146186771340112
  0.9026363926719583  0.8854738050413147  0.3540229983359922
  0.7692519249950607  0.7811879461413014  0.1049292770863772
  0.5537553754564613  0.8889044963258641  0.8609806193306682
  0.4617820779788531  0.7523289018830752  0.6063268525932628
 
  0.00000000E+00  0.00000000E+00  0.00000000E+00
  0.00000000E+00  0.00000000E+00  0.00000000E+00
  0.00000000E+00  0.00000000E+00  0.00000000E+00
  0.00000000E+00  0.00000000E+00  0.00000000E+00
  0.00000000E+00  0.00000000E+00  0.00000000E+00
  0.00000000E+00  0.00000000E+00  0.00000000E+00
  0.00000000E+00  0.00000000E+00  0.00000000E+00
  0.00000000E+00  0.00000000E+00  0.00000000E+00
  0.00000000E+00  0.00000000E+00  0.00000000E+00
  0.00000000E+00  0.00000000E+00  0.00000000E+00
  0.00000000E+00  0.00000000E+00  0.00000000E+00
  0.00000000E+00  0.00000000E+00  0.00000000E+00
  0.00000000E+00  0.00000000E+00  0.00000000E+00
  0.00000000E+00  0.00000000E+00  0.00000000E+00
  0.00000000E+00  0.00000000E+00  0.00000000E+00
  0.00000000E+00  0.00000000E+00  0.00000000E+00
  0.00000000E+00  0.00000000E+00  0.00000000E+00
  0.00000000E+00  0.00000000E+00  0.00000000E+00
  0.00000000E+00  0.00000000E+00  0.00000000E+00
  0.00000000E+00  0.00000000E+00  0.00000000E+00
  0.00000000E+00  0.00000000E+00  0.00000000E+00
  0.00000000E+00  0.00000000E+00  0.00000000E+00
  0.00000000E+00  0.00000000E+00  0.00000000E+00
  0.00000000E+00  0.00000000E+00  0.00000000E+00
  0.00000000E+00  0.00000000E+00  0.00000000E+00
  0.00000000E+00  0.00000000E+00  0.00000000E+00
  0.00000000E+00  0.00000000E+00  0.00000000E+00
  0.00000000E+00  0.00000000E+00  0.00000000E+00
  0.00000000E+00  0.00000000E+00  0.00000000E+00
  0.00000000E+00  0.00000000E+00  0.00000000E+00
  0.00000000E+00  0.00000000E+00  0.00000000E+00
  0.00000000E+00  0.00000000E+00  0.00000000E+00
  0.00000000E+00  0.00000000E+00  0.00000000E+00
  0.00000000E+00  0.00000000E+00  0.00000000E+00
  0.00000000E+00  0.00000000E+00  0.00000000E+00
  0.00000000E+00  0.00000000E+00  0.00000000E+00
  0.00000000E+00  0.00000000E+00  0.00000000E+00
  0.00000000E+00  0.00000000E+00  0.00000000E+00
  0.00000000E+00  0.00000000E+00  0.00000000E+00
  0.00000000E+00  0.00000000E+00  0.00000000E+00
  0.00000000E+00  0.00000000E+00  0.00000000E+00
  0.00000000E+00  0.00000000E+00  0.00000000E+00
  0.00000000E+00  0.00000000E+00  0.00000000E+00
  0.00000000E+00  0.00000000E+00  0.00000000E+00
  0.00000000E+00  0.00000000E+00  0.00000000E+00
  0.00000000E+00  0.00000000E+00  0.00000000E+00
  0.00000000E+00  0.00000000E+00  0.00000000E+00
  0.00000000E+00  0.00000000E+00  0.00000000E+00
  0.00000000E+00  0.00000000E+00  0.00000000E+00
  0.00000000E+00  0.00000000E+00  0.00000000E+00
  0.00000000E+00  0.00000000E+00  0.00000000E+00
  0.00000000E+00  0.00000000E+00  0.00000000E+00
  0.00000000E+00  0.00000000E+00  0.00000000E+00
  0.00000000E+00  0.00000000E+00  0.00000000E+00
  0.00000000E+00  0.00000000E+00  0.00000000E+00
  0.00000000E+00  0.00000000E+00  0.00000000E+00
  0.00000000E+00  0.00000000E+00  0.00000000E+00
  0.00000000E+00  0.00000000E+00  0.00000000E+00
  0.00000000E+00  0.00000000E+00  0.00000000E+00
  0.00000000E+00  0.00000000E+00  0.00000000E+00
  0.00000000E+00  0.00000000E+00  0.00000000E+00
  0.00000000E+00  0.00000000E+00  0.00000000E+00
  0.00000000E+00  0.00000000E+00  0.00000000E+00
  0.00000000E+00  0.00000000E+00  0.00000000E+00
  0.00000000E+00  0.00000000E+00  0.00000000E+00
  0.00000000E+00  0.00000000E+00  0.00000000E+00
  0.00000000E+00  0.00000000E+00  0.00000000E+00
  0.00000000E+00  0.00000000E+00  0.00000000E+00
  0.00000000E+00  0.00000000E+00  0.00000000E+00
  0.00000000E+00  0.00000000E+00  0.00000000E+00
  0.00000000E+00  0.00000000E+00  0.00000000E+00
  0.00000000E+00  0.00000000E+00  0.00000000E+00
