supercell of icsd_191774.cif            
   1.00000000000000     
    11.1586193041761188    0.0076813231380288   -0.0144753094642412
    -5.5726341597890681    9.6757242714987708    0.0053029293301464
    -0.0151374278266163   -0.0020570734000558    9.2074321007994744
   N    In   Sc
    36    14    22
Direct
  0.2211151268054863  0.1113606292304894  0.4796129249379462
  0.1132348859011856  0.2230009315077837  0.2206450129472159
  0.8917874270239494  0.1111394099428367  0.9700180941155097
  0.7747238878510387  0.2254296273147318  0.7285726451084287
  0.5487943343382398  0.1061627384501662  0.4704151846606095
  0.4495776095138453  0.2256387771545221  0.2280220510374704
  0.2231248447857226  0.1129117306525131  0.9645156350952249
  0.1190972194491309  0.2256684707668413  0.7202311843659999
  0.8897213648082243  0.1137518553739767  0.4697627275938885
  0.7741868329455244  0.2258963327534147  0.2118232040098533
  0.5567873250627571  0.1063148431515799  0.9693610667975037
  0.4478050103204012  0.2241031542710843  0.7093600388408845
  0.2213309907123389  0.4418925959770093  0.4782838966998924
  0.1080122384952205  0.5548929996385965  0.2154670565056307
  0.8919774897821355  0.4414236696960359  0.9706953328186927
  0.7754638921610706  0.5510962498249583  0.7109351423863544
  0.5542475883124141  0.4456291919104558  0.4692126498085898
  0.4455013173448990  0.5543109408363591  0.2249352902063748
  0.2188010630909218  0.4410000839756592  0.9624704885254829
  0.1094829653894323  0.5551469012258750  0.7308817236249965
  0.8862828488226384  0.4468130054077974  0.4705773029390841
  0.7763130585892881  0.5536970414304534  0.2287482777873961
  0.5558493784699081  0.4435324746495795  0.9689101398600215
  0.4447793415584727  0.5547387168181857  0.7096085314407006
  0.2243857810059282  0.7799392216028167  0.4782412439374824
  0.1094795683515102  0.8880304400440053  0.2246049663296432
  0.8892771331594957  0.7754868382002797  0.9707565352544165
  0.7752391711630864  0.8870479842126571  0.7125663611086779
  0.5547643355051690  0.7783581794400192  0.4799653653524487
  0.4475120598000046  0.8952103583165751  0.2207833703559743
  0.2256386378072079  0.7772205866554813  0.9623248353881451
  0.1139898212011019  0.8901895995085667  0.7104028933149777
  0.8888150876941623  0.7793564326472264  0.4578388983110315
  0.7770617560670914  0.8857768103691228  0.2251355987691426
  0.5525319106218660  0.7776577535959106  0.9640687549016675
  0.4447395527712672  0.8899639272271074  0.7201400899105579
  0.2252976875593760  0.1119481435166776  0.2243758830439759
  0.8919395125389116  0.1138653192900136  0.7199542432785719
  0.8875164553704877  0.1119336227401888  0.2200279698484238
  0.7733283845782140  0.2229368951448265  0.4713869241476303
  0.4470154852815824  0.2202909513439337  0.9662906296513114
  0.2223429325511646  0.4454360456382247  0.2208015578759799
  0.1101429039245900  0.5554903754324840  0.4753382085266153
  0.7791650919824562  0.5523292427540909  0.9698117700983175
  0.4431273920833902  0.5543271206604743  0.9651269007461281
  0.2242182767751473  0.7785973359523268  0.2213900690623305
  0.8893119776042155  0.7765051977366326  0.7130070690318036
  0.7765026594641853  0.8865970838952890  0.9681501939799233
  0.5537357228515205  0.7778921825776095  0.2234152245800871
  0.1132462437684296  0.8889069091715172  0.9667869419389916
  0.1110791727897649  0.2230512411353729  0.4705093076847291
  0.7778949308437433  0.2214663196073232  0.9692984727685072
  0.5559662956861331  0.1131569808902384  0.2210055636653294
  0.4441156407301747  0.2243090254551490  0.4710524145112558
  0.2239032606432616  0.1114723388363927  0.7179609036898995
  0.1127723385548336  0.2216081963322409  0.9703936955478127
  0.5546477591193266  0.1099484739068757  0.7186012306259144
  0.8893647383895242  0.4448906284145906  0.7197737328419862
  0.5560728290132033  0.4451658590037937  0.2195654480931992
  0.4440202295754929  0.5563009294524619  0.4709893808862802
  0.2223303323916141  0.4448205453873086  0.7199246219731990
  0.1117421710020352  0.5558483540237660  0.9696786026067912
  0.8881386561656228  0.4450599798882493  0.2220102384886289
  0.7755623223160839  0.5570425696223111  0.4695403394136690
  0.5549018781566062  0.4446055120762722  0.7181507272643799
  0.1104128521793371  0.8891818243549352  0.4700824437804343
  0.4437787510071942  0.8874441548287422  0.4715327181930746
  0.2219556171209263  0.7768355581670932  0.7196715315505813
  0.8881134508551938  0.7765517406134208  0.2199096120341366
  0.7763957459340460  0.8891823272520369  0.4699174868959233
  0.5545633220022665  0.7769645472364459  0.7189710076213771
  0.4439441225077871  0.8882459638799816  0.9695024190049111
 
  0.00000000E+00  0.00000000E+00  0.00000000E+00
  0.00000000E+00  0.00000000E+00  0.00000000E+00
  0.00000000E+00  0.00000000E+00  0.00000000E+00
  0.00000000E+00  0.00000000E+00  0.00000000E+00
  0.00000000E+00  0.00000000E+00  0.00000000E+00
  0.00000000E+00  0.00000000E+00  0.00000000E+00
  0.00000000E+00  0.00000000E+00  0.00000000E+00
  0.00000000E+00  0.00000000E+00  0.00000000E+00
  0.00000000E+00  0.00000000E+00  0.00000000E+00
  0.00000000E+00  0.00000000E+00  0.00000000E+00
  0.00000000E+00  0.00000000E+00  0.00000000E+00
  0.00000000E+00  0.00000000E+00  0.00000000E+00
  0.00000000E+00  0.00000000E+00  0.00000000E+00
  0.00000000E+00  0.00000000E+00  0.00000000E+00
  0.00000000E+00  0.00000000E+00  0.00000000E+00
  0.00000000E+00  0.00000000E+00  0.00000000E+00
  0.00000000E+00  0.00000000E+00  0.00000000E+00
  0.00000000E+00  0.00000000E+00  0.00000000E+00
  0.00000000E+00  0.00000000E+00  0.00000000E+00
  0.00000000E+00  0.00000000E+00  0.00000000E+00
  0.00000000E+00  0.00000000E+00  0.00000000E+00
  0.00000000E+00  0.00000000E+00  0.00000000E+00
  0.00000000E+00  0.00000000E+00  0.00000000E+00
  0.00000000E+00  0.00000000E+00  0.00000000E+00
  0.00000000E+00  0.00000000E+00  0.00000000E+00
  0.00000000E+00  0.00000000E+00  0.00000000E+00
  0.00000000E+00  0.00000000E+00  0.00000000E+00
  0.00000000E+00  0.00000000E+00  0.00000000E+00
  0.00000000E+00  0.00000000E+00  0.00000000E+00
  0.00000000E+00  0.00000000E+00  0.00000000E+00
  0.00000000E+00  0.00000000E+00  0.00000000E+00
  0.00000000E+00  0.00000000E+00  0.00000000E+00
  0.00000000E+00  0.00000000E+00  0.00000000E+00
  0.00000000E+00  0.00000000E+00  0.00000000E+00
  0.00000000E+00  0.00000000E+00  0.00000000E+00
  0.00000000E+00  0.00000000E+00  0.00000000E+00
  0.00000000E+00  0.00000000E+00  0.00000000E+00
  0.00000000E+00  0.00000000E+00  0.00000000E+00
  0.00000000E+00  0.00000000E+00  0.00000000E+00
  0.00000000E+00  0.00000000E+00  0.00000000E+00
  0.00000000E+00  0.00000000E+00  0.00000000E+00
  0.00000000E+00  0.00000000E+00  0.00000000E+00
  0.00000000E+00  0.00000000E+00  0.00000000E+00
  0.00000000E+00  0.00000000E+00  0.00000000E+00
  0.00000000E+00  0.00000000E+00  0.00000000E+00
  0.00000000E+00  0.00000000E+00  0.00000000E+00
  0.00000000E+00  0.00000000E+00  0.00000000E+00
  0.00000000E+00  0.00000000E+00  0.00000000E+00
  0.00000000E+00  0.00000000E+00  0.00000000E+00
  0.00000000E+00  0.00000000E+00  0.00000000E+00
  0.00000000E+00  0.00000000E+00  0.00000000E+00
  0.00000000E+00  0.00000000E+00  0.00000000E+00
  0.00000000E+00  0.00000000E+00  0.00000000E+00
  0.00000000E+00  0.00000000E+00  0.00000000E+00
  0.00000000E+00  0.00000000E+00  0.00000000E+00
  0.00000000E+00  0.00000000E+00  0.00000000E+00
  0.00000000E+00  0.00000000E+00  0.00000000E+00
  0.00000000E+00  0.00000000E+00  0.00000000E+00
  0.00000000E+00  0.00000000E+00  0.00000000E+00
  0.00000000E+00  0.00000000E+00  0.00000000E+00
  0.00000000E+00  0.00000000E+00  0.00000000E+00
  0.00000000E+00  0.00000000E+00  0.00000000E+00
  0.00000000E+00  0.00000000E+00  0.00000000E+00
  0.00000000E+00  0.00000000E+00  0.00000000E+00
  0.00000000E+00  0.00000000E+00  0.00000000E+00
  0.00000000E+00  0.00000000E+00  0.00000000E+00
  0.00000000E+00  0.00000000E+00  0.00000000E+00
  0.00000000E+00  0.00000000E+00  0.00000000E+00
  0.00000000E+00  0.00000000E+00  0.00000000E+00
  0.00000000E+00  0.00000000E+00  0.00000000E+00
  0.00000000E+00  0.00000000E+00  0.00000000E+00
  0.00000000E+00  0.00000000E+00  0.00000000E+00
