supercell of supercell of icsd_608626.c 
   1.00600000000000     
    18.8433725412000008    0.0042597715995000    0.0111656436851000
    -6.2786657403800001   10.8752831735999997   -0.0012954496991100
     0.0059525623905900    0.0022414031449000   10.0498800689000003
   Al   Gd   N 
    91     4    96
Direct
  0.1114671771312885  0.0828525771041484  0.2471403267815049
  0.0546200749760857  0.1640746550203218  0.9981320677438461
  0.4426431439251957  0.3358974818315659  0.7539577463581963
  0.3901998818669767  0.4175952799091434  0.4865210138098632
  0.2794090213077922  0.0864181046633874  0.2564987449495035
  0.2255260570444406  0.1686007282230904  0.9955508959306556
  0.1108311828805171  0.3321836931823086  0.7475742261312703
  0.0555044337783670  0.4170777160961023  0.5010753914830985
  0.4434817971610059  0.0837526376380140  0.2480053139379663
  0.3918323912837209  0.1766664043904882  0.9956474269967472
  0.2795471460409544  0.3304388959396292  0.7373598391391099
  0.2218871142645469  0.4167433310365070  0.4974111597952557
  0.1123867107027792  0.0835012257148264  0.7514740757084510
  0.0553016523983132  0.1647925573541329  0.5009107735993368
  0.4431863203667845  0.3347338821222365  0.2458598067020645
  0.2794587642734498  0.0876617530000985  0.7445609557874633
  0.2205044818231556  0.1637054377481277  0.4993766118999829
  0.1102633939138258  0.3318749047616762  0.2568515285619029
  0.0566928449717992  0.4167437592259802  0.9999055093367275
  0.4431598216921842  0.0838839471024997  0.7512238939740854
  0.3906280618901405  0.1688401079704249  0.4999982948088260
  0.2789589042420246  0.3316907426646907  0.2612913209204777
  0.6110445415315695  0.0836778128785696  0.2485614673094005
  0.5507717901664932  0.1629836547283645  0.9977848583032838
  0.9460857760549857  0.3345890319836116  0.7514419471170939
  0.8899896671731824  0.4165775652919237  0.5010359420342425
  0.7791269767515772  0.0857616542857258  0.2594253322114071
  0.7249946528682969  0.1685115216054527  0.9979772058402787
  0.6060919913931784  0.3306554104103867  0.7450671146297196
  0.5542248505735330  0.4170063253253673  0.5006003189679404
  0.9446924100169483  0.0830456859045938  0.2495527948878760
  0.8929495432952379  0.1722159721105356  0.9987566605163636
  0.7791247842019402  0.3315203400967590  0.7452366186584740
  0.7216356073144041  0.4160891968950082  0.4996737708608308
  0.6104837121823081  0.0832491600100624  0.7503972430943335
  0.5540339501122915  0.1645131764168966  0.5004747255164972
  0.9452781712397922  0.3336717414626946  0.2500529261931916
  0.8901704929119418  0.4135094565585078  0.9998693116366866
  0.7798834292255208  0.0874873183588321  0.7454239408417536
  0.7211962008170261  0.1657452582842538  0.5022859282141781
  0.6083487633632956  0.3320359977038052  0.2588295355270986
  0.5498760876548019  0.4144302425979589  0.9964102421740719
  0.9453080649660706  0.0832366942180442  0.7507041609576817
  0.8908841192208641  0.1683195280684018  0.5013064944173706
  0.7785788278116712  0.3321153639167207  0.2598048230345853
  0.1118175847111402  0.5833337017242144  0.2484730904497212
  0.0507929955375914  0.6605275854493655  0.9983959040505823
  0.4444538440828723  0.8339394379388949  0.7505426229043479
  0.3901499787185045  0.9177706927895173  0.4998893468644354
  0.2791653142127828  0.5850948651324615  0.2570854610796971
  0.2256326131011761  0.6684980600060939  0.9968979048823954
  0.1066085573027706  0.8294696065416574  0.7428649954628810
  0.0545830449480817  0.9173047133465602  0.5003116556523466
  0.4424607325453209  0.5807931232694798  0.2458408416613125
  0.3936187767802437  0.6744922632072630  0.9938302527134866
  0.2793492672649549  0.8321679141204470  0.7444304137479492
  0.2224093012399422  0.9170517993898457  0.4989380652651434
  0.1116057656508573  0.5832223797754068  0.7498661823350190
  0.0544802259773505  0.6636218037421386  0.5004689872934875
  0.4440867510190643  0.8333105886335090  0.2479471288632595
  0.3896139877861202  0.9165114496032132  0.9987799450977377
  0.2805965544496374  0.5889118873567085  0.7420235647755717
  0.2219192679646511  0.6663137948441360  0.5007556964153821
  0.1091598515296113  0.8311284314071870  0.2594951896487458
  0.0520327133832339  0.9136537008547307  0.9990287417761792
  0.4417925473994373  0.5795482999723518  0.7527984033672226
  0.3911201130221684  0.6694271847842472  0.4991107244187774
  0.2787956434879248  0.8324493992016428  0.2581782623260409
  0.6099229889414630  0.5828917298025473  0.2468399427372603
  0.5469101276123283  0.6589106891947196  0.9955087737857085
  0.9448426945423023  0.8340300598207691  0.7509056911404883
  0.8898327765772578  0.9168481926927967  0.5007136761894557
  0.7782690567833086  0.5853975042791788  0.2592772604647422
  0.7238156135160025  0.6681943861745125  0.9971611738530584
  0.6061864428157264  0.8291353908567345  0.7448102219819788
  0.5546349485227751  0.9175890845491921  0.4999748677868538
  0.9438375491051687  0.5823991093895700  0.2494010689735617
  0.8909686007561675  0.6708097186790738  0.9982889722672610
  0.7790267915086631  0.8315691237006249  0.7445781983597328
  0.7218259043158994  0.9165343667701364  0.4995931567815362
  0.6098054976076313  0.5826320522753079  0.7501396940340754
  0.5538330485266911  0.6645552609514596  0.5008086545088872
  0.9442873310070894  0.8327808226728521  0.2495973552576416
  0.8900378333157519  0.9152444289635326  0.9994077337210641
  0.7790473730436176  0.5872784346186677  0.7445476267688207
  0.7202888014221216  0.6652908633386545  0.5016579399196317
  0.6083774099135724  0.8304970947460859  0.2586695108725579
  0.5535611863857710  0.9167243346753011  0.9983071103330801
  0.9438877361648608  0.5819080183026486  0.7505902031641867
  0.8900978381614308  0.6677180730396515  0.5009683424986804
  0.7783603051567667  0.8319347914188384  0.2594058839127698
  0.2329931015204139  0.4197782973829050  0.9988713152132576
  0.7208596398748455  0.4160732945626151  0.0012540911448653
  0.2180972209699448  0.9132931042676375  0.9999502810729126
  0.7205355968924536  0.9152706834596032  0.0010929772511972
  0.1094369027079694  0.0811843449235496  0.4369436608676551
  0.0552682728560541  0.1661741327749127  0.1902463537079981
  0.4487961968451017  0.3300024555455821  0.9333139001087147
  0.3902320189172812  0.4181709537988354  0.6783232562282251
  0.2788390238106757  0.0847785650991710  0.4444704824287129
  0.2220050689650606  0.1652238024430375  0.1903655323752389
  0.0994090832578820  0.3235133633531433  0.9338160258978618
  0.0556012750489003  0.4177029607318445  0.6898306973778929
  0.4443720261632578  0.0826503830376524  0.4381665207407934
  0.3881623651987596  0.1656487978692880  0.1893528011323511
  0.2723059015467513  0.3109948290047839  0.9130399303526815
  0.2220181450431369  0.4194168711626389  0.6895929077221012
  0.1094410322351962  0.0778375406089253  0.9427579969322366
  0.0554060036328039  0.1644403496980402  0.6902355966934763
  0.4466135659570796  0.3312801002897174  0.4385335958921814
  0.3870494951617047  0.4157310513845687  0.2244704306967762
  0.2848190322842683  0.0976266012498428  0.9301262793877072
  0.2189262489332719  0.1597586863826379  0.6829300005682697
  0.1077996402425256  0.3305663681252256  0.4459174518864089
  0.0559947629415944  0.4164538789067365  0.1914151063715295
  0.4414682414842304  0.0792499475764004  0.9412550072853492
  0.3896669193699935  0.1669211800722437  0.6869710635129138
  0.2746459423704195  0.3284540857991161  0.4501257010800259
  0.2217558684575778  0.4156504104133418  0.2233988536323537
  0.6116569733924351  0.0842011750255551  0.4388324509833055
  0.5558956526957815  0.1674633596620652  0.1902628856377291
  0.9479436673588850  0.3374067006021448  0.9416539746914339
  0.8903748516716945  0.4167793469125414  0.6892655024912671
  0.7795514645551123  0.0866249599831477  0.4479408448878672
  0.7235735603798332  0.1674555399988051  0.1915592738119187
  0.5971834349741911  0.3209316940145115  0.9300169965866942
  0.5557296717982041  0.4192980099165027  0.6873719014170305
  0.9440912008657705  0.0825575189214831  0.4398896119604601
  0.8889847672227233  0.1666643025825820  0.1912749369423921
  0.7858152945896038  0.3256750004323195  0.9306916048767349
  0.7222228813404428  0.4164710127065021  0.6948053618895003
  0.6130792710245743  0.0856523908225171  0.9421983516421690
  0.5543362983932880  0.1638439738136483  0.6890738667608076
  0.9448761684605529  0.3337949097194866  0.4398580073379037
  0.8882848496442364  0.4154184998660000  0.1918345830780410
  0.7874276358491841  0.1038375787323602  0.9311178783331400
  0.7210120120547714  0.1655149755042586  0.6890971419385536
  0.6096318224937960  0.3315582954131813  0.4474020938255734
  0.5569401309245734  0.4168277823086797  0.1895312118413841
  0.9429452574419201  0.0805652545155340  0.9415732583795346
  0.8915908504302692  0.1687271632883309  0.6899594588465305
  0.7789736181208653  0.3321597104856622  0.4479543383834041
  0.7223140366802241  0.4163073341919770  0.2232241159016581
  0.1108992601444072  0.5829627955147814  0.4386248773333392
  0.0551232943499826  0.6662050611048116  0.1905447341098565
  0.4468929961438661  0.8419497777562910  0.9399907500916669
  0.3900432272750294  0.9182000641472143  0.6879249853347389
  0.2790199700781812  0.5868929050050866  0.4450808538487649
  0.2227933381389775  0.6673554462245761  0.1904191189770827
  0.0910450680588113  0.8162249178470873  0.9276549457159859
  0.0540010002981717  0.9172127182794583  0.6881299107646797
  0.4460545475299824  0.5890575760341150  0.4385226335906012
  0.3880123564807576  0.6682345069563524  0.1885850291180162
  0.2846323005697968  0.8270085406599605  0.9301692490059921
  0.2206618355189889  0.9147516505505990  0.6939928487410327
  0.1120723851543346  0.5846921062826453  0.9417285733035285
  0.0536891914300739  0.6620311244765844  0.6886701752090829
  0.4452240570026973  0.8358233216731250  0.4375008913540483
  0.3879503376951590  0.9165153487348832  0.1908225315975471
  0.2877072591037333  0.6083780622760457  0.9254606973284112
  0.2203301872232899  0.6664159685424238  0.6870586515525616
  0.1083525816958826  0.8305192167890851  0.4477574441011072
  0.0551966872843650  0.9141359198969425  0.1909109409283545
  0.4440454541144589  0.5944720974458377  0.9335583963468181
  0.3908925968053722  0.6707692335521216  0.6852894060110586
  0.2785790853695431  0.8323456996863996  0.4463392178575916
  0.2213888507828798  0.9154296784630844  0.2216623879129642
  0.6112422699427569  0.5838614160920557  0.4374319435027800
  0.5560845199394606  0.6683916035015045  0.1888496882225041
  0.9446583657403522  0.8349794250645601  0.9409262246008083
  0.8904112439459908  0.9177005861997003  0.6889381786566062
  0.7789217824377204  0.5859293619884554  0.4477091533101429
  0.7234499776289809  0.6675917072383157  0.1909945079101547
  0.5966076605980675  0.8239363496493937  0.9297452525318732
  0.5551547046480607  0.9190430289618590  0.6881272589544309
  0.9437642432454396  0.5822591011086828  0.4393976322161777
  0.8881669724764194  0.6656704342306980  0.1907679388622228
  0.7856346991961303  0.8261192288630141  0.9300125421235137
  0.7222953609474416  0.9171499672911665  0.6948072598335102
  0.6127051523960105  0.5854428376644236  0.9414783856196962
  0.5552124260681026  0.6644643224249052  0.6880186250526279
  0.9440818429504105  0.8327695412046694  0.4391344941685560
  0.8882290822553784  0.9159006390961864  0.1915612608427324
  0.7861597374767442  0.6034741909653434  0.9298210737353472
  0.7210303924584025  0.6658956730344201  0.6882817304623075
  0.6097369747985937  0.8330694255120008  0.4472880965537342
  0.5565723518017691  0.9173074859279922  0.1905320013043479
  0.9405593128019092  0.5778092055836268  0.9416136267577642
  0.8909145979634729  0.6679600786713493  0.6895257281552318
  0.7787526698242644  0.8322393038884286  0.4476068196494722
  0.7224108455361673  0.9169843649372069  0.2230447137250593
 
  0.00000000E+00  0.00000000E+00  0.00000000E+00
  0.00000000E+00  0.00000000E+00  0.00000000E+00
  0.00000000E+00  0.00000000E+00  0.00000000E+00
  0.00000000E+00  0.00000000E+00  0.00000000E+00
  0.00000000E+00  0.00000000E+00  0.00000000E+00
  0.00000000E+00  0.00000000E+00  0.00000000E+00
  0.00000000E+00  0.00000000E+00  0.00000000E+00
  0.00000000E+00  0.00000000E+00  0.00000000E+00
  0.00000000E+00  0.00000000E+00  0.00000000E+00
  0.00000000E+00  0.00000000E+00  0.00000000E+00
  0.00000000E+00  0.00000000E+00  0.00000000E+00
  0.00000000E+00  0.00000000E+00  0.00000000E+00
  0.00000000E+00  0.00000000E+00  0.00000000E+00
  0.00000000E+00  0.00000000E+00  0.00000000E+00
  0.00000000E+00  0.00000000E+00  0.00000000E+00
  0.00000000E+00  0.00000000E+00  0.00000000E+00
  0.00000000E+00  0.00000000E+00  0.00000000E+00
  0.00000000E+00  0.00000000E+00  0.00000000E+00
  0.00000000E+00  0.00000000E+00  0.00000000E+00
  0.00000000E+00  0.00000000E+00  0.00000000E+00
  0.00000000E+00  0.00000000E+00  0.00000000E+00
  0.00000000E+00  0.00000000E+00  0.00000000E+00
  0.00000000E+00  0.00000000E+00  0.00000000E+00
  0.00000000E+00  0.00000000E+00  0.00000000E+00
  0.00000000E+00  0.00000000E+00  0.00000000E+00
  0.00000000E+00  0.00000000E+00  0.00000000E+00
  0.00000000E+00  0.00000000E+00  0.00000000E+00
  0.00000000E+00  0.00000000E+00  0.00000000E+00
  0.00000000E+00  0.00000000E+00  0.00000000E+00
  0.00000000E+00  0.00000000E+00  0.00000000E+00
  0.00000000E+00  0.00000000E+00  0.00000000E+00
  0.00000000E+00  0.00000000E+00  0.00000000E+00
  0.00000000E+00  0.00000000E+00  0.00000000E+00
  0.00000000E+00  0.00000000E+00  0.00000000E+00
  0.00000000E+00  0.00000000E+00  0.00000000E+00
  0.00000000E+00  0.00000000E+00  0.00000000E+00
  0.00000000E+00  0.00000000E+00  0.00000000E+00
  0.00000000E+00  0.00000000E+00  0.00000000E+00
  0.00000000E+00  0.00000000E+00  0.00000000E+00
  0.00000000E+00  0.00000000E+00  0.00000000E+00
  0.00000000E+00  0.00000000E+00  0.00000000E+00
  0.00000000E+00  0.00000000E+00  0.00000000E+00
  0.00000000E+00  0.00000000E+00  0.00000000E+00
  0.00000000E+00  0.00000000E+00  0.00000000E+00
  0.00000000E+00  0.00000000E+00  0.00000000E+00
  0.00000000E+00  0.00000000E+00  0.00000000E+00
  0.00000000E+00  0.00000000E+00  0.00000000E+00
  0.00000000E+00  0.00000000E+00  0.00000000E+00
  0.00000000E+00  0.00000000E+00  0.00000000E+00
  0.00000000E+00  0.00000000E+00  0.00000000E+00
  0.00000000E+00  0.00000000E+00  0.00000000E+00
  0.00000000E+00  0.00000000E+00  0.00000000E+00
  0.00000000E+00  0.00000000E+00  0.00000000E+00
  0.00000000E+00  0.00000000E+00  0.00000000E+00
  0.00000000E+00  0.00000000E+00  0.00000000E+00
  0.00000000E+00  0.00000000E+00  0.00000000E+00
  0.00000000E+00  0.00000000E+00  0.00000000E+00
  0.00000000E+00  0.00000000E+00  0.00000000E+00
  0.00000000E+00  0.00000000E+00  0.00000000E+00
  0.00000000E+00  0.00000000E+00  0.00000000E+00
  0.00000000E+00  0.00000000E+00  0.00000000E+00
  0.00000000E+00  0.00000000E+00  0.00000000E+00
  0.00000000E+00  0.00000000E+00  0.00000000E+00
  0.00000000E+00  0.00000000E+00  0.00000000E+00
  0.00000000E+00  0.00000000E+00  0.00000000E+00
  0.00000000E+00  0.00000000E+00  0.00000000E+00
  0.00000000E+00  0.00000000E+00  0.00000000E+00
  0.00000000E+00  0.00000000E+00  0.00000000E+00
  0.00000000E+00  0.00000000E+00  0.00000000E+00
  0.00000000E+00  0.00000000E+00  0.00000000E+00
  0.00000000E+00  0.00000000E+00  0.00000000E+00
  0.00000000E+00  0.00000000E+00  0.00000000E+00
  0.00000000E+00  0.00000000E+00  0.00000000E+00
  0.00000000E+00  0.00000000E+00  0.00000000E+00
  0.00000000E+00  0.00000000E+00  0.00000000E+00
  0.00000000E+00  0.00000000E+00  0.00000000E+00
  0.00000000E+00  0.00000000E+00  0.00000000E+00
  0.00000000E+00  0.00000000E+00  0.00000000E+00
  0.00000000E+00  0.00000000E+00  0.00000000E+00
  0.00000000E+00  0.00000000E+00  0.00000000E+00
  0.00000000E+00  0.00000000E+00  0.00000000E+00
  0.00000000E+00  0.00000000E+00  0.00000000E+00
  0.00000000E+00  0.00000000E+00  0.00000000E+00
  0.00000000E+00  0.00000000E+00  0.00000000E+00
  0.00000000E+00  0.00000000E+00  0.00000000E+00
  0.00000000E+00  0.00000000E+00  0.00000000E+00
  0.00000000E+00  0.00000000E+00  0.00000000E+00
  0.00000000E+00  0.00000000E+00  0.00000000E+00
  0.00000000E+00  0.00000000E+00  0.00000000E+00
  0.00000000E+00  0.00000000E+00  0.00000000E+00
  0.00000000E+00  0.00000000E+00  0.00000000E+00
  0.00000000E+00  0.00000000E+00  0.00000000E+00
  0.00000000E+00  0.00000000E+00  0.00000000E+00
  0.00000000E+00  0.00000000E+00  0.00000000E+00
  0.00000000E+00  0.00000000E+00  0.00000000E+00
  0.00000000E+00  0.00000000E+00  0.00000000E+00
  0.00000000E+00  0.00000000E+00  0.00000000E+00
  0.00000000E+00  0.00000000E+00  0.00000000E+00
  0.00000000E+00  0.00000000E+00  0.00000000E+00
  0.00000000E+00  0.00000000E+00  0.00000000E+00
  0.00000000E+00  0.00000000E+00  0.00000000E+00
  0.00000000E+00  0.00000000E+00  0.00000000E+00
  0.00000000E+00  0.00000000E+00  0.00000000E+00
  0.00000000E+00  0.00000000E+00  0.00000000E+00
  0.00000000E+00  0.00000000E+00  0.00000000E+00
  0.00000000E+00  0.00000000E+00  0.00000000E+00
  0.00000000E+00  0.00000000E+00  0.00000000E+00
  0.00000000E+00  0.00000000E+00  0.00000000E+00
  0.00000000E+00  0.00000000E+00  0.00000000E+00
  0.00000000E+00  0.00000000E+00  0.00000000E+00
  0.00000000E+00  0.00000000E+00  0.00000000E+00
  0.00000000E+00  0.00000000E+00  0.00000000E+00
  0.00000000E+00  0.00000000E+00  0.00000000E+00
  0.00000000E+00  0.00000000E+00  0.00000000E+00
  0.00000000E+00  0.00000000E+00  0.00000000E+00
  0.00000000E+00  0.00000000E+00  0.00000000E+00
  0.00000000E+00  0.00000000E+00  0.00000000E+00
  0.00000000E+00  0.00000000E+00  0.00000000E+00
  0.00000000E+00  0.00000000E+00  0.00000000E+00
  0.00000000E+00  0.00000000E+00  0.00000000E+00
  0.00000000E+00  0.00000000E+00  0.00000000E+00
  0.00000000E+00  0.00000000E+00  0.00000000E+00
  0.00000000E+00  0.00000000E+00  0.00000000E+00
  0.00000000E+00  0.00000000E+00  0.00000000E+00
  0.00000000E+00  0.00000000E+00  0.00000000E+00
  0.00000000E+00  0.00000000E+00  0.00000000E+00
  0.00000000E+00  0.00000000E+00  0.00000000E+00
  0.00000000E+00  0.00000000E+00  0.00000000E+00
  0.00000000E+00  0.00000000E+00  0.00000000E+00
  0.00000000E+00  0.00000000E+00  0.00000000E+00
  0.00000000E+00  0.00000000E+00  0.00000000E+00
  0.00000000E+00  0.00000000E+00  0.00000000E+00
  0.00000000E+00  0.00000000E+00  0.00000000E+00
  0.00000000E+00  0.00000000E+00  0.00000000E+00
  0.00000000E+00  0.00000000E+00  0.00000000E+00
  0.00000000E+00  0.00000000E+00  0.00000000E+00
  0.00000000E+00  0.00000000E+00  0.00000000E+00
  0.00000000E+00  0.00000000E+00  0.00000000E+00
  0.00000000E+00  0.00000000E+00  0.00000000E+00
  0.00000000E+00  0.00000000E+00  0.00000000E+00
  0.00000000E+00  0.00000000E+00  0.00000000E+00
  0.00000000E+00  0.00000000E+00  0.00000000E+00
  0.00000000E+00  0.00000000E+00  0.00000000E+00
  0.00000000E+00  0.00000000E+00  0.00000000E+00
  0.00000000E+00  0.00000000E+00  0.00000000E+00
  0.00000000E+00  0.00000000E+00  0.00000000E+00
  0.00000000E+00  0.00000000E+00  0.00000000E+00
  0.00000000E+00  0.00000000E+00  0.00000000E+00
  0.00000000E+00  0.00000000E+00  0.00000000E+00
  0.00000000E+00  0.00000000E+00  0.00000000E+00
  0.00000000E+00  0.00000000E+00  0.00000000E+00
  0.00000000E+00  0.00000000E+00  0.00000000E+00
  0.00000000E+00  0.00000000E+00  0.00000000E+00
  0.00000000E+00  0.00000000E+00  0.00000000E+00
  0.00000000E+00  0.00000000E+00  0.00000000E+00
  0.00000000E+00  0.00000000E+00  0.00000000E+00
  0.00000000E+00  0.00000000E+00  0.00000000E+00
  0.00000000E+00  0.00000000E+00  0.00000000E+00
  0.00000000E+00  0.00000000E+00  0.00000000E+00
  0.00000000E+00  0.00000000E+00  0.00000000E+00
  0.00000000E+00  0.00000000E+00  0.00000000E+00
  0.00000000E+00  0.00000000E+00  0.00000000E+00
  0.00000000E+00  0.00000000E+00  0.00000000E+00
  0.00000000E+00  0.00000000E+00  0.00000000E+00
  0.00000000E+00  0.00000000E+00  0.00000000E+00
  0.00000000E+00  0.00000000E+00  0.00000000E+00
  0.00000000E+00  0.00000000E+00  0.00000000E+00
  0.00000000E+00  0.00000000E+00  0.00000000E+00
  0.00000000E+00  0.00000000E+00  0.00000000E+00
  0.00000000E+00  0.00000000E+00  0.00000000E+00
  0.00000000E+00  0.00000000E+00  0.00000000E+00
  0.00000000E+00  0.00000000E+00  0.00000000E+00
  0.00000000E+00  0.00000000E+00  0.00000000E+00
  0.00000000E+00  0.00000000E+00  0.00000000E+00
  0.00000000E+00  0.00000000E+00  0.00000000E+00
  0.00000000E+00  0.00000000E+00  0.00000000E+00
  0.00000000E+00  0.00000000E+00  0.00000000E+00
  0.00000000E+00  0.00000000E+00  0.00000000E+00
  0.00000000E+00  0.00000000E+00  0.00000000E+00
  0.00000000E+00  0.00000000E+00  0.00000000E+00
  0.00000000E+00  0.00000000E+00  0.00000000E+00
  0.00000000E+00  0.00000000E+00  0.00000000E+00
  0.00000000E+00  0.00000000E+00  0.00000000E+00
  0.00000000E+00  0.00000000E+00  0.00000000E+00
  0.00000000E+00  0.00000000E+00  0.00000000E+00
  0.00000000E+00  0.00000000E+00  0.00000000E+00
  0.00000000E+00  0.00000000E+00  0.00000000E+00
  0.00000000E+00  0.00000000E+00  0.00000000E+00
  0.00000000E+00  0.00000000E+00  0.00000000E+00
  0.00000000E+00  0.00000000E+00  0.00000000E+00
  0.00000000E+00  0.00000000E+00  0.00000000E+00
