supercell of icsd_181358.cif            
   1.00000000000000     
     9.7097252374164622   -0.0000074237991595    0.0000001308732753
    -4.8548690481653960    8.4074699019830774    0.0002734863645455
     0.0000001381225096    0.0003408604773475   10.5103326772603989
   N    Ga   Sc
    36    34     2
Direct
  0.2205955113810987  0.1105108380138375  0.4376505897886034
  0.1112335504224546  0.2224672069483660  0.1885259010280933
  0.8890983698692878  0.1113936618986884  0.9387090711783301
  0.7925639057248972  0.2297393341199268  0.6850003834966003
  0.5557458947811185  0.1114922622464647  0.4423265522602691
  0.4433130937639049  0.2211085672891144  0.1904191781810383
  0.2222951208295214  0.1113934305094020  0.9387089824374684
  0.1112304958678223  0.2224605331283698  0.6881511266918920
  0.8899151405401042  0.1105115340223364  0.4376506216096629
  0.7777953977965026  0.2211084792522513  0.1904192884978855
  0.5554235667847607  0.1108471920178644  0.9478917242777385
  0.4371754922091213  0.2297389948099848  0.6850004061058783
  0.2221170145949003  0.4442343217453839  0.4386375473974340
  0.1127643879465126  0.5562404792381912  0.1875723215387453
  0.8893116977307400  0.4438353980355956  0.9416439219860209
  0.7775482674413041  0.5550964984792373  0.6990668278499399
  0.5418453856196379  0.4388323049644285  0.4337290806714549
  0.4434764605099204  0.5562402555648447  0.1875723663498121
  0.2221060492925560  0.4442120244291843  0.9380649582528378
  0.1110070843148634  0.5552401780616805  0.6888183220291992
  0.8969869910123691  0.4388329269914948  0.4337291030680248
  0.7778748478647159  0.5557488796778642  0.1914362278863351
  0.5545236839115049  0.4438353525361904  0.9416437677109215
  0.4442330094291691  0.5552399366034919  0.6888182052013505
  0.2204741937854777  0.7769745059465905  0.4381459903122717
  0.1123702883820101  0.8894839915296160  0.1874809169122997
  0.8893211661219382  0.7786423814392762  0.9410624771348992
  0.7778001229856031  0.8889545656654505  0.6892558832042823
  0.5565001953032791  0.7769744211696690  0.4381460113342968
  0.4440471246293072  0.8880941257357975  0.1913572517714002
  0.2226525293731925  0.7779439999148963  0.9385730222564561
  0.1111542314951066  0.8889542075699524  0.6892558592306202
  0.8960441840344160  0.7920889484668336  0.4345998423585442
  0.7771137115445867  0.8894838987818048  0.1874809324385041
  0.5552914754999989  0.7779440043071091  0.9385731065960670
  0.4371076395583060  0.8742149154011472  0.6842931662805398
  0.2213089243112449  0.1106277887085696  0.2501525657319874
  0.1112086248055775  0.2224165036697485  0.0002027724173246
  0.8920413090980048  0.1121934220293852  0.7500625120810369
  0.7829162148488606  0.2223397561158720  0.4980839099092691
  0.5554941012184784  0.1109891288915179  0.2515229522333655
  0.4434516975129483  0.2216445308572617  0.0031608838995254
  0.2201516003014703  0.1121926435115626  0.7500624042941411
  0.1110738198607777  0.2221470966870527  0.4997705734039855
  0.8893179894656456  0.1106276456600668  0.2501526835301320
  0.7781932951304711  0.2216446317357565  0.0031610576458689
  0.4394228515811776  0.2223388764451713  0.4980840761418719
  0.2222879566244771  0.4445762551118264  0.2502703910155688
  0.1122222789382477  0.5559104989600172  0.0001369372594269
  0.8923552098857357  0.4459183633561210  0.7532822187528652
  0.5519940887238519  0.4434369610179516  0.2479981164481870
  0.4436890185565829  0.5559105226483112  0.0001369622906680
  0.2221190263158306  0.4442387550130462  0.7497033183993835
  0.1130689479518665  0.5546718495334062  0.5001279961418348
  0.8914432243322139  0.4434367827420402  0.2479982626337787
  0.7778122849874833  0.5556239313311124  0.0011189751037648
  0.5535625591160382  0.4459182874399588  0.7532819000385729
  0.4416030145304362  0.5546713481589265  0.5001278615480516
  0.2214010839194032  0.7773346967993291  0.2502016617808636
  0.1120040645416864  0.8893765595153695  0.9998600994016229
  0.8893009794603941  0.7786029960227268  0.7531818270313977
  0.7788465893469052  0.8917176411542229  0.5000884153975349
  0.5559329358419518  0.7773344128311024  0.2502017458189272
  0.4440032821392066  0.8880060671153345  0.0031513461521229
  0.2203563017113055  0.7748661909262822  0.7497610243869275
  0.1128707221491254  0.8917165219316487  0.5000885306690961
  0.8908558331134984  0.7817121684972577  0.2479761206550251
  0.7773732610201236  0.8893766926355440  0.9998600922431535
  0.5545091891719309  0.7748655922384771  0.7497612168173475
  0.4424395313152587  0.8848783559134787  0.4979392758994550
  0.5555160133638068  0.1110319640807589  0.7465353731393876
  0.7777948924559865  0.5555900042014770  0.4973830043608558
 
  0.00000000E+00  0.00000000E+00  0.00000000E+00
  0.00000000E+00  0.00000000E+00  0.00000000E+00
  0.00000000E+00  0.00000000E+00  0.00000000E+00
  0.00000000E+00  0.00000000E+00  0.00000000E+00
  0.00000000E+00  0.00000000E+00  0.00000000E+00
  0.00000000E+00  0.00000000E+00  0.00000000E+00
  0.00000000E+00  0.00000000E+00  0.00000000E+00
  0.00000000E+00  0.00000000E+00  0.00000000E+00
  0.00000000E+00  0.00000000E+00  0.00000000E+00
  0.00000000E+00  0.00000000E+00  0.00000000E+00
  0.00000000E+00  0.00000000E+00  0.00000000E+00
  0.00000000E+00  0.00000000E+00  0.00000000E+00
  0.00000000E+00  0.00000000E+00  0.00000000E+00
  0.00000000E+00  0.00000000E+00  0.00000000E+00
  0.00000000E+00  0.00000000E+00  0.00000000E+00
  0.00000000E+00  0.00000000E+00  0.00000000E+00
  0.00000000E+00  0.00000000E+00  0.00000000E+00
  0.00000000E+00  0.00000000E+00  0.00000000E+00
  0.00000000E+00  0.00000000E+00  0.00000000E+00
  0.00000000E+00  0.00000000E+00  0.00000000E+00
  0.00000000E+00  0.00000000E+00  0.00000000E+00
  0.00000000E+00  0.00000000E+00  0.00000000E+00
  0.00000000E+00  0.00000000E+00  0.00000000E+00
  0.00000000E+00  0.00000000E+00  0.00000000E+00
  0.00000000E+00  0.00000000E+00  0.00000000E+00
  0.00000000E+00  0.00000000E+00  0.00000000E+00
  0.00000000E+00  0.00000000E+00  0.00000000E+00
  0.00000000E+00  0.00000000E+00  0.00000000E+00
  0.00000000E+00  0.00000000E+00  0.00000000E+00
  0.00000000E+00  0.00000000E+00  0.00000000E+00
  0.00000000E+00  0.00000000E+00  0.00000000E+00
  0.00000000E+00  0.00000000E+00  0.00000000E+00
  0.00000000E+00  0.00000000E+00  0.00000000E+00
  0.00000000E+00  0.00000000E+00  0.00000000E+00
  0.00000000E+00  0.00000000E+00  0.00000000E+00
  0.00000000E+00  0.00000000E+00  0.00000000E+00
  0.00000000E+00  0.00000000E+00  0.00000000E+00
  0.00000000E+00  0.00000000E+00  0.00000000E+00
  0.00000000E+00  0.00000000E+00  0.00000000E+00
  0.00000000E+00  0.00000000E+00  0.00000000E+00
  0.00000000E+00  0.00000000E+00  0.00000000E+00
  0.00000000E+00  0.00000000E+00  0.00000000E+00
  0.00000000E+00  0.00000000E+00  0.00000000E+00
  0.00000000E+00  0.00000000E+00  0.00000000E+00
  0.00000000E+00  0.00000000E+00  0.00000000E+00
  0.00000000E+00  0.00000000E+00  0.00000000E+00
  0.00000000E+00  0.00000000E+00  0.00000000E+00
  0.00000000E+00  0.00000000E+00  0.00000000E+00
  0.00000000E+00  0.00000000E+00  0.00000000E+00
  0.00000000E+00  0.00000000E+00  0.00000000E+00
  0.00000000E+00  0.00000000E+00  0.00000000E+00
  0.00000000E+00  0.00000000E+00  0.00000000E+00
  0.00000000E+00  0.00000000E+00  0.00000000E+00
  0.00000000E+00  0.00000000E+00  0.00000000E+00
  0.00000000E+00  0.00000000E+00  0.00000000E+00
  0.00000000E+00  0.00000000E+00  0.00000000E+00
  0.00000000E+00  0.00000000E+00  0.00000000E+00
  0.00000000E+00  0.00000000E+00  0.00000000E+00
  0.00000000E+00  0.00000000E+00  0.00000000E+00
  0.00000000E+00  0.00000000E+00  0.00000000E+00
  0.00000000E+00  0.00000000E+00  0.00000000E+00
  0.00000000E+00  0.00000000E+00  0.00000000E+00
  0.00000000E+00  0.00000000E+00  0.00000000E+00
  0.00000000E+00  0.00000000E+00  0.00000000E+00
  0.00000000E+00  0.00000000E+00  0.00000000E+00
  0.00000000E+00  0.00000000E+00  0.00000000E+00
  0.00000000E+00  0.00000000E+00  0.00000000E+00
  0.00000000E+00  0.00000000E+00  0.00000000E+00
  0.00000000E+00  0.00000000E+00  0.00000000E+00
  0.00000000E+00  0.00000000E+00  0.00000000E+00
  0.00000000E+00  0.00000000E+00  0.00000000E+00
  0.00000000E+00  0.00000000E+00  0.00000000E+00
