supercell of icsd_191774.cif            
   1.00000000000000     
    10.8446811703987755   -0.0015715788915746    0.0048989295396185
    -5.4236889914383388    9.3783971986173675   -0.0026865081534355
     0.0054157596490460   -0.0002565785032177   11.3282614586492922
   N    In   Y 
    36    28     8
Direct
  0.2157936205479842  0.1069406116910230  0.4409787486091190
  0.1065959452166965  0.2141573861854766  0.1913028612419154
  0.8875672335426117  0.1100470472704913  0.9421805789447859
  0.7730749350735806  0.2253855949637611  0.6882353688983187
  0.5566042557729247  0.1099011207712479  0.4410442225657718
  0.4402195710174439  0.2251945376410873  0.1913639067799622
  0.2107508659307484  0.1057283260466590  0.9390255324238765
  0.1186258555580650  0.2240353417273013  0.6875189432155153
  0.8883483436047541  0.1115388744429282  0.4440871684354946
  0.7896164827699721  0.2270421853841711  0.1915709901123890
  0.5596060058559829  0.1082028494507128  0.9476106476411132
  0.4446852476662855  0.2221271588757929  0.7049869944406382
  0.2213698441633625  0.4457062829209093  0.4437891889256562
  0.1071001811232506  0.5528220284929617  0.1827378382947629
  0.8763381061123283  0.4387349610235702  0.9373669823404640
  0.7785328351122871  0.5575319130243770  0.6876266236749089
  0.5593577135578229  0.4503477203775077  0.4405598034306664
  0.4543653220385124  0.5596467029805439  0.1919571928843951
  0.2283905496611069  0.4387113007434067  0.9435622843017626
  0.1117440118862802  0.5542907753402488  0.7028380695209364
  0.8909507896839912  0.4462656239008496  0.4420359142086951
  0.7800309214390992  0.5546535258521672  0.1916013785206161
  0.5618832133582714  0.4559994307253419  0.9394840620528484
  0.4427646103246161  0.5475567263067589  0.6876525817738468
  0.2198957279485256  0.7758930350543736  0.4482009988097033
  0.1056616943046862  0.8906171717384481  0.1886436204154194
  0.8868628816120534  0.7771741778039285  0.9412025823284225
  0.7819633038113096  0.8850692047561353  0.6873438743875369
  0.5548344813552291  0.7784992143076508  0.4450890521664945
  0.4465677684120237  0.8821950096155433  0.1912953583838544
  0.2266431874482677  0.7885469842316652  0.9408981201656204
  0.1082685335429119  0.8881186835433823  0.6907122869422651
  0.8891227601937643  0.7774554053531446  0.4379752519267655
  0.7775418536678060  0.8886634899124388  0.1935299078566004
  0.5565860661566902  0.7785304691019803  0.9418353125792436
  0.4418005749362450  0.8941494255624889  0.6907975345048740
  0.2178918343641669  0.1087455589802815  0.2485988010455742
  0.1111650319978921  0.2224177670728054  0.4972333007882881
  0.7806418308764833  0.2219920232985544  0.0002272350704899
  0.2189713058787746  0.1085897611779103  0.7491804760353062
  0.1065279954697331  0.2164144977287776  0.0004007101414700
  0.8902569749806801  0.1093765798471154  0.2500775208137824
  0.7766367432351871  0.2230679677184142  0.4968839871329394
  0.5563170952952561  0.1118103946891225  0.7529281878708218
  0.1111277445487175  0.5547009190714149  0.5072617952936511
  0.8818844792355733  0.4435137806774989  0.7466612004555060
  0.7774656865571075  0.5571712878474386  0.9995935264013696
  0.5595739220816256  0.4472588893159397  0.2486587539271383
  0.4443376906272150  0.5550821121751568  0.4972988422553755
  0.2269423631964642  0.4399726746193267  0.7492854234291926
  0.8933702145202318  0.4466559496438833  0.2486909406785358
  0.7797331369728724  0.5585653325702111  0.4963787385007237
  0.5591478864093204  0.4479925794351516  0.7491210173524934
  0.4505419276757792  0.5597497689658937  0.0005205967474282
  0.1067519334573959  0.8869903539450164  0.4999096191134100
  0.8885132308436923  0.7762600860973521  0.7492488732059712
  0.7770448072404506  0.8889041877067356  0.0015901668690930
  0.5587113806878037  0.7774722869352431  0.2507533646730948
  0.4438515823921207  0.8905608161153609  0.4994499609181062
  0.2228929902527099  0.7841883059899999  0.7477323318574420
  0.1067224367953514  0.8897811145579837  0.9976692663869997
  0.8873721929945617  0.7777074498282559  0.2469463401445466
  0.7794268467594208  0.8872300758372660  0.4965373372207580
  0.4465420460714000  0.8870539547438767  0.9996704159904297
  0.8908830256711084  0.1133332139849443  0.7434129020354163
  0.5599479081092937  0.1126793419187280  0.2420904970511373
  0.4434393234019396  0.2228639562611150  0.5023238363158313
  0.4413471626343437  0.2249067647762075  0.9894578424387817
  0.2234754136478472  0.4434809154365951  0.2441890248063601
  0.1082933787554552  0.5541473833111965  0.9836893681340442
  0.2184277943507311  0.7763122882801667  0.2480984973283498
  0.5537573876038664  0.7755693623185209  0.7433875178648748
 
  0.00000000E+00  0.00000000E+00  0.00000000E+00
  0.00000000E+00  0.00000000E+00  0.00000000E+00
  0.00000000E+00  0.00000000E+00  0.00000000E+00
  0.00000000E+00  0.00000000E+00  0.00000000E+00
  0.00000000E+00  0.00000000E+00  0.00000000E+00
  0.00000000E+00  0.00000000E+00  0.00000000E+00
  0.00000000E+00  0.00000000E+00  0.00000000E+00
  0.00000000E+00  0.00000000E+00  0.00000000E+00
  0.00000000E+00  0.00000000E+00  0.00000000E+00
  0.00000000E+00  0.00000000E+00  0.00000000E+00
  0.00000000E+00  0.00000000E+00  0.00000000E+00
  0.00000000E+00  0.00000000E+00  0.00000000E+00
  0.00000000E+00  0.00000000E+00  0.00000000E+00
  0.00000000E+00  0.00000000E+00  0.00000000E+00
  0.00000000E+00  0.00000000E+00  0.00000000E+00
  0.00000000E+00  0.00000000E+00  0.00000000E+00
  0.00000000E+00  0.00000000E+00  0.00000000E+00
  0.00000000E+00  0.00000000E+00  0.00000000E+00
  0.00000000E+00  0.00000000E+00  0.00000000E+00
  0.00000000E+00  0.00000000E+00  0.00000000E+00
  0.00000000E+00  0.00000000E+00  0.00000000E+00
  0.00000000E+00  0.00000000E+00  0.00000000E+00
  0.00000000E+00  0.00000000E+00  0.00000000E+00
  0.00000000E+00  0.00000000E+00  0.00000000E+00
  0.00000000E+00  0.00000000E+00  0.00000000E+00
  0.00000000E+00  0.00000000E+00  0.00000000E+00
  0.00000000E+00  0.00000000E+00  0.00000000E+00
  0.00000000E+00  0.00000000E+00  0.00000000E+00
  0.00000000E+00  0.00000000E+00  0.00000000E+00
  0.00000000E+00  0.00000000E+00  0.00000000E+00
  0.00000000E+00  0.00000000E+00  0.00000000E+00
  0.00000000E+00  0.00000000E+00  0.00000000E+00
  0.00000000E+00  0.00000000E+00  0.00000000E+00
  0.00000000E+00  0.00000000E+00  0.00000000E+00
  0.00000000E+00  0.00000000E+00  0.00000000E+00
  0.00000000E+00  0.00000000E+00  0.00000000E+00
  0.00000000E+00  0.00000000E+00  0.00000000E+00
  0.00000000E+00  0.00000000E+00  0.00000000E+00
  0.00000000E+00  0.00000000E+00  0.00000000E+00
  0.00000000E+00  0.00000000E+00  0.00000000E+00
  0.00000000E+00  0.00000000E+00  0.00000000E+00
  0.00000000E+00  0.00000000E+00  0.00000000E+00
  0.00000000E+00  0.00000000E+00  0.00000000E+00
  0.00000000E+00  0.00000000E+00  0.00000000E+00
  0.00000000E+00  0.00000000E+00  0.00000000E+00
  0.00000000E+00  0.00000000E+00  0.00000000E+00
  0.00000000E+00  0.00000000E+00  0.00000000E+00
  0.00000000E+00  0.00000000E+00  0.00000000E+00
  0.00000000E+00  0.00000000E+00  0.00000000E+00
  0.00000000E+00  0.00000000E+00  0.00000000E+00
  0.00000000E+00  0.00000000E+00  0.00000000E+00
  0.00000000E+00  0.00000000E+00  0.00000000E+00
  0.00000000E+00  0.00000000E+00  0.00000000E+00
  0.00000000E+00  0.00000000E+00  0.00000000E+00
  0.00000000E+00  0.00000000E+00  0.00000000E+00
  0.00000000E+00  0.00000000E+00  0.00000000E+00
  0.00000000E+00  0.00000000E+00  0.00000000E+00
  0.00000000E+00  0.00000000E+00  0.00000000E+00
  0.00000000E+00  0.00000000E+00  0.00000000E+00
  0.00000000E+00  0.00000000E+00  0.00000000E+00
  0.00000000E+00  0.00000000E+00  0.00000000E+00
  0.00000000E+00  0.00000000E+00  0.00000000E+00
  0.00000000E+00  0.00000000E+00  0.00000000E+00
  0.00000000E+00  0.00000000E+00  0.00000000E+00
  0.00000000E+00  0.00000000E+00  0.00000000E+00
  0.00000000E+00  0.00000000E+00  0.00000000E+00
  0.00000000E+00  0.00000000E+00  0.00000000E+00
  0.00000000E+00  0.00000000E+00  0.00000000E+00
  0.00000000E+00  0.00000000E+00  0.00000000E+00
  0.00000000E+00  0.00000000E+00  0.00000000E+00
  0.00000000E+00  0.00000000E+00  0.00000000E+00
  0.00000000E+00  0.00000000E+00  0.00000000E+00
