generated by phonopy                    
   1.00000000000000     
    10.0351470768999995   -0.0000022330999784   -0.0000001056124209
    -5.0175765436399997    8.6906901959899994    0.0000001395531216
    -0.0000001735893656    0.0000001431815548   14.9533752540999991
   Pb   P    O    Cu
    20    12    49     1
Direct
  0.0008189365258886  0.7808636710411179  0.1173790476216112
  0.0013150135256694  0.7807168358592023  0.6297959310915076
  0.0104013983988693  0.2585371014448725  0.3734917674599103
  0.0075356380695837  0.2641852344697284  0.8739390520902148
  0.2374924623588583  0.2297425168853948  0.1230956296720649
  0.2405921187059619  0.2310611983838129  0.6239356260542834
  0.7276826212120895  0.7452860281291223  0.3731209651360246
  0.7412614078850623  0.7460684333297394  0.8740040529991830
  0.7706002806152199  0.0082446408204220  0.1205106943065317
  0.7699945673837476  0.0098758670082688  0.6269842554466720
  0.2241797479877619  0.9631930456753111  0.3719122482209940
  0.2575522371725967  0.9955735840059177  0.8741763143818702
  0.6637462781940755  0.3308882040630508  0.9964438231612149
  0.6998561559833902  0.3598426695796419  0.5151448030490684
  0.3371094249062452  0.6702317057658718  0.0027002038187192
  0.3344169057442841  0.6663064755785228  0.5049151008021155
  0.3334475954423439  0.6645080725802543  0.2423504565217200
  0.3376333719404414  0.6708049789393726  0.7449526088751099
  0.6967088848704108  0.3569285707477405  0.2333341165786393
  0.6635749287990862  0.3306379215391786  0.7526342519236522
  0.6286247209792606  0.6028754802389713  0.1230386906483858
  0.6290433871332510  0.6037264739455352  0.6250459295549931
  0.3675750210093085  0.3743995265028062  0.3748141107995551
  0.3711929448316127  0.3969473236865184  0.8734346557711490
  0.4052022033559837  0.0285719973024712  0.1254663050512193
  0.4062789570807368  0.0297669657615742  0.6224092869755893
  0.5768908080988808  0.9672867390583377  0.3743434295301853
  0.6053993372317947  0.9755613005343164  0.8736367994075493
  0.9749540501597806  0.3787041706714476  0.1213225706008600
  0.9755727519153155  0.3792592033999611  0.6270055417559064
  0.0234563371563965  0.6185903677135016  0.3740764668758629
  0.0257948802628931  0.6329919113832361  0.8734645515042629
  0.5060860123567394  0.6547620186358429  0.1229675834104640
  0.5078639741361073  0.6573389038122386  0.6244540678540957
  0.4731945493903638  0.3202448682836803  0.8739233418705510
  0.3561079859242824  0.8542778896347727  0.1240544138801880
  0.3551035953696555  0.8549750986067508  0.6234867809696070
  0.6220005188443096  0.1413081945593433  0.3746333329694380
  0.6808644086290130  0.1538876890757521  0.8739069569633457
  0.1515692372818052  0.4911940055515984  0.1217589471531397
  0.1524884156514901  0.4898676886004054  0.6261872688381800
  0.8460374338177772  0.5163400179670390  0.3743260807510183
  0.8471045366886827  0.5319467958132336  0.8737612027719095
  0.7398011065908605  0.6714363100950820  0.0407933355508874
  0.7318359864775914  0.6561125269416905  0.5385555182971231
  0.2549357775171828  0.3333037493447861  0.4581545200665857
  0.2632352981483521  0.3509174500016670  0.9571875407270340
  0.3454626942906387  0.0741316606370503  0.0399464380602694
  0.3387201478032082  0.0709578514197347  0.5391929010949355
  0.6335088925609398  0.9170160804059506  0.4583929221511056
  0.6519484295016227  0.9145476950145905  0.9575387211698185
  0.9239839421181131  0.2662024106287788  0.0396089984835299
  0.9173489153943777  0.2801999293335626  0.5389490061668241
  0.0828191596054921  0.7265569857788137  0.4581866087609043
  0.0885274321954270  0.7414798331769035  0.9571848756368624
  0.2538797842805778  0.3312353150126484  0.2918654566329835
  0.2630914686774588  0.3495760822129483  0.7896450708155172
  0.7314977969001859  0.6580848569595119  0.2094820148463441
  0.7409098687386404  0.6728506655293245  0.7069137407457404
  0.6376391572741724  0.9190590711081370  0.2913197405787216
  0.6524338731404242  0.9152931097892676  0.7895565948262657
  0.3359242531279278  0.0675926388066586  0.2087151725501215
  0.3467293315500015  0.0757472825261161  0.7078920895140826
  0.0815742356476719  0.7263674279466699  0.2896888681349381
  0.0879014972561336  0.7420127635033467  0.7899284035559404
  0.9187263639166545  0.2791153248669929  0.2092057032144012
  0.9234981426272100  0.2658945287817716  0.7083412795856745
  0.5481679158875039  0.4219776666646595  0.1190933784406738
  0.5463766188735661  0.4225108035482279  0.6300889102562550
  0.4733735365768510  0.5578588650977778  0.3739018279221114
  0.4774090227837320  0.5784594495653081  0.8730387925652678
  0.5861350866043367  0.1316575386100851  0.1264237603510736
  0.5874771973728130  0.1311056218057587  0.6220576606435202
  0.3941439414086858  0.8696587949116150  0.3729865800004291
  0.4237820028983634  0.8983806787148154  0.8734992075279564
  0.8842392798516698  0.4698830721822631  0.1160740116122341
  0.8867920560524709  0.4723836667706180  0.6329273798355075
  0.1040520848571376  0.5180702294854385  0.3735120491886619
  0.1014055785595858  0.5272359666164803  0.8730940966827063
  0.0030379166613699  0.0141356445917893  0.1204091553443334
  0.0048285266162011  0.0178213900810462  0.6253752500974912
  0.4911897695726850  0.2418360272720008  0.3759071770125360
 
  0.00000000E+00  0.00000000E+00  0.00000000E+00
  0.00000000E+00  0.00000000E+00  0.00000000E+00
  0.00000000E+00  0.00000000E+00  0.00000000E+00
  0.00000000E+00  0.00000000E+00  0.00000000E+00
  0.00000000E+00  0.00000000E+00  0.00000000E+00
  0.00000000E+00  0.00000000E+00  0.00000000E+00
  0.00000000E+00  0.00000000E+00  0.00000000E+00
  0.00000000E+00  0.00000000E+00  0.00000000E+00
  0.00000000E+00  0.00000000E+00  0.00000000E+00
  0.00000000E+00  0.00000000E+00  0.00000000E+00
  0.00000000E+00  0.00000000E+00  0.00000000E+00
  0.00000000E+00  0.00000000E+00  0.00000000E+00
  0.00000000E+00  0.00000000E+00  0.00000000E+00
  0.00000000E+00  0.00000000E+00  0.00000000E+00
  0.00000000E+00  0.00000000E+00  0.00000000E+00
  0.00000000E+00  0.00000000E+00  0.00000000E+00
  0.00000000E+00  0.00000000E+00  0.00000000E+00
  0.00000000E+00  0.00000000E+00  0.00000000E+00
  0.00000000E+00  0.00000000E+00  0.00000000E+00
  0.00000000E+00  0.00000000E+00  0.00000000E+00
  0.00000000E+00  0.00000000E+00  0.00000000E+00
  0.00000000E+00  0.00000000E+00  0.00000000E+00
  0.00000000E+00  0.00000000E+00  0.00000000E+00
  0.00000000E+00  0.00000000E+00  0.00000000E+00
  0.00000000E+00  0.00000000E+00  0.00000000E+00
  0.00000000E+00  0.00000000E+00  0.00000000E+00
  0.00000000E+00  0.00000000E+00  0.00000000E+00
  0.00000000E+00  0.00000000E+00  0.00000000E+00
  0.00000000E+00  0.00000000E+00  0.00000000E+00
  0.00000000E+00  0.00000000E+00  0.00000000E+00
  0.00000000E+00  0.00000000E+00  0.00000000E+00
  0.00000000E+00  0.00000000E+00  0.00000000E+00
  0.00000000E+00  0.00000000E+00  0.00000000E+00
  0.00000000E+00  0.00000000E+00  0.00000000E+00
  0.00000000E+00  0.00000000E+00  0.00000000E+00
  0.00000000E+00  0.00000000E+00  0.00000000E+00
  0.00000000E+00  0.00000000E+00  0.00000000E+00
  0.00000000E+00  0.00000000E+00  0.00000000E+00
  0.00000000E+00  0.00000000E+00  0.00000000E+00
  0.00000000E+00  0.00000000E+00  0.00000000E+00
  0.00000000E+00  0.00000000E+00  0.00000000E+00
  0.00000000E+00  0.00000000E+00  0.00000000E+00
  0.00000000E+00  0.00000000E+00  0.00000000E+00
  0.00000000E+00  0.00000000E+00  0.00000000E+00
  0.00000000E+00  0.00000000E+00  0.00000000E+00
  0.00000000E+00  0.00000000E+00  0.00000000E+00
  0.00000000E+00  0.00000000E+00  0.00000000E+00
  0.00000000E+00  0.00000000E+00  0.00000000E+00
  0.00000000E+00  0.00000000E+00  0.00000000E+00
  0.00000000E+00  0.00000000E+00  0.00000000E+00
  0.00000000E+00  0.00000000E+00  0.00000000E+00
  0.00000000E+00  0.00000000E+00  0.00000000E+00
  0.00000000E+00  0.00000000E+00  0.00000000E+00
  0.00000000E+00  0.00000000E+00  0.00000000E+00
  0.00000000E+00  0.00000000E+00  0.00000000E+00
  0.00000000E+00  0.00000000E+00  0.00000000E+00
  0.00000000E+00  0.00000000E+00  0.00000000E+00
  0.00000000E+00  0.00000000E+00  0.00000000E+00
  0.00000000E+00  0.00000000E+00  0.00000000E+00
  0.00000000E+00  0.00000000E+00  0.00000000E+00
  0.00000000E+00  0.00000000E+00  0.00000000E+00
  0.00000000E+00  0.00000000E+00  0.00000000E+00
  0.00000000E+00  0.00000000E+00  0.00000000E+00
  0.00000000E+00  0.00000000E+00  0.00000000E+00
  0.00000000E+00  0.00000000E+00  0.00000000E+00
  0.00000000E+00  0.00000000E+00  0.00000000E+00
  0.00000000E+00  0.00000000E+00  0.00000000E+00
  0.00000000E+00  0.00000000E+00  0.00000000E+00
  0.00000000E+00  0.00000000E+00  0.00000000E+00
  0.00000000E+00  0.00000000E+00  0.00000000E+00
  0.00000000E+00  0.00000000E+00  0.00000000E+00
  0.00000000E+00  0.00000000E+00  0.00000000E+00
  0.00000000E+00  0.00000000E+00  0.00000000E+00
  0.00000000E+00  0.00000000E+00  0.00000000E+00
  0.00000000E+00  0.00000000E+00  0.00000000E+00
  0.00000000E+00  0.00000000E+00  0.00000000E+00
  0.00000000E+00  0.00000000E+00  0.00000000E+00
  0.00000000E+00  0.00000000E+00  0.00000000E+00
  0.00000000E+00  0.00000000E+00  0.00000000E+00
  0.00000000E+00  0.00000000E+00  0.00000000E+00
  0.00000000E+00  0.00000000E+00  0.00000000E+00
  0.00000000E+00  0.00000000E+00  0.00000000E+00
