generated by phonopy                    
   1.00000000000000     
    10.0351470768999995   -0.0000022330999784   -0.0000001056124209
    -5.0175765436399997    8.6906901959899994    0.0000001395531216
    -0.0000001735893656    0.0000001431815548   14.9533752540999991
   Pb   P    O 
    21    12    49
Direct
  0.0151628810561704  0.7459141470495823  0.1315621839575130
  0.9985593560776778  0.7722813739468464  0.6248595097655993
  0.0025714853645482  0.2612122718023926  0.3787686226635714
  0.9846526554004598  0.2565375291050529  0.8636828017712475
  0.2694698745195012  0.2715177374201616  0.1289641767292906
  0.2231649722227118  0.2234966340187796  0.6221244876942507
  0.7430236530777634  0.7461658268075553  0.3811660842596893
  0.7341242180832737  0.7272428610245356  0.8699170962110188
  0.7425401734839880  0.0033323414891484  0.1315048326988304
  0.7697703013222892  0.9962866494544258  0.6235968927220199
  0.2601797850699157  0.9990721973729819  0.3793026679179690
  0.2624384408908469  0.0000293473210178  0.8651436254251337
  0.6623913266371133  0.3177392977688669  0.9974552893590314
  0.6655800094341373  0.3302692358126507  0.5032370502050014
  0.3357867823670944  0.6789487631945264  0.0019635745694799
  0.3338085535483799  0.6699643971935174  0.5069957261409712
  0.3383254198983110  0.6655507521985271  0.2485423285157324
  0.3280122548156825  0.6495069751985199  0.7478908139893292
  0.6731881991990463  0.3488447139286563  0.2527612354834332
  0.6637481384228252  0.3341604994819747  0.7474240481245431
  0.0043809232374841  0.0056366196107618  0.9983923053158819
  0.6424540491595963  0.6167910884196459  0.1278942458362877
  0.6244908559245488  0.5929267483995986  0.6229656554380938
  0.3727757113787362  0.4012142227191688  0.3751892701924646
  0.3539471661100677  0.3814420017989733  0.8772774772550989
  0.4064713923473136  0.0358584793806784  0.1272629202734237
  0.4019983308825985  0.0263470404369954  0.6226812379089992
  0.6063205194553305  0.9772676882284159  0.3746035014906752
  0.5933587295470986  0.9607960146538090  0.8777682861935574
  0.9719890908010811  0.3741471366330060  0.1262972625093681
  0.9680794026469925  0.3728320558209433  0.6206399208104187
  0.0298604269021325  0.6315723620678142  0.3761444334937565
  0.0275817239027702  0.6287733823292569  0.8798696454281014
  0.5215833793606848  0.6715796358977215  0.1314668564620263
  0.5045297810775722  0.6476649360582059  0.6214227975678881
  0.4731885255208468  0.3234661211301102  0.3748958824196222
  0.4705141626247382  0.3222028399210544  0.8723275196648004
  0.3388962884325792  0.8576428588253435  0.1284753443031192
  0.3494236075670827  0.8520533009308124  0.6237649659159104
  0.6837846808512822  0.1555177616641146  0.3728136539760101
  0.6598662767073762  0.1382375198580235  0.8748897388636649
  0.1500368135514947  0.4842210835959975  0.1261859810055768
  0.1431376016149244  0.4928235648102373  0.6206584544646745
  0.8514498365612582  0.5312760914319341  0.3760572250955860
  0.8500626041752639  0.5187778502215181  0.8817515014643860
  0.7589247322734849  0.6961502840827478  0.0490010234375546
  0.7306098832811045  0.6484685900868641  0.5380087898585870
  0.2588460366499135  0.3474756114976145  0.4560016318550240
  0.2419399653040841  0.3108005256518993  0.9594731565110024
  0.3747934832580739  0.0940244233575669  0.0373847684901065
  0.3534350738674377  0.0764452271811891  0.5345494004489808
  0.6535302892742649  0.9174400047374789  0.4587177086131433
  0.6180393326823861  0.9040699935777425  0.9702875909955111
  0.9103432891834302  0.2788555633882197  0.0381893860296785
  0.9175699065714653  0.2717536012933408  0.5336026188335623
  0.0915562014911728  0.7408991351696841  0.4591630078012301
  0.0927006156412986  0.7167312251661286  0.9702208969764001
  0.2726260376218690  0.3655211623976271  0.2884062921581290
  0.2492544368569654  0.3389734690117905  0.7920203800592489
  0.7387859689774459  0.6539696135441204  0.2163496056112706
  0.7337158181494132  0.6600472680238667  0.7063533542329878
  0.6500010165810366  0.9115689166492800  0.2914234550064734
  0.6649071766360990  0.9087026697663632  0.8021128035159535
  0.3406101041441758  0.0879350305869693  0.2062883280205128
  0.3254731384889737  0.0672110266262393  0.7017507244716725
  0.0939304780299537  0.7380689011311006  0.2919116323164133
  0.0734959625842606  0.7493056107419918  0.8027149406250800
  0.9214926196150444  0.2591801395517805  0.2070524713054169
  0.9258297885892901  0.2578977092581098  0.7010365343956764
  0.5552013776833107  0.4360543514030581  0.1153835897152433
  0.5424624812611967  0.4126935397743168  0.6271407041107864
  0.4788397119000436  0.5826594019318634  0.3794719704815677
  0.4462377384113339  0.5631078798731721  0.8849728843034796
  0.5878881001374268  0.1216474705825163  0.1382007791174615
  0.5815882344658547  0.1271673467761616  0.6309442020254110
  0.4248852819335909  0.9012967143387627  0.3744873136320095
  0.4122523456164728  0.8738417877506137  0.8629871869420782
  0.8876048808884676  0.4711626059602096  0.1366456047200302
  0.8699389462787011  0.4543289419782042  0.6277415217090976
  0.1041985673917551  0.5247272923754096  0.3765532297662091
  0.1116821970475996  0.5328735558802578  0.8628234110300284
  0.9960189125495944  0.9971102690227198  0.6081726144389634
 
  0.00000000E+00  0.00000000E+00  0.00000000E+00
  0.00000000E+00  0.00000000E+00  0.00000000E+00
  0.00000000E+00  0.00000000E+00  0.00000000E+00
  0.00000000E+00  0.00000000E+00  0.00000000E+00
  0.00000000E+00  0.00000000E+00  0.00000000E+00
  0.00000000E+00  0.00000000E+00  0.00000000E+00
  0.00000000E+00  0.00000000E+00  0.00000000E+00
  0.00000000E+00  0.00000000E+00  0.00000000E+00
  0.00000000E+00  0.00000000E+00  0.00000000E+00
  0.00000000E+00  0.00000000E+00  0.00000000E+00
  0.00000000E+00  0.00000000E+00  0.00000000E+00
  0.00000000E+00  0.00000000E+00  0.00000000E+00
  0.00000000E+00  0.00000000E+00  0.00000000E+00
  0.00000000E+00  0.00000000E+00  0.00000000E+00
  0.00000000E+00  0.00000000E+00  0.00000000E+00
  0.00000000E+00  0.00000000E+00  0.00000000E+00
  0.00000000E+00  0.00000000E+00  0.00000000E+00
  0.00000000E+00  0.00000000E+00  0.00000000E+00
  0.00000000E+00  0.00000000E+00  0.00000000E+00
  0.00000000E+00  0.00000000E+00  0.00000000E+00
  0.00000000E+00  0.00000000E+00  0.00000000E+00
  0.00000000E+00  0.00000000E+00  0.00000000E+00
  0.00000000E+00  0.00000000E+00  0.00000000E+00
  0.00000000E+00  0.00000000E+00  0.00000000E+00
  0.00000000E+00  0.00000000E+00  0.00000000E+00
  0.00000000E+00  0.00000000E+00  0.00000000E+00
  0.00000000E+00  0.00000000E+00  0.00000000E+00
  0.00000000E+00  0.00000000E+00  0.00000000E+00
  0.00000000E+00  0.00000000E+00  0.00000000E+00
  0.00000000E+00  0.00000000E+00  0.00000000E+00
  0.00000000E+00  0.00000000E+00  0.00000000E+00
  0.00000000E+00  0.00000000E+00  0.00000000E+00
  0.00000000E+00  0.00000000E+00  0.00000000E+00
  0.00000000E+00  0.00000000E+00  0.00000000E+00
  0.00000000E+00  0.00000000E+00  0.00000000E+00
  0.00000000E+00  0.00000000E+00  0.00000000E+00
  0.00000000E+00  0.00000000E+00  0.00000000E+00
  0.00000000E+00  0.00000000E+00  0.00000000E+00
  0.00000000E+00  0.00000000E+00  0.00000000E+00
  0.00000000E+00  0.00000000E+00  0.00000000E+00
  0.00000000E+00  0.00000000E+00  0.00000000E+00
  0.00000000E+00  0.00000000E+00  0.00000000E+00
  0.00000000E+00  0.00000000E+00  0.00000000E+00
  0.00000000E+00  0.00000000E+00  0.00000000E+00
  0.00000000E+00  0.00000000E+00  0.00000000E+00
  0.00000000E+00  0.00000000E+00  0.00000000E+00
  0.00000000E+00  0.00000000E+00  0.00000000E+00
  0.00000000E+00  0.00000000E+00  0.00000000E+00
  0.00000000E+00  0.00000000E+00  0.00000000E+00
  0.00000000E+00  0.00000000E+00  0.00000000E+00
  0.00000000E+00  0.00000000E+00  0.00000000E+00
  0.00000000E+00  0.00000000E+00  0.00000000E+00
  0.00000000E+00  0.00000000E+00  0.00000000E+00
  0.00000000E+00  0.00000000E+00  0.00000000E+00
  0.00000000E+00  0.00000000E+00  0.00000000E+00
  0.00000000E+00  0.00000000E+00  0.00000000E+00
  0.00000000E+00  0.00000000E+00  0.00000000E+00
  0.00000000E+00  0.00000000E+00  0.00000000E+00
  0.00000000E+00  0.00000000E+00  0.00000000E+00
  0.00000000E+00  0.00000000E+00  0.00000000E+00
  0.00000000E+00  0.00000000E+00  0.00000000E+00
  0.00000000E+00  0.00000000E+00  0.00000000E+00
  0.00000000E+00  0.00000000E+00  0.00000000E+00
  0.00000000E+00  0.00000000E+00  0.00000000E+00
  0.00000000E+00  0.00000000E+00  0.00000000E+00
  0.00000000E+00  0.00000000E+00  0.00000000E+00
  0.00000000E+00  0.00000000E+00  0.00000000E+00
  0.00000000E+00  0.00000000E+00  0.00000000E+00
  0.00000000E+00  0.00000000E+00  0.00000000E+00
  0.00000000E+00  0.00000000E+00  0.00000000E+00
  0.00000000E+00  0.00000000E+00  0.00000000E+00
  0.00000000E+00  0.00000000E+00  0.00000000E+00
  0.00000000E+00  0.00000000E+00  0.00000000E+00
  0.00000000E+00  0.00000000E+00  0.00000000E+00
  0.00000000E+00  0.00000000E+00  0.00000000E+00
  0.00000000E+00  0.00000000E+00  0.00000000E+00
  0.00000000E+00  0.00000000E+00  0.00000000E+00
  0.00000000E+00  0.00000000E+00  0.00000000E+00
  0.00000000E+00  0.00000000E+00  0.00000000E+00
  0.00000000E+00  0.00000000E+00  0.00000000E+00
  0.00000000E+00  0.00000000E+00  0.00000000E+00
  0.00000000E+00  0.00000000E+00  0.00000000E+00
