Al   Sc   N                             
   1.00000000000000     
    -9.8470441412502936   -0.0022060514499322    0.0025057349624392
    -4.9221437174848575    8.5178563008953372   -0.0062694665584766
     0.0015493895462237    0.0101065017234374  -10.1027286484870586
   Al   Sc   N 
    26    10    36
Direct
  0.1075591214900271  0.0934736359175261  0.3097713991437061
  0.7712538344212163  0.0946505042066050  0.8164075621646063
  0.4528659116770868  0.0893289979289591  0.3149378180188123
  0.5595717566038658  0.2025532466294848  0.0584541835197001
  0.2310051851779207  0.1980700678762446  0.5525604942051743
  0.7748592607703060  0.0959639775484789  0.3061997687721245
  0.8820341066788444  0.2045054997149762  0.0631317572075858
  0.4521881530391454  0.0948233041104984  0.8097358000442512
  0.5593980329581143  0.1970685121218452  0.5647690423279244
  0.1072798145221512  0.4277707877426735  0.3040436663496351
  0.2244874546833344  0.5456123478173680  0.0530116612633833
  0.7667849883045434  0.4277212984679721  0.8178819545277776
  0.5564078761532798  0.5346991054860553  0.0628513171473060
  0.7805651021514777  0.4257236296096352  0.3043156826878857
  0.8780057148961120  0.5466266652927132  0.0578713717686057
  0.4556913842966352  0.4208487455210346  0.8112324776577751
  0.5562984588692004  0.5433545825232358  0.5599434564375017
  0.2184601554566612  0.8682559109299532  0.0635534057460987
  0.7736551184158031  0.7706785307932122  0.8112974506833552
  0.8792205724796816  0.8842443214269053  0.5673453490836096
  0.4459025422957552  0.7672880949753917  0.3092483114761819
  0.5638380558322282  0.8746907200673846  0.0592311305021553
  0.1059719398551806  0.7696473789081679  0.8109209596704190
  0.2286643548983776  0.8749782508591437  0.5568342587415671
  0.8890223471550698  0.8715185792869917  0.0558099462766179
  0.5481761126850131  0.8783369953700486  0.5629386753285743
  0.2319715114511780  0.1966772027687327  0.0857458748815034
  0.8851934018836758  0.2022959666886663  0.5642274505273690
  0.1125710799941047  0.0933100112945695  0.8175337182232525
  0.8869176986134519  0.5357947279097814  0.5723482044957819
  0.4475492865519897  0.4242086496360642  0.3203635952667341
  0.1121271155472456  0.4234897973283580  0.8340408282214327
  0.2224521901341845  0.5377433825064131  0.5818761758955162
  0.1083228444633377  0.7650096299170173  0.3178915086732488
  0.7742756910783868  0.7628521804455204  0.3183506839715093
  0.4495959711010400  0.7582951745497581  0.8232643031540832
  0.2242495704269274  0.2047619530302640  0.3490950692373076
  0.0984335963520167  0.0830756617980057  0.1185408119414078
  0.8710953876004623  0.2119161064068678  0.8710296558248629
  0.7653045059003674  0.0892655245201084  0.6302681117579851
  0.5663801500469816  0.1870089029564639  0.3754615873048834
  0.4740228266973148  0.0810817035561584  0.1282110028778689
  0.2495302293102384  0.1869141325588757  0.8802025711343688
  0.1302008376333745  0.0871965242510981  0.6057331401700523
  0.8840807154458403  0.2068774553431396  0.3529906502012707
  0.7765104200921584  0.0922948761531615  0.1149111335776638
  0.5546866220991689  0.2057040123591989  0.8686073184939573
  0.4436210409528982  0.0953042861786741  0.6169888651276807
  0.2107401551135055  0.5286196777732144  0.3720957016635964
  0.1002976677459486  0.4485798778959094  0.1040538759361809
  0.8623995800092104  0.5519462931353516  0.8655133510567481
  0.7581414671616429  0.4339794330331941  0.6307679617763000
  0.5667329664862208  0.5507091037063034  0.3682127890630085
  0.4428561954193242  0.4259819143253125  0.1090092584835176
  0.2336664935829234  0.5487937853944587  0.8558042273781297
  0.1219163523588094  0.4002744621290404  0.6259732450638822
  0.8986597791413473  0.5175985237824818  0.3607790800289834
  0.7764705893758972  0.4277979461288055  0.1146878454675715
  0.5604125189610940  0.5213678254847594  0.8769234621484756
  0.4663704309121570  0.4161887617207469  0.6153195059199135
  0.2329207340700705  0.8796715564227711  0.3668586748478404
  0.1091121098265617  0.7594030163125751  0.1076080352305908
  0.8892950383960141  0.8721893881118987  0.8664929966071355
  0.7665812096673079  0.7797546152582058  0.6177943093341085
  0.5377425753529010  0.8819409360971662  0.3747689122521507
  0.4466168562844288  0.7626885873087730  0.1120503598205147
  0.2146652556290434  0.8636579807151321  0.8777951018949040
  0.0988480478095966  0.7877068834688217  0.6179112028964369
  0.8774914800985840  0.8940138193931944  0.3790950815506875
  0.7798062803384482  0.7615648256696801  0.1083092909849910
  0.5657245993975408  0.8855514425517654  0.8711697282147810
  0.4442679899061233  0.7605586386415126  0.6120019835600985
 
  0.00000000E+00  0.00000000E+00  0.00000000E+00
  0.00000000E+00  0.00000000E+00  0.00000000E+00
  0.00000000E+00  0.00000000E+00  0.00000000E+00
  0.00000000E+00  0.00000000E+00  0.00000000E+00
  0.00000000E+00  0.00000000E+00  0.00000000E+00
  0.00000000E+00  0.00000000E+00  0.00000000E+00
  0.00000000E+00  0.00000000E+00  0.00000000E+00
  0.00000000E+00  0.00000000E+00  0.00000000E+00
  0.00000000E+00  0.00000000E+00  0.00000000E+00
  0.00000000E+00  0.00000000E+00  0.00000000E+00
  0.00000000E+00  0.00000000E+00  0.00000000E+00
  0.00000000E+00  0.00000000E+00  0.00000000E+00
  0.00000000E+00  0.00000000E+00  0.00000000E+00
  0.00000000E+00  0.00000000E+00  0.00000000E+00
  0.00000000E+00  0.00000000E+00  0.00000000E+00
  0.00000000E+00  0.00000000E+00  0.00000000E+00
  0.00000000E+00  0.00000000E+00  0.00000000E+00
  0.00000000E+00  0.00000000E+00  0.00000000E+00
  0.00000000E+00  0.00000000E+00  0.00000000E+00
  0.00000000E+00  0.00000000E+00  0.00000000E+00
  0.00000000E+00  0.00000000E+00  0.00000000E+00
  0.00000000E+00  0.00000000E+00  0.00000000E+00
  0.00000000E+00  0.00000000E+00  0.00000000E+00
  0.00000000E+00  0.00000000E+00  0.00000000E+00
  0.00000000E+00  0.00000000E+00  0.00000000E+00
  0.00000000E+00  0.00000000E+00  0.00000000E+00
  0.00000000E+00  0.00000000E+00  0.00000000E+00
  0.00000000E+00  0.00000000E+00  0.00000000E+00
  0.00000000E+00  0.00000000E+00  0.00000000E+00
  0.00000000E+00  0.00000000E+00  0.00000000E+00
  0.00000000E+00  0.00000000E+00  0.00000000E+00
  0.00000000E+00  0.00000000E+00  0.00000000E+00
  0.00000000E+00  0.00000000E+00  0.00000000E+00
  0.00000000E+00  0.00000000E+00  0.00000000E+00
  0.00000000E+00  0.00000000E+00  0.00000000E+00
  0.00000000E+00  0.00000000E+00  0.00000000E+00
  0.00000000E+00  0.00000000E+00  0.00000000E+00
  0.00000000E+00  0.00000000E+00  0.00000000E+00
  0.00000000E+00  0.00000000E+00  0.00000000E+00
  0.00000000E+00  0.00000000E+00  0.00000000E+00
  0.00000000E+00  0.00000000E+00  0.00000000E+00
  0.00000000E+00  0.00000000E+00  0.00000000E+00
  0.00000000E+00  0.00000000E+00  0.00000000E+00
  0.00000000E+00  0.00000000E+00  0.00000000E+00
  0.00000000E+00  0.00000000E+00  0.00000000E+00
  0.00000000E+00  0.00000000E+00  0.00000000E+00
  0.00000000E+00  0.00000000E+00  0.00000000E+00
  0.00000000E+00  0.00000000E+00  0.00000000E+00
  0.00000000E+00  0.00000000E+00  0.00000000E+00
  0.00000000E+00  0.00000000E+00  0.00000000E+00
  0.00000000E+00  0.00000000E+00  0.00000000E+00
  0.00000000E+00  0.00000000E+00  0.00000000E+00
  0.00000000E+00  0.00000000E+00  0.00000000E+00
  0.00000000E+00  0.00000000E+00  0.00000000E+00
  0.00000000E+00  0.00000000E+00  0.00000000E+00
  0.00000000E+00  0.00000000E+00  0.00000000E+00
  0.00000000E+00  0.00000000E+00  0.00000000E+00
  0.00000000E+00  0.00000000E+00  0.00000000E+00
  0.00000000E+00  0.00000000E+00  0.00000000E+00
  0.00000000E+00  0.00000000E+00  0.00000000E+00
  0.00000000E+00  0.00000000E+00  0.00000000E+00
  0.00000000E+00  0.00000000E+00  0.00000000E+00
  0.00000000E+00  0.00000000E+00  0.00000000E+00
  0.00000000E+00  0.00000000E+00  0.00000000E+00
  0.00000000E+00  0.00000000E+00  0.00000000E+00
  0.00000000E+00  0.00000000E+00  0.00000000E+00
  0.00000000E+00  0.00000000E+00  0.00000000E+00
  0.00000000E+00  0.00000000E+00  0.00000000E+00
  0.00000000E+00  0.00000000E+00  0.00000000E+00
  0.00000000E+00  0.00000000E+00  0.00000000E+00
  0.00000000E+00  0.00000000E+00  0.00000000E+00
  0.00000000E+00  0.00000000E+00  0.00000000E+00
