Al   Sc   N                             
   1.00000000000000     
   -10.2600249112440114   -0.0020403659246780    0.0028178255533764
    -5.1289399623042797    8.8750452331226040   -0.0047210174905439
     0.0060106742565488   -0.0260927357868092   -8.9180653338050568
   Al   Sc   N 
    26    10    36
Direct
  0.1106582693540190  0.0940337876345083  0.3432545285922544
  0.7712005598371903  0.0949716173059869  0.8464879819153808
  0.4540667607370921  0.0886018227553933  0.3444775561450371
  0.5572054361337564  0.2017208662538579  0.0812276909968475
  0.2317075608635051  0.1965697723851392  0.5823804948433562
  0.7736010507135660  0.0978849821841479  0.3231304010969609
  0.8838907437750407  0.2057337613144625  0.0914281509906232
  0.4529877991995122  0.0948244986933986  0.8277831101337725
  0.5608158159153973  0.1996549992031760  0.5891400128817921
  0.1083776266634828  0.4233198062404995  0.3425649613167820
  0.2207228706585624  0.5421373494340713  0.0940722360099215
  0.7657503395946250  0.4287789342426862  0.8467200856863570
  0.5569643112329885  0.5372948931730051  0.0949734510905671
  0.7799860529120721  0.4255871197410670  0.3269286186354279
  0.8823992346766687  0.5425312950212628  0.0913802206915406
  0.4514823590925516  0.4235580872606164  0.8486146928615170
  0.5535946216107632  0.5431729230620732  0.5784034563862264
  0.2209766338577595  0.8693801499455560  0.0952015950294367
  0.7760199292502250  0.7682074926839277  0.8435442227196575
  0.8809611397864501  0.8834764813882430  0.5944837558295362
  0.4473910996473123  0.7678576916479969  0.3343593559170017
  0.5614766287323008  0.8758984562636627  0.0812699845940443
  0.1072951776946454  0.7650967997253275  0.8487558578915753
  0.2282015396656263  0.8730348456319916  0.5811157285178226
  0.8874991013311302  0.8729970019646203  0.0842666360660829
  0.5515712696460895  0.8772606774812246  0.5911557585365799
  0.2343809158863337  0.1966181719748263  0.1074103972856619
  0.8821181860054494  0.2039752663099108  0.5962668876599651
  0.1119828260115980  0.0905584445379759  0.8496839123542017
  0.8826840506519247  0.5377221728748580  0.6021715166193289
  0.4495186119309906  0.4211915566860753  0.3453234396570721
  0.1122237638444616  0.4236617426737865  0.8557992921761084
  0.2240309584857769  0.5388456849613021  0.6049784355941128
  0.1067555522194397  0.7674208717990538  0.3470879559327784
  0.7737822562911774  0.7647649837299184  0.3472505502226539
  0.4487152981406837  0.7571551652306852  0.8502672568663954
  0.2264953010104946  0.2027608100253531  0.3578430360977904
  0.1010054241993643  0.0871717043067690  0.1140296682541191
  0.8721773790824798  0.2125833186078054  0.8641923174192812
  0.7662416938956937  0.0884579599570472  0.6289699353152969
  0.5677123651019826  0.1877956306814781  0.3693528536986719
  0.4703864307817796  0.0822500056327016  0.1257383166822521
  0.2471361811237571  0.1892293099480824  0.8655533992913789
  0.1275109486681316  0.0862447961095540  0.5976214682801100
  0.8829845362865569  0.2068615155715889  0.3481674368830525
  0.7748271608378872  0.0950676157919901  0.1035869308821376
  0.5525820692464976  0.2062788305207732  0.8640465345333510
  0.4459920058175086  0.0959213829771883  0.6086504552863374
  0.2130974445638856  0.5305039400576987  0.3547570545011567
  0.1020954305478128  0.4415219466497717  0.1077514253263132
  0.8670835325040613  0.5485425078487793  0.8626895251754263
  0.7555069462735773  0.4356750879055724  0.6213931827264929
  0.5642692839824193  0.5496570812599444  0.3529306960330914
  0.4437290158236351  0.4237252181090199  0.1027870878918762
  0.2307292471040938  0.5459886324913228  0.8596107458890927
  0.1193079056504089  0.4066883748186712  0.6084781443208342
  0.8950078353139332  0.5213956919886940  0.3518740145894625
  0.7777808352281355  0.4264482635525653  0.1086114129841604
  0.5588232311842418  0.5242275711985158  0.8770872598255437
  0.4630835968261096  0.4190572733825917  0.6095236840702540
  0.2335465357936428  0.8779386748067637  0.3545079568950484
  0.1082642752468814  0.7608994959176840  0.1023084508769259
  0.8894742074110056  0.8716522882326672  0.8648227596348548
  0.7703085839189114  0.7780592716909709  0.6121237653638190
  0.5406740894735407  0.8803768977963529  0.3720138071175825
  0.4484425046977663  0.7652171910688423  0.1107658909399731
  0.2172700194596473  0.8616569429707255  0.8721433220773633
  0.1004588695713693  0.7835812808667555  0.6108277917432048
  0.8767847316077919  0.8947919692867998  0.3632085587821052
  0.7778855085128882  0.7620435114696491  0.1016424334639936
  0.5639364824446034  0.8847299943645908  0.8600776100495082
  0.4443341451300213  0.7594675423461865  0.6055034028438868
 
  0.00000000E+00  0.00000000E+00  0.00000000E+00
  0.00000000E+00  0.00000000E+00  0.00000000E+00
  0.00000000E+00  0.00000000E+00  0.00000000E+00
  0.00000000E+00  0.00000000E+00  0.00000000E+00
  0.00000000E+00  0.00000000E+00  0.00000000E+00
  0.00000000E+00  0.00000000E+00  0.00000000E+00
  0.00000000E+00  0.00000000E+00  0.00000000E+00
  0.00000000E+00  0.00000000E+00  0.00000000E+00
  0.00000000E+00  0.00000000E+00  0.00000000E+00
  0.00000000E+00  0.00000000E+00  0.00000000E+00
  0.00000000E+00  0.00000000E+00  0.00000000E+00
  0.00000000E+00  0.00000000E+00  0.00000000E+00
  0.00000000E+00  0.00000000E+00  0.00000000E+00
  0.00000000E+00  0.00000000E+00  0.00000000E+00
  0.00000000E+00  0.00000000E+00  0.00000000E+00
  0.00000000E+00  0.00000000E+00  0.00000000E+00
  0.00000000E+00  0.00000000E+00  0.00000000E+00
  0.00000000E+00  0.00000000E+00  0.00000000E+00
  0.00000000E+00  0.00000000E+00  0.00000000E+00
  0.00000000E+00  0.00000000E+00  0.00000000E+00
  0.00000000E+00  0.00000000E+00  0.00000000E+00
  0.00000000E+00  0.00000000E+00  0.00000000E+00
  0.00000000E+00  0.00000000E+00  0.00000000E+00
  0.00000000E+00  0.00000000E+00  0.00000000E+00
  0.00000000E+00  0.00000000E+00  0.00000000E+00
  0.00000000E+00  0.00000000E+00  0.00000000E+00
  0.00000000E+00  0.00000000E+00  0.00000000E+00
  0.00000000E+00  0.00000000E+00  0.00000000E+00
  0.00000000E+00  0.00000000E+00  0.00000000E+00
  0.00000000E+00  0.00000000E+00  0.00000000E+00
  0.00000000E+00  0.00000000E+00  0.00000000E+00
  0.00000000E+00  0.00000000E+00  0.00000000E+00
  0.00000000E+00  0.00000000E+00  0.00000000E+00
  0.00000000E+00  0.00000000E+00  0.00000000E+00
  0.00000000E+00  0.00000000E+00  0.00000000E+00
  0.00000000E+00  0.00000000E+00  0.00000000E+00
  0.00000000E+00  0.00000000E+00  0.00000000E+00
  0.00000000E+00  0.00000000E+00  0.00000000E+00
  0.00000000E+00  0.00000000E+00  0.00000000E+00
  0.00000000E+00  0.00000000E+00  0.00000000E+00
  0.00000000E+00  0.00000000E+00  0.00000000E+00
  0.00000000E+00  0.00000000E+00  0.00000000E+00
  0.00000000E+00  0.00000000E+00  0.00000000E+00
  0.00000000E+00  0.00000000E+00  0.00000000E+00
  0.00000000E+00  0.00000000E+00  0.00000000E+00
  0.00000000E+00  0.00000000E+00  0.00000000E+00
  0.00000000E+00  0.00000000E+00  0.00000000E+00
  0.00000000E+00  0.00000000E+00  0.00000000E+00
  0.00000000E+00  0.00000000E+00  0.00000000E+00
  0.00000000E+00  0.00000000E+00  0.00000000E+00
  0.00000000E+00  0.00000000E+00  0.00000000E+00
  0.00000000E+00  0.00000000E+00  0.00000000E+00
  0.00000000E+00  0.00000000E+00  0.00000000E+00
  0.00000000E+00  0.00000000E+00  0.00000000E+00
  0.00000000E+00  0.00000000E+00  0.00000000E+00
  0.00000000E+00  0.00000000E+00  0.00000000E+00
  0.00000000E+00  0.00000000E+00  0.00000000E+00
  0.00000000E+00  0.00000000E+00  0.00000000E+00
  0.00000000E+00  0.00000000E+00  0.00000000E+00
  0.00000000E+00  0.00000000E+00  0.00000000E+00
  0.00000000E+00  0.00000000E+00  0.00000000E+00
  0.00000000E+00  0.00000000E+00  0.00000000E+00
  0.00000000E+00  0.00000000E+00  0.00000000E+00
  0.00000000E+00  0.00000000E+00  0.00000000E+00
  0.00000000E+00  0.00000000E+00  0.00000000E+00
  0.00000000E+00  0.00000000E+00  0.00000000E+00
  0.00000000E+00  0.00000000E+00  0.00000000E+00
  0.00000000E+00  0.00000000E+00  0.00000000E+00
  0.00000000E+00  0.00000000E+00  0.00000000E+00
  0.00000000E+00  0.00000000E+00  0.00000000E+00
  0.00000000E+00  0.00000000E+00  0.00000000E+00
  0.00000000E+00  0.00000000E+00  0.00000000E+00
