generated by phonopy                    
   1.00000000000000     
    10.0351470768999995   -0.0000022330999784   -0.0000001056124209
    -5.0175765436399997    8.6906901959899994    0.0000001395531216
    -0.0000001735893656    0.0000001431815548   14.9533752540999991
   Pb   P    O 
    19    13    50
Direct
  0.0157849199213800  0.7908400286106669  0.1182878500537612
  0.9991368222533694  0.7705441414632688  0.6240381577278953
  0.0021169458492167  0.2626846383936865  0.3820913867910960
  0.0025236402650819  0.2649168014044818  0.8709611803174226
  0.2380726407754992  0.2252882379467991  0.1245798563140568
  0.2293174597790255  0.2246176036466991  0.6274883080792506
  0.7290830621266906  0.7307501977566560  0.3743085797825643
  0.7410281206708120  0.7380629395960057  0.8683758282176868
  0.7707163714448626  0.9982600483371940  0.1126579423049350
  0.7750039695245121  0.0014395240985223  0.6250088041441728
  0.2543115730263708  0.9936315584414643  0.3777552943174172
  0.2769535799380733  0.0073423790548617  0.8794893060081108
  0.6649639394745250  0.3337503309982850  0.5091459804603105
  0.3275479515958821  0.6539462728565155  0.0028159289898682
  0.3357082756840839  0.6669200134512678  0.5054048247989229
  0.3204972853012364  0.6644973673965922  0.2470227536390723
  0.3365264753148978  0.6745423090065472  0.7451384119745867
  0.6605676953941284  0.3120056432904192  0.2558551916138683
  0.6647320124959322  0.3322197807064668  0.7591530176969030
  0.6930305864037152  0.3898308137085706  0.0196261067284880
  0.6298323169211457  0.6025194602804831  0.1240725145467394
  0.6244231999917105  0.5966654861178355  0.6227615421109434
  0.3602315361274577  0.3861130872582521  0.3754228747448494
  0.3671255549952335  0.3960154611959936  0.8747712955601941
  0.4046214936636403  0.0217006269744928  0.1294425150150005
  0.4083018345454335  0.0299044751869957  0.6249432028475539
  0.5974470865660635  0.9633371395279795  0.3707242785199512
  0.6172913357931193  0.9777116632827259  0.8718130957051926
  0.9588338467750930  0.3787764516336409  0.1159669141883839
  0.9735886129986255  0.3775010715811860  0.6239070908245807
  0.0233882329255906  0.6276191564032416  0.3750516632972136
  0.0353182052817331  0.6417951683413818  0.8688359942379833
  0.4786960524686137  0.6071243151114416  0.1245405048277419
  0.5024269691474501  0.6495549214279706  0.6217455606573381
  0.4610450157099919  0.3089943817764578  0.3763491495740894
  0.4624479089535285  0.3138843088224519  0.8719500660778294
  0.3476705485896403  0.8448423985171090  0.1288603896284286
  0.3560478271621790  0.8547422336087180  0.6247671797735563
  0.6730611904573465  0.1420423977946825  0.3687283551893685
  0.6951218596469033  0.1539693421008579  0.8620549963526472
  0.1255077163658314  0.5152314076640963  0.1178501518615533
  0.1476902759218532  0.5019235988427795  0.6235539042503433
  0.8461016726466397  0.5223895036839323  0.3733593014701668
  0.8604929147193801  0.5465829601022065  0.8533791646411331
  0.7485711838653302  0.7142864125257091  0.0554038917427064
  0.7316870650698135  0.6561312657431344  0.5383222063735715
  0.2476827538260480  0.3351037641484780  0.4578649686238521
  0.2604979603716657  0.3525163596416760  0.9592452687863897
  0.3287955493240986  0.0571003836750350  0.0475479413167079
  0.3446550149564303  0.0726305385921435  0.5403032979052895
  0.6483202847231198  0.9083772963864973  0.4552111026397796
  0.6808795730919073  0.9293829395641353  0.9535384382368264
  0.9349888034402625  0.2571590792073835  0.0450894667655675
  0.9284512536061271  0.2711724487182394  0.5386613383584802
  0.0793995017824258  0.7397570590054983  0.4570092569409709
  0.0788971165143835  0.7504637575773359  0.9520777728860494
  0.2557400651219268  0.3450717157509544  0.2905648491174375
  0.2591881439520094  0.3574574021577064  0.7913389209590918
  0.7033958743662225  0.6195304790066700  0.2165438910192634
  0.7313659295607238  0.6629650036937136  0.7066895485284448
  0.6360331742836607  0.8956401581818625  0.2871219002154817
  0.6455289595305302  0.8996232701234774  0.7879197464338361
  0.3436465126126436  0.0693114790828986  0.2140568692733709
  0.3468087070058843  0.0748222886242758  0.7092255226957676
  0.0895287973070040  0.7297063017987782  0.2893025188683040
  0.1221170649949528  0.7468604233297995  0.7869008597397453
  0.9031099541271601  0.3068429979648570  0.2094300580858715
  0.9335793196241440  0.2687932895242753  0.7068602920134879
  0.5838817656378410  0.4268482084845218  0.0902772481810103
  0.5439842399087951  0.4167174618672291  0.6239993879967756
  0.4659845636507143  0.5674028683473438  0.3806354762612330
  0.4778416084278518  0.5772062175351138  0.8778391561095660
  0.5824074590492216  0.1166807068961191  0.1304625013399914
  0.5883291888911799  0.1291069702473990  0.6241452381468804
  0.4154954443975427  0.8889302625191391  0.3738031555997310
  0.4367361409713695  0.9024164851805594  0.8823344936569342
  0.8509388079092446  0.4528678344890409  0.0877267115982932
  0.8709973173461449  0.4544632746303563  0.6252931408676545
  0.1032189561585497  0.5251028293212769  0.3814258842094986
  0.1032779716291756  0.5299843522753704  0.8840721140066847
  0.0094219531925077  0.0114173720876991  0.1284074362642613
  0.0010201090828659  0.9986611890724149  0.6251954535393409
 
  0.00000000E+00  0.00000000E+00  0.00000000E+00
  0.00000000E+00  0.00000000E+00  0.00000000E+00
  0.00000000E+00  0.00000000E+00  0.00000000E+00
  0.00000000E+00  0.00000000E+00  0.00000000E+00
  0.00000000E+00  0.00000000E+00  0.00000000E+00
  0.00000000E+00  0.00000000E+00  0.00000000E+00
  0.00000000E+00  0.00000000E+00  0.00000000E+00
  0.00000000E+00  0.00000000E+00  0.00000000E+00
  0.00000000E+00  0.00000000E+00  0.00000000E+00
  0.00000000E+00  0.00000000E+00  0.00000000E+00
  0.00000000E+00  0.00000000E+00  0.00000000E+00
  0.00000000E+00  0.00000000E+00  0.00000000E+00
  0.00000000E+00  0.00000000E+00  0.00000000E+00
  0.00000000E+00  0.00000000E+00  0.00000000E+00
  0.00000000E+00  0.00000000E+00  0.00000000E+00
  0.00000000E+00  0.00000000E+00  0.00000000E+00
  0.00000000E+00  0.00000000E+00  0.00000000E+00
  0.00000000E+00  0.00000000E+00  0.00000000E+00
  0.00000000E+00  0.00000000E+00  0.00000000E+00
  0.00000000E+00  0.00000000E+00  0.00000000E+00
  0.00000000E+00  0.00000000E+00  0.00000000E+00
  0.00000000E+00  0.00000000E+00  0.00000000E+00
  0.00000000E+00  0.00000000E+00  0.00000000E+00
  0.00000000E+00  0.00000000E+00  0.00000000E+00
  0.00000000E+00  0.00000000E+00  0.00000000E+00
  0.00000000E+00  0.00000000E+00  0.00000000E+00
  0.00000000E+00  0.00000000E+00  0.00000000E+00
  0.00000000E+00  0.00000000E+00  0.00000000E+00
  0.00000000E+00  0.00000000E+00  0.00000000E+00
  0.00000000E+00  0.00000000E+00  0.00000000E+00
  0.00000000E+00  0.00000000E+00  0.00000000E+00
  0.00000000E+00  0.00000000E+00  0.00000000E+00
  0.00000000E+00  0.00000000E+00  0.00000000E+00
  0.00000000E+00  0.00000000E+00  0.00000000E+00
  0.00000000E+00  0.00000000E+00  0.00000000E+00
  0.00000000E+00  0.00000000E+00  0.00000000E+00
  0.00000000E+00  0.00000000E+00  0.00000000E+00
  0.00000000E+00  0.00000000E+00  0.00000000E+00
  0.00000000E+00  0.00000000E+00  0.00000000E+00
  0.00000000E+00  0.00000000E+00  0.00000000E+00
  0.00000000E+00  0.00000000E+00  0.00000000E+00
  0.00000000E+00  0.00000000E+00  0.00000000E+00
  0.00000000E+00  0.00000000E+00  0.00000000E+00
  0.00000000E+00  0.00000000E+00  0.00000000E+00
  0.00000000E+00  0.00000000E+00  0.00000000E+00
  0.00000000E+00  0.00000000E+00  0.00000000E+00
  0.00000000E+00  0.00000000E+00  0.00000000E+00
  0.00000000E+00  0.00000000E+00  0.00000000E+00
  0.00000000E+00  0.00000000E+00  0.00000000E+00
  0.00000000E+00  0.00000000E+00  0.00000000E+00
  0.00000000E+00  0.00000000E+00  0.00000000E+00
  0.00000000E+00  0.00000000E+00  0.00000000E+00
  0.00000000E+00  0.00000000E+00  0.00000000E+00
  0.00000000E+00  0.00000000E+00  0.00000000E+00
  0.00000000E+00  0.00000000E+00  0.00000000E+00
  0.00000000E+00  0.00000000E+00  0.00000000E+00
  0.00000000E+00  0.00000000E+00  0.00000000E+00
  0.00000000E+00  0.00000000E+00  0.00000000E+00
  0.00000000E+00  0.00000000E+00  0.00000000E+00
  0.00000000E+00  0.00000000E+00  0.00000000E+00
  0.00000000E+00  0.00000000E+00  0.00000000E+00
  0.00000000E+00  0.00000000E+00  0.00000000E+00
  0.00000000E+00  0.00000000E+00  0.00000000E+00
  0.00000000E+00  0.00000000E+00  0.00000000E+00
  0.00000000E+00  0.00000000E+00  0.00000000E+00
  0.00000000E+00  0.00000000E+00  0.00000000E+00
  0.00000000E+00  0.00000000E+00  0.00000000E+00
  0.00000000E+00  0.00000000E+00  0.00000000E+00
  0.00000000E+00  0.00000000E+00  0.00000000E+00
  0.00000000E+00  0.00000000E+00  0.00000000E+00
  0.00000000E+00  0.00000000E+00  0.00000000E+00
  0.00000000E+00  0.00000000E+00  0.00000000E+00
  0.00000000E+00  0.00000000E+00  0.00000000E+00
  0.00000000E+00  0.00000000E+00  0.00000000E+00
  0.00000000E+00  0.00000000E+00  0.00000000E+00
  0.00000000E+00  0.00000000E+00  0.00000000E+00
  0.00000000E+00  0.00000000E+00  0.00000000E+00
  0.00000000E+00  0.00000000E+00  0.00000000E+00
  0.00000000E+00  0.00000000E+00  0.00000000E+00
  0.00000000E+00  0.00000000E+00  0.00000000E+00
  0.00000000E+00  0.00000000E+00  0.00000000E+00
  0.00000000E+00  0.00000000E+00  0.00000000E+00
