supercell of POSCAR                     
   1.01800000000000     
     3.1310994802600001   -5.4896946145000003   10.0244832682999991
    -9.4821132118399998   -5.5089477087900001    0.0170740616273000
     6.3359946057599998  -11.0114127993000004  -10.0652216442999993
   Al   Gd   N    O 
    84    12    95     1
Direct
  0.0885349813594516  0.5854356296444578  0.3349559089138126
  0.5008760829946084  0.3224740261433467  0.2547362103189954
  0.0846886134690692  0.0843643938941199  0.3341361960784255
  0.2511853468675014  0.5788745866132814  0.4939385247573540
  0.3321336664564498  0.3182509488257637  0.0788037382368145
  0.4170110554297608  0.0873185309113964  0.1705230916888851
  0.0068368011692996  0.8432459303362521  0.2548299407209456
  0.1608287595129454  0.3319146639260993  0.4143183433362694
  0.2473600625079726  0.0865935060372109  0.4965024320615683
  0.1618101585026892  0.8369341985249932  0.4160678686683781
  0.3370858565728696  0.6741702232612425  0.3398168198863587
  0.1548710778062272  0.6751250670235578  0.1658792417017665
  0.2485297422613115  0.4048327113869163  0.2502911515034114
  0.3352997584502333  0.1565929692511290  0.3333287461420156
  0.0062270732636804  0.6736979542352586  0.4944505689582712
  0.1670002292781021  0.1587150734219875  0.1692067737455929
  0.2524095220905451  0.9194068227257404  0.2557057763999921
  0.4158952653292545  0.4180174937746628  0.4171969914022995
  0.4991650137193986  0.1609328306633699  0.4968047973285294
  0.0830688444293344  0.9238771367628331  0.0798737659941864
  0.4198757913881792  0.9190157605652018  0.4120236671506277
  0.0901304059140031  0.5848456806980167  0.8349800125851061
  0.5002194456807700  0.3223075971032827  0.7554173756803664
  0.0864727609282312  0.0853771006908275  0.8344440400886057
  0.2524475185996806  0.5787335713616741  0.9947175987712384
  0.3319232431674948  0.3175118004168951  0.5779726523381328
  0.4172848028670018  0.0871180537046925  0.6710553703330007
  0.0078444162157965  0.8440180463430167  0.7550815794432921
  0.1685574147084381  0.3321352399834083  0.9123801893631054
  0.2478583696293626  0.0873247504005832  0.9959132025353128
  0.1627972955882697  0.8372476294818512  0.9160400194181904
  0.3373586916344777  0.6741606724362441  0.8405477779824082
  0.1543071505140716  0.6755884786063291  0.6669382294477302
  0.2505035231677653  0.4015246051843633  0.7523921458815934
  0.3347754936959078  0.1642151225039044  0.8342062452137924
  0.0073647417291482  0.6732842029233197  0.9942571541521517
  0.1671283795346667  0.1590022293389879  0.6695604508908986
  0.2532423837941948  0.9206801202612453  0.7560465411129869
  0.4133481618412489  0.4150261767129280  0.9154307206067855
  0.4987459059712052  0.1619379466480524  0.9969424080636315
  0.0827678861310090  0.9239016471812107  0.5801227561903133
  0.4203870700717545  0.9205810299643105  0.9116873687910712
  0.5891288792649831  0.5856898467030760  0.3343815942127080
  0.9988970336713976  0.3217558992396761  0.2553590006639297
  0.5862807619720343  0.0850241171323134  0.3346453083444345
  0.7517318795991059  0.5786003152376082  0.4941190790802636
  0.8326640244947896  0.3178512296250631  0.0778956064754439
  0.9169226834419888  0.0867295012289304  0.1706816143769103
  0.5071339265936103  0.8441773778488795  0.2550265971530479
  0.6679387973638313  0.3315784901268870  0.4121871844159912
  0.7477334099397694  0.0870372588984551  0.4961310087389492
  0.6623441986805148  0.8372054012285446  0.4159134065243748
  0.8366833276333949  0.6738976935138652  0.3400636016320320
  0.6549173420841967  0.6761549590837248  0.1667833857141119
  0.7503116712837823  0.4019707654684339  0.2518495660880760
  0.8339604154186802  0.1639397013872070  0.3340818395156475
  0.5071233547022871  0.6737775851906562  0.4945759572369042
  0.6672743765026610  0.1590647372397171  0.1691543634988975
  0.7527951849522694  0.9204979736843484  0.2556885522851360
  0.9116520589687624  0.4151740535698067  0.4156622017458318
  0.9982265592014059  0.1610442287291036  0.4972490479908558
  0.5831037079079238  0.9244396548000182  0.0801637089635960
  0.9196613692250040  0.9199193479244414  0.4117885829963512
  0.5899792551951748  0.5849141086168856  0.8345853441811926
  0.0005219326845491  0.3223643561564131  0.7556029768680119
  0.5862246290559128  0.0855032454230837  0.8343695593615621
  0.7527461907443396  0.5786989972396697  0.9936627155433513
  0.8328380401848889  0.3181272299108642  0.5782811335914815
  0.9174699693925561  0.0870925796051338  0.6710115528984204
  0.5075918697163573  0.8440123686201275  0.7550816590777174
  0.6686027249131214  0.3320311965792584  0.9116292821266967
  0.7477322110541138  0.0877045582924225  0.9956738125831919
  0.6626278109535448  0.8373309656380599  0.9156348865620032
  0.8375571929496815  0.6742701007279521  0.8404533139044403
  0.6543523313854323  0.6756732306216620  0.6667655018679994
  0.7506249676889141  0.4015062596374506  0.7520638865478944
  0.8349306634204154  0.1639561387612289  0.8339982831681496
  0.5073653329866588  0.6737687209113687  0.9936982085566584
  0.6674415339936033  0.1589883589664822  0.6694458688928222
  0.7532270620104740  0.9205893598592851  0.7558890852296756
  0.9134306363893288  0.4147371436703864  0.9150604081799472
  0.9989788920070524  0.1611580224441056  0.9966280337039137
  0.5827530120386015  0.9240939739267375  0.5801647978137439
  0.9206076757879202  0.9201274149601844  0.9117140291247168
  0.3997924131289992  0.5789302571270412  0.1782430790674070
  0.3320512649066103  0.8369279936503702  0.0833554902694260
  0.0819160899772342  0.4176472467265455  0.0848891338780788
  0.3975505837480000  0.5789798880299628  0.6795244764322277
  0.3305293035663297  0.8354826515947309  0.5839657726956986
  0.0827415964942659  0.4200033858129828  0.5854292750367662
  0.8976969011110398  0.5793261612027720  0.1782453550842931
  0.8310178176017402  0.8364751591033297  0.0826829802823497
  0.5839242302957786  0.4192635113248215  0.0837588912562381
  0.8970430369873412  0.5794589840701292  0.6796443439286577
  0.8309986448728992  0.8361607723177187  0.5835083603621385
  0.5820344926324665  0.4180419812262244  0.5847480840695241
  0.2190587477676047  0.5790717409451744  0.2678097585416452
  0.0339483605572681  0.6101860562902033  0.1005555731863907
  0.1305985185170613  0.3168890605896451  0.2022034757287798
  0.2119766546648023  0.0829677987553268  0.2725670452592439
  0.3818138914873757  0.5833969067691527  0.4368666527339755
  0.4491564817236551  0.3200252676497186  0.0112892303655343
  0.0407216868988769  0.0859372919878041  0.1039691100248490
  0.1323088017097476  0.8422031799586165  0.1861275873372108
  0.3761328421121348  0.0811336287223341  0.4350057184491334
  0.4765257425300646  0.8380951920011057  0.0081352856248031
  0.2924974416863009  0.8349315751529218  0.3564094492425198
  0.4710693709056173  0.6853552757861863  0.2862529759345662
  0.2646639046116945  0.6548318932727923  0.0957670815743015
  0.3723793185214888  0.3815460492805940  0.1877939026783793
  0.4608649223455643  0.1638735142196879  0.2747047076516935
  0.1340792814686296  0.6656726413826988  0.4331492494882951
  0.2248096829709070  0.4121428657998081  0.0098220301283831
  0.2899185623579044  0.1577849674032947  0.1023783662376800
  0.3841585905181475  0.9287302221518203  0.2021292675914026
  0.0431261687608284  0.4193895259666149  0.3517498600906634
  0.1274035143272130  0.1707338757691232  0.4338034922577521
  0.1966735884126507  0.9320843395187808  0.0104690276624808
  0.0482770879712220  0.9235827346732748  0.3524406124054877
  0.2192934128153752  0.5813602575245085  0.7665451006864998
  0.0326332051976976  0.6119221930430427  0.6009521348352820
  0.1302890218002943  0.3176460258572789  0.7000064642284656
  0.2127960028650406  0.0830015284875785  0.7722256852162630
  0.3829213533972222  0.5839757811955621  0.9376006846212235
  0.4475060576564687  0.3188993800932849  0.5085344051189935
  0.0407880061228880  0.0859280696227245  0.6035321880224700
  0.1329164873520057  0.8429770453860641  0.6857998710516426
  0.2969003107642578  0.3298562669935308  0.8524830309176181
  0.3770314028929320  0.0810796494212624  0.9354215893433562
  0.4749980229266342  0.8377426223618585  0.5085342870321838
  0.2933777039970096  0.8355043492336449  0.8565264958731831
  0.4721990240038920  0.6852968808231878  0.7867738046847137
  0.2625287331742996  0.6528281534667357  0.5949587301550210
  0.3745869472561765  0.3819125106544732  0.6845572179841994
  0.4620655967946092  0.1628051853478283  0.7739436471865488
  0.1353828463188762  0.6658635062199068  0.9334206363674724
  0.2248671823811890  0.4112379932031232  0.5069588942761385
  0.2899086255213987  0.1574156931724318  0.6017655027880480
  0.3847019754538792  0.9278740173936484  0.7015785149525726
  0.0436773959219892  0.4197522415620725  0.8519908844739277
  0.1271848935657687  0.1711723333583066  0.9346672543898578
  0.1962569321911189  0.9317613621944076  0.5101879780946419
  0.0491623678190933  0.9242104164903466  0.8526348776088852
  0.7180063929041225  0.5811461697724454  0.2665856016542492
  0.5346009919969532  0.6115795318133337  0.1001901843112094
  0.6297045417093088  0.3178619631880295  0.1998139779140331
  0.7118391937078528  0.0829556590900467  0.2721391260069410
  0.8822465372865764  0.5839153566667648  0.4371541180292269
  0.9493719486476522  0.3190421076138108  0.0102490068057222
  0.5404072153425119  0.0861744337610872  0.1040320220300686
  0.6319902019037684  0.8431181768601164  0.1860226330128683
  0.7958546686806258  0.3299176745319343  0.3520770258088177
  0.8767493242317883  0.0808676939543886  0.4351109358803029
  0.9760612999686913  0.8377021599171073  0.0082967628706996
  0.7926328323430880  0.8352271513684713  0.3562246582159005
  0.9712714682290127  0.6845483963947459  0.2863612984197204
  0.7626253013381614  0.6544944100135979  0.0947287373093388
  0.8744812444491998  0.3822240383928275  0.1851774564051780
  0.9613278329106265  0.1623266970017312  0.2739815160324071
  0.6340973411835620  0.6655385904075501  0.4329657321310947
  0.7258285592699991  0.4120594649593556  0.0086133608151471
  0.7899785769464174  0.1575636856446323  0.1020104675593032
  0.8841997121427028  0.9274649089561464  0.2013619717047064
  0.5406218711411626  0.4193379046262962  0.3517363956656467
  0.6267079270593783  0.1709914131294283  0.4345010595818337
  0.6959897560979655  0.9325945591488107  0.0101002453411851
  0.5481367251061613  0.9241925322876838  0.3527738316075713
  0.7192700005358788  0.5814172381562344  0.7663835953849443
  0.5332956090170029  0.6105743201839928  0.6005999119311483
  0.6301215076467273  0.3176313278921086  0.6999289123196135
  0.7126554756239116  0.0829007436539513  0.7721628307595765
  0.8832285997996294  0.5839075436861236  0.9372662299397945
  0.9504263753013333  0.3198339764199005  0.5102878593303828
  0.5404054623546486  0.0863670134662300  0.6034476144154794
  0.6324631238017488  0.8429891913197309  0.6857956932325209
  0.7969345637486569  0.3295802995525463  0.8520109682471144
  0.8769232023690705  0.0806255403865705  0.9352138885146459
  0.9755263839137385  0.8380214517947664  0.5082054807998873
  0.7933375539026670  0.8354537910879500  0.8564174729742717
  0.9725404472894610  0.6853285314528961  0.7868815641870555
  0.7625470542469657  0.6541270717396657  0.5948602132330905
  0.8751313739711577  0.3823053996435846  0.6850470745134629
  0.9623699001635586  0.1627072059541845  0.7739595283913232
  0.6352874121882053  0.6658988797427909  0.9329150280557954
  0.7247799579059730  0.4117392930761810  0.5089475864828401
  0.7903399271596285  0.1576047815502122  0.6019019124165723
  0.8848259490036980  0.9277820135037871  0.7016009809459334
  0.5433257887091116  0.4198241163351497  0.8518180120168779
  0.6267857256355001  0.1715554522473255  0.9346014066232939
  0.6959635401784183  0.9320036725938792  0.5101952044490545
  0.5489155096827361  0.9243605697341764  0.8525407442320372
  0.2941231201130492  0.3302786649410407  0.3520811097953356
 
  0.00000000E+00  0.00000000E+00  0.00000000E+00
  0.00000000E+00  0.00000000E+00  0.00000000E+00
  0.00000000E+00  0.00000000E+00  0.00000000E+00
  0.00000000E+00  0.00000000E+00  0.00000000E+00
  0.00000000E+00  0.00000000E+00  0.00000000E+00
  0.00000000E+00  0.00000000E+00  0.00000000E+00
  0.00000000E+00  0.00000000E+00  0.00000000E+00
  0.00000000E+00  0.00000000E+00  0.00000000E+00
  0.00000000E+00  0.00000000E+00  0.00000000E+00
  0.00000000E+00  0.00000000E+00  0.00000000E+00
  0.00000000E+00  0.00000000E+00  0.00000000E+00
  0.00000000E+00  0.00000000E+00  0.00000000E+00
  0.00000000E+00  0.00000000E+00  0.00000000E+00
  0.00000000E+00  0.00000000E+00  0.00000000E+00
  0.00000000E+00  0.00000000E+00  0.00000000E+00
  0.00000000E+00  0.00000000E+00  0.00000000E+00
  0.00000000E+00  0.00000000E+00  0.00000000E+00
  0.00000000E+00  0.00000000E+00  0.00000000E+00
  0.00000000E+00  0.00000000E+00  0.00000000E+00
  0.00000000E+00  0.00000000E+00  0.00000000E+00
  0.00000000E+00  0.00000000E+00  0.00000000E+00
  0.00000000E+00  0.00000000E+00  0.00000000E+00
  0.00000000E+00  0.00000000E+00  0.00000000E+00
  0.00000000E+00  0.00000000E+00  0.00000000E+00
  0.00000000E+00  0.00000000E+00  0.00000000E+00
  0.00000000E+00  0.00000000E+00  0.00000000E+00
  0.00000000E+00  0.00000000E+00  0.00000000E+00
  0.00000000E+00  0.00000000E+00  0.00000000E+00
  0.00000000E+00  0.00000000E+00  0.00000000E+00
  0.00000000E+00  0.00000000E+00  0.00000000E+00
  0.00000000E+00  0.00000000E+00  0.00000000E+00
  0.00000000E+00  0.00000000E+00  0.00000000E+00
  0.00000000E+00  0.00000000E+00  0.00000000E+00
  0.00000000E+00  0.00000000E+00  0.00000000E+00
  0.00000000E+00  0.00000000E+00  0.00000000E+00
  0.00000000E+00  0.00000000E+00  0.00000000E+00
  0.00000000E+00  0.00000000E+00  0.00000000E+00
  0.00000000E+00  0.00000000E+00  0.00000000E+00
  0.00000000E+00  0.00000000E+00  0.00000000E+00
  0.00000000E+00  0.00000000E+00  0.00000000E+00
  0.00000000E+00  0.00000000E+00  0.00000000E+00
  0.00000000E+00  0.00000000E+00  0.00000000E+00
  0.00000000E+00  0.00000000E+00  0.00000000E+00
  0.00000000E+00  0.00000000E+00  0.00000000E+00
  0.00000000E+00  0.00000000E+00  0.00000000E+00
  0.00000000E+00  0.00000000E+00  0.00000000E+00
  0.00000000E+00  0.00000000E+00  0.00000000E+00
  0.00000000E+00  0.00000000E+00  0.00000000E+00
  0.00000000E+00  0.00000000E+00  0.00000000E+00
  0.00000000E+00  0.00000000E+00  0.00000000E+00
  0.00000000E+00  0.00000000E+00  0.00000000E+00
  0.00000000E+00  0.00000000E+00  0.00000000E+00
  0.00000000E+00  0.00000000E+00  0.00000000E+00
  0.00000000E+00  0.00000000E+00  0.00000000E+00
  0.00000000E+00  0.00000000E+00  0.00000000E+00
  0.00000000E+00  0.00000000E+00  0.00000000E+00
  0.00000000E+00  0.00000000E+00  0.00000000E+00
  0.00000000E+00  0.00000000E+00  0.00000000E+00
  0.00000000E+00  0.00000000E+00  0.00000000E+00
  0.00000000E+00  0.00000000E+00  0.00000000E+00
  0.00000000E+00  0.00000000E+00  0.00000000E+00
  0.00000000E+00  0.00000000E+00  0.00000000E+00
  0.00000000E+00  0.00000000E+00  0.00000000E+00
  0.00000000E+00  0.00000000E+00  0.00000000E+00
  0.00000000E+00  0.00000000E+00  0.00000000E+00
  0.00000000E+00  0.00000000E+00  0.00000000E+00
  0.00000000E+00  0.00000000E+00  0.00000000E+00
  0.00000000E+00  0.00000000E+00  0.00000000E+00
  0.00000000E+00  0.00000000E+00  0.00000000E+00
  0.00000000E+00  0.00000000E+00  0.00000000E+00
  0.00000000E+00  0.00000000E+00  0.00000000E+00
  0.00000000E+00  0.00000000E+00  0.00000000E+00
  0.00000000E+00  0.00000000E+00  0.00000000E+00
  0.00000000E+00  0.00000000E+00  0.00000000E+00
  0.00000000E+00  0.00000000E+00  0.00000000E+00
  0.00000000E+00  0.00000000E+00  0.00000000E+00
  0.00000000E+00  0.00000000E+00  0.00000000E+00
  0.00000000E+00  0.00000000E+00  0.00000000E+00
  0.00000000E+00  0.00000000E+00  0.00000000E+00
  0.00000000E+00  0.00000000E+00  0.00000000E+00
  0.00000000E+00  0.00000000E+00  0.00000000E+00
  0.00000000E+00  0.00000000E+00  0.00000000E+00
  0.00000000E+00  0.00000000E+00  0.00000000E+00
  0.00000000E+00  0.00000000E+00  0.00000000E+00
  0.00000000E+00  0.00000000E+00  0.00000000E+00
  0.00000000E+00  0.00000000E+00  0.00000000E+00
  0.00000000E+00  0.00000000E+00  0.00000000E+00
  0.00000000E+00  0.00000000E+00  0.00000000E+00
  0.00000000E+00  0.00000000E+00  0.00000000E+00
  0.00000000E+00  0.00000000E+00  0.00000000E+00
  0.00000000E+00  0.00000000E+00  0.00000000E+00
  0.00000000E+00  0.00000000E+00  0.00000000E+00
  0.00000000E+00  0.00000000E+00  0.00000000E+00
  0.00000000E+00  0.00000000E+00  0.00000000E+00
  0.00000000E+00  0.00000000E+00  0.00000000E+00
  0.00000000E+00  0.00000000E+00  0.00000000E+00
  0.00000000E+00  0.00000000E+00  0.00000000E+00
  0.00000000E+00  0.00000000E+00  0.00000000E+00
  0.00000000E+00  0.00000000E+00  0.00000000E+00
  0.00000000E+00  0.00000000E+00  0.00000000E+00
  0.00000000E+00  0.00000000E+00  0.00000000E+00
  0.00000000E+00  0.00000000E+00  0.00000000E+00
  0.00000000E+00  0.00000000E+00  0.00000000E+00
  0.00000000E+00  0.00000000E+00  0.00000000E+00
  0.00000000E+00  0.00000000E+00  0.00000000E+00
  0.00000000E+00  0.00000000E+00  0.00000000E+00
  0.00000000E+00  0.00000000E+00  0.00000000E+00
  0.00000000E+00  0.00000000E+00  0.00000000E+00
  0.00000000E+00  0.00000000E+00  0.00000000E+00
  0.00000000E+00  0.00000000E+00  0.00000000E+00
  0.00000000E+00  0.00000000E+00  0.00000000E+00
  0.00000000E+00  0.00000000E+00  0.00000000E+00
  0.00000000E+00  0.00000000E+00  0.00000000E+00
  0.00000000E+00  0.00000000E+00  0.00000000E+00
  0.00000000E+00  0.00000000E+00  0.00000000E+00
  0.00000000E+00  0.00000000E+00  0.00000000E+00
  0.00000000E+00  0.00000000E+00  0.00000000E+00
  0.00000000E+00  0.00000000E+00  0.00000000E+00
  0.00000000E+00  0.00000000E+00  0.00000000E+00
  0.00000000E+00  0.00000000E+00  0.00000000E+00
  0.00000000E+00  0.00000000E+00  0.00000000E+00
  0.00000000E+00  0.00000000E+00  0.00000000E+00
  0.00000000E+00  0.00000000E+00  0.00000000E+00
  0.00000000E+00  0.00000000E+00  0.00000000E+00
  0.00000000E+00  0.00000000E+00  0.00000000E+00
  0.00000000E+00  0.00000000E+00  0.00000000E+00
  0.00000000E+00  0.00000000E+00  0.00000000E+00
  0.00000000E+00  0.00000000E+00  0.00000000E+00
  0.00000000E+00  0.00000000E+00  0.00000000E+00
  0.00000000E+00  0.00000000E+00  0.00000000E+00
  0.00000000E+00  0.00000000E+00  0.00000000E+00
  0.00000000E+00  0.00000000E+00  0.00000000E+00
  0.00000000E+00  0.00000000E+00  0.00000000E+00
  0.00000000E+00  0.00000000E+00  0.00000000E+00
  0.00000000E+00  0.00000000E+00  0.00000000E+00
  0.00000000E+00  0.00000000E+00  0.00000000E+00
  0.00000000E+00  0.00000000E+00  0.00000000E+00
  0.00000000E+00  0.00000000E+00  0.00000000E+00
  0.00000000E+00  0.00000000E+00  0.00000000E+00
  0.00000000E+00  0.00000000E+00  0.00000000E+00
  0.00000000E+00  0.00000000E+00  0.00000000E+00
  0.00000000E+00  0.00000000E+00  0.00000000E+00
  0.00000000E+00  0.00000000E+00  0.00000000E+00
  0.00000000E+00  0.00000000E+00  0.00000000E+00
  0.00000000E+00  0.00000000E+00  0.00000000E+00
  0.00000000E+00  0.00000000E+00  0.00000000E+00
  0.00000000E+00  0.00000000E+00  0.00000000E+00
  0.00000000E+00  0.00000000E+00  0.00000000E+00
  0.00000000E+00  0.00000000E+00  0.00000000E+00
  0.00000000E+00  0.00000000E+00  0.00000000E+00
  0.00000000E+00  0.00000000E+00  0.00000000E+00
  0.00000000E+00  0.00000000E+00  0.00000000E+00
  0.00000000E+00  0.00000000E+00  0.00000000E+00
  0.00000000E+00  0.00000000E+00  0.00000000E+00
  0.00000000E+00  0.00000000E+00  0.00000000E+00
  0.00000000E+00  0.00000000E+00  0.00000000E+00
  0.00000000E+00  0.00000000E+00  0.00000000E+00
  0.00000000E+00  0.00000000E+00  0.00000000E+00
  0.00000000E+00  0.00000000E+00  0.00000000E+00
  0.00000000E+00  0.00000000E+00  0.00000000E+00
  0.00000000E+00  0.00000000E+00  0.00000000E+00
  0.00000000E+00  0.00000000E+00  0.00000000E+00
  0.00000000E+00  0.00000000E+00  0.00000000E+00
  0.00000000E+00  0.00000000E+00  0.00000000E+00
  0.00000000E+00  0.00000000E+00  0.00000000E+00
  0.00000000E+00  0.00000000E+00  0.00000000E+00
  0.00000000E+00  0.00000000E+00  0.00000000E+00
  0.00000000E+00  0.00000000E+00  0.00000000E+00
  0.00000000E+00  0.00000000E+00  0.00000000E+00
  0.00000000E+00  0.00000000E+00  0.00000000E+00
  0.00000000E+00  0.00000000E+00  0.00000000E+00
  0.00000000E+00  0.00000000E+00  0.00000000E+00
  0.00000000E+00  0.00000000E+00  0.00000000E+00
  0.00000000E+00  0.00000000E+00  0.00000000E+00
  0.00000000E+00  0.00000000E+00  0.00000000E+00
  0.00000000E+00  0.00000000E+00  0.00000000E+00
  0.00000000E+00  0.00000000E+00  0.00000000E+00
  0.00000000E+00  0.00000000E+00  0.00000000E+00
  0.00000000E+00  0.00000000E+00  0.00000000E+00
  0.00000000E+00  0.00000000E+00  0.00000000E+00
  0.00000000E+00  0.00000000E+00  0.00000000E+00
  0.00000000E+00  0.00000000E+00  0.00000000E+00
  0.00000000E+00  0.00000000E+00  0.00000000E+00
  0.00000000E+00  0.00000000E+00  0.00000000E+00
  0.00000000E+00  0.00000000E+00  0.00000000E+00
  0.00000000E+00  0.00000000E+00  0.00000000E+00
  0.00000000E+00  0.00000000E+00  0.00000000E+00
  0.00000000E+00  0.00000000E+00  0.00000000E+00
  0.00000000E+00  0.00000000E+00  0.00000000E+00
  0.00000000E+00  0.00000000E+00  0.00000000E+00
  0.00000000E+00  0.00000000E+00  0.00000000E+00
  0.00000000E+00  0.00000000E+00  0.00000000E+00
