supercell of POSCAR                     
   1.01189200000000     
     3.1482772356600002   -5.4762754812200001    9.9674464565599994
    -9.4511209497999999   -5.4731922780100000    0.0032121685426600
     6.3112884282600001  -10.9581161277000003   -9.9749049577999997
   Al   Sc   N    O 
    84    12    95     1
Direct
  0.0891223021536405  0.5840763965336322  0.3339557798709833
  0.0019966972125189  0.3267357853093813  0.2538433183277604
  0.0850815805580609  0.0844662369242144  0.3342821356801267
  0.2500874318999706  0.5804653644535804  0.4971215017106800
  0.3303612336141981  0.3255257771340752  0.0805105145449190
  0.4177109427319934  0.0900773769534453  0.1691975553806273
  0.0064159021466494  0.8401207973251559  0.2528553431941631
  0.1679475267317727  0.3333222315391708  0.4141146698203571
  0.2482004561915616  0.0861807057529163  0.4972111053931627
  0.1645085254793344  0.8351994709460158  0.4159934610202214
  0.3381595900485053  0.6712282615291016  0.3374029920256589
  0.1556865767663922  0.6696378638516904  0.1677346793387215
  0.2537224142020378  0.4086874521455073  0.2500445020102688
  0.3343736460661049  0.1661215434697141  0.3337061080193493
  0.0032630580616342  0.6700673417659857  0.4971684671745820
  0.1676528390080207  0.1615510047056432  0.1686145819008047
  0.2542144406216238  0.9195702566679174  0.2541035680421118
  0.4152154566962452  0.4161192863423651  0.4154329216238963
  0.4988375054506591  0.1631997282165472  0.4978330878490880
  0.0817168544145446  0.9209137622357346  0.0808970055950908
  0.4190297283196429  0.9183257838133514  0.4138306300077943
  0.0871151972445077  0.5839300001440080  0.8334190968303545
  0.0011121568416499  0.3262638191580720  0.7537067482775655
  0.0844035842697650  0.0835363084442520  0.8344071863578151
  0.2447553740527724  0.5756337451731852  0.9923483971600362
  0.3310982199435912  0.3241405035647063  0.5802804279879794
  0.4172358574071922  0.0862948180371319  0.6694205302894929
  0.0055110773314411  0.8396350181807861  0.7532566716126965
  0.1662782781582095  0.3311938034430568  0.9142408656473222
  0.2480478210263684  0.0841701367281402  0.9983867587131812
  0.1640716048948931  0.8353455477968339  0.9169508442387340
  0.3358180382427918  0.6707212388100317  0.8371146620020369
  0.1606724423237935  0.6710750922425817  0.6663589502841063
  0.2516828012627172  0.4083269800057110  0.7510927524297912
  0.3334587447799251  0.1651777681223194  0.8342143983173216
  0.0003877054908727  0.6699674119333565  0.9971566281876605
  0.1673237289405662  0.1612440473260150  0.6686209215560552
  0.2523728579041844  0.9187245682560317  0.7539848459960297
  0.4141553562253435  0.4156054473603277  0.9153690810482757
  0.4979178648987741  0.1637025460222858  0.9979055255729747
  0.0816208417727324  0.9210433398986382  0.5815115458148767
  0.4168335587380909  0.9178196037360280  0.9152662881904590
  0.5908113990006854  0.5832884155454963  0.3351511198677883
  0.5015274316881886  0.3293552153004811  0.2536321863070512
  0.5846461206819455  0.0846356524481848  0.3338439634871690
  0.7506091681613611  0.5804811937960466  0.4974180890946087
  0.8294346415900549  0.3239915100702220  0.0801413946764384
  0.9175259017582960  0.0865297086475039  0.1694318619867303
  0.5037067828262920  0.8388877582486742  0.2517718819055901
  0.6679093508053739  0.3326637465754914  0.4144570042895523
  0.7480892373508254  0.0858475931770712  0.4973194222836597
  0.6638965210792449  0.8350910591529015  0.4157225128119961
  0.8374270103317443  0.6706103701856989  0.3372549684795345
  0.6596262661464110  0.6718929058288552  0.1663758700054174
  0.7526171130223531  0.4081994046426090  0.2510061761568210
  0.8341897158068576  0.1654984348571844  0.3339658839992694
  0.5032443148866435  0.6700614160172336  0.4971242838811847
  0.6673260455546881  0.1620181603720852  0.1685884542716849
  0.7525799300219376  0.9191721506024635  0.2539840304293364
  0.9150445145604778  0.4158693902836603  0.4154829363118111
  0.9988377368586541  0.1631537203546500  0.4979397740635108
  0.5802412720615990  0.9216499600100079  0.0817892072784048
  0.9185746841192071  0.9180036069718867  0.4140314945578254
  0.5879753115166082  0.5841515425596526  0.8338201599381918
  0.5010697798102086  0.3265821325540443  0.7536839489572102
  0.5840722105394747  0.0839382643293973  0.8343952665688903
  0.7483139264189447  0.5802097679187099  0.9970611814205981
  0.8311590612156579  0.3239168254219962  0.5803710548107830
  0.9172773904123375  0.0861924524758777  0.6694983341205187
  0.5052319905208762  0.8398265445430297  0.7533512627561763
  0.6663496717770130  0.3332540888459405  0.9146516783277718
  0.7469584489416761  0.0860640631642866  0.9973841910370709
  0.6631992973148257  0.8352805290173890  0.9160467956713916
  0.8355427117086620  0.6700708946789931  0.8370621002118241
  0.6606708827556105  0.6710014233187636  0.6663677553100626
  0.7516322650535230  0.4082743363935961  0.7510446934875716
  0.8332213802471173  0.1652431931002383  0.8340885273156644
  0.5026369399956110  0.6711713299697450  0.9973025329919381
  0.6671725451911712  0.1612275244568337  0.6686015787747124
  0.7523165078916065  0.9186936702374524  0.7538771209407784
  0.9136530047240328  0.4154356104198982  0.9152463835740789
  0.9978489706955216  0.1624432707563699  0.9979360595937763
  0.5815892688024604  0.9209697229239637  0.5814296751745616
  0.9175400932333417  0.9177164643605877  0.9142451039438484
  0.4032003718119768  0.5930811669435556  0.1745753103974721
  0.3306182803100697  0.8327694285034326  0.0905262019684869
  0.0760606707709144  0.4139939325561599  0.0855087713223242
  0.4049406583983668  0.5825620616180416  0.6734468621163572
  0.3286262144441778  0.8383073007346979  0.5838623571413848
  0.0789580548523006  0.4150116099855055  0.5851285349591464
  0.9024398446428137  0.5826791769546702  0.1738470766688067
  0.8269359827922287  0.8388142036243522  0.0843367409523665
  0.5758576551264767  0.4164786627386476  0.0861396425691368
  0.9050571182205474  0.5822825883718963  0.6734053193160889
  0.8285541196186088  0.8381930774076523  0.5839291486671030
  0.5789723197501147  0.4151903302130151  0.5850705681122861
  0.2202278404690858  0.5827478478101824  0.2651117991936189
  0.0382416472640088  0.5978288647213219  0.1017627386022397
  0.1319397341308317  0.3234805608614124  0.1954476701327792
  0.2120175965794076  0.0829377562439149  0.2715062803191515
  0.3799877687420903  0.5831079960875627  0.4369611138599439
  0.4501215159469609  0.3240625019638728  0.0124665161323136
  0.0424364190493378  0.0853098203399369  0.1034423246775518
  0.1343465735050628  0.8379503155822832  0.1845105667126106
  0.2961944370553056  0.3325506634720199  0.3520006359630372
  0.3771640915104939  0.0815308876718035  0.4351619438240917
  0.4659046153972923  0.8356229390146481  0.0148527874269959
  0.2943015442396018  0.8339452198401816  0.3548322910816566
  0.4729567964805952  0.6766923884512224  0.2832441489422095
  0.3789817921764111  0.3995926562301193  0.1842393999848326
  0.4625983489360337  0.1673664119128375  0.2724773906554816
  0.1317503106042537  0.6661140571991098  0.4340099445274532
  0.2147465263116217  0.4126811369528980  0.0142866822952215
  0.2916192758584870  0.1622191085346927  0.1023589626859760
  0.3844932273889441  0.9309624077657048  0.1972314810276856
  0.0451091318942503  0.4192416188001005  0.3522143666408510
  0.1272912746237012  0.1700166902041786  0.4350477646185027
  0.2012492883654033  0.9244234574791008  0.0142954590180153
  0.0474715922812479  0.9206369081398051  0.3526264981592035
  0.2181473610734912  0.5818901286206497  0.7671672781718044
  0.0403841482511922  0.5981260299132245  0.6017327876781238
  0.1311597165416671  0.3229257393567195  0.6954701070344598
  0.2117872473890898  0.0823885630007410  0.7714432138697518
  0.3781125975658099  0.5835685968087176  0.9377998629715520
  0.4513503653395645  0.3236534257883790  0.5127760361347597
  0.0421877283357972  0.0854380182334111  0.6034487448117716
  0.1318126946724121  0.8390816824932088  0.6857100360311819
  0.2949749249039328  0.3315757960578978  0.8525562470286800
  0.3763202323885864  0.0813171749392794  0.9356114956656185
  0.4680816503227945  0.8356369027710713  0.5135705249352114
  0.2930513454935593  0.8335316685120304  0.8548834180910347
  0.4685297744695092  0.6777245725108116  0.7801523408571427
  0.2769057900525098  0.6615168228614436  0.5975707446307794
  0.3778094953203279  0.3955548675341731  0.6853366734147741
  0.4615006338520899  0.1645691916541239  0.7724493805542565
  0.1290416969042738  0.6661339189069082  0.9339782332078741
  0.2172785820245551  0.4137745561025312  0.5142793772987346
  0.2919218902704301  0.1604879103229848  0.6024493698880136
  0.3833834039545536  0.9240802216559132  0.6962657341387555
  0.0439473159327548  0.4184686557833786  0.8523781510152730
  0.1266397112907782  0.1681268163661827  0.9354268020190091
  0.1996670220055421  0.9273215820481084  0.5126790066966151
  0.0465652326627293  0.9201310643825735  0.8532626719022360
  0.7205054653128471  0.5820487812518422  0.2666055906968339
  0.5384222679865687  0.5999973409264712  0.1018750371918031
  0.6318444163273398  0.3238905876793723  0.1954165659067613
  0.7125044942936682  0.0830358706588044  0.2712872963401338
  0.8806756771457316  0.5831249341549096  0.4367606467762712
  0.9496800906364129  0.3228835209913044  0.0123447216899137
  0.5423906426946203  0.0869642184831037  0.1031832802011010
  0.6325154881478809  0.8399992363598514  0.1854601718859641
  0.7963822222755965  0.3316690287540922  0.3524247233346358
  0.8772975389899074  0.0811664521948288  0.4353708103950638
  0.9668553699358498  0.8354762082820386  0.0140440592159194
  0.7943273416004502  0.8336541114991221  0.3546823000846189
  0.9707174359903306  0.6779612095956438  0.2793900768204409
  0.7756808172846377  0.6616755515195152  0.0971279983402624
  0.8788648802713368  0.3951533014614057  0.1848889192480172
  0.9623213398807877  0.1647442957882319  0.2724125970924263
  0.6326107373883119  0.6661399317743104  0.4351191161250370
  0.7151204264751243  0.4139053711261198  0.0148477967571097
  0.7918720995024771  0.1601827980004771  0.1024789037818579
  0.8843710391680659  0.9241792688307413  0.1963715644033428
  0.5457342374330096  0.4188504164572606  0.3529869758318540
  0.6274106174195779  0.1694997232143223  0.4351362446168636
  0.6982438327189158  0.9273503608094913  0.0126104755895113
  0.5471241534329678  0.9207535172895831  0.3521573816212680
  0.7180930903399911  0.5817446181454997  0.7669379783343473
  0.5402025395107799  0.5982148171230008  0.6018530556953365
  0.6310662643319489  0.3229683292372059  0.6953935404681673
  0.7116020449995091  0.0822835926800352  0.7714285809368420
  0.8785764885120244  0.5825652879786531  0.9366824433307670
  0.9514279105887056  0.3235635643970269  0.5127804224807235
  0.5421135775904986  0.0854006048241445  0.6033779618002555
  0.6316934138319965  0.8390467724542958  0.6857503823717508
  0.7947511768089583  0.3314694693656364  0.8524671933306749
  0.8760808921478969  0.0808162176954994  0.9354287673557948
  0.9681849684931194  0.8355378735034975  0.5136437714480948
  0.7930953428478986  0.8333838328413137  0.8548028109386010
  0.9683593290843788  0.6777360705734239  0.7798287052904200
  0.7772508048575517  0.6614219005450934  0.5978555472538716
  0.8779544010707880  0.3952610305734581  0.6854014275693459
  0.9616270662689175  0.1642832147380204  0.7726119547675268
  0.6300546406919665  0.6662464726500730  0.9340975320296607
  0.7176618431380462  0.4137170854176873  0.5144426785324470
  0.7919555075432072  0.1603100963262136  0.6025394550586256
  0.8835328998832139  0.9240151740698721  0.6963633364076358
  0.5436512821368282  0.4192183915345638  0.8522720754873276
  0.6262948027886139  0.1699066754797229  0.9349487644480661
  0.6996995595020650  0.9270453818123059  0.5126439368806643
  0.5456893588403631  0.9205143968541805  0.8532926509521275
  0.2632430082725961  0.6514854447731437  0.0916208835407488
 
  0.00000000E+00  0.00000000E+00  0.00000000E+00
  0.00000000E+00  0.00000000E+00  0.00000000E+00
  0.00000000E+00  0.00000000E+00  0.00000000E+00
  0.00000000E+00  0.00000000E+00  0.00000000E+00
  0.00000000E+00  0.00000000E+00  0.00000000E+00
  0.00000000E+00  0.00000000E+00  0.00000000E+00
  0.00000000E+00  0.00000000E+00  0.00000000E+00
  0.00000000E+00  0.00000000E+00  0.00000000E+00
  0.00000000E+00  0.00000000E+00  0.00000000E+00
  0.00000000E+00  0.00000000E+00  0.00000000E+00
  0.00000000E+00  0.00000000E+00  0.00000000E+00
  0.00000000E+00  0.00000000E+00  0.00000000E+00
  0.00000000E+00  0.00000000E+00  0.00000000E+00
  0.00000000E+00  0.00000000E+00  0.00000000E+00
  0.00000000E+00  0.00000000E+00  0.00000000E+00
  0.00000000E+00  0.00000000E+00  0.00000000E+00
  0.00000000E+00  0.00000000E+00  0.00000000E+00
  0.00000000E+00  0.00000000E+00  0.00000000E+00
  0.00000000E+00  0.00000000E+00  0.00000000E+00
  0.00000000E+00  0.00000000E+00  0.00000000E+00
  0.00000000E+00  0.00000000E+00  0.00000000E+00
  0.00000000E+00  0.00000000E+00  0.00000000E+00
  0.00000000E+00  0.00000000E+00  0.00000000E+00
  0.00000000E+00  0.00000000E+00  0.00000000E+00
  0.00000000E+00  0.00000000E+00  0.00000000E+00
  0.00000000E+00  0.00000000E+00  0.00000000E+00
  0.00000000E+00  0.00000000E+00  0.00000000E+00
  0.00000000E+00  0.00000000E+00  0.00000000E+00
  0.00000000E+00  0.00000000E+00  0.00000000E+00
  0.00000000E+00  0.00000000E+00  0.00000000E+00
  0.00000000E+00  0.00000000E+00  0.00000000E+00
  0.00000000E+00  0.00000000E+00  0.00000000E+00
  0.00000000E+00  0.00000000E+00  0.00000000E+00
  0.00000000E+00  0.00000000E+00  0.00000000E+00
  0.00000000E+00  0.00000000E+00  0.00000000E+00
  0.00000000E+00  0.00000000E+00  0.00000000E+00
  0.00000000E+00  0.00000000E+00  0.00000000E+00
  0.00000000E+00  0.00000000E+00  0.00000000E+00
  0.00000000E+00  0.00000000E+00  0.00000000E+00
  0.00000000E+00  0.00000000E+00  0.00000000E+00
  0.00000000E+00  0.00000000E+00  0.00000000E+00
  0.00000000E+00  0.00000000E+00  0.00000000E+00
  0.00000000E+00  0.00000000E+00  0.00000000E+00
  0.00000000E+00  0.00000000E+00  0.00000000E+00
  0.00000000E+00  0.00000000E+00  0.00000000E+00
  0.00000000E+00  0.00000000E+00  0.00000000E+00
  0.00000000E+00  0.00000000E+00  0.00000000E+00
  0.00000000E+00  0.00000000E+00  0.00000000E+00
  0.00000000E+00  0.00000000E+00  0.00000000E+00
  0.00000000E+00  0.00000000E+00  0.00000000E+00
  0.00000000E+00  0.00000000E+00  0.00000000E+00
  0.00000000E+00  0.00000000E+00  0.00000000E+00
  0.00000000E+00  0.00000000E+00  0.00000000E+00
  0.00000000E+00  0.00000000E+00  0.00000000E+00
  0.00000000E+00  0.00000000E+00  0.00000000E+00
  0.00000000E+00  0.00000000E+00  0.00000000E+00
  0.00000000E+00  0.00000000E+00  0.00000000E+00
  0.00000000E+00  0.00000000E+00  0.00000000E+00
  0.00000000E+00  0.00000000E+00  0.00000000E+00
  0.00000000E+00  0.00000000E+00  0.00000000E+00
  0.00000000E+00  0.00000000E+00  0.00000000E+00
  0.00000000E+00  0.00000000E+00  0.00000000E+00
  0.00000000E+00  0.00000000E+00  0.00000000E+00
  0.00000000E+00  0.00000000E+00  0.00000000E+00
  0.00000000E+00  0.00000000E+00  0.00000000E+00
  0.00000000E+00  0.00000000E+00  0.00000000E+00
  0.00000000E+00  0.00000000E+00  0.00000000E+00
  0.00000000E+00  0.00000000E+00  0.00000000E+00
  0.00000000E+00  0.00000000E+00  0.00000000E+00
  0.00000000E+00  0.00000000E+00  0.00000000E+00
  0.00000000E+00  0.00000000E+00  0.00000000E+00
  0.00000000E+00  0.00000000E+00  0.00000000E+00
  0.00000000E+00  0.00000000E+00  0.00000000E+00
  0.00000000E+00  0.00000000E+00  0.00000000E+00
  0.00000000E+00  0.00000000E+00  0.00000000E+00
  0.00000000E+00  0.00000000E+00  0.00000000E+00
  0.00000000E+00  0.00000000E+00  0.00000000E+00
  0.00000000E+00  0.00000000E+00  0.00000000E+00
  0.00000000E+00  0.00000000E+00  0.00000000E+00
  0.00000000E+00  0.00000000E+00  0.00000000E+00
  0.00000000E+00  0.00000000E+00  0.00000000E+00
  0.00000000E+00  0.00000000E+00  0.00000000E+00
  0.00000000E+00  0.00000000E+00  0.00000000E+00
  0.00000000E+00  0.00000000E+00  0.00000000E+00
  0.00000000E+00  0.00000000E+00  0.00000000E+00
  0.00000000E+00  0.00000000E+00  0.00000000E+00
  0.00000000E+00  0.00000000E+00  0.00000000E+00
  0.00000000E+00  0.00000000E+00  0.00000000E+00
  0.00000000E+00  0.00000000E+00  0.00000000E+00
  0.00000000E+00  0.00000000E+00  0.00000000E+00
  0.00000000E+00  0.00000000E+00  0.00000000E+00
  0.00000000E+00  0.00000000E+00  0.00000000E+00
  0.00000000E+00  0.00000000E+00  0.00000000E+00
  0.00000000E+00  0.00000000E+00  0.00000000E+00
  0.00000000E+00  0.00000000E+00  0.00000000E+00
  0.00000000E+00  0.00000000E+00  0.00000000E+00
  0.00000000E+00  0.00000000E+00  0.00000000E+00
  0.00000000E+00  0.00000000E+00  0.00000000E+00
  0.00000000E+00  0.00000000E+00  0.00000000E+00
  0.00000000E+00  0.00000000E+00  0.00000000E+00
  0.00000000E+00  0.00000000E+00  0.00000000E+00
  0.00000000E+00  0.00000000E+00  0.00000000E+00
  0.00000000E+00  0.00000000E+00  0.00000000E+00
  0.00000000E+00  0.00000000E+00  0.00000000E+00
  0.00000000E+00  0.00000000E+00  0.00000000E+00
  0.00000000E+00  0.00000000E+00  0.00000000E+00
  0.00000000E+00  0.00000000E+00  0.00000000E+00
  0.00000000E+00  0.00000000E+00  0.00000000E+00
  0.00000000E+00  0.00000000E+00  0.00000000E+00
  0.00000000E+00  0.00000000E+00  0.00000000E+00
  0.00000000E+00  0.00000000E+00  0.00000000E+00
  0.00000000E+00  0.00000000E+00  0.00000000E+00
  0.00000000E+00  0.00000000E+00  0.00000000E+00
  0.00000000E+00  0.00000000E+00  0.00000000E+00
  0.00000000E+00  0.00000000E+00  0.00000000E+00
  0.00000000E+00  0.00000000E+00  0.00000000E+00
  0.00000000E+00  0.00000000E+00  0.00000000E+00
  0.00000000E+00  0.00000000E+00  0.00000000E+00
  0.00000000E+00  0.00000000E+00  0.00000000E+00
  0.00000000E+00  0.00000000E+00  0.00000000E+00
  0.00000000E+00  0.00000000E+00  0.00000000E+00
  0.00000000E+00  0.00000000E+00  0.00000000E+00
  0.00000000E+00  0.00000000E+00  0.00000000E+00
  0.00000000E+00  0.00000000E+00  0.00000000E+00
  0.00000000E+00  0.00000000E+00  0.00000000E+00
  0.00000000E+00  0.00000000E+00  0.00000000E+00
  0.00000000E+00  0.00000000E+00  0.00000000E+00
  0.00000000E+00  0.00000000E+00  0.00000000E+00
  0.00000000E+00  0.00000000E+00  0.00000000E+00
  0.00000000E+00  0.00000000E+00  0.00000000E+00
  0.00000000E+00  0.00000000E+00  0.00000000E+00
  0.00000000E+00  0.00000000E+00  0.00000000E+00
  0.00000000E+00  0.00000000E+00  0.00000000E+00
  0.00000000E+00  0.00000000E+00  0.00000000E+00
  0.00000000E+00  0.00000000E+00  0.00000000E+00
  0.00000000E+00  0.00000000E+00  0.00000000E+00
  0.00000000E+00  0.00000000E+00  0.00000000E+00
  0.00000000E+00  0.00000000E+00  0.00000000E+00
  0.00000000E+00  0.00000000E+00  0.00000000E+00
  0.00000000E+00  0.00000000E+00  0.00000000E+00
  0.00000000E+00  0.00000000E+00  0.00000000E+00
  0.00000000E+00  0.00000000E+00  0.00000000E+00
  0.00000000E+00  0.00000000E+00  0.00000000E+00
  0.00000000E+00  0.00000000E+00  0.00000000E+00
  0.00000000E+00  0.00000000E+00  0.00000000E+00
  0.00000000E+00  0.00000000E+00  0.00000000E+00
  0.00000000E+00  0.00000000E+00  0.00000000E+00
  0.00000000E+00  0.00000000E+00  0.00000000E+00
  0.00000000E+00  0.00000000E+00  0.00000000E+00
  0.00000000E+00  0.00000000E+00  0.00000000E+00
  0.00000000E+00  0.00000000E+00  0.00000000E+00
  0.00000000E+00  0.00000000E+00  0.00000000E+00
  0.00000000E+00  0.00000000E+00  0.00000000E+00
  0.00000000E+00  0.00000000E+00  0.00000000E+00
  0.00000000E+00  0.00000000E+00  0.00000000E+00
  0.00000000E+00  0.00000000E+00  0.00000000E+00
  0.00000000E+00  0.00000000E+00  0.00000000E+00
  0.00000000E+00  0.00000000E+00  0.00000000E+00
  0.00000000E+00  0.00000000E+00  0.00000000E+00
  0.00000000E+00  0.00000000E+00  0.00000000E+00
  0.00000000E+00  0.00000000E+00  0.00000000E+00
  0.00000000E+00  0.00000000E+00  0.00000000E+00
  0.00000000E+00  0.00000000E+00  0.00000000E+00
  0.00000000E+00  0.00000000E+00  0.00000000E+00
  0.00000000E+00  0.00000000E+00  0.00000000E+00
  0.00000000E+00  0.00000000E+00  0.00000000E+00
  0.00000000E+00  0.00000000E+00  0.00000000E+00
  0.00000000E+00  0.00000000E+00  0.00000000E+00
  0.00000000E+00  0.00000000E+00  0.00000000E+00
  0.00000000E+00  0.00000000E+00  0.00000000E+00
  0.00000000E+00  0.00000000E+00  0.00000000E+00
  0.00000000E+00  0.00000000E+00  0.00000000E+00
  0.00000000E+00  0.00000000E+00  0.00000000E+00
  0.00000000E+00  0.00000000E+00  0.00000000E+00
  0.00000000E+00  0.00000000E+00  0.00000000E+00
  0.00000000E+00  0.00000000E+00  0.00000000E+00
  0.00000000E+00  0.00000000E+00  0.00000000E+00
  0.00000000E+00  0.00000000E+00  0.00000000E+00
  0.00000000E+00  0.00000000E+00  0.00000000E+00
  0.00000000E+00  0.00000000E+00  0.00000000E+00
  0.00000000E+00  0.00000000E+00  0.00000000E+00
  0.00000000E+00  0.00000000E+00  0.00000000E+00
  0.00000000E+00  0.00000000E+00  0.00000000E+00
  0.00000000E+00  0.00000000E+00  0.00000000E+00
  0.00000000E+00  0.00000000E+00  0.00000000E+00
  0.00000000E+00  0.00000000E+00  0.00000000E+00
  0.00000000E+00  0.00000000E+00  0.00000000E+00
  0.00000000E+00  0.00000000E+00  0.00000000E+00
  0.00000000E+00  0.00000000E+00  0.00000000E+00
  0.00000000E+00  0.00000000E+00  0.00000000E+00
  0.00000000E+00  0.00000000E+00  0.00000000E+00
  0.00000000E+00  0.00000000E+00  0.00000000E+00
