supercell of POSCAR                     
   1.01189200000000     
     3.1482772356600002   -5.4762754812200001    9.9674464565599994
    -9.4511209497999999   -5.4731922780100000    0.0032121685426600
     6.3112884282600001  -10.9581161277000003   -9.9749049577999997
   Al   Sc   N 
    84    11    96
Direct
  0.0853934725991081  0.5838927231391224  0.3356131417679507
  0.0021121059293492  0.3271434854091808  0.2538677205680813
  0.0845994804508692  0.0842132314201933  0.3341505041775648
  0.2491985706271507  0.5810201742223526  0.4962681958350785
  0.3295233867934826  0.3253517988211314  0.0774263207743857
  0.4170782925465559  0.0879440551665382  0.1686460980335127
  0.0057671893230378  0.8390642267528676  0.2529817254103151
  0.1669711044102371  0.3336657869113111  0.4136288544503302
  0.2474094810825136  0.0862172309920126  0.4970160457767889
  0.1636719288058259  0.8343780203039231  0.4157761491936469
  0.3341781267192303  0.6675874037259604  0.3332308864796758
  0.1612772173923105  0.6667748843450099  0.1703950566063668
  0.2530032102211095  0.4149367738450565  0.2499768874590202
  0.3329551676867197  0.1670826621050381  0.3334930763275565
  0.0015438315871492  0.6704378308227987  0.4981410049292094
  0.1671450295561954  0.1631176798065610  0.1688297549205444
  0.2523386170466182  0.9193520129870763  0.2538168800105041
  0.4138525147756980  0.4161140606822684  0.4151964191730997
  0.4978257917222777  0.1629749892764139  0.4977106432934093
  0.0830083948433682  0.9198718662520946  0.0822705820200014
  0.4166319193966572  0.9176944524581714  0.4137664926428357
  0.0894371016840907  0.5832014914345791  0.8346606579860634
  0.0013540262364913  0.3265823456173393  0.7535706000802307
  0.0847901113315856  0.0834323277316287  0.8344072582256814
  0.2524035049185969  0.5741507759053661  0.9963534797376141
  0.3305551711499533  0.3241785268085451  0.5798892611893010
  0.4170772004836110  0.0863529737414979  0.6692030136710585
  0.0064418637203474  0.8394038703557172  0.7538276124685410
  0.1666291386545922  0.3308171143206522  0.9133533246090408
  0.2485149043180002  0.0840471535063045  0.9980479466139798
  0.1656226103374507  0.8346721117098355  0.9174069550099944
  0.3364790846595582  0.6702818976505327  0.8364276811214992
  0.1603422550292635  0.6707884928115178  0.6663519039692289
  0.2521079684854968  0.4083198299962731  0.7505547391498411
  0.3337732498785542  0.1652635892657699  0.8336978096202472
  0.0027290087769813  0.6701629590679303  0.9981873200613407
  0.1671843781232241  0.1613572156087599  0.6684486074895304
  0.2526361329994344  0.9186986247084192  0.7538707513379777
  0.4153670147859572  0.4154495200291493  0.9139176423342263
  0.4984313422094786  0.1638411725027993  0.9976053152080482
  0.0811176333448529  0.9209986846836173  0.5814730773839685
  0.4173299075666748  0.9186326074344038  0.9143217001036135
  0.5893907622197716  0.5805272076221897  0.3325847452219151
  0.5037742249113180  0.3293838831578029  0.2546357734334279
  0.5846394443327512  0.0853937164552221  0.3339268345943225
  0.7487423618857036  0.5801918870305158  0.4968808445710522
  0.8288048236294330  0.3246690516394111  0.0804124116764271
  0.9177366873304749  0.0863707911104754  0.1691083695929549
  0.5060794579493191  0.8434293979056662  0.2512004352770134
  0.6674341577501366  0.3325627027059781  0.4148358542551875
  0.7476970859501719  0.0859352041713990  0.4972771468046062
  0.6631575427097047  0.8354998786626311  0.4156307540778954
  0.8358531859281371  0.6709970942089285  0.3380249117715408
  0.6583675427711029  0.6745898693528005  0.1702707754267294
  0.7527928192412503  0.4080746608355810  0.2511946758265111
  0.8342035869900997  0.1659410310792921  0.3339331416584628
  0.5010172411904890  0.6702107856997515  0.4962385242907388
  0.6672608055506757  0.1622911966718874  0.1683314885089473
  0.7534823994301689  0.9204458615531976  0.2540763445290395
  0.9137620148305459  0.4155932144221026  0.4159711747821646
  0.9984297101044604  0.1634005993109398  0.4979841616360048
  0.5811108900011277  0.9221876426521263  0.0810186082761177
  0.9180197370257019  0.9181642727141011  0.4142518626791798
  0.5884626658532142  0.5841103115845030  0.8330891612157671
  0.5015388063973916  0.3264221615560672  0.7532029287570623
  0.5845681642822385  0.0841557818072403  0.8341291360368075
  0.7476360158690909  0.5792175882554815  0.9970673292364083
  0.8307021559472574  0.3240594600380362  0.5807336641173961
  0.9174475057753497  0.0860269371195130  0.6696217809399627
  0.5056874169945900  0.8400122892402706  0.7529373428125083
  0.6662710311481348  0.3333630531514089  0.9151243462583949
  0.7477456266015778  0.0863607031517901  0.9972923939803451
  0.6640059940279457  0.8355569648793733  0.9156847180214811
  0.8364848795172222  0.6701019303581006  0.8380144816010642
  0.6600238396945599  0.6711302897800024  0.6658566086264841
  0.7517282239633190  0.4082541203783094  0.7513303480937168
  0.8336048789548798  0.1655963419786701  0.8342101767519949
  0.5015653896674621  0.6727310096752532  0.9947650158935772
  0.6671597897512243  0.1610644133644143  0.6685082122933892
  0.7528529064936365  0.9186821556354232  0.7540562618552329
  0.9144122972660043  0.4155381426713589  0.9155943577344345
  0.9982123612762877  0.1629583635152230  0.9982543138094968
  0.5807220751317672  0.9210424499696188  0.5812251612574784
  0.9184854042796928  0.9179119032416239  0.9145528449634028
  0.3315390554745790  0.8290119630612196  0.0879554035627734
  0.0772179337636558  0.4162367791016450  0.0850107001777687
  0.4047227085643925  0.5827089948718225  0.6728567673389492
  0.3276510561102057  0.8382749022248177  0.5840227214758471
  0.0784226090245994  0.4157523547631143  0.5850225638432960
  0.9022193485418057  0.5824969698892133  0.1746379886414644
  0.8273906238974646  0.8373778412992934  0.0838723286828582
  0.5719837530997722  0.4192517919857792  0.0878876633121308
  0.9039011768490752  0.5830441961628097  0.6743600830676755
  0.8274740009017236  0.8387704095963358  0.5843001418356835
  0.5779921206582870  0.4149837727088936  0.5850614175597713
  0.2136747494763256  0.5816257658066704  0.2696554609545245
  0.0383802277407241  0.5999682200632819  0.1032460820830821
  0.1322323079664045  0.3253427765596157  0.1951693533535703
  0.2120281266283470  0.0830495549807324  0.2710242806376257
  0.3790908709801286  0.5835443664208171  0.4349630028180442
  0.4508840781502457  0.3244427570987725  0.0116448389614874
  0.0432903928492010  0.0850569921178561  0.1034370650469256
  0.1336756354239199  0.8370249116393396  0.1857928225793160
  0.2954448336198041  0.3333504577748414  0.3509852220173215
  0.3763454754530287  0.0815438052854844  0.4345074695350419
  0.4668494879461562  0.8367404029184158  0.0138808835022388
  0.2936356889231035  0.8323551058282419  0.3536985589197741
  0.4729928496872944  0.6818784881556823  0.2823049900601546
  0.2739991101875390  0.6509825770914688  0.0984059102199382
  0.3776930536230836  0.3896071775567265  0.1843855667620176
  0.4614715047750622  0.1667629985092915  0.2716084919371227
  0.1295015371753649  0.6665097074445967  0.4350486034455798
  0.2150966399806720  0.4110560267636458  0.0129358597223757
  0.2920089094202538  0.1621303595026333  0.1027094420208812
  0.3835340528822897  0.9259540265107375  0.1955552621362600
  0.0430421040589692  0.4185685746239116  0.3527909735560186
  0.1268909532860505  0.1701663199206607  0.4346707904048444
  0.2040948462727101  0.9235058002123608  0.0156284225787147
  0.0467949431340102  0.9205284620041638  0.3525262918396450
  0.2187768626734652  0.5817875259933842  0.7670104861073810
  0.0390847210640004  0.5984440973803657  0.6025614691538266
  0.1313431912864687  0.3231677993923157  0.6950851388757329
  0.2120795387514676  0.0823903346639412  0.7712432027885541
  0.3805853600344378  0.5823993416368083  0.9358618347169454
  0.4507232596263933  0.3235484707421747  0.5121825266982256
  0.0422122279269743  0.0855015276646327  0.6032923623234225
  0.1322552220668456  0.8390583083004088  0.6856071885888824
  0.2956245440430649  0.3313212240644177  0.8518369877789240
  0.3766641691517378  0.0817014139258774  0.9353244908999372
  0.4670451986581554  0.8358216742730917  0.5133105687668049
  0.2938918293860198  0.8333490966637669  0.8547644649052657
  0.4693320817196991  0.6778786334383611  0.7793201427602483
  0.2763500305650837  0.6611729751661528  0.5970750652705661
  0.3783956758031550  0.3954957250081605  0.6847378292565267
  0.4620059042269133  0.1644887442275120  0.7721376020183470
  0.1328896439936997  0.6652785552436669  0.9364884227525039
  0.2170878433269579  0.4141150969586604  0.5136951798503944
  0.2917857998154574  0.1603989348985664  0.6021154267421736
  0.3836767341945162  0.9241730353567448  0.6961284145132680
  0.0443977553020929  0.4182588508205995  0.8524370970281723
  0.1271407539130536  0.1677409745298846  0.9355183763461099
  0.1991829195528041  0.9271817839225562  0.5121715313477893
  0.0480460245277996  0.9198670996351765  0.8539957780886240
  0.7193136648755143  0.5818066880267949  0.2671718926811764
  0.5447324221962617  0.6058401973436531  0.0992538790299520
  0.6320959826795942  0.3242130437122555  0.1953654706154566
  0.7121673897851224  0.0836149936769672  0.2712801418399664
  0.8791344984053566  0.5831493344637764  0.4370537186515477
  0.9498980511349160  0.3234865921101004  0.0130755034096808
  0.5422229231803897  0.0866455809940376  0.1030738208458999
  0.6324818975403232  0.8425331435286552  0.1858027442682086
  0.7953949877650999  0.3315849085803038  0.3525760016315118
  0.8769158575586289  0.0814642152955685  0.4351701894342028
  0.9681340412530588  0.8357364492873032  0.0143539846440177
  0.7931515877652799  0.8344005253481015  0.3546603931550649
  0.9676525133111866  0.6780591696176401  0.2802996123905359
  0.7719390953576450  0.6601536132190020  0.0979504222337937
  0.8785228502935425  0.3954563833115117  0.1853241390996487
  0.9622932242705744  0.1648073987763325  0.2719956330134750
  0.6293367904175824  0.6663847048680509  0.4326679248363163
  0.7128503084367068  0.4137525655297551  0.0159508885398552
  0.7919763018363071  0.1603441352255288  0.1024654190210939
  0.8840657810643577  0.9238352945244657  0.1957272469505256
  0.5449772269274504  0.4183935162785559  0.3529440850712362
  0.6265788393494489  0.1694080610734900  0.4348948620539019
  0.6994950296779692  0.9272937878453931  0.0126289853558035
  0.5455492435424460  0.9211519097955048  0.3522902770622665
  0.7192631235644100  0.5822101568516871  0.7665868727715761
  0.5397255647845185  0.5983892241608189  0.6008302073182179
  0.6316653035877664  0.3228887231755309  0.6951126733012174
  0.7122636642565396  0.0824047801704850  0.7713677266175694
  0.8793998393804756  0.5826889966593498  0.9379524098154590
  0.9508399237893315  0.3236033136451439  0.5131105615062950
  0.5419401389425786  0.0856024742437427  0.6030822263375271
  0.6322704208734393  0.8394026664040055  0.6853638067811474
  0.7951486508655492  0.3318140027508107  0.8530035655013464
  0.8768443865626168  0.0810668711095559  0.9354758688293430
  0.9669809594052268  0.8361069716645915  0.5139717767938166
  0.7940747717872085  0.8335842104203621  0.8550386391994493
  0.9702260861595420  0.6773895188455370  0.7815046918346766
  0.7762685336979374  0.6615210666336253  0.5969423555378341
  0.8780396612036085  0.3956311971659190  0.6855282451922449
  0.9621033703247406  0.1643843900849546  0.7726361007391773
  0.6309339080452361  0.6664148372223195  0.9333774023855952
  0.7168364685861164  0.4135659850619078  0.5144301870506993
  0.7919843186671400  0.1599315753597566  0.6024600161266420
  0.8843473892322962  0.9236190943800651  0.6968272625281031
  0.5448624131014768  0.4189025388381324  0.8514426959325121
  0.6267668864458358  0.1696541486738781  0.9348918027638931
  0.6987638778074654  0.9271732099949759  0.5122321310502613
  0.5465011248941423  0.9206795194512978  0.8529613775920595
 
  0.00000000E+00  0.00000000E+00  0.00000000E+00
  0.00000000E+00  0.00000000E+00  0.00000000E+00
  0.00000000E+00  0.00000000E+00  0.00000000E+00
  0.00000000E+00  0.00000000E+00  0.00000000E+00
  0.00000000E+00  0.00000000E+00  0.00000000E+00
  0.00000000E+00  0.00000000E+00  0.00000000E+00
  0.00000000E+00  0.00000000E+00  0.00000000E+00
  0.00000000E+00  0.00000000E+00  0.00000000E+00
  0.00000000E+00  0.00000000E+00  0.00000000E+00
  0.00000000E+00  0.00000000E+00  0.00000000E+00
  0.00000000E+00  0.00000000E+00  0.00000000E+00
  0.00000000E+00  0.00000000E+00  0.00000000E+00
  0.00000000E+00  0.00000000E+00  0.00000000E+00
  0.00000000E+00  0.00000000E+00  0.00000000E+00
  0.00000000E+00  0.00000000E+00  0.00000000E+00
  0.00000000E+00  0.00000000E+00  0.00000000E+00
  0.00000000E+00  0.00000000E+00  0.00000000E+00
  0.00000000E+00  0.00000000E+00  0.00000000E+00
  0.00000000E+00  0.00000000E+00  0.00000000E+00
  0.00000000E+00  0.00000000E+00  0.00000000E+00
  0.00000000E+00  0.00000000E+00  0.00000000E+00
  0.00000000E+00  0.00000000E+00  0.00000000E+00
  0.00000000E+00  0.00000000E+00  0.00000000E+00
  0.00000000E+00  0.00000000E+00  0.00000000E+00
  0.00000000E+00  0.00000000E+00  0.00000000E+00
  0.00000000E+00  0.00000000E+00  0.00000000E+00
  0.00000000E+00  0.00000000E+00  0.00000000E+00
  0.00000000E+00  0.00000000E+00  0.00000000E+00
  0.00000000E+00  0.00000000E+00  0.00000000E+00
  0.00000000E+00  0.00000000E+00  0.00000000E+00
  0.00000000E+00  0.00000000E+00  0.00000000E+00
  0.00000000E+00  0.00000000E+00  0.00000000E+00
  0.00000000E+00  0.00000000E+00  0.00000000E+00
  0.00000000E+00  0.00000000E+00  0.00000000E+00
  0.00000000E+00  0.00000000E+00  0.00000000E+00
  0.00000000E+00  0.00000000E+00  0.00000000E+00
  0.00000000E+00  0.00000000E+00  0.00000000E+00
  0.00000000E+00  0.00000000E+00  0.00000000E+00
  0.00000000E+00  0.00000000E+00  0.00000000E+00
  0.00000000E+00  0.00000000E+00  0.00000000E+00
  0.00000000E+00  0.00000000E+00  0.00000000E+00
  0.00000000E+00  0.00000000E+00  0.00000000E+00
  0.00000000E+00  0.00000000E+00  0.00000000E+00
  0.00000000E+00  0.00000000E+00  0.00000000E+00
  0.00000000E+00  0.00000000E+00  0.00000000E+00
  0.00000000E+00  0.00000000E+00  0.00000000E+00
  0.00000000E+00  0.00000000E+00  0.00000000E+00
  0.00000000E+00  0.00000000E+00  0.00000000E+00
  0.00000000E+00  0.00000000E+00  0.00000000E+00
  0.00000000E+00  0.00000000E+00  0.00000000E+00
  0.00000000E+00  0.00000000E+00  0.00000000E+00
  0.00000000E+00  0.00000000E+00  0.00000000E+00
  0.00000000E+00  0.00000000E+00  0.00000000E+00
  0.00000000E+00  0.00000000E+00  0.00000000E+00
  0.00000000E+00  0.00000000E+00  0.00000000E+00
  0.00000000E+00  0.00000000E+00  0.00000000E+00
  0.00000000E+00  0.00000000E+00  0.00000000E+00
  0.00000000E+00  0.00000000E+00  0.00000000E+00
  0.00000000E+00  0.00000000E+00  0.00000000E+00
  0.00000000E+00  0.00000000E+00  0.00000000E+00
  0.00000000E+00  0.00000000E+00  0.00000000E+00
  0.00000000E+00  0.00000000E+00  0.00000000E+00
  0.00000000E+00  0.00000000E+00  0.00000000E+00
  0.00000000E+00  0.00000000E+00  0.00000000E+00
  0.00000000E+00  0.00000000E+00  0.00000000E+00
  0.00000000E+00  0.00000000E+00  0.00000000E+00
  0.00000000E+00  0.00000000E+00  0.00000000E+00
  0.00000000E+00  0.00000000E+00  0.00000000E+00
  0.00000000E+00  0.00000000E+00  0.00000000E+00
  0.00000000E+00  0.00000000E+00  0.00000000E+00
  0.00000000E+00  0.00000000E+00  0.00000000E+00
  0.00000000E+00  0.00000000E+00  0.00000000E+00
  0.00000000E+00  0.00000000E+00  0.00000000E+00
  0.00000000E+00  0.00000000E+00  0.00000000E+00
  0.00000000E+00  0.00000000E+00  0.00000000E+00
  0.00000000E+00  0.00000000E+00  0.00000000E+00
  0.00000000E+00  0.00000000E+00  0.00000000E+00
  0.00000000E+00  0.00000000E+00  0.00000000E+00
  0.00000000E+00  0.00000000E+00  0.00000000E+00
  0.00000000E+00  0.00000000E+00  0.00000000E+00
  0.00000000E+00  0.00000000E+00  0.00000000E+00
  0.00000000E+00  0.00000000E+00  0.00000000E+00
  0.00000000E+00  0.00000000E+00  0.00000000E+00
  0.00000000E+00  0.00000000E+00  0.00000000E+00
  0.00000000E+00  0.00000000E+00  0.00000000E+00
  0.00000000E+00  0.00000000E+00  0.00000000E+00
  0.00000000E+00  0.00000000E+00  0.00000000E+00
  0.00000000E+00  0.00000000E+00  0.00000000E+00
  0.00000000E+00  0.00000000E+00  0.00000000E+00
  0.00000000E+00  0.00000000E+00  0.00000000E+00
  0.00000000E+00  0.00000000E+00  0.00000000E+00
  0.00000000E+00  0.00000000E+00  0.00000000E+00
  0.00000000E+00  0.00000000E+00  0.00000000E+00
  0.00000000E+00  0.00000000E+00  0.00000000E+00
  0.00000000E+00  0.00000000E+00  0.00000000E+00
  0.00000000E+00  0.00000000E+00  0.00000000E+00
  0.00000000E+00  0.00000000E+00  0.00000000E+00
  0.00000000E+00  0.00000000E+00  0.00000000E+00
  0.00000000E+00  0.00000000E+00  0.00000000E+00
  0.00000000E+00  0.00000000E+00  0.00000000E+00
  0.00000000E+00  0.00000000E+00  0.00000000E+00
  0.00000000E+00  0.00000000E+00  0.00000000E+00
  0.00000000E+00  0.00000000E+00  0.00000000E+00
  0.00000000E+00  0.00000000E+00  0.00000000E+00
  0.00000000E+00  0.00000000E+00  0.00000000E+00
  0.00000000E+00  0.00000000E+00  0.00000000E+00
  0.00000000E+00  0.00000000E+00  0.00000000E+00
  0.00000000E+00  0.00000000E+00  0.00000000E+00
  0.00000000E+00  0.00000000E+00  0.00000000E+00
  0.00000000E+00  0.00000000E+00  0.00000000E+00
  0.00000000E+00  0.00000000E+00  0.00000000E+00
  0.00000000E+00  0.00000000E+00  0.00000000E+00
  0.00000000E+00  0.00000000E+00  0.00000000E+00
  0.00000000E+00  0.00000000E+00  0.00000000E+00
  0.00000000E+00  0.00000000E+00  0.00000000E+00
  0.00000000E+00  0.00000000E+00  0.00000000E+00
  0.00000000E+00  0.00000000E+00  0.00000000E+00
  0.00000000E+00  0.00000000E+00  0.00000000E+00
  0.00000000E+00  0.00000000E+00  0.00000000E+00
  0.00000000E+00  0.00000000E+00  0.00000000E+00
  0.00000000E+00  0.00000000E+00  0.00000000E+00
  0.00000000E+00  0.00000000E+00  0.00000000E+00
  0.00000000E+00  0.00000000E+00  0.00000000E+00
  0.00000000E+00  0.00000000E+00  0.00000000E+00
  0.00000000E+00  0.00000000E+00  0.00000000E+00
  0.00000000E+00  0.00000000E+00  0.00000000E+00
  0.00000000E+00  0.00000000E+00  0.00000000E+00
  0.00000000E+00  0.00000000E+00  0.00000000E+00
  0.00000000E+00  0.00000000E+00  0.00000000E+00
  0.00000000E+00  0.00000000E+00  0.00000000E+00
  0.00000000E+00  0.00000000E+00  0.00000000E+00
  0.00000000E+00  0.00000000E+00  0.00000000E+00
  0.00000000E+00  0.00000000E+00  0.00000000E+00
  0.00000000E+00  0.00000000E+00  0.00000000E+00
  0.00000000E+00  0.00000000E+00  0.00000000E+00
  0.00000000E+00  0.00000000E+00  0.00000000E+00
  0.00000000E+00  0.00000000E+00  0.00000000E+00
  0.00000000E+00  0.00000000E+00  0.00000000E+00
  0.00000000E+00  0.00000000E+00  0.00000000E+00
  0.00000000E+00  0.00000000E+00  0.00000000E+00
  0.00000000E+00  0.00000000E+00  0.00000000E+00
  0.00000000E+00  0.00000000E+00  0.00000000E+00
  0.00000000E+00  0.00000000E+00  0.00000000E+00
  0.00000000E+00  0.00000000E+00  0.00000000E+00
  0.00000000E+00  0.00000000E+00  0.00000000E+00
  0.00000000E+00  0.00000000E+00  0.00000000E+00
  0.00000000E+00  0.00000000E+00  0.00000000E+00
  0.00000000E+00  0.00000000E+00  0.00000000E+00
  0.00000000E+00  0.00000000E+00  0.00000000E+00
  0.00000000E+00  0.00000000E+00  0.00000000E+00
  0.00000000E+00  0.00000000E+00  0.00000000E+00
  0.00000000E+00  0.00000000E+00  0.00000000E+00
  0.00000000E+00  0.00000000E+00  0.00000000E+00
  0.00000000E+00  0.00000000E+00  0.00000000E+00
  0.00000000E+00  0.00000000E+00  0.00000000E+00
  0.00000000E+00  0.00000000E+00  0.00000000E+00
  0.00000000E+00  0.00000000E+00  0.00000000E+00
  0.00000000E+00  0.00000000E+00  0.00000000E+00
  0.00000000E+00  0.00000000E+00  0.00000000E+00
  0.00000000E+00  0.00000000E+00  0.00000000E+00
  0.00000000E+00  0.00000000E+00  0.00000000E+00
  0.00000000E+00  0.00000000E+00  0.00000000E+00
  0.00000000E+00  0.00000000E+00  0.00000000E+00
  0.00000000E+00  0.00000000E+00  0.00000000E+00
  0.00000000E+00  0.00000000E+00  0.00000000E+00
  0.00000000E+00  0.00000000E+00  0.00000000E+00
  0.00000000E+00  0.00000000E+00  0.00000000E+00
  0.00000000E+00  0.00000000E+00  0.00000000E+00
  0.00000000E+00  0.00000000E+00  0.00000000E+00
  0.00000000E+00  0.00000000E+00  0.00000000E+00
  0.00000000E+00  0.00000000E+00  0.00000000E+00
  0.00000000E+00  0.00000000E+00  0.00000000E+00
  0.00000000E+00  0.00000000E+00  0.00000000E+00
  0.00000000E+00  0.00000000E+00  0.00000000E+00
  0.00000000E+00  0.00000000E+00  0.00000000E+00
  0.00000000E+00  0.00000000E+00  0.00000000E+00
  0.00000000E+00  0.00000000E+00  0.00000000E+00
  0.00000000E+00  0.00000000E+00  0.00000000E+00
  0.00000000E+00  0.00000000E+00  0.00000000E+00
  0.00000000E+00  0.00000000E+00  0.00000000E+00
  0.00000000E+00  0.00000000E+00  0.00000000E+00
  0.00000000E+00  0.00000000E+00  0.00000000E+00
  0.00000000E+00  0.00000000E+00  0.00000000E+00
  0.00000000E+00  0.00000000E+00  0.00000000E+00
  0.00000000E+00  0.00000000E+00  0.00000000E+00
  0.00000000E+00  0.00000000E+00  0.00000000E+00
  0.00000000E+00  0.00000000E+00  0.00000000E+00
  0.00000000E+00  0.00000000E+00  0.00000000E+00
  0.00000000E+00  0.00000000E+00  0.00000000E+00
  0.00000000E+00  0.00000000E+00  0.00000000E+00
  0.00000000E+00  0.00000000E+00  0.00000000E+00
