supercell of POSCAR                     
   1.01189200000000     
     3.1482772356600002   -5.4762754812200001    9.9674464565599994
    -9.4511209497999999   -5.4731922780100000    0.0032121685426600
     6.3112884282600001  -10.9581161277000003   -9.9749049577999997
   Al   Sc   N    O 
    84    12    95     1
Direct
  0.0892359108164200  0.5838680411108612  0.3338761852429357
  0.0020056930350023  0.3269311196909896  0.2538439525887100
  0.0851181926749049  0.0845187977689719  0.3342246657182173
  0.2499893436255292  0.5804975855209378  0.4970200151303175
  0.3301590783920929  0.3256685180732859  0.0804626690916450
  0.4178289842981329  0.0904776401111391  0.1690574776612976
  0.0065411360164802  0.8401549885356090  0.2527691173075652
  0.1678973127140821  0.3333563898859566  0.4140948441457439
  0.2482245365217892  0.0860941407491751  0.4971865055888571
  0.1644795924281226  0.8351794207381218  0.4159548162814488
  0.3380584018016535  0.6713289860821519  0.3372466905473388
  0.1563881099059401  0.6697019630223338  0.1678181017508606
  0.2537556736572242  0.4087629953519070  0.2500444614031210
  0.3344054268895036  0.1660953855229579  0.3336576521964361
  0.0031426762203139  0.6700160064148832  0.4971684786347694
  0.1677277555776939  0.1614848792749299  0.1685329625572081
  0.2543628046044617  0.9193459082088467  0.2540113288435393
  0.4151554694865354  0.4162286530429569  0.4153814633780897
  0.4987977404138348  0.1632729513150650  0.4978319501518911
  0.0816497083171726  0.9209033180719359  0.0808809475379988
  0.4190374390033114  0.9183299608094586  0.4138376522225471
  0.0870976349051631  0.5838184612004085  0.8332746037542478
  0.0010871609915455  0.3263998617649264  0.7536714388799055
  0.0844063703209699  0.0835630462815189  0.8343628369072960
  0.2446739317912687  0.5756254807765373  0.9921804702899450
  0.3309328375421998  0.3241576545451466  0.5802650500285438
  0.4172577738043373  0.0862898733994086  0.6693281505014426
  0.0055685511704482  0.8396194370578556  0.7532361895822319
  0.1662086006235555  0.3311399415659722  0.9142211700791378
  0.2480528522356167  0.0839539556266828  0.9984103304491256
  0.1640600060341697  0.8352781825908053  0.9169369351775103
  0.3357913980206817  0.6706752350372653  0.8370430345032105
  0.1606753428357024  0.6709803051216596  0.6664296081556458
  0.2516336131415144  0.4083584359472070  0.7511181446608575
  0.3334259848328003  0.1650840420679671  0.8342053107321448
  0.0003546619488120  0.6699161737450581  0.9972311253528545
  0.1673312281605916  0.1611251593027347  0.6685316109121615
  0.2524258482414510  0.9185884319330881  0.7539293144752079
  0.4140756938712542  0.4157134995296374  0.9152659590480781
  0.4978829189649971  0.1638057740565557  0.9978966992824994
  0.0815068855861085  0.9210664254683252  0.5815295719188001
  0.4168246783152156  0.9177981742644832  0.9153454398413103
  0.5910124702609281  0.5830136075198737  0.3351286098401758
  0.5015208099635586  0.3297496538822315  0.2535793265207289
  0.5846103400099452  0.0846835235213845  0.3337760302834596
  0.7505538835365755  0.5804667760463715  0.4974209233576801
  0.8293865400717806  0.3240819299417979  0.0801430933635316
  0.9176663430639351  0.0865951165326067  0.1693615518903542
  0.5035180475660468  0.8387460243398905  0.2515509181947877
  0.6678149391746615  0.3325713049825154  0.4144948233978027
  0.7481006110898889  0.0857290373269777  0.4973183666802186
  0.6638395564814772  0.8349875671148865  0.4156142379692724
  0.8374509969133968  0.6705941944999623  0.3372223486151356
  0.6597985975538734  0.6717688050499149  0.1665018781848744
  0.7526851086857960  0.4083185086512557  0.2510533743544201
  0.8341809565936558  0.1654628043696960  0.3339701019520334
  0.5031476805165340  0.6699720208001381  0.4970885944229551
  0.6674393707186539  0.1619860798556374  0.1685370718089558
  0.7526102746303280  0.9190955395995957  0.2539388888843988
  0.9149614537481696  0.4159310500429214  0.4154473225876671
  0.9988109110229573  0.1632270977955699  0.4979268716260421
  0.5802209410167620  0.9217040878457041  0.0817952350999249
  0.9185260245880542  0.9180029607430171  0.4140638112422153
  0.5879698115424787  0.5840421248487999  0.8337452726856824
  0.5010360389699287  0.3267105434926165  0.7536677540686085
  0.5840881298689453  0.0839861415715006  0.8343703094931740
  0.7482009282475630  0.5802103171124315  0.9970638647310821
  0.8309870032439264  0.3239020166733653  0.5803723429046315
  0.9172963084734178  0.0862039653599211  0.6694058776327978
  0.5053291028213067  0.8398366401015025  0.7533129035223212
  0.6662968027417833  0.3332485845425879  0.9147145246349240
  0.7470004267248171  0.0860076399311822  0.9974182586612201
  0.6631844932877158  0.8352377791302388  0.9160195554140529
  0.8354671796420234  0.6700718336388078  0.8370526603534074
  0.6606702611609307  0.6709099908837146  0.6664998724798608
  0.7515540667978584  0.4082740887770910  0.7511153257013490
  0.8332207729374090  0.1652122356839314  0.8341013233696444
  0.5025210627769781  0.6711460166695460  0.9973271075727439
  0.6671680511965832  0.1611091521349621  0.6685332924748906
  0.7523894406148628  0.9186028394163301  0.7538335010502664
  0.9136199287834543  0.4155554422193575  0.9151909169720938
  0.9978976614304500  0.1625709010178582  0.9979473870233591
  0.5815256534302904  0.9209714076487572  0.5814180863750948
  0.9175271031569494  0.9177229390873762  0.9143117362546391
  0.4038257763830302  0.5936569915022645  0.1750291044404975
  0.3309141653028291  0.8329299653377831  0.0910045352773352
  0.0761393238667196  0.4140514381617919  0.0856175104887882
  0.4049725557183805  0.5825065615552063  0.6736743964946896
  0.3285609938550920  0.8382625398166894  0.5838787132406509
  0.0788383552154741  0.4150754637817613  0.5851853577824642
  0.9028021634329733  0.5828225924219907  0.1741362153066035
  0.8269353527710877  0.8387844004499883  0.0845426550858051
  0.5757060392506688  0.4164734118234037  0.0862453848987457
  0.9051212457360833  0.5821256054054018  0.6736627655693823
  0.8284108842797764  0.8381317906232297  0.5839928187660703
  0.5788329019534970  0.4152258357667122  0.5851413076213277
  0.2203101180001923  0.5825416557191616  0.2652750511841333
  0.0384869920861846  0.5979609284300338  0.1018601389440832
  0.1319551159320511  0.3233304614714925  0.1954906986740497
  0.2120493676036688  0.0828561237938388  0.2715029993213705
  0.3798879616761965  0.5831694818752737  0.4369586946145532
  0.4499918876950701  0.3241180531437777  0.0123929627141521
  0.0424718504862227  0.0854084861848392  0.1033703226636860
  0.1343480092613873  0.8381339218817772  0.1844459028777408
  0.2961755048790877  0.3323885267072981  0.3520339021135968
  0.3771880634177336  0.0815377660140513  0.4351581787444658
  0.4659490270574622  0.8356860403151813  0.0148427436344889
  0.2943006051076722  0.8340997637395660  0.3549642513846436
  0.4732850793054340  0.6767799161984769  0.2836153805533215
  0.3788900351377933  0.3996317789008828  0.1841127821141342
  0.4626595971676792  0.1676233201870332  0.2724581043674874
  0.1315943812420883  0.6661826814142131  0.4340268394345586
  0.2145745465309190  0.4126259582327094  0.0141650578364789
  0.2916223377846379  0.1622430659464058  0.1022511380960651
  0.3846684682415642  0.9316475033524654  0.1972992823847548
  0.0449846858521568  0.4191106228881694  0.3523413575906318
  0.1272894004912715  0.1699658770150165  0.4350721490345677
  0.2011828060636063  0.9242628607670795  0.0142639584013793
  0.0474105961207911  0.9207333253033170  0.3526599769978560
  0.2182063453426011  0.5818126102918058  0.7671000390660936
  0.0402906349231458  0.5981811572767484  0.6017550916806513
  0.1311563876993418  0.3227585052219766  0.6954283850254583
  0.2117920650785905  0.0822838870366382  0.7713824763085526
  0.3780924484706958  0.5835550281455610  0.9376773692204878
  0.4512375953926124  0.3236836949178468  0.5127945650530776
  0.0421527988160122  0.0854784660388646  0.6033900837542561
  0.1318342741368710  0.8391101219303536  0.6856603597719797
  0.2949254600909939  0.3313627108935364  0.8525184485019039
  0.3763196560393851  0.0813074426732072  0.9355848184209776
  0.4680263808486416  0.8356265651777548  0.5135866417410426
  0.2930746014366648  0.8335912413282571  0.8548774931797922
  0.4685974596905567  0.6778915531206380  0.7801520176467420
  0.2769303211797123  0.6614280281457852  0.5975593133587438
  0.3777257690596514  0.3954646896549363  0.6852822866370474
  0.4614763494913063  0.1645661455233522  0.7724007888944300
  0.1288566257352741  0.6661950846876792  0.9338343673796672
  0.2171323844675399  0.4137996816333498  0.5142901707311793
  0.2919310391363581  0.1604064532486262  0.6023965026332974
  0.3834589807030966  0.9240956554683279  0.6962249523354984
  0.0438817300380094  0.4183730515897039  0.8523642350061351
  0.1266372061243359  0.1680015573206219  0.9353859231167974
  0.1995720313307388  0.9272789528582521  0.5126950271049964
  0.0465195376611049  0.9202028436932110  0.8532327272186322
  0.7206967110027449  0.5819766811647398  0.2666783589120740
  0.5387383937325794  0.5999943301047637  0.1018011269344328
  0.6319533257580190  0.3237848132416659  0.1954537907636578
  0.7125076454781762  0.0830000156651280  0.2712992280935467
  0.8805755541302815  0.5831393298525072  0.4368220292651728
  0.9496597974264418  0.3229948901185651  0.0123320440555332
  0.5425212188521442  0.0871323848958454  0.1031001867982368
  0.6326315186912268  0.8400458198352752  0.1853868266068446
  0.7962881851771257  0.3315138910378082  0.3524860605114100
  0.8772843144987093  0.0811692018058423  0.4353950630439627
  0.9666931060671189  0.8354766897926140  0.0140636583980225
  0.7943164316992153  0.8337200589623848  0.3547295809913749
  0.9708240474513872  0.6781695476939404  0.2795726431876773
  0.7759013212920038  0.6615334104986772  0.0971766051833853
  0.8788485480191639  0.3951726758219110  0.1848471203573823
  0.9623016747254169  0.1648114893463841  0.2724138376031178
  0.6325951345201162  0.6661186534992041  0.4351766369061920
  0.7149973814791153  0.4138845925211214  0.0148778782902639
  0.7919719786067958  0.1601705945228673  0.1024488053113259
  0.8844432679351613  0.9243590094553582  0.1964257408183485
  0.5457309696475221  0.4187019968135246  0.3531306144517927
  0.6273872047828633  0.1693586852843580  0.4351848387926935
  0.6982905713276324  0.9272843748720874  0.0125967782469587
  0.5470631764547207  0.9207764401724390  0.3520788948148450
  0.7181330493509606  0.5816483309095801  0.7669436572055943
  0.5401378788411080  0.5982693565333577  0.6018797187837208
  0.6310514447184801  0.3228013556306308  0.6953781464318070
  0.7116191106017666  0.0822230004451328  0.7714054794312162
  0.8784943181680660  0.5825893333088388  0.9366958705165729
  0.9512962513501222  0.3235695545255055  0.5128183978538772
  0.5420975955182499  0.0854038332763736  0.6033260983372770
  0.6317694655875243  0.8391070175083399  0.6856808747664118
  0.7946871346080187  0.3313194608337824  0.8525051759831470
  0.8760927428182512  0.0808663519788624  0.9354318737417060
  0.9680370110703009  0.8355524559275196  0.5136957845255026
  0.7930896151641704  0.8334874363250862  0.8548066624042363
  0.9683108397638520  0.6779020014311783  0.7798509576758903
  0.7772960771723660  0.6612826924010591  0.5979310313856345
  0.8777930272159793  0.3951090427741804  0.6853737783458769
  0.9615903631419656  0.1642938472773068  0.7725497749981685
  0.6299920941239918  0.6662989601797875  0.9340353404087836
  0.7175015899404613  0.4136910883588243  0.5144760252277365
  0.7919343764252744  0.1601962833423727  0.6024992126063253
  0.8836045163947333  0.9240693919865564  0.6963258876611533
  0.5436541450225150  0.4191101771491361  0.8522846985906867
  0.6262849735217983  0.1698264644583674  0.9349482017165585
  0.6996185063612401  0.9269405818162397  0.5125914331550732
  0.5456756104859437  0.9206078488565410  0.8532684363746412
  0.2635541454478627  0.6511904315767794  0.0913798504215961
 
  0.00000000E+00  0.00000000E+00  0.00000000E+00
  0.00000000E+00  0.00000000E+00  0.00000000E+00
  0.00000000E+00  0.00000000E+00  0.00000000E+00
  0.00000000E+00  0.00000000E+00  0.00000000E+00
  0.00000000E+00  0.00000000E+00  0.00000000E+00
  0.00000000E+00  0.00000000E+00  0.00000000E+00
  0.00000000E+00  0.00000000E+00  0.00000000E+00
  0.00000000E+00  0.00000000E+00  0.00000000E+00
  0.00000000E+00  0.00000000E+00  0.00000000E+00
  0.00000000E+00  0.00000000E+00  0.00000000E+00
  0.00000000E+00  0.00000000E+00  0.00000000E+00
  0.00000000E+00  0.00000000E+00  0.00000000E+00
  0.00000000E+00  0.00000000E+00  0.00000000E+00
  0.00000000E+00  0.00000000E+00  0.00000000E+00
  0.00000000E+00  0.00000000E+00  0.00000000E+00
  0.00000000E+00  0.00000000E+00  0.00000000E+00
  0.00000000E+00  0.00000000E+00  0.00000000E+00
  0.00000000E+00  0.00000000E+00  0.00000000E+00
  0.00000000E+00  0.00000000E+00  0.00000000E+00
  0.00000000E+00  0.00000000E+00  0.00000000E+00
  0.00000000E+00  0.00000000E+00  0.00000000E+00
  0.00000000E+00  0.00000000E+00  0.00000000E+00
  0.00000000E+00  0.00000000E+00  0.00000000E+00
  0.00000000E+00  0.00000000E+00  0.00000000E+00
  0.00000000E+00  0.00000000E+00  0.00000000E+00
  0.00000000E+00  0.00000000E+00  0.00000000E+00
  0.00000000E+00  0.00000000E+00  0.00000000E+00
  0.00000000E+00  0.00000000E+00  0.00000000E+00
  0.00000000E+00  0.00000000E+00  0.00000000E+00
  0.00000000E+00  0.00000000E+00  0.00000000E+00
  0.00000000E+00  0.00000000E+00  0.00000000E+00
  0.00000000E+00  0.00000000E+00  0.00000000E+00
  0.00000000E+00  0.00000000E+00  0.00000000E+00
  0.00000000E+00  0.00000000E+00  0.00000000E+00
  0.00000000E+00  0.00000000E+00  0.00000000E+00
  0.00000000E+00  0.00000000E+00  0.00000000E+00
  0.00000000E+00  0.00000000E+00  0.00000000E+00
  0.00000000E+00  0.00000000E+00  0.00000000E+00
  0.00000000E+00  0.00000000E+00  0.00000000E+00
  0.00000000E+00  0.00000000E+00  0.00000000E+00
  0.00000000E+00  0.00000000E+00  0.00000000E+00
  0.00000000E+00  0.00000000E+00  0.00000000E+00
  0.00000000E+00  0.00000000E+00  0.00000000E+00
  0.00000000E+00  0.00000000E+00  0.00000000E+00
  0.00000000E+00  0.00000000E+00  0.00000000E+00
  0.00000000E+00  0.00000000E+00  0.00000000E+00
  0.00000000E+00  0.00000000E+00  0.00000000E+00
  0.00000000E+00  0.00000000E+00  0.00000000E+00
  0.00000000E+00  0.00000000E+00  0.00000000E+00
  0.00000000E+00  0.00000000E+00  0.00000000E+00
  0.00000000E+00  0.00000000E+00  0.00000000E+00
  0.00000000E+00  0.00000000E+00  0.00000000E+00
  0.00000000E+00  0.00000000E+00  0.00000000E+00
  0.00000000E+00  0.00000000E+00  0.00000000E+00
  0.00000000E+00  0.00000000E+00  0.00000000E+00
  0.00000000E+00  0.00000000E+00  0.00000000E+00
  0.00000000E+00  0.00000000E+00  0.00000000E+00
  0.00000000E+00  0.00000000E+00  0.00000000E+00
  0.00000000E+00  0.00000000E+00  0.00000000E+00
  0.00000000E+00  0.00000000E+00  0.00000000E+00
  0.00000000E+00  0.00000000E+00  0.00000000E+00
  0.00000000E+00  0.00000000E+00  0.00000000E+00
  0.00000000E+00  0.00000000E+00  0.00000000E+00
  0.00000000E+00  0.00000000E+00  0.00000000E+00
  0.00000000E+00  0.00000000E+00  0.00000000E+00
  0.00000000E+00  0.00000000E+00  0.00000000E+00
  0.00000000E+00  0.00000000E+00  0.00000000E+00
  0.00000000E+00  0.00000000E+00  0.00000000E+00
  0.00000000E+00  0.00000000E+00  0.00000000E+00
  0.00000000E+00  0.00000000E+00  0.00000000E+00
  0.00000000E+00  0.00000000E+00  0.00000000E+00
  0.00000000E+00  0.00000000E+00  0.00000000E+00
  0.00000000E+00  0.00000000E+00  0.00000000E+00
  0.00000000E+00  0.00000000E+00  0.00000000E+00
  0.00000000E+00  0.00000000E+00  0.00000000E+00
  0.00000000E+00  0.00000000E+00  0.00000000E+00
  0.00000000E+00  0.00000000E+00  0.00000000E+00
  0.00000000E+00  0.00000000E+00  0.00000000E+00
  0.00000000E+00  0.00000000E+00  0.00000000E+00
  0.00000000E+00  0.00000000E+00  0.00000000E+00
  0.00000000E+00  0.00000000E+00  0.00000000E+00
  0.00000000E+00  0.00000000E+00  0.00000000E+00
  0.00000000E+00  0.00000000E+00  0.00000000E+00
  0.00000000E+00  0.00000000E+00  0.00000000E+00
  0.00000000E+00  0.00000000E+00  0.00000000E+00
  0.00000000E+00  0.00000000E+00  0.00000000E+00
  0.00000000E+00  0.00000000E+00  0.00000000E+00
  0.00000000E+00  0.00000000E+00  0.00000000E+00
  0.00000000E+00  0.00000000E+00  0.00000000E+00
  0.00000000E+00  0.00000000E+00  0.00000000E+00
  0.00000000E+00  0.00000000E+00  0.00000000E+00
  0.00000000E+00  0.00000000E+00  0.00000000E+00
  0.00000000E+00  0.00000000E+00  0.00000000E+00
  0.00000000E+00  0.00000000E+00  0.00000000E+00
  0.00000000E+00  0.00000000E+00  0.00000000E+00
  0.00000000E+00  0.00000000E+00  0.00000000E+00
  0.00000000E+00  0.00000000E+00  0.00000000E+00
  0.00000000E+00  0.00000000E+00  0.00000000E+00
  0.00000000E+00  0.00000000E+00  0.00000000E+00
  0.00000000E+00  0.00000000E+00  0.00000000E+00
  0.00000000E+00  0.00000000E+00  0.00000000E+00
  0.00000000E+00  0.00000000E+00  0.00000000E+00
  0.00000000E+00  0.00000000E+00  0.00000000E+00
  0.00000000E+00  0.00000000E+00  0.00000000E+00
  0.00000000E+00  0.00000000E+00  0.00000000E+00
  0.00000000E+00  0.00000000E+00  0.00000000E+00
  0.00000000E+00  0.00000000E+00  0.00000000E+00
  0.00000000E+00  0.00000000E+00  0.00000000E+00
  0.00000000E+00  0.00000000E+00  0.00000000E+00
  0.00000000E+00  0.00000000E+00  0.00000000E+00
  0.00000000E+00  0.00000000E+00  0.00000000E+00
  0.00000000E+00  0.00000000E+00  0.00000000E+00
  0.00000000E+00  0.00000000E+00  0.00000000E+00
  0.00000000E+00  0.00000000E+00  0.00000000E+00
  0.00000000E+00  0.00000000E+00  0.00000000E+00
  0.00000000E+00  0.00000000E+00  0.00000000E+00
  0.00000000E+00  0.00000000E+00  0.00000000E+00
  0.00000000E+00  0.00000000E+00  0.00000000E+00
  0.00000000E+00  0.00000000E+00  0.00000000E+00
  0.00000000E+00  0.00000000E+00  0.00000000E+00
  0.00000000E+00  0.00000000E+00  0.00000000E+00
  0.00000000E+00  0.00000000E+00  0.00000000E+00
  0.00000000E+00  0.00000000E+00  0.00000000E+00
  0.00000000E+00  0.00000000E+00  0.00000000E+00
  0.00000000E+00  0.00000000E+00  0.00000000E+00
  0.00000000E+00  0.00000000E+00  0.00000000E+00
  0.00000000E+00  0.00000000E+00  0.00000000E+00
  0.00000000E+00  0.00000000E+00  0.00000000E+00
  0.00000000E+00  0.00000000E+00  0.00000000E+00
  0.00000000E+00  0.00000000E+00  0.00000000E+00
  0.00000000E+00  0.00000000E+00  0.00000000E+00
  0.00000000E+00  0.00000000E+00  0.00000000E+00
  0.00000000E+00  0.00000000E+00  0.00000000E+00
  0.00000000E+00  0.00000000E+00  0.00000000E+00
  0.00000000E+00  0.00000000E+00  0.00000000E+00
  0.00000000E+00  0.00000000E+00  0.00000000E+00
  0.00000000E+00  0.00000000E+00  0.00000000E+00
  0.00000000E+00  0.00000000E+00  0.00000000E+00
  0.00000000E+00  0.00000000E+00  0.00000000E+00
  0.00000000E+00  0.00000000E+00  0.00000000E+00
  0.00000000E+00  0.00000000E+00  0.00000000E+00
  0.00000000E+00  0.00000000E+00  0.00000000E+00
  0.00000000E+00  0.00000000E+00  0.00000000E+00
  0.00000000E+00  0.00000000E+00  0.00000000E+00
  0.00000000E+00  0.00000000E+00  0.00000000E+00
  0.00000000E+00  0.00000000E+00  0.00000000E+00
  0.00000000E+00  0.00000000E+00  0.00000000E+00
  0.00000000E+00  0.00000000E+00  0.00000000E+00
  0.00000000E+00  0.00000000E+00  0.00000000E+00
  0.00000000E+00  0.00000000E+00  0.00000000E+00
  0.00000000E+00  0.00000000E+00  0.00000000E+00
  0.00000000E+00  0.00000000E+00  0.00000000E+00
  0.00000000E+00  0.00000000E+00  0.00000000E+00
  0.00000000E+00  0.00000000E+00  0.00000000E+00
  0.00000000E+00  0.00000000E+00  0.00000000E+00
  0.00000000E+00  0.00000000E+00  0.00000000E+00
  0.00000000E+00  0.00000000E+00  0.00000000E+00
  0.00000000E+00  0.00000000E+00  0.00000000E+00
  0.00000000E+00  0.00000000E+00  0.00000000E+00
  0.00000000E+00  0.00000000E+00  0.00000000E+00
  0.00000000E+00  0.00000000E+00  0.00000000E+00
  0.00000000E+00  0.00000000E+00  0.00000000E+00
  0.00000000E+00  0.00000000E+00  0.00000000E+00
  0.00000000E+00  0.00000000E+00  0.00000000E+00
  0.00000000E+00  0.00000000E+00  0.00000000E+00
  0.00000000E+00  0.00000000E+00  0.00000000E+00
  0.00000000E+00  0.00000000E+00  0.00000000E+00
  0.00000000E+00  0.00000000E+00  0.00000000E+00
  0.00000000E+00  0.00000000E+00  0.00000000E+00
  0.00000000E+00  0.00000000E+00  0.00000000E+00
  0.00000000E+00  0.00000000E+00  0.00000000E+00
  0.00000000E+00  0.00000000E+00  0.00000000E+00
  0.00000000E+00  0.00000000E+00  0.00000000E+00
  0.00000000E+00  0.00000000E+00  0.00000000E+00
  0.00000000E+00  0.00000000E+00  0.00000000E+00
  0.00000000E+00  0.00000000E+00  0.00000000E+00
  0.00000000E+00  0.00000000E+00  0.00000000E+00
  0.00000000E+00  0.00000000E+00  0.00000000E+00
  0.00000000E+00  0.00000000E+00  0.00000000E+00
  0.00000000E+00  0.00000000E+00  0.00000000E+00
  0.00000000E+00  0.00000000E+00  0.00000000E+00
  0.00000000E+00  0.00000000E+00  0.00000000E+00
  0.00000000E+00  0.00000000E+00  0.00000000E+00
  0.00000000E+00  0.00000000E+00  0.00000000E+00
  0.00000000E+00  0.00000000E+00  0.00000000E+00
  0.00000000E+00  0.00000000E+00  0.00000000E+00
  0.00000000E+00  0.00000000E+00  0.00000000E+00
  0.00000000E+00  0.00000000E+00  0.00000000E+00
  0.00000000E+00  0.00000000E+00  0.00000000E+00
  0.00000000E+00  0.00000000E+00  0.00000000E+00
  0.00000000E+00  0.00000000E+00  0.00000000E+00
  0.00000000E+00  0.00000000E+00  0.00000000E+00
