supercell of POSCAR                     
   1.01189200000000     
     3.1482772356600002   -5.4762754812200001    9.9674464565599994
    -9.4511209497999999   -5.4731922780100000    0.0032121685426600
     6.3112884282600001  -10.9581161277000003   -9.9749049577999997
   Al   Sc   N    O 
    84    12    95     1
Direct
  0.0883122567868000  0.5839993356848225  0.3340193133918490
  0.0008857213637086  0.3269729971799649  0.2545150246640162
  0.0847115899373350  0.0842129427499927  0.3344625974708251
  0.2493910170209546  0.5805873912656523  0.4969474763726964
  0.3332823633802917  0.3209969638465680  0.0827459480515174
  0.4176285676113878  0.0855671982769479  0.1696693621112644
  0.0059608273387042  0.8398308306090883  0.2531108123684618
  0.1671019716406406  0.3330112476446914  0.4147147184705702
  0.2478471004836962  0.0860096525270819  0.4974067332032917
  0.1637607698582002  0.8349295785534281  0.4161931181308773
  0.3364740431168372  0.6704545385507927  0.3373388661802608
  0.1604697989348054  0.6700437164304276  0.1669273566709535
  0.2513911323794247  0.4089367537706039  0.2517334601319163
  0.3337912274241930  0.1653902476562408  0.3341221877512766
  0.0023298213070220  0.6700722986525705  0.4971920900929376
  0.1665964226300289  0.1605216692716098  0.1687773086136488
  0.2525949412541664  0.9183914111379607  0.2542146131332927
  0.4144478693105071  0.4160814437319971  0.4154420995669810
  0.4984679485826931  0.1633359511957764  0.4979155200465684
  0.0806391304180281  0.9205571018393783  0.0816031482191946
  0.4180794155420742  0.9180871712983318  0.4143010666547084
  0.0883841502123914  0.5842118477295557  0.8331394490999315
  0.0008799117783340  0.3270340540729038  0.7532566728755015
  0.0843728636106817  0.0840420982923362  0.8339925536558113
  0.2501290384970076  0.5854848153111050  0.9954325541206117
  0.3307551266149389  0.3242689036890525  0.5802743713910417
  0.4174141864586005  0.0864943513662482  0.6691582254246811
  0.0057877159383253  0.8399328322616100  0.7529302000252756
  0.1654371843754703  0.3309777880848088  0.9109575250793469
  0.2480267290485614  0.0850081522388066  0.9973176524855631
  0.1633370704555901  0.8353627688496204  0.9157640424325777
  0.3362702055423767  0.6703478325952830  0.8363397446034426
  0.1606380135577439  0.6711394685173602  0.6662155420237923
  0.2521837085613967  0.4089703318568922  0.7507740497647291
  0.3340364496719133  0.1649174240754334  0.8338093142444762
  0.0011824000964751  0.6699355437979833  0.9972381440336733
  0.1673707984883919  0.1612809609087478  0.6684511613995952
  0.2526387556367524  0.9186550427791218  0.7537222693262038
  0.4159364050903562  0.4160194618563935  0.9142127655424233
  0.4979474804065234  0.1632237171142634  0.9977903632327099
  0.0811989806487716  0.9212764076464808  0.5814784731954390
  0.4177289210934134  0.9175963669770013  0.9142761569475724
  0.5887640685317379  0.5839023536608465  0.3338768519461794
  0.5016896453252571  0.3271539420512539  0.2539762740171838
  0.5848115584933780  0.0843728612225831  0.3342932760411230
  0.7494683561253908  0.5807558540663607  0.4968663839055978
  0.8298061636624254  0.3241213457754313  0.0803161863733024
  0.9171788564054353  0.0863007620887117  0.1694676556126495
  0.5061674167956838  0.8397362438022071  0.2532187324544353
  0.6673073049268439  0.3330935328930451  0.4143774261928215
  0.7478465649508905  0.0859849761104527  0.4973208424317690
  0.6638215976573818  0.8350130432147225  0.4160223043406006
  0.8364796700389334  0.6705419656598153  0.3371936835303657
  0.6607955548817017  0.6709719746029279  0.1665425121376956
  0.7518473998751745  0.4086272792796919  0.2510588445266251
  0.8337650500088643  0.1653013608366365  0.3340531380739478
  0.5024083064561253  0.6700220397893162  0.4971154445809702
  0.6672882946442513  0.1611703011446082  0.1684308741810341
  0.7527575882605362  0.9187090423461228  0.2539550131862924
  0.9142976473168360  0.4161665680705084  0.4155263862629255
  0.9983929592537706  0.1633323890359151  0.4979835655025937
  0.5804196975762750  0.9210728091579767  0.0814857315802442
  0.9180441887395077  0.9180757162399829  0.4142408335869874
  0.5887944122550692  0.5843109535322526  0.8334249976906776
  0.5018208042044634  0.3268514979768185  0.7532237503542234
  0.5845890334861963  0.0842389593665374  0.8341389993630344
  0.7491223666586393  0.5807843599682840  0.9968168735192577
  0.8306006121411329  0.3242202554764901  0.5801294263589867
  0.9173545458910510  0.0864738088531496  0.6691646477638145
  0.5058786225846177  0.8399207957485615  0.7529031242744111
  0.6673840347910556  0.3329963616990383  0.9140866425629284
  0.7472383082042100  0.0859635301330357  0.9973193257221524
  0.6635421518197262  0.8349943678642049  0.9157937980447244
  0.8361399161294827  0.6703811319740609  0.8368707222251714
  0.6607171473053555  0.6710664749783888  0.6662918412314127
  0.7520672553199361  0.4086567383523558  0.7509079245055688
  0.8336940769204020  0.1652707530509687  0.8338813412678263
  0.5025096404983884  0.6700775986930623  0.9973051496510692
  0.6674040421844865  0.1611701881245224  0.6683667004232845
  0.7526527988944451  0.9187689651673239  0.7537244495866702
  0.9135964623313555  0.4163827947500707  0.9153677903112580
  0.9978678289699090  0.1627622111003078  0.9983290259015689
  0.5812711504337287  0.9211623238091420  0.5814247702461515
  0.9174497526602678  0.9178771348117962  0.9142930999866934
  0.4058966675854307  0.5827204804753805  0.1745862350353562
  0.3274496568871115  0.8379188297898779  0.0850950783209399
  0.0749920977971925  0.4143391443659112  0.0874544667721295
  0.4051778107579551  0.5827353803112985  0.6734426600342545
  0.3281378451207289  0.8384586124398155  0.5841368425562266
  0.0783227751950548  0.4153052870772029  0.5853544471926426
  0.9043050216881952  0.5829155852422048  0.1742664542580954
  0.8270336033701398  0.8388994373217571  0.0843408130690051
  0.5783258034695749  0.4152155806995452  0.0851016013055528
  0.9049768944373255  0.5827459128226309  0.6736841187456406
  0.8280771487393963  0.8385178763485825  0.5840744220419509
  0.5786474063739391  0.4153361891208860  0.5850346511349898
  0.2189791676385724  0.5817934170869918  0.2670032029882492
  0.0403107926444974  0.5969396054989602  0.1014842866190477
  0.1311968757933784  0.3228464544174585  0.1954104589717574
  0.2120983218654473  0.0823647686655775  0.2713923026032674
  0.3796445640024046  0.5830610345835439  0.4368073255775826
  0.4479697257186785  0.3244590807606897  0.0124774917418407
  0.0419498551923496  0.0853043759838670  0.1033583543140395
  0.1325362047874421  0.8386339713389006  0.1852937132308057
  0.2954716283957666  0.3313583909328983  0.3525218351453319
  0.3768431272103143  0.0813255396030570  0.4354123248294499
  0.4663157428989351  0.8352077403229430  0.0141113725853828
  0.2936761345594974  0.8337196289988569  0.3550480408410053
  0.4695830889832706  0.6782658089303197  0.2802109088786366
  0.2763928313552668  0.6583517007709858  0.0971406572862676
  0.3769673431844751  0.3956218682138442  0.1849668700188261
  0.4618232067133974  0.1648825897855986  0.2722172913674328
  0.1307783852992443  0.6661898289925219  0.4342472591689841
  0.2910657814628905  0.1600328026984599  0.1023230201541665
  0.3837120085690486  0.9238960120613768  0.1965160333000711
  0.0445196626673123  0.4188287022201962  0.3526336269585215
  0.1268844859676577  0.1696251780485909  0.4351746421798097
  0.1990165369961900  0.9265653596779941  0.0127769485318794
  0.0468380078269490  0.9207493530653963  0.3528896522414797
  0.2187395069796807  0.5819080712780504  0.7667578236761941
  0.0400468207545330  0.5984047497703813  0.6017531409125354
  0.1315346557861687  0.3229833691233495  0.6958058284278579
  0.2119978100271425  0.0825487665316658  0.7715528188942216
  0.3788724901660316  0.5818490582281513  0.9366441100236571
  0.4509882432228167  0.3237278569470163  0.5127334506498897
  0.0421874720336533  0.0858102910411915  0.6033877675934747
  0.1320985922315927  0.8394451594174797  0.6855451159957155
  0.2952646982870064  0.3320105325634799  0.8532091448201484
  0.3765557654531193  0.0811331875797876  0.9353378404182351
  0.4675700703313765  0.8356613586872896  0.5138346561651090
  0.2932568924684702  0.8333643530887329  0.8548568613963354
  0.4692585971047620  0.6780552441930894  0.7799352395096548
  0.2769684941203607  0.6614635778330964  0.5973992361103981
  0.3781296213703200  0.3954797219980790  0.6853567707476032
  0.4618390975572098  0.1649185047534516  0.7723254917643629
  0.1299768427151093  0.6655909410513701  0.9341536480667330
  0.2167819083733775  0.4138747798821854  0.5145433279000216
  0.2919268298355959  0.1604974577654161  0.6024696808127885
  0.3837630894331028  0.9244411973766162  0.6963651236391399
  0.0444608614348638  0.4190445712498274  0.8530215654427735
  0.1270566433413336  0.1704402150722402  0.9356973251577259
  0.1993091870585246  0.9272286964079584  0.5127322167081161
  0.0463040077048475  0.9209528751907641  0.8530711644089664
  0.7193511236234187  0.5819044130410447  0.2666916169580347
  0.5400790491265752  0.5981354986627494  0.1017742287003358
  0.6312566901531227  0.3231044655158684  0.1950192855284811
  0.7120995571346072  0.0825639916968086  0.2712420575456633
  0.8796985801067621  0.5832505510689572  0.4367274736163296
  0.9512952086377382  0.3239666647021053  0.0128762488042113
  0.5416945118081387  0.0860441832968348  0.1032051473656779
  0.6322029131023967  0.8394056797490776  0.1853729214876978
  0.7957164340537020  0.3314342068038201  0.3522313682406022
  0.8768558054657802  0.0813138607249897  0.4353997006950294
  0.9668377471156191  0.8353675179813607  0.0139857464364823
  0.7937079271077891  0.8338299197839376  0.3548460941435252
  0.9695548215087157  0.6782256890154414  0.2799240297515055
  0.7769104162830374  0.6614397994694201  0.0972575827582105
  0.8786455900921197  0.3954794677422910  0.1847860475990402
  0.9619875081427978  0.1645881102646953  0.2723886738213750
  0.6308581126441553  0.6662675537491722  0.4341376936643755
  0.7165121779158881  0.4138104087404102  0.0141242511398474
  0.7918831065638798  0.1602823814397709  0.1022832052306839
  0.8839377419260970  0.9242102918571931  0.1963436506037937
  0.5444922649094863  0.4188173762978025  0.3523835723685309
  0.6269455680559943  0.1697433425747477  0.4350467402742808
  0.6983125850436096  0.9272898326050338  0.0124568444695825
  0.5467594241717961  0.9209623505688000  0.3528956321727605
  0.7188500731297651  0.5819178258229840  0.7667417858008676
  0.5402094558412927  0.5983624538619878  0.6016710595257138
  0.6316804753724909  0.3229191885925289  0.6952358824045959
  0.7120237952617430  0.0825023126756292  0.7713822248077449
  0.8792387962382193  0.5830893741650485  0.9366031264230514
  0.9509859938170777  0.3237513149801146  0.5127450730821508
  0.5421651156122280  0.0856752543059969  0.6032876797196209
  0.6321359680593659  0.8393881507391754  0.6854837607689319
  0.7956635887720935  0.3313609078109678  0.8523713464134701
  0.8765444382539869  0.0813756169997006  0.9354880527250273
  0.9675715276697971  0.8357397949731720  0.5138279799814711
  0.7933857701437148  0.8337070255263015  0.8547471050776778
  0.9692469479107970  0.6782291549839954  0.7800213532995173
  0.7769994799225231  0.6615009162062293  0.5973808590700500
  0.8780328358862377  0.3955806836805849  0.6850473523036342
  0.9619257408119850  0.1648437391740245  0.7724234888160169
  0.6303086688412236  0.6661529119925262  0.9340714514427901
  0.7169724134521900  0.4139664484788881  0.5141754207056550
  0.7919484811800146  0.1604053078013905  0.6023749569344687
  0.8838410068497708  0.9244158652846863  0.6963142752078681
  0.5447625566335148  0.4188270736097053  0.8520774081924500
  0.6262869662281076  0.1701008216922446  0.9351251892823171
  0.6992881360804333  0.9272181865866571  0.5126036162021919
  0.5463273572184235  0.9207899894272416  0.8529279193508472
  0.2158469272604435  0.4140391313257155  0.0129935995310291
 
  0.00000000E+00  0.00000000E+00  0.00000000E+00
  0.00000000E+00  0.00000000E+00  0.00000000E+00
  0.00000000E+00  0.00000000E+00  0.00000000E+00
  0.00000000E+00  0.00000000E+00  0.00000000E+00
  0.00000000E+00  0.00000000E+00  0.00000000E+00
  0.00000000E+00  0.00000000E+00  0.00000000E+00
  0.00000000E+00  0.00000000E+00  0.00000000E+00
  0.00000000E+00  0.00000000E+00  0.00000000E+00
  0.00000000E+00  0.00000000E+00  0.00000000E+00
  0.00000000E+00  0.00000000E+00  0.00000000E+00
  0.00000000E+00  0.00000000E+00  0.00000000E+00
  0.00000000E+00  0.00000000E+00  0.00000000E+00
  0.00000000E+00  0.00000000E+00  0.00000000E+00
  0.00000000E+00  0.00000000E+00  0.00000000E+00
  0.00000000E+00  0.00000000E+00  0.00000000E+00
  0.00000000E+00  0.00000000E+00  0.00000000E+00
  0.00000000E+00  0.00000000E+00  0.00000000E+00
  0.00000000E+00  0.00000000E+00  0.00000000E+00
  0.00000000E+00  0.00000000E+00  0.00000000E+00
  0.00000000E+00  0.00000000E+00  0.00000000E+00
  0.00000000E+00  0.00000000E+00  0.00000000E+00
  0.00000000E+00  0.00000000E+00  0.00000000E+00
  0.00000000E+00  0.00000000E+00  0.00000000E+00
  0.00000000E+00  0.00000000E+00  0.00000000E+00
  0.00000000E+00  0.00000000E+00  0.00000000E+00
  0.00000000E+00  0.00000000E+00  0.00000000E+00
  0.00000000E+00  0.00000000E+00  0.00000000E+00
  0.00000000E+00  0.00000000E+00  0.00000000E+00
  0.00000000E+00  0.00000000E+00  0.00000000E+00
  0.00000000E+00  0.00000000E+00  0.00000000E+00
  0.00000000E+00  0.00000000E+00  0.00000000E+00
  0.00000000E+00  0.00000000E+00  0.00000000E+00
  0.00000000E+00  0.00000000E+00  0.00000000E+00
  0.00000000E+00  0.00000000E+00  0.00000000E+00
  0.00000000E+00  0.00000000E+00  0.00000000E+00
  0.00000000E+00  0.00000000E+00  0.00000000E+00
  0.00000000E+00  0.00000000E+00  0.00000000E+00
  0.00000000E+00  0.00000000E+00  0.00000000E+00
  0.00000000E+00  0.00000000E+00  0.00000000E+00
  0.00000000E+00  0.00000000E+00  0.00000000E+00
  0.00000000E+00  0.00000000E+00  0.00000000E+00
  0.00000000E+00  0.00000000E+00  0.00000000E+00
  0.00000000E+00  0.00000000E+00  0.00000000E+00
  0.00000000E+00  0.00000000E+00  0.00000000E+00
  0.00000000E+00  0.00000000E+00  0.00000000E+00
  0.00000000E+00  0.00000000E+00  0.00000000E+00
  0.00000000E+00  0.00000000E+00  0.00000000E+00
  0.00000000E+00  0.00000000E+00  0.00000000E+00
  0.00000000E+00  0.00000000E+00  0.00000000E+00
  0.00000000E+00  0.00000000E+00  0.00000000E+00
  0.00000000E+00  0.00000000E+00  0.00000000E+00
  0.00000000E+00  0.00000000E+00  0.00000000E+00
  0.00000000E+00  0.00000000E+00  0.00000000E+00
  0.00000000E+00  0.00000000E+00  0.00000000E+00
  0.00000000E+00  0.00000000E+00  0.00000000E+00
  0.00000000E+00  0.00000000E+00  0.00000000E+00
  0.00000000E+00  0.00000000E+00  0.00000000E+00
  0.00000000E+00  0.00000000E+00  0.00000000E+00
  0.00000000E+00  0.00000000E+00  0.00000000E+00
  0.00000000E+00  0.00000000E+00  0.00000000E+00
  0.00000000E+00  0.00000000E+00  0.00000000E+00
  0.00000000E+00  0.00000000E+00  0.00000000E+00
  0.00000000E+00  0.00000000E+00  0.00000000E+00
  0.00000000E+00  0.00000000E+00  0.00000000E+00
  0.00000000E+00  0.00000000E+00  0.00000000E+00
  0.00000000E+00  0.00000000E+00  0.00000000E+00
  0.00000000E+00  0.00000000E+00  0.00000000E+00
  0.00000000E+00  0.00000000E+00  0.00000000E+00
  0.00000000E+00  0.00000000E+00  0.00000000E+00
  0.00000000E+00  0.00000000E+00  0.00000000E+00
  0.00000000E+00  0.00000000E+00  0.00000000E+00
  0.00000000E+00  0.00000000E+00  0.00000000E+00
  0.00000000E+00  0.00000000E+00  0.00000000E+00
  0.00000000E+00  0.00000000E+00  0.00000000E+00
  0.00000000E+00  0.00000000E+00  0.00000000E+00
  0.00000000E+00  0.00000000E+00  0.00000000E+00
  0.00000000E+00  0.00000000E+00  0.00000000E+00
  0.00000000E+00  0.00000000E+00  0.00000000E+00
  0.00000000E+00  0.00000000E+00  0.00000000E+00
  0.00000000E+00  0.00000000E+00  0.00000000E+00
  0.00000000E+00  0.00000000E+00  0.00000000E+00
  0.00000000E+00  0.00000000E+00  0.00000000E+00
  0.00000000E+00  0.00000000E+00  0.00000000E+00
  0.00000000E+00  0.00000000E+00  0.00000000E+00
  0.00000000E+00  0.00000000E+00  0.00000000E+00
  0.00000000E+00  0.00000000E+00  0.00000000E+00
  0.00000000E+00  0.00000000E+00  0.00000000E+00
  0.00000000E+00  0.00000000E+00  0.00000000E+00
  0.00000000E+00  0.00000000E+00  0.00000000E+00
  0.00000000E+00  0.00000000E+00  0.00000000E+00
  0.00000000E+00  0.00000000E+00  0.00000000E+00
  0.00000000E+00  0.00000000E+00  0.00000000E+00
  0.00000000E+00  0.00000000E+00  0.00000000E+00
  0.00000000E+00  0.00000000E+00  0.00000000E+00
  0.00000000E+00  0.00000000E+00  0.00000000E+00
  0.00000000E+00  0.00000000E+00  0.00000000E+00
  0.00000000E+00  0.00000000E+00  0.00000000E+00
  0.00000000E+00  0.00000000E+00  0.00000000E+00
  0.00000000E+00  0.00000000E+00  0.00000000E+00
  0.00000000E+00  0.00000000E+00  0.00000000E+00
  0.00000000E+00  0.00000000E+00  0.00000000E+00
  0.00000000E+00  0.00000000E+00  0.00000000E+00
  0.00000000E+00  0.00000000E+00  0.00000000E+00
  0.00000000E+00  0.00000000E+00  0.00000000E+00
  0.00000000E+00  0.00000000E+00  0.00000000E+00
  0.00000000E+00  0.00000000E+00  0.00000000E+00
  0.00000000E+00  0.00000000E+00  0.00000000E+00
  0.00000000E+00  0.00000000E+00  0.00000000E+00
  0.00000000E+00  0.00000000E+00  0.00000000E+00
  0.00000000E+00  0.00000000E+00  0.00000000E+00
  0.00000000E+00  0.00000000E+00  0.00000000E+00
  0.00000000E+00  0.00000000E+00  0.00000000E+00
  0.00000000E+00  0.00000000E+00  0.00000000E+00
  0.00000000E+00  0.00000000E+00  0.00000000E+00
  0.00000000E+00  0.00000000E+00  0.00000000E+00
  0.00000000E+00  0.00000000E+00  0.00000000E+00
  0.00000000E+00  0.00000000E+00  0.00000000E+00
  0.00000000E+00  0.00000000E+00  0.00000000E+00
  0.00000000E+00  0.00000000E+00  0.00000000E+00
  0.00000000E+00  0.00000000E+00  0.00000000E+00
  0.00000000E+00  0.00000000E+00  0.00000000E+00
  0.00000000E+00  0.00000000E+00  0.00000000E+00
  0.00000000E+00  0.00000000E+00  0.00000000E+00
  0.00000000E+00  0.00000000E+00  0.00000000E+00
  0.00000000E+00  0.00000000E+00  0.00000000E+00
  0.00000000E+00  0.00000000E+00  0.00000000E+00
  0.00000000E+00  0.00000000E+00  0.00000000E+00
  0.00000000E+00  0.00000000E+00  0.00000000E+00
  0.00000000E+00  0.00000000E+00  0.00000000E+00
  0.00000000E+00  0.00000000E+00  0.00000000E+00
  0.00000000E+00  0.00000000E+00  0.00000000E+00
  0.00000000E+00  0.00000000E+00  0.00000000E+00
  0.00000000E+00  0.00000000E+00  0.00000000E+00
  0.00000000E+00  0.00000000E+00  0.00000000E+00
  0.00000000E+00  0.00000000E+00  0.00000000E+00
  0.00000000E+00  0.00000000E+00  0.00000000E+00
  0.00000000E+00  0.00000000E+00  0.00000000E+00
  0.00000000E+00  0.00000000E+00  0.00000000E+00
  0.00000000E+00  0.00000000E+00  0.00000000E+00
  0.00000000E+00  0.00000000E+00  0.00000000E+00
  0.00000000E+00  0.00000000E+00  0.00000000E+00
  0.00000000E+00  0.00000000E+00  0.00000000E+00
  0.00000000E+00  0.00000000E+00  0.00000000E+00
  0.00000000E+00  0.00000000E+00  0.00000000E+00
  0.00000000E+00  0.00000000E+00  0.00000000E+00
  0.00000000E+00  0.00000000E+00  0.00000000E+00
  0.00000000E+00  0.00000000E+00  0.00000000E+00
  0.00000000E+00  0.00000000E+00  0.00000000E+00
  0.00000000E+00  0.00000000E+00  0.00000000E+00
  0.00000000E+00  0.00000000E+00  0.00000000E+00
  0.00000000E+00  0.00000000E+00  0.00000000E+00
  0.00000000E+00  0.00000000E+00  0.00000000E+00
  0.00000000E+00  0.00000000E+00  0.00000000E+00
  0.00000000E+00  0.00000000E+00  0.00000000E+00
  0.00000000E+00  0.00000000E+00  0.00000000E+00
  0.00000000E+00  0.00000000E+00  0.00000000E+00
  0.00000000E+00  0.00000000E+00  0.00000000E+00
  0.00000000E+00  0.00000000E+00  0.00000000E+00
  0.00000000E+00  0.00000000E+00  0.00000000E+00
  0.00000000E+00  0.00000000E+00  0.00000000E+00
  0.00000000E+00  0.00000000E+00  0.00000000E+00
  0.00000000E+00  0.00000000E+00  0.00000000E+00
  0.00000000E+00  0.00000000E+00  0.00000000E+00
  0.00000000E+00  0.00000000E+00  0.00000000E+00
  0.00000000E+00  0.00000000E+00  0.00000000E+00
  0.00000000E+00  0.00000000E+00  0.00000000E+00
  0.00000000E+00  0.00000000E+00  0.00000000E+00
  0.00000000E+00  0.00000000E+00  0.00000000E+00
  0.00000000E+00  0.00000000E+00  0.00000000E+00
  0.00000000E+00  0.00000000E+00  0.00000000E+00
  0.00000000E+00  0.00000000E+00  0.00000000E+00
  0.00000000E+00  0.00000000E+00  0.00000000E+00
  0.00000000E+00  0.00000000E+00  0.00000000E+00
  0.00000000E+00  0.00000000E+00  0.00000000E+00
  0.00000000E+00  0.00000000E+00  0.00000000E+00
  0.00000000E+00  0.00000000E+00  0.00000000E+00
  0.00000000E+00  0.00000000E+00  0.00000000E+00
  0.00000000E+00  0.00000000E+00  0.00000000E+00
  0.00000000E+00  0.00000000E+00  0.00000000E+00
  0.00000000E+00  0.00000000E+00  0.00000000E+00
  0.00000000E+00  0.00000000E+00  0.00000000E+00
  0.00000000E+00  0.00000000E+00  0.00000000E+00
  0.00000000E+00  0.00000000E+00  0.00000000E+00
  0.00000000E+00  0.00000000E+00  0.00000000E+00
  0.00000000E+00  0.00000000E+00  0.00000000E+00
  0.00000000E+00  0.00000000E+00  0.00000000E+00
  0.00000000E+00  0.00000000E+00  0.00000000E+00
  0.00000000E+00  0.00000000E+00  0.00000000E+00
  0.00000000E+00  0.00000000E+00  0.00000000E+00
  0.00000000E+00  0.00000000E+00  0.00000000E+00
  0.00000000E+00  0.00000000E+00  0.00000000E+00
  0.00000000E+00  0.00000000E+00  0.00000000E+00
