supercell of POSCAR                     
   1.01189200000000     
     3.1482772356600002   -5.4762754812200001    9.9674464565599994
    -9.4511209497999999   -5.4731922780100000    0.0032121685426600
     6.3112884282600001  -10.9581161277000003   -9.9749049577999997
   Al   Sc   N 
    84    12    95
Direct
  0.0896371825726519  0.5845381064678534  0.3348817579188719
  0.0036067292348250  0.3243410170470611  0.2581908959145593
  0.0857600220836261  0.0835905586588765  0.3357533502191927
  0.2513882601447222  0.5807261277237927  0.4974499170910391
  0.3549846913418975  0.3016790689987090  0.0979282310840546
  0.4200671299647993  0.0799902501371434  0.1736846048680789
  0.0064186619281941  0.8409992642531066  0.2535429222294994
  0.1692504175609315  0.3329852141343324  0.4159699798095033
  0.2487649941568790  0.0864634829042359  0.4981055771703069
  0.1646479056355759  0.8344198748286331  0.4170123331157143
  0.3378308627964515  0.6697660497232292  0.3378975513869591
  0.1573159380563141  0.6702900042529905  0.1677970230971937
  0.2521468236513300  0.4086143161901319  0.2538933598556170
  0.3346826260216886  0.1654836501776487  0.3352639456173279
  0.0043114851336981  0.6699560692472915  0.4975404560667442
  0.1654056519723071  0.1583608691214664  0.1706280764556141
  0.2521814449532158  0.9178541917756959  0.2562068529516353
  0.4165164484190385  0.4158429005527466  0.4162427161946880
  0.4998420100846346  0.1630552826601814  0.4983807983028612
  0.0790192431913823  0.9207721187684967  0.0816208797698934
  0.4190006537778004  0.9178306407372219  0.4147726655534711
  0.0868877654409985  0.5854112788903052  0.8318947924556284
  0.9960216375712179  0.3266656796519172  0.7497242318638087
  0.0814225774444992  0.0801844954061721  0.8319961947245531
  0.2554469153013841  0.6182225649423145  0.9908845294487634
  0.3326765228763762  0.3242076765900848  0.5808026242457842
  0.4177949695856569  0.0863312025289531  0.6692558961748247
  0.0043666723981062  0.8389097612824372  0.7521093166939679
  0.1537454057030274  0.3146911543523174  0.8893883341008291
  0.2473808967692861  0.0847501432919202  0.9970710727937515
  0.1607318286401593  0.8392818441428034  0.9147430402479912
  0.3358855615781877  0.6715877600175446  0.8330516195935047
  0.1610719989827700  0.6717030741801437  0.6657641990202947
  0.2526791908563411  0.4116607480269678  0.7490468754014827
  0.3351102650528119  0.1628128193676872  0.8333512742963549
  0.9977793004660924  0.6707117172602608  0.9979662175629471
  0.1676347406407643  0.1618944872391097  0.6688161843305522
  0.2521893466063503  0.9187567488911554  0.7533676037919363
  0.4135653051563182  0.4163151030892678  0.9147125662452140
  0.4972906701656257  0.1614158186215846  0.9969309003499163
  0.0822161117799638  0.9212935249268455  0.5822593912998428
  0.4164956741501129  0.9170882463961760  0.9143697469501717
  0.5909782958716931  0.5836813611613252  0.3336989004969766
  0.5071000255455829  0.3262553533924333  0.2568037146736089
  0.5863552622178645  0.0834554031547228  0.3353346347823134
  0.7511459306496349  0.5810786742656902  0.4968688982135845
  0.8255835378799361  0.3212821167048219  0.0775624494363640
  0.9166569928404442  0.0858776936837202  0.1697177247112194
  0.5073192635103609  0.8381285369908085  0.2544473325896135
  0.6702212981399711  0.3331072781903117  0.4140115447260015
  0.7486421278493935  0.0864959347156500  0.4977414563384599
  0.6649602082861392  0.8350216671307038  0.4164460400285748
  0.8383002433812337  0.6715543505628148  0.3386703748121960
  0.6587411435424642  0.6726036856257736  0.1655856246658587
  0.7552096966832096  0.4083615443664357  0.2498150472600074
  0.8346243986411110  0.1643761743954286  0.3343392892669641
  0.5045848039155061  0.6697832941955895  0.4966874329721307
  0.6670969638511650  0.1605791183465186  0.1686236518626174
  0.7529837438784881  0.9186810522567583  0.2540843255228111
  0.9160094472606559  0.4163686200464980  0.4160588655879636
  0.9994101016115593  0.1629966763219954  0.4984711586506094
  0.5791450834361314  0.9209905433240948  0.0814648956966053
  0.9190698556372752  0.9181156923949843  0.4144791893131554
  0.5876463671648864  0.5846499455339398  0.8330966809931866
  0.5015428457749209  0.3269178154641565  0.7530856065510889
  0.5839060261345992  0.0839462168524392  0.8339720511546957
  0.7481486331677729  0.5819549982577570  0.9958196856912664
  0.8316888336780579  0.3241228238182501  0.5796767203309159
  0.9169399018716078  0.0858659053855959  0.6689866424995756
  0.5055960364323084  0.8403744626507859  0.7527554063676405
  0.6660880252135328  0.3334788307501810  0.9126221868103102
  0.7454478921815593  0.0857603103778573  0.9965667129454019
  0.6623994304795673  0.8354188915560670  0.9150970951288357
  0.8348537043489799  0.6705523518686576  0.8362616585318037
  0.6611271283922520  0.6716519532162764  0.6661148262523255
  0.7505920450642805  0.4097136325334532  0.7503383746167032
  0.8321088836699388  0.1656035570323837  0.8337271299157720
  0.5036884492815261  0.6719202492933434  0.9977520862933531
  0.6674338489966019  0.1619037983596741  0.6687574779722425
  0.7519868223774324  0.9190157022722829  0.7535511388299838
  0.9108990843286264  0.4168452537164171  0.9148717051654458
  0.9954111511919876  0.1616474859889223  0.9983158887605867
  0.5823313849522833  0.9210956829659693  0.5822489034990568
  0.9150290774846255  0.9176432637137282  0.9138756445342864
  0.4039577045379161  0.5821615487066794  0.1743105714358890
  0.3254120777072913  0.8412756663519474  0.0875691216377419
  0.0472418561694425  0.4141592783923329  0.1006902003706003
  0.4073312060766838  0.5826136800435506  0.6716490346532851
  0.3296076476357612  0.8382430036298985  0.5840314134681108
  0.0801737023726474  0.4155883006815557  0.5853584468371977
  0.8976318534378294  0.5905313399381313  0.1764932420936844
  0.8252686993406897  0.8409749628566843  0.0833202064422096
  0.5794217202888490  0.4176360002339123  0.0840523991149880
  0.9048382935801627  0.5833799557624531  0.6723567448707470
  0.8290024866297045  0.8384470582802805  0.5837266900565368
  0.5814360241476990  0.4153998504351293  0.5842893208259099
  0.2202217974793399  0.5815467776848564  0.2662580675839976
  0.0365952403342007  0.5995232525818537  0.1026771454952495
  0.1347854452478714  0.3213525397538888  0.1964460240874715
  0.2132403133427445  0.0817999416852970  0.2726255524014221
  0.3816673081020880  0.5825047713361755  0.4367153113531188
  0.4429913533448584  0.3250135794381350  0.0140267932281120
  0.0415256510361601  0.0860244997500601  0.1033554321713623
  0.1334306426553979  0.8393908102896788  0.1852368845459367
  0.2974877879580831  0.3313321186746379  0.3537245938290283
  0.3782286618974453  0.0809716708285606  0.4358377767013124
  0.4631071671724314  0.8351834172872046  0.0151247762986841
  0.2949646336171057  0.8325131340653513  0.3557001550056995
  0.4709650748636918  0.6760821190746640  0.2794031625886007
  0.2737056158408535  0.6593314290175130  0.0973017544405437
  0.3804902174028868  0.3948017744193848  0.1894251946360725
  0.4637580075789884  0.1647935462431249  0.2730194061178040
  0.1329325897495508  0.6658842583851694  0.4346164521909444
  0.2908097357029007  0.1534351058254302  0.1048134736976962
  0.3841644004619127  0.9215209092311270  0.1990379414387107
  0.0469093854107072  0.4190925896874447  0.3531896686104545
  0.1280605030856776  0.1700343803482269  0.4355406646538640
  0.1979059759759920  0.9269609190564907  0.0126568949985852
  0.0483524009139913  0.9205855296482710  0.3532513253414464
  0.2173424655061922  0.5823384600407095  0.7670761141287770
  0.0411201122606357  0.5978606753766584  0.6017908137973720
  0.1309212268792166  0.3235325616127440  0.6974721306890856
  0.2112001775040540  0.0829620737671775  0.7722257276570303
  0.3776413980063964  0.5828089082326855  0.9357416157550844
  0.4529421881933189  0.3234927745638956  0.5131453738850951
  0.0430794708095874  0.0860314387478311  0.6038121481469076
  0.1318960653153667  0.8392811076141413  0.6859402657985925
  0.2935565272435952  0.3327470724105979  0.8533745400414787
  0.3753031748669500  0.0812175377253084  0.9355490597399410
  0.4700596195831110  0.8352708791408929  0.5136522072504519
  0.2916877085856768  0.8328731804827569  0.8551093797669012
  0.4685719363266756  0.6779926295889140  0.7789859487113731
  0.2779202662545259  0.6618793219953645  0.5977790619729362
  0.3780294925480945  0.3960251090291749  0.6858702518925313
  0.4615192579031060  0.1652611673609883  0.7724224239196218
  0.1255117375223094  0.6677549815647765  0.9330883827547893
  0.2193213832905414  0.4140412811508725  0.5151388671281438
  0.2925933251717581  0.1610230935193186  0.6029772371214932
  0.3833035687596507  0.9247372230911566  0.6964536104556558
  0.0408038315620303  0.4201011522123466  0.8512326292124897
  0.1250541618118248  0.1685020737542118  0.9355500433759616
  0.2003284364993547  0.9276339962110711  0.5130132629072719
  0.0435366796732879  0.9202267462671330  0.8523346147217836
  0.7235444167239251  0.5818108908665920  0.2645214942176821
  0.5379748168836755  0.5982554850495987  0.1018038345956498
  0.6338448987789391  0.3243927369308111  0.1937155545913285
  0.7128351189205375  0.0826662942526397  0.2711023313804759
  0.8817615618261314  0.5831059582015428  0.4368095749434957
  0.9496557020008751  0.3227497265685741  0.0106052112760580
  0.5399326238600182  0.0868343264610658  0.1036649429136673
  0.6316836275574786  0.8401260826010102  0.1854094272470022
  0.7990065078010602  0.3318287674224578  0.3505230929917147
  0.8780083268739247  0.0812241932230791  0.4355221908951847
  0.9656925974461785  0.8363258498335071  0.0137035258060010
  0.7947508340201495  0.8341733257170816  0.3547730164084371
  0.9715919366448560  0.6793727494401267  0.2810686635566455
  0.7736755883689881  0.6638877323888366  0.0955554253790112
  0.8888601583227285  0.3970349296496778  0.1799834658050301
  0.9630821320022349  0.1633622832775998  0.2725788785722116
  0.6332246971930147  0.6662100665204775  0.4331830613291388
  0.7154775959115227  0.4143417337257915  0.0129790257079065
  0.7909055546198616  0.1593510688398254  0.1020660331226750
  0.8840562371552494  0.9236170263193202  0.1960574118436327
  0.5476524508707925  0.4191731489641697  0.3528307352658899
  0.6286562900123940  0.1704048118481793  0.4348526535362254
  0.6955823902666722  0.9280580375426482  0.0118391394880106
  0.5480544546985584  0.9203347422902937  0.3532189906879353
  0.7174296645513607  0.5820230629409693  0.7668073868994938
  0.5421208465836713  0.5977604841432935  0.6007813435661831
  0.6308882674992660  0.3235193579873297  0.6951801770962618
  0.7113414752884424  0.0826511943810004  0.7714820296573350
  0.8783214876712861  0.5831963797398245  0.9362731653476288
  0.9528123911265283  0.3236716148265657  0.5127679826660412
  0.5430911913088536  0.0855973536319610  0.6034349937948349
  0.6319277510023298  0.8393176428693678  0.6857059806285264
  0.7942702498313849  0.3320004691635248  0.8515311112322266
  0.8748952581730194  0.0811516547744233  0.9351673011702388
  0.9697453419621169  0.8357240235132863  0.5136281732454293
  0.7921020601801771  0.8334109720871865  0.8544515951169487
  0.9678026103340756  0.6777141154170678  0.7794327134104080
  0.7770950230878455  0.6623168156685253  0.5970371498111220
  0.8759704538510178  0.3967628624414345  0.6840371392431877
  0.9610924121363382  0.1652453881713853  0.7724404582184690
  0.6286664858709656  0.6664548642967603  0.9336575202877029
  0.7200167062919078  0.4139521590192103  0.5130438424886776
  0.7925890145860990  0.1608527783360287  0.6024418513226095
  0.8832915531815289  0.9244571759529379  0.6960206636215247
  0.5419257146829395  0.4191665238806550  0.8528714147732330
  0.6246278951757915  0.1714138396078582  0.9352190259637823
  0.7000523264447551  0.9278047126353925  0.5125347816413850
  0.5447210555124329  0.9208978844783218  0.8531131545798303
 
  0.00000000E+00  0.00000000E+00  0.00000000E+00
  0.00000000E+00  0.00000000E+00  0.00000000E+00
  0.00000000E+00  0.00000000E+00  0.00000000E+00
  0.00000000E+00  0.00000000E+00  0.00000000E+00
  0.00000000E+00  0.00000000E+00  0.00000000E+00
  0.00000000E+00  0.00000000E+00  0.00000000E+00
  0.00000000E+00  0.00000000E+00  0.00000000E+00
  0.00000000E+00  0.00000000E+00  0.00000000E+00
  0.00000000E+00  0.00000000E+00  0.00000000E+00
  0.00000000E+00  0.00000000E+00  0.00000000E+00
  0.00000000E+00  0.00000000E+00  0.00000000E+00
  0.00000000E+00  0.00000000E+00  0.00000000E+00
  0.00000000E+00  0.00000000E+00  0.00000000E+00
  0.00000000E+00  0.00000000E+00  0.00000000E+00
  0.00000000E+00  0.00000000E+00  0.00000000E+00
  0.00000000E+00  0.00000000E+00  0.00000000E+00
  0.00000000E+00  0.00000000E+00  0.00000000E+00
  0.00000000E+00  0.00000000E+00  0.00000000E+00
  0.00000000E+00  0.00000000E+00  0.00000000E+00
  0.00000000E+00  0.00000000E+00  0.00000000E+00
  0.00000000E+00  0.00000000E+00  0.00000000E+00
  0.00000000E+00  0.00000000E+00  0.00000000E+00
  0.00000000E+00  0.00000000E+00  0.00000000E+00
  0.00000000E+00  0.00000000E+00  0.00000000E+00
  0.00000000E+00  0.00000000E+00  0.00000000E+00
  0.00000000E+00  0.00000000E+00  0.00000000E+00
  0.00000000E+00  0.00000000E+00  0.00000000E+00
  0.00000000E+00  0.00000000E+00  0.00000000E+00
  0.00000000E+00  0.00000000E+00  0.00000000E+00
  0.00000000E+00  0.00000000E+00  0.00000000E+00
  0.00000000E+00  0.00000000E+00  0.00000000E+00
  0.00000000E+00  0.00000000E+00  0.00000000E+00
  0.00000000E+00  0.00000000E+00  0.00000000E+00
  0.00000000E+00  0.00000000E+00  0.00000000E+00
  0.00000000E+00  0.00000000E+00  0.00000000E+00
  0.00000000E+00  0.00000000E+00  0.00000000E+00
  0.00000000E+00  0.00000000E+00  0.00000000E+00
  0.00000000E+00  0.00000000E+00  0.00000000E+00
  0.00000000E+00  0.00000000E+00  0.00000000E+00
  0.00000000E+00  0.00000000E+00  0.00000000E+00
  0.00000000E+00  0.00000000E+00  0.00000000E+00
  0.00000000E+00  0.00000000E+00  0.00000000E+00
  0.00000000E+00  0.00000000E+00  0.00000000E+00
  0.00000000E+00  0.00000000E+00  0.00000000E+00
  0.00000000E+00  0.00000000E+00  0.00000000E+00
  0.00000000E+00  0.00000000E+00  0.00000000E+00
  0.00000000E+00  0.00000000E+00  0.00000000E+00
  0.00000000E+00  0.00000000E+00  0.00000000E+00
  0.00000000E+00  0.00000000E+00  0.00000000E+00
  0.00000000E+00  0.00000000E+00  0.00000000E+00
  0.00000000E+00  0.00000000E+00  0.00000000E+00
  0.00000000E+00  0.00000000E+00  0.00000000E+00
  0.00000000E+00  0.00000000E+00  0.00000000E+00
  0.00000000E+00  0.00000000E+00  0.00000000E+00
  0.00000000E+00  0.00000000E+00  0.00000000E+00
  0.00000000E+00  0.00000000E+00  0.00000000E+00
  0.00000000E+00  0.00000000E+00  0.00000000E+00
  0.00000000E+00  0.00000000E+00  0.00000000E+00
  0.00000000E+00  0.00000000E+00  0.00000000E+00
  0.00000000E+00  0.00000000E+00  0.00000000E+00
  0.00000000E+00  0.00000000E+00  0.00000000E+00
  0.00000000E+00  0.00000000E+00  0.00000000E+00
  0.00000000E+00  0.00000000E+00  0.00000000E+00
  0.00000000E+00  0.00000000E+00  0.00000000E+00
  0.00000000E+00  0.00000000E+00  0.00000000E+00
  0.00000000E+00  0.00000000E+00  0.00000000E+00
  0.00000000E+00  0.00000000E+00  0.00000000E+00
  0.00000000E+00  0.00000000E+00  0.00000000E+00
  0.00000000E+00  0.00000000E+00  0.00000000E+00
  0.00000000E+00  0.00000000E+00  0.00000000E+00
  0.00000000E+00  0.00000000E+00  0.00000000E+00
  0.00000000E+00  0.00000000E+00  0.00000000E+00
  0.00000000E+00  0.00000000E+00  0.00000000E+00
  0.00000000E+00  0.00000000E+00  0.00000000E+00
  0.00000000E+00  0.00000000E+00  0.00000000E+00
  0.00000000E+00  0.00000000E+00  0.00000000E+00
  0.00000000E+00  0.00000000E+00  0.00000000E+00
  0.00000000E+00  0.00000000E+00  0.00000000E+00
  0.00000000E+00  0.00000000E+00  0.00000000E+00
  0.00000000E+00  0.00000000E+00  0.00000000E+00
  0.00000000E+00  0.00000000E+00  0.00000000E+00
  0.00000000E+00  0.00000000E+00  0.00000000E+00
  0.00000000E+00  0.00000000E+00  0.00000000E+00
  0.00000000E+00  0.00000000E+00  0.00000000E+00
  0.00000000E+00  0.00000000E+00  0.00000000E+00
  0.00000000E+00  0.00000000E+00  0.00000000E+00
  0.00000000E+00  0.00000000E+00  0.00000000E+00
  0.00000000E+00  0.00000000E+00  0.00000000E+00
  0.00000000E+00  0.00000000E+00  0.00000000E+00
  0.00000000E+00  0.00000000E+00  0.00000000E+00
  0.00000000E+00  0.00000000E+00  0.00000000E+00
  0.00000000E+00  0.00000000E+00  0.00000000E+00
  0.00000000E+00  0.00000000E+00  0.00000000E+00
  0.00000000E+00  0.00000000E+00  0.00000000E+00
  0.00000000E+00  0.00000000E+00  0.00000000E+00
  0.00000000E+00  0.00000000E+00  0.00000000E+00
  0.00000000E+00  0.00000000E+00  0.00000000E+00
  0.00000000E+00  0.00000000E+00  0.00000000E+00
  0.00000000E+00  0.00000000E+00  0.00000000E+00
  0.00000000E+00  0.00000000E+00  0.00000000E+00
  0.00000000E+00  0.00000000E+00  0.00000000E+00
  0.00000000E+00  0.00000000E+00  0.00000000E+00
  0.00000000E+00  0.00000000E+00  0.00000000E+00
  0.00000000E+00  0.00000000E+00  0.00000000E+00
  0.00000000E+00  0.00000000E+00  0.00000000E+00
  0.00000000E+00  0.00000000E+00  0.00000000E+00
  0.00000000E+00  0.00000000E+00  0.00000000E+00
  0.00000000E+00  0.00000000E+00  0.00000000E+00
  0.00000000E+00  0.00000000E+00  0.00000000E+00
  0.00000000E+00  0.00000000E+00  0.00000000E+00
  0.00000000E+00  0.00000000E+00  0.00000000E+00
  0.00000000E+00  0.00000000E+00  0.00000000E+00
  0.00000000E+00  0.00000000E+00  0.00000000E+00
  0.00000000E+00  0.00000000E+00  0.00000000E+00
  0.00000000E+00  0.00000000E+00  0.00000000E+00
  0.00000000E+00  0.00000000E+00  0.00000000E+00
  0.00000000E+00  0.00000000E+00  0.00000000E+00
  0.00000000E+00  0.00000000E+00  0.00000000E+00
  0.00000000E+00  0.00000000E+00  0.00000000E+00
  0.00000000E+00  0.00000000E+00  0.00000000E+00
  0.00000000E+00  0.00000000E+00  0.00000000E+00
  0.00000000E+00  0.00000000E+00  0.00000000E+00
  0.00000000E+00  0.00000000E+00  0.00000000E+00
  0.00000000E+00  0.00000000E+00  0.00000000E+00
  0.00000000E+00  0.00000000E+00  0.00000000E+00
  0.00000000E+00  0.00000000E+00  0.00000000E+00
  0.00000000E+00  0.00000000E+00  0.00000000E+00
  0.00000000E+00  0.00000000E+00  0.00000000E+00
  0.00000000E+00  0.00000000E+00  0.00000000E+00
  0.00000000E+00  0.00000000E+00  0.00000000E+00
  0.00000000E+00  0.00000000E+00  0.00000000E+00
  0.00000000E+00  0.00000000E+00  0.00000000E+00
  0.00000000E+00  0.00000000E+00  0.00000000E+00
  0.00000000E+00  0.00000000E+00  0.00000000E+00
  0.00000000E+00  0.00000000E+00  0.00000000E+00
  0.00000000E+00  0.00000000E+00  0.00000000E+00
  0.00000000E+00  0.00000000E+00  0.00000000E+00
  0.00000000E+00  0.00000000E+00  0.00000000E+00
  0.00000000E+00  0.00000000E+00  0.00000000E+00
  0.00000000E+00  0.00000000E+00  0.00000000E+00
  0.00000000E+00  0.00000000E+00  0.00000000E+00
  0.00000000E+00  0.00000000E+00  0.00000000E+00
  0.00000000E+00  0.00000000E+00  0.00000000E+00
  0.00000000E+00  0.00000000E+00  0.00000000E+00
  0.00000000E+00  0.00000000E+00  0.00000000E+00
  0.00000000E+00  0.00000000E+00  0.00000000E+00
  0.00000000E+00  0.00000000E+00  0.00000000E+00
  0.00000000E+00  0.00000000E+00  0.00000000E+00
  0.00000000E+00  0.00000000E+00  0.00000000E+00
  0.00000000E+00  0.00000000E+00  0.00000000E+00
  0.00000000E+00  0.00000000E+00  0.00000000E+00
  0.00000000E+00  0.00000000E+00  0.00000000E+00
  0.00000000E+00  0.00000000E+00  0.00000000E+00
  0.00000000E+00  0.00000000E+00  0.00000000E+00
  0.00000000E+00  0.00000000E+00  0.00000000E+00
  0.00000000E+00  0.00000000E+00  0.00000000E+00
  0.00000000E+00  0.00000000E+00  0.00000000E+00
  0.00000000E+00  0.00000000E+00  0.00000000E+00
  0.00000000E+00  0.00000000E+00  0.00000000E+00
  0.00000000E+00  0.00000000E+00  0.00000000E+00
  0.00000000E+00  0.00000000E+00  0.00000000E+00
  0.00000000E+00  0.00000000E+00  0.00000000E+00
  0.00000000E+00  0.00000000E+00  0.00000000E+00
  0.00000000E+00  0.00000000E+00  0.00000000E+00
  0.00000000E+00  0.00000000E+00  0.00000000E+00
  0.00000000E+00  0.00000000E+00  0.00000000E+00
  0.00000000E+00  0.00000000E+00  0.00000000E+00
  0.00000000E+00  0.00000000E+00  0.00000000E+00
  0.00000000E+00  0.00000000E+00  0.00000000E+00
  0.00000000E+00  0.00000000E+00  0.00000000E+00
  0.00000000E+00  0.00000000E+00  0.00000000E+00
  0.00000000E+00  0.00000000E+00  0.00000000E+00
  0.00000000E+00  0.00000000E+00  0.00000000E+00
  0.00000000E+00  0.00000000E+00  0.00000000E+00
  0.00000000E+00  0.00000000E+00  0.00000000E+00
  0.00000000E+00  0.00000000E+00  0.00000000E+00
  0.00000000E+00  0.00000000E+00  0.00000000E+00
  0.00000000E+00  0.00000000E+00  0.00000000E+00
  0.00000000E+00  0.00000000E+00  0.00000000E+00
  0.00000000E+00  0.00000000E+00  0.00000000E+00
  0.00000000E+00  0.00000000E+00  0.00000000E+00
  0.00000000E+00  0.00000000E+00  0.00000000E+00
  0.00000000E+00  0.00000000E+00  0.00000000E+00
  0.00000000E+00  0.00000000E+00  0.00000000E+00
  0.00000000E+00  0.00000000E+00  0.00000000E+00
  0.00000000E+00  0.00000000E+00  0.00000000E+00
  0.00000000E+00  0.00000000E+00  0.00000000E+00
  0.00000000E+00  0.00000000E+00  0.00000000E+00
  0.00000000E+00  0.00000000E+00  0.00000000E+00
  0.00000000E+00  0.00000000E+00  0.00000000E+00
  0.00000000E+00  0.00000000E+00  0.00000000E+00
