supercell of POSCAR                     
   1.01189200000000     
     3.1482772356600002   -5.4762754812200001    9.9674464565599994
    -9.4511209497999999   -5.4731922780100000    0.0032121685426600
     6.3112884282600001  -10.9581161277000003   -9.9749049577999997
   Al   Sc   N    O 
    84    12    95     1
Direct
  0.0882305697475516  0.5842589148383297  0.3344456398344846
  0.0010371947093049  0.3267145135932239  0.2541982124687792
  0.0846599510978834  0.0841121077012943  0.3345736569418349
  0.2496255215293957  0.5805956401303689  0.4971882523100817
  0.3348642313018289  0.3204732396854197  0.0827685539670568
  0.4171943656244252  0.0857442719524144  0.1698140582154295
  0.0056180078168566  0.8398408967894397  0.2532044751213078
  0.1672381306263162  0.3330466553611870  0.4147138945796911
  0.2478613574198718  0.0861627754981740  0.4974906065461653
  0.1637577667360048  0.8351186463886577  0.4163112557312729
  0.3364708315447729  0.6705472268810340  0.3376540833464219
  0.1597660448422928  0.6699293098990395  0.1671484473930249
  0.2511755219742113  0.4088481750263853  0.2518135646209529
  0.3337701852790076  0.1654565286254268  0.3342113182383102
  0.0026043541977998  0.6702757630756153  0.4973051473446404
  0.1661294716083930  0.1606355244904591  0.1690163742148201
  0.2523246366083072  0.9186476028262618  0.2542544301207030
  0.4144476256580418  0.4160069382407556  0.4155253427130958
  0.4985563303903078  0.1633088950091448  0.4979141106012648
  0.0806270554078807  0.9205053577384206  0.0817301990441592
  0.4181018243664880  0.9181493408108850  0.4142915793626898
  0.0881185291530997  0.5844346816810528  0.8333528447975667
  0.0010440902506943  0.3265526157959826  0.7535132075898048
  0.0843285939926517  0.0837079718860352  0.8341715986103964
  0.2507103077273811  0.5855564385539012  0.9958128592207416
  0.3310277367633958  0.3242374368061149  0.5803083853900119
  0.4173245280102265  0.0864440562462363  0.6693068151528294
  0.0056056027811593  0.8399134593160227  0.7530179929476901
  0.1656007109748288  0.3301238049532529  0.9105427895101315
  0.2477422286956354  0.0848633149844886  0.9973175280153299
  0.1633308477213973  0.8349883198387076  0.9161309447497530
  0.3361857907661658  0.6701586367531860  0.8364085217746720
  0.1606735250978844  0.6712450704724375  0.6661572317302813
  0.2522778868541806  0.4089894948532518  0.7507038456003770
  0.3340767229028216  0.1649082559599577  0.8338327084541461
  0.0008609653780169  0.6698845198092229  0.9973912552004478
  0.1673336868444650  0.1614226346128618  0.6686714833846281
  0.2524620153613881  0.9187237183340287  0.7539188295383852
  0.4165352481559310  0.4156759108998571  0.9140428552013660
  0.4979693928175521  0.1628616739668587  0.9975807574500095
  0.0813913817250338  0.9212357535334519  0.5815041729600097
  0.4175452439650158  0.9174585851067363  0.9142380028735602
  0.5887177103519932  0.5844496174670937  0.3340452020126250
  0.5016166248199738  0.3266145567621734  0.2538436587046533
  0.5847933855921923  0.0843467398215694  0.3343264016669494
  0.7498070029842481  0.5808279736203232  0.4968588996252592
  0.8302034525411983  0.3239671228509451  0.0802757828985818
  0.9168042289605154  0.0862352194793914  0.1696233495765966
  0.5057844354165795  0.8400491091270084  0.2532234031861620
  0.6674388364360127  0.3332702860807331  0.4141050453006159
  0.7478658070503741  0.0863323599916583  0.4972695985302735
  0.6638046829301132  0.8352945787647101  0.4160927447128770
  0.8365835117959222  0.6706438451158689  0.3373681774019275
  0.6603383730668568  0.6713090989841604  0.1663286565664279
  0.7519936730130894  0.4086534921411555  0.2508326524934219
  0.8338712368428531  0.1655123683588116  0.3339899313867392
  0.5027062466752099  0.6702085184102273  0.4971386699699138
  0.6669725550713537  0.1614252724038820  0.1685055016683350
  0.7524813148222833  0.9189668773596082  0.2539904194023279
  0.9144980517084633  0.4160120125246465  0.4154867151863826
  0.9985303210241341  0.1632511730296784  0.4979757089530281
  0.5803162325489737  0.9210740604776291  0.0814745937946313
  0.9180754019804098  0.9181454769268029  0.4141948569432614
  0.5888107184570330  0.5845342177669437  0.8334534888999414
  0.5019968450582510  0.3265933709830051  0.7530659282054160
  0.5844285972951724  0.0840921049017851  0.8341322712316313
  0.7490295877941051  0.5808027629593653  0.9967908123401514
  0.8311214669506413  0.3243146983561047  0.5801390021383668
  0.9173689954330086  0.0864200505885364  0.6693418458878142
  0.5056005791505527  0.8398991055990095  0.7529814266446451
  0.6677361508191240  0.3329367920235811  0.9137718020825432
  0.7469733782987618  0.0860752731221055  0.9972586677014448
  0.6632923808627567  0.8351126875128827  0.9158988202516554
  0.8360777384096920  0.6704502062132178  0.8369274725554376
  0.6608155613300895  0.6712886092581485  0.6660152751084780
  0.7522221357185543  0.4086799175831146  0.7507057069208969
  0.8336342512345496  0.1651873967876938  0.8337955687763099
  0.5025393131941129  0.6700353181409824  0.9974035284941607
  0.6674608576013412  0.1613383360462777  0.6684175956802392
  0.7524049110087887  0.9188570372652265  0.7538274079940592
  0.9134303388933418  0.4161753491349316  0.9155191951720028
  0.9974477572068707  0.1623727902060992  0.9983918727197576
  0.5813689854373081  0.9212185708284935  0.5813953361751771
  0.9173401452005550  0.9177284421225522  0.9142381076787345
  0.4054009172036217  0.5823999280967769  0.1744139140840062
  0.3270004985707615  0.8367501828143702  0.0848354370953857
  0.0757123373483708  0.4149588340137953  0.0864218923566824
  0.4054539187864421  0.5827429749528505  0.6730436062901290
  0.3283160879978766  0.8384979628923759  0.5840912035571151
  0.0786603485161166  0.4151719328364223  0.5854010855498828
  0.9035114520425012  0.5833430241805218  0.1739206052317144
  0.8269791875202444  0.8388972358084104  0.0840707129038307
  0.5788574339268706  0.4154528512162514  0.0845728659915963
  0.9048637202529548  0.5832241218782457  0.6731677945559298
  0.8282303631548373  0.8388439073445255  0.5839606433755478
  0.5791202420475869  0.4152095371129505  0.5847714072758521
  0.2188324020758401  0.5818075810012289  0.2670030864964943
  0.0398968171293106  0.5965625343223167  0.1015934390529694
  0.1312461683689747  0.3235551414441602  0.1945636317594150
  0.2120235242834809  0.0825905410919532  0.2712597784680497
  0.3798676770004974  0.5830539107120103  0.4368543026147691
  0.4483984228563003  0.3243652608611356  0.0123015649599054
  0.0417582872376414  0.0852099367674626  0.1034141871216505
  0.1323831943269269  0.8383747914134005  0.1852956430801171
  0.2955486618064072  0.3315906027213771  0.3523576890634104
  0.3768528907009809  0.0814059019265301  0.4353979121236904
  0.4661023019793831  0.8349917929139323  0.0141746419315467
  0.2936237605424452  0.8337151301454284  0.3548268867919830
  0.4692647887857220  0.6781681784535749  0.2799724817424121
  0.2757210680938940  0.6575189000078367  0.0974109803646712
  0.3767267207097831  0.3953788049219185  0.1847418277776782
  0.4617059817734983  0.1647828984890438  0.2721241437362636
  0.1311091878399679  0.6662274158146673  0.4343925725134454
  0.2904318399480843  0.1609099689214943  0.1021366236127079
  0.3831795476961233  0.9238845122932560  0.1960100011464974
  0.0447360269373647  0.4188548021286067  0.3521515599633318
  0.1270053346141324  0.1697434378521763  0.4350904273951386
  0.1991631494601123  0.9265048905421338  0.0130385656454948
  0.0468716326438283  0.9206569095017656  0.3527959828270610
  0.2183128136460866  0.5818708038272646  0.7671422079931105
  0.0402774976631548  0.5983005853958048  0.6018342495446234
  0.1315373381605696  0.3231929169626966  0.6961629552949091
  0.2119406731363611  0.0826609579882387  0.7718848953396460
  0.3786771639496180  0.5812590656336027  0.9368419809152329
  0.4511851073727300  0.3238097892875373  0.5127027982663321
  0.0422634399748318  0.0857789419302719  0.6035642984125147
  0.1319743095524970  0.8393009977786932  0.6858179797256128
  0.2952833687934984  0.3323889577980239  0.8534245140025618
  0.3762669759555379  0.0810516382926494  0.9354597111692087
  0.4677339562845475  0.8356782575505832  0.5137803130240925
  0.2930064588044843  0.8328879343131419  0.8550694321011605
  0.4689537216992221  0.6777096047709463  0.7800515771832224
  0.2770553612697597  0.6615177526943583  0.5976365800153118
  0.3781721376632063  0.3956110653857010  0.6855970508348506
  0.4617541989156067  0.1650200012521879  0.7725104549917461
  0.1301462341339530  0.6644171106955667  0.9347332501107530
  0.2170345277243015  0.4138585842432434  0.5145317496145836
  0.2918850371879600  0.1606755681505305  0.6026656131690942
  0.3834906093501331  0.9243834057427023  0.6965553599548642
  0.0449814483833180  0.4189990202308138  0.8536057975877043
  0.1269683980069445  0.1705943914429824  0.9360455641841696
  0.1994838411086448  0.9273389523169726  0.5127991189368899
  0.0464530177521993  0.9205154994012119  0.8533528658713081
  0.7192110059723831  0.5821281054092466  0.2664461171810757
  0.5396587935037545  0.5978803793012304  0.1018480107562141
  0.6310656416907321  0.3236880115055527  0.1947258170669812
  0.7120525046616351  0.0828615184388255  0.2711014667065186
  0.8800815409499378  0.5832074548891484  0.4366498368510108
  0.9518004182373900  0.3239397881374515  0.0129051674216498
  0.5412100092884842  0.0861046194439226  0.1031737775410662
  0.6317941980148021  0.8394722139387696  0.1853583798892018
  0.7958637184693416  0.3318246121009523  0.3519322643041178
  0.8769183900999806  0.0814648000056479  0.4352843343402100
  0.9671198621665624  0.8351916952534140  0.0139638025383775
  0.7936655312422261  0.8338100795906769  0.3546730499926980
  0.9695409175437106  0.6778975507546434  0.2797543865679089
  0.7763143665416834  0.6616747685470799  0.0970720808787320
  0.8789899523733027  0.3957587839993693  0.1845594195854261
  0.9621884728967984  0.1646472703098496  0.2722294067026709
  0.6311448647200493  0.6663160592653483  0.4340973489841318
  0.7170296324585195  0.4136451037837574  0.0138915190488973
  0.7916217161218952  0.1605085510445150  0.1022450243951170
  0.8836336755426046  0.9240385819230070  0.1961808412723443
  0.5442867505730931  0.4191765705708761  0.3518147184410481
  0.6269617456184946  0.1700793472877038  0.4348847551790982
  0.6981356216877188  0.9274772281370360  0.0124995373045138
  0.5466896316617706  0.9209629389565634  0.3527694016550598
  0.7187777883459319  0.5820711148859559  0.7667949257356170
  0.5405160904366113  0.5981829706251247  0.6016182443939044
  0.6318054719899280  0.3232098032337447  0.6952173202495473
  0.7118847941940274  0.0825970052704292  0.7714847494160537
  0.8792262337290779  0.5829618970695165  0.9366538840413838
  0.9513795750384162  0.3238232868372606  0.5126797056041141
  0.5421679406752489  0.0857122857777597  0.6034330059004560
  0.6319180239965405  0.8392591663959266  0.6856522498415174
  0.7959942229288686  0.3315752246814228  0.8522172792022076
  0.8764076649350443  0.0812627490868678  0.9355178361342595
  0.9677599084636057  0.8358411323916144  0.5137926876537904
  0.7932213072350009  0.8335233689019361  0.8548777138653776
  0.9691765509557442  0.6778760073772432  0.7801488439232855
  0.7769976055614976  0.6618469470659960  0.5972426929062280
  0.8786103640802949  0.3959516597645418  0.6853558506466513
  0.9620673415870016  0.1646439870612824  0.7727334848403160
  0.6300941535696509  0.6659939544354003  0.9341732377323098
  0.7174077975105391  0.4139840978518734  0.5139948280225326
  0.7921114900007566  0.1606838682520433  0.6024906437672968
  0.8836717123151914  0.9243492764970398  0.6965353255960878
  0.5449966657814898  0.4189300437790848  0.8519575337880383
  0.6261958735605688  0.1703316470277443  0.9350600596878778
  0.6993669757430894  0.9275502565983231  0.5125958519218727
  0.5460990721523089  0.9206672389963089  0.8530302086992307
  0.2167777628979195  0.4129706131656548  0.0133839729631546
 
  0.00000000E+00  0.00000000E+00  0.00000000E+00
  0.00000000E+00  0.00000000E+00  0.00000000E+00
  0.00000000E+00  0.00000000E+00  0.00000000E+00
  0.00000000E+00  0.00000000E+00  0.00000000E+00
  0.00000000E+00  0.00000000E+00  0.00000000E+00
  0.00000000E+00  0.00000000E+00  0.00000000E+00
  0.00000000E+00  0.00000000E+00  0.00000000E+00
  0.00000000E+00  0.00000000E+00  0.00000000E+00
  0.00000000E+00  0.00000000E+00  0.00000000E+00
  0.00000000E+00  0.00000000E+00  0.00000000E+00
  0.00000000E+00  0.00000000E+00  0.00000000E+00
  0.00000000E+00  0.00000000E+00  0.00000000E+00
  0.00000000E+00  0.00000000E+00  0.00000000E+00
  0.00000000E+00  0.00000000E+00  0.00000000E+00
  0.00000000E+00  0.00000000E+00  0.00000000E+00
  0.00000000E+00  0.00000000E+00  0.00000000E+00
  0.00000000E+00  0.00000000E+00  0.00000000E+00
  0.00000000E+00  0.00000000E+00  0.00000000E+00
  0.00000000E+00  0.00000000E+00  0.00000000E+00
  0.00000000E+00  0.00000000E+00  0.00000000E+00
  0.00000000E+00  0.00000000E+00  0.00000000E+00
  0.00000000E+00  0.00000000E+00  0.00000000E+00
  0.00000000E+00  0.00000000E+00  0.00000000E+00
  0.00000000E+00  0.00000000E+00  0.00000000E+00
  0.00000000E+00  0.00000000E+00  0.00000000E+00
  0.00000000E+00  0.00000000E+00  0.00000000E+00
  0.00000000E+00  0.00000000E+00  0.00000000E+00
  0.00000000E+00  0.00000000E+00  0.00000000E+00
  0.00000000E+00  0.00000000E+00  0.00000000E+00
  0.00000000E+00  0.00000000E+00  0.00000000E+00
  0.00000000E+00  0.00000000E+00  0.00000000E+00
  0.00000000E+00  0.00000000E+00  0.00000000E+00
  0.00000000E+00  0.00000000E+00  0.00000000E+00
  0.00000000E+00  0.00000000E+00  0.00000000E+00
  0.00000000E+00  0.00000000E+00  0.00000000E+00
  0.00000000E+00  0.00000000E+00  0.00000000E+00
  0.00000000E+00  0.00000000E+00  0.00000000E+00
  0.00000000E+00  0.00000000E+00  0.00000000E+00
  0.00000000E+00  0.00000000E+00  0.00000000E+00
  0.00000000E+00  0.00000000E+00  0.00000000E+00
  0.00000000E+00  0.00000000E+00  0.00000000E+00
  0.00000000E+00  0.00000000E+00  0.00000000E+00
  0.00000000E+00  0.00000000E+00  0.00000000E+00
  0.00000000E+00  0.00000000E+00  0.00000000E+00
  0.00000000E+00  0.00000000E+00  0.00000000E+00
  0.00000000E+00  0.00000000E+00  0.00000000E+00
  0.00000000E+00  0.00000000E+00  0.00000000E+00
  0.00000000E+00  0.00000000E+00  0.00000000E+00
  0.00000000E+00  0.00000000E+00  0.00000000E+00
  0.00000000E+00  0.00000000E+00  0.00000000E+00
  0.00000000E+00  0.00000000E+00  0.00000000E+00
  0.00000000E+00  0.00000000E+00  0.00000000E+00
  0.00000000E+00  0.00000000E+00  0.00000000E+00
  0.00000000E+00  0.00000000E+00  0.00000000E+00
  0.00000000E+00  0.00000000E+00  0.00000000E+00
  0.00000000E+00  0.00000000E+00  0.00000000E+00
  0.00000000E+00  0.00000000E+00  0.00000000E+00
  0.00000000E+00  0.00000000E+00  0.00000000E+00
  0.00000000E+00  0.00000000E+00  0.00000000E+00
  0.00000000E+00  0.00000000E+00  0.00000000E+00
  0.00000000E+00  0.00000000E+00  0.00000000E+00
  0.00000000E+00  0.00000000E+00  0.00000000E+00
  0.00000000E+00  0.00000000E+00  0.00000000E+00
  0.00000000E+00  0.00000000E+00  0.00000000E+00
  0.00000000E+00  0.00000000E+00  0.00000000E+00
  0.00000000E+00  0.00000000E+00  0.00000000E+00
  0.00000000E+00  0.00000000E+00  0.00000000E+00
  0.00000000E+00  0.00000000E+00  0.00000000E+00
  0.00000000E+00  0.00000000E+00  0.00000000E+00
  0.00000000E+00  0.00000000E+00  0.00000000E+00
  0.00000000E+00  0.00000000E+00  0.00000000E+00
  0.00000000E+00  0.00000000E+00  0.00000000E+00
  0.00000000E+00  0.00000000E+00  0.00000000E+00
  0.00000000E+00  0.00000000E+00  0.00000000E+00
  0.00000000E+00  0.00000000E+00  0.00000000E+00
  0.00000000E+00  0.00000000E+00  0.00000000E+00
  0.00000000E+00  0.00000000E+00  0.00000000E+00
  0.00000000E+00  0.00000000E+00  0.00000000E+00
  0.00000000E+00  0.00000000E+00  0.00000000E+00
  0.00000000E+00  0.00000000E+00  0.00000000E+00
  0.00000000E+00  0.00000000E+00  0.00000000E+00
  0.00000000E+00  0.00000000E+00  0.00000000E+00
  0.00000000E+00  0.00000000E+00  0.00000000E+00
  0.00000000E+00  0.00000000E+00  0.00000000E+00
  0.00000000E+00  0.00000000E+00  0.00000000E+00
  0.00000000E+00  0.00000000E+00  0.00000000E+00
  0.00000000E+00  0.00000000E+00  0.00000000E+00
  0.00000000E+00  0.00000000E+00  0.00000000E+00
  0.00000000E+00  0.00000000E+00  0.00000000E+00
  0.00000000E+00  0.00000000E+00  0.00000000E+00
  0.00000000E+00  0.00000000E+00  0.00000000E+00
  0.00000000E+00  0.00000000E+00  0.00000000E+00
  0.00000000E+00  0.00000000E+00  0.00000000E+00
  0.00000000E+00  0.00000000E+00  0.00000000E+00
  0.00000000E+00  0.00000000E+00  0.00000000E+00
  0.00000000E+00  0.00000000E+00  0.00000000E+00
  0.00000000E+00  0.00000000E+00  0.00000000E+00
  0.00000000E+00  0.00000000E+00  0.00000000E+00
  0.00000000E+00  0.00000000E+00  0.00000000E+00
  0.00000000E+00  0.00000000E+00  0.00000000E+00
  0.00000000E+00  0.00000000E+00  0.00000000E+00
  0.00000000E+00  0.00000000E+00  0.00000000E+00
  0.00000000E+00  0.00000000E+00  0.00000000E+00
  0.00000000E+00  0.00000000E+00  0.00000000E+00
  0.00000000E+00  0.00000000E+00  0.00000000E+00
  0.00000000E+00  0.00000000E+00  0.00000000E+00
  0.00000000E+00  0.00000000E+00  0.00000000E+00
  0.00000000E+00  0.00000000E+00  0.00000000E+00
  0.00000000E+00  0.00000000E+00  0.00000000E+00
  0.00000000E+00  0.00000000E+00  0.00000000E+00
  0.00000000E+00  0.00000000E+00  0.00000000E+00
  0.00000000E+00  0.00000000E+00  0.00000000E+00
  0.00000000E+00  0.00000000E+00  0.00000000E+00
  0.00000000E+00  0.00000000E+00  0.00000000E+00
  0.00000000E+00  0.00000000E+00  0.00000000E+00
  0.00000000E+00  0.00000000E+00  0.00000000E+00
  0.00000000E+00  0.00000000E+00  0.00000000E+00
  0.00000000E+00  0.00000000E+00  0.00000000E+00
  0.00000000E+00  0.00000000E+00  0.00000000E+00
  0.00000000E+00  0.00000000E+00  0.00000000E+00
  0.00000000E+00  0.00000000E+00  0.00000000E+00
  0.00000000E+00  0.00000000E+00  0.00000000E+00
  0.00000000E+00  0.00000000E+00  0.00000000E+00
  0.00000000E+00  0.00000000E+00  0.00000000E+00
  0.00000000E+00  0.00000000E+00  0.00000000E+00
  0.00000000E+00  0.00000000E+00  0.00000000E+00
  0.00000000E+00  0.00000000E+00  0.00000000E+00
  0.00000000E+00  0.00000000E+00  0.00000000E+00
  0.00000000E+00  0.00000000E+00  0.00000000E+00
  0.00000000E+00  0.00000000E+00  0.00000000E+00
  0.00000000E+00  0.00000000E+00  0.00000000E+00
  0.00000000E+00  0.00000000E+00  0.00000000E+00
  0.00000000E+00  0.00000000E+00  0.00000000E+00
  0.00000000E+00  0.00000000E+00  0.00000000E+00
  0.00000000E+00  0.00000000E+00  0.00000000E+00
  0.00000000E+00  0.00000000E+00  0.00000000E+00
  0.00000000E+00  0.00000000E+00  0.00000000E+00
  0.00000000E+00  0.00000000E+00  0.00000000E+00
  0.00000000E+00  0.00000000E+00  0.00000000E+00
  0.00000000E+00  0.00000000E+00  0.00000000E+00
  0.00000000E+00  0.00000000E+00  0.00000000E+00
  0.00000000E+00  0.00000000E+00  0.00000000E+00
  0.00000000E+00  0.00000000E+00  0.00000000E+00
  0.00000000E+00  0.00000000E+00  0.00000000E+00
  0.00000000E+00  0.00000000E+00  0.00000000E+00
  0.00000000E+00  0.00000000E+00  0.00000000E+00
  0.00000000E+00  0.00000000E+00  0.00000000E+00
  0.00000000E+00  0.00000000E+00  0.00000000E+00
  0.00000000E+00  0.00000000E+00  0.00000000E+00
  0.00000000E+00  0.00000000E+00  0.00000000E+00
  0.00000000E+00  0.00000000E+00  0.00000000E+00
  0.00000000E+00  0.00000000E+00  0.00000000E+00
  0.00000000E+00  0.00000000E+00  0.00000000E+00
  0.00000000E+00  0.00000000E+00  0.00000000E+00
  0.00000000E+00  0.00000000E+00  0.00000000E+00
  0.00000000E+00  0.00000000E+00  0.00000000E+00
  0.00000000E+00  0.00000000E+00  0.00000000E+00
  0.00000000E+00  0.00000000E+00  0.00000000E+00
  0.00000000E+00  0.00000000E+00  0.00000000E+00
  0.00000000E+00  0.00000000E+00  0.00000000E+00
  0.00000000E+00  0.00000000E+00  0.00000000E+00
  0.00000000E+00  0.00000000E+00  0.00000000E+00
  0.00000000E+00  0.00000000E+00  0.00000000E+00
  0.00000000E+00  0.00000000E+00  0.00000000E+00
  0.00000000E+00  0.00000000E+00  0.00000000E+00
  0.00000000E+00  0.00000000E+00  0.00000000E+00
  0.00000000E+00  0.00000000E+00  0.00000000E+00
  0.00000000E+00  0.00000000E+00  0.00000000E+00
  0.00000000E+00  0.00000000E+00  0.00000000E+00
  0.00000000E+00  0.00000000E+00  0.00000000E+00
  0.00000000E+00  0.00000000E+00  0.00000000E+00
  0.00000000E+00  0.00000000E+00  0.00000000E+00
  0.00000000E+00  0.00000000E+00  0.00000000E+00
  0.00000000E+00  0.00000000E+00  0.00000000E+00
  0.00000000E+00  0.00000000E+00  0.00000000E+00
  0.00000000E+00  0.00000000E+00  0.00000000E+00
  0.00000000E+00  0.00000000E+00  0.00000000E+00
  0.00000000E+00  0.00000000E+00  0.00000000E+00
  0.00000000E+00  0.00000000E+00  0.00000000E+00
  0.00000000E+00  0.00000000E+00  0.00000000E+00
  0.00000000E+00  0.00000000E+00  0.00000000E+00
  0.00000000E+00  0.00000000E+00  0.00000000E+00
  0.00000000E+00  0.00000000E+00  0.00000000E+00
  0.00000000E+00  0.00000000E+00  0.00000000E+00
  0.00000000E+00  0.00000000E+00  0.00000000E+00
  0.00000000E+00  0.00000000E+00  0.00000000E+00
  0.00000000E+00  0.00000000E+00  0.00000000E+00
  0.00000000E+00  0.00000000E+00  0.00000000E+00
  0.00000000E+00  0.00000000E+00  0.00000000E+00
  0.00000000E+00  0.00000000E+00  0.00000000E+00
  0.00000000E+00  0.00000000E+00  0.00000000E+00
  0.00000000E+00  0.00000000E+00  0.00000000E+00
