supercell of POSCAR                     
   1.01189200000000     
     3.1482772356600002   -5.4762754812200001    9.9674464565599994
    -9.4511209497999999   -5.4731922780100000    0.0032121685426600
     6.3112884282600001  -10.9581161277000003   -9.9749049577999997
   Al   Sc   N    O 
    84    12    95     1
Direct
  0.0891994156351785  0.5838005378116833  0.3337619734734076
  0.0019397155996970  0.3271310151324656  0.2538194633566349
  0.0850666072124042  0.0845974126767786  0.3341842255895102
  0.2497390145091103  0.5805091646652372  0.4969321337863732
  0.3301209824877134  0.3258857455974393  0.0805103128281814
  0.4178997541335363  0.0904242365489054  0.1690141314066125
  0.0065692583750661  0.8401896383657217  0.2528086179800866
  0.1677701348457816  0.3333823495814698  0.4141235310720859
  0.2482072165513856  0.0859860209760654  0.4971901941637427
  0.1643393577938781  0.8351169386267188  0.4158949679749639
  0.3378887609339856  0.6713549686778677  0.3372815254660537
  0.1564083591527563  0.6696294768465947  0.1678894053975100
  0.2536386935447581  0.4089278676800348  0.2500357372203439
  0.3343612074899127  0.1660712548793839  0.3336531466637567
  0.0028737714108331  0.6699631288933716  0.4971716065012686
  0.1677438683487154  0.1613753653151662  0.1684634968560630
  0.2543564552910240  0.9192705690472494  0.2540093367243159
  0.4150253761586171  0.4163252337686103  0.4153317600365725
  0.4987240633831931  0.1633554475392742  0.4978405545694073
  0.0817959743119019  0.9208021770057044  0.0809012254228563
  0.4189686833300073  0.9183221257858065  0.4138399519356426
  0.0872044700587651  0.5836351453112130  0.8331341125588168
  0.0011637551828585  0.3265772156826756  0.7536574899075674
  0.0845564766145159  0.0836354505848078  0.8343708931478560
  0.2447979092975245  0.5757816253106753  0.9921430333913293
  0.3307226972038890  0.3241861365028882  0.5802421616150895
  0.4173475538707763  0.0863465278866755  0.6692256074053660
  0.0057892970886186  0.8396236495365343  0.7532423628488729
  0.1662218958466326  0.3312087358092057  0.9142357323067074
  0.2481903483228152  0.0839549802299544  0.9984345407732889
  0.1642902299760607  0.8351942140180029  0.9170004396637239
  0.3358435809487617  0.6706356869099181  0.8369744121912674
  0.1606774470367895  0.6708656991052209  0.6665017786540588
  0.2517109111757705  0.4084030316510265  0.7511517578768334
  0.3335238606921536  0.1650095371195448  0.8342068247540624
  0.0003723362589341  0.6699184475672553  0.9971651158492492
  0.1674126341406605  0.1610075136847300  0.6684740119470050
  0.2525880987815441  0.9184885467691899  0.7538825405619747
  0.4141135425162332  0.4157954818338112  0.9152019450294588
  0.4979412098389489  0.1638385392057984  0.9979175553911688
  0.0813829239148731  0.9210740158040096  0.5815287146999637
  0.4169386968977520  0.9177858100491676  0.9153330672438358
  0.5908500097476477  0.5830062779688134  0.3349597209120674
  0.5015397623813840  0.3298973197351955  0.2535629781629183
  0.5845706416030225  0.0847045891546259  0.3337555214635444
  0.7503432199024616  0.5804815890410708  0.4973492152341450
  0.8292897233414322  0.3241567125591800  0.0801672091595762
  0.9177133492514002  0.0865560860571790  0.1692704072698561
  0.5033621176757848  0.8386449017974584  0.2515112378723785
  0.6676689577261143  0.3326504787062490  0.4145684768553153
  0.7480583425939429  0.0856606652500318  0.4973090274161365
  0.6637436234140353  0.8349359782666141  0.4155327699741846
  0.8372888374311955  0.6705443496996963  0.3371253409232295
  0.6598476205852108  0.6717170760218707  0.1665410811999166
  0.7525569297051433  0.4083312624052908  0.2511274613373331
  0.8341061926162681  0.1654174323654800  0.3339493341013693
  0.5029742677823492  0.6699014625215938  0.4970859353172443
  0.6674956463006794  0.1619111657305297  0.1684820272806533
  0.7525372637486214  0.9189637098115782  0.2538972555166836
  0.9148452908264915  0.4160153339886463  0.4153998174400542
  0.9987550669859715  0.1632937751284516  0.4979213583867335
  0.5802765224838780  0.9216953913100525  0.0817649744632334
  0.9183653974529378  0.9180319515988913  0.4141218867201459
  0.5881247651881267  0.5838848333200914  0.8336039696271840
  0.5011233238855155  0.3269053107649285  0.7536539872984562
  0.5841978594024155  0.0841115159010002  0.8343471336403425
  0.7481903026865240  0.5801870302398839  0.9970399537455563
  0.8307946368905448  0.3239096258304599  0.5803669791795656
  0.9174134398381071  0.0862378184227666  0.6693183381306085
  0.5055580940700892  0.8398592892474070  0.7532481240071931
  0.6663353755815962  0.3332344495944426  0.9147709714178163
  0.7472118100446394  0.0859362188389738  0.9974293014681095
  0.6632808792263347  0.8352026546352960  0.9159858383750645
  0.8354765271811928  0.6700793935191101  0.8370315902632086
  0.6607225650621515  0.6708181334090426  0.6666000971448298
  0.7516156133785330  0.4082682825173691  0.7511806524622955
  0.8333536600541507  0.1651765411841239  0.8341068251414185
  0.5026076102645476  0.6710831318934822  0.9972116567448523
  0.6672450258231848  0.1610141283796693  0.6684708869186551
  0.7525706551659468  0.9185315879714224  0.7538201831328593
  0.9136769151186783  0.4156257939491965  0.9151894734321999
  0.9980192690126302  0.1627006682480783  0.9979970231585114
  0.5814229910448532  0.9210061199905510  0.5814113447817633
  0.9176610244780790  0.9177702263996395  0.9143440298776540
  0.4038462636516940  0.5933597987657322  0.1750253188206585
  0.3310592830254251  0.8327272449710392  0.0908558314867633
  0.0762588192920930  0.4142921774526727  0.0857731251000118
  0.4050543401816995  0.5825712340728515  0.6739772885861939
  0.3284774360603393  0.8382511398479480  0.5839995238610385
  0.0786536210887405  0.4151582659036279  0.5853141138935314
  0.9029819684371532  0.5826390002355595  0.1743430883279942
  0.8270784065717010  0.8387317984586034  0.0845551477490218
  0.5754797008629495  0.4167036580542600  0.0863241529957079
  0.9051626216206614  0.5821079144051780  0.6740102485660699
  0.8282646981895283  0.8381693477221503  0.5841841835803478
  0.5786348314451715  0.4152630376986366  0.5852388091287963
  0.2203591994597360  0.5825535534360355  0.2653857627622287
  0.0383753169471959  0.5981464548725413  0.1018131825550341
  0.1319267507417834  0.3230958711028720  0.1955096634763720
  0.2120104257213100  0.0828189654340079  0.2714966572885444
  0.3797156259800474  0.5831606002757539  0.4369995144548326
  0.4499376258443633  0.3240794373551026  0.0123877898087343
  0.0425178052261685  0.0853441032529645  0.1033359851463800
  0.1343071596817609  0.8381988914074157  0.1845205807615145
  0.2960470252578986  0.3322734880227074  0.3520454206876522
  0.3771522431556278  0.0815482425231480  0.4351626404685689
  0.4662273401241777  0.8357153466755136  0.0146994530018105
  0.2941913576866568  0.8342158780706583  0.3550359573213129
  0.4731120364505301  0.6769815191868105  0.2837905249205335
  0.3788870608598955  0.3994513540907718  0.1841687545871551
  0.4626465980273267  0.1676619571190514  0.2724464164885489
  0.1313058928722413  0.6662423216233151  0.4340161940066096
  0.2145374139669798  0.4127232697716963  0.0141472591577099
  0.2917253719183535  0.1622829678696718  0.1022482712142150
  0.3846340054448305  0.9317291141023460  0.1973542719199060
  0.0448530230716102  0.4190290701305912  0.3524091796725273
  0.1272364596240791  0.1698958526348378  0.4350770644466735
  0.2011513861965923  0.9244011144679263  0.0141951084831149
  0.0472415853791688  0.9208958184221672  0.3527224829870548
  0.2183774710700135  0.5817401545523850  0.7670465005082647
  0.0401340191843715  0.5982628178551650  0.6017703386008293
  0.1312678774182956  0.3225970163481335  0.6954227155683981
  0.2119025270639980  0.0822082036321987  0.7713696381659432
  0.3781920983625966  0.5835793166112069  0.9376198026123816
  0.4510672096717983  0.3237253677048173  0.5127717577838879
  0.0421957376486617  0.0855393627734742  0.6033219062174950
  0.1319663221738239  0.8391660794166071  0.6855907574627693
  0.2949672548848525  0.3311696866038147  0.8525207542955258
  0.3764487591713532  0.0812862510715533  0.9355954865798424
  0.4678733817408514  0.8356445159305750  0.5136183396784020
  0.2932235300095414  0.8336631003799013  0.8548862565531721
  0.4688092898106149  0.6781021635705073  0.7802035055581626
  0.2769483438733573  0.6613052175226315  0.5975253246132866
  0.3777561022128921  0.3954063481203676  0.6851852567214607
  0.4615560040329427  0.1646241696113577  0.7723463926384468
  0.1288354599461030  0.6661938201879067  0.9337587825604174
  0.2168937889703528  0.4138048493732001  0.5143117475430330
  0.2919647285403997  0.1603201356838397  0.6023439677700466
  0.3836603529983265  0.9241940248633540  0.6962157580766117
  0.0438828090675116  0.4182653331028163  0.8524153084218256
  0.1267593774264100  0.1680028514063991  0.9354242376508068
  0.1994654353155099  0.9271807493331181  0.5126763233247758
  0.0466966204113319  0.9202636897866441  0.8532634684452418
  0.7205836906520560  0.5819006339172148  0.2666641097055304
  0.5389608054706088  0.6000338013909285  0.1016375119644763
  0.6319619832692851  0.3236141990241137  0.1954317299125847
  0.7124601523153800  0.0829161549860089  0.2712833872354636
  0.8803401698881927  0.5831409435404424  0.4367820214536948
  0.9497003796345069  0.3230927192170157  0.0124403334234202
  0.5425736120268141  0.0871106120332499  0.1030776907200561
  0.6325538816191383  0.8400786290919484  0.1853601513048417
  0.7961201139837897  0.3313575738911609  0.3525558257359549
  0.8771959574661139  0.0812170372235883  0.4353872472250657
  0.9667472797042862  0.8355264703035985  0.0140594303071850
  0.7942235804301845  0.8337637178403057  0.3547345550770586
  0.9707346580573031  0.6783503344715740  0.2796304584501783
  0.7760635223920787  0.6614701363990676  0.0972169678978290
  0.8786332495455937  0.3950537424633680  0.1848762557519024
  0.9622197969744946  0.1648624005629458  0.2723639656293528
  0.6323901910202068  0.6661724047788979  0.4351167134028842
  0.7148917379915503  0.4138838763511501  0.0149235382927912
  0.7920324873327544  0.1601216716415905  0.1024225268414938
  0.8844049005648813  0.9243989152733718  0.1964442149801755
  0.5456207744090378  0.4186973664088498  0.3531832778214365
  0.6273083673852824  0.1693444153926649  0.4351890267659897
  0.6984241729182727  0.9272443568501458  0.0126027336568697
  0.5470016022764028  0.9208638401299183  0.3520725897570713
  0.7183529942766711  0.5815544354476714  0.7669056571777020
  0.5400680055502320  0.5983490031720891  0.6019000262874030
  0.6311541765263513  0.3226543210776569  0.6953702251914038
  0.7117337073683814  0.0821903948365801  0.7714043018636403
  0.8784756063882853  0.5826053890919951  0.9367019849221592
  0.9511507427332049  0.3236085688958710  0.5128178041404254
  0.5421408037286994  0.0854824596961166  0.6032599570909198
  0.6319729290509244  0.8392049356097289  0.6855992079260389
  0.7947477158477056  0.3311463869849263  0.8525718109294331
  0.8762686921862795  0.0809220575741136  0.9354367637250292
  0.9677908060096740  0.8355801069244251  0.5137508662477472
  0.7932257803361722  0.8336156114212727  0.8548626083528816
  0.9684258291739951  0.6781119562170161  0.7799413435000346
  0.7773471333454083  0.6611662347205325  0.5979098076846157
  0.8777738850730259  0.3949863640801539  0.6853061240674805
  0.9616948419792806  0.1643176543279452  0.7725129174740246
  0.6301135850266633  0.6663242910890332  0.9339165595340830
  0.7172798271584782  0.4137167766356029  0.5145244288764559
  0.7919672643062867  0.1600774279923201  0.6024536126198328
  0.8838297939568420  0.9241516363755480  0.6963770366706186
  0.5437580266192157  0.4189956362880807  0.8523414335422004
  0.6263969213376726  0.1697365269140789  0.9350061987164366
  0.6995264023646826  0.9268682345824431  0.5125416900027702
  0.5457982383293825  0.9207392759319006  0.8532281930551022
  0.2634890339743237  0.6511476074675926  0.0913947143208489
 
  0.00000000E+00  0.00000000E+00  0.00000000E+00
  0.00000000E+00  0.00000000E+00  0.00000000E+00
  0.00000000E+00  0.00000000E+00  0.00000000E+00
  0.00000000E+00  0.00000000E+00  0.00000000E+00
  0.00000000E+00  0.00000000E+00  0.00000000E+00
  0.00000000E+00  0.00000000E+00  0.00000000E+00
  0.00000000E+00  0.00000000E+00  0.00000000E+00
  0.00000000E+00  0.00000000E+00  0.00000000E+00
  0.00000000E+00  0.00000000E+00  0.00000000E+00
  0.00000000E+00  0.00000000E+00  0.00000000E+00
  0.00000000E+00  0.00000000E+00  0.00000000E+00
  0.00000000E+00  0.00000000E+00  0.00000000E+00
  0.00000000E+00  0.00000000E+00  0.00000000E+00
  0.00000000E+00  0.00000000E+00  0.00000000E+00
  0.00000000E+00  0.00000000E+00  0.00000000E+00
  0.00000000E+00  0.00000000E+00  0.00000000E+00
  0.00000000E+00  0.00000000E+00  0.00000000E+00
  0.00000000E+00  0.00000000E+00  0.00000000E+00
  0.00000000E+00  0.00000000E+00  0.00000000E+00
  0.00000000E+00  0.00000000E+00  0.00000000E+00
  0.00000000E+00  0.00000000E+00  0.00000000E+00
  0.00000000E+00  0.00000000E+00  0.00000000E+00
  0.00000000E+00  0.00000000E+00  0.00000000E+00
  0.00000000E+00  0.00000000E+00  0.00000000E+00
  0.00000000E+00  0.00000000E+00  0.00000000E+00
  0.00000000E+00  0.00000000E+00  0.00000000E+00
  0.00000000E+00  0.00000000E+00  0.00000000E+00
  0.00000000E+00  0.00000000E+00  0.00000000E+00
  0.00000000E+00  0.00000000E+00  0.00000000E+00
  0.00000000E+00  0.00000000E+00  0.00000000E+00
  0.00000000E+00  0.00000000E+00  0.00000000E+00
  0.00000000E+00  0.00000000E+00  0.00000000E+00
  0.00000000E+00  0.00000000E+00  0.00000000E+00
  0.00000000E+00  0.00000000E+00  0.00000000E+00
  0.00000000E+00  0.00000000E+00  0.00000000E+00
  0.00000000E+00  0.00000000E+00  0.00000000E+00
  0.00000000E+00  0.00000000E+00  0.00000000E+00
  0.00000000E+00  0.00000000E+00  0.00000000E+00
  0.00000000E+00  0.00000000E+00  0.00000000E+00
  0.00000000E+00  0.00000000E+00  0.00000000E+00
  0.00000000E+00  0.00000000E+00  0.00000000E+00
  0.00000000E+00  0.00000000E+00  0.00000000E+00
  0.00000000E+00  0.00000000E+00  0.00000000E+00
  0.00000000E+00  0.00000000E+00  0.00000000E+00
  0.00000000E+00  0.00000000E+00  0.00000000E+00
  0.00000000E+00  0.00000000E+00  0.00000000E+00
  0.00000000E+00  0.00000000E+00  0.00000000E+00
  0.00000000E+00  0.00000000E+00  0.00000000E+00
  0.00000000E+00  0.00000000E+00  0.00000000E+00
  0.00000000E+00  0.00000000E+00  0.00000000E+00
  0.00000000E+00  0.00000000E+00  0.00000000E+00
  0.00000000E+00  0.00000000E+00  0.00000000E+00
  0.00000000E+00  0.00000000E+00  0.00000000E+00
  0.00000000E+00  0.00000000E+00  0.00000000E+00
  0.00000000E+00  0.00000000E+00  0.00000000E+00
  0.00000000E+00  0.00000000E+00  0.00000000E+00
  0.00000000E+00  0.00000000E+00  0.00000000E+00
  0.00000000E+00  0.00000000E+00  0.00000000E+00
  0.00000000E+00  0.00000000E+00  0.00000000E+00
  0.00000000E+00  0.00000000E+00  0.00000000E+00
  0.00000000E+00  0.00000000E+00  0.00000000E+00
  0.00000000E+00  0.00000000E+00  0.00000000E+00
  0.00000000E+00  0.00000000E+00  0.00000000E+00
  0.00000000E+00  0.00000000E+00  0.00000000E+00
  0.00000000E+00  0.00000000E+00  0.00000000E+00
  0.00000000E+00  0.00000000E+00  0.00000000E+00
  0.00000000E+00  0.00000000E+00  0.00000000E+00
  0.00000000E+00  0.00000000E+00  0.00000000E+00
  0.00000000E+00  0.00000000E+00  0.00000000E+00
  0.00000000E+00  0.00000000E+00  0.00000000E+00
  0.00000000E+00  0.00000000E+00  0.00000000E+00
  0.00000000E+00  0.00000000E+00  0.00000000E+00
  0.00000000E+00  0.00000000E+00  0.00000000E+00
  0.00000000E+00  0.00000000E+00  0.00000000E+00
  0.00000000E+00  0.00000000E+00  0.00000000E+00
  0.00000000E+00  0.00000000E+00  0.00000000E+00
  0.00000000E+00  0.00000000E+00  0.00000000E+00
  0.00000000E+00  0.00000000E+00  0.00000000E+00
  0.00000000E+00  0.00000000E+00  0.00000000E+00
  0.00000000E+00  0.00000000E+00  0.00000000E+00
  0.00000000E+00  0.00000000E+00  0.00000000E+00
  0.00000000E+00  0.00000000E+00  0.00000000E+00
  0.00000000E+00  0.00000000E+00  0.00000000E+00
  0.00000000E+00  0.00000000E+00  0.00000000E+00
  0.00000000E+00  0.00000000E+00  0.00000000E+00
  0.00000000E+00  0.00000000E+00  0.00000000E+00
  0.00000000E+00  0.00000000E+00  0.00000000E+00
  0.00000000E+00  0.00000000E+00  0.00000000E+00
  0.00000000E+00  0.00000000E+00  0.00000000E+00
  0.00000000E+00  0.00000000E+00  0.00000000E+00
  0.00000000E+00  0.00000000E+00  0.00000000E+00
  0.00000000E+00  0.00000000E+00  0.00000000E+00
  0.00000000E+00  0.00000000E+00  0.00000000E+00
  0.00000000E+00  0.00000000E+00  0.00000000E+00
  0.00000000E+00  0.00000000E+00  0.00000000E+00
  0.00000000E+00  0.00000000E+00  0.00000000E+00
  0.00000000E+00  0.00000000E+00  0.00000000E+00
  0.00000000E+00  0.00000000E+00  0.00000000E+00
  0.00000000E+00  0.00000000E+00  0.00000000E+00
  0.00000000E+00  0.00000000E+00  0.00000000E+00
  0.00000000E+00  0.00000000E+00  0.00000000E+00
  0.00000000E+00  0.00000000E+00  0.00000000E+00
  0.00000000E+00  0.00000000E+00  0.00000000E+00
  0.00000000E+00  0.00000000E+00  0.00000000E+00
  0.00000000E+00  0.00000000E+00  0.00000000E+00
  0.00000000E+00  0.00000000E+00  0.00000000E+00
  0.00000000E+00  0.00000000E+00  0.00000000E+00
  0.00000000E+00  0.00000000E+00  0.00000000E+00
  0.00000000E+00  0.00000000E+00  0.00000000E+00
  0.00000000E+00  0.00000000E+00  0.00000000E+00
  0.00000000E+00  0.00000000E+00  0.00000000E+00
  0.00000000E+00  0.00000000E+00  0.00000000E+00
  0.00000000E+00  0.00000000E+00  0.00000000E+00
  0.00000000E+00  0.00000000E+00  0.00000000E+00
  0.00000000E+00  0.00000000E+00  0.00000000E+00
  0.00000000E+00  0.00000000E+00  0.00000000E+00
  0.00000000E+00  0.00000000E+00  0.00000000E+00
  0.00000000E+00  0.00000000E+00  0.00000000E+00
  0.00000000E+00  0.00000000E+00  0.00000000E+00
  0.00000000E+00  0.00000000E+00  0.00000000E+00
  0.00000000E+00  0.00000000E+00  0.00000000E+00
  0.00000000E+00  0.00000000E+00  0.00000000E+00
  0.00000000E+00  0.00000000E+00  0.00000000E+00
  0.00000000E+00  0.00000000E+00  0.00000000E+00
  0.00000000E+00  0.00000000E+00  0.00000000E+00
  0.00000000E+00  0.00000000E+00  0.00000000E+00
  0.00000000E+00  0.00000000E+00  0.00000000E+00
  0.00000000E+00  0.00000000E+00  0.00000000E+00
  0.00000000E+00  0.00000000E+00  0.00000000E+00
  0.00000000E+00  0.00000000E+00  0.00000000E+00
  0.00000000E+00  0.00000000E+00  0.00000000E+00
  0.00000000E+00  0.00000000E+00  0.00000000E+00
  0.00000000E+00  0.00000000E+00  0.00000000E+00
  0.00000000E+00  0.00000000E+00  0.00000000E+00
  0.00000000E+00  0.00000000E+00  0.00000000E+00
  0.00000000E+00  0.00000000E+00  0.00000000E+00
  0.00000000E+00  0.00000000E+00  0.00000000E+00
  0.00000000E+00  0.00000000E+00  0.00000000E+00
  0.00000000E+00  0.00000000E+00  0.00000000E+00
  0.00000000E+00  0.00000000E+00  0.00000000E+00
  0.00000000E+00  0.00000000E+00  0.00000000E+00
  0.00000000E+00  0.00000000E+00  0.00000000E+00
  0.00000000E+00  0.00000000E+00  0.00000000E+00
  0.00000000E+00  0.00000000E+00  0.00000000E+00
  0.00000000E+00  0.00000000E+00  0.00000000E+00
  0.00000000E+00  0.00000000E+00  0.00000000E+00
  0.00000000E+00  0.00000000E+00  0.00000000E+00
  0.00000000E+00  0.00000000E+00  0.00000000E+00
  0.00000000E+00  0.00000000E+00  0.00000000E+00
  0.00000000E+00  0.00000000E+00  0.00000000E+00
  0.00000000E+00  0.00000000E+00  0.00000000E+00
  0.00000000E+00  0.00000000E+00  0.00000000E+00
  0.00000000E+00  0.00000000E+00  0.00000000E+00
  0.00000000E+00  0.00000000E+00  0.00000000E+00
  0.00000000E+00  0.00000000E+00  0.00000000E+00
  0.00000000E+00  0.00000000E+00  0.00000000E+00
  0.00000000E+00  0.00000000E+00  0.00000000E+00
  0.00000000E+00  0.00000000E+00  0.00000000E+00
  0.00000000E+00  0.00000000E+00  0.00000000E+00
  0.00000000E+00  0.00000000E+00  0.00000000E+00
  0.00000000E+00  0.00000000E+00  0.00000000E+00
  0.00000000E+00  0.00000000E+00  0.00000000E+00
  0.00000000E+00  0.00000000E+00  0.00000000E+00
  0.00000000E+00  0.00000000E+00  0.00000000E+00
  0.00000000E+00  0.00000000E+00  0.00000000E+00
  0.00000000E+00  0.00000000E+00  0.00000000E+00
  0.00000000E+00  0.00000000E+00  0.00000000E+00
  0.00000000E+00  0.00000000E+00  0.00000000E+00
  0.00000000E+00  0.00000000E+00  0.00000000E+00
  0.00000000E+00  0.00000000E+00  0.00000000E+00
  0.00000000E+00  0.00000000E+00  0.00000000E+00
  0.00000000E+00  0.00000000E+00  0.00000000E+00
  0.00000000E+00  0.00000000E+00  0.00000000E+00
  0.00000000E+00  0.00000000E+00  0.00000000E+00
  0.00000000E+00  0.00000000E+00  0.00000000E+00
  0.00000000E+00  0.00000000E+00  0.00000000E+00
  0.00000000E+00  0.00000000E+00  0.00000000E+00
  0.00000000E+00  0.00000000E+00  0.00000000E+00
  0.00000000E+00  0.00000000E+00  0.00000000E+00
  0.00000000E+00  0.00000000E+00  0.00000000E+00
  0.00000000E+00  0.00000000E+00  0.00000000E+00
  0.00000000E+00  0.00000000E+00  0.00000000E+00
  0.00000000E+00  0.00000000E+00  0.00000000E+00
  0.00000000E+00  0.00000000E+00  0.00000000E+00
  0.00000000E+00  0.00000000E+00  0.00000000E+00
  0.00000000E+00  0.00000000E+00  0.00000000E+00
  0.00000000E+00  0.00000000E+00  0.00000000E+00
  0.00000000E+00  0.00000000E+00  0.00000000E+00
  0.00000000E+00  0.00000000E+00  0.00000000E+00
  0.00000000E+00  0.00000000E+00  0.00000000E+00
  0.00000000E+00  0.00000000E+00  0.00000000E+00
  0.00000000E+00  0.00000000E+00  0.00000000E+00
