supercell of POSCAR                     
   1.01189200000000     
     3.1482772356600002   -5.4762754812200001    9.9674464565599994
    -9.4511209497999999   -5.4731922780100000    0.0032121685426600
     6.3112884282600001  -10.9581161277000003   -9.9749049577999997
   Al   Sc   N 
    83    12    96
Direct
  0.0918770424750193  0.5832151371434051  0.3315043912708191
  0.0016678261456491  0.3255172716397112  0.2539990207588048
  0.0849847297395385  0.0834003720726884  0.3340495986654517
  0.2491494226079567  0.5804399056835905  0.4969118216960524
  0.3298536768291811  0.3246880250668411  0.0800366510499586
  0.4175729863179356  0.0872586515646390  0.1687020972193594
  0.0060998425403085  0.8398370518987051  0.2529466518001371
  0.1673936935728122  0.3323488003629507  0.4143019320844985
  0.2478902619715342  0.0854417483082628  0.4975145952108804
  0.1624545475497072  0.8345331536571479  0.4166960409595930
  0.1556903786968817  0.6716827630640694  0.1628247151287141
  0.2508061816548803  0.4021326613610583  0.2497960418722300
  0.3343581281859898  0.1636501778387753  0.3338250448401539
  0.0041275904921889  0.6693344483665484  0.4967605774752855
  0.1667433438009667  0.1590339797721683  0.1667688632473201
  0.2526540181715049  0.9193188161438925  0.2508121538610482
  0.4166211817667218  0.4108586611701170  0.4144544410520581
  0.5000493436461184  0.1617966101852701  0.4986083966716919
  0.0796538157553641  0.9207736743588697  0.0803137573486055
  0.4221985778748376  0.9187217464908599  0.4149937896235656
  0.0878015267110754  0.5843497268608004  0.8338228459079744
  0.0010661687998876  0.3268835859882557  0.7538734271213627
  0.0840495911155230  0.0844228002921668  0.8342883637333998
  0.2483716585231193  0.5807280221594198  0.9970175372510894
  0.3303335493354709  0.3237955825977465  0.5802173815246761
  0.4170631342677567  0.0862689692377501  0.6694660967028625
  0.0049620187537656  0.8400278576951692  0.7533494480381719
  0.1662726328021975  0.3337418965471102  0.9146847130508249
  0.2472219936230218  0.0861510389871114  0.9967491163038247
  0.1629579064322328  0.8351893564836033  0.9157873461263577
  0.3357599140052869  0.6706037201609831  0.8373158304076540
  0.1602834881182673  0.6713606948732718  0.6665665284637683
  0.2516145535854264  0.4087595779138482  0.7510307859144021
  0.3332373766561929  0.1660723799858275  0.8338580233803228
  0.9999876232262253  0.6708336040372984  0.9954749631266822
  0.1670037359322052  0.1613403970786322  0.6687226201343606
  0.2520989023517402  0.9189549664139705  0.7538041405158822
  0.4137594397718800  0.4164154374873377  0.9154160557025079
  0.4979198729728864  0.1644440855881655  0.9976979584508427
  0.0812681914068847  0.9209574855182723  0.5820379442622752
  0.4174086224225562  0.9186686501347623  0.9137383616219523
  0.5952872240742053  0.5817228817398501  0.3351139202870854
  0.5023073673568064  0.3262185525622456  0.2533934717478132
  0.5861107504162462  0.0851429048409784  0.3342796850340477
  0.7514923336453876  0.5801576138317301  0.4978841971389727
  0.8295410459404238  0.3246704107821330  0.0800469944887467
  0.9173764918031111  0.0863932907140779  0.1689182658614286
  0.5096593218218857  0.8453507993771581  0.2516422419470601
  0.6687276099991664  0.3324512579894829  0.4146163112051937
  0.7486141224191911  0.0857641194233381  0.4976688518693138
  0.6654520535993242  0.8348177202288056  0.4156061702992275
  0.8392689863716356  0.6703274047426362  0.3376890529046435
  0.6556115214297193  0.6717374544796257  0.1690100267178423
  0.7538155695504898  0.4068366682249618  0.2508793502427693
  0.8347239507144266  0.1650430683996973  0.3341771154218662
  0.5072151674492318  0.6716385018271396  0.4984987217061132
  0.6676572317105141  0.1617642628592009  0.1681415860522790
  0.7545848552601200  0.9200173311096691  0.2536936680093476
  0.9157704533433133  0.4155248987639979  0.4153920849404642
  0.9987963695514708  0.1628399759029264  0.4980197729699114
  0.5812333914002608  0.9228010516600804  0.0803052241957403
  0.9183139416638753  0.9179072902135417  0.4142541762964811
  0.5871035410442218  0.5843932086087804  0.8345941049269214
  0.5009948048753756  0.3271311324873949  0.7535182645345628
  0.5841900377762457  0.0846437684538515  0.8342271286153391
  0.7477817661019017  0.5804862595136342  0.9975525017231561
  0.8307584421073244  0.3241384936263856  0.5805294385659749
  0.9170174706525742  0.0866266821419757  0.6695914464901165
  0.5051548217251494  0.8398780995534878  0.7530354722200627
  0.6660351594666096  0.3338337799207878  0.9149082677226801
  0.7474543520537438  0.0866404741205287  0.9969783765589781
  0.6624710295281844  0.8348924763228069  0.9160629278198442
  0.8352392074964357  0.6705098387453177  0.8370158838549742
  0.6616853802334930  0.6714641141935545  0.6676884252660145
  0.7512524563084853  0.4089572091596239  0.7511661412804997
  0.8331376662929983  0.1662964196078889  0.8339464125346225
  0.5001563160247002  0.6706473460650457  0.9988754806387092
  0.6671690250350935  0.1618945643916803  0.6687204285608885
  0.7521480231716424  0.9193801306593770  0.7540281466117236
  0.9136259780166682  0.4164275789542842  0.9154047852248866
  0.9976792744433212  0.1640150170249726  0.9975867791993380
  0.5827075777168389  0.9208750105537504  0.5820482420862660
  0.9165751240155018  0.9185738710015983  0.9141205360973217
  0.3931226387540647  0.5846136393648464  0.1816829337540895
  0.3279876134024065  0.8385363325314970  0.0832475913540236
  0.0766316789861889  0.4165737909273162  0.0867111139992787
  0.4042250099807703  0.5831819209790226  0.6733190156686177
  0.3287730787206371  0.8382245721064407  0.5835690958559070
  0.0783383688238999  0.4147991730570908  0.5853014539580599
  0.9012461221369961  0.5830354249977105  0.1743797407617862
  0.8255508754460692  0.8371063706241273  0.0845684632985879
  0.5747010912180599  0.4183841767437144  0.0870702598431734
  0.9055807223344559  0.5824462738721081  0.6736347473670392
  0.8292486351098063  0.8378947518187019  0.5841143849448045
  0.5775076172832527  0.4160084131313724  0.5846757079072376
  0.2039850243048633  0.5676206191029536  0.2537490933055508
  0.0340797153541885  0.5997608812404849  0.0995982960888782
  0.1301101876886648  0.3181378501253320  0.1946920315580698
  0.2120175746712434  0.0826767914394040  0.2704482958843926
  0.3898098366498886  0.5699474830385824  0.4514937196839313
  0.4502301675550697  0.3245823510172841  0.0127054174075241
  0.0413222122810240  0.0849447726812684  0.1023408715939809
  0.1314288276198283  0.8396693443038288  0.1846090835390157
  0.2959849226728082  0.3296780532259262  0.3522612519322195
  0.3777458948946304  0.0814972618082024  0.4360585211961663
  0.4673196805712792  0.8369745780526827  0.0133330878558056
  0.2900275104375467  0.8556341373632819  0.3570711232174517
  0.4961631142038456  0.6802912706179853  0.2702331868728010
  0.2746528101871135  0.6632660425386803  0.0962829385680806
  0.3788325405037369  0.3939983919208458  0.1852822318395226
  0.4626464179843097  0.1640620124378387  0.2723750624317702
  0.1328532788401020  0.6652780281759689  0.4327681794893792
  0.2150160118211133  0.4142273867555630  0.0150030184375254
  0.2918778178540791  0.1601454829045821  0.1017832185158554
  0.3847798753442859  0.9245592382903709  0.1952605818263322
  0.0450146434277414  0.4179277169999480  0.3523702105599895
  0.1272395701925078  0.1688706189934024  0.4349480116245203
  0.1984899752507161  0.9274425454774757  0.0121875344284916
  0.0460604478562914  0.9205580983226795  0.3529194220840211
  0.2182376232521577  0.5821426910579461  0.7668795262151846
  0.0404443846291755  0.5981390932744119  0.6016261157802063
  0.1311068255025063  0.3230858555889000  0.6955515370760068
  0.2116454544014061  0.0826216244613889  0.7714446511120272
  0.3786496076044656  0.5833661130371013  0.9369260997283746
  0.4509965101206248  0.3208973102311603  0.5129589521134506
  0.0418497743767361  0.0854644577204979  0.6035800573220698
  0.1312438764489556  0.8392541364026584  0.6860339045736623
  0.2948365369986590  0.3321649506239908  0.8525179338248492
  0.3764058289167380  0.0818920751208410  0.9351002311922372
  0.4694436346445201  0.8356796093814864  0.5140091130419719
  0.2929834519949424  0.8339191298514450  0.8546665563291356
  0.4684230276232810  0.6781083548622391  0.7799419034920305
  0.2759496449369436  0.6622514970823161  0.5974830286527464
  0.3777735660339232  0.3959215066005228  0.6848868037202038
  0.4614531278936411  0.1650231312622665  0.7721902771331912
  0.1296874561791128  0.6664688319398380  0.9338096874824231
  0.2162393268824943  0.4130756766510473  0.5143615406694835
  0.2916002608717747  0.1601981241803330  0.6025944189095256
  0.3831532045669235  0.9240677302278826  0.6960451108309726
  0.0436339186681352  0.4193714005412659  0.8522625646708519
  0.1262551841978379  0.1702309877955841  0.9348771458012592
  0.1990104035115579  0.9270107927497904  0.5135211133726472
  0.0456899905248775  0.9210421300256968  0.8529658754895380
  0.7243203932306912  0.5801699461426750  0.2671342141900439
  0.5331544304462170  0.6006512646431474  0.1052460007665132
  0.6321781143443488  0.3232659080619840  0.1952695227632191
  0.7129609806393802  0.0832852757531199  0.2712997712167393
  0.8811378247406125  0.5826470338801499  0.4373089584504655
  0.9503597066232885  0.3245358215869771  0.0127263515795164
  0.5421893839817784  0.0868872648914092  0.1029396146057167
  0.6352232509981306  0.8433996058429614  0.1838546533371428
  0.7967211198788462  0.3309978108084692  0.3526493919536904
  0.8771655349346830  0.0809206310681887  0.4356640583932574
  0.9652794581074176  0.8358941351917792  0.0134243628909232
  0.7945562778680824  0.8334838195431118  0.3543716790394029
  0.9705094999468571  0.6781455486133794  0.2798313900065779
  0.7719543506839486  0.6606736027598856  0.0983388984212681
  0.8794026594066366  0.3946716231872358  0.1849421462546488
  0.9620459441067979  0.1635531027986090  0.2723959589407912
  0.6334508887144779  0.6660797223289308  0.4349320969957589
  0.7141784771432071  0.4142012996971474  0.0153470948776118
  0.7919169815628351  0.1605025890838192  0.1021516680452663
  0.8846088251557020  0.9242595128979900  0.1958118275806697
  0.5460989598667325  0.4179101624711592  0.3520032664238357
  0.6278333071251154  0.1695039608975648  0.4353945614416119
  0.6991721444784247  0.9279361586799766  0.0118404962452914
  0.5486905068035668  0.9217694964038259  0.3530838833360548
  0.7178083337924122  0.5821719339113756  0.7675498198971624
  0.5414288262847933  0.5992075435534261  0.6033828186679528
  0.6308480300897088  0.3237874000610006  0.6948656380960045
  0.7116733260209571  0.0831016466189709  0.7713821902583007
  0.8773772012442151  0.5832189832620429  0.9363583365987438
  0.9510043893754840  0.3231534474189743  0.5128849930809736
  0.5425760014426970  0.0848409451127807  0.6038170783006009
  0.6320586383043363  0.8393850739101296  0.6859856438496337
  0.7945441584608446  0.3322066508165307  0.8526181256851331
  0.8761742047104093  0.0820771216806264  0.9350237638244394
  0.9685630229477837  0.8348270999245315  0.5135476135803430
  0.7924375977239251  0.8336738723543249  0.8546327407293148
  0.9683848599745914  0.6781108940538658  0.7799722300024570
  0.7772847435057955  0.6614248429859373  0.5982192370977586
  0.8777329732716623  0.3956669678769416  0.6854231815579368
  0.9613899867862443  0.1649698728585633  0.7724209715383523
  0.6287749271015883  0.6660688507305537  0.9352324267469001
  0.7169612590066237  0.4138799196051508  0.5145497466740920
  0.7917203346696766  0.1605879558740924  0.6026242919811651
  0.8831954248728593  0.9244645512321910  0.6962946396890359
  0.5434978832576078  0.4191459301944320  0.8521698875305503
  0.6262339908251988  0.1702362577389493  0.9348857567451887
  0.7003911374333427  0.9267729073119497  0.5127642420051046
  0.5460485832437172  0.9210909892614154  0.8525716414381108
 
  0.00000000E+00  0.00000000E+00  0.00000000E+00
  0.00000000E+00  0.00000000E+00  0.00000000E+00
  0.00000000E+00  0.00000000E+00  0.00000000E+00
  0.00000000E+00  0.00000000E+00  0.00000000E+00
  0.00000000E+00  0.00000000E+00  0.00000000E+00
  0.00000000E+00  0.00000000E+00  0.00000000E+00
  0.00000000E+00  0.00000000E+00  0.00000000E+00
  0.00000000E+00  0.00000000E+00  0.00000000E+00
  0.00000000E+00  0.00000000E+00  0.00000000E+00
  0.00000000E+00  0.00000000E+00  0.00000000E+00
  0.00000000E+00  0.00000000E+00  0.00000000E+00
  0.00000000E+00  0.00000000E+00  0.00000000E+00
  0.00000000E+00  0.00000000E+00  0.00000000E+00
  0.00000000E+00  0.00000000E+00  0.00000000E+00
  0.00000000E+00  0.00000000E+00  0.00000000E+00
  0.00000000E+00  0.00000000E+00  0.00000000E+00
  0.00000000E+00  0.00000000E+00  0.00000000E+00
  0.00000000E+00  0.00000000E+00  0.00000000E+00
  0.00000000E+00  0.00000000E+00  0.00000000E+00
  0.00000000E+00  0.00000000E+00  0.00000000E+00
  0.00000000E+00  0.00000000E+00  0.00000000E+00
  0.00000000E+00  0.00000000E+00  0.00000000E+00
  0.00000000E+00  0.00000000E+00  0.00000000E+00
  0.00000000E+00  0.00000000E+00  0.00000000E+00
  0.00000000E+00  0.00000000E+00  0.00000000E+00
  0.00000000E+00  0.00000000E+00  0.00000000E+00
  0.00000000E+00  0.00000000E+00  0.00000000E+00
  0.00000000E+00  0.00000000E+00  0.00000000E+00
  0.00000000E+00  0.00000000E+00  0.00000000E+00
  0.00000000E+00  0.00000000E+00  0.00000000E+00
  0.00000000E+00  0.00000000E+00  0.00000000E+00
  0.00000000E+00  0.00000000E+00  0.00000000E+00
  0.00000000E+00  0.00000000E+00  0.00000000E+00
  0.00000000E+00  0.00000000E+00  0.00000000E+00
  0.00000000E+00  0.00000000E+00  0.00000000E+00
  0.00000000E+00  0.00000000E+00  0.00000000E+00
  0.00000000E+00  0.00000000E+00  0.00000000E+00
  0.00000000E+00  0.00000000E+00  0.00000000E+00
  0.00000000E+00  0.00000000E+00  0.00000000E+00
  0.00000000E+00  0.00000000E+00  0.00000000E+00
  0.00000000E+00  0.00000000E+00  0.00000000E+00
  0.00000000E+00  0.00000000E+00  0.00000000E+00
  0.00000000E+00  0.00000000E+00  0.00000000E+00
  0.00000000E+00  0.00000000E+00  0.00000000E+00
  0.00000000E+00  0.00000000E+00  0.00000000E+00
  0.00000000E+00  0.00000000E+00  0.00000000E+00
  0.00000000E+00  0.00000000E+00  0.00000000E+00
  0.00000000E+00  0.00000000E+00  0.00000000E+00
  0.00000000E+00  0.00000000E+00  0.00000000E+00
  0.00000000E+00  0.00000000E+00  0.00000000E+00
  0.00000000E+00  0.00000000E+00  0.00000000E+00
  0.00000000E+00  0.00000000E+00  0.00000000E+00
  0.00000000E+00  0.00000000E+00  0.00000000E+00
  0.00000000E+00  0.00000000E+00  0.00000000E+00
  0.00000000E+00  0.00000000E+00  0.00000000E+00
  0.00000000E+00  0.00000000E+00  0.00000000E+00
  0.00000000E+00  0.00000000E+00  0.00000000E+00
  0.00000000E+00  0.00000000E+00  0.00000000E+00
  0.00000000E+00  0.00000000E+00  0.00000000E+00
  0.00000000E+00  0.00000000E+00  0.00000000E+00
  0.00000000E+00  0.00000000E+00  0.00000000E+00
  0.00000000E+00  0.00000000E+00  0.00000000E+00
  0.00000000E+00  0.00000000E+00  0.00000000E+00
  0.00000000E+00  0.00000000E+00  0.00000000E+00
  0.00000000E+00  0.00000000E+00  0.00000000E+00
  0.00000000E+00  0.00000000E+00  0.00000000E+00
  0.00000000E+00  0.00000000E+00  0.00000000E+00
  0.00000000E+00  0.00000000E+00  0.00000000E+00
  0.00000000E+00  0.00000000E+00  0.00000000E+00
  0.00000000E+00  0.00000000E+00  0.00000000E+00
  0.00000000E+00  0.00000000E+00  0.00000000E+00
  0.00000000E+00  0.00000000E+00  0.00000000E+00
  0.00000000E+00  0.00000000E+00  0.00000000E+00
  0.00000000E+00  0.00000000E+00  0.00000000E+00
  0.00000000E+00  0.00000000E+00  0.00000000E+00
  0.00000000E+00  0.00000000E+00  0.00000000E+00
  0.00000000E+00  0.00000000E+00  0.00000000E+00
  0.00000000E+00  0.00000000E+00  0.00000000E+00
  0.00000000E+00  0.00000000E+00  0.00000000E+00
  0.00000000E+00  0.00000000E+00  0.00000000E+00
  0.00000000E+00  0.00000000E+00  0.00000000E+00
  0.00000000E+00  0.00000000E+00  0.00000000E+00
  0.00000000E+00  0.00000000E+00  0.00000000E+00
  0.00000000E+00  0.00000000E+00  0.00000000E+00
  0.00000000E+00  0.00000000E+00  0.00000000E+00
  0.00000000E+00  0.00000000E+00  0.00000000E+00
  0.00000000E+00  0.00000000E+00  0.00000000E+00
  0.00000000E+00  0.00000000E+00  0.00000000E+00
  0.00000000E+00  0.00000000E+00  0.00000000E+00
  0.00000000E+00  0.00000000E+00  0.00000000E+00
  0.00000000E+00  0.00000000E+00  0.00000000E+00
  0.00000000E+00  0.00000000E+00  0.00000000E+00
  0.00000000E+00  0.00000000E+00  0.00000000E+00
  0.00000000E+00  0.00000000E+00  0.00000000E+00
  0.00000000E+00  0.00000000E+00  0.00000000E+00
  0.00000000E+00  0.00000000E+00  0.00000000E+00
  0.00000000E+00  0.00000000E+00  0.00000000E+00
  0.00000000E+00  0.00000000E+00  0.00000000E+00
  0.00000000E+00  0.00000000E+00  0.00000000E+00
  0.00000000E+00  0.00000000E+00  0.00000000E+00
  0.00000000E+00  0.00000000E+00  0.00000000E+00
  0.00000000E+00  0.00000000E+00  0.00000000E+00
  0.00000000E+00  0.00000000E+00  0.00000000E+00
  0.00000000E+00  0.00000000E+00  0.00000000E+00
  0.00000000E+00  0.00000000E+00  0.00000000E+00
  0.00000000E+00  0.00000000E+00  0.00000000E+00
  0.00000000E+00  0.00000000E+00  0.00000000E+00
  0.00000000E+00  0.00000000E+00  0.00000000E+00
  0.00000000E+00  0.00000000E+00  0.00000000E+00
  0.00000000E+00  0.00000000E+00  0.00000000E+00
  0.00000000E+00  0.00000000E+00  0.00000000E+00
  0.00000000E+00  0.00000000E+00  0.00000000E+00
  0.00000000E+00  0.00000000E+00  0.00000000E+00
  0.00000000E+00  0.00000000E+00  0.00000000E+00
  0.00000000E+00  0.00000000E+00  0.00000000E+00
  0.00000000E+00  0.00000000E+00  0.00000000E+00
  0.00000000E+00  0.00000000E+00  0.00000000E+00
  0.00000000E+00  0.00000000E+00  0.00000000E+00
  0.00000000E+00  0.00000000E+00  0.00000000E+00
  0.00000000E+00  0.00000000E+00  0.00000000E+00
  0.00000000E+00  0.00000000E+00  0.00000000E+00
  0.00000000E+00  0.00000000E+00  0.00000000E+00
  0.00000000E+00  0.00000000E+00  0.00000000E+00
  0.00000000E+00  0.00000000E+00  0.00000000E+00
  0.00000000E+00  0.00000000E+00  0.00000000E+00
  0.00000000E+00  0.00000000E+00  0.00000000E+00
  0.00000000E+00  0.00000000E+00  0.00000000E+00
  0.00000000E+00  0.00000000E+00  0.00000000E+00
  0.00000000E+00  0.00000000E+00  0.00000000E+00
  0.00000000E+00  0.00000000E+00  0.00000000E+00
  0.00000000E+00  0.00000000E+00  0.00000000E+00
  0.00000000E+00  0.00000000E+00  0.00000000E+00
  0.00000000E+00  0.00000000E+00  0.00000000E+00
  0.00000000E+00  0.00000000E+00  0.00000000E+00
  0.00000000E+00  0.00000000E+00  0.00000000E+00
  0.00000000E+00  0.00000000E+00  0.00000000E+00
  0.00000000E+00  0.00000000E+00  0.00000000E+00
  0.00000000E+00  0.00000000E+00  0.00000000E+00
  0.00000000E+00  0.00000000E+00  0.00000000E+00
  0.00000000E+00  0.00000000E+00  0.00000000E+00
  0.00000000E+00  0.00000000E+00  0.00000000E+00
  0.00000000E+00  0.00000000E+00  0.00000000E+00
  0.00000000E+00  0.00000000E+00  0.00000000E+00
  0.00000000E+00  0.00000000E+00  0.00000000E+00
  0.00000000E+00  0.00000000E+00  0.00000000E+00
  0.00000000E+00  0.00000000E+00  0.00000000E+00
  0.00000000E+00  0.00000000E+00  0.00000000E+00
  0.00000000E+00  0.00000000E+00  0.00000000E+00
  0.00000000E+00  0.00000000E+00  0.00000000E+00
  0.00000000E+00  0.00000000E+00  0.00000000E+00
  0.00000000E+00  0.00000000E+00  0.00000000E+00
  0.00000000E+00  0.00000000E+00  0.00000000E+00
  0.00000000E+00  0.00000000E+00  0.00000000E+00
  0.00000000E+00  0.00000000E+00  0.00000000E+00
  0.00000000E+00  0.00000000E+00  0.00000000E+00
  0.00000000E+00  0.00000000E+00  0.00000000E+00
  0.00000000E+00  0.00000000E+00  0.00000000E+00
  0.00000000E+00  0.00000000E+00  0.00000000E+00
  0.00000000E+00  0.00000000E+00  0.00000000E+00
  0.00000000E+00  0.00000000E+00  0.00000000E+00
  0.00000000E+00  0.00000000E+00  0.00000000E+00
  0.00000000E+00  0.00000000E+00  0.00000000E+00
  0.00000000E+00  0.00000000E+00  0.00000000E+00
  0.00000000E+00  0.00000000E+00  0.00000000E+00
  0.00000000E+00  0.00000000E+00  0.00000000E+00
  0.00000000E+00  0.00000000E+00  0.00000000E+00
  0.00000000E+00  0.00000000E+00  0.00000000E+00
  0.00000000E+00  0.00000000E+00  0.00000000E+00
  0.00000000E+00  0.00000000E+00  0.00000000E+00
  0.00000000E+00  0.00000000E+00  0.00000000E+00
  0.00000000E+00  0.00000000E+00  0.00000000E+00
  0.00000000E+00  0.00000000E+00  0.00000000E+00
  0.00000000E+00  0.00000000E+00  0.00000000E+00
  0.00000000E+00  0.00000000E+00  0.00000000E+00
  0.00000000E+00  0.00000000E+00  0.00000000E+00
  0.00000000E+00  0.00000000E+00  0.00000000E+00
  0.00000000E+00  0.00000000E+00  0.00000000E+00
  0.00000000E+00  0.00000000E+00  0.00000000E+00
  0.00000000E+00  0.00000000E+00  0.00000000E+00
  0.00000000E+00  0.00000000E+00  0.00000000E+00
  0.00000000E+00  0.00000000E+00  0.00000000E+00
  0.00000000E+00  0.00000000E+00  0.00000000E+00
  0.00000000E+00  0.00000000E+00  0.00000000E+00
  0.00000000E+00  0.00000000E+00  0.00000000E+00
  0.00000000E+00  0.00000000E+00  0.00000000E+00
  0.00000000E+00  0.00000000E+00  0.00000000E+00
  0.00000000E+00  0.00000000E+00  0.00000000E+00
  0.00000000E+00  0.00000000E+00  0.00000000E+00
  0.00000000E+00  0.00000000E+00  0.00000000E+00
  0.00000000E+00  0.00000000E+00  0.00000000E+00
  0.00000000E+00  0.00000000E+00  0.00000000E+00
