supercell of POSCAR                     
   1.01189200000000     
     3.1482772356600002   -5.4762754812200001    9.9674464565599994
    -9.4511209497999999   -5.4731922780100000    0.0032121685426600
     6.3112884282600001  -10.9581161277000003   -9.9749049577999997
   Al   Sc   N 
    84    11    96
Direct
  0.0875933829025612  0.5844434718825084  0.3340020882162094
  0.0015293599873942  0.3268424265438412  0.2537257547584062
  0.0840863366675677  0.0843655255172422  0.3346110408212226
  0.2492080867502864  0.5803491472280200  0.4969075805825938
  0.3313813890450703  0.3264853578529454  0.0805414497781456
  0.4166006362896226  0.0889351491522632  0.1670968207808343
  0.0027632868338827  0.8402875446782616  0.2546049622356179
  0.1671443778094854  0.3333352322153686  0.4141554009055781
  0.2474526333155112  0.0861797434375688  0.4973799063834505
  0.1630046897969919  0.8351043031047496  0.4163511279540657
  0.3358899278602792  0.6705211447497561  0.3374369471573644
  0.1578823480297160  0.6766377928397134  0.1670680040099697
  0.2523935183748236  0.4101688112693154  0.2505764607357719
  0.3328596531790708  0.1656840695343931  0.3338364775341773
  0.0019760944009448  0.6699239232684846  0.4973739340270598
  0.1668919076844801  0.1620993375285380  0.1688575128517797
  0.2492527429039129  0.9181095377488475  0.2535177388046534
  0.4141852369522354  0.4157588480223424  0.4154684871692353
  0.4980532537749554  0.1631110137630571  0.4978700894547572
  0.0830072887965443  0.9191832460387275  0.0846589428184359
  0.4167217582052203  0.9182180189244917  0.4141145864704825
  0.0878521876318246  0.5828699381849347  0.8327810795409576
  0.0016022503980366  0.3259833490627955  0.7537830883794712
  0.0855748019140634  0.0837766124231081  0.8347328868956652
  0.2491306719901445  0.5816777804989783  0.9933740346939075
  0.3307446675992765  0.3239472773168472  0.5801875295122940
  0.4173566669322994  0.0863101977913132  0.6693006350261754
  0.0065941677287142  0.8390099641769879  0.7534583088823794
  0.1672852671120495  0.3327957910417965  0.9144165621559139
  0.2510485576533767  0.0870982455086846  0.9986712553456698
  0.1664040890913796  0.8306985589700702  0.9156185807603805
  0.3373879519662353  0.6697382637301814  0.8358305211334311
  0.1606349433832435  0.6706649699421376  0.6660023558043235
  0.2522433075304562  0.4080525627253166  0.7508324484872304
  0.3338326125662050  0.1656413564763639  0.8337122694001877
  0.0023089006373453  0.6701833901220695  0.9968901144725706
  0.1674190876001163  0.1611324459186108  0.6686001796726302
  0.2527354874685699  0.9187395678123949  0.7534672794763111
  0.4149263710295017  0.4153550598886682  0.9150236139160057
  0.4990256440187082  0.1636804405408299  0.9976261029621512
  0.0811371803884384  0.9209544681193975  0.5816574733933493
  0.4157984984057421  0.9193662755198488  0.9132061311256336
  0.5882381620813888  0.5831617543180982  0.3340909213414989
  0.5007559542060704  0.3282142947523923  0.2534504848318875
  0.5840431786412026  0.0848830240122211  0.3339438467519358
  0.7493057730801524  0.5802287618901829  0.4971355733447069
  0.8308097088304507  0.3240688830183203  0.0803021137134365
  0.9171746903348819  0.0862725774966933  0.1696022190882971
  0.5077973759444134  0.8366472426040872  0.2533253931984305
  0.6671001032522597  0.3328865732680484  0.4144752618196037
  0.7473925829722887  0.0861802894278583  0.4973086303350982
  0.6633632880615679  0.8343281409203485  0.4162139481699114
  0.8355685342180692  0.6700788425049780  0.3376142999962894
  0.6606621923328149  0.6710498363168469  0.1662823428296463
  0.7518626044409942  0.4081276588057960  0.2511230855721820
  0.8336425293764336  0.1656687723678800  0.3341489437088256
  0.5022570926780077  0.6698336859162168  0.4970627180773590
  0.6673972477518930  0.1620707889061279  0.1688660440509722
  0.7522671463424331  0.9194351093453932  0.2544717190092456
  0.9143416998073803  0.4157972181486471  0.4155226715506828
  0.9983105155900063  0.1631804998123769  0.4980668859675959
  0.5798718878576210  0.9223609610143910  0.0846601384901504
  0.9172172249367634  0.9182044243309093  0.4149705478620120
  0.5887805229753766  0.5833901841516251  0.8331842562594929
  0.5017140598360754  0.3263605186012342  0.7535404458045392
  0.5846669097440298  0.0842602442205447  0.8342237299381665
  0.7498854662146996  0.5797887989556472  0.9968631569090931
  0.8309074762551916  0.3237515713492840  0.5803759729108648
  0.9176966232769033  0.0862509779027931  0.6698127628224171
  0.5059084766851925  0.8393571406497600  0.7525961224209254
  0.6673176998214032  0.3331991116975104  0.9143801454578337
  0.7468361142733286  0.0864181861480660  0.9974433915234115
  0.6636536461890046  0.8341114672231598  0.9157539391363230
  0.8365114770798314  0.6697470151749272  0.8370961789450320
  0.6606626995441900  0.6706849020781007  0.6661546552348483
  0.7524087976041258  0.4077951009725780  0.7510446561376583
  0.8338584178859350  0.1649933550377582  0.8343829034808863
  0.5026834718749456  0.6678653942066859  0.9962428345731666
  0.6673559103923878  0.1609284673065545  0.6686608649094126
  0.7530739163715339  0.9185586794969751  0.7543878242099353
  0.9147072810199646  0.4151818624763379  0.9155429804974702
  0.9985320126648247  0.1623892747772686  0.9988278739989838
  0.5809577342322427  0.9210453049837426  0.5813630932330724
  0.9188799987135496  0.9176923119291445  0.9148521199445909
  0.4030921234116676  0.5892129487395366  0.1721084815673350
  0.0786228571369065  0.4164901005236530  0.0852816935988301
  0.4049344766000118  0.5821799335481970  0.6727616051364649
  0.3280595546457477  0.8382505905755480  0.5839116301254208
  0.0785597471651940  0.4147703210273406  0.5852360346543506
  0.9038586895042542  0.5822832701567080  0.1742396292082375
  0.8275823357480974  0.8383892382739759  0.0840603574032315
  0.5778027951131932  0.4160792431033684  0.0856886999486193
  0.9045437873519049  0.5822692124235900  0.6731575772910219
  0.8276708644188560  0.8387829360986174  0.5846843050330364
  0.5785596325036835  0.4146163777105372  0.5852100839423144
  0.2186091391862774  0.5838800133171205  0.2657414819936008
  0.0394215974005547  0.5996965504916716  0.1022048756722640
  0.1317258614123133  0.3240589776895177  0.1951097303870526
  0.2113555633760811  0.0826717569793800  0.2713059519108327
  0.3794270031335856  0.5830065004110239  0.4365385380878095
  0.4512784463799235  0.3239556647846271  0.0127572815264188
  0.0426557627091668  0.0847476311470103  0.1039167115806237
  0.1286690438231446  0.8406656143617468  0.1877955605637425
  0.2954854057401590  0.3322801998442841  0.3517117317540155
  0.3763374184446064  0.0815039043520329  0.4351049548746886
  0.4784774748078249  0.8362895667722370  0.0089327276301674
  0.2927321349988716  0.8337065842071851  0.3545318128567985
  0.4692630784852767  0.6772525852267393  0.2801194892127370
  0.2689073977137042  0.6583747745079975  0.0951664301584714
  0.3791152051617175  0.4000917292312991  0.1846540109798767
  0.4607402133033389  0.1646285060931305  0.2715001988303101
  0.1306497563684204  0.6661655855432755  0.4341108125323032
  0.2175942364598384  0.4153916118628160  0.0143800572768598
  0.2917100091644897  0.1625688833299037  0.1026202862827503
  0.3863675961852806  0.9296765757112837  0.2028344823455654
  0.0443914462516517  0.4192095324594476  0.3520712778882142
  0.1267619049880864  0.1699997141965071  0.4350280198961727
  0.1943877816295512  0.9294186508267259  0.0100668319960846
  0.0457513865377308  0.9210847077464734  0.3536244964185045
  0.2188818357691034  0.5815689251354357  0.7666463720360923
  0.0400874369891540  0.5979303263426132  0.6017213778902644
  0.1315789443310535  0.3226610240730210  0.6955695426678403
  0.2123892266268328  0.0821857709159843  0.7716079263255722
  0.3800812762532502  0.5832114857702209  0.9357578520752270
  0.4508743693614292  0.3235375957571023  0.5125863940794346
  0.0421683022141650  0.0854321650331471  0.6035661544840210
  0.1323311404518961  0.8388927468201715  0.6858194399784310
  0.2955725713136061  0.3314675135740401  0.8526178277764345
  0.3771665928378738  0.0816607680732915  0.9355125800482682
  0.4674512766432173  0.8355810889014137  0.5134175664845984
  0.2943679477835417  0.8326625294601300  0.8544090048082964
  0.4698904494562584  0.6773968625248656  0.7791734670856556
  0.2767922205468594  0.6613922505628764  0.5971997029389868
  0.3783830238002537  0.3951285660623469  0.6852217363505844
  0.4619745668523620  0.1643238867701982  0.7724729780847497
  0.1296344726108032  0.6651721969733657  0.9328222082080586
  0.2169397761345451  0.4136671151433546  0.5142009512440779
  0.2919007640044811  0.1602231351957570  0.6024849765634457
  0.3839415698924213  0.9239564651934060  0.6962767024448837
  0.0446808196160120  0.4179682520298442  0.8525037884178701
  0.1276862284026663  0.1684612905174347  0.9362541796231270
  0.1991320525418345  0.9272161011433155  0.5127334797300804
  0.0484904937617827  0.9199988974308084  0.8543904536053901
  0.7183874168127957  0.5818570880334732  0.2664198695718412
  0.5393780427113413  0.6002489639416524  0.1012821482939898
  0.6309661912066886  0.3233424965585030  0.1953678380539898
  0.7115673272575194  0.0828633967460277  0.2714031819187639
  0.8794206498221726  0.5828698757733051  0.4368162389883068
  0.9516645356748796  0.3233505120589797  0.0131014200293365
  0.5419735244431578  0.0865434230316993  0.1033146522786481
  0.6319917623809559  0.8388781644740888  0.1861336854351592
  0.7954511684604881  0.3316424242004672  0.3523864870635478
  0.8764185569982885  0.0814737413378595  0.4354921094813875
  0.9685861769882322  0.8358888490567651  0.0148035468950170
  0.7930574927468186  0.8336540670498067  0.3548453673004630
  0.9682170221244135  0.6779148307200273  0.2801904030674436
  0.7766555925670531  0.6613893385971394  0.0972100888461753
  0.8780545920959995  0.3953155284062646  0.1852006555030314
  0.9617477675653703  0.1647304813646144  0.2723122447878836
  0.6307423662138163  0.6657452080264861  0.4340034374670125
  0.7164770851369582  0.4136086107459747  0.0146853478613238
  0.7916686374504991  0.1601137520716378  0.1024637004125992
  0.8822473271751790  0.9242545037008014  0.1962239366458576
  0.5442844563984934  0.4184675543953702  0.3523605011170829
  0.6263756691955678  0.1695534963345722  0.4348255122578948
  0.6966364894890660  0.9266037433917234  0.0130292922352950
  0.5454910463260134  0.9210616964611873  0.3524216257803161
  0.7190920394846572  0.5815433973715685  0.7667344596400767
  0.5403340162674368  0.5979710504797708  0.6014526417317256
  0.6317231761188609  0.3226204716122467  0.6955049216578004
  0.7121796877183968  0.0820191127973757  0.7716992215235337
  0.8800009946273804  0.5826067742174743  0.9368867684145670
  0.9509934272639384  0.3235458332625853  0.5126959873877865
  0.5421170226921888  0.0854478577667095  0.6033194125174361
  0.6326724341609307  0.8391817265777419  0.6856042940283231
  0.7958210289176222  0.3311991001723058  0.8526875209747828
  0.8765160594860575  0.0803792996863848  0.9361387283747007
  0.9670844759800019  0.8355033915516827  0.5142866709134424
  0.7942060740039807  0.8332859937856014  0.8555106410156270
  0.9690631189480996  0.6774361393066144  0.7796777859421837
  0.7768541248077980  0.6617462432520469  0.5972600263818748
  0.8785371891572282  0.3949335918858239  0.6853660001488606
  0.9624157472735035  0.1638721869518989  0.7731863087808364
  0.6313877798337728  0.6652788723516920  0.9337029182328607
  0.7169644284273673  0.4134226477892682  0.5144339285069819
  0.7920105750482520  0.1597704651702401  0.6026739227056339
  0.8846108641336059  0.9239809970563542  0.6973899489207511
  0.5445947138440772  0.4186205896001454  0.8521863065511823
  0.6268147377428193  0.1697799084754479  0.9349531967476565
  0.6988233606189667  0.9271097327557385  0.5122548690470907
  0.5465151399098360  0.9201507149035351  0.8529533177369117
 
  0.00000000E+00  0.00000000E+00  0.00000000E+00
  0.00000000E+00  0.00000000E+00  0.00000000E+00
  0.00000000E+00  0.00000000E+00  0.00000000E+00
  0.00000000E+00  0.00000000E+00  0.00000000E+00
  0.00000000E+00  0.00000000E+00  0.00000000E+00
  0.00000000E+00  0.00000000E+00  0.00000000E+00
  0.00000000E+00  0.00000000E+00  0.00000000E+00
  0.00000000E+00  0.00000000E+00  0.00000000E+00
  0.00000000E+00  0.00000000E+00  0.00000000E+00
  0.00000000E+00  0.00000000E+00  0.00000000E+00
  0.00000000E+00  0.00000000E+00  0.00000000E+00
  0.00000000E+00  0.00000000E+00  0.00000000E+00
  0.00000000E+00  0.00000000E+00  0.00000000E+00
  0.00000000E+00  0.00000000E+00  0.00000000E+00
  0.00000000E+00  0.00000000E+00  0.00000000E+00
  0.00000000E+00  0.00000000E+00  0.00000000E+00
  0.00000000E+00  0.00000000E+00  0.00000000E+00
  0.00000000E+00  0.00000000E+00  0.00000000E+00
  0.00000000E+00  0.00000000E+00  0.00000000E+00
  0.00000000E+00  0.00000000E+00  0.00000000E+00
  0.00000000E+00  0.00000000E+00  0.00000000E+00
  0.00000000E+00  0.00000000E+00  0.00000000E+00
  0.00000000E+00  0.00000000E+00  0.00000000E+00
  0.00000000E+00  0.00000000E+00  0.00000000E+00
  0.00000000E+00  0.00000000E+00  0.00000000E+00
  0.00000000E+00  0.00000000E+00  0.00000000E+00
  0.00000000E+00  0.00000000E+00  0.00000000E+00
  0.00000000E+00  0.00000000E+00  0.00000000E+00
  0.00000000E+00  0.00000000E+00  0.00000000E+00
  0.00000000E+00  0.00000000E+00  0.00000000E+00
  0.00000000E+00  0.00000000E+00  0.00000000E+00
  0.00000000E+00  0.00000000E+00  0.00000000E+00
  0.00000000E+00  0.00000000E+00  0.00000000E+00
  0.00000000E+00  0.00000000E+00  0.00000000E+00
  0.00000000E+00  0.00000000E+00  0.00000000E+00
  0.00000000E+00  0.00000000E+00  0.00000000E+00
  0.00000000E+00  0.00000000E+00  0.00000000E+00
  0.00000000E+00  0.00000000E+00  0.00000000E+00
  0.00000000E+00  0.00000000E+00  0.00000000E+00
  0.00000000E+00  0.00000000E+00  0.00000000E+00
  0.00000000E+00  0.00000000E+00  0.00000000E+00
  0.00000000E+00  0.00000000E+00  0.00000000E+00
  0.00000000E+00  0.00000000E+00  0.00000000E+00
  0.00000000E+00  0.00000000E+00  0.00000000E+00
  0.00000000E+00  0.00000000E+00  0.00000000E+00
  0.00000000E+00  0.00000000E+00  0.00000000E+00
  0.00000000E+00  0.00000000E+00  0.00000000E+00
  0.00000000E+00  0.00000000E+00  0.00000000E+00
  0.00000000E+00  0.00000000E+00  0.00000000E+00
  0.00000000E+00  0.00000000E+00  0.00000000E+00
  0.00000000E+00  0.00000000E+00  0.00000000E+00
  0.00000000E+00  0.00000000E+00  0.00000000E+00
  0.00000000E+00  0.00000000E+00  0.00000000E+00
  0.00000000E+00  0.00000000E+00  0.00000000E+00
  0.00000000E+00  0.00000000E+00  0.00000000E+00
  0.00000000E+00  0.00000000E+00  0.00000000E+00
  0.00000000E+00  0.00000000E+00  0.00000000E+00
  0.00000000E+00  0.00000000E+00  0.00000000E+00
  0.00000000E+00  0.00000000E+00  0.00000000E+00
  0.00000000E+00  0.00000000E+00  0.00000000E+00
  0.00000000E+00  0.00000000E+00  0.00000000E+00
  0.00000000E+00  0.00000000E+00  0.00000000E+00
  0.00000000E+00  0.00000000E+00  0.00000000E+00
  0.00000000E+00  0.00000000E+00  0.00000000E+00
  0.00000000E+00  0.00000000E+00  0.00000000E+00
  0.00000000E+00  0.00000000E+00  0.00000000E+00
  0.00000000E+00  0.00000000E+00  0.00000000E+00
  0.00000000E+00  0.00000000E+00  0.00000000E+00
  0.00000000E+00  0.00000000E+00  0.00000000E+00
  0.00000000E+00  0.00000000E+00  0.00000000E+00
  0.00000000E+00  0.00000000E+00  0.00000000E+00
  0.00000000E+00  0.00000000E+00  0.00000000E+00
  0.00000000E+00  0.00000000E+00  0.00000000E+00
  0.00000000E+00  0.00000000E+00  0.00000000E+00
  0.00000000E+00  0.00000000E+00  0.00000000E+00
  0.00000000E+00  0.00000000E+00  0.00000000E+00
  0.00000000E+00  0.00000000E+00  0.00000000E+00
  0.00000000E+00  0.00000000E+00  0.00000000E+00
  0.00000000E+00  0.00000000E+00  0.00000000E+00
  0.00000000E+00  0.00000000E+00  0.00000000E+00
  0.00000000E+00  0.00000000E+00  0.00000000E+00
  0.00000000E+00  0.00000000E+00  0.00000000E+00
  0.00000000E+00  0.00000000E+00  0.00000000E+00
  0.00000000E+00  0.00000000E+00  0.00000000E+00
  0.00000000E+00  0.00000000E+00  0.00000000E+00
  0.00000000E+00  0.00000000E+00  0.00000000E+00
  0.00000000E+00  0.00000000E+00  0.00000000E+00
  0.00000000E+00  0.00000000E+00  0.00000000E+00
  0.00000000E+00  0.00000000E+00  0.00000000E+00
  0.00000000E+00  0.00000000E+00  0.00000000E+00
  0.00000000E+00  0.00000000E+00  0.00000000E+00
  0.00000000E+00  0.00000000E+00  0.00000000E+00
  0.00000000E+00  0.00000000E+00  0.00000000E+00
  0.00000000E+00  0.00000000E+00  0.00000000E+00
  0.00000000E+00  0.00000000E+00  0.00000000E+00
  0.00000000E+00  0.00000000E+00  0.00000000E+00
  0.00000000E+00  0.00000000E+00  0.00000000E+00
  0.00000000E+00  0.00000000E+00  0.00000000E+00
  0.00000000E+00  0.00000000E+00  0.00000000E+00
  0.00000000E+00  0.00000000E+00  0.00000000E+00
  0.00000000E+00  0.00000000E+00  0.00000000E+00
  0.00000000E+00  0.00000000E+00  0.00000000E+00
  0.00000000E+00  0.00000000E+00  0.00000000E+00
  0.00000000E+00  0.00000000E+00  0.00000000E+00
  0.00000000E+00  0.00000000E+00  0.00000000E+00
  0.00000000E+00  0.00000000E+00  0.00000000E+00
  0.00000000E+00  0.00000000E+00  0.00000000E+00
  0.00000000E+00  0.00000000E+00  0.00000000E+00
  0.00000000E+00  0.00000000E+00  0.00000000E+00
  0.00000000E+00  0.00000000E+00  0.00000000E+00
  0.00000000E+00  0.00000000E+00  0.00000000E+00
  0.00000000E+00  0.00000000E+00  0.00000000E+00
  0.00000000E+00  0.00000000E+00  0.00000000E+00
  0.00000000E+00  0.00000000E+00  0.00000000E+00
  0.00000000E+00  0.00000000E+00  0.00000000E+00
  0.00000000E+00  0.00000000E+00  0.00000000E+00
  0.00000000E+00  0.00000000E+00  0.00000000E+00
  0.00000000E+00  0.00000000E+00  0.00000000E+00
  0.00000000E+00  0.00000000E+00  0.00000000E+00
  0.00000000E+00  0.00000000E+00  0.00000000E+00
  0.00000000E+00  0.00000000E+00  0.00000000E+00
  0.00000000E+00  0.00000000E+00  0.00000000E+00
  0.00000000E+00  0.00000000E+00  0.00000000E+00
  0.00000000E+00  0.00000000E+00  0.00000000E+00
  0.00000000E+00  0.00000000E+00  0.00000000E+00
  0.00000000E+00  0.00000000E+00  0.00000000E+00
  0.00000000E+00  0.00000000E+00  0.00000000E+00
  0.00000000E+00  0.00000000E+00  0.00000000E+00
  0.00000000E+00  0.00000000E+00  0.00000000E+00
  0.00000000E+00  0.00000000E+00  0.00000000E+00
  0.00000000E+00  0.00000000E+00  0.00000000E+00
  0.00000000E+00  0.00000000E+00  0.00000000E+00
  0.00000000E+00  0.00000000E+00  0.00000000E+00
  0.00000000E+00  0.00000000E+00  0.00000000E+00
  0.00000000E+00  0.00000000E+00  0.00000000E+00
  0.00000000E+00  0.00000000E+00  0.00000000E+00
  0.00000000E+00  0.00000000E+00  0.00000000E+00
  0.00000000E+00  0.00000000E+00  0.00000000E+00
  0.00000000E+00  0.00000000E+00  0.00000000E+00
  0.00000000E+00  0.00000000E+00  0.00000000E+00
  0.00000000E+00  0.00000000E+00  0.00000000E+00
  0.00000000E+00  0.00000000E+00  0.00000000E+00
  0.00000000E+00  0.00000000E+00  0.00000000E+00
  0.00000000E+00  0.00000000E+00  0.00000000E+00
  0.00000000E+00  0.00000000E+00  0.00000000E+00
  0.00000000E+00  0.00000000E+00  0.00000000E+00
  0.00000000E+00  0.00000000E+00  0.00000000E+00
  0.00000000E+00  0.00000000E+00  0.00000000E+00
  0.00000000E+00  0.00000000E+00  0.00000000E+00
  0.00000000E+00  0.00000000E+00  0.00000000E+00
  0.00000000E+00  0.00000000E+00  0.00000000E+00
  0.00000000E+00  0.00000000E+00  0.00000000E+00
  0.00000000E+00  0.00000000E+00  0.00000000E+00
  0.00000000E+00  0.00000000E+00  0.00000000E+00
  0.00000000E+00  0.00000000E+00  0.00000000E+00
  0.00000000E+00  0.00000000E+00  0.00000000E+00
  0.00000000E+00  0.00000000E+00  0.00000000E+00
  0.00000000E+00  0.00000000E+00  0.00000000E+00
  0.00000000E+00  0.00000000E+00  0.00000000E+00
  0.00000000E+00  0.00000000E+00  0.00000000E+00
  0.00000000E+00  0.00000000E+00  0.00000000E+00
  0.00000000E+00  0.00000000E+00  0.00000000E+00
  0.00000000E+00  0.00000000E+00  0.00000000E+00
  0.00000000E+00  0.00000000E+00  0.00000000E+00
  0.00000000E+00  0.00000000E+00  0.00000000E+00
  0.00000000E+00  0.00000000E+00  0.00000000E+00
  0.00000000E+00  0.00000000E+00  0.00000000E+00
  0.00000000E+00  0.00000000E+00  0.00000000E+00
  0.00000000E+00  0.00000000E+00  0.00000000E+00
  0.00000000E+00  0.00000000E+00  0.00000000E+00
  0.00000000E+00  0.00000000E+00  0.00000000E+00
  0.00000000E+00  0.00000000E+00  0.00000000E+00
  0.00000000E+00  0.00000000E+00  0.00000000E+00
  0.00000000E+00  0.00000000E+00  0.00000000E+00
  0.00000000E+00  0.00000000E+00  0.00000000E+00
  0.00000000E+00  0.00000000E+00  0.00000000E+00
  0.00000000E+00  0.00000000E+00  0.00000000E+00
  0.00000000E+00  0.00000000E+00  0.00000000E+00
  0.00000000E+00  0.00000000E+00  0.00000000E+00
  0.00000000E+00  0.00000000E+00  0.00000000E+00
  0.00000000E+00  0.00000000E+00  0.00000000E+00
  0.00000000E+00  0.00000000E+00  0.00000000E+00
  0.00000000E+00  0.00000000E+00  0.00000000E+00
  0.00000000E+00  0.00000000E+00  0.00000000E+00
  0.00000000E+00  0.00000000E+00  0.00000000E+00
  0.00000000E+00  0.00000000E+00  0.00000000E+00
  0.00000000E+00  0.00000000E+00  0.00000000E+00
  0.00000000E+00  0.00000000E+00  0.00000000E+00
  0.00000000E+00  0.00000000E+00  0.00000000E+00
  0.00000000E+00  0.00000000E+00  0.00000000E+00
  0.00000000E+00  0.00000000E+00  0.00000000E+00
