supercell of POSCAR                     
   1.01189200000000     
     3.1482772356600002   -5.4762754812200001    9.9674464565599994
    -9.4511209497999999   -5.4731922780100000    0.0032121685426600
     6.3112884282600001  -10.9581161277000003   -9.9749049577999997
   Al   Sc   N 
    83    12    96
Direct
  0.0884695681569880  0.5816593937861896  0.3313069741411780
  0.0013928653156441  0.3270498841485576  0.2526437163547826
  0.0870386164868648  0.0889166013135352  0.3340877687501091
  0.2537021843018081  0.5761054758454236  0.4988194589234993
  0.3309138035808132  0.3241875327929336  0.0798923577288093
  0.4177280503052430  0.0869007084594884  0.1691278825503062
  0.0076264436793494  0.8373819970809535  0.2526405194117629
  0.1677271893068450  0.3347239368998487  0.4139910286522195
  0.2487442596794196  0.0909974873151498  0.4955065759470401
  0.3363813455578608  0.6679471325937882  0.3375772385903346
  0.1612477832322554  0.6708555041739430  0.1658597818237624
  0.2528190811773712  0.4079936240874176  0.2504233114503975
  0.3352726101921562  0.1661473652662622  0.3333989633054060
  0.0020266458147589  0.6705793720215922  0.4980052452003747
  0.1676358842950734  0.1616578319450284  0.1679759076432745
  0.2515204816989041  0.9198197836270694  0.2537228479926981
  0.4158433001462569  0.4151389815149216  0.4153881467669649
  0.4994658012911799  0.1635033687865928  0.4980703615147064
  0.0812198451028152  0.9209656270499380  0.0812242122960782
  0.4197324549360033  0.9195285343675010  0.4147008401348558
  0.0880852551482931  0.5841472301805908  0.8341340689295507
  0.0012485001644933  0.3267004761988090  0.7537261958514208
  0.0846019767985950  0.0839002074397541  0.8340862534726341
  0.2495234664156030  0.5804591820304594  0.9967802258862193
  0.3324736271660456  0.3237878157482328  0.5811078196725319
  0.4167736414618446  0.0847138308292230  0.6690363833694022
  0.0049695287180569  0.8395859408258275  0.7534762108895094
  0.1670702856166812  0.3329021730107584  0.9141593095689586
  0.2477512587020456  0.0859706752992651  0.9970512682029522
  0.1636461706555323  0.8350313001326768  0.9157875978237939
  0.3362042142844643  0.6702147190214305  0.8372468215498685
  0.1597523859637278  0.6709674104426497  0.6667037768274184
  0.2516485518678380  0.4083832248516401  0.7510502555021006
  0.3334964333014341  0.1649841411349584  0.8336120287045503
  0.0022866536870296  0.6701535266028529  0.9972942409421748
  0.1664677599329920  0.1612838158161836  0.6682744268010339
  0.2522525494236945  0.9180624567113824  0.7527405830444067
  0.4142512899784592  0.4156022765093397  0.9152740985744856
  0.4983018396494501  0.1629601625734267  0.9977025794303671
  0.0782389356247108  0.9215495370318720  0.5820762816922951
  0.4177053829368731  0.9177936635027919  0.9138202403263236
  0.5893993109832678  0.5838906950393934  0.3340983828103745
  0.5023345282358775  0.3268993753500666  0.2534897975468127
  0.5858256452362625  0.0847399061758694  0.3341793932035415
  0.7494680328952228  0.5804018902403456  0.4972703590012770
  0.8307502101818045  0.3238989042240021  0.0800344218407076
  0.9176837879577633  0.0860925430043906  0.1696016383178502
  0.5046668312176052  0.8398793228172465  0.2537930486672195
  0.6679167854275008  0.3331505383542961  0.4144969426151519
  0.7476653583691899  0.0864867221290098  0.4979118002913623
  0.6640515185013669  0.8350103224403824  0.4165620060441029
  0.8367712719530189  0.6704361901077789  0.3376963622659943
  0.6603505917344421  0.6712283073439025  0.1665170622856920
  0.7524075514813049  0.4084090901101689  0.2510261642591587
  0.8344736514093114  0.1655647499539370  0.3344062833516332
  0.5033248933666812  0.6702972977041668  0.4972337853078415
  0.6677646225897718  0.1612456101322906  0.1685681235996626
  0.7525975758276147  0.9185201812072705  0.2546097013911321
  0.9146062616522030  0.4162995054294925  0.4154303620600146
  0.9985714601023830  0.1638506188651476  0.4981758525507587
  0.5810613658554118  0.9208977386134620  0.0816440478457992
  0.9172172156879412  0.9183905964581669  0.4156265335251419
  0.5882085278599476  0.5838154931896185  0.8341632415623579
  0.5011932378736432  0.3261319679923460  0.7539482423112247
  0.5843949483086703  0.0838381015537593  0.8341583856893564
  0.7492779284665261  0.5803554083723270  0.9971497832793261
  0.8310292570605284  0.3244159090426990  0.5804942143322052
  0.9161271989635580  0.0870217763288750  0.6699710819640785
  0.5049419109067799  0.8393966511587152  0.7525200292674157
  0.6669695568274037  0.3328670673396203  0.9143974034966149
  0.7475286803228798  0.0858138112301390  0.9973281288727378
  0.6631741455827864  0.8348603901180738  0.9160414313391243
  0.8359388367709428  0.6702128754260031  0.8376598699481050
  0.6600813728921224  0.6709080985359677  0.6666803220174344
  0.7516966174861466  0.4080912356673991  0.7513168510974140
  0.8336137906988554  0.1654541342988409  0.8342372540945107
  0.5023612319757973  0.6699366859708604  0.9971615354819292
  0.6667568717224199  0.1614717705196327  0.6688302514691173
  0.7521685557948388  0.9187919206862176  0.7542175346810609
  0.9143030990321463  0.4157353414873199  0.9154257008176288
  0.9983638971713020  0.1629569818590824  0.9978220093620038
  0.5810493976167521  0.9209503175682912  0.5817902691476391
  0.9176718059550311  0.9179149952926409  0.9142832083264167
  0.4050080971522121  0.5825762128464547  0.1731806728001715
  0.3280379971547731  0.8384029650964493  0.0837832345970639
  0.0783458604911189  0.4155078267753893  0.0847930517035849
  0.4045785069072352  0.5830313038694470  0.6740506775207109
  0.3259715672188008  0.8366167908549400  0.5804110604687480
  0.0788638421144867  0.4164281877457654  0.5850701449068865
  0.9042555098962950  0.5829642146787535  0.1734465043896520
  0.8277191752237414  0.8384493201841465  0.0842118163565431
  0.5783676639077697  0.4149982355839725  0.0851008979642103
  0.9036704231095385  0.5824666291330658  0.6743887526957693
  0.8271847192774260  0.8379415368413348  0.5848150664978462
  0.5789964204518938  0.4156370685396311  0.5856357318606058
  0.2192151976532557  0.5812675318255174  0.2661812415420286
  0.0399683134445681  0.5985429807206160  0.1019881906544953
  0.1318071988819938  0.3233136119280431  0.1948070780601157
  0.2131523861081845  0.0839534032305025  0.2710056448941458
  0.3812641193865431  0.5820266024918226  0.4371731446040670
  0.4510598176677973  0.3234291090893890  0.0124574993974775
  0.0423126472779884  0.0853719077755173  0.1033903299966994
  0.1325351293185406  0.8389314882920971  0.1852319255769501
  0.2964187802761984  0.3321910583028895  0.3521093742668384
  0.3778862873806048  0.0828165873304840  0.4349402414294374
  0.4674897737957124  0.8355638500400957  0.0135668060345537
  0.3077522284031673  0.8333631716028620  0.3484104669255501
  0.4701858044285601  0.6766823264515622  0.2795857390404350
  0.2771194709739717  0.6613555948028207  0.0970888274469601
  0.3789185450013619  0.3952933038413988  0.1848352849341808
  0.4630503272836961  0.1648824592516434  0.2720231350810209
  0.1262538582502586  0.6382327881243199  0.4375803426464131
  0.2168837574886524  0.4137647732490066  0.0141270875242085
  0.2921121776208508  0.1605293656766307  0.1020739524231260
  0.3838237131503774  0.9248184265132195  0.1955804692307339
  0.0438156607848086  0.4173945403343708  0.3512255976438396
  0.1268286289138203  0.1726423976599847  0.4346137447131184
  0.1991993512809600  0.9271701006587705  0.0124497807806421
  0.0337996049688911  0.9325098846808757  0.3464162075693693
  0.2185757171896938  0.5818624659568741  0.7671438667351751
  0.0384864894420005  0.5987927052709239  0.6031926070247522
  0.1310496740730471  0.3233479898251304  0.6952402429656530
  0.2119322015719405  0.0820046807472394  0.7709095361315335
  0.3797159417834806  0.5828274967769644  0.9367274580719780
  0.4521131932917797  0.3236944123156746  0.5130121610903515
  0.0401010486324864  0.0869477673999555  0.6040581058049810
  0.1305010634676620  0.8387087862366371  0.6859198843637486
  0.2954900731306580  0.3312210830867741  0.8522479784959316
  0.3766715121857231  0.0810474896509774  0.9351599666577712
  0.4685788087308751  0.8357671148101034  0.5134731063504887
  0.2933406311418594  0.8336009285229835  0.8543060885861848
  0.4692563101212670  0.6776483675369462  0.7802796727479802
  0.2759160595418209  0.6600082948099057  0.5977569693586631
  0.3783748296628815  0.3956132562377448  0.6856586058277401
  0.4615745050443465  0.1636854993055294  0.7720219152448777
  0.1307871143425388  0.6661997168757239  0.9343648229363808
  0.2186547425305392  0.4107051422031773  0.5152922874961305
  0.2919640371439058  0.1609914405932642  0.6027054628669077
  0.3828663272669317  0.9218719753760496  0.6943246335041522
  0.0442949005003399  0.4188975069093743  0.8523622800038098
  0.1268130898111792  0.1695635904313235  0.9349232150994098
  0.1997943100791133  0.9394485358221800  0.5207090868299105
  0.0462999751713937  0.9206560921642790  0.8531046550018360
  0.7194842231020502  0.5819855610319991  0.2667944823418154
  0.5402647990583205  0.5981862905672202  0.1016802114552462
  0.6320790335383037  0.3231162448375287  0.1951667802643726
  0.7130848059724357  0.0827584924415277  0.2713412363522494
  0.8789212905359065  0.5830355602786952  0.4370010163479066
  0.9510587369043293  0.3233896168558985  0.0126281842520086
  0.5424506689065183  0.0857069291933001  0.1032244377591383
  0.6318961806909087  0.8393456572782867  0.1858373905778734
  0.7959317676360556  0.3317880502881749  0.3523960970937239
  0.8762389698269004  0.0823467426009259  0.4363051070176667
  0.9672221174773199  0.8356091435974591  0.0139751533742540
  0.7934014465433847  0.8333242785976722  0.3552983919769090
  0.9698985010262433  0.6774631999421672  0.2801684713005059
  0.7765398399162535  0.6616677040892256  0.0974184981714714
  0.8781930472391579  0.3957890758432754  0.1846895257250409
  0.9618653205789158  0.1658444342704826  0.2719365159176803
  0.6311600424780153  0.6660633592464720  0.4343466273540315
  0.7167864982690446  0.4135500523137026  0.0143560618487797
  0.7922128031082281  0.1600162903442026  0.1024195994685826
  0.8841393885304569  0.9234968518408664  0.1967794910284013
  0.5452931985866982  0.4186983304018526  0.3521645642357782
  0.6273097500129126  0.1700135380351213  0.4350753976077399
  0.6989900266316909  0.9270224405751435  0.0126516787446889
  0.5485066129178122  0.9215179993750269  0.3528732432835895
  0.7185239278000992  0.5817387064483555  0.7671266077410266
  0.5395022593766683  0.5985783638302280  0.6020097789418699
  0.6310169555851388  0.3230287806597261  0.6957308328587644
  0.7119343274240890  0.0825438582271900  0.7715354419377789
  0.8795984405862356  0.5828156354648399  0.9371265705082266
  0.9513508924850953  0.3245493158824715  0.5129045398740502
  0.5419955433435319  0.0854298879401583  0.6034140821545932
  0.6320490333936775  0.8391183171424714  0.6857302678568828
  0.7953888551644255  0.3314985441668483  0.8526575106002312
  0.8765566666537765  0.0810909466540437  0.9355504225393219
  0.9668155685139581  0.8353380626928981  0.5140357481708193
  0.7932031249972766  0.8335385160345652  0.8550305056175702
  0.9686155836364705  0.6778508024886705  0.7806079438543492
  0.7760403191446201  0.6610691830718451  0.5977501475357059
  0.8776705013218873  0.3952312279023147  0.6856170749737558
  0.9617051868010336  0.1647640736863707  0.7728542313643985
  0.6308178169686158  0.6658909199450136  0.9343314196244634
  0.7169493950440682  0.4137699608091694  0.5145376032880407
  0.7911056645786942  0.1610693421123273  0.6028529688984605
  0.8832108092193636  0.9243893036258868  0.6966422548476672
  0.5442664380261562  0.4185499285029621  0.8523859475825759
  0.6267069478302858  0.1694552281447201  0.9349508415041186
  0.6994370591339063  0.9274553986166794  0.5130873335262862
  0.5462263969200123  0.9203509313324219  0.8524646939993730
 
  0.00000000E+00  0.00000000E+00  0.00000000E+00
  0.00000000E+00  0.00000000E+00  0.00000000E+00
  0.00000000E+00  0.00000000E+00  0.00000000E+00
  0.00000000E+00  0.00000000E+00  0.00000000E+00
  0.00000000E+00  0.00000000E+00  0.00000000E+00
  0.00000000E+00  0.00000000E+00  0.00000000E+00
  0.00000000E+00  0.00000000E+00  0.00000000E+00
  0.00000000E+00  0.00000000E+00  0.00000000E+00
  0.00000000E+00  0.00000000E+00  0.00000000E+00
  0.00000000E+00  0.00000000E+00  0.00000000E+00
  0.00000000E+00  0.00000000E+00  0.00000000E+00
  0.00000000E+00  0.00000000E+00  0.00000000E+00
  0.00000000E+00  0.00000000E+00  0.00000000E+00
  0.00000000E+00  0.00000000E+00  0.00000000E+00
  0.00000000E+00  0.00000000E+00  0.00000000E+00
  0.00000000E+00  0.00000000E+00  0.00000000E+00
  0.00000000E+00  0.00000000E+00  0.00000000E+00
  0.00000000E+00  0.00000000E+00  0.00000000E+00
  0.00000000E+00  0.00000000E+00  0.00000000E+00
  0.00000000E+00  0.00000000E+00  0.00000000E+00
  0.00000000E+00  0.00000000E+00  0.00000000E+00
  0.00000000E+00  0.00000000E+00  0.00000000E+00
  0.00000000E+00  0.00000000E+00  0.00000000E+00
  0.00000000E+00  0.00000000E+00  0.00000000E+00
  0.00000000E+00  0.00000000E+00  0.00000000E+00
  0.00000000E+00  0.00000000E+00  0.00000000E+00
  0.00000000E+00  0.00000000E+00  0.00000000E+00
  0.00000000E+00  0.00000000E+00  0.00000000E+00
  0.00000000E+00  0.00000000E+00  0.00000000E+00
  0.00000000E+00  0.00000000E+00  0.00000000E+00
  0.00000000E+00  0.00000000E+00  0.00000000E+00
  0.00000000E+00  0.00000000E+00  0.00000000E+00
  0.00000000E+00  0.00000000E+00  0.00000000E+00
  0.00000000E+00  0.00000000E+00  0.00000000E+00
  0.00000000E+00  0.00000000E+00  0.00000000E+00
  0.00000000E+00  0.00000000E+00  0.00000000E+00
  0.00000000E+00  0.00000000E+00  0.00000000E+00
  0.00000000E+00  0.00000000E+00  0.00000000E+00
  0.00000000E+00  0.00000000E+00  0.00000000E+00
  0.00000000E+00  0.00000000E+00  0.00000000E+00
  0.00000000E+00  0.00000000E+00  0.00000000E+00
  0.00000000E+00  0.00000000E+00  0.00000000E+00
  0.00000000E+00  0.00000000E+00  0.00000000E+00
  0.00000000E+00  0.00000000E+00  0.00000000E+00
  0.00000000E+00  0.00000000E+00  0.00000000E+00
  0.00000000E+00  0.00000000E+00  0.00000000E+00
  0.00000000E+00  0.00000000E+00  0.00000000E+00
  0.00000000E+00  0.00000000E+00  0.00000000E+00
  0.00000000E+00  0.00000000E+00  0.00000000E+00
  0.00000000E+00  0.00000000E+00  0.00000000E+00
  0.00000000E+00  0.00000000E+00  0.00000000E+00
  0.00000000E+00  0.00000000E+00  0.00000000E+00
  0.00000000E+00  0.00000000E+00  0.00000000E+00
  0.00000000E+00  0.00000000E+00  0.00000000E+00
  0.00000000E+00  0.00000000E+00  0.00000000E+00
  0.00000000E+00  0.00000000E+00  0.00000000E+00
  0.00000000E+00  0.00000000E+00  0.00000000E+00
  0.00000000E+00  0.00000000E+00  0.00000000E+00
  0.00000000E+00  0.00000000E+00  0.00000000E+00
  0.00000000E+00  0.00000000E+00  0.00000000E+00
  0.00000000E+00  0.00000000E+00  0.00000000E+00
  0.00000000E+00  0.00000000E+00  0.00000000E+00
  0.00000000E+00  0.00000000E+00  0.00000000E+00
  0.00000000E+00  0.00000000E+00  0.00000000E+00
  0.00000000E+00  0.00000000E+00  0.00000000E+00
  0.00000000E+00  0.00000000E+00  0.00000000E+00
  0.00000000E+00  0.00000000E+00  0.00000000E+00
  0.00000000E+00  0.00000000E+00  0.00000000E+00
  0.00000000E+00  0.00000000E+00  0.00000000E+00
  0.00000000E+00  0.00000000E+00  0.00000000E+00
  0.00000000E+00  0.00000000E+00  0.00000000E+00
  0.00000000E+00  0.00000000E+00  0.00000000E+00
  0.00000000E+00  0.00000000E+00  0.00000000E+00
  0.00000000E+00  0.00000000E+00  0.00000000E+00
  0.00000000E+00  0.00000000E+00  0.00000000E+00
  0.00000000E+00  0.00000000E+00  0.00000000E+00
  0.00000000E+00  0.00000000E+00  0.00000000E+00
  0.00000000E+00  0.00000000E+00  0.00000000E+00
  0.00000000E+00  0.00000000E+00  0.00000000E+00
  0.00000000E+00  0.00000000E+00  0.00000000E+00
  0.00000000E+00  0.00000000E+00  0.00000000E+00
  0.00000000E+00  0.00000000E+00  0.00000000E+00
  0.00000000E+00  0.00000000E+00  0.00000000E+00
  0.00000000E+00  0.00000000E+00  0.00000000E+00
  0.00000000E+00  0.00000000E+00  0.00000000E+00
  0.00000000E+00  0.00000000E+00  0.00000000E+00
  0.00000000E+00  0.00000000E+00  0.00000000E+00
  0.00000000E+00  0.00000000E+00  0.00000000E+00
  0.00000000E+00  0.00000000E+00  0.00000000E+00
  0.00000000E+00  0.00000000E+00  0.00000000E+00
  0.00000000E+00  0.00000000E+00  0.00000000E+00
  0.00000000E+00  0.00000000E+00  0.00000000E+00
  0.00000000E+00  0.00000000E+00  0.00000000E+00
  0.00000000E+00  0.00000000E+00  0.00000000E+00
  0.00000000E+00  0.00000000E+00  0.00000000E+00
  0.00000000E+00  0.00000000E+00  0.00000000E+00
  0.00000000E+00  0.00000000E+00  0.00000000E+00
  0.00000000E+00  0.00000000E+00  0.00000000E+00
  0.00000000E+00  0.00000000E+00  0.00000000E+00
  0.00000000E+00  0.00000000E+00  0.00000000E+00
  0.00000000E+00  0.00000000E+00  0.00000000E+00
  0.00000000E+00  0.00000000E+00  0.00000000E+00
  0.00000000E+00  0.00000000E+00  0.00000000E+00
  0.00000000E+00  0.00000000E+00  0.00000000E+00
  0.00000000E+00  0.00000000E+00  0.00000000E+00
  0.00000000E+00  0.00000000E+00  0.00000000E+00
  0.00000000E+00  0.00000000E+00  0.00000000E+00
  0.00000000E+00  0.00000000E+00  0.00000000E+00
  0.00000000E+00  0.00000000E+00  0.00000000E+00
  0.00000000E+00  0.00000000E+00  0.00000000E+00
  0.00000000E+00  0.00000000E+00  0.00000000E+00
  0.00000000E+00  0.00000000E+00  0.00000000E+00
  0.00000000E+00  0.00000000E+00  0.00000000E+00
  0.00000000E+00  0.00000000E+00  0.00000000E+00
  0.00000000E+00  0.00000000E+00  0.00000000E+00
  0.00000000E+00  0.00000000E+00  0.00000000E+00
  0.00000000E+00  0.00000000E+00  0.00000000E+00
  0.00000000E+00  0.00000000E+00  0.00000000E+00
  0.00000000E+00  0.00000000E+00  0.00000000E+00
  0.00000000E+00  0.00000000E+00  0.00000000E+00
  0.00000000E+00  0.00000000E+00  0.00000000E+00
  0.00000000E+00  0.00000000E+00  0.00000000E+00
  0.00000000E+00  0.00000000E+00  0.00000000E+00
  0.00000000E+00  0.00000000E+00  0.00000000E+00
  0.00000000E+00  0.00000000E+00  0.00000000E+00
  0.00000000E+00  0.00000000E+00  0.00000000E+00
  0.00000000E+00  0.00000000E+00  0.00000000E+00
  0.00000000E+00  0.00000000E+00  0.00000000E+00
  0.00000000E+00  0.00000000E+00  0.00000000E+00
  0.00000000E+00  0.00000000E+00  0.00000000E+00
  0.00000000E+00  0.00000000E+00  0.00000000E+00
  0.00000000E+00  0.00000000E+00  0.00000000E+00
  0.00000000E+00  0.00000000E+00  0.00000000E+00
  0.00000000E+00  0.00000000E+00  0.00000000E+00
  0.00000000E+00  0.00000000E+00  0.00000000E+00
  0.00000000E+00  0.00000000E+00  0.00000000E+00
  0.00000000E+00  0.00000000E+00  0.00000000E+00
  0.00000000E+00  0.00000000E+00  0.00000000E+00
  0.00000000E+00  0.00000000E+00  0.00000000E+00
  0.00000000E+00  0.00000000E+00  0.00000000E+00
  0.00000000E+00  0.00000000E+00  0.00000000E+00
  0.00000000E+00  0.00000000E+00  0.00000000E+00
  0.00000000E+00  0.00000000E+00  0.00000000E+00
  0.00000000E+00  0.00000000E+00  0.00000000E+00
  0.00000000E+00  0.00000000E+00  0.00000000E+00
  0.00000000E+00  0.00000000E+00  0.00000000E+00
  0.00000000E+00  0.00000000E+00  0.00000000E+00
  0.00000000E+00  0.00000000E+00  0.00000000E+00
  0.00000000E+00  0.00000000E+00  0.00000000E+00
  0.00000000E+00  0.00000000E+00  0.00000000E+00
  0.00000000E+00  0.00000000E+00  0.00000000E+00
  0.00000000E+00  0.00000000E+00  0.00000000E+00
  0.00000000E+00  0.00000000E+00  0.00000000E+00
  0.00000000E+00  0.00000000E+00  0.00000000E+00
  0.00000000E+00  0.00000000E+00  0.00000000E+00
  0.00000000E+00  0.00000000E+00  0.00000000E+00
  0.00000000E+00  0.00000000E+00  0.00000000E+00
  0.00000000E+00  0.00000000E+00  0.00000000E+00
  0.00000000E+00  0.00000000E+00  0.00000000E+00
  0.00000000E+00  0.00000000E+00  0.00000000E+00
  0.00000000E+00  0.00000000E+00  0.00000000E+00
  0.00000000E+00  0.00000000E+00  0.00000000E+00
  0.00000000E+00  0.00000000E+00  0.00000000E+00
  0.00000000E+00  0.00000000E+00  0.00000000E+00
  0.00000000E+00  0.00000000E+00  0.00000000E+00
  0.00000000E+00  0.00000000E+00  0.00000000E+00
  0.00000000E+00  0.00000000E+00  0.00000000E+00
  0.00000000E+00  0.00000000E+00  0.00000000E+00
  0.00000000E+00  0.00000000E+00  0.00000000E+00
  0.00000000E+00  0.00000000E+00  0.00000000E+00
  0.00000000E+00  0.00000000E+00  0.00000000E+00
  0.00000000E+00  0.00000000E+00  0.00000000E+00
  0.00000000E+00  0.00000000E+00  0.00000000E+00
  0.00000000E+00  0.00000000E+00  0.00000000E+00
  0.00000000E+00  0.00000000E+00  0.00000000E+00
  0.00000000E+00  0.00000000E+00  0.00000000E+00
  0.00000000E+00  0.00000000E+00  0.00000000E+00
  0.00000000E+00  0.00000000E+00  0.00000000E+00
  0.00000000E+00  0.00000000E+00  0.00000000E+00
  0.00000000E+00  0.00000000E+00  0.00000000E+00
  0.00000000E+00  0.00000000E+00  0.00000000E+00
  0.00000000E+00  0.00000000E+00  0.00000000E+00
  0.00000000E+00  0.00000000E+00  0.00000000E+00
  0.00000000E+00  0.00000000E+00  0.00000000E+00
  0.00000000E+00  0.00000000E+00  0.00000000E+00
  0.00000000E+00  0.00000000E+00  0.00000000E+00
  0.00000000E+00  0.00000000E+00  0.00000000E+00
  0.00000000E+00  0.00000000E+00  0.00000000E+00
  0.00000000E+00  0.00000000E+00  0.00000000E+00
  0.00000000E+00  0.00000000E+00  0.00000000E+00
  0.00000000E+00  0.00000000E+00  0.00000000E+00
