supercell of POSCAR                     
   1.01189200000000     
     3.1482772356600002   -5.4762754812200001    9.9674464565599994
    -9.4511209497999999   -5.4731922780100000    0.0032121685426600
     6.3112884282600001  -10.9581161277000003   -9.9749049577999997
   Al   Sc   N    O 
    84    12    95     1
Direct
  0.0883433047334705  0.5827748337615688  0.3320945625400853
  0.0023523985400118  0.3285288261993458  0.2535433322632343
  0.0850605732889420  0.0842438075564260  0.3340889605360502
  0.2492515917372629  0.5803420347765282  0.4966177086885963
  0.3315919317976892  0.3217387437103270  0.0827775051003599
  0.4181452315617804  0.0853649063496391  0.1696627342194930
  0.0063447200866236  0.8394200785534522  0.2525280508443899
  0.1672789357453794  0.3328944342646878  0.4145984311929709
  0.2478952690252783  0.0857620284691478  0.4973171918541013
  0.1637514886316893  0.8343307685509700  0.4157125196521960
  0.3367983585356740  0.6700275494688128  0.3372516781385215
  0.1605066530768511  0.6710014622819855  0.1650630283174408
  0.2521862749080697  0.4080729652548953  0.2519794468797087
  0.3339190676539872  0.1651394957807142  0.3341909581712201
  0.0025947072823058  0.6696837867187213  0.4962655693282798
  0.1676497375088317  0.1587823232300067  0.1690252825480840
  0.2534406136117227  0.9177460570656422  0.2542036101519116
  0.4148787132822420  0.4158688373653945  0.4157926638777241
  0.4985559435032201  0.1632942564501931  0.4980449668275924
  0.0805053443800290  0.9208005722581944  0.0809821200369782
  0.4181880611805369  0.9178784359257719  0.4142565782015737
  0.0880873481998279  0.5844728732029338  0.8324786078222033
  0.0007896311957936  0.3277534745740667  0.7535290244395796
  0.0841864242082124  0.0850017824806173  0.8341072597364629
  0.2476095404311636  0.5842482224398609  0.9966014712850608
  0.3305720212314185  0.3242064944201601  0.5804866285382815
  0.4172243450721922  0.0865510983149775  0.6692998466117572
  0.0055071111685479  0.8403781109576656  0.7526073611173203
  0.1647158345020117  0.3323947125719329  0.9133932852295601
  0.2477862622096296  0.0853452454369616  0.9972973253678745
  0.1633470984039889  0.8359867969073136  0.9152508802547530
  0.3355540514302930  0.6702617724588293  0.8370135956278020
  0.1604539933097939  0.6711676232196027  0.6658999942397870
  0.2515079496224644  0.4088331912649679  0.7512858640915709
  0.3334925560605555  0.1655500150496323  0.8341735284199814
  0.0012792526812859  0.6727535781668479  0.9949129657874920
  0.1671549943904012  0.1613776370373259  0.6684133155081184
  0.2524373787221066  0.9189493410615484  0.7536920879851365
  0.4150923862310876  0.4162054217385815  0.9147615944227496
  0.4977406648076013  0.1632558022428228  0.9981011767525629
  0.0811072781020457  0.9211739396531371  0.5811165322908636
  0.4178431669162919  0.9177901051319211  0.9143999910916776
  0.5891895949719625  0.5835765979071184  0.3340548792853610
  0.5017071676963027  0.3268118226128323  0.2540546908201762
  0.5850966890742413  0.0841661454355815  0.3342593772736109
  0.7494887320038188  0.5806985615016700  0.4968853330754825
  0.8289331991572766  0.3227002634481124  0.0795521284449023
  0.9175461247428700  0.0868750209916200  0.1693964373057923
  0.5070415298233044  0.8391764071449472  0.2531960565284521
  0.6674448225595100  0.3330334463889955  0.4142129538847286
  0.7479912667941448  0.0858968583844941  0.4972162347446627
  0.6639707245759467  0.8347831763580160  0.4159936827804600
  0.8366381595266290  0.6699281756197593  0.3367501879735855
  0.6626827303514986  0.6695027691710749  0.1666491486868935
  0.7525875481500464  0.4079072296295223  0.2502250409221531
  0.8344158449647665  0.1654990520281316  0.3336844630489466
  0.5022763102045431  0.6699850909917089  0.4972759164615468
  0.6675081860778107  0.1608917425063652  0.1683764255172520
  0.7534146651457334  0.9185001691584915  0.2537247711640376
  0.9143697838310416  0.4159598490717045  0.4152906015871167
  0.9984281201384917  0.1632745718111792  0.4977492209374219
  0.5815720585232000  0.9202989774368291  0.0816188217310199
  0.9182879854305668  0.9177933919919141  0.4136755735174731
  0.5882149973826429  0.5842829730073689  0.8338143320440636
  0.5013560462821189  0.3270464021475377  0.7534394021110131
  0.5843953332687377  0.0843785453113881  0.8342900118123495
  0.7494029533419919  0.5808166086367379  0.9975188199383993
  0.8303254503228388  0.3243089086045785  0.5801280399591064
  0.9171896365053058  0.0867483455892071  0.6690900905309078
  0.5054658719475214  0.8398466959658393  0.7531562080113119
  0.6669869852024490  0.3330704631641765  0.9141926368584237
  0.7473477006622318  0.0849973413718814  0.9972462810024538
  0.6635509311236305  0.8346314557035015  0.9160967687937287
  0.8354283896674062  0.6706945623373599  0.8364709005319710
  0.6603498487788002  0.6712065827377032  0.6664114636263321
  0.7514870846294386  0.4091040585362862  0.7508899889308225
  0.8333449069694012  0.1662647054443127  0.8338856502387202
  0.5018363736215790  0.6696527397955805  0.9978658058254553
  0.6671418770810220  0.1614042792968533  0.6683459469309696
  0.7521677775389577  0.9190448234147297  0.7535142014835472
  0.9135074630469546  0.4168970373755485  0.9158125167397699
  0.9973335851027443  0.1646342481840648  0.9985285491612785
  0.5811256676869760  0.9211269709672507  0.5814936398476718
  0.9169720591928723  0.9193971328839154  0.9135199188513354
  0.4056668957996550  0.5830759513641084  0.1749682425489567
  0.3278001075683932  0.8388004190197904  0.0849281985059136
  0.0686792004159074  0.4171492221318829  0.0949870504833257
  0.4044727802483621  0.5826138929861742  0.6739828306168576
  0.3279624374279280  0.8383401934179417  0.5841164653507462
  0.0781196347411424  0.4152575917462471  0.5851976787750104
  0.9111611449905013  0.5801072100030922  0.1748214296044779
  0.8289718187134838  0.8363460034403758  0.0846515808094424
  0.5777616803002772  0.4150620056595073  0.0854610669321758
  0.9051189740415566  0.5826298038572162  0.6734131891399713
  0.8282362652328459  0.8383519034343720  0.5837378446340225
  0.5784538836025988  0.4157504867572968  0.5852140310074461
  0.2205425011467099  0.5817883795483851  0.2661931685670424
  0.0420031515570898  0.6064433554096595  0.0967997397635330
  0.1353404694126041  0.3176298037964003  0.1982338474046870
  0.2132076925314053  0.0807859631225440  0.2719777163279815
  0.3798736366879751  0.5827980858195048  0.4370034328439516
  0.4474501485764009  0.3241900012327790  0.0127496818176880
  0.0421686428727881  0.0854709551532480  0.1031294850584601
  0.1336030229839054  0.8398020254752012  0.1850914668749439
  0.2965115505988294  0.3311872722667601  0.3533087818612728
  0.3771044779570687  0.0811096716937598  0.4356579288593636
  0.4668185804012168  0.8354068815059605  0.0140600120845491
  0.2941477166328639  0.8332005265083779  0.3551874131528194
  0.4701672719492578  0.6782422360757892  0.2807801416769067
  0.2786750986627027  0.6598380931899044  0.0969284686759124
  0.3778509765078724  0.3955492696493224  0.1850632507703835
  0.4619864319925355  0.1645040868589334  0.2724085431211378
  0.1310918481572827  0.6654029851514949  0.4334483859967690
  0.2919245223596221  0.1592876521295921  0.1022366950981848
  0.3848001800252661  0.9236484549621196  0.1967218338158432
  0.0446260020695988  0.4182718231696043  0.3535240907057826
  0.1271395632763372  0.1694237719583711  0.4352338388342645
  0.1991798941964547  0.9268136107187246  0.0122328667120897
  0.0471633462418737  0.9207796588858415  0.3526847229429393
  0.2186907255250787  0.5819905816717394  0.7662697617237697
  0.0399751137738846  0.5985608405842697  0.6012292391768597
  0.1311761624506644  0.3230227645204167  0.6956545188099454
  0.2118457754741669  0.0829284510623225  0.7715147940017673
  0.3776701804750076  0.5817613422975469  0.9372061410327817
  0.4511422108471592  0.3235662099434435  0.5132695654844923
  0.0420802093245385  0.0856981560166403  0.6032656474144105
  0.1319929321091067  0.8395720771360757  0.6852562587649302
  0.2941697404527730  0.3323230121450749  0.8538468109122093
  0.3764621277138858  0.0812393657580373  0.9353008749221203
  0.4674713776616457  0.8356679152976696  0.5139455449481574
  0.2935076769052429  0.8339634730192529  0.8546101636609222
  0.4686762355996450  0.6781429612929273  0.7802737113578289
  0.2768743392104156  0.6613622630966560  0.5971612107327786
  0.3774814724636570  0.3952372855384851  0.6856515451327923
  0.4614186052167000  0.1650518303528088  0.7724753092838341
  0.1306861842079385  0.6666773998671189  0.9323295403779426
  0.2168605825426155  0.4136603510953236  0.5147258381259761
  0.2917869421519512  0.1603001446421288  0.6024820732316840
  0.3835728826388021  0.9245204973189658  0.6963058749619790
  0.0444866142977105  0.4195941695844567  0.8530948974764883
  0.1268046403916330  0.1708132486798419  0.9358190614355593
  0.1992975500293213  0.9269069104260410  0.5124906568533802
  0.0462688331298580  0.9217802528929298  0.8523086248329008
  0.7187395530282643  0.5809606045970170  0.2674414648915757
  0.5403030283553392  0.5980110288745308  0.1022768364224689
  0.6306648579564822  0.3224087821031176  0.1952285179738098
  0.7122964573646371  0.0823072198852159  0.2713412601457605
  0.8793640405847327  0.5829463967917548  0.4368767761799077
  0.9492709325901743  0.3242477174548384  0.0120008224583685
  0.5420669645634462  0.0852940578447274  0.1032009338990250
  0.6329709053332380  0.8385690563179224  0.1855601510845304
  0.7955445728326538  0.3312435996488858  0.3522993560831225
  0.8769073637613616  0.0810546183827157  0.4353449992096330
  0.9665610978732957  0.8380877280841617  0.0122089981538238
  0.7935120428844087  0.8335793026609863  0.3548770702709092
  0.9696669721533269  0.6795131311162024  0.2813089681794239
  0.7783848395683890  0.6596323416356356  0.0980513898882833
  0.8763681285805163  0.3909130915361345  0.1839431840816488
  0.9625023975325604  0.1648698166609748  0.2725474382274342
  0.6307229345329972  0.6661998937287663  0.4345333343518121
  0.7152182338135731  0.4137307522155709  0.0139090615147737
  0.7912756080081351  0.1588379932710993  0.1019387198208435
  0.8844122873143476  0.9245844976629343  0.1963708992623765
  0.5444041884099917  0.4185437587156429  0.3526555035948391
  0.6269438996013150  0.1696234171014410  0.4351680260242645
  0.6994385863040691  0.9260900235170411  0.0127066189756917
  0.5469331759245932  0.9208167971829653  0.3530490844567993
  0.7179607068087250  0.5821441696436054  0.7665992097779153
  0.5395824866687420  0.5986439466235396  0.6020216958358588
  0.6311179554405157  0.3230390221384951  0.6952220768607162
  0.7117270779408997  0.0828571227871677  0.7712590960222627
  0.8784585993231460  0.5839801950904331  0.9357344991154335
  0.9506502899005937  0.3234825667280674  0.5128683632913464
  0.5420168360742608  0.0856103714880732  0.6034218699635758
  0.6315878866113707  0.8394949622417798  0.6855100987346958
  0.7949833579092882  0.3320968406736213  0.8520458289657924
  0.8761619006517378  0.0822698694442394  0.9349178428147553
  0.9676762529292802  0.8354540228925345  0.5134513317155651
  0.7929078663517970  0.8341333371103090  0.8542464347672194
  0.9686811111256262  0.6787294624709048  0.7794222389793504
  0.7766815609082300  0.6615606448533526  0.5974944011912200
  0.8775371465479864  0.3957282707808432  0.6850429622601482
  0.9616273233050165  0.1654234570532083  0.7722329499045628
  0.6298255635825569  0.6659424967501835  0.9343562591306309
  0.7166129146803897  0.4139524701477626  0.5142711037221872
  0.7916802933461256  0.1605173819679564  0.6023353797926347
  0.8833810672493740  0.9247041785999457  0.6959350140938767
  0.5439609747947358  0.4187637692102086  0.8521996796368541
  0.6260804541382683  0.1698073769174258  0.9352095588193805
  0.6991940828259544  0.9271832235958257  0.5127020582029758
  0.5463762725352836  0.9208740295795792  0.8529899874519771
  0.2161405687393341  0.4141640416192587  0.0146464562009712
 
  0.00000000E+00  0.00000000E+00  0.00000000E+00
  0.00000000E+00  0.00000000E+00  0.00000000E+00
  0.00000000E+00  0.00000000E+00  0.00000000E+00
  0.00000000E+00  0.00000000E+00  0.00000000E+00
  0.00000000E+00  0.00000000E+00  0.00000000E+00
  0.00000000E+00  0.00000000E+00  0.00000000E+00
  0.00000000E+00  0.00000000E+00  0.00000000E+00
  0.00000000E+00  0.00000000E+00  0.00000000E+00
  0.00000000E+00  0.00000000E+00  0.00000000E+00
  0.00000000E+00  0.00000000E+00  0.00000000E+00
  0.00000000E+00  0.00000000E+00  0.00000000E+00
  0.00000000E+00  0.00000000E+00  0.00000000E+00
  0.00000000E+00  0.00000000E+00  0.00000000E+00
  0.00000000E+00  0.00000000E+00  0.00000000E+00
  0.00000000E+00  0.00000000E+00  0.00000000E+00
  0.00000000E+00  0.00000000E+00  0.00000000E+00
  0.00000000E+00  0.00000000E+00  0.00000000E+00
  0.00000000E+00  0.00000000E+00  0.00000000E+00
  0.00000000E+00  0.00000000E+00  0.00000000E+00
  0.00000000E+00  0.00000000E+00  0.00000000E+00
  0.00000000E+00  0.00000000E+00  0.00000000E+00
  0.00000000E+00  0.00000000E+00  0.00000000E+00
  0.00000000E+00  0.00000000E+00  0.00000000E+00
  0.00000000E+00  0.00000000E+00  0.00000000E+00
  0.00000000E+00  0.00000000E+00  0.00000000E+00
  0.00000000E+00  0.00000000E+00  0.00000000E+00
  0.00000000E+00  0.00000000E+00  0.00000000E+00
  0.00000000E+00  0.00000000E+00  0.00000000E+00
  0.00000000E+00  0.00000000E+00  0.00000000E+00
  0.00000000E+00  0.00000000E+00  0.00000000E+00
  0.00000000E+00  0.00000000E+00  0.00000000E+00
  0.00000000E+00  0.00000000E+00  0.00000000E+00
  0.00000000E+00  0.00000000E+00  0.00000000E+00
  0.00000000E+00  0.00000000E+00  0.00000000E+00
  0.00000000E+00  0.00000000E+00  0.00000000E+00
  0.00000000E+00  0.00000000E+00  0.00000000E+00
  0.00000000E+00  0.00000000E+00  0.00000000E+00
  0.00000000E+00  0.00000000E+00  0.00000000E+00
  0.00000000E+00  0.00000000E+00  0.00000000E+00
  0.00000000E+00  0.00000000E+00  0.00000000E+00
  0.00000000E+00  0.00000000E+00  0.00000000E+00
  0.00000000E+00  0.00000000E+00  0.00000000E+00
  0.00000000E+00  0.00000000E+00  0.00000000E+00
  0.00000000E+00  0.00000000E+00  0.00000000E+00
  0.00000000E+00  0.00000000E+00  0.00000000E+00
  0.00000000E+00  0.00000000E+00  0.00000000E+00
  0.00000000E+00  0.00000000E+00  0.00000000E+00
  0.00000000E+00  0.00000000E+00  0.00000000E+00
  0.00000000E+00  0.00000000E+00  0.00000000E+00
  0.00000000E+00  0.00000000E+00  0.00000000E+00
  0.00000000E+00  0.00000000E+00  0.00000000E+00
  0.00000000E+00  0.00000000E+00  0.00000000E+00
  0.00000000E+00  0.00000000E+00  0.00000000E+00
  0.00000000E+00  0.00000000E+00  0.00000000E+00
  0.00000000E+00  0.00000000E+00  0.00000000E+00
  0.00000000E+00  0.00000000E+00  0.00000000E+00
  0.00000000E+00  0.00000000E+00  0.00000000E+00
  0.00000000E+00  0.00000000E+00  0.00000000E+00
  0.00000000E+00  0.00000000E+00  0.00000000E+00
  0.00000000E+00  0.00000000E+00  0.00000000E+00
  0.00000000E+00  0.00000000E+00  0.00000000E+00
  0.00000000E+00  0.00000000E+00  0.00000000E+00
  0.00000000E+00  0.00000000E+00  0.00000000E+00
  0.00000000E+00  0.00000000E+00  0.00000000E+00
  0.00000000E+00  0.00000000E+00  0.00000000E+00
  0.00000000E+00  0.00000000E+00  0.00000000E+00
  0.00000000E+00  0.00000000E+00  0.00000000E+00
  0.00000000E+00  0.00000000E+00  0.00000000E+00
  0.00000000E+00  0.00000000E+00  0.00000000E+00
  0.00000000E+00  0.00000000E+00  0.00000000E+00
  0.00000000E+00  0.00000000E+00  0.00000000E+00
  0.00000000E+00  0.00000000E+00  0.00000000E+00
  0.00000000E+00  0.00000000E+00  0.00000000E+00
  0.00000000E+00  0.00000000E+00  0.00000000E+00
  0.00000000E+00  0.00000000E+00  0.00000000E+00
  0.00000000E+00  0.00000000E+00  0.00000000E+00
  0.00000000E+00  0.00000000E+00  0.00000000E+00
  0.00000000E+00  0.00000000E+00  0.00000000E+00
  0.00000000E+00  0.00000000E+00  0.00000000E+00
  0.00000000E+00  0.00000000E+00  0.00000000E+00
  0.00000000E+00  0.00000000E+00  0.00000000E+00
  0.00000000E+00  0.00000000E+00  0.00000000E+00
  0.00000000E+00  0.00000000E+00  0.00000000E+00
  0.00000000E+00  0.00000000E+00  0.00000000E+00
  0.00000000E+00  0.00000000E+00  0.00000000E+00
  0.00000000E+00  0.00000000E+00  0.00000000E+00
  0.00000000E+00  0.00000000E+00  0.00000000E+00
  0.00000000E+00  0.00000000E+00  0.00000000E+00
  0.00000000E+00  0.00000000E+00  0.00000000E+00
  0.00000000E+00  0.00000000E+00  0.00000000E+00
  0.00000000E+00  0.00000000E+00  0.00000000E+00
  0.00000000E+00  0.00000000E+00  0.00000000E+00
  0.00000000E+00  0.00000000E+00  0.00000000E+00
  0.00000000E+00  0.00000000E+00  0.00000000E+00
  0.00000000E+00  0.00000000E+00  0.00000000E+00
  0.00000000E+00  0.00000000E+00  0.00000000E+00
  0.00000000E+00  0.00000000E+00  0.00000000E+00
  0.00000000E+00  0.00000000E+00  0.00000000E+00
  0.00000000E+00  0.00000000E+00  0.00000000E+00
  0.00000000E+00  0.00000000E+00  0.00000000E+00
  0.00000000E+00  0.00000000E+00  0.00000000E+00
  0.00000000E+00  0.00000000E+00  0.00000000E+00
  0.00000000E+00  0.00000000E+00  0.00000000E+00
  0.00000000E+00  0.00000000E+00  0.00000000E+00
  0.00000000E+00  0.00000000E+00  0.00000000E+00
  0.00000000E+00  0.00000000E+00  0.00000000E+00
  0.00000000E+00  0.00000000E+00  0.00000000E+00
  0.00000000E+00  0.00000000E+00  0.00000000E+00
  0.00000000E+00  0.00000000E+00  0.00000000E+00
  0.00000000E+00  0.00000000E+00  0.00000000E+00
  0.00000000E+00  0.00000000E+00  0.00000000E+00
  0.00000000E+00  0.00000000E+00  0.00000000E+00
  0.00000000E+00  0.00000000E+00  0.00000000E+00
  0.00000000E+00  0.00000000E+00  0.00000000E+00
  0.00000000E+00  0.00000000E+00  0.00000000E+00
  0.00000000E+00  0.00000000E+00  0.00000000E+00
  0.00000000E+00  0.00000000E+00  0.00000000E+00
  0.00000000E+00  0.00000000E+00  0.00000000E+00
  0.00000000E+00  0.00000000E+00  0.00000000E+00
  0.00000000E+00  0.00000000E+00  0.00000000E+00
  0.00000000E+00  0.00000000E+00  0.00000000E+00
  0.00000000E+00  0.00000000E+00  0.00000000E+00
  0.00000000E+00  0.00000000E+00  0.00000000E+00
  0.00000000E+00  0.00000000E+00  0.00000000E+00
  0.00000000E+00  0.00000000E+00  0.00000000E+00
  0.00000000E+00  0.00000000E+00  0.00000000E+00
  0.00000000E+00  0.00000000E+00  0.00000000E+00
  0.00000000E+00  0.00000000E+00  0.00000000E+00
  0.00000000E+00  0.00000000E+00  0.00000000E+00
  0.00000000E+00  0.00000000E+00  0.00000000E+00
  0.00000000E+00  0.00000000E+00  0.00000000E+00
  0.00000000E+00  0.00000000E+00  0.00000000E+00
  0.00000000E+00  0.00000000E+00  0.00000000E+00
  0.00000000E+00  0.00000000E+00  0.00000000E+00
  0.00000000E+00  0.00000000E+00  0.00000000E+00
  0.00000000E+00  0.00000000E+00  0.00000000E+00
  0.00000000E+00  0.00000000E+00  0.00000000E+00
  0.00000000E+00  0.00000000E+00  0.00000000E+00
  0.00000000E+00  0.00000000E+00  0.00000000E+00
  0.00000000E+00  0.00000000E+00  0.00000000E+00
  0.00000000E+00  0.00000000E+00  0.00000000E+00
  0.00000000E+00  0.00000000E+00  0.00000000E+00
  0.00000000E+00  0.00000000E+00  0.00000000E+00
  0.00000000E+00  0.00000000E+00  0.00000000E+00
  0.00000000E+00  0.00000000E+00  0.00000000E+00
  0.00000000E+00  0.00000000E+00  0.00000000E+00
  0.00000000E+00  0.00000000E+00  0.00000000E+00
  0.00000000E+00  0.00000000E+00  0.00000000E+00
  0.00000000E+00  0.00000000E+00  0.00000000E+00
  0.00000000E+00  0.00000000E+00  0.00000000E+00
  0.00000000E+00  0.00000000E+00  0.00000000E+00
  0.00000000E+00  0.00000000E+00  0.00000000E+00
  0.00000000E+00  0.00000000E+00  0.00000000E+00
  0.00000000E+00  0.00000000E+00  0.00000000E+00
  0.00000000E+00  0.00000000E+00  0.00000000E+00
  0.00000000E+00  0.00000000E+00  0.00000000E+00
  0.00000000E+00  0.00000000E+00  0.00000000E+00
  0.00000000E+00  0.00000000E+00  0.00000000E+00
  0.00000000E+00  0.00000000E+00  0.00000000E+00
  0.00000000E+00  0.00000000E+00  0.00000000E+00
  0.00000000E+00  0.00000000E+00  0.00000000E+00
  0.00000000E+00  0.00000000E+00  0.00000000E+00
  0.00000000E+00  0.00000000E+00  0.00000000E+00
  0.00000000E+00  0.00000000E+00  0.00000000E+00
  0.00000000E+00  0.00000000E+00  0.00000000E+00
  0.00000000E+00  0.00000000E+00  0.00000000E+00
  0.00000000E+00  0.00000000E+00  0.00000000E+00
  0.00000000E+00  0.00000000E+00  0.00000000E+00
  0.00000000E+00  0.00000000E+00  0.00000000E+00
  0.00000000E+00  0.00000000E+00  0.00000000E+00
  0.00000000E+00  0.00000000E+00  0.00000000E+00
  0.00000000E+00  0.00000000E+00  0.00000000E+00
  0.00000000E+00  0.00000000E+00  0.00000000E+00
  0.00000000E+00  0.00000000E+00  0.00000000E+00
  0.00000000E+00  0.00000000E+00  0.00000000E+00
  0.00000000E+00  0.00000000E+00  0.00000000E+00
  0.00000000E+00  0.00000000E+00  0.00000000E+00
  0.00000000E+00  0.00000000E+00  0.00000000E+00
  0.00000000E+00  0.00000000E+00  0.00000000E+00
  0.00000000E+00  0.00000000E+00  0.00000000E+00
  0.00000000E+00  0.00000000E+00  0.00000000E+00
  0.00000000E+00  0.00000000E+00  0.00000000E+00
  0.00000000E+00  0.00000000E+00  0.00000000E+00
  0.00000000E+00  0.00000000E+00  0.00000000E+00
  0.00000000E+00  0.00000000E+00  0.00000000E+00
  0.00000000E+00  0.00000000E+00  0.00000000E+00
  0.00000000E+00  0.00000000E+00  0.00000000E+00
  0.00000000E+00  0.00000000E+00  0.00000000E+00
  0.00000000E+00  0.00000000E+00  0.00000000E+00
  0.00000000E+00  0.00000000E+00  0.00000000E+00
  0.00000000E+00  0.00000000E+00  0.00000000E+00
  0.00000000E+00  0.00000000E+00  0.00000000E+00
