supercell of POSCAR                     
   1.01189200000000     
     3.1482772356600002   -5.4762754812200001    9.9674464565599994
    -9.4511209497999999   -5.4731922780100000    0.0032121685426600
     6.3112884282600001  -10.9581161277000003   -9.9749049577999997
   Al   Sc   N 
    83    12    96
Direct
  0.0984113046747481  0.5833810936605204  0.3295990767235466
  0.0037300103815809  0.3248611581244063  0.2538728351439943
  0.0876836240006966  0.0816237496935415  0.3334202012301546
  0.2569302503826520  0.5796941928288746  0.4940944422751201
  0.3289646882700765  0.3261673195825736  0.0808551765801084
  0.4175382286548697  0.0868367821435641  0.1690112490385616
  0.0085809438718201  0.8391321301057317  0.2530879960496932
  0.1691808098818868  0.3319694779883804  0.4136984384473124
  0.2499800461712596  0.0837078785123921  0.4963792662608242
  0.1713375225621903  0.8330322240804122  0.4128599572076368
  0.1548743305697613  0.6688556750603993  0.1643645887860572
  0.2499603376877033  0.4041009192103715  0.2495103515466326
  0.3350091325316242  0.1630045663905193  0.3339459393953845
  0.0080215295216917  0.6692331134035214  0.4960644325102024
  0.1671727240484415  0.1583846760100727  0.1671032090660063
  0.2558413998393121  0.9164558628254866  0.2550706466988117
  0.4167915986513009  0.4150658117224708  0.4160551410630049
  0.5004230403682826  0.1604045250576291  0.4981208947060480
  0.0777878030308869  0.9197421881873140  0.0814248477401804
  0.4175951098996222  0.9148073990932346  0.4119114119153409
  0.0863058140509736  0.5851703773904831  0.8344332603267191
  0.0003246808652833  0.3279763535422546  0.7537324840604853
  0.0831160887849620  0.0848895298215453  0.8344622479508743
  0.2473902746065662  0.5818218754386848  0.9979204385488529
  0.3311509496741891  0.3233468784617628  0.5786975446550855
  0.4169702746766930  0.0859488966951858  0.6685130538935340
  0.0039926660431604  0.8406288504063610  0.7537940492629787
  0.1648688294257283  0.3348236525320800  0.9154569412947211
  0.2462146287330356  0.0861669704793186  0.9971387144888695
  0.1615827935386420  0.8353967108757487  0.9161252901356249
  0.3340501815737369  0.6708277928877493  0.8362506694062048
  0.1605366815547100  0.6719030678869231  0.6663516032174712
  0.2506367649147734  0.4098987882724927  0.7505929796580446
  0.3320464064379109  0.1666894813821358  0.8335698561194818
  0.9966315878385075  0.6720259664368413  0.9971251039036844
  0.1670331432635876  0.1616377932646813  0.6679930887280463
  0.2513322416325039  0.9188770786388503  0.7530168494100096
  0.4120441443902507  0.4175924803226678  0.9151220017926320
  0.4963770880970415  0.1655395374791482  0.9976304122271742
  0.0823413694930224  0.9203849693683281  0.5811969773496131
  0.4159220275105753  0.9186827266944206  0.9138553743732558
  0.5973598754903904  0.5818005723745472  0.3350281195758740
  0.5028870414716096  0.3267682091770325  0.2542251396867385
  0.5865065528485829  0.0838135440684269  0.3345324064511530
  0.7526540527995564  0.5807359263644116  0.4980596095542680
  0.8290089309918969  0.3249692926421801  0.0804493236858193
  0.9179960349169605  0.0858535869717798  0.1691678608203802
  0.5118305917178105  0.8433639904264751  0.2514957462331324
  0.6694389016706737  0.3320732640254818  0.4145541526658931
  0.7496815115199951  0.0848489650247615  0.4974683222042842
  0.6652313869709658  0.8334005810360736  0.4154864551999538
  0.8423774279511349  0.6689944535852277  0.3384540561165537
  0.6406656356320681  0.6708688393311348  0.1766262816055288
  0.7560019717446451  0.4056929873061677  0.2520553260535436
  0.8364308635544333  0.1641534097318527  0.3346093768594471
  0.5037783166850858  0.6679113661785010  0.4967979761508872
  0.6676592031940274  0.1619301458260765  0.1687352398535680
  0.7555588774136126  0.9201135379962722  0.2538591094230043
  0.9179170854915171  0.4157375268931744  0.4152024486252373
  0.0003736702327899  0.1627286026864070  0.4976742709822730
  0.5799072276861850  0.9241782285940729  0.0799754395150103
  0.9206223088051431  0.9164491527067824  0.4140417227964690
  0.5858223229646455  0.5851499220141037  0.8340112115876508
  0.4999562386343683  0.3283480368200671  0.7523763187498247
  0.5829973621121312  0.0854261195887460  0.8339284067069812
  0.7441071715017173  0.5816310084132468  0.9997889169100915
  0.8307637596037267  0.3246538822615150  0.5802600937107982
  0.9171172099265732  0.0870051232154054  0.6691923236640278
  0.5043968735884548  0.8400060203400059  0.7522660786960316
  0.6646356493069590  0.3346256835161157  0.9150965310920043
  0.7464124420609792  0.0869711925326584  0.9970813071315447
  0.6609367779595487  0.8354319768617060  0.9155930952485107
  0.8335010174348554  0.6710609010741635  0.8378188542862119
  0.6632280329266251  0.6723867973196747  0.6683348636880808
  0.7496520656358285  0.4098068808934840  0.7507493917913095
  0.8322562994504494  0.1673232099422393  0.8339815166591649
  0.4982792863119769  0.6698294994790004  0.9985396587622120
  0.6664283007926528  0.1627896582860515  0.6678481465708188
  0.7515860366125153  0.9204380389922449  0.7538712300542514
  0.9117210565807810  0.4178297199938044  0.9162285455275736
  0.9971105555676658  0.1650165656239793  0.9982512682514084
  0.5827089638319976  0.9196775105476860  0.5810660641843910
  0.9146876198904081  0.9191597500690989  0.9155138895321144
  0.3931922480000694  0.5882625808218123  0.1870355687067899
  0.3258561308925962  0.8382814940867007  0.0847033231814436
  0.0753074252224124  0.4196265597961784  0.0892435576264603
  0.4054426069469699  0.5838261025534166  0.6715261626529525
  0.3300718043756916  0.8369664978185014  0.5817548433884454
  0.0799989889282884  0.4162171463096627  0.5843609707577571
  0.8960725936863980  0.5842811368140133  0.1763493584168927
  0.8188009354824288  0.8354020952459464  0.0876973851237466
  0.5724241998092268  0.4184049143055475  0.0879010569886489
  0.9068697071934011  0.5821467914234617  0.6745541784014648
  0.8304153867376840  0.8375397521969177  0.5841220852631324
  0.5750231664665790  0.4192154216837736  0.5821697678706528
  0.2063990063473398  0.5663581959192925  0.2518105186618769
  0.0299732199525522  0.6018820111794341  0.1001255798204141
  0.1307079537507718  0.3162972549760141  0.1937374364302116
  0.2132841898704996  0.0826990542238164  0.2691241417926804
  0.3930349769911246  0.5678388092699649  0.4520183018864898
  0.4480244362204004  0.3250565515650194  0.0116968295776871
  0.0409917323341062  0.0849912171713072  0.1019547828398117
  0.1326005592641977  0.8397041068055344  0.1841605296779534
  0.2973121191270209  0.3291271721090894  0.3518893683809949
  0.3799321789455661  0.0810611959382541  0.4360722068653757
  0.4653581461088621  0.8375094244606913  0.0131286357705562
  0.2937988582657312  0.8485260074178242  0.3551497320200951
  0.5180308876402506  0.6784723970036666  0.2595820447316513
  0.2740899951640472  0.6632557195411195  0.0967475027658438
  0.3804473258578298  0.3945527386594421  0.1853388958303839
  0.4638911826129331  0.1637729105258217  0.2722868345116751
  0.1348240254774069  0.6639472223594467  0.4330239052276070
  0.2132787595717929  0.4150893819522210  0.0155048540909064
  0.2920421233548041  0.1603142884029509  0.1013423245333200
  0.3867858295290816  0.9243220213252528  0.1949999131389859
  0.0463942182278103  0.4172030950871743  0.3521787996637755
  0.1284200974140930  0.1679277970044311  0.4346707717305804
  0.1966245184015989  0.9277004039044883  0.0121288567088627
  0.0476664259368604  0.9196825299908156  0.3532474287870855
  0.2159150902706202  0.5825369007020740  0.7671991245677106
  0.0403118956524793  0.5987948513146790  0.6022772592884067
  0.1301668567808392  0.3232378240362195  0.6953698800115262
  0.2105679777072993  0.0827786337748009  0.7712804299623954
  0.3757433543974500  0.5841164972619879  0.9354058426883824
  0.4525257826441020  0.3172902974954752  0.5133370300003790
  0.0419778201149867  0.0851682012193891  0.6035788268547719
  0.1297130777360351  0.8396465571254410  0.6865626703392138
  0.2930274618412483  0.3325646008773120  0.8522433024120559
  0.3751041546711775  0.0822452489472028  0.9346445216502417
  0.4707704790105396  0.8352861230514534  0.5134912002420080
  0.2913062723049222  0.8344580299999222  0.8543285791936768
  0.4668195234987706  0.6788044408754956  0.7794910169128570
  0.2752810827493164  0.6622412901393062  0.5975231002516850
  0.3762932942204600  0.3963965710094612  0.6843755150075665
  0.4603599975450834  0.1657897440673111  0.7716609249113660
  0.1271552142594032  0.6673601869060235  0.9346290764745149
  0.2161611570503936  0.4115148482723967  0.5140718992080693
  0.2915376776524354  0.1597600217716177  0.6024106980731503
  0.3822559501552760  0.9241066815569070  0.6954016782354984
  0.0418748520356900  0.4199859630771030  0.8526727280664304
  0.1253637731852422  0.1707434510002770  0.9348874154788192
  0.1996129800074726  0.9260999665659639  0.5134161355220783
  0.0439625668587027  0.9218598424298818  0.8536391762068760
  0.7324611760272930  0.5755757170844689  0.2695928921410697
  0.5291233097580914  0.5965177409150186  0.1005337587770896
  0.6336525809656237  0.3231687328555495  0.1962203053789437
  0.7142965215343651  0.0836878264346765  0.2718302384402875
  0.8834121473311711  0.5822096801170460  0.4387836244402195
  0.9500499280650416  0.3255672417258708  0.0130170526103655
  0.5417168214351591  0.0890380454874986  0.1022955417656561
  0.6384697135588695  0.8496562330042750  0.1812778169443092
  0.7988994000598026  0.3290959905477422  0.3537440378863721
  0.8786903244705186  0.0798487516663826  0.4361059234623994
  0.9609627622996797  0.8370609218891900  0.0147854618183985
  0.7955928902802469  0.8327452354338334  0.3546267746712459
  0.9731788702898641  0.6782428790127497  0.2804841723150062
  0.7648021214063832  0.6598782972668076  0.1010912761094716
  0.8810111629638726  0.3933098528632399  0.1847091790294471
  0.9633372285691877  0.1627509585385170  0.2726048130766046
  0.6349766568500783  0.6655300777609980  0.4356416380441246
  0.7130995388784953  0.4136079082201789  0.0153813443717823
  0.7918009893461146  0.1600449962306882  0.1021871604911553
  0.8864169183980337  0.9242410767942602  0.1964976751850998
  0.5479644829046606  0.4169652438995541  0.3524737014206636
  0.6294333116019502  0.1685116852794906  0.4355475670091522
  0.6973949765005472  0.9288996617973950  0.0104333720515370
  0.5498206204304239  0.9210460928139454  0.3529328005087820
  0.7174964355995428  0.5826205252412393  0.7683309933938105
  0.5443332609460469  0.6023159842013968  0.6055076479873378
  0.6295181446296709  0.3249740261554379  0.6934832103644979
  0.7108161836493636  0.0844250113794587  0.7712897486381110
  0.8744195995933310  0.5842179902451932  0.9372474813558043
  0.9519128734761892  0.3228506452570272  0.5133897921593515
  0.5432872539772902  0.0835508250232380  0.6040434163952497
  0.6323511558106674  0.8404038569679031  0.6863953174216491
  0.7931082928377009  0.3328747194893893  0.8525124033735878
  0.8752188699565977  0.0835743931991360  0.9350089718168419
  0.9688999775061404  0.8342617053683767  0.5140412112755612
  0.7912420885717992  0.8349911718160214  0.8545489677652611
  0.9667886056320683  0.6793261228256853  0.7809787212105093
  0.7793593053148413  0.6614066260571150  0.5991988591056057
  0.8763334742327302  0.3955186241138549  0.6856802455163233
  0.9606469763813763  0.1657061008899632  0.7724074269672769
  0.6270819663486051  0.6672411160709402  0.9342009768621367
  0.7175320182155787  0.4141267141163496  0.5146108275063739
  0.7919068075258693  0.1608132642908089  0.6025707300169216
  0.8827106951654855  0.9255519396870042  0.6965863437485496
  0.5421779128095068  0.4195629552530846  0.8517559146841052
  0.6249425253332603  0.1707641405927731  0.9345790027832450
  0.7016775729394027  0.9261065169733058  0.5129322470153426
  0.5443204040680456  0.9218775913407882  0.8519318692182978
 
  0.00000000E+00  0.00000000E+00  0.00000000E+00
  0.00000000E+00  0.00000000E+00  0.00000000E+00
  0.00000000E+00  0.00000000E+00  0.00000000E+00
  0.00000000E+00  0.00000000E+00  0.00000000E+00
  0.00000000E+00  0.00000000E+00  0.00000000E+00
  0.00000000E+00  0.00000000E+00  0.00000000E+00
  0.00000000E+00  0.00000000E+00  0.00000000E+00
  0.00000000E+00  0.00000000E+00  0.00000000E+00
  0.00000000E+00  0.00000000E+00  0.00000000E+00
  0.00000000E+00  0.00000000E+00  0.00000000E+00
  0.00000000E+00  0.00000000E+00  0.00000000E+00
  0.00000000E+00  0.00000000E+00  0.00000000E+00
  0.00000000E+00  0.00000000E+00  0.00000000E+00
  0.00000000E+00  0.00000000E+00  0.00000000E+00
  0.00000000E+00  0.00000000E+00  0.00000000E+00
  0.00000000E+00  0.00000000E+00  0.00000000E+00
  0.00000000E+00  0.00000000E+00  0.00000000E+00
  0.00000000E+00  0.00000000E+00  0.00000000E+00
  0.00000000E+00  0.00000000E+00  0.00000000E+00
  0.00000000E+00  0.00000000E+00  0.00000000E+00
  0.00000000E+00  0.00000000E+00  0.00000000E+00
  0.00000000E+00  0.00000000E+00  0.00000000E+00
  0.00000000E+00  0.00000000E+00  0.00000000E+00
  0.00000000E+00  0.00000000E+00  0.00000000E+00
  0.00000000E+00  0.00000000E+00  0.00000000E+00
  0.00000000E+00  0.00000000E+00  0.00000000E+00
  0.00000000E+00  0.00000000E+00  0.00000000E+00
  0.00000000E+00  0.00000000E+00  0.00000000E+00
  0.00000000E+00  0.00000000E+00  0.00000000E+00
  0.00000000E+00  0.00000000E+00  0.00000000E+00
  0.00000000E+00  0.00000000E+00  0.00000000E+00
  0.00000000E+00  0.00000000E+00  0.00000000E+00
  0.00000000E+00  0.00000000E+00  0.00000000E+00
  0.00000000E+00  0.00000000E+00  0.00000000E+00
  0.00000000E+00  0.00000000E+00  0.00000000E+00
  0.00000000E+00  0.00000000E+00  0.00000000E+00
  0.00000000E+00  0.00000000E+00  0.00000000E+00
  0.00000000E+00  0.00000000E+00  0.00000000E+00
  0.00000000E+00  0.00000000E+00  0.00000000E+00
  0.00000000E+00  0.00000000E+00  0.00000000E+00
  0.00000000E+00  0.00000000E+00  0.00000000E+00
  0.00000000E+00  0.00000000E+00  0.00000000E+00
  0.00000000E+00  0.00000000E+00  0.00000000E+00
  0.00000000E+00  0.00000000E+00  0.00000000E+00
  0.00000000E+00  0.00000000E+00  0.00000000E+00
  0.00000000E+00  0.00000000E+00  0.00000000E+00
  0.00000000E+00  0.00000000E+00  0.00000000E+00
  0.00000000E+00  0.00000000E+00  0.00000000E+00
  0.00000000E+00  0.00000000E+00  0.00000000E+00
  0.00000000E+00  0.00000000E+00  0.00000000E+00
  0.00000000E+00  0.00000000E+00  0.00000000E+00
  0.00000000E+00  0.00000000E+00  0.00000000E+00
  0.00000000E+00  0.00000000E+00  0.00000000E+00
  0.00000000E+00  0.00000000E+00  0.00000000E+00
  0.00000000E+00  0.00000000E+00  0.00000000E+00
  0.00000000E+00  0.00000000E+00  0.00000000E+00
  0.00000000E+00  0.00000000E+00  0.00000000E+00
  0.00000000E+00  0.00000000E+00  0.00000000E+00
  0.00000000E+00  0.00000000E+00  0.00000000E+00
  0.00000000E+00  0.00000000E+00  0.00000000E+00
  0.00000000E+00  0.00000000E+00  0.00000000E+00
  0.00000000E+00  0.00000000E+00  0.00000000E+00
  0.00000000E+00  0.00000000E+00  0.00000000E+00
  0.00000000E+00  0.00000000E+00  0.00000000E+00
  0.00000000E+00  0.00000000E+00  0.00000000E+00
  0.00000000E+00  0.00000000E+00  0.00000000E+00
  0.00000000E+00  0.00000000E+00  0.00000000E+00
  0.00000000E+00  0.00000000E+00  0.00000000E+00
  0.00000000E+00  0.00000000E+00  0.00000000E+00
  0.00000000E+00  0.00000000E+00  0.00000000E+00
  0.00000000E+00  0.00000000E+00  0.00000000E+00
  0.00000000E+00  0.00000000E+00  0.00000000E+00
  0.00000000E+00  0.00000000E+00  0.00000000E+00
  0.00000000E+00  0.00000000E+00  0.00000000E+00
  0.00000000E+00  0.00000000E+00  0.00000000E+00
  0.00000000E+00  0.00000000E+00  0.00000000E+00
  0.00000000E+00  0.00000000E+00  0.00000000E+00
  0.00000000E+00  0.00000000E+00  0.00000000E+00
  0.00000000E+00  0.00000000E+00  0.00000000E+00
  0.00000000E+00  0.00000000E+00  0.00000000E+00
  0.00000000E+00  0.00000000E+00  0.00000000E+00
  0.00000000E+00  0.00000000E+00  0.00000000E+00
  0.00000000E+00  0.00000000E+00  0.00000000E+00
  0.00000000E+00  0.00000000E+00  0.00000000E+00
  0.00000000E+00  0.00000000E+00  0.00000000E+00
  0.00000000E+00  0.00000000E+00  0.00000000E+00
  0.00000000E+00  0.00000000E+00  0.00000000E+00
  0.00000000E+00  0.00000000E+00  0.00000000E+00
  0.00000000E+00  0.00000000E+00  0.00000000E+00
  0.00000000E+00  0.00000000E+00  0.00000000E+00
  0.00000000E+00  0.00000000E+00  0.00000000E+00
  0.00000000E+00  0.00000000E+00  0.00000000E+00
  0.00000000E+00  0.00000000E+00  0.00000000E+00
  0.00000000E+00  0.00000000E+00  0.00000000E+00
  0.00000000E+00  0.00000000E+00  0.00000000E+00
  0.00000000E+00  0.00000000E+00  0.00000000E+00
  0.00000000E+00  0.00000000E+00  0.00000000E+00
  0.00000000E+00  0.00000000E+00  0.00000000E+00
  0.00000000E+00  0.00000000E+00  0.00000000E+00
  0.00000000E+00  0.00000000E+00  0.00000000E+00
  0.00000000E+00  0.00000000E+00  0.00000000E+00
  0.00000000E+00  0.00000000E+00  0.00000000E+00
  0.00000000E+00  0.00000000E+00  0.00000000E+00
  0.00000000E+00  0.00000000E+00  0.00000000E+00
  0.00000000E+00  0.00000000E+00  0.00000000E+00
  0.00000000E+00  0.00000000E+00  0.00000000E+00
  0.00000000E+00  0.00000000E+00  0.00000000E+00
  0.00000000E+00  0.00000000E+00  0.00000000E+00
  0.00000000E+00  0.00000000E+00  0.00000000E+00
  0.00000000E+00  0.00000000E+00  0.00000000E+00
  0.00000000E+00  0.00000000E+00  0.00000000E+00
  0.00000000E+00  0.00000000E+00  0.00000000E+00
  0.00000000E+00  0.00000000E+00  0.00000000E+00
  0.00000000E+00  0.00000000E+00  0.00000000E+00
  0.00000000E+00  0.00000000E+00  0.00000000E+00
  0.00000000E+00  0.00000000E+00  0.00000000E+00
  0.00000000E+00  0.00000000E+00  0.00000000E+00
  0.00000000E+00  0.00000000E+00  0.00000000E+00
  0.00000000E+00  0.00000000E+00  0.00000000E+00
  0.00000000E+00  0.00000000E+00  0.00000000E+00
  0.00000000E+00  0.00000000E+00  0.00000000E+00
  0.00000000E+00  0.00000000E+00  0.00000000E+00
  0.00000000E+00  0.00000000E+00  0.00000000E+00
  0.00000000E+00  0.00000000E+00  0.00000000E+00
  0.00000000E+00  0.00000000E+00  0.00000000E+00
  0.00000000E+00  0.00000000E+00  0.00000000E+00
  0.00000000E+00  0.00000000E+00  0.00000000E+00
  0.00000000E+00  0.00000000E+00  0.00000000E+00
  0.00000000E+00  0.00000000E+00  0.00000000E+00
  0.00000000E+00  0.00000000E+00  0.00000000E+00
  0.00000000E+00  0.00000000E+00  0.00000000E+00
  0.00000000E+00  0.00000000E+00  0.00000000E+00
  0.00000000E+00  0.00000000E+00  0.00000000E+00
  0.00000000E+00  0.00000000E+00  0.00000000E+00
  0.00000000E+00  0.00000000E+00  0.00000000E+00
  0.00000000E+00  0.00000000E+00  0.00000000E+00
  0.00000000E+00  0.00000000E+00  0.00000000E+00
  0.00000000E+00  0.00000000E+00  0.00000000E+00
  0.00000000E+00  0.00000000E+00  0.00000000E+00
  0.00000000E+00  0.00000000E+00  0.00000000E+00
  0.00000000E+00  0.00000000E+00  0.00000000E+00
  0.00000000E+00  0.00000000E+00  0.00000000E+00
  0.00000000E+00  0.00000000E+00  0.00000000E+00
  0.00000000E+00  0.00000000E+00  0.00000000E+00
  0.00000000E+00  0.00000000E+00  0.00000000E+00
  0.00000000E+00  0.00000000E+00  0.00000000E+00
  0.00000000E+00  0.00000000E+00  0.00000000E+00
  0.00000000E+00  0.00000000E+00  0.00000000E+00
  0.00000000E+00  0.00000000E+00  0.00000000E+00
  0.00000000E+00  0.00000000E+00  0.00000000E+00
  0.00000000E+00  0.00000000E+00  0.00000000E+00
  0.00000000E+00  0.00000000E+00  0.00000000E+00
  0.00000000E+00  0.00000000E+00  0.00000000E+00
  0.00000000E+00  0.00000000E+00  0.00000000E+00
  0.00000000E+00  0.00000000E+00  0.00000000E+00
  0.00000000E+00  0.00000000E+00  0.00000000E+00
  0.00000000E+00  0.00000000E+00  0.00000000E+00
  0.00000000E+00  0.00000000E+00  0.00000000E+00
  0.00000000E+00  0.00000000E+00  0.00000000E+00
  0.00000000E+00  0.00000000E+00  0.00000000E+00
  0.00000000E+00  0.00000000E+00  0.00000000E+00
  0.00000000E+00  0.00000000E+00  0.00000000E+00
  0.00000000E+00  0.00000000E+00  0.00000000E+00
  0.00000000E+00  0.00000000E+00  0.00000000E+00
  0.00000000E+00  0.00000000E+00  0.00000000E+00
  0.00000000E+00  0.00000000E+00  0.00000000E+00
  0.00000000E+00  0.00000000E+00  0.00000000E+00
  0.00000000E+00  0.00000000E+00  0.00000000E+00
  0.00000000E+00  0.00000000E+00  0.00000000E+00
  0.00000000E+00  0.00000000E+00  0.00000000E+00
  0.00000000E+00  0.00000000E+00  0.00000000E+00
  0.00000000E+00  0.00000000E+00  0.00000000E+00
  0.00000000E+00  0.00000000E+00  0.00000000E+00
  0.00000000E+00  0.00000000E+00  0.00000000E+00
  0.00000000E+00  0.00000000E+00  0.00000000E+00
  0.00000000E+00  0.00000000E+00  0.00000000E+00
  0.00000000E+00  0.00000000E+00  0.00000000E+00
  0.00000000E+00  0.00000000E+00  0.00000000E+00
  0.00000000E+00  0.00000000E+00  0.00000000E+00
  0.00000000E+00  0.00000000E+00  0.00000000E+00
  0.00000000E+00  0.00000000E+00  0.00000000E+00
  0.00000000E+00  0.00000000E+00  0.00000000E+00
  0.00000000E+00  0.00000000E+00  0.00000000E+00
  0.00000000E+00  0.00000000E+00  0.00000000E+00
  0.00000000E+00  0.00000000E+00  0.00000000E+00
  0.00000000E+00  0.00000000E+00  0.00000000E+00
  0.00000000E+00  0.00000000E+00  0.00000000E+00
  0.00000000E+00  0.00000000E+00  0.00000000E+00
  0.00000000E+00  0.00000000E+00  0.00000000E+00
  0.00000000E+00  0.00000000E+00  0.00000000E+00
  0.00000000E+00  0.00000000E+00  0.00000000E+00
