supercell of POSCAR                     
   1.01189200000000     
     3.1482772356600002   -5.4762754812200001    9.9674464565599994
    -9.4511209497999999   -5.4731922780100000    0.0032121685426600
     6.3112884282600001  -10.9581161277000003   -9.9749049577999997
   Al   Sc   N 
    84    11    96
Direct
  0.0881552147996061  0.5855275282769981  0.3334929366755119
  0.0023719641667270  0.3275103162220319  0.2530867544862474
  0.0849220483754110  0.0835887592887516  0.3333137751996347
  0.2483090218708739  0.5807382430410541  0.4964555744936874
  0.3319208560100932  0.3261082410284715  0.0800566425156291
  0.4156563943115472  0.0806422837669558  0.1675357778934270
  0.0054198321239483  0.8402639605771896  0.2534318596358389
  0.1669681269302572  0.3333772245362780  0.4131409671102162
  0.2469297022739738  0.0860267036256559  0.4964909368346468
  0.1632285631645303  0.8355138838794858  0.4149892461060674
  0.3356290241454261  0.6709496314558834  0.3361744708377330
  0.1636808782404913  0.6754477748212082  0.1631502137965413
  0.2538123936760357  0.4126249476806336  0.2494138946148396
  0.3335195873107182  0.1648098199280668  0.3315248546362994
  0.0009192098104478  0.6703183392949796  0.4976008375767123
  0.1685775219169443  0.1621252535796813  0.1679043239710794
  0.2558845780300771  0.9166489579322743  0.2479349975296472
  0.4137396044012362  0.4158913773409694  0.4145202605097822
  0.4972569677315093  0.1627516074839548  0.4971123408987594
  0.0922575241605657  0.9182551191035486  0.0809764029985374
  0.4168482046144035  0.9176629397343419  0.4117783661468337
  0.0875297208445645  0.5844569894283822  0.8342459039963330
  0.0014289552187350  0.3258392504128196  0.7539848173139347
  0.0853822763060066  0.0820550710520465  0.8361419443483697
  0.2510396757751607  0.5835109306934640  0.9972024262980810
  0.3296450705620373  0.3240217338776077  0.5797459035306218
  0.4163286920409845  0.0858926445919792  0.6693292430759215
  0.0045822037879901  0.8393485747197786  0.7542977219471538
  0.1681923807172439  0.3318678701298978  0.9138877393176372
  0.2506227459802020  0.0802692306180433  0.9997654534363463
  0.1674152137974900  0.8358033597855155  0.9205203227408205
  0.3365977785728376  0.6706497670894294  0.8376278913421089
  0.1593565973936677  0.6709117667791133  0.6663749391880529
  0.2516421705169805  0.4083042344624914  0.7506685284211443
  0.3339657351512102  0.1642906026753437  0.8346397851230449
  0.0038501371041377  0.6708849934752052  0.9974762385982459
  0.1665355465548330  0.1605706216463787  0.6688177023217889
  0.2519368553367443  0.9177490524630230  0.7543464655987506
  0.4140501948996445  0.4156309366133542  0.9154078297074761
  0.4991542218573670  0.1623567979678171  0.9982629605586766
  0.0799497274380840  0.9206801043459549  0.5816418232472103
  0.4159987941994601  0.9162899959153705  0.9174697082903691
  0.5867995368517711  0.5850442136486009  0.3333704921109231
  0.5005039843330010  0.3287455920126661  0.2525690035525301
  0.5827440386666325  0.0843476262032041  0.3329968202556444
  0.7482754857719414  0.5801124504745445  0.4973001348539299
  0.8334089042406418  0.3248008140916028  0.0809766534413399
  0.9189366477331617  0.0858744542194216  0.1693791888654701
  0.5026415371875501  0.8413532127082064  0.2513119722845687
  0.6660775878169574  0.3330756633485805  0.4140927123916427
  0.7465327155260084  0.0859137463671757  0.4971789619831526
  0.6627675153301951  0.8350906203149862  0.4162025186433027
  0.8350345876917942  0.6703526541420501  0.3375080963720620
  0.6608942283077184  0.6717847757760822  0.1657026082137634
  0.7518902759632482  0.4090869696326962  0.2512019089833615
  0.8333262393500718  0.1656263083244411  0.3334896314922560
  0.5012595795099415  0.6701131115388534  0.4966706805839891
  0.6670750066081368  0.1614399811065965  0.1682436063023474
  0.7512111687051757  0.9187096450107575  0.2540436600274774
  0.9139957516801829  0.4158978957557977  0.4152219688886589
  0.9976493609723605  0.1629828346330910  0.4976946998776910
  0.5780944953102747  0.9189429915264427  0.0819662561885508
  0.9167275928289911  0.9179087928456369  0.4145415162902779
  0.5884131822015846  0.5829934506553442  0.8341868251061726
  0.5008452778395238  0.3262715969884198  0.7537028868331532
  0.5843897258376316  0.0841437795241404  0.8345525606615851
  0.7503247081878825  0.5797738577333931  0.9975951339578017
  0.8297452289458676  0.3236984173177149  0.5804328317605822
  0.9162806751721959  0.0855124324926635  0.6702925739818397
  0.5048697809301430  0.8403495154653200  0.7533183821431990
  0.6677444359356528  0.3328203372162193  0.9150984576084014
  0.7499812015857472  0.0865376784837011  0.9984700516996767
  0.6507966963302181  0.8351093943642525  0.9237874289429300
  0.8338960985144723  0.6717512329464554  0.8391463057661852
  0.6592224733901730  0.6706380446658429  0.6666402397644475
  0.7516729747447144  0.4078599181850677  0.7514502165287951
  0.8347063034500977  0.1650801589397020  0.8348660674213093
  0.5015589984292959  0.6704924859168102  0.9974846805683839
  0.6667048245451426  0.1608567220399451  0.6688430965381684
  0.7507513652154927  0.9178747343616536  0.7568846212240885
  0.9158100000180127  0.4156978535450904  0.9162428394258626
  0.0022943415856247  0.1623514102943915  0.9989209470615137
  0.5800343792282376  0.9207738572995368  0.5813687389613307
  0.9179673805633968  0.9169226608786190  0.9156936663979778
  0.4037170974444209  0.5939174242585707  0.1690422678371064
  0.0835757055766990  0.4195470553072624  0.0845614338889504
  0.4033346523805008  0.5831547664433643  0.6735693893768868
  0.3267954577410350  0.8382105280766012  0.5829723322192706
  0.0772524795349696  0.4153219677497191  0.5850492881776574
  0.9055372373154427  0.5835103076368569  0.1740224666659458
  0.8314899586316713  0.8389014333258942  0.0851229746952527
  0.5786402997037072  0.4152650674051728  0.0856985550091522
  0.9028958365302415  0.5822139385970999  0.6746063748023730
  0.8261200859135727  0.8381587970696671  0.5854985773688952
  0.5766969135484530  0.4150325953337699  0.5852236894510838
  0.2169897101587921  0.5835144102539758  0.2685324353016370
  0.0375189797941715  0.5997418892813045  0.1022829525055755
  0.1323239467590085  0.3251335734718594  0.1952327194047285
  0.2109735208476664  0.0822361596995904  0.2708435686492194
  0.3786737491185050  0.5827899829186691  0.4369957715427191
  0.4525159780786936  0.3237398756223513  0.0120054190917571
  0.0435422057282153  0.0850160976792296  0.1043066518165929
  0.1280992693945251  0.8390105550812805  0.1877728638582994
  0.2951208668461121  0.3321579926295186  0.3514119034040561
  0.3757234678117385  0.0812939187432136  0.4346905330146669
  0.4893513878278881  0.8337948514617324  0.0036969400749669
  0.2918503617913402  0.8334648269308857  0.3546721061581124
  0.4691106010846298  0.6790717143503571  0.2816430044647120
  0.2732578921011282  0.6529228748191542  0.0967088351564698
  0.3800569806923946  0.4008646324628984  0.1843698945872703
  0.4620768142831295  0.1672054853295037  0.2716778200628980
  0.1290233506494900  0.6666156635852047  0.4350748035792549
  0.2186849846691672  0.4130306251917588  0.0114931398052320
  0.2928912763350695  0.1636619344255976  0.1025228415588870
  0.3867004655964550  0.9268941099627241  0.1994857356828135
  0.0436424883571505  0.4194471567274149  0.3526543044054264
  0.1259917892323443  0.1701529342848715  0.4349589667602558
  0.2006093901417429  0.9284917608410481  0.0110681825435250
  0.0448157193228838  0.9213071578914693  0.3541748029715066
  0.2184240408639013  0.5815690468707970  0.7658537090454871
  0.0383751888795274  0.5980430167387567  0.6022507165160249
  0.1310449925229520  0.3227539156483417  0.6946788623814157
  0.2120050934785382  0.0818705659719257  0.7710203826406570
  0.3803499318325336  0.5818199132890811  0.9351516051457622
  0.4498030232182941  0.3232856077809956  0.5122845141642500
  0.0408643300090574  0.0853130567119109  0.6034733624185691
  0.1306353313761619  0.8388531559511563  0.6853240622402268
  0.2962889681625498  0.3310141170586149  0.8509017305393414
  0.3782797672472569  0.0821405153605426  0.9350430474820115
  0.4665173224104393  0.8358576559144808  0.5131791326497961
  0.2935869114030538  0.8328366440891770  0.8535966122668057
  0.4695654088781751  0.6773743354968431  0.7791661572147532
  0.2753388343761785  0.6613921016606739  0.5970739097117530
  0.3780672234199329  0.3955774314534040  0.6843018929553537
  0.4615866129701303  0.1645795071573914  0.7715379623007621
  0.1306269588889180  0.6652919416301302  0.9329592550004122
  0.2156317875743738  0.4137122018186403  0.5140582045522208
  0.2908557592856837  0.1603130643026134  0.6020259539056312
  0.3823367317473583  0.9234954196326157  0.6948498518198178
  0.0446107518586558  0.4184384039209306  0.8513394463328865
  0.1287786587300488  0.1700708995687279  0.9345958170394368
  0.1975838236071539  0.9276328021963565  0.5125620070774417
  0.0464368961787827  0.9190370540897987  0.8528696584432751
  0.7180599344376901  0.5820307293718514  0.2676126656098745
  0.5435264942443183  0.5969839651724271  0.1006132272300988
  0.6321290579230521  0.3234072880920209  0.1960300983299561
  0.7115440851580956  0.0830478204116716  0.2717277876171309
  0.8784474558105515  0.5825856871129460  0.4375662372632334
  0.9543106746264485  0.3244087520937242  0.0137193971716556
  0.5432214684822370  0.0862857168806173  0.1031753641422029
  0.6326456962194200  0.8384301352461776  0.1867138525353695
  0.7949482801077892  0.3317402772159994  0.3529747194094028
  0.8755785918585559  0.0815393755575329  0.4356377319759801
  0.9693838387518525  0.8352619824790750  0.0145323995657733
  0.7926631883775599  0.8335861114041947  0.3558439396754594
  0.9672031258388927  0.6784728827248330  0.2816357156123388
  0.7778331953047584  0.6616057756605755  0.0977048238167555
  0.8780185816680799  0.3962470848707724  0.1863817073164995
  0.9618965724525097  0.1656836011262897  0.2728660719849785
  0.6303272239098945  0.6658039687553483  0.4348397130279338
  0.7185511745920437  0.4125603522913934  0.0149458218009144
  0.7934748467877526  0.1621485847359452  0.1033622526392435
  0.8827374643178914  0.9255327538765101  0.1983331579804499
  0.5443142522737361  0.4193935407011793  0.3528520318525850
  0.6259954881430474  0.1697505266694748  0.4350911086425526
  0.7045719262997565  0.9299983842418413  0.0161629788380040
  0.5476883681198004  0.9208442678529636  0.3537152655145022
  0.7185554762057862  0.5810306120163204  0.7660030420183190
  0.5387097847457909  0.5983078314173298  0.6015716379968339
  0.6310465271472410  0.3229270401004456  0.6950083311165969
  0.7124389006016898  0.0834542582134290  0.7714038134891226
  0.8807540787266177  0.5822026152466862  0.9369469307309899
  0.9499368459816750  0.3233850716731297  0.5128357667502854
  0.5412099214571100  0.0855976054751864  0.6031033848274845
  0.6314872166608509  0.8390137689222925  0.6851319785598164
  0.7963731754949706  0.3316154897992334  0.8526213332862369
  0.8787482238720514  0.0824422154258073  0.9357962183332376
  0.9653961929179857  0.8356657963581213  0.5148069693387143
  0.7902322092929168  0.8338408393012813  0.8574089894077659
  0.9671674608351566  0.6774410518481204  0.7799620942171401
  0.7755517951769733  0.6607504538690137  0.5976931804009027
  0.8778400016208963  0.3944276258860455  0.6851910031216022
  0.9625223866203214  0.1638698157843095  0.7724990716980571
  0.6327850508188604  0.6603537154497801  0.9334450060297854
  0.7155917274338606  0.4132334191964873  0.5148297925819847
  0.7911066046970987  0.1600029929060867  0.6025077315228486
  0.8819274175257377  0.9237764897984917  0.6972687845858729
  0.5447271892154291  0.4173915468081688  0.8515984775181451
  0.6282669612137255  0.1695781073631721  0.9350149144039079
  0.6986527280662429  0.9272340161347543  0.5132862782088239
  0.5452292901087930  0.9231544504869120  0.8503864389746809
 
  0.00000000E+00  0.00000000E+00  0.00000000E+00
  0.00000000E+00  0.00000000E+00  0.00000000E+00
  0.00000000E+00  0.00000000E+00  0.00000000E+00
  0.00000000E+00  0.00000000E+00  0.00000000E+00
  0.00000000E+00  0.00000000E+00  0.00000000E+00
  0.00000000E+00  0.00000000E+00  0.00000000E+00
  0.00000000E+00  0.00000000E+00  0.00000000E+00
  0.00000000E+00  0.00000000E+00  0.00000000E+00
  0.00000000E+00  0.00000000E+00  0.00000000E+00
  0.00000000E+00  0.00000000E+00  0.00000000E+00
  0.00000000E+00  0.00000000E+00  0.00000000E+00
  0.00000000E+00  0.00000000E+00  0.00000000E+00
  0.00000000E+00  0.00000000E+00  0.00000000E+00
  0.00000000E+00  0.00000000E+00  0.00000000E+00
  0.00000000E+00  0.00000000E+00  0.00000000E+00
  0.00000000E+00  0.00000000E+00  0.00000000E+00
  0.00000000E+00  0.00000000E+00  0.00000000E+00
  0.00000000E+00  0.00000000E+00  0.00000000E+00
  0.00000000E+00  0.00000000E+00  0.00000000E+00
  0.00000000E+00  0.00000000E+00  0.00000000E+00
  0.00000000E+00  0.00000000E+00  0.00000000E+00
  0.00000000E+00  0.00000000E+00  0.00000000E+00
  0.00000000E+00  0.00000000E+00  0.00000000E+00
  0.00000000E+00  0.00000000E+00  0.00000000E+00
  0.00000000E+00  0.00000000E+00  0.00000000E+00
  0.00000000E+00  0.00000000E+00  0.00000000E+00
  0.00000000E+00  0.00000000E+00  0.00000000E+00
  0.00000000E+00  0.00000000E+00  0.00000000E+00
  0.00000000E+00  0.00000000E+00  0.00000000E+00
  0.00000000E+00  0.00000000E+00  0.00000000E+00
  0.00000000E+00  0.00000000E+00  0.00000000E+00
  0.00000000E+00  0.00000000E+00  0.00000000E+00
  0.00000000E+00  0.00000000E+00  0.00000000E+00
  0.00000000E+00  0.00000000E+00  0.00000000E+00
  0.00000000E+00  0.00000000E+00  0.00000000E+00
  0.00000000E+00  0.00000000E+00  0.00000000E+00
  0.00000000E+00  0.00000000E+00  0.00000000E+00
  0.00000000E+00  0.00000000E+00  0.00000000E+00
  0.00000000E+00  0.00000000E+00  0.00000000E+00
  0.00000000E+00  0.00000000E+00  0.00000000E+00
  0.00000000E+00  0.00000000E+00  0.00000000E+00
  0.00000000E+00  0.00000000E+00  0.00000000E+00
  0.00000000E+00  0.00000000E+00  0.00000000E+00
  0.00000000E+00  0.00000000E+00  0.00000000E+00
  0.00000000E+00  0.00000000E+00  0.00000000E+00
  0.00000000E+00  0.00000000E+00  0.00000000E+00
  0.00000000E+00  0.00000000E+00  0.00000000E+00
  0.00000000E+00  0.00000000E+00  0.00000000E+00
  0.00000000E+00  0.00000000E+00  0.00000000E+00
  0.00000000E+00  0.00000000E+00  0.00000000E+00
  0.00000000E+00  0.00000000E+00  0.00000000E+00
  0.00000000E+00  0.00000000E+00  0.00000000E+00
  0.00000000E+00  0.00000000E+00  0.00000000E+00
  0.00000000E+00  0.00000000E+00  0.00000000E+00
  0.00000000E+00  0.00000000E+00  0.00000000E+00
  0.00000000E+00  0.00000000E+00  0.00000000E+00
  0.00000000E+00  0.00000000E+00  0.00000000E+00
  0.00000000E+00  0.00000000E+00  0.00000000E+00
  0.00000000E+00  0.00000000E+00  0.00000000E+00
  0.00000000E+00  0.00000000E+00  0.00000000E+00
  0.00000000E+00  0.00000000E+00  0.00000000E+00
  0.00000000E+00  0.00000000E+00  0.00000000E+00
  0.00000000E+00  0.00000000E+00  0.00000000E+00
  0.00000000E+00  0.00000000E+00  0.00000000E+00
  0.00000000E+00  0.00000000E+00  0.00000000E+00
  0.00000000E+00  0.00000000E+00  0.00000000E+00
  0.00000000E+00  0.00000000E+00  0.00000000E+00
  0.00000000E+00  0.00000000E+00  0.00000000E+00
  0.00000000E+00  0.00000000E+00  0.00000000E+00
  0.00000000E+00  0.00000000E+00  0.00000000E+00
  0.00000000E+00  0.00000000E+00  0.00000000E+00
  0.00000000E+00  0.00000000E+00  0.00000000E+00
  0.00000000E+00  0.00000000E+00  0.00000000E+00
  0.00000000E+00  0.00000000E+00  0.00000000E+00
  0.00000000E+00  0.00000000E+00  0.00000000E+00
  0.00000000E+00  0.00000000E+00  0.00000000E+00
  0.00000000E+00  0.00000000E+00  0.00000000E+00
  0.00000000E+00  0.00000000E+00  0.00000000E+00
  0.00000000E+00  0.00000000E+00  0.00000000E+00
  0.00000000E+00  0.00000000E+00  0.00000000E+00
  0.00000000E+00  0.00000000E+00  0.00000000E+00
  0.00000000E+00  0.00000000E+00  0.00000000E+00
  0.00000000E+00  0.00000000E+00  0.00000000E+00
  0.00000000E+00  0.00000000E+00  0.00000000E+00
  0.00000000E+00  0.00000000E+00  0.00000000E+00
  0.00000000E+00  0.00000000E+00  0.00000000E+00
  0.00000000E+00  0.00000000E+00  0.00000000E+00
  0.00000000E+00  0.00000000E+00  0.00000000E+00
  0.00000000E+00  0.00000000E+00  0.00000000E+00
  0.00000000E+00  0.00000000E+00  0.00000000E+00
  0.00000000E+00  0.00000000E+00  0.00000000E+00
  0.00000000E+00  0.00000000E+00  0.00000000E+00
  0.00000000E+00  0.00000000E+00  0.00000000E+00
  0.00000000E+00  0.00000000E+00  0.00000000E+00
  0.00000000E+00  0.00000000E+00  0.00000000E+00
  0.00000000E+00  0.00000000E+00  0.00000000E+00
  0.00000000E+00  0.00000000E+00  0.00000000E+00
  0.00000000E+00  0.00000000E+00  0.00000000E+00
  0.00000000E+00  0.00000000E+00  0.00000000E+00
  0.00000000E+00  0.00000000E+00  0.00000000E+00
  0.00000000E+00  0.00000000E+00  0.00000000E+00
  0.00000000E+00  0.00000000E+00  0.00000000E+00
  0.00000000E+00  0.00000000E+00  0.00000000E+00
  0.00000000E+00  0.00000000E+00  0.00000000E+00
  0.00000000E+00  0.00000000E+00  0.00000000E+00
  0.00000000E+00  0.00000000E+00  0.00000000E+00
  0.00000000E+00  0.00000000E+00  0.00000000E+00
  0.00000000E+00  0.00000000E+00  0.00000000E+00
  0.00000000E+00  0.00000000E+00  0.00000000E+00
  0.00000000E+00  0.00000000E+00  0.00000000E+00
  0.00000000E+00  0.00000000E+00  0.00000000E+00
  0.00000000E+00  0.00000000E+00  0.00000000E+00
  0.00000000E+00  0.00000000E+00  0.00000000E+00
  0.00000000E+00  0.00000000E+00  0.00000000E+00
  0.00000000E+00  0.00000000E+00  0.00000000E+00
  0.00000000E+00  0.00000000E+00  0.00000000E+00
  0.00000000E+00  0.00000000E+00  0.00000000E+00
  0.00000000E+00  0.00000000E+00  0.00000000E+00
  0.00000000E+00  0.00000000E+00  0.00000000E+00
  0.00000000E+00  0.00000000E+00  0.00000000E+00
  0.00000000E+00  0.00000000E+00  0.00000000E+00
  0.00000000E+00  0.00000000E+00  0.00000000E+00
  0.00000000E+00  0.00000000E+00  0.00000000E+00
  0.00000000E+00  0.00000000E+00  0.00000000E+00
  0.00000000E+00  0.00000000E+00  0.00000000E+00
  0.00000000E+00  0.00000000E+00  0.00000000E+00
  0.00000000E+00  0.00000000E+00  0.00000000E+00
  0.00000000E+00  0.00000000E+00  0.00000000E+00
  0.00000000E+00  0.00000000E+00  0.00000000E+00
  0.00000000E+00  0.00000000E+00  0.00000000E+00
  0.00000000E+00  0.00000000E+00  0.00000000E+00
  0.00000000E+00  0.00000000E+00  0.00000000E+00
  0.00000000E+00  0.00000000E+00  0.00000000E+00
  0.00000000E+00  0.00000000E+00  0.00000000E+00
  0.00000000E+00  0.00000000E+00  0.00000000E+00
  0.00000000E+00  0.00000000E+00  0.00000000E+00
  0.00000000E+00  0.00000000E+00  0.00000000E+00
  0.00000000E+00  0.00000000E+00  0.00000000E+00
  0.00000000E+00  0.00000000E+00  0.00000000E+00
  0.00000000E+00  0.00000000E+00  0.00000000E+00
  0.00000000E+00  0.00000000E+00  0.00000000E+00
  0.00000000E+00  0.00000000E+00  0.00000000E+00
  0.00000000E+00  0.00000000E+00  0.00000000E+00
  0.00000000E+00  0.00000000E+00  0.00000000E+00
  0.00000000E+00  0.00000000E+00  0.00000000E+00
  0.00000000E+00  0.00000000E+00  0.00000000E+00
  0.00000000E+00  0.00000000E+00  0.00000000E+00
  0.00000000E+00  0.00000000E+00  0.00000000E+00
  0.00000000E+00  0.00000000E+00  0.00000000E+00
  0.00000000E+00  0.00000000E+00  0.00000000E+00
  0.00000000E+00  0.00000000E+00  0.00000000E+00
  0.00000000E+00  0.00000000E+00  0.00000000E+00
  0.00000000E+00  0.00000000E+00  0.00000000E+00
  0.00000000E+00  0.00000000E+00  0.00000000E+00
  0.00000000E+00  0.00000000E+00  0.00000000E+00
  0.00000000E+00  0.00000000E+00  0.00000000E+00
  0.00000000E+00  0.00000000E+00  0.00000000E+00
  0.00000000E+00  0.00000000E+00  0.00000000E+00
  0.00000000E+00  0.00000000E+00  0.00000000E+00
  0.00000000E+00  0.00000000E+00  0.00000000E+00
  0.00000000E+00  0.00000000E+00  0.00000000E+00
  0.00000000E+00  0.00000000E+00  0.00000000E+00
  0.00000000E+00  0.00000000E+00  0.00000000E+00
  0.00000000E+00  0.00000000E+00  0.00000000E+00
  0.00000000E+00  0.00000000E+00  0.00000000E+00
  0.00000000E+00  0.00000000E+00  0.00000000E+00
  0.00000000E+00  0.00000000E+00  0.00000000E+00
  0.00000000E+00  0.00000000E+00  0.00000000E+00
  0.00000000E+00  0.00000000E+00  0.00000000E+00
  0.00000000E+00  0.00000000E+00  0.00000000E+00
  0.00000000E+00  0.00000000E+00  0.00000000E+00
  0.00000000E+00  0.00000000E+00  0.00000000E+00
  0.00000000E+00  0.00000000E+00  0.00000000E+00
  0.00000000E+00  0.00000000E+00  0.00000000E+00
  0.00000000E+00  0.00000000E+00  0.00000000E+00
  0.00000000E+00  0.00000000E+00  0.00000000E+00
  0.00000000E+00  0.00000000E+00  0.00000000E+00
  0.00000000E+00  0.00000000E+00  0.00000000E+00
  0.00000000E+00  0.00000000E+00  0.00000000E+00
  0.00000000E+00  0.00000000E+00  0.00000000E+00
  0.00000000E+00  0.00000000E+00  0.00000000E+00
  0.00000000E+00  0.00000000E+00  0.00000000E+00
  0.00000000E+00  0.00000000E+00  0.00000000E+00
  0.00000000E+00  0.00000000E+00  0.00000000E+00
  0.00000000E+00  0.00000000E+00  0.00000000E+00
  0.00000000E+00  0.00000000E+00  0.00000000E+00
  0.00000000E+00  0.00000000E+00  0.00000000E+00
  0.00000000E+00  0.00000000E+00  0.00000000E+00
  0.00000000E+00  0.00000000E+00  0.00000000E+00
  0.00000000E+00  0.00000000E+00  0.00000000E+00
  0.00000000E+00  0.00000000E+00  0.00000000E+00
