supercell of POSCAR                     
   1.01189200000000     
     3.1482772356600002   -5.4762754812200001    9.9674464565599994
    -9.4511209497999999   -5.4731922780100000    0.0032121685426600
     6.3112884282600001  -10.9581161277000003   -9.9749049577999997
   Al   Sc   N 
    84    12    95
Direct
  0.0874306145513160  0.5834683423728677  0.3343483213310279
  0.0012699969494960  0.3266637347526000  0.2537843736871750
  0.0847576291825689  0.0839208652734271  0.3340571826987500
  0.2494633901250864  0.5804742489055528  0.4966914200043249
  0.3314438133478319  0.3249350020651036  0.0805155570780798
  0.4169405973377565  0.0860584993859419  0.1684382528208133
  0.0042588972634121  0.8403050355275354  0.2532365635102565
  0.1671016619060310  0.3328077019270808  0.4144016148963061
  0.2476816786359706  0.0858853133714987  0.4971899037343306
  0.1636827775980123  0.8348425377976838  0.4157128084341437
  0.3370434668316094  0.6700843627728759  0.3362581078224522
  0.1638877149174007  0.6741835092525363  0.1695001580516333
  0.2520343735890265  0.4073081483045229  0.2513783800539215
  0.3339592346642917  0.1650403477609217  0.3336954812007065
  0.0020503489696821  0.6701132935111005  0.4972674970349971
  0.1673471424340818  0.1613996074272066  0.1686190161215464
  0.2534013428651889  0.9183173353127501  0.2529627094302498
  0.4144904309038395  0.4156043773453604  0.4153622636804570
  0.4983429437966294  0.1630025358092055  0.4977609460515566
  0.0804647301207382  0.9218502807233406  0.0816184066075465
  0.4178316197817367  0.9176705070278572  0.4138072400007857
  0.0896170546740365  0.5842343224655480  0.8348914064876709
  0.0017921120404480  0.3268486535389670  0.7540417808415540
  0.0851026022381021  0.0843168299700991  0.8347045016142758
  0.2539587751830865  0.5818786225322086  0.9985002172858088
  0.3307763706873104  0.3241024840141904  0.5802303589789091
  0.4173469688362630  0.0864081241923955  0.6692876521114357
  0.0063035291436933  0.8398498627640336  0.7536451967366204
  0.1679429555123093  0.3330410790341460  0.9148026256499264
  0.2487008702098308  0.0846969671732722  0.9984695395554581
  0.1651563019678477  0.8352745758518125  0.9166010622982199
  0.3367371004357409  0.6703855685485607  0.8360733527304802
  0.1605143823790129  0.6709395347447540  0.6662514814466434
  0.2522935918673141  0.4084009030111844  0.7510845878509897
  0.3339066712849004  0.1651198224823318  0.8340731117220912
  0.0036285935342875  0.6711923031951201  0.9979041266682103
  0.1673281457445981  0.1613592796270140  0.6686007527608169
  0.2528025501200872  0.9189339570757369  0.7537802590645413
  0.4152862532681212  0.4150880062979851  0.9146786273810221
  0.4985567055024021  0.1635271636116755  0.9979663056667647
  0.0811754713838369  0.9209506832794006  0.5814311453655918
  0.4174453885396545  0.9177805071347009  0.9150222588207413
  0.5874747561506481  0.5833579002830973  0.3331248171871337
  0.5010482862678884  0.3278495388242959  0.2534587760986682
  0.5841204673304148  0.0842141583125695  0.3337504227119155
  0.7492005746792287  0.5805145047377565  0.4968357634387246
  0.8303499668394565  0.3248706054792265  0.0803377652130308
  0.9169186216597964  0.0866537111176342  0.1693252857830174
  0.5044314176137163  0.8388271093920494  0.2521099591391263
  0.6670744063201823  0.3328611834223594  0.4141196322974068
  0.7475547010887098  0.0859691653487147  0.4972043680819027
  0.6632304723673172  0.8348273146211440  0.4156184511848267
  0.8356174664090048  0.6701483102253150  0.3369406731393028
  0.6587563391553530  0.6711142229732872  0.1664661232406246
  0.7520041967905655  0.4091098066838939  0.2507428848695525
  0.8335602514686897  0.1654895396629072  0.3338136821904385
  0.5024426662674770  0.6698350181755899  0.4968439215764633
  0.6667751045291226  0.1620882192738122  0.1683290314241361
  0.7516139153540848  0.9191558634887755  0.2537645467061225
  0.9140331342967229  0.4156497098606451  0.4154948990076335
  0.9983086620777897  0.1630529427396681  0.4978686014687739
  0.5790769994560350  0.9209504376778739  0.0815163260136060
  0.9175647715942148  0.9179773716544304  0.4141985876207457
  0.5882871339521571  0.5842475928466442  0.8340075494021306
  0.5018182646091276  0.3264545305280464  0.7535223818120613
  0.5846019805956715  0.0840234170458700  0.8343895748287480
  0.7493034232741920  0.5806816467209757  0.9971269865825434
  0.8309123730719818  0.3241358763441369  0.5804287634604748
  0.9175530133645253  0.0863409978762490  0.6696405078025123
  0.5058514012554269  0.8401181338572599  0.7529887036183851
  0.6673328746968892  0.3332945296439291  0.9146287652204208
  0.7472253936754782  0.0861448383264900  0.9975565733093816
  0.6634997895873127  0.8351224339133481  0.9161053299670954
  0.8368908432857367  0.6704536365219838  0.8378220136358934
  0.6606515914957782  0.6709678461386162  0.6663729407140053
  0.7522341668972672  0.4085111534482451  0.7512433354763886
  0.8338570139209907  0.1656325535813536  0.8342241342301122
  0.5007740049067309  0.6704611319068547  0.9967183439694338
  0.6674408501025724  0.1611803557488187  0.6686017726039140
  0.7528494599095410  0.9188582915795678  0.7540846798458247
  0.9149991052195290  0.4161539849973011  0.9157279768912829
  0.9983697452348537  0.1637228471290939  0.9981770962455982
  0.5811761627188403  0.9209845276618083  0.5812580412756461
  0.9180046288362931  0.9182875454990480  0.9145090489065595
  0.3947634548911694  0.5874229332728973  0.1702943618852473
  0.3246415782642771  0.8263375387813880  0.0862112030210014
  0.0793251828102939  0.4158459519188540  0.0855449514774946
  0.4050577107061670  0.5825113184624797  0.6729779582097990
  0.3280521861379313  0.8382272062184342  0.5838944691298735
  0.0783438421332576  0.4152813123024046  0.5853052485311707
  0.9062016523943797  0.5835383932435860  0.1729452125553763
  0.8264310532101646  0.8384028592435371  0.0842014749590874
  0.5767189016940719  0.4180527932647706  0.0858423837324480
  0.9048593739573505  0.5830814373632194  0.6740847978837934
  0.8277734180327911  0.8384980209415289  0.5842606972739190
  0.5786937032228963  0.4148679140731559  0.5850204798259711
  0.2186326381190753  0.5797388123732148  0.2673682600005094
  0.0455298662218908  0.6008652390793117  0.1026038151991244
  0.1312582102361475  0.3229142986281346  0.1955053056332900
  0.2123042786717946  0.0820204443185588  0.2711784833010995
  0.3796391219465747  0.5830059773703269  0.4363293579884271
  0.4514480204648805  0.3241635897907500  0.0127138757018557
  0.0420019582583535  0.0860351082326076  0.1033796570161201
  0.1303827639275070  0.8412809332258888  0.1854469590605277
  0.2956724114304592  0.3309622597468902  0.3525482944137437
  0.3767590159200864  0.0809226700987224  0.4352037498031720
  0.4649274247392867  0.8352436719138154  0.0146699623729774
  0.2935188827889803  0.8332050322785989  0.3541662175986673
  0.4687880819189729  0.6759697727691432  0.2781071357551639
  0.3778184991169766  0.3984201040666591  0.1851331306414679
  0.4615843649181741  0.1650233613634171  0.2716267771495069
  0.1305768717312432  0.6660507778119964  0.4341462730416410
  0.2177598764040951  0.4149717971236200  0.0151039844876451
  0.2918135251790446  0.1616803478705435  0.1025470665550117
  0.3834189676395496  0.9239251005949569  0.1940770564788608
  0.0440836796000141  0.4184862242678875  0.3524689493991602
  0.1267399143325747  0.1694596817075151  0.4349382247526350
  0.2011964999803126  0.9247240852706042  0.0147862239310683
  0.0463117086772442  0.9205702036565029  0.3529138916724435
  0.2186559472306655  0.5820215521917689  0.7667878721536212
  0.0397365719982616  0.5984234958466317  0.6019063142893586
  0.1315810108912032  0.3231440773878802  0.6955017821483338
  0.2121310275973798  0.0824894988321248  0.7714234508280029
  0.3810290696117562  0.5818217183454948  0.9341486628405420
  0.4509766099244814  0.3234526191347342  0.5127014393000451
  0.0421707001670413  0.0855134464738470  0.6034090832331032
  0.1321775593858519  0.8392140009575186  0.6856365888348463
  0.2957722298635943  0.3312290605373605  0.8524542844410590
  0.3766940356322550  0.0812722722245738  0.9355816583702321
  0.4674890103517342  0.8354338083947397  0.5135392532342848
  0.2938116202249432  0.8335582681901244  0.8545261995118025
  0.4697158839250548  0.6780340952756276  0.7790822622159652
  0.2766694760862123  0.6612787070731230  0.5972314119194593
  0.3783924648735919  0.3953948497831163  0.6851980223029344
  0.4620027276681000  0.1644670916715683  0.7723356150374201
  0.1329012952656541  0.6667186272590513  0.9359712410556185
  0.2167942449026796  0.4137516619986883  0.5143103959625464
  0.2918133737525821  0.1603472935045005  0.6023519086947289
  0.3837611845752491  0.9242176601619292  0.6960580210514564
  0.0452014007455830  0.4190345597238050  0.8528627826887245
  0.1275825049239714  0.1692825396466588  0.9358956819502424
  0.1991786652820480  0.9269556326374797  0.5124363251302029
  0.0474306015157708  0.9207074786675875  0.8537452505692187
  0.7181581553650886  0.5819643906624847  0.2666050358030390
  0.5356538777378361  0.6014040148479367  0.1022492643433850
  0.6311170851329919  0.3240625504612211  0.1949847294541200
  0.7117041704516183  0.0830002608040772  0.2711323247846948
  0.8795118011635807  0.5830379588244270  0.4365889409288073
  0.9513353758022660  0.3244449313320743  0.0131382795647568
  0.5421285434685714  0.0861262774938396  0.1031239880638992
  0.6316307365439187  0.8394344558707658  0.1853631950931884
  0.7954710379431873  0.3316897573031596  0.3520576686549006
  0.8765601727527326  0.0813119290462438  0.4352872136769932
  0.9668894831802390  0.8361140105163898  0.0142870561242816
  0.7933104300274465  0.8336637524853643  0.3545076960947995
  0.9689323597871820  0.6778639796698087  0.2798297701834329
  0.7761301990227523  0.6607427479605050  0.0978644551443537
  0.8787697153841947  0.3966694289664474  0.1850550866767122
  0.9618341401585724  0.1645591171141731  0.2722991234955288
  0.6305143426817139  0.6658282370913682  0.4336258947752754
  0.7159205967587283  0.4143763280728763  0.0147379816688513
  0.7917469353772333  0.1610545366158433  0.1024579659054936
  0.8827283838656115  0.9244963795583416  0.1961149373063975
  0.5443560861563057  0.4183651741398862  0.3524543708642796
  0.6266615796609898  0.1694422200137495  0.4348109066549384
  0.6979091959179939  0.9273687263597310  0.0127560636973385
  0.5460373268086443  0.9202375838159753  0.3520519754751845
  0.7193187677834771  0.5821868349691357  0.7671405553325172
  0.5403993133184670  0.5980939182685887  0.6014671858457703
  0.6318692506554910  0.3230322522977858  0.6953116078003276
  0.7122039458974783  0.0825293028124818  0.7715287232495101
  0.8806728468216107  0.5834081902667663  0.9377528154116561
  0.9510421417610502  0.3235370827993265  0.5127704502604047
  0.5422006788273563  0.0855297620807463  0.6032901805132411
  0.6323969476663649  0.8394115688730608  0.6854908997406284
  0.7960611197105436  0.3319552873498850  0.8527579086275452
  0.8766595914149207  0.0815242773759550  0.9357147503232284
  0.9671931100537137  0.8356719902222522  0.5138725049596360
  0.7937047872749901  0.8337455011728352  0.8550644510615300
  0.9701843077880952  0.6778551019033330  0.7809881171129049
  0.7769293393919128  0.6613084386156061  0.5974214148307055
  0.8785705528946650  0.3957090506086516  0.6854185562033379
  0.9622346600001777  0.1646589006224701  0.7727553701415673
  0.6306263826771712  0.6663129803698524  0.9344063419030419
  0.7170638494773840  0.4135417827113699  0.5141959016957429
  0.7920248746442624  0.1602013083105263  0.6025062056979849
  0.8841517186901555  0.9239917062208960  0.6966978198077953
  0.5451632142337957  0.4185673901135374  0.8518815850019834
  0.6268251056312337  0.1699483460691553  0.9349457637495107
  0.6990951970178898  0.9269910521512941  0.5123247085632130
  0.5462350787363732  0.9205260783497877  0.8531505739992937
 
  0.00000000E+00  0.00000000E+00  0.00000000E+00
  0.00000000E+00  0.00000000E+00  0.00000000E+00
  0.00000000E+00  0.00000000E+00  0.00000000E+00
  0.00000000E+00  0.00000000E+00  0.00000000E+00
  0.00000000E+00  0.00000000E+00  0.00000000E+00
  0.00000000E+00  0.00000000E+00  0.00000000E+00
  0.00000000E+00  0.00000000E+00  0.00000000E+00
  0.00000000E+00  0.00000000E+00  0.00000000E+00
  0.00000000E+00  0.00000000E+00  0.00000000E+00
  0.00000000E+00  0.00000000E+00  0.00000000E+00
  0.00000000E+00  0.00000000E+00  0.00000000E+00
  0.00000000E+00  0.00000000E+00  0.00000000E+00
  0.00000000E+00  0.00000000E+00  0.00000000E+00
  0.00000000E+00  0.00000000E+00  0.00000000E+00
  0.00000000E+00  0.00000000E+00  0.00000000E+00
  0.00000000E+00  0.00000000E+00  0.00000000E+00
  0.00000000E+00  0.00000000E+00  0.00000000E+00
  0.00000000E+00  0.00000000E+00  0.00000000E+00
  0.00000000E+00  0.00000000E+00  0.00000000E+00
  0.00000000E+00  0.00000000E+00  0.00000000E+00
  0.00000000E+00  0.00000000E+00  0.00000000E+00
  0.00000000E+00  0.00000000E+00  0.00000000E+00
  0.00000000E+00  0.00000000E+00  0.00000000E+00
  0.00000000E+00  0.00000000E+00  0.00000000E+00
  0.00000000E+00  0.00000000E+00  0.00000000E+00
  0.00000000E+00  0.00000000E+00  0.00000000E+00
  0.00000000E+00  0.00000000E+00  0.00000000E+00
  0.00000000E+00  0.00000000E+00  0.00000000E+00
  0.00000000E+00  0.00000000E+00  0.00000000E+00
  0.00000000E+00  0.00000000E+00  0.00000000E+00
  0.00000000E+00  0.00000000E+00  0.00000000E+00
  0.00000000E+00  0.00000000E+00  0.00000000E+00
  0.00000000E+00  0.00000000E+00  0.00000000E+00
  0.00000000E+00  0.00000000E+00  0.00000000E+00
  0.00000000E+00  0.00000000E+00  0.00000000E+00
  0.00000000E+00  0.00000000E+00  0.00000000E+00
  0.00000000E+00  0.00000000E+00  0.00000000E+00
  0.00000000E+00  0.00000000E+00  0.00000000E+00
  0.00000000E+00  0.00000000E+00  0.00000000E+00
  0.00000000E+00  0.00000000E+00  0.00000000E+00
  0.00000000E+00  0.00000000E+00  0.00000000E+00
  0.00000000E+00  0.00000000E+00  0.00000000E+00
  0.00000000E+00  0.00000000E+00  0.00000000E+00
  0.00000000E+00  0.00000000E+00  0.00000000E+00
  0.00000000E+00  0.00000000E+00  0.00000000E+00
  0.00000000E+00  0.00000000E+00  0.00000000E+00
  0.00000000E+00  0.00000000E+00  0.00000000E+00
  0.00000000E+00  0.00000000E+00  0.00000000E+00
  0.00000000E+00  0.00000000E+00  0.00000000E+00
  0.00000000E+00  0.00000000E+00  0.00000000E+00
  0.00000000E+00  0.00000000E+00  0.00000000E+00
  0.00000000E+00  0.00000000E+00  0.00000000E+00
  0.00000000E+00  0.00000000E+00  0.00000000E+00
  0.00000000E+00  0.00000000E+00  0.00000000E+00
  0.00000000E+00  0.00000000E+00  0.00000000E+00
  0.00000000E+00  0.00000000E+00  0.00000000E+00
  0.00000000E+00  0.00000000E+00  0.00000000E+00
  0.00000000E+00  0.00000000E+00  0.00000000E+00
  0.00000000E+00  0.00000000E+00  0.00000000E+00
  0.00000000E+00  0.00000000E+00  0.00000000E+00
  0.00000000E+00  0.00000000E+00  0.00000000E+00
  0.00000000E+00  0.00000000E+00  0.00000000E+00
  0.00000000E+00  0.00000000E+00  0.00000000E+00
  0.00000000E+00  0.00000000E+00  0.00000000E+00
  0.00000000E+00  0.00000000E+00  0.00000000E+00
  0.00000000E+00  0.00000000E+00  0.00000000E+00
  0.00000000E+00  0.00000000E+00  0.00000000E+00
  0.00000000E+00  0.00000000E+00  0.00000000E+00
  0.00000000E+00  0.00000000E+00  0.00000000E+00
  0.00000000E+00  0.00000000E+00  0.00000000E+00
  0.00000000E+00  0.00000000E+00  0.00000000E+00
  0.00000000E+00  0.00000000E+00  0.00000000E+00
  0.00000000E+00  0.00000000E+00  0.00000000E+00
  0.00000000E+00  0.00000000E+00  0.00000000E+00
  0.00000000E+00  0.00000000E+00  0.00000000E+00
  0.00000000E+00  0.00000000E+00  0.00000000E+00
  0.00000000E+00  0.00000000E+00  0.00000000E+00
  0.00000000E+00  0.00000000E+00  0.00000000E+00
  0.00000000E+00  0.00000000E+00  0.00000000E+00
  0.00000000E+00  0.00000000E+00  0.00000000E+00
  0.00000000E+00  0.00000000E+00  0.00000000E+00
  0.00000000E+00  0.00000000E+00  0.00000000E+00
  0.00000000E+00  0.00000000E+00  0.00000000E+00
  0.00000000E+00  0.00000000E+00  0.00000000E+00
  0.00000000E+00  0.00000000E+00  0.00000000E+00
  0.00000000E+00  0.00000000E+00  0.00000000E+00
  0.00000000E+00  0.00000000E+00  0.00000000E+00
  0.00000000E+00  0.00000000E+00  0.00000000E+00
  0.00000000E+00  0.00000000E+00  0.00000000E+00
  0.00000000E+00  0.00000000E+00  0.00000000E+00
  0.00000000E+00  0.00000000E+00  0.00000000E+00
  0.00000000E+00  0.00000000E+00  0.00000000E+00
  0.00000000E+00  0.00000000E+00  0.00000000E+00
  0.00000000E+00  0.00000000E+00  0.00000000E+00
  0.00000000E+00  0.00000000E+00  0.00000000E+00
  0.00000000E+00  0.00000000E+00  0.00000000E+00
  0.00000000E+00  0.00000000E+00  0.00000000E+00
  0.00000000E+00  0.00000000E+00  0.00000000E+00
  0.00000000E+00  0.00000000E+00  0.00000000E+00
  0.00000000E+00  0.00000000E+00  0.00000000E+00
  0.00000000E+00  0.00000000E+00  0.00000000E+00
  0.00000000E+00  0.00000000E+00  0.00000000E+00
  0.00000000E+00  0.00000000E+00  0.00000000E+00
  0.00000000E+00  0.00000000E+00  0.00000000E+00
  0.00000000E+00  0.00000000E+00  0.00000000E+00
  0.00000000E+00  0.00000000E+00  0.00000000E+00
  0.00000000E+00  0.00000000E+00  0.00000000E+00
  0.00000000E+00  0.00000000E+00  0.00000000E+00
  0.00000000E+00  0.00000000E+00  0.00000000E+00
  0.00000000E+00  0.00000000E+00  0.00000000E+00
  0.00000000E+00  0.00000000E+00  0.00000000E+00
  0.00000000E+00  0.00000000E+00  0.00000000E+00
  0.00000000E+00  0.00000000E+00  0.00000000E+00
  0.00000000E+00  0.00000000E+00  0.00000000E+00
  0.00000000E+00  0.00000000E+00  0.00000000E+00
  0.00000000E+00  0.00000000E+00  0.00000000E+00
  0.00000000E+00  0.00000000E+00  0.00000000E+00
  0.00000000E+00  0.00000000E+00  0.00000000E+00
  0.00000000E+00  0.00000000E+00  0.00000000E+00
  0.00000000E+00  0.00000000E+00  0.00000000E+00
  0.00000000E+00  0.00000000E+00  0.00000000E+00
  0.00000000E+00  0.00000000E+00  0.00000000E+00
  0.00000000E+00  0.00000000E+00  0.00000000E+00
  0.00000000E+00  0.00000000E+00  0.00000000E+00
  0.00000000E+00  0.00000000E+00  0.00000000E+00
  0.00000000E+00  0.00000000E+00  0.00000000E+00
  0.00000000E+00  0.00000000E+00  0.00000000E+00
  0.00000000E+00  0.00000000E+00  0.00000000E+00
  0.00000000E+00  0.00000000E+00  0.00000000E+00
  0.00000000E+00  0.00000000E+00  0.00000000E+00
  0.00000000E+00  0.00000000E+00  0.00000000E+00
  0.00000000E+00  0.00000000E+00  0.00000000E+00
  0.00000000E+00  0.00000000E+00  0.00000000E+00
  0.00000000E+00  0.00000000E+00  0.00000000E+00
  0.00000000E+00  0.00000000E+00  0.00000000E+00
  0.00000000E+00  0.00000000E+00  0.00000000E+00
  0.00000000E+00  0.00000000E+00  0.00000000E+00
  0.00000000E+00  0.00000000E+00  0.00000000E+00
  0.00000000E+00  0.00000000E+00  0.00000000E+00
  0.00000000E+00  0.00000000E+00  0.00000000E+00
  0.00000000E+00  0.00000000E+00  0.00000000E+00
  0.00000000E+00  0.00000000E+00  0.00000000E+00
  0.00000000E+00  0.00000000E+00  0.00000000E+00
  0.00000000E+00  0.00000000E+00  0.00000000E+00
  0.00000000E+00  0.00000000E+00  0.00000000E+00
  0.00000000E+00  0.00000000E+00  0.00000000E+00
  0.00000000E+00  0.00000000E+00  0.00000000E+00
  0.00000000E+00  0.00000000E+00  0.00000000E+00
  0.00000000E+00  0.00000000E+00  0.00000000E+00
  0.00000000E+00  0.00000000E+00  0.00000000E+00
  0.00000000E+00  0.00000000E+00  0.00000000E+00
  0.00000000E+00  0.00000000E+00  0.00000000E+00
  0.00000000E+00  0.00000000E+00  0.00000000E+00
  0.00000000E+00  0.00000000E+00  0.00000000E+00
  0.00000000E+00  0.00000000E+00  0.00000000E+00
  0.00000000E+00  0.00000000E+00  0.00000000E+00
  0.00000000E+00  0.00000000E+00  0.00000000E+00
  0.00000000E+00  0.00000000E+00  0.00000000E+00
  0.00000000E+00  0.00000000E+00  0.00000000E+00
  0.00000000E+00  0.00000000E+00  0.00000000E+00
  0.00000000E+00  0.00000000E+00  0.00000000E+00
  0.00000000E+00  0.00000000E+00  0.00000000E+00
  0.00000000E+00  0.00000000E+00  0.00000000E+00
  0.00000000E+00  0.00000000E+00  0.00000000E+00
  0.00000000E+00  0.00000000E+00  0.00000000E+00
  0.00000000E+00  0.00000000E+00  0.00000000E+00
  0.00000000E+00  0.00000000E+00  0.00000000E+00
  0.00000000E+00  0.00000000E+00  0.00000000E+00
  0.00000000E+00  0.00000000E+00  0.00000000E+00
  0.00000000E+00  0.00000000E+00  0.00000000E+00
  0.00000000E+00  0.00000000E+00  0.00000000E+00
  0.00000000E+00  0.00000000E+00  0.00000000E+00
  0.00000000E+00  0.00000000E+00  0.00000000E+00
  0.00000000E+00  0.00000000E+00  0.00000000E+00
  0.00000000E+00  0.00000000E+00  0.00000000E+00
  0.00000000E+00  0.00000000E+00  0.00000000E+00
  0.00000000E+00  0.00000000E+00  0.00000000E+00
  0.00000000E+00  0.00000000E+00  0.00000000E+00
  0.00000000E+00  0.00000000E+00  0.00000000E+00
  0.00000000E+00  0.00000000E+00  0.00000000E+00
  0.00000000E+00  0.00000000E+00  0.00000000E+00
  0.00000000E+00  0.00000000E+00  0.00000000E+00
  0.00000000E+00  0.00000000E+00  0.00000000E+00
  0.00000000E+00  0.00000000E+00  0.00000000E+00
  0.00000000E+00  0.00000000E+00  0.00000000E+00
  0.00000000E+00  0.00000000E+00  0.00000000E+00
  0.00000000E+00  0.00000000E+00  0.00000000E+00
  0.00000000E+00  0.00000000E+00  0.00000000E+00
  0.00000000E+00  0.00000000E+00  0.00000000E+00
  0.00000000E+00  0.00000000E+00  0.00000000E+00
  0.00000000E+00  0.00000000E+00  0.00000000E+00
