supercell of POSCAR                     
   1.01189200000000     
     3.1482772356600002   -5.4762754812200001    9.9674464565599994
    -9.4511209497999999   -5.4731922780100000    0.0032121685426600
     6.3112884282600001  -10.9581161277000003   -9.9749049577999997
   Al   Sc   N 
    84    11    96
Direct
  0.0894676997234072  0.5844780289410778  0.3338051034577987
  0.0046685749449580  0.3283680640050761  0.2532446703318172
  0.0858889117672490  0.0843020264899295  0.3337778064538384
  0.2501531031403985  0.5811397023039007  0.4949718538252128
  0.3299783855685234  0.3256379446352113  0.0808411128327364
  0.4175655725509131  0.0870527043808877  0.1693368180379053
  0.0076457000444279  0.8388993435193157  0.2532925103883628
  0.1691311857287161  0.3344885338436114  0.4117833637357933
  0.2479357657586618  0.0859047956778340  0.4964015714164489
  0.1650553078046997  0.8339300095344697  0.4150215790230902
  0.3412945758615393  0.6675334134831914  0.3287299326557971
  0.1687776880094347  0.6665211062849323  0.1662461275538902
  0.2634106470949220  0.4165670358119868  0.2447639933096468
  0.3350187625540286  0.1672588615928845  0.3325058778218235
  0.0018716789822832  0.6701126668170261  0.4973586049873688
  0.1691534287538943  0.1631137387623269  0.1684445419032343
  0.2542752036153999  0.9185059811270619  0.2533505927256314
  0.4151315658377541  0.4166395935090108  0.4139207429338541
  0.4982163318032136  0.1628611966378486  0.4969503363451580
  0.0855938299382757  0.9185872684052683  0.0825124087335851
  0.4183562850944327  0.9166954818260606  0.4118453098796167
  0.0865159279514600  0.5832249778338792  0.8348922065680284
  0.0000355255979869  0.3262685089167192  0.7540264096260287
  0.0840527470843142  0.0831147903870146  0.8349969760822731
  0.2514572431756221  0.5794488859121927  0.0000414671937818
  0.3302209107696399  0.3241979186061386  0.5792680094662970
  0.4163334714667357  0.0861779814897403  0.6689861793974359
  0.0044618388389353  0.8386028877162985  0.7541842662011859
  0.1660288778955845  0.3319920131394980  0.9145787163709045
  0.2486344136212679  0.0830740374045931  0.9984630829139292
  0.1642593177270655  0.8325184506910546  0.9185310927362806
  0.3348080471115082  0.6695304198092771  0.8370142229015798
  0.1593867943542833  0.6706434409141337  0.6660777415439938
  0.2504142975110994  0.4084281672250754  0.7504776475571759
  0.3327854197123941  0.1654706426367980  0.8341266370780076
  0.0019266457028593  0.6686638745031956  0.9992233419317671
  0.1664336346539841  0.1613087574062178  0.6683332135099533
  0.2513276046501645  0.9181274217725388  0.7539200453690498
  0.4128039618096793  0.4161038046531758  0.9151562601846237
  0.4974177455629416  0.1648914462684559  0.9983316840206697
  0.0808092930360900  0.9206271224238449  0.5813265232976050
  0.4167991955741783  0.9179257133516359  0.9146770998395866
  0.5853561358502617  0.5851831085741637  0.3302733705483973
  0.5007874058913373  0.3289938355101540  0.2532461350181094
  0.5857125968937638  0.0846985416991828  0.3338116621828888
  0.7491680323253576  0.5800560340886847  0.4969593691902787
  0.8266143284947702  0.3262037002283975  0.0812924850952257
  0.9187230740511154  0.0868967423613611  0.1696528444096614
  0.5058520447512365  0.8368836545649856  0.2527618381591665
  0.6673243167911309  0.3336975660506383  0.4138844938498920
  0.7478895822423013  0.0857513936544763  0.4969729657346846
  0.6629143410781353  0.8339227736652433  0.4152067828192756
  0.8355979000804297  0.6700494823667853  0.3373871680554146
  0.6585693781300961  0.6723743063504841  0.1660136229828240
  0.7530398797616016  0.4094055085702522  0.2511847099353872
  0.8349179572654251  0.1667151474316881  0.3335282631681338
  0.5020380858503515  0.6693412178009339  0.4942147849022689
  0.6672336781138810  0.1635371059796782  0.1688318770948172
  0.7531321942149916  0.9196459722983903  0.2539605295689569
  0.9150323310193826  0.4159287791864514  0.4155291964544858
  0.9989472070632175  0.1636343753452678  0.4975669423664186
  0.5812681640111990  0.9211180261182008  0.0812827269276539
  0.9182038311984471  0.9178856522715151  0.4138659235756776
  0.5868294901389746  0.5843015286993491  0.8336266273170310
  0.5002659821785187  0.3267563481054339  0.7536217737322843
  0.5836266448133856  0.0844900024215960  0.8345666420070401
  0.7404392870906165  0.5797959113927789  0.0024007968380886
  0.8302974075574951  0.3238098035478671  0.5807309929359548
  0.9166570377588883  0.0858633471132535  0.6697167215002224
  0.5043930515317072  0.8397364554069853  0.7527856720938075
  0.6641708848101544  0.3347523159995873  0.9181183247398863
  0.7471417628115873  0.0867082456943606  0.9979745115860226
  0.6625939579666849  0.8354777693161850  0.9162685839230349
  0.8337353863276462  0.6692786378955518  0.8397572257983512
  0.6592254284471224  0.6705198882010350  0.6659765756976697
  0.7498758975612603  0.4078376421675003  0.7520951743115489
  0.8324706334582075  0.1660772501176169  0.8350180409205166
  0.5021325269806027  0.6704703799641862  0.9967952705716243
  0.6663883045387138  0.1611031755249996  0.6684458582610091
  0.7518522224626523  0.9186961737334371  0.7543557169777770
  0.9117947502159467  0.4164775167728152  0.9171495156489655
  0.9981146777659617  0.1633998412395457  0.9990235556392975
  0.5808487943851119  0.9205828437451657  0.5806686818070972
  0.9182507076397144  0.9176258016055883  0.9152206627827084
  0.3336026258884814  0.8259252931779102  0.0883299709300189
  0.0783344887290625  0.4161322641759782  0.0855754087092038
  0.4036449305725682  0.5824125537039464  0.6723850383630321
  0.3282457492305682  0.8376286788717735  0.5827868746755982
  0.0786430998515399  0.4160990207998339  0.5843323177025610
  0.9058877514979926  0.5838972476659521  0.1750035897233815
  0.8293947680656828  0.8405337027145450  0.0850849776907481
  0.5586025852950272  0.4239463813520601  0.0946129123158812
  0.9028914370568302  0.5817100749910935  0.6747356319763966
  0.8273572066762824  0.8375616171002136  0.5842740234260120
  0.5776333668399545  0.4152677831072751  0.5844064117849683
  0.2149590552381540  0.5814860360039091  0.2691709607220929
  0.0400046719110634  0.5978357637299681  0.1034912346001491
  0.1349792018534828  0.3252821423079126  0.1954614521231619
  0.2127783354628718  0.0830021612321659  0.2713766014306884
  0.3792702333104359  0.5828679653000179  0.4353019551482689
  0.4478043244873149  0.3231607376752095  0.0100046634931346
  0.0434984940354184  0.0847847561556989  0.1036300380417643
  0.1332974720634539  0.8379363633125436  0.1868543782409162
  0.2970510485439419  0.3335873342996436  0.3501552544926270
  0.3766015325556324  0.0809589683442553  0.4348800408484337
  0.4688038465838602  0.8370802696091602  0.0120425202241279
  0.2936002572894054  0.8324000071139892  0.3542211384631671
  0.4741568328332946  0.6820013345165705  0.2817550559892084
  0.2757603306803773  0.6593708832529046  0.0958256943351330
  0.3849576578359688  0.3910581744229020  0.1815661477491588
  0.4638849436201369  0.1644443022745818  0.2730359971901919
  0.1295512010211510  0.6664904970637195  0.4354218741357627
  0.2146428448337971  0.4118386050269649  0.0129312054299788
  0.2917328672639812  0.1593703701781521  0.1016321984800115
  0.3853023729046186  0.9261902698553683  0.1974331234316722
  0.0439390146008520  0.4190063741148293  0.3532244796935089
  0.1274701122460584  0.1707641765833685  0.4349033167626857
  0.2037375365459866  0.9239001736459045  0.0141564290746174
  0.0472272510727905  0.9212211521597098  0.3536209226981484
  0.2166825255480020  0.5814006862303529  0.7660044125569030
  0.0380607198058982  0.5982958908059715  0.6025150151018153
  0.1296254120154003  0.3229527860651373  0.6946238682491526
  0.2109738504533709  0.0822065800844243  0.7708898155989488
  0.3787847192320299  0.5825781826214964  0.9347958565102488
  0.4505131846925607  0.3231244069010657  0.5123474046627052
  0.0414676065811364  0.0851928900114984  0.6033779208024015
  0.1304353048310389  0.8386792499741418  0.6856928822494481
  0.2936645416351453  0.3312114280325247  0.8509682565722443
  0.3763234959907749  0.0813422106892432  0.9344427996152831
  0.4676371027262789  0.8353443692239324  0.5129677230362546
  0.2926436648994581  0.8330614995037919  0.8540879801809425
  0.4674325654376403  0.6777585306137581  0.7782976927031058
  0.2753308772171650  0.6613119235191576  0.5967800601493352
  0.3768666525272266  0.3952488239583190  0.6845511566948801
  0.4608394233052380  0.1644925585925776  0.7717589065173769
  0.1294705822502067  0.6639534632577551  0.9338867277855982
  0.2167546077762879  0.4139985793107286  0.5135670401656114
  0.2910011725024901  0.1605203332954446  0.6021037633928614
  0.3821882653991935  0.9239414855165649  0.6953945543880167
  0.0421277474796966  0.4177366670303968  0.8522051802506923
  0.1264604000339276  0.1678952989599338  0.9352053828450480
  0.1988909821551346  0.9271797545470193  0.5126485989296441
  0.0470078463974417  0.9195807871521140  0.8535184101599640
  0.7206896265677685  0.5820234384638567  0.2670817212615262
  0.5538409087732745  0.6035370607925898  0.0937795944770983
  0.6339850661581963  0.3230052914552104  0.1979390536522700
  0.7138351814654911  0.0835139012485442  0.2718211982211329
  0.8796739117749865  0.5826804462846695  0.4377901662439143
  0.9489420963220212  0.3233221200950922  0.0135394014686483
  0.5427584420665283  0.0867445829301872  0.1030719525629067
  0.6340807845588614  0.8424246962038424  0.1854135487755855
  0.7966448417710268  0.3319597384082300  0.3533639848644938
  0.8773212316561185  0.0815891908206581  0.4355053462189815
  0.9691709114857048  0.8359618193125087  0.0142312127891060
  0.7937463985409536  0.8340352348374225  0.3553377964106943
  0.9688202670900310  0.6789807817754294  0.2822089190365418
  0.7818291096249652  0.6657366082680767  0.0992915942343373
  0.8796507558912268  0.3955599873293423  0.1859937726374170
  0.9636376209956268  0.1659548392954022  0.2725844665637283
  0.6325049809595811  0.6649303218648441  0.4344450964049713
  0.7101107244870235  0.4126112209638890  0.0182549293097694
  0.7925402401371002  0.1600023588895993  0.1029983513620394
  0.8855953147946209  0.9253991121029799  0.1978284037911777
  0.5458178738768495  0.4186570343209297  0.3535145225572691
  0.6276237699312261  0.1700394740416229  0.4356278647083371
  0.6997695719571766  0.9277728640131500  0.0121196293718384
  0.5483479121202421  0.9226120948952641  0.3530639572164560
  0.7173885960889095  0.5814193240259584  0.7661826358127399
  0.5388193336414488  0.5984929088173061  0.6007228687067609
  0.6300110084027466  0.3227563160318496  0.6948013997062503
  0.7113003446214776  0.0827252293739420  0.7712536049417835
  0.8761258513687054  0.5823882868023560  0.9390335470119311
  0.9508030019004678  0.3234458387376691  0.5136119088300148
  0.5413804743948489  0.0850793009782436  0.6030939087413074
  0.6313023317116588  0.8391259677163347  0.6852925853006511
  0.7929670330147474  0.3317342110575154  0.8536064317222056
  0.8765044967145812  0.0812843721619672  0.9356053375365079
  0.9666430833121069  0.8358352231332233  0.5142750443847248
  0.7934515246189875  0.8344090384254912  0.8548471021914281
  0.9667008163966884  0.6771036058942244  0.7807001608847415
  0.7761710773490123  0.6608761944740920  0.5979262328663921
  0.8761857074252717  0.3943473693719213  0.6860482024752343
  0.9609236714397440  0.1639583565719960  0.7727074334280530
  0.6308535185841677  0.6680131969152967  0.9311003593888998
  0.7169665739007769  0.4131814998887435  0.5150853166720424
  0.7914125082247878  0.1598107061684999  0.6026808025773676
  0.8830240005418091  0.9238082277293742  0.6965418195703350
  0.5431132160734577  0.4189013351837048  0.8513219007431658
  0.6260426283427947  0.1693653793756056  0.9348125409207171
  0.6994868924479505  0.9269138146622353  0.5127491495792285
  0.5456793527426598  0.9211031671322871  0.8518470452587650
 
  0.00000000E+00  0.00000000E+00  0.00000000E+00
  0.00000000E+00  0.00000000E+00  0.00000000E+00
  0.00000000E+00  0.00000000E+00  0.00000000E+00
  0.00000000E+00  0.00000000E+00  0.00000000E+00
  0.00000000E+00  0.00000000E+00  0.00000000E+00
  0.00000000E+00  0.00000000E+00  0.00000000E+00
  0.00000000E+00  0.00000000E+00  0.00000000E+00
  0.00000000E+00  0.00000000E+00  0.00000000E+00
  0.00000000E+00  0.00000000E+00  0.00000000E+00
  0.00000000E+00  0.00000000E+00  0.00000000E+00
  0.00000000E+00  0.00000000E+00  0.00000000E+00
  0.00000000E+00  0.00000000E+00  0.00000000E+00
  0.00000000E+00  0.00000000E+00  0.00000000E+00
  0.00000000E+00  0.00000000E+00  0.00000000E+00
  0.00000000E+00  0.00000000E+00  0.00000000E+00
  0.00000000E+00  0.00000000E+00  0.00000000E+00
  0.00000000E+00  0.00000000E+00  0.00000000E+00
  0.00000000E+00  0.00000000E+00  0.00000000E+00
  0.00000000E+00  0.00000000E+00  0.00000000E+00
  0.00000000E+00  0.00000000E+00  0.00000000E+00
  0.00000000E+00  0.00000000E+00  0.00000000E+00
  0.00000000E+00  0.00000000E+00  0.00000000E+00
  0.00000000E+00  0.00000000E+00  0.00000000E+00
  0.00000000E+00  0.00000000E+00  0.00000000E+00
  0.00000000E+00  0.00000000E+00  0.00000000E+00
  0.00000000E+00  0.00000000E+00  0.00000000E+00
  0.00000000E+00  0.00000000E+00  0.00000000E+00
  0.00000000E+00  0.00000000E+00  0.00000000E+00
  0.00000000E+00  0.00000000E+00  0.00000000E+00
  0.00000000E+00  0.00000000E+00  0.00000000E+00
  0.00000000E+00  0.00000000E+00  0.00000000E+00
  0.00000000E+00  0.00000000E+00  0.00000000E+00
  0.00000000E+00  0.00000000E+00  0.00000000E+00
  0.00000000E+00  0.00000000E+00  0.00000000E+00
  0.00000000E+00  0.00000000E+00  0.00000000E+00
  0.00000000E+00  0.00000000E+00  0.00000000E+00
  0.00000000E+00  0.00000000E+00  0.00000000E+00
  0.00000000E+00  0.00000000E+00  0.00000000E+00
  0.00000000E+00  0.00000000E+00  0.00000000E+00
  0.00000000E+00  0.00000000E+00  0.00000000E+00
  0.00000000E+00  0.00000000E+00  0.00000000E+00
  0.00000000E+00  0.00000000E+00  0.00000000E+00
  0.00000000E+00  0.00000000E+00  0.00000000E+00
  0.00000000E+00  0.00000000E+00  0.00000000E+00
  0.00000000E+00  0.00000000E+00  0.00000000E+00
  0.00000000E+00  0.00000000E+00  0.00000000E+00
  0.00000000E+00  0.00000000E+00  0.00000000E+00
  0.00000000E+00  0.00000000E+00  0.00000000E+00
  0.00000000E+00  0.00000000E+00  0.00000000E+00
  0.00000000E+00  0.00000000E+00  0.00000000E+00
  0.00000000E+00  0.00000000E+00  0.00000000E+00
  0.00000000E+00  0.00000000E+00  0.00000000E+00
  0.00000000E+00  0.00000000E+00  0.00000000E+00
  0.00000000E+00  0.00000000E+00  0.00000000E+00
  0.00000000E+00  0.00000000E+00  0.00000000E+00
  0.00000000E+00  0.00000000E+00  0.00000000E+00
  0.00000000E+00  0.00000000E+00  0.00000000E+00
  0.00000000E+00  0.00000000E+00  0.00000000E+00
  0.00000000E+00  0.00000000E+00  0.00000000E+00
  0.00000000E+00  0.00000000E+00  0.00000000E+00
  0.00000000E+00  0.00000000E+00  0.00000000E+00
  0.00000000E+00  0.00000000E+00  0.00000000E+00
  0.00000000E+00  0.00000000E+00  0.00000000E+00
  0.00000000E+00  0.00000000E+00  0.00000000E+00
  0.00000000E+00  0.00000000E+00  0.00000000E+00
  0.00000000E+00  0.00000000E+00  0.00000000E+00
  0.00000000E+00  0.00000000E+00  0.00000000E+00
  0.00000000E+00  0.00000000E+00  0.00000000E+00
  0.00000000E+00  0.00000000E+00  0.00000000E+00
  0.00000000E+00  0.00000000E+00  0.00000000E+00
  0.00000000E+00  0.00000000E+00  0.00000000E+00
  0.00000000E+00  0.00000000E+00  0.00000000E+00
  0.00000000E+00  0.00000000E+00  0.00000000E+00
  0.00000000E+00  0.00000000E+00  0.00000000E+00
  0.00000000E+00  0.00000000E+00  0.00000000E+00
  0.00000000E+00  0.00000000E+00  0.00000000E+00
  0.00000000E+00  0.00000000E+00  0.00000000E+00
  0.00000000E+00  0.00000000E+00  0.00000000E+00
  0.00000000E+00  0.00000000E+00  0.00000000E+00
  0.00000000E+00  0.00000000E+00  0.00000000E+00
  0.00000000E+00  0.00000000E+00  0.00000000E+00
  0.00000000E+00  0.00000000E+00  0.00000000E+00
  0.00000000E+00  0.00000000E+00  0.00000000E+00
  0.00000000E+00  0.00000000E+00  0.00000000E+00
  0.00000000E+00  0.00000000E+00  0.00000000E+00
  0.00000000E+00  0.00000000E+00  0.00000000E+00
  0.00000000E+00  0.00000000E+00  0.00000000E+00
  0.00000000E+00  0.00000000E+00  0.00000000E+00
  0.00000000E+00  0.00000000E+00  0.00000000E+00
  0.00000000E+00  0.00000000E+00  0.00000000E+00
  0.00000000E+00  0.00000000E+00  0.00000000E+00
  0.00000000E+00  0.00000000E+00  0.00000000E+00
  0.00000000E+00  0.00000000E+00  0.00000000E+00
  0.00000000E+00  0.00000000E+00  0.00000000E+00
  0.00000000E+00  0.00000000E+00  0.00000000E+00
  0.00000000E+00  0.00000000E+00  0.00000000E+00
  0.00000000E+00  0.00000000E+00  0.00000000E+00
  0.00000000E+00  0.00000000E+00  0.00000000E+00
  0.00000000E+00  0.00000000E+00  0.00000000E+00
  0.00000000E+00  0.00000000E+00  0.00000000E+00
  0.00000000E+00  0.00000000E+00  0.00000000E+00
  0.00000000E+00  0.00000000E+00  0.00000000E+00
  0.00000000E+00  0.00000000E+00  0.00000000E+00
  0.00000000E+00  0.00000000E+00  0.00000000E+00
  0.00000000E+00  0.00000000E+00  0.00000000E+00
  0.00000000E+00  0.00000000E+00  0.00000000E+00
  0.00000000E+00  0.00000000E+00  0.00000000E+00
  0.00000000E+00  0.00000000E+00  0.00000000E+00
  0.00000000E+00  0.00000000E+00  0.00000000E+00
  0.00000000E+00  0.00000000E+00  0.00000000E+00
  0.00000000E+00  0.00000000E+00  0.00000000E+00
  0.00000000E+00  0.00000000E+00  0.00000000E+00
  0.00000000E+00  0.00000000E+00  0.00000000E+00
  0.00000000E+00  0.00000000E+00  0.00000000E+00
  0.00000000E+00  0.00000000E+00  0.00000000E+00
  0.00000000E+00  0.00000000E+00  0.00000000E+00
  0.00000000E+00  0.00000000E+00  0.00000000E+00
  0.00000000E+00  0.00000000E+00  0.00000000E+00
  0.00000000E+00  0.00000000E+00  0.00000000E+00
  0.00000000E+00  0.00000000E+00  0.00000000E+00
  0.00000000E+00  0.00000000E+00  0.00000000E+00
  0.00000000E+00  0.00000000E+00  0.00000000E+00
  0.00000000E+00  0.00000000E+00  0.00000000E+00
  0.00000000E+00  0.00000000E+00  0.00000000E+00
  0.00000000E+00  0.00000000E+00  0.00000000E+00
  0.00000000E+00  0.00000000E+00  0.00000000E+00
  0.00000000E+00  0.00000000E+00  0.00000000E+00
  0.00000000E+00  0.00000000E+00  0.00000000E+00
  0.00000000E+00  0.00000000E+00  0.00000000E+00
  0.00000000E+00  0.00000000E+00  0.00000000E+00
  0.00000000E+00  0.00000000E+00  0.00000000E+00
  0.00000000E+00  0.00000000E+00  0.00000000E+00
  0.00000000E+00  0.00000000E+00  0.00000000E+00
  0.00000000E+00  0.00000000E+00  0.00000000E+00
  0.00000000E+00  0.00000000E+00  0.00000000E+00
  0.00000000E+00  0.00000000E+00  0.00000000E+00
  0.00000000E+00  0.00000000E+00  0.00000000E+00
  0.00000000E+00  0.00000000E+00  0.00000000E+00
  0.00000000E+00  0.00000000E+00  0.00000000E+00
  0.00000000E+00  0.00000000E+00  0.00000000E+00
  0.00000000E+00  0.00000000E+00  0.00000000E+00
  0.00000000E+00  0.00000000E+00  0.00000000E+00
  0.00000000E+00  0.00000000E+00  0.00000000E+00
  0.00000000E+00  0.00000000E+00  0.00000000E+00
  0.00000000E+00  0.00000000E+00  0.00000000E+00
  0.00000000E+00  0.00000000E+00  0.00000000E+00
  0.00000000E+00  0.00000000E+00  0.00000000E+00
  0.00000000E+00  0.00000000E+00  0.00000000E+00
  0.00000000E+00  0.00000000E+00  0.00000000E+00
  0.00000000E+00  0.00000000E+00  0.00000000E+00
  0.00000000E+00  0.00000000E+00  0.00000000E+00
  0.00000000E+00  0.00000000E+00  0.00000000E+00
  0.00000000E+00  0.00000000E+00  0.00000000E+00
  0.00000000E+00  0.00000000E+00  0.00000000E+00
  0.00000000E+00  0.00000000E+00  0.00000000E+00
  0.00000000E+00  0.00000000E+00  0.00000000E+00
  0.00000000E+00  0.00000000E+00  0.00000000E+00
  0.00000000E+00  0.00000000E+00  0.00000000E+00
  0.00000000E+00  0.00000000E+00  0.00000000E+00
  0.00000000E+00  0.00000000E+00  0.00000000E+00
  0.00000000E+00  0.00000000E+00  0.00000000E+00
  0.00000000E+00  0.00000000E+00  0.00000000E+00
  0.00000000E+00  0.00000000E+00  0.00000000E+00
  0.00000000E+00  0.00000000E+00  0.00000000E+00
  0.00000000E+00  0.00000000E+00  0.00000000E+00
  0.00000000E+00  0.00000000E+00  0.00000000E+00
  0.00000000E+00  0.00000000E+00  0.00000000E+00
  0.00000000E+00  0.00000000E+00  0.00000000E+00
  0.00000000E+00  0.00000000E+00  0.00000000E+00
  0.00000000E+00  0.00000000E+00  0.00000000E+00
  0.00000000E+00  0.00000000E+00  0.00000000E+00
  0.00000000E+00  0.00000000E+00  0.00000000E+00
  0.00000000E+00  0.00000000E+00  0.00000000E+00
  0.00000000E+00  0.00000000E+00  0.00000000E+00
  0.00000000E+00  0.00000000E+00  0.00000000E+00
  0.00000000E+00  0.00000000E+00  0.00000000E+00
  0.00000000E+00  0.00000000E+00  0.00000000E+00
  0.00000000E+00  0.00000000E+00  0.00000000E+00
  0.00000000E+00  0.00000000E+00  0.00000000E+00
  0.00000000E+00  0.00000000E+00  0.00000000E+00
  0.00000000E+00  0.00000000E+00  0.00000000E+00
  0.00000000E+00  0.00000000E+00  0.00000000E+00
  0.00000000E+00  0.00000000E+00  0.00000000E+00
  0.00000000E+00  0.00000000E+00  0.00000000E+00
  0.00000000E+00  0.00000000E+00  0.00000000E+00
  0.00000000E+00  0.00000000E+00  0.00000000E+00
  0.00000000E+00  0.00000000E+00  0.00000000E+00
  0.00000000E+00  0.00000000E+00  0.00000000E+00
  0.00000000E+00  0.00000000E+00  0.00000000E+00
  0.00000000E+00  0.00000000E+00  0.00000000E+00
  0.00000000E+00  0.00000000E+00  0.00000000E+00
