supercell of POSCAR                     
   1.01189200000000     
     3.1482772356600002   -5.4762754812200001    9.9674464565599994
    -9.4511209497999999   -5.4731922780100000    0.0032121685426600
     6.3112884282600001  -10.9581161277000003   -9.9749049577999997
   Al   Sc   N 
    83    12    96
Direct
  0.0898324123562233  0.5828143410184197  0.3351687673163752
  0.0020172934602840  0.3263881121231336  0.2522877434030804
  0.0857744284674880  0.0825731478552925  0.3344439803074195
  0.2507151380304720  0.5771691022478720  0.4963567502712607
  0.3296154103896214  0.3243710415672112  0.0801241583688252
  0.4173674946001569  0.0870161789036530  0.1689811749476675
  0.0073304106705336  0.8413595710023571  0.2556473246527347
  0.1685450882594495  0.3334263698971398  0.4139874204145997
  0.2493370775437640  0.0865570777772788  0.4980327578335206
  0.3368046201595405  0.6716224335454726  0.3382026151703741
  0.1600661338669198  0.6711622141056708  0.1672453098674680
  0.2526166983078184  0.4085254560648011  0.2509730846407692
  0.3350996122771903  0.1648559175326625  0.3341197819035244
  0.0091078924252130  0.6714642724832274  0.4954427073487011
  0.1675327651826493  0.1608058463272144  0.1686764432367838
  0.2524223869829783  0.9177132095085270  0.2565173993788576
  0.4163114907682726  0.4157969019630485  0.4159255849308394
  0.5001204024262975  0.1630264857006338  0.4978709053759403
  0.0799390269749836  0.9204348166732998  0.0820720110045130
  0.4187361704260724  0.9179424044120594  0.4134848291487216
  0.0868124866042024  0.5844814385846817  0.8337527135424025
  0.0009306289215303  0.3274985545296545  0.7524836281427625
  0.0838083457348660  0.0843053686437045  0.8334333834204628
  0.2479875660979047  0.5808744820698095  0.9969113454234630
  0.3344222097990794  0.3243742219368144  0.5811822426294171
  0.4157088454721247  0.0843445808794954  0.6681177712809330
  0.0043332557979880  0.8395385886609148  0.7530569911891263
  0.1657364452856953  0.3331874429788542  0.9140014114345334
  0.2465080986934538  0.0860813087423438  0.9971478676770076
  0.1622624425468402  0.8355805672258754  0.9154719392854034
  0.3345769976330573  0.6705180312818371  0.8368648503330789
  0.1593272105938226  0.6712481313037841  0.6664611884531553
  0.2509587952076586  0.4094444499565313  0.7504779638074481
  0.3325410452448949  0.1649769663636320  0.8330814122211052
  0.0010588517504644  0.6702123186274207  0.9975004060460151
  0.1674824550111040  0.1621334246781529  0.6665632547455687
  0.2514991534958995  0.9180021533655420  0.7513178510908389
  0.4128467872156705  0.4159846518428765  0.9151485438293605
  0.4973365497620037  0.1631883868522905  0.9978892548029492
  0.0837572182961921  0.9221008288265438  0.5802989263930414
  0.4162326248903625  0.9177827022926408  0.9140305693000883
  0.5911917028452010  0.5826504226490243  0.3340798064373161
  0.5026848617511916  0.3265679859135204  0.2543161667677722
  0.5873693451349880  0.0842392525481017  0.3343377160542929
  0.7513926893934126  0.5810977126379768  0.4968119434424665
  0.8298288023208187  0.3241072954783988  0.0802678669276418
  0.9170949290967840  0.0844106759577414  0.1700638847068348
  0.4974089776217667  0.8392857991843741  0.2576558221146854
  0.6696231848637666  0.3325035244938306  0.4147065257689206
  0.7498558063140592  0.0856450614818201  0.4976195709713664
  0.6664165910670548  0.8355384620760518  0.4164049307691045
  0.8390817806811555  0.6710214543559303  0.3379958401705636
  0.6579596595914126  0.6714657530007742  0.1680517291472938
  0.7537600918434606  0.4082798645771888  0.2513674146111811
  0.8373353933388188  0.1644034167158921  0.3342411969522701
  0.5037588938750588  0.6707689814983766  0.4964270326140081
  0.6682222445312931  0.1611898273703147  0.1688643539921983
  0.7526258036472839  0.9172106064350913  0.2544183681694747
  0.9172892820826704  0.4172536203048622  0.4147175824311446
  0.0007061417193981  0.1637054420227599  0.4978141153325168
  0.5787561261958984  0.9204919100613580  0.0835209296839068
  0.9259299334792814  0.9181556934510695  0.4132351032655919
  0.5866798712074868  0.5841075295553892  0.8340885509855269
  0.5002847799456234  0.3267149160753462  0.7537352827408625
  0.5832756304686839  0.0840288722764839  0.8339357687796536
  0.7473666558721987  0.5801621315640020  0.9977489412226532
  0.8327371434704460  0.3246912640387762  0.5801563807027392
  0.9166691224485604  0.0869250690718246  0.6692523171934823
  0.5037760881025477  0.8397069817546594  0.7523326132929213
  0.6655789304063973  0.3329555500196975  0.9146589607012601
  0.7460757417591566  0.0855458887263865  0.9978257686430112
  0.6613976774849561  0.8352270523173644  0.9163442250690608
  0.8342050727630195  0.6701986007746399  0.8377059947796397
  0.6603310800541422  0.6716384709688086  0.6664454203856920
  0.7507592922493842  0.4084131063935388  0.7514160860064081
  0.8327599708094056  0.1655282981284856  0.8340948495169513
  0.5005568026578615  0.6700347222293175  0.9976967481569119
  0.6665826641132426  0.1614377373562021  0.6683228356306969
  0.7514096842421552  0.9185753034167234  0.7537260132852808
  0.9131513662156223  0.4159251778210233  0.9152565762558211
  0.9973365391843103  0.1627935061147241  0.9981360383100650
  0.5816776129410570  0.9203308302424063  0.5812320593812288
  0.9165194999764523  0.9179938341067313  0.9142814228836968
  0.4032360355414752  0.5823576726624324  0.1742803191625271
  0.3254287554544675  0.8386252629499964  0.0844269142534841
  0.0768468370466024  0.4159845095631738  0.0852814309984282
  0.4050469565925354  0.5839794541496985  0.6731587409328981
  0.3248333461739534  0.8356466730591023  0.5785942227093557
  0.0823338010124033  0.4201158808399370  0.5823927742267188
  0.9037261565371963  0.5841367811159728  0.1746276186572544
  0.8254409036132913  0.8370091755593023  0.0835336917582623
  0.5767859561994442  0.4148433891328978  0.0861160872772189
  0.9042791432952413  0.5823470894395442  0.6742634262156741
  0.8311939355913580  0.8374342559887751  0.5835260730733864
  0.5808098445870726  0.4166273519560093  0.5854436530892357
  0.2205996585149848  0.5806262923496064  0.2654793406367020
  0.0390293219391467  0.5988060272173570  0.1016819533259721
  0.1326714102763376  0.3233813121479159  0.1937654197482175
  0.2140928010637921  0.0842321209113166  0.2705981679495224
  0.3828994659165019  0.5817154635283543  0.4372508574704668
  0.4497659784865888  0.3237640407384674  0.0121828342840402
  0.0417879820441200  0.0855186672913888  0.1030017875845317
  0.1325537752230090  0.8392538599622696  0.1844308280130420
  0.2978873505026627  0.3318258111634407  0.3519059443308805
  0.3791822793499406  0.0831336928491027  0.4354826013721507
  0.4656157831837007  0.8356443647367797  0.0136291373992137
  0.3172020517877314  0.8335333803957283  0.3447619052547353
  0.4737207634739065  0.6719902472269013  0.2785014267814958
  0.2755929904940970  0.6609018525455497  0.0969264828080227
  0.3796437603905503  0.3942547674292669  0.1846474761101007
  0.4638620348824603  0.1644541081827100  0.2721541695554706
  0.1278826200997898  0.6375907989108143  0.4376934826454359
  0.2154921171293722  0.4139313437148502  0.0139218712218465
  0.2914587415074479  0.1609705980502270  0.1014364145444944
  0.3838581437166155  0.9265666791799347  0.1925321779247042
  0.0445398798140175  0.4147437962958733  0.3496062796305495
  0.1284333855743398  0.1714464504111248  0.4347439414873620
  0.1972598128894703  0.9277435391309226  0.0118138465209441
  0.0376659209352610  0.9307602718586168  0.3465066768190255
  0.2170322690662729  0.5819404036712967  0.7681348316332119
  0.0371831491488877  0.6000750845699940  0.6041735274540656
  0.1303456727067598  0.3247662419418660  0.6941996057069204
  0.2109761655843698  0.0825129713266151  0.7705202302739593
  0.3781312275483302  0.5830559671820623  0.9365955695176424
  0.4552163253166626  0.3240518847643870  0.5135214987302135
  0.0399150058358799  0.0878870298398766  0.6044167854139531
  0.1291547042391485  0.8377521134482606  0.6875403444166324
  0.2941488703876161  0.3312399451631407  0.8520394605807766
  0.3755509607498198  0.0814306150284239  0.9350369727349346
  0.4708808873015045  0.8357373153524250  0.5130757501749912
  0.2920420913785904  0.8341913676695114  0.8542744287030430
  0.4679824597410018  0.6781870095090881  0.7807663079243383
  0.2749845488631237  0.6564069546370490  0.5985640938911914
  0.3785049251736439  0.3973641867229674  0.6865238009257055
  0.4609564994117221  0.1641007439600060  0.7720739334972109
  0.1292240876741459  0.6665462263274335  0.9341744988744765
  0.2227523675929390  0.4084574137097832  0.5150112992267140
  0.2945916213100759  0.1651057401397793  0.6038877796056354
  0.3829960560839467  0.9222485204837483  0.6950146760160933
  0.0429033697608077  0.4189717669084700  0.8521982131820067
  0.1255580301394872  0.1697751115006909  0.9346243995969843
  0.2057015466207233  0.9391423722037615  0.5257700019805114
  0.0447103044044610  0.9213637824020680  0.8529832475028272
  0.7212375022360931  0.5810506035173404  0.2668279213380131
  0.5387918215268002  0.5975448167939490  0.1014307254151561
  0.6326799374172296  0.3231455116547863  0.1955713646621646
  0.7144211586959770  0.0829621365391944  0.2710540103892214
  0.8795397441750552  0.5831212164922093  0.4369398349104046
  0.9498928154706689  0.3234536335383495  0.0122533336670756
  0.5425180721676313  0.0872693090302405  0.1029968495208280
  0.6295050953374570  0.8391749829037281  0.1867311112981653
  0.7973752441038044  0.3311925368507787  0.3525151957009172
  0.8777219941533332  0.0826568031278612  0.4367004675097235
  0.9660513354866822  0.8355776491291422  0.0134603271110265
  0.7951156078859185  0.8331733746449714  0.3554086198534208
  0.9705910746682278  0.6770501688102470  0.2795696354247568
  0.7741414516176235  0.6603471994740531  0.0978740313282955
  0.8785545567899220  0.3963026442161137  0.1838153502283646
  0.9623852259410839  0.1667567285571963  0.2702809753157140
  0.6324271447138301  0.6659199718874689  0.4343273628760329
  0.7150385263142738  0.4132133539593070  0.0145089875320821
  0.7917665225208239  0.1604433677851773  0.1019466474715855
  0.8813346762064640  0.9219595226925676  0.1931468707028046
  0.5468159790729388  0.4173613388250459  0.3528329157359877
  0.6288930859066681  0.1696678950193373  0.4354218706622319
  0.6962528729126376  0.9273547047501509  0.0127892944159953
  0.5519860974888999  0.9228430717072413  0.3538497931260451
  0.7168228693735372  0.5817389183879058  0.7676275693426504
  0.5404301270093868  0.5989500900843794  0.6017874239835379
  0.6303419117989293  0.3227895472849056  0.6960421352737072
  0.7110398781413352  0.0825670119159270  0.7716317226551226
  0.8777939182878711  0.5827476020538995  0.9373757180241924
  0.9531843274173681  0.3254787828592356  0.5130980938443699
  0.5425593538906739  0.0849641688247331  0.6036281448182663
  0.6310779917494145  0.8391057670687161  0.6864399864743191
  0.7939424632055463  0.3313698479599552  0.8529209164341864
  0.8751491596565373  0.0811690236592284  0.9355605657339083
  0.9683571376953211  0.8356418555218781  0.5146070837937486
  0.7915668015485053  0.8338458620752291  0.8553316930766925
  0.9665655682453647  0.6783017244945313  0.7813873477165743
  0.7761928897782440  0.6611749023226139  0.5981196320792890
  0.8758602851631210  0.3951742084334242  0.6860871688184389
  0.9607613819549883  0.1655292512524511  0.7728098834002708
  0.6291398450815180  0.6660779663816498  0.9344943803610448
  0.7184637013972193  0.4139434374235336  0.5146151705396562
  0.7912339888868374  0.1617149406781238  0.6030101618265533
  0.8822076044379656  0.9248721420628172  0.6969677059854433
  0.5431829028845456  0.4186074170968723  0.8527380448292945
  0.6255514556658781  0.1694864506870388  0.9348201710621851
  0.7013234697300774  0.9272272876262448  0.5140430205659214
  0.5449063055616890  0.9207363177382319  0.8526964012567717
 
  0.00000000E+00  0.00000000E+00  0.00000000E+00
  0.00000000E+00  0.00000000E+00  0.00000000E+00
  0.00000000E+00  0.00000000E+00  0.00000000E+00
  0.00000000E+00  0.00000000E+00  0.00000000E+00
  0.00000000E+00  0.00000000E+00  0.00000000E+00
  0.00000000E+00  0.00000000E+00  0.00000000E+00
  0.00000000E+00  0.00000000E+00  0.00000000E+00
  0.00000000E+00  0.00000000E+00  0.00000000E+00
  0.00000000E+00  0.00000000E+00  0.00000000E+00
  0.00000000E+00  0.00000000E+00  0.00000000E+00
  0.00000000E+00  0.00000000E+00  0.00000000E+00
  0.00000000E+00  0.00000000E+00  0.00000000E+00
  0.00000000E+00  0.00000000E+00  0.00000000E+00
  0.00000000E+00  0.00000000E+00  0.00000000E+00
  0.00000000E+00  0.00000000E+00  0.00000000E+00
  0.00000000E+00  0.00000000E+00  0.00000000E+00
  0.00000000E+00  0.00000000E+00  0.00000000E+00
  0.00000000E+00  0.00000000E+00  0.00000000E+00
  0.00000000E+00  0.00000000E+00  0.00000000E+00
  0.00000000E+00  0.00000000E+00  0.00000000E+00
  0.00000000E+00  0.00000000E+00  0.00000000E+00
  0.00000000E+00  0.00000000E+00  0.00000000E+00
  0.00000000E+00  0.00000000E+00  0.00000000E+00
  0.00000000E+00  0.00000000E+00  0.00000000E+00
  0.00000000E+00  0.00000000E+00  0.00000000E+00
  0.00000000E+00  0.00000000E+00  0.00000000E+00
  0.00000000E+00  0.00000000E+00  0.00000000E+00
  0.00000000E+00  0.00000000E+00  0.00000000E+00
  0.00000000E+00  0.00000000E+00  0.00000000E+00
  0.00000000E+00  0.00000000E+00  0.00000000E+00
  0.00000000E+00  0.00000000E+00  0.00000000E+00
  0.00000000E+00  0.00000000E+00  0.00000000E+00
  0.00000000E+00  0.00000000E+00  0.00000000E+00
  0.00000000E+00  0.00000000E+00  0.00000000E+00
  0.00000000E+00  0.00000000E+00  0.00000000E+00
  0.00000000E+00  0.00000000E+00  0.00000000E+00
  0.00000000E+00  0.00000000E+00  0.00000000E+00
  0.00000000E+00  0.00000000E+00  0.00000000E+00
  0.00000000E+00  0.00000000E+00  0.00000000E+00
  0.00000000E+00  0.00000000E+00  0.00000000E+00
  0.00000000E+00  0.00000000E+00  0.00000000E+00
  0.00000000E+00  0.00000000E+00  0.00000000E+00
  0.00000000E+00  0.00000000E+00  0.00000000E+00
  0.00000000E+00  0.00000000E+00  0.00000000E+00
  0.00000000E+00  0.00000000E+00  0.00000000E+00
  0.00000000E+00  0.00000000E+00  0.00000000E+00
  0.00000000E+00  0.00000000E+00  0.00000000E+00
  0.00000000E+00  0.00000000E+00  0.00000000E+00
  0.00000000E+00  0.00000000E+00  0.00000000E+00
  0.00000000E+00  0.00000000E+00  0.00000000E+00
  0.00000000E+00  0.00000000E+00  0.00000000E+00
  0.00000000E+00  0.00000000E+00  0.00000000E+00
  0.00000000E+00  0.00000000E+00  0.00000000E+00
  0.00000000E+00  0.00000000E+00  0.00000000E+00
  0.00000000E+00  0.00000000E+00  0.00000000E+00
  0.00000000E+00  0.00000000E+00  0.00000000E+00
  0.00000000E+00  0.00000000E+00  0.00000000E+00
  0.00000000E+00  0.00000000E+00  0.00000000E+00
  0.00000000E+00  0.00000000E+00  0.00000000E+00
  0.00000000E+00  0.00000000E+00  0.00000000E+00
  0.00000000E+00  0.00000000E+00  0.00000000E+00
  0.00000000E+00  0.00000000E+00  0.00000000E+00
  0.00000000E+00  0.00000000E+00  0.00000000E+00
  0.00000000E+00  0.00000000E+00  0.00000000E+00
  0.00000000E+00  0.00000000E+00  0.00000000E+00
  0.00000000E+00  0.00000000E+00  0.00000000E+00
  0.00000000E+00  0.00000000E+00  0.00000000E+00
  0.00000000E+00  0.00000000E+00  0.00000000E+00
  0.00000000E+00  0.00000000E+00  0.00000000E+00
  0.00000000E+00  0.00000000E+00  0.00000000E+00
  0.00000000E+00  0.00000000E+00  0.00000000E+00
  0.00000000E+00  0.00000000E+00  0.00000000E+00
  0.00000000E+00  0.00000000E+00  0.00000000E+00
  0.00000000E+00  0.00000000E+00  0.00000000E+00
  0.00000000E+00  0.00000000E+00  0.00000000E+00
  0.00000000E+00  0.00000000E+00  0.00000000E+00
  0.00000000E+00  0.00000000E+00  0.00000000E+00
  0.00000000E+00  0.00000000E+00  0.00000000E+00
  0.00000000E+00  0.00000000E+00  0.00000000E+00
  0.00000000E+00  0.00000000E+00  0.00000000E+00
  0.00000000E+00  0.00000000E+00  0.00000000E+00
  0.00000000E+00  0.00000000E+00  0.00000000E+00
  0.00000000E+00  0.00000000E+00  0.00000000E+00
  0.00000000E+00  0.00000000E+00  0.00000000E+00
  0.00000000E+00  0.00000000E+00  0.00000000E+00
  0.00000000E+00  0.00000000E+00  0.00000000E+00
  0.00000000E+00  0.00000000E+00  0.00000000E+00
  0.00000000E+00  0.00000000E+00  0.00000000E+00
  0.00000000E+00  0.00000000E+00  0.00000000E+00
  0.00000000E+00  0.00000000E+00  0.00000000E+00
  0.00000000E+00  0.00000000E+00  0.00000000E+00
  0.00000000E+00  0.00000000E+00  0.00000000E+00
  0.00000000E+00  0.00000000E+00  0.00000000E+00
  0.00000000E+00  0.00000000E+00  0.00000000E+00
  0.00000000E+00  0.00000000E+00  0.00000000E+00
  0.00000000E+00  0.00000000E+00  0.00000000E+00
  0.00000000E+00  0.00000000E+00  0.00000000E+00
  0.00000000E+00  0.00000000E+00  0.00000000E+00
  0.00000000E+00  0.00000000E+00  0.00000000E+00
  0.00000000E+00  0.00000000E+00  0.00000000E+00
  0.00000000E+00  0.00000000E+00  0.00000000E+00
  0.00000000E+00  0.00000000E+00  0.00000000E+00
  0.00000000E+00  0.00000000E+00  0.00000000E+00
  0.00000000E+00  0.00000000E+00  0.00000000E+00
  0.00000000E+00  0.00000000E+00  0.00000000E+00
  0.00000000E+00  0.00000000E+00  0.00000000E+00
  0.00000000E+00  0.00000000E+00  0.00000000E+00
  0.00000000E+00  0.00000000E+00  0.00000000E+00
  0.00000000E+00  0.00000000E+00  0.00000000E+00
  0.00000000E+00  0.00000000E+00  0.00000000E+00
  0.00000000E+00  0.00000000E+00  0.00000000E+00
  0.00000000E+00  0.00000000E+00  0.00000000E+00
  0.00000000E+00  0.00000000E+00  0.00000000E+00
  0.00000000E+00  0.00000000E+00  0.00000000E+00
  0.00000000E+00  0.00000000E+00  0.00000000E+00
  0.00000000E+00  0.00000000E+00  0.00000000E+00
  0.00000000E+00  0.00000000E+00  0.00000000E+00
  0.00000000E+00  0.00000000E+00  0.00000000E+00
  0.00000000E+00  0.00000000E+00  0.00000000E+00
  0.00000000E+00  0.00000000E+00  0.00000000E+00
  0.00000000E+00  0.00000000E+00  0.00000000E+00
  0.00000000E+00  0.00000000E+00  0.00000000E+00
  0.00000000E+00  0.00000000E+00  0.00000000E+00
  0.00000000E+00  0.00000000E+00  0.00000000E+00
  0.00000000E+00  0.00000000E+00  0.00000000E+00
  0.00000000E+00  0.00000000E+00  0.00000000E+00
  0.00000000E+00  0.00000000E+00  0.00000000E+00
  0.00000000E+00  0.00000000E+00  0.00000000E+00
  0.00000000E+00  0.00000000E+00  0.00000000E+00
  0.00000000E+00  0.00000000E+00  0.00000000E+00
  0.00000000E+00  0.00000000E+00  0.00000000E+00
  0.00000000E+00  0.00000000E+00  0.00000000E+00
  0.00000000E+00  0.00000000E+00  0.00000000E+00
  0.00000000E+00  0.00000000E+00  0.00000000E+00
  0.00000000E+00  0.00000000E+00  0.00000000E+00
  0.00000000E+00  0.00000000E+00  0.00000000E+00
  0.00000000E+00  0.00000000E+00  0.00000000E+00
  0.00000000E+00  0.00000000E+00  0.00000000E+00
  0.00000000E+00  0.00000000E+00  0.00000000E+00
  0.00000000E+00  0.00000000E+00  0.00000000E+00
  0.00000000E+00  0.00000000E+00  0.00000000E+00
  0.00000000E+00  0.00000000E+00  0.00000000E+00
  0.00000000E+00  0.00000000E+00  0.00000000E+00
  0.00000000E+00  0.00000000E+00  0.00000000E+00
  0.00000000E+00  0.00000000E+00  0.00000000E+00
  0.00000000E+00  0.00000000E+00  0.00000000E+00
  0.00000000E+00  0.00000000E+00  0.00000000E+00
  0.00000000E+00  0.00000000E+00  0.00000000E+00
  0.00000000E+00  0.00000000E+00  0.00000000E+00
  0.00000000E+00  0.00000000E+00  0.00000000E+00
  0.00000000E+00  0.00000000E+00  0.00000000E+00
  0.00000000E+00  0.00000000E+00  0.00000000E+00
  0.00000000E+00  0.00000000E+00  0.00000000E+00
  0.00000000E+00  0.00000000E+00  0.00000000E+00
  0.00000000E+00  0.00000000E+00  0.00000000E+00
  0.00000000E+00  0.00000000E+00  0.00000000E+00
  0.00000000E+00  0.00000000E+00  0.00000000E+00
  0.00000000E+00  0.00000000E+00  0.00000000E+00
  0.00000000E+00  0.00000000E+00  0.00000000E+00
  0.00000000E+00  0.00000000E+00  0.00000000E+00
  0.00000000E+00  0.00000000E+00  0.00000000E+00
  0.00000000E+00  0.00000000E+00  0.00000000E+00
  0.00000000E+00  0.00000000E+00  0.00000000E+00
  0.00000000E+00  0.00000000E+00  0.00000000E+00
  0.00000000E+00  0.00000000E+00  0.00000000E+00
  0.00000000E+00  0.00000000E+00  0.00000000E+00
  0.00000000E+00  0.00000000E+00  0.00000000E+00
  0.00000000E+00  0.00000000E+00  0.00000000E+00
  0.00000000E+00  0.00000000E+00  0.00000000E+00
  0.00000000E+00  0.00000000E+00  0.00000000E+00
  0.00000000E+00  0.00000000E+00  0.00000000E+00
  0.00000000E+00  0.00000000E+00  0.00000000E+00
  0.00000000E+00  0.00000000E+00  0.00000000E+00
  0.00000000E+00  0.00000000E+00  0.00000000E+00
  0.00000000E+00  0.00000000E+00  0.00000000E+00
  0.00000000E+00  0.00000000E+00  0.00000000E+00
  0.00000000E+00  0.00000000E+00  0.00000000E+00
  0.00000000E+00  0.00000000E+00  0.00000000E+00
  0.00000000E+00  0.00000000E+00  0.00000000E+00
  0.00000000E+00  0.00000000E+00  0.00000000E+00
  0.00000000E+00  0.00000000E+00  0.00000000E+00
  0.00000000E+00  0.00000000E+00  0.00000000E+00
  0.00000000E+00  0.00000000E+00  0.00000000E+00
  0.00000000E+00  0.00000000E+00  0.00000000E+00
  0.00000000E+00  0.00000000E+00  0.00000000E+00
  0.00000000E+00  0.00000000E+00  0.00000000E+00
  0.00000000E+00  0.00000000E+00  0.00000000E+00
  0.00000000E+00  0.00000000E+00  0.00000000E+00
  0.00000000E+00  0.00000000E+00  0.00000000E+00
  0.00000000E+00  0.00000000E+00  0.00000000E+00
  0.00000000E+00  0.00000000E+00  0.00000000E+00
