supercell of POSCAR                     
   1.01189200000000     
     3.1482772356600002   -5.4762754812200001    9.9674464565599994
    -9.4511209497999999   -5.4731922780100000    0.0032121685426600
     6.3112884282600001  -10.9581161277000003   -9.9749049577999997
   Al   Sc   N 
    84    12    95
Direct
  0.0882218345576433  0.5842147281179351  0.3345246543845661
  0.0009642575852666  0.3270751269209669  0.2537599879915931
  0.0847339011545287  0.0840551463427630  0.3350555112847147
  0.2498639766002100  0.5807025841152083  0.4971262927177733
  0.3457973367203380  0.3105193743483738  0.0913334189803692
  0.4193814593025067  0.0825817180963639  0.1722783399552910
  0.0055397791003315  0.8398843467618136  0.2533017363530377
  0.1673040444488265  0.3327910411133459  0.4150820012074590
  0.2480870605845169  0.0860920586388119  0.4977013285772642
  0.1639510855569526  0.8349779675134812  0.4165899669360726
  0.3368005765587512  0.6703751523869030  0.3378721000412455
  0.1586237913514097  0.6698503096345902  0.1677783231035832
  0.2504340369169213  0.4088672220253997  0.2530451683838777
  0.3339550472800994  0.1652933112490658  0.3349570978574903
  0.0027837243161741  0.6702790747915373  0.4970843684245878
  0.1651101060300491  0.1599620110464528  0.1699166889107460
  0.2520634752246806  0.9184441221082267  0.2552697885988024
  0.4146520520617898  0.4159130683492620  0.4160805593241292
  0.4989241894904097  0.1632019389750496  0.4981607252796181
  0.0798300264936884  0.9206249855870823  0.0818159728513521
  0.4185550780721670  0.9180014747954530  0.4145850215396436
  0.0873611995385346  0.5853395995199691  0.8322656576483851
  0.9984872068337722  0.3263305212086678  0.7513671301968543
  0.0826071087117839  0.0824045168736518  0.8327372441603771
  0.2528319495079714  0.6018828657604587  0.9928115211283028
  0.3313534755277416  0.3241953163982032  0.5803115561838084
  0.4173970970834091  0.0865602732211954  0.6691373558203821
  0.0048182733437372  0.8398092018415042  0.7525031857295019
  0.1598101377544765  0.3236126485648469  0.9008873756059685
  0.2476861833341388  0.0849191569519832  0.9973655762131202
  0.1623994691726551  0.8381307048734641  0.9153099739284940
  0.3359814838754573  0.6713576168961168  0.8344763638736410
  0.1605325184769626  0.6717008108074225  0.6655959747733746
  0.2521932462918315  0.4103967458310507  0.7495891515306994
  0.3344540298704501  0.1635718262451960  0.8335674882734097
  0.9992738003257173  0.6703919217901841  0.9973685223531490
  0.1672105441159317  0.1616248031315379  0.6684595954218580
  0.2521928132193310  0.9189225194046955  0.7534241990957113
  0.4148477934699457  0.4161442614440745  0.9148539796513546
  0.4980170841491045  0.1616850557568981  0.9975264248847537
  0.0814833762903575  0.9213666511508407  0.5814040237161890
  0.4172342947321255  0.9173094108877251  0.9144100815941698
  0.5892197615652037  0.5840788312253054  0.3344122573178510
  0.5041118957772071  0.3258950091602770  0.2561551222873817
  0.5858224055111307  0.0836987000494602  0.3350923009634101
  0.7501513444560217  0.5808867728107501  0.4967166323935928
  0.8314568679624728  0.3245044643883190  0.0807855703123650
  0.9167348146968521  0.0862840341391831  0.1698493501783886
  0.5067872875246024  0.8387678278608348  0.2539673822237631
  0.6682980939569845  0.3329695821761973  0.4147134267701631
  0.7482881640026875  0.0861950347526843  0.4973623687246373
  0.6644961362485731  0.8350194611617425  0.4163289363521088
  0.8369516173267186  0.6704722788663489  0.3371294596749905
  0.6607303952449897  0.6710160184704037  0.1667657441392620
  0.7521585375720861  0.4087622899419188  0.2513456798704894
  0.8344776033572145  0.1655788590257856  0.3341127766521055
  0.5031160948563382  0.6702384114682971  0.4970373660634877
  0.6676682050017675  0.1616406105415251  0.1687927350765861
  0.7528731501888757  0.9189638003546534  0.2542393294542222
  0.9149037109186011  0.4159866895433098  0.4153654156065656
  0.9987557065715791  0.1632088542480119  0.4980187438724855
  0.5802722226064390  0.9209016167686315  0.0818206901783896
  0.9184227890125527  0.9180555533274415  0.4142348797028887
  0.5882589298148773  0.5846395233182236  0.8334951945555247
  0.5016812087038716  0.3268814447658386  0.7533189163061493
  0.5841718602394081  0.0841435962164852  0.8341254834507552
  0.7490784286649443  0.5812894990049102  0.9966328029914990
  0.8311610840024741  0.3242795124774744  0.5796591026981730
  0.9168552214224803  0.0862834153291416  0.6688620484983900
  0.5056278313366960  0.8403700754436656  0.7528204653258754
  0.6673612085654952  0.3331453338280355  0.9136668823873535
  0.7465897871911977  0.0863785893037203  0.9974854252096321
  0.6631542485333668  0.8355853914172044  0.9157364750297319
  0.8353254382876898  0.6707674530380956  0.8364579154285465
  0.6608114443635316  0.6714777450239993  0.6659097355901551
  0.7515426173268054  0.4091031184911316  0.7506746145421133
  0.8328664203075178  0.1653812310463323  0.8337670946056761
  0.5037255473804620  0.6711609723689023  0.9980398314016838
  0.6673000503647089  0.1615787762749221  0.6684557834842053
  0.7520740827861800  0.9190527183068724  0.7536321376943036
  0.9119075712580127  0.4167678285457370  0.9159005822118402
  0.9963466653542028  0.1625521287855420  0.9989825027454842
  0.5817084727466693  0.9212559730441612  0.5813928908952732
  0.9161368502913163  0.9180100458308189  0.9144269940412215
  0.4053238079596539  0.5816458756066609  0.1745507443124694
  0.3264005866314434  0.8390207824074949  0.0862406312888666
  0.0807485782549975  0.4154446545411830  0.0843003689228823
  0.4061609587594717  0.5829117964047583  0.6722378856325975
  0.3287772016366119  0.8386847357947005  0.5839727379803961
  0.0790570636089143  0.4153120771481227  0.5850658083024314
  0.9040775219006463  0.5822340619201043  0.1734166371598675
  0.8261069284152640  0.8389798779490008  0.0844782226798060
  0.5810649675872384  0.4162447112737198  0.0846658353341638
  0.9047604024700817  0.5833549348692060  0.6725192336211379
  0.8285420371482388  0.8388035068463822  0.5837799328162987
  0.5797891838329221  0.4151072372532454  0.5847544415248080
  0.2192293961096325  0.5817449846202791  0.2665971169643342
  0.0408169193398891  0.5950164667795406  0.1006775484920865
  0.1315625713003072  0.3243442317541394  0.1932760931034068
  0.2121846147081214  0.0826106599619720  0.2717346800914413
  0.3801455109531489  0.5829596787822169  0.4368645691952153
  0.4466417421020665  0.3247172593045562  0.0134960849228989
  0.0417449283000764  0.0854020056083726  0.1033963957657349
  0.1327881915168021  0.8384434943278407  0.1850460035790462
  0.2956044941129150  0.3312750724112163  0.3528864327576926
  0.3772009572220156  0.0811751399852128  0.4357644973074954
  0.4648611710067030  0.8352079031347301  0.0148586110178570
  0.2939696379291163  0.8333527838222778  0.3552074862723700
  0.4694577185504798  0.6769933619867103  0.2796677911339032
  0.2750179101408179  0.6581225296618314  0.0974098839517907
  0.3781343787805298  0.3947380970578607  0.1880494852565207
  0.4624587252142547  0.1643234018082538  0.2730243099756393
  0.1313353569859785  0.6660921153293060  0.4342486845853273
  0.2908150768472595  0.1564507703147129  0.1038010651808108
  0.3836518827192847  0.9224860686076894  0.1974814375938152
  0.0453600938990206  0.4186769724461499  0.3517752578834248
  0.1272418122378980  0.1696247688666972  0.4353549851953105
  0.1986308088336344  0.9269144574405104  0.0129754140532796
  0.0472692664328207  0.9204452874783229  0.3527480122349900
  0.2176833679452059  0.5822807484079107  0.7671361569349173
  0.0404194385254115  0.5981783563473542  0.6016167355945399
  0.1310433049186983  0.3234601542911122  0.6966941061880689
  0.2113438263720582  0.0829138602127060  0.7720991803487181
  0.3786767945098148  0.5826248823695437  0.9361236223577549
  0.4515690885753045  0.3236937620372018  0.5130692326820991
  0.0422410382322056  0.0859121190689365  0.6037243768131688
  0.1316288563765724  0.8394485543868839  0.6859396599417451
  0.2945851482451829  0.3326693812533108  0.8533711622289175
  0.3757744800152949  0.0812638404789894  0.9357053901853973
  0.4681836898431584  0.8355594397146646  0.5139156571584707
  0.2924216593502607  0.8332978783368787  0.8550702560643799
  0.4687740031711130  0.6779422126345551  0.7796795328875845
  0.2772235948500423  0.6617298369870994  0.5976120676472263
  0.3778987853742777  0.3959206654827909  0.6858646988536847
  0.4614139645823343  0.1652257503514249  0.7726811250483365
  0.1276353804018697  0.6673060268666546  0.9333464562143163
  0.2174503530606273  0.4139589668251347  0.5146602637203728
  0.2918561512924143  0.1609250885420010  0.6029133221180061
  0.3832776239335445  0.9247290039951963  0.6966984445535829
  0.0423934067126339  0.4199816281542823  0.8522986275683877
  0.1258477871856272  0.1695025169524129  0.9359352882006888
  0.1996936953030755  0.9273466738741476  0.5129680787875088
  0.0448939378911959  0.9208474530819686  0.8530723600961281
  0.7192148842603672  0.5819427261518300  0.2665354555047443
  0.5395153973916536  0.5976198396750831  0.1019881069203450
  0.6310013435302224  0.3238684549309880  0.1947623903622144
  0.7124996657386191  0.0829001618679257  0.2711561040259056
  0.8804933970609667  0.5831484139099103  0.4363793639333196
  0.9538001598679955  0.3253887491512373  0.0134064150318309
  0.5410256867970276  0.0862980429164750  0.1036335349691555
  0.6321067588274119  0.8392690619385448  0.1853898642802392
  0.7961827915932673  0.3316103941510562  0.3521169439673457
  0.8773326456385107  0.0813872896840024  0.4352753661041717
  0.9663345301532189  0.8354880482251446  0.0142230476563299
  0.7941970462451025  0.8336050144711535  0.3546068377216542
  0.9699894238989870  0.6775073860741685  0.2789614746509130
  0.7764500842540869  0.6611982262905016  0.0971333517375825
  0.8782261618382279  0.3955389807588645  0.1850809123570585
  0.9628993259386718  0.1648643034393444  0.2720673479549305
  0.6314790442341760  0.6663266204733347  0.4340723691852233
  0.7181321503297227  0.4136753168895666  0.0136550222038778
  0.7919850407953462  0.1610304185679610  0.1021389408798044
  0.8838459186209917  0.9241745953431604  0.1961310380849355
  0.5451600607484579  0.4190199638526053  0.3528712540388170
  0.6274005005580463  0.1699400802774704  0.4352022662914621
  0.6974924254670469  0.9277688786872957  0.0125318553550855
  0.5472712740043661  0.9204385961281005  0.3530219493380073
  0.7179535657528362  0.5820898509147128  0.7670004815789397
  0.5409712444871460  0.5979719137043844  0.6013739573414796
  0.6312483983308894  0.3233379454046101  0.6956789127509069
  0.7114687342791797  0.0827331850499178  0.7716624262842871
  0.8788547473234800  0.5834899831904394  0.9363294213929194
  0.9518233932009466  0.3239010982801460  0.5126365653031755
  0.5422795413510357  0.0856599396360522  0.6036390260140081
  0.6317344723522140  0.8393227376187866  0.6857638764774734
  0.7954853083987956  0.3317613856567263  0.8523132359434697
  0.8758617230259560  0.0818969454257470  0.9356742083017835
  0.9681303338761964  0.8357744500771531  0.5137450846986837
  0.7927510714815185  0.8337840819221398  0.8548350692296083
  0.9682851670280499  0.6780879951765471  0.7796872436234565
  0.7769343988439488  0.6620351322401419  0.5971486444711616
  0.8771590048585765  0.3963667083815494  0.6848507126270746
  0.9612467261490210  0.1649842703297324  0.7725271375331388
  0.6297577269832644  0.6663411303350770  0.9342580604403850
  0.7179240532282947  0.4141536605563303  0.5140795725849188
  0.7919905970630268  0.1609689109054244  0.6025043660793017
  0.8832554686596339  0.9246510021425465  0.6964341107071803
  0.5434836804220566  0.4190538084706077  0.8529782063602767
  0.6254845920123842  0.1708028047661898  0.9353651745011149
  0.6997411267468934  0.9275445177270143  0.5126748368069443
  0.5454974128384009  0.9208274237311471  0.8532707188287318
 
  0.00000000E+00  0.00000000E+00  0.00000000E+00
  0.00000000E+00  0.00000000E+00  0.00000000E+00
  0.00000000E+00  0.00000000E+00  0.00000000E+00
  0.00000000E+00  0.00000000E+00  0.00000000E+00
  0.00000000E+00  0.00000000E+00  0.00000000E+00
  0.00000000E+00  0.00000000E+00  0.00000000E+00
  0.00000000E+00  0.00000000E+00  0.00000000E+00
  0.00000000E+00  0.00000000E+00  0.00000000E+00
  0.00000000E+00  0.00000000E+00  0.00000000E+00
  0.00000000E+00  0.00000000E+00  0.00000000E+00
  0.00000000E+00  0.00000000E+00  0.00000000E+00
  0.00000000E+00  0.00000000E+00  0.00000000E+00
  0.00000000E+00  0.00000000E+00  0.00000000E+00
  0.00000000E+00  0.00000000E+00  0.00000000E+00
  0.00000000E+00  0.00000000E+00  0.00000000E+00
  0.00000000E+00  0.00000000E+00  0.00000000E+00
  0.00000000E+00  0.00000000E+00  0.00000000E+00
  0.00000000E+00  0.00000000E+00  0.00000000E+00
  0.00000000E+00  0.00000000E+00  0.00000000E+00
  0.00000000E+00  0.00000000E+00  0.00000000E+00
  0.00000000E+00  0.00000000E+00  0.00000000E+00
  0.00000000E+00  0.00000000E+00  0.00000000E+00
  0.00000000E+00  0.00000000E+00  0.00000000E+00
  0.00000000E+00  0.00000000E+00  0.00000000E+00
  0.00000000E+00  0.00000000E+00  0.00000000E+00
  0.00000000E+00  0.00000000E+00  0.00000000E+00
  0.00000000E+00  0.00000000E+00  0.00000000E+00
  0.00000000E+00  0.00000000E+00  0.00000000E+00
  0.00000000E+00  0.00000000E+00  0.00000000E+00
  0.00000000E+00  0.00000000E+00  0.00000000E+00
  0.00000000E+00  0.00000000E+00  0.00000000E+00
  0.00000000E+00  0.00000000E+00  0.00000000E+00
  0.00000000E+00  0.00000000E+00  0.00000000E+00
  0.00000000E+00  0.00000000E+00  0.00000000E+00
  0.00000000E+00  0.00000000E+00  0.00000000E+00
  0.00000000E+00  0.00000000E+00  0.00000000E+00
  0.00000000E+00  0.00000000E+00  0.00000000E+00
  0.00000000E+00  0.00000000E+00  0.00000000E+00
  0.00000000E+00  0.00000000E+00  0.00000000E+00
  0.00000000E+00  0.00000000E+00  0.00000000E+00
  0.00000000E+00  0.00000000E+00  0.00000000E+00
  0.00000000E+00  0.00000000E+00  0.00000000E+00
  0.00000000E+00  0.00000000E+00  0.00000000E+00
  0.00000000E+00  0.00000000E+00  0.00000000E+00
  0.00000000E+00  0.00000000E+00  0.00000000E+00
  0.00000000E+00  0.00000000E+00  0.00000000E+00
  0.00000000E+00  0.00000000E+00  0.00000000E+00
  0.00000000E+00  0.00000000E+00  0.00000000E+00
  0.00000000E+00  0.00000000E+00  0.00000000E+00
  0.00000000E+00  0.00000000E+00  0.00000000E+00
  0.00000000E+00  0.00000000E+00  0.00000000E+00
  0.00000000E+00  0.00000000E+00  0.00000000E+00
  0.00000000E+00  0.00000000E+00  0.00000000E+00
  0.00000000E+00  0.00000000E+00  0.00000000E+00
  0.00000000E+00  0.00000000E+00  0.00000000E+00
  0.00000000E+00  0.00000000E+00  0.00000000E+00
  0.00000000E+00  0.00000000E+00  0.00000000E+00
  0.00000000E+00  0.00000000E+00  0.00000000E+00
  0.00000000E+00  0.00000000E+00  0.00000000E+00
  0.00000000E+00  0.00000000E+00  0.00000000E+00
  0.00000000E+00  0.00000000E+00  0.00000000E+00
  0.00000000E+00  0.00000000E+00  0.00000000E+00
  0.00000000E+00  0.00000000E+00  0.00000000E+00
  0.00000000E+00  0.00000000E+00  0.00000000E+00
  0.00000000E+00  0.00000000E+00  0.00000000E+00
  0.00000000E+00  0.00000000E+00  0.00000000E+00
  0.00000000E+00  0.00000000E+00  0.00000000E+00
  0.00000000E+00  0.00000000E+00  0.00000000E+00
  0.00000000E+00  0.00000000E+00  0.00000000E+00
  0.00000000E+00  0.00000000E+00  0.00000000E+00
  0.00000000E+00  0.00000000E+00  0.00000000E+00
  0.00000000E+00  0.00000000E+00  0.00000000E+00
  0.00000000E+00  0.00000000E+00  0.00000000E+00
  0.00000000E+00  0.00000000E+00  0.00000000E+00
  0.00000000E+00  0.00000000E+00  0.00000000E+00
  0.00000000E+00  0.00000000E+00  0.00000000E+00
  0.00000000E+00  0.00000000E+00  0.00000000E+00
  0.00000000E+00  0.00000000E+00  0.00000000E+00
  0.00000000E+00  0.00000000E+00  0.00000000E+00
  0.00000000E+00  0.00000000E+00  0.00000000E+00
  0.00000000E+00  0.00000000E+00  0.00000000E+00
  0.00000000E+00  0.00000000E+00  0.00000000E+00
  0.00000000E+00  0.00000000E+00  0.00000000E+00
  0.00000000E+00  0.00000000E+00  0.00000000E+00
  0.00000000E+00  0.00000000E+00  0.00000000E+00
  0.00000000E+00  0.00000000E+00  0.00000000E+00
  0.00000000E+00  0.00000000E+00  0.00000000E+00
  0.00000000E+00  0.00000000E+00  0.00000000E+00
  0.00000000E+00  0.00000000E+00  0.00000000E+00
  0.00000000E+00  0.00000000E+00  0.00000000E+00
  0.00000000E+00  0.00000000E+00  0.00000000E+00
  0.00000000E+00  0.00000000E+00  0.00000000E+00
  0.00000000E+00  0.00000000E+00  0.00000000E+00
  0.00000000E+00  0.00000000E+00  0.00000000E+00
  0.00000000E+00  0.00000000E+00  0.00000000E+00
  0.00000000E+00  0.00000000E+00  0.00000000E+00
  0.00000000E+00  0.00000000E+00  0.00000000E+00
  0.00000000E+00  0.00000000E+00  0.00000000E+00
  0.00000000E+00  0.00000000E+00  0.00000000E+00
  0.00000000E+00  0.00000000E+00  0.00000000E+00
  0.00000000E+00  0.00000000E+00  0.00000000E+00
  0.00000000E+00  0.00000000E+00  0.00000000E+00
  0.00000000E+00  0.00000000E+00  0.00000000E+00
  0.00000000E+00  0.00000000E+00  0.00000000E+00
  0.00000000E+00  0.00000000E+00  0.00000000E+00
  0.00000000E+00  0.00000000E+00  0.00000000E+00
  0.00000000E+00  0.00000000E+00  0.00000000E+00
  0.00000000E+00  0.00000000E+00  0.00000000E+00
  0.00000000E+00  0.00000000E+00  0.00000000E+00
  0.00000000E+00  0.00000000E+00  0.00000000E+00
  0.00000000E+00  0.00000000E+00  0.00000000E+00
  0.00000000E+00  0.00000000E+00  0.00000000E+00
  0.00000000E+00  0.00000000E+00  0.00000000E+00
  0.00000000E+00  0.00000000E+00  0.00000000E+00
  0.00000000E+00  0.00000000E+00  0.00000000E+00
  0.00000000E+00  0.00000000E+00  0.00000000E+00
  0.00000000E+00  0.00000000E+00  0.00000000E+00
  0.00000000E+00  0.00000000E+00  0.00000000E+00
  0.00000000E+00  0.00000000E+00  0.00000000E+00
  0.00000000E+00  0.00000000E+00  0.00000000E+00
  0.00000000E+00  0.00000000E+00  0.00000000E+00
  0.00000000E+00  0.00000000E+00  0.00000000E+00
  0.00000000E+00  0.00000000E+00  0.00000000E+00
  0.00000000E+00  0.00000000E+00  0.00000000E+00
  0.00000000E+00  0.00000000E+00  0.00000000E+00
  0.00000000E+00  0.00000000E+00  0.00000000E+00
  0.00000000E+00  0.00000000E+00  0.00000000E+00
  0.00000000E+00  0.00000000E+00  0.00000000E+00
  0.00000000E+00  0.00000000E+00  0.00000000E+00
  0.00000000E+00  0.00000000E+00  0.00000000E+00
  0.00000000E+00  0.00000000E+00  0.00000000E+00
  0.00000000E+00  0.00000000E+00  0.00000000E+00
  0.00000000E+00  0.00000000E+00  0.00000000E+00
  0.00000000E+00  0.00000000E+00  0.00000000E+00
  0.00000000E+00  0.00000000E+00  0.00000000E+00
  0.00000000E+00  0.00000000E+00  0.00000000E+00
  0.00000000E+00  0.00000000E+00  0.00000000E+00
  0.00000000E+00  0.00000000E+00  0.00000000E+00
  0.00000000E+00  0.00000000E+00  0.00000000E+00
  0.00000000E+00  0.00000000E+00  0.00000000E+00
  0.00000000E+00  0.00000000E+00  0.00000000E+00
  0.00000000E+00  0.00000000E+00  0.00000000E+00
  0.00000000E+00  0.00000000E+00  0.00000000E+00
  0.00000000E+00  0.00000000E+00  0.00000000E+00
  0.00000000E+00  0.00000000E+00  0.00000000E+00
  0.00000000E+00  0.00000000E+00  0.00000000E+00
  0.00000000E+00  0.00000000E+00  0.00000000E+00
  0.00000000E+00  0.00000000E+00  0.00000000E+00
  0.00000000E+00  0.00000000E+00  0.00000000E+00
  0.00000000E+00  0.00000000E+00  0.00000000E+00
  0.00000000E+00  0.00000000E+00  0.00000000E+00
  0.00000000E+00  0.00000000E+00  0.00000000E+00
  0.00000000E+00  0.00000000E+00  0.00000000E+00
  0.00000000E+00  0.00000000E+00  0.00000000E+00
  0.00000000E+00  0.00000000E+00  0.00000000E+00
  0.00000000E+00  0.00000000E+00  0.00000000E+00
  0.00000000E+00  0.00000000E+00  0.00000000E+00
  0.00000000E+00  0.00000000E+00  0.00000000E+00
  0.00000000E+00  0.00000000E+00  0.00000000E+00
  0.00000000E+00  0.00000000E+00  0.00000000E+00
  0.00000000E+00  0.00000000E+00  0.00000000E+00
  0.00000000E+00  0.00000000E+00  0.00000000E+00
  0.00000000E+00  0.00000000E+00  0.00000000E+00
  0.00000000E+00  0.00000000E+00  0.00000000E+00
  0.00000000E+00  0.00000000E+00  0.00000000E+00
  0.00000000E+00  0.00000000E+00  0.00000000E+00
  0.00000000E+00  0.00000000E+00  0.00000000E+00
  0.00000000E+00  0.00000000E+00  0.00000000E+00
  0.00000000E+00  0.00000000E+00  0.00000000E+00
  0.00000000E+00  0.00000000E+00  0.00000000E+00
  0.00000000E+00  0.00000000E+00  0.00000000E+00
  0.00000000E+00  0.00000000E+00  0.00000000E+00
  0.00000000E+00  0.00000000E+00  0.00000000E+00
  0.00000000E+00  0.00000000E+00  0.00000000E+00
  0.00000000E+00  0.00000000E+00  0.00000000E+00
  0.00000000E+00  0.00000000E+00  0.00000000E+00
  0.00000000E+00  0.00000000E+00  0.00000000E+00
  0.00000000E+00  0.00000000E+00  0.00000000E+00
  0.00000000E+00  0.00000000E+00  0.00000000E+00
  0.00000000E+00  0.00000000E+00  0.00000000E+00
  0.00000000E+00  0.00000000E+00  0.00000000E+00
  0.00000000E+00  0.00000000E+00  0.00000000E+00
  0.00000000E+00  0.00000000E+00  0.00000000E+00
  0.00000000E+00  0.00000000E+00  0.00000000E+00
  0.00000000E+00  0.00000000E+00  0.00000000E+00
  0.00000000E+00  0.00000000E+00  0.00000000E+00
  0.00000000E+00  0.00000000E+00  0.00000000E+00
  0.00000000E+00  0.00000000E+00  0.00000000E+00
  0.00000000E+00  0.00000000E+00  0.00000000E+00
  0.00000000E+00  0.00000000E+00  0.00000000E+00
  0.00000000E+00  0.00000000E+00  0.00000000E+00
