supercell of POSCAR                     
   1.01189200000000     
     3.1482772356600002   -5.4762754812200001    9.9674464565599994
    -9.4511209497999999   -5.4731922780100000    0.0032121685426600
     6.3112884282600001  -10.9581161277000003   -9.9749049577999997
   Al   Sc   N 
    84    11    96
Direct
  0.0881722208644291  0.5837743119571996  0.3346826577282016
  0.0039849463804345  0.3279337464410474  0.2535096552419844
  0.0855503010260676  0.0843769221363928  0.3339127528369659
  0.2503449067131811  0.5813000541755784  0.4951929949165859
  0.3291895387151982  0.3249258091176515  0.0798411102529641
  0.4172956305103739  0.0880351575977656  0.1690286924565925
  0.0071116676045690  0.8388537782873087  0.2531286169584064
  0.1687907528898691  0.3342091749772678  0.4121818474396406
  0.2479714709770775  0.0861224812479691  0.4966076532244514
  0.1650910113797153  0.8339832913266818  0.4152301320335852
  0.3390551803270085  0.6675031895579266  0.3300121201514870
  0.1650711489616228  0.6658152190634183  0.1697174793016032
  0.2605880280281170  0.4154018225841654  0.2459378993624810
  0.3344827158374599  0.1671746563664627  0.3328539906459653
  0.0021342982677695  0.6703186295310317  0.4976322518645304
  0.1682380225516980  0.1628856606803382  0.1685123300026206
  0.2538727237825498  0.9191130328339838  0.2537118457151877
  0.4148702376653404  0.4164454511380598  0.4142667670712470
  0.4983496868751160  0.1630651226081383  0.4972610068573715
  0.0836322519600330  0.9192259431956629  0.0825197795833787
  0.4180617648434222  0.9174808006877058  0.4129381177763563
  0.0881346642332304  0.5830432499656553  0.8349128763662890
  0.0006225498968320  0.3263616446087809  0.7535808485414748
  0.0840600545842989  0.0831093152972358  0.8346457699248759
  0.2517158479092956  0.5745908576747141  0.9975789895325775
  0.3306957674606323  0.3242361721877316  0.5793582022636912
  0.4168119839396880  0.0862770167353588  0.6690200120241201
  0.0055417172814742  0.8388866547408753  0.7539618595724775
  0.1660671795976825  0.3307395147681476  0.9139304262893049
  0.2480449329980701  0.0832784508797246  0.9983147579071101
  0.1649331414444433  0.8334550209649052  0.9177685427956348
  0.3354978008936982  0.6697512711253992  0.8365930733099205
  0.1601779541660946  0.6706546581387940  0.6660672357484358
  0.2512254998066012  0.4081704195101779  0.7503958046075638
  0.3330370764120119  0.1651488944969870  0.8338034138315820
  0.0022985380974205  0.6695638305209926  0.9986620914895923
  0.1668657714769424  0.1613017444113964  0.6682777651907941
  0.2519398218559274  0.9183933877014567  0.7537777419948384
  0.4139234584906575  0.4150577241373199  0.9144003956160134
  0.4974959918626354  0.1640802040750557  0.9979037054842479
  0.0812695374882608  0.9208460244016834  0.5812526331181758
  0.4167857460847983  0.9185246262685922  0.9143246176860345
  0.5869014936712986  0.5831999851344492  0.3311619418407190
  0.5010353278214481  0.3296508924976962  0.2533998028439299
  0.5852746486535452  0.0852433803649930  0.3339149522914937
  0.7489328714451844  0.5803205644139027  0.4967568659008634
  0.8263396376665995  0.3258504631254340  0.0811025199819895
  0.9181679517344534  0.0867840507448889  0.1693561838335427
  0.5063442858811911  0.8407519192682784  0.2523460648133877
  0.6673980838551756  0.3333435429177314  0.4141568047742012
  0.7481134508070753  0.0859851339882098  0.4970931141774244
  0.6635022505053669  0.8349930702852717  0.4155097382714388
  0.8362104823242831  0.6706095959633203  0.3378690802504920
  0.6578808355569947  0.6745767360069692  0.1698850834471060
  0.7529927605259132  0.4087000979819990  0.2512271696031121
  0.8349140505117774  0.1665621495334335  0.3337739080398379
  0.5019364319746842  0.6699492036457997  0.4952623494575406
  0.6671908825039878  0.1628251485949619  0.1687330795149578
  0.7538531828901256  0.9205318779168721  0.2542820654968807
  0.9146878060339532  0.4158217865899232  0.4157349809408402
  0.9990382279973886  0.1636939421450876  0.4977199721795671
  0.5811282784512670  0.9223267149952363  0.0813950049282894
  0.9186668946269236  0.9181532325446540  0.4140948372304720
  0.5873366575642365  0.5839674161813235  0.8336868650681666
  0.5008167353895061  0.3264201626802077  0.7533266870304303
  0.5840556150091629  0.0843196145112159  0.8343677725359910
  0.7453551886223977  0.5789700900360799  0.9990853441213261
  0.8306425053556552  0.3240902136054871  0.5807182711328025
  0.9170909101295450  0.0859450674916644  0.6696259686064039
  0.5050522800254456  0.8398521611620566  0.7528888505437621
  0.6644137214012318  0.3342462590385509  0.9171321032515038
  0.7471915033477572  0.0865760113605347  0.9977223616516753
  0.6631335215073548  0.8354319048221868  0.9161996153335252
  0.8353274415657310  0.6695911434114166  0.8386032690078693
  0.6597873020349567  0.6708621914708246  0.6660169061817314
  0.7506007199657105  0.4080439932847213  0.7519197487374711
  0.8327191189118466  0.1658851091934963  0.8346780615669118
  0.5003913589750937  0.6726505429935301  0.9954683344548769
  0.6669058265168175  0.1611296060306415  0.6684547356597577
  0.7522751200353355  0.9186467355250514  0.7542365623666711
  0.9132266378825875  0.4155601623791867  0.9161091832608790
  0.9974886215348988  0.1631351944438251  0.9986907200891650
  0.5811000537208031  0.9209512847858932  0.5809759242251999
  0.9179799556044657  0.9176430389726775  0.9149954554985840
  0.3327588253454437  0.8290601984717370  0.0884151561078497
  0.0768748637079426  0.4156986648894687  0.0853616274851632
  0.4045122654310731  0.5824678334624309  0.6725946922455321
  0.3282603029916800  0.8379879284702980  0.5833639134359814
  0.0792708631711108  0.4158929743330617  0.5842453077266470
  0.9034761455034541  0.5835146681365515  0.1746924219826127
  0.8274149240756756  0.8384560564951258  0.0847407439047601
  0.5619332377548787  0.4203079146042015  0.0926259107367784
  0.9038665912594439  0.5822108643136232  0.6743446363851717
  0.8278044002917397  0.8381068680168937  0.5842999133588194
  0.5781598822038916  0.4150752018677508  0.5846525977585841
  0.2149709159858659  0.5810449668182187  0.2695430172512516
  0.0399194824510900  0.5996611311660516  0.1033713934314946
  0.1341374365322849  0.3253904196630515  0.1950408172500815
  0.2125921560223176  0.0829183401206208  0.2711243697883035
  0.3799119387197081  0.5837266329049839  0.4345003353733503
  0.4486108388344334  0.3232850305386066  0.0106884469115442
  0.0431451301284440  0.0847705642681689  0.1034992803772710
  0.1343063880715647  0.8368476545679542  0.1861032617144502
  0.2968543752671664  0.3336352240261604  0.3498905425587395
  0.3767120540599294  0.0813809477599392  0.4346730699228800
  0.4671196869476972  0.8375548353736377  0.0132142748552724
  0.2945154772347394  0.8320892210934900  0.3537539901460889
  0.4740730859458893  0.6817402253904774  0.2794046698105390
  0.2756158356023519  0.6536948444104098  0.0971919741595997
  0.3832626822055474  0.3929831216566413  0.1811129804966427
  0.4630004933548477  0.1655378105045955  0.2722498613899234
  0.1298114486878674  0.6665148634334699  0.4351046828617129
  0.2139450394036473  0.4105503534586603  0.0130097763066033
  0.2914911234264750  0.1598589818225378  0.1018932544609612
  0.3848033450017780  0.9263031270190538  0.1964082237976186
  0.0436927821475521  0.4187460907296057  0.3529882717168533
  0.1275176556111077  0.1706582368962728  0.4346951587563055
  0.2037012923477519  0.9226454890483211  0.0151790672760370
  0.0475278623989581  0.9207687475544262  0.3529317498737470
  0.2176962910610740  0.5815306821729536  0.7666674731116885
  0.0389291268015626  0.5982219610190000  0.6024433946888195
  0.1303571456903470  0.3230979058115793  0.6947140226600794
  0.2111922253363048  0.0821575932348253  0.7710742829322541
  0.3794892701581531  0.5821776066290525  0.9355371899011118
  0.4509094544466521  0.3235469034110139  0.5121184347655259
  0.0418991456508593  0.0852681650622245  0.6033322907924159
  0.1313699127053169  0.8387021825718222  0.6856542748333112
  0.2942739706171125  0.3310676070525673  0.8513768764883949
  0.3759070744996862  0.0812940861155838  0.9348586009426043
  0.4676356204301584  0.8356894235318464  0.5132325107677573
  0.2931327719782146  0.8330119670548655  0.8544560654319540
  0.4683749343373478  0.6777394013533566  0.7791311495399214
  0.2762563967757927  0.6610948518905673  0.5968307374612181
  0.3775515581983981  0.3953859538851248  0.6846324637585610
  0.4612525048334035  0.1643696311538179  0.7720396514348167
  0.1316097320558427  0.6642903552522341  0.9357546885767789
  0.2175340838228905  0.4142555803489856  0.5131966340425436
  0.2914885278716639  0.1605590623871151  0.6020921056019972
  0.3829408171987154  0.9240242324259569  0.6958669703136877
  0.0431572401019409  0.4178409114995389  0.8523481803390780
  0.1261809759296781  0.1673494474408201  0.9354684548252550
  0.1993690934045844  0.9271297863713457  0.5123009967826135
  0.0472581272354731  0.9193898488037320  0.8539428941112419
  0.7202279493612878  0.5821170457984479  0.2671942662930391
  0.5453228151850027  0.6075207273422123  0.0986560877745148
  0.6330664402655870  0.3235316846552152  0.1966289886879551
  0.7133194181033673  0.0838089253554628  0.2716432211137914
  0.8796201460648021  0.5830532464718488  0.4374444651066796
  0.9480694594335120  0.3234555398135583  0.0133553946773475
  0.5423098655854091  0.0869772898985417  0.1030775191232394
  0.6337301859309150  0.8434474936915848  0.1858003940119346
  0.7962117102543260  0.3319653594243306  0.3529170568627222
  0.8774699338812937  0.0816300961753669  0.4353212085511942
  0.9678892093579634  0.8355775137608461  0.0145236477126076
  0.7939654046972748  0.8343045794477959  0.3550275759354662
  0.9686003526700517  0.6782025442388004  0.2809653242419543
  0.7742291850201255  0.6620169837719558  0.0985688861169578
  0.8793720416451691  0.3960287167075549  0.1855888403739172
  0.9631981412349120  0.1655550660658776  0.2721723042916224
  0.6309548688260875  0.6658602680365604  0.4332702291097235
  0.7086239403711048  0.4143541740669221  0.0181768766259296
  0.7919706226578924  0.1603045857657364  0.1027935923117553
  0.8851832023530619  0.9244128807670791  0.1966306524087429
  0.5455522665998203  0.4187653811643344  0.3528642535412985
  0.6273789610374436  0.1698911936184828  0.4352761215048275
  0.6993394198927589  0.9274629170723259  0.0125352498758105
  0.5475485629055612  0.9221051385408927  0.3529055230849778
  0.7179725407095248  0.5819650445177302  0.7668897308778995
  0.5394972036820889  0.5984414287103661  0.6007920921970964
  0.6307442654584250  0.3228534756465038  0.6950543533501445
  0.7115983665912822  0.0824836840716898  0.7713938648764724
  0.8778017376655498  0.5823436586879893  0.9385170259880553
  0.9510110107913903  0.3236866200467006  0.5134373375318546
  0.5417494531353100  0.0854026361795945  0.6031159318324839
  0.6317065146938106  0.8392108587764611  0.6854711699675278
  0.7933877064517461  0.3319369104046572  0.8537874971109787
  0.8762134911033570  0.0809796994792364  0.9355897265161630
  0.9670803368155703  0.8359455849047706  0.5141275388135824
  0.7933323111385846  0.8335180380123361  0.8551193832658583
  0.9686393821994201  0.6770054368659757  0.7812784530706196
  0.7763557308074027  0.6610943873207091  0.5975408233579032
  0.8767599743452053  0.3951183642756249  0.6860182467055793
  0.9612036061602538  0.1642448607185898  0.7727564781356406
  0.6300196526484143  0.6666099506611758  0.9334525362381072
  0.7170236988307153  0.4135414797825945  0.5146396134957172
  0.7917878869040109  0.1600281480539252  0.6026129358588932
  0.8836715041684755  0.9236250656594862  0.6968622461067326
  0.5435338805199379  0.4188012349982131  0.8514523416834194
  0.6260548414576590  0.1694518813932717  0.9350062957003686
  0.6995514933943454  0.9271019322509204  0.5126491937838011
  0.5459660106068966  0.9206902314135874  0.8526204154978103
 
  0.00000000E+00  0.00000000E+00  0.00000000E+00
  0.00000000E+00  0.00000000E+00  0.00000000E+00
  0.00000000E+00  0.00000000E+00  0.00000000E+00
  0.00000000E+00  0.00000000E+00  0.00000000E+00
  0.00000000E+00  0.00000000E+00  0.00000000E+00
  0.00000000E+00  0.00000000E+00  0.00000000E+00
  0.00000000E+00  0.00000000E+00  0.00000000E+00
  0.00000000E+00  0.00000000E+00  0.00000000E+00
  0.00000000E+00  0.00000000E+00  0.00000000E+00
  0.00000000E+00  0.00000000E+00  0.00000000E+00
  0.00000000E+00  0.00000000E+00  0.00000000E+00
  0.00000000E+00  0.00000000E+00  0.00000000E+00
  0.00000000E+00  0.00000000E+00  0.00000000E+00
  0.00000000E+00  0.00000000E+00  0.00000000E+00
  0.00000000E+00  0.00000000E+00  0.00000000E+00
  0.00000000E+00  0.00000000E+00  0.00000000E+00
  0.00000000E+00  0.00000000E+00  0.00000000E+00
  0.00000000E+00  0.00000000E+00  0.00000000E+00
  0.00000000E+00  0.00000000E+00  0.00000000E+00
  0.00000000E+00  0.00000000E+00  0.00000000E+00
  0.00000000E+00  0.00000000E+00  0.00000000E+00
  0.00000000E+00  0.00000000E+00  0.00000000E+00
  0.00000000E+00  0.00000000E+00  0.00000000E+00
  0.00000000E+00  0.00000000E+00  0.00000000E+00
  0.00000000E+00  0.00000000E+00  0.00000000E+00
  0.00000000E+00  0.00000000E+00  0.00000000E+00
  0.00000000E+00  0.00000000E+00  0.00000000E+00
  0.00000000E+00  0.00000000E+00  0.00000000E+00
  0.00000000E+00  0.00000000E+00  0.00000000E+00
  0.00000000E+00  0.00000000E+00  0.00000000E+00
  0.00000000E+00  0.00000000E+00  0.00000000E+00
  0.00000000E+00  0.00000000E+00  0.00000000E+00
  0.00000000E+00  0.00000000E+00  0.00000000E+00
  0.00000000E+00  0.00000000E+00  0.00000000E+00
  0.00000000E+00  0.00000000E+00  0.00000000E+00
  0.00000000E+00  0.00000000E+00  0.00000000E+00
  0.00000000E+00  0.00000000E+00  0.00000000E+00
  0.00000000E+00  0.00000000E+00  0.00000000E+00
  0.00000000E+00  0.00000000E+00  0.00000000E+00
  0.00000000E+00  0.00000000E+00  0.00000000E+00
  0.00000000E+00  0.00000000E+00  0.00000000E+00
  0.00000000E+00  0.00000000E+00  0.00000000E+00
  0.00000000E+00  0.00000000E+00  0.00000000E+00
  0.00000000E+00  0.00000000E+00  0.00000000E+00
  0.00000000E+00  0.00000000E+00  0.00000000E+00
  0.00000000E+00  0.00000000E+00  0.00000000E+00
  0.00000000E+00  0.00000000E+00  0.00000000E+00
  0.00000000E+00  0.00000000E+00  0.00000000E+00
  0.00000000E+00  0.00000000E+00  0.00000000E+00
  0.00000000E+00  0.00000000E+00  0.00000000E+00
  0.00000000E+00  0.00000000E+00  0.00000000E+00
  0.00000000E+00  0.00000000E+00  0.00000000E+00
  0.00000000E+00  0.00000000E+00  0.00000000E+00
  0.00000000E+00  0.00000000E+00  0.00000000E+00
  0.00000000E+00  0.00000000E+00  0.00000000E+00
  0.00000000E+00  0.00000000E+00  0.00000000E+00
  0.00000000E+00  0.00000000E+00  0.00000000E+00
  0.00000000E+00  0.00000000E+00  0.00000000E+00
  0.00000000E+00  0.00000000E+00  0.00000000E+00
  0.00000000E+00  0.00000000E+00  0.00000000E+00
  0.00000000E+00  0.00000000E+00  0.00000000E+00
  0.00000000E+00  0.00000000E+00  0.00000000E+00
  0.00000000E+00  0.00000000E+00  0.00000000E+00
  0.00000000E+00  0.00000000E+00  0.00000000E+00
  0.00000000E+00  0.00000000E+00  0.00000000E+00
  0.00000000E+00  0.00000000E+00  0.00000000E+00
  0.00000000E+00  0.00000000E+00  0.00000000E+00
  0.00000000E+00  0.00000000E+00  0.00000000E+00
  0.00000000E+00  0.00000000E+00  0.00000000E+00
  0.00000000E+00  0.00000000E+00  0.00000000E+00
  0.00000000E+00  0.00000000E+00  0.00000000E+00
  0.00000000E+00  0.00000000E+00  0.00000000E+00
  0.00000000E+00  0.00000000E+00  0.00000000E+00
  0.00000000E+00  0.00000000E+00  0.00000000E+00
  0.00000000E+00  0.00000000E+00  0.00000000E+00
  0.00000000E+00  0.00000000E+00  0.00000000E+00
  0.00000000E+00  0.00000000E+00  0.00000000E+00
  0.00000000E+00  0.00000000E+00  0.00000000E+00
  0.00000000E+00  0.00000000E+00  0.00000000E+00
  0.00000000E+00  0.00000000E+00  0.00000000E+00
  0.00000000E+00  0.00000000E+00  0.00000000E+00
  0.00000000E+00  0.00000000E+00  0.00000000E+00
  0.00000000E+00  0.00000000E+00  0.00000000E+00
  0.00000000E+00  0.00000000E+00  0.00000000E+00
  0.00000000E+00  0.00000000E+00  0.00000000E+00
  0.00000000E+00  0.00000000E+00  0.00000000E+00
  0.00000000E+00  0.00000000E+00  0.00000000E+00
  0.00000000E+00  0.00000000E+00  0.00000000E+00
  0.00000000E+00  0.00000000E+00  0.00000000E+00
  0.00000000E+00  0.00000000E+00  0.00000000E+00
  0.00000000E+00  0.00000000E+00  0.00000000E+00
  0.00000000E+00  0.00000000E+00  0.00000000E+00
  0.00000000E+00  0.00000000E+00  0.00000000E+00
  0.00000000E+00  0.00000000E+00  0.00000000E+00
  0.00000000E+00  0.00000000E+00  0.00000000E+00
  0.00000000E+00  0.00000000E+00  0.00000000E+00
  0.00000000E+00  0.00000000E+00  0.00000000E+00
  0.00000000E+00  0.00000000E+00  0.00000000E+00
  0.00000000E+00  0.00000000E+00  0.00000000E+00
  0.00000000E+00  0.00000000E+00  0.00000000E+00
  0.00000000E+00  0.00000000E+00  0.00000000E+00
  0.00000000E+00  0.00000000E+00  0.00000000E+00
  0.00000000E+00  0.00000000E+00  0.00000000E+00
  0.00000000E+00  0.00000000E+00  0.00000000E+00
  0.00000000E+00  0.00000000E+00  0.00000000E+00
  0.00000000E+00  0.00000000E+00  0.00000000E+00
  0.00000000E+00  0.00000000E+00  0.00000000E+00
  0.00000000E+00  0.00000000E+00  0.00000000E+00
  0.00000000E+00  0.00000000E+00  0.00000000E+00
  0.00000000E+00  0.00000000E+00  0.00000000E+00
  0.00000000E+00  0.00000000E+00  0.00000000E+00
  0.00000000E+00  0.00000000E+00  0.00000000E+00
  0.00000000E+00  0.00000000E+00  0.00000000E+00
  0.00000000E+00  0.00000000E+00  0.00000000E+00
  0.00000000E+00  0.00000000E+00  0.00000000E+00
  0.00000000E+00  0.00000000E+00  0.00000000E+00
  0.00000000E+00  0.00000000E+00  0.00000000E+00
  0.00000000E+00  0.00000000E+00  0.00000000E+00
  0.00000000E+00  0.00000000E+00  0.00000000E+00
  0.00000000E+00  0.00000000E+00  0.00000000E+00
  0.00000000E+00  0.00000000E+00  0.00000000E+00
  0.00000000E+00  0.00000000E+00  0.00000000E+00
  0.00000000E+00  0.00000000E+00  0.00000000E+00
  0.00000000E+00  0.00000000E+00  0.00000000E+00
  0.00000000E+00  0.00000000E+00  0.00000000E+00
  0.00000000E+00  0.00000000E+00  0.00000000E+00
  0.00000000E+00  0.00000000E+00  0.00000000E+00
  0.00000000E+00  0.00000000E+00  0.00000000E+00
  0.00000000E+00  0.00000000E+00  0.00000000E+00
  0.00000000E+00  0.00000000E+00  0.00000000E+00
  0.00000000E+00  0.00000000E+00  0.00000000E+00
  0.00000000E+00  0.00000000E+00  0.00000000E+00
  0.00000000E+00  0.00000000E+00  0.00000000E+00
  0.00000000E+00  0.00000000E+00  0.00000000E+00
  0.00000000E+00  0.00000000E+00  0.00000000E+00
  0.00000000E+00  0.00000000E+00  0.00000000E+00
  0.00000000E+00  0.00000000E+00  0.00000000E+00
  0.00000000E+00  0.00000000E+00  0.00000000E+00
  0.00000000E+00  0.00000000E+00  0.00000000E+00
  0.00000000E+00  0.00000000E+00  0.00000000E+00
  0.00000000E+00  0.00000000E+00  0.00000000E+00
  0.00000000E+00  0.00000000E+00  0.00000000E+00
  0.00000000E+00  0.00000000E+00  0.00000000E+00
  0.00000000E+00  0.00000000E+00  0.00000000E+00
  0.00000000E+00  0.00000000E+00  0.00000000E+00
  0.00000000E+00  0.00000000E+00  0.00000000E+00
  0.00000000E+00  0.00000000E+00  0.00000000E+00
  0.00000000E+00  0.00000000E+00  0.00000000E+00
  0.00000000E+00  0.00000000E+00  0.00000000E+00
  0.00000000E+00  0.00000000E+00  0.00000000E+00
  0.00000000E+00  0.00000000E+00  0.00000000E+00
  0.00000000E+00  0.00000000E+00  0.00000000E+00
  0.00000000E+00  0.00000000E+00  0.00000000E+00
  0.00000000E+00  0.00000000E+00  0.00000000E+00
  0.00000000E+00  0.00000000E+00  0.00000000E+00
  0.00000000E+00  0.00000000E+00  0.00000000E+00
  0.00000000E+00  0.00000000E+00  0.00000000E+00
  0.00000000E+00  0.00000000E+00  0.00000000E+00
  0.00000000E+00  0.00000000E+00  0.00000000E+00
  0.00000000E+00  0.00000000E+00  0.00000000E+00
  0.00000000E+00  0.00000000E+00  0.00000000E+00
  0.00000000E+00  0.00000000E+00  0.00000000E+00
  0.00000000E+00  0.00000000E+00  0.00000000E+00
  0.00000000E+00  0.00000000E+00  0.00000000E+00
  0.00000000E+00  0.00000000E+00  0.00000000E+00
  0.00000000E+00  0.00000000E+00  0.00000000E+00
  0.00000000E+00  0.00000000E+00  0.00000000E+00
  0.00000000E+00  0.00000000E+00  0.00000000E+00
  0.00000000E+00  0.00000000E+00  0.00000000E+00
  0.00000000E+00  0.00000000E+00  0.00000000E+00
  0.00000000E+00  0.00000000E+00  0.00000000E+00
  0.00000000E+00  0.00000000E+00  0.00000000E+00
  0.00000000E+00  0.00000000E+00  0.00000000E+00
  0.00000000E+00  0.00000000E+00  0.00000000E+00
  0.00000000E+00  0.00000000E+00  0.00000000E+00
  0.00000000E+00  0.00000000E+00  0.00000000E+00
  0.00000000E+00  0.00000000E+00  0.00000000E+00
  0.00000000E+00  0.00000000E+00  0.00000000E+00
  0.00000000E+00  0.00000000E+00  0.00000000E+00
  0.00000000E+00  0.00000000E+00  0.00000000E+00
  0.00000000E+00  0.00000000E+00  0.00000000E+00
  0.00000000E+00  0.00000000E+00  0.00000000E+00
  0.00000000E+00  0.00000000E+00  0.00000000E+00
  0.00000000E+00  0.00000000E+00  0.00000000E+00
  0.00000000E+00  0.00000000E+00  0.00000000E+00
  0.00000000E+00  0.00000000E+00  0.00000000E+00
  0.00000000E+00  0.00000000E+00  0.00000000E+00
  0.00000000E+00  0.00000000E+00  0.00000000E+00
  0.00000000E+00  0.00000000E+00  0.00000000E+00
  0.00000000E+00  0.00000000E+00  0.00000000E+00
  0.00000000E+00  0.00000000E+00  0.00000000E+00
