supercell of POSCAR                     
   1.01189200000000     
     3.1482772356600002   -5.4762754812200001    9.9674464565599994
    -9.4511209497999999   -5.4731922780100000    0.0032121685426600
     6.3112884282600001  -10.9581161277000003   -9.9749049577999997
   Al   Sc   N 
    84    11    96
Direct
  0.0858947903713485  0.5839077003775728  0.3354868376957896
  0.0024855571391953  0.3274496931935360  0.2537577910479172
  0.0847937945734287  0.0842064100898696  0.3340312141230726
  0.2491813071839744  0.5810345150115879  0.4961005993905516
  0.3295103173748686  0.3259079393456688  0.0777212796320725
  0.4171304896484145  0.0878289871241620  0.1684996023983558
  0.0063576208740486  0.8388575931098501  0.2529888054927554
  0.1672826072057063  0.3337655910757391  0.4133315352262628
  0.2475043316098819  0.0861345383338090  0.4968619856592440
  0.1638655244657059  0.8342497044107873  0.4156875325098497
  0.3345303116137828  0.6672236319385831  0.3326326295924389
  0.1642242697322942  0.6660295175798794  0.1702021215240421
  0.2543572986198726  0.4154069852866513  0.2493137604498514
  0.3332598415452139  0.1670791885784126  0.3332457850851327
  0.0014288525698802  0.6704393723287154  0.4980091361081449
  0.1675723959464008  0.1630594107777839  0.1687337861286764
  0.2529035268900159  0.9191388947834582  0.2536745876226334
  0.4139615127515412  0.4161356415604800  0.4149991995498681
  0.4978796957545484  0.1629555728303416  0.4975214357103681
  0.0835348764360546  0.9195310188260706  0.0824274990614029
  0.4168214985235323  0.9175350259911497  0.4134537180781450
  0.0891090282952476  0.5833714858167127  0.8348411345896594
  0.0011506838064079  0.3265182535778450  0.7535589999694210
  0.0846766833361769  0.0833511883193623  0.8344507715145966
  0.2525595034352506  0.5748897403046200  0.9972416640067223
  0.3304442745236145  0.3241801315439403  0.5797331742882719
  0.4169996953234403  0.0863710488656153  0.6691357554064226
  0.0061740773789225  0.8392593190549746  0.7538393953617373
  0.1665988806957586  0.3309464400558682  0.9134413814784708
  0.2485187636073007  0.0840645350408167  0.9981322050248593
  0.1655037113598468  0.8342292340530904  0.9175275623271162
  0.3362594820175033  0.6701861495892061  0.8366285639663502
  0.1602478236134814  0.6707771045972706  0.6662926240741172
  0.2518780756052408  0.4082482997704986  0.7504836273253659
  0.3336465830031585  0.1652434964815228  0.8337023858733019
  0.0032023605929297  0.6699921880551187  0.9982654586405175
  0.1670676994534190  0.1612998132945833  0.6683550822423214
  0.2524509708356604  0.9186458367360260  0.7538519149371936
  0.4149406021140649  0.4154710958161516  0.9140989896188998
  0.4983279658889259  0.1640713098913693  0.9976432948485652
  0.0810140788407097  0.9209830993772172  0.5813794265069703
  0.4173893858518412  0.9186470100978354  0.9143029675697321
  0.5888760249814027  0.5809114365842447  0.3321013792644081
  0.5033972021658855  0.3298427619113866  0.2543053393578987
  0.5845597578855930  0.0852582441312819  0.3337005458639624
  0.7484844885276942  0.5802063368099581  0.4967641988020475
  0.8284932319279292  0.3250921945626928  0.0806071957786614
  0.9180193893492117  0.0864910625821338  0.1691437404613296
  0.5059791573225496  0.8427213611028463  0.2509161801362012
  0.6673397311521043  0.3326257516071394  0.4146219239948152
  0.7477065933415759  0.0858841297762183  0.4971378061998379
  0.6630743961585281  0.8353690061773804  0.4154837961788331
  0.8357182932566189  0.6708086617838234  0.3377897142090163
  0.6584799428584702  0.6738392563118225  0.1693296386089855
  0.7530470249152401  0.4083792968145019  0.2510200747117750
  0.8342716529146514  0.1660089890205185  0.3338021174761536
  0.5010454537778486  0.6701198618384510  0.4960243887312146
  0.6673178150158634  0.1624122934590631  0.1683251049243495
  0.7535123814081999  0.9202111903707788  0.2539662570083721
  0.9138147554564142  0.4155958578015699  0.4158823200614705
  0.9984659152014927  0.1634271316227469  0.4978582975930053
  0.5812565601112212  0.9222291922193762  0.0809255975550869
  0.9180361751286199  0.9181125161917407  0.4141444362404769
  0.5881519345571391  0.5841468748349712  0.8335500165164049
  0.5013747492924594  0.3264332712769829  0.7532990139601097
  0.5845888044620153  0.0842843444248160  0.8342004479030720
  0.7474171726907954  0.5794810832971393  0.9978675136525084
  0.8305128923208471  0.3240308974496884  0.5807007406728104
  0.9173108499538216  0.0860482174513564  0.6695958366207577
  0.5055637350049125  0.8400405222103515  0.7529422149992939
  0.6660075973368080  0.3337083811457262  0.9156792827958000
  0.7477666901290121  0.0864695284378882  0.9973950403067420
  0.6636716311128410  0.8354433887660022  0.9160137834626028
  0.8363375503335035  0.6699968994336984  0.8382022171191963
  0.6598857277586703  0.6710676993712852  0.6659851386513651
  0.7514659229245169  0.4081755447124920  0.7515086057277571
  0.8335062652287775  0.1656799005975245  0.8343362356403787
  0.5009609856471116  0.6721955264928994  0.9957164744037783
  0.6670920307655024  0.1610620331855017  0.6684828100411266
  0.7526986834039349  0.9187258745886808  0.7541782926807485
  0.9142508151470636  0.4156059866172654  0.9157417835455419
  0.9982369704621945  0.1629823890669471  0.9983535360581755
  0.5807212525222170  0.9210522198670432  0.5811040539220329
  0.9184843368572118  0.9178344042790343  0.9147074015895456
  0.3321636011518834  0.8288887937403899  0.0876892521573680
  0.0776739128797530  0.4158453371318203  0.0850390978039925
  0.4045904605873858  0.5826792726213128  0.6729321657603577
  0.3276905451105989  0.8382516482600835  0.5838473544819180
  0.0784016793800646  0.4156735192060452  0.5848452029724314
  0.9038301887935418  0.5831807244861054  0.1742413999883183
  0.8278434645789190  0.8380186708356803  0.0841175134278629
  0.5701783177376996  0.4194133382616059  0.0888678919519066
  0.9037920497366017  0.5828458429108068  0.6743097838538361
  0.8273401271839305  0.8386513847729873  0.5843229411678337
  0.5778477523042298  0.4149404295837726  0.5850112732373631
  0.2133411773647040  0.5813222819465693  0.2702660850655079
  0.0403843608554695  0.5997575419290442  0.1031160169423089
  0.1327237397030316  0.3252871366720029  0.1953232579955611
  0.2120896539545285  0.0828743128143969  0.2710643390267506
  0.3790546065525433  0.5835558072600051  0.4349807123096880
  0.4503749268075836  0.3242915144112004  0.0114215675254741
  0.0433678278414433  0.0849008862850980  0.1035019434664264
  0.1339882963958701  0.8366087990879052  0.1859907752235941
  0.2956250678975607  0.3333449288311741  0.3508177473176204
  0.3763259109233772  0.0814242629136999  0.4345127094835206
  0.4672139660996635  0.8369865919358617  0.0134790597982501
  0.2936734235786176  0.8320782629533028  0.3538034756355870
  0.4726344730901602  0.6813216378996216  0.2813914731939136
  0.2767160375061053  0.6514837574880090  0.0986646082790799
  0.3788619291751800  0.3918069519575624  0.1836907552696090
  0.4615674373584184  0.1668566880571234  0.2715339061506299
  0.1292526694895741  0.6665444629499291  0.4352559015994117
  0.2147205067157358  0.4111043149107800  0.0127319646319890
  0.2919781044832419  0.1622862798812363  0.1024921976361384
  0.3837429805433743  0.9261330908691292  0.1957250069135696
  0.0429599832618734  0.4185307182616569  0.3529758271986196
  0.1269058155765848  0.1702118324895565  0.4347184557736838
  0.2040734982770402  0.9234704094755628  0.0154596631220940
  0.0468269133825814  0.9205612102886178  0.3526936339033782
  0.2185629122202997  0.5817586723408894  0.7668511749637545
  0.0389684744625214  0.5983812884624982  0.6025311582610087
  0.1310292900188159  0.3231328770504760  0.6949778509428484
  0.2118223180585801  0.0823476210159129  0.7711644259098733
  0.3802799208157452  0.5823559003541519  0.9357382481045562
  0.4506202552185528  0.3234999717228746  0.5121852016646642
  0.0419582808142351  0.0854371276807058  0.6033082990858816
  0.1319298568095846  0.8389903089642203  0.6856127391971185
  0.2953140134986754  0.3312487408189497  0.8516439029683340
  0.3765446043231719  0.0816965481664340  0.9352158684274841
  0.4670111464524993  0.8357949479210092  0.5132792816166258
  0.2937500154435853  0.8333754723012987  0.8546674709844453
  0.4691621120840423  0.6779133494631040  0.7793412330816878
  0.2763280688056611  0.6611736028456860  0.5970669193653251
  0.3781799506725392  0.3954874212655994  0.6846865090050329
  0.4618160503954556  0.1644505665329774  0.7721122210753890
  0.1328448661643478  0.6649055568104174  0.9361224159491925
  0.2168812120255126  0.4141072514899662  0.5137017419791547
  0.2916068313755602  0.1604351381324847  0.6021005965200885
  0.3834529995524179  0.9241317795313080  0.6960491784929772
  0.0440581560266580  0.4182084942631690  0.8523154287684775
  0.1269476050442151  0.1676835501423355  0.9354569251488769
  0.1990775450494198  0.9271501704939453  0.5122658356998784
  0.0478335344711809  0.9197194746815782  0.8539473280233949
  0.7191597646552736  0.5818202469647602  0.2671409345457576
  0.5435971384595604  0.6051189685259715  0.0997772055064203
  0.6323399246530172  0.3239722845865955  0.1957715951284840
  0.7122327560791106  0.0834661168752362  0.2713156607302309
  0.8789233370982359  0.5831154915914141  0.4371430862187040
  0.9496190817763690  0.3234935737602669  0.0131521903947061
  0.5422510905594109  0.0867470982195186  0.1030243384400364
  0.6327565993334048  0.8423199346391996  0.1856107313653368
  0.7954061515722017  0.3316462335556807  0.3526099040015822
  0.8768483677792744  0.0814777023691775  0.4351950732174572
  0.9683820148277817  0.8356793174989647  0.0143807389952855
  0.7931191878427342  0.8343028953598051  0.3547400021745517
  0.9676117935005308  0.6781082320534466  0.2805729448966474
  0.7737643879735785  0.6611337161684148  0.0982032311155976
  0.8788116471175726  0.3959978426807069  0.1853701583231455
  0.9623929568213256  0.1650711316660178  0.2720575050483944
  0.6293321026485330  0.6661966794136944  0.4326868997775648
  0.7120954363368313  0.4141330416173972  0.0165340954826689
  0.7920890886024665  0.1604700930564391  0.1025966870988597
  0.8844774969850988  0.9240888621188148  0.1961313770880011
  0.5449604006552988  0.4184734285201870  0.3530495830619813
  0.6265614545636353  0.1693377537264951  0.4348655856312362
  0.6996412419207161  0.9274267223203410  0.0126093170468522
  0.5456588982634401  0.9208802620817167  0.3520891896929044
  0.7188603455841474  0.5821904046841553  0.7667634919684403
  0.5395475972629811  0.5984283949683231  0.6008706175706209
  0.6313738467942400  0.3228936257798765  0.6951262073498015
  0.7120910394393007  0.0824996274969862  0.7713827322007276
  0.8792285837271265  0.5826955799974556  0.9381348407369856
  0.9506268993725584  0.3235643355655213  0.5131910772764030
  0.5417749086279500  0.0855601432131152  0.6030761657385426
  0.6320735288216852  0.8394024875850192  0.6853761125530227
  0.7947525802263371  0.3318869458929612  0.8532240297402467
  0.8767825847398356  0.0810828089133153  0.9355346017085822
  0.9666814750447870  0.8360952737549425  0.5140730652426058
  0.7938225459781663  0.8335434356407347  0.8551329071532194
  0.9697041490023892  0.6772865416343663  0.7812647097445762
  0.7760745761768817  0.6613835117698414  0.5970368773539576
  0.8776080615192541  0.3955018292739112  0.6856167696748656
  0.9618403612512409  0.1643544568801403  0.7726448820766549
  0.6306037812602696  0.6663814590414674  0.9338029550841895
  0.7165522828018069  0.4135050778819220  0.5144906087699397
  0.7917450653531972  0.1599366081561087  0.6024581476365043
  0.8840705826538766  0.9236440735260842  0.6968456704303065
  0.5445226358590034  0.4188923429966209  0.8515090892555008
  0.6266834443827349  0.1696937282750852  0.9349428944724210
  0.6987586150118474  0.9270905776213141  0.5122639748987297
  0.5464671773852672  0.9207728655808154  0.8528262776729321
 
  0.00000000E+00  0.00000000E+00  0.00000000E+00
  0.00000000E+00  0.00000000E+00  0.00000000E+00
  0.00000000E+00  0.00000000E+00  0.00000000E+00
  0.00000000E+00  0.00000000E+00  0.00000000E+00
  0.00000000E+00  0.00000000E+00  0.00000000E+00
  0.00000000E+00  0.00000000E+00  0.00000000E+00
  0.00000000E+00  0.00000000E+00  0.00000000E+00
  0.00000000E+00  0.00000000E+00  0.00000000E+00
  0.00000000E+00  0.00000000E+00  0.00000000E+00
  0.00000000E+00  0.00000000E+00  0.00000000E+00
  0.00000000E+00  0.00000000E+00  0.00000000E+00
  0.00000000E+00  0.00000000E+00  0.00000000E+00
  0.00000000E+00  0.00000000E+00  0.00000000E+00
  0.00000000E+00  0.00000000E+00  0.00000000E+00
  0.00000000E+00  0.00000000E+00  0.00000000E+00
  0.00000000E+00  0.00000000E+00  0.00000000E+00
  0.00000000E+00  0.00000000E+00  0.00000000E+00
  0.00000000E+00  0.00000000E+00  0.00000000E+00
  0.00000000E+00  0.00000000E+00  0.00000000E+00
  0.00000000E+00  0.00000000E+00  0.00000000E+00
  0.00000000E+00  0.00000000E+00  0.00000000E+00
  0.00000000E+00  0.00000000E+00  0.00000000E+00
  0.00000000E+00  0.00000000E+00  0.00000000E+00
  0.00000000E+00  0.00000000E+00  0.00000000E+00
  0.00000000E+00  0.00000000E+00  0.00000000E+00
  0.00000000E+00  0.00000000E+00  0.00000000E+00
  0.00000000E+00  0.00000000E+00  0.00000000E+00
  0.00000000E+00  0.00000000E+00  0.00000000E+00
  0.00000000E+00  0.00000000E+00  0.00000000E+00
  0.00000000E+00  0.00000000E+00  0.00000000E+00
  0.00000000E+00  0.00000000E+00  0.00000000E+00
  0.00000000E+00  0.00000000E+00  0.00000000E+00
  0.00000000E+00  0.00000000E+00  0.00000000E+00
  0.00000000E+00  0.00000000E+00  0.00000000E+00
  0.00000000E+00  0.00000000E+00  0.00000000E+00
  0.00000000E+00  0.00000000E+00  0.00000000E+00
  0.00000000E+00  0.00000000E+00  0.00000000E+00
  0.00000000E+00  0.00000000E+00  0.00000000E+00
  0.00000000E+00  0.00000000E+00  0.00000000E+00
  0.00000000E+00  0.00000000E+00  0.00000000E+00
  0.00000000E+00  0.00000000E+00  0.00000000E+00
  0.00000000E+00  0.00000000E+00  0.00000000E+00
  0.00000000E+00  0.00000000E+00  0.00000000E+00
  0.00000000E+00  0.00000000E+00  0.00000000E+00
  0.00000000E+00  0.00000000E+00  0.00000000E+00
  0.00000000E+00  0.00000000E+00  0.00000000E+00
  0.00000000E+00  0.00000000E+00  0.00000000E+00
  0.00000000E+00  0.00000000E+00  0.00000000E+00
  0.00000000E+00  0.00000000E+00  0.00000000E+00
  0.00000000E+00  0.00000000E+00  0.00000000E+00
  0.00000000E+00  0.00000000E+00  0.00000000E+00
  0.00000000E+00  0.00000000E+00  0.00000000E+00
  0.00000000E+00  0.00000000E+00  0.00000000E+00
  0.00000000E+00  0.00000000E+00  0.00000000E+00
  0.00000000E+00  0.00000000E+00  0.00000000E+00
  0.00000000E+00  0.00000000E+00  0.00000000E+00
  0.00000000E+00  0.00000000E+00  0.00000000E+00
  0.00000000E+00  0.00000000E+00  0.00000000E+00
  0.00000000E+00  0.00000000E+00  0.00000000E+00
  0.00000000E+00  0.00000000E+00  0.00000000E+00
  0.00000000E+00  0.00000000E+00  0.00000000E+00
  0.00000000E+00  0.00000000E+00  0.00000000E+00
  0.00000000E+00  0.00000000E+00  0.00000000E+00
  0.00000000E+00  0.00000000E+00  0.00000000E+00
  0.00000000E+00  0.00000000E+00  0.00000000E+00
  0.00000000E+00  0.00000000E+00  0.00000000E+00
  0.00000000E+00  0.00000000E+00  0.00000000E+00
  0.00000000E+00  0.00000000E+00  0.00000000E+00
  0.00000000E+00  0.00000000E+00  0.00000000E+00
  0.00000000E+00  0.00000000E+00  0.00000000E+00
  0.00000000E+00  0.00000000E+00  0.00000000E+00
  0.00000000E+00  0.00000000E+00  0.00000000E+00
  0.00000000E+00  0.00000000E+00  0.00000000E+00
  0.00000000E+00  0.00000000E+00  0.00000000E+00
  0.00000000E+00  0.00000000E+00  0.00000000E+00
  0.00000000E+00  0.00000000E+00  0.00000000E+00
  0.00000000E+00  0.00000000E+00  0.00000000E+00
  0.00000000E+00  0.00000000E+00  0.00000000E+00
  0.00000000E+00  0.00000000E+00  0.00000000E+00
  0.00000000E+00  0.00000000E+00  0.00000000E+00
  0.00000000E+00  0.00000000E+00  0.00000000E+00
  0.00000000E+00  0.00000000E+00  0.00000000E+00
  0.00000000E+00  0.00000000E+00  0.00000000E+00
  0.00000000E+00  0.00000000E+00  0.00000000E+00
  0.00000000E+00  0.00000000E+00  0.00000000E+00
  0.00000000E+00  0.00000000E+00  0.00000000E+00
  0.00000000E+00  0.00000000E+00  0.00000000E+00
  0.00000000E+00  0.00000000E+00  0.00000000E+00
  0.00000000E+00  0.00000000E+00  0.00000000E+00
  0.00000000E+00  0.00000000E+00  0.00000000E+00
  0.00000000E+00  0.00000000E+00  0.00000000E+00
  0.00000000E+00  0.00000000E+00  0.00000000E+00
  0.00000000E+00  0.00000000E+00  0.00000000E+00
  0.00000000E+00  0.00000000E+00  0.00000000E+00
  0.00000000E+00  0.00000000E+00  0.00000000E+00
  0.00000000E+00  0.00000000E+00  0.00000000E+00
  0.00000000E+00  0.00000000E+00  0.00000000E+00
  0.00000000E+00  0.00000000E+00  0.00000000E+00
  0.00000000E+00  0.00000000E+00  0.00000000E+00
  0.00000000E+00  0.00000000E+00  0.00000000E+00
  0.00000000E+00  0.00000000E+00  0.00000000E+00
  0.00000000E+00  0.00000000E+00  0.00000000E+00
  0.00000000E+00  0.00000000E+00  0.00000000E+00
  0.00000000E+00  0.00000000E+00  0.00000000E+00
  0.00000000E+00  0.00000000E+00  0.00000000E+00
  0.00000000E+00  0.00000000E+00  0.00000000E+00
  0.00000000E+00  0.00000000E+00  0.00000000E+00
  0.00000000E+00  0.00000000E+00  0.00000000E+00
  0.00000000E+00  0.00000000E+00  0.00000000E+00
  0.00000000E+00  0.00000000E+00  0.00000000E+00
  0.00000000E+00  0.00000000E+00  0.00000000E+00
  0.00000000E+00  0.00000000E+00  0.00000000E+00
  0.00000000E+00  0.00000000E+00  0.00000000E+00
  0.00000000E+00  0.00000000E+00  0.00000000E+00
  0.00000000E+00  0.00000000E+00  0.00000000E+00
  0.00000000E+00  0.00000000E+00  0.00000000E+00
  0.00000000E+00  0.00000000E+00  0.00000000E+00
  0.00000000E+00  0.00000000E+00  0.00000000E+00
  0.00000000E+00  0.00000000E+00  0.00000000E+00
  0.00000000E+00  0.00000000E+00  0.00000000E+00
  0.00000000E+00  0.00000000E+00  0.00000000E+00
  0.00000000E+00  0.00000000E+00  0.00000000E+00
  0.00000000E+00  0.00000000E+00  0.00000000E+00
  0.00000000E+00  0.00000000E+00  0.00000000E+00
  0.00000000E+00  0.00000000E+00  0.00000000E+00
  0.00000000E+00  0.00000000E+00  0.00000000E+00
  0.00000000E+00  0.00000000E+00  0.00000000E+00
  0.00000000E+00  0.00000000E+00  0.00000000E+00
  0.00000000E+00  0.00000000E+00  0.00000000E+00
  0.00000000E+00  0.00000000E+00  0.00000000E+00
  0.00000000E+00  0.00000000E+00  0.00000000E+00
  0.00000000E+00  0.00000000E+00  0.00000000E+00
  0.00000000E+00  0.00000000E+00  0.00000000E+00
  0.00000000E+00  0.00000000E+00  0.00000000E+00
  0.00000000E+00  0.00000000E+00  0.00000000E+00
  0.00000000E+00  0.00000000E+00  0.00000000E+00
  0.00000000E+00  0.00000000E+00  0.00000000E+00
  0.00000000E+00  0.00000000E+00  0.00000000E+00
  0.00000000E+00  0.00000000E+00  0.00000000E+00
  0.00000000E+00  0.00000000E+00  0.00000000E+00
  0.00000000E+00  0.00000000E+00  0.00000000E+00
  0.00000000E+00  0.00000000E+00  0.00000000E+00
  0.00000000E+00  0.00000000E+00  0.00000000E+00
  0.00000000E+00  0.00000000E+00  0.00000000E+00
  0.00000000E+00  0.00000000E+00  0.00000000E+00
  0.00000000E+00  0.00000000E+00  0.00000000E+00
  0.00000000E+00  0.00000000E+00  0.00000000E+00
  0.00000000E+00  0.00000000E+00  0.00000000E+00
  0.00000000E+00  0.00000000E+00  0.00000000E+00
  0.00000000E+00  0.00000000E+00  0.00000000E+00
  0.00000000E+00  0.00000000E+00  0.00000000E+00
  0.00000000E+00  0.00000000E+00  0.00000000E+00
  0.00000000E+00  0.00000000E+00  0.00000000E+00
  0.00000000E+00  0.00000000E+00  0.00000000E+00
  0.00000000E+00  0.00000000E+00  0.00000000E+00
  0.00000000E+00  0.00000000E+00  0.00000000E+00
  0.00000000E+00  0.00000000E+00  0.00000000E+00
  0.00000000E+00  0.00000000E+00  0.00000000E+00
  0.00000000E+00  0.00000000E+00  0.00000000E+00
  0.00000000E+00  0.00000000E+00  0.00000000E+00
  0.00000000E+00  0.00000000E+00  0.00000000E+00
  0.00000000E+00  0.00000000E+00  0.00000000E+00
  0.00000000E+00  0.00000000E+00  0.00000000E+00
  0.00000000E+00  0.00000000E+00  0.00000000E+00
  0.00000000E+00  0.00000000E+00  0.00000000E+00
  0.00000000E+00  0.00000000E+00  0.00000000E+00
  0.00000000E+00  0.00000000E+00  0.00000000E+00
  0.00000000E+00  0.00000000E+00  0.00000000E+00
  0.00000000E+00  0.00000000E+00  0.00000000E+00
  0.00000000E+00  0.00000000E+00  0.00000000E+00
  0.00000000E+00  0.00000000E+00  0.00000000E+00
  0.00000000E+00  0.00000000E+00  0.00000000E+00
  0.00000000E+00  0.00000000E+00  0.00000000E+00
  0.00000000E+00  0.00000000E+00  0.00000000E+00
  0.00000000E+00  0.00000000E+00  0.00000000E+00
  0.00000000E+00  0.00000000E+00  0.00000000E+00
  0.00000000E+00  0.00000000E+00  0.00000000E+00
  0.00000000E+00  0.00000000E+00  0.00000000E+00
  0.00000000E+00  0.00000000E+00  0.00000000E+00
  0.00000000E+00  0.00000000E+00  0.00000000E+00
  0.00000000E+00  0.00000000E+00  0.00000000E+00
  0.00000000E+00  0.00000000E+00  0.00000000E+00
  0.00000000E+00  0.00000000E+00  0.00000000E+00
  0.00000000E+00  0.00000000E+00  0.00000000E+00
  0.00000000E+00  0.00000000E+00  0.00000000E+00
  0.00000000E+00  0.00000000E+00  0.00000000E+00
  0.00000000E+00  0.00000000E+00  0.00000000E+00
  0.00000000E+00  0.00000000E+00  0.00000000E+00
  0.00000000E+00  0.00000000E+00  0.00000000E+00
  0.00000000E+00  0.00000000E+00  0.00000000E+00
  0.00000000E+00  0.00000000E+00  0.00000000E+00
