supercell of icsd_608626.cif            
   1.01523452869031     
     9.3122689489328287    0.0017681588130699    0.0034482698853272
    -4.6546033267202329    8.0620098770104729   -0.0000000639951402
     0.0037275838945388    0.0021521336416656    9.8099724861400812
   Al   Y    N 
    34     2    36
Direct
  0.2189437156984155  0.1048615155949335  0.2478833306449246
  0.1113412200735482  0.2223372847366676  0.4979001033294139
  0.8894022806806845  0.1113678379076219  0.7487010951643427
  0.7814525739013760  0.2275736896005895  0.9984694166083372
  0.5551360246805643  0.1081653437297589  0.2581269676480318
  0.4426267730358475  0.2220702069111908  0.5065778145596411
  0.2193744614858772  0.1097411149758045  0.7485848050159447
  0.1109773225332020  0.2221552969107208  0.9983108778941698
  0.8895221567962182  0.1114277983362584  0.2480049209671122
  0.7806353412729337  0.2238721672582500  0.4987662834735715
  0.5603534399822578  0.1170768619399993  0.7431298921489571
  0.4422774962828768  0.2193197671365965  0.9922452691899224
  0.2189436485724201  0.4474155538138973  0.2478833272441179
  0.1097872999365990  0.5535374761920053  0.4991680569320849
  0.8902598814234395  0.4431244260111811  0.7493087564795573
  0.7866509618952833  0.5599921074659022  0.9925602170012198
  0.4426267369229890  0.5538898440809987  0.5065778080231951
  0.2193744193710501  0.4429666760054971  0.7485848106010593
  0.1050700389090906  0.5516290429358222  0.9989601732734457
  0.8942658826145475  0.4468028541818967  0.2488800651828385
  0.7795863325609815  0.5564598084435204  0.5060037941631492
  0.5551968944823571  0.4442650823002623  0.7511189239796394
  0.4422775046010301  0.5562909587251639  0.9922452201271312
  0.2191701434884834  0.7762517794468806  0.2568383936326981
  0.1097873650954568  0.8895832088856608  0.4991680585712217
  0.8902599304169243  0.7804688267881090  0.7493087579843731
  0.7814526089427503  0.8872121943114308  0.9984694197903039
  0.5551359930811941  0.7803041468555705  0.2581269357518181
  0.4435409185216272  0.8884371561379680  0.4991399786231412
  0.2143983598062178  0.7738658497297024  0.7437054734334723
  0.1050701333276223  0.8867743763059011  0.9989602241937732
  0.8942659533898123  0.7807964201129636  0.2488800317366398
  0.7806353813688389  0.8900965743224702  0.4987662729595854
  0.5603534277322879  0.7766098659068277  0.7431299053761080
  0.5546287939868719  0.4439809923676918  0.2385350851528329
  0.4437937825533140  0.8885633668385324  0.9965087479897932
  0.2232021134671243  0.1118686758072798  0.4405260068255714
  0.1134058314811739  0.2233696119328954  0.1909877384153020
  0.8881122263053243  0.1107227442268766  0.9424199596623311
  0.7817921817303102  0.2234919391519625  0.6881522912362854
  0.5569127524165225  0.1148348841826561  0.4492585754165574
  0.4297511815555168  0.1884068903041722  0.1805585562827687
  0.2192027529594753  0.1089218898371129  0.9394537553029636
  0.1105332936972445  0.2219333079711205  0.6900516948454722
  0.8897566337166509  0.1115449867779290  0.4391695592935392
  0.7765532570218951  0.2224103874997496  0.1927084242599619
  0.5726782519064528  0.1395693030907097  0.9290413640292883
  0.4411912743104409  0.2214360473600934  0.6954993246625136
  0.2232021111257296  0.4446668003865852  0.4405260039749663
  0.1114081441639243  0.5568989585051938  0.1916193079401225
  0.8901351521353789  0.4426605740327787  0.9388645363900068
  0.7798625173293345  0.5565979664873382  0.6976057723805695
  0.5562843418416747  0.4448088700707018  0.4625812753698781
  0.4297511696583314  0.5746777317374239  0.1805584875157251
  0.2192027981841917  0.4436141895658352  0.9394537604412108
  0.1096341667099807  0.5525988246309197  0.6884041629240016
  0.8883625998200628  0.4451989957741631  0.4410397066670058
  0.8085254590587851  0.5709294624703105  0.1809557986987969
  0.5557317007819691  0.4445324966043032  0.9497964048881400
  0.4411912753378928  0.5530885674432326  0.6954992824906796
  0.2186935483921033  0.7760134307034932  0.4475162647696038
  0.1114081162328802  0.8878425578525651  0.1916193161728330
  0.8901351479265216  0.7808079153156697  0.9388645460785625
  0.7817921645016241  0.8916335527095995  0.6881522825316750
  0.5569127552058504  0.7754111953717953  0.4492585429525988
  0.4437656209230454  0.8885494474973683  0.2206550183055640
  0.1914898148579596  0.7624115505730060  0.9318301234989335
  0.1096341401532612  0.8903686742522723  0.6884041541853563
  0.8883625685504626  0.7764969636609322  0.4410396946645534
  0.7765532624759786  0.8874762261309144  0.1927083883233180
  0.5726782726192070  0.7664421970512691  0.9290413515636970
  0.4436162020207703  0.8884747098256227  0.6966493521921038
 
  0.00000000E+00  0.00000000E+00  0.00000000E+00
  0.00000000E+00  0.00000000E+00  0.00000000E+00
  0.00000000E+00  0.00000000E+00  0.00000000E+00
  0.00000000E+00  0.00000000E+00  0.00000000E+00
  0.00000000E+00  0.00000000E+00  0.00000000E+00
  0.00000000E+00  0.00000000E+00  0.00000000E+00
  0.00000000E+00  0.00000000E+00  0.00000000E+00
  0.00000000E+00  0.00000000E+00  0.00000000E+00
  0.00000000E+00  0.00000000E+00  0.00000000E+00
  0.00000000E+00  0.00000000E+00  0.00000000E+00
  0.00000000E+00  0.00000000E+00  0.00000000E+00
  0.00000000E+00  0.00000000E+00  0.00000000E+00
  0.00000000E+00  0.00000000E+00  0.00000000E+00
  0.00000000E+00  0.00000000E+00  0.00000000E+00
  0.00000000E+00  0.00000000E+00  0.00000000E+00
  0.00000000E+00  0.00000000E+00  0.00000000E+00
  0.00000000E+00  0.00000000E+00  0.00000000E+00
  0.00000000E+00  0.00000000E+00  0.00000000E+00
  0.00000000E+00  0.00000000E+00  0.00000000E+00
  0.00000000E+00  0.00000000E+00  0.00000000E+00
  0.00000000E+00  0.00000000E+00  0.00000000E+00
  0.00000000E+00  0.00000000E+00  0.00000000E+00
  0.00000000E+00  0.00000000E+00  0.00000000E+00
  0.00000000E+00  0.00000000E+00  0.00000000E+00
  0.00000000E+00  0.00000000E+00  0.00000000E+00
  0.00000000E+00  0.00000000E+00  0.00000000E+00
  0.00000000E+00  0.00000000E+00  0.00000000E+00
  0.00000000E+00  0.00000000E+00  0.00000000E+00
  0.00000000E+00  0.00000000E+00  0.00000000E+00
  0.00000000E+00  0.00000000E+00  0.00000000E+00
  0.00000000E+00  0.00000000E+00  0.00000000E+00
  0.00000000E+00  0.00000000E+00  0.00000000E+00
  0.00000000E+00  0.00000000E+00  0.00000000E+00
  0.00000000E+00  0.00000000E+00  0.00000000E+00
  0.00000000E+00  0.00000000E+00  0.00000000E+00
  0.00000000E+00  0.00000000E+00  0.00000000E+00
  0.00000000E+00  0.00000000E+00  0.00000000E+00
  0.00000000E+00  0.00000000E+00  0.00000000E+00
  0.00000000E+00  0.00000000E+00  0.00000000E+00
  0.00000000E+00  0.00000000E+00  0.00000000E+00
  0.00000000E+00  0.00000000E+00  0.00000000E+00
  0.00000000E+00  0.00000000E+00  0.00000000E+00
  0.00000000E+00  0.00000000E+00  0.00000000E+00
  0.00000000E+00  0.00000000E+00  0.00000000E+00
  0.00000000E+00  0.00000000E+00  0.00000000E+00
  0.00000000E+00  0.00000000E+00  0.00000000E+00
  0.00000000E+00  0.00000000E+00  0.00000000E+00
  0.00000000E+00  0.00000000E+00  0.00000000E+00
  0.00000000E+00  0.00000000E+00  0.00000000E+00
  0.00000000E+00  0.00000000E+00  0.00000000E+00
  0.00000000E+00  0.00000000E+00  0.00000000E+00
  0.00000000E+00  0.00000000E+00  0.00000000E+00
  0.00000000E+00  0.00000000E+00  0.00000000E+00
  0.00000000E+00  0.00000000E+00  0.00000000E+00
  0.00000000E+00  0.00000000E+00  0.00000000E+00
  0.00000000E+00  0.00000000E+00  0.00000000E+00
  0.00000000E+00  0.00000000E+00  0.00000000E+00
  0.00000000E+00  0.00000000E+00  0.00000000E+00
  0.00000000E+00  0.00000000E+00  0.00000000E+00
  0.00000000E+00  0.00000000E+00  0.00000000E+00
  0.00000000E+00  0.00000000E+00  0.00000000E+00
  0.00000000E+00  0.00000000E+00  0.00000000E+00
  0.00000000E+00  0.00000000E+00  0.00000000E+00
  0.00000000E+00  0.00000000E+00  0.00000000E+00
  0.00000000E+00  0.00000000E+00  0.00000000E+00
  0.00000000E+00  0.00000000E+00  0.00000000E+00
  0.00000000E+00  0.00000000E+00  0.00000000E+00
  0.00000000E+00  0.00000000E+00  0.00000000E+00
  0.00000000E+00  0.00000000E+00  0.00000000E+00
  0.00000000E+00  0.00000000E+00  0.00000000E+00
  0.00000000E+00  0.00000000E+00  0.00000000E+00
  0.00000000E+00  0.00000000E+00  0.00000000E+00
