supercell of icsd_181358.cif            
   1.00000000000000     
    10.3102798456319036    0.0027378300893231   -0.0049559040827161
    -5.1527642192158449    8.9440203740947304    0.0005650739532551
    -0.0051091485118147   -0.0027559126959602   10.4164274182298868
   N    Sc   Ga
    36    18    18
Direct
  0.2069005605947964  0.1024839558983643  0.4476156947597687
  0.1200487610447851  0.2380617694776745  0.1845973935725311
  0.8690383643508426  0.1020836036799508  0.9499900123015124
  0.7976953700026428  0.2332370977381473  0.6927240105351231
  0.5577224464909563  0.1008633741527518  0.4442465052748972
  0.4571461313766747  0.2304926578934854  0.2064391353156836
  0.2385660400030787  0.1130726639040276  0.9543093401447038
  0.0961028483457653  0.2077875184080682  0.7023671286644344
  0.8971065484337899  0.1039807404050563  0.4353650004092131
  0.7717503827633863  0.2315037437435308  0.1945034266562118
  0.5613733985976239  0.1269452072151083  0.9444644672276041
  0.4489907894344398  0.2229609070977574  0.6801483372027946
  0.2088756523046200  0.4226788563373631  0.4549384291418122
  0.1153871799863921  0.5580151206759609  0.2141665787811888
  0.8762365813364354  0.4395442128319615  0.9418156050133817
  0.7861945307126419  0.5453598256833985  0.6850261981689485
  0.5766885341640773  0.4544414943244703  0.4394269137698785
  0.4393863375945557  0.5470628535208348  0.2181697931815449
  0.2234917450862071  0.4486403983492124  0.9327431491100242
  0.1022404747961403  0.5613465129614852  0.6877869856381764
  0.8814287157500047  0.4527228893011070  0.4326686006638383
  0.7796022380775582  0.5586144292096265  0.1896820030127060
  0.5590419870562897  0.4366141324307264  0.9521382295496323
  0.4511696665263898  0.5561082310222147  0.6860726295561079
  0.2326620274229398  0.7988045147982561  0.4413770819303409
  0.0992532787169864  0.8706689769405784  0.1961698982847722
  0.8684790615920335  0.7645903458389185  0.9351925793887190
  0.7834766721773576  0.9069657178863437  0.6862130871120513
  0.5632719040030878  0.7952259695104615  0.4496399885919260
  0.4375511434382560  0.9009545252457798  0.1944515549419350
  0.2150860793709413  0.7708747415957689  0.9343695615063154
  0.1153294990814331  0.8805489767084822  0.6906881233985018
  0.8884813681663530  0.7779411760551085  0.4490597468220798
  0.7875278182365193  0.8789183005624679  0.1889466692022239
  0.5598705350459454  0.7789462234781723  0.9539915651288524
  0.4297278461874683  0.8836404099671640  0.6950819265718522
  0.2177840844021972  0.1074062030055813  0.2391541298895135
  0.1104835961701767  0.2230626881849247  0.9808177658959991
  0.7882533648705774  0.2255896361567338  0.4892250941617746
  0.2285346445215950  0.1072751204711153  0.7420980184603465
  0.8914473212505953  0.1120606578636512  0.2317632466459472
  0.5641989298829699  0.1171109719280636  0.7399187392332820
  0.4456254629106340  0.2215811820872347  0.4798020293393890
  0.1061622467326089  0.5513246457774770  0.0020985782965042
  0.4426041728277355  0.5486797280701339  0.0057401081727377
  0.2189450067652530  0.4452673975564494  0.7281514877082600
  0.1090449977715835  0.5630384288378067  0.4804535237480820
  0.5617207210471449  0.4418547952035112  0.7450247676206416
  0.4500441705390514  0.5575991315689848  0.4803322674704944
  0.0998106375722898  0.8782852858493158  0.9925202655635985
  0.8852255539481533  0.7746532818198517  0.7307901600776816
  0.5581220060515264  0.7861212447522377  0.2441689330600383
  0.4415423544859394  0.8956998147063118  0.9909849088814866
  0.5566008070687829  0.7799131235343140  0.7422984149775331
  0.8835467867477291  0.1116090206382836  0.7538984442547658
  0.5568440482549590  0.1135065806498616  0.2520416286877207
  0.4549380159251371  0.2269392480216368  0.0084426546425647
  0.1001703811669543  0.2062949761663830  0.5050210338643950
  0.7698760210672972  0.2263168730695924  0.0004590278428438
  0.2176626350106474  0.4370302898717071  0.2597761080708167
  0.8926112143002101  0.4454051354864319  0.7491523496559367
  0.7835425737958985  0.5576348683500782  0.4978804752206685
  0.5673447672002325  0.4480927226361047  0.2511193381549006
  0.8825710303358818  0.4487076769001916  0.2474215545263831
  0.7730508603631421  0.5518773231076963  0.9986586413340319
  0.2237078051248247  0.7855047483227438  0.2531174086405770
  0.7831273238151795  0.8977177454774150  0.4971768375719208
  0.2152245697802115  0.7706659777416505  0.7444927828083152
  0.1114981706230083  0.8900126956923202  0.4987936776783073
  0.8878350167585580  0.7708051396596005  0.2540815071213913
  0.7737200448916894  0.8797919500579425  0.9987611871444599
  0.4436761377501881  0.8928616159268614  0.5017755530454480
 
  0.00000000E+00  0.00000000E+00  0.00000000E+00
  0.00000000E+00  0.00000000E+00  0.00000000E+00
  0.00000000E+00  0.00000000E+00  0.00000000E+00
  0.00000000E+00  0.00000000E+00  0.00000000E+00
  0.00000000E+00  0.00000000E+00  0.00000000E+00
  0.00000000E+00  0.00000000E+00  0.00000000E+00
  0.00000000E+00  0.00000000E+00  0.00000000E+00
  0.00000000E+00  0.00000000E+00  0.00000000E+00
  0.00000000E+00  0.00000000E+00  0.00000000E+00
  0.00000000E+00  0.00000000E+00  0.00000000E+00
  0.00000000E+00  0.00000000E+00  0.00000000E+00
  0.00000000E+00  0.00000000E+00  0.00000000E+00
  0.00000000E+00  0.00000000E+00  0.00000000E+00
  0.00000000E+00  0.00000000E+00  0.00000000E+00
  0.00000000E+00  0.00000000E+00  0.00000000E+00
  0.00000000E+00  0.00000000E+00  0.00000000E+00
  0.00000000E+00  0.00000000E+00  0.00000000E+00
  0.00000000E+00  0.00000000E+00  0.00000000E+00
  0.00000000E+00  0.00000000E+00  0.00000000E+00
  0.00000000E+00  0.00000000E+00  0.00000000E+00
  0.00000000E+00  0.00000000E+00  0.00000000E+00
  0.00000000E+00  0.00000000E+00  0.00000000E+00
  0.00000000E+00  0.00000000E+00  0.00000000E+00
  0.00000000E+00  0.00000000E+00  0.00000000E+00
  0.00000000E+00  0.00000000E+00  0.00000000E+00
  0.00000000E+00  0.00000000E+00  0.00000000E+00
  0.00000000E+00  0.00000000E+00  0.00000000E+00
  0.00000000E+00  0.00000000E+00  0.00000000E+00
  0.00000000E+00  0.00000000E+00  0.00000000E+00
  0.00000000E+00  0.00000000E+00  0.00000000E+00
  0.00000000E+00  0.00000000E+00  0.00000000E+00
  0.00000000E+00  0.00000000E+00  0.00000000E+00
  0.00000000E+00  0.00000000E+00  0.00000000E+00
  0.00000000E+00  0.00000000E+00  0.00000000E+00
  0.00000000E+00  0.00000000E+00  0.00000000E+00
  0.00000000E+00  0.00000000E+00  0.00000000E+00
  0.00000000E+00  0.00000000E+00  0.00000000E+00
  0.00000000E+00  0.00000000E+00  0.00000000E+00
  0.00000000E+00  0.00000000E+00  0.00000000E+00
  0.00000000E+00  0.00000000E+00  0.00000000E+00
  0.00000000E+00  0.00000000E+00  0.00000000E+00
  0.00000000E+00  0.00000000E+00  0.00000000E+00
  0.00000000E+00  0.00000000E+00  0.00000000E+00
  0.00000000E+00  0.00000000E+00  0.00000000E+00
  0.00000000E+00  0.00000000E+00  0.00000000E+00
  0.00000000E+00  0.00000000E+00  0.00000000E+00
  0.00000000E+00  0.00000000E+00  0.00000000E+00
  0.00000000E+00  0.00000000E+00  0.00000000E+00
  0.00000000E+00  0.00000000E+00  0.00000000E+00
  0.00000000E+00  0.00000000E+00  0.00000000E+00
  0.00000000E+00  0.00000000E+00  0.00000000E+00
  0.00000000E+00  0.00000000E+00  0.00000000E+00
  0.00000000E+00  0.00000000E+00  0.00000000E+00
  0.00000000E+00  0.00000000E+00  0.00000000E+00
  0.00000000E+00  0.00000000E+00  0.00000000E+00
  0.00000000E+00  0.00000000E+00  0.00000000E+00
  0.00000000E+00  0.00000000E+00  0.00000000E+00
  0.00000000E+00  0.00000000E+00  0.00000000E+00
  0.00000000E+00  0.00000000E+00  0.00000000E+00
  0.00000000E+00  0.00000000E+00  0.00000000E+00
  0.00000000E+00  0.00000000E+00  0.00000000E+00
  0.00000000E+00  0.00000000E+00  0.00000000E+00
  0.00000000E+00  0.00000000E+00  0.00000000E+00
  0.00000000E+00  0.00000000E+00  0.00000000E+00
  0.00000000E+00  0.00000000E+00  0.00000000E+00
  0.00000000E+00  0.00000000E+00  0.00000000E+00
  0.00000000E+00  0.00000000E+00  0.00000000E+00
  0.00000000E+00  0.00000000E+00  0.00000000E+00
  0.00000000E+00  0.00000000E+00  0.00000000E+00
  0.00000000E+00  0.00000000E+00  0.00000000E+00
  0.00000000E+00  0.00000000E+00  0.00000000E+00
  0.00000000E+00  0.00000000E+00  0.00000000E+00
