generated by phonopy                    
   1.00000000000000     
    10.0351470768999995   -0.0000022330999784   -0.0000001056124209
    -5.0175765436399997    8.6906901959899994    0.0000001395531216
    -0.0000001735893656    0.0000001431815548   14.9533752540999991
   O    Pb   P 
    51    19    12
Direct
  0.0092831853609425  0.8189745797809422  0.1269586269814340
  0.4941000108362488  0.6519106978160991  0.1241719249502182
  0.4999864567723691  0.6473612903317658  0.6239432329676760
  0.4772662002011714  0.3271076670418438  0.3718502556213323
  0.4776332044953904  0.3277410831641490  0.8765510029376244
  0.3585342033247159  0.8548052450097501  0.1238935458011667
  0.3561149196297038  0.8572654894837299  0.6236320973941005
  0.6862537685260364  0.1578238306706226  0.3741390749818407
  0.6861180304473962  0.1575507124226618  0.8741699769119364
  0.1487805018975052  0.4823890683285583  0.1241037325758683
  0.1475260484439431  0.4987777425667517  0.6237332197685674
  0.8533307810201265  0.5378148728195242  0.3735332580168915
  0.8532820667389629  0.5374182165752330  0.8753889455519968
  0.7004883333859411  0.6276051896388424  0.0358562096947921
  0.7289049879048051  0.6571315082534426  0.5390923424793428
  0.2568438828414443  0.3409551330682916  0.4534635543191641
  0.2675982853009344  0.3533286158050970  0.9633673892623165
  0.3465060578499930  0.0761577314919464  0.0396765137806341
  0.3485477281356069  0.0782156784237102  0.5389294013094315
  0.6575273004790105  0.9155499901043811  0.4541066863799514
  0.6489502828700964  0.9178692754224969  0.9618872940340921
  0.9240211516045562  0.2579966988237388  0.0402661519121210
  0.9293404917291781  0.2672909980233058  0.5398006154928510
  0.0921133119700741  0.7377059803439039  0.4620560070693429
  0.1068459540456033  0.7379472392365471  0.9538937236031728
  0.2651649181345093  0.3497565155626106  0.2855386115822327
  0.2553600982852302  0.3383794209013615  0.7954434820081886
  0.7050218971865050  0.6326749548674897  0.2107606894926448
  0.7297471962549835  0.6590367935570285  0.7087477532296234
  0.6515322900968030  0.9188919860435973  0.2867231824451437
  0.6590227234244423  0.9159310641777338  0.7944516493849676
  0.3421186943006091  0.0741133546678370  0.2076201729138063
  0.3459241249673397  0.0766523471573706  0.7083708854139132
  0.1064947432575636  0.7382021389035529  0.2947843153751393
  0.0910591429485450  0.7384637256984448  0.7867092469993011
  0.9239230938051506  0.2588245530706459  0.2085212566671757
  0.9309185947474390  0.2666447269751018  0.7079449857627296
  0.5137830420951133  0.4023415298964821  0.1258017572933738
  0.5437925526226834  0.4156486702525939  0.6246914984070955
  0.4676955652052044  0.5779515961016628  0.3755065201102070
  0.4676643128411939  0.5782675023414043  0.8704672680449761
  0.5859958079554559  0.1256582545553897  0.1257212897267763
  0.5887794848264036  0.1318782591842265  0.6246996207973083
  0.4275836354603797  0.9033054771136051  0.3750016972500774
  0.4273071780169673  0.9030701162160284  0.8714654996147146
  0.8793245867058204  0.4546867855969907  0.1240104977656671
  0.8710778748419727  0.4524192243244727  0.6247327145173642
  0.0981229236120313  0.5172640031591911  0.3806706304348140
  0.0984146195697448  0.5177272886031190  0.8669105228049716
  0.9928050670041557  0.9351535874904826  0.1041225959772518
  0.0010017223589500  0.9994331502703844  0.6213424553482483
  0.9954714362736041  0.7691040816676491  0.6236453881994493
  0.0005922340921600  0.2554968076943922  0.3785354011306481
  0.0005304681851044  0.2558022817189780  0.8695209086582665
  0.2522098140890208  0.2462383833071726  0.1243446534644832
  0.2293103397833676  0.2244104586079843  0.6237031685872481
  0.7309745158802841  0.7390003858232745  0.3693721734604765
  0.7310240239166177  0.7392748718315048  0.8780367005011271
  0.7345004981458843  0.0062292679168507  0.1242231733850758
  0.7757644324222355  0.0014804708987484  0.6233277998127420
  0.2589261275666317  0.9946507288877058  0.3696863155477317
  0.2586217122428849  0.9943836532905053  0.8786822398454532
  0.6830046907248288  0.3627922111415884  0.9999534992697434
  0.6631478464066234  0.3332255552473384  0.5014713090839464
  0.3166500955211760  0.6645799176121443  0.0035546262259487
  0.3338491033436739  0.6692879043156736  0.5042051001084431
  0.3156188526185559  0.6651833383746393  0.2442689603784984
  0.3338692154038014  0.6702707261083347  0.7436335080512606
  0.6844394391332713  0.3625190806914986  0.2481013633831637
  0.6633985639522351  0.3331133823089729  0.7470346339243221
  0.6062788617166674  0.5870343907443285  0.1240965020953766
  0.6237820126488600  0.5963505566670406  0.6241404586284958
  0.3685061729241923  0.3955847354145732  0.3713292049284860
  0.3687078063879810  0.3960370319869000  0.8767646999245713
  0.4033631844871195  0.0276176232669982  0.1241489358464989
  0.4079930950391670  0.0321965952506602  0.6239544684166916
  0.6089311333817875  0.9797275814006312  0.3726292775119617
  0.6086174580234314  0.9794621940354205  0.8754464226435843
  0.9705248142482503  0.3664564476807399  0.1241758755598497
  0.9729380296724770  0.3744748976718668  0.6240823637856394
  0.0322077280824331  0.6318670064089034  0.3776763265372551
  0.0321582437256893  0.6320489412620631  0.8708898818828033
 
  0.00000000E+00  0.00000000E+00  0.00000000E+00
  0.00000000E+00  0.00000000E+00  0.00000000E+00
  0.00000000E+00  0.00000000E+00  0.00000000E+00
  0.00000000E+00  0.00000000E+00  0.00000000E+00
  0.00000000E+00  0.00000000E+00  0.00000000E+00
  0.00000000E+00  0.00000000E+00  0.00000000E+00
  0.00000000E+00  0.00000000E+00  0.00000000E+00
  0.00000000E+00  0.00000000E+00  0.00000000E+00
  0.00000000E+00  0.00000000E+00  0.00000000E+00
  0.00000000E+00  0.00000000E+00  0.00000000E+00
  0.00000000E+00  0.00000000E+00  0.00000000E+00
  0.00000000E+00  0.00000000E+00  0.00000000E+00
  0.00000000E+00  0.00000000E+00  0.00000000E+00
  0.00000000E+00  0.00000000E+00  0.00000000E+00
  0.00000000E+00  0.00000000E+00  0.00000000E+00
  0.00000000E+00  0.00000000E+00  0.00000000E+00
  0.00000000E+00  0.00000000E+00  0.00000000E+00
  0.00000000E+00  0.00000000E+00  0.00000000E+00
  0.00000000E+00  0.00000000E+00  0.00000000E+00
  0.00000000E+00  0.00000000E+00  0.00000000E+00
  0.00000000E+00  0.00000000E+00  0.00000000E+00
  0.00000000E+00  0.00000000E+00  0.00000000E+00
  0.00000000E+00  0.00000000E+00  0.00000000E+00
  0.00000000E+00  0.00000000E+00  0.00000000E+00
  0.00000000E+00  0.00000000E+00  0.00000000E+00
  0.00000000E+00  0.00000000E+00  0.00000000E+00
  0.00000000E+00  0.00000000E+00  0.00000000E+00
  0.00000000E+00  0.00000000E+00  0.00000000E+00
  0.00000000E+00  0.00000000E+00  0.00000000E+00
  0.00000000E+00  0.00000000E+00  0.00000000E+00
  0.00000000E+00  0.00000000E+00  0.00000000E+00
  0.00000000E+00  0.00000000E+00  0.00000000E+00
  0.00000000E+00  0.00000000E+00  0.00000000E+00
  0.00000000E+00  0.00000000E+00  0.00000000E+00
  0.00000000E+00  0.00000000E+00  0.00000000E+00
  0.00000000E+00  0.00000000E+00  0.00000000E+00
  0.00000000E+00  0.00000000E+00  0.00000000E+00
  0.00000000E+00  0.00000000E+00  0.00000000E+00
  0.00000000E+00  0.00000000E+00  0.00000000E+00
  0.00000000E+00  0.00000000E+00  0.00000000E+00
  0.00000000E+00  0.00000000E+00  0.00000000E+00
  0.00000000E+00  0.00000000E+00  0.00000000E+00
  0.00000000E+00  0.00000000E+00  0.00000000E+00
  0.00000000E+00  0.00000000E+00  0.00000000E+00
  0.00000000E+00  0.00000000E+00  0.00000000E+00
  0.00000000E+00  0.00000000E+00  0.00000000E+00
  0.00000000E+00  0.00000000E+00  0.00000000E+00
  0.00000000E+00  0.00000000E+00  0.00000000E+00
  0.00000000E+00  0.00000000E+00  0.00000000E+00
  0.00000000E+00  0.00000000E+00  0.00000000E+00
  0.00000000E+00  0.00000000E+00  0.00000000E+00
  0.00000000E+00  0.00000000E+00  0.00000000E+00
  0.00000000E+00  0.00000000E+00  0.00000000E+00
  0.00000000E+00  0.00000000E+00  0.00000000E+00
  0.00000000E+00  0.00000000E+00  0.00000000E+00
  0.00000000E+00  0.00000000E+00  0.00000000E+00
  0.00000000E+00  0.00000000E+00  0.00000000E+00
  0.00000000E+00  0.00000000E+00  0.00000000E+00
  0.00000000E+00  0.00000000E+00  0.00000000E+00
  0.00000000E+00  0.00000000E+00  0.00000000E+00
  0.00000000E+00  0.00000000E+00  0.00000000E+00
  0.00000000E+00  0.00000000E+00  0.00000000E+00
  0.00000000E+00  0.00000000E+00  0.00000000E+00
  0.00000000E+00  0.00000000E+00  0.00000000E+00
  0.00000000E+00  0.00000000E+00  0.00000000E+00
  0.00000000E+00  0.00000000E+00  0.00000000E+00
  0.00000000E+00  0.00000000E+00  0.00000000E+00
  0.00000000E+00  0.00000000E+00  0.00000000E+00
  0.00000000E+00  0.00000000E+00  0.00000000E+00
  0.00000000E+00  0.00000000E+00  0.00000000E+00
  0.00000000E+00  0.00000000E+00  0.00000000E+00
  0.00000000E+00  0.00000000E+00  0.00000000E+00
  0.00000000E+00  0.00000000E+00  0.00000000E+00
  0.00000000E+00  0.00000000E+00  0.00000000E+00
  0.00000000E+00  0.00000000E+00  0.00000000E+00
  0.00000000E+00  0.00000000E+00  0.00000000E+00
  0.00000000E+00  0.00000000E+00  0.00000000E+00
  0.00000000E+00  0.00000000E+00  0.00000000E+00
  0.00000000E+00  0.00000000E+00  0.00000000E+00
  0.00000000E+00  0.00000000E+00  0.00000000E+00
  0.00000000E+00  0.00000000E+00  0.00000000E+00
  0.00000000E+00  0.00000000E+00  0.00000000E+00
