Mg   Mo   N                             
   1.00000000000000     
     4.7158439549190403   -0.0000001049831448   -0.0000000422183082
     0.0014300365848007   -6.0708808966314294   -0.0000000171355820
     0.0001379809228887   -0.0207495031710557   -7.0227707286933541
   Mg   Mo   N 
     6     2     8
Direct
  0.8970898285236970  0.8529690076259939  0.7536155678550926
  0.8971199484698715  0.8530532274980587  0.2653301742714191
  0.8968130290206702  0.3545658320487277  0.0102082009197488
  0.3971731332472430  0.1869594544428068  0.2546819708437056
  0.3971430872246628  0.1870368485885976  0.7663756395338694
  0.3968129117434245  0.6854443115507962  0.5097902393468416
  0.3611539539958741  0.6899375472590705  0.0098018748301172
  0.8612076400072795  0.3500642649534171  0.5101986431792795
  0.9674757527573377  0.6923836562392651  0.0098764488947083
  0.9412355132836652  0.1970234281005432  0.2793501989668385
  0.9411261617188273  0.1971340731164446  0.7417883177759919
  0.4411785628150824  0.8429646188814814  0.2406439075750555
  0.4410736595495237  0.8428486914645035  0.7782139773193251
  0.4404032992598772  0.3824154759933336  0.0101264835997767
  0.9403801315541571  0.6575692327187426  0.5098726281709389
  0.4675317404546746  0.3476303283497089  0.5101257269683188
 
  0.00000000E+00  0.00000000E+00  0.00000000E+00
  0.00000000E+00  0.00000000E+00  0.00000000E+00
  0.00000000E+00  0.00000000E+00  0.00000000E+00
  0.00000000E+00  0.00000000E+00  0.00000000E+00
  0.00000000E+00  0.00000000E+00  0.00000000E+00
  0.00000000E+00  0.00000000E+00  0.00000000E+00
  0.00000000E+00  0.00000000E+00  0.00000000E+00
  0.00000000E+00  0.00000000E+00  0.00000000E+00
  0.00000000E+00  0.00000000E+00  0.00000000E+00
  0.00000000E+00  0.00000000E+00  0.00000000E+00
  0.00000000E+00  0.00000000E+00  0.00000000E+00
  0.00000000E+00  0.00000000E+00  0.00000000E+00
  0.00000000E+00  0.00000000E+00  0.00000000E+00
  0.00000000E+00  0.00000000E+00  0.00000000E+00
  0.00000000E+00  0.00000000E+00  0.00000000E+00
  0.00000000E+00  0.00000000E+00  0.00000000E+00
