Mg   Mo   N
1.0
  7.11774905631429 -0.1048814302586795 0.001549974117138
  1.71355806e-08 6.1498858038785755 -0.0068258141909741
  -4.22183091e-08 -1.049831455e-07 4.492893728861631
 Mg  Mo  N 
6 2 8 
direct
   -0.7561386849650089  -0.8533944338849295   0.9235681211073935
   -0.2688422184321340  -0.8530846931772661   0.9236834710615792
   -0.0091621118579752  -0.3540289844840814   0.9243131514232132
   -0.2506099585383125  -0.1865842848286263   0.4251841924094961
   -0.7644229917393375  -0.1861945476394524   0.4250002277583745
   -0.5108312016672227  -0.6866993242764254   0.4258301863884810
   -0.0108587237751578  -0.6897973593559003   0.4676324174370733
   -0.5091520005090899  -0.3501671942691760   0.9707705138400295
   -0.0104351362260076  -0.6918984660449825   0.8842009175451863
   -0.2762563961814947  -0.1972219530725071   0.9052659278378526
   -0.7384386857522569  -0.1966583208192177   0.9049086335002766
   -0.2438047403576318  -0.8428837296511208   0.4049951622058927
   -0.7814690352100514  -0.8433702930782235   0.4046458190663029
   -0.0095140607187645  -0.3817575880256356   0.4051853406565228
   -0.5104786557951397  -0.6582350863534858   0.9056665764955266
   -0.5095853980132004  -0.3480237458457296   0.3850113682569116
