Mg   Mo   N
1.0
  7.14439163066729 -0.1263496590072943 0.0027691310757259
  -1.71355808e-08 -6.1685370940267 0.0122916406181079
  -4.22183089e-08 -1.049831454e-07 4.408981799634358
 Mg  Mo  N 
6 2 8 
direct
   -0.7592081909692182   0.8519028441390830   0.9163034566589233
   -0.2672899853996995   0.8515383276821565   0.9162699476699813
   -0.0087000957074821   0.3571413134916312   0.9163219674607890
   -0.2497878918959913   0.1866462050051609   0.4230448774318631
   -0.7636648179588547   0.1861468732911362   0.4227850530310774
   -0.5113324803056969   0.6867841315291656   0.4237075434924549
   -0.0112864850305527   0.6899121295595165   0.4325402030970267
   -0.5087656321311087   0.3500475027704084   0.9690123497633537
   -0.0107606840660353   0.6920107679040298   0.9064079147245963
   -0.2753365220500044   0.1969490979722721   0.9099450405465105
   -0.7377448014542125   0.1959594080145592   0.9095902727375744
   -0.2451427611773696   0.8433114914625079   0.4127505059929960
   -0.7817443992424559   0.8440695875975806   0.4126319352726355
   -0.0091837121172560   0.3807163652121091   0.4116001867472292
   -0.5107966534696970   0.6589129228780379   0.9108432252376775
   -0.5092548866677689   0.3479510381222893   0.3924019047866736
