Mg   Mo   N
1.0
  6.975148552641102 -0.0195407880491981 8.87189238433e-05
  1.713558e-08 6.0303370453844645 -0.0007987899873998
  -4.22183095e-08 -1.049831458e-07 4.827004430068041
 Mg  Mo  N 
6 2 8 
direct
   -0.7552622378268552  -0.8526876868794417   0.9462280787853670
   -0.2657651244722884  -0.8526039545598399   0.9462575819263536
   -0.0097616817593433  -0.3553137011237411   0.9463122501643895
   -0.2542329463942892  -0.1873929709939901   0.4462758947779408
   -0.7647417815096632  -0.1873059806035542   0.4462469248683902
   -0.5102375198550959  -0.6846755615331050   0.4462961663037106
   -0.0102104480712626  -0.6900566582077658   0.4757192314573473
   -0.5097897920615677  -0.3499425824767714   0.9757307254051002
   -0.0101397952330800  -0.6926081839144089   0.8603508932896066
   -0.2782078642947141  -0.1971465277336790   0.8890558029965021
   -0.7406501002409129  -0.1970221503107865   0.8889404415090427
   -0.2417928847457418  -0.8428632093821449   0.3890343413657575
   -0.7793468937790493  -0.8429851799072740   0.3889164110111096
   -0.0098606487925750  -0.3827364402964477   0.3897941320064717
   -0.5101389542577266  -0.6572739409817321   0.8897689755041328
   -0.5098613266318566  -0.3473852723198760   0.3603632809810123
