Mg   Mo   N
1.0
  7.023132679140586 -0.0268928000727602 0.0001853313533438
  1.71355802e-08 6.071485051657141 -0.0014520512521869
  -4.22183093e-08 -1.049831457e-07 4.714647821842616
 Mg  Mo  N 
6 2 8 
direct
   -0.7548524433610666  -0.8530593279531473   0.9383871376061277
   -0.2665649602917100  -0.8529628067011856   0.9384181774250563
   -0.0097013939443968  -0.3545570920967194   0.9387516577449591
   -0.2534257425365922  -0.1870328237143823   0.4384707924411089
   -0.7651591513591994  -0.1869282251251789   0.4384391398591204
   -0.5102957865370357  -0.6854326488269183   0.4387504241423841
   -0.0102751298592025  -0.6899361680003012   0.4744171292411110
   -0.5097260399270025  -0.3500616697063776   0.9744728103132588
   -0.0101845854522864  -0.6923672832810013   0.8681953259752219
   -0.2780199221375809  -0.1971715488019186   0.8946430655517831
   -0.7404522242597265  -0.1970047972473523   0.8945129428528202
   -0.2419825730022254  -0.8428457837901963   0.3945882886394971
   -0.7795420830127000  -0.8430065807045680   0.3944524889292680
   -0.0098143853579415  -0.3824359173487721   0.3953198823460369
   -0.5101851123542787  -0.6575793466074275   0.8952986361802714
   -0.5098184665065516  -0.3476179818273054   0.3682542272392197
