Mg   Mo   N
1.0
  6.874065477380374 -0.0111596993353764 3.3231545005e-05
  1.71355796e-08 5.9424456075788274 -0.0002840796907368
  -4.22183097e-08 -1.04983146e-07 5.059121714565624
 Mg  Mo  N 
6 2 8 
direct
   -0.7564250955269994  -0.8518117849757447   0.9606726784839519
   -0.2641184311444105  -0.8517442245695432   0.9607002140486784
   -0.0098849235696647  -0.3569815099148741   0.9603039384352666
   -0.2558815117616433  -0.1882536032236999   0.4607051632837055
   -0.7635759561871325  -0.1881850949162995   0.4606781474189390
   -0.5101148942500087  -0.6830136338471891   0.4602949647378976
   -0.0101037220919764  -0.6903533906709002   0.4777338858135351
   -0.5098964078748052  -0.3496462572425827   0.9777345467036936
   -0.0100621047121336  -0.6930270730382803   0.8454975057765708
   -0.2783261020934447  -0.1969549365249108   0.8790269732301822
   -0.7410553347881358  -0.1969035749290953   0.8789533967849081
   -0.2416738238848452  -0.8430490933011188   0.3790214956066291
   -0.7789436032599536  -0.8430996415640737   0.3789471944456935
   -0.0099378985510583  -0.3831450741881000   0.3797182083430997
   -0.5100619589061279  -0.6568594462401478   0.8797074053661403
   -0.5099382313559528  -0.3469716614614597   0.3454981962553845
