
1.0
  6.76784905542 0.0 0.0
  0.0 5.851958618670001 0.0
  0.0 0.0 5.283530218380002
 Mg  Mo  N 
6 2 8 
direct
    0.7522562330255091   0.8308707194669651   0.8182098053504134
    0.2477437669744909   0.8308707194669651   0.8182098053504134
    0.5000000000000000   0.3389368250364555   0.8189975506901559
    0.2522562330255091   0.1691292805330349   0.3182098053504134
    0.7477437669744910   0.1691292805330349   0.3182098053504134
    0.0000000000000000   0.6610631749635445   0.3189975506901558
    0.5000000000000000   0.6708048191798639   0.3106934930417963
    0.0000000000000000   0.3291951808201361   0.8106934930417963
    0.5000000000000000   0.6734262063930956   0.9571114534235574
    0.2319283886962929   0.1765022264592986   0.9184416517518270
    0.7680716113037072   0.1765022264592986   0.9184416517518270
    0.2680716113037071   0.8234977735407014   0.4184416517518270
    0.7319283886962928   0.8234977735407014   0.4184416517518270
    0.5000000000000000   0.3632841399004221   0.4178187558259339
    0.0000000000000000   0.6367158600995779   0.9178187558259339
    0.0000000000000000   0.3265737936069044   0.4571114534235574
