Mg   Mo   N
1.0
  6.76784905542 1.88370511e-08 -5.44758271e-08
  1.71355786e-08 5.85195861867 -1.164856548e-07
  -4.22183104e-08 -1.049831465e-07 5.28353021838
 Mg  Mo  N 
6 2 8 
direct
   -0.7577437712592499  -0.8508707211631616   0.0174276752474682
   -0.2622562315620200  -0.8508707130946291   0.0174276801027631
   -0.0100000012474624  -0.3589368267326451   0.0166399299077256
   -0.2577437605570481  -0.1891292833464107   0.5174276998382012
   -0.7622562370044645  -0.1891292893159076   0.5174276981240525
   -0.5099999993919939  -0.6810631819098492   0.5166399591591428
   -0.0100000073828355  -0.6908048208760534   0.5249439875560854
   -0.5100000011866825  -0.3491951825163255   0.0249441249687052
   -0.0099999997612201  -0.6934262080892850   0.8785260271743240
   -0.2780716155884662  -0.1965022281554882   0.9171958288460547
   -0.7419283782588764  -0.1965022377049266   0.9171958291805636
   -0.2419283764306570  -0.8434977551977096   0.4171958254204852
   -0.7780716230172403  -0.8434977632190268   0.4171958201031246
   -0.0100000024090292  -0.3832841415966117   0.4178187247719479
   -0.5099999986470535  -0.6567158543315020   0.9178187787460248
   -0.5099999962769104  -0.3465737927322012   0.3785261004194211
