Mg   Mo   N
1.0
  6.925928011849329 -0.015240525950452 5.11511628289e-05
  1.71355798e-08 5.98759982738932 -0.0004760383636916
  -4.22183096e-08 -1.049831459e-07 4.94155203050236
 Mg  Mo  N 
6 2 8 
direct
   -0.7558019073295271  -0.8522700451330966   0.9537258506939139
   -0.2649796249763767  -0.8521920771039576   0.9537553453771533
   -0.0098261117462428  -0.3561100285423890   0.9535687943512415
   -0.2550199409304028  -0.1878052445177261   0.4537642876103831
   -0.7642000658749949  -0.1877255996520546   0.4537354104723903
   -0.5101735048699041  -0.6838824586739282   0.4535553835720306
   -0.0101551243983806  -0.6901939253244154   0.4767798536413038
   -0.5098449589854042  -0.3498055330036181   0.9767823606630870
   -0.0101003825354908  -0.6928267596744534   0.8527757520565941
   -0.2783094104996520  -0.1970791186127983   0.8837979153305894
   -0.7408164247764688  -0.1969930913583369   0.8837019016187638
   -0.2416906766646107  -0.8429271280682401   0.3837876513327246
   -0.7791817715528494  -0.8430118442559831   0.3836903773943449
   -0.0099002739093734  -0.3829826300538742   0.3845290686024114
   -0.5100995450465220  -0.6570242931288848   0.8845115570536919
   -0.5099002758467036  -0.3471702237982370   0.3527784938534992
