Mg   Mo   N
1.0
  6.768321832307429 -4.86383406047e-05 -2.764861923e-07
  -1.71355792e-08 -5.85127906428749 1.6105281475e-06
  -4.221831e-08 -1.049831462e-07 5.282945488317319
 Mg  Mo  N 
6 2 8 
direct
   -0.7577792626390830   0.8508476228526830   0.9788701212026965
   -0.2622229162545011   0.8508471732195345   0.9788703512837101
   -0.0099995492425009   0.3587989665412649   0.9781032386265520
   -0.2577770617630505   0.1891526984579315   0.4788703776439434
   -0.7622207540234596   0.1891523696395722   0.4788701616293877
   -0.5100005150071992   0.6812009415072708   0.4781031872081130
   -0.0100003959231216   0.6907386665106329   0.4864464783471830
   -0.5099995400649674   0.3492614013794437   0.9864464972852788
   -0.0100001580008211   0.6933196814166890   0.8400487794882210
   -0.2781031385333604   0.1965104116666154   0.8786998606826371
   -0.7418942445452712   0.1965103170891210   0.8786994543328743
   -0.2418969400800961   0.8434895258910799   0.3786998189683998
   -0.7781057942844711   0.8434897865827792   0.3786993211582582
   -0.0099997810240424   0.3831754978234727   0.3793072583123730
   -0.5100001951545892   0.6568247128165652   0.8793072386609780
   -0.5099997534385351   0.3466802265727010   0.3400487920429143
