Mg   Mo   N
1.0
  6.974883593486763 0.0146859267074665 -7.50858516185e-05
  1.71355822e-08 6.029888144279853 -0.0007821633501335
  -4.2218308e-08 -1.049831447e-07 4.827876657373934
 Mg  Mo  N 
6 2 8 
direct
   -0.7543865349817480  -0.8526079152918695   0.8893122425268987
   -0.2648831637578082  -0.8526767178829715   0.8893347172025586
   -0.0101448432987397  -0.3553200836101240   0.8892907866878090
   -0.2551207282912882  -0.1873294576588904   0.3893536669458513
   -0.7656114608393092  -0.1873953945366083   0.3893306271123151
   -0.5098545199236071  -0.6846903345267847   0.3892754207890621
   -0.0098632797122775  -0.6900569245790888   0.3599002370413587
   -0.5101369312525106  -0.3499438049180910   0.8599116116569618
   -0.0099171942682830  -0.6926144805045876   0.9753316935926366
   -0.2791784470302756  -0.1970420399599959   0.9467450287836955
   -0.7416213678829844  -0.1971146434901669   0.9466631234278895
   -0.2408187692406684  -0.8429506627289883   0.4467216713465731
   -0.7783794641055972  -0.8428759261910839   0.4466419229105298
   -0.0100842986711243  -0.3827218097584577   0.4459103136951298
   -0.5099152248670078  -0.6572680615007227   0.9458857898044571
   -0.5100837719165054  -0.3473917419098100   0.4753440430501217
