Mg   Mo   N                             
   1.00000000000000     
     5.2835302183800001   -0.0000001049831465   -0.0000000422183104
     0.0000001164856548   -5.8519586186700003   -0.0000000171355786
     0.0000000544758271   -0.0000000188370511   -6.7678490554200001
   Mg   Mo   N 
     6     2     8
Direct
  0.0174276752474682  0.8508707211631616  0.7577437712592499
  0.0174276801027631  0.8508707130946291  0.2622562315620200
  0.0166399299077256  0.3589368267326449  0.0100000012474624
  0.5174276998382012  0.1891292833464107  0.2577437605570481
  0.5174276981240524  0.1891292893159076  0.7622562370044648
  0.5166399591591428  0.6810631819098489  0.5099999993919937
  0.5249439875560853  0.6908048208760533  0.0100000073828355
  0.0249441249687052  0.3491951825163255  0.5100000011866825
  0.8785260271743240  0.6934262080892850  0.0099999997612201
  0.9171958288460544  0.1965022281554880  0.2780716155884662
  0.9171958291805637  0.1965022377049266  0.7419283782588764
  0.4171958254204853  0.8434977551977099  0.2419283764306570
  0.4171958201031245  0.8434977632190268  0.7780716230172402
  0.4178187247719478  0.3832841415966115  0.0100000024090292
  0.9178187787460246  0.6567158543315017  0.5099999986470536
  0.3785261004194211  0.3465737927322010  0.5099999962769104
 
  0.00000000E+00  0.00000000E+00  0.00000000E+00
  0.00000000E+00  0.00000000E+00  0.00000000E+00
  0.00000000E+00  0.00000000E+00  0.00000000E+00
  0.00000000E+00  0.00000000E+00  0.00000000E+00
  0.00000000E+00  0.00000000E+00  0.00000000E+00
  0.00000000E+00  0.00000000E+00  0.00000000E+00
  0.00000000E+00  0.00000000E+00  0.00000000E+00
  0.00000000E+00  0.00000000E+00  0.00000000E+00
  0.00000000E+00  0.00000000E+00  0.00000000E+00
  0.00000000E+00  0.00000000E+00  0.00000000E+00
  0.00000000E+00  0.00000000E+00  0.00000000E+00
  0.00000000E+00  0.00000000E+00  0.00000000E+00
  0.00000000E+00  0.00000000E+00  0.00000000E+00
  0.00000000E+00  0.00000000E+00  0.00000000E+00
  0.00000000E+00  0.00000000E+00  0.00000000E+00
  0.00000000E+00  0.00000000E+00  0.00000000E+00
