Mg   Mo   N
1.0
  7.145221781419802 0.0580799697713479 -0.0014896076802998
  -1.71355812e-08 -6.165814643248319 0.0127553536106872
  -4.22183087e-08 -1.049831452e-07 4.427187206359817
 Mg  Mo  N 
6 2 8 
direct
   -0.7514592502464693   0.8534547138367116   0.9116707714064345
   -0.2656401138293276   0.8536789434469084   0.9117832999504926
   -0.0105551710490417   0.3530580326810621   0.9110012099318681
   -0.2562625442646791   0.1876139342057570   0.4214033927815493
   -0.7666269241616986   0.1877882070929360   0.4214666645066956
   -0.5094455211674144   0.6841840611811348   0.4217532605315242
   -0.0094682230946219   0.6900555360130056   0.3654936880603046
   -0.5105452874560541   0.3500317329690574   0.9575468980023983
   -0.0097050187347065   0.6921757012402593   0.9439724663683149
   -0.2800862737253453   0.1963670128094464   0.9156639476726056
   -0.7429973171443578   0.1966907786358334   0.9156979562115380
   -0.2396537877658531   0.8435805800142973   0.4247343053195820
   -0.7772566886832734   0.8431777477277578   0.4246103163273672
   -0.0103163841009888   0.3812216365733860   0.4230260751049215
   -0.5096788388310854   0.6591019228437459   0.9174080188092687
   -0.5103026558763517   0.3478194560220160   0.3974398489214650
