Mg   Mo   N
1.0
  6.76802133293148 -6.99600234e-07 4.891341791e-07
  1.71355832e-08 5.851030853913756 4.342044484e-07
  -4.22183074e-08 -1.049831442e-07 5.28353019325798
 Mg  Mo  N 
6 2 8 
direct
   -0.7577828788398833  -0.8508449440682071   0.8438856324267690
   -0.2622170977273015  -0.8508448802801214   0.8438855971068125
   -0.0099999697950466  -0.3588043266547203   0.8446537210024586
   -0.2577828776643968  -0.1891550208809676   0.3438856491859283
   -0.7622171260037903  -0.1891550643393743   0.3438856375875546
   -0.5100000809781733  -0.6811955644516843   0.3446537460366912
   -0.0100000168320875  -0.6907400305161884   0.3363318287607199
   -0.5099999011820201  -0.3492600556898111   0.8363319313830360
   -0.0099999472914902  -0.6933202274443035   0.9827635760253486
   -0.2781022551336321  -0.1965085665540443   0.9440990912189733
   -0.7418976581765691  -0.1965086540153962   0.9440990983107439
   -0.2418978383357739  -0.8434913506442644   0.4440990038925038
   -0.7781023954996512  -0.8434914455904520   0.4440990941871803
   -0.0099999954701886  -0.3831753734148720   0.4434916575132349
   -0.5099999497146328  -0.6568248367753569   0.9434916513593025
   -0.5100000113567660  -0.3466796586946472   0.4827636787559229
