Mg   Mo   N
1.0
  6.818485593000376 -0.0060046683227034 1.79697704151e-05
  1.71355794e-08 5.8942608926855895 -0.000137744724419
  -4.22183099e-08 -1.049831461e-07 5.179772979779875
 Mg  Mo  N 
6 2 8 
direct
   -0.7571339756831459  -0.8513073821366177   0.9669932171883177
   -0.2631431893199405  -0.8512651050690039   0.9670120803206359
   -0.0099444538162956  -0.3579367341572421   0.9664187735389689
   -0.2568568597027081  -0.1887334778373529   0.4670143479557325
   -0.7628665177284897  -0.1886908256417499   0.4669958269249648
   -0.5100555088060901  -0.6820606965261434   0.4664141875538378
   -0.0100502753158977  -0.6905438424844519   0.4786425873426694
   -0.5099497682746871  -0.3494560112761320   0.9786426211467687
   -0.0100274949939276  -0.6932011920942214   0.8385466854161976
   -0.2782473136689134  -0.1967554171981050   0.8747885662118761
   -0.7414301868722787  -0.1967347758754840   0.8747465967926189
   -0.2417526257109373  -0.8432466358136497   0.3747861330652498
   -0.7785693211669124  -0.8432669612839092   0.3747437553328936
   -0.0099725291879551  -0.3832069388108932   0.3754306513434429
   -0.5100273503029911  -0.6567955746720031   0.8754254537697009
   -0.5099726294225491  -0.3467984294363263   0.3385467048966930
