Mg   Mo   N
1.0
  6.818482871891254 0.0037098704664159 -1.2481174383e-05
  -1.71355828e-08 -5.894220546478613 0.0001354782131644
  -4.22183076e-08 -1.049831444e-07 5.179830690921224
 Mg  Mo  N 
6 2 8 
direct
   -0.7569073724908507   0.8512742042525617   0.8686223940745634
   -0.2629157554930616   0.8512997312174592   0.8686336067587844
   -0.0100383008673148   0.3579387227900385   0.8692190176665874
   -0.2570846608837627   0.1887019355231274   0.3686361434380245
   -0.7630926014326250   0.1887271704757936   0.3686247044764954
   -0.5099616566131219   0.6820637236575563   0.3692144909383400
   -0.0099664394405323   0.6905442164913040   0.3569951099703843
   -0.5100336169051617   0.3494560203413712   0.8569952094345936
   -0.0099801079811357   0.6932017946285427   0.9970938424798774
   -0.2785115195310297   0.1967358340639223   0.9608870688007514
   -0.7416945447559018   0.1967511086758265   0.9608609923269852
   -0.2414880860858092   0.8432623846931621   0.4608843601469558
   -0.7783054036572211   0.8432468097258410   0.4608585242210950
   -0.0100195891836634   0.3832036550963808   0.4602135237859812
   -0.5099803393899478   0.6567940851192305   0.9602083855599800
   -0.5100200052994595   0.3467986028545269   0.4970939479346725
