Mg   Mo   N
1.0
  6.874065314911632 0.0068052129435931 -2.73499059025e-05
  1.71355826e-08 5.942342976569045 -0.0002848667505676
  -4.22183078e-08 -1.049831445e-07 5.0592711490197715
 Mg  Mo  N 
6 2 8 
direct
   -0.7559907603667781  -0.8517576721214442   0.8749308507847287
   -0.2636823222082186  -0.8517994345524542   0.8749463234865115
   -0.0100668618726090  -0.3569845273805685   0.8753357493250885
   -0.2563186622928413  -0.1882035212656632   0.3749516646695383
   -0.7640090550398358  -0.1882445479920278   0.3749357759246479
   -0.5099329808396433  -0.6830203976489529   0.3753267710315383
   -0.0099399741939692  -0.6903538827762646   0.3579018568241850
   -0.5100601612382860  -0.3496472111771851   0.8579025167092806
   -0.0099643779983154  -0.6930288522102047   0.9901479385179996
   -0.2788210029246372  -0.1969125045757494   0.9566801458063309
   -0.7415500339313470  -0.1969412802785229   0.9566370382135784
   -0.2411778732126849  -0.8430840913336297   0.4566740790981427
   -0.7784501083054425  -0.8430546838142163   0.4566315357040338
   -0.0100359145559779  -0.3831380756537897   0.4559353704066496
   -0.5099639944119616  -0.6568567831770482   0.9559244531634048
   -0.5100359166281478  -0.3469725334552153   0.4901484354573427
