Mg   Mo   N                             
   1.00000000000000     
     5.2835343676916811   -0.0000001049831464   -0.0000000422183103
    -0.0000000531857822   -5.8510288395816969   -0.0000000171355788
    -0.0000002479381973    0.0000004976251150   -6.7680206938135372
   Mg   Mo   N 
     6     2     8
Direct
  0.0045742454010238  0.8508448935215611  0.7577829479848646
  0.0045742718179653  0.8508448396652923  0.2622170212643695
  0.0038061106166509  0.3588043173544477  0.0100000067492871
  0.5045742567794420  0.1891550795427079  0.2577829451900655
  0.5045742668591799  0.1891551189570961  0.7622170732781015
  0.5038061787909101  0.6811956042123484  0.5100000451560405
  0.5121277030105702  0.6907400068206471  0.0099999903205017
  0.0121278016696280  0.3492600568136837  0.5099999558673005
  0.8656956519594985  0.6933201953493224  0.0099999396413040
  0.9043605510606909  0.1965085680328116  0.2781022782965152
  0.9043605524104805  0.1965086480195737  0.7418977133868765
  0.4043606156435047  0.8434913752106397  0.2418978141288548
  0.4043605530303864  0.8434914473206376  0.7781023176985542
  0.4049678685767404  0.3831752579582712  0.0099999986818347
  0.9049680042790200  0.6568249021222456  0.5099999507899113
  0.3656957183353740  0.3466796890767867  0.5100000015473256
 
  0.00000000E+00  0.00000000E+00  0.00000000E+00
  0.00000000E+00  0.00000000E+00  0.00000000E+00
  0.00000000E+00  0.00000000E+00  0.00000000E+00
  0.00000000E+00  0.00000000E+00  0.00000000E+00
  0.00000000E+00  0.00000000E+00  0.00000000E+00
  0.00000000E+00  0.00000000E+00  0.00000000E+00
  0.00000000E+00  0.00000000E+00  0.00000000E+00
  0.00000000E+00  0.00000000E+00  0.00000000E+00
  0.00000000E+00  0.00000000E+00  0.00000000E+00
  0.00000000E+00  0.00000000E+00  0.00000000E+00
  0.00000000E+00  0.00000000E+00  0.00000000E+00
  0.00000000E+00  0.00000000E+00  0.00000000E+00
  0.00000000E+00  0.00000000E+00  0.00000000E+00
  0.00000000E+00  0.00000000E+00  0.00000000E+00
  0.00000000E+00  0.00000000E+00  0.00000000E+00
  0.00000000E+00  0.00000000E+00  0.00000000E+00
