Mg   Mo   N
1.0
  6.768020693813537 -4.97625115e-07 2.479381973e-07
  -1.71355788e-08 -5.851028839581697 -5.31857822e-08
  -4.22183103e-08 -1.049831464e-07 5.283534367691681
 Mg  Mo  N 
6 2 8 
direct
   -0.7577829479848643   0.8508448935215613   0.0045742454010238
   -0.2622170212643694   0.8508448396652923   0.0045742718179653
   -0.0100000067492871   0.3588043173544477   0.0038061106166509
   -0.2577829451900655   0.1891550795427079   0.5045742567794419
   -0.7622170732781016   0.1891551189570961   0.5045742668591801
   -0.5100000451560404   0.6811956042123484   0.5038061787909102
   -0.0099999903205017   0.6907400068206471   0.5121277030105702
   -0.5099999558673005   0.3492600568136837   0.0121278016696280
   -0.0099999396413040   0.6933201953493224   0.8656956519594985
   -0.2781022782965151   0.1965085680328116   0.9043605510606910
   -0.7418977133868764   0.1965086480195737   0.9043605524104804
   -0.2418978141288548   0.8434913752106398   0.4043606156435047
   -0.7781023176985542   0.8434914473206377   0.4043605530303863
   -0.0099999986818347   0.3831752579582712   0.4049678685767404
   -0.5099999507899113   0.6568249021222458   0.9049680042790199
   -0.5100000015473256   0.3466796890767866   0.3656957183353740
