Mg   Mo   N                             
   1.00000000000000     
     5.2827963500729664   -0.0000001049831443   -0.0000000422183075
     0.0000011317631119   -5.8513423125554098   -0.0000000171355830
     0.0000001876739536   -0.0000547235495407   -6.7683946352672617
   Mg   Mo   N 
     6     2     8
Direct
  0.8567498721576001  0.8508478732100002  0.7577757281897206
  0.8567500573352689  0.8508482593841151  0.2622217403658595
  0.8575167498652831  0.3587977936162261  0.0100005211801886
  0.3567501055296205  0.1891516796251338  0.2577782311151537
  0.3567498755560550  0.1891521571628161  0.7622242921228235
  0.3575166503218199  0.6812021544075364  0.5099995270741289
  0.3491687047647929  0.6907384392523781  0.0099995210046657
  0.8491686392224977  0.3492616237588209  0.5100004203083728
  0.9955572278628679  0.6933195399504797  0.0099996980320824
  0.9569102283211137  0.1965105855147087  0.2781064222542184
  0.9569097843807626  0.1965108378384741  0.7418965495135978
  0.4569101339708794  0.8434893365145371  0.2418936597598744
  0.4569097603704790  0.8434892361211723  0.7781034872263461
  0.4563022957850364  0.3831756624543061  0.0100002416650682
  0.9563021254477349  0.6568244747965934  0.5099997064653579
  0.4955571913279684  0.3466803464061172  0.5100002537246056
 
  0.00000000E+00  0.00000000E+00  0.00000000E+00
  0.00000000E+00  0.00000000E+00  0.00000000E+00
  0.00000000E+00  0.00000000E+00  0.00000000E+00
  0.00000000E+00  0.00000000E+00  0.00000000E+00
  0.00000000E+00  0.00000000E+00  0.00000000E+00
  0.00000000E+00  0.00000000E+00  0.00000000E+00
  0.00000000E+00  0.00000000E+00  0.00000000E+00
  0.00000000E+00  0.00000000E+00  0.00000000E+00
  0.00000000E+00  0.00000000E+00  0.00000000E+00
  0.00000000E+00  0.00000000E+00  0.00000000E+00
  0.00000000E+00  0.00000000E+00  0.00000000E+00
  0.00000000E+00  0.00000000E+00  0.00000000E+00
  0.00000000E+00  0.00000000E+00  0.00000000E+00
  0.00000000E+00  0.00000000E+00  0.00000000E+00
  0.00000000E+00  0.00000000E+00  0.00000000E+00
  0.00000000E+00  0.00000000E+00  0.00000000E+00
