Mg   Mo   N
1.0
  7.0719362190861315 0.0289937230045141 -0.0002761601277047
  -1.71355818e-08 -6.111709763929068 0.0030214538464253
  -4.22183083e-08 -1.049831449e-07 4.603136501822767
 Mg  Mo  N 
6 2 8 
direct
   -0.7528109315836173   0.8532833862446128   0.9046381362055770
   -0.2656832790386544   0.8533872829020197   0.9046838613982972
   -0.0103023940192841   0.3538480963978331   0.9041078527790203
   -0.2543861091321133   0.1866671233682169   0.4049294280104547
   -0.7671255492278206   0.1867537201135150   0.4048872299637907
   -0.5096937466630962   0.6860989876670872   0.4042843807155593
   -0.0097105003194145   0.6898402319860965   0.3628209674238577
   -0.5102910112518444   0.3501686502435817   0.8631653817444302
   -0.0098151313043786   0.6921550447681640   0.9592155914689755
   -0.2796252342474830   0.1969689768826584   0.9358129695150837
   -0.7419860331630871   0.1971373450788222   0.9356761441394142
   -0.2403592765501656   0.8430083062762109   0.4356437935346520
   -0.7780225405731968   0.8428256999691542   0.4355140242653376
   -0.0101903416158819   0.3820893959823054   0.4349555771813343
   -0.5098078230903837   0.6578881399695292   0.9350254721122441
   -0.5101900982868129   0.3478796106708871   0.4595077367111600
