Mg   Mo   N
1.0
  6.768394635267262 5.47235495407e-05 -1.876739536e-07
  1.7135583e-08 5.85134231255541 -1.1317631119e-06
  -4.22183075e-08 -1.049831443e-07 5.282796350072966
 Mg  Mo  N 
6 2 8 
direct
   -0.7577757281897207  -0.8508478732100001   0.8567498721576000
   -0.2622217403658595  -0.8508482593841151   0.8567500573352689
   -0.0100005211801886  -0.3587977936162261   0.8575167498652831
   -0.2577782311151537  -0.1891516796251338   0.3567501055296204
   -0.7622242921228237  -0.1891521571628161   0.3567498755560550
   -0.5099995270741289  -0.6812021544075364   0.3575166503218199
   -0.0099995210046657  -0.6907384392523781   0.3491687047647928
   -0.5100004203083728  -0.3492616237588210   0.8491686392224977
   -0.0099996980320824  -0.6933195399504793   0.9955572278628679
   -0.2781064222542184  -0.1965105855147087   0.9569102283211136
   -0.7418965495135978  -0.1965108378384741   0.9569097843807625
   -0.2418936597598744  -0.8434893365145368   0.4569101339708793
   -0.7781034872263463  -0.8434892361211722   0.4569097603704790
   -0.0100002416650682  -0.3831756624543061   0.4563022957850364
   -0.5099997064653579  -0.6568244747965931   0.9563021254477347
   -0.5100002537246056  -0.3466803464061172   0.4955571913279683
