Mg   Mo   N
1.0
  7.141637365703286 -0.1225097760598903 0.0029856855157225
  1.7135581e-08 6.1662195861744635 -0.0127865733776804
  -4.22183088e-08 -1.049831453e-07 4.42741255671251
 Mg  Mo  N 
6 2 8 
direct
   -0.7579540847374773  -0.8525459390593895   0.9143634189001660
   -0.2682818666705558  -0.8521879620175454   0.9142576572301806
   -0.0087679903492699  -0.3558835362511275   0.9140015645249377
   -0.2498522061255528  -0.1866438215565935   0.4240097979496085
   -0.7638799980032472  -0.1861764137135964   0.4237541601313453
   -0.5112474031002847  -0.6867500089425533   0.4245998297486935
   -0.0112058016452252  -0.6899848082057075   0.3791318046569854
   -0.5088239516506050  -0.3499447701736713   0.9699533648918929
   -0.0107142235371569  -0.6921585803013105   0.9376224377213734
   -0.2754418369406437  -0.1969594635137497   0.9112201896726545
   -0.7378858202657597  -0.1960595667265750   0.9109105948486942
   -0.2448330765604112  -0.8432349027728777   0.4198483025095001
   -0.7818212041371168  -0.8439567280080027   0.4198748028615000
   -0.0092592855336306  -0.3809170745183150   0.4181749209321950
   -0.5107280349554841  -0.6587547119303352   0.9126753035492782
   -0.5093032154473178  -0.3478417186277198   0.3917074079912126
