Mg   Mo   N                             
   1.00000000000000     
     5.2835302183800001   -0.0000001049831440   -0.0000000422183071
     0.0000001164856524   -5.8519586186700003   -0.0000000171355836
     0.0000000544758245   -0.0000000188370564   -6.7678490554200001
   Mg   Mo   N 
     6     2     8
Direct
  0.8182098053504134  0.8508707211642985  0.7577437712604222
  0.8182098102057083  0.8508707130957731  0.2622562315631924
  0.8189975506901561  0.3589368267337889  0.0100000012486348
  0.3182098299411464  0.1891292833475475  0.2577437605582205
  0.3182098282269976  0.1891292893170515  0.7622562370056372
  0.3189975214387388  0.6810631819109929  0.5099999993931661
  0.3106934930417964  0.6908048208771973  0.0100000073840079
  0.8106936304544163  0.3491951825174695  0.5100000011878549
  0.9571114534235576  0.6934262080904290  0.0099999997623925
  0.9184416517518272  0.1965022281566320  0.2780716155896386
  0.9184416520863365  0.1965022377060635  0.7419283782600488
  0.4184416483262581  0.8434977551988467  0.2419283764318294
  0.4184416430088973  0.8434977632201637  0.7780716230184126
  0.4178187558259339  0.3832841415977555  0.0100000024102016
  0.9178187018518571  0.6567158543326457  0.5099999986482260
  0.4571115266686547  0.3465737927333450  0.5099999962780828
 
  0.00000000E+00  0.00000000E+00  0.00000000E+00
  0.00000000E+00  0.00000000E+00  0.00000000E+00
  0.00000000E+00  0.00000000E+00  0.00000000E+00
  0.00000000E+00  0.00000000E+00  0.00000000E+00
  0.00000000E+00  0.00000000E+00  0.00000000E+00
  0.00000000E+00  0.00000000E+00  0.00000000E+00
  0.00000000E+00  0.00000000E+00  0.00000000E+00
  0.00000000E+00  0.00000000E+00  0.00000000E+00
  0.00000000E+00  0.00000000E+00  0.00000000E+00
  0.00000000E+00  0.00000000E+00  0.00000000E+00
  0.00000000E+00  0.00000000E+00  0.00000000E+00
  0.00000000E+00  0.00000000E+00  0.00000000E+00
  0.00000000E+00  0.00000000E+00  0.00000000E+00
  0.00000000E+00  0.00000000E+00  0.00000000E+00
  0.00000000E+00  0.00000000E+00  0.00000000E+00
  0.00000000E+00  0.00000000E+00  0.00000000E+00
