generated by phonopy                    
   1.00000000000000     
    11.7777700938999992   -0.0000006592896312    0.0000118211769744
    -0.0000006477562692   11.7777479613999994   -0.0000130806483528
     0.0000177256125076   -0.0000204342245446   17.8544012557999991
   Bi   Cu   Se   O 
    36    36    37    35
Direct
  0.9780056227990386  0.1562903447986699  0.4161445512998299
  0.3556637556723174  0.1773580030262494  0.4157872966853233
  0.6667614690600630  0.1665669308003501  0.4288161281358072
  0.9986272611052343  0.4987215294962937  0.4304550490063193
  0.3353294057892455  0.5015810546852180  0.4294293952004367
  0.6661245626194727  0.5023065299304506  0.4283665085463539
  0.9981178799169470  0.8318321952190146  0.4294812519992277
  0.3347864518696397  0.8345372823412660  0.4305143631742325
  0.6673750180448508  0.8309518799172153  0.4283836393090183
  0.0003771764413116  0.1663212119708319  0.9289866647186074
  0.3333105778292804  0.1667096283410885  0.9289938979604742
  0.6668439971485753  0.1665181352304046  0.9294482649136881
  0.0002061389995163  0.4994655091034446  0.9289365025004557
  0.3334683511411711  0.4989676664800342  0.9293081249034074
  0.6665521846493334  0.4993855641269960  0.9295204524170444
  0.0001992178847487  0.8340606221563291  0.9292876660396914
  0.3334640863868259  0.8335613107360658  0.9289254649872873
  0.6671179024254243  0.8336544566944397  0.9295097800754419
  0.1670283504911865  0.0000414999197247  0.0710429793817369
  0.4992929640822155  0.9998778237705679  0.0707401568964485
  0.8338917448129095  0.9998821701659253  0.0711030927217777
  0.1666406740014068  0.3329763759309685  0.0710513760579801
  0.4997947235201892  0.3331425082035651  0.0711121555819361
  0.8343887416615345  0.3331470508186811  0.0707414988722945
  0.1668240885785153  0.6665232400388987  0.0705892245910889
  0.4996981519222814  0.6668087706957877  0.0705218687993963
  0.8339681817576050  0.6662414078852805  0.0705255046605444
  0.1772342814706818  0.9776863265064648  0.5841235670882696
  0.5015630358422527  0.9980094944181417  0.5705757948418437
  0.8346171008287513  0.9985201886314172  0.5695964437037944
  0.1561769999393903  0.3553442608601429  0.5840124418603736
  0.4987999666495924  0.3346812335548819  0.5695060107282757
  0.8318218942894831  0.3352206702933245  0.5705840628548486
  0.1666791422149956  0.6665561901996355  0.5712181026942176
  0.5024196754507031  0.6672348145407909  0.5716576857285034
  0.8310647579005419  0.6659808762643777  0.5716650077303029
  0.0015451401563382  0.9963769326961369  0.2482734361413250
  0.3317344407365681  0.9987793958385041  0.2494011994268348
  0.6627567808161174  0.9999746682740636  0.2455547246492600
  0.0017668537574664  0.3342601813402339  0.2493779279647299
  0.3320197798433213  0.3367930654030715  0.2482094993223072
  0.6709921090271678  0.3330430485625016  0.2454528636039441
  0.0020839460050794  0.6659531361761069  0.2501257062900279
  0.3313978031313738  0.6672192205103329  0.2501457945169321
  0.6668005644364285  0.6665747191155944  0.2492503722125150
  0.9990747157811626  0.0015955043839710  0.7506397782033218
  0.3370295628827478  0.0013157582742664  0.7517860998978279
  0.6674152576213004  0.0019362472791471  0.7498915152812771
  0.9966165303482697  0.3317898074043910  0.7518046806599159
  0.3345542986869461  0.3315643539133077  0.7506545125946857
  0.6661508991411509  0.3312467251600069  0.7499109936411088
  0.0002584071025638  0.6706139798851254  0.7545405243235450
  0.3333306583991487  0.6623826703350204  0.7545268494431738
  0.6667904242558009  0.6665605057313684  0.7507862933845786
  0.1667927546968855  0.1665733323911809  0.2522702001489066
  0.5018654223220480  0.1660301603090133  0.2480913347512370
  0.8318926095847345  0.1671151321958888  0.2481204340120584
  0.1676251718956649  0.4995706017124775  0.2504647536626337
  0.4989951899531562  0.5081708644738612  0.2459484802403722
  0.8342795399517726  0.5032890350089758  0.2472510929439693
  0.1659851779404420  0.8336914172503285  0.2504811163497962
  0.4993346261755107  0.8299574778622656  0.2472379113804024
  0.8345936868110968  0.8252688012099085  0.2460342364064019
  0.1667687565511216  0.1665470162719842  0.7477681044891966
  0.4997044588982646  0.1657462289462330  0.7495757740134508
  0.8338308025422094  0.1673843933271399  0.7495490969441576
  0.1672851580051784  0.5014808573169702  0.7519024626400537
  0.5033714112436698  0.4990477603529655  0.7527738209794848
  0.8252934265527472  0.4987364604899085  0.7540253796613712
  0.1661970209632386  0.8315067338490749  0.7519601733182313
  0.5081907239756234  0.8343313474232588  0.7540649734907916
  0.8300386976820064  0.8339896601306691  0.7528113944653043
  0.1682379269611474  0.3348368086667222  0.3373342929128853
  0.5047059344837663  0.3384891703478417  0.3314386440814161
  0.8323334460177350  0.3363958678387888  0.3346537003911152
  0.1667241690254215  0.6666109699951193  0.3366841775741349
  0.5003674724940197  0.6677672383465421  0.3364251565195815
  0.8331727291975994  0.6654911812073649  0.3364321737008495
  0.1653118997955900  0.9983651430828715  0.3373727566410238
  0.5012288752044824  0.9967987452345639  0.3346632986944869
  0.8289819326975945  0.9948621235473354  0.3315803701905580
  0.1666038857100247  0.3324888873903404  0.8366289207366648
  0.5002255819209935  0.3321080936413026  0.8382252290195567
  0.8317162261436195  0.3324047045317897  0.8391854636856806
  0.1667998832063873  0.6664770265212425  0.8397952665205111
  0.5010722526076847  0.6663194973155484  0.8390084965466045
  0.8325204457723601  0.6666969294519802  0.8390089908652740
  0.1670237200644138  0.0005812588508576  0.8366110683157189
  0.5019054868992399  0.0006917239850779  0.8391941714989457
  0.8333881708411042  0.0009994272244640  0.8381889983171718
  0.3327830152466902  0.1667432710098851  0.1634365358429619
  0.6668611891215974  0.1664879509933428  0.1602412665886561
  0.0008751380876930  0.1663220739400018  0.1633982857139955
  0.3326511626098636  0.5016703715013477  0.1608349816957926
  0.6670095374026417  0.5008296348505326  0.1610277530684101
  0.0012534096976040  0.4999632514130496  0.1618363769983944
  0.3323611346955957  0.8331252266798543  0.1618226003403223
  0.6666316075517642  0.8322794363342538  0.1610297721406795
  0.0009379495671595  0.8314784614568893  0.1608578725335690
  0.3350166487227639  0.1651237721302081  0.6626957332656858
  0.6667498839004651  0.1666169605038021  0.6633528254309695
  0.9985490141641051  0.1680490307780573  0.6626690779578723
  0.3365223974735798  0.5009760027872829  0.6653415920420400
  0.6655866529507506  0.5001714723487183  0.6635992793697980
  0.9949240429960113  0.5043850811822423  0.6684976257078645
  0.3385473719554284  0.8286622915258093  0.6685564907775330
  0.6678609510270022  0.8329794944899476  0.6636182339018433
  0.9969219226587498  0.8320765738043789  0.6654156667852646
  0.1670252213706220  0.1664710422921161  0.5000200615560786
  0.5028901313820029  0.1641094968424071  0.4995054175539124
  0.8304944570671893  0.1690598451063678  0.4996117967179643
  0.1691678280148068  0.5027733053498409  0.5004563950854575
  0.5026421476476415  0.5047976613597029  0.5004611255158196
  0.8286123671041352  0.5024788285625803  0.4995529526132145
  0.1642156015617218  0.8303735292451222  0.5005024157981737
  0.5049373542214468  0.8306826461641847  0.4995467473996911
  0.8308451236721268  0.8284717524750960  0.5005182137337414
  0.1668318089382979  0.1665222252567062  0.0000177825847274
  0.4994726997842918  0.1665804532843183  0.0002097055780723
  0.8341909993044538  0.1664681430324251  0.0001980238412003
  0.1667661029433489  0.4991649023602207  0.9998429095699066
  0.4996975415430356  0.4994605188094141  0.0000949662978087
  0.8338918505693158  0.4993950306417361  0.9999625251150874
  0.1668778393134502  0.8338829356250912  0.9998203414156634
  0.4997619522343726  0.8336545503014037  0.9999457813745849
  0.8339561749364108  0.8335897368212386  0.0000685354406826
  0.0004718380408946  0.0002067735524989  0.0000518189488119
  0.3331430168393084  0.0001551393236596  0.9999693066444735
  0.6669811254630389  0.9999291855577823  0.0006975717509121
  0.0005210115368328  0.3328778413708946  0.9999757034047860
  0.3331947519120249  0.3328296018241090  0.0000748083705844
  0.6666756882090468  0.3331101831733037  0.0007106876349212
  0.0002311704379494  0.6663781658772123  0.9993297081208468
  0.3334131408576013  0.6666844196245023  0.9993342623279773
  0.6668270106539609  0.6665344185817688  0.0000181016458143
  0.9874195525370340  0.9948769905170778  0.4948885768020901
  0.3384727823602987  0.9870524120081114  0.5053614640931841
  0.6690598291336300  0.9995156818032100  0.4978022611841624
  0.9949259533374146  0.3457670638991672  0.5051287206393980
  0.3461335865232940  0.3384268497363578  0.4947012786485629
  0.6644174615204932  0.3337045941896548  0.4977834719374030
  0.9996126111911892  0.6642798894710111  0.5022346411103698
  0.3338042705966089  0.6689232136326879  0.5022574717425456
  0.6667750483299102  0.6665993582051541  0.5000202394185820
 
  0.00000000E+00  0.00000000E+00  0.00000000E+00
  0.00000000E+00  0.00000000E+00  0.00000000E+00
  0.00000000E+00  0.00000000E+00  0.00000000E+00
  0.00000000E+00  0.00000000E+00  0.00000000E+00
  0.00000000E+00  0.00000000E+00  0.00000000E+00
  0.00000000E+00  0.00000000E+00  0.00000000E+00
  0.00000000E+00  0.00000000E+00  0.00000000E+00
  0.00000000E+00  0.00000000E+00  0.00000000E+00
  0.00000000E+00  0.00000000E+00  0.00000000E+00
  0.00000000E+00  0.00000000E+00  0.00000000E+00
  0.00000000E+00  0.00000000E+00  0.00000000E+00
  0.00000000E+00  0.00000000E+00  0.00000000E+00
  0.00000000E+00  0.00000000E+00  0.00000000E+00
  0.00000000E+00  0.00000000E+00  0.00000000E+00
  0.00000000E+00  0.00000000E+00  0.00000000E+00
  0.00000000E+00  0.00000000E+00  0.00000000E+00
  0.00000000E+00  0.00000000E+00  0.00000000E+00
  0.00000000E+00  0.00000000E+00  0.00000000E+00
  0.00000000E+00  0.00000000E+00  0.00000000E+00
  0.00000000E+00  0.00000000E+00  0.00000000E+00
  0.00000000E+00  0.00000000E+00  0.00000000E+00
  0.00000000E+00  0.00000000E+00  0.00000000E+00
  0.00000000E+00  0.00000000E+00  0.00000000E+00
  0.00000000E+00  0.00000000E+00  0.00000000E+00
  0.00000000E+00  0.00000000E+00  0.00000000E+00
  0.00000000E+00  0.00000000E+00  0.00000000E+00
  0.00000000E+00  0.00000000E+00  0.00000000E+00
  0.00000000E+00  0.00000000E+00  0.00000000E+00
  0.00000000E+00  0.00000000E+00  0.00000000E+00
  0.00000000E+00  0.00000000E+00  0.00000000E+00
  0.00000000E+00  0.00000000E+00  0.00000000E+00
  0.00000000E+00  0.00000000E+00  0.00000000E+00
  0.00000000E+00  0.00000000E+00  0.00000000E+00
  0.00000000E+00  0.00000000E+00  0.00000000E+00
  0.00000000E+00  0.00000000E+00  0.00000000E+00
  0.00000000E+00  0.00000000E+00  0.00000000E+00
  0.00000000E+00  0.00000000E+00  0.00000000E+00
  0.00000000E+00  0.00000000E+00  0.00000000E+00
  0.00000000E+00  0.00000000E+00  0.00000000E+00
  0.00000000E+00  0.00000000E+00  0.00000000E+00
  0.00000000E+00  0.00000000E+00  0.00000000E+00
  0.00000000E+00  0.00000000E+00  0.00000000E+00
  0.00000000E+00  0.00000000E+00  0.00000000E+00
  0.00000000E+00  0.00000000E+00  0.00000000E+00
  0.00000000E+00  0.00000000E+00  0.00000000E+00
  0.00000000E+00  0.00000000E+00  0.00000000E+00
  0.00000000E+00  0.00000000E+00  0.00000000E+00
  0.00000000E+00  0.00000000E+00  0.00000000E+00
  0.00000000E+00  0.00000000E+00  0.00000000E+00
  0.00000000E+00  0.00000000E+00  0.00000000E+00
  0.00000000E+00  0.00000000E+00  0.00000000E+00
  0.00000000E+00  0.00000000E+00  0.00000000E+00
  0.00000000E+00  0.00000000E+00  0.00000000E+00
  0.00000000E+00  0.00000000E+00  0.00000000E+00
  0.00000000E+00  0.00000000E+00  0.00000000E+00
  0.00000000E+00  0.00000000E+00  0.00000000E+00
  0.00000000E+00  0.00000000E+00  0.00000000E+00
  0.00000000E+00  0.00000000E+00  0.00000000E+00
  0.00000000E+00  0.00000000E+00  0.00000000E+00
  0.00000000E+00  0.00000000E+00  0.00000000E+00
  0.00000000E+00  0.00000000E+00  0.00000000E+00
  0.00000000E+00  0.00000000E+00  0.00000000E+00
  0.00000000E+00  0.00000000E+00  0.00000000E+00
  0.00000000E+00  0.00000000E+00  0.00000000E+00
  0.00000000E+00  0.00000000E+00  0.00000000E+00
  0.00000000E+00  0.00000000E+00  0.00000000E+00
  0.00000000E+00  0.00000000E+00  0.00000000E+00
  0.00000000E+00  0.00000000E+00  0.00000000E+00
  0.00000000E+00  0.00000000E+00  0.00000000E+00
  0.00000000E+00  0.00000000E+00  0.00000000E+00
  0.00000000E+00  0.00000000E+00  0.00000000E+00
  0.00000000E+00  0.00000000E+00  0.00000000E+00
  0.00000000E+00  0.00000000E+00  0.00000000E+00
  0.00000000E+00  0.00000000E+00  0.00000000E+00
  0.00000000E+00  0.00000000E+00  0.00000000E+00
  0.00000000E+00  0.00000000E+00  0.00000000E+00
  0.00000000E+00  0.00000000E+00  0.00000000E+00
  0.00000000E+00  0.00000000E+00  0.00000000E+00
  0.00000000E+00  0.00000000E+00  0.00000000E+00
  0.00000000E+00  0.00000000E+00  0.00000000E+00
  0.00000000E+00  0.00000000E+00  0.00000000E+00
  0.00000000E+00  0.00000000E+00  0.00000000E+00
  0.00000000E+00  0.00000000E+00  0.00000000E+00
  0.00000000E+00  0.00000000E+00  0.00000000E+00
  0.00000000E+00  0.00000000E+00  0.00000000E+00
  0.00000000E+00  0.00000000E+00  0.00000000E+00
  0.00000000E+00  0.00000000E+00  0.00000000E+00
  0.00000000E+00  0.00000000E+00  0.00000000E+00
  0.00000000E+00  0.00000000E+00  0.00000000E+00
  0.00000000E+00  0.00000000E+00  0.00000000E+00
  0.00000000E+00  0.00000000E+00  0.00000000E+00
  0.00000000E+00  0.00000000E+00  0.00000000E+00
  0.00000000E+00  0.00000000E+00  0.00000000E+00
  0.00000000E+00  0.00000000E+00  0.00000000E+00
  0.00000000E+00  0.00000000E+00  0.00000000E+00
  0.00000000E+00  0.00000000E+00  0.00000000E+00
  0.00000000E+00  0.00000000E+00  0.00000000E+00
  0.00000000E+00  0.00000000E+00  0.00000000E+00
  0.00000000E+00  0.00000000E+00  0.00000000E+00
  0.00000000E+00  0.00000000E+00  0.00000000E+00
  0.00000000E+00  0.00000000E+00  0.00000000E+00
  0.00000000E+00  0.00000000E+00  0.00000000E+00
  0.00000000E+00  0.00000000E+00  0.00000000E+00
  0.00000000E+00  0.00000000E+00  0.00000000E+00
  0.00000000E+00  0.00000000E+00  0.00000000E+00
  0.00000000E+00  0.00000000E+00  0.00000000E+00
  0.00000000E+00  0.00000000E+00  0.00000000E+00
  0.00000000E+00  0.00000000E+00  0.00000000E+00
  0.00000000E+00  0.00000000E+00  0.00000000E+00
  0.00000000E+00  0.00000000E+00  0.00000000E+00
  0.00000000E+00  0.00000000E+00  0.00000000E+00
  0.00000000E+00  0.00000000E+00  0.00000000E+00
  0.00000000E+00  0.00000000E+00  0.00000000E+00
  0.00000000E+00  0.00000000E+00  0.00000000E+00
  0.00000000E+00  0.00000000E+00  0.00000000E+00
  0.00000000E+00  0.00000000E+00  0.00000000E+00
  0.00000000E+00  0.00000000E+00  0.00000000E+00
  0.00000000E+00  0.00000000E+00  0.00000000E+00
  0.00000000E+00  0.00000000E+00  0.00000000E+00
  0.00000000E+00  0.00000000E+00  0.00000000E+00
  0.00000000E+00  0.00000000E+00  0.00000000E+00
  0.00000000E+00  0.00000000E+00  0.00000000E+00
  0.00000000E+00  0.00000000E+00  0.00000000E+00
  0.00000000E+00  0.00000000E+00  0.00000000E+00
  0.00000000E+00  0.00000000E+00  0.00000000E+00
  0.00000000E+00  0.00000000E+00  0.00000000E+00
  0.00000000E+00  0.00000000E+00  0.00000000E+00
  0.00000000E+00  0.00000000E+00  0.00000000E+00
  0.00000000E+00  0.00000000E+00  0.00000000E+00
  0.00000000E+00  0.00000000E+00  0.00000000E+00
  0.00000000E+00  0.00000000E+00  0.00000000E+00
  0.00000000E+00  0.00000000E+00  0.00000000E+00
  0.00000000E+00  0.00000000E+00  0.00000000E+00
  0.00000000E+00  0.00000000E+00  0.00000000E+00
  0.00000000E+00  0.00000000E+00  0.00000000E+00
  0.00000000E+00  0.00000000E+00  0.00000000E+00
  0.00000000E+00  0.00000000E+00  0.00000000E+00
  0.00000000E+00  0.00000000E+00  0.00000000E+00
  0.00000000E+00  0.00000000E+00  0.00000000E+00
  0.00000000E+00  0.00000000E+00  0.00000000E+00
  0.00000000E+00  0.00000000E+00  0.00000000E+00
  0.00000000E+00  0.00000000E+00  0.00000000E+00
  0.00000000E+00  0.00000000E+00  0.00000000E+00
  0.00000000E+00  0.00000000E+00  0.00000000E+00
