supercell of supercell of icsd_608626.c 
   1.00600000000000     
    18.8433725412000008    0.0042597715995000    0.0111656436851000
    -6.2786657403800001   10.8752831735999997   -0.0012954496991100
     0.0059525623905900    0.0022414031449000   10.0498800689000003
   Al   Gd   N    O 
    92     4    95     1
Direct
  0.1117653396796001  0.0833919834377213  0.2483700681081231
  0.0511915972532435  0.1615117322913804  0.9992692954799196
  0.4450705847126528  0.3345955804623699  0.7497528931260504
  0.3907016901576270  0.4174529497274548  0.5000751879196415
  0.2792271869493916  0.0854088426933401  0.2575461296947239
  0.2246064193273867  0.1683610511024867  0.9990308179011933
  0.1073924302742810  0.3304280000705617  0.7465525208998898
  0.0529208807744936  0.4208498206823279  0.5017699675711782
  0.4441513659909617  0.0832575819238954  0.2491466769571389
  0.3921949349100018  0.1724168944545355  0.9984228504312256
  0.2795676848789626  0.3312054253374868  0.7435770610251140
  0.2267433295787527  0.4201837308694039  0.5008590481170003
  0.1115068301287252  0.0833451021926166  0.7499252167592232
  0.0525068935977302  0.1582121256282321  0.5020571196663397
  0.4446543971596668  0.3335604896310684  0.2492546316601150
  0.3899594479144639  0.4147315780632397  0.9995521789525057
  0.2802292625825444  0.0882542936167283  0.7441237536122571
  0.2218833535671436  0.1654885255681435  0.5017836257429238
  0.1085953679268101  0.3312595506782046  0.2526289295062369
  0.0535064549504725  0.4168206746558383  0.9998780455688276
  0.4439969283621252  0.0824843682112970  0.7491993183135222
  0.3907592590450477  0.1684133641887513  0.4999577874329120
  0.2788262826666568  0.3318527141128627  0.2592913772349021
  0.6112429636448908  0.0835860226229954  0.2487594455677069
  0.5505652632834312  0.1606994407913760  0.9991224575383626
  0.9448158851373947  0.3342599358392562  0.7503570892797455
  0.8895960292019325  0.4173013766253462  0.4994683474629440
  0.7784911151051688  0.0849921015334516  0.2572809560683069
  0.7240193535791803  0.1679536663518064  0.9999562946570819
  0.6064262164561001  0.3296473441013461  0.7420310718902172
  0.5551167670003068  0.4178243764453669  0.4993341066203811
  0.9433480409135697  0.0825848970880472  0.2489418484489789
  0.8921949800675790  0.1726059895623919  0.9987933327611032
  0.7795792569680771  0.3311992506542296  0.7431417803203075
  0.7222258981073963  0.4167772904473210  0.4998075843001004
  0.6110345378815794  0.0832938929306195  0.7490654390118152
  0.5546308548982211  0.1644288724793910  0.4995456648872008
  0.9439173018551728  0.3331773802324989  0.2491863060178332
  0.8900892176419788  0.4148482725821268  0.0000800666721759
  0.7797518504266066  0.0883802138656833  0.7437757628754866
  0.7212167627652804  0.1659028813014203  0.5003981174667445
  0.6096053489180875  0.3320463821279347  0.2578300950217383
  0.5528785444302784  0.4166818305052260  0.9997939128846696
  0.9437194596568546  0.0825533492390491  0.7498691759891614
  0.8897769562171192  0.1678013232914921  0.5005930354958466
  0.7783495169210823  0.3327749712748442  0.2575438064065025
  0.1117218243000480  0.5845192342897292  0.2483435219850918
  0.0505911360597722  0.6611065379846437  0.9989489083341212
  0.4450053892769219  0.8348647334201047  0.7497758157158856
  0.3901544710936449  0.9174981205311497  0.4994683208177975
  0.2791425663492220  0.5867195468289950  0.2588918254399672
  0.2245578523648319  0.6682793792900767  0.9989896938192970
  0.1066839933862127  0.8298643039800950  0.7426478394911769
  0.0549811527793551  0.9172823946963859  0.4997270140676378
  0.4439390252617130  0.5830829259388466  0.2491610215718509
  0.3921425125316844  0.6726576625484100  0.9980219084824427
  0.2797429379325962  0.8318889259359992  0.7436532756228260
  0.2224655760175196  0.9169523663411780  0.4999738419391662
  0.1114561506808371  0.5838630861304992  0.7499093744073875
  0.0545419050505274  0.6648554598344774  0.4999573950185976
  0.4446110432962129  0.8336623904287563  0.2492438908187253
  0.3899690021227613  0.9150362678783992  0.9999609247728429
  0.2800163091428516  0.5886552218925871  0.7439917817196218
  0.2218558129935246  0.6672663968995636  0.5017614044997600
  0.1096791293562731  0.8320851106363278  0.2581738150118866
  0.0531196766324697  0.9164696037052096  0.9995790422027113
  0.4439786264941432  0.5824490377560068  0.7495024931589285
  0.3912831099477287  0.6692322853197723  0.5005482180074239
  0.2788798062743609  0.8332590507515789  0.2579597204602138
  0.6112635164596369  0.5836009584644444  0.2488930777276437
  0.5504694706961857  0.6606683803365598  0.9992699366991289
  0.9451590879851679  0.8347667109976626  0.7498381149649234
  0.8896581441731186  0.9165892857569489  0.4994710513184089
  0.7789121379371124  0.5852871805613731  0.2573939907151868
  0.7238974033316836  0.6679025569217103  0.0002473846018773
  0.6062498048367004  0.8295863428347232  0.7421829043201100
  0.5550044388874795  0.9178759818281534  0.4993577308988151
  0.9440244883222633  0.5831879006318488  0.2491452271219927
  0.8925283986214296  0.6730042879450195  0.9987003438190882
  0.7796275033388724  0.8313148509401032  0.7426727021758310
  0.7219778783742328  0.9165675491183336  0.5000186691834472
  0.6111337049377283  0.5833568577359856  0.7490041200670063
  0.5546299307412497  0.6643847615369722  0.4996466970705526
  0.9446909174063762  0.8335921304480394  0.2494622134483251
  0.8903984926156596  0.9151675816497544  0.0002682884214451
  0.7801527396801191  0.5887580973657833  0.7428455280750299
  0.7213809261667521  0.6659713014655182  0.5001998978351807
  0.6094678381673333  0.8319241218127331  0.2579792691571043
  0.5528303579493397  0.9167120001768225  0.9997667339158127
  0.9439261327884054  0.5824707345590170  0.7492984466695134
  0.8905875955678368  0.6684250914434813  0.4996905662605329
  0.7784015739686794  0.8327450434842945  0.2577952034980910
  0.2213079950561507  0.4160057191502347  0.0010066578888654
  0.7192830898893874  0.4150211258230954  0.9935411532742648
  0.2194142133008938  0.9145547315301386  0.9956677536008129
  0.7190838682815794  0.9139282036554448  0.9938377983466324
  0.1115759461835495  0.0850495103095952  0.4385250284255946
  0.0555961535714005  0.1674089623407085  0.1920929281773383
  0.4459357288165293  0.3371460749675919  0.9399597562013255
  0.3899943356951070  0.4174356114414692  0.6880439115198698
  0.2789713364339761  0.0856852780492048  0.4464806774388421
  0.2231448752790826  0.1676141656523171  0.1912407626102777
  0.0942975750886319  0.3199713083580917  0.9316453817078880
  0.0556948359425675  0.4175668098848320  0.6873355445545570
  0.4442481719162927  0.0831105696746164  0.4388112392065793
  0.3887932145707325  0.1669588741383663  0.1901227408361947
  0.2851677747603603  0.3254698814614727  0.9296589978983576
  0.2210235881927360  0.4159162204545979  0.6930041801312967
  0.1121355475209924  0.0846364370173589  0.9420504598001571
  0.0551099740358225  0.1653920899466783  0.6879302785758838
  0.4447752797793783  0.3339074837371214  0.4386031485347672
  0.3877464688807777  0.4159883150100896  0.1910432028789870
  0.2865005496225521  0.1037846729009502  0.9304908400526060
  0.2208439355134786  0.1654504354658997  0.6883275410911054
  0.0562219353112070  0.4163628493975011  0.1925692876215237
  0.4409142792625929  0.0791226118916342  0.9403350440720288
  0.3911760836383067  0.1688623094296133  0.6887388076699921
  0.2782086110658071  0.3319592886957068  0.4475014133640300
  0.2207261003712588  0.4155910332319763  0.2251397175758072
  0.6112132613015078  0.0835124965938832  0.4383353883247594
  0.5556464860963715  0.1671910417952276  0.1900382749716414
  0.9466133857350840  0.3374008395373451  0.9404239788271695
  0.8905222348679018  0.4173615513417701  0.6877506252024617
  0.7789635182774717  0.0854783462879780  0.4463760510437567
  0.7231206165595765  0.1673264147501428  0.1912951539852443
  0.5917797317961941  0.3180832655634731  0.9289851488016865
  0.5549852171098095  0.4185292135135867  0.6879525302517919
  0.9448469968458539  0.0843878595174203  0.4390215150704790
  0.8888119694723216  0.1669437044889150  0.1904647642855082
  0.7856979699291102  0.3250666559010753  0.9300865740784303
  0.7219819466579906  0.4166428710431305  0.6968799253743185
  0.6122612087453305  0.0844088410328965  0.9414985989930713
  0.5544161821700442  0.1634434075030242  0.6884696046646184
  0.9453967528004128  0.3334672868109223  0.4388624269864607
  0.8885168717148701  0.4162217702198561  0.1912641597523574
  0.7867155636818168  0.1040397371513251  0.9306023146900273
  0.7209204013424184  0.1655874963610700  0.6876644951673612
  0.6096217186669932  0.3320501538470424  0.4468790108646346
  0.5561909270889984  0.4167385171610292  0.1905534147942589
  0.9415285606014905  0.0797950363206041  0.9408568921045202
  0.8912060364185592  0.1688463552974468  0.6890613843996789
  0.7786605987328201  0.3325542373743886  0.4462267616481128
  0.7222079300546227  0.4167684046858540  0.2159734152289445
  0.1115609509213371  0.5826528883140156  0.4384945172830612
  0.0557040689928883  0.6670926991674690  0.1902858369335121
  0.4458479490350911  0.8370998446249232  0.9399723685913202
  0.3901305245249560  0.9174795205464008  0.6877543188742479
  0.2786465611020219  0.5857811008129801  0.4474999384167333
  0.2231182307723856  0.6671412755958457  0.1912140565431102
  0.0919710429888383  0.8181734141852246  0.9288393006657856
  0.0551685714209711  0.9190394689707233  0.6879371879915581
  0.4439474565231123  0.5828791516887861  0.4389774865241947
  0.3881489721886453  0.6662280389189661  0.1901188808147865
  0.2855000982353957  0.8251028695915110  0.9301081433769198
  0.2217339254466069  0.9164687542056811  0.6963414636285350
  0.1120674751015258  0.5840942799263615  0.9420376733910416
  0.0544870518180858  0.6630797493525975  0.6885350212418047
  0.4447044586312003  0.8337528971031247  0.4385811852536108
  0.3883574566781220  0.9162309472498791  0.1910488306678104
  0.2861544549771367  0.6029319894601741  0.9299706066452345
  0.2208106716795797  0.6656565182860916  0.6883256616035780
  0.1095465358555643  0.8319912144815476  0.4470687649689964
  0.0564144489251817  0.9169276608369117  0.1907988408647299
  0.4407775537906744  0.5790273594159316  0.9405924840519688
  0.3910036275907061  0.6686318229584103  0.6890060125557298
  0.2785268828382073  0.8325222314101666  0.4464687566141805
  0.2221170510566566  0.9166349960457083  0.2177740940753168
  0.6112285024842805  0.5836267799719295  0.4384079483720029
  0.5554134518363938  0.6669774446386256  0.1902113870572393
  0.9462331828148791  0.8375456381146620  0.9400227598755819
  0.8905813426905169  0.9181586205708356  0.6877258211975530
  0.7791142807661728  0.5856580064804291  0.4463679018231232
  0.7231541147061193  0.6674400125478357  0.1913672915465838
  0.5916189449629599  0.8180339909504752  0.9290420870510445
  0.5548915006791475  0.9184223235357649  0.6879173547551005
  0.9444757606463483  0.5829928679140508  0.4389032280014931
  0.8889824953161920  0.6671241461937498  0.1902378107459128
  0.7860566369519475  0.8248775053976090  0.9297935830519393
  0.7217919558582935  0.9164691088768180  0.6970272151732075
  0.6122795851599392  0.5845620573478030  0.9415483587587232
  0.5542862272068803  0.6633118263675613  0.6885698086920016
  0.9450958058350167  0.8343919327742171  0.4387510749730552
  0.8885188386703078  0.9164580441650543  0.1913228546228183
  0.7870085549937897  0.6051809126250021  0.9299613454835765
  0.7209836342651954  0.6657598137021736  0.6874510149282429
  0.6094453511851086  0.8319067529860362  0.4469919057359277
  0.5561379253956460  0.9165010800359212  0.1905582608912795
  0.9407532805085523  0.5789595115194146  0.9404544269519803
  0.8914496061004513  0.6691147053239064  0.6885423907601975
  0.7786701172681205  0.8329772792024457  0.4464096565996627
  0.7220807144689658  0.9165348234605446  0.2161914915716778
  0.1082522852067243  0.3310607228397799  0.4456606889462336
 
  0.00000000E+00  0.00000000E+00  0.00000000E+00
  0.00000000E+00  0.00000000E+00  0.00000000E+00
  0.00000000E+00  0.00000000E+00  0.00000000E+00
  0.00000000E+00  0.00000000E+00  0.00000000E+00
  0.00000000E+00  0.00000000E+00  0.00000000E+00
  0.00000000E+00  0.00000000E+00  0.00000000E+00
  0.00000000E+00  0.00000000E+00  0.00000000E+00
  0.00000000E+00  0.00000000E+00  0.00000000E+00
  0.00000000E+00  0.00000000E+00  0.00000000E+00
  0.00000000E+00  0.00000000E+00  0.00000000E+00
  0.00000000E+00  0.00000000E+00  0.00000000E+00
  0.00000000E+00  0.00000000E+00  0.00000000E+00
  0.00000000E+00  0.00000000E+00  0.00000000E+00
  0.00000000E+00  0.00000000E+00  0.00000000E+00
  0.00000000E+00  0.00000000E+00  0.00000000E+00
  0.00000000E+00  0.00000000E+00  0.00000000E+00
  0.00000000E+00  0.00000000E+00  0.00000000E+00
  0.00000000E+00  0.00000000E+00  0.00000000E+00
  0.00000000E+00  0.00000000E+00  0.00000000E+00
  0.00000000E+00  0.00000000E+00  0.00000000E+00
  0.00000000E+00  0.00000000E+00  0.00000000E+00
  0.00000000E+00  0.00000000E+00  0.00000000E+00
  0.00000000E+00  0.00000000E+00  0.00000000E+00
  0.00000000E+00  0.00000000E+00  0.00000000E+00
  0.00000000E+00  0.00000000E+00  0.00000000E+00
  0.00000000E+00  0.00000000E+00  0.00000000E+00
  0.00000000E+00  0.00000000E+00  0.00000000E+00
  0.00000000E+00  0.00000000E+00  0.00000000E+00
  0.00000000E+00  0.00000000E+00  0.00000000E+00
  0.00000000E+00  0.00000000E+00  0.00000000E+00
  0.00000000E+00  0.00000000E+00  0.00000000E+00
  0.00000000E+00  0.00000000E+00  0.00000000E+00
  0.00000000E+00  0.00000000E+00  0.00000000E+00
  0.00000000E+00  0.00000000E+00  0.00000000E+00
  0.00000000E+00  0.00000000E+00  0.00000000E+00
  0.00000000E+00  0.00000000E+00  0.00000000E+00
  0.00000000E+00  0.00000000E+00  0.00000000E+00
  0.00000000E+00  0.00000000E+00  0.00000000E+00
  0.00000000E+00  0.00000000E+00  0.00000000E+00
  0.00000000E+00  0.00000000E+00  0.00000000E+00
  0.00000000E+00  0.00000000E+00  0.00000000E+00
  0.00000000E+00  0.00000000E+00  0.00000000E+00
  0.00000000E+00  0.00000000E+00  0.00000000E+00
  0.00000000E+00  0.00000000E+00  0.00000000E+00
  0.00000000E+00  0.00000000E+00  0.00000000E+00
  0.00000000E+00  0.00000000E+00  0.00000000E+00
  0.00000000E+00  0.00000000E+00  0.00000000E+00
  0.00000000E+00  0.00000000E+00  0.00000000E+00
  0.00000000E+00  0.00000000E+00  0.00000000E+00
  0.00000000E+00  0.00000000E+00  0.00000000E+00
  0.00000000E+00  0.00000000E+00  0.00000000E+00
  0.00000000E+00  0.00000000E+00  0.00000000E+00
  0.00000000E+00  0.00000000E+00  0.00000000E+00
  0.00000000E+00  0.00000000E+00  0.00000000E+00
  0.00000000E+00  0.00000000E+00  0.00000000E+00
  0.00000000E+00  0.00000000E+00  0.00000000E+00
  0.00000000E+00  0.00000000E+00  0.00000000E+00
  0.00000000E+00  0.00000000E+00  0.00000000E+00
  0.00000000E+00  0.00000000E+00  0.00000000E+00
  0.00000000E+00  0.00000000E+00  0.00000000E+00
  0.00000000E+00  0.00000000E+00  0.00000000E+00
  0.00000000E+00  0.00000000E+00  0.00000000E+00
  0.00000000E+00  0.00000000E+00  0.00000000E+00
  0.00000000E+00  0.00000000E+00  0.00000000E+00
  0.00000000E+00  0.00000000E+00  0.00000000E+00
  0.00000000E+00  0.00000000E+00  0.00000000E+00
  0.00000000E+00  0.00000000E+00  0.00000000E+00
  0.00000000E+00  0.00000000E+00  0.00000000E+00
  0.00000000E+00  0.00000000E+00  0.00000000E+00
  0.00000000E+00  0.00000000E+00  0.00000000E+00
  0.00000000E+00  0.00000000E+00  0.00000000E+00
  0.00000000E+00  0.00000000E+00  0.00000000E+00
  0.00000000E+00  0.00000000E+00  0.00000000E+00
  0.00000000E+00  0.00000000E+00  0.00000000E+00
  0.00000000E+00  0.00000000E+00  0.00000000E+00
  0.00000000E+00  0.00000000E+00  0.00000000E+00
  0.00000000E+00  0.00000000E+00  0.00000000E+00
  0.00000000E+00  0.00000000E+00  0.00000000E+00
  0.00000000E+00  0.00000000E+00  0.00000000E+00
  0.00000000E+00  0.00000000E+00  0.00000000E+00
  0.00000000E+00  0.00000000E+00  0.00000000E+00
  0.00000000E+00  0.00000000E+00  0.00000000E+00
  0.00000000E+00  0.00000000E+00  0.00000000E+00
  0.00000000E+00  0.00000000E+00  0.00000000E+00
  0.00000000E+00  0.00000000E+00  0.00000000E+00
  0.00000000E+00  0.00000000E+00  0.00000000E+00
  0.00000000E+00  0.00000000E+00  0.00000000E+00
  0.00000000E+00  0.00000000E+00  0.00000000E+00
  0.00000000E+00  0.00000000E+00  0.00000000E+00
  0.00000000E+00  0.00000000E+00  0.00000000E+00
  0.00000000E+00  0.00000000E+00  0.00000000E+00
  0.00000000E+00  0.00000000E+00  0.00000000E+00
  0.00000000E+00  0.00000000E+00  0.00000000E+00
  0.00000000E+00  0.00000000E+00  0.00000000E+00
  0.00000000E+00  0.00000000E+00  0.00000000E+00
  0.00000000E+00  0.00000000E+00  0.00000000E+00
  0.00000000E+00  0.00000000E+00  0.00000000E+00
  0.00000000E+00  0.00000000E+00  0.00000000E+00
  0.00000000E+00  0.00000000E+00  0.00000000E+00
  0.00000000E+00  0.00000000E+00  0.00000000E+00
  0.00000000E+00  0.00000000E+00  0.00000000E+00
  0.00000000E+00  0.00000000E+00  0.00000000E+00
  0.00000000E+00  0.00000000E+00  0.00000000E+00
  0.00000000E+00  0.00000000E+00  0.00000000E+00
  0.00000000E+00  0.00000000E+00  0.00000000E+00
  0.00000000E+00  0.00000000E+00  0.00000000E+00
  0.00000000E+00  0.00000000E+00  0.00000000E+00
  0.00000000E+00  0.00000000E+00  0.00000000E+00
  0.00000000E+00  0.00000000E+00  0.00000000E+00
  0.00000000E+00  0.00000000E+00  0.00000000E+00
  0.00000000E+00  0.00000000E+00  0.00000000E+00
  0.00000000E+00  0.00000000E+00  0.00000000E+00
  0.00000000E+00  0.00000000E+00  0.00000000E+00
  0.00000000E+00  0.00000000E+00  0.00000000E+00
  0.00000000E+00  0.00000000E+00  0.00000000E+00
  0.00000000E+00  0.00000000E+00  0.00000000E+00
  0.00000000E+00  0.00000000E+00  0.00000000E+00
  0.00000000E+00  0.00000000E+00  0.00000000E+00
  0.00000000E+00  0.00000000E+00  0.00000000E+00
  0.00000000E+00  0.00000000E+00  0.00000000E+00
  0.00000000E+00  0.00000000E+00  0.00000000E+00
  0.00000000E+00  0.00000000E+00  0.00000000E+00
  0.00000000E+00  0.00000000E+00  0.00000000E+00
  0.00000000E+00  0.00000000E+00  0.00000000E+00
  0.00000000E+00  0.00000000E+00  0.00000000E+00
  0.00000000E+00  0.00000000E+00  0.00000000E+00
  0.00000000E+00  0.00000000E+00  0.00000000E+00
  0.00000000E+00  0.00000000E+00  0.00000000E+00
  0.00000000E+00  0.00000000E+00  0.00000000E+00
  0.00000000E+00  0.00000000E+00  0.00000000E+00
  0.00000000E+00  0.00000000E+00  0.00000000E+00
  0.00000000E+00  0.00000000E+00  0.00000000E+00
  0.00000000E+00  0.00000000E+00  0.00000000E+00
  0.00000000E+00  0.00000000E+00  0.00000000E+00
  0.00000000E+00  0.00000000E+00  0.00000000E+00
  0.00000000E+00  0.00000000E+00  0.00000000E+00
  0.00000000E+00  0.00000000E+00  0.00000000E+00
  0.00000000E+00  0.00000000E+00  0.00000000E+00
  0.00000000E+00  0.00000000E+00  0.00000000E+00
  0.00000000E+00  0.00000000E+00  0.00000000E+00
  0.00000000E+00  0.00000000E+00  0.00000000E+00
  0.00000000E+00  0.00000000E+00  0.00000000E+00
  0.00000000E+00  0.00000000E+00  0.00000000E+00
  0.00000000E+00  0.00000000E+00  0.00000000E+00
  0.00000000E+00  0.00000000E+00  0.00000000E+00
  0.00000000E+00  0.00000000E+00  0.00000000E+00
  0.00000000E+00  0.00000000E+00  0.00000000E+00
  0.00000000E+00  0.00000000E+00  0.00000000E+00
  0.00000000E+00  0.00000000E+00  0.00000000E+00
  0.00000000E+00  0.00000000E+00  0.00000000E+00
  0.00000000E+00  0.00000000E+00  0.00000000E+00
  0.00000000E+00  0.00000000E+00  0.00000000E+00
  0.00000000E+00  0.00000000E+00  0.00000000E+00
  0.00000000E+00  0.00000000E+00  0.00000000E+00
  0.00000000E+00  0.00000000E+00  0.00000000E+00
  0.00000000E+00  0.00000000E+00  0.00000000E+00
  0.00000000E+00  0.00000000E+00  0.00000000E+00
  0.00000000E+00  0.00000000E+00  0.00000000E+00
  0.00000000E+00  0.00000000E+00  0.00000000E+00
  0.00000000E+00  0.00000000E+00  0.00000000E+00
  0.00000000E+00  0.00000000E+00  0.00000000E+00
  0.00000000E+00  0.00000000E+00  0.00000000E+00
  0.00000000E+00  0.00000000E+00  0.00000000E+00
  0.00000000E+00  0.00000000E+00  0.00000000E+00
  0.00000000E+00  0.00000000E+00  0.00000000E+00
  0.00000000E+00  0.00000000E+00  0.00000000E+00
  0.00000000E+00  0.00000000E+00  0.00000000E+00
  0.00000000E+00  0.00000000E+00  0.00000000E+00
  0.00000000E+00  0.00000000E+00  0.00000000E+00
  0.00000000E+00  0.00000000E+00  0.00000000E+00
  0.00000000E+00  0.00000000E+00  0.00000000E+00
  0.00000000E+00  0.00000000E+00  0.00000000E+00
  0.00000000E+00  0.00000000E+00  0.00000000E+00
  0.00000000E+00  0.00000000E+00  0.00000000E+00
  0.00000000E+00  0.00000000E+00  0.00000000E+00
  0.00000000E+00  0.00000000E+00  0.00000000E+00
  0.00000000E+00  0.00000000E+00  0.00000000E+00
  0.00000000E+00  0.00000000E+00  0.00000000E+00
  0.00000000E+00  0.00000000E+00  0.00000000E+00
  0.00000000E+00  0.00000000E+00  0.00000000E+00
  0.00000000E+00  0.00000000E+00  0.00000000E+00
  0.00000000E+00  0.00000000E+00  0.00000000E+00
  0.00000000E+00  0.00000000E+00  0.00000000E+00
  0.00000000E+00  0.00000000E+00  0.00000000E+00
  0.00000000E+00  0.00000000E+00  0.00000000E+00
  0.00000000E+00  0.00000000E+00  0.00000000E+00
  0.00000000E+00  0.00000000E+00  0.00000000E+00
  0.00000000E+00  0.00000000E+00  0.00000000E+00
  0.00000000E+00  0.00000000E+00  0.00000000E+00
  0.00000000E+00  0.00000000E+00  0.00000000E+00
  0.00000000E+00  0.00000000E+00  0.00000000E+00
  0.00000000E+00  0.00000000E+00  0.00000000E+00
