generated by phonopy                    
   1.00000000000000     
    10.0351470768999995   -0.0000022330999784   -0.0000001056124209
    -5.0175765436399997    8.6906901959899994    0.0000001395531216
    -0.0000001735893656    0.0000001431815548   14.9533752540999991
   Cu   Pb   P    O 
     1    19    12    50
Direct
  0.9657026009408725  0.8061901231022119  0.0497682768626859
  0.9982517529293133  0.7656834874973910  0.6161918178354924
  0.0043363537036711  0.2580227099245960  0.3713244120650145
  0.0019452712432084  0.2654102645789322  0.8782942875639606
  0.2262204941627033  0.2112997539048607  0.1144058393694181
  0.2469607549142836  0.2338676570708174  0.6163980539487284
  0.7344127098107549  0.7371738548546958  0.3695783850036136
  0.7320951174852155  0.7400616032563292  0.8647627497852142
  0.7700516875968191  0.0023504558843115  0.1197214062615899
  0.7752668553156781  0.0130872307304344  0.6212125711576491
  0.2585592780499653  0.9935955772390059  0.3608997594357035
  0.2648553725820406  0.0051625008530252  0.8675585826726078
  0.6706004706534046  0.3331840321448709  0.0042352751915189
  0.6686844058082926  0.3264045081409321  0.4971890499413121
  0.3429460458824352  0.6728211838588862  0.0074411062229558
  0.3445283959030405  0.6762000564668611  0.5040636585469827
  0.3161888915103646  0.6630508598129268  0.2450263759182931
  0.3236726157700431  0.6588351775428407  0.7463805726347559
  0.6785561998247829  0.3524919870933445  0.2458356283707701
  0.6724175030392772  0.3346317344224019  0.7496240705543755
  0.6242237472803396  0.5947182744086348  0.1282469478514940
  0.6192079977948666  0.5953149598011649  0.6269736915696598
  0.3698267911703184  0.3916445676701130  0.3802638133550857
  0.3671160140172987  0.3914927089546438  0.8717946057987760
  0.4069022095798260  0.0267657101120236  0.1241951709268889
  0.4070131044036955  0.0280709467788256  0.6267959242205094
  0.6086696114792147  0.9762476909178872  0.3767683192516316
  0.6032556460290408  0.9733348174901337  0.8744630400894664
  0.9747586603200702  0.3760335792086096  0.1249489675609681
  0.9710713787293628  0.3791924369385882  0.6255218663880981
  0.0308396528837918  0.6282772681038580  0.3800975659899208
  0.0188318130251517  0.6317457254418528  0.8788599964034134
  0.5117910946377506  0.6592641831289257  0.1237895195306606
  0.5015682348875998  0.6536063048605101  0.6275546062479904
  0.4762039272353533  0.3204753078454488  0.3771360562042076
  0.4688930960551545  0.3151624809999660  0.8692880342643079
  0.3589411281695405  0.8533491714621277  0.1254017786435000
  0.3416012156182333  0.8507103544587338  0.6275709108705669
  0.6849387570622412  0.1545842223314438  0.3772802759200928
  0.6814124895377347  0.1516096266443370  0.8724541105840942
  0.1506798105816358  0.4960012714187272  0.1230360552675265
  0.1490818643159812  0.4886620564480424  0.6248921368673237
  0.8523666651200443  0.5281421088561942  0.3752476038968169
  0.8415547391753435  0.5266247271016766  0.8716746355757437
  0.7464254739665321  0.6677822918271659  0.0501607883341890
  0.7363503261179360  0.6666711751221897  0.5480623797023014
  0.2603701015554805  0.3369315801329904  0.4644044120119375
  0.2548493340381199  0.3341311929537270  0.9539834798825524
  0.3425493240473116  0.0701034464671864  0.0399654891944436
  0.3468509607030654  0.0785238646952351  0.5438353573209298
  0.6399402421009981  0.9111078673427997  0.4647591552548747
  0.6460818681307927  0.9126969482638785  0.9599237006000436
  0.9283242722253604  0.2655076684256343  0.0413265971600509
  0.9169182134799527  0.2673462654281948  0.5427359258128277
  0.0847340177548617  0.7356454050094641  0.4642065960703050
  0.0618780977095952  0.7342462089498412  0.9654307058057512
  0.2609994656506061  0.3459476552374383  0.2973001968017215
  0.2638834121385614  0.3569338202858532  0.7864580266821619
  0.7036604003942912  0.6252773866280776  0.2212682648223137
  0.7154792385822546  0.6389341756450122  0.7155737668446136
  0.6684178225739927  0.9188263015375426  0.2973312230345329
  0.6501205376202108  0.9085660952124428  0.7919111294509520
  0.3447046932184605  0.0724187341808573  0.2082143254464128
  0.3549084510818261  0.0814943654087017  0.7122164332800196
  0.1035508084942336  0.7343044602478201  0.2966177923744837
  0.0895261921693802  0.7421969598126594  0.7971567010047309
  0.9333746292614009  0.2706209590265090  0.2099990491776325
  0.9161781742489197  0.2758139693945694  0.7116386464435536
  0.5376994111865088  0.4156673521411136  0.1128519286588698
  0.5317482970742802  0.4140329354840304  0.6181633927743917
  0.4707371784938275  0.5735362103474699  0.3850472266566314
  0.4718127638833209  0.5728635036273602  0.8794216789395506
  0.5871431452003222  0.1287795384095745  0.1226968946868752
  0.5877233650978226  0.1186601142996579  0.6238623259029836
  0.4274532257564516  0.9000178932982479  0.3681790066234072
  0.4219580485029724  0.8986708254732250  0.8727864867444808
  0.8753518606810005  0.4561948515062966  0.1238279478999544
  0.8838927321014936  0.4729139852444106  0.6223871383545756
  0.1039654719311187  0.5201297830776141  0.3842395741333675
  0.0990826620203151  0.5307139708429460  0.8845139389377579
  0.9942047556571794  0.9855478380997980  0.0966467006353326
  0.0154709339068404  0.0226867724900472  0.6179596862947392
 
  0.00000000E+00  0.00000000E+00  0.00000000E+00
  0.00000000E+00  0.00000000E+00  0.00000000E+00
  0.00000000E+00  0.00000000E+00  0.00000000E+00
  0.00000000E+00  0.00000000E+00  0.00000000E+00
  0.00000000E+00  0.00000000E+00  0.00000000E+00
  0.00000000E+00  0.00000000E+00  0.00000000E+00
  0.00000000E+00  0.00000000E+00  0.00000000E+00
  0.00000000E+00  0.00000000E+00  0.00000000E+00
  0.00000000E+00  0.00000000E+00  0.00000000E+00
  0.00000000E+00  0.00000000E+00  0.00000000E+00
  0.00000000E+00  0.00000000E+00  0.00000000E+00
  0.00000000E+00  0.00000000E+00  0.00000000E+00
  0.00000000E+00  0.00000000E+00  0.00000000E+00
  0.00000000E+00  0.00000000E+00  0.00000000E+00
  0.00000000E+00  0.00000000E+00  0.00000000E+00
  0.00000000E+00  0.00000000E+00  0.00000000E+00
  0.00000000E+00  0.00000000E+00  0.00000000E+00
  0.00000000E+00  0.00000000E+00  0.00000000E+00
  0.00000000E+00  0.00000000E+00  0.00000000E+00
  0.00000000E+00  0.00000000E+00  0.00000000E+00
  0.00000000E+00  0.00000000E+00  0.00000000E+00
  0.00000000E+00  0.00000000E+00  0.00000000E+00
  0.00000000E+00  0.00000000E+00  0.00000000E+00
  0.00000000E+00  0.00000000E+00  0.00000000E+00
  0.00000000E+00  0.00000000E+00  0.00000000E+00
  0.00000000E+00  0.00000000E+00  0.00000000E+00
  0.00000000E+00  0.00000000E+00  0.00000000E+00
  0.00000000E+00  0.00000000E+00  0.00000000E+00
  0.00000000E+00  0.00000000E+00  0.00000000E+00
  0.00000000E+00  0.00000000E+00  0.00000000E+00
  0.00000000E+00  0.00000000E+00  0.00000000E+00
  0.00000000E+00  0.00000000E+00  0.00000000E+00
  0.00000000E+00  0.00000000E+00  0.00000000E+00
  0.00000000E+00  0.00000000E+00  0.00000000E+00
  0.00000000E+00  0.00000000E+00  0.00000000E+00
  0.00000000E+00  0.00000000E+00  0.00000000E+00
  0.00000000E+00  0.00000000E+00  0.00000000E+00
  0.00000000E+00  0.00000000E+00  0.00000000E+00
  0.00000000E+00  0.00000000E+00  0.00000000E+00
  0.00000000E+00  0.00000000E+00  0.00000000E+00
  0.00000000E+00  0.00000000E+00  0.00000000E+00
  0.00000000E+00  0.00000000E+00  0.00000000E+00
  0.00000000E+00  0.00000000E+00  0.00000000E+00
  0.00000000E+00  0.00000000E+00  0.00000000E+00
  0.00000000E+00  0.00000000E+00  0.00000000E+00
  0.00000000E+00  0.00000000E+00  0.00000000E+00
  0.00000000E+00  0.00000000E+00  0.00000000E+00
  0.00000000E+00  0.00000000E+00  0.00000000E+00
  0.00000000E+00  0.00000000E+00  0.00000000E+00
  0.00000000E+00  0.00000000E+00  0.00000000E+00
  0.00000000E+00  0.00000000E+00  0.00000000E+00
  0.00000000E+00  0.00000000E+00  0.00000000E+00
  0.00000000E+00  0.00000000E+00  0.00000000E+00
  0.00000000E+00  0.00000000E+00  0.00000000E+00
  0.00000000E+00  0.00000000E+00  0.00000000E+00
  0.00000000E+00  0.00000000E+00  0.00000000E+00
  0.00000000E+00  0.00000000E+00  0.00000000E+00
  0.00000000E+00  0.00000000E+00  0.00000000E+00
  0.00000000E+00  0.00000000E+00  0.00000000E+00
  0.00000000E+00  0.00000000E+00  0.00000000E+00
  0.00000000E+00  0.00000000E+00  0.00000000E+00
  0.00000000E+00  0.00000000E+00  0.00000000E+00
  0.00000000E+00  0.00000000E+00  0.00000000E+00
  0.00000000E+00  0.00000000E+00  0.00000000E+00
  0.00000000E+00  0.00000000E+00  0.00000000E+00
  0.00000000E+00  0.00000000E+00  0.00000000E+00
  0.00000000E+00  0.00000000E+00  0.00000000E+00
  0.00000000E+00  0.00000000E+00  0.00000000E+00
  0.00000000E+00  0.00000000E+00  0.00000000E+00
  0.00000000E+00  0.00000000E+00  0.00000000E+00
  0.00000000E+00  0.00000000E+00  0.00000000E+00
  0.00000000E+00  0.00000000E+00  0.00000000E+00
  0.00000000E+00  0.00000000E+00  0.00000000E+00
  0.00000000E+00  0.00000000E+00  0.00000000E+00
  0.00000000E+00  0.00000000E+00  0.00000000E+00
  0.00000000E+00  0.00000000E+00  0.00000000E+00
  0.00000000E+00  0.00000000E+00  0.00000000E+00
  0.00000000E+00  0.00000000E+00  0.00000000E+00
  0.00000000E+00  0.00000000E+00  0.00000000E+00
  0.00000000E+00  0.00000000E+00  0.00000000E+00
  0.00000000E+00  0.00000000E+00  0.00000000E+00
  0.00000000E+00  0.00000000E+00  0.00000000E+00
