As   O    Li                            
   1.00000000000000     
    -0.0000417721707151    0.0000006071043817   -5.0461963699499996
     0.0000308225053865   -5.5279435720504804    0.0000006571744832
    -6.4549508997511778    0.0000366645951203   -0.0000339540035243
   As   O    Li
     2     8     6
Direct
  0.1548715421784905  0.1724489682864672  0.9958478904855781
  0.4981270145185093  0.8293532951678984  0.4958113690947314
  0.0703316308299975  0.8697547666622043  0.9958452884086384
  0.5009521045288352  0.1745422265672048  0.9958365942959801
  0.0666039190780907  0.3219486290570188  0.7712306981407977
  0.0665924697027904  0.3219326149470518  0.2204717804148117
  0.6110944164648515  0.6810606041142506  0.7144301435193867
  0.6110709990400593  0.6810815954311735  0.2771837352207029
  0.1561434504006982  0.8257148593921713  0.4958405083459070
  0.6087060636835773  0.1248686327652280  0.4958451455926749
  0.0061858514636057  0.6736564086541463  0.7473292671174363
  0.0061854252181419  0.6736231047206402  0.2443825949761376
  0.5613684067255846  0.8263503944199755  0.9957589441524846
  0.0059719731331711  0.1581896314410542  0.4958458708068676
  0.5619922135249169  0.3327493307126375  0.7353147095343999
  0.5620260088808848  0.3327256051525183  0.2563590581954642
 
             NaN             NaN             NaN
             NaN             NaN             NaN
             NaN             NaN             NaN
             NaN             NaN             NaN
             NaN             NaN             NaN
             NaN             NaN             NaN
             NaN             NaN             NaN
             NaN             NaN             NaN
             NaN             NaN             NaN
             NaN             NaN             NaN
             NaN             NaN             NaN
             NaN             NaN             NaN
             NaN             NaN             NaN
             NaN             NaN             NaN
             NaN             NaN             NaN
             NaN             NaN             NaN
