As   O    Li                            
   1.00000000000000     
     0.0000329421438269    0.0000006071043803   -5.0461963699499996
    -0.0000181196293201   -5.5306774892912944    0.0000006571744863
    -6.4498713873709308   -0.0000200328293988    0.0000295910207755
   As   O    Li
     2     8     6
Direct
  0.1332317303599027  0.1710358826215099  0.9958150670299020
  0.4825173538870828  0.8273705738914430  0.4958410438916090
  0.0230398197974253  0.8756542841991006  0.9958461122360802
  0.4752563652816804  0.1743517483317163  0.9958395592734846
  0.0205738686105477  0.3188456079117969  0.7768942791145790
  0.0205500123799851  0.3188651415426662  0.2147054789661667
  0.5777661148196671  0.6787848045626887  0.7192419254815476
  0.5777435372677786  0.6787763265544555  0.2724541401018712
  0.1372002914467743  0.8251766566465264  0.4958430433392778
  0.5723531225833014  0.1285629638389736  0.4958452823363686
  0.0512647752079332  0.6687183125683873  0.7540650514008860
  0.0513158238760951  0.6686890014578211  0.2376315226241914
  0.6234233131617657  0.8422018346637330  0.9958406849347625
  0.0551060574307343  0.1703861881067112  0.4957567767880064
  0.6234400027288771  0.3263044154957910  0.7442644228600628
  0.6234413005330168  0.3262769250983482  0.2474492079232320
 
             NaN             NaN             NaN
             NaN             NaN             NaN
             NaN             NaN             NaN
             NaN             NaN             NaN
             NaN             NaN             NaN
             NaN             NaN             NaN
             NaN             NaN             NaN
             NaN             NaN             NaN
             NaN             NaN             NaN
             NaN             NaN             NaN
             NaN             NaN             NaN
             NaN             NaN             NaN
             NaN             NaN             NaN
             NaN             NaN             NaN
             NaN             NaN             NaN
             NaN             NaN             NaN
