As   O    Li                            
   1.00000000000000     
     0.0000399503809733    0.0000006071043801   -5.0461963699499996
    -0.0000264584970793   -5.5280862362766250    0.0000006571744868
    -6.4548440321513141   -0.0000297139491015    0.0000377644479481
   As   O    Li
     2     8     6
Direct
  0.1328593635180937  0.1706432050924107  0.9958153722572121
  0.4764861171122377  0.8276030210827514  0.4958465620960126
  0.0223449276342578  0.8751183104966174  0.9958443412548021
  0.4748540368035350  0.1742948651256668  0.9958407772432167
  0.0199413839198357  0.3189171834676614  0.7771771679085688
  0.0199185455202127  0.3189371482213659  0.2144302053116292
  0.5648580859699166  0.6781006755134271  0.7204401590868983
  0.5648428680979620  0.6780862851095506  0.2712632363688172
  0.1304452429144263  0.8255383839747807  0.4958368648405624
  0.5615388735244409  0.1301507384718903  0.4958449108642640
  0.0687591347281682  0.6672787695794611  0.7563271302387591
  0.0688131914372647  0.6672554670464166  0.2353451324414451
  0.6248646605452990  0.8418052934890810  0.9958503673877033
  0.0685279741551668  0.1734507174301143  0.4957574069829747
  0.6245845471155818  0.3264241789346300  0.7443915342131504
  0.6245845363761333  0.3263964244558437  0.2473224298059975
 
             NaN             NaN             NaN
             NaN             NaN             NaN
             NaN             NaN             NaN
             NaN             NaN             NaN
             NaN             NaN             NaN
             NaN             NaN             NaN
             NaN             NaN             NaN
             NaN             NaN             NaN
             NaN             NaN             NaN
             NaN             NaN             NaN
             NaN             NaN             NaN
             NaN             NaN             NaN
             NaN             NaN             NaN
             NaN             NaN             NaN
             NaN             NaN             NaN
             NaN             NaN             NaN
