As   O    Li                            
   1.00000000000000     
    -0.0000434000345121    0.0000006071043824   -5.0461963699499996
     0.0000806809388762   -5.5268030127396504    0.0000006571744816
    -6.4720206557971105    0.0000948022801390   -0.0000339794575078
   As   O    Li
     2     8     6
Direct
  0.1148971499194360  0.1716901599745668  0.9958335713817164
  0.5009270798761349  0.8300768182182594  0.4958118236441820
  0.0903186366816087  0.8626313728044721  0.9958177656314433
  0.5540026809250804  0.1749034003440428  0.9958543308087116
  0.0906506085493888  0.3247961151956460  0.7665425852859826
  0.0906322584613832  0.3247808674329278  0.2251533275313093
  0.6120040450970450  0.6799266849276648  0.7137197733325138
  0.6119939847416802  0.6799375006767505  0.2778875361774666
  0.1572781828705132  0.8262220351918899  0.4958187092063184
  0.6099119923839922  0.1264225836482069  0.4958538005684616
  0.0021621142995514  0.6743500180683455  0.7430949802157727
  0.0021549298581860  0.6743204889247210  0.2485526130370275
  0.5388374939777876  0.8333286364892771  0.9957856352008960
  0.0020117112911677  0.1560265318544225  0.4958581609083268
  0.5352135748331435  0.3303129883067371  0.7407492105770430
  0.5352270456061063  0.3302744654336962  0.2509997747948418
 
             NaN             NaN             NaN
             NaN             NaN             NaN
             NaN             NaN             NaN
             NaN             NaN             NaN
             NaN             NaN             NaN
             NaN             NaN             NaN
             NaN             NaN             NaN
             NaN             NaN             NaN
             NaN             NaN             NaN
             NaN             NaN             NaN
             NaN             NaN             NaN
             NaN             NaN             NaN
             NaN             NaN             NaN
             NaN             NaN             NaN
             NaN             NaN             NaN
             NaN             NaN             NaN
