As   O    Li                            
   1.00000000000000     
     0.0000242939352085    0.0000006071043808   -5.0461963699499996
    -0.0000020389455318   -5.5335785673059750    0.0000006571744853
    -6.4378801028310368   -0.0000013300625267    0.0000197787334588
   As   O    Li
     2     8     6
Direct
  0.1330857573519637  0.1721151113945965  0.9958139637393515
  0.4944049647903341  0.8272220603178653  0.4958410660802812
  0.0242363141881725  0.8765317769423078  0.9958412105866827
  0.4755995657071068  0.1743040765997961  0.9958436248673195
  0.0220450334014402  0.3193428255441333  0.7760083676926754
  0.0220175227353465  0.3193599934656746  0.2156023631715129
  0.6017123473510253  0.6799853132588112  0.7168913971256572
  0.6017084639645844  0.6799808536204424  0.2747939896115028
  0.1507932244109682  0.8250271102066122  0.4958369015407911
  0.5970262371391541  0.1248255719889357  0.4958507355310076
  0.0186026570597875  0.6723586148546374  0.7481247772956152
  0.0186396916269018  0.6723371640804530  0.2435588402059210
  0.6211591712638480  0.8437479781532744  0.9958308877398139
  0.0237132736382719  0.1607930304499376  0.4957646076395577
  0.6217436437423203  0.3260492357494655  0.7452177497141221
  0.6217356210013563  0.3260199508647261  0.2465131157602158
 
             NaN             NaN             NaN
             NaN             NaN             NaN
             NaN             NaN             NaN
             NaN             NaN             NaN
             NaN             NaN             NaN
             NaN             NaN             NaN
             NaN             NaN             NaN
             NaN             NaN             NaN
             NaN             NaN             NaN
             NaN             NaN             NaN
             NaN             NaN             NaN
             NaN             NaN             NaN
             NaN             NaN             NaN
             NaN             NaN             NaN
             NaN             NaN             NaN
             NaN             NaN             NaN
