As   O    Li
   1.00000000000000     
   0.0000000617356516   0.0000006071043781  -5.0461963699499996
   0.0000000309417899  -5.4664463020599996   0.0000006571744916
  -6.3615488671599998   0.0000000355567105   0.0000000860019734
As   O    Li
2  8  6  
Direct
  0.1242744740328021  0.1711183634316384  0.9958334082339420  
  0.6242745731378321  0.8288817382029663  0.4958334114922351  
  0.0143815481013903  0.8713860489808170  0.9958333945889279  
  0.4670569630291723  0.1761018272615615  0.9958334187952148  
  0.0119701128468819  0.3207505052926152  0.7729601860724884  
  0.0119701702386052  0.3207503500457918  0.2187067553977471  
  0.5119703742236226  0.6792498341257414  0.7187068160574412  
  0.5119703186791043  0.6792496792757632  0.2729601147577441  
  0.9670570847027022  0.8238986431812023  0.4958334165304024  
  0.5143814299132501  0.1286141113097159  0.4958333963820962  
  0.1173791531113153  0.6697841512320437  0.7480713923827622  
  0.1173784757893443  0.6697839079509720  0.2435951749253604  
  0.6171472270314382  0.8357869663581710  0.9958332027720260  
  0.1171469832081868  0.1642142664618831  0.4958331999637124  
  0.6173784162196370  0.3302155922240786  0.7435951240847700  
  0.6173790954743410  0.3302153496400067  0.2480714507137094  
