As   O    Li                            
   1.00000000000000     
    -0.0000239367410188    0.0000006071043812   -5.0461963699499996
     0.0000028782903023   -5.5320292234855630    0.0000006571744842
    -6.4450464472723894    0.0000040928211973   -0.0000135312343015
   As   O    Li
     2     8     6
Direct
  0.1429109693816883  0.1728408116166946  0.9958444143759237
  0.4976086031800406  0.8285293980453048  0.4958149851917710
  0.0484116812671189  0.8729121266765318  0.9958513711799881
  0.4875151970962577  0.1753454723418244  0.9958371560038373
  0.0411358692440729  0.3205731829321081  0.7736256123212968
  0.0411311495877769  0.3205634843103411  0.2180640602210389
  0.6097381958739874  0.6810555650432377  0.7150674914971944
  0.6097112712668036  0.6810702663092201  0.2765457464332428
  0.1554267131995175  0.8256407374253598  0.4958414540840010
  0.6072661873167746  0.1239449333743039  0.4958455550831786
  0.0082636748900597  0.6739620377489146  0.7472016837068622
  0.0082443731817676  0.6739249470609039  0.2445211534489218
  0.5884774349466326  0.8332413832790948  0.9957611399451878
  0.0087409532678606  0.1571596468867256  0.4958301239712100
  0.5968127767079920  0.3296399802625842  0.7403969653255658
  0.5968284389638470  0.3295966941784840  0.2512846855128075
 
             NaN             NaN             NaN
             NaN             NaN             NaN
             NaN             NaN             NaN
             NaN             NaN             NaN
             NaN             NaN             NaN
             NaN             NaN             NaN
             NaN             NaN             NaN
             NaN             NaN             NaN
             NaN             NaN             NaN
             NaN             NaN             NaN
             NaN             NaN             NaN
             NaN             NaN             NaN
             NaN             NaN             NaN
             NaN             NaN             NaN
             NaN             NaN             NaN
             NaN             NaN             NaN
