As   O    Li                            
   1.00000000000000     
    -0.0000134569206524    0.0000006071043810   -5.0461963699499996
    -0.0000001286854822   -5.5331751594528855    0.0000006571744847
    -6.4384486783008361    0.0000005273141878   -0.0000021364716889
   As   O    Li
     2     8     6
Direct
  0.1369646227181534  0.1728264507949575  0.9958413170853291
  0.4978202075124329  0.8279058006145021  0.4958151527520442
  0.0350149365293220  0.8750078272548265  0.9958515933197987
  0.4806206600024936  0.1751694444079490  0.9958343756281209
  0.0297127178463370  0.3200390935430804  0.7747735958148425
  0.0297140303565300  0.3200336128092687  0.2169106103430494
  0.6089176002712051  0.6806583461735300  0.7155888378932076
  0.6088882828690743  0.6806728276161564  0.2760281654104588
  0.1553175179040380  0.8256767243984626  0.4958413128335835
  0.6066964311299259  0.1235049789230445  0.4958424305644300
  0.0092015761275590  0.6740403300371298  0.7466016734750269
  0.0091700393765066  0.6740040183504519  0.2451244181094694
  0.6055159638231871  0.8387140403381110  0.9957675627993368
  0.0100613074976863  0.1563814737014724  0.4958259342268647
  0.6123079322793714  0.3276950577470714  0.7434561814881775
  0.6122996631283826  0.3276706407816334  0.2482304365582877
 
             NaN             NaN             NaN
             NaN             NaN             NaN
             NaN             NaN             NaN
             NaN             NaN             NaN
             NaN             NaN             NaN
             NaN             NaN             NaN
             NaN             NaN             NaN
             NaN             NaN             NaN
             NaN             NaN             NaN
             NaN             NaN             NaN
             NaN             NaN             NaN
             NaN             NaN             NaN
             NaN             NaN             NaN
             NaN             NaN             NaN
             NaN             NaN             NaN
             NaN             NaN             NaN
