As   O    Li                            
   1.00000000000000     
     0.0000363411504714    0.0000006071043799   -5.0461963699499996
    -0.0000510185769028   -5.5252195996027869    0.0000006571744874
    -6.4622406415266518   -0.0000583357061555    0.0000322068162248
   As   O    Li
     2     8     6
Direct
  0.1320279903293695  0.1703514447261298  0.9958149861880088
  0.4718214405206353  0.8279025836995402  0.4958450429034613
  0.0217321179900409  0.8744040242467648  0.9958479137784622
  0.4742213128360291  0.1741009870706094  0.9958317060872162
  0.0194104654434639  0.3192268603958937  0.7774075269742511
  0.0193947676187989  0.3192426547251941  0.2142049717573968
  0.5516822099008110  0.6773355754542436  0.7218643058050560
  0.5516727705104074  0.6773174874993018  0.2698399694032645
  0.1223391034193284  0.8256891570417650  0.4958411084323018
  0.5504796334196698  0.1322642367323468  0.4958329645356798
  0.0857835541291934  0.6667382097987584  0.7566921934258346
  0.0857985004158195  0.6667184935742227  0.2349967474703192
  0.6268226051435590  0.8421685563198551  0.9958564628323217
  0.0822243820625772  0.1738960364967852  0.4957676591916922
  0.6264073570034725  0.3263380350936629  0.7456311198606684
  0.6264052786293846  0.3263063246165814  0.2460589196560647
 
             NaN             NaN             NaN
             NaN             NaN             NaN
             NaN             NaN             NaN
             NaN             NaN             NaN
             NaN             NaN             NaN
             NaN             NaN             NaN
             NaN             NaN             NaN
             NaN             NaN             NaN
             NaN             NaN             NaN
             NaN             NaN             NaN
             NaN             NaN             NaN
             NaN             NaN             NaN
             NaN             NaN             NaN
             NaN             NaN             NaN
             NaN             NaN             NaN
             NaN             NaN             NaN
