As   O    Li                            
   1.00000000000000     
     0.0000409206575251    0.0000006071043790   -5.0461963699499996
    -0.0000609019542811   -5.5250134103077455    0.0000006571744895
    -6.4700063598051125   -0.0000697962067797    0.0000373818512462
   As   O    Li
     2     8     6
Direct
  0.1299047386927299  0.1698824791473044  0.9958120299760935
  0.5731921349961340  0.8283830936813388  0.4958421208861949
  0.0208569994346988  0.8734554413837188  0.9958528068700332
  0.4736520224978236  0.1738699174742280  0.9958183303682944
  0.0186714486702897  0.3201311793554851  0.7778706446787211
  0.0186647850778741  0.3201411203695841  0.2137407047576261
  0.5334191348875379  0.6756834869951973  0.7244779078366079
  0.5334107325850468  0.6756608103458390  0.2672116710839276
  0.0377574859600216  0.8247263364382604  0.4958549928794724
  0.5342412761828612  0.1366165838929660  0.4958173240331050
  0.0978457441960501  0.6701526314502573  0.7501401398167289
  0.0978435772628430  0.6701162828819136  0.2416082742692041
  0.6285857583405985  0.8439189775701266  0.9958586385535355
  0.0935202493201430  0.1656981775885598  0.4957853892047979
  0.6283252730627851  0.3257973005104660  0.7486509154505754
  0.6283321282051091  0.3257668484064240  0.2429917076370813
 
             NaN             NaN             NaN
             NaN             NaN             NaN
             NaN             NaN             NaN
             NaN             NaN             NaN
             NaN             NaN             NaN
             NaN             NaN             NaN
             NaN             NaN             NaN
             NaN             NaN             NaN
             NaN             NaN             NaN
             NaN             NaN             NaN
             NaN             NaN             NaN
             NaN             NaN             NaN
             NaN             NaN             NaN
             NaN             NaN             NaN
             NaN             NaN             NaN
             NaN             NaN             NaN
