As   O    Li                            
   1.00000000000000     
    -0.0000475257721255    0.0000006071043830   -5.0461963699499996
     0.0000772133238410   -5.5222482511195690    0.0000006571744800
    -6.4662386912451932    0.0000907407355928   -0.0000392690667330
   As   O    Li
     2     8     6
Direct
  0.0302722992323154  0.1717196504253877  0.9958401187200607
  0.5006525044457462  0.8299562366404984  0.4958085362328220
  0.0992425946776052  0.8654897635814010  0.9958177321101189
  0.6158550658209165  0.1752917609325522  0.9958528479695232
  0.1001882155670941  0.3233555785556987  0.7687302174697805
  0.1001750069788088  0.3233362443424141  0.2229589647668035
  0.6123991657545815  0.6799412331207151  0.7139191058791425
  0.6123876622778539  0.6799540269955457  0.2776915948051055
  0.1573102919743405  0.8260352936335806  0.4958185498944161
  0.6102683898449541  0.1264577273762768  0.4958534552752312
  0.0030519861272182  0.6740398924169853  0.7432555391973708
  0.0030451695052491  0.6740097033894514  0.2483933121574680
  0.5358814969781349  0.8342271090562292  0.9957872304059450
  0.0028524109114443  0.1564698445356072  0.4958575577289395
  0.5323145907315165  0.3298778678968191  0.7416447910185084
  0.5323266385444327  0.3298387345924709  0.2501040446708060
 
             NaN             NaN             NaN
             NaN             NaN             NaN
             NaN             NaN             NaN
             NaN             NaN             NaN
             NaN             NaN             NaN
             NaN             NaN             NaN
             NaN             NaN             NaN
             NaN             NaN             NaN
             NaN             NaN             NaN
             NaN             NaN             NaN
             NaN             NaN             NaN
             NaN             NaN             NaN
             NaN             NaN             NaN
             NaN             NaN             NaN
             NaN             NaN             NaN
             NaN             NaN             NaN
