POSCAR                                  
   1.04800000000000     
    -4.8346784375300000   -2.8985936431799999   10.1351822661999993
    -0.0565178030057000   -5.6645950031199996   10.1446794534000002
     9.6594353388799998   16.7571959572000004    4.8885445441700002
   Al   Gd   N 
    36    18    54
Direct
  0.9413809874207146  0.2439101056697197  0.1337955228994687
  0.0883119208362899  0.4481887070795025  0.3945030125471263
  0.0541616359357207  0.4330352905815005  0.5390349245841719
  0.0030163862494206  0.3387916398110633  0.8341530263916184
  0.9722775024285326  0.2907604177425753  0.9831109865617762
  0.4012117948257625  0.7433263300368864  0.2105114312309908
  0.3473954749710799  0.7482375169612610  0.3543529237616454
  0.3434054156654440  0.6760568363295150  0.4905569956170126
  0.2456875161589807  0.6007117653458138  0.7944079860916560
  0.2331254749200369  0.5417996276991346  0.9425818317351613
  0.6180987716116562  0.9503792240347551  0.3235223593811796
  0.5854598536802271  0.9251528331170960  0.4657944843874589
  0.5645245416069287  0.8800947312330507  0.6129012142353290
  0.5119403269153651  0.8678165654146071  0.7575442587381858
  0.9028058782038215  0.2234805274246696  0.2740885258157775
  0.8605773218634880  0.2060832652220910  0.4264139531859144
  0.7808898482219533  0.0973882955489032  0.7248509189208292
  0.7302917756677445  0.0766616788714813  0.8695201812644839
  0.7208367124623507  0.0195864274165061  0.0048984596061104
  0.1570416638358694  0.8036565519107839  0.0788097373469583
  0.3747420965118806  0.0193469927016849  0.1940722095404013
  0.3269200070811920  0.0093791688112077  0.3325852604059918
  0.2846675593354817  0.9850603463681011  0.4855317607488416
  0.2736254248948171  0.9251058778473364  0.6248908732998402
  0.2007247803924557  0.9096554310406972  0.7637632657697893
  0.4887998262770878  0.1444035784752700  0.7478919457798980
  0.4499942196163715  0.1124046357456052  0.8844436360902250
  0.8987239972166918  0.5373716539946898  0.1141463311566255
  0.8438247243184449  0.5140235561489561  0.2558302996036588
  0.7785534457040697  0.4612354879840765  0.5536460559293630
  0.6932295157160269  0.2974920941365511  0.0015388279443584
  0.1164573565699740  0.7839502224438917  0.2255748909648858
  0.0217569124336379  0.6975353493392120  0.5138717870494105
  0.9880263251499741  0.6702585917940311  0.6763797972770860
  0.9708717979328298  0.6279130484047215  0.8180298034539675
  0.9219176590976446  0.5960846856786262  0.9526094106405907
  0.1473858604676650  0.4682114127744441  0.2544293540482272
  0.0336271444647593  0.3652239755214950  0.6864968405037501
  0.2615309960560310  0.6401664430382326  0.6398063747600133
  0.1699016693462596  0.5302727983131916  0.0849434844207906
  0.6679965725877537  0.9811165447271435  0.1716790122833061
  0.4828207842188661  0.8085148585604571  0.8900122875987222
  0.4635573762968406  0.7492359596989999  0.0647204199540568
  0.8379840559113632  0.1425917818420004  0.5641203991092709
  0.1822543171175255  0.8403681058312102  0.9283791898421612
  0.6467771176293127  0.2767597051657873  0.1400802034361632
  0.6082262086451138  0.2692703009685005  0.3047259744390161
  0.5328452661061078  0.2335171295777556  0.4456128409902291
  0.5205299040265388  0.1633041946987319  0.5976973246772843
  0.4154276824819974  0.0564746136141565  0.0317607077211548
  0.8013554958479148  0.4881287388304330  0.3990664231711847
  0.7182879694910298  0.4249011477742357  0.7025879845050227
  0.7130440878319391  0.3510327897832255  0.8483625764673164
  0.0604315701035105  0.7600754084682535  0.3796798770105383
  0.0217458715893315  0.3291219264800631  0.1712331806942444
  0.2244508475383498  0.5909522854676155  0.2813699210492828
  0.1523025512689458  0.5390417371506118  0.4324434373737276
  0.1114251881893153  0.5431305766226515  0.5869383087483158
  0.1424565189238720  0.4495837158022979  0.7367881498887527
  0.1011337520690105  0.4062308124898664  0.8727107433874366
  0.9964495334099084  0.4313625735772320  0.0224586322850797
  0.4946214094076709  0.8128966095940555  0.2504670990848510
  0.3930032706744342  0.8616279957992887  0.3972996837724878
  0.4254966738719617  0.7547218086949741  0.5402928725672425
  0.3202238801956057  0.7736169166606146  0.6771905161571894
  0.3162945125058769  0.7083941456937453  0.8232148115865954
  0.3497598436903928  0.5885852791749571  0.0022013718762466
  0.2430873729873539  0.6411113135207032  0.1416878615743045
  0.7840033158094855  0.0592905222253890  0.2127696084210342
  0.6835507633585820  0.0491985517315996  0.3489882778280773
  0.6922187872614032  0.9785323737671305  0.5044113792131455
  0.6520472127187489  0.9442773040128785  0.6692401322622743
  0.6112116704020423  0.9374373520964809  0.8032239730792625
  0.5857682931810970  0.8924465570031259  0.9347626088384189
  0.5536982393078773  0.8473227009716098  0.1157132795103450
  0.0055441430288354  0.2797436585525972  0.3053735011613057
  0.9486109623775931  0.2673617096386209  0.4782684246036553
  0.9310536613766942  0.2454112904396766  0.6144477461867623
  0.8803793050702140  0.1568149613001992  0.7555021311231442
  0.7896876059298279  0.1707284395525335  0.9159608193779150
  0.8402309640030836  0.0618526937760961  0.0444411794366033
  0.2080038613067217  0.9099704752000974  0.1301217199645635
  0.4632423139285606  0.0810602154596225  0.2418165870024325
  0.4021164658602672  0.0937835207696480  0.3835672079739396
  0.3727367686359315  0.0690987528080242  0.5315049573561836
  0.3977639527333068  0.9563938144387976  0.6688490937367604
  0.2575965264538738  0.0227902068763726  0.7961165163528321
  0.2761574845162755  0.9496816717894490  0.9732542067788970
  0.7169123562446131  0.3977536064265053  0.1935947013990145
  0.6926684124148750  0.3852640747499763  0.3459483479053276
  0.6271643458780858  0.3421787982232729  0.4683108428747715
  0.6430366929630722  0.2370301576609748  0.6397613085951548
  0.5622967565608619  0.2404602580099038  0.7851702936611531
  0.5233499198526914  0.1998872695928853  0.9254246604568408
  0.5406755370205758  0.1297705865597862  0.0702781130704508
  0.0019911684730261  0.5892723471348447  0.1539117778688563
  0.8951245736091877  0.6125721769401409  0.3154616663789724
  0.8934390175061182  0.5801929530020047  0.4587511639083814
  0.8476989255620921  0.5527515008277533  0.5901081310923999
  0.7833996279404971  0.5419478082919653  0.7646866017578660
  0.8521068500766873  0.4025213367371450  0.8968216676712331
  0.8117396618052908  0.3454611496501201  0.0412798577118991
  0.1912347576202507  0.8733140818180090  0.2688143308818667
  0.1533800289790221  0.8649337093097742  0.4144448781089594
  0.1422553231264203  0.7530791253078704  0.5318124624717981
  0.0521586918574073  0.7634801312326189  0.7173368212548468
  0.0569380465376170  0.7168977371787051  0.8604098465042256
  0.9970952520287426  0.6841517546533140  0.9847224212766932
 
  0.00000000E+00  0.00000000E+00  0.00000000E+00
  0.00000000E+00  0.00000000E+00  0.00000000E+00
  0.00000000E+00  0.00000000E+00  0.00000000E+00
  0.00000000E+00  0.00000000E+00  0.00000000E+00
  0.00000000E+00  0.00000000E+00  0.00000000E+00
  0.00000000E+00  0.00000000E+00  0.00000000E+00
  0.00000000E+00  0.00000000E+00  0.00000000E+00
  0.00000000E+00  0.00000000E+00  0.00000000E+00
  0.00000000E+00  0.00000000E+00  0.00000000E+00
  0.00000000E+00  0.00000000E+00  0.00000000E+00
  0.00000000E+00  0.00000000E+00  0.00000000E+00
  0.00000000E+00  0.00000000E+00  0.00000000E+00
  0.00000000E+00  0.00000000E+00  0.00000000E+00
  0.00000000E+00  0.00000000E+00  0.00000000E+00
  0.00000000E+00  0.00000000E+00  0.00000000E+00
  0.00000000E+00  0.00000000E+00  0.00000000E+00
  0.00000000E+00  0.00000000E+00  0.00000000E+00
  0.00000000E+00  0.00000000E+00  0.00000000E+00
  0.00000000E+00  0.00000000E+00  0.00000000E+00
  0.00000000E+00  0.00000000E+00  0.00000000E+00
  0.00000000E+00  0.00000000E+00  0.00000000E+00
  0.00000000E+00  0.00000000E+00  0.00000000E+00
  0.00000000E+00  0.00000000E+00  0.00000000E+00
  0.00000000E+00  0.00000000E+00  0.00000000E+00
  0.00000000E+00  0.00000000E+00  0.00000000E+00
  0.00000000E+00  0.00000000E+00  0.00000000E+00
  0.00000000E+00  0.00000000E+00  0.00000000E+00
  0.00000000E+00  0.00000000E+00  0.00000000E+00
  0.00000000E+00  0.00000000E+00  0.00000000E+00
  0.00000000E+00  0.00000000E+00  0.00000000E+00
  0.00000000E+00  0.00000000E+00  0.00000000E+00
  0.00000000E+00  0.00000000E+00  0.00000000E+00
  0.00000000E+00  0.00000000E+00  0.00000000E+00
  0.00000000E+00  0.00000000E+00  0.00000000E+00
  0.00000000E+00  0.00000000E+00  0.00000000E+00
  0.00000000E+00  0.00000000E+00  0.00000000E+00
  0.00000000E+00  0.00000000E+00  0.00000000E+00
  0.00000000E+00  0.00000000E+00  0.00000000E+00
  0.00000000E+00  0.00000000E+00  0.00000000E+00
  0.00000000E+00  0.00000000E+00  0.00000000E+00
  0.00000000E+00  0.00000000E+00  0.00000000E+00
  0.00000000E+00  0.00000000E+00  0.00000000E+00
  0.00000000E+00  0.00000000E+00  0.00000000E+00
  0.00000000E+00  0.00000000E+00  0.00000000E+00
  0.00000000E+00  0.00000000E+00  0.00000000E+00
  0.00000000E+00  0.00000000E+00  0.00000000E+00
  0.00000000E+00  0.00000000E+00  0.00000000E+00
  0.00000000E+00  0.00000000E+00  0.00000000E+00
  0.00000000E+00  0.00000000E+00  0.00000000E+00
  0.00000000E+00  0.00000000E+00  0.00000000E+00
  0.00000000E+00  0.00000000E+00  0.00000000E+00
  0.00000000E+00  0.00000000E+00  0.00000000E+00
  0.00000000E+00  0.00000000E+00  0.00000000E+00
  0.00000000E+00  0.00000000E+00  0.00000000E+00
  0.00000000E+00  0.00000000E+00  0.00000000E+00
  0.00000000E+00  0.00000000E+00  0.00000000E+00
  0.00000000E+00  0.00000000E+00  0.00000000E+00
  0.00000000E+00  0.00000000E+00  0.00000000E+00
  0.00000000E+00  0.00000000E+00  0.00000000E+00
  0.00000000E+00  0.00000000E+00  0.00000000E+00
  0.00000000E+00  0.00000000E+00  0.00000000E+00
  0.00000000E+00  0.00000000E+00  0.00000000E+00
  0.00000000E+00  0.00000000E+00  0.00000000E+00
  0.00000000E+00  0.00000000E+00  0.00000000E+00
  0.00000000E+00  0.00000000E+00  0.00000000E+00
  0.00000000E+00  0.00000000E+00  0.00000000E+00
  0.00000000E+00  0.00000000E+00  0.00000000E+00
  0.00000000E+00  0.00000000E+00  0.00000000E+00
  0.00000000E+00  0.00000000E+00  0.00000000E+00
  0.00000000E+00  0.00000000E+00  0.00000000E+00
  0.00000000E+00  0.00000000E+00  0.00000000E+00
  0.00000000E+00  0.00000000E+00  0.00000000E+00
  0.00000000E+00  0.00000000E+00  0.00000000E+00
  0.00000000E+00  0.00000000E+00  0.00000000E+00
  0.00000000E+00  0.00000000E+00  0.00000000E+00
  0.00000000E+00  0.00000000E+00  0.00000000E+00
  0.00000000E+00  0.00000000E+00  0.00000000E+00
  0.00000000E+00  0.00000000E+00  0.00000000E+00
  0.00000000E+00  0.00000000E+00  0.00000000E+00
  0.00000000E+00  0.00000000E+00  0.00000000E+00
  0.00000000E+00  0.00000000E+00  0.00000000E+00
  0.00000000E+00  0.00000000E+00  0.00000000E+00
  0.00000000E+00  0.00000000E+00  0.00000000E+00
  0.00000000E+00  0.00000000E+00  0.00000000E+00
  0.00000000E+00  0.00000000E+00  0.00000000E+00
  0.00000000E+00  0.00000000E+00  0.00000000E+00
  0.00000000E+00  0.00000000E+00  0.00000000E+00
  0.00000000E+00  0.00000000E+00  0.00000000E+00
  0.00000000E+00  0.00000000E+00  0.00000000E+00
  0.00000000E+00  0.00000000E+00  0.00000000E+00
  0.00000000E+00  0.00000000E+00  0.00000000E+00
  0.00000000E+00  0.00000000E+00  0.00000000E+00
  0.00000000E+00  0.00000000E+00  0.00000000E+00
  0.00000000E+00  0.00000000E+00  0.00000000E+00
  0.00000000E+00  0.00000000E+00  0.00000000E+00
  0.00000000E+00  0.00000000E+00  0.00000000E+00
  0.00000000E+00  0.00000000E+00  0.00000000E+00
  0.00000000E+00  0.00000000E+00  0.00000000E+00
  0.00000000E+00  0.00000000E+00  0.00000000E+00
  0.00000000E+00  0.00000000E+00  0.00000000E+00
  0.00000000E+00  0.00000000E+00  0.00000000E+00
  0.00000000E+00  0.00000000E+00  0.00000000E+00
  0.00000000E+00  0.00000000E+00  0.00000000E+00
  0.00000000E+00  0.00000000E+00  0.00000000E+00
  0.00000000E+00  0.00000000E+00  0.00000000E+00
  0.00000000E+00  0.00000000E+00  0.00000000E+00
  0.00000000E+00  0.00000000E+00  0.00000000E+00
  0.00000000E+00  0.00000000E+00  0.00000000E+00
