generated by phonopy                    
   1.00000000000000     
    11.7777700938999992   -0.0000006592896312    0.0000118211769744
    -0.0000006477562692   11.7777479613999994   -0.0000130806483528
     0.0000177256125076   -0.0000204342245446   17.8544012557999991
   Ga   Bi   Cu   Se   O 
     1    35    36    36    36
Direct
  0.9999606985949328  0.1667613550525999  0.4786846068420161
  0.3286921227186994  0.1667527343985213  0.4265033482728455
  0.6712329020396410  0.1667631596952859  0.4265012112612681
  0.9999549054094459  0.4954845564440120  0.4265051992246640
  0.3323078753269471  0.4991083483045671  0.4267850601524117
  0.6676003583153403  0.4991163356730723  0.4267828269629064
  0.9999662215365390  0.8380262059950141  0.4264990426611135
  0.3323173120125134  0.8343873786397893  0.4267829992502286
  0.6676078334656026  0.8343965074952848  0.4267810530866143
  0.9999788044490288  0.1666802533888756  0.9290811820377129
  0.3332237406170009  0.1666782189655720  0.9291235402704814
  0.6667342063819248  0.1666841045542071  0.9291255203979318
  0.9999764233169799  0.4999245638498735  0.9291238242044031
  0.3332515380566505  0.4999534260793652  0.9291545468612554
  0.6667032590575630  0.4999570652074468  0.9291565236798789
  0.9999799964585208  0.8334377891576494  0.9291263824480609
  0.3332533475673785  0.8334038872552014  0.9291566179903441
  0.6667053401182201  0.8334062057276910  0.9291568531615724
  0.1666031637202749  0.0000559943272407  0.0712316811333338
  0.4999813453883917  0.0000791721462221  0.0711529343992225
  0.8333576191773133  0.0000640320564287  0.0712322957593017
  0.1665973662475579  0.3332981206042760  0.0712298461225203
  0.4999724918838666  0.3332860411828946  0.0711535004429322
  0.8333537363137822  0.3333064265601493  0.0712311744776102
  0.1665800358359775  0.6666738656169642  0.0711534711212636
  0.4999759116402060  0.6666811305936307  0.0711744584999181
  0.8333764214416277  0.6666844955059048  0.0711533202765224
  0.1705219219871523  0.9961898080099303  0.5728677424699029
  0.4999609237354363  0.0019814938386631  0.5682518271166259
  0.8293966598972062  0.9961924999471350  0.5728662207534541
  0.1705247116745383  0.3373185213168099  0.5728770676825192
  0.4999568828945868  0.3315304492078326  0.5682540876820852
  0.8293892727111256  0.3373241495629955  0.5728756856788380
  0.1647282324055794  0.6667509574324058  0.5682598154153595
  0.4999604508328019  0.6667545423642309  0.5676795735500093
  0.8351898832778986  0.6667568632940473  0.5682551362505421
  0.9999717950199738  0.0023458168675461  0.2503408956386224
  0.3298863168539583  0.9991152089452413  0.2509738097648579
  0.6700774783867658  0.9991456659814091  0.2509864791583993
  0.9999450199488393  0.3310385964737179  0.2503420130611289
  0.3298276970681187  0.3342430375827377  0.2509970827397652
  0.6700475003242730  0.3342772110361381  0.2509841382987119
  0.9999618419596317  0.6666858984133910  0.2493670352537833
  0.3318705089799678  0.6666790307276429  0.2498829263529174
  0.6680483883113695  0.6667068238750673  0.2498814320114420
  0.9999748571042417  0.9993909907812224  0.7493073562783721
  0.3338300787404336  0.9993464345988485  0.7495900151179882
  0.6661236467424700  0.9993506822718956  0.7495902387261850
  0.9999724410739006  0.3340964903937120  0.7493058844672120
  0.3338263839884803  0.3341207664270556  0.7495912000743772
  0.6661215655468951  0.3341255436705239  0.7495895312326581
  0.9999737239645512  0.6667446739801832  0.7499281842607601
  0.3322906337574878  0.6667413723946183  0.7497893728506142
  0.6676564115826764  0.6667462858643489  0.7497899475999645
  0.1643151978580164  0.1667113324824996  0.2503441096788208
  0.4999692721363616  0.1667345754216640  0.2493637562637048
  0.8356203571294074  0.1667413897624996  0.2503455668920864
  0.1675189793990981  0.4965910304764094  0.2509967998636071
  0.4999600086355329  0.4986354665125177  0.2498794892518177
  0.8323929829861640  0.4966414016222700  0.2509813427736702
  0.1675481652885509  0.8367886881350870  0.2509780855771382
  0.4999792236584497  0.8348223595597801  0.2498814047321076
  0.8324132960363571  0.8368415683985617  0.2509866845651132
  0.1673123481906771  0.1667022477593818  0.7493082305202634
  0.4999663348725463  0.1667023510436678  0.7499273087263205
  0.8326196826053476  0.1667039175392659  0.7493085031817017
  0.1673518088229784  0.5005597430521789  0.7495888849421988
  0.4999653222101301  0.4990213243931194  0.7497903343838104
  0.8325737650257992  0.5005632250505698  0.7495898108213552
  0.1673536203496511  0.8328533138882150  0.7495869035778782
  0.4999676344792050  0.8343849815301780  0.7497869736243175
  0.8325803933667260  0.8328593226687957  0.7495878685756736
  0.1646689278041578  0.3314324353505498  0.3382543077685298
  0.4999530274089281  0.3324099926162205  0.3371222111518009
  0.8352165880179143  0.3314801939934071  0.3382397874349365
  0.1656407014308101  0.6667130469346816  0.3371216108836919
  0.4999623853681641  0.6667293471500955  0.3365178548935219
  0.8342838395975676  0.6667353524490665  0.3371219336341937
  0.1647190973753894  0.0019681547909443  0.3382307888794358
  0.4999714461571543  0.0010529013914606  0.3371192534522365
  0.8352406905828005  0.0020065883934279  0.3382420278869844
  0.1666926626968532  0.3334213797329397  0.8364775122627393
  0.4999737442296777  0.3331653615968193  0.8370754737976469
  0.8332537259122219  0.3334254840206938  0.8364776471896747
  0.1664382117586314  0.6667044949010119  0.8370754116614734
  0.4999729956650825  0.6667024327616957  0.8358951709881737
  0.8335100139033926  0.6667070475992745  0.8370755219584183
  0.1666951568400492  0.9999797368049599  0.8364789655311426
  0.4999754841681394  0.0002360017195144  0.8370757126792938
  0.8332559115319427  0.9999850446827168  0.8364800134952972
  0.3326829892385916  0.1666923749944829  0.1634179754184899
  0.6672582695233444  0.1667041846106940  0.1634194898591872
  0.9999705868026894  0.1666938591653633  0.1614267042545094
  0.3335479759413786  0.5002714718166175  0.1624733405971170
  0.6663742046525414  0.5002945973129371  0.1624653577223754
  0.9999690339856215  0.4994037033516960  0.1634211515356441
  0.3335709064828123  0.8330901580157146  0.1624633697063302
  0.6663897706199577  0.8331105257834039  0.1624684849030089
  0.9999758770465164  0.8339777168488851  0.1634194133097324
  0.3340637096529733  0.1667344546084095  0.6622260681927088
  0.6658683343731298  0.1667379428374289  0.6622269874242832
  0.9999648333107203  0.1667396954380536  0.6626894002260144
  0.3337824008375705  0.5005564874561585  0.6618674956121211
  0.6661445632350009  0.5005595738716053  0.6618661748799255
  0.9999621912319441  0.5008413884244831  0.6622272885160427
  0.3337833913110302  0.8329198052780171  0.6618627814081108
  0.6661499571076561  0.8329229624346013  0.6618642169588540
  0.9999657089978626  0.8326438628092490  0.6622225167265086
  0.1600886162155462  0.1667505108133653  0.5010746362256029
  0.4999595090907292  0.1667513196221151  0.4969536155244825
  0.8398317824940165  0.1667568154400030  0.5010681459468458
  0.1654175147909100  0.4985543546384861  0.4992675303498473
  0.4999593492078986  0.4990224521354136  0.4979680808018188
  0.8344987039241616  0.4985569358487041  0.4992656640400952
  0.1654176693300826  0.8349389740726139  0.4992645659283355
  0.4999637992688335  0.8344717927223897  0.4979662101196496
  0.8345060275715355  0.8349418026986086  0.4992626638858866
  0.1666441497291800  0.1666845232834078  0.9998543458816656
  0.4999764216798539  0.1666876312365204  0.0000034715744874
  0.8333074486096166  0.1666881469978776  0.9998556425176730
  0.1666225324710879  0.5000218595359414  0.9999498526710084
  0.4999738366134281  0.4999083605718582  0.9998729626258083
  0.8333275700246432  0.5000256060390242  0.9999505679691580
  0.1666253577364714  0.8333480548481091  0.9999522317259846
  0.4999783353261407  0.8334643809567126  0.9998744442837122
  0.8333285865204800  0.8333524877065912  0.9999520954722740
  0.9999785180587608  0.0000199666136922  0.9998568996574022
  0.3333142664802509  0.0000385276596759  0.9999513663572657
  0.6666386769242862  0.0000417808486475  0.9999520412779717
  0.9999741635874031  0.3333571445774339  0.9998548566155137
  0.3333112739130613  0.3333348885042042  0.9999499003533643
  0.6666374857327924  0.3333377116839671  0.9999515859988222
  0.9999762050468135  0.6666862286447781  0.0000033961824926
  0.3331988307896694  0.6666840318740128  0.9998731596119654
  0.6667524219337650  0.6666890102805141  0.9998740472496905
  0.9999652903793361  0.0066323802178232  0.5010590787472040
  0.3317674335836927  0.0012844040223641  0.4992620513105024
  0.6681577189413872  0.0012906972937543  0.4992618374907565
  0.9999566739121946  0.3268812203848697  0.5010760421913858
  0.3317684389475417  0.3322034391431572  0.4992643561951127
  0.6681513775319132  0.3322093164049704  0.4992656950455157
  0.9999613582562361  0.6667455306277219  0.4969548362775811
  0.3322285624254988  0.6667400786738895  0.4979720811766271
  0.6676915142297872  0.6667503330539830  0.4979686399068015
 
  0.00000000E+00  0.00000000E+00  0.00000000E+00
  0.00000000E+00  0.00000000E+00  0.00000000E+00
  0.00000000E+00  0.00000000E+00  0.00000000E+00
  0.00000000E+00  0.00000000E+00  0.00000000E+00
  0.00000000E+00  0.00000000E+00  0.00000000E+00
  0.00000000E+00  0.00000000E+00  0.00000000E+00
  0.00000000E+00  0.00000000E+00  0.00000000E+00
  0.00000000E+00  0.00000000E+00  0.00000000E+00
  0.00000000E+00  0.00000000E+00  0.00000000E+00
  0.00000000E+00  0.00000000E+00  0.00000000E+00
  0.00000000E+00  0.00000000E+00  0.00000000E+00
  0.00000000E+00  0.00000000E+00  0.00000000E+00
  0.00000000E+00  0.00000000E+00  0.00000000E+00
  0.00000000E+00  0.00000000E+00  0.00000000E+00
  0.00000000E+00  0.00000000E+00  0.00000000E+00
  0.00000000E+00  0.00000000E+00  0.00000000E+00
  0.00000000E+00  0.00000000E+00  0.00000000E+00
  0.00000000E+00  0.00000000E+00  0.00000000E+00
  0.00000000E+00  0.00000000E+00  0.00000000E+00
  0.00000000E+00  0.00000000E+00  0.00000000E+00
  0.00000000E+00  0.00000000E+00  0.00000000E+00
  0.00000000E+00  0.00000000E+00  0.00000000E+00
  0.00000000E+00  0.00000000E+00  0.00000000E+00
  0.00000000E+00  0.00000000E+00  0.00000000E+00
  0.00000000E+00  0.00000000E+00  0.00000000E+00
  0.00000000E+00  0.00000000E+00  0.00000000E+00
  0.00000000E+00  0.00000000E+00  0.00000000E+00
  0.00000000E+00  0.00000000E+00  0.00000000E+00
  0.00000000E+00  0.00000000E+00  0.00000000E+00
  0.00000000E+00  0.00000000E+00  0.00000000E+00
  0.00000000E+00  0.00000000E+00  0.00000000E+00
  0.00000000E+00  0.00000000E+00  0.00000000E+00
  0.00000000E+00  0.00000000E+00  0.00000000E+00
  0.00000000E+00  0.00000000E+00  0.00000000E+00
  0.00000000E+00  0.00000000E+00  0.00000000E+00
  0.00000000E+00  0.00000000E+00  0.00000000E+00
  0.00000000E+00  0.00000000E+00  0.00000000E+00
  0.00000000E+00  0.00000000E+00  0.00000000E+00
  0.00000000E+00  0.00000000E+00  0.00000000E+00
  0.00000000E+00  0.00000000E+00  0.00000000E+00
  0.00000000E+00  0.00000000E+00  0.00000000E+00
  0.00000000E+00  0.00000000E+00  0.00000000E+00
  0.00000000E+00  0.00000000E+00  0.00000000E+00
  0.00000000E+00  0.00000000E+00  0.00000000E+00
  0.00000000E+00  0.00000000E+00  0.00000000E+00
  0.00000000E+00  0.00000000E+00  0.00000000E+00
  0.00000000E+00  0.00000000E+00  0.00000000E+00
  0.00000000E+00  0.00000000E+00  0.00000000E+00
  0.00000000E+00  0.00000000E+00  0.00000000E+00
  0.00000000E+00  0.00000000E+00  0.00000000E+00
  0.00000000E+00  0.00000000E+00  0.00000000E+00
  0.00000000E+00  0.00000000E+00  0.00000000E+00
  0.00000000E+00  0.00000000E+00  0.00000000E+00
  0.00000000E+00  0.00000000E+00  0.00000000E+00
  0.00000000E+00  0.00000000E+00  0.00000000E+00
  0.00000000E+00  0.00000000E+00  0.00000000E+00
  0.00000000E+00  0.00000000E+00  0.00000000E+00
  0.00000000E+00  0.00000000E+00  0.00000000E+00
  0.00000000E+00  0.00000000E+00  0.00000000E+00
  0.00000000E+00  0.00000000E+00  0.00000000E+00
  0.00000000E+00  0.00000000E+00  0.00000000E+00
  0.00000000E+00  0.00000000E+00  0.00000000E+00
  0.00000000E+00  0.00000000E+00  0.00000000E+00
  0.00000000E+00  0.00000000E+00  0.00000000E+00
  0.00000000E+00  0.00000000E+00  0.00000000E+00
  0.00000000E+00  0.00000000E+00  0.00000000E+00
  0.00000000E+00  0.00000000E+00  0.00000000E+00
  0.00000000E+00  0.00000000E+00  0.00000000E+00
  0.00000000E+00  0.00000000E+00  0.00000000E+00
  0.00000000E+00  0.00000000E+00  0.00000000E+00
  0.00000000E+00  0.00000000E+00  0.00000000E+00
  0.00000000E+00  0.00000000E+00  0.00000000E+00
  0.00000000E+00  0.00000000E+00  0.00000000E+00
  0.00000000E+00  0.00000000E+00  0.00000000E+00
  0.00000000E+00  0.00000000E+00  0.00000000E+00
  0.00000000E+00  0.00000000E+00  0.00000000E+00
  0.00000000E+00  0.00000000E+00  0.00000000E+00
  0.00000000E+00  0.00000000E+00  0.00000000E+00
  0.00000000E+00  0.00000000E+00  0.00000000E+00
  0.00000000E+00  0.00000000E+00  0.00000000E+00
  0.00000000E+00  0.00000000E+00  0.00000000E+00
  0.00000000E+00  0.00000000E+00  0.00000000E+00
  0.00000000E+00  0.00000000E+00  0.00000000E+00
  0.00000000E+00  0.00000000E+00  0.00000000E+00
  0.00000000E+00  0.00000000E+00  0.00000000E+00
  0.00000000E+00  0.00000000E+00  0.00000000E+00
  0.00000000E+00  0.00000000E+00  0.00000000E+00
  0.00000000E+00  0.00000000E+00  0.00000000E+00
  0.00000000E+00  0.00000000E+00  0.00000000E+00
  0.00000000E+00  0.00000000E+00  0.00000000E+00
  0.00000000E+00  0.00000000E+00  0.00000000E+00
  0.00000000E+00  0.00000000E+00  0.00000000E+00
  0.00000000E+00  0.00000000E+00  0.00000000E+00
  0.00000000E+00  0.00000000E+00  0.00000000E+00
  0.00000000E+00  0.00000000E+00  0.00000000E+00
  0.00000000E+00  0.00000000E+00  0.00000000E+00
  0.00000000E+00  0.00000000E+00  0.00000000E+00
  0.00000000E+00  0.00000000E+00  0.00000000E+00
  0.00000000E+00  0.00000000E+00  0.00000000E+00
  0.00000000E+00  0.00000000E+00  0.00000000E+00
  0.00000000E+00  0.00000000E+00  0.00000000E+00
  0.00000000E+00  0.00000000E+00  0.00000000E+00
  0.00000000E+00  0.00000000E+00  0.00000000E+00
  0.00000000E+00  0.00000000E+00  0.00000000E+00
  0.00000000E+00  0.00000000E+00  0.00000000E+00
  0.00000000E+00  0.00000000E+00  0.00000000E+00
  0.00000000E+00  0.00000000E+00  0.00000000E+00
  0.00000000E+00  0.00000000E+00  0.00000000E+00
  0.00000000E+00  0.00000000E+00  0.00000000E+00
  0.00000000E+00  0.00000000E+00  0.00000000E+00
  0.00000000E+00  0.00000000E+00  0.00000000E+00
  0.00000000E+00  0.00000000E+00  0.00000000E+00
  0.00000000E+00  0.00000000E+00  0.00000000E+00
  0.00000000E+00  0.00000000E+00  0.00000000E+00
  0.00000000E+00  0.00000000E+00  0.00000000E+00
  0.00000000E+00  0.00000000E+00  0.00000000E+00
  0.00000000E+00  0.00000000E+00  0.00000000E+00
  0.00000000E+00  0.00000000E+00  0.00000000E+00
  0.00000000E+00  0.00000000E+00  0.00000000E+00
  0.00000000E+00  0.00000000E+00  0.00000000E+00
  0.00000000E+00  0.00000000E+00  0.00000000E+00
  0.00000000E+00  0.00000000E+00  0.00000000E+00
  0.00000000E+00  0.00000000E+00  0.00000000E+00
  0.00000000E+00  0.00000000E+00  0.00000000E+00
  0.00000000E+00  0.00000000E+00  0.00000000E+00
  0.00000000E+00  0.00000000E+00  0.00000000E+00
  0.00000000E+00  0.00000000E+00  0.00000000E+00
  0.00000000E+00  0.00000000E+00  0.00000000E+00
  0.00000000E+00  0.00000000E+00  0.00000000E+00
  0.00000000E+00  0.00000000E+00  0.00000000E+00
  0.00000000E+00  0.00000000E+00  0.00000000E+00
  0.00000000E+00  0.00000000E+00  0.00000000E+00
  0.00000000E+00  0.00000000E+00  0.00000000E+00
  0.00000000E+00  0.00000000E+00  0.00000000E+00
  0.00000000E+00  0.00000000E+00  0.00000000E+00
  0.00000000E+00  0.00000000E+00  0.00000000E+00
  0.00000000E+00  0.00000000E+00  0.00000000E+00
  0.00000000E+00  0.00000000E+00  0.00000000E+00
  0.00000000E+00  0.00000000E+00  0.00000000E+00
  0.00000000E+00  0.00000000E+00  0.00000000E+00
  0.00000000E+00  0.00000000E+00  0.00000000E+00
  0.00000000E+00  0.00000000E+00  0.00000000E+00
  0.00000000E+00  0.00000000E+00  0.00000000E+00
  0.00000000E+00  0.00000000E+00  0.00000000E+00
