Al   Gd   N                             
   1.00000000000000     
    -9.4508397743326409    0.0000000209582705   -0.0000005359055303
    -4.7254196765061582    8.1846674588663930   -0.0000003034878062
     0.0000005501419374   -0.0000000737542304  -10.0720171762724782
   Al   Gd   N 
    35     1    36
Direct
  0.1096228339890715  0.0974210041722472  0.4013705636285962
  0.2201024379001595  0.2113656637085413  0.1420209651876263
  0.7774573205778665  0.0946046802786853  0.8924033540632834
  0.8861969811118442  0.2071886234657470  0.6429175055099776
  0.4444198279858540  0.0944198403416934  0.3919142781645846
  0.5555555556080733  0.2055555691062168  0.1422618693459938
  0.1073312624234788  0.1020041422320404  0.8867646585931723
  0.2232810563298884  0.2071886252719679  0.6429175044758679
  0.7778270000331204  0.0944198377310741  0.3919142758148126
  0.8851985772834894  0.2113656725223692  0.1420209668334849
  0.4446046639752694  0.0946046779371201  0.8924033520413133
  0.5555555515717145  0.2055555636361674  0.6424266542882222
  0.1105339707292146  0.4280663548838746  0.3921293765379517
  0.2201024361926827  0.5351985938015318  0.1420209672029245
  0.7776292607754272  0.4276292757392852  0.8930324004121104
  0.8888888849411885  0.5388888973743917  0.6424457263089920
  0.4444198256310017  0.4278270119712744  0.3919142764943402
  0.5613656564754166  0.5351985923867986  0.1420209675162383
  0.1114081379351219  0.4276292737635714  0.8930324004497265
  0.2232810574864530  0.5361970005217671  0.6429175037157648
  0.7780663405634556  0.4280663531340352  0.3921293789868443
  0.8888888900601799  0.5388889044144562  0.1412530284017350
  0.4446046664167369  0.4274573343330630  0.8924033539224396
  0.5571886103902841  0.5361969944354428  0.6429175056272811
  0.1096228381555235  0.7596228502941571  0.4013705625531117
  0.7776292592618361  0.7614081518325193  0.8930324000530447
  0.8861969879812932  0.8732810700269908  0.6429175038620443
  0.4474209913159228  0.7596228464561534  0.4013705627289070
  0.5613656486515666  0.8701024520356739  0.1420209655878182
  0.1073312701298832  0.7573312840265700  0.8867646548422314
  0.2222222239263516  0.8722222366459675  0.6434398485773656
  0.7780663423073619  0.7605339832801334  0.3921293770370085
  0.8851985796166559  0.8701024493311351  0.1420209668315238
  0.4520041264393342  0.7573312772621748  0.8867646600473549
  0.5571886120616796  0.8732810686654631  0.6429175046352213
  0.2222222221904246  0.8722222415512491  0.1396050643468598
  0.2216662484425029  0.2049452739220357  0.3338924161195536
  0.0953165250230725  0.1260336243728730  0.0727857722212519
  0.8852508952948455  0.2072312850090015  0.8315256472333701
  0.7772723422980263  0.0946971644963241  0.5823561707562064
  0.5555555537970349  0.2055555659011716  0.3327037703562752
  0.4439572272880241  0.0939572409525979  0.0841341702252905
  0.2241844871055250  0.2072312788522908  0.8315256483162443
  0.1095391579458038  0.0975883478461554  0.5905499300703454
  0.8900551583534053  0.2049452694986940  0.3338924198973743
  0.7787522081140636  0.0939572386518748  0.0841341734241752
  0.5555555512186814  0.2055555645465574  0.8337264423037496
  0.4446971531999964  0.0946971651272221  0.5823561735434666
  0.2216662412641455  0.5400551737032018  0.3338924194731661
  0.1106746804477652  0.4279960087096484  0.0833076190502098
  0.8888888881003396  0.5388889016731468  0.8336217707495948
  0.7780297824369882  0.4280297949041909  0.5822827408518307
  0.5549452571261284  0.5400551701659282  0.3338924205059755
  0.4439572253495498  0.4287522210519583  0.0841341733347676
  0.2241844937953559  0.5352509169461470  0.8315256462316469
  0.1106070819501639  0.4280297995170059  0.5822827396570318
  0.8888888855049402  0.5388888981332798  0.3325095741170401
  0.7779959941680943  0.4279960099702080  0.0833076183438095
  0.5572312702652553  0.5352509102444571  0.8315256476438364
  0.4446971526776196  0.4272723540881245  0.5823561713695895
  0.2222222213226246  0.8722222341021890  0.3620096908432657
  0.0953165358082515  0.7453165491878266  0.0727857677333148
  0.8852509031065878  0.8741845074186685  0.8315256465163827
  0.7780297871425077  0.7606070941594538  0.5822827403181634
  0.5549452617392348  0.8716662608432202  0.3338924164568340
  0.4760336062131358  0.7453165407828095  0.0727857742391578
  0.2222222247749173  0.8722222397262129  0.8395859079190728
  0.1095391671281476  0.7595391793383115  0.5905499286542479
  0.8900551616838328  0.8716662530278327  0.3338924192418702
  0.7779959938946561  0.7606746941909748  0.0833076187774751
  0.5572312642152042  0.8741845005099691  0.8315256488016232
  0.4475883351043777  0.7595391703216521  0.5905499292756815
 
  0.00000000E+00  0.00000000E+00  0.00000000E+00
  0.00000000E+00  0.00000000E+00  0.00000000E+00
  0.00000000E+00  0.00000000E+00  0.00000000E+00
  0.00000000E+00  0.00000000E+00  0.00000000E+00
  0.00000000E+00  0.00000000E+00  0.00000000E+00
  0.00000000E+00  0.00000000E+00  0.00000000E+00
  0.00000000E+00  0.00000000E+00  0.00000000E+00
  0.00000000E+00  0.00000000E+00  0.00000000E+00
  0.00000000E+00  0.00000000E+00  0.00000000E+00
  0.00000000E+00  0.00000000E+00  0.00000000E+00
  0.00000000E+00  0.00000000E+00  0.00000000E+00
  0.00000000E+00  0.00000000E+00  0.00000000E+00
  0.00000000E+00  0.00000000E+00  0.00000000E+00
  0.00000000E+00  0.00000000E+00  0.00000000E+00
  0.00000000E+00  0.00000000E+00  0.00000000E+00
  0.00000000E+00  0.00000000E+00  0.00000000E+00
  0.00000000E+00  0.00000000E+00  0.00000000E+00
  0.00000000E+00  0.00000000E+00  0.00000000E+00
  0.00000000E+00  0.00000000E+00  0.00000000E+00
  0.00000000E+00  0.00000000E+00  0.00000000E+00
  0.00000000E+00  0.00000000E+00  0.00000000E+00
  0.00000000E+00  0.00000000E+00  0.00000000E+00
  0.00000000E+00  0.00000000E+00  0.00000000E+00
  0.00000000E+00  0.00000000E+00  0.00000000E+00
  0.00000000E+00  0.00000000E+00  0.00000000E+00
  0.00000000E+00  0.00000000E+00  0.00000000E+00
  0.00000000E+00  0.00000000E+00  0.00000000E+00
  0.00000000E+00  0.00000000E+00  0.00000000E+00
  0.00000000E+00  0.00000000E+00  0.00000000E+00
  0.00000000E+00  0.00000000E+00  0.00000000E+00
  0.00000000E+00  0.00000000E+00  0.00000000E+00
  0.00000000E+00  0.00000000E+00  0.00000000E+00
  0.00000000E+00  0.00000000E+00  0.00000000E+00
  0.00000000E+00  0.00000000E+00  0.00000000E+00
  0.00000000E+00  0.00000000E+00  0.00000000E+00
  0.00000000E+00  0.00000000E+00  0.00000000E+00
  0.00000000E+00  0.00000000E+00  0.00000000E+00
  0.00000000E+00  0.00000000E+00  0.00000000E+00
  0.00000000E+00  0.00000000E+00  0.00000000E+00
  0.00000000E+00  0.00000000E+00  0.00000000E+00
  0.00000000E+00  0.00000000E+00  0.00000000E+00
  0.00000000E+00  0.00000000E+00  0.00000000E+00
  0.00000000E+00  0.00000000E+00  0.00000000E+00
  0.00000000E+00  0.00000000E+00  0.00000000E+00
  0.00000000E+00  0.00000000E+00  0.00000000E+00
  0.00000000E+00  0.00000000E+00  0.00000000E+00
  0.00000000E+00  0.00000000E+00  0.00000000E+00
  0.00000000E+00  0.00000000E+00  0.00000000E+00
  0.00000000E+00  0.00000000E+00  0.00000000E+00
  0.00000000E+00  0.00000000E+00  0.00000000E+00
  0.00000000E+00  0.00000000E+00  0.00000000E+00
  0.00000000E+00  0.00000000E+00  0.00000000E+00
  0.00000000E+00  0.00000000E+00  0.00000000E+00
  0.00000000E+00  0.00000000E+00  0.00000000E+00
  0.00000000E+00  0.00000000E+00  0.00000000E+00
  0.00000000E+00  0.00000000E+00  0.00000000E+00
  0.00000000E+00  0.00000000E+00  0.00000000E+00
  0.00000000E+00  0.00000000E+00  0.00000000E+00
  0.00000000E+00  0.00000000E+00  0.00000000E+00
  0.00000000E+00  0.00000000E+00  0.00000000E+00
  0.00000000E+00  0.00000000E+00  0.00000000E+00
  0.00000000E+00  0.00000000E+00  0.00000000E+00
  0.00000000E+00  0.00000000E+00  0.00000000E+00
  0.00000000E+00  0.00000000E+00  0.00000000E+00
  0.00000000E+00  0.00000000E+00  0.00000000E+00
  0.00000000E+00  0.00000000E+00  0.00000000E+00
  0.00000000E+00  0.00000000E+00  0.00000000E+00
  0.00000000E+00  0.00000000E+00  0.00000000E+00
  0.00000000E+00  0.00000000E+00  0.00000000E+00
  0.00000000E+00  0.00000000E+00  0.00000000E+00
  0.00000000E+00  0.00000000E+00  0.00000000E+00
  0.00000000E+00  0.00000000E+00  0.00000000E+00
