Al   Gd   N                             
   1.00000000000000     
    -9.4480281032019402   -0.0000000063130818    0.0000007861029501
    -4.7240140449346599    8.1822325969098895    0.0000003983286973
     0.0000008381713289   -0.0000000099769457  -10.0791169300498993
   Al   Gd   N 
    35     1    36
Direct
  0.1073695957151202  0.1019273639872154  0.3013015880871421
  0.2201068095786169  0.2113541470605966  0.0461168666512251
  0.7778423236219894  0.0944123279882092  0.7961951176811226
  0.8862035644021873  0.2071896095326267  0.5451611386287425
  0.4446069425979928  0.0946071279365199  0.2957155162565854
  0.5555555032783701  0.2055554712713956  0.0458380770527782
  0.1096067690854809  0.0974541395794759  0.7866728979275877
  0.2232740451844393  0.2071898475764655  0.5451611058953532
  0.7774526406516884  0.0946067883281074  0.2957155887372096
  0.8852054412610144  0.2113538503864945  0.0461168589353562
  0.4444125474113960  0.0944126105283516  0.7961951191344667
  0.5555560009097746  0.2055554772041006  0.5457094789513377
  0.1113977605378196  0.4276342489253580  0.2950911650368866
  0.2201067072578056  0.5352053940656134  0.0461168763415429
  0.7780588213948718  0.4280586195821954  0.7959944946316000
  0.8888887396523302  0.5388890742433219  0.5456956879791477
  0.4446069168175839  0.4274522089880719  0.2957155194088514
  0.5613534772811093  0.5352055058212812  0.0461168066355668
  0.1105491187133794  0.4280590397039958  0.7959944796711227
  0.2232740146237120  0.5362031378151357  0.5451611793220721
  0.7776339003291213  0.4276340467897271  0.2950910895637691
  0.8888881625448164  0.5388890461832432  0.0468571916182157
  0.4444125132657604  0.4278418881074799  0.7961951463029280
  0.5571897272338404  0.5362031555039124  0.5451610898373502
  0.1073695749057322  0.7573692956931879  0.3013015775089087
  0.7780589504744881  0.7605494772783459  0.7959944797592868
  0.8862036279724990  0.8732737384402327  0.5451611890095336
  0.4519273048819912  0.7573694781549989  0.3013014528115789
  0.5613534967455962  0.8701074262406792  0.0461168355721071
  0.1096068543122684  0.7596063979458236  0.7866729449324765
  0.2222226145158146  0.8722222250772376  0.5446784782835650
  0.7776339220317752  0.7613982519995304  0.2950911527917910
  0.8852053407492875  0.8701070186902413  0.0461168917182135
  0.4474545937517505  0.7596063053882816  0.7866729399846975
  0.5571897356281141  0.8732740624202791  0.5451610616960352
  0.2222217531231152  0.8722221913516535  0.0481812617378949
  0.2241730343469186  0.2072223337749080  0.3566582127224436
  0.0953683073039286  0.1259297780614830  0.1154083159401793
  0.8900729707861998  0.2049332269073005  0.8543401365734837
  0.7772916838656414  0.0946876265508791  0.6058489517957995
  0.5555557108707418  0.2055553049268610  0.3545118089777688
  0.4439638747024333  0.0939644654296075  0.1040871241251153
  0.2216609001757774  0.2049337260319106  0.8543401266778403
  0.1095252621454677  0.0976170085593679  0.5976300012119680
  0.8852712622155039  0.2072221264600742  0.3566582407100753
  0.7787381993590827  0.0939640175664493  0.1040871708100966
  0.5555559286503851  0.2055555432781304  0.8554952503541244
  0.4446879484523620  0.0946879506980451  0.6058489403958802
  0.2241730107136775  0.5352709774399855  0.3566582793212376
  0.1106622270637203  0.4280020205392603  0.1049191878337083
  0.8888887395387925  0.5388891065159527  0.8557034247733100
  0.7780223049105572  0.4280221733834111  0.6059345234633540
  0.5572219899445656  0.5352710985437383  0.3566581524213248
  0.4439637640640015  0.4287381186198331  0.1040871114485071
  0.2216608536877445  0.5400726543258330  0.8543401700095572
  0.1106221744767097  0.4280224465859845  0.6059345094269517
  0.8888884365026968  0.5388889063023541  0.3546175423055971
  0.7780013461964259  0.4280017444166120  0.1049191008051338
  0.5549334581509768  0.5400725006476819  0.8543401105704689
  0.4446879127003598  0.4272911096980678  0.6058489729731633
  0.2222221251562502  0.8722220646368015  0.3486914956424840
  0.0953681262297792  0.7453681468887012  0.1154083917667492
  0.8900730680584843  0.8716607391964857  0.8543401802981236
  0.7780223529318988  0.7606224745678176  0.6059345077374161
  0.5572220047144967  0.8741731875349785  0.3566581395546322
  0.4759294052444361  0.7453684918459800  0.1154081056620981
  0.2222228070128622  0.8722223117408419  0.8259657647591538
  0.1095253206237601  0.7595248033847994  0.5976301080804305
  0.8852713038428135  0.8741728573269825  0.3566582997539101
  0.7780013646454620  0.7606631219242601  0.1049191700460455
  0.5549336385888637  0.8716610223797829  0.8543401159828292
  0.4476173696835630  0.7595248175195053  0.5976300089748889
 
  0.00000000E+00  0.00000000E+00  0.00000000E+00
  0.00000000E+00  0.00000000E+00  0.00000000E+00
  0.00000000E+00  0.00000000E+00  0.00000000E+00
  0.00000000E+00  0.00000000E+00  0.00000000E+00
  0.00000000E+00  0.00000000E+00  0.00000000E+00
  0.00000000E+00  0.00000000E+00  0.00000000E+00
  0.00000000E+00  0.00000000E+00  0.00000000E+00
  0.00000000E+00  0.00000000E+00  0.00000000E+00
  0.00000000E+00  0.00000000E+00  0.00000000E+00
  0.00000000E+00  0.00000000E+00  0.00000000E+00
  0.00000000E+00  0.00000000E+00  0.00000000E+00
  0.00000000E+00  0.00000000E+00  0.00000000E+00
  0.00000000E+00  0.00000000E+00  0.00000000E+00
  0.00000000E+00  0.00000000E+00  0.00000000E+00
  0.00000000E+00  0.00000000E+00  0.00000000E+00
  0.00000000E+00  0.00000000E+00  0.00000000E+00
  0.00000000E+00  0.00000000E+00  0.00000000E+00
  0.00000000E+00  0.00000000E+00  0.00000000E+00
  0.00000000E+00  0.00000000E+00  0.00000000E+00
  0.00000000E+00  0.00000000E+00  0.00000000E+00
  0.00000000E+00  0.00000000E+00  0.00000000E+00
  0.00000000E+00  0.00000000E+00  0.00000000E+00
  0.00000000E+00  0.00000000E+00  0.00000000E+00
  0.00000000E+00  0.00000000E+00  0.00000000E+00
  0.00000000E+00  0.00000000E+00  0.00000000E+00
  0.00000000E+00  0.00000000E+00  0.00000000E+00
  0.00000000E+00  0.00000000E+00  0.00000000E+00
  0.00000000E+00  0.00000000E+00  0.00000000E+00
  0.00000000E+00  0.00000000E+00  0.00000000E+00
  0.00000000E+00  0.00000000E+00  0.00000000E+00
  0.00000000E+00  0.00000000E+00  0.00000000E+00
  0.00000000E+00  0.00000000E+00  0.00000000E+00
  0.00000000E+00  0.00000000E+00  0.00000000E+00
  0.00000000E+00  0.00000000E+00  0.00000000E+00
  0.00000000E+00  0.00000000E+00  0.00000000E+00
  0.00000000E+00  0.00000000E+00  0.00000000E+00
  0.00000000E+00  0.00000000E+00  0.00000000E+00
  0.00000000E+00  0.00000000E+00  0.00000000E+00
  0.00000000E+00  0.00000000E+00  0.00000000E+00
  0.00000000E+00  0.00000000E+00  0.00000000E+00
  0.00000000E+00  0.00000000E+00  0.00000000E+00
  0.00000000E+00  0.00000000E+00  0.00000000E+00
  0.00000000E+00  0.00000000E+00  0.00000000E+00
  0.00000000E+00  0.00000000E+00  0.00000000E+00
  0.00000000E+00  0.00000000E+00  0.00000000E+00
  0.00000000E+00  0.00000000E+00  0.00000000E+00
  0.00000000E+00  0.00000000E+00  0.00000000E+00
  0.00000000E+00  0.00000000E+00  0.00000000E+00
  0.00000000E+00  0.00000000E+00  0.00000000E+00
  0.00000000E+00  0.00000000E+00  0.00000000E+00
  0.00000000E+00  0.00000000E+00  0.00000000E+00
  0.00000000E+00  0.00000000E+00  0.00000000E+00
  0.00000000E+00  0.00000000E+00  0.00000000E+00
  0.00000000E+00  0.00000000E+00  0.00000000E+00
  0.00000000E+00  0.00000000E+00  0.00000000E+00
  0.00000000E+00  0.00000000E+00  0.00000000E+00
  0.00000000E+00  0.00000000E+00  0.00000000E+00
  0.00000000E+00  0.00000000E+00  0.00000000E+00
  0.00000000E+00  0.00000000E+00  0.00000000E+00
  0.00000000E+00  0.00000000E+00  0.00000000E+00
  0.00000000E+00  0.00000000E+00  0.00000000E+00
  0.00000000E+00  0.00000000E+00  0.00000000E+00
  0.00000000E+00  0.00000000E+00  0.00000000E+00
  0.00000000E+00  0.00000000E+00  0.00000000E+00
  0.00000000E+00  0.00000000E+00  0.00000000E+00
  0.00000000E+00  0.00000000E+00  0.00000000E+00
  0.00000000E+00  0.00000000E+00  0.00000000E+00
  0.00000000E+00  0.00000000E+00  0.00000000E+00
  0.00000000E+00  0.00000000E+00  0.00000000E+00
  0.00000000E+00  0.00000000E+00  0.00000000E+00
  0.00000000E+00  0.00000000E+00  0.00000000E+00
  0.00000000E+00  0.00000000E+00  0.00000000E+00
