Al   Gd   N                             
   1.00000000000000     
    -9.9137330254889964    0.0000000118678197   -0.0000000952360368
    -4.9568652170009395    8.5855454333469527   -0.0000000695489717
    -0.0000006952734274   -0.0000001786886646   -8.7204581749310268
   Al   Gd   N 
    35     1    36
Direct
  0.1080100829204369  0.1006464493570860  0.3744096719222867
  0.2210086983033577  0.2109588356223284  0.1162714493671544
  0.7777589148248083  0.0944538809790529  0.8650280521340505
  0.8849389705309108  0.2078681603680153  0.6141908645520928
  0.4450238016360828  0.0950238122695950  0.3648283269354877
  0.5555555271273391  0.2055555523763388  0.1132145667186606
  0.1070051535382817  0.1026563245232737  0.8535214026484255
  0.2238594819259419  0.2078682265930993  0.6141908612953344
  0.7766190590094553  0.0950237942440353  0.3648282663784812
  0.8846991434814981  0.2109588335653072  0.1162713884698618
  0.4444538405713061  0.0944538577671352  0.8650279179467049
  0.5555555566643946  0.2055555391846013  0.6165686000935153
  0.1096319549106823  0.4285173843443459  0.3657265353904364
  0.2210086903661264  0.5346992288436354  0.1162714893378691
  0.7774690912906763  0.4274691404008095  0.8652218639664753
  0.8888889102885358  0.5388888827956393  0.6165293527026776
  0.4450238031212166  0.4266190305474566  0.3648283199282574
  0.5609588166635362  0.5346991135255621  0.1162713786838907
  0.1117284546404278  0.4274691349561266  0.8652220531506671
  0.2238595113937549  0.5349389794267410  0.6141909422191887
  0.7785173774344116  0.4285173316199007  0.3657265622521919
  0.8888888686393344  0.5388888994089598  0.1133679878837697
  0.4444538576494139  0.4277589445665839  0.8650279750656367
  0.5578681410294948  0.5349390242508818  0.6141907243027234
  0.1080101333591656  0.7580101396010832  0.3744098196733177
  0.7774691104741649  0.7617284544772218  0.8652219102387591
  0.8849389779614683  0.8738595414926920  0.6141909381098358
  0.4506464808868245  0.7580100702501440  0.3744093336983809
  0.5609588460739019  0.8710087271516542  0.1162713726020002
  0.1070051966233905  0.7570051974849932  0.8535214590854423
  0.2222222645785763  0.8722222230689809  0.6090985330275203
  0.7785174034742965  0.7596319619448408  0.3657265444134623
  0.8846992192584651  0.8710086724440984  0.1162714229393202
  0.4526562290865996  0.7570052014556765  0.8535213375630590
  0.5578681783571113  0.8738594777067163  0.6141907172967365
  0.2222221672160316  0.8722222979318630  0.1064565377241209
  0.2226782268571483  0.2061423475102231  0.3473469954585440
  0.0959579759321940  0.1247507017614993  0.0882302546812070
  0.8848552379866490  0.2073358651993757  0.8407458344294554
  0.7757554882885813  0.0954555767929506  0.5930763042206095
  0.5555555427211232  0.2055555491890289  0.3415186057998056
  0.4436864751165004  0.0936864958447359  0.0953943756924431
  0.2244755142495336  0.2073359027732451  0.8407458198097402
  0.1085086202342325  0.0996493700367651  0.6002181496641228
  0.8878461038710412  0.2061423551651274  0.3473469730026366
  0.7792936669622534  0.0936864790690493  0.0953944375150968
  0.5555555598046809  0.2055555551157724  0.8470520392034473
  0.4454555573691650  0.0954555721731580  0.5930764419052892
  0.2226782167495998  0.5378461778544263  0.3473469425306490
  0.1112752852483396  0.4276957234491761  0.0947278240979941
  0.8888889228142176  0.5388888958433995  0.8460700684561644
  0.7786589229422489  0.4286589138898762  0.5933662263956947
  0.5561424059690268  0.5378459975499368  0.3473470565807659
  0.4436864691497462  0.4292936663000333  0.0953943984251495
  0.2244755571214654  0.5348552688878598  0.8407457916875742
  0.1093488128900688  0.4286589519869608  0.5933660752513816
  0.8888888771694781  0.5388888995227603  0.3424966895306838
  0.7776956816289484  0.4276957033038400  0.0947277334386101
  0.5573358078122652  0.5348553475172935  0.8407458694789369
  0.4454555711413022  0.4257554846494784  0.5930763843529832
  0.2222222026599994  0.8722222597212976  0.3710766644108077
  0.0959580264755289  0.7459580218816626  0.0882300489468832
  0.8848552528654849  0.8744755950214298  0.8407458102907626
  0.7786589558003243  0.7593488138267688  0.5933661794416523
  0.5561424112849735  0.8726782603396046  0.3473470661355691
  0.4747506064146521  0.7459580210686809  0.0882306918153688
  0.2222222737093276  0.8722222569156557  0.8358942740510855
  0.1085086509307729  0.7585086553201776  0.6002181895777525
  0.8878461866412337  0.8726781945897244  0.3473469301774372
  0.7776957137194600  0.7612752831695246  0.0947277576977328
  0.5573358232360164  0.8744754999727746  0.8407458741939351
  0.4496493502231544  0.7585086323294803  0.6002180182290218
 
  0.00000000E+00  0.00000000E+00  0.00000000E+00
  0.00000000E+00  0.00000000E+00  0.00000000E+00
  0.00000000E+00  0.00000000E+00  0.00000000E+00
  0.00000000E+00  0.00000000E+00  0.00000000E+00
  0.00000000E+00  0.00000000E+00  0.00000000E+00
  0.00000000E+00  0.00000000E+00  0.00000000E+00
  0.00000000E+00  0.00000000E+00  0.00000000E+00
  0.00000000E+00  0.00000000E+00  0.00000000E+00
  0.00000000E+00  0.00000000E+00  0.00000000E+00
  0.00000000E+00  0.00000000E+00  0.00000000E+00
  0.00000000E+00  0.00000000E+00  0.00000000E+00
  0.00000000E+00  0.00000000E+00  0.00000000E+00
  0.00000000E+00  0.00000000E+00  0.00000000E+00
  0.00000000E+00  0.00000000E+00  0.00000000E+00
  0.00000000E+00  0.00000000E+00  0.00000000E+00
  0.00000000E+00  0.00000000E+00  0.00000000E+00
  0.00000000E+00  0.00000000E+00  0.00000000E+00
  0.00000000E+00  0.00000000E+00  0.00000000E+00
  0.00000000E+00  0.00000000E+00  0.00000000E+00
  0.00000000E+00  0.00000000E+00  0.00000000E+00
  0.00000000E+00  0.00000000E+00  0.00000000E+00
  0.00000000E+00  0.00000000E+00  0.00000000E+00
  0.00000000E+00  0.00000000E+00  0.00000000E+00
  0.00000000E+00  0.00000000E+00  0.00000000E+00
  0.00000000E+00  0.00000000E+00  0.00000000E+00
  0.00000000E+00  0.00000000E+00  0.00000000E+00
  0.00000000E+00  0.00000000E+00  0.00000000E+00
  0.00000000E+00  0.00000000E+00  0.00000000E+00
  0.00000000E+00  0.00000000E+00  0.00000000E+00
  0.00000000E+00  0.00000000E+00  0.00000000E+00
  0.00000000E+00  0.00000000E+00  0.00000000E+00
  0.00000000E+00  0.00000000E+00  0.00000000E+00
  0.00000000E+00  0.00000000E+00  0.00000000E+00
  0.00000000E+00  0.00000000E+00  0.00000000E+00
  0.00000000E+00  0.00000000E+00  0.00000000E+00
  0.00000000E+00  0.00000000E+00  0.00000000E+00
  0.00000000E+00  0.00000000E+00  0.00000000E+00
  0.00000000E+00  0.00000000E+00  0.00000000E+00
  0.00000000E+00  0.00000000E+00  0.00000000E+00
  0.00000000E+00  0.00000000E+00  0.00000000E+00
  0.00000000E+00  0.00000000E+00  0.00000000E+00
  0.00000000E+00  0.00000000E+00  0.00000000E+00
  0.00000000E+00  0.00000000E+00  0.00000000E+00
  0.00000000E+00  0.00000000E+00  0.00000000E+00
  0.00000000E+00  0.00000000E+00  0.00000000E+00
  0.00000000E+00  0.00000000E+00  0.00000000E+00
  0.00000000E+00  0.00000000E+00  0.00000000E+00
  0.00000000E+00  0.00000000E+00  0.00000000E+00
  0.00000000E+00  0.00000000E+00  0.00000000E+00
  0.00000000E+00  0.00000000E+00  0.00000000E+00
  0.00000000E+00  0.00000000E+00  0.00000000E+00
  0.00000000E+00  0.00000000E+00  0.00000000E+00
  0.00000000E+00  0.00000000E+00  0.00000000E+00
  0.00000000E+00  0.00000000E+00  0.00000000E+00
  0.00000000E+00  0.00000000E+00  0.00000000E+00
  0.00000000E+00  0.00000000E+00  0.00000000E+00
  0.00000000E+00  0.00000000E+00  0.00000000E+00
  0.00000000E+00  0.00000000E+00  0.00000000E+00
  0.00000000E+00  0.00000000E+00  0.00000000E+00
  0.00000000E+00  0.00000000E+00  0.00000000E+00
  0.00000000E+00  0.00000000E+00  0.00000000E+00
  0.00000000E+00  0.00000000E+00  0.00000000E+00
  0.00000000E+00  0.00000000E+00  0.00000000E+00
  0.00000000E+00  0.00000000E+00  0.00000000E+00
  0.00000000E+00  0.00000000E+00  0.00000000E+00
  0.00000000E+00  0.00000000E+00  0.00000000E+00
  0.00000000E+00  0.00000000E+00  0.00000000E+00
  0.00000000E+00  0.00000000E+00  0.00000000E+00
  0.00000000E+00  0.00000000E+00  0.00000000E+00
  0.00000000E+00  0.00000000E+00  0.00000000E+00
  0.00000000E+00  0.00000000E+00  0.00000000E+00
  0.00000000E+00  0.00000000E+00  0.00000000E+00
