Al   Gd   N                             
   1.00000000000000     
    -9.8044610610887304    0.0000000141404324   -0.0000002054034102
    -4.9022294228061565    8.4909130326553690   -0.0000001280336803
    -0.0000005368244777   -0.0000001685007786   -9.0579248739867744
   Al   Gd   N 
    35     1    36
Direct
  0.1085082521031850  0.0996501553412799  0.3821219812909149
  0.2204522240502200  0.2109952171975564  0.1239048226201689
  0.7778299102041331  0.0944183796389240  0.8731945586983159
  0.8846681927986992  0.2079688507694470  0.6217834246219667
  0.4450245285648222  0.0950245346260132  0.3718346616495722
  0.5555555315806231  0.2055555578037058  0.1206167240855578
  0.1067332340113936  0.1032001799404014  0.8611031990164904
  0.2240295870516249  0.2079689165203291  0.6217834216381277
  0.7766176249455867  0.0950245139359112  0.3718345711290496
  0.8852192332495363  0.2109952299937703  0.1239047885689928
  0.4444183558450305  0.0944183673297232  0.8731944549014301
  0.5555555709018734  0.2055555491433054  0.6244077618510175
  0.1094557209226465  0.4286054906845038  0.3727872426572389
  0.2204521997966538  0.5352192973455345  0.1239048288841786
  0.7772841999716249  0.4272842439478097  0.8735356243727495
  0.8888889122183201  0.5388888839217643  0.6243576032322480
  0.4450245225192049  0.4266176010791511  0.3718346384343363
  0.5609952007408623  0.5352192140491212  0.1239048166105619
  0.1120982214301094  0.4272842418344993  0.8735357533250223
  0.2240296047490205  0.5346681874535406  0.6217834506381905
  0.7786054904314241  0.4286054574419822  0.3727873176978846
  0.8888888605247729  0.5388888973663413  0.1205280221251783
  0.4444183629243170  0.4278299330486135  0.8731944949781862
  0.5579688298415135  0.5346682525799480  0.6217833613635833
  0.1085082719174579  0.7585082724855852  0.3821220596322590
  0.7772842181258710  0.7620982258195568  0.8735356546835220
  0.8846681859101722  0.8740296341321141  0.6217834563528228
  0.4496501641397117  0.7585082484473560  0.3821217918639590
  0.5609952229802815  0.8704522491985003  0.1239048114831789
  0.1067332644676853  0.7567332675716045  0.8611031738765007
  0.2222222752909602  0.8722222321415671  0.6150927988151693
  0.7786055054527239  0.7594557239034287  0.3727872923444053
  0.8852192856483967  0.8704521758891488  0.1239047916106841
  0.4532001161475279  0.7567332667122670  0.8611032870073672
  0.5579688675754824  0.8740295774777849  0.6217833658810292
  0.2222221443955945  0.8722222908123172  0.1101070380364817
  0.2221751685523046  0.2057066139111114  0.3392699866805273
  0.0952232094006291  0.1262202430575314  0.0774086503559559
  0.8841657843500101  0.2076175846219215  0.8333451569423147
  0.7758167357794008  0.0954249563547265  0.5850291777716876
  0.5555555495915314  0.2055555571294434  0.3339603321880986
  0.4436052948380578  0.0936053111311708  0.0881549084075388
  0.2248832602804001  0.2076176178600448  0.8333451471919773
  0.1086937324470156  0.0992791870205565  0.5948214509034813
  0.8887849198971267  0.2057066238948906  0.3392699659025666
  0.7794560410270606  0.0936052914361127  0.0881549862906681
  0.5555555686616742  0.2055555589018994  0.8393323728927982
  0.4454249530403729  0.0954249589857952  0.5850292787727440
  0.2221751552223594  0.5387849565511118  0.3392699680657003
  0.1113958890396916  0.4276354055780303  0.0873808483608656
  0.8888889201844989  0.5388888942026213  0.8386797590945960
  0.7786259223569942  0.4286259156097643  0.5854391787382838
  0.5557066577019469  0.5387848438895730  0.3392700060226659
  0.4436052856304897  0.4294560395063982  0.0881549389228482
  0.2248832890467014  0.5341658096166242  0.8333451465602693
  0.1094148112968583  0.4286259476871308  0.5854390761882087
  0.8888888782903877  0.5388889000458974  0.3347280694336376
  0.7776353606595166  0.4276353970424509  0.0873807440970751
  0.5576175406484296  0.5341658695248555  0.8333451510733525
  0.4454249551342215  0.4258167309956988  0.5850292433897479
  0.2222222101553939  0.8722222514050841  0.3659016172223417
  0.0952232413498493  0.7452232369868028  0.0774085534187350
  0.8841657970870571  0.8748833220774301  0.8333451571707755
  0.7786259503263580  0.7594148116983490  0.5854391480911332
  0.5557066637008461  0.8721751845402181  0.3392700032936915
  0.4762201389260383  0.7452232580596956  0.0774088784842633
  0.2222222581680100  0.8722222544290830  0.8359560619886466
  0.1086937534509360  0.7586937559424456  0.5948215006703919
  0.8887849668249714  0.8721751283089532  0.3392699487348239
  0.7776353868453896  0.7613958921912172  0.0873807693777522
  0.5576175529751382  0.8748832526112338  0.8333451555929656
  0.4492791729852215  0.7586937416993464  0.5948213126190751
 
  0.00000000E+00  0.00000000E+00  0.00000000E+00
  0.00000000E+00  0.00000000E+00  0.00000000E+00
  0.00000000E+00  0.00000000E+00  0.00000000E+00
  0.00000000E+00  0.00000000E+00  0.00000000E+00
  0.00000000E+00  0.00000000E+00  0.00000000E+00
  0.00000000E+00  0.00000000E+00  0.00000000E+00
  0.00000000E+00  0.00000000E+00  0.00000000E+00
  0.00000000E+00  0.00000000E+00  0.00000000E+00
  0.00000000E+00  0.00000000E+00  0.00000000E+00
  0.00000000E+00  0.00000000E+00  0.00000000E+00
  0.00000000E+00  0.00000000E+00  0.00000000E+00
  0.00000000E+00  0.00000000E+00  0.00000000E+00
  0.00000000E+00  0.00000000E+00  0.00000000E+00
  0.00000000E+00  0.00000000E+00  0.00000000E+00
  0.00000000E+00  0.00000000E+00  0.00000000E+00
  0.00000000E+00  0.00000000E+00  0.00000000E+00
  0.00000000E+00  0.00000000E+00  0.00000000E+00
  0.00000000E+00  0.00000000E+00  0.00000000E+00
  0.00000000E+00  0.00000000E+00  0.00000000E+00
  0.00000000E+00  0.00000000E+00  0.00000000E+00
  0.00000000E+00  0.00000000E+00  0.00000000E+00
  0.00000000E+00  0.00000000E+00  0.00000000E+00
  0.00000000E+00  0.00000000E+00  0.00000000E+00
  0.00000000E+00  0.00000000E+00  0.00000000E+00
  0.00000000E+00  0.00000000E+00  0.00000000E+00
  0.00000000E+00  0.00000000E+00  0.00000000E+00
  0.00000000E+00  0.00000000E+00  0.00000000E+00
  0.00000000E+00  0.00000000E+00  0.00000000E+00
  0.00000000E+00  0.00000000E+00  0.00000000E+00
  0.00000000E+00  0.00000000E+00  0.00000000E+00
  0.00000000E+00  0.00000000E+00  0.00000000E+00
  0.00000000E+00  0.00000000E+00  0.00000000E+00
  0.00000000E+00  0.00000000E+00  0.00000000E+00
  0.00000000E+00  0.00000000E+00  0.00000000E+00
  0.00000000E+00  0.00000000E+00  0.00000000E+00
  0.00000000E+00  0.00000000E+00  0.00000000E+00
  0.00000000E+00  0.00000000E+00  0.00000000E+00
  0.00000000E+00  0.00000000E+00  0.00000000E+00
  0.00000000E+00  0.00000000E+00  0.00000000E+00
  0.00000000E+00  0.00000000E+00  0.00000000E+00
  0.00000000E+00  0.00000000E+00  0.00000000E+00
  0.00000000E+00  0.00000000E+00  0.00000000E+00
  0.00000000E+00  0.00000000E+00  0.00000000E+00
  0.00000000E+00  0.00000000E+00  0.00000000E+00
  0.00000000E+00  0.00000000E+00  0.00000000E+00
  0.00000000E+00  0.00000000E+00  0.00000000E+00
  0.00000000E+00  0.00000000E+00  0.00000000E+00
  0.00000000E+00  0.00000000E+00  0.00000000E+00
  0.00000000E+00  0.00000000E+00  0.00000000E+00
  0.00000000E+00  0.00000000E+00  0.00000000E+00
  0.00000000E+00  0.00000000E+00  0.00000000E+00
  0.00000000E+00  0.00000000E+00  0.00000000E+00
  0.00000000E+00  0.00000000E+00  0.00000000E+00
  0.00000000E+00  0.00000000E+00  0.00000000E+00
  0.00000000E+00  0.00000000E+00  0.00000000E+00
  0.00000000E+00  0.00000000E+00  0.00000000E+00
  0.00000000E+00  0.00000000E+00  0.00000000E+00
  0.00000000E+00  0.00000000E+00  0.00000000E+00
  0.00000000E+00  0.00000000E+00  0.00000000E+00
  0.00000000E+00  0.00000000E+00  0.00000000E+00
  0.00000000E+00  0.00000000E+00  0.00000000E+00
  0.00000000E+00  0.00000000E+00  0.00000000E+00
  0.00000000E+00  0.00000000E+00  0.00000000E+00
  0.00000000E+00  0.00000000E+00  0.00000000E+00
  0.00000000E+00  0.00000000E+00  0.00000000E+00
  0.00000000E+00  0.00000000E+00  0.00000000E+00
  0.00000000E+00  0.00000000E+00  0.00000000E+00
  0.00000000E+00  0.00000000E+00  0.00000000E+00
  0.00000000E+00  0.00000000E+00  0.00000000E+00
  0.00000000E+00  0.00000000E+00  0.00000000E+00
  0.00000000E+00  0.00000000E+00  0.00000000E+00
  0.00000000E+00  0.00000000E+00  0.00000000E+00
