Al   Gd   N                             
   1.00000000000000     
    -9.4508422549893556   -0.0000000017678564    0.0000005657682034
    -4.7254209341344344    8.1846695895530637    0.0000002813592801
    -0.0000006207571827    0.0000000117413162  -10.0720225079072900
   Al   Gd   N 
    35     1    36
Direct
  0.1073312861260050  0.1020040935004332  0.3224546164223625
  0.2201025580461575  0.2113657203625650  0.0671994877940563
  0.7778269805558793  0.0944198445818785  0.8173059244375693
  0.8861971472546131  0.2071885464690411  0.5663029777048010
  0.4446046617617867  0.0946046692636529  0.3168174494216203
  0.5555555573488462  0.2055555648531424  0.0669587485366492
  0.1096227903880092  0.0974210876024202  0.8078494717705524
  0.2232809660964890  0.2071885448660638  0.5663029812314662
  0.7774573282910922  0.0946046726540217  0.3168174474289458
  0.8851983979909264  0.2113657301432355  0.0671994866992520
  0.4444198389332428  0.0944198467185942  0.8173059240810403
  0.5555555518083182  0.2055555591309073  0.5667940651670520
  0.1114080393252550  0.4276293173426211  0.3161884668741877
  0.2201025566743056  0.5351984053350876  0.0671994868925410
  0.7780662656510344  0.4280662735032053  0.8170909089431291
  0.8888888861678339  0.5388888935149012  0.5667750960488931
  0.4446046652566693  0.4274573356651530  0.3168174472065743
  0.5613657229466114  0.5351984055282841  0.0671994869651868
  0.1105341244634772  0.4280662746660937  0.8170909089865219
  0.2232809684521442  0.5361971584149643  0.5663029787526952
  0.7776293136555736  0.4276293208419162  0.3161884651151823
  0.8888888931204804  0.5388889004728057  0.0679666666673953
  0.4444198368676027  0.4278269883599748  0.8173059248508423
  0.5571885393724187  0.5361971541191153  0.5663029776361057
  0.1073312917154183  0.7573312991354797  0.3224546210802046
  0.7780662668987404  0.7605341321298127  0.8170909091062768
  0.8861971512705296  0.8732809754460149  0.5663029786913114
  0.4520040864093104  0.7573312933876295  0.3224546171720277
  0.5613657127904546  0.8701025655705621  0.0671994877691446
  0.1096227947503863  0.7596228024064615  0.8078494700167127
  0.2222222229523894  0.8722222304468303  0.5657789002915692
  0.7776293099799361  0.7614080468129885  0.3161884663727932
  0.8851983978010765  0.8701025644941041  0.0671994866279562
  0.4474210798210834  0.7596227981487544  0.8078494711864721
  0.5571885378324311  0.8732809734167475  0.5663029811090254
  0.2222222253669628  0.8722222316764530  0.0696130261460155
  0.2241843498482083  0.2072311717536550  0.3776942916992851
  0.0953167447236254  0.1260331827186931  0.1364332779918342
  0.8900551659786942  0.2049452252741943  0.8753274357143113
  0.7772723991986368  0.0946971337162097  0.6268637014517253
  0.5555555516682347  0.2055555591431144  0.3754938789250275
  0.4439572635162250  0.0939572710845411  0.1250859859949358
  0.2216662808802070  0.2049452295244407  0.8753274363749313
  0.1095392351179569  0.0975881862365284  0.6186696216559255
  0.8852511370392335  0.2072311797644844  0.3776942870308346
  0.7787521383915887  0.0939572703009262  0.1250859846844747
  0.5555555547419360  0.2055555623515559  0.8765162070076045
  0.4446971254748320  0.0946971327150621  0.6268637023605592
  0.2241843569671786  0.5352511497108452  0.3776942884494972
  0.1106745455585667  0.4279960702808623  0.1259124794116460
  0.8888888872630503  0.5388888948347272  0.8767099252756339
  0.7780297338786895  0.4280297410750151  0.6269372170240075
  0.5572311726650980  0.5352511439108625  0.3776942870620772
  0.4439572627059789  0.4287521460506980  0.1250859845196715
  0.2216662745818354  0.5400551771124924  0.8753274350117763
  0.1106071843193988  0.4280297430975182  0.6269372151944523
  0.8888888888288520  0.5388888963971397  0.3755986641324611
  0.7779960668556427  0.4279960739833086  0.1259124799793412
  0.5549452174420821  0.5400551740401056  0.8753274358747944
  0.4446971265620334  0.4272724063817535  0.6268637017880891
  0.2222222251917145  0.8722222325589328  0.3696324653220131
  0.0953167509841535  0.7453167586483431  0.1364332856937978
  0.8900551693661143  0.8716662823710877  0.8753274347538209
  0.7780297358506942  0.7606071915289121  0.6269372153245527
  0.5572311646714994  0.8741843573793560  0.3776942916836319
  0.4760331760494267  0.7453167518819797  0.1364332788405420
  0.2222222219745689  0.8722222295551134  0.8472086039900546
  0.1095392421517118  0.7595392492822270  0.6186696175170638
  0.8852511423930522  0.8741843641999623  0.3776942883907424
  0.7779960628915177  0.7606745531045647  0.1259124789250023
  0.5549452215971371  0.8716662885808475  0.8753274362493073
  0.4475881790095784  0.7595392423057419  0.6186696210720868
 
  0.00000000E+00  0.00000000E+00  0.00000000E+00
  0.00000000E+00  0.00000000E+00  0.00000000E+00
  0.00000000E+00  0.00000000E+00  0.00000000E+00
  0.00000000E+00  0.00000000E+00  0.00000000E+00
  0.00000000E+00  0.00000000E+00  0.00000000E+00
  0.00000000E+00  0.00000000E+00  0.00000000E+00
  0.00000000E+00  0.00000000E+00  0.00000000E+00
  0.00000000E+00  0.00000000E+00  0.00000000E+00
  0.00000000E+00  0.00000000E+00  0.00000000E+00
  0.00000000E+00  0.00000000E+00  0.00000000E+00
  0.00000000E+00  0.00000000E+00  0.00000000E+00
  0.00000000E+00  0.00000000E+00  0.00000000E+00
  0.00000000E+00  0.00000000E+00  0.00000000E+00
  0.00000000E+00  0.00000000E+00  0.00000000E+00
  0.00000000E+00  0.00000000E+00  0.00000000E+00
  0.00000000E+00  0.00000000E+00  0.00000000E+00
  0.00000000E+00  0.00000000E+00  0.00000000E+00
  0.00000000E+00  0.00000000E+00  0.00000000E+00
  0.00000000E+00  0.00000000E+00  0.00000000E+00
  0.00000000E+00  0.00000000E+00  0.00000000E+00
  0.00000000E+00  0.00000000E+00  0.00000000E+00
  0.00000000E+00  0.00000000E+00  0.00000000E+00
  0.00000000E+00  0.00000000E+00  0.00000000E+00
  0.00000000E+00  0.00000000E+00  0.00000000E+00
  0.00000000E+00  0.00000000E+00  0.00000000E+00
  0.00000000E+00  0.00000000E+00  0.00000000E+00
  0.00000000E+00  0.00000000E+00  0.00000000E+00
  0.00000000E+00  0.00000000E+00  0.00000000E+00
  0.00000000E+00  0.00000000E+00  0.00000000E+00
  0.00000000E+00  0.00000000E+00  0.00000000E+00
  0.00000000E+00  0.00000000E+00  0.00000000E+00
  0.00000000E+00  0.00000000E+00  0.00000000E+00
  0.00000000E+00  0.00000000E+00  0.00000000E+00
  0.00000000E+00  0.00000000E+00  0.00000000E+00
  0.00000000E+00  0.00000000E+00  0.00000000E+00
  0.00000000E+00  0.00000000E+00  0.00000000E+00
  0.00000000E+00  0.00000000E+00  0.00000000E+00
  0.00000000E+00  0.00000000E+00  0.00000000E+00
  0.00000000E+00  0.00000000E+00  0.00000000E+00
  0.00000000E+00  0.00000000E+00  0.00000000E+00
  0.00000000E+00  0.00000000E+00  0.00000000E+00
  0.00000000E+00  0.00000000E+00  0.00000000E+00
  0.00000000E+00  0.00000000E+00  0.00000000E+00
  0.00000000E+00  0.00000000E+00  0.00000000E+00
  0.00000000E+00  0.00000000E+00  0.00000000E+00
  0.00000000E+00  0.00000000E+00  0.00000000E+00
  0.00000000E+00  0.00000000E+00  0.00000000E+00
  0.00000000E+00  0.00000000E+00  0.00000000E+00
  0.00000000E+00  0.00000000E+00  0.00000000E+00
  0.00000000E+00  0.00000000E+00  0.00000000E+00
  0.00000000E+00  0.00000000E+00  0.00000000E+00
  0.00000000E+00  0.00000000E+00  0.00000000E+00
  0.00000000E+00  0.00000000E+00  0.00000000E+00
  0.00000000E+00  0.00000000E+00  0.00000000E+00
  0.00000000E+00  0.00000000E+00  0.00000000E+00
  0.00000000E+00  0.00000000E+00  0.00000000E+00
  0.00000000E+00  0.00000000E+00  0.00000000E+00
  0.00000000E+00  0.00000000E+00  0.00000000E+00
  0.00000000E+00  0.00000000E+00  0.00000000E+00
  0.00000000E+00  0.00000000E+00  0.00000000E+00
  0.00000000E+00  0.00000000E+00  0.00000000E+00
  0.00000000E+00  0.00000000E+00  0.00000000E+00
  0.00000000E+00  0.00000000E+00  0.00000000E+00
  0.00000000E+00  0.00000000E+00  0.00000000E+00
  0.00000000E+00  0.00000000E+00  0.00000000E+00
  0.00000000E+00  0.00000000E+00  0.00000000E+00
  0.00000000E+00  0.00000000E+00  0.00000000E+00
  0.00000000E+00  0.00000000E+00  0.00000000E+00
  0.00000000E+00  0.00000000E+00  0.00000000E+00
  0.00000000E+00  0.00000000E+00  0.00000000E+00
  0.00000000E+00  0.00000000E+00  0.00000000E+00
  0.00000000E+00  0.00000000E+00  0.00000000E+00
