Al   Gd   N                             
   1.00000000000000     
    -9.6802208332155253    0.0000000164130451   -0.0000003155707835
    -4.8401094980074122    8.3833177406196242   -0.0000001865183889
    -0.0000003674353162   -0.0000001537871038   -9.4319541528240016
   Al   Gd   N 
    35     1    36
Direct
  0.1091430153568211  0.0983806550316473  0.3870037904706578
  0.2201077765201802  0.2112000258532447  0.1289548896533219
  0.7776811117896472  0.0944927702920424  0.8786872556003544
  0.8849936710435813  0.2077697573893715  0.6275714225496003
  0.4448546000972371  0.0948545999568680  0.3772388926505954
  0.5555555454277652  0.2055555655521175  0.1266719954224058
  0.1065283081075137  0.1036100458301945  0.8685829978475823
  0.2239032208096035  0.2077698000564823  0.6275714211694208
  0.7769574862245179  0.0948545800174472  0.3772388236761728
  0.8853588679120179  0.2112000546376152  0.1289548735146724
  0.4444927585737446  0.0944927691529145  0.8786871914240990
  0.5555555771575129  0.2055555605517085  0.6294069593256282
  0.1097117870202382  0.4284774455345186  0.3780288937515195
  0.2201077438453538  0.5353589152661229  0.1289548917157362
  0.7773285896183850  0.4273286266241385  0.8791798495740437
  0.8888889106089408  0.5388888924774946  0.6294360965288419
  0.4448545885912836  0.4269574690410209  0.3772388711029961
  0.5612000167827489  0.5353588682089025  0.1289548982005684
  0.1120094297938437  0.4273286254882720  0.8791799252820383
  0.2239032295453782  0.5349936686471963  0.6275714282448490
  0.7784774463108164  0.4284774288459730  0.3780289516762423
  0.8888888693994730  0.5388889020827108  0.1262633171831951
  0.4444927565184500  0.4276811289122264  0.8786872176327165
  0.5577697397347521  0.5349937171644328  0.6275713980512805
  0.1091430265891731  0.7591430246243078  0.3870038333255792
  0.7773286032973772  0.7620094373310664  0.8791798672003566
  0.8849936664157028  0.8739032496954522  0.6275714333758771
  0.4483806566959458  0.7591430136127997  0.3870036919547672
  0.5612000190856037  0.8701077970545512  0.1289548929063784
  0.1065283227497105  0.7565283297355592  0.8685829592806584
  0.2222222687052948  0.8722222405502364  0.6236284342680491
  0.7784774535175885  0.7597117883571229  0.3780289324925263
  0.8853589010978382  0.8701077268039086  0.1289548708416817
  0.4536099988267992  0.7565283348997411  0.8685830894627884
  0.5577697644806605  0.8739032124580177  0.6275714022729346
  0.2222221486762805  0.8722222796184980  0.1155634110908323
  0.2219041478103563  0.2054144583336992  0.3329828422934895
  0.0946426767410813  0.1273813101263741  0.0705391323264806
  0.8841551732143031  0.2076515311416713  0.8282412605749983
  0.7761963841093049  0.0952351371244404  0.5795649988137583
  0.5555555558474055  0.2055555598590573  0.3290797238261547
  0.4436522235033351  0.0936522358679781  0.0824669381970153
  0.2248599394724664  0.2076515542041122  0.8282412559767138
  0.1090560433122079  0.0985545859255410  0.5891232649201470
  0.8893481043397742  0.2054144646218674  0.3329828314262784
  0.7793622067047110  0.0936522136928204  0.0824669961071010
  0.5555555663502929  0.2055555602455428  0.8330200913466328
  0.4452351434498496  0.0952351416953974  0.5795650646539130
  0.2219041256178329  0.5393481243154525  0.3329828403108692
  0.1112532977660479  0.4277066916043992  0.0817287258833730
  0.8888889073732855  0.5388888935223406  0.8326926569839515
  0.7784609979356532  0.4284609968255424  0.5799079230048960
  0.5554144833570689  0.5393480577183425  0.3329828493183058
  0.4436522089223160  0.4293622042929783  0.0824669637679349
  0.2248599548443764  0.5341551917936584  0.8282412555782628
  0.1097446654124212  0.4284610150289154  0.5799078596995173
  0.8888888822283292  0.5388888975006978  0.3295418408542048
  0.7777066572097908  0.4277066983069489  0.0817286550420775
  0.5576514939802095  0.5341552376390979  0.8282412562384991
  0.4452351405366102  0.4261963787438319  0.5795650404820307
  0.2222222215009566  0.8722222475995949  0.3585885782180469
  0.0946427001180865  0.7446426990980726  0.0705390805011845
  0.8841551795033169  0.8748599790231992  0.8282412613580803
  0.7784610155247762  0.7597446652635469  0.5799079026319589
  0.5554144910183254  0.8719041531255627  0.3329828439454374
  0.4773812149517696  0.7446427236476723  0.0705392556788311
  0.2222222449388198  0.8722222521870435  0.8353736652987322
  0.1090560613405174  0.7590560627176046  0.5891233041535457
  0.8893481328989168  0.8719041030233541  0.3329828246997124
  0.7777066678605422  0.7612533043073952  0.0817286706988796
  0.5576515051145776  0.8748599362697078  0.8282412582318770
  0.4485545775638400  0.7590560483415061  0.5891231711749256
 
  0.00000000E+00  0.00000000E+00  0.00000000E+00
  0.00000000E+00  0.00000000E+00  0.00000000E+00
  0.00000000E+00  0.00000000E+00  0.00000000E+00
  0.00000000E+00  0.00000000E+00  0.00000000E+00
  0.00000000E+00  0.00000000E+00  0.00000000E+00
  0.00000000E+00  0.00000000E+00  0.00000000E+00
  0.00000000E+00  0.00000000E+00  0.00000000E+00
  0.00000000E+00  0.00000000E+00  0.00000000E+00
  0.00000000E+00  0.00000000E+00  0.00000000E+00
  0.00000000E+00  0.00000000E+00  0.00000000E+00
  0.00000000E+00  0.00000000E+00  0.00000000E+00
  0.00000000E+00  0.00000000E+00  0.00000000E+00
  0.00000000E+00  0.00000000E+00  0.00000000E+00
  0.00000000E+00  0.00000000E+00  0.00000000E+00
  0.00000000E+00  0.00000000E+00  0.00000000E+00
  0.00000000E+00  0.00000000E+00  0.00000000E+00
  0.00000000E+00  0.00000000E+00  0.00000000E+00
  0.00000000E+00  0.00000000E+00  0.00000000E+00
  0.00000000E+00  0.00000000E+00  0.00000000E+00
  0.00000000E+00  0.00000000E+00  0.00000000E+00
  0.00000000E+00  0.00000000E+00  0.00000000E+00
  0.00000000E+00  0.00000000E+00  0.00000000E+00
  0.00000000E+00  0.00000000E+00  0.00000000E+00
  0.00000000E+00  0.00000000E+00  0.00000000E+00
  0.00000000E+00  0.00000000E+00  0.00000000E+00
  0.00000000E+00  0.00000000E+00  0.00000000E+00
  0.00000000E+00  0.00000000E+00  0.00000000E+00
  0.00000000E+00  0.00000000E+00  0.00000000E+00
  0.00000000E+00  0.00000000E+00  0.00000000E+00
  0.00000000E+00  0.00000000E+00  0.00000000E+00
  0.00000000E+00  0.00000000E+00  0.00000000E+00
  0.00000000E+00  0.00000000E+00  0.00000000E+00
  0.00000000E+00  0.00000000E+00  0.00000000E+00
  0.00000000E+00  0.00000000E+00  0.00000000E+00
  0.00000000E+00  0.00000000E+00  0.00000000E+00
  0.00000000E+00  0.00000000E+00  0.00000000E+00
  0.00000000E+00  0.00000000E+00  0.00000000E+00
  0.00000000E+00  0.00000000E+00  0.00000000E+00
  0.00000000E+00  0.00000000E+00  0.00000000E+00
  0.00000000E+00  0.00000000E+00  0.00000000E+00
  0.00000000E+00  0.00000000E+00  0.00000000E+00
  0.00000000E+00  0.00000000E+00  0.00000000E+00
  0.00000000E+00  0.00000000E+00  0.00000000E+00
  0.00000000E+00  0.00000000E+00  0.00000000E+00
  0.00000000E+00  0.00000000E+00  0.00000000E+00
  0.00000000E+00  0.00000000E+00  0.00000000E+00
  0.00000000E+00  0.00000000E+00  0.00000000E+00
  0.00000000E+00  0.00000000E+00  0.00000000E+00
  0.00000000E+00  0.00000000E+00  0.00000000E+00
  0.00000000E+00  0.00000000E+00  0.00000000E+00
  0.00000000E+00  0.00000000E+00  0.00000000E+00
  0.00000000E+00  0.00000000E+00  0.00000000E+00
  0.00000000E+00  0.00000000E+00  0.00000000E+00
  0.00000000E+00  0.00000000E+00  0.00000000E+00
  0.00000000E+00  0.00000000E+00  0.00000000E+00
  0.00000000E+00  0.00000000E+00  0.00000000E+00
  0.00000000E+00  0.00000000E+00  0.00000000E+00
  0.00000000E+00  0.00000000E+00  0.00000000E+00
  0.00000000E+00  0.00000000E+00  0.00000000E+00
  0.00000000E+00  0.00000000E+00  0.00000000E+00
  0.00000000E+00  0.00000000E+00  0.00000000E+00
  0.00000000E+00  0.00000000E+00  0.00000000E+00
  0.00000000E+00  0.00000000E+00  0.00000000E+00
  0.00000000E+00  0.00000000E+00  0.00000000E+00
  0.00000000E+00  0.00000000E+00  0.00000000E+00
  0.00000000E+00  0.00000000E+00  0.00000000E+00
  0.00000000E+00  0.00000000E+00  0.00000000E+00
  0.00000000E+00  0.00000000E+00  0.00000000E+00
  0.00000000E+00  0.00000000E+00  0.00000000E+00
  0.00000000E+00  0.00000000E+00  0.00000000E+00
  0.00000000E+00  0.00000000E+00  0.00000000E+00
  0.00000000E+00  0.00000000E+00  0.00000000E+00
