Al   Gd   N                             
   1.00000000000000     
    -9.4480384594916504    0.0000000255034959   -0.0000007562402770
    -4.7240192521931696    8.1822415269928008   -0.0000004204572234
    -0.0000008040880773    0.0000000522436194  -10.0791188275780996
   Al   Gd   N 
    35     1    36
Direct
  0.1096070681060297  0.0974536073501255  0.4225487083781658
  0.2201048122944869  0.2113571864372830  0.1631016319631371
  0.7774533303828832  0.0946064333653354  0.9135028589617278
  0.8862027084416866  0.2071904427631068  0.6640595142150616
  0.4444127533394990  0.0944128338295442  0.4130244919860928
  0.5555554508158380  0.2055554960655357  0.1633803570318122
  0.1073675976013391  0.1019313544724341  0.9079218052320215
  0.2232740936220523  0.2071907427813002  0.6640595490283800
  0.7778419615266685  0.0944125240484297  0.4130245105579391
  0.8852044200236833  0.2113568076684444  0.1631016827143412
  0.4446066328020777  0.0946068327274787  0.9135029739560352
  0.5555560285130738  0.2055554841142992  0.6635093008555373
  0.1105473792551379  0.4280599810002741  0.4132240649587260
  0.2201046729100327  0.5352043844068746  0.1631016474436819
  0.7776337138652920  0.4276339187647835  0.9141291105106077
  0.8888887568578525  0.5388891269377325  0.6635242669781860
  0.4444126931598049  0.4278415486187228  0.4130244694095850
  0.5613563754244879  0.5352045037228379  0.1631017424576697
  0.1113980116188387  0.4276341627097082  0.9141290156039830
  0.2232740396893291  0.5362022352857423  0.6640594388195424
  0.7780596519772871  0.4280594801819646  0.4132239987037138
  0.8888880841777720  0.5388890902253607  0.1623604078167418
  0.4446065842439850  0.4274528490077998  0.9135029468609375
  0.5571905468686680  0.5362022709857612  0.6640595430816916
  0.1096071703362611  0.7596067165662319  0.4225486014092468
  0.7776337853998285  0.7613985460477934  0.9141289973152240
  0.8862027665380054  0.8732737961612855  0.6640594277305567
  0.4474540782787173  0.7596066050512604  0.4225486299717787
  0.5613564346283084  0.8701055375213400  0.1631016538984653
  0.1073675951302562  0.7573672707037531  0.9079218236073103
  0.2222226393145661  0.8722222301713458  0.6645446625426530
  0.7780598585717726  0.7605477948333430  0.4132240315643827
  0.8852043287818319  0.8701050365220340  0.1631016058770953
  0.4519312880823634  0.7573674721129606  0.9079219100500140
  0.5571905429826174  0.8732741895104681  0.6640595638527103
  0.2222216832303232  0.8722221406342996  0.1610356671337101
  0.2216616277687251  0.2049328401238029  0.3548801650792868
  0.0953695514550859  0.1259272694930900  0.0938145471048983
  0.8852719032871548  0.2072215120485268  0.8525605842970663
  0.7772899719897168  0.0946885396741095  0.6033705471784145
  0.5555559352564430  0.2055555441130181  0.3537239041598284
  0.4439626953889118  0.0939634030118910  0.1051327213726836
  0.2241730260447738  0.2072216911513109  0.8525606274094955
  0.1095262458763102  0.0976152052926480  0.6115893652728559
  0.8900732108377554  0.2049322549074404  0.3548801631837364
  0.7787405148415871  0.0939628608938179  0.1051326782828781
  0.5555557475324235  0.2055552539122303  0.8547079516281713
  0.4446888864397849  0.0946889092414551  0.6033705537248792
  0.2216615822926471  0.5400729147687642  0.3548801106605310
  0.1106676905055792  0.4279992497069003  0.1043020089707554
  0.8888883544320763  0.5388889360785782  0.8546021150350711
  0.7780226511126571  0.4280225279784631  0.6032846639559324
  0.5549325057188526  0.5400726987536544  0.3548801872186971
  0.4439625563655909  0.4287404290644972  0.1051327499269021
  0.2241730046035144  0.5352715808693134  0.8525605271030230
  0.1106214573018960  0.4280228180911863  0.6032846759518193
  0.8888886999396988  0.5388891419538595  0.3535183110584939
  0.7779984686935038  0.4279989271644880  0.1043021475606807
  0.5572213584418151  0.5352717327111733  0.8525606768864762
  0.4446888704525165  0.4272892976102511  0.6033705160963834
  0.2222229153112778  0.8722223806595579  0.3832527803946917
  0.0953693690972131  0.7453694066795222  0.0938144774558722
  0.8852719571303211  0.8741728456379718  0.8525604890935838
  0.7780226775424239  0.7606218546161472  0.6032846637267468
  0.5549327297416013  0.8716618002652936  0.3548801583299763
  0.4759268751638217  0.7453697683806126  0.0938147495869330
  0.2222221183043942  0.8722220630853883  0.8605315234406206
  0.1095263241663318  0.7595257284812220  0.6115891687275905
  0.8900733639566383  0.8716614897597239  0.3548800774760537
  0.7779984760567373  0.7606687677601869  0.1043020059010047
  0.5572213076516306  0.8741732047019397  0.8525606807837249
  0.4476155691111927  0.7595257622278524  0.6115893556873644
 
  0.00000000E+00  0.00000000E+00  0.00000000E+00
  0.00000000E+00  0.00000000E+00  0.00000000E+00
  0.00000000E+00  0.00000000E+00  0.00000000E+00
  0.00000000E+00  0.00000000E+00  0.00000000E+00
  0.00000000E+00  0.00000000E+00  0.00000000E+00
  0.00000000E+00  0.00000000E+00  0.00000000E+00
  0.00000000E+00  0.00000000E+00  0.00000000E+00
  0.00000000E+00  0.00000000E+00  0.00000000E+00
  0.00000000E+00  0.00000000E+00  0.00000000E+00
  0.00000000E+00  0.00000000E+00  0.00000000E+00
  0.00000000E+00  0.00000000E+00  0.00000000E+00
  0.00000000E+00  0.00000000E+00  0.00000000E+00
  0.00000000E+00  0.00000000E+00  0.00000000E+00
  0.00000000E+00  0.00000000E+00  0.00000000E+00
  0.00000000E+00  0.00000000E+00  0.00000000E+00
  0.00000000E+00  0.00000000E+00  0.00000000E+00
  0.00000000E+00  0.00000000E+00  0.00000000E+00
  0.00000000E+00  0.00000000E+00  0.00000000E+00
  0.00000000E+00  0.00000000E+00  0.00000000E+00
  0.00000000E+00  0.00000000E+00  0.00000000E+00
  0.00000000E+00  0.00000000E+00  0.00000000E+00
  0.00000000E+00  0.00000000E+00  0.00000000E+00
  0.00000000E+00  0.00000000E+00  0.00000000E+00
  0.00000000E+00  0.00000000E+00  0.00000000E+00
  0.00000000E+00  0.00000000E+00  0.00000000E+00
  0.00000000E+00  0.00000000E+00  0.00000000E+00
  0.00000000E+00  0.00000000E+00  0.00000000E+00
  0.00000000E+00  0.00000000E+00  0.00000000E+00
  0.00000000E+00  0.00000000E+00  0.00000000E+00
  0.00000000E+00  0.00000000E+00  0.00000000E+00
  0.00000000E+00  0.00000000E+00  0.00000000E+00
  0.00000000E+00  0.00000000E+00  0.00000000E+00
  0.00000000E+00  0.00000000E+00  0.00000000E+00
  0.00000000E+00  0.00000000E+00  0.00000000E+00
  0.00000000E+00  0.00000000E+00  0.00000000E+00
  0.00000000E+00  0.00000000E+00  0.00000000E+00
  0.00000000E+00  0.00000000E+00  0.00000000E+00
  0.00000000E+00  0.00000000E+00  0.00000000E+00
  0.00000000E+00  0.00000000E+00  0.00000000E+00
  0.00000000E+00  0.00000000E+00  0.00000000E+00
  0.00000000E+00  0.00000000E+00  0.00000000E+00
  0.00000000E+00  0.00000000E+00  0.00000000E+00
  0.00000000E+00  0.00000000E+00  0.00000000E+00
  0.00000000E+00  0.00000000E+00  0.00000000E+00
  0.00000000E+00  0.00000000E+00  0.00000000E+00
  0.00000000E+00  0.00000000E+00  0.00000000E+00
  0.00000000E+00  0.00000000E+00  0.00000000E+00
  0.00000000E+00  0.00000000E+00  0.00000000E+00
  0.00000000E+00  0.00000000E+00  0.00000000E+00
  0.00000000E+00  0.00000000E+00  0.00000000E+00
  0.00000000E+00  0.00000000E+00  0.00000000E+00
  0.00000000E+00  0.00000000E+00  0.00000000E+00
  0.00000000E+00  0.00000000E+00  0.00000000E+00
  0.00000000E+00  0.00000000E+00  0.00000000E+00
  0.00000000E+00  0.00000000E+00  0.00000000E+00
  0.00000000E+00  0.00000000E+00  0.00000000E+00
  0.00000000E+00  0.00000000E+00  0.00000000E+00
  0.00000000E+00  0.00000000E+00  0.00000000E+00
  0.00000000E+00  0.00000000E+00  0.00000000E+00
  0.00000000E+00  0.00000000E+00  0.00000000E+00
  0.00000000E+00  0.00000000E+00  0.00000000E+00
  0.00000000E+00  0.00000000E+00  0.00000000E+00
  0.00000000E+00  0.00000000E+00  0.00000000E+00
  0.00000000E+00  0.00000000E+00  0.00000000E+00
  0.00000000E+00  0.00000000E+00  0.00000000E+00
  0.00000000E+00  0.00000000E+00  0.00000000E+00
  0.00000000E+00  0.00000000E+00  0.00000000E+00
  0.00000000E+00  0.00000000E+00  0.00000000E+00
  0.00000000E+00  0.00000000E+00  0.00000000E+00
  0.00000000E+00  0.00000000E+00  0.00000000E+00
  0.00000000E+00  0.00000000E+00  0.00000000E+00
  0.00000000E+00  0.00000000E+00  0.00000000E+00
