supercell of icsd_608626.cif            
   1.02976466074373     
     9.3132514172899654    0.0110289307593010    0.0071121728428233
    -4.6470639739940065    8.0380467297737130    0.0102938919736923
     0.0076408513676108    0.0172159021988977    9.7402135606672360
   Y    Al   N 
     4    32    36
Direct
  0.2198127643979575  0.1094446726762826  0.2423305162133289
  0.7699955533410900  0.2171407768571640  0.5023433674530864
  0.8945655514097766  0.4506343639878523  0.2284794851948746
  0.7739441180542173  0.8794948800402267  0.4884684204972558
  0.1168334347708040  0.2266569998790402  0.5068045403943344
  0.8905176432829336  0.1104512836862099  0.7633327726313865
  0.7717261823085195  0.2133127806744639  0.9937805128195052
  0.5487669408665283  0.1044250467756740  0.2419777017435010
  0.4393945696734392  0.2211602039823859  0.5053397681703942
  0.2226458650706107  0.1113873711575124  0.7495538485783300
  0.1115837092646217  0.2290767026367035  0.9937354891288877
  0.8893466402074566  0.1114071686094249  0.2379919446499130
  0.5524764985233546  0.1092585355952664  0.7575325318030579
  0.4507143302947227  0.2279372373419335  0.9944779346336716
  0.2278644771747835  0.4499618689041398  0.2496068886792600
  0.1156481078338487  0.5589240382028464  0.5039984446758723
  0.8930268288033574  0.4491732988358095  0.7604425905733976
  0.7712732562056388  0.5600763988501498  0.9949380257885707
  0.5568653952224452  0.4500558487419184  0.2488352147904180
  0.4385845654374165  0.5528785216540513  0.4979500035622593
  0.2256175168400389  0.4473628253322062  0.7481862707569462
  0.1258143167938073  0.5628990580095063  0.9949847549772812
  0.7846098253579541  0.5575703559856180  0.5040429162331677
  0.5566025851857361  0.4474227772530952  0.7470423134469399
  0.4437182193137374  0.5533829679133788  0.9990948679911611
  0.2271971834231579  0.7762609944762957  0.2495950953973249
  0.1142613172572382  0.8854196203998228  0.5054666169182980
  0.8897666291356074  0.7792454891163842  0.7553919896289472
  0.7769348721403375  0.8865248733810702  0.0012591277273728
  0.5448462906895983  0.7727604257277036  0.2410668242516536
  0.4307744097850446  0.8823864866012414  0.4961719789488654
  0.2250360251112937  0.7790458541937753  0.7478499791291640
  0.1094339526349657  0.8810483496975863  0.9931224089399961
  0.8871409104281156  0.7724929802961782  0.2429811281433203
  0.5546036309693463  0.7782485925482945  0.7557330541289886
  0.4413017479966470  0.8876485814516357  0.9992767141248251
  0.2205602986221180  0.1106565874962087  0.4672080086791510
  0.1005840054708074  0.2426074007283106  0.1787103700365265
  0.8901906648701754  0.1082760116386936  0.9491200454254383
  0.7790142509502829  0.2238270524983719  0.7253305578322511
  0.5195058581529324  0.0949221349313092  0.4304624019988026
  0.4731244702719408  0.2402983320436789  0.1814832931839518
  0.2227806166234103  0.1113287118668111  0.9478241816555553
  0.1094329377319241  0.2235377136272163  0.6986739349652211
  0.9192225651338930  0.1262273992453657  0.4240600959723153
  0.7591356494925421  0.1913428576464256  0.1850388722934682
  0.5498123843556257  0.1069695054660329  0.9430817783714787
  0.4479204333285836  0.2240251900450758  0.6962019462441305
  0.2219190815562300  0.4430051176307543  0.4442261837173120
  0.1496676080165287  0.5740508668815778  0.1804636669559585
  0.8925219020080277  0.4489312731390385  0.9568338927995441
  0.7799792671114290  0.5582051773656858  0.6965421672956396
  0.5588707597832681  0.4467090549053410  0.4448051546648131
  0.4427219112010405  0.5508220294824326  0.1895919292565296
  0.2274478816064516  0.4475039065066184  0.9350825650904397
  0.1134677061937737  0.5569435859750484  0.6960356989510856
  0.9033517598355729  0.4644827552145898  0.4518296530274810
  0.7586662220746234  0.5698101026141416  0.1790425989801250
  0.5544757949249828  0.4466680713320343  0.9347291669798707
  0.4469668608077981  0.5591612160896631  0.6893424539775879
  0.2180954922329263  0.7749806818097724  0.4427482738125406
  0.0974210086693503  0.8554397884144436  0.1800602900316264
  0.8893906039061790  0.7791755262306879  0.9417364741555829
  0.7775497806556544  0.8905276676684721  0.7120218448086888
  0.5210467795536644  0.7622994287173768  0.4287640863207756
  0.4405385883438058  0.8887734365178588  0.1867624110921042
  0.2260966358829037  0.7797579605347025  0.9346329442347852
  0.1101674309039069  0.8871545473270857  0.6968343127289032
  0.9077408135061518  0.7650025005971912  0.4315465268566214
  0.7763162043861414  0.8861046214359192  0.1974546722693660
  0.5534721878703479  0.7767587306962511  0.9468190329853527
  0.4475777187588577  0.8911348242070289  0.6897124696233803
 
  0.00000000E+00  0.00000000E+00  0.00000000E+00
  0.00000000E+00  0.00000000E+00  0.00000000E+00
  0.00000000E+00  0.00000000E+00  0.00000000E+00
  0.00000000E+00  0.00000000E+00  0.00000000E+00
  0.00000000E+00  0.00000000E+00  0.00000000E+00
  0.00000000E+00  0.00000000E+00  0.00000000E+00
  0.00000000E+00  0.00000000E+00  0.00000000E+00
  0.00000000E+00  0.00000000E+00  0.00000000E+00
  0.00000000E+00  0.00000000E+00  0.00000000E+00
  0.00000000E+00  0.00000000E+00  0.00000000E+00
  0.00000000E+00  0.00000000E+00  0.00000000E+00
  0.00000000E+00  0.00000000E+00  0.00000000E+00
  0.00000000E+00  0.00000000E+00  0.00000000E+00
  0.00000000E+00  0.00000000E+00  0.00000000E+00
  0.00000000E+00  0.00000000E+00  0.00000000E+00
  0.00000000E+00  0.00000000E+00  0.00000000E+00
  0.00000000E+00  0.00000000E+00  0.00000000E+00
  0.00000000E+00  0.00000000E+00  0.00000000E+00
  0.00000000E+00  0.00000000E+00  0.00000000E+00
  0.00000000E+00  0.00000000E+00  0.00000000E+00
  0.00000000E+00  0.00000000E+00  0.00000000E+00
  0.00000000E+00  0.00000000E+00  0.00000000E+00
  0.00000000E+00  0.00000000E+00  0.00000000E+00
  0.00000000E+00  0.00000000E+00  0.00000000E+00
  0.00000000E+00  0.00000000E+00  0.00000000E+00
  0.00000000E+00  0.00000000E+00  0.00000000E+00
  0.00000000E+00  0.00000000E+00  0.00000000E+00
  0.00000000E+00  0.00000000E+00  0.00000000E+00
  0.00000000E+00  0.00000000E+00  0.00000000E+00
  0.00000000E+00  0.00000000E+00  0.00000000E+00
  0.00000000E+00  0.00000000E+00  0.00000000E+00
  0.00000000E+00  0.00000000E+00  0.00000000E+00
  0.00000000E+00  0.00000000E+00  0.00000000E+00
  0.00000000E+00  0.00000000E+00  0.00000000E+00
  0.00000000E+00  0.00000000E+00  0.00000000E+00
  0.00000000E+00  0.00000000E+00  0.00000000E+00
  0.00000000E+00  0.00000000E+00  0.00000000E+00
  0.00000000E+00  0.00000000E+00  0.00000000E+00
  0.00000000E+00  0.00000000E+00  0.00000000E+00
  0.00000000E+00  0.00000000E+00  0.00000000E+00
  0.00000000E+00  0.00000000E+00  0.00000000E+00
  0.00000000E+00  0.00000000E+00  0.00000000E+00
  0.00000000E+00  0.00000000E+00  0.00000000E+00
  0.00000000E+00  0.00000000E+00  0.00000000E+00
  0.00000000E+00  0.00000000E+00  0.00000000E+00
  0.00000000E+00  0.00000000E+00  0.00000000E+00
  0.00000000E+00  0.00000000E+00  0.00000000E+00
  0.00000000E+00  0.00000000E+00  0.00000000E+00
  0.00000000E+00  0.00000000E+00  0.00000000E+00
  0.00000000E+00  0.00000000E+00  0.00000000E+00
  0.00000000E+00  0.00000000E+00  0.00000000E+00
  0.00000000E+00  0.00000000E+00  0.00000000E+00
  0.00000000E+00  0.00000000E+00  0.00000000E+00
  0.00000000E+00  0.00000000E+00  0.00000000E+00
  0.00000000E+00  0.00000000E+00  0.00000000E+00
  0.00000000E+00  0.00000000E+00  0.00000000E+00
  0.00000000E+00  0.00000000E+00  0.00000000E+00
  0.00000000E+00  0.00000000E+00  0.00000000E+00
  0.00000000E+00  0.00000000E+00  0.00000000E+00
  0.00000000E+00  0.00000000E+00  0.00000000E+00
  0.00000000E+00  0.00000000E+00  0.00000000E+00
  0.00000000E+00  0.00000000E+00  0.00000000E+00
  0.00000000E+00  0.00000000E+00  0.00000000E+00
  0.00000000E+00  0.00000000E+00  0.00000000E+00
  0.00000000E+00  0.00000000E+00  0.00000000E+00
  0.00000000E+00  0.00000000E+00  0.00000000E+00
  0.00000000E+00  0.00000000E+00  0.00000000E+00
  0.00000000E+00  0.00000000E+00  0.00000000E+00
  0.00000000E+00  0.00000000E+00  0.00000000E+00
  0.00000000E+00  0.00000000E+00  0.00000000E+00
  0.00000000E+00  0.00000000E+00  0.00000000E+00
  0.00000000E+00  0.00000000E+00  0.00000000E+00
