supercell of icsd_191774.cif            
   1.00000000000000     
    10.6394110414897654    0.0109336227641753   -0.0008352651415372
    -5.3102369680433448    9.2181175730412583    0.0096132636714068
    -0.0009033090256395    0.0117843747661585   10.8646604404816429
   N    Sc   In
    36    18    18
Direct
  0.2217891860762649  0.1098492670649236  0.4391017718521795
  0.1143930281988759  0.2223966573757679  0.1990256963468582
  0.8895895836881706  0.1104054736487470  0.9443212231289522
  0.7763472978476784  0.2251385987258558  0.6991689965969812
  0.5505975590592200  0.1083169147907057  0.4517900826906001
  0.4431415813716839  0.2228159633741811  0.1979905785582901
  0.2208133789394964  0.1065081808541208  0.9465439259326658
  0.1123340756271958  0.2239992958965189  0.6868318245060223
  0.8902874617953884  0.1121294641673458  0.4476820179962715
  0.7789636268888316  0.2257924058418297  0.1949225252566507
  0.5530228483945550  0.1068384700415805  0.9353606988061074
  0.4475396172570214  0.2243678034736689  0.6875085899062654
  0.2251022295652163  0.4428461847853242  0.4520292845774421
  0.1097309132019930  0.5551375861701615  0.1936946293336064
  0.8896626379264134  0.4455135389952787  0.9386803871986373
  0.7779118341724427  0.5542571206469162  0.6894187206404823
  0.5551651830474142  0.4457497022269763  0.4547735906081201
  0.4468848776741936  0.5583008371213438  0.1893279970533186
  0.2269738116699926  0.4454045781019360  0.9364208706970416
  0.1105406426551525  0.5546911229678102  0.7013054412765669
  0.8878440298447998  0.4466150697930473  0.4397411408128278
  0.7803637420782152  0.5540868148919031  0.1970180487566182
  0.5546744963308043  0.4473363528346681  0.9349137676583155
  0.4417562363764915  0.5518382619905324  0.6915585562697188
  0.2239982374674057  0.7821969249922631  0.4501164986865618
  0.1134421492157713  0.8923848863534403  0.1883780911863724
  0.8935939463694353  0.7792921532932056  0.9354552568191252
  0.7754074544726635  0.8849781758056992  0.6965374179703332
  0.5491085304260750  0.7750149619194886  0.4361388835250253
  0.4464554275224657  0.8888093857047110  0.1889129801073040
  0.2252233567752029  0.7830048588780230  0.9368235521958468
  0.1079449160008181  0.8839700101687811  0.6909003223486820
  0.8914451906551051  0.7761728823727410  0.4515982779735026
  0.7758784828360774  0.8867236583642963  0.1969113009106493
  0.5495541912713762  0.7744579605182409  0.9517448192449081
  0.4417970309395116  0.8908040454116417  0.6905299438134449
  0.2225191539239404  0.1102179676025870  0.2442192314693870
  0.1113850799417762  0.2197375476661705  0.4939889333903835
  0.4416332256447077  0.2223210536923403  0.4941776674581249
  0.5549788375214533  0.1119102749744982  0.7409488612342159
  0.8894229934813325  0.4457489572151374  0.7461811034117645
  0.4460206410427432  0.5586299425658154  0.4981899756854489
  0.2217351161449628  0.4425090053445118  0.7420576712855862
  0.8906739431941944  0.4443994366506487  0.2461404795049589
  0.7783032459191759  0.5554077269684683  0.4959086917019917
  0.5570284201413003  0.4448964107364120  0.7398990119618745
  0.4429705994855127  0.5526803780467660  0.9945576817153210
  0.1119350621727975  0.8917743858993248  0.4976852736059882
  0.8872315653193468  0.7748667000298894  0.7417695801770492
  0.5550100928573869  0.7775108499461325  0.2417090112458524
  0.4446790198382260  0.8879089050524414  0.4968707355625881
  0.2220981457152789  0.7772161318817865  0.7428703059580215
  0.1105833388730133  0.8869165845132159  0.9933464638174812
  0.4426948526090726  0.8906919184728892  0.9946464243950714
  0.8892436083942457  0.1109887438247839  0.7455794960674496
  0.7755065672394181  0.2214093233341643  0.9948358030344977
  0.5559586051299164  0.1102609352337112  0.2508208909997691
  0.2229573917497092  0.1101722902394400  0.7449804494216252
  0.1126425299765756  0.2241768991021829  0.9985200619398924
  0.8884877077454121  0.1110384836101659  0.2489385461058546
  0.7772708845314682  0.2237988596308043  0.4999698271081101
  0.4474023119398325  0.2243588441152866  0.9960299817289666
  0.2249507746162394  0.4470250959985904  0.2510691325798149
  0.1106978250447739  0.5558632886772585  0.5014149587846077
  0.7769144362611158  0.5566192396702263  0.9949511374779334
  0.5565380815682843  0.4467261808298559  0.2525961672858088
  0.1147338046345396  0.5579903966149828  0.9924730452860118
  0.2233828385883783  0.7791041889626626  0.2483419559784465
  0.7777923055737759  0.8863483424899528  0.9969535705323196
  0.8919435589537201  0.7788714910121044  0.2506729791227471
  0.7724480147097381  0.8858992906517997  0.4971799486846677
  0.5509466258772378  0.7758583591793027  0.7501272330380857
 
  0.00000000E+00  0.00000000E+00  0.00000000E+00
  0.00000000E+00  0.00000000E+00  0.00000000E+00
  0.00000000E+00  0.00000000E+00  0.00000000E+00
  0.00000000E+00  0.00000000E+00  0.00000000E+00
  0.00000000E+00  0.00000000E+00  0.00000000E+00
  0.00000000E+00  0.00000000E+00  0.00000000E+00
  0.00000000E+00  0.00000000E+00  0.00000000E+00
  0.00000000E+00  0.00000000E+00  0.00000000E+00
  0.00000000E+00  0.00000000E+00  0.00000000E+00
  0.00000000E+00  0.00000000E+00  0.00000000E+00
  0.00000000E+00  0.00000000E+00  0.00000000E+00
  0.00000000E+00  0.00000000E+00  0.00000000E+00
  0.00000000E+00  0.00000000E+00  0.00000000E+00
  0.00000000E+00  0.00000000E+00  0.00000000E+00
  0.00000000E+00  0.00000000E+00  0.00000000E+00
  0.00000000E+00  0.00000000E+00  0.00000000E+00
  0.00000000E+00  0.00000000E+00  0.00000000E+00
  0.00000000E+00  0.00000000E+00  0.00000000E+00
  0.00000000E+00  0.00000000E+00  0.00000000E+00
  0.00000000E+00  0.00000000E+00  0.00000000E+00
  0.00000000E+00  0.00000000E+00  0.00000000E+00
  0.00000000E+00  0.00000000E+00  0.00000000E+00
  0.00000000E+00  0.00000000E+00  0.00000000E+00
  0.00000000E+00  0.00000000E+00  0.00000000E+00
  0.00000000E+00  0.00000000E+00  0.00000000E+00
  0.00000000E+00  0.00000000E+00  0.00000000E+00
  0.00000000E+00  0.00000000E+00  0.00000000E+00
  0.00000000E+00  0.00000000E+00  0.00000000E+00
  0.00000000E+00  0.00000000E+00  0.00000000E+00
  0.00000000E+00  0.00000000E+00  0.00000000E+00
  0.00000000E+00  0.00000000E+00  0.00000000E+00
  0.00000000E+00  0.00000000E+00  0.00000000E+00
  0.00000000E+00  0.00000000E+00  0.00000000E+00
  0.00000000E+00  0.00000000E+00  0.00000000E+00
  0.00000000E+00  0.00000000E+00  0.00000000E+00
  0.00000000E+00  0.00000000E+00  0.00000000E+00
  0.00000000E+00  0.00000000E+00  0.00000000E+00
  0.00000000E+00  0.00000000E+00  0.00000000E+00
  0.00000000E+00  0.00000000E+00  0.00000000E+00
  0.00000000E+00  0.00000000E+00  0.00000000E+00
  0.00000000E+00  0.00000000E+00  0.00000000E+00
  0.00000000E+00  0.00000000E+00  0.00000000E+00
  0.00000000E+00  0.00000000E+00  0.00000000E+00
  0.00000000E+00  0.00000000E+00  0.00000000E+00
  0.00000000E+00  0.00000000E+00  0.00000000E+00
  0.00000000E+00  0.00000000E+00  0.00000000E+00
  0.00000000E+00  0.00000000E+00  0.00000000E+00
  0.00000000E+00  0.00000000E+00  0.00000000E+00
  0.00000000E+00  0.00000000E+00  0.00000000E+00
  0.00000000E+00  0.00000000E+00  0.00000000E+00
  0.00000000E+00  0.00000000E+00  0.00000000E+00
  0.00000000E+00  0.00000000E+00  0.00000000E+00
  0.00000000E+00  0.00000000E+00  0.00000000E+00
  0.00000000E+00  0.00000000E+00  0.00000000E+00
  0.00000000E+00  0.00000000E+00  0.00000000E+00
  0.00000000E+00  0.00000000E+00  0.00000000E+00
  0.00000000E+00  0.00000000E+00  0.00000000E+00
  0.00000000E+00  0.00000000E+00  0.00000000E+00
  0.00000000E+00  0.00000000E+00  0.00000000E+00
  0.00000000E+00  0.00000000E+00  0.00000000E+00
  0.00000000E+00  0.00000000E+00  0.00000000E+00
  0.00000000E+00  0.00000000E+00  0.00000000E+00
  0.00000000E+00  0.00000000E+00  0.00000000E+00
  0.00000000E+00  0.00000000E+00  0.00000000E+00
  0.00000000E+00  0.00000000E+00  0.00000000E+00
  0.00000000E+00  0.00000000E+00  0.00000000E+00
  0.00000000E+00  0.00000000E+00  0.00000000E+00
  0.00000000E+00  0.00000000E+00  0.00000000E+00
  0.00000000E+00  0.00000000E+00  0.00000000E+00
  0.00000000E+00  0.00000000E+00  0.00000000E+00
  0.00000000E+00  0.00000000E+00  0.00000000E+00
  0.00000000E+00  0.00000000E+00  0.00000000E+00
