supercell of icsd_191774.cif            
   1.00000000000000     
    10.6706914526293275   -0.0048956046114151   -0.0047736558061277
    -5.3395870899935094    9.2406579252046939   -0.0001749470477324
    -0.0059208744037503   -0.0032358287564846   10.7466527665401976
   N    Sc   In
    36    20    16
Direct
  0.2219212696640511  0.1128203339669511  0.4390120423949497
  0.1084693881647851  0.2167303763821380  0.2031092840908073
  0.8890735857933834  0.1107828908174326  0.9382913462650109
  0.7769059236788891  0.2197086277580595  0.6966782698159548
  0.5523509054078275  0.1085600469550840  0.4412241627228539
  0.4445554582595648  0.2226714863415395  0.1875724503778997
  0.2241150410143007  0.1094531028359853  0.9425841560605122
  0.1076599757264489  0.2160965897295739  0.6872166340799524
  0.8907508136063598  0.1090821393670893  0.4435394637733197
  0.7760133204080049  0.2209306231788446  0.2009561553275176
  0.5541479748255185  0.1126277884071030  0.9397285753473668
  0.4442955899070427  0.2224359706625805  0.7044753285499468
  0.2193330774172608  0.4437414518448932  0.4499099914911397
  0.1070627484814182  0.5541471566632694  0.1906715370018830
  0.8917842197400105  0.4478556406492729  0.9539605700017049
  0.7743135812064423  0.5543638086298799  0.6982742590504003
  0.5553888231699489  0.4437706016529006  0.4375064068666390
  0.4457951925881503  0.5548414988265478  0.1956610893549779
  0.2190740972257501  0.4439621903140747  0.9457685285170427
  0.1110085841830042  0.5588918642009801  0.6909146726953850
  0.8923933482628001  0.4469316611119041  0.4362121193345132
  0.7755346682887421  0.5548462679462318  0.1896094588742088
  0.5575546127268254  0.4416644944295953  0.9432700182003160
  0.4473367482307538  0.5560161367636098  0.7006700865145064
  0.2229145083137496  0.7748299781397776  0.4520451217280907
  0.1109735233010625  0.8917473420158615  0.1876518251273254
  0.8908835814470208  0.7771035611045889  0.9548208611598312
  0.7777050349128487  0.8912149078302676  0.6878502594074760
  0.5578167192500061  0.7812998734880310  0.4546665505350234
  0.4460272522477595  0.8931246897696283  0.1980721949119300
  0.2193768601588886  0.7748250118993099  0.9373896201572691
  0.1153335959980666  0.8922541815074041  0.7028179743284610
  0.8887790591059286  0.7788665037490503  0.4355597371547191
  0.7814004019855645  0.8915974024061200  0.2035445971355756
  0.5566798753173643  0.7793025696377569  0.9353676540196645
  0.4463156534121779  0.8911127535557171  0.6899075470961762
  0.2250024129124171  0.1105472628988977  0.2424870024841823
  0.1114493736621398  0.2212149734563980  0.4916368816463574
  0.8888362134069752  0.1104844006413330  0.7415764275894574
  0.5547636636360309  0.1143130422931833  0.2452016829711638
  0.2217578648312681  0.1134660055010173  0.7471548811362183
  0.8875216322551225  0.1119855073641176  0.2486644595060241
  0.5556079449378331  0.1108342787638463  0.7441428300388395
  0.4446396722673427  0.2217669323787916  0.9909377219637250
  0.1088911984351597  0.5534303682978319  0.4959972167046374
  0.7767948489613516  0.5551276100428950  0.9946986560961477
  0.5554080024675088  0.4427690848439667  0.2414957007562109
  0.1131184047740916  0.5571420791159269  0.9956621210186682
  0.8861048010923014  0.4443956251108574  0.2401409557279948
  0.5545729267050632  0.4445573505236524  0.7486988695885017
  0.4451662361220556  0.8900330778028973  0.4944747540367302
  0.2253690025915063  0.7789735973678731  0.7415499140971136
  0.1136678011380141  0.8886702476213841  0.9912857725621222
  0.8902215516049878  0.7764283156892162  0.2390801571629382
  0.7809156793043144  0.8884565647707703  0.4919302240863246
  0.5561397904709793  0.7796539570513019  0.7391988118562551
  0.7769702022319365  0.2209155237114047  0.9984795355595679
  0.4439105212907890  0.2222351123142730  0.4988931309738334
  0.1114034058730482  0.2202019239369903  0.9989782071547779
  0.7785677606400014  0.2230981195652291  0.4939905442901988
  0.2212645231953019  0.4445546937035729  0.2481260105989946
  0.8886660467770255  0.4437929453302800  0.7499030670783284
  0.4443450960735902  0.5544484338880906  0.4990908346033223
  0.2194046835836048  0.4412078495531873  0.7438814330041978
  0.7794329577565833  0.5562442423347207  0.4939727756860250
  0.4453805728819802  0.5557042498408578  0.9936860269830206
  0.2196912286689141  0.7779943399837137  0.2480118710025465
  0.1106624120672990  0.8894181398202861  0.4984382176992881
  0.8881324895881377  0.7801899517896658  0.7504215012298801
  0.7767066341131468  0.8894212288938732  0.9996280649214881
  0.5553760758349284  0.7778888330845604  0.2515277909660654
  0.4430913544195789  0.8882226061740397  0.9942453977485073
 
  0.00000000E+00  0.00000000E+00  0.00000000E+00
  0.00000000E+00  0.00000000E+00  0.00000000E+00
  0.00000000E+00  0.00000000E+00  0.00000000E+00
  0.00000000E+00  0.00000000E+00  0.00000000E+00
  0.00000000E+00  0.00000000E+00  0.00000000E+00
  0.00000000E+00  0.00000000E+00  0.00000000E+00
  0.00000000E+00  0.00000000E+00  0.00000000E+00
  0.00000000E+00  0.00000000E+00  0.00000000E+00
  0.00000000E+00  0.00000000E+00  0.00000000E+00
  0.00000000E+00  0.00000000E+00  0.00000000E+00
  0.00000000E+00  0.00000000E+00  0.00000000E+00
  0.00000000E+00  0.00000000E+00  0.00000000E+00
  0.00000000E+00  0.00000000E+00  0.00000000E+00
  0.00000000E+00  0.00000000E+00  0.00000000E+00
  0.00000000E+00  0.00000000E+00  0.00000000E+00
  0.00000000E+00  0.00000000E+00  0.00000000E+00
  0.00000000E+00  0.00000000E+00  0.00000000E+00
  0.00000000E+00  0.00000000E+00  0.00000000E+00
  0.00000000E+00  0.00000000E+00  0.00000000E+00
  0.00000000E+00  0.00000000E+00  0.00000000E+00
  0.00000000E+00  0.00000000E+00  0.00000000E+00
  0.00000000E+00  0.00000000E+00  0.00000000E+00
  0.00000000E+00  0.00000000E+00  0.00000000E+00
  0.00000000E+00  0.00000000E+00  0.00000000E+00
  0.00000000E+00  0.00000000E+00  0.00000000E+00
  0.00000000E+00  0.00000000E+00  0.00000000E+00
  0.00000000E+00  0.00000000E+00  0.00000000E+00
  0.00000000E+00  0.00000000E+00  0.00000000E+00
  0.00000000E+00  0.00000000E+00  0.00000000E+00
  0.00000000E+00  0.00000000E+00  0.00000000E+00
  0.00000000E+00  0.00000000E+00  0.00000000E+00
  0.00000000E+00  0.00000000E+00  0.00000000E+00
  0.00000000E+00  0.00000000E+00  0.00000000E+00
  0.00000000E+00  0.00000000E+00  0.00000000E+00
  0.00000000E+00  0.00000000E+00  0.00000000E+00
  0.00000000E+00  0.00000000E+00  0.00000000E+00
  0.00000000E+00  0.00000000E+00  0.00000000E+00
  0.00000000E+00  0.00000000E+00  0.00000000E+00
  0.00000000E+00  0.00000000E+00  0.00000000E+00
  0.00000000E+00  0.00000000E+00  0.00000000E+00
  0.00000000E+00  0.00000000E+00  0.00000000E+00
  0.00000000E+00  0.00000000E+00  0.00000000E+00
  0.00000000E+00  0.00000000E+00  0.00000000E+00
  0.00000000E+00  0.00000000E+00  0.00000000E+00
  0.00000000E+00  0.00000000E+00  0.00000000E+00
  0.00000000E+00  0.00000000E+00  0.00000000E+00
  0.00000000E+00  0.00000000E+00  0.00000000E+00
  0.00000000E+00  0.00000000E+00  0.00000000E+00
  0.00000000E+00  0.00000000E+00  0.00000000E+00
  0.00000000E+00  0.00000000E+00  0.00000000E+00
  0.00000000E+00  0.00000000E+00  0.00000000E+00
  0.00000000E+00  0.00000000E+00  0.00000000E+00
  0.00000000E+00  0.00000000E+00  0.00000000E+00
  0.00000000E+00  0.00000000E+00  0.00000000E+00
  0.00000000E+00  0.00000000E+00  0.00000000E+00
  0.00000000E+00  0.00000000E+00  0.00000000E+00
  0.00000000E+00  0.00000000E+00  0.00000000E+00
  0.00000000E+00  0.00000000E+00  0.00000000E+00
  0.00000000E+00  0.00000000E+00  0.00000000E+00
  0.00000000E+00  0.00000000E+00  0.00000000E+00
  0.00000000E+00  0.00000000E+00  0.00000000E+00
  0.00000000E+00  0.00000000E+00  0.00000000E+00
  0.00000000E+00  0.00000000E+00  0.00000000E+00
  0.00000000E+00  0.00000000E+00  0.00000000E+00
  0.00000000E+00  0.00000000E+00  0.00000000E+00
  0.00000000E+00  0.00000000E+00  0.00000000E+00
  0.00000000E+00  0.00000000E+00  0.00000000E+00
  0.00000000E+00  0.00000000E+00  0.00000000E+00
  0.00000000E+00  0.00000000E+00  0.00000000E+00
  0.00000000E+00  0.00000000E+00  0.00000000E+00
  0.00000000E+00  0.00000000E+00  0.00000000E+00
  0.00000000E+00  0.00000000E+00  0.00000000E+00
