supercell of icsd_181358.cif            
   1.00000000000000     
    10.5999105022279299   -0.0142246046293702    0.0171365327226998
    -5.3122714806852924    9.1307618287538403   -0.0000086712605810
     0.0210446504651188    0.0110254042260340   10.4143050739734875
   N    Y    Ga
    36    16    20
Direct
  0.2126055931542368  0.1277136346225305  0.4522342826649250
  0.0920344296543760  0.2401302206445806  0.1889102815363941
  0.8970886792686130  0.1421851521687572  0.9312331025689247
  0.7630022713798894  0.1977154961982919  0.6807194431289929
  0.5599656895094611  0.0961745909404357  0.4596686853827379
  0.4446504078099025  0.2187075828826650  0.1917618381609572
  0.1887168471138594  0.0959067778904839  0.9717512922274025
  0.0726696228881920  0.2075183213090099  0.6790764452244602
  0.8837600675098187  0.1078047631492183  0.4379675142381316
  0.8019212258477140  0.2303558196473787  0.1878902051284612
  0.5947014113949436  0.1308798250880017  0.9354769720025686
  0.4528321924156060  0.2301840346492412  0.7295301932397038
  0.2233985981261810  0.4454802117688743  0.4554055705776463
  0.1006891297260140  0.5282006091955012  0.1884591166122220
  0.8889274386298638  0.4467228631640765  0.9599547917318887
  0.7581567470351942  0.5335029564586904  0.6805829298067678
  0.5424241207420692  0.4576450668750951  0.4370046399200831
  0.4108364374071627  0.5471233709564487  0.1886221272041979
  0.1906989095645741  0.4357215337626883  0.9291004664149582
  0.1152381992591884  0.5804050294485279  0.6785875008615747
  0.9059292895003495  0.4248938973654290  0.4413527954275978
  0.8052074437766876  0.5650621083083962  0.2138770735789564
  0.5892635683305585  0.4651052123748016  0.9587257416003894
  0.4686358600728155  0.5635709920420879  0.7033844625483638
  0.2464165959020903  0.7683446591027945  0.4398603035825204
  0.0916187948942664  0.8741272083345990  0.2052078385524965
  0.8963303616713176  0.7603071186209718  0.9500853777196454
  0.7727403641009474  0.9035380542648710  0.6960375709378752
  0.5564505660313728  0.7803382478052541  0.4761640714736259
  0.4566566850654397  0.8884569786522789  0.1721567577221208
  0.1947075637353066  0.7595953835308862  0.9497408321145571
  0.1206372990746942  0.8798273846876157  0.6912852988904490
  0.8770833497994488  0.7932524386882633  0.4512231016360033
  0.7991484867006236  0.9028171246796433  0.2028766682286047
  0.5710438488021552  0.7811376344512624  0.9272016734112611
  0.4398065990886977  0.8880025532334628  0.7117846470467697
  0.2074730945832783  0.1178305325968623  0.2225181336417350
  0.5673774902027873  0.1104918638678214  0.2428913552347254
  0.4524433953395359  0.2221584497614018  0.9724063317598919
  0.2005207308801928  0.1058291928387405  0.7520741563412230
  0.4467499768700520  0.2291446890965716  0.5047089300360028
  0.8848119553371419  0.4330876648347370  0.7437207077880998
  0.7790065054481232  0.5500725920209746  0.4656033378641240
  0.5536535183155706  0.4526243841401154  0.2220468782059370
  0.4317851891668241  0.5517777742847940  0.9739678822439473
  0.2173231810952174  0.4470267611344312  0.7143040625450112
  0.2244833764804355  0.7645459468763391  0.2247778279346875
  0.8814862398773329  0.7662243496011030  0.7342227676488520
  0.5579374460927511  0.7761306576712101  0.2571042725151642
  0.4477721377509312  0.8902744426898792  0.9605864481495345
  0.1191661009748017  0.8877796056644627  0.4776483717663496
  0.7999513677913157  0.9045086959977340  0.9895687198279077
  0.0910791228915002  0.2385777306936632  0.0015655529594767
  0.8751647531146531  0.1126169747639736  0.7451463460040770
  0.7800008901285267  0.2077927585294006  0.4970323592823220
  0.0945607688928192  0.2162487210839359  0.4947211795754853
  0.8929090288872530  0.1191101424991743  0.2508760838280608
  0.7939804664433865  0.2359886697182532  0.0015806868348278
  0.5677437521865372  0.1132175174677315  0.7457611988806363
  0.2114615006018141  0.4408295280779058  0.2543225844071060
  0.0959028196641256  0.5407759740520319  0.0006505084787847
  0.1218426859740163  0.5594135729463474  0.4925540683174248
  0.9044599765040644  0.4326498332569173  0.2507905746086720
  0.8001082461514102  0.5605233370132368  0.0150544951519294
  0.5720879301875144  0.4534571671335641  0.7586329587768859
  0.4541211443912800  0.5622516695776056  0.5067692331314930
  0.0941779607251902  0.8711589407780664  0.0076933540880688
  0.7771064663595055  0.8998286509563442  0.5046616647246864
  0.2127204142256076  0.7739709295722292  0.7518340952579194
  0.8898401983191562  0.7874441165204473  0.2559638527223242
  0.5661265591562525  0.7835049679439194  0.7392313198667466
  0.4466689140054925  0.8826763373749458  0.5161060864957463
 
  0.00000000E+00  0.00000000E+00  0.00000000E+00
  0.00000000E+00  0.00000000E+00  0.00000000E+00
  0.00000000E+00  0.00000000E+00  0.00000000E+00
  0.00000000E+00  0.00000000E+00  0.00000000E+00
  0.00000000E+00  0.00000000E+00  0.00000000E+00
  0.00000000E+00  0.00000000E+00  0.00000000E+00
  0.00000000E+00  0.00000000E+00  0.00000000E+00
  0.00000000E+00  0.00000000E+00  0.00000000E+00
  0.00000000E+00  0.00000000E+00  0.00000000E+00
  0.00000000E+00  0.00000000E+00  0.00000000E+00
  0.00000000E+00  0.00000000E+00  0.00000000E+00
  0.00000000E+00  0.00000000E+00  0.00000000E+00
  0.00000000E+00  0.00000000E+00  0.00000000E+00
  0.00000000E+00  0.00000000E+00  0.00000000E+00
  0.00000000E+00  0.00000000E+00  0.00000000E+00
  0.00000000E+00  0.00000000E+00  0.00000000E+00
  0.00000000E+00  0.00000000E+00  0.00000000E+00
  0.00000000E+00  0.00000000E+00  0.00000000E+00
  0.00000000E+00  0.00000000E+00  0.00000000E+00
  0.00000000E+00  0.00000000E+00  0.00000000E+00
  0.00000000E+00  0.00000000E+00  0.00000000E+00
  0.00000000E+00  0.00000000E+00  0.00000000E+00
  0.00000000E+00  0.00000000E+00  0.00000000E+00
  0.00000000E+00  0.00000000E+00  0.00000000E+00
  0.00000000E+00  0.00000000E+00  0.00000000E+00
  0.00000000E+00  0.00000000E+00  0.00000000E+00
  0.00000000E+00  0.00000000E+00  0.00000000E+00
  0.00000000E+00  0.00000000E+00  0.00000000E+00
  0.00000000E+00  0.00000000E+00  0.00000000E+00
  0.00000000E+00  0.00000000E+00  0.00000000E+00
  0.00000000E+00  0.00000000E+00  0.00000000E+00
  0.00000000E+00  0.00000000E+00  0.00000000E+00
  0.00000000E+00  0.00000000E+00  0.00000000E+00
  0.00000000E+00  0.00000000E+00  0.00000000E+00
  0.00000000E+00  0.00000000E+00  0.00000000E+00
  0.00000000E+00  0.00000000E+00  0.00000000E+00
  0.00000000E+00  0.00000000E+00  0.00000000E+00
  0.00000000E+00  0.00000000E+00  0.00000000E+00
  0.00000000E+00  0.00000000E+00  0.00000000E+00
  0.00000000E+00  0.00000000E+00  0.00000000E+00
  0.00000000E+00  0.00000000E+00  0.00000000E+00
  0.00000000E+00  0.00000000E+00  0.00000000E+00
  0.00000000E+00  0.00000000E+00  0.00000000E+00
  0.00000000E+00  0.00000000E+00  0.00000000E+00
  0.00000000E+00  0.00000000E+00  0.00000000E+00
  0.00000000E+00  0.00000000E+00  0.00000000E+00
  0.00000000E+00  0.00000000E+00  0.00000000E+00
  0.00000000E+00  0.00000000E+00  0.00000000E+00
  0.00000000E+00  0.00000000E+00  0.00000000E+00
  0.00000000E+00  0.00000000E+00  0.00000000E+00
  0.00000000E+00  0.00000000E+00  0.00000000E+00
  0.00000000E+00  0.00000000E+00  0.00000000E+00
  0.00000000E+00  0.00000000E+00  0.00000000E+00
  0.00000000E+00  0.00000000E+00  0.00000000E+00
  0.00000000E+00  0.00000000E+00  0.00000000E+00
  0.00000000E+00  0.00000000E+00  0.00000000E+00
  0.00000000E+00  0.00000000E+00  0.00000000E+00
  0.00000000E+00  0.00000000E+00  0.00000000E+00
  0.00000000E+00  0.00000000E+00  0.00000000E+00
  0.00000000E+00  0.00000000E+00  0.00000000E+00
  0.00000000E+00  0.00000000E+00  0.00000000E+00
  0.00000000E+00  0.00000000E+00  0.00000000E+00
  0.00000000E+00  0.00000000E+00  0.00000000E+00
  0.00000000E+00  0.00000000E+00  0.00000000E+00
  0.00000000E+00  0.00000000E+00  0.00000000E+00
  0.00000000E+00  0.00000000E+00  0.00000000E+00
  0.00000000E+00  0.00000000E+00  0.00000000E+00
  0.00000000E+00  0.00000000E+00  0.00000000E+00
  0.00000000E+00  0.00000000E+00  0.00000000E+00
  0.00000000E+00  0.00000000E+00  0.00000000E+00
  0.00000000E+00  0.00000000E+00  0.00000000E+00
  0.00000000E+00  0.00000000E+00  0.00000000E+00
