supercell of icsd_608626.cif            
  0.939760012806631     
     9.3579354841468518    0.0686069873985223    0.0167914101668973
    -4.6191962074973851    8.0242626017739358    0.0104630603142811
     0.0182748343943043    0.0235293720180677    9.8355526559773736
   Al   B    N 
    22    14    36
Direct
  0.2266493723256815  0.1121339828277286  0.2504229530137465
  0.1178919711990005  0.2146933359268175  0.4970571944039435
  0.8948150097624676  0.1156710117602415  0.7418272096705252
  0.7774144874200459  0.2314871594630645  0.0067338514798010
  0.5559106569892691  0.1173224195826919  0.2529950420032421
  0.1180930909783768  0.2214701204144518  0.0014487036066484
  0.7756097061082698  0.2259986673395318  0.4887847061342683
  0.5571221221962546  0.1226181225078378  0.7460772154203994
  0.2263665921491693  0.4465652533178854  0.2445498355603704
  0.1007643294078733  0.5592929681371288  0.4993915527612600
  0.2269146128394226  0.4438689015957209  0.7531667911164632
  0.1001395684622679  0.5535373710583329  0.9985069511326259
  0.5587490541312619  0.4433317587927021  0.7435504209660522
  0.2153279005733637  0.7788313691600592  0.2606616600490099
  0.8935143664645651  0.7720715647693197  0.7215903729690325
  0.7754972972217828  0.8809537731846007  0.0011180450453026
  0.5613468647053352  0.7769339396402231  0.2599592453494566
  0.2227419598625815  0.7774843896944077  0.7409792959751584
  0.1081721121775914  0.8888793636158425  0.9926060581604759
  0.8743121189877812  0.7653037889601606  0.2585490191392239
  0.5582369907553826  0.7731778185222211  0.7405558052296684
  0.4435480188503718  0.8862711435566553  0.0001865279316533
  0.4442864848385923  0.2203994982245092  0.5043835569928774
  0.2368110392280798  0.1242150788133642  0.7470573162188145
  0.8892900841478379  0.1077386496189519  0.2609706549394204
  0.4531889491788661  0.2360593386355205  0.9996034693941453
  0.8801131680598786  0.4438400144312382  0.7456411403800871
  0.7674590509496966  0.5447310066797399  0.9963820832614374
  0.5573915408994949  0.4372363772378165  0.2396725059665101
  0.4398162906639413  0.5580480178814184  0.5036126997741661
  0.8788280891134406  0.4426924904277456  0.2526457867909926
  0.7584397550692401  0.5465378813118775  0.4929901409588027
  0.4570809683014829  0.5507580969753008  0.0073658590971490
  0.1885102373185319  0.9355240186120923  0.5251991391231385
  0.4504506560127624  0.8965275840438167  0.5131164600345315
  0.7592219683666102  0.8674521424271830  0.5030324685827168
  0.2487629655134214  0.1059723232083272  0.4495980276048357
  0.0886344836710151  0.2091520474858442  0.2070170085397862
  0.8893496176744975  0.1125291189632094  0.9393380283737898
  0.7916185756487906  0.2482209731169789  0.6921610831543461
  0.5367923581786016  0.1017476699952553  0.4569730687022115
  0.4512730548845880  0.2430821847439333  0.1744985312064671
  0.2512439234806223  0.1262587820037098  0.9257264903772295
  0.1280275074643242  0.2124237626214835  0.6992752216611322
  0.8799887696991249  0.0862151891588638  0.4340162454494703
  0.7968875018123427  0.2330553485205300  0.2125738391784537
  0.5466056515769395  0.1267632844324211  0.9501685110705296
  0.4259916773735384  0.2175914043142768  0.6762643930091770
  0.2453706629931531  0.4612046251826030  0.4465531226838522
  0.0815758831950220  0.5449362330484249  0.2032362341504665
  0.8700787838885162  0.4540874639983201  0.9244641974503054
  0.7832496574129522  0.5366240890170388  0.6690148672192393
  0.5482612031137251  0.4293349041792425  0.4339704845588770
  0.4660835348312133  0.5467256174666346  0.1814592028131727
  0.2506480169040728  0.4584613606268988  0.9583566502737639
  0.0826323185328661  0.5383622929125167  0.7005948551074326
  0.8730413553784686  0.4631225475347875  0.4215952623878465
  0.7625726809318039  0.5275833154048399  0.1780054820725638
  0.5569143326918180  0.4445441703287969  0.9486162549481989
  0.4439295809376702  0.5521489105064106  0.6683085730321920
  0.2389731998483384  0.8057436046705178  0.4673669296845802
  0.1017985809228819  0.8867208343184032  0.1920284737718063
  0.8746004599957757  0.7502025360665243  0.9349576021573895
  0.7794541501776067  0.8916537362959218  0.6701618585705660
  0.5455522373281312  0.7786283267906668  0.4607733561774339
  0.4392581571362157  0.8838019507449673  0.1972704574992932
  0.2231757095829678  0.7776569757480019  0.9364324419878614
  0.1363463813173666  0.9228315839762686  0.6790048815467173
  0.8269307300902540  0.7431091378262877  0.4525474747051135
  0.7876933851416155  0.9153975017703715  0.1984209225111400
  0.5459130187213148  0.7502711935833517  0.9441297702932872
  0.4507434062318652  0.8941765802892192  0.6807284574363806
 
  0.00000000E+00  0.00000000E+00  0.00000000E+00
  0.00000000E+00  0.00000000E+00  0.00000000E+00
  0.00000000E+00  0.00000000E+00  0.00000000E+00
  0.00000000E+00  0.00000000E+00  0.00000000E+00
  0.00000000E+00  0.00000000E+00  0.00000000E+00
  0.00000000E+00  0.00000000E+00  0.00000000E+00
  0.00000000E+00  0.00000000E+00  0.00000000E+00
  0.00000000E+00  0.00000000E+00  0.00000000E+00
  0.00000000E+00  0.00000000E+00  0.00000000E+00
  0.00000000E+00  0.00000000E+00  0.00000000E+00
  0.00000000E+00  0.00000000E+00  0.00000000E+00
  0.00000000E+00  0.00000000E+00  0.00000000E+00
  0.00000000E+00  0.00000000E+00  0.00000000E+00
  0.00000000E+00  0.00000000E+00  0.00000000E+00
  0.00000000E+00  0.00000000E+00  0.00000000E+00
  0.00000000E+00  0.00000000E+00  0.00000000E+00
  0.00000000E+00  0.00000000E+00  0.00000000E+00
  0.00000000E+00  0.00000000E+00  0.00000000E+00
  0.00000000E+00  0.00000000E+00  0.00000000E+00
  0.00000000E+00  0.00000000E+00  0.00000000E+00
  0.00000000E+00  0.00000000E+00  0.00000000E+00
  0.00000000E+00  0.00000000E+00  0.00000000E+00
  0.00000000E+00  0.00000000E+00  0.00000000E+00
  0.00000000E+00  0.00000000E+00  0.00000000E+00
  0.00000000E+00  0.00000000E+00  0.00000000E+00
  0.00000000E+00  0.00000000E+00  0.00000000E+00
  0.00000000E+00  0.00000000E+00  0.00000000E+00
  0.00000000E+00  0.00000000E+00  0.00000000E+00
  0.00000000E+00  0.00000000E+00  0.00000000E+00
  0.00000000E+00  0.00000000E+00  0.00000000E+00
  0.00000000E+00  0.00000000E+00  0.00000000E+00
  0.00000000E+00  0.00000000E+00  0.00000000E+00
  0.00000000E+00  0.00000000E+00  0.00000000E+00
  0.00000000E+00  0.00000000E+00  0.00000000E+00
  0.00000000E+00  0.00000000E+00  0.00000000E+00
  0.00000000E+00  0.00000000E+00  0.00000000E+00
  0.00000000E+00  0.00000000E+00  0.00000000E+00
  0.00000000E+00  0.00000000E+00  0.00000000E+00
  0.00000000E+00  0.00000000E+00  0.00000000E+00
  0.00000000E+00  0.00000000E+00  0.00000000E+00
  0.00000000E+00  0.00000000E+00  0.00000000E+00
  0.00000000E+00  0.00000000E+00  0.00000000E+00
  0.00000000E+00  0.00000000E+00  0.00000000E+00
  0.00000000E+00  0.00000000E+00  0.00000000E+00
  0.00000000E+00  0.00000000E+00  0.00000000E+00
  0.00000000E+00  0.00000000E+00  0.00000000E+00
  0.00000000E+00  0.00000000E+00  0.00000000E+00
  0.00000000E+00  0.00000000E+00  0.00000000E+00
  0.00000000E+00  0.00000000E+00  0.00000000E+00
  0.00000000E+00  0.00000000E+00  0.00000000E+00
  0.00000000E+00  0.00000000E+00  0.00000000E+00
  0.00000000E+00  0.00000000E+00  0.00000000E+00
  0.00000000E+00  0.00000000E+00  0.00000000E+00
  0.00000000E+00  0.00000000E+00  0.00000000E+00
  0.00000000E+00  0.00000000E+00  0.00000000E+00
  0.00000000E+00  0.00000000E+00  0.00000000E+00
  0.00000000E+00  0.00000000E+00  0.00000000E+00
  0.00000000E+00  0.00000000E+00  0.00000000E+00
  0.00000000E+00  0.00000000E+00  0.00000000E+00
  0.00000000E+00  0.00000000E+00  0.00000000E+00
  0.00000000E+00  0.00000000E+00  0.00000000E+00
  0.00000000E+00  0.00000000E+00  0.00000000E+00
  0.00000000E+00  0.00000000E+00  0.00000000E+00
  0.00000000E+00  0.00000000E+00  0.00000000E+00
  0.00000000E+00  0.00000000E+00  0.00000000E+00
  0.00000000E+00  0.00000000E+00  0.00000000E+00
  0.00000000E+00  0.00000000E+00  0.00000000E+00
  0.00000000E+00  0.00000000E+00  0.00000000E+00
  0.00000000E+00  0.00000000E+00  0.00000000E+00
  0.00000000E+00  0.00000000E+00  0.00000000E+00
  0.00000000E+00  0.00000000E+00  0.00000000E+00
  0.00000000E+00  0.00000000E+00  0.00000000E+00
