supercell of icsd_181358.cif            
   1.00000000000000     
     9.3484000983492805    0.0002453633214392   -0.0057637960086080
    -4.6739875106072422    8.0955700489460902    0.0000007028081805
    -0.0063352605510167   -0.0036567215131316   10.0842034500790447
   N    Ga   B 
    36    32     4
Direct
  0.2072166338918180  0.1265746392224614  0.4473457486543211
  0.0802748577757697  0.2068040875588935  0.1953737823570307
  0.8889295982629832  0.1111315480198272  0.9317616059685321
  0.7797001186866268  0.2249131683913674  0.6850009336555658
  0.5396550619046749  0.0813765974926355  0.4498093087816528
  0.4431816450128636  0.2185193327018737  0.1934206769443350
  0.2206635290412251  0.1129500555070635  0.9378837836964635
  0.1072262938133335  0.2202796103065126  0.6568390160741231
  0.9161287874185291  0.1247312830660974  0.4220546520547117
  0.7928709834635725  0.2059914185376357  0.2021011613867358
  0.5577403249358994  0.1111004537743270  0.9352641942076971
  0.4444225481305963  0.2248214494628797  0.6913726128053241
  0.2072166490157983  0.4139756292594470  0.4473458735573175
  0.1154834240375635  0.5584398867492411  0.1920892726012937
  0.8730618899152205  0.4568594078783121  0.9525721845915029
  0.7779267363606337  0.5556299976680421  0.6881405966532128
  0.5567762862691126  0.4450550805533169  0.4351670118434541
  0.4431817980533239  0.5579950819379036  0.1934206224871744
  0.2206633332663941  0.4410471201781760  0.9378838771723395
  0.1071864620292260  0.5527297374924203  0.6913494994714924
  0.8882975520536647  0.4454028439376927  0.4340434124167842
  0.7788034319830217  0.5560682101173384  0.1640439556522253
  0.5852483112555689  0.4592908890382290  0.9511209885033125
  0.4444220267127221  0.5529343030141689  0.6913727934389442
  0.2504235889812136  0.7918783337466309  0.4507304243058883
  0.1154831668690903  0.8903766296596700  0.1920894144527026
  0.8730623549678143  0.7495363756836966  0.9525720929080492
  0.7797001974664326  0.8881197602410680  0.6850009494417151
  0.5396555740162299  0.7916123536292048  0.4498093535142544
  0.4451485546248506  0.8892407891327139  0.1854697720149900
  0.2241460540483189  0.7787397559214568  0.9333828739452699
  0.1071872405795915  0.8877901697009776  0.6913491907476654
  0.8882982275847766  0.7762286073954101  0.4340436082662009
  0.7928709385552821  0.9202125970002442  0.2021011596371807
  0.5577401410201830  0.7799736034997622  0.9352642635345489
  0.4443057411272093  0.8888195447441376  0.6629858794907904
  0.2133624895789765  0.1125407551774629  0.2555385751907480
  0.1049325661537779  0.2191329771323822  0.0047632211593651
  0.8916358212932707  0.1124844559312166  0.7411582105762875
  0.7822192117905260  0.2174645369225985  0.4931546400322304
  0.5583543312195474  0.1045123990864525  0.2573153041796417
  0.4499551763981273  0.2251262973608021  0.0007595160256315
  0.2179946144089229  0.1139734499644760  0.7438588905541152
  0.7784754387482025  0.2218414318158395  0.0058186376417808
  0.5552563998614488  0.1083444044398902  0.7419806592300162
  0.4391291265340769  0.2195189057218414  0.5004652993823342
  0.2133625840134741  0.4341552695380528  0.2555386379461169
  0.1086121901334707  0.5580438618683274  0.0002441638775537
  0.8846993510624159  0.4448782648247445  0.7571546082312679
  0.7780999266595572  0.5557167443358679  0.5001342596374769
  0.5598828992720044  0.4466079399642950  0.2440356315386367
  0.4499553948594652  0.5581619864985470  0.0007593482823935
  0.2179937343092675  0.4373541777942833  0.7438591143305331
  0.1128417771674890  0.5518330728047687  0.5009550085835315
  0.8890899503047081  0.4419729689769554  0.2434797530983843
  0.5608922067694522  0.4471131779701736  0.7574370158588550
  0.4391294284269165  0.5529438099970889  0.5004654058583640
  0.2294017314244243  0.7813676699738679  0.2574378593218114
  0.1086130779363188  0.8839019970850259  0.0002441898946728
  0.8847001894213875  0.7731546852532674  0.7571543230864322
  0.7822202646938194  0.8980882697230683  0.4931545950707772
  0.5583544662537108  0.7871751796914026  0.2573153347513184
  0.4450044856019773  0.8891691517937730  0.9981484601412873
  0.2256118371162330  0.7794725519609074  0.7420671574313644
  0.1128431335175790  0.8943420897575649  0.5009546219358256
  0.8890893088551266  0.7804501844529455  0.2434800677534383
  0.7784752849369099  0.8899667280741070  0.0058185026755595
  0.5552562232925666  0.7802457137759333  0.7419806364347394
  0.1121171296295884  0.2227253209999773  0.4943719646409264
  0.8970121591846905  0.1151727704629906  0.2544983876384705
  0.7771134795905468  0.5552234916180936  0.0042241608963494
  0.4440125464488602  0.8886729550301737  0.5026972898770197
 
  0.00000000E+00  0.00000000E+00  0.00000000E+00
  0.00000000E+00  0.00000000E+00  0.00000000E+00
  0.00000000E+00  0.00000000E+00  0.00000000E+00
  0.00000000E+00  0.00000000E+00  0.00000000E+00
  0.00000000E+00  0.00000000E+00  0.00000000E+00
  0.00000000E+00  0.00000000E+00  0.00000000E+00
  0.00000000E+00  0.00000000E+00  0.00000000E+00
  0.00000000E+00  0.00000000E+00  0.00000000E+00
  0.00000000E+00  0.00000000E+00  0.00000000E+00
  0.00000000E+00  0.00000000E+00  0.00000000E+00
  0.00000000E+00  0.00000000E+00  0.00000000E+00
  0.00000000E+00  0.00000000E+00  0.00000000E+00
  0.00000000E+00  0.00000000E+00  0.00000000E+00
  0.00000000E+00  0.00000000E+00  0.00000000E+00
  0.00000000E+00  0.00000000E+00  0.00000000E+00
  0.00000000E+00  0.00000000E+00  0.00000000E+00
  0.00000000E+00  0.00000000E+00  0.00000000E+00
  0.00000000E+00  0.00000000E+00  0.00000000E+00
  0.00000000E+00  0.00000000E+00  0.00000000E+00
  0.00000000E+00  0.00000000E+00  0.00000000E+00
  0.00000000E+00  0.00000000E+00  0.00000000E+00
  0.00000000E+00  0.00000000E+00  0.00000000E+00
  0.00000000E+00  0.00000000E+00  0.00000000E+00
  0.00000000E+00  0.00000000E+00  0.00000000E+00
  0.00000000E+00  0.00000000E+00  0.00000000E+00
  0.00000000E+00  0.00000000E+00  0.00000000E+00
  0.00000000E+00  0.00000000E+00  0.00000000E+00
  0.00000000E+00  0.00000000E+00  0.00000000E+00
  0.00000000E+00  0.00000000E+00  0.00000000E+00
  0.00000000E+00  0.00000000E+00  0.00000000E+00
  0.00000000E+00  0.00000000E+00  0.00000000E+00
  0.00000000E+00  0.00000000E+00  0.00000000E+00
  0.00000000E+00  0.00000000E+00  0.00000000E+00
  0.00000000E+00  0.00000000E+00  0.00000000E+00
  0.00000000E+00  0.00000000E+00  0.00000000E+00
  0.00000000E+00  0.00000000E+00  0.00000000E+00
  0.00000000E+00  0.00000000E+00  0.00000000E+00
  0.00000000E+00  0.00000000E+00  0.00000000E+00
  0.00000000E+00  0.00000000E+00  0.00000000E+00
  0.00000000E+00  0.00000000E+00  0.00000000E+00
  0.00000000E+00  0.00000000E+00  0.00000000E+00
  0.00000000E+00  0.00000000E+00  0.00000000E+00
  0.00000000E+00  0.00000000E+00  0.00000000E+00
  0.00000000E+00  0.00000000E+00  0.00000000E+00
  0.00000000E+00  0.00000000E+00  0.00000000E+00
  0.00000000E+00  0.00000000E+00  0.00000000E+00
  0.00000000E+00  0.00000000E+00  0.00000000E+00
  0.00000000E+00  0.00000000E+00  0.00000000E+00
  0.00000000E+00  0.00000000E+00  0.00000000E+00
  0.00000000E+00  0.00000000E+00  0.00000000E+00
  0.00000000E+00  0.00000000E+00  0.00000000E+00
  0.00000000E+00  0.00000000E+00  0.00000000E+00
  0.00000000E+00  0.00000000E+00  0.00000000E+00
  0.00000000E+00  0.00000000E+00  0.00000000E+00
  0.00000000E+00  0.00000000E+00  0.00000000E+00
  0.00000000E+00  0.00000000E+00  0.00000000E+00
  0.00000000E+00  0.00000000E+00  0.00000000E+00
  0.00000000E+00  0.00000000E+00  0.00000000E+00
  0.00000000E+00  0.00000000E+00  0.00000000E+00
  0.00000000E+00  0.00000000E+00  0.00000000E+00
  0.00000000E+00  0.00000000E+00  0.00000000E+00
  0.00000000E+00  0.00000000E+00  0.00000000E+00
  0.00000000E+00  0.00000000E+00  0.00000000E+00
  0.00000000E+00  0.00000000E+00  0.00000000E+00
  0.00000000E+00  0.00000000E+00  0.00000000E+00
  0.00000000E+00  0.00000000E+00  0.00000000E+00
  0.00000000E+00  0.00000000E+00  0.00000000E+00
  0.00000000E+00  0.00000000E+00  0.00000000E+00
  0.00000000E+00  0.00000000E+00  0.00000000E+00
  0.00000000E+00  0.00000000E+00  0.00000000E+00
  0.00000000E+00  0.00000000E+00  0.00000000E+00
  0.00000000E+00  0.00000000E+00  0.00000000E+00
