generated by phonopy                    
   1.00000000000000     
    11.7777700938999992   -0.0000006592896312    0.0000118211769744
    -0.0000006477562692   11.7777479613999994   -0.0000130806483528
     0.0000177256125076   -0.0000204342245446   17.8544012557999991
   Bi   Cu   Se   O 
    37    35    36    36
Direct
  0.9999635159763685  0.1699997730145597  0.4340241645174103
  0.3365071391059118  0.1688773932642675  0.4328845309463745
  0.6633982572864170  0.1688984531009865  0.4328779672813354
  0.9999574063685230  0.5000642304613763  0.4315685008182513
  0.3340344138724021  0.5000696725244183  0.4318197229154492
  0.6658739690916988  0.5000862746441825  0.4318203359140824
  0.9999476048011999  0.8301496967022644  0.4340250128051082
  0.3365115225364477  0.8312579108620000  0.4328777347609645
  0.6634137677008880  0.8312790744117748  0.4328815537661939
  0.9999808343107119  0.1672255460091350  0.9276027736937991
  0.3339147941290506  0.1674150315724106  0.9263573348230878
  0.6660329697600105  0.1674109507037187  0.9263532438833337
  0.9999731636651745  0.4999704867489143  0.9254995411347835
  0.3349633550063373  0.4999675778879578  0.9251148845045805
  0.6649798887048846  0.4999653509054909  0.9251135648146587
  0.9999673166451046  0.8327006719695476  0.9275991410519566
  0.3339206253418681  0.8325134187203034  0.9263531457003182
  0.6660202558618380  0.8325117919892620  0.9263553020573596
  0.1699044860832473  0.9999517737646144  0.0660166749883970
  0.4999697049206588  0.9999670039345148  0.0684882683181627
  0.8300407712700775  0.9999630360884240  0.0660139778735953
  0.1688066499326908  0.3365436576729053  0.0671521136117121
  0.4999803896308563  0.3340286451185577  0.0682223951909862
  0.8311538880466571  0.3365346896413115  0.0671468859768183
  0.1687827420474193  0.6634264611845779  0.0671646584080037
  0.4999609138474099  0.6658741616826163  0.0682158292618027
  0.8311446742360715  0.6634186808657105  0.0671656882633300
  0.1672147690141088  0.0000646553161943  0.5724460934994795
  0.4999547318791713  0.0000693695114009  0.5745387254335981
  0.8326988459985714  0.0000807859650465  0.5724450782125032
  0.1674151766614074  0.3340130779208010  0.5736902050094983
  0.4999551891018328  0.3350597602995506  0.5749199276718997
  0.8325033433268132  0.3340129502262386  0.5736860148443270
  0.1674056467363982  0.6661327832329960  0.5736832373606902
  0.4999557272500113  0.6650900442473358  0.5749170536893189
  0.8325055662282210  0.6661290846650161  0.5736865480900875
  0.9999515799000633  0.9999450419426665  0.2499432510209090
  0.3437215901564699  0.9999814503525926  0.2447231600398396
  0.6562099418663578  0.9999710446075767  0.2447287630007864
  0.9999518015895035  0.3438709464459677  0.2553747996937119
  0.3367407946078274  0.3367615308774461  0.2500201158328963
  0.6631702757543323  0.3367734969792053  0.2500258068128289
  0.9999517079806211  0.6561263841405989  0.2553687689823718
  0.3367338309858638  0.6632131169225417  0.2500234454593553
  0.6631769543579864  0.6632247223414467  0.2500115969473455
  0.9999690704605939  0.0000403662443276  0.7500242659635745
  0.3321731862703032  0.0000416252789464  0.7504625060861869
  0.6677684444372787  0.0000390228000953  0.7504637413404893
  0.9999742025529557  0.3322396890740293  0.7495800725180857
  0.3323764051512370  0.3324471006791043  0.7500174382437379
  0.6675691853811969  0.3324418802064812  0.7500200532506653
  0.9999671433123112  0.6678307616013086  0.7495776410109087
  0.3323705958509109  0.6676390696182253  0.7500153538090828
  0.6675646082607329  0.6676370854523341  0.7500154603084113
  0.1794576408191020  0.1795338659902015  0.2500313553289004
  0.4999664291365846  0.1682527121174999  0.2500582290978173
  0.8207278270439815  0.1797999445288880  0.2498868273014736
  0.1682252221968881  0.5000420003150481  0.2499888354890700
  0.4999582499964532  0.5000264743579379  0.2500256253490321
  0.8316947288272090  0.5000492084600268  0.2499903332307980
  0.1795231964441868  0.8205601609536970  0.2500531117776248
  0.4999674095941202  0.8317751302475642  0.2500442388442110
  0.8201948071090541  0.8207732879761096  0.2501812587995857
  0.1657205251100109  0.1657422396470949  0.7500213024737121
  0.4999606974709963  0.1655662221932204  0.7492458751455118
  0.8342150225165241  0.1657379608242664  0.7500212325876134
  0.1655437735729848  0.4999871421512978  0.7507911793453701
  0.4999612601785088  0.4999776855368907  0.7500157798669207
  0.8343779081226330  0.4999819921662692  0.7507921849425756
  0.1657079861563417  0.8342459130942430  0.7500207160001011
  0.4999612577795176  0.8344102943899969  0.7492457619007027
  0.8342042677233721  0.8342383663622215  0.7500230592500898
  0.1684245703350413  0.3350285173220797  0.3393462178399673
  0.4999555555763138  0.3336980477236295  0.3383373120757156
  0.8314884011039325  0.3350590824173239  0.3393700991710205
  0.1684189754031635  0.6650654468972164  0.3393457432551443
  0.4999591007549284  0.6663724033587854  0.3383329213197825
  0.8314941321001754  0.6650846353213851  0.3393286641499813
  0.1899975727631045  0.0000678091695789  0.3405042089769665
  0.4999511837569770  0.0000179186764200  0.3382862551041228
  0.8099092297916926  0.0001510600193839  0.3405040959248282
  0.1663354719181100  0.3325711951678372  0.8367567152826183
  0.4999718281947878  0.3325382177147631  0.8359519188559759
  0.8336125595464452  0.3325677086501599  0.8367584743993035
  0.1663321391545693  0.6674056281135634  0.8367530257003963
  0.4999685065628512  0.6674297745102180  0.8359483895391762
  0.8336051819837991  0.6674011376362685  0.8367565400085155
  0.1660836949017792  0.9999899956879403  0.8374135760962531
  0.4999709269603017  0.9999878883947702  0.8367010198161537
  0.8338606129756769  0.9999870068089720  0.8374148361879321
  0.3349393547764592  0.1684360424109812  0.1607082042020664
  0.6650182769519049  0.1684315555293594  0.1607359464883160
  0.0000137380621368  0.1901523101532661  0.1595633278328208
  0.3336354200539233  0.4999881444716863  0.1617078680958528
  0.6662923410020767  0.4999868443291078  0.1617056181495258
  0.9999615482200497  0.4999874299237348  0.1617429321882327
  0.3349364022554369  0.8315399161062089  0.1606958762627499
  0.6649786327582490  0.8315353175432278  0.1606789931391148
  0.9999467186765330  0.8097939575639046  0.1595676549059775
  0.3325489564643149  0.1664014025060752  0.6632826572245278
  0.6673782133150397  0.1664014094923729  0.6632848886599447
  0.9999649269187714  0.1661524190549954  0.6626317380473026
  0.3325186060880299  0.5000453353625787  0.6640829068371730
  0.6674066584841611  0.5000430889760068  0.6640849013266745
  0.9999614292404857  0.5000401896380495  0.6633420412882813
  0.3325452860814551  0.8336856053548942  0.6632834617606989
  0.6673750223655972  0.8336855480493952  0.6632830670288641
  0.9999567333786601  0.8339333523160519  0.6626333462471052
  0.1666504580535886  0.1673813089430567  0.5014305911868675
  0.4999524995737019  0.1678304545591089  0.5038641270586695
  0.8332661168922328  0.1673860793897290  0.5014251848258056
  0.1659327498660232  0.5000619376257163  0.5019223230839742
  0.4999578423265945  0.5000666088681314  0.5027389241067368
  0.8339810658064977  0.5000643570801415  0.5019202052650726
  0.1666405543815372  0.8327410650336446  0.5014230842916447
  0.4999598572380393  0.8322916505344438  0.5038558272893567
  0.8332674408719356  0.8327460548290730  0.5014285318743958
  0.1672919960440709  0.1666654420550060  0.9986236933529611
  0.4999730712271528  0.1659444605710334  0.9981235405987832
  0.8326542161751505  0.1666625232654582  0.9986195543461776
  0.1677486216614383  0.4999808190293749  0.9961689877315152
  0.4999702163325423  0.4999663748215113  0.9973051423095001
  0.8321933130643941  0.4999762671980150  0.9961694060142676
  0.1672960821768541  0.8332799700594151  0.9986125444535787
  0.4999685888318695  0.8340059350005831  0.9981271095694808
  0.8326439361379343  0.8332831657164945  0.9986154426484575
  0.9999728949581979  0.9999675746038719  0.9994522788711464
  0.3330049067498067  0.9999735225637281  0.9983145024330540
  0.6669360852733774  0.9999758754652532  0.9983158245967445
  0.9999734810668528  0.3345940681024899  0.9978026914463172
  0.3345807015817215  0.3337952428638644  0.9968247399960859
  0.6653678581674711  0.3337920377190642  0.9968233654025838
  0.9999673706625174  0.6653634455835160  0.9978086755193942
  0.3345772680670507  0.6661536689482617  0.9968228859175667
  0.6653575154585454  0.6661517989243748  0.9968235383703288
  0.9999561462730640  0.0000673212730291  0.5005947027795798
  0.3345670063427661  0.0000558721642889  0.5022367498697591
  0.6653447867989470  0.0000673702916245  0.5022371615304451
  0.9999619871598711  0.3330991443829916  0.5017349306910148
  0.3337798223538186  0.3346605326006369  0.5032133143588950
  0.6661342364675846  0.3346646512780538  0.5032128185448457
  0.9999545327315431  0.6670326219124618  0.5017300508630669
  0.3337784582281884  0.6654683292143915  0.5032121336802433
  0.6661378551093122  0.6654761487108871  0.5032112922118230
 
  0.00000000E+00  0.00000000E+00  0.00000000E+00
  0.00000000E+00  0.00000000E+00  0.00000000E+00
  0.00000000E+00  0.00000000E+00  0.00000000E+00
  0.00000000E+00  0.00000000E+00  0.00000000E+00
  0.00000000E+00  0.00000000E+00  0.00000000E+00
  0.00000000E+00  0.00000000E+00  0.00000000E+00
  0.00000000E+00  0.00000000E+00  0.00000000E+00
  0.00000000E+00  0.00000000E+00  0.00000000E+00
  0.00000000E+00  0.00000000E+00  0.00000000E+00
  0.00000000E+00  0.00000000E+00  0.00000000E+00
  0.00000000E+00  0.00000000E+00  0.00000000E+00
  0.00000000E+00  0.00000000E+00  0.00000000E+00
  0.00000000E+00  0.00000000E+00  0.00000000E+00
  0.00000000E+00  0.00000000E+00  0.00000000E+00
  0.00000000E+00  0.00000000E+00  0.00000000E+00
  0.00000000E+00  0.00000000E+00  0.00000000E+00
  0.00000000E+00  0.00000000E+00  0.00000000E+00
  0.00000000E+00  0.00000000E+00  0.00000000E+00
  0.00000000E+00  0.00000000E+00  0.00000000E+00
  0.00000000E+00  0.00000000E+00  0.00000000E+00
  0.00000000E+00  0.00000000E+00  0.00000000E+00
  0.00000000E+00  0.00000000E+00  0.00000000E+00
  0.00000000E+00  0.00000000E+00  0.00000000E+00
  0.00000000E+00  0.00000000E+00  0.00000000E+00
  0.00000000E+00  0.00000000E+00  0.00000000E+00
  0.00000000E+00  0.00000000E+00  0.00000000E+00
  0.00000000E+00  0.00000000E+00  0.00000000E+00
  0.00000000E+00  0.00000000E+00  0.00000000E+00
  0.00000000E+00  0.00000000E+00  0.00000000E+00
  0.00000000E+00  0.00000000E+00  0.00000000E+00
  0.00000000E+00  0.00000000E+00  0.00000000E+00
  0.00000000E+00  0.00000000E+00  0.00000000E+00
  0.00000000E+00  0.00000000E+00  0.00000000E+00
  0.00000000E+00  0.00000000E+00  0.00000000E+00
  0.00000000E+00  0.00000000E+00  0.00000000E+00
  0.00000000E+00  0.00000000E+00  0.00000000E+00
  0.00000000E+00  0.00000000E+00  0.00000000E+00
  0.00000000E+00  0.00000000E+00  0.00000000E+00
  0.00000000E+00  0.00000000E+00  0.00000000E+00
  0.00000000E+00  0.00000000E+00  0.00000000E+00
  0.00000000E+00  0.00000000E+00  0.00000000E+00
  0.00000000E+00  0.00000000E+00  0.00000000E+00
  0.00000000E+00  0.00000000E+00  0.00000000E+00
  0.00000000E+00  0.00000000E+00  0.00000000E+00
  0.00000000E+00  0.00000000E+00  0.00000000E+00
  0.00000000E+00  0.00000000E+00  0.00000000E+00
  0.00000000E+00  0.00000000E+00  0.00000000E+00
  0.00000000E+00  0.00000000E+00  0.00000000E+00
  0.00000000E+00  0.00000000E+00  0.00000000E+00
  0.00000000E+00  0.00000000E+00  0.00000000E+00
  0.00000000E+00  0.00000000E+00  0.00000000E+00
  0.00000000E+00  0.00000000E+00  0.00000000E+00
  0.00000000E+00  0.00000000E+00  0.00000000E+00
  0.00000000E+00  0.00000000E+00  0.00000000E+00
  0.00000000E+00  0.00000000E+00  0.00000000E+00
  0.00000000E+00  0.00000000E+00  0.00000000E+00
  0.00000000E+00  0.00000000E+00  0.00000000E+00
  0.00000000E+00  0.00000000E+00  0.00000000E+00
  0.00000000E+00  0.00000000E+00  0.00000000E+00
  0.00000000E+00  0.00000000E+00  0.00000000E+00
  0.00000000E+00  0.00000000E+00  0.00000000E+00
  0.00000000E+00  0.00000000E+00  0.00000000E+00
  0.00000000E+00  0.00000000E+00  0.00000000E+00
  0.00000000E+00  0.00000000E+00  0.00000000E+00
  0.00000000E+00  0.00000000E+00  0.00000000E+00
  0.00000000E+00  0.00000000E+00  0.00000000E+00
  0.00000000E+00  0.00000000E+00  0.00000000E+00
  0.00000000E+00  0.00000000E+00  0.00000000E+00
  0.00000000E+00  0.00000000E+00  0.00000000E+00
  0.00000000E+00  0.00000000E+00  0.00000000E+00
  0.00000000E+00  0.00000000E+00  0.00000000E+00
  0.00000000E+00  0.00000000E+00  0.00000000E+00
  0.00000000E+00  0.00000000E+00  0.00000000E+00
  0.00000000E+00  0.00000000E+00  0.00000000E+00
  0.00000000E+00  0.00000000E+00  0.00000000E+00
  0.00000000E+00  0.00000000E+00  0.00000000E+00
  0.00000000E+00  0.00000000E+00  0.00000000E+00
  0.00000000E+00  0.00000000E+00  0.00000000E+00
  0.00000000E+00  0.00000000E+00  0.00000000E+00
  0.00000000E+00  0.00000000E+00  0.00000000E+00
  0.00000000E+00  0.00000000E+00  0.00000000E+00
  0.00000000E+00  0.00000000E+00  0.00000000E+00
  0.00000000E+00  0.00000000E+00  0.00000000E+00
  0.00000000E+00  0.00000000E+00  0.00000000E+00
  0.00000000E+00  0.00000000E+00  0.00000000E+00
  0.00000000E+00  0.00000000E+00  0.00000000E+00
  0.00000000E+00  0.00000000E+00  0.00000000E+00
  0.00000000E+00  0.00000000E+00  0.00000000E+00
  0.00000000E+00  0.00000000E+00  0.00000000E+00
  0.00000000E+00  0.00000000E+00  0.00000000E+00
  0.00000000E+00  0.00000000E+00  0.00000000E+00
  0.00000000E+00  0.00000000E+00  0.00000000E+00
  0.00000000E+00  0.00000000E+00  0.00000000E+00
  0.00000000E+00  0.00000000E+00  0.00000000E+00
  0.00000000E+00  0.00000000E+00  0.00000000E+00
  0.00000000E+00  0.00000000E+00  0.00000000E+00
  0.00000000E+00  0.00000000E+00  0.00000000E+00
  0.00000000E+00  0.00000000E+00  0.00000000E+00
  0.00000000E+00  0.00000000E+00  0.00000000E+00
  0.00000000E+00  0.00000000E+00  0.00000000E+00
  0.00000000E+00  0.00000000E+00  0.00000000E+00
  0.00000000E+00  0.00000000E+00  0.00000000E+00
  0.00000000E+00  0.00000000E+00  0.00000000E+00
  0.00000000E+00  0.00000000E+00  0.00000000E+00
  0.00000000E+00  0.00000000E+00  0.00000000E+00
  0.00000000E+00  0.00000000E+00  0.00000000E+00
  0.00000000E+00  0.00000000E+00  0.00000000E+00
  0.00000000E+00  0.00000000E+00  0.00000000E+00
  0.00000000E+00  0.00000000E+00  0.00000000E+00
  0.00000000E+00  0.00000000E+00  0.00000000E+00
  0.00000000E+00  0.00000000E+00  0.00000000E+00
  0.00000000E+00  0.00000000E+00  0.00000000E+00
  0.00000000E+00  0.00000000E+00  0.00000000E+00
  0.00000000E+00  0.00000000E+00  0.00000000E+00
  0.00000000E+00  0.00000000E+00  0.00000000E+00
  0.00000000E+00  0.00000000E+00  0.00000000E+00
  0.00000000E+00  0.00000000E+00  0.00000000E+00
  0.00000000E+00  0.00000000E+00  0.00000000E+00
  0.00000000E+00  0.00000000E+00  0.00000000E+00
  0.00000000E+00  0.00000000E+00  0.00000000E+00
  0.00000000E+00  0.00000000E+00  0.00000000E+00
  0.00000000E+00  0.00000000E+00  0.00000000E+00
  0.00000000E+00  0.00000000E+00  0.00000000E+00
  0.00000000E+00  0.00000000E+00  0.00000000E+00
  0.00000000E+00  0.00000000E+00  0.00000000E+00
  0.00000000E+00  0.00000000E+00  0.00000000E+00
  0.00000000E+00  0.00000000E+00  0.00000000E+00
  0.00000000E+00  0.00000000E+00  0.00000000E+00
  0.00000000E+00  0.00000000E+00  0.00000000E+00
  0.00000000E+00  0.00000000E+00  0.00000000E+00
  0.00000000E+00  0.00000000E+00  0.00000000E+00
  0.00000000E+00  0.00000000E+00  0.00000000E+00
  0.00000000E+00  0.00000000E+00  0.00000000E+00
  0.00000000E+00  0.00000000E+00  0.00000000E+00
  0.00000000E+00  0.00000000E+00  0.00000000E+00
  0.00000000E+00  0.00000000E+00  0.00000000E+00
  0.00000000E+00  0.00000000E+00  0.00000000E+00
  0.00000000E+00  0.00000000E+00  0.00000000E+00
  0.00000000E+00  0.00000000E+00  0.00000000E+00
  0.00000000E+00  0.00000000E+00  0.00000000E+00
  0.00000000E+00  0.00000000E+00  0.00000000E+00
  0.00000000E+00  0.00000000E+00  0.00000000E+00
  0.00000000E+00  0.00000000E+00  0.00000000E+00
  0.00000000E+00  0.00000000E+00  0.00000000E+00
