supercell of icsd_191774.cif            
   1.00000000000000     
    10.2059398898268228   -0.0240678130948717   -0.0023255221872462
    -5.1230436241573392    9.0285173889607044    0.0547069319192366
    -0.0028622656157774    0.0689488003140980   10.8337435313059505
   N    In   B 
    36    30     6
Direct
  0.2233973843463772  0.1050015615987689  0.4433871874861026
  0.1182647097587122  0.2344739392236974  0.1942147148309772
  0.8947974602754201  0.1107594371159593  0.9481634370449044
  0.7776814964811081  0.2025189950779946  0.6997017949861259
  0.5494405509798028  0.0962104819635812  0.4498748608849255
  0.4461100368759716  0.2334074906599355  0.1876983525954472
  0.2322120434575368  0.1308316004643757  0.9049958467065196
  0.1486029468448962  0.2195063414332026  0.7135965754485412
  0.8985961289743898  0.1027887709623556  0.4576698454732266
  0.7849988203967442  0.2306354768383585  0.2027178330464423
  0.5534870521549280  0.1127080677255563  0.9478079820609437
  0.4003361695693002  0.2103163953866698  0.7105711825986702
  0.2686990465367884  0.4732686864231184  0.4544076188857602
  0.1117175959845085  0.5569343888120457  0.2008710744989415
  0.8865296146949859  0.4524708313457708  0.9431583202809861
  0.7400611660020502  0.4814853161161352  0.6409766683668536
  0.6065410909837183  0.4283677360128806  0.4370083166638281
  0.4535036962260293  0.5562946290303330  0.1491022219175733
  0.2738983667116059  0.4778279830247669  0.9528399420555758
  0.1100823473931101  0.5480544328541868  0.6969689660152767
  0.8681487034711779  0.4439757190064739  0.4524701728591012
  0.8083161101655207  0.6177786130727227  0.1852913805387786
  0.5406963254576596  0.4804070171215002  0.9352764009954697
  0.4415044008989142  0.5679816778487634  0.6469842463528224
  0.2115707252485919  0.7756129360840802  0.4438037888880544
  0.0695269650045773  0.8818886168466733  0.1819077559076376
  0.8924548735563462  0.7944097850740661  0.8932563034773793
  0.7986943742418120  0.8652738190638729  0.6977165077038663
  0.5258310413046772  0.7256043364544169  0.4494404511473249
  0.4439652096329780  0.8860193467048560  0.1985591562077147
  0.2180000567982106  0.7851306850323923  0.9442728372344718
  0.0377333207751249  0.8373932723076436  0.6905154958497519
  0.8963365782710611  0.7918603925612118  0.3817394354410411
  0.7958436565113729  0.8733443309221229  0.1975514679363002
  0.5360428770264676  0.7362494362116792  0.9519073832510330
  0.4368089500981611  0.8809963211464336  0.6991475280486696
  0.2151091019584896  0.1045898958970497  0.2499712127635760
  0.1332074256451676  0.2316113763402399  0.5121496086058528
  0.9033462706049349  0.0983493693808271  0.7512736987342805
  0.7814900377461385  0.2263043293245133  0.0052214481364530
  0.5530711335599108  0.1140523615274560  0.2522816226286508
  0.4437070623189854  0.2210991422689617  0.5075614549073819
  0.1284916010489781  0.2410879684115841  0.9990169989623965
  0.8932408058966601  0.1034475885748805  0.2578812986020296
  0.7773506955159277  0.2118581016504493  0.5026929295207552
  0.5436873960733308  0.1075703120769447  0.7523069875328687
  0.4516137182103392  0.2456584085391853  0.9920118134929865
  0.2428815682899241  0.4575759991384132  0.2501989071163990
  0.1030745567678863  0.5530107657140206  0.5009370177205028
  0.8800131886222218  0.4343145316993855  0.7466417789088595
  0.7797014662111081  0.5809372210235608  0.9898147043745666
  0.5768159628319935  0.4660219581487723  0.2514337760654541
  0.2395601883133338  0.4550170241616414  0.7563514149096520
  0.1194190910536364  0.5614346948579225  0.0035618429237303
  0.8812445338181831  0.4638539071031076  0.2549686561367182
  0.5515621628704750  0.4560184713176483  0.7312460450617451
  0.2049670979125580  0.7837317154002221  0.2464772037430194
  0.0820840621749213  0.8752728046715035  0.4985426195452973
  0.7745949667040790  0.8789137286124316  0.0017377509698591
  0.5572456706433258  0.7640315235559569  0.2460260590758026
  0.4366764347423455  0.8731114753789413  0.5010693663645611
  0.1986013870144276  0.7761841842070325  0.7484543060198448
  0.1066257861641162  0.9047515474380319  0.9836192097944902
  0.7718535566751257  0.8485940974769193  0.4964305943322813
  0.5600023764048245  0.7701183646287006  0.7536116083008366
  0.4439342391488594  0.8815757838224556  0.0009779918098829
  0.2555186315784468  0.1756759070938330  0.7715194176041820
  0.4158221429368538  0.5838174102480593  0.5138393532238865
  0.7409934844922148  0.4631686557799455  0.5087841909258088
  0.4503318819116657  0.5626924315940300  0.9990671669658795
  0.9107201055225147  0.8251682962995375  0.7566045053583039
  0.8910083155054735  0.7915897791072055  0.2439423851741793
 
  0.00000000E+00  0.00000000E+00  0.00000000E+00
  0.00000000E+00  0.00000000E+00  0.00000000E+00
  0.00000000E+00  0.00000000E+00  0.00000000E+00
  0.00000000E+00  0.00000000E+00  0.00000000E+00
  0.00000000E+00  0.00000000E+00  0.00000000E+00
  0.00000000E+00  0.00000000E+00  0.00000000E+00
  0.00000000E+00  0.00000000E+00  0.00000000E+00
  0.00000000E+00  0.00000000E+00  0.00000000E+00
  0.00000000E+00  0.00000000E+00  0.00000000E+00
  0.00000000E+00  0.00000000E+00  0.00000000E+00
  0.00000000E+00  0.00000000E+00  0.00000000E+00
  0.00000000E+00  0.00000000E+00  0.00000000E+00
  0.00000000E+00  0.00000000E+00  0.00000000E+00
  0.00000000E+00  0.00000000E+00  0.00000000E+00
  0.00000000E+00  0.00000000E+00  0.00000000E+00
  0.00000000E+00  0.00000000E+00  0.00000000E+00
  0.00000000E+00  0.00000000E+00  0.00000000E+00
  0.00000000E+00  0.00000000E+00  0.00000000E+00
  0.00000000E+00  0.00000000E+00  0.00000000E+00
  0.00000000E+00  0.00000000E+00  0.00000000E+00
  0.00000000E+00  0.00000000E+00  0.00000000E+00
  0.00000000E+00  0.00000000E+00  0.00000000E+00
  0.00000000E+00  0.00000000E+00  0.00000000E+00
  0.00000000E+00  0.00000000E+00  0.00000000E+00
  0.00000000E+00  0.00000000E+00  0.00000000E+00
  0.00000000E+00  0.00000000E+00  0.00000000E+00
  0.00000000E+00  0.00000000E+00  0.00000000E+00
  0.00000000E+00  0.00000000E+00  0.00000000E+00
  0.00000000E+00  0.00000000E+00  0.00000000E+00
  0.00000000E+00  0.00000000E+00  0.00000000E+00
  0.00000000E+00  0.00000000E+00  0.00000000E+00
  0.00000000E+00  0.00000000E+00  0.00000000E+00
  0.00000000E+00  0.00000000E+00  0.00000000E+00
  0.00000000E+00  0.00000000E+00  0.00000000E+00
  0.00000000E+00  0.00000000E+00  0.00000000E+00
  0.00000000E+00  0.00000000E+00  0.00000000E+00
  0.00000000E+00  0.00000000E+00  0.00000000E+00
  0.00000000E+00  0.00000000E+00  0.00000000E+00
  0.00000000E+00  0.00000000E+00  0.00000000E+00
  0.00000000E+00  0.00000000E+00  0.00000000E+00
  0.00000000E+00  0.00000000E+00  0.00000000E+00
  0.00000000E+00  0.00000000E+00  0.00000000E+00
  0.00000000E+00  0.00000000E+00  0.00000000E+00
  0.00000000E+00  0.00000000E+00  0.00000000E+00
  0.00000000E+00  0.00000000E+00  0.00000000E+00
  0.00000000E+00  0.00000000E+00  0.00000000E+00
  0.00000000E+00  0.00000000E+00  0.00000000E+00
  0.00000000E+00  0.00000000E+00  0.00000000E+00
  0.00000000E+00  0.00000000E+00  0.00000000E+00
  0.00000000E+00  0.00000000E+00  0.00000000E+00
  0.00000000E+00  0.00000000E+00  0.00000000E+00
  0.00000000E+00  0.00000000E+00  0.00000000E+00
  0.00000000E+00  0.00000000E+00  0.00000000E+00
  0.00000000E+00  0.00000000E+00  0.00000000E+00
  0.00000000E+00  0.00000000E+00  0.00000000E+00
  0.00000000E+00  0.00000000E+00  0.00000000E+00
  0.00000000E+00  0.00000000E+00  0.00000000E+00
  0.00000000E+00  0.00000000E+00  0.00000000E+00
  0.00000000E+00  0.00000000E+00  0.00000000E+00
  0.00000000E+00  0.00000000E+00  0.00000000E+00
  0.00000000E+00  0.00000000E+00  0.00000000E+00
  0.00000000E+00  0.00000000E+00  0.00000000E+00
  0.00000000E+00  0.00000000E+00  0.00000000E+00
  0.00000000E+00  0.00000000E+00  0.00000000E+00
  0.00000000E+00  0.00000000E+00  0.00000000E+00
  0.00000000E+00  0.00000000E+00  0.00000000E+00
  0.00000000E+00  0.00000000E+00  0.00000000E+00
  0.00000000E+00  0.00000000E+00  0.00000000E+00
  0.00000000E+00  0.00000000E+00  0.00000000E+00
  0.00000000E+00  0.00000000E+00  0.00000000E+00
  0.00000000E+00  0.00000000E+00  0.00000000E+00
  0.00000000E+00  0.00000000E+00  0.00000000E+00
