POSCAR                                  
  0.995000000000000     
   -14.9447178929000000    7.4756321704799999    7.4483695606899998
     4.9687386721099998  -12.4680508929999991  -12.4304730072999998
     0.0019026185249700   -5.0138521527800002    4.9995106549999999
   Gd   Al   N 
    45     3    48
Direct
  0.7552911132400695  0.7559293818110149  0.7523606298262493
  0.6696472162783138  0.5025968257355657  0.7528622576910067
  0.7519191103528229  0.7522852072892618  0.2450774231568715
  0.6653692848260491  0.4976687248772933  0.2538737137912648
  0.7491225612396448  0.2464935671706101  0.5017461944778887
  0.6667694246691553  0.9974653353481528  0.5035997858335008
  0.5837763150864888  0.7485907729544792  0.4786189071743436
  0.4993652271325502  0.4990838363769754  0.5050222727633553
  0.5822270770474560  0.2478185480312121  0.7507910021774293
  0.4992025227451009  0.9964432075568155  0.7516221752591079
  0.4160441706924658  0.7446520327577915  0.7503814697967428
  0.3351710519679614  0.4992073550021985  0.7507399634058913
  0.7489592101087226  0.2462360601440921  0.0022418069926786
  0.6647864329925852  0.9931758044286383  0.0047103055162196
  0.5071715443480755  0.5094299575820997  0.0103551165922084
  0.5821827521995786  0.2473419787485795  0.2517611312654964
  0.4992711934114809  0.9963232798242387  0.2511451990623499
  0.4189074441242937  0.7473487273703014  0.2447515079453808
  0.3371717148891022  0.5007974254182272  0.2486215125420230
  0.4122474827020071  0.2467546527797140  0.5002785234469087
  0.3332168986198596  0.9970956975799936  0.4982013796928939
  0.2500151393446401  0.7463628285426864  0.5002802584200765
  0.1659259358482785  0.4957738732375745  0.4997242931161026
  0.1701337953339035  0.0022409263532950  0.7401726357362151
  0.0831032179898372  0.7484961673707602  0.7510790633855677
  0.9991258865427213  0.4964367882720211  0.7516618240223067
  0.4177376574347846  0.2506296005267714  0.0009614419027528
  0.3328238973784039  0.9980076992722857  0.9993974531035832
  0.2490346825119829  0.7460595179706857  0.9996420128068877
  0.1661851878306280  0.4954152601485049  0.0010536614496104
  0.2496072040447856  0.2488516541400614  0.2634879349761050
  0.1637746767596298  0.9947715894155351  0.2498805985298844
  0.0827180056756731  0.7462487391642796  0.2507348511987217
  0.9992902940223161  0.4962431572777461  0.2513214021754351
  0.0874371087195556  0.2484469063342871  0.5089107403543451
  0.0025784766055992  0.0001282688839979  0.4769495158032839
  0.9149986664710639  0.7455052453339661  0.4936926417419301
  0.8324035066282818  0.4967641696614606  0.5011852678428639
  0.9161792744448007  0.2460105994872208  0.7530786120308903
  0.8342173630783734  0.9966400869946241  0.7474981688461355
  0.0831315277206244  0.2430269639623717  0.0044618358496464
  0.9203439723879185  0.7560225479969347  0.0030084752063431
  0.8331551161386486  0.4987411745526487  0.0005809624740181
  0.9168423119435474  0.2457880623850528  0.2534735540315367
  0.8303983923259395  0.9939014114851972  0.2396239400080020
  0.5985000006696310  0.7595785406550704  0.9201704376205200
  0.2848619164294917  0.2809848577862510  0.8132932778000566
  0.0484131081720420  0.0399569993314515  0.9020660445662259
  0.6190866666881902  0.8638065027837882  0.7590240130857424
  0.5454416799020052  0.6369540948417409  0.7608156130050148
  0.6255220399052632  0.8827807477396235  0.2659899108002790
  0.5342267695825385  0.6130751030139265  0.2689643386493827
  0.6231261480167660  0.3767818709370374  0.5022522278509314
  0.5405139719309275  0.1260839699584295  0.5018548322347911
  0.4562747990959437  0.8749050157594027  0.5038975551843521
  0.3748789300638293  0.6243810929446383  0.4934233712836544
  0.4416403388025216  0.3681451087234180  0.7651309933965749
  0.3744730746531388  0.1281293327628532  0.7535993740819009
  0.2902933833844656  0.8756739720037885  0.7523033936842012
  0.2067495511238064  0.6246445735613264  0.7511143527190924
  0.6211969123210253  0.3759643285984851  0.0028254851302947
  0.5404451013637797  0.1259292573463711  0.0021872598232946
  0.4583298633684763  0.8747032771393037  0.0006403101423231
  0.3689678370527503  0.6208667675682733  0.9957460839645123
  0.4584378728191965  0.3771808121720284  0.2587597370164616
  0.3723637636296573  0.1251734783136058  0.2502463316775945
  0.2908759435587314  0.8760894398291654  0.2516169807427460
  0.2071166318161346  0.6251938423544701  0.2521436698051289
  0.2919075308524128  0.3778775044321065  0.4997134771890615
  0.2042720537863616  0.1166422106204337  0.4703706006721831
  0.1249237995033710  0.8772474845509919  0.4971869322680504
  0.0396539493954933  0.6254457689432869  0.4998092612742795
  0.1251527900424705  0.3751195310152724  0.7537405580569256
  0.0341261048769468  0.1163377014781304  0.7611558170667792
  0.9710280188620857  0.9007858719585897  0.7742254562284430
  0.8711168182442677  0.6248578998766234  0.7579999026468940
  0.2937989884729433  0.3718488388655814  0.9872776120135143
  0.2071571306029725  0.1418629289302729  0.9609566457000085
  0.1237491535281237  0.8771014396260455  0.9906341673020052
  0.0406143739869904  0.6258917302579832  0.0008320268047370
  0.1233231409948488  0.3732047684979136  0.2532783922369148
  0.0447637911788306  0.1328497871554859  0.2631301133118100
  0.9516299970392978  0.8645975624115039  0.2683664260832614
  0.8752309170476238  0.6280730596015616  0.2553392864263060
  0.9576392563672016  0.3749495351940553  0.5017000827420333
  0.8720051710733330  0.1231664902013563  0.5081515558335070
  0.7917272002930886  0.8760288855633860  0.4910271531746702
  0.7076208342835244  0.6272210917301209  0.5092271983315371
  0.7907253277342221  0.3763532264619656  0.7539960968169979
  0.7070283861203990  0.1252287067018756  0.7565626949980313
  0.9562335356469518  0.3742213179777281  0.0027425430041674
  0.8747831598459328  0.1237528175099740  0.0014145559990268
  0.7528946822222551  0.8533286070662456  0.9952122301843573
  0.7094566851409425  0.6299151021507043  0.9974468454748191
  0.7896888568916864  0.3754779405583690  0.2544979902842286
  0.7070309957593608  0.1243775869807351  0.2553153601883409
 
  0.00000000E+00  0.00000000E+00  0.00000000E+00
  0.00000000E+00  0.00000000E+00  0.00000000E+00
  0.00000000E+00  0.00000000E+00  0.00000000E+00
  0.00000000E+00  0.00000000E+00  0.00000000E+00
  0.00000000E+00  0.00000000E+00  0.00000000E+00
  0.00000000E+00  0.00000000E+00  0.00000000E+00
  0.00000000E+00  0.00000000E+00  0.00000000E+00
  0.00000000E+00  0.00000000E+00  0.00000000E+00
  0.00000000E+00  0.00000000E+00  0.00000000E+00
  0.00000000E+00  0.00000000E+00  0.00000000E+00
  0.00000000E+00  0.00000000E+00  0.00000000E+00
  0.00000000E+00  0.00000000E+00  0.00000000E+00
  0.00000000E+00  0.00000000E+00  0.00000000E+00
  0.00000000E+00  0.00000000E+00  0.00000000E+00
  0.00000000E+00  0.00000000E+00  0.00000000E+00
  0.00000000E+00  0.00000000E+00  0.00000000E+00
  0.00000000E+00  0.00000000E+00  0.00000000E+00
  0.00000000E+00  0.00000000E+00  0.00000000E+00
  0.00000000E+00  0.00000000E+00  0.00000000E+00
  0.00000000E+00  0.00000000E+00  0.00000000E+00
  0.00000000E+00  0.00000000E+00  0.00000000E+00
  0.00000000E+00  0.00000000E+00  0.00000000E+00
  0.00000000E+00  0.00000000E+00  0.00000000E+00
  0.00000000E+00  0.00000000E+00  0.00000000E+00
  0.00000000E+00  0.00000000E+00  0.00000000E+00
  0.00000000E+00  0.00000000E+00  0.00000000E+00
  0.00000000E+00  0.00000000E+00  0.00000000E+00
  0.00000000E+00  0.00000000E+00  0.00000000E+00
  0.00000000E+00  0.00000000E+00  0.00000000E+00
  0.00000000E+00  0.00000000E+00  0.00000000E+00
  0.00000000E+00  0.00000000E+00  0.00000000E+00
  0.00000000E+00  0.00000000E+00  0.00000000E+00
  0.00000000E+00  0.00000000E+00  0.00000000E+00
  0.00000000E+00  0.00000000E+00  0.00000000E+00
  0.00000000E+00  0.00000000E+00  0.00000000E+00
  0.00000000E+00  0.00000000E+00  0.00000000E+00
  0.00000000E+00  0.00000000E+00  0.00000000E+00
  0.00000000E+00  0.00000000E+00  0.00000000E+00
  0.00000000E+00  0.00000000E+00  0.00000000E+00
  0.00000000E+00  0.00000000E+00  0.00000000E+00
  0.00000000E+00  0.00000000E+00  0.00000000E+00
  0.00000000E+00  0.00000000E+00  0.00000000E+00
  0.00000000E+00  0.00000000E+00  0.00000000E+00
  0.00000000E+00  0.00000000E+00  0.00000000E+00
  0.00000000E+00  0.00000000E+00  0.00000000E+00
  0.00000000E+00  0.00000000E+00  0.00000000E+00
  0.00000000E+00  0.00000000E+00  0.00000000E+00
  0.00000000E+00  0.00000000E+00  0.00000000E+00
  0.00000000E+00  0.00000000E+00  0.00000000E+00
  0.00000000E+00  0.00000000E+00  0.00000000E+00
  0.00000000E+00  0.00000000E+00  0.00000000E+00
  0.00000000E+00  0.00000000E+00  0.00000000E+00
  0.00000000E+00  0.00000000E+00  0.00000000E+00
  0.00000000E+00  0.00000000E+00  0.00000000E+00
  0.00000000E+00  0.00000000E+00  0.00000000E+00
  0.00000000E+00  0.00000000E+00  0.00000000E+00
  0.00000000E+00  0.00000000E+00  0.00000000E+00
  0.00000000E+00  0.00000000E+00  0.00000000E+00
  0.00000000E+00  0.00000000E+00  0.00000000E+00
  0.00000000E+00  0.00000000E+00  0.00000000E+00
  0.00000000E+00  0.00000000E+00  0.00000000E+00
  0.00000000E+00  0.00000000E+00  0.00000000E+00
  0.00000000E+00  0.00000000E+00  0.00000000E+00
  0.00000000E+00  0.00000000E+00  0.00000000E+00
  0.00000000E+00  0.00000000E+00  0.00000000E+00
  0.00000000E+00  0.00000000E+00  0.00000000E+00
  0.00000000E+00  0.00000000E+00  0.00000000E+00
  0.00000000E+00  0.00000000E+00  0.00000000E+00
  0.00000000E+00  0.00000000E+00  0.00000000E+00
  0.00000000E+00  0.00000000E+00  0.00000000E+00
  0.00000000E+00  0.00000000E+00  0.00000000E+00
  0.00000000E+00  0.00000000E+00  0.00000000E+00
  0.00000000E+00  0.00000000E+00  0.00000000E+00
  0.00000000E+00  0.00000000E+00  0.00000000E+00
  0.00000000E+00  0.00000000E+00  0.00000000E+00
  0.00000000E+00  0.00000000E+00  0.00000000E+00
  0.00000000E+00  0.00000000E+00  0.00000000E+00
  0.00000000E+00  0.00000000E+00  0.00000000E+00
  0.00000000E+00  0.00000000E+00  0.00000000E+00
  0.00000000E+00  0.00000000E+00  0.00000000E+00
  0.00000000E+00  0.00000000E+00  0.00000000E+00
  0.00000000E+00  0.00000000E+00  0.00000000E+00
  0.00000000E+00  0.00000000E+00  0.00000000E+00
  0.00000000E+00  0.00000000E+00  0.00000000E+00
  0.00000000E+00  0.00000000E+00  0.00000000E+00
  0.00000000E+00  0.00000000E+00  0.00000000E+00
  0.00000000E+00  0.00000000E+00  0.00000000E+00
  0.00000000E+00  0.00000000E+00  0.00000000E+00
  0.00000000E+00  0.00000000E+00  0.00000000E+00
  0.00000000E+00  0.00000000E+00  0.00000000E+00
  0.00000000E+00  0.00000000E+00  0.00000000E+00
  0.00000000E+00  0.00000000E+00  0.00000000E+00
  0.00000000E+00  0.00000000E+00  0.00000000E+00
  0.00000000E+00  0.00000000E+00  0.00000000E+00
  0.00000000E+00  0.00000000E+00  0.00000000E+00
  0.00000000E+00  0.00000000E+00  0.00000000E+00
