supercell of icsd_608626.cif            
   1.02073030110852     
     9.2832978071106993    0.0030495913356090    0.0108361074678796
    -4.6390080756911756    8.0349970246959916    0.0000003305489961
     0.0117547557937572    0.0067871547254676    9.8203048904920394
   Al   La   N 
    34     2    36
Direct
  0.2232829084588701  0.1095515173532036  0.2634683680095833
  0.1090202662820872  0.2217113082126190  0.5122831640069947
  0.8847006977074656  0.1090378979487951  0.7490026371949554
  0.7780615700778952  0.2223640455657687  0.9977098818993895
  0.5572221588133743  0.1119442390603638  0.2474288034861871
  0.4490311975394050  0.2252757520548769  0.4994954020897424
  0.2272434053682701  0.1153435241190905  0.7409058350842130
  0.1096924287614698  0.2189894085748705  0.9870495492659188
  0.8858731861770295  0.1020436559330804  0.2455486443369708
  0.7793729965867371  0.2230197468088235  0.4964556116048726
  0.5567794921883049  0.1117229663112127  0.7480886517050749
  0.4484745234337311  0.2279923807134239  0.9969562746195848
  0.1090203132429579  0.5539758746369330  0.5122831979145772
  0.8847006666258892  0.4423293013136558  0.7490025705444907
  0.7698142359694060  0.5510668969799184  0.9972782935557305
  0.5614258082087176  0.4472769161961949  0.2476639303839150
  0.4483593156505492  0.5575130586381576  0.5098455819328009
  0.2220624592852829  0.4443646087324282  0.7483599830069920
  0.1096925122287402  0.5573700435271007  0.9870494644329852
  0.8858733653141684  0.4504963627713252  0.2455485569057601
  0.7754435708900900  0.5519257002808899  0.4999478548089868
  0.5573615923803743  0.4426613385422797  0.7501405873328011
  0.4534093842447575  0.5600381670295960  0.9901468077376450
  0.2232828168052023  0.7803982036288133  0.2634682946291846
  0.1099288567274854  0.8882976519777870  0.4905852248118663
  0.8811571071379234  0.7739117995617235  0.7399636660906168
  0.7698140413710846  0.8854139429873200  0.9972781897434473
  0.5614257202853352  0.7808155706206534  0.2476639365600732
  0.4490310364441257  0.8904217495821314  0.4994951951575786
  0.2272433939529037  0.7785664664849676  0.7409058713831627
  0.8816246438268749  0.7741456374532873  0.2634040487491021
  0.7754434117997420  0.8901844240920767  0.4999478482872206
  0.5573615943305796  0.7813668386643471  0.7501407072768060
  0.4484744352108692  0.8871486879775929  0.9969563281803531
  0.2164423822038870  0.4415553799888201  0.2427348244001735
  0.1077386662541073  0.8872030410392853  0.0088401565365075
  0.2260993940330707  0.1202817032567296  0.4520696358723555
  0.0939562972418315  0.1762775801742720  0.1734531778542134
  0.8847210559640502  0.1080044341476878  0.9385601849941168
  0.7777617405995372  0.2222140276720665  0.6883187102048325
  0.5573312679398725  0.1119988686132842  0.4377534962984697
  0.4424509887561499  0.2216030622787954  0.1917437676606184
  0.2431241604055501  0.1434593389085990  0.9242521846528078
  0.1059624032080251  0.2193241544568281  0.6984843127375981
  0.8922734556652827  0.1128976532709913  0.4383045046635416
  0.7829137346210402  0.2247901854628580  0.1900002292532221
  0.5554390261453008  0.1110526934891425  0.9418829707650929
  0.4500583592981044  0.2239971253572506  0.6871647879041873
  0.2237925650256827  0.4452295058695057  0.4773468506625207
  0.0939562500734255  0.5843455404819693  0.1734531612961376
  0.8847208487395051  0.4433830336312212  0.9385603150710864
  0.7754831286880233  0.5507880199402280  0.6873329786632780
  0.5549808541804140  0.4455227323563804  0.4395003928204915
  0.4790564023972408  0.5728614604791602  0.1776101071563687
  0.2221834255265449  0.4444251536645609  0.9480149059836052
  0.1059622810051479  0.5533045277716013  0.6984845032691638
  0.8922733550209045  0.4460421032072901  0.4383043546040284
  0.7780955838641788  0.5588110441029741  0.1900855450520353
  0.5563417294493718  0.4418979071925904  0.9382745133161237
  0.4491123102910066  0.5578893275675441  0.6997463073880041
  0.2260993384939098  0.7724843189853559  0.4520693226292067
  0.1090129493303422  0.8878396986009065  0.2464018307732161
  0.8511375293579633  0.7589021064555510  0.9263234584162490
  0.7754833523796734  0.8913616499099959  0.6873329080785950
  0.5549809692404537  0.7761246289561683  0.4395000586745184
  0.4424512762414210  0.8875145080156628  0.1917436476552368
  0.2431239725695278  0.7663323721736006  0.9242524177016662
  0.1100400749427166  0.8883533488734514  0.6918272763404332
  0.8802380215716070  0.7734523805210500  0.4512785327508340
  0.7780957154661081  0.8859515929437904  0.1900854344309764
  0.5563417021785000  0.7811103243389041  0.9382745237564478
  0.4500583183028724  0.8927277815086327  0.6871647469824609
 
  0.00000000E+00  0.00000000E+00  0.00000000E+00
  0.00000000E+00  0.00000000E+00  0.00000000E+00
  0.00000000E+00  0.00000000E+00  0.00000000E+00
  0.00000000E+00  0.00000000E+00  0.00000000E+00
  0.00000000E+00  0.00000000E+00  0.00000000E+00
  0.00000000E+00  0.00000000E+00  0.00000000E+00
  0.00000000E+00  0.00000000E+00  0.00000000E+00
  0.00000000E+00  0.00000000E+00  0.00000000E+00
  0.00000000E+00  0.00000000E+00  0.00000000E+00
  0.00000000E+00  0.00000000E+00  0.00000000E+00
  0.00000000E+00  0.00000000E+00  0.00000000E+00
  0.00000000E+00  0.00000000E+00  0.00000000E+00
  0.00000000E+00  0.00000000E+00  0.00000000E+00
  0.00000000E+00  0.00000000E+00  0.00000000E+00
  0.00000000E+00  0.00000000E+00  0.00000000E+00
  0.00000000E+00  0.00000000E+00  0.00000000E+00
  0.00000000E+00  0.00000000E+00  0.00000000E+00
  0.00000000E+00  0.00000000E+00  0.00000000E+00
  0.00000000E+00  0.00000000E+00  0.00000000E+00
  0.00000000E+00  0.00000000E+00  0.00000000E+00
  0.00000000E+00  0.00000000E+00  0.00000000E+00
  0.00000000E+00  0.00000000E+00  0.00000000E+00
  0.00000000E+00  0.00000000E+00  0.00000000E+00
  0.00000000E+00  0.00000000E+00  0.00000000E+00
  0.00000000E+00  0.00000000E+00  0.00000000E+00
  0.00000000E+00  0.00000000E+00  0.00000000E+00
  0.00000000E+00  0.00000000E+00  0.00000000E+00
  0.00000000E+00  0.00000000E+00  0.00000000E+00
  0.00000000E+00  0.00000000E+00  0.00000000E+00
  0.00000000E+00  0.00000000E+00  0.00000000E+00
  0.00000000E+00  0.00000000E+00  0.00000000E+00
  0.00000000E+00  0.00000000E+00  0.00000000E+00
  0.00000000E+00  0.00000000E+00  0.00000000E+00
  0.00000000E+00  0.00000000E+00  0.00000000E+00
  0.00000000E+00  0.00000000E+00  0.00000000E+00
  0.00000000E+00  0.00000000E+00  0.00000000E+00
  0.00000000E+00  0.00000000E+00  0.00000000E+00
  0.00000000E+00  0.00000000E+00  0.00000000E+00
  0.00000000E+00  0.00000000E+00  0.00000000E+00
  0.00000000E+00  0.00000000E+00  0.00000000E+00
  0.00000000E+00  0.00000000E+00  0.00000000E+00
  0.00000000E+00  0.00000000E+00  0.00000000E+00
  0.00000000E+00  0.00000000E+00  0.00000000E+00
  0.00000000E+00  0.00000000E+00  0.00000000E+00
  0.00000000E+00  0.00000000E+00  0.00000000E+00
  0.00000000E+00  0.00000000E+00  0.00000000E+00
  0.00000000E+00  0.00000000E+00  0.00000000E+00
  0.00000000E+00  0.00000000E+00  0.00000000E+00
  0.00000000E+00  0.00000000E+00  0.00000000E+00
  0.00000000E+00  0.00000000E+00  0.00000000E+00
  0.00000000E+00  0.00000000E+00  0.00000000E+00
  0.00000000E+00  0.00000000E+00  0.00000000E+00
  0.00000000E+00  0.00000000E+00  0.00000000E+00
  0.00000000E+00  0.00000000E+00  0.00000000E+00
  0.00000000E+00  0.00000000E+00  0.00000000E+00
  0.00000000E+00  0.00000000E+00  0.00000000E+00
  0.00000000E+00  0.00000000E+00  0.00000000E+00
  0.00000000E+00  0.00000000E+00  0.00000000E+00
  0.00000000E+00  0.00000000E+00  0.00000000E+00
  0.00000000E+00  0.00000000E+00  0.00000000E+00
  0.00000000E+00  0.00000000E+00  0.00000000E+00
  0.00000000E+00  0.00000000E+00  0.00000000E+00
  0.00000000E+00  0.00000000E+00  0.00000000E+00
  0.00000000E+00  0.00000000E+00  0.00000000E+00
  0.00000000E+00  0.00000000E+00  0.00000000E+00
  0.00000000E+00  0.00000000E+00  0.00000000E+00
  0.00000000E+00  0.00000000E+00  0.00000000E+00
  0.00000000E+00  0.00000000E+00  0.00000000E+00
  0.00000000E+00  0.00000000E+00  0.00000000E+00
  0.00000000E+00  0.00000000E+00  0.00000000E+00
  0.00000000E+00  0.00000000E+00  0.00000000E+00
  0.00000000E+00  0.00000000E+00  0.00000000E+00
