generated by phonopy                    
   1.00000000000000     
    10.0351470768999995   -0.0000022330999784   -0.0000001056124209
    -5.0175765436399997    8.6906901959899994    0.0000001395531216
    -0.0000001735893656    0.0000001431815548   14.9533752540999991
   Pb   P    O 
    20    13    49
Direct
  0.0034129046592213  0.7788679687335147  0.1276514284096848
  0.9917290770066316  0.7576361474229572  0.6259818302359079
  0.9901664458694341  0.2665956142080503  0.3774121424424592
  0.0031569352235934  0.2477235812128242  0.8768005020075194
  0.2328292431645735  0.2295220303492442  0.1252261726334467
  0.2109239633837916  0.2011229701887203  0.6483835760450631
  0.7466107648259808  0.7497596233977433  0.3726624927566391
  0.7591896126257538  0.7579604744204218  0.8770530799906524
  0.7772953167642669  0.0052978557125485  0.1263852818048647
  0.7593052048876956  0.9841293321926798  0.6284387899687545
  0.2651721004116325  0.9980088640406208  0.3826867943407706
  0.2442232339749495  0.9977172156339122  0.8787231773399853
  0.6687330269679777  0.3350351870274579  0.9966942241131491
  0.6646947316069216  0.3321371030663798  0.5026082986230733
  0.3367855641380828  0.6700745205446452  0.0010071651441734
  0.3246814906376656  0.6367120202785159  0.5032678622297482
  0.3363061631881195  0.6625144398223171  0.2427176269046356
  0.3275772361844531  0.6652214176464355  0.7475641798041934
  0.6730594045186180  0.3315087883200718  0.2440505417326051
  0.6507687961608966  0.3255905252539151  0.7515775798854918
  0.6317053164419235  0.6011128245925548  0.1231451639786982
  0.6196992868370970  0.5868646407005471  0.6250347112022681
  0.3853574909498434  0.4029369851238229  0.3605435696234522
  0.3689951359949575  0.4081456014325084  0.8784324175500515
  0.4059720450901523  0.0309496110049992  0.1228053427485492
  0.4094224103723718  0.0225479738003926  0.6267254756679250
  0.5981971217376838  0.9690725779027076  0.3726341679897445
  0.6061398841594041  0.9680410089219151  0.8729850443734435
  0.9728150085726597  0.3769182894840952  0.1159462185594222
  0.9626562095159130  0.3742967860339235  0.6211690904921525
  0.0239116969222835  0.6386614049750179  0.3712373889440812
  0.0306179437471457  0.6348119949075368  0.8745563723424823
  0.2392355550795031  0.3178830466828799  0.4719524119066776
  0.5087179640833170  0.6525305631981908  0.1242177306044994
  0.5030167003282173  0.6464950688554296  0.6244901019176012
  0.4943413293632872  0.3345733300379408  0.3559961825321381
  0.4624031874466752  0.3233002034708150  0.8765640335906966
  0.3521908195006986  0.8561761706593316  0.1250540762219927
  0.3618477670351297  0.8503490529002846  0.6291238791483025
  0.6526235563337295  0.1440119975869649  0.3736052968550965
  0.6793430166555225  0.1458081345540307  0.8723713333742893
  0.1480777388080199  0.4954273448726383  0.1205350813014903
  0.1345391177650086  0.5039897243831035  0.6227657171560921
  0.8464525738623152  0.5292234281398365  0.3731981711248906
  0.8526606609890024  0.5313739904060029  0.8745891440254923
  0.7432945749373658  0.6734131465411792  0.0416379803352029
  0.7197200495677407  0.6359911511455110  0.5373072086489117
  0.2575089428294532  0.3584114198404862  0.9606828672907284
  0.3329653424681140  0.0697771934405296  0.0411022746131948
  0.3457475760165138  0.0627719225733330  0.5419476889378174
  0.6608720212391219  0.9193797874196719  0.4540658077746258
  0.6589695904425028  0.9118762055250826  0.9564651466717606
  0.9316910177255977  0.2649170983321909  0.0341886112879024
  0.9083961308001705  0.2960030393658855  0.5269548050621751
  0.0823300942441563  0.7432713196764240  0.4562900155219012
  0.0891409514405481  0.7467369675983164  0.9569344120131973
  0.2845727757983454  0.3727478835616793  0.2748874193809314
  0.2655266790049993  0.3727416235237939  0.7934500947855128
  0.7340390836761159  0.6558107305557570  0.2096991327655218
  0.7323746602151999  0.6561584114820818  0.7063913178032166
  0.6510723501205362  0.9169580372326607  0.2873036979346111
  0.6565315158927731  0.9100561470482873  0.7888364932259933
  0.3572009413847681  0.0837567852501522  0.2092008277428832
  0.3482022768269601  0.0683573424252799  0.7114574705166348
  0.0773411861507967  0.7510532755402934  0.2897625084461239
  0.0902974416694988  0.7398756097104382  0.7892985468681744
  0.9181200641038814  0.2725399603515726  0.2012048034369727
  0.9352071606192993  0.2488179071210510  0.6918407908491773
  0.5524508312800975  0.4212756738089070  0.1175725791997237
  0.5343560673598589  0.4069511581344400  0.6317517399463526
  0.4865702198691935  0.5865261588395967  0.3680757526493466
  0.4792224123543960  0.5874475066772149  0.8828549430515764
  0.5859403522862507  0.1288289528420350  0.1144296433250815
  0.5896836477393208  0.1283541539106281  0.6268428335075313
  0.4162618105880753  0.8784119415680394  0.3737126651365088
  0.4253823765482991  0.8869865569817037  0.8738233072788688
  0.8783365865355819  0.4621055570250334  0.1085401240727748
  0.8585284573190819  0.4465740624753209  0.6408948368726541
  0.1058256630209158  0.5392524223300939  0.3657242336876365
  0.1104356052705668  0.5339918470786600  0.8775863243576794
  0.0031748327967804  0.0050924288177612  0.1422175213565779
  0.9834979158879307  0.9780490890072144  0.6249174208185480
 
  0.00000000E+00  0.00000000E+00  0.00000000E+00
  0.00000000E+00  0.00000000E+00  0.00000000E+00
  0.00000000E+00  0.00000000E+00  0.00000000E+00
  0.00000000E+00  0.00000000E+00  0.00000000E+00
  0.00000000E+00  0.00000000E+00  0.00000000E+00
  0.00000000E+00  0.00000000E+00  0.00000000E+00
  0.00000000E+00  0.00000000E+00  0.00000000E+00
  0.00000000E+00  0.00000000E+00  0.00000000E+00
  0.00000000E+00  0.00000000E+00  0.00000000E+00
  0.00000000E+00  0.00000000E+00  0.00000000E+00
  0.00000000E+00  0.00000000E+00  0.00000000E+00
  0.00000000E+00  0.00000000E+00  0.00000000E+00
  0.00000000E+00  0.00000000E+00  0.00000000E+00
  0.00000000E+00  0.00000000E+00  0.00000000E+00
  0.00000000E+00  0.00000000E+00  0.00000000E+00
  0.00000000E+00  0.00000000E+00  0.00000000E+00
  0.00000000E+00  0.00000000E+00  0.00000000E+00
  0.00000000E+00  0.00000000E+00  0.00000000E+00
  0.00000000E+00  0.00000000E+00  0.00000000E+00
  0.00000000E+00  0.00000000E+00  0.00000000E+00
  0.00000000E+00  0.00000000E+00  0.00000000E+00
  0.00000000E+00  0.00000000E+00  0.00000000E+00
  0.00000000E+00  0.00000000E+00  0.00000000E+00
  0.00000000E+00  0.00000000E+00  0.00000000E+00
  0.00000000E+00  0.00000000E+00  0.00000000E+00
  0.00000000E+00  0.00000000E+00  0.00000000E+00
  0.00000000E+00  0.00000000E+00  0.00000000E+00
  0.00000000E+00  0.00000000E+00  0.00000000E+00
  0.00000000E+00  0.00000000E+00  0.00000000E+00
  0.00000000E+00  0.00000000E+00  0.00000000E+00
  0.00000000E+00  0.00000000E+00  0.00000000E+00
  0.00000000E+00  0.00000000E+00  0.00000000E+00
  0.00000000E+00  0.00000000E+00  0.00000000E+00
  0.00000000E+00  0.00000000E+00  0.00000000E+00
  0.00000000E+00  0.00000000E+00  0.00000000E+00
  0.00000000E+00  0.00000000E+00  0.00000000E+00
  0.00000000E+00  0.00000000E+00  0.00000000E+00
  0.00000000E+00  0.00000000E+00  0.00000000E+00
  0.00000000E+00  0.00000000E+00  0.00000000E+00
  0.00000000E+00  0.00000000E+00  0.00000000E+00
  0.00000000E+00  0.00000000E+00  0.00000000E+00
  0.00000000E+00  0.00000000E+00  0.00000000E+00
  0.00000000E+00  0.00000000E+00  0.00000000E+00
  0.00000000E+00  0.00000000E+00  0.00000000E+00
  0.00000000E+00  0.00000000E+00  0.00000000E+00
  0.00000000E+00  0.00000000E+00  0.00000000E+00
  0.00000000E+00  0.00000000E+00  0.00000000E+00
  0.00000000E+00  0.00000000E+00  0.00000000E+00
  0.00000000E+00  0.00000000E+00  0.00000000E+00
  0.00000000E+00  0.00000000E+00  0.00000000E+00
  0.00000000E+00  0.00000000E+00  0.00000000E+00
  0.00000000E+00  0.00000000E+00  0.00000000E+00
  0.00000000E+00  0.00000000E+00  0.00000000E+00
  0.00000000E+00  0.00000000E+00  0.00000000E+00
  0.00000000E+00  0.00000000E+00  0.00000000E+00
  0.00000000E+00  0.00000000E+00  0.00000000E+00
  0.00000000E+00  0.00000000E+00  0.00000000E+00
  0.00000000E+00  0.00000000E+00  0.00000000E+00
  0.00000000E+00  0.00000000E+00  0.00000000E+00
  0.00000000E+00  0.00000000E+00  0.00000000E+00
  0.00000000E+00  0.00000000E+00  0.00000000E+00
  0.00000000E+00  0.00000000E+00  0.00000000E+00
  0.00000000E+00  0.00000000E+00  0.00000000E+00
  0.00000000E+00  0.00000000E+00  0.00000000E+00
  0.00000000E+00  0.00000000E+00  0.00000000E+00
  0.00000000E+00  0.00000000E+00  0.00000000E+00
  0.00000000E+00  0.00000000E+00  0.00000000E+00
  0.00000000E+00  0.00000000E+00  0.00000000E+00
  0.00000000E+00  0.00000000E+00  0.00000000E+00
  0.00000000E+00  0.00000000E+00  0.00000000E+00
  0.00000000E+00  0.00000000E+00  0.00000000E+00
  0.00000000E+00  0.00000000E+00  0.00000000E+00
  0.00000000E+00  0.00000000E+00  0.00000000E+00
  0.00000000E+00  0.00000000E+00  0.00000000E+00
  0.00000000E+00  0.00000000E+00  0.00000000E+00
  0.00000000E+00  0.00000000E+00  0.00000000E+00
  0.00000000E+00  0.00000000E+00  0.00000000E+00
  0.00000000E+00  0.00000000E+00  0.00000000E+00
  0.00000000E+00  0.00000000E+00  0.00000000E+00
  0.00000000E+00  0.00000000E+00  0.00000000E+00
  0.00000000E+00  0.00000000E+00  0.00000000E+00
  0.00000000E+00  0.00000000E+00  0.00000000E+00
