supercell of POSCAR                     
   1.03600000000000     
     9.6051007291200001   -5.6678653607799996   -9.9907275475200006
     9.5551777488200003    5.5783510108199996    9.9928581731800001
    -1.5573508785200001   -8.3719044994900003    4.9655686364999996
   Al   Gd   N 
    72    23    96
Direct
  0.2999511256056593  0.2897230237990271  0.5362623598531115
  0.1466562863311438  0.2431833000687575  0.3047233468243462
  0.3086225390264516  0.4083424575464747  0.3075093234132638
  0.4595905961546052  0.3185214139389245  0.7934586297167385
  0.1403323298952515  0.4982173866862780  0.7829420833374954
  0.2904678529904743  0.1672324068585098  0.7797345257017980
  0.4692681785626149  0.4468077314501784  0.5319058171793500
  0.1435078192821351  0.1197741061768340  0.5363333361294451
  0.4804650935013299  0.0799449816844628  0.2935807493128735
  0.2785812390475684  0.1113961739977469  0.3363939730587973
  0.1175658960190447  0.0719326355948979  0.1002657977798123
  0.1132268443731306  0.1956932196212264  0.8162888873159133
  0.2736025357148577  0.3564349976258114  0.8100371892117479
  0.1118908118560427  0.3244745291666504  0.5856646150449976
  0.2711817485797852  0.4869842850835653  0.5750423212412201
  0.4503533530745401  0.2809125837370487  0.3364256352770028
  0.1121160298408341  0.4456769642699001  0.3380918031165834
  0.4480590628487562  0.4105023441018218  0.1095649308206816
  0.8039050768798148  0.2874377666793109  0.5393188501677528
  0.6482707754463064  0.2425244427330924  0.3217156915245809
  0.8078891349659756  0.4078846690110893  0.3113414257074965
  0.9622945384121664  0.3241564831626960  0.7883071379314543
  0.6389800543498154  0.4920464651569745  0.7872015298823811
  0.7969458119226971  0.1615132333939400  0.7745559444021026
  0.9700864301688910  0.4460184032320100  0.5345076438819092
  0.6460317035689513  0.1178378896334209  0.5375258712489597
  0.9796649860817368  0.0713268884885565  0.2942543487715596
  0.7793386668175870  0.1094031058717135  0.3328665580865575
  0.6156131498184934  0.0784001738350995  0.0988866457026418
  0.6163844955332749  0.1938610140791681  0.8126637045212419
  0.7672452388308955  0.3522261157072393  0.8109135106950021
  0.6130619844058529  0.3246375650618560  0.5905348880997465
  0.7705320978850523  0.4837145768177535  0.5773093819912489
  0.9492647247910142  0.2794995121669430  0.3346316925123176
  0.6134834784944942  0.4439567898463821  0.3356282602509992
  0.9495243905232158  0.4044043976060365  0.1028242411268110
  0.3026607272166046  0.7922701889233608  0.5397261344843258
  0.1449638775616862  0.7444575438889771  0.3108149498995232
  0.3120704249200941  0.9135834443340016  0.3120828381602649
  0.4653747926789080  0.8361923089519721  0.7900671329466746
  0.1428108707997566  0.9984500456377461  0.7845543446545094
  0.2965479355937575  0.6678176575197838  0.7807017249000907
  0.4721474077745924  0.9519589330043914  0.5405342476694770
  0.1446276169821346  0.6208399660830111  0.5380225829083543
  0.4786667965554585  0.5745427384055688  0.3012389585138067
  0.2782749681500434  0.6103891810712909  0.3355279118632168
  0.1164281733332686  0.5699953728085063  0.1010045601536831
  0.1155873430123009  0.6953576284176251  0.8178835931804045
  0.2782275229156426  0.8592416125404228  0.8131351036830239
  0.1133910718173539  0.8256100974876972  0.5892304976284137
  0.2748721355543893  0.9888404301872384  0.5813473222379741
  0.4510688709311381  0.7836666524140909  0.3369739152510149
  0.1143109305301522  0.9462619777315950  0.3395403738867344
  0.4513803888665819  0.9100996318482828  0.1040138429529378
  0.8019144502014584  0.7858860047997425  0.5380875303347494
  0.6441505098158160  0.7419944637319631  0.3087376131818047
  0.8086553565006938  0.9075311775380044  0.3060779453884166
  0.9627493652599668  0.8217316607639091  0.7883283851444887
  0.6432734642038938  0.9959272279632501  0.7827277228600238
  0.7931692862939101  0.6597740417486975  0.7808098360646909
  0.9704791110948037  0.9444721489124319  0.5308316721740738
  0.6428862238196444  0.6173483385057850  0.5384068913579085
  0.9776876546624464  0.5712956584622830  0.2967353753415054
  0.7765204173149343  0.6081448159769849  0.3361068666780298
  0.6129033103278161  0.5640156618370895  0.1025076676051313
  0.6138996844801596  0.6964772109554787  0.8158049436053503
  0.7755845992279404  0.8530745317029087  0.8117859567757435
  0.6132671221864783  0.8243458081236099  0.5865295338960195
  0.7722872981105766  0.9826864778969053  0.5730912269878630
  0.9492078563781021  0.7788714457166037  0.3352302606454174
  0.6121182898477073  0.9481215597243420  0.3387529266237905
  0.9479529773304947  0.9034372759008988  0.1019457822282916
  0.1407180653721340  0.3604511772150545  0.0300600753569569
  0.3068770579998983  0.0207584712201268  0.0406666328338900
  0.3025609067690667  0.2294945828167201  0.0714677346646653
  0.4520965673464872  0.0530162910642460  0.8443943668946403
  0.4470356901040518  0.1612722951961061  0.5795395712584153
  0.9796323742991149  0.1947008112256015  0.0380649495063849
  0.5649207747756222  0.2887481720409895  0.0789007289772599
  0.8055449737607603  0.0252933299136586  0.0376600674906129
  0.7798533849848468  0.2430817522268427  0.0789172619833423
  0.9490072008971708  0.0161120101864114  0.8174165927844896
  0.9447704412781661  0.1526708927482119  0.5702321942414059
  0.4849420800009412  0.6956688053251625  0.0365200799655199
  0.1339154394621005  0.8628169152355127  0.0317837534559402
  0.3075986692795709  0.5238438798694389  0.0372379750344152
  0.2875532609819587  0.7379476513522150  0.0855353187776871
  0.4492086326540559  0.5155626123962307  0.8167201772418693
  0.4433017872162850  0.6599376769439260  0.5778606237993600
  0.9780446385620678  0.6895536209829487  0.0401803810365777
  0.6364166578688213  0.8677407364502230  0.0328437958396179
  0.7890466401604428  0.5042818262860322  0.0420264719340651
  0.7830024609191071  0.7281793163491912  0.0792685907849133
  0.9430458051764319  0.5182963602625961  0.8249870419623591
  0.9454853987709058  0.6532342957016724  0.5729563795514707
  0.2366869950266803  0.3702050276194342  0.6240584013171500
  0.0763679510997193  0.3252080992869608  0.3961544103626338
  0.2389450927972732  0.4912881503672111  0.3889068541024514
  0.4368784722010162  0.2989260593540024  0.1603730910450949
  0.0722119057888975  0.4552440900517070  0.1493152644318343
  0.2362536282877841  0.1048307758829097  0.1577253531435190
  0.3980195928748245  0.3925367441393988  0.9119039996894927
  0.0927744940850062  0.0822260047049923  0.8994550021534664
  0.2294558855431319  0.2485157114745178  0.8677390856130174
  0.4000256324396929  0.0221843071578007  0.6251205123005406
  0.0901230594405078  0.2037255630529700  0.6303405014338281
  0.4054100909556198  0.1588013273559739  0.3602086483643703
  0.2185279311202706  0.1915826901355047  0.4334756698624531
  0.0618810003222166  0.1460056469177999  0.2050503648646895
  0.2212495228316840  0.3176910367797561  0.2061417122255591
  0.3499738490544928  0.1236428082782055  0.9196376718953090
  0.0402726234601261  0.2679049440778982  0.8859600945916952
  0.2100299146723046  0.4375777976715511  0.8875183984534019
  0.3605707182892033  0.2477487130125766  0.6806915103528013
  0.0400416130239805  0.4058614397334708  0.6820209202766137
  0.2100452351644080  0.0685597647690415  0.6694704009530952
  0.3818212653837847  0.3538835591577367  0.4325481771377042
  0.0492355951596792  0.0253535158604663  0.4373254980524521
  0.3890387063781731  0.4803445000331408  0.2113971092690434
  0.7390859031056678  0.3661508053654003  0.6228197292154931
  0.5767419353730574  0.3255937515536829  0.4031324774326492
  0.7407391263048169  0.4906582942897941  0.3920105727650665
  0.9252048663605024  0.2923882159249018  0.1558137421680783
  0.5708605850039064  0.4507309700128204  0.1496961120120091
  0.7368852874455172  0.1105587905078167  0.1552950531064212
  0.8982267881318222  0.3903354099022920  0.9086954130836418
  0.6038248373709507  0.0800085123330447  0.9006755976877869
  0.7355207726158000  0.2386309442172063  0.8578139914070206
  0.8964398369316129  0.0135345653600041  0.6068647898373385
  0.5948014243115551  0.2029614088851801  0.6259727766181058
  0.9069763493942631  0.1549041995446601  0.3535466293808227
  0.7240941497742881  0.1884840833546448  0.4371154833595838
  0.5622526272351891  0.1564932067988138  0.2026758022454729
  0.7136872332798490  0.3207639394789794  0.2175467144137144
  0.8680444518737929  0.1131581106210291  0.9018415826361803
  0.5225602615660208  0.2395398211448452  0.8645301827578749
  0.6987126545014135  0.4227216596003132  0.8842438776761057
  0.8700436477276554  0.2437060631155887  0.6786359350839248
  0.5351453801623833  0.4049290837115933  0.6834261940434700
  0.7141210292690872  0.0642082412858827  0.6668034268359051
  0.8838248102023272  0.3523801590190772  0.4336190898044023
  0.5500283306432294  0.0284457185657132  0.4378735131995839
  0.8910566546248972  0.4741242917213242  0.2088632252156302
  0.2385626559421752  0.8707367614904413  0.6267209858240363
  0.0762783770703024  0.8252925421050037  0.3993227503276842
  0.2420504371401435  0.9924741923595661  0.3939984546346693
  0.4315631535622870  0.7962697350250707  0.1553961943121465
  0.0702485627017566  0.9571978366208498  0.1511690566579773
  0.2362433602572196  0.6070295887475012  0.1553903779000407
  0.4037645250143669  0.9059919906801781  0.9090826518100883
  0.0913945191569212  0.5820141441012225  0.9005354666849570
  0.2346577724163836  0.7467197818810973  0.8700885669803498
  0.3953758698839422  0.5192135244365588  0.6073427852275373
  0.0918188182032083  0.7046745120225637  0.6325855367735400
  0.4055528903569581  0.6597130074073547  0.3587978362098099
  0.2211748516811483  0.6928849027315778  0.4355259140343080
  0.0629389084944094  0.6454571509327991  0.2092635037533555
  0.2181876586546352  0.8232599257714739  0.2121695875957599
  0.3676648519137373  0.6180533616707606  0.9060531435271528
  0.0389475320739479  0.7635922525913443  0.8866072162844176
  0.2071403380677452  0.9331980756890701  0.8890791068005868
  0.3671545410108550  0.7528211645404213  0.6867835358440004
  0.0395444439832104  0.9043264125394472  0.6816914978025324
  0.2124782668311411  0.5701400833231602  0.6713120244540107
  0.3845048643350637  0.8571400060324024  0.4361817470695541
  0.0489155160479555  0.5267837497561132  0.4399862362722047
  0.3941400304359348  0.9789490804440248  0.2126689708539331
  0.7395059601765865  0.8657423537969535  0.6247541784427071
  0.5776539514152930  0.8255679853611539  0.3971995760470293
  0.7407603764563930  0.9893955782584314  0.3866481091583509
  0.9276589892359439  0.7913680623994850  0.1554855877827279
  0.5730236098732746  0.9628751470820447  0.1519702500206677
  0.7322522783215462  0.6025755628834304  0.1584987277369834
  0.9011683192668372  0.8897170528305693  0.9065445081024421
  0.5913089371786313  0.5835950083953776  0.9022433462682358
  0.7330472441880644  0.7420207253458955  0.8648003809968898
  0.8955187242112999  0.5152026447571671  0.6127138271561208
  0.5902430323294681  0.7027689510982711  0.6303075970164755
  0.9049091425188891  0.6553122904819730  0.3561012001007526
  0.7192069203764078  0.6896640577904805  0.4349392531397527
  0.5609768511792623  0.6440704428959734  0.2077625954008937
  0.7164084109993425  0.8179605664385861  0.2067091202638665
  0.8564229776819232  0.6101791567677779  0.9182756142930870
  0.5418816274255818  0.7724116614321943  0.8835452903183452
  0.7126744704129777  0.9329616214517102  0.8877963689778881
  0.8667225290946945  0.7417139209247381  0.6818502522730796
  0.5441880836833946  0.9051901381940795  0.6780116648252275
  0.7098303394963210  0.5645699763543135  0.6712960608798326
  0.8821924691342815  0.8509685190465390  0.4310320999345834
  0.5491435462557774  0.5253427749768989  0.4385015536556907
  0.8899138121587100  0.9751314451574871  0.2050068250780654
 
  0.00000000E+00  0.00000000E+00  0.00000000E+00
  0.00000000E+00  0.00000000E+00  0.00000000E+00
  0.00000000E+00  0.00000000E+00  0.00000000E+00
  0.00000000E+00  0.00000000E+00  0.00000000E+00
  0.00000000E+00  0.00000000E+00  0.00000000E+00
  0.00000000E+00  0.00000000E+00  0.00000000E+00
  0.00000000E+00  0.00000000E+00  0.00000000E+00
  0.00000000E+00  0.00000000E+00  0.00000000E+00
  0.00000000E+00  0.00000000E+00  0.00000000E+00
  0.00000000E+00  0.00000000E+00  0.00000000E+00
  0.00000000E+00  0.00000000E+00  0.00000000E+00
  0.00000000E+00  0.00000000E+00  0.00000000E+00
  0.00000000E+00  0.00000000E+00  0.00000000E+00
  0.00000000E+00  0.00000000E+00  0.00000000E+00
  0.00000000E+00  0.00000000E+00  0.00000000E+00
  0.00000000E+00  0.00000000E+00  0.00000000E+00
  0.00000000E+00  0.00000000E+00  0.00000000E+00
  0.00000000E+00  0.00000000E+00  0.00000000E+00
  0.00000000E+00  0.00000000E+00  0.00000000E+00
  0.00000000E+00  0.00000000E+00  0.00000000E+00
  0.00000000E+00  0.00000000E+00  0.00000000E+00
  0.00000000E+00  0.00000000E+00  0.00000000E+00
  0.00000000E+00  0.00000000E+00  0.00000000E+00
  0.00000000E+00  0.00000000E+00  0.00000000E+00
  0.00000000E+00  0.00000000E+00  0.00000000E+00
  0.00000000E+00  0.00000000E+00  0.00000000E+00
  0.00000000E+00  0.00000000E+00  0.00000000E+00
  0.00000000E+00  0.00000000E+00  0.00000000E+00
  0.00000000E+00  0.00000000E+00  0.00000000E+00
  0.00000000E+00  0.00000000E+00  0.00000000E+00
  0.00000000E+00  0.00000000E+00  0.00000000E+00
  0.00000000E+00  0.00000000E+00  0.00000000E+00
  0.00000000E+00  0.00000000E+00  0.00000000E+00
  0.00000000E+00  0.00000000E+00  0.00000000E+00
  0.00000000E+00  0.00000000E+00  0.00000000E+00
  0.00000000E+00  0.00000000E+00  0.00000000E+00
  0.00000000E+00  0.00000000E+00  0.00000000E+00
  0.00000000E+00  0.00000000E+00  0.00000000E+00
  0.00000000E+00  0.00000000E+00  0.00000000E+00
  0.00000000E+00  0.00000000E+00  0.00000000E+00
  0.00000000E+00  0.00000000E+00  0.00000000E+00
  0.00000000E+00  0.00000000E+00  0.00000000E+00
  0.00000000E+00  0.00000000E+00  0.00000000E+00
  0.00000000E+00  0.00000000E+00  0.00000000E+00
  0.00000000E+00  0.00000000E+00  0.00000000E+00
  0.00000000E+00  0.00000000E+00  0.00000000E+00
  0.00000000E+00  0.00000000E+00  0.00000000E+00
  0.00000000E+00  0.00000000E+00  0.00000000E+00
  0.00000000E+00  0.00000000E+00  0.00000000E+00
  0.00000000E+00  0.00000000E+00  0.00000000E+00
  0.00000000E+00  0.00000000E+00  0.00000000E+00
  0.00000000E+00  0.00000000E+00  0.00000000E+00
  0.00000000E+00  0.00000000E+00  0.00000000E+00
  0.00000000E+00  0.00000000E+00  0.00000000E+00
  0.00000000E+00  0.00000000E+00  0.00000000E+00
  0.00000000E+00  0.00000000E+00  0.00000000E+00
  0.00000000E+00  0.00000000E+00  0.00000000E+00
  0.00000000E+00  0.00000000E+00  0.00000000E+00
  0.00000000E+00  0.00000000E+00  0.00000000E+00
  0.00000000E+00  0.00000000E+00  0.00000000E+00
  0.00000000E+00  0.00000000E+00  0.00000000E+00
  0.00000000E+00  0.00000000E+00  0.00000000E+00
  0.00000000E+00  0.00000000E+00  0.00000000E+00
  0.00000000E+00  0.00000000E+00  0.00000000E+00
  0.00000000E+00  0.00000000E+00  0.00000000E+00
  0.00000000E+00  0.00000000E+00  0.00000000E+00
  0.00000000E+00  0.00000000E+00  0.00000000E+00
  0.00000000E+00  0.00000000E+00  0.00000000E+00
  0.00000000E+00  0.00000000E+00  0.00000000E+00
  0.00000000E+00  0.00000000E+00  0.00000000E+00
  0.00000000E+00  0.00000000E+00  0.00000000E+00
  0.00000000E+00  0.00000000E+00  0.00000000E+00
  0.00000000E+00  0.00000000E+00  0.00000000E+00
  0.00000000E+00  0.00000000E+00  0.00000000E+00
  0.00000000E+00  0.00000000E+00  0.00000000E+00
  0.00000000E+00  0.00000000E+00  0.00000000E+00
  0.00000000E+00  0.00000000E+00  0.00000000E+00
  0.00000000E+00  0.00000000E+00  0.00000000E+00
  0.00000000E+00  0.00000000E+00  0.00000000E+00
  0.00000000E+00  0.00000000E+00  0.00000000E+00
  0.00000000E+00  0.00000000E+00  0.00000000E+00
  0.00000000E+00  0.00000000E+00  0.00000000E+00
  0.00000000E+00  0.00000000E+00  0.00000000E+00
  0.00000000E+00  0.00000000E+00  0.00000000E+00
  0.00000000E+00  0.00000000E+00  0.00000000E+00
  0.00000000E+00  0.00000000E+00  0.00000000E+00
  0.00000000E+00  0.00000000E+00  0.00000000E+00
  0.00000000E+00  0.00000000E+00  0.00000000E+00
  0.00000000E+00  0.00000000E+00  0.00000000E+00
  0.00000000E+00  0.00000000E+00  0.00000000E+00
  0.00000000E+00  0.00000000E+00  0.00000000E+00
  0.00000000E+00  0.00000000E+00  0.00000000E+00
  0.00000000E+00  0.00000000E+00  0.00000000E+00
  0.00000000E+00  0.00000000E+00  0.00000000E+00
  0.00000000E+00  0.00000000E+00  0.00000000E+00
  0.00000000E+00  0.00000000E+00  0.00000000E+00
  0.00000000E+00  0.00000000E+00  0.00000000E+00
  0.00000000E+00  0.00000000E+00  0.00000000E+00
  0.00000000E+00  0.00000000E+00  0.00000000E+00
  0.00000000E+00  0.00000000E+00  0.00000000E+00
  0.00000000E+00  0.00000000E+00  0.00000000E+00
  0.00000000E+00  0.00000000E+00  0.00000000E+00
  0.00000000E+00  0.00000000E+00  0.00000000E+00
  0.00000000E+00  0.00000000E+00  0.00000000E+00
  0.00000000E+00  0.00000000E+00  0.00000000E+00
  0.00000000E+00  0.00000000E+00  0.00000000E+00
  0.00000000E+00  0.00000000E+00  0.00000000E+00
  0.00000000E+00  0.00000000E+00  0.00000000E+00
  0.00000000E+00  0.00000000E+00  0.00000000E+00
  0.00000000E+00  0.00000000E+00  0.00000000E+00
  0.00000000E+00  0.00000000E+00  0.00000000E+00
  0.00000000E+00  0.00000000E+00  0.00000000E+00
  0.00000000E+00  0.00000000E+00  0.00000000E+00
  0.00000000E+00  0.00000000E+00  0.00000000E+00
  0.00000000E+00  0.00000000E+00  0.00000000E+00
  0.00000000E+00  0.00000000E+00  0.00000000E+00
  0.00000000E+00  0.00000000E+00  0.00000000E+00
  0.00000000E+00  0.00000000E+00  0.00000000E+00
  0.00000000E+00  0.00000000E+00  0.00000000E+00
  0.00000000E+00  0.00000000E+00  0.00000000E+00
  0.00000000E+00  0.00000000E+00  0.00000000E+00
  0.00000000E+00  0.00000000E+00  0.00000000E+00
  0.00000000E+00  0.00000000E+00  0.00000000E+00
  0.00000000E+00  0.00000000E+00  0.00000000E+00
  0.00000000E+00  0.00000000E+00  0.00000000E+00
  0.00000000E+00  0.00000000E+00  0.00000000E+00
  0.00000000E+00  0.00000000E+00  0.00000000E+00
  0.00000000E+00  0.00000000E+00  0.00000000E+00
  0.00000000E+00  0.00000000E+00  0.00000000E+00
  0.00000000E+00  0.00000000E+00  0.00000000E+00
  0.00000000E+00  0.00000000E+00  0.00000000E+00
  0.00000000E+00  0.00000000E+00  0.00000000E+00
  0.00000000E+00  0.00000000E+00  0.00000000E+00
  0.00000000E+00  0.00000000E+00  0.00000000E+00
  0.00000000E+00  0.00000000E+00  0.00000000E+00
  0.00000000E+00  0.00000000E+00  0.00000000E+00
  0.00000000E+00  0.00000000E+00  0.00000000E+00
  0.00000000E+00  0.00000000E+00  0.00000000E+00
  0.00000000E+00  0.00000000E+00  0.00000000E+00
  0.00000000E+00  0.00000000E+00  0.00000000E+00
  0.00000000E+00  0.00000000E+00  0.00000000E+00
  0.00000000E+00  0.00000000E+00  0.00000000E+00
  0.00000000E+00  0.00000000E+00  0.00000000E+00
  0.00000000E+00  0.00000000E+00  0.00000000E+00
  0.00000000E+00  0.00000000E+00  0.00000000E+00
  0.00000000E+00  0.00000000E+00  0.00000000E+00
  0.00000000E+00  0.00000000E+00  0.00000000E+00
  0.00000000E+00  0.00000000E+00  0.00000000E+00
  0.00000000E+00  0.00000000E+00  0.00000000E+00
  0.00000000E+00  0.00000000E+00  0.00000000E+00
  0.00000000E+00  0.00000000E+00  0.00000000E+00
  0.00000000E+00  0.00000000E+00  0.00000000E+00
  0.00000000E+00  0.00000000E+00  0.00000000E+00
  0.00000000E+00  0.00000000E+00  0.00000000E+00
  0.00000000E+00  0.00000000E+00  0.00000000E+00
  0.00000000E+00  0.00000000E+00  0.00000000E+00
  0.00000000E+00  0.00000000E+00  0.00000000E+00
  0.00000000E+00  0.00000000E+00  0.00000000E+00
  0.00000000E+00  0.00000000E+00  0.00000000E+00
  0.00000000E+00  0.00000000E+00  0.00000000E+00
  0.00000000E+00  0.00000000E+00  0.00000000E+00
  0.00000000E+00  0.00000000E+00  0.00000000E+00
  0.00000000E+00  0.00000000E+00  0.00000000E+00
  0.00000000E+00  0.00000000E+00  0.00000000E+00
  0.00000000E+00  0.00000000E+00  0.00000000E+00
  0.00000000E+00  0.00000000E+00  0.00000000E+00
  0.00000000E+00  0.00000000E+00  0.00000000E+00
  0.00000000E+00  0.00000000E+00  0.00000000E+00
  0.00000000E+00  0.00000000E+00  0.00000000E+00
  0.00000000E+00  0.00000000E+00  0.00000000E+00
  0.00000000E+00  0.00000000E+00  0.00000000E+00
  0.00000000E+00  0.00000000E+00  0.00000000E+00
  0.00000000E+00  0.00000000E+00  0.00000000E+00
  0.00000000E+00  0.00000000E+00  0.00000000E+00
  0.00000000E+00  0.00000000E+00  0.00000000E+00
  0.00000000E+00  0.00000000E+00  0.00000000E+00
  0.00000000E+00  0.00000000E+00  0.00000000E+00
  0.00000000E+00  0.00000000E+00  0.00000000E+00
  0.00000000E+00  0.00000000E+00  0.00000000E+00
  0.00000000E+00  0.00000000E+00  0.00000000E+00
  0.00000000E+00  0.00000000E+00  0.00000000E+00
  0.00000000E+00  0.00000000E+00  0.00000000E+00
  0.00000000E+00  0.00000000E+00  0.00000000E+00
  0.00000000E+00  0.00000000E+00  0.00000000E+00
  0.00000000E+00  0.00000000E+00  0.00000000E+00
  0.00000000E+00  0.00000000E+00  0.00000000E+00
  0.00000000E+00  0.00000000E+00  0.00000000E+00
  0.00000000E+00  0.00000000E+00  0.00000000E+00
  0.00000000E+00  0.00000000E+00  0.00000000E+00
  0.00000000E+00  0.00000000E+00  0.00000000E+00
  0.00000000E+00  0.00000000E+00  0.00000000E+00
