generated by phonopy                    
   1.00000000000000     
    10.0351470768999995   -0.0000022330999784   -0.0000001056124209
    -5.0175765436399997    8.6906901959899994    0.0000001395531216
    -0.0000001735893656    0.0000001431815548   14.9533752540999991
   Pb   P    O    S 
    20    12    49     1
Direct
  0.9942614821234983  0.7499580161048129  0.1166682771104703
  0.9987177057904972  0.7727990133301148  0.6325504251805754
  0.0063687107238124  0.2630368985006157  0.3784619281089121
  0.9980649666779655  0.2460684254277794  0.8833976926327551
  0.2505055233949847  0.2446053315554764  0.1168017527591587
  0.2268658325122601  0.2257325646308672  0.6327257712801639
  0.7371179168006776  0.7433208783568617  0.3783440878664024
  0.7533171072310125  0.7515456475212901  0.8832585616672617
  0.7552802147179207  0.0057197655616434  0.1168267562755005
  0.7745398284440697  0.0014836451982632  0.6327265370498480
  0.2568602821702015  0.9940461682365651  0.3784153068431380
  0.2483087154634163  0.0019546932530687  0.8831962707390346
  0.6667462389715695  0.3333716076557707  0.9995173654631273
  0.6665735258173839  0.3332068298359161  0.5044989076828870
  0.3333371468594919  0.6664684310108413  0.9991650351618873
  0.3335231524797493  0.6665248395620651  0.5061718621192028
  0.3331152025275443  0.6664699059297874  0.2448408491113057
  0.3333841197843341  0.6667661960735032  0.7465081990100018
  0.6669737524408887  0.3333322154753375  0.2548473058832244
  0.6668336947151303  0.3334188143100363  0.7490390538135330
  0.6212237921011763  0.5948130563401079  0.1268076873947948
  0.6264002290592856  0.5960700643750059  0.6228561934878059
  0.3691077788448780  0.3967891893102404  0.3720277093787274
  0.3729949705316429  0.3997195408293734  0.8788213103520732
  0.4051105789985812  0.0262056442079839  0.1268403424300359
  0.4039539329236490  0.0302358688761686  0.6228411736703947
  0.6032876368181661  0.9723629267621803  0.3719830825704520
  0.6000333473210588  0.9731725544350383  0.8789012560796508
  0.9738068561485278  0.3792918894373045  0.1269590095132429
  0.9698304230565427  0.3736315760379512  0.6227948403648611
  0.0277140449722708  0.6309277937561788  0.3719567799444050
  0.0269132382914634  0.6269418565910811  0.8788339704177943
  0.5112041409678838  0.6623400823694965  0.1231978453282494
  0.5030676827336293  0.6472086538170032  0.6226777718683820
  0.4727206315795627  0.3220981917758508  0.3730858079976969
  0.4821395170405722  0.3315972099510063  0.8834180427288416
  0.3377939837330501  0.8487577610445101  0.1231022614742088
  0.3528618971353339  0.8558023979806535  0.6226188397688688
  0.6780066555224025  0.1504753636400409  0.3729538279308002
  0.6686469950194720  0.1505030426400253  0.8834383761182991
  0.1513993946965115  0.4886855054382977  0.1232446813760930
  0.1442694504746811  0.4969475592482908  0.6226439222641673
  0.8495237160367708  0.5274533035836626  0.3729763999946414
  0.8495779852476701  0.5178664814072178  0.8833738778610964
  0.7207252574303809  0.6322357502576565  0.0394894030407755
  0.7251370121248542  0.6468531640254298  0.5348159474358312
  0.2604593590672053  0.3495180385747716  0.4554362491075921
  0.2841317069105216  0.3779244800754356  0.9693253198333238
  0.3678095883926602  0.0884623000596534  0.0395740595177756
  0.3532363174231605  0.0783791791342736  0.5348588981193103
  0.6504652111922411  0.9109143282713745  0.4553605284442241
  0.6217680885406196  0.9058010129054352  0.9693803604985121
  0.9114511884413190  0.2791463078131784  0.0399014707098146
  0.9217021919322050  0.2748471398443613  0.5348597902149876
  0.0888242036131928  0.7395547007966456  0.4553029432505440
  0.0940372022515064  0.7160580011872781  0.9692702706704779
  0.2639942992672388  0.3531529976480101  0.2873616572208064
  0.2492703342620075  0.3173104208048017  0.8041356372594421
  0.7353884030766764  0.6620318984053313  0.2071107115035389
  0.7399827223959861  0.6687893525155673  0.7033885301311358
  0.6465996802762675  0.9107106590719383  0.2872453527941019
  0.6823181779126131  0.9316590411657302  0.8042548095089330
  0.3378591367402137  0.0737049667787630  0.2069889632501116
  0.3311126385005849  0.0712401025810792  0.7032920223364698
  0.0897136617089203  0.7360562373311907  0.2873621868397933
  0.0683716488438293  0.7509567221298710  0.8042213587193174
  0.9258657057419271  0.2644109513130033  0.2069831177813484
  0.9289673520937569  0.2599606599069872  0.7032632112344714
  0.5253459157361320  0.4140452044412442  0.1356296580512790
  0.5462657247112048  0.4157244155649380  0.6296877941460721
  0.4747959791765695  0.5789398937559227  0.3729619214309565
  0.4670933914668396  0.5779380877507947  0.8604665362993700
  0.5859072627001609  0.1112575563422453  0.1355023329491019
  0.5843216987970195  0.1304262597364030  0.6297268310433850
  0.4209034754343790  0.8958020773326965  0.3731710280050891
  0.4218816615554957  0.8892147376654265  0.8604628888248982
  0.8883471743471318  0.4747620385296187  0.1355476618489320
  0.8694720981955371  0.4537205722671089  0.6297678661291499
  0.1043083950299888  0.5250890303431035  0.3732322250100992
  0.1108961326739646  0.5328680134820303  0.8605069881875735
  0.9999047054403789  0.0002203781702548  0.6290040256455853
  0.0000125390733601  0.0001201871110155  0.9907555865722344
 
  0.00000000E+00  0.00000000E+00  0.00000000E+00
  0.00000000E+00  0.00000000E+00  0.00000000E+00
  0.00000000E+00  0.00000000E+00  0.00000000E+00
  0.00000000E+00  0.00000000E+00  0.00000000E+00
  0.00000000E+00  0.00000000E+00  0.00000000E+00
  0.00000000E+00  0.00000000E+00  0.00000000E+00
  0.00000000E+00  0.00000000E+00  0.00000000E+00
  0.00000000E+00  0.00000000E+00  0.00000000E+00
  0.00000000E+00  0.00000000E+00  0.00000000E+00
  0.00000000E+00  0.00000000E+00  0.00000000E+00
  0.00000000E+00  0.00000000E+00  0.00000000E+00
  0.00000000E+00  0.00000000E+00  0.00000000E+00
  0.00000000E+00  0.00000000E+00  0.00000000E+00
  0.00000000E+00  0.00000000E+00  0.00000000E+00
  0.00000000E+00  0.00000000E+00  0.00000000E+00
  0.00000000E+00  0.00000000E+00  0.00000000E+00
  0.00000000E+00  0.00000000E+00  0.00000000E+00
  0.00000000E+00  0.00000000E+00  0.00000000E+00
  0.00000000E+00  0.00000000E+00  0.00000000E+00
  0.00000000E+00  0.00000000E+00  0.00000000E+00
  0.00000000E+00  0.00000000E+00  0.00000000E+00
  0.00000000E+00  0.00000000E+00  0.00000000E+00
  0.00000000E+00  0.00000000E+00  0.00000000E+00
  0.00000000E+00  0.00000000E+00  0.00000000E+00
  0.00000000E+00  0.00000000E+00  0.00000000E+00
  0.00000000E+00  0.00000000E+00  0.00000000E+00
  0.00000000E+00  0.00000000E+00  0.00000000E+00
  0.00000000E+00  0.00000000E+00  0.00000000E+00
  0.00000000E+00  0.00000000E+00  0.00000000E+00
  0.00000000E+00  0.00000000E+00  0.00000000E+00
  0.00000000E+00  0.00000000E+00  0.00000000E+00
  0.00000000E+00  0.00000000E+00  0.00000000E+00
  0.00000000E+00  0.00000000E+00  0.00000000E+00
  0.00000000E+00  0.00000000E+00  0.00000000E+00
  0.00000000E+00  0.00000000E+00  0.00000000E+00
  0.00000000E+00  0.00000000E+00  0.00000000E+00
  0.00000000E+00  0.00000000E+00  0.00000000E+00
  0.00000000E+00  0.00000000E+00  0.00000000E+00
  0.00000000E+00  0.00000000E+00  0.00000000E+00
  0.00000000E+00  0.00000000E+00  0.00000000E+00
  0.00000000E+00  0.00000000E+00  0.00000000E+00
  0.00000000E+00  0.00000000E+00  0.00000000E+00
  0.00000000E+00  0.00000000E+00  0.00000000E+00
  0.00000000E+00  0.00000000E+00  0.00000000E+00
  0.00000000E+00  0.00000000E+00  0.00000000E+00
  0.00000000E+00  0.00000000E+00  0.00000000E+00
  0.00000000E+00  0.00000000E+00  0.00000000E+00
  0.00000000E+00  0.00000000E+00  0.00000000E+00
  0.00000000E+00  0.00000000E+00  0.00000000E+00
  0.00000000E+00  0.00000000E+00  0.00000000E+00
  0.00000000E+00  0.00000000E+00  0.00000000E+00
  0.00000000E+00  0.00000000E+00  0.00000000E+00
  0.00000000E+00  0.00000000E+00  0.00000000E+00
  0.00000000E+00  0.00000000E+00  0.00000000E+00
  0.00000000E+00  0.00000000E+00  0.00000000E+00
  0.00000000E+00  0.00000000E+00  0.00000000E+00
  0.00000000E+00  0.00000000E+00  0.00000000E+00
  0.00000000E+00  0.00000000E+00  0.00000000E+00
  0.00000000E+00  0.00000000E+00  0.00000000E+00
  0.00000000E+00  0.00000000E+00  0.00000000E+00
  0.00000000E+00  0.00000000E+00  0.00000000E+00
  0.00000000E+00  0.00000000E+00  0.00000000E+00
  0.00000000E+00  0.00000000E+00  0.00000000E+00
  0.00000000E+00  0.00000000E+00  0.00000000E+00
  0.00000000E+00  0.00000000E+00  0.00000000E+00
  0.00000000E+00  0.00000000E+00  0.00000000E+00
  0.00000000E+00  0.00000000E+00  0.00000000E+00
  0.00000000E+00  0.00000000E+00  0.00000000E+00
  0.00000000E+00  0.00000000E+00  0.00000000E+00
  0.00000000E+00  0.00000000E+00  0.00000000E+00
  0.00000000E+00  0.00000000E+00  0.00000000E+00
  0.00000000E+00  0.00000000E+00  0.00000000E+00
  0.00000000E+00  0.00000000E+00  0.00000000E+00
  0.00000000E+00  0.00000000E+00  0.00000000E+00
  0.00000000E+00  0.00000000E+00  0.00000000E+00
  0.00000000E+00  0.00000000E+00  0.00000000E+00
  0.00000000E+00  0.00000000E+00  0.00000000E+00
  0.00000000E+00  0.00000000E+00  0.00000000E+00
  0.00000000E+00  0.00000000E+00  0.00000000E+00
  0.00000000E+00  0.00000000E+00  0.00000000E+00
  0.00000000E+00  0.00000000E+00  0.00000000E+00
  0.00000000E+00  0.00000000E+00  0.00000000E+00
