Al   Gd   N                             
   1.00000000000000     
    -9.9060029123337827   -0.0111153555170476    0.0293851118949702
    -4.9655197489994585    8.4724759980321220    0.0116923620381164
    -0.1376250795970684   -0.0010674879186703  -10.8087433241264890
   Al   Gd   N 
    28     8    36
Direct
  0.1252435064526054  0.0830187192760690  0.3954347690244475
  0.7702423637863802  0.0974656366287832  0.7932929982825598
  0.8958603802991760  0.2031648253785647  0.5677945238148823
  0.4424729498402371  0.1021233283531373  0.3368071270340778
  0.2314741544443919  0.2079381057676954  0.5656488518491045
  0.8743105230898607  0.2068605201274352  0.0390785857948970
  0.4442968606126385  0.1024483674145600  0.8000269657342329
  0.5473287237161628  0.2061681687290644  0.5665370614130296
  0.1015151727546026  0.4386878588117256  0.3341997448152156
  0.7763316437630507  0.4258246705755226  0.8176659012313721
  0.9050125004422398  0.5262904314060535  0.5857222469721250
  0.4416276804307984  0.4379843232430645  0.3161986357373365
  0.5478321042366403  0.5369573863582957  0.0441183166309571
  0.1176354174236067  0.4277574386523995  0.8121847765562151
  0.2194508377408440  0.5391720351791349  0.6206417609287840
  0.8825735459223978  0.5375281509859064  0.0422145952635447
  0.4428584156982467  0.4226623993181846  0.8053165648579395
  0.1238425421901184  0.7509321674933460  0.3915809672981396
  0.2087908350626151  0.8789500401009818  0.1188962752803562
  0.7779316217949912  0.7622835035170326  0.8573273140005639
  0.8950302061529669  0.8719999032194679  0.5781093313473349
  0.4363475892424447  0.7753143471656543  0.3916829111893350
  0.1203492931009080  0.7603681183680777  0.8676387061379174
  0.2314136443625188  0.8620629098424430  0.6281451193555299
  0.7779427928127802  0.7583181952695455  0.4178648636818636
  0.8874950276317080  0.8866663511826758  0.0295130369585124
  0.4384900231977298  0.7632401359439598  0.8719367556526905
  0.5550948973416325  0.8719362784178060  0.6332519434942796
  0.2097861653709288  0.2103846761564867  0.0869341852723124
  0.5538343352297375  0.2026976555716971  0.0505952404957242
  0.1059896937874925  0.1041383347755129  0.8271410443633869
  0.7832795356082798  0.0845362727361163  0.3173930566980872
  0.2008931856075762  0.5501141521453405  0.1070987016609024
  0.7939303215789266  0.4346798627222128  0.2962920333306300
  0.5657067835691407  0.5303387136561355  0.5804193415418624
  0.5737526445428287  0.8380449306574107  0.1433777526221007
  0.2240508101214687  0.2094767267370941  0.3855582489199207
  0.0907202893936017  0.0841437291274190  0.0574092711188925
  0.8492234771061575  0.2165545785938718  0.8656108574106725
  0.7779271079408403  0.0981187429811996  0.6133780559270505
  0.5301837693722220  0.2260119122968476  0.3900284755452788
  0.4487989858966728  0.0928196517870532  0.1633605049883968
  0.2457535568347211  0.2220597795069210  0.8753926240579375
  0.1216979616020382  0.0851434970445055  0.5886174117622716
  0.9086508111372780  0.2013287983883458  0.3918519330448262
  0.7976958860224954  0.0819073825753946  0.1069769451335958
  0.5575056679959900  0.2005337517374812  0.8400336874852385
  0.4425098228015472  0.0971267028240632  0.6210365815789771
  0.2199783506131467  0.5426979643469849  0.3339608866516670
  0.0395002468166012  0.4505645742583368  0.1628391945983765
  0.9008351816729956  0.5243165857236534  0.8626605104305511
  0.8180290606937461  0.4042830173772316  0.6419440093833870
  0.5397995764784298  0.5522536347065810  0.3700293442038571
  0.4623290924405836  0.4372004847739603  0.1365410792989792
  0.2214508144433225  0.5408531709328273  0.8424536285787525
  0.1185357782841763  0.4208982196581275  0.6320083809297756
  0.9049196172308598  0.5395410896923778  0.4114598921404493
  0.7645100275902763  0.4373554918818030  0.0794249531509763
  0.5526227931547893  0.5338150414132556  0.8541372415167814
  0.4322424910928078  0.4134179826190802  0.6303968699434819
  0.2223383745373866  0.8754054788435113  0.3197419094075471
  0.1008632353902073  0.7897640220629185  0.0464150144315170
  0.8906751557159680  0.8787575712177471  0.8428313982678972
  0.7776219654502654  0.7606630113036914  0.6012806241880071
  0.5687514206967847  0.8653267126577688  0.3577544554573464
  0.4175469268954828  0.7619027633107223  0.0495994685338061
  0.2397035341979645  0.8425270172466455  0.8010631793676666
  0.1266558013565344  0.7536344388478255  0.5745076298664245
  0.9032235739027783  0.8485155397022126  0.3976632886155116
  0.7958524223712260  0.7600406059218088  0.0387695431330854
  0.5533880729415088  0.8674408915875560  0.8162758103543979
  0.4316889330869458  0.7932225081962585  0.5678036260216004
 
  0.00000000E+00  0.00000000E+00  0.00000000E+00
  0.00000000E+00  0.00000000E+00  0.00000000E+00
  0.00000000E+00  0.00000000E+00  0.00000000E+00
  0.00000000E+00  0.00000000E+00  0.00000000E+00
  0.00000000E+00  0.00000000E+00  0.00000000E+00
  0.00000000E+00  0.00000000E+00  0.00000000E+00
  0.00000000E+00  0.00000000E+00  0.00000000E+00
  0.00000000E+00  0.00000000E+00  0.00000000E+00
  0.00000000E+00  0.00000000E+00  0.00000000E+00
  0.00000000E+00  0.00000000E+00  0.00000000E+00
  0.00000000E+00  0.00000000E+00  0.00000000E+00
  0.00000000E+00  0.00000000E+00  0.00000000E+00
  0.00000000E+00  0.00000000E+00  0.00000000E+00
  0.00000000E+00  0.00000000E+00  0.00000000E+00
  0.00000000E+00  0.00000000E+00  0.00000000E+00
  0.00000000E+00  0.00000000E+00  0.00000000E+00
  0.00000000E+00  0.00000000E+00  0.00000000E+00
  0.00000000E+00  0.00000000E+00  0.00000000E+00
  0.00000000E+00  0.00000000E+00  0.00000000E+00
  0.00000000E+00  0.00000000E+00  0.00000000E+00
  0.00000000E+00  0.00000000E+00  0.00000000E+00
  0.00000000E+00  0.00000000E+00  0.00000000E+00
  0.00000000E+00  0.00000000E+00  0.00000000E+00
  0.00000000E+00  0.00000000E+00  0.00000000E+00
  0.00000000E+00  0.00000000E+00  0.00000000E+00
  0.00000000E+00  0.00000000E+00  0.00000000E+00
  0.00000000E+00  0.00000000E+00  0.00000000E+00
  0.00000000E+00  0.00000000E+00  0.00000000E+00
  0.00000000E+00  0.00000000E+00  0.00000000E+00
  0.00000000E+00  0.00000000E+00  0.00000000E+00
  0.00000000E+00  0.00000000E+00  0.00000000E+00
  0.00000000E+00  0.00000000E+00  0.00000000E+00
  0.00000000E+00  0.00000000E+00  0.00000000E+00
  0.00000000E+00  0.00000000E+00  0.00000000E+00
  0.00000000E+00  0.00000000E+00  0.00000000E+00
  0.00000000E+00  0.00000000E+00  0.00000000E+00
  0.00000000E+00  0.00000000E+00  0.00000000E+00
  0.00000000E+00  0.00000000E+00  0.00000000E+00
  0.00000000E+00  0.00000000E+00  0.00000000E+00
  0.00000000E+00  0.00000000E+00  0.00000000E+00
  0.00000000E+00  0.00000000E+00  0.00000000E+00
  0.00000000E+00  0.00000000E+00  0.00000000E+00
  0.00000000E+00  0.00000000E+00  0.00000000E+00
  0.00000000E+00  0.00000000E+00  0.00000000E+00
  0.00000000E+00  0.00000000E+00  0.00000000E+00
  0.00000000E+00  0.00000000E+00  0.00000000E+00
  0.00000000E+00  0.00000000E+00  0.00000000E+00
  0.00000000E+00  0.00000000E+00  0.00000000E+00
  0.00000000E+00  0.00000000E+00  0.00000000E+00
  0.00000000E+00  0.00000000E+00  0.00000000E+00
  0.00000000E+00  0.00000000E+00  0.00000000E+00
  0.00000000E+00  0.00000000E+00  0.00000000E+00
  0.00000000E+00  0.00000000E+00  0.00000000E+00
  0.00000000E+00  0.00000000E+00  0.00000000E+00
  0.00000000E+00  0.00000000E+00  0.00000000E+00
  0.00000000E+00  0.00000000E+00  0.00000000E+00
  0.00000000E+00  0.00000000E+00  0.00000000E+00
  0.00000000E+00  0.00000000E+00  0.00000000E+00
  0.00000000E+00  0.00000000E+00  0.00000000E+00
  0.00000000E+00  0.00000000E+00  0.00000000E+00
  0.00000000E+00  0.00000000E+00  0.00000000E+00
  0.00000000E+00  0.00000000E+00  0.00000000E+00
  0.00000000E+00  0.00000000E+00  0.00000000E+00
  0.00000000E+00  0.00000000E+00  0.00000000E+00
  0.00000000E+00  0.00000000E+00  0.00000000E+00
  0.00000000E+00  0.00000000E+00  0.00000000E+00
  0.00000000E+00  0.00000000E+00  0.00000000E+00
  0.00000000E+00  0.00000000E+00  0.00000000E+00
  0.00000000E+00  0.00000000E+00  0.00000000E+00
  0.00000000E+00  0.00000000E+00  0.00000000E+00
  0.00000000E+00  0.00000000E+00  0.00000000E+00
  0.00000000E+00  0.00000000E+00  0.00000000E+00
