supercell of icsd_181358.cif            
   1.00000000000000     
    11.0840747206560213    0.0645681370494266   -0.0172180490808503
    -5.4925463486689061    8.9970065535868304   -0.1789862584676763
    -0.0113160137613963   -0.2266088923967201   10.8594597112991433
   N    Ga   La
    36    22    14
Direct
  0.1744156463525357  0.1053380171186262  0.4343769734105933
  0.0427751131364076  0.0946387120844392  0.1847337799985667
  0.8687202963368748  0.0664463878633583  0.9327836359234070
  0.8039107099589273  0.2743167855157864  0.6536385840133505
  0.6156808628766015  0.1707050789126825  0.4285334625414166
  0.4087322218899132  0.2349722899244924  0.2361499044311159
  0.1663540153828293  0.0462250393876502  0.9435031882071598
  0.1233193713219620  0.2594635902717002  0.6600513703098372
  0.9038328817699579  0.1365551245971872  0.4373684024597537
  0.8569219377567379  0.2477007773190749  0.1749559375368008
  0.4998998338669551  0.1020941970904801  0.9916293773893798
  0.4851865790828072  0.2822259637387106  0.7115661576518804
  0.2262309695420228  0.4482412707074630  0.4219868318630304
  0.1265247076288816  0.5609025653371944  0.1834777222968711
  0.9410114299436074  0.4169102213592950  0.9238623011815434
  0.8608869286587435  0.5819262862224903  0.7464851110678268
  0.5247540613681139  0.4492512944838580  0.4767729601247268
  0.4194329469821128  0.5711359533451272  0.1671642006999576
  0.2435534481406876  0.4850515291469151  0.9170593148015627
  0.1215594629344068  0.5451606542149534  0.6670465599726114
  0.9331015524931985  0.4569190673987791  0.4212852029676526
  0.7844778293110934  0.5030700339687399  0.1862237518696972
  0.5396887450915742  0.4943761952890497  0.9334917789089019
  0.4235499578976203  0.5703400026877716  0.6858487019087107
  0.2380707255277770  0.7561505815034621  0.4345080055809163
  0.1439804222489940  0.8838435758065017  0.2139812870228610
  0.9164551365304945  0.7905597285176853  0.0026588761478195
  0.7237247106856231  0.8378858738665400  0.6730454383396562
  0.5453970260344079  0.7272757205579836  0.4115192004593311
  0.4357081610611928  0.8782420302864793  0.2048722949261688
  0.2203321298426530  0.7694511869375305  0.9710576850281782
  0.1297123243712264  0.9100988250631161  0.6724295235924984
  0.8266703438543956  0.7167960423329305  0.4397801428556107
  0.7274268903497756  0.9010027580647915  0.1842567851226278
  0.5305936508162290  0.7975698034300862  0.9366270285280649
  0.4828417485866723  0.9179781634396775  0.6958995648243942
  0.2024387316621485  0.0969156478116986  0.2606688278218527
  0.0082606871484217  0.0363752437224250  0.0180037064080523
  0.8168131477841811  0.2521181460901900  0.4707662072830132
  0.1091496438421160  0.2378389328883515  0.4777139748641659
  0.8906397684038510  0.1069621794658957  0.2590263362524539
  0.8983168902131879  0.2493726382885484  0.0090156852051493
  0.2486502740880709  0.5033761982315141  0.2525113542961108
  0.1376001681874683  0.5568861255025013  0.9998115244035972
  0.9403580444781880  0.4533058826043472  0.7461737552128582
  0.4291516718212165  0.5833971270537219  0.9868871603755238
  0.2212641550742447  0.4593943555417042  0.7405257574563890
  0.1237436453106611  0.5490696697792714  0.4873061156168603
  0.9257085548024264  0.4551775963302447  0.2429348822838548
  0.5065804700423300  0.4659245559693517  0.7620636846516433
  0.4161337764223632  0.5413314442858237  0.5035362431745156
  0.2369079444472391  0.7746109287764966  0.2524094322463100
  0.1254551806093147  0.8657004444680467  0.0323956704655615
  0.7098666113788852  0.7739406655609642  0.5068694084460503
  0.5350448889168433  0.7752602891493936  0.2373077153469580
  0.4198399325535718  0.8898163759103355  0.0201413249397930
  0.7085376030996215  0.9136151216895456  0.0145060925302687
  0.5436472462621609  0.7842229384155459  0.7491766096251524
  0.8812328782846635  0.1134377613092212  0.6849484359719327
  0.6025212187739584  0.1576362351519549  0.2067846325008915
  0.3870149218327725  0.2415754339462168  0.0235555141281267
  0.2311873760216301  0.1455657031297974  0.7448959011473306
  0.5939855273743007  0.1581435979811587  0.7821576630969389
  0.4192668478039963  0.2042829786561668  0.4800323987742061
  0.7566602203566291  0.4862442174251385  0.5462440719014694
  0.5728032777681733  0.4990995673581224  0.2741990272328749
  0.7817095430777101  0.5237465959400396  0.9714097013290868
  0.9117158916226344  0.8151538043289506  0.7791913306613765
  0.2384285585952739  0.7868611740325093  0.7510878122437106
  0.0799719242470616  0.8488320035693917  0.4685604531704044
  0.8878621574146663  0.7968119494817643  0.2224114289752706
  0.4860958406439551  0.9071751423609982  0.4781391159957593
 
  0.00000000E+00  0.00000000E+00  0.00000000E+00
  0.00000000E+00  0.00000000E+00  0.00000000E+00
  0.00000000E+00  0.00000000E+00  0.00000000E+00
  0.00000000E+00  0.00000000E+00  0.00000000E+00
  0.00000000E+00  0.00000000E+00  0.00000000E+00
  0.00000000E+00  0.00000000E+00  0.00000000E+00
  0.00000000E+00  0.00000000E+00  0.00000000E+00
  0.00000000E+00  0.00000000E+00  0.00000000E+00
  0.00000000E+00  0.00000000E+00  0.00000000E+00
  0.00000000E+00  0.00000000E+00  0.00000000E+00
  0.00000000E+00  0.00000000E+00  0.00000000E+00
  0.00000000E+00  0.00000000E+00  0.00000000E+00
  0.00000000E+00  0.00000000E+00  0.00000000E+00
  0.00000000E+00  0.00000000E+00  0.00000000E+00
  0.00000000E+00  0.00000000E+00  0.00000000E+00
  0.00000000E+00  0.00000000E+00  0.00000000E+00
  0.00000000E+00  0.00000000E+00  0.00000000E+00
  0.00000000E+00  0.00000000E+00  0.00000000E+00
  0.00000000E+00  0.00000000E+00  0.00000000E+00
  0.00000000E+00  0.00000000E+00  0.00000000E+00
  0.00000000E+00  0.00000000E+00  0.00000000E+00
  0.00000000E+00  0.00000000E+00  0.00000000E+00
  0.00000000E+00  0.00000000E+00  0.00000000E+00
  0.00000000E+00  0.00000000E+00  0.00000000E+00
  0.00000000E+00  0.00000000E+00  0.00000000E+00
  0.00000000E+00  0.00000000E+00  0.00000000E+00
  0.00000000E+00  0.00000000E+00  0.00000000E+00
  0.00000000E+00  0.00000000E+00  0.00000000E+00
  0.00000000E+00  0.00000000E+00  0.00000000E+00
  0.00000000E+00  0.00000000E+00  0.00000000E+00
  0.00000000E+00  0.00000000E+00  0.00000000E+00
  0.00000000E+00  0.00000000E+00  0.00000000E+00
  0.00000000E+00  0.00000000E+00  0.00000000E+00
  0.00000000E+00  0.00000000E+00  0.00000000E+00
  0.00000000E+00  0.00000000E+00  0.00000000E+00
  0.00000000E+00  0.00000000E+00  0.00000000E+00
  0.00000000E+00  0.00000000E+00  0.00000000E+00
  0.00000000E+00  0.00000000E+00  0.00000000E+00
  0.00000000E+00  0.00000000E+00  0.00000000E+00
  0.00000000E+00  0.00000000E+00  0.00000000E+00
  0.00000000E+00  0.00000000E+00  0.00000000E+00
  0.00000000E+00  0.00000000E+00  0.00000000E+00
  0.00000000E+00  0.00000000E+00  0.00000000E+00
  0.00000000E+00  0.00000000E+00  0.00000000E+00
  0.00000000E+00  0.00000000E+00  0.00000000E+00
  0.00000000E+00  0.00000000E+00  0.00000000E+00
  0.00000000E+00  0.00000000E+00  0.00000000E+00
  0.00000000E+00  0.00000000E+00  0.00000000E+00
  0.00000000E+00  0.00000000E+00  0.00000000E+00
  0.00000000E+00  0.00000000E+00  0.00000000E+00
  0.00000000E+00  0.00000000E+00  0.00000000E+00
  0.00000000E+00  0.00000000E+00  0.00000000E+00
  0.00000000E+00  0.00000000E+00  0.00000000E+00
  0.00000000E+00  0.00000000E+00  0.00000000E+00
  0.00000000E+00  0.00000000E+00  0.00000000E+00
  0.00000000E+00  0.00000000E+00  0.00000000E+00
  0.00000000E+00  0.00000000E+00  0.00000000E+00
  0.00000000E+00  0.00000000E+00  0.00000000E+00
  0.00000000E+00  0.00000000E+00  0.00000000E+00
  0.00000000E+00  0.00000000E+00  0.00000000E+00
  0.00000000E+00  0.00000000E+00  0.00000000E+00
  0.00000000E+00  0.00000000E+00  0.00000000E+00
  0.00000000E+00  0.00000000E+00  0.00000000E+00
  0.00000000E+00  0.00000000E+00  0.00000000E+00
  0.00000000E+00  0.00000000E+00  0.00000000E+00
  0.00000000E+00  0.00000000E+00  0.00000000E+00
  0.00000000E+00  0.00000000E+00  0.00000000E+00
  0.00000000E+00  0.00000000E+00  0.00000000E+00
  0.00000000E+00  0.00000000E+00  0.00000000E+00
  0.00000000E+00  0.00000000E+00  0.00000000E+00
  0.00000000E+00  0.00000000E+00  0.00000000E+00
  0.00000000E+00  0.00000000E+00  0.00000000E+00
