supercell of icsd_608626.cif            
  0.966543952599769     
     9.2921486663709434   -0.0223522392779379   -0.0109585053850260
    -4.6653944667101150    8.1232981422894284    0.0494399049775793
    -0.0119535007969065    0.0551266838233646    9.8521448492131913
   Al   B    N 
    28     8    36
Direct
  0.2361617330062913  0.1218759678614774  0.2482959282807471
  0.1124231368637822  0.2259246812249316  0.4960761189970881
  0.7706057736894891  0.2200810749083075  0.9985788113871692
  0.2267144082097303  0.1127943560643416  0.7500816530940924
  0.1142303704034546  0.2275298811536643  0.9970000952877029
  0.8832440106987391  0.1108819259105545  0.2481055306021105
  0.7748786033625521  0.2232870433395036  0.4968546123980104
  0.5564389185863092  0.1086307995708324  0.7480323492769330
  0.1159745664179397  0.5611911516447563  0.4782422167022276
  0.8998311210713439  0.4424745965640113  0.7533854370367052
  0.7792576216726843  0.5502479914097975  0.9990506611176926
  0.5486387008104572  0.4356453615039868  0.2467353577400928
  0.4417707277877554  0.5534433654413604  0.4964096156042785
  0.2196464662274877  0.4473221127067148  0.7487008781990525
  0.8906402103216919  0.4383741145410767  0.2395286960716518
  0.7732260511064268  0.5487929545937575  0.4998915297431950
  0.5528918042026021  0.4397141368288260  0.7487341544052697
  0.4348125183786777  0.5497718042113604  0.9956798252285282
  0.1187195490258404  0.8975670168276935  0.4993274489901935
  0.8885890762963058  0.7804167783414755  0.7502220237556116
  0.7761573382444240  0.8892263528805273  0.9872573007218293
  0.5428874977542719  0.7757531188616085  0.2486257569897674
  0.4501239043562606  0.8975847640831063  0.4957172192939581
  0.2255623147104941  0.7674385211258823  0.7563088149877260
  0.1198714388945206  0.8825365654397004  0.0050039565903788
  0.8903984400395473  0.7782285001834452  0.2521424616812951
  0.7737515108522572  0.8918583229780239  0.5107335694903057
  0.4354843632144991  0.8880181849978186  0.0037870961651407
  0.8823140438964714  0.1105442135342329  0.7566048851725782
  0.5504764028023530  0.1199639720291685  0.2502294891804198
  0.4444944376984452  0.2249051538814442  0.4966199268821043
  0.4471667294215678  0.2170709139731386  0.0047233805935463
  0.2176842230095986  0.4425365858993473  0.2419078626118676
  0.1137843200765190  0.5425561947461262  0.0124771777697816
  0.2529328082150997  0.8372662911119448  0.2671902617405451
  0.5578681308104692  0.7867135150369506  0.7563385755883232
  0.2474417681888923  0.1282226710692242  0.4467814975803321
  0.1188995744943497  0.2355160437329573  0.1950413190908975
  0.8879153018405432  0.1129939336510546  0.9240539465385211
  0.7892641982606818  0.2107048142112831  0.6993077549708033
  0.5437681989840897  0.1275137123061825  0.4286568812514275
  0.4584077646368314  0.2132590004848041  0.1770698895471696
  0.2471880999138634  0.1202966175724498  0.9516594512685543
  0.0893599044785915  0.2095900771081389  0.6985625994634148
  0.8861688689747140  0.1093537116468255  0.4407553092490417
  0.7432109563199347  0.2017766404186006  0.1968691578723636
  0.5382562238236517  0.1194125338358560  0.9426978643185180
  0.4475600198267173  0.2210251469582545  0.6660778715656974
  0.2216555659356274  0.4450841339158487  0.4161027510965667
  0.1140238299065928  0.5210868310619858  0.1759912347662791
  0.9122902304699352  0.4513871069234838  0.9532234733519545
  0.7803176635945377  0.5522755035817966  0.6975472306008896
  0.5411659514395879  0.4209707571702879  0.4463370585993545
  0.4204362331665479  0.5439987593165156  0.1936889622505618
  0.2083791110930449  0.4530012489027797  0.9414684205731376
  0.1156890748366735  0.5584609775781004  0.6741766553851036
  0.8887828062061587  0.4448912601686743  0.4355708854892342
  0.7772870520965540  0.5570403032125810  0.1936516158204000
  0.5408567737480467  0.4158759003729102  0.9486368950348165
  0.4582875715960810  0.5784799331035799  0.6985580957916895
  0.2292144063620682  0.7901616704744256  0.4193769385372335
  0.1291526386978887  0.8858092349468194  0.2048655149883416
  0.8936821398665344  0.7784124176728042  0.9451762048601893
  0.7663101096718421  0.8998747488126000  0.7095847719242983
  0.5554715413724907  0.7786055662770366  0.4403189675462613
  0.4333223426877311  0.9085718139666596  0.2062443517777410
  0.2089893259235538  0.7453231268412992  0.9530349033915329
  0.1188298281666391  0.8883032533692585  0.6950874810394367
  0.8876354069734447  0.7804134250422479  0.4498364395558738
  0.7733979466442378  0.8874759265781549  0.1843057898319245
  0.5504322214362176  0.7776779587902993  0.9259736534468246
  0.4572960762287721  0.8789849535133527  0.6971074822457268
 
  0.00000000E+00  0.00000000E+00  0.00000000E+00
  0.00000000E+00  0.00000000E+00  0.00000000E+00
  0.00000000E+00  0.00000000E+00  0.00000000E+00
  0.00000000E+00  0.00000000E+00  0.00000000E+00
  0.00000000E+00  0.00000000E+00  0.00000000E+00
  0.00000000E+00  0.00000000E+00  0.00000000E+00
  0.00000000E+00  0.00000000E+00  0.00000000E+00
  0.00000000E+00  0.00000000E+00  0.00000000E+00
  0.00000000E+00  0.00000000E+00  0.00000000E+00
  0.00000000E+00  0.00000000E+00  0.00000000E+00
  0.00000000E+00  0.00000000E+00  0.00000000E+00
  0.00000000E+00  0.00000000E+00  0.00000000E+00
  0.00000000E+00  0.00000000E+00  0.00000000E+00
  0.00000000E+00  0.00000000E+00  0.00000000E+00
  0.00000000E+00  0.00000000E+00  0.00000000E+00
  0.00000000E+00  0.00000000E+00  0.00000000E+00
  0.00000000E+00  0.00000000E+00  0.00000000E+00
  0.00000000E+00  0.00000000E+00  0.00000000E+00
  0.00000000E+00  0.00000000E+00  0.00000000E+00
  0.00000000E+00  0.00000000E+00  0.00000000E+00
  0.00000000E+00  0.00000000E+00  0.00000000E+00
  0.00000000E+00  0.00000000E+00  0.00000000E+00
  0.00000000E+00  0.00000000E+00  0.00000000E+00
  0.00000000E+00  0.00000000E+00  0.00000000E+00
  0.00000000E+00  0.00000000E+00  0.00000000E+00
  0.00000000E+00  0.00000000E+00  0.00000000E+00
  0.00000000E+00  0.00000000E+00  0.00000000E+00
  0.00000000E+00  0.00000000E+00  0.00000000E+00
  0.00000000E+00  0.00000000E+00  0.00000000E+00
  0.00000000E+00  0.00000000E+00  0.00000000E+00
  0.00000000E+00  0.00000000E+00  0.00000000E+00
  0.00000000E+00  0.00000000E+00  0.00000000E+00
  0.00000000E+00  0.00000000E+00  0.00000000E+00
  0.00000000E+00  0.00000000E+00  0.00000000E+00
  0.00000000E+00  0.00000000E+00  0.00000000E+00
  0.00000000E+00  0.00000000E+00  0.00000000E+00
  0.00000000E+00  0.00000000E+00  0.00000000E+00
  0.00000000E+00  0.00000000E+00  0.00000000E+00
  0.00000000E+00  0.00000000E+00  0.00000000E+00
  0.00000000E+00  0.00000000E+00  0.00000000E+00
  0.00000000E+00  0.00000000E+00  0.00000000E+00
  0.00000000E+00  0.00000000E+00  0.00000000E+00
  0.00000000E+00  0.00000000E+00  0.00000000E+00
  0.00000000E+00  0.00000000E+00  0.00000000E+00
  0.00000000E+00  0.00000000E+00  0.00000000E+00
  0.00000000E+00  0.00000000E+00  0.00000000E+00
  0.00000000E+00  0.00000000E+00  0.00000000E+00
  0.00000000E+00  0.00000000E+00  0.00000000E+00
  0.00000000E+00  0.00000000E+00  0.00000000E+00
  0.00000000E+00  0.00000000E+00  0.00000000E+00
  0.00000000E+00  0.00000000E+00  0.00000000E+00
  0.00000000E+00  0.00000000E+00  0.00000000E+00
  0.00000000E+00  0.00000000E+00  0.00000000E+00
  0.00000000E+00  0.00000000E+00  0.00000000E+00
  0.00000000E+00  0.00000000E+00  0.00000000E+00
  0.00000000E+00  0.00000000E+00  0.00000000E+00
  0.00000000E+00  0.00000000E+00  0.00000000E+00
  0.00000000E+00  0.00000000E+00  0.00000000E+00
  0.00000000E+00  0.00000000E+00  0.00000000E+00
  0.00000000E+00  0.00000000E+00  0.00000000E+00
  0.00000000E+00  0.00000000E+00  0.00000000E+00
  0.00000000E+00  0.00000000E+00  0.00000000E+00
  0.00000000E+00  0.00000000E+00  0.00000000E+00
  0.00000000E+00  0.00000000E+00  0.00000000E+00
  0.00000000E+00  0.00000000E+00  0.00000000E+00
  0.00000000E+00  0.00000000E+00  0.00000000E+00
  0.00000000E+00  0.00000000E+00  0.00000000E+00
  0.00000000E+00  0.00000000E+00  0.00000000E+00
  0.00000000E+00  0.00000000E+00  0.00000000E+00
  0.00000000E+00  0.00000000E+00  0.00000000E+00
  0.00000000E+00  0.00000000E+00  0.00000000E+00
  0.00000000E+00  0.00000000E+00  0.00000000E+00
