supercell of icsd_181358.cif            
   1.00000000000000     
    10.2966190686660575   -0.0247437212640871    0.0140562145089351
    -5.1697124726588370    8.9444499820994725    0.0054680181355264
     0.0143511640195880    0.0151500891808404   10.7263822254154899
   N    Ga   Y 
    36    22    14
Direct
  0.2103978688235841  0.1071755842992346  0.4211716846174838
  0.1503597232545886  0.2428462648181267  0.1824328709610583
  0.8902188221042806  0.1122705172042515  0.9862196727267900
  0.7983862936069670  0.2458906378370216  0.6749617699252397
  0.5643717284566705  0.0890318179783733  0.4496261684237410
  0.4537464333511494  0.2258450026922958  0.2291426109027341
  0.2027912461075161  0.0984599449215295  0.9438805020875591
  0.1219533843183953  0.2262743680687862  0.7135621660224487
  0.8860698775025782  0.1306925996267552  0.4294635253025305
  0.7589666770987193  0.2363732441351161  0.1836012972582424
  0.5741339563851042  0.1238045854857717  0.9308027660527856
  0.4176168421158764  0.2118769679810342  0.6782683191527283
  0.2422300779394675  0.4562641250626100  0.4320974946320462
  0.1057744615127376  0.5507438559603770  0.2147824134812737
  0.8632148626936598  0.4345200968483596  0.9319823392461188
  0.7973517655117988  0.5519009792581500  0.6722713167472847
  0.5665562183436634  0.4794406981699808  0.4463150909649301
  0.4493520119560444  0.5607057290709108  0.2037651184911624
  0.2133337775683373  0.4263215813711412  0.9349444803533089
  0.1080563685098497  0.5546431612237797  0.7093279874964864
  0.8488976315154346  0.4242893103943643  0.4274270204016517
  0.7745987905670759  0.5534196133519131  0.1882028036757291
  0.5751661462863566  0.4509662169619091  0.9383501588238730
  0.4265216488806658  0.5645020636988747  0.6861214407992762
  0.2433980423948796  0.7831660640266094  0.4291607733466307
  0.1169161855518510  0.8897156380932998  0.1914299396806243
  0.8901474544498029  0.7752250345136957  0.9698688594653504
  0.7618424100605949  0.8812355841965314  0.6849905120209883
  0.5328290596947838  0.7666049065298495  0.4357216044753898
  0.4506306576007333  0.8910370300228081  0.2021135449211542
  0.2132597339286164  0.7889556692880078  0.9377180273138777
  0.1294976424344867  0.8977877531267140  0.7043309326945888
  0.8871164515050367  0.7532196142963556  0.4237663485551622
  0.7645878457224526  0.8640513275394639  0.2011446924063094
  0.5868699807859770  0.7919800340913667  0.9257462948833535
  0.4270360077683506  0.8605122823846116  0.6865762285967492
  0.2245339437895453  0.1122538235917716  0.2461402370132717
  0.1191276643350037  0.2223507752832177  0.9996030143718002
  0.7787349009839204  0.2233342518598462  0.4929806395746681
  0.5595290026571433  0.1050220892807729  0.2616410878337234
  0.2217364885734554  0.1097093029024805  0.7586432710953730
  0.7687377820819350  0.2317220002349742  0.0032155502969502
  0.2358399701401197  0.4486182268503782  0.2533656527980881
  0.8894578095004988  0.4452999836719513  0.7452370352605300
  0.7780857273474879  0.5536816935956779  0.4913882246418950
  0.5648568523747244  0.4642567004064162  0.2605594569395038
  0.2186147010329975  0.4451011373881997  0.7531201243325398
  0.8693719344233273  0.4399250492953968  0.2502257902030109
  0.7756925244524950  0.5525348621477448  0.0048969329453286
  0.4411975541681983  0.5661599661980929  0.4983375155909613
  0.2293464878453477  0.7803927987449129  0.2511423311368759
  0.1079596841818002  0.8891883806941863  0.0057387593587706
  0.5465343500656630  0.7706899481667691  0.2565290315871209
  0.2198698089489497  0.7747279957728068  0.7535031202003779
  0.8884770759110125  0.7658262184597149  0.2423524716383909
  0.7797102566523790  0.8801756453312279  0.0141523789653561
  0.5513940793583174  0.7749424631898449  0.7403215151994615
  0.4414616362415202  0.8749139625545439  0.4973077006879336
  0.8835312136850177  0.1116319798399275  0.7698010358083920
  0.4461651040496406  0.2222523622844292  0.0121506952427737
  0.1151927913207729  0.2293079122150630  0.5047183100230086
  0.8956142394062780  0.1222034305112913  0.2181253147589075
  0.5532951906877130  0.1079664976622610  0.7219696893453644
  0.4510689083446948  0.2282527668286676  0.4649399794079798
  0.0974131817378350  0.5490284781651482  0.9981660739085854
  0.4521595203467257  0.5595812320895988  0.9959871804011513
  0.0986645742072483  0.5483983449167624  0.4851801973683010
  0.5557921447840570  0.4481514427438711  0.7286487129991883
  0.8909796369137979  0.7758522506284962  0.7593040355238756
  0.7729752058845989  0.8854863812148182  0.4744222127089799
  0.4544617346562987  0.8932510565753660  0.9930602269665911
  0.1182182326013219  0.8860586841733848  0.4958357169583536
 
  0.00000000E+00  0.00000000E+00  0.00000000E+00
  0.00000000E+00  0.00000000E+00  0.00000000E+00
  0.00000000E+00  0.00000000E+00  0.00000000E+00
  0.00000000E+00  0.00000000E+00  0.00000000E+00
  0.00000000E+00  0.00000000E+00  0.00000000E+00
  0.00000000E+00  0.00000000E+00  0.00000000E+00
  0.00000000E+00  0.00000000E+00  0.00000000E+00
  0.00000000E+00  0.00000000E+00  0.00000000E+00
  0.00000000E+00  0.00000000E+00  0.00000000E+00
  0.00000000E+00  0.00000000E+00  0.00000000E+00
  0.00000000E+00  0.00000000E+00  0.00000000E+00
  0.00000000E+00  0.00000000E+00  0.00000000E+00
  0.00000000E+00  0.00000000E+00  0.00000000E+00
  0.00000000E+00  0.00000000E+00  0.00000000E+00
  0.00000000E+00  0.00000000E+00  0.00000000E+00
  0.00000000E+00  0.00000000E+00  0.00000000E+00
  0.00000000E+00  0.00000000E+00  0.00000000E+00
  0.00000000E+00  0.00000000E+00  0.00000000E+00
  0.00000000E+00  0.00000000E+00  0.00000000E+00
  0.00000000E+00  0.00000000E+00  0.00000000E+00
  0.00000000E+00  0.00000000E+00  0.00000000E+00
  0.00000000E+00  0.00000000E+00  0.00000000E+00
  0.00000000E+00  0.00000000E+00  0.00000000E+00
  0.00000000E+00  0.00000000E+00  0.00000000E+00
  0.00000000E+00  0.00000000E+00  0.00000000E+00
  0.00000000E+00  0.00000000E+00  0.00000000E+00
  0.00000000E+00  0.00000000E+00  0.00000000E+00
  0.00000000E+00  0.00000000E+00  0.00000000E+00
  0.00000000E+00  0.00000000E+00  0.00000000E+00
  0.00000000E+00  0.00000000E+00  0.00000000E+00
  0.00000000E+00  0.00000000E+00  0.00000000E+00
  0.00000000E+00  0.00000000E+00  0.00000000E+00
  0.00000000E+00  0.00000000E+00  0.00000000E+00
  0.00000000E+00  0.00000000E+00  0.00000000E+00
  0.00000000E+00  0.00000000E+00  0.00000000E+00
  0.00000000E+00  0.00000000E+00  0.00000000E+00
  0.00000000E+00  0.00000000E+00  0.00000000E+00
  0.00000000E+00  0.00000000E+00  0.00000000E+00
  0.00000000E+00  0.00000000E+00  0.00000000E+00
  0.00000000E+00  0.00000000E+00  0.00000000E+00
  0.00000000E+00  0.00000000E+00  0.00000000E+00
  0.00000000E+00  0.00000000E+00  0.00000000E+00
  0.00000000E+00  0.00000000E+00  0.00000000E+00
  0.00000000E+00  0.00000000E+00  0.00000000E+00
  0.00000000E+00  0.00000000E+00  0.00000000E+00
  0.00000000E+00  0.00000000E+00  0.00000000E+00
  0.00000000E+00  0.00000000E+00  0.00000000E+00
  0.00000000E+00  0.00000000E+00  0.00000000E+00
  0.00000000E+00  0.00000000E+00  0.00000000E+00
  0.00000000E+00  0.00000000E+00  0.00000000E+00
  0.00000000E+00  0.00000000E+00  0.00000000E+00
  0.00000000E+00  0.00000000E+00  0.00000000E+00
  0.00000000E+00  0.00000000E+00  0.00000000E+00
  0.00000000E+00  0.00000000E+00  0.00000000E+00
  0.00000000E+00  0.00000000E+00  0.00000000E+00
  0.00000000E+00  0.00000000E+00  0.00000000E+00
  0.00000000E+00  0.00000000E+00  0.00000000E+00
  0.00000000E+00  0.00000000E+00  0.00000000E+00
  0.00000000E+00  0.00000000E+00  0.00000000E+00
  0.00000000E+00  0.00000000E+00  0.00000000E+00
  0.00000000E+00  0.00000000E+00  0.00000000E+00
  0.00000000E+00  0.00000000E+00  0.00000000E+00
  0.00000000E+00  0.00000000E+00  0.00000000E+00
  0.00000000E+00  0.00000000E+00  0.00000000E+00
  0.00000000E+00  0.00000000E+00  0.00000000E+00
  0.00000000E+00  0.00000000E+00  0.00000000E+00
  0.00000000E+00  0.00000000E+00  0.00000000E+00
  0.00000000E+00  0.00000000E+00  0.00000000E+00
  0.00000000E+00  0.00000000E+00  0.00000000E+00
  0.00000000E+00  0.00000000E+00  0.00000000E+00
  0.00000000E+00  0.00000000E+00  0.00000000E+00
  0.00000000E+00  0.00000000E+00  0.00000000E+00
