supercell of icsd_191774.cif            
   1.00000000000000     
     9.9729396914820594   -0.2532043911181086   -0.1672337679692049
    -5.2028735249643630    9.0097960449486969    0.2058484570929411
    -0.2015475060314144    0.1742070628052768   10.3310586138535800
   N    In   B 
    36    26    10
Direct
  0.2017749610149480  0.1118134895706007  0.4089072564858185
  0.1273271787227657  0.2765155742320005  0.1782432112249950
  0.9646488952910559  0.1818094713187364  0.9615162361363048
  0.7630191649685543  0.2330135181873061  0.6476816960554146
  0.6038448497971487  0.1599549400681752  0.4102902204246561
  0.4844458218944823  0.1983150114264021  0.1807761159073209
  0.2807563336008130  0.0990359264485861  0.9864171845463545
  0.1038293828133234  0.2079934973822333  0.6840424205145794
  0.8728368344812409  0.1685786937569489  0.4622025396901748
  0.7455637937151778  0.2163949225503998  0.2006075644086849
  0.5429618145682511  0.1006035445984210  0.9570738676597230
  0.4239039782129126  0.2071070168930049  0.6806595381671272
  0.2256281541258218  0.4656636599337745  0.3774554133982377
  0.1107722016479471  0.5158479490575516  0.1578603063821333
  0.9349006111240570  0.4696542200698843  0.9525641599922068
  0.7924826670315923  0.5907537209448037  0.7229306719916337
  0.5470824436294137  0.4461182428935047  0.4085690365029606
  0.3911703910834490  0.5420925756257944  0.1687655944200799
  0.2399087744893151  0.4277927104795936  0.9689927856230725
  0.1237179771811583  0.5518471993902594  0.6743446004750240
  0.8692646275518783  0.4252989774238287  0.4499443912529841
  0.7862324538835921  0.5754174293403054  0.1781258589274159
  0.5505879547876873  0.3618300555063954  0.9718938834191064
  0.4280008697193409  0.5306959520457468  0.6890592005691119
  0.2267070307205827  0.8051084978409122  0.4262826804136495
  0.1350437467650139  0.8688392665361278  0.2135507577406486
  0.8872326691277976  0.7914739725040505  0.9016371530535210
  0.7831637663454671  0.8400722874660005  0.6698849803058664
  0.6081250578325594  0.7944772370356716  0.4587509809114394
  0.3991022179873909  0.8598353105370080  0.2391715686543350
  0.1949228342128393  0.7145638890677617  0.9612853863348931
  0.0721758774799639  0.8651313313304527  0.7146331137916775
  0.8579817706433417  0.7803606879764757  0.4606780833053534
  0.7882535250574705  0.9089958707367884  0.1853564263365257
  0.4965829930128365  0.7102999744794189  0.9676169777593060
  0.4545231830197594  0.8843116182654498  0.6857346673861358
  0.2333397364998007  0.1201070479303183  0.2009726313402993
  0.1247407937516698  0.2499827479901953  0.4780404706886401
  0.8587753607863959  0.0855970092458307  0.6614858693882724
  0.7891851101765255  0.2359634452873607  0.0020438688752975
  0.4418885971710509  0.2211074819437187  0.4772312678966699
  0.2075873391868583  0.1004105827788138  0.7845732669416776
  0.8855765894091761  0.1279525188688666  0.2640935578421093
  0.5460605490329087  0.1053282607632511  0.7501915411582587
  0.1214016906135029  0.5676794591737533  0.4721597367106014
  0.8952730991377891  0.4471694646486455  0.7420282401010354
  0.7837228674680929  0.5591078303908361  0.9744341965313836
  0.5373459306618074  0.4354026759603329  0.1944211174567556
  0.4414249445112972  0.5518344103115709  0.4872512311441781
  0.2000815363143502  0.4181584340954672  0.7709143779937406
  0.8947199635600356  0.4530997813578850  0.2421931283053311
  0.7641751885288457  0.5458504287335302  0.5099713592229662
  0.5334329060527523  0.4185929376324964  0.7738650309913666
  0.1042670093937019  0.9023147248907293  0.5106670397097517
  0.8453845896163941  0.9448830574602241  0.9892606567139950
  0.5474329486862146  0.7624517375857991  0.2484357909113655
  0.4843042202522128  0.9187471259977755  0.4728209246536608
  0.2156993603617963  0.7621677475687036  0.7543226647830963
  0.1172195576516231  0.8601908804703839  0.0066440984402973
  0.8930729435664233  0.7854491880732581  0.2601975722961143
  0.5468913143649488  0.7484277948967133  0.7635072913884002
  0.4289200630408416  0.8691701653646930  0.0318804276063815
  0.6008538443949263  0.1803109862601389  0.2619545365798217
  0.1116860009816634  0.2924176350802696  0.0351191201595142
  0.7823204516911417  0.2508037879924601  0.4883801888689021
  0.4690267313504179  0.1918951963177520  0.0177779027747178
  0.2151178950910477  0.4544814531389250  0.2245292469472844
  0.0908475839314633  0.5610853794164754  0.0243563721200601
  0.3784845122806431  0.5606363829040006  0.0256518904605443
  0.2513550251101080  0.8387303255781760  0.2833894936321428
  0.8900234783446095  0.7745175760501724  0.7492603834978766
  0.7498834594860639  0.8103560949200954  0.5262669756990377
 
  0.00000000E+00  0.00000000E+00  0.00000000E+00
  0.00000000E+00  0.00000000E+00  0.00000000E+00
  0.00000000E+00  0.00000000E+00  0.00000000E+00
  0.00000000E+00  0.00000000E+00  0.00000000E+00
  0.00000000E+00  0.00000000E+00  0.00000000E+00
  0.00000000E+00  0.00000000E+00  0.00000000E+00
  0.00000000E+00  0.00000000E+00  0.00000000E+00
  0.00000000E+00  0.00000000E+00  0.00000000E+00
  0.00000000E+00  0.00000000E+00  0.00000000E+00
  0.00000000E+00  0.00000000E+00  0.00000000E+00
  0.00000000E+00  0.00000000E+00  0.00000000E+00
  0.00000000E+00  0.00000000E+00  0.00000000E+00
  0.00000000E+00  0.00000000E+00  0.00000000E+00
  0.00000000E+00  0.00000000E+00  0.00000000E+00
  0.00000000E+00  0.00000000E+00  0.00000000E+00
  0.00000000E+00  0.00000000E+00  0.00000000E+00
  0.00000000E+00  0.00000000E+00  0.00000000E+00
  0.00000000E+00  0.00000000E+00  0.00000000E+00
  0.00000000E+00  0.00000000E+00  0.00000000E+00
  0.00000000E+00  0.00000000E+00  0.00000000E+00
  0.00000000E+00  0.00000000E+00  0.00000000E+00
  0.00000000E+00  0.00000000E+00  0.00000000E+00
  0.00000000E+00  0.00000000E+00  0.00000000E+00
  0.00000000E+00  0.00000000E+00  0.00000000E+00
  0.00000000E+00  0.00000000E+00  0.00000000E+00
  0.00000000E+00  0.00000000E+00  0.00000000E+00
  0.00000000E+00  0.00000000E+00  0.00000000E+00
  0.00000000E+00  0.00000000E+00  0.00000000E+00
  0.00000000E+00  0.00000000E+00  0.00000000E+00
  0.00000000E+00  0.00000000E+00  0.00000000E+00
  0.00000000E+00  0.00000000E+00  0.00000000E+00
  0.00000000E+00  0.00000000E+00  0.00000000E+00
  0.00000000E+00  0.00000000E+00  0.00000000E+00
  0.00000000E+00  0.00000000E+00  0.00000000E+00
  0.00000000E+00  0.00000000E+00  0.00000000E+00
  0.00000000E+00  0.00000000E+00  0.00000000E+00
  0.00000000E+00  0.00000000E+00  0.00000000E+00
  0.00000000E+00  0.00000000E+00  0.00000000E+00
  0.00000000E+00  0.00000000E+00  0.00000000E+00
  0.00000000E+00  0.00000000E+00  0.00000000E+00
  0.00000000E+00  0.00000000E+00  0.00000000E+00
  0.00000000E+00  0.00000000E+00  0.00000000E+00
  0.00000000E+00  0.00000000E+00  0.00000000E+00
  0.00000000E+00  0.00000000E+00  0.00000000E+00
  0.00000000E+00  0.00000000E+00  0.00000000E+00
  0.00000000E+00  0.00000000E+00  0.00000000E+00
  0.00000000E+00  0.00000000E+00  0.00000000E+00
  0.00000000E+00  0.00000000E+00  0.00000000E+00
  0.00000000E+00  0.00000000E+00  0.00000000E+00
  0.00000000E+00  0.00000000E+00  0.00000000E+00
  0.00000000E+00  0.00000000E+00  0.00000000E+00
  0.00000000E+00  0.00000000E+00  0.00000000E+00
  0.00000000E+00  0.00000000E+00  0.00000000E+00
  0.00000000E+00  0.00000000E+00  0.00000000E+00
  0.00000000E+00  0.00000000E+00  0.00000000E+00
  0.00000000E+00  0.00000000E+00  0.00000000E+00
  0.00000000E+00  0.00000000E+00  0.00000000E+00
  0.00000000E+00  0.00000000E+00  0.00000000E+00
  0.00000000E+00  0.00000000E+00  0.00000000E+00
  0.00000000E+00  0.00000000E+00  0.00000000E+00
  0.00000000E+00  0.00000000E+00  0.00000000E+00
  0.00000000E+00  0.00000000E+00  0.00000000E+00
  0.00000000E+00  0.00000000E+00  0.00000000E+00
  0.00000000E+00  0.00000000E+00  0.00000000E+00
  0.00000000E+00  0.00000000E+00  0.00000000E+00
  0.00000000E+00  0.00000000E+00  0.00000000E+00
  0.00000000E+00  0.00000000E+00  0.00000000E+00
  0.00000000E+00  0.00000000E+00  0.00000000E+00
  0.00000000E+00  0.00000000E+00  0.00000000E+00
  0.00000000E+00  0.00000000E+00  0.00000000E+00
  0.00000000E+00  0.00000000E+00  0.00000000E+00
  0.00000000E+00  0.00000000E+00  0.00000000E+00
