supercell of 100% icsd_608626.cif, 0% i 
   1.00000000000000     
    -9.5199529927744315   -0.0027735424949568    0.0107377717819191
    -4.7575652039981922    8.2198994096717772    0.0118780818832157
     0.0115013831670074   -0.0080310380473659  -10.1396436531790908
   Al   Ge   Mg   N 
    26     5     5    36
Direct
  0.1110862069957008  0.0939720183310584  0.2976595623705762
  0.8806136484470670  0.2087699090358939  0.5434921393018470
  0.4473097408231652  0.0936650226437976  0.2986496683430175
  0.5588447293066494  0.2034318763913348  0.0431380318350136
  0.2255470024383897  0.2084433209610665  0.5486070328200441
  0.7766849773132947  0.0912939467559184  0.2976091255850264
  0.4505129675740633  0.0951583610377753  0.7920673661484372
  0.5583576349959429  0.2056031320976786  0.5451523049619738
  0.2229536082611503  0.5430008232833075  0.0420725897752376
  0.7856408158167483  0.4242686562413809  0.7885251524624195
  0.4470585852443421  0.4259373869801735  0.2983188709196867
  0.1109307244573046  0.4335702974211060  0.7938962748749674
  0.2244425668868857  0.5386748104163530  0.5492424275150114
  0.7763130990357112  0.4284773322195647  0.2964921300439087
  0.8816452636098546  0.5439340170794509  0.0420573178706718
  0.4388023247059891  0.4230354999415198  0.7924119514680044
  0.5572086027770879  0.5339625019254655  0.5471621835922349
  0.1076293546391014  0.7643138055618834  0.2970221577794163
  0.2218361987395667  0.8716961977806719  0.0486073682037542
  0.7804681943797718  0.7617729868801035  0.7948586489494502
  0.4449446866453002  0.7612709229796621  0.2983689630187740
  0.5583145302166486  0.8706211053033428  0.0468748594431858
  0.2210212768099709  0.8682780658728788  0.5427555262130070
  0.7787335485854143  0.7625709797517217  0.2929700455104154
  0.8836138677322367  0.8737225332105965  0.0474012266793906
  0.5599355960716039  0.8729583242364782  0.5467903849500573
  0.2255514106265011  0.2000628723939926  0.0444140659953760
  0.1080737353501036  0.0979069941338437  0.7910804892018461
  0.1097401440763761  0.4282019472858423  0.2974915183876661
  0.5550532077842547  0.5401972363070868  0.0473309869153482
  0.4443651010948670  0.7658042352762919  0.7921059884249573
  0.7777819266620796  0.0910011800171020  0.7910380969631916
  0.8870421465527514  0.2020785239129879  0.0488754571496486
  0.8885992729881664  0.5413153244630777  0.5501805322297884
  0.8885082316387951  0.8706435870682867  0.5451261647044205
  0.1052990677092467  0.7600137657149588  0.7937579224238149
  0.2220134398770526  0.2076119908271323  0.3558002085347027
  0.1280302629263232  0.0883100625128250  0.1102749439556590
  0.9007997724728014  0.2097887829791247  0.8489497600963460
  0.7709871956498091  0.1067990526985412  0.5905863930825248
  0.5507967710910151  0.2078593860262572  0.3534824889758426
  0.4417571639404869  0.0958143314838722  0.1061078271846441
  0.2243526913896545  0.2038586474993025  0.8553170375891099
  0.1144244575925271  0.0943170520767467  0.6022758369984231
  0.8909300155448321  0.2068053385230755  0.3498019257062950
  0.7666189570944297  0.0899138681461196  0.1107444810446623
  0.5416974856696868  0.2125185210260128  0.8595702312068241
  0.4436026009460434  0.0944275071404661  0.6041164813505020
  0.2224750362907670  0.5351256535922460  0.3513542768324456
  0.1132504718671115  0.4236578443741266  0.1044020604352909
  0.8901078259679593  0.5361367158534378  0.8550542167104069
  0.7701251680018757  0.4237695066683500  0.6054871114659406
  0.5538279335686980  0.5405588521877789  0.3562299885878772
  0.4455570581384194  0.4306190835728714  0.1067642999413536
  0.2292518917413773  0.5253390373376519  0.8610293183768789
  0.1268470929153906  0.4201897092997484  0.6093281852480814
  0.8921998881476725  0.5369613320480582  0.3423664530698076
  0.7663044458146544  0.4430141222234951  0.1074507781441412
  0.5529997151742592  0.5419456419065156  0.8554971509952054
  0.4445438540320552  0.4277140252474254  0.6040576028297693
  0.2246707163206878  0.8732018404832758  0.3530854199285187
  0.1141036210478461  0.7607817387157851  0.1052489846344784
  0.8805126158638927  0.8652515565635994  0.8665105474942720
  0.7619915920956473  0.7683644379301455  0.6144431951039593
  0.5547617618722001  0.8720950294564176  0.3541806826104192
  0.4443423214435001  0.7599749193853498  0.1055048690055429
  0.2299918600640183  0.8813350721547195  0.8589082604308871
  0.1270271599848698  0.7529760559481673  0.5941734062434136
  0.8895613938480409  0.8690713280525912  0.3396971182654767
  0.7739227412971061  0.7593178779677956  0.1049247943105271
  0.5512846759571985  0.8727274735373598  0.8580208960892648
  0.4438643473579660  0.7622171036400331  0.6056482344888678
 
  0.00000000E+00  0.00000000E+00  0.00000000E+00
  0.00000000E+00  0.00000000E+00  0.00000000E+00
  0.00000000E+00  0.00000000E+00  0.00000000E+00
  0.00000000E+00  0.00000000E+00  0.00000000E+00
  0.00000000E+00  0.00000000E+00  0.00000000E+00
  0.00000000E+00  0.00000000E+00  0.00000000E+00
  0.00000000E+00  0.00000000E+00  0.00000000E+00
  0.00000000E+00  0.00000000E+00  0.00000000E+00
  0.00000000E+00  0.00000000E+00  0.00000000E+00
  0.00000000E+00  0.00000000E+00  0.00000000E+00
  0.00000000E+00  0.00000000E+00  0.00000000E+00
  0.00000000E+00  0.00000000E+00  0.00000000E+00
  0.00000000E+00  0.00000000E+00  0.00000000E+00
  0.00000000E+00  0.00000000E+00  0.00000000E+00
  0.00000000E+00  0.00000000E+00  0.00000000E+00
  0.00000000E+00  0.00000000E+00  0.00000000E+00
  0.00000000E+00  0.00000000E+00  0.00000000E+00
  0.00000000E+00  0.00000000E+00  0.00000000E+00
  0.00000000E+00  0.00000000E+00  0.00000000E+00
  0.00000000E+00  0.00000000E+00  0.00000000E+00
  0.00000000E+00  0.00000000E+00  0.00000000E+00
  0.00000000E+00  0.00000000E+00  0.00000000E+00
  0.00000000E+00  0.00000000E+00  0.00000000E+00
  0.00000000E+00  0.00000000E+00  0.00000000E+00
  0.00000000E+00  0.00000000E+00  0.00000000E+00
  0.00000000E+00  0.00000000E+00  0.00000000E+00
  0.00000000E+00  0.00000000E+00  0.00000000E+00
  0.00000000E+00  0.00000000E+00  0.00000000E+00
  0.00000000E+00  0.00000000E+00  0.00000000E+00
  0.00000000E+00  0.00000000E+00  0.00000000E+00
  0.00000000E+00  0.00000000E+00  0.00000000E+00
  0.00000000E+00  0.00000000E+00  0.00000000E+00
  0.00000000E+00  0.00000000E+00  0.00000000E+00
  0.00000000E+00  0.00000000E+00  0.00000000E+00
  0.00000000E+00  0.00000000E+00  0.00000000E+00
  0.00000000E+00  0.00000000E+00  0.00000000E+00
  0.00000000E+00  0.00000000E+00  0.00000000E+00
  0.00000000E+00  0.00000000E+00  0.00000000E+00
  0.00000000E+00  0.00000000E+00  0.00000000E+00
  0.00000000E+00  0.00000000E+00  0.00000000E+00
  0.00000000E+00  0.00000000E+00  0.00000000E+00
  0.00000000E+00  0.00000000E+00  0.00000000E+00
  0.00000000E+00  0.00000000E+00  0.00000000E+00
  0.00000000E+00  0.00000000E+00  0.00000000E+00
  0.00000000E+00  0.00000000E+00  0.00000000E+00
  0.00000000E+00  0.00000000E+00  0.00000000E+00
  0.00000000E+00  0.00000000E+00  0.00000000E+00
  0.00000000E+00  0.00000000E+00  0.00000000E+00
  0.00000000E+00  0.00000000E+00  0.00000000E+00
  0.00000000E+00  0.00000000E+00  0.00000000E+00
  0.00000000E+00  0.00000000E+00  0.00000000E+00
  0.00000000E+00  0.00000000E+00  0.00000000E+00
  0.00000000E+00  0.00000000E+00  0.00000000E+00
  0.00000000E+00  0.00000000E+00  0.00000000E+00
  0.00000000E+00  0.00000000E+00  0.00000000E+00
  0.00000000E+00  0.00000000E+00  0.00000000E+00
  0.00000000E+00  0.00000000E+00  0.00000000E+00
  0.00000000E+00  0.00000000E+00  0.00000000E+00
  0.00000000E+00  0.00000000E+00  0.00000000E+00
  0.00000000E+00  0.00000000E+00  0.00000000E+00
  0.00000000E+00  0.00000000E+00  0.00000000E+00
  0.00000000E+00  0.00000000E+00  0.00000000E+00
  0.00000000E+00  0.00000000E+00  0.00000000E+00
  0.00000000E+00  0.00000000E+00  0.00000000E+00
  0.00000000E+00  0.00000000E+00  0.00000000E+00
  0.00000000E+00  0.00000000E+00  0.00000000E+00
  0.00000000E+00  0.00000000E+00  0.00000000E+00
  0.00000000E+00  0.00000000E+00  0.00000000E+00
  0.00000000E+00  0.00000000E+00  0.00000000E+00
  0.00000000E+00  0.00000000E+00  0.00000000E+00
  0.00000000E+00  0.00000000E+00  0.00000000E+00
  0.00000000E+00  0.00000000E+00  0.00000000E+00
