supercell of 100% icsd_608626.cif, 0% i 
   1.00000000000000     
    -9.5068355555582755    0.0037608481404108    0.0000001684533686
    -4.7566754311365314    8.2257514129383331    0.0025702822469249
    -0.0000029535327398   -0.0031653930111133  -10.1541366511051461
   Al   Ge   Mg   N 
    26     5     5    36
Direct
  0.1076479597970490  0.0965202558603551  0.2932290383883256
  0.2156148184458502  0.2072292975660659  0.0444793278126312
  0.7756866733128405  0.1008465712500524  0.7975980809416541
  0.8901952243473303  0.2094816348705777  0.5464945557888612
  0.5591259997566311  0.2017725707417313  0.0450528524219465
  0.1063907527913344  0.1002058171295772  0.7935803058832107
  0.2203518787833616  0.2074208561307174  0.5471493439451152
  0.7858656549593235  0.0922263299318260  0.2925724242280978
  0.1040156788583673  0.4282920594237396  0.2917296171348127
  0.2200980539068524  0.5363780998103778  0.0468725661395766
  0.7800726156707896  0.4254262052316093  0.7915900057220711
  0.8909462024540673  0.5352916147608155  0.5465996771784774
  0.1071861828725318  0.4254999356041509  0.7962524345659503
  0.2210160646687598  0.5353295959732307  0.5502709189980735
  0.7835631374642276  0.4265309959207499  0.2917165369848078
  0.8870529196937724  0.5395526649222404  0.0433853365122800
  0.4502203484196414  0.4248155148729467  0.7965905646630276
  0.2260897824011039  0.8769624733608197  0.0479348726740554
  0.7755212992295171  0.7570057939694763  0.7974098478501901
  0.8874130361383621  0.8707747217352733  0.5482065240817420
  0.4440103842397889  0.7615473866985099  0.2897151170569714
  0.5596797309702382  0.8648781471575191  0.0423180845060074
  0.2250715134875065  0.8755044942343204  0.5474239256325077
  0.8828499645456844  0.8739737429272552  0.0458333090720302
  0.4489679101638515  0.7594488799490335  0.7928015360644807
  0.5536976124548119  0.8729325304692566  0.5471098322639492
  0.4396980332360982  0.0903726613965503  0.2905006809450583
  0.5515065971321533  0.2048608491157822  0.5496372732264234
  0.4455741527835784  0.4326772269112453  0.2898046776449306
  0.1095788035211100  0.7664129351361311  0.2945241644562842
  0.1121697295517237  0.7623385011210573  0.7973251507077990
  0.8889221339010547  0.2069355812647373  0.0443608105741049
  0.4432293684585531  0.0939990270447524  0.7996979436496972
  0.5607776524121562  0.5393762064211529  0.0418074184602020
  0.5577066357340570  0.5407882329210238  0.5540409598635492
  0.7797748940143094  0.7560841035065948  0.2928696384567075
  0.2230184120398988  0.2073275717032317  0.3544488889954636
  0.1238021854430329  0.0880143878945034  0.1112020697860743
  0.8894438524901034  0.2033975058630801  0.8407699817560541
  0.7728489905633964  0.0955940913657471  0.6029326879565318
  0.5537156069563451  0.2065071417694213  0.3550018842864660
  0.4433483543824792  0.0946072443869426  0.1043958569341257
  0.2074679986290491  0.2122840679078877  0.8590353750064708
  0.1123519997040390  0.0940620175102893  0.6017770630603394
  0.8887917128810301  0.2042321252281099  0.3562994369224342
  0.7710378262662800  0.0859144108841932  0.1109711003162701
  0.5620778746348947  0.2118075634501579  0.8608141309554753
  0.4442177577463795  0.0958048134093019  0.5935686469631918
  0.2217721518822842  0.5412668015158673  0.3563664190220308
  0.1115956307394015  0.4293680888064557  0.1052550273410375
  0.8903724905322505  0.5381183600783785  0.8525226497776046
  0.7936205568766752  0.4208324474952647  0.6061395908151610
  0.5538696666171674  0.5380850985437462  0.3455865415350843
  0.4360109662752762  0.4199517775503523  0.1087486513668736
  0.2210657613228975  0.5417358946109587  0.8560750807170336
  0.1130648821561806  0.4276315933025430  0.6065087771676971
  0.8979893631190592  0.5246837126003143  0.3622897988665912
  0.7874409783833016  0.4341859629112861  0.1114411491842660
  0.5550793846379776  0.5388060401637489  0.8364293138921823
  0.4370551701215533  0.4177984555476186  0.6069575170910682
  0.2218106414792373  0.8700041954068567  0.3565564570704680
  0.1116366500327715  0.7615834044019607  0.1063651167826265
  0.8920676811398138  0.8720864177780996  0.8521484144947209
  0.7776040536292683  0.7617947084856453  0.6041610363843759
  0.5412126904150156  0.8804595324262507  0.3576719726248285
  0.4378182808680009  0.7741671409814828  0.1073423018305490
  0.2201127405076875  0.8722080181005438  0.8555618714702575
  0.1128372708185381  0.7605048691511129  0.6078418151405245
  0.8997498444965402  0.8761020832292061  0.3616956554860522
  0.7801442382570087  0.7607977677201987  0.0918193923792785
  0.5613532905086913  0.8592948519558661  0.8573913628519492
  0.4353036428680497  0.7792863205222105  0.6074216092731461
 
  0.00000000E+00  0.00000000E+00  0.00000000E+00
  0.00000000E+00  0.00000000E+00  0.00000000E+00
  0.00000000E+00  0.00000000E+00  0.00000000E+00
  0.00000000E+00  0.00000000E+00  0.00000000E+00
  0.00000000E+00  0.00000000E+00  0.00000000E+00
  0.00000000E+00  0.00000000E+00  0.00000000E+00
  0.00000000E+00  0.00000000E+00  0.00000000E+00
  0.00000000E+00  0.00000000E+00  0.00000000E+00
  0.00000000E+00  0.00000000E+00  0.00000000E+00
  0.00000000E+00  0.00000000E+00  0.00000000E+00
  0.00000000E+00  0.00000000E+00  0.00000000E+00
  0.00000000E+00  0.00000000E+00  0.00000000E+00
  0.00000000E+00  0.00000000E+00  0.00000000E+00
  0.00000000E+00  0.00000000E+00  0.00000000E+00
  0.00000000E+00  0.00000000E+00  0.00000000E+00
  0.00000000E+00  0.00000000E+00  0.00000000E+00
  0.00000000E+00  0.00000000E+00  0.00000000E+00
  0.00000000E+00  0.00000000E+00  0.00000000E+00
  0.00000000E+00  0.00000000E+00  0.00000000E+00
  0.00000000E+00  0.00000000E+00  0.00000000E+00
  0.00000000E+00  0.00000000E+00  0.00000000E+00
  0.00000000E+00  0.00000000E+00  0.00000000E+00
  0.00000000E+00  0.00000000E+00  0.00000000E+00
  0.00000000E+00  0.00000000E+00  0.00000000E+00
  0.00000000E+00  0.00000000E+00  0.00000000E+00
  0.00000000E+00  0.00000000E+00  0.00000000E+00
  0.00000000E+00  0.00000000E+00  0.00000000E+00
  0.00000000E+00  0.00000000E+00  0.00000000E+00
  0.00000000E+00  0.00000000E+00  0.00000000E+00
  0.00000000E+00  0.00000000E+00  0.00000000E+00
  0.00000000E+00  0.00000000E+00  0.00000000E+00
  0.00000000E+00  0.00000000E+00  0.00000000E+00
  0.00000000E+00  0.00000000E+00  0.00000000E+00
  0.00000000E+00  0.00000000E+00  0.00000000E+00
  0.00000000E+00  0.00000000E+00  0.00000000E+00
  0.00000000E+00  0.00000000E+00  0.00000000E+00
  0.00000000E+00  0.00000000E+00  0.00000000E+00
  0.00000000E+00  0.00000000E+00  0.00000000E+00
  0.00000000E+00  0.00000000E+00  0.00000000E+00
  0.00000000E+00  0.00000000E+00  0.00000000E+00
  0.00000000E+00  0.00000000E+00  0.00000000E+00
  0.00000000E+00  0.00000000E+00  0.00000000E+00
  0.00000000E+00  0.00000000E+00  0.00000000E+00
  0.00000000E+00  0.00000000E+00  0.00000000E+00
  0.00000000E+00  0.00000000E+00  0.00000000E+00
  0.00000000E+00  0.00000000E+00  0.00000000E+00
  0.00000000E+00  0.00000000E+00  0.00000000E+00
  0.00000000E+00  0.00000000E+00  0.00000000E+00
  0.00000000E+00  0.00000000E+00  0.00000000E+00
  0.00000000E+00  0.00000000E+00  0.00000000E+00
  0.00000000E+00  0.00000000E+00  0.00000000E+00
  0.00000000E+00  0.00000000E+00  0.00000000E+00
  0.00000000E+00  0.00000000E+00  0.00000000E+00
  0.00000000E+00  0.00000000E+00  0.00000000E+00
  0.00000000E+00  0.00000000E+00  0.00000000E+00
  0.00000000E+00  0.00000000E+00  0.00000000E+00
  0.00000000E+00  0.00000000E+00  0.00000000E+00
  0.00000000E+00  0.00000000E+00  0.00000000E+00
  0.00000000E+00  0.00000000E+00  0.00000000E+00
  0.00000000E+00  0.00000000E+00  0.00000000E+00
  0.00000000E+00  0.00000000E+00  0.00000000E+00
  0.00000000E+00  0.00000000E+00  0.00000000E+00
  0.00000000E+00  0.00000000E+00  0.00000000E+00
  0.00000000E+00  0.00000000E+00  0.00000000E+00
  0.00000000E+00  0.00000000E+00  0.00000000E+00
  0.00000000E+00  0.00000000E+00  0.00000000E+00
  0.00000000E+00  0.00000000E+00  0.00000000E+00
  0.00000000E+00  0.00000000E+00  0.00000000E+00
  0.00000000E+00  0.00000000E+00  0.00000000E+00
  0.00000000E+00  0.00000000E+00  0.00000000E+00
  0.00000000E+00  0.00000000E+00  0.00000000E+00
  0.00000000E+00  0.00000000E+00  0.00000000E+00
