generated by phonopy                    
   1.00000000000000     
    10.0351470768999995   -0.0000022330999784   -0.0000001056124209
    -5.0175765436399997    8.6906901959899994    0.0000001395531216
    -0.0000001735893656    0.0000001431815548   14.9533752540999991
   Pb   P    O 
    19    13    50
Direct
  0.9948709005287455  0.7724036144546460  0.1171419498829351
  0.9979545622368846  0.7711988556688851  0.6208794784687299
  0.0016290209150114  0.2414011635642268  0.3720813379420846
  0.9878448207644155  0.2695913938130019  0.8791799709007933
  0.2278296824602819  0.2226970030430024  0.1172032887891419
  0.2291997077495225  0.2271097455047837  0.6209164203416222
  0.7588514112222882  0.7604314267428549  0.3720477053414513
  0.7308500224190908  0.7185607270490166  0.8791225483086862
  0.7775713319297353  0.0053001615877690  0.1171464802234681
  0.7731872639909199  0.0023566839566911  0.6208629416702109
  0.2398785565206936  0.9986727793827725  0.3720651291707995
  0.2819995475211954  0.0126037254018314  0.8792267679089889
  0.6668829675752477  0.3335359140036545  0.4933149571569260
  0.3332624866498364  0.6667396754892394  0.0099309965296044
  0.3333435986935456  0.6667658662005778  0.5017156344120934
  0.3335525251845866  0.6668864984603715  0.2521066124503974
  0.3334728878447635  0.6668741877368802  0.7442694241139520
  0.6667443986228250  0.3335632174334577  0.2375381362380224
  0.6667773371540449  0.3336012849644945  0.7484139964795773
  0.6670282152281857  0.3334873645116119  0.9863501893641526
  0.6276933234038253  0.6092618062810047  0.1306714214760873
  0.6230432383868916  0.5940353972416403  0.6230655220908474
  0.3666646706759664  0.3969189057617015  0.3770706823307819
  0.3537076498628693  0.3897946192410160  0.8684177267270385
  0.3909032110841864  0.0186258236989758  0.1307909724037017
  0.4063121157153446  0.0292531815855810  0.6231671693474397
  0.6033776477388884  0.9699879779215337  0.3769766837354851
  0.6106654666686566  0.9643348428804543  0.8683793821166290
  0.9816788212814274  0.3724713999671252  0.1308053247021874
  0.9710195898702949  0.3772631679738652  0.6231280591604147
  0.0303427109504852  0.6336496245369219  0.3770148525202401
  0.0361067911673629  0.6466963320047299  0.8683759040742700
  0.5090188729963359  0.6676321673402157  0.1275302662211928
  0.5006072555502996  0.6465129158430827  0.6223669884557879
  0.4672182242362837  0.3195894460571296  0.3755368782483401
  0.4506846389411123  0.3135099135979686  0.8483954781708860
  0.3326098175602112  0.8416227051989722  0.1275777623474212
  0.3538778469663697  0.8543541397729015  0.6224736974888074
  0.6806898044770264  0.1478664526336360  0.3753616087934262
  0.6868587061705327  0.1375769078532088  0.8482880587840071
  0.1586894935968033  0.4911798786084844  0.1276448216523036
  0.1459593997662623  0.4995922519780365  0.6224403813746306
  0.8524356900309797  0.5330767496231132  0.3754606958663871
  0.8628199141570434  0.5498463129431101  0.8483394092986529
  0.7296858628836063  0.6655346901120396  0.0443622566528177
  0.7407153976500993  0.6714851352634597  0.5444810274462242
  0.2603494168976894  0.3490166389079974  0.4621069439312819
  0.2443157546290138  0.3149208879622662  0.9502960069514259
  0.3349153034494492  0.0645129694600968  0.0444782322216781
  0.3286567329622017  0.0693173665908091  0.5446205542967277
  0.6514780635668203  0.9116994931885074  0.4619896625138864
  0.6857913055383733  0.9299832256999423  0.9502204749406289
  0.9359975964031122  0.2705258988974109  0.0444841912413949
  0.9307224372272955  0.2596096196794733  0.5445128812922704
  0.0887210561211944  0.7399300448971431  0.4620586737942816
  0.0707951035387495  0.7562458926330038  0.9501935162880102
  0.2564749702422873  0.3486081249266348  0.2942452538942888
  0.2495737692329811  0.3757075251267423  0.7869820002331096
  0.7444527773274245  0.6853249749100812  0.2100060038738292
  0.7179783402611761  0.6412858754232786  0.7118363457140120
  0.6515193439527280  0.9079442349709836  0.2941415316629872
  0.6245230908593769  0.8741065842228437  0.7869416305455985
  0.3147284794592764  0.0592683587642640  0.2100597437653136
  0.3592725011004561  0.0770542379480688  0.7119619545744129
  0.0922207453602297  0.7438473990043022  0.2941979179655974
  0.1264711872706599  0.7508476456593911  0.7869884970768481
  0.9410308824620515  0.2556661655682575  0.2100927537146973
  0.9232702999444768  0.2822943627539232  0.7118807639572609
  0.5408238334991040  0.4322794217026100  0.1424925457919741
  0.5423327377013933  0.4149123287321217  0.6131492223966646
  0.4700457644861231  0.5777605581714553  0.3767673679457033
  0.4625920646977164  0.5674470979984108  0.8886613808010964
  0.5678875575164781  0.1087266080617155  0.1427499960796368
  0.5854379438445463  0.1276987393629412  0.6131425615164972
  0.4225488483852473  0.8925300317506668  0.3767773268020633
  0.4330268287441967  0.8955655774881635  0.8887735123502480
  0.8915638319736559  0.4593230221589408  0.1426506301988937
  0.8727308499290558  0.4581130637494795  0.6132154126084117
  0.1077778142807020  0.5302458080546941  0.3767206769883273
  0.1044075398558633  0.5374725127657314  0.8887129051367353
  0.0000757263055888  0.0000622078720767  0.1029815039741422
  0.0001127188972774  0.0002352544258599  0.6251761669476963
 
  0.00000000E+00  0.00000000E+00  0.00000000E+00
  0.00000000E+00  0.00000000E+00  0.00000000E+00
  0.00000000E+00  0.00000000E+00  0.00000000E+00
  0.00000000E+00  0.00000000E+00  0.00000000E+00
  0.00000000E+00  0.00000000E+00  0.00000000E+00
  0.00000000E+00  0.00000000E+00  0.00000000E+00
  0.00000000E+00  0.00000000E+00  0.00000000E+00
  0.00000000E+00  0.00000000E+00  0.00000000E+00
  0.00000000E+00  0.00000000E+00  0.00000000E+00
  0.00000000E+00  0.00000000E+00  0.00000000E+00
  0.00000000E+00  0.00000000E+00  0.00000000E+00
  0.00000000E+00  0.00000000E+00  0.00000000E+00
  0.00000000E+00  0.00000000E+00  0.00000000E+00
  0.00000000E+00  0.00000000E+00  0.00000000E+00
  0.00000000E+00  0.00000000E+00  0.00000000E+00
  0.00000000E+00  0.00000000E+00  0.00000000E+00
  0.00000000E+00  0.00000000E+00  0.00000000E+00
  0.00000000E+00  0.00000000E+00  0.00000000E+00
  0.00000000E+00  0.00000000E+00  0.00000000E+00
  0.00000000E+00  0.00000000E+00  0.00000000E+00
  0.00000000E+00  0.00000000E+00  0.00000000E+00
  0.00000000E+00  0.00000000E+00  0.00000000E+00
  0.00000000E+00  0.00000000E+00  0.00000000E+00
  0.00000000E+00  0.00000000E+00  0.00000000E+00
  0.00000000E+00  0.00000000E+00  0.00000000E+00
  0.00000000E+00  0.00000000E+00  0.00000000E+00
  0.00000000E+00  0.00000000E+00  0.00000000E+00
  0.00000000E+00  0.00000000E+00  0.00000000E+00
  0.00000000E+00  0.00000000E+00  0.00000000E+00
  0.00000000E+00  0.00000000E+00  0.00000000E+00
  0.00000000E+00  0.00000000E+00  0.00000000E+00
  0.00000000E+00  0.00000000E+00  0.00000000E+00
  0.00000000E+00  0.00000000E+00  0.00000000E+00
  0.00000000E+00  0.00000000E+00  0.00000000E+00
  0.00000000E+00  0.00000000E+00  0.00000000E+00
  0.00000000E+00  0.00000000E+00  0.00000000E+00
  0.00000000E+00  0.00000000E+00  0.00000000E+00
  0.00000000E+00  0.00000000E+00  0.00000000E+00
  0.00000000E+00  0.00000000E+00  0.00000000E+00
  0.00000000E+00  0.00000000E+00  0.00000000E+00
  0.00000000E+00  0.00000000E+00  0.00000000E+00
  0.00000000E+00  0.00000000E+00  0.00000000E+00
  0.00000000E+00  0.00000000E+00  0.00000000E+00
  0.00000000E+00  0.00000000E+00  0.00000000E+00
  0.00000000E+00  0.00000000E+00  0.00000000E+00
  0.00000000E+00  0.00000000E+00  0.00000000E+00
  0.00000000E+00  0.00000000E+00  0.00000000E+00
  0.00000000E+00  0.00000000E+00  0.00000000E+00
  0.00000000E+00  0.00000000E+00  0.00000000E+00
  0.00000000E+00  0.00000000E+00  0.00000000E+00
  0.00000000E+00  0.00000000E+00  0.00000000E+00
  0.00000000E+00  0.00000000E+00  0.00000000E+00
  0.00000000E+00  0.00000000E+00  0.00000000E+00
  0.00000000E+00  0.00000000E+00  0.00000000E+00
  0.00000000E+00  0.00000000E+00  0.00000000E+00
  0.00000000E+00  0.00000000E+00  0.00000000E+00
  0.00000000E+00  0.00000000E+00  0.00000000E+00
  0.00000000E+00  0.00000000E+00  0.00000000E+00
  0.00000000E+00  0.00000000E+00  0.00000000E+00
  0.00000000E+00  0.00000000E+00  0.00000000E+00
  0.00000000E+00  0.00000000E+00  0.00000000E+00
  0.00000000E+00  0.00000000E+00  0.00000000E+00
  0.00000000E+00  0.00000000E+00  0.00000000E+00
  0.00000000E+00  0.00000000E+00  0.00000000E+00
  0.00000000E+00  0.00000000E+00  0.00000000E+00
  0.00000000E+00  0.00000000E+00  0.00000000E+00
  0.00000000E+00  0.00000000E+00  0.00000000E+00
  0.00000000E+00  0.00000000E+00  0.00000000E+00
  0.00000000E+00  0.00000000E+00  0.00000000E+00
  0.00000000E+00  0.00000000E+00  0.00000000E+00
  0.00000000E+00  0.00000000E+00  0.00000000E+00
  0.00000000E+00  0.00000000E+00  0.00000000E+00
  0.00000000E+00  0.00000000E+00  0.00000000E+00
  0.00000000E+00  0.00000000E+00  0.00000000E+00
  0.00000000E+00  0.00000000E+00  0.00000000E+00
  0.00000000E+00  0.00000000E+00  0.00000000E+00
  0.00000000E+00  0.00000000E+00  0.00000000E+00
  0.00000000E+00  0.00000000E+00  0.00000000E+00
  0.00000000E+00  0.00000000E+00  0.00000000E+00
  0.00000000E+00  0.00000000E+00  0.00000000E+00
  0.00000000E+00  0.00000000E+00  0.00000000E+00
  0.00000000E+00  0.00000000E+00  0.00000000E+00
