generated by phonopy                    
   1.00000000000000     
    11.7777700938999992   -0.0000006592896312    0.0000118211769744
    -0.0000006477562692   11.7777479613999994   -0.0000130806483528
     0.0000177256125076   -0.0000204342245446   17.8544012557999991
   Bi   Cu   Se   F    O 
    36    36    36     1    35
Direct
  0.9894075613859954  0.1667873232761110  0.4249399478502127
  0.3439738448254488  0.1667813409321113  0.4249486528717838
  0.6666891267906720  0.1667765275175128  0.4290047024344688
  0.9999607196506659  0.4994438172799676  0.4290123084108046
  0.3334307614079322  0.4994455430698750  0.4290144938859157
  0.6666884215956799  0.4998958260801416  0.4296063015417459
  0.9999634167133422  0.8341233306090530  0.4290102829500171
  0.3334376624659043  0.8341286303932876  0.4290113858092184
  0.6666963258724721  0.8336672125796980  0.4296001250302481
  0.9999140107191451  0.1666769979599323  0.9292856719382740
  0.3334210973592775  0.1666780466916293  0.9292794081547981
  0.6666728573553726  0.1666755078882929  0.9292396180411018
  0.9998781813883824  0.4998401428035137  0.9292559924545571
  0.3334553850518205  0.4998428599691351  0.9292481074154892
  0.6666698107651925  0.4998236743669509  0.9292892421803813
  0.9998808909700969  0.8335146009776011  0.9292570780564375
  0.3334562529793530  0.8335180975187910  0.9292518846394699
  0.6666674769090761  0.8335308089398197  0.9292899632282285
  0.1666698440668100  0.9999301265082252  0.0708619044069181
  0.4998282139947179  0.9998929536522851  0.0708939353164979
  0.8335084268861976  0.9998865301912545  0.0708991441339037
  0.1666705196480081  0.3334299332192145  0.0708588182620744
  0.4998271398320497  0.3334677172757097  0.0708912206030021
  0.8335068909087227  0.3334671600716135  0.0708992289869101
  0.1666694189838580  0.6666788298529625  0.0709106944538576
  0.4998087991552040  0.6666787268655696  0.0708628495566757
  0.8335241750417595  0.6666792380071769  0.0708691688344913
  0.1666974932911884  0.9894934920010883  0.5752051717025353
  0.4993608625647212  0.0000440698929935  0.5711368580844720
  0.8340462836202889  0.0000367554898091  0.5711316284409165
  0.1667057858185714  0.3440743402375332  0.5752076107021082
  0.4993543126290021  0.3335272743424511  0.5711326999867481
  0.8340497803159295  0.3335203288736821  0.5711274514228961
  0.1666955778225940  0.6667890362025304  0.5711515387407644
  0.4997982446106661  0.6667938292130913  0.5705496037385274
  0.8335836451474208  0.6667832974796042  0.5705387879935699
  0.0015432218158793  0.9998499448239144  0.2497992723748652
  0.3318449829525960  0.9998533444251478  0.2497941606199277
  0.6666864299125308  0.0015557384684186  0.2496500625698346
  0.0015566952368005  0.3335688753170842  0.2497976067581504
  0.3318455687559450  0.3335761233495731  0.2497926670244368
  0.6666768127563643  0.3318448306254069  0.2496492679475253
  0.0010628722127990  0.6667035901170664  0.2502648645426504
  0.3323138813643567  0.6667159600651686  0.2502640433043837
  0.6666885123427164  0.6667036609044459  0.2506328514530267
  0.9998036018122249  0.0016022347396216  0.7503518004447045
  0.3335386874423634  0.0015986655153668  0.7503536840581688
  0.6666872311061098  0.0011313328969678  0.7498827309479452
  0.9997992087678043  0.3319097170209631  0.7503497692614403
  0.3335425310317106  0.3319089215675817  0.7503525932941955
  0.6666797163299805  0.3323788627075146  0.7498830299010137
  0.0015086567189471  0.6667605243252765  0.7505007690144367
  0.3318182492378696  0.6667758599966191  0.7505064961254746
  0.6666801395056581  0.6667554770592545  0.7495168546474673
  0.1666827215951798  0.1667556174801064  0.2500093138796018
  0.4999135224517417  0.1667573674805567  0.2486229236398430
  0.8334387072817862  0.1667559462802899  0.2486171199166094
  0.1666825374514858  0.4991625493240690  0.2508675372857994
  0.4985275049917703  0.5019494983375239  0.2496716571020272
  0.8348184393165639  0.5019437694998530  0.2496625799657366
  0.1666921955989977  0.8343512266015196  0.2508677579665957
  0.4985259172751526  0.8315770378560998  0.2496712816802074
  0.8348144389937957  0.8315679399601237  0.2496671244060593
  0.1666896064515697  0.1667069935297150  0.7501397251389434
  0.4990932515329547  0.1667121777886251  0.7492821037289588
  0.8342837664973572  0.1666975204288264  0.7492883518763946
  0.1666780179669303  0.4999484362486228  0.7515294931111427
  0.5018854883545956  0.4985642842622227  0.7504823177674140
  0.8314959849969625  0.4985703796552983  0.7504819759755534
  0.1666731820690828  0.8334689819077568  0.7515239953972070
  0.5018873079056760  0.8348429469759608  0.7504772748190547
  0.8314991500968389  0.8348354445371911  0.7504817250779752
  0.1666946740941313  0.3325071959981045  0.3381060623689933
  0.4994636172563531  0.3328433095658312  0.3372311024204819
  0.8339073755280708  0.3328369838839649  0.3372229445124546
  0.1666922408463023  0.6667593653418109  0.3380437752886252
  0.4994523719704560  0.6667608827486475  0.3379144395618283
  0.8339260111002460  0.6667530943414661  0.3379138140969857
  0.1666962644678591  0.0010125551719966  0.3381032140299070
  0.4994678634167826  0.0006808684898871  0.3372309403097731
  0.8339082201197101  0.0006744205170648  0.3372257096700793
  0.1666683536066529  0.3331412192221492  0.8373749496400293
  0.5001212220423028  0.3328539759091669  0.8372241137059291
  0.8332299161780554  0.3328502597793346  0.8372241357444565
  0.1666656672929889  0.6667085283384537  0.8377170261634532
  0.4992429798389111  0.6667045799866713  0.8357231576019899
  0.8341053303960848  0.6667041541058936  0.8357316432624984
  0.1666725871482342  0.0002697672768335  0.8373747117025161
  0.5001247204885786  0.0005550442879780  0.8372181733363391
  0.8332346055583528  0.0005494952652256  0.8372260084107026
  0.3331110002139326  0.1667088415717473  0.1627682406302071
  0.6666706949937335  0.1666983420517170  0.1624288503007278
  0.0002480103879350  0.1667038351687111  0.1627702578802470
  0.3328218848358588  0.5001513593839775  0.1629245682769991
  0.6666697894033149  0.4992637969037617  0.1644267988239747
  0.0005319801954826  0.5001436120124794  0.1629259347461272
  0.3328255817962145  0.8332669694963855  0.1629232567922116
  0.6666700023117471  0.8341372360299957  0.1644264533016226
  0.0005351119725105  0.8332630410870436  0.1629320815965514
  0.3324385617162662  0.1667613529257821  0.6620480927323200
  0.6666930157079491  0.1667575797077561  0.6621019099518080
  0.0009363308984547  0.1667593623476264  0.6620439244182990
  0.3327704800835178  0.4995494515667716  0.6629270593689469
  0.6666910038814251  0.4995214179796150  0.6622318153016238
  0.0005946391690301  0.4995453273663344  0.6629198876258613
  0.3327764810883878  0.8339791369972431  0.6629219488688634
  0.6666991852200113  0.8339958732082664  0.6622312705202233
  0.0006034157094277  0.8339800617407320  0.6629170247101186
  0.1667029811862193  0.1667803670976937  0.5000774564443446
  0.5009536827883707  0.1667752762865504  0.4992009197957330
  0.8324320281514659  0.1667662077585206  0.4991977004736441
  0.1666899369625625  0.5010448464688437  0.5009529988261505
  0.4996672521666312  0.4997588763397829  0.5000769815635664
  0.8337203405983757  0.4997551662363193  0.5000692758970118
  0.1666994061539739  0.8325130741233977  0.5009493859884984
  0.4996716821753324  0.8338002701992053  0.5000734411244636
  0.8337218191614610  0.8338009722906108  0.5000650629979546
  0.1666722735587882  0.1666862468403636  0.0000710449232528
  0.5000591733307331  0.1666858622423817  0.0002514867803143
  0.8332817681613705  0.1666825826423803  0.0002588649407400
  0.1666698594598870  0.5000779301177687  0.9998921193154331
  0.5001882668930548  0.5002077218081382  0.0000722695072852
  0.8331506551641823  0.5002069269875662  0.0000808867959137
  0.1666725518885315  0.8332963054375497  0.9998948261559875
  0.5001877233924645  0.8331646702749751  0.0000745020096957
  0.8331506842102669  0.8331642231780378  0.0000797957260374
  0.9998499623471133  0.9998629556604541  0.0000769368553222
  0.3334925554760702  0.9998655044876941  0.0000706738311180
  0.6666715564801891  0.9996564390215354  0.0000220579062216
  0.9998470749974828  0.3335069249740314  0.0000751172335072
  0.3334917733973342  0.3335097435320051  0.0000684719644681
  0.6666722512578573  0.3337123185842543  0.0000207292416334
  0.9996420886918926  0.6666867289408103  0.0001350474050241
  0.3336963547795264  0.6666865924365126  0.0001276861477919
  0.6666712860820070  0.6666858115931689  0.0000806869335790
  0.0020663343016594  0.0021325113613457  0.5000738560705855
  0.3313361904369572  0.0021331097437667  0.5000764644941071
  0.6666912999914487  0.0004519374181484  0.5000435083854171
  0.0020554292464325  0.3314132271672960  0.5000667756289232
  0.3313334420357350  0.3314221650537235  0.5000778173836693
  0.6666926223927163  0.3330936733233614  0.5000418827510842
  0.0003783111521471  0.6667818973222239  0.5001028873269320
  0.3330107515455580  0.6667808761035872  0.5001058136289700
  0.6666897377754282  0.6667795485078472  0.5000742312191448
 
  0.00000000E+00  0.00000000E+00  0.00000000E+00
  0.00000000E+00  0.00000000E+00  0.00000000E+00
  0.00000000E+00  0.00000000E+00  0.00000000E+00
  0.00000000E+00  0.00000000E+00  0.00000000E+00
  0.00000000E+00  0.00000000E+00  0.00000000E+00
  0.00000000E+00  0.00000000E+00  0.00000000E+00
  0.00000000E+00  0.00000000E+00  0.00000000E+00
  0.00000000E+00  0.00000000E+00  0.00000000E+00
  0.00000000E+00  0.00000000E+00  0.00000000E+00
  0.00000000E+00  0.00000000E+00  0.00000000E+00
  0.00000000E+00  0.00000000E+00  0.00000000E+00
  0.00000000E+00  0.00000000E+00  0.00000000E+00
  0.00000000E+00  0.00000000E+00  0.00000000E+00
  0.00000000E+00  0.00000000E+00  0.00000000E+00
  0.00000000E+00  0.00000000E+00  0.00000000E+00
  0.00000000E+00  0.00000000E+00  0.00000000E+00
  0.00000000E+00  0.00000000E+00  0.00000000E+00
  0.00000000E+00  0.00000000E+00  0.00000000E+00
  0.00000000E+00  0.00000000E+00  0.00000000E+00
  0.00000000E+00  0.00000000E+00  0.00000000E+00
  0.00000000E+00  0.00000000E+00  0.00000000E+00
  0.00000000E+00  0.00000000E+00  0.00000000E+00
  0.00000000E+00  0.00000000E+00  0.00000000E+00
  0.00000000E+00  0.00000000E+00  0.00000000E+00
  0.00000000E+00  0.00000000E+00  0.00000000E+00
  0.00000000E+00  0.00000000E+00  0.00000000E+00
  0.00000000E+00  0.00000000E+00  0.00000000E+00
  0.00000000E+00  0.00000000E+00  0.00000000E+00
  0.00000000E+00  0.00000000E+00  0.00000000E+00
  0.00000000E+00  0.00000000E+00  0.00000000E+00
  0.00000000E+00  0.00000000E+00  0.00000000E+00
  0.00000000E+00  0.00000000E+00  0.00000000E+00
  0.00000000E+00  0.00000000E+00  0.00000000E+00
  0.00000000E+00  0.00000000E+00  0.00000000E+00
  0.00000000E+00  0.00000000E+00  0.00000000E+00
  0.00000000E+00  0.00000000E+00  0.00000000E+00
  0.00000000E+00  0.00000000E+00  0.00000000E+00
  0.00000000E+00  0.00000000E+00  0.00000000E+00
  0.00000000E+00  0.00000000E+00  0.00000000E+00
  0.00000000E+00  0.00000000E+00  0.00000000E+00
  0.00000000E+00  0.00000000E+00  0.00000000E+00
  0.00000000E+00  0.00000000E+00  0.00000000E+00
  0.00000000E+00  0.00000000E+00  0.00000000E+00
  0.00000000E+00  0.00000000E+00  0.00000000E+00
  0.00000000E+00  0.00000000E+00  0.00000000E+00
  0.00000000E+00  0.00000000E+00  0.00000000E+00
  0.00000000E+00  0.00000000E+00  0.00000000E+00
  0.00000000E+00  0.00000000E+00  0.00000000E+00
  0.00000000E+00  0.00000000E+00  0.00000000E+00
  0.00000000E+00  0.00000000E+00  0.00000000E+00
  0.00000000E+00  0.00000000E+00  0.00000000E+00
  0.00000000E+00  0.00000000E+00  0.00000000E+00
  0.00000000E+00  0.00000000E+00  0.00000000E+00
  0.00000000E+00  0.00000000E+00  0.00000000E+00
  0.00000000E+00  0.00000000E+00  0.00000000E+00
  0.00000000E+00  0.00000000E+00  0.00000000E+00
  0.00000000E+00  0.00000000E+00  0.00000000E+00
  0.00000000E+00  0.00000000E+00  0.00000000E+00
  0.00000000E+00  0.00000000E+00  0.00000000E+00
  0.00000000E+00  0.00000000E+00  0.00000000E+00
  0.00000000E+00  0.00000000E+00  0.00000000E+00
  0.00000000E+00  0.00000000E+00  0.00000000E+00
  0.00000000E+00  0.00000000E+00  0.00000000E+00
  0.00000000E+00  0.00000000E+00  0.00000000E+00
  0.00000000E+00  0.00000000E+00  0.00000000E+00
  0.00000000E+00  0.00000000E+00  0.00000000E+00
  0.00000000E+00  0.00000000E+00  0.00000000E+00
  0.00000000E+00  0.00000000E+00  0.00000000E+00
  0.00000000E+00  0.00000000E+00  0.00000000E+00
  0.00000000E+00  0.00000000E+00  0.00000000E+00
  0.00000000E+00  0.00000000E+00  0.00000000E+00
  0.00000000E+00  0.00000000E+00  0.00000000E+00
  0.00000000E+00  0.00000000E+00  0.00000000E+00
  0.00000000E+00  0.00000000E+00  0.00000000E+00
  0.00000000E+00  0.00000000E+00  0.00000000E+00
  0.00000000E+00  0.00000000E+00  0.00000000E+00
  0.00000000E+00  0.00000000E+00  0.00000000E+00
  0.00000000E+00  0.00000000E+00  0.00000000E+00
  0.00000000E+00  0.00000000E+00  0.00000000E+00
  0.00000000E+00  0.00000000E+00  0.00000000E+00
  0.00000000E+00  0.00000000E+00  0.00000000E+00
  0.00000000E+00  0.00000000E+00  0.00000000E+00
  0.00000000E+00  0.00000000E+00  0.00000000E+00
  0.00000000E+00  0.00000000E+00  0.00000000E+00
  0.00000000E+00  0.00000000E+00  0.00000000E+00
  0.00000000E+00  0.00000000E+00  0.00000000E+00
  0.00000000E+00  0.00000000E+00  0.00000000E+00
  0.00000000E+00  0.00000000E+00  0.00000000E+00
  0.00000000E+00  0.00000000E+00  0.00000000E+00
  0.00000000E+00  0.00000000E+00  0.00000000E+00
  0.00000000E+00  0.00000000E+00  0.00000000E+00
  0.00000000E+00  0.00000000E+00  0.00000000E+00
  0.00000000E+00  0.00000000E+00  0.00000000E+00
  0.00000000E+00  0.00000000E+00  0.00000000E+00
  0.00000000E+00  0.00000000E+00  0.00000000E+00
  0.00000000E+00  0.00000000E+00  0.00000000E+00
  0.00000000E+00  0.00000000E+00  0.00000000E+00
  0.00000000E+00  0.00000000E+00  0.00000000E+00
  0.00000000E+00  0.00000000E+00  0.00000000E+00
  0.00000000E+00  0.00000000E+00  0.00000000E+00
  0.00000000E+00  0.00000000E+00  0.00000000E+00
  0.00000000E+00  0.00000000E+00  0.00000000E+00
  0.00000000E+00  0.00000000E+00  0.00000000E+00
  0.00000000E+00  0.00000000E+00  0.00000000E+00
  0.00000000E+00  0.00000000E+00  0.00000000E+00
  0.00000000E+00  0.00000000E+00  0.00000000E+00
  0.00000000E+00  0.00000000E+00  0.00000000E+00
  0.00000000E+00  0.00000000E+00  0.00000000E+00
  0.00000000E+00  0.00000000E+00  0.00000000E+00
  0.00000000E+00  0.00000000E+00  0.00000000E+00
  0.00000000E+00  0.00000000E+00  0.00000000E+00
  0.00000000E+00  0.00000000E+00  0.00000000E+00
  0.00000000E+00  0.00000000E+00  0.00000000E+00
  0.00000000E+00  0.00000000E+00  0.00000000E+00
  0.00000000E+00  0.00000000E+00  0.00000000E+00
  0.00000000E+00  0.00000000E+00  0.00000000E+00
  0.00000000E+00  0.00000000E+00  0.00000000E+00
  0.00000000E+00  0.00000000E+00  0.00000000E+00
  0.00000000E+00  0.00000000E+00  0.00000000E+00
  0.00000000E+00  0.00000000E+00  0.00000000E+00
  0.00000000E+00  0.00000000E+00  0.00000000E+00
  0.00000000E+00  0.00000000E+00  0.00000000E+00
  0.00000000E+00  0.00000000E+00  0.00000000E+00
  0.00000000E+00  0.00000000E+00  0.00000000E+00
  0.00000000E+00  0.00000000E+00  0.00000000E+00
  0.00000000E+00  0.00000000E+00  0.00000000E+00
  0.00000000E+00  0.00000000E+00  0.00000000E+00
  0.00000000E+00  0.00000000E+00  0.00000000E+00
  0.00000000E+00  0.00000000E+00  0.00000000E+00
  0.00000000E+00  0.00000000E+00  0.00000000E+00
  0.00000000E+00  0.00000000E+00  0.00000000E+00
  0.00000000E+00  0.00000000E+00  0.00000000E+00
  0.00000000E+00  0.00000000E+00  0.00000000E+00
  0.00000000E+00  0.00000000E+00  0.00000000E+00
  0.00000000E+00  0.00000000E+00  0.00000000E+00
  0.00000000E+00  0.00000000E+00  0.00000000E+00
  0.00000000E+00  0.00000000E+00  0.00000000E+00
  0.00000000E+00  0.00000000E+00  0.00000000E+00
  0.00000000E+00  0.00000000E+00  0.00000000E+00
  0.00000000E+00  0.00000000E+00  0.00000000E+00
  0.00000000E+00  0.00000000E+00  0.00000000E+00
  0.00000000E+00  0.00000000E+00  0.00000000E+00
  0.00000000E+00  0.00000000E+00  0.00000000E+00
  0.00000000E+00  0.00000000E+00  0.00000000E+00
