supercell of icsd_608626.cif            
  0.983556481332809     
     9.3187205585322967   -0.0017455386503541    0.0059913349748413
    -4.6608739296428956    8.0708085888239562    0.0026199496687701
     0.0065326379369032    0.0070214162187862    9.8582448647288761
   Al   B    N 
    32     4    36
Direct
  0.2161726694234218  0.1112318490432145  0.2407729553422584
  0.1178029523358148  0.2229143565455232  0.4959987672613977
  0.8990517479121323  0.1123460162058834  0.7513847857208518
  0.7858927948346874  0.2205674774534430  0.0035356291980477
  0.5581551756772001  0.1110604981162027  0.2488653624417907
  0.4360025535023482  0.2219795839403247  0.5042746776528944
  0.7809479677987170  0.2210011619700438  0.4938865517338371
  0.5523556047916713  0.1102319739286557  0.7495761906850120
  0.4385017831245790  0.2235865226982199  0.9918370727395214
  0.2206358822604741  0.4390317520447908  0.2475057217189587
  0.1172986649403569  0.5562983941336554  0.5005130764447046
  0.8887165234452397  0.4430157450373073  0.7503779722062234
  0.7745920317947252  0.5545320434980212  0.0000859285388799
  0.5509853774962892  0.4448617388573908  0.2549962272691317
  0.2227349665645448  0.4347554424232882  0.7478438714091951
  0.1103292500918585  0.5496060532309954  0.9997073843650597
  0.8903969214010630  0.4405643087683515  0.2500375052543546
  0.7752216615461691  0.5574999962809173  0.4994297146454372
  0.5493727395494190  0.4424258990817052  0.7426812138025269
  0.4400671106307286  0.5498101993969016  0.9983758168840353
  0.2207153879185810  0.7784959632579174  0.2497625567369184
  0.1145958247974335  0.8965171417973750  0.5047336886992682
  0.8908566132050950  0.7836427942505537  0.7501078615444641
  0.7840536115455947  0.8974597961769675  0.0039625147650355
  0.5555460986225569  0.7762560173324502  0.2536602656782563
  0.4431379344994753  0.8841272795728017  0.4993782482052040
  0.2238056670678574  0.7828381355553304  0.7503812325579062
  0.1106478326998044  0.8947897148918145  0.9922292236027275
  0.8923084383916517  0.7841701992050858  0.2494076589090923
  0.7770124138994063  0.8883092315894316  0.4926262969430795
  0.5558084990549546  0.7763069393752815  0.7429321879227047
  0.4451833720562846  0.8878356255256605  0.0004437897304328
  0.2170123062297762  0.1148231237397042  0.7551740474583397
  0.1039386617361160  0.2193388050636429  0.9980612797102637
  0.8891035514290522  0.1113450580641455  0.2474705689206331
  0.4430436811072980  0.5541955755518657  0.5040265613426129
  0.2222334644864361  0.1110050770387900  0.4323899789946495
  0.0895331082991859  0.2112224110937788  0.1759344046192979
  0.9141824362226316  0.1235242978739848  0.9443904091573998
  0.7806638313821708  0.2198473674014068  0.6898406476195404
  0.5546758330000685  0.1130184123637221  0.4440347668413480
  0.4446247654179558  0.2238905633915635  0.1879257742027889
  0.2085531694276455  0.1232231324905086  0.9304053558252932
  0.1230940993046801  0.2083954609995331  0.6911025489323848
  0.8951468817796240  0.1144669297408072  0.4180736966877774
  0.7901726130965159  0.2091462505863433  0.1989336075455128
  0.5586901445509227  0.1122284950571881  0.9440121650746107
  0.4172655987530192  0.2084747612483255  0.7019504315735361
  0.2457377095023290  0.4541441718344430  0.4469983670735616
  0.1127013706498516  0.5549911603121771  0.1936474958658465
  0.8869025544102414  0.4426897210230365  0.9448101682641976
  0.7788976763101019  0.5566358259554889  0.6924866829436027
  0.5419368503190185  0.4544901300924948  0.4528284931543922
  0.4445204652753247  0.5557114661233058  0.1887264176781898
  0.2090941895230998  0.4179190022201666  0.9465018146029536
  0.1131555664820141  0.5545779078147532  0.6950695273164698
  0.8903742997854636  0.4456277537715536  0.4429483962838958
  0.7753891874819274  0.5546545157471172  0.1958724588190464
  0.5547383456621873  0.4460504942625221  0.9355069385332655
  0.4422191990071127  0.5551753328638256  0.6720834663113777
  0.2202107819916748  0.7793659392170582  0.4447110824491602
  0.1117702786640749  0.8895309367321005  0.1855273565021349
  0.8855462656449475  0.7777955393485172  0.9435787614127804
  0.7797242898265537  0.8931370702512709  0.6871335618463519
  0.5434545930101535  0.7527531752465038  0.4488881185091600
  0.4447948919967502  0.8876227459309121  0.1947477826542467
  0.2221335750531779  0.7765694924046329  0.9428314699372748
  0.1232517204381338  0.9154775430491711  0.7032935184551974
  0.8929338302786789  0.7800507704514530  0.4430095075112774
  0.7878768739337048  0.9129359610022547  0.2009081230332797
  0.5570208670175987  0.7767102412773497  0.9394710947868603
  0.4447743986326955  0.8891675301771471  0.6913812009402776
 
  0.00000000E+00  0.00000000E+00  0.00000000E+00
  0.00000000E+00  0.00000000E+00  0.00000000E+00
  0.00000000E+00  0.00000000E+00  0.00000000E+00
  0.00000000E+00  0.00000000E+00  0.00000000E+00
  0.00000000E+00  0.00000000E+00  0.00000000E+00
  0.00000000E+00  0.00000000E+00  0.00000000E+00
  0.00000000E+00  0.00000000E+00  0.00000000E+00
  0.00000000E+00  0.00000000E+00  0.00000000E+00
  0.00000000E+00  0.00000000E+00  0.00000000E+00
  0.00000000E+00  0.00000000E+00  0.00000000E+00
  0.00000000E+00  0.00000000E+00  0.00000000E+00
  0.00000000E+00  0.00000000E+00  0.00000000E+00
  0.00000000E+00  0.00000000E+00  0.00000000E+00
  0.00000000E+00  0.00000000E+00  0.00000000E+00
  0.00000000E+00  0.00000000E+00  0.00000000E+00
  0.00000000E+00  0.00000000E+00  0.00000000E+00
  0.00000000E+00  0.00000000E+00  0.00000000E+00
  0.00000000E+00  0.00000000E+00  0.00000000E+00
  0.00000000E+00  0.00000000E+00  0.00000000E+00
  0.00000000E+00  0.00000000E+00  0.00000000E+00
  0.00000000E+00  0.00000000E+00  0.00000000E+00
  0.00000000E+00  0.00000000E+00  0.00000000E+00
  0.00000000E+00  0.00000000E+00  0.00000000E+00
  0.00000000E+00  0.00000000E+00  0.00000000E+00
  0.00000000E+00  0.00000000E+00  0.00000000E+00
  0.00000000E+00  0.00000000E+00  0.00000000E+00
  0.00000000E+00  0.00000000E+00  0.00000000E+00
  0.00000000E+00  0.00000000E+00  0.00000000E+00
  0.00000000E+00  0.00000000E+00  0.00000000E+00
  0.00000000E+00  0.00000000E+00  0.00000000E+00
  0.00000000E+00  0.00000000E+00  0.00000000E+00
  0.00000000E+00  0.00000000E+00  0.00000000E+00
  0.00000000E+00  0.00000000E+00  0.00000000E+00
  0.00000000E+00  0.00000000E+00  0.00000000E+00
  0.00000000E+00  0.00000000E+00  0.00000000E+00
  0.00000000E+00  0.00000000E+00  0.00000000E+00
  0.00000000E+00  0.00000000E+00  0.00000000E+00
  0.00000000E+00  0.00000000E+00  0.00000000E+00
  0.00000000E+00  0.00000000E+00  0.00000000E+00
  0.00000000E+00  0.00000000E+00  0.00000000E+00
  0.00000000E+00  0.00000000E+00  0.00000000E+00
  0.00000000E+00  0.00000000E+00  0.00000000E+00
  0.00000000E+00  0.00000000E+00  0.00000000E+00
  0.00000000E+00  0.00000000E+00  0.00000000E+00
  0.00000000E+00  0.00000000E+00  0.00000000E+00
  0.00000000E+00  0.00000000E+00  0.00000000E+00
  0.00000000E+00  0.00000000E+00  0.00000000E+00
  0.00000000E+00  0.00000000E+00  0.00000000E+00
  0.00000000E+00  0.00000000E+00  0.00000000E+00
  0.00000000E+00  0.00000000E+00  0.00000000E+00
  0.00000000E+00  0.00000000E+00  0.00000000E+00
  0.00000000E+00  0.00000000E+00  0.00000000E+00
  0.00000000E+00  0.00000000E+00  0.00000000E+00
  0.00000000E+00  0.00000000E+00  0.00000000E+00
  0.00000000E+00  0.00000000E+00  0.00000000E+00
  0.00000000E+00  0.00000000E+00  0.00000000E+00
  0.00000000E+00  0.00000000E+00  0.00000000E+00
  0.00000000E+00  0.00000000E+00  0.00000000E+00
  0.00000000E+00  0.00000000E+00  0.00000000E+00
  0.00000000E+00  0.00000000E+00  0.00000000E+00
  0.00000000E+00  0.00000000E+00  0.00000000E+00
  0.00000000E+00  0.00000000E+00  0.00000000E+00
  0.00000000E+00  0.00000000E+00  0.00000000E+00
  0.00000000E+00  0.00000000E+00  0.00000000E+00
  0.00000000E+00  0.00000000E+00  0.00000000E+00
  0.00000000E+00  0.00000000E+00  0.00000000E+00
  0.00000000E+00  0.00000000E+00  0.00000000E+00
  0.00000000E+00  0.00000000E+00  0.00000000E+00
  0.00000000E+00  0.00000000E+00  0.00000000E+00
  0.00000000E+00  0.00000000E+00  0.00000000E+00
  0.00000000E+00  0.00000000E+00  0.00000000E+00
  0.00000000E+00  0.00000000E+00  0.00000000E+00
