generated by phonopy                    
   1.00000000000000     
    10.0351470768999995   -0.0000022330999784   -0.0000001056124209
    -5.0175765436399997    8.6906901959899994    0.0000001395531216
    -0.0000001735893656    0.0000001431815548   14.9533752540999991
   Pb   Cu   P    O 
    20     1    11    50
Direct
  0.9599770268964676  0.7450271351031503  0.1236942789731614
  0.9975459353195220  0.7697588638856772  0.6234950516947109
  0.0019842825546164  0.2617808005682107  0.3696164451136994
  0.0022645756217372  0.2620089158849410  0.8778926050844333
  0.2270063799135968  0.2235092731413033  0.1238983891684953
  0.2321469337271722  0.2264173718598315  0.6236454961973266
  0.7425507878999227  0.7377072415901651  0.3662314807824529
  0.7424297824929837  0.7378071186853745  0.8812313455427656
  0.7443452794183969  0.9890180749695077  0.1236927004537591
  0.7779184487716364  0.0036564383324986  0.6234867842752152
  0.2595702793971597  0.9971908674645888  0.3732243199530387
  0.2593649103919873  0.9971063891982013  0.8743186755570491
  0.6595681755231411  0.3518402805059324  0.0048624359856717
  0.6706159572243422  0.3333972253489250  0.5003249624866086
  0.3321440403885916  0.6770153723858101  0.0066280764263666
  0.3407265013696019  0.6670772924141986  0.5029250924403499
  0.3321227532918627  0.6773297247596446  0.2409999268629406
  0.3409735609105837  0.6676992828106378  0.7446726093875498
  0.6596923123813667  0.3518258493169952  0.2429841114411246
  0.6702920252100100  0.3333578197772695  0.7478212553210923
  0.5969587752804770  0.5921690752743913  0.1239643137523458
  0.6257602103475790  0.5936177939271658  0.6238968766782236
  0.3706053321014267  0.3976118007589236  0.3723253684502907
  0.3704692644145524  0.3976615727068236  0.8756340250074288
  0.3865318687259816  0.0216457674568673  0.1238949835058349
  0.4085750095994953  0.0284972532645540  0.6239041944424386
  0.6108660515940869  0.9772770338928183  0.3754703135521709
  0.6106419761246258  0.9770787214579855  0.8721946571800387
  0.9772392137007344  0.3736857508609503  0.1239328902803578
  0.9759616786761782  0.3753135386277719  0.6239929637048434
  0.0293159152131608  0.6331961294962767  0.3769590641597631
  0.0292432394961466  0.6333381570255270  0.8707659913541406
  0.5169207088477492  0.7220275701331502  0.1239053591134081
  0.5016666519274082  0.6450327471578774  0.6237609811109621
  0.4723662579079502  0.3206011506035651  0.3735079879267005
  0.4720709393255120  0.3204777269777850  0.8747776193068333
  0.3149001374286726  0.8430158621944486  0.1238287626918009
  0.3561955877065373  0.8535304216440522  0.6238061067135021
  0.6928545091833982  0.1550441191283696  0.3806523893923099
  0.6928172104127839  0.1548373559789269  0.8671758708517459
  0.1527831925406318  0.4978235675374307  0.1238630514165777
  0.1507805358272307  0.4989751067914483  0.6237642397125143
  0.8511908546605298  0.5354321838761180  0.3806577802309832
  0.8510980575628864  0.5356584170563039  0.8671657411025677
  0.7352847693634672  0.6278576027675769  0.0277684134412937
  0.7312483521049913  0.6552944469024737  0.5392541038261740
  0.2670519393087574  0.3573017519290786  0.4573347365753548
  0.2625923956116125  0.3486062346640963  0.9592727647406250
  0.3293477823317659  0.0718307128791906  0.0396025593430878
  0.3470977878962529  0.0735240925571716  0.5392877900946331
  0.6375995739799265  0.9025607853535078  0.4601339864078398
  0.6665156989718852  0.9214157812156145  0.9549568388599781
  0.9348199661711831  0.2695977027491665  0.0393327472032041
  0.9311285626396000  0.2688682866386216  0.5395039193800812
  0.0987377425796367  0.7432440486147414  0.4594513445212343
  0.0877972405215388  0.7388620617756061  0.9556687072952101
  0.2618600023598532  0.3468400578002360  0.2890396263173614
  0.2660673884273947  0.3558577612461420  0.7909365273098601
  0.7357020501763785  0.6282613246436668  0.2198738335330219
  0.7318121912983813  0.6566467471642383  0.7082255068119778
  0.6676986658597244  0.9220580573125332  0.2929526802568745
  0.6380003706861288  0.9024681604058173  0.7877013643411601
  0.3288866553004226  0.0715989813434277  0.2081005992099492
  0.3459297562027217  0.0729272612917526  0.7082416868475576
  0.0876649593872543  0.7390977597375752  0.2922091475763011
  0.0985063419595704  0.7437202303043122  0.7884161801916179
  0.9350898963974785  0.2696029938119509  0.2085424386074166
  0.9322450459796059  0.2681824486199176  0.7080982070597059
  0.5164084133765101  0.3806908127586652  0.1240576281428218
  0.5445686235393481  0.4132777469671609  0.6242989837086839
  0.4779705652760313  0.5789591913121228  0.3689734529391870
  0.4780264738874820  0.5790356265396781  0.8779113784113477
  0.5662542582644718  0.1049741903448265  0.1241071844489667
  0.5888350633822270  0.1283060975782462  0.6242765799878072
  0.4305541378114910  0.9076160028395250  0.3649535672140445
  0.4302280967663705  0.9074551453631443  0.8821033437190309
  0.8780821252948314  0.4555854287116290  0.1240646080982017
  0.8750594208913327  0.4549698211624431  0.6245258875778390
  0.1003001628789804  0.5237416239915262  0.3755839908668293
  0.1001392277963404  0.5237932418570068  0.8717064758359427
  0.9624912109847372  0.9701392367681123  0.1235636795310100
  0.0037477724774817  0.0000444829544790  0.6222583098437866
 
  0.00000000E+00  0.00000000E+00  0.00000000E+00
  0.00000000E+00  0.00000000E+00  0.00000000E+00
  0.00000000E+00  0.00000000E+00  0.00000000E+00
  0.00000000E+00  0.00000000E+00  0.00000000E+00
  0.00000000E+00  0.00000000E+00  0.00000000E+00
  0.00000000E+00  0.00000000E+00  0.00000000E+00
  0.00000000E+00  0.00000000E+00  0.00000000E+00
  0.00000000E+00  0.00000000E+00  0.00000000E+00
  0.00000000E+00  0.00000000E+00  0.00000000E+00
  0.00000000E+00  0.00000000E+00  0.00000000E+00
  0.00000000E+00  0.00000000E+00  0.00000000E+00
  0.00000000E+00  0.00000000E+00  0.00000000E+00
  0.00000000E+00  0.00000000E+00  0.00000000E+00
  0.00000000E+00  0.00000000E+00  0.00000000E+00
  0.00000000E+00  0.00000000E+00  0.00000000E+00
  0.00000000E+00  0.00000000E+00  0.00000000E+00
  0.00000000E+00  0.00000000E+00  0.00000000E+00
  0.00000000E+00  0.00000000E+00  0.00000000E+00
  0.00000000E+00  0.00000000E+00  0.00000000E+00
  0.00000000E+00  0.00000000E+00  0.00000000E+00
  0.00000000E+00  0.00000000E+00  0.00000000E+00
  0.00000000E+00  0.00000000E+00  0.00000000E+00
  0.00000000E+00  0.00000000E+00  0.00000000E+00
  0.00000000E+00  0.00000000E+00  0.00000000E+00
  0.00000000E+00  0.00000000E+00  0.00000000E+00
  0.00000000E+00  0.00000000E+00  0.00000000E+00
  0.00000000E+00  0.00000000E+00  0.00000000E+00
  0.00000000E+00  0.00000000E+00  0.00000000E+00
  0.00000000E+00  0.00000000E+00  0.00000000E+00
  0.00000000E+00  0.00000000E+00  0.00000000E+00
  0.00000000E+00  0.00000000E+00  0.00000000E+00
  0.00000000E+00  0.00000000E+00  0.00000000E+00
  0.00000000E+00  0.00000000E+00  0.00000000E+00
  0.00000000E+00  0.00000000E+00  0.00000000E+00
  0.00000000E+00  0.00000000E+00  0.00000000E+00
  0.00000000E+00  0.00000000E+00  0.00000000E+00
  0.00000000E+00  0.00000000E+00  0.00000000E+00
  0.00000000E+00  0.00000000E+00  0.00000000E+00
  0.00000000E+00  0.00000000E+00  0.00000000E+00
  0.00000000E+00  0.00000000E+00  0.00000000E+00
  0.00000000E+00  0.00000000E+00  0.00000000E+00
  0.00000000E+00  0.00000000E+00  0.00000000E+00
  0.00000000E+00  0.00000000E+00  0.00000000E+00
  0.00000000E+00  0.00000000E+00  0.00000000E+00
  0.00000000E+00  0.00000000E+00  0.00000000E+00
  0.00000000E+00  0.00000000E+00  0.00000000E+00
  0.00000000E+00  0.00000000E+00  0.00000000E+00
  0.00000000E+00  0.00000000E+00  0.00000000E+00
  0.00000000E+00  0.00000000E+00  0.00000000E+00
  0.00000000E+00  0.00000000E+00  0.00000000E+00
  0.00000000E+00  0.00000000E+00  0.00000000E+00
  0.00000000E+00  0.00000000E+00  0.00000000E+00
  0.00000000E+00  0.00000000E+00  0.00000000E+00
  0.00000000E+00  0.00000000E+00  0.00000000E+00
  0.00000000E+00  0.00000000E+00  0.00000000E+00
  0.00000000E+00  0.00000000E+00  0.00000000E+00
  0.00000000E+00  0.00000000E+00  0.00000000E+00
  0.00000000E+00  0.00000000E+00  0.00000000E+00
  0.00000000E+00  0.00000000E+00  0.00000000E+00
  0.00000000E+00  0.00000000E+00  0.00000000E+00
  0.00000000E+00  0.00000000E+00  0.00000000E+00
  0.00000000E+00  0.00000000E+00  0.00000000E+00
  0.00000000E+00  0.00000000E+00  0.00000000E+00
  0.00000000E+00  0.00000000E+00  0.00000000E+00
  0.00000000E+00  0.00000000E+00  0.00000000E+00
  0.00000000E+00  0.00000000E+00  0.00000000E+00
  0.00000000E+00  0.00000000E+00  0.00000000E+00
  0.00000000E+00  0.00000000E+00  0.00000000E+00
  0.00000000E+00  0.00000000E+00  0.00000000E+00
  0.00000000E+00  0.00000000E+00  0.00000000E+00
  0.00000000E+00  0.00000000E+00  0.00000000E+00
  0.00000000E+00  0.00000000E+00  0.00000000E+00
  0.00000000E+00  0.00000000E+00  0.00000000E+00
  0.00000000E+00  0.00000000E+00  0.00000000E+00
  0.00000000E+00  0.00000000E+00  0.00000000E+00
  0.00000000E+00  0.00000000E+00  0.00000000E+00
  0.00000000E+00  0.00000000E+00  0.00000000E+00
  0.00000000E+00  0.00000000E+00  0.00000000E+00
  0.00000000E+00  0.00000000E+00  0.00000000E+00
  0.00000000E+00  0.00000000E+00  0.00000000E+00
  0.00000000E+00  0.00000000E+00  0.00000000E+00
  0.00000000E+00  0.00000000E+00  0.00000000E+00
