generated by phonopy                    
   1.00000000000000     
    11.7766717401999994    0.0000001554515406   -0.0000000066307821
     0.0000001547684238   11.7766718890999993   -0.0000001188749358
     0.0000000082086546   -0.0000001787909814   17.8473238844999997
   Bi   Cu   Se   O 
    36    37    36    36
Direct
  0.3332422583349199  0.1679623535410641  0.4311662098990681
  0.6664968661445414  0.1667158083369316  0.4296872643531344
  0.0000546806232293  0.1666768691290628  0.4296932485949370
  0.3332673400132080  0.4999569029851614  0.4311517200014876
  0.6652409596865141  0.5000004365934316  0.4311676974986867
  0.0013584502720292  0.4999964848602119  0.4311569874718870
  0.3332456884064001  0.8318485460417975  0.4311518531222660
  0.6665429995647756  0.8331750948449326  0.4296965185828299
  0.0000128790605416  0.8332000949219776  0.4297061987163033
  0.3333247975147628  0.1675211319385639  0.9281796454156321
  0.6638509775291936  0.1693064181198238  0.9254887249893784
  0.0028313143437870  0.1693324600443304  0.9254486580397270
  0.3333178111514599  0.4998434353316128  0.9289833978411153
  0.6656335348341713  0.4998409368832384  0.9281772196506921
  0.0010351817647987  0.4998362305607529  0.9281603172773814
  0.3333267605216150  0.8321191959770573  0.9281572547077133
  0.6638122330006340  0.8303135083283024  0.9254343154525557
  0.0028746939772191  0.8302803659223983  0.9253940559464340
  0.1673172019548659  0.9997821388223898  0.0686563941436020
  0.4992880880309514  0.9997891548356250  0.0686324425451517
  0.8334286627664298  0.9996715302527903  0.0566207624616766
  0.1669719391264550  0.3334922271975955  0.0706209036212542
  0.4996497839245535  0.3335152860569366  0.0706077177872544
  0.8333573598141797  0.3338892785460388  0.0686279915508692
  0.1669497713994588  0.6662099017701237  0.0706379514268392
  0.4996773396329814  0.6662024905136121  0.0706256812895347
  0.8333608272805151  0.6658587752113192  0.0686600653211471
  0.1664801193799974  0.9999123603470892  0.5716763053836118
  0.5000861753890788  0.9999153659085280  0.5716530775975386
  0.8332725671026893  0.9999437550639101  0.5712129823454433
  0.1662565280335713  0.3329168995193399  0.5725781176918119
  0.5002994042931306  0.3329194328751015  0.5725642911648947
  0.8332940029801179  0.3331307998642004  0.5716468208900878
  0.1662639186040380  0.6669588925649137  0.5725988239905178
  0.5002983879868523  0.6669617645790922  0.5725839450442223
  0.8332931572955573  0.6667409838666387  0.5716807543071738
  0.3333072098142580  0.9998139381000328  0.2494732463522098
  0.6377007537762651  0.9994915910920668  0.2491187067401768
  0.0269228041280840  0.9994308662532205  0.2496267066868185
  0.3332511001927259  0.3337637272985319  0.2500760284457897
  0.6639984538599961  0.3378183334203655  0.2511382110092839
  0.0027521473806900  0.3377820508277551  0.2510695579826034
  0.3332513233133128  0.6659311052694648  0.2500770916295352
  0.6644496603532275  0.6624574913971060  0.2510804547350460
  0.0023068609624630  0.6624248174821261  0.2510197085994932
  0.3333305861598959  0.9999118187650424  0.7498489354753062
  0.6668980840559016  0.9999251963835647  0.7505065265607271
  0.9997193674567271  0.9999133902527930  0.7505112175972641
  0.3333338051308132  0.3326457998118926  0.7494517617218008
  0.6667166569716301  0.3331714758050950  0.7496248513324559
  0.9998909810932304  0.3331720953838868  0.7496318398509274
  0.3333391919046917  0.6671371702728024  0.7494422544172537
  0.6667076535477179  0.6666052511505569  0.7496066092077456
  0.9999047755476980  0.6666008389302576  0.7496164358528077
  0.1708177533652204  0.1687804520364509  0.2511066503088983
  0.4954752613628131  0.1691084213273939  0.2511385101402936
  0.8335669455081316  0.1959855632659000  0.2490411881820904
  0.1672415284329745  0.4999698390661393  0.2500776181615194
  0.4994095302495083  0.4999750867836283  0.2500712880659819
  0.8333483019690888  0.4999166484651028  0.2494779202105661
  0.1708388807099013  0.8307687593666770  0.2510039469874954
  0.4954803333132674  0.8304806219453909  0.2510358793382821
  0.8336004555162901  0.8067955078914508  0.2497601756519572
  0.1665835681292052  0.1664580567029219  0.7496059238611039
  0.5000193457798829  0.1664575404724218  0.7496201076760727
  0.8332812914710743  0.1662724671436990  0.7505045716349628
  0.1660514981836201  0.4998160839017416  0.7494405143918641
  0.5005455705060697  0.4998223364506131  0.7494512234399551
  0.8332831807918240  0.4998316376447534  0.7498474405704982
  0.1665896412701144  0.8332657036661217  0.7496202890258843
  0.5000204512727962  0.8332756491419033  0.7496371962997443
  0.8332813115978510  0.8334487420187386  0.7505137903605288
  0.8322478063162251  0.0015024032817834  0.2069268823839892
  0.1673949102924723  0.3339431563097435  0.3380160420825860
  0.4992055721054314  0.3339923148801347  0.3380405619052098
  0.8333422175808778  0.3391950950294387  0.3415502558786088
  0.1673434040197108  0.6658491637514459  0.3379856831422785
  0.4992654531653216  0.6658167066757272  0.3380030993095104
  0.8333487431589646  0.6610326227240932  0.3412136080077346
  0.1722476014703531  0.9998291265719388  0.3412639308590641
  0.4940985109182918  0.9998418768768431  0.3414814963829258
  0.8334094752519334  0.9997487706404016  0.3406041447574140
  0.1670217691349265  0.3335349366709792  0.8369884538953372
  0.4996276552255239  0.3335364663852758  0.8370009745393716
  0.8333056406354515  0.3338919077315552  0.8370752694093255
  0.1670302241232378  0.6661324188555042  0.8369728833648225
  0.4996257290233928  0.6661393355086958  0.8369866015791985
  0.8333066961937377  0.6657847638139387  0.8370514831912246
  0.1673785744724725  0.9998672618583129  0.8370553072673772
  0.4992722074064488  0.9998717909009116  0.8370720379024235
  0.8333150969349958  0.9998579222996113  0.8377271091705509
  0.9996498776175571  0.1660276673398968  0.1655376228863261
  0.3332851295884041  0.1660385442659589  0.1620996678370332
  0.6671064279020058  0.1660714774823688  0.1656837521921304
  0.9995164496240889  0.4998918431683492  0.1620528423163350
  0.3333327054817232  0.4998349281982897  0.1624728680599361
  0.6671412595027277  0.4999154206298613  0.1620876624053551
  0.9996864259488163  0.8334475578101319  0.1652864781807608
  0.3332944730681220  0.8336575178004821  0.1620387519548387
  0.6671152024902440  0.8334845266722510  0.1654484990220979
  0.9995717639216437  0.1661976023150373  0.6633073536740710
  0.3333085405706058  0.1662983743339979  0.6630712365370144
  0.6670055679813274  0.1661980452549940  0.6632949754392072
  0.9996840731574608  0.4998810742911175  0.6630821330230461
  0.3333018824834397  0.4998918437980819  0.6638067833172343
  0.6668981401635747  0.4998822818606286  0.6630735982840577
  0.9995804617762971  0.8336204637843565  0.6633262792342407
  0.3333121102374790  0.8335131674819323  0.6630870859124940
  0.6669990023525543  0.8336298215146343  0.6633156748391684
  0.1669579441223945  0.1672354435484422  0.9993646861083860
  0.4996937758160129  0.1672172956900653  0.9993767485647140
  0.8333460168234197  0.1698201189537514  0.9958158155299799
  0.1669395008698018  0.4997991169833824  0.9998201814694241
  0.4997118452760034  0.4998061020907159  0.9998491094213975
  0.8333317446323107  0.4998548890608348  0.9991973882559009
  0.1669929126169905  0.8324450267294026  0.9993418024683365
  0.4996628072717328  0.8324723748041691  0.9993546446019437
  0.8333483144874947  0.8297235392738713  0.9956967598617794
  0.1664669957426952  0.1668701277523041  0.5013427985331873
  0.5000998280677180  0.1668836629106920  0.5013152160368506
  0.8332834030832927  0.1666911806924318  0.5003445964974915
  0.1671208245444120  0.4999324457896250  0.5019272672723503
  0.4994662120434654  0.4999343125966789  0.5019068695258824
  0.8332906867750296  0.4999478759612188  0.5010907856897333
  0.1664813810189187  0.8329608900493639  0.5013668069973036
  0.5000902213322647  0.8329533416793709  0.5013391320802114
  0.8332835023868626  0.8331368528904193  0.5003839098763621
  0.3333127125523916  0.9998315680851348  0.9991987022246462
  0.6633236863083880  0.9998135057717334  0.9957973711944064
  0.0034208610233151  0.9998094851878605  0.9957173803694559
  0.3333445375764015  0.3334489548653181  0.9998573078529773
  0.6659589272443682  0.3334734973845173  0.9993765819107949
  0.0006890043948076  0.3334888890651726  0.9993610213689834
  0.3333474593000361  0.6662229843823226  0.9998105562529531
  0.6659205424206576  0.6661976811135162  0.9993580442340502
  0.0007314285817657  0.6661723242765660  0.9993403954434967
  0.3332741393236276  0.9999229365509308  0.5010881980692474
  0.6665146651010545  0.9999333397059473  0.5003518740436235
  0.0000746958422582  0.9999308213051634  0.5003801446854865
  0.3332783872537988  0.3337367601191943  0.5018999368914905
  0.6663225572345581  0.3331166860001815  0.5013143094437140
  0.0002615191584354  0.3331201195539961  0.5013284787016303
  0.3332810284255388  0.6660896187230279  0.5019290908448752
  0.6663377995771569  0.6667491396946161  0.5013550754218699
  0.0002486180331758  0.6667401981358196  0.5013712425307375
 
  0.00000000E+00  0.00000000E+00  0.00000000E+00
  0.00000000E+00  0.00000000E+00  0.00000000E+00
  0.00000000E+00  0.00000000E+00  0.00000000E+00
  0.00000000E+00  0.00000000E+00  0.00000000E+00
  0.00000000E+00  0.00000000E+00  0.00000000E+00
  0.00000000E+00  0.00000000E+00  0.00000000E+00
  0.00000000E+00  0.00000000E+00  0.00000000E+00
  0.00000000E+00  0.00000000E+00  0.00000000E+00
  0.00000000E+00  0.00000000E+00  0.00000000E+00
  0.00000000E+00  0.00000000E+00  0.00000000E+00
  0.00000000E+00  0.00000000E+00  0.00000000E+00
  0.00000000E+00  0.00000000E+00  0.00000000E+00
  0.00000000E+00  0.00000000E+00  0.00000000E+00
  0.00000000E+00  0.00000000E+00  0.00000000E+00
  0.00000000E+00  0.00000000E+00  0.00000000E+00
  0.00000000E+00  0.00000000E+00  0.00000000E+00
  0.00000000E+00  0.00000000E+00  0.00000000E+00
  0.00000000E+00  0.00000000E+00  0.00000000E+00
  0.00000000E+00  0.00000000E+00  0.00000000E+00
  0.00000000E+00  0.00000000E+00  0.00000000E+00
  0.00000000E+00  0.00000000E+00  0.00000000E+00
  0.00000000E+00  0.00000000E+00  0.00000000E+00
  0.00000000E+00  0.00000000E+00  0.00000000E+00
  0.00000000E+00  0.00000000E+00  0.00000000E+00
  0.00000000E+00  0.00000000E+00  0.00000000E+00
  0.00000000E+00  0.00000000E+00  0.00000000E+00
  0.00000000E+00  0.00000000E+00  0.00000000E+00
  0.00000000E+00  0.00000000E+00  0.00000000E+00
  0.00000000E+00  0.00000000E+00  0.00000000E+00
  0.00000000E+00  0.00000000E+00  0.00000000E+00
  0.00000000E+00  0.00000000E+00  0.00000000E+00
  0.00000000E+00  0.00000000E+00  0.00000000E+00
  0.00000000E+00  0.00000000E+00  0.00000000E+00
  0.00000000E+00  0.00000000E+00  0.00000000E+00
  0.00000000E+00  0.00000000E+00  0.00000000E+00
  0.00000000E+00  0.00000000E+00  0.00000000E+00
  0.00000000E+00  0.00000000E+00  0.00000000E+00
  0.00000000E+00  0.00000000E+00  0.00000000E+00
  0.00000000E+00  0.00000000E+00  0.00000000E+00
  0.00000000E+00  0.00000000E+00  0.00000000E+00
  0.00000000E+00  0.00000000E+00  0.00000000E+00
  0.00000000E+00  0.00000000E+00  0.00000000E+00
  0.00000000E+00  0.00000000E+00  0.00000000E+00
  0.00000000E+00  0.00000000E+00  0.00000000E+00
  0.00000000E+00  0.00000000E+00  0.00000000E+00
  0.00000000E+00  0.00000000E+00  0.00000000E+00
  0.00000000E+00  0.00000000E+00  0.00000000E+00
  0.00000000E+00  0.00000000E+00  0.00000000E+00
  0.00000000E+00  0.00000000E+00  0.00000000E+00
  0.00000000E+00  0.00000000E+00  0.00000000E+00
  0.00000000E+00  0.00000000E+00  0.00000000E+00
  0.00000000E+00  0.00000000E+00  0.00000000E+00
  0.00000000E+00  0.00000000E+00  0.00000000E+00
  0.00000000E+00  0.00000000E+00  0.00000000E+00
  0.00000000E+00  0.00000000E+00  0.00000000E+00
  0.00000000E+00  0.00000000E+00  0.00000000E+00
  0.00000000E+00  0.00000000E+00  0.00000000E+00
  0.00000000E+00  0.00000000E+00  0.00000000E+00
  0.00000000E+00  0.00000000E+00  0.00000000E+00
  0.00000000E+00  0.00000000E+00  0.00000000E+00
  0.00000000E+00  0.00000000E+00  0.00000000E+00
  0.00000000E+00  0.00000000E+00  0.00000000E+00
  0.00000000E+00  0.00000000E+00  0.00000000E+00
  0.00000000E+00  0.00000000E+00  0.00000000E+00
  0.00000000E+00  0.00000000E+00  0.00000000E+00
  0.00000000E+00  0.00000000E+00  0.00000000E+00
  0.00000000E+00  0.00000000E+00  0.00000000E+00
  0.00000000E+00  0.00000000E+00  0.00000000E+00
  0.00000000E+00  0.00000000E+00  0.00000000E+00
  0.00000000E+00  0.00000000E+00  0.00000000E+00
  0.00000000E+00  0.00000000E+00  0.00000000E+00
  0.00000000E+00  0.00000000E+00  0.00000000E+00
  0.00000000E+00  0.00000000E+00  0.00000000E+00
  0.00000000E+00  0.00000000E+00  0.00000000E+00
  0.00000000E+00  0.00000000E+00  0.00000000E+00
  0.00000000E+00  0.00000000E+00  0.00000000E+00
  0.00000000E+00  0.00000000E+00  0.00000000E+00
  0.00000000E+00  0.00000000E+00  0.00000000E+00
  0.00000000E+00  0.00000000E+00  0.00000000E+00
  0.00000000E+00  0.00000000E+00  0.00000000E+00
  0.00000000E+00  0.00000000E+00  0.00000000E+00
  0.00000000E+00  0.00000000E+00  0.00000000E+00
  0.00000000E+00  0.00000000E+00  0.00000000E+00
  0.00000000E+00  0.00000000E+00  0.00000000E+00
  0.00000000E+00  0.00000000E+00  0.00000000E+00
  0.00000000E+00  0.00000000E+00  0.00000000E+00
  0.00000000E+00  0.00000000E+00  0.00000000E+00
  0.00000000E+00  0.00000000E+00  0.00000000E+00
  0.00000000E+00  0.00000000E+00  0.00000000E+00
  0.00000000E+00  0.00000000E+00  0.00000000E+00
  0.00000000E+00  0.00000000E+00  0.00000000E+00
  0.00000000E+00  0.00000000E+00  0.00000000E+00
  0.00000000E+00  0.00000000E+00  0.00000000E+00
  0.00000000E+00  0.00000000E+00  0.00000000E+00
  0.00000000E+00  0.00000000E+00  0.00000000E+00
  0.00000000E+00  0.00000000E+00  0.00000000E+00
  0.00000000E+00  0.00000000E+00  0.00000000E+00
  0.00000000E+00  0.00000000E+00  0.00000000E+00
  0.00000000E+00  0.00000000E+00  0.00000000E+00
  0.00000000E+00  0.00000000E+00  0.00000000E+00
  0.00000000E+00  0.00000000E+00  0.00000000E+00
  0.00000000E+00  0.00000000E+00  0.00000000E+00
  0.00000000E+00  0.00000000E+00  0.00000000E+00
  0.00000000E+00  0.00000000E+00  0.00000000E+00
  0.00000000E+00  0.00000000E+00  0.00000000E+00
  0.00000000E+00  0.00000000E+00  0.00000000E+00
  0.00000000E+00  0.00000000E+00  0.00000000E+00
  0.00000000E+00  0.00000000E+00  0.00000000E+00
  0.00000000E+00  0.00000000E+00  0.00000000E+00
  0.00000000E+00  0.00000000E+00  0.00000000E+00
  0.00000000E+00  0.00000000E+00  0.00000000E+00
  0.00000000E+00  0.00000000E+00  0.00000000E+00
  0.00000000E+00  0.00000000E+00  0.00000000E+00
  0.00000000E+00  0.00000000E+00  0.00000000E+00
  0.00000000E+00  0.00000000E+00  0.00000000E+00
  0.00000000E+00  0.00000000E+00  0.00000000E+00
  0.00000000E+00  0.00000000E+00  0.00000000E+00
  0.00000000E+00  0.00000000E+00  0.00000000E+00
  0.00000000E+00  0.00000000E+00  0.00000000E+00
  0.00000000E+00  0.00000000E+00  0.00000000E+00
  0.00000000E+00  0.00000000E+00  0.00000000E+00
  0.00000000E+00  0.00000000E+00  0.00000000E+00
  0.00000000E+00  0.00000000E+00  0.00000000E+00
  0.00000000E+00  0.00000000E+00  0.00000000E+00
  0.00000000E+00  0.00000000E+00  0.00000000E+00
  0.00000000E+00  0.00000000E+00  0.00000000E+00
  0.00000000E+00  0.00000000E+00  0.00000000E+00
  0.00000000E+00  0.00000000E+00  0.00000000E+00
  0.00000000E+00  0.00000000E+00  0.00000000E+00
  0.00000000E+00  0.00000000E+00  0.00000000E+00
  0.00000000E+00  0.00000000E+00  0.00000000E+00
  0.00000000E+00  0.00000000E+00  0.00000000E+00
  0.00000000E+00  0.00000000E+00  0.00000000E+00
  0.00000000E+00  0.00000000E+00  0.00000000E+00
  0.00000000E+00  0.00000000E+00  0.00000000E+00
  0.00000000E+00  0.00000000E+00  0.00000000E+00
  0.00000000E+00  0.00000000E+00  0.00000000E+00
  0.00000000E+00  0.00000000E+00  0.00000000E+00
  0.00000000E+00  0.00000000E+00  0.00000000E+00
  0.00000000E+00  0.00000000E+00  0.00000000E+00
  0.00000000E+00  0.00000000E+00  0.00000000E+00
  0.00000000E+00  0.00000000E+00  0.00000000E+00
  0.00000000E+00  0.00000000E+00  0.00000000E+00
  0.00000000E+00  0.00000000E+00  0.00000000E+00
  0.00000000E+00  0.00000000E+00  0.00000000E+00
