generated by phonopy                    
   1.00000000000000     
    10.0351470768999995   -0.0000022330999784   -0.0000001056124209
    -5.0175765436399997    8.6906901959899994    0.0000001395531216
    -0.0000001735893656    0.0000001431815548   14.9533752540999991
   Pb   P    O 
    20    13    49
Direct
  0.0115266398082667  0.7730542938764415  0.1239374736517505
  0.9964923440066187  0.7665468589200728  0.6230125099043136
  0.0072911802714941  0.2599993855032423  0.3853732776393315
  0.0078753145318160  0.2604394638541123  0.8625659871835936
  0.2422940792600059  0.2318917207678624  0.1214957396538097
  0.2229715553736042  0.2162202875195760  0.6225947898254489
  0.7396471119189414  0.7440128435476510  0.3796938806156973
  0.7384781102229141  0.7434599975416063  0.8681412529085435
  0.7676480684001135  0.0156925317661774  0.1243409973402549
  0.7731078969575407  0.9999408419259765  0.6236207861869829
  0.2558048611774382  0.9966380578347298  0.3787805143484846
  0.2547803571400635  0.9967898892009686  0.8672594983259998
  0.6827207289686328  0.3152350925424798  0.9874277801016831
  0.6626045607169431  0.3346887755480736  0.5048945817369130
  0.3256209539559762  0.6695176729978627  0.0004621886687843
  0.3401035050950298  0.6676937761125075  0.5039853681292570
  0.3240639862039529  0.6660626231495712  0.2469711369274563
  0.3381235639150688  0.6653041983635859  0.7431116143030607
  0.6845544192793227  0.3157143741273458  0.2617581503501185
  0.6644365583786964  0.3360503063615283  0.7434830880332228
  0.6380821216919728  0.6410980837494193  0.1238522283904402
  0.6232430860291700  0.5926714111348943  0.6241562148568178
  0.3763987293057411  0.3917418042643064  0.3666103354787538
  0.3744193138673637  0.3907735724452976  0.8800084335010609
  0.3963397900376719  0.0222700157532003  0.1240044785391561
  0.4027488104599115  0.0245679697126633  0.6239537865790581
  0.6009718911195918  0.9704047211966866  0.3730416561407850
  0.5996010111952685  0.9705690473143704  0.8754900983697951
  0.9635149565642749  0.3895857955952238  0.1239799600592733
  0.9780262462061486  0.3746317928194927  0.6238098679057344
  0.0246520511907775  0.6256868345710558  0.3686390006607425
  0.0233967585967747  0.6250343972300101  0.8800151470131254
  0.5381676415468135  0.3916633853173579  0.1247269604059582
  0.5122124735199023  0.6859100036742234  0.1238958969872641
  0.5042480907989173  0.6494236575689030  0.6237959518764171
  0.4782347619058953  0.3149887227581800  0.3713746014563384
  0.4765239249240452  0.3142527846778336  0.8761811223026186
  0.3283934086180764  0.8441383922574630  0.1237387116948199
  0.3541341202036108  0.8507071223581164  0.6236550522988509
  0.6781375598322796  0.1508624136955561  0.3778257984284537
  0.6766996052590812  0.1513710337136942  0.8720478876929434
  0.1422458131867756  0.4810654668625176  0.1235162562070826
  0.1516273131271149  0.4996889219942915  0.6236362255886974
  0.8451247538469318  0.5193790320582394  0.3648907038036242
  0.8437801163895742  0.5180044676411626  0.8845223885448874
  0.7405577147086362  0.6884522544301106  0.0394665004086505
  0.7298524948041418  0.6507764873945234  0.5395694673461051
  0.2562611703306672  0.3321364231687767  0.4453289682109656
  0.2781693148194435  0.3533510924604712  0.9685629258293318
  0.3401278173545066  0.0740544980924938  0.0398067456519300
  0.3399921047403467  0.0683202666882110  0.5391392680075739
  0.6479638049647107  0.9092508879867793  0.4565329341049207
  0.6434623520286067  0.9148823855965631  0.9614624072410649
  0.8986285310177422  0.2825545642009999  0.0384375154174563
  0.9360356868147335  0.2664308580228791  0.5396868760203617
  0.0715249695416418  0.7394020386459133  0.4489407939679921
  0.0921466978318222  0.7214749254317638  0.9672494666816007
  0.2842604674901494  0.3573865129625204  0.2767920495751426
  0.2563355835920618  0.3332909513704365  0.8002910302406434
  0.7402360022247194  0.6880101146221946  0.2084328876437880
  0.7298465141346995  0.6521137358081432  0.7087064149977991
  0.6496483002072395  0.9170160976988413  0.2879629972993527
  0.6512624639016025  0.9123338211982102  0.7927917034500211
  0.3386096808892916  0.0730936555985338  0.2077397432234775
  0.3355008133142334  0.0658675315361634  0.7076914421009519
  0.0926368355076761  0.7235862264507631  0.2817479813384836
  0.0679298830830106  0.7395490005583909  0.8003150025045755
  0.9001530165043974  0.2808547906001237  0.2087623097412887
  0.9365427379701359  0.2659189093969374  0.7076016649033221
  0.5389432176295728  0.4115800795036648  0.6246003147788102
  0.4778555032499554  0.5725260050617038  0.3763339067471705
  0.4762870965225048  0.5717245148158057  0.8720532742939398
  0.5776788037840817  0.1108684585489925  0.1242181984713966
  0.5827563942167870  0.1290588704268743  0.6252582556521133
  0.4199194828753434  0.8958334006539417  0.3736302578357993
  0.4185687895547900  0.8958487851555503  0.8720033043626216
  0.8870839408674200  0.4927845506303328  0.1250660287139098
  0.8732484782592067  0.4492664368981920  0.6241392840618616
  0.1029313108934105  0.5230424968364531  0.3797579044726476
  0.1020646783498762  0.5232489093271226  0.8668101594400639
  0.0240342548020109  0.0550896681908100  0.1218365738249361
  0.9962275411014261  0.9925431847251645  0.6208572147593401
 
  0.00000000E+00  0.00000000E+00  0.00000000E+00
  0.00000000E+00  0.00000000E+00  0.00000000E+00
  0.00000000E+00  0.00000000E+00  0.00000000E+00
  0.00000000E+00  0.00000000E+00  0.00000000E+00
  0.00000000E+00  0.00000000E+00  0.00000000E+00
  0.00000000E+00  0.00000000E+00  0.00000000E+00
  0.00000000E+00  0.00000000E+00  0.00000000E+00
  0.00000000E+00  0.00000000E+00  0.00000000E+00
  0.00000000E+00  0.00000000E+00  0.00000000E+00
  0.00000000E+00  0.00000000E+00  0.00000000E+00
  0.00000000E+00  0.00000000E+00  0.00000000E+00
  0.00000000E+00  0.00000000E+00  0.00000000E+00
  0.00000000E+00  0.00000000E+00  0.00000000E+00
  0.00000000E+00  0.00000000E+00  0.00000000E+00
  0.00000000E+00  0.00000000E+00  0.00000000E+00
  0.00000000E+00  0.00000000E+00  0.00000000E+00
  0.00000000E+00  0.00000000E+00  0.00000000E+00
  0.00000000E+00  0.00000000E+00  0.00000000E+00
  0.00000000E+00  0.00000000E+00  0.00000000E+00
  0.00000000E+00  0.00000000E+00  0.00000000E+00
  0.00000000E+00  0.00000000E+00  0.00000000E+00
  0.00000000E+00  0.00000000E+00  0.00000000E+00
  0.00000000E+00  0.00000000E+00  0.00000000E+00
  0.00000000E+00  0.00000000E+00  0.00000000E+00
  0.00000000E+00  0.00000000E+00  0.00000000E+00
  0.00000000E+00  0.00000000E+00  0.00000000E+00
  0.00000000E+00  0.00000000E+00  0.00000000E+00
  0.00000000E+00  0.00000000E+00  0.00000000E+00
  0.00000000E+00  0.00000000E+00  0.00000000E+00
  0.00000000E+00  0.00000000E+00  0.00000000E+00
  0.00000000E+00  0.00000000E+00  0.00000000E+00
  0.00000000E+00  0.00000000E+00  0.00000000E+00
  0.00000000E+00  0.00000000E+00  0.00000000E+00
  0.00000000E+00  0.00000000E+00  0.00000000E+00
  0.00000000E+00  0.00000000E+00  0.00000000E+00
  0.00000000E+00  0.00000000E+00  0.00000000E+00
  0.00000000E+00  0.00000000E+00  0.00000000E+00
  0.00000000E+00  0.00000000E+00  0.00000000E+00
  0.00000000E+00  0.00000000E+00  0.00000000E+00
  0.00000000E+00  0.00000000E+00  0.00000000E+00
  0.00000000E+00  0.00000000E+00  0.00000000E+00
  0.00000000E+00  0.00000000E+00  0.00000000E+00
  0.00000000E+00  0.00000000E+00  0.00000000E+00
  0.00000000E+00  0.00000000E+00  0.00000000E+00
  0.00000000E+00  0.00000000E+00  0.00000000E+00
  0.00000000E+00  0.00000000E+00  0.00000000E+00
  0.00000000E+00  0.00000000E+00  0.00000000E+00
  0.00000000E+00  0.00000000E+00  0.00000000E+00
  0.00000000E+00  0.00000000E+00  0.00000000E+00
  0.00000000E+00  0.00000000E+00  0.00000000E+00
  0.00000000E+00  0.00000000E+00  0.00000000E+00
  0.00000000E+00  0.00000000E+00  0.00000000E+00
  0.00000000E+00  0.00000000E+00  0.00000000E+00
  0.00000000E+00  0.00000000E+00  0.00000000E+00
  0.00000000E+00  0.00000000E+00  0.00000000E+00
  0.00000000E+00  0.00000000E+00  0.00000000E+00
  0.00000000E+00  0.00000000E+00  0.00000000E+00
  0.00000000E+00  0.00000000E+00  0.00000000E+00
  0.00000000E+00  0.00000000E+00  0.00000000E+00
  0.00000000E+00  0.00000000E+00  0.00000000E+00
  0.00000000E+00  0.00000000E+00  0.00000000E+00
  0.00000000E+00  0.00000000E+00  0.00000000E+00
  0.00000000E+00  0.00000000E+00  0.00000000E+00
  0.00000000E+00  0.00000000E+00  0.00000000E+00
  0.00000000E+00  0.00000000E+00  0.00000000E+00
  0.00000000E+00  0.00000000E+00  0.00000000E+00
  0.00000000E+00  0.00000000E+00  0.00000000E+00
  0.00000000E+00  0.00000000E+00  0.00000000E+00
  0.00000000E+00  0.00000000E+00  0.00000000E+00
  0.00000000E+00  0.00000000E+00  0.00000000E+00
  0.00000000E+00  0.00000000E+00  0.00000000E+00
  0.00000000E+00  0.00000000E+00  0.00000000E+00
  0.00000000E+00  0.00000000E+00  0.00000000E+00
  0.00000000E+00  0.00000000E+00  0.00000000E+00
  0.00000000E+00  0.00000000E+00  0.00000000E+00
  0.00000000E+00  0.00000000E+00  0.00000000E+00
  0.00000000E+00  0.00000000E+00  0.00000000E+00
  0.00000000E+00  0.00000000E+00  0.00000000E+00
  0.00000000E+00  0.00000000E+00  0.00000000E+00
  0.00000000E+00  0.00000000E+00  0.00000000E+00
  0.00000000E+00  0.00000000E+00  0.00000000E+00
  0.00000000E+00  0.00000000E+00  0.00000000E+00
