supercell of icsd_181358.cif            
   1.00000000000000     
     9.9902364413999329    0.0262620620867012   -0.1309791982312470
    -4.9716972000669699    8.7780833642694347    0.1123347331225330
    -0.1441312145767080    0.0584067308678909   10.7752140678058215
   N    Ga   La
    36    28     8
Direct
  0.2332046148083364  0.1509449036900392  0.4298348985286751
  0.1087784178409237  0.2326645267511651  0.1849799660792826
  0.8853390284323552  0.1235160208954085  0.9418964092338555
  0.7532402093883377  0.1649355568468138  0.6605066963191391
  0.5523735010296775  0.1024323431755150  0.4312286027787735
  0.4439589282824130  0.2218055647799133  0.1969973752586895
  0.2180309301534393  0.1113984826813450  0.9726781438599303
  0.0837674757665638  0.2489670523328442  0.6772943135414735
  0.9076777826850275  0.1476902249565626  0.4182532076455843
  0.7703057361968035  0.2240925107174689  0.1866873596005121
  0.5727583027952292  0.1617965881532299  0.9161443643005711
  0.4548244201593619  0.1972145852968694  0.6569921493796329
  0.2302704703830614  0.4525012559547577  0.4313961471696857
  0.1112920691400703  0.5586090051513182  0.1879348841503088
  0.8803758298003004  0.4527560997155646  0.9578106620441815
  0.7965744344516850  0.5523127705149165  0.6560368011592885
  0.5513303216889582  0.4426715525352094  0.4386684237916469
  0.4212596996104025  0.5193469677193363  0.1846806914596542
  0.2147395014638818  0.4480462287052163  0.9343336854220041
  0.1469977506485023  0.5792418814807760  0.6693667523824942
  0.8944785407140614  0.4413111897156412  0.4363819292013602
  0.7662841913066458  0.5417279510217199  0.2057585403093611
  0.5517149361786267  0.4439162810779322  0.9687152640499193
  0.4373509445623043  0.5598074305761571  0.6887890212069578
  0.2469325729623151  0.7584999962781325  0.4239547594925810
  0.1204177274942140  0.8968140168456458  0.2119939297900331
  0.8862820088001797  0.7733625292049595  0.0142003002389188
  0.7802668085269744  0.8844628148668932  0.7396180122775604
  0.5456347313308569  0.7680370309742131  0.4715240205402367
  0.4324206297450814  0.9061705524735544  0.1861220308481037
  0.1708398068403767  0.7607994862599838  0.9270974341574245
  0.1268834341443963  0.8855523844024944  0.6820841284226731
  0.8573287070889037  0.7479940190531451  0.4088123544397817
  0.8048152267912911  0.9189720733114086  0.1862122506622370
  0.5643485206391219  0.7568530102255622  0.9475295615724022
  0.4456196797333192  0.8819131247651057  0.7056490042385306
  0.2257476469990323  0.1301737884855427  0.2455470175111998
  0.1067614926292961  0.2308683985955113  0.0054364296887286
  0.8760519430352218  0.1010068718356152  0.7599443895815980
  0.7761077980539000  0.2187656597715417  0.4826202567689606
  0.5497858418884576  0.1101373971782849  0.2498927949194183
  0.4450947906235641  0.2317749926526460  0.0154547665517768
  0.1130123182760840  0.2465956391257151  0.4889960974775605
  0.8956923111415449  0.1266117343536450  0.2411365739154689
  0.7739816138041249  0.2367135446943607  0.0042651052625828
  0.5583082973162234  0.1024966857278500  0.7296604033263421
  0.4488495372636265  0.2241666141370331  0.4826978143407388
  0.2169638402478711  0.4406113889605336  0.2477866902855439
  0.0977539289823994  0.5574244497897283  0.0046710112671562
  0.7759179475656808  0.5483731653618378  0.4783474235873797
  0.5466627393825547  0.4340239598583224  0.2539155747338739
  0.4361724707472092  0.5436384236633032  0.0058204523245493
  0.2292358943319144  0.4589376338222522  0.7469487271940238
  0.1245173067277250  0.5558129547866102  0.4887395612856267
  0.8870115105148386  0.4407661399135634  0.2518415417262929
  0.7650299732360182  0.5437256506087280  0.0306266502997872
  0.4393543992515134  0.5520620330243773  0.5050270173349105
  0.2286907225556831  0.7762794762626299  0.2461020003362009
  0.1105214464536814  0.8952840867902339  0.0300517831437972
  0.2248371126445505  0.7747911706880046  0.7382454937075451
  0.8853353249769853  0.7759742664732272  0.2278155792059806
  0.7817704513834371  0.8950733387810814  0.0058981055657981
  0.5572586687244794  0.7680619706614564  0.7588219765145183
  0.4464151608062892  0.8825876255267673  0.5072572984610417
  0.2221219467880644  0.1227955787314770  0.7470304431763282
  0.9051264544427227  0.4119191042780130  0.7375044537538855
  0.5672598491139738  0.4309894212089631  0.7497335786831130
  0.9095207607720042  0.7506951017491872  0.7936303842633450
  0.7963134665674261  0.9061595148614217  0.5174014444047685
  0.5533316316023189  0.7700494805606368  0.2523187100698294
  0.4384495815093743  0.9005748840231291  0.9707459018485238
  0.1163159280562027  0.8849398399499648  0.4639024719283498
 
  0.00000000E+00  0.00000000E+00  0.00000000E+00
  0.00000000E+00  0.00000000E+00  0.00000000E+00
  0.00000000E+00  0.00000000E+00  0.00000000E+00
  0.00000000E+00  0.00000000E+00  0.00000000E+00
  0.00000000E+00  0.00000000E+00  0.00000000E+00
  0.00000000E+00  0.00000000E+00  0.00000000E+00
  0.00000000E+00  0.00000000E+00  0.00000000E+00
  0.00000000E+00  0.00000000E+00  0.00000000E+00
  0.00000000E+00  0.00000000E+00  0.00000000E+00
  0.00000000E+00  0.00000000E+00  0.00000000E+00
  0.00000000E+00  0.00000000E+00  0.00000000E+00
  0.00000000E+00  0.00000000E+00  0.00000000E+00
  0.00000000E+00  0.00000000E+00  0.00000000E+00
  0.00000000E+00  0.00000000E+00  0.00000000E+00
  0.00000000E+00  0.00000000E+00  0.00000000E+00
  0.00000000E+00  0.00000000E+00  0.00000000E+00
  0.00000000E+00  0.00000000E+00  0.00000000E+00
  0.00000000E+00  0.00000000E+00  0.00000000E+00
  0.00000000E+00  0.00000000E+00  0.00000000E+00
  0.00000000E+00  0.00000000E+00  0.00000000E+00
  0.00000000E+00  0.00000000E+00  0.00000000E+00
  0.00000000E+00  0.00000000E+00  0.00000000E+00
  0.00000000E+00  0.00000000E+00  0.00000000E+00
  0.00000000E+00  0.00000000E+00  0.00000000E+00
  0.00000000E+00  0.00000000E+00  0.00000000E+00
  0.00000000E+00  0.00000000E+00  0.00000000E+00
  0.00000000E+00  0.00000000E+00  0.00000000E+00
  0.00000000E+00  0.00000000E+00  0.00000000E+00
  0.00000000E+00  0.00000000E+00  0.00000000E+00
  0.00000000E+00  0.00000000E+00  0.00000000E+00
  0.00000000E+00  0.00000000E+00  0.00000000E+00
  0.00000000E+00  0.00000000E+00  0.00000000E+00
  0.00000000E+00  0.00000000E+00  0.00000000E+00
  0.00000000E+00  0.00000000E+00  0.00000000E+00
  0.00000000E+00  0.00000000E+00  0.00000000E+00
  0.00000000E+00  0.00000000E+00  0.00000000E+00
  0.00000000E+00  0.00000000E+00  0.00000000E+00
  0.00000000E+00  0.00000000E+00  0.00000000E+00
  0.00000000E+00  0.00000000E+00  0.00000000E+00
  0.00000000E+00  0.00000000E+00  0.00000000E+00
  0.00000000E+00  0.00000000E+00  0.00000000E+00
  0.00000000E+00  0.00000000E+00  0.00000000E+00
  0.00000000E+00  0.00000000E+00  0.00000000E+00
  0.00000000E+00  0.00000000E+00  0.00000000E+00
  0.00000000E+00  0.00000000E+00  0.00000000E+00
  0.00000000E+00  0.00000000E+00  0.00000000E+00
  0.00000000E+00  0.00000000E+00  0.00000000E+00
  0.00000000E+00  0.00000000E+00  0.00000000E+00
  0.00000000E+00  0.00000000E+00  0.00000000E+00
  0.00000000E+00  0.00000000E+00  0.00000000E+00
  0.00000000E+00  0.00000000E+00  0.00000000E+00
  0.00000000E+00  0.00000000E+00  0.00000000E+00
  0.00000000E+00  0.00000000E+00  0.00000000E+00
  0.00000000E+00  0.00000000E+00  0.00000000E+00
  0.00000000E+00  0.00000000E+00  0.00000000E+00
  0.00000000E+00  0.00000000E+00  0.00000000E+00
  0.00000000E+00  0.00000000E+00  0.00000000E+00
  0.00000000E+00  0.00000000E+00  0.00000000E+00
  0.00000000E+00  0.00000000E+00  0.00000000E+00
  0.00000000E+00  0.00000000E+00  0.00000000E+00
  0.00000000E+00  0.00000000E+00  0.00000000E+00
  0.00000000E+00  0.00000000E+00  0.00000000E+00
  0.00000000E+00  0.00000000E+00  0.00000000E+00
  0.00000000E+00  0.00000000E+00  0.00000000E+00
  0.00000000E+00  0.00000000E+00  0.00000000E+00
  0.00000000E+00  0.00000000E+00  0.00000000E+00
  0.00000000E+00  0.00000000E+00  0.00000000E+00
  0.00000000E+00  0.00000000E+00  0.00000000E+00
  0.00000000E+00  0.00000000E+00  0.00000000E+00
  0.00000000E+00  0.00000000E+00  0.00000000E+00
  0.00000000E+00  0.00000000E+00  0.00000000E+00
  0.00000000E+00  0.00000000E+00  0.00000000E+00
