generated by phonopy                    
   1.00000000000000     
    10.0351470768999995   -0.0000022330999784   -0.0000001056124209
    -5.0175765436399997    8.6906901959899994    0.0000001395531216
    -0.0000001735893656    0.0000001431815548   14.9533752540999991
   Pb   O    P 
    19    51    12
Direct
  0.9947344400512961  0.7689028667040105  0.1165077493168241
  0.9949103916257371  0.7632018095072084  0.6250175124613122
  0.0015452161884681  0.2626364765562670  0.3724880955376406
  0.9932385136659931  0.2635839472159489  0.8778594750654065
  0.2289075983269626  0.2240485114818327  0.1163939940284777
  0.2478046919593311  0.2340930201384523  0.6252245289351492
  0.7349567074168064  0.7378980215960240  0.3730600947413265
  0.7342583726684495  0.7286520266554035  0.8772502672060369
  0.7744966912640123  0.0035724846582710  0.1167556872070463
  0.7739556456248664  0.0132562776727170  0.6244050412634863
  0.2608479890411601  0.9976050236029224  0.3724934729143143
  0.2695264777740505  0.0058060003277731  0.8784109283815980
  0.6705010270762344  0.3327196898285152  0.4989591060684120
  0.3332390371765683  0.6664046662511396  0.0044862085551145
  0.3327692234693274  0.6665414440344861  0.5043141654464449
  0.3333066302981322  0.6677779302336404  0.2470896006528349
  0.3350794679936016  0.6691429714686663  0.7456892643981590
  0.6667560779151103  0.3337441525022911  0.2367066456572218
  0.6695665533863746  0.3321460254042634  0.7622235539994833
  0.6664086334686061  0.3325851020376192  0.0345014969353699
  0.4968716742660533  0.6450451938884214  0.1257377858227358
  0.5035746481980610  0.6544303416967878  0.6230800116812532
  0.4714083378750829  0.3181458893518823  0.3752320803972822
  0.4635200847105310  0.3108597082362436  0.8637665447115950
  0.3537076252342430  0.8514371279243278  0.1256604145007074
  0.3436647079170783  0.8512248574367902  0.6232420159092769
  0.6816474539164830  0.1518932183624244  0.3731508252043199
  0.6885004520691140  0.1497843514241026  0.8653667657091617
  0.1486338258672220  0.5024845079502640  0.1256530203717503
  0.1494640334602764  0.4901197009105900  0.6229406967450686
  0.8486207303678555  0.5291199545173981  0.3739996979708735
  0.8501120342652584  0.5379757218643562  0.8638030206899145
  0.7349695617598471  0.6765088355010676  0.0438591135928945
  0.7288588797442728  0.6537241190407386  0.5388621684433730
  0.2622150566997377  0.3454528709815108  0.4632443777182829
  0.2499357417313917  0.3279496123609533  0.9499852313893768
  0.3226938402914357  0.0585033909068642  0.0438023580693638
  0.3494370467709871  0.0792448756677686  0.5387261371175995
  0.6540143416448743  0.9147202853627334  0.4596540359104040
  0.6676609511150673  0.9186081149274727  0.9531771358548440
  0.9422164601636780  0.2639074648987219  0.0440377867289499
  0.9173161291852594  0.2708936158963340  0.5389969059575819
  0.0859979799257218  0.7386452589528432  0.4606351194128848
  0.0801604062829355  0.7486724752766705  0.9520952440123480
  0.2573015166108803  0.3460935572332460  0.2953722382203665
  0.2624231760110689  0.3587038501602891  0.7827029057256851
  0.7222605529194581  0.6446565035791849  0.2108915165567922
  0.7276764602740258  0.6526650633810291  0.7069338783681758
  0.6481436344964635  0.9082043331710352  0.2917426246071244
  0.6356693295520017  0.8980083209749523  0.7860376780073821
  0.3530845811058043  0.0766537469287769  0.2107658036201272
  0.3514611574328512  0.0798361090944795  0.7068918581467898
  0.0917878683235998  0.7397129223132595  0.2925935178993342
  0.1018417718600801  0.7379872062690183  0.7849281083715667
  0.9240759740133626  0.2765728624464074  0.2111482234073350
  0.9181831066978035  0.2735142148255250  0.7076470093081539
  0.5384549838533417  0.4152209494673045  0.1167716643341308
  0.5314047426707162  0.4135165108331407  0.6214708494998931
  0.4717625449298239  0.5743900476291230  0.3778531209695615
  0.4689633358106562  0.5692810076413224  0.8793716241548211
  0.5835099204367680  0.1230273122598931  0.1170982327340724
  0.5884544268037786  0.1191118870190877  0.6210004478802702
  0.4239382287582245  0.8976575033331287  0.3769188912107140
  0.4279520128487064  0.8995029455074004  0.8820918417536561
  0.8767196503062991  0.4596355853529062  0.1172938604873863
  0.8843933355991211  0.4736482695397868  0.6211922463045170
  0.1029659969156853  0.5260117985136503  0.3774887490636090
  0.1008022579970174  0.5287799683337155  0.8812313596979990
  0.0000858263461865  0.9994118890293180  0.1184302192431659
  0.0148463962110412  0.0233668738792829  0.6246331191611247
  0.6225637390428531  0.5965531521951064  0.1235968932017428
  0.6208137515626646  0.5953553279353017  0.6228017908873937
  0.3676558113159771  0.3920501163242065  0.3778790331454402
  0.3639593180250174  0.3881386538915095  0.8686864911999734
  0.4023831875564312  0.0257865402445034  0.1236548500002002
  0.4081360404092322  0.0288669462809281  0.6226007232387047
  0.6060955502151160  0.9737470598157429  0.3753511536824519
  0.6088097408133564  0.9725776873287302  0.8712996920990008
  0.9744888418513327  0.3762854871288823  0.1238119022143493
  0.9712455624613554  0.3802205758329222  0.6229930505466683
  0.0266290355136647  0.6319361698844830  0.3761401117530738
  0.0271802164749531  0.6360437557991929  0.8701040847634829
 
  0.00000000E+00  0.00000000E+00  0.00000000E+00
  0.00000000E+00  0.00000000E+00  0.00000000E+00
  0.00000000E+00  0.00000000E+00  0.00000000E+00
  0.00000000E+00  0.00000000E+00  0.00000000E+00
  0.00000000E+00  0.00000000E+00  0.00000000E+00
  0.00000000E+00  0.00000000E+00  0.00000000E+00
  0.00000000E+00  0.00000000E+00  0.00000000E+00
  0.00000000E+00  0.00000000E+00  0.00000000E+00
  0.00000000E+00  0.00000000E+00  0.00000000E+00
  0.00000000E+00  0.00000000E+00  0.00000000E+00
  0.00000000E+00  0.00000000E+00  0.00000000E+00
  0.00000000E+00  0.00000000E+00  0.00000000E+00
  0.00000000E+00  0.00000000E+00  0.00000000E+00
  0.00000000E+00  0.00000000E+00  0.00000000E+00
  0.00000000E+00  0.00000000E+00  0.00000000E+00
  0.00000000E+00  0.00000000E+00  0.00000000E+00
  0.00000000E+00  0.00000000E+00  0.00000000E+00
  0.00000000E+00  0.00000000E+00  0.00000000E+00
  0.00000000E+00  0.00000000E+00  0.00000000E+00
  0.00000000E+00  0.00000000E+00  0.00000000E+00
  0.00000000E+00  0.00000000E+00  0.00000000E+00
  0.00000000E+00  0.00000000E+00  0.00000000E+00
  0.00000000E+00  0.00000000E+00  0.00000000E+00
  0.00000000E+00  0.00000000E+00  0.00000000E+00
  0.00000000E+00  0.00000000E+00  0.00000000E+00
  0.00000000E+00  0.00000000E+00  0.00000000E+00
  0.00000000E+00  0.00000000E+00  0.00000000E+00
  0.00000000E+00  0.00000000E+00  0.00000000E+00
  0.00000000E+00  0.00000000E+00  0.00000000E+00
  0.00000000E+00  0.00000000E+00  0.00000000E+00
  0.00000000E+00  0.00000000E+00  0.00000000E+00
  0.00000000E+00  0.00000000E+00  0.00000000E+00
  0.00000000E+00  0.00000000E+00  0.00000000E+00
  0.00000000E+00  0.00000000E+00  0.00000000E+00
  0.00000000E+00  0.00000000E+00  0.00000000E+00
  0.00000000E+00  0.00000000E+00  0.00000000E+00
  0.00000000E+00  0.00000000E+00  0.00000000E+00
  0.00000000E+00  0.00000000E+00  0.00000000E+00
  0.00000000E+00  0.00000000E+00  0.00000000E+00
  0.00000000E+00  0.00000000E+00  0.00000000E+00
  0.00000000E+00  0.00000000E+00  0.00000000E+00
  0.00000000E+00  0.00000000E+00  0.00000000E+00
  0.00000000E+00  0.00000000E+00  0.00000000E+00
  0.00000000E+00  0.00000000E+00  0.00000000E+00
  0.00000000E+00  0.00000000E+00  0.00000000E+00
  0.00000000E+00  0.00000000E+00  0.00000000E+00
  0.00000000E+00  0.00000000E+00  0.00000000E+00
  0.00000000E+00  0.00000000E+00  0.00000000E+00
  0.00000000E+00  0.00000000E+00  0.00000000E+00
  0.00000000E+00  0.00000000E+00  0.00000000E+00
  0.00000000E+00  0.00000000E+00  0.00000000E+00
  0.00000000E+00  0.00000000E+00  0.00000000E+00
  0.00000000E+00  0.00000000E+00  0.00000000E+00
  0.00000000E+00  0.00000000E+00  0.00000000E+00
  0.00000000E+00  0.00000000E+00  0.00000000E+00
  0.00000000E+00  0.00000000E+00  0.00000000E+00
  0.00000000E+00  0.00000000E+00  0.00000000E+00
  0.00000000E+00  0.00000000E+00  0.00000000E+00
  0.00000000E+00  0.00000000E+00  0.00000000E+00
  0.00000000E+00  0.00000000E+00  0.00000000E+00
  0.00000000E+00  0.00000000E+00  0.00000000E+00
  0.00000000E+00  0.00000000E+00  0.00000000E+00
  0.00000000E+00  0.00000000E+00  0.00000000E+00
  0.00000000E+00  0.00000000E+00  0.00000000E+00
  0.00000000E+00  0.00000000E+00  0.00000000E+00
  0.00000000E+00  0.00000000E+00  0.00000000E+00
  0.00000000E+00  0.00000000E+00  0.00000000E+00
  0.00000000E+00  0.00000000E+00  0.00000000E+00
  0.00000000E+00  0.00000000E+00  0.00000000E+00
  0.00000000E+00  0.00000000E+00  0.00000000E+00
  0.00000000E+00  0.00000000E+00  0.00000000E+00
  0.00000000E+00  0.00000000E+00  0.00000000E+00
  0.00000000E+00  0.00000000E+00  0.00000000E+00
  0.00000000E+00  0.00000000E+00  0.00000000E+00
  0.00000000E+00  0.00000000E+00  0.00000000E+00
  0.00000000E+00  0.00000000E+00  0.00000000E+00
  0.00000000E+00  0.00000000E+00  0.00000000E+00
  0.00000000E+00  0.00000000E+00  0.00000000E+00
  0.00000000E+00  0.00000000E+00  0.00000000E+00
  0.00000000E+00  0.00000000E+00  0.00000000E+00
  0.00000000E+00  0.00000000E+00  0.00000000E+00
  0.00000000E+00  0.00000000E+00  0.00000000E+00
