generated by phonopy                    
   1.00000000000000     
    10.0351470768999995   -0.0000022330999784   -0.0000001056124209
    -5.0175765436399997    8.6906901959899994    0.0000001395531216
    -0.0000001735893656    0.0000001431815548   14.9533752540999991
   Pb   P    O 
    20    13    49
Direct
  0.0028433405754740  0.7779627604428683  0.1245905455979397
  0.9922538006332431  0.7625876392305955  0.6216515002613576
  0.0029886446476013  0.2253623580105142  0.3748487023453606
  0.0011941478983886  0.2486238416983184  0.8733386857818175
  0.2316525486532583  0.2296645225543585  0.1241557679543135
  0.2154912543263521  0.1995662936970817  0.6467540806226140
  0.7583774403410786  0.7648391782069979  0.3679478784905470
  0.7599836061325007  0.7596959168056898  0.8740499677015308
  0.7738473468220448  0.0033284679853764  0.1230425250621252
  0.7613339351013835  0.9926837361525145  0.6212499959939137
  0.2470738830613115  0.0043795936247051  0.3803371174140153
  0.2447964133460729  0.9969263668404835  0.8778440217147789
  0.6667762953955005  0.3365907792094305  0.0007221581552486
  0.6691999965082118  0.3369746246143350  0.5016141220333949
  0.3370987741626479  0.6678297005845337  0.0028448831921466
  0.3203982328663031  0.6398339007542617  0.5006962938323483
  0.3316667309111736  0.6670395538117617  0.2471635324598438
  0.3325051086497552  0.6649131951424110  0.7469879435038749
  0.6837483431011506  0.3324196545527727  0.2497542031914222
  0.6579642980886931  0.3280829849255582  0.7516355565034303
  0.6321942351655849  0.6002421078972873  0.1226133173062891
  0.6242008834382844  0.5911059827344047  0.6272118525754138
  0.3853496202733666  0.4054857252113848  0.3594953645306447
  0.3716466977686466  0.4091626259997341  0.8782385946421130
  0.4027691326059610  0.0313612331396129  0.1230817024982187
  0.4075826899246451  0.0241198899637141  0.6302805330994943
  0.5961900835008294  0.9679416250370139  0.3717487925843983
  0.6018853304971614  0.9669189037178825  0.8738021414449477
  0.9708145544346891  0.3740871178368153  0.1162469094692824
  0.9606796618328914  0.3681845275389861  0.6249076112801433
  0.0289372800368000  0.6408897555113597  0.3721171443619866
  0.0311730591351989  0.6334562408292470  0.8744116087830278
  0.2545655322765228  0.3361243260653737  0.4777725917024185
  0.5104432805230203  0.6528537384327109  0.1224876855246038
  0.5089197656013553  0.6519631298146678  0.6263527117461720
  0.4960369465274539  0.3393005910619848  0.3539751250897467
  0.4687448893221600  0.3279769494897735  0.8754235071330854
  0.3493877121760605  0.8566376247136418  0.1225696248491985
  0.3612339185560458  0.8526054492072461  0.6328651741151319
  0.6577145090346903  0.1439038455467241  0.3744989946127291
  0.6721058774557562  0.1443428796811048  0.8739075339678450
  0.1460737824064893  0.4909392954863776  0.1184517516066705
  0.1336471827795407  0.4947851738750728  0.6248462606948806
  0.8520219907233368  0.5269713064962218  0.3740677990953358
  0.8532796758540115  0.5278502223711286  0.8746899144324232
  0.7370691255720700  0.6576784790827119  0.0373716386567651
  0.7275179213071894  0.6432849197925492  0.5408507623467358
  0.2629380952992761  0.3596729967119288  0.9613945834781177
  0.3428999317259311  0.0777594303750817  0.0381901449501498
  0.3283664688726162  0.0591993062104308  0.5510861219589174
  0.6526164874497340  0.9132900972234381  0.4544590980509824
  0.6557999635178149  0.9115899963466134  0.9573026712068824
  0.9222005259699628  0.2660898044706528  0.0321174707119170
  0.9094103395741371  0.2644006817226483  0.5393340307621344
  0.0803990851546672  0.7478427847228843  0.4568736448387725
  0.0883672900662589  0.7437191408470838  0.9575466799454588
  0.2664793007669957  0.3523505900191211  0.2798461250597910
  0.2654693335506906  0.3705902956084373  0.7941302435684818
  0.7428595629939636  0.6688023716325304  0.2053045091979513
  0.7353264898566536  0.6565301341478929  0.7098017420603639
  0.6540301770011681  0.9173040108389046  0.2873937014457866
  0.6527139351714979  0.9100990826936339  0.7896501601040384
  0.3388072332358831  0.0752084653086555  0.2064327205143073
  0.3597803903780914  0.0747272440541522  0.7189251991939258
  0.0767806861528797  0.7526143099064342  0.2899096650349051
  0.0891627424277175  0.7397768851567079  0.7899927717162356
  0.9198389305337642  0.2664384557095616  0.1999488736300137
  0.9219309228744237  0.2599514156509244  0.7078828171323153
  0.5521107957302362  0.4203208706576547  0.1256158706079233
  0.5391923840511481  0.4111254463028828  0.6320082740044697
  0.4800614474748812  0.5882589933369786  0.3564894213214842
  0.4795225848969196  0.5890383052849586  0.8805931991306224
  0.5829520657643386  0.1292016365109134  0.1225971224224693
  0.5866552358967567  0.1300084257298977  0.6221151891732504
  0.4154102786238738  0.8801757544538944  0.3681963392254133
  0.4209774702884275  0.8838217709625269  0.8749151859876179
  0.8776763062164505  0.4615031013564774  0.1146599856227652
  0.8599725951895039  0.4481392705335523  0.6284767297836211
  0.1176941814438379  0.5496958517513590  0.3683514155917322
  0.1121579347642410  0.5336918227722336  0.8765226522245584
  0.0007864757761027  0.0040388736943697  0.1234778979235713
  0.9836228311801634  0.9834515507739638  0.6193663292757350
 
  0.00000000E+00  0.00000000E+00  0.00000000E+00
  0.00000000E+00  0.00000000E+00  0.00000000E+00
  0.00000000E+00  0.00000000E+00  0.00000000E+00
  0.00000000E+00  0.00000000E+00  0.00000000E+00
  0.00000000E+00  0.00000000E+00  0.00000000E+00
  0.00000000E+00  0.00000000E+00  0.00000000E+00
  0.00000000E+00  0.00000000E+00  0.00000000E+00
  0.00000000E+00  0.00000000E+00  0.00000000E+00
  0.00000000E+00  0.00000000E+00  0.00000000E+00
  0.00000000E+00  0.00000000E+00  0.00000000E+00
  0.00000000E+00  0.00000000E+00  0.00000000E+00
  0.00000000E+00  0.00000000E+00  0.00000000E+00
  0.00000000E+00  0.00000000E+00  0.00000000E+00
  0.00000000E+00  0.00000000E+00  0.00000000E+00
  0.00000000E+00  0.00000000E+00  0.00000000E+00
  0.00000000E+00  0.00000000E+00  0.00000000E+00
  0.00000000E+00  0.00000000E+00  0.00000000E+00
  0.00000000E+00  0.00000000E+00  0.00000000E+00
  0.00000000E+00  0.00000000E+00  0.00000000E+00
  0.00000000E+00  0.00000000E+00  0.00000000E+00
  0.00000000E+00  0.00000000E+00  0.00000000E+00
  0.00000000E+00  0.00000000E+00  0.00000000E+00
  0.00000000E+00  0.00000000E+00  0.00000000E+00
  0.00000000E+00  0.00000000E+00  0.00000000E+00
  0.00000000E+00  0.00000000E+00  0.00000000E+00
  0.00000000E+00  0.00000000E+00  0.00000000E+00
  0.00000000E+00  0.00000000E+00  0.00000000E+00
  0.00000000E+00  0.00000000E+00  0.00000000E+00
  0.00000000E+00  0.00000000E+00  0.00000000E+00
  0.00000000E+00  0.00000000E+00  0.00000000E+00
  0.00000000E+00  0.00000000E+00  0.00000000E+00
  0.00000000E+00  0.00000000E+00  0.00000000E+00
  0.00000000E+00  0.00000000E+00  0.00000000E+00
  0.00000000E+00  0.00000000E+00  0.00000000E+00
  0.00000000E+00  0.00000000E+00  0.00000000E+00
  0.00000000E+00  0.00000000E+00  0.00000000E+00
  0.00000000E+00  0.00000000E+00  0.00000000E+00
  0.00000000E+00  0.00000000E+00  0.00000000E+00
  0.00000000E+00  0.00000000E+00  0.00000000E+00
  0.00000000E+00  0.00000000E+00  0.00000000E+00
  0.00000000E+00  0.00000000E+00  0.00000000E+00
  0.00000000E+00  0.00000000E+00  0.00000000E+00
  0.00000000E+00  0.00000000E+00  0.00000000E+00
  0.00000000E+00  0.00000000E+00  0.00000000E+00
  0.00000000E+00  0.00000000E+00  0.00000000E+00
  0.00000000E+00  0.00000000E+00  0.00000000E+00
  0.00000000E+00  0.00000000E+00  0.00000000E+00
  0.00000000E+00  0.00000000E+00  0.00000000E+00
  0.00000000E+00  0.00000000E+00  0.00000000E+00
  0.00000000E+00  0.00000000E+00  0.00000000E+00
  0.00000000E+00  0.00000000E+00  0.00000000E+00
  0.00000000E+00  0.00000000E+00  0.00000000E+00
  0.00000000E+00  0.00000000E+00  0.00000000E+00
  0.00000000E+00  0.00000000E+00  0.00000000E+00
  0.00000000E+00  0.00000000E+00  0.00000000E+00
  0.00000000E+00  0.00000000E+00  0.00000000E+00
  0.00000000E+00  0.00000000E+00  0.00000000E+00
  0.00000000E+00  0.00000000E+00  0.00000000E+00
  0.00000000E+00  0.00000000E+00  0.00000000E+00
  0.00000000E+00  0.00000000E+00  0.00000000E+00
  0.00000000E+00  0.00000000E+00  0.00000000E+00
  0.00000000E+00  0.00000000E+00  0.00000000E+00
  0.00000000E+00  0.00000000E+00  0.00000000E+00
  0.00000000E+00  0.00000000E+00  0.00000000E+00
  0.00000000E+00  0.00000000E+00  0.00000000E+00
  0.00000000E+00  0.00000000E+00  0.00000000E+00
  0.00000000E+00  0.00000000E+00  0.00000000E+00
  0.00000000E+00  0.00000000E+00  0.00000000E+00
  0.00000000E+00  0.00000000E+00  0.00000000E+00
  0.00000000E+00  0.00000000E+00  0.00000000E+00
  0.00000000E+00  0.00000000E+00  0.00000000E+00
  0.00000000E+00  0.00000000E+00  0.00000000E+00
  0.00000000E+00  0.00000000E+00  0.00000000E+00
  0.00000000E+00  0.00000000E+00  0.00000000E+00
  0.00000000E+00  0.00000000E+00  0.00000000E+00
  0.00000000E+00  0.00000000E+00  0.00000000E+00
  0.00000000E+00  0.00000000E+00  0.00000000E+00
  0.00000000E+00  0.00000000E+00  0.00000000E+00
  0.00000000E+00  0.00000000E+00  0.00000000E+00
  0.00000000E+00  0.00000000E+00  0.00000000E+00
  0.00000000E+00  0.00000000E+00  0.00000000E+00
  0.00000000E+00  0.00000000E+00  0.00000000E+00
