supercell of icsd_608626.cif            
   1.11267248002495     
     9.0262458092070972   -0.1920689369192705    0.1242555788131931
    -4.6856327545388874    8.3374488719232680   -0.1613628108010432
     0.1293243248390663   -0.1172718963507608    9.5937702182220370
   Al   La   N 
    24    12    36
Direct
  0.2207533152449344  0.1083810003119723  0.2584904956804266
  0.1015621132931628  0.2405761955865202  0.4787834433647902
  0.7753731014775980  0.2478897058864362  0.9934354119491431
  0.5937060912007013  0.2087335546172966  0.2469708615722581
  0.4405180399510087  0.2411330342638038  0.4818120409069166
  0.1239434916214250  0.2273600256499648  0.0142579778890095
  0.8730982422431453  0.1111540828656814  0.2497181817566343
  0.7743131741079523  0.2524493419523992  0.4838241634968767
  0.5423836180967925  0.1265739215598884  0.7399183946105055
  0.4478601840158234  0.2449356797342332  0.0041388082008638
  0.0939789681976677  0.5444577285584558  0.4945291628728512
  0.8859899103905775  0.4514991205125085  0.7303990235507314
  0.7690709456215785  0.5264894090712033  0.0035355215870680
  0.5568297819141961  0.4418702581917273  0.2540514781075416
  0.4483481013985440  0.5488555301654614  0.4957015871868649
  0.2077473563675696  0.4442381181679593  0.6532078115405682
  0.8871827256877580  0.4435959575234563  0.2476549265777166
  0.7677941619767310  0.5371058678206424  0.4869356265829907
  0.4699883021210738  0.5502857476135929  0.0347340824737330
  0.1993978129283818  0.7528860922317477  0.2705217913530049
  0.0319436138409301  0.7570961954799316  0.5500931865652561
  0.8951136807590245  0.7507503895992258  0.7701761992976728
  0.5524856373319764  0.7553779195770218  0.2798867620786538
  0.2423672396710543  0.7879294733203537  0.7398916640790176
  0.8537724597926726  0.1274006035345323  0.7474798949869808
  0.1910704524112106  0.1039760350013523  0.7141493020837260
  0.2170364157918740  0.4382567014935930  0.2386385180222135
  0.1216952201811736  0.5404578214493796  0.9581421162358552
  0.5649541112294898  0.4348454048437560  0.7484040619642940
  0.8163984392932235  0.9026853318896073  0.9987798032038739
  0.4402755043842390  0.9157479386057119  0.4659601384824228
  0.1649761983102422  0.9074778756910717  0.9907214487687881
  0.8907511818463547  0.7617964596225448  0.2365604200290932
  0.8046267414981259  0.9032751340227776  0.5041724191421721
  0.5219487270297236  0.7541882598864760  0.7610581865336314
  0.4912767637040218  0.9101402907038931  0.0565964801835577
  0.2306243128504590  0.1655928396591122  0.4295877547847340
  0.0748690550099980  0.1564293056024226  0.1828502702393067
  0.9158758730586101  0.1742119508330831  0.9547925124296839
  0.7503881503382246  0.2602276366970671  0.6618115953177011
  0.5723173414718161  0.1729871079316538  0.4113590793025494
  0.4373812181272427  0.2355613064622730  0.1883034606200766
  0.2411851579129802  0.1499282704101361  0.9368867926407063
  0.0863976704867042  0.2455754588630441  0.6547575925631008
  0.8922277952494326  0.1606789313130861  0.4239107292320554
  0.7784891212009413  0.2346446962438478  0.1772246331244887
  0.5599097330655951  0.1496803717314492  0.9287246993982379
  0.4403704764611120  0.2053195963168051  0.6537077132171163
  0.2162318236904852  0.4548777653596545  0.4708414124508593
  0.0834604448908252  0.5692200911785861  0.1912651289613549
  0.8511473176909377  0.4269516086230709  0.9100002503734643
  0.8306621918149375  0.5805888991863668  0.6602996943061186
  0.5558486767711770  0.4458632127046940  0.4408088562923211
  0.4953861438309133  0.5698637489219465  0.2134535222469509
  0.2543259948381760  0.4297430465135292  0.0192451124057627
  0.1114736471773625  0.5564166341653802  0.6872548610567719
  0.8853980988157417  0.4464021938632001  0.4295914584866907
  0.7554662390639635  0.5020303268321413  0.1877799068282258
  0.5596776254259836  0.4449414729272334  0.9699968412196966
  0.4157068446950873  0.5230204956020827  0.6704622573508630
  0.1723392461369357  0.7363880039071518  0.4523079822059799
  0.1674096925065385  0.9070094618329350  0.2150083260247371
  0.8936573499835916  0.7255889139226639  0.9491285914240351
  0.8074368026416607  0.8701962610128362  0.7421203968192884
  0.5520719309144084  0.7473349284941477  0.4599787735527983
  0.4057671178413358  0.8080368945438678  0.2478152461285816
  0.2824495276821821  0.7851036748212366  0.9072488618533328
  0.1010717874816365  0.8460378806900195  0.7053283192530913
  0.8792117177500955  0.7383138781695777  0.4472844776265603
  0.7493437738743509  0.9057160502305734  0.2281732546049611
  0.5584653604859326  0.7418495686681510  0.9758008800363314
  0.4554229138306809  0.9257953087588930  0.6895573627037237
 
  0.00000000E+00  0.00000000E+00  0.00000000E+00
  0.00000000E+00  0.00000000E+00  0.00000000E+00
  0.00000000E+00  0.00000000E+00  0.00000000E+00
  0.00000000E+00  0.00000000E+00  0.00000000E+00
  0.00000000E+00  0.00000000E+00  0.00000000E+00
  0.00000000E+00  0.00000000E+00  0.00000000E+00
  0.00000000E+00  0.00000000E+00  0.00000000E+00
  0.00000000E+00  0.00000000E+00  0.00000000E+00
  0.00000000E+00  0.00000000E+00  0.00000000E+00
  0.00000000E+00  0.00000000E+00  0.00000000E+00
  0.00000000E+00  0.00000000E+00  0.00000000E+00
  0.00000000E+00  0.00000000E+00  0.00000000E+00
  0.00000000E+00  0.00000000E+00  0.00000000E+00
  0.00000000E+00  0.00000000E+00  0.00000000E+00
  0.00000000E+00  0.00000000E+00  0.00000000E+00
  0.00000000E+00  0.00000000E+00  0.00000000E+00
  0.00000000E+00  0.00000000E+00  0.00000000E+00
  0.00000000E+00  0.00000000E+00  0.00000000E+00
  0.00000000E+00  0.00000000E+00  0.00000000E+00
  0.00000000E+00  0.00000000E+00  0.00000000E+00
  0.00000000E+00  0.00000000E+00  0.00000000E+00
  0.00000000E+00  0.00000000E+00  0.00000000E+00
  0.00000000E+00  0.00000000E+00  0.00000000E+00
  0.00000000E+00  0.00000000E+00  0.00000000E+00
  0.00000000E+00  0.00000000E+00  0.00000000E+00
  0.00000000E+00  0.00000000E+00  0.00000000E+00
  0.00000000E+00  0.00000000E+00  0.00000000E+00
  0.00000000E+00  0.00000000E+00  0.00000000E+00
  0.00000000E+00  0.00000000E+00  0.00000000E+00
  0.00000000E+00  0.00000000E+00  0.00000000E+00
  0.00000000E+00  0.00000000E+00  0.00000000E+00
  0.00000000E+00  0.00000000E+00  0.00000000E+00
  0.00000000E+00  0.00000000E+00  0.00000000E+00
  0.00000000E+00  0.00000000E+00  0.00000000E+00
  0.00000000E+00  0.00000000E+00  0.00000000E+00
  0.00000000E+00  0.00000000E+00  0.00000000E+00
  0.00000000E+00  0.00000000E+00  0.00000000E+00
  0.00000000E+00  0.00000000E+00  0.00000000E+00
  0.00000000E+00  0.00000000E+00  0.00000000E+00
  0.00000000E+00  0.00000000E+00  0.00000000E+00
  0.00000000E+00  0.00000000E+00  0.00000000E+00
  0.00000000E+00  0.00000000E+00  0.00000000E+00
  0.00000000E+00  0.00000000E+00  0.00000000E+00
  0.00000000E+00  0.00000000E+00  0.00000000E+00
  0.00000000E+00  0.00000000E+00  0.00000000E+00
  0.00000000E+00  0.00000000E+00  0.00000000E+00
  0.00000000E+00  0.00000000E+00  0.00000000E+00
  0.00000000E+00  0.00000000E+00  0.00000000E+00
  0.00000000E+00  0.00000000E+00  0.00000000E+00
  0.00000000E+00  0.00000000E+00  0.00000000E+00
  0.00000000E+00  0.00000000E+00  0.00000000E+00
  0.00000000E+00  0.00000000E+00  0.00000000E+00
  0.00000000E+00  0.00000000E+00  0.00000000E+00
  0.00000000E+00  0.00000000E+00  0.00000000E+00
  0.00000000E+00  0.00000000E+00  0.00000000E+00
  0.00000000E+00  0.00000000E+00  0.00000000E+00
  0.00000000E+00  0.00000000E+00  0.00000000E+00
  0.00000000E+00  0.00000000E+00  0.00000000E+00
  0.00000000E+00  0.00000000E+00  0.00000000E+00
  0.00000000E+00  0.00000000E+00  0.00000000E+00
  0.00000000E+00  0.00000000E+00  0.00000000E+00
  0.00000000E+00  0.00000000E+00  0.00000000E+00
  0.00000000E+00  0.00000000E+00  0.00000000E+00
  0.00000000E+00  0.00000000E+00  0.00000000E+00
  0.00000000E+00  0.00000000E+00  0.00000000E+00
  0.00000000E+00  0.00000000E+00  0.00000000E+00
  0.00000000E+00  0.00000000E+00  0.00000000E+00
  0.00000000E+00  0.00000000E+00  0.00000000E+00
  0.00000000E+00  0.00000000E+00  0.00000000E+00
  0.00000000E+00  0.00000000E+00  0.00000000E+00
  0.00000000E+00  0.00000000E+00  0.00000000E+00
  0.00000000E+00  0.00000000E+00  0.00000000E+00
