supercell of 100% icsd_608626.cif, 0% i 
   1.00000000000000     
    -9.3475811986461910    0.0034609826583090   -0.0000746602894380
    -4.6767872208268209    8.1027621046496439   -0.0003178760563893
    -0.0000766084981093    0.0003472186569519  -10.0029614462947105
   Al   Ge   Be   N 
    32     2     2    36
Direct
  0.1112768187515343  0.0935340904728932  0.2955733978938468
  0.2227938148281225  0.2050980762235994  0.0479891394458249
  0.7800469399950671  0.0935897452364216  0.7938762349540198
  0.8857865701888272  0.2094824454551727  0.5461297722498415
  0.4450824602661925  0.0939585638986529  0.2986723421891071
  0.5543398451285313  0.2067224337339510  0.0482300356978769
  0.1102421612726374  0.0922013918984703  0.7934417861603791
  0.2218337211945283  0.2044453868936742  0.5454153170401526
  0.7762905594993725  0.0973380742121535  0.2952831498153330
  0.8884952399764998  0.2068155638728513  0.0456157581105288
  0.5557740303723122  0.2091698608754697  0.5454358251918379
  0.1134714419991383  0.4272030881543216  0.2956032939262769
  0.2235782372992361  0.5383667012757911  0.0450449623099445
  0.7739315643402733  0.4294677129126967  0.7898670783481023
  0.8806900251827585  0.5424512939612143  0.5490860568352645
  0.4461291915957162  0.4297987252606674  0.3000666569587551
  0.5550275339277135  0.5396980856377525  0.0471345418051925
  0.1096689359803662  0.4308984737405837  0.7928095405268820
  0.2257673221583332  0.5389697096699351  0.5458946721241063
  0.7726803097233557  0.4282474155130274  0.2990870673476564
  0.8891416119008753  0.5360404673568624  0.0445379120179226
  0.4444880994067688  0.4324415380175779  0.7892317449298574
  0.1144082745287633  0.7596626644872373  0.2951981060470388
  0.2245509962346048  0.8709674421318070  0.0451604649428603
  0.7772813637125040  0.7610126457357396  0.7895403160367493
  0.8858604561915655  0.8717293351808237  0.5487002984193339
  0.4463402605887481  0.7572354485323842  0.3037743019862305
  0.5517032038016438  0.8730661003610294  0.0481813265034035
  0.1121406555526434  0.7607959826960169  0.7939552463417883
  0.2307712911395612  0.8680275691201231  0.5462843382480358
  0.8902632383522757  0.8731007649080595  0.0440521414298800
  0.4467208503984992  0.7571168757407136  0.7844691392598904
  0.4460167858263304  0.0920368171465640  0.7892064372572349
  0.7742280092037319  0.7626810941471760  0.2987747751623644
  0.5560804690182408  0.5433966902886951  0.5426584575224496
  0.5586876315884268  0.8610783342203661  0.5459744062637739
  0.2220536439693817  0.2053763900797989  0.3546929612757239
  0.1113923131269985  0.0942097484838342  0.1039583711434560
  0.8882904956597528  0.2066492559133621  0.8548063283315983
  0.7780619089508889  0.0942099588100405  0.6046878250677068
  0.5557361503058118  0.2049152871606950  0.3547409299957138
  0.4447275250636977  0.0941500976339853  0.1065327753541823
  0.2244931803611223  0.2044851861004631  0.8544113452478470
  0.1107986967665369  0.0940677148230193  0.6043376086756211
  0.8896437127647161  0.2046973076974794  0.3544400851691947
  0.7776609808764832  0.0942961623160770  0.1043846700919744
  0.5541435442707510  0.2050190465015831  0.8544378672342816
  0.4474527934684289  0.0893299475028684  0.6025158959096828
  0.2214451571295442  0.5393158672467564  0.3543532774842930
  0.1108891184153080  0.4278475794538679  0.1043987104232258
  0.8873151613229311  0.5397381357818958  0.8543768858247205
  0.7710804361277255  0.4305088211409540  0.6016746905029038
  0.5559554876336250  0.5381804349934143  0.3599834647058060
  0.4445671682287298  0.4276404407610883  0.1065661336747752
  0.2229143300882441  0.5383933167285946  0.8542763825550779
  0.1094636381873215  0.4286830427366013  0.6032083100352779
  0.8882659257772332  0.5406728047215097  0.3545050913672370
  0.7778209801398575  0.4278845522541062  0.1069011290917388
  0.5553730065558469  0.5396960203323076  0.8570793698395534
  0.4474907443927449  0.4308946112740202  0.6017729667198282
  0.2211403982034170  0.8730327332184515  0.3546840281283181
  0.1111120981839946  0.7610840660944902  0.1043420366393946
  0.8880805917106187  0.8716269137789183  0.8542925031751238
  0.7700614678564150  0.7653148076994185  0.6019459034123074
  0.5571827162242613  0.8720502966402321  0.3599213739224325
  0.4448965903529327  0.7610086925713375  0.1089644574393844
  0.2246632882023363  0.8709576179393039  0.8538436251582695
  0.1103384263438372  0.7622862878226471  0.6039031288809653
  0.8881909840511639  0.8716066070607198  0.3541500978667642
  0.7775054521021900  0.7612059405282992  0.1066792035198176
  0.5546127903003466  0.8734964466271862  0.8565222103966477
  0.4535891757591131  0.7576212506002520  0.5977523144393473
 
  0.00000000E+00  0.00000000E+00  0.00000000E+00
  0.00000000E+00  0.00000000E+00  0.00000000E+00
  0.00000000E+00  0.00000000E+00  0.00000000E+00
  0.00000000E+00  0.00000000E+00  0.00000000E+00
  0.00000000E+00  0.00000000E+00  0.00000000E+00
  0.00000000E+00  0.00000000E+00  0.00000000E+00
  0.00000000E+00  0.00000000E+00  0.00000000E+00
  0.00000000E+00  0.00000000E+00  0.00000000E+00
  0.00000000E+00  0.00000000E+00  0.00000000E+00
  0.00000000E+00  0.00000000E+00  0.00000000E+00
  0.00000000E+00  0.00000000E+00  0.00000000E+00
  0.00000000E+00  0.00000000E+00  0.00000000E+00
  0.00000000E+00  0.00000000E+00  0.00000000E+00
  0.00000000E+00  0.00000000E+00  0.00000000E+00
  0.00000000E+00  0.00000000E+00  0.00000000E+00
  0.00000000E+00  0.00000000E+00  0.00000000E+00
  0.00000000E+00  0.00000000E+00  0.00000000E+00
  0.00000000E+00  0.00000000E+00  0.00000000E+00
  0.00000000E+00  0.00000000E+00  0.00000000E+00
  0.00000000E+00  0.00000000E+00  0.00000000E+00
  0.00000000E+00  0.00000000E+00  0.00000000E+00
  0.00000000E+00  0.00000000E+00  0.00000000E+00
  0.00000000E+00  0.00000000E+00  0.00000000E+00
  0.00000000E+00  0.00000000E+00  0.00000000E+00
  0.00000000E+00  0.00000000E+00  0.00000000E+00
  0.00000000E+00  0.00000000E+00  0.00000000E+00
  0.00000000E+00  0.00000000E+00  0.00000000E+00
  0.00000000E+00  0.00000000E+00  0.00000000E+00
  0.00000000E+00  0.00000000E+00  0.00000000E+00
  0.00000000E+00  0.00000000E+00  0.00000000E+00
  0.00000000E+00  0.00000000E+00  0.00000000E+00
  0.00000000E+00  0.00000000E+00  0.00000000E+00
  0.00000000E+00  0.00000000E+00  0.00000000E+00
  0.00000000E+00  0.00000000E+00  0.00000000E+00
  0.00000000E+00  0.00000000E+00  0.00000000E+00
  0.00000000E+00  0.00000000E+00  0.00000000E+00
  0.00000000E+00  0.00000000E+00  0.00000000E+00
  0.00000000E+00  0.00000000E+00  0.00000000E+00
  0.00000000E+00  0.00000000E+00  0.00000000E+00
  0.00000000E+00  0.00000000E+00  0.00000000E+00
  0.00000000E+00  0.00000000E+00  0.00000000E+00
  0.00000000E+00  0.00000000E+00  0.00000000E+00
  0.00000000E+00  0.00000000E+00  0.00000000E+00
  0.00000000E+00  0.00000000E+00  0.00000000E+00
  0.00000000E+00  0.00000000E+00  0.00000000E+00
  0.00000000E+00  0.00000000E+00  0.00000000E+00
  0.00000000E+00  0.00000000E+00  0.00000000E+00
  0.00000000E+00  0.00000000E+00  0.00000000E+00
  0.00000000E+00  0.00000000E+00  0.00000000E+00
  0.00000000E+00  0.00000000E+00  0.00000000E+00
  0.00000000E+00  0.00000000E+00  0.00000000E+00
  0.00000000E+00  0.00000000E+00  0.00000000E+00
  0.00000000E+00  0.00000000E+00  0.00000000E+00
  0.00000000E+00  0.00000000E+00  0.00000000E+00
  0.00000000E+00  0.00000000E+00  0.00000000E+00
  0.00000000E+00  0.00000000E+00  0.00000000E+00
  0.00000000E+00  0.00000000E+00  0.00000000E+00
  0.00000000E+00  0.00000000E+00  0.00000000E+00
  0.00000000E+00  0.00000000E+00  0.00000000E+00
  0.00000000E+00  0.00000000E+00  0.00000000E+00
  0.00000000E+00  0.00000000E+00  0.00000000E+00
  0.00000000E+00  0.00000000E+00  0.00000000E+00
  0.00000000E+00  0.00000000E+00  0.00000000E+00
  0.00000000E+00  0.00000000E+00  0.00000000E+00
  0.00000000E+00  0.00000000E+00  0.00000000E+00
  0.00000000E+00  0.00000000E+00  0.00000000E+00
  0.00000000E+00  0.00000000E+00  0.00000000E+00
  0.00000000E+00  0.00000000E+00  0.00000000E+00
  0.00000000E+00  0.00000000E+00  0.00000000E+00
  0.00000000E+00  0.00000000E+00  0.00000000E+00
  0.00000000E+00  0.00000000E+00  0.00000000E+00
  0.00000000E+00  0.00000000E+00  0.00000000E+00
