supercell of icsd_608626.cif            
   1.04414933521582     
     9.2855546484037657   -0.0266858730842753   -0.0194452866753309
    -4.6658656836854790    8.0512414586924024    0.0066777861362104
    -0.0206405822713201   -0.0037621027197179    9.6969356971377252
   Al   Y    N 
    30     6    36
Direct
  0.2190640002924908  0.1080138322227455  0.2400360994103821
  0.8982602410957554  0.1116991785941863  0.7654801217536473
  0.7831395840045019  0.2203733415970603  0.9990973931183618
  0.4402754370610893  0.2181522109014082  0.4977092183074419
  0.2116769193817305  0.1070352384876330  0.7561725055061785
  0.1138579874197987  0.2230795662507674  0.9993447702924030
  0.8966331415217255  0.1044524985543589  0.2402302580747033
  0.4384564111474489  0.2299591720530216  0.0019578366595567
  0.2287336878965789  0.4531145581928513  0.2419613885536620
  0.1182344487823386  0.5684650065228567  0.5042138902186366
  0.8913006445066003  0.4506988247320862  0.7603684563613839
  0.7692798318537299  0.5626537396234923  0.9912473025006818
  0.5491504114014916  0.4527420839814411  0.2473420283837839
  0.4427219349390299  0.5556740289203148  0.4901102376221829
  0.2159360085504787  0.4395229210575735  0.7555796763075264
  0.1205845918964599  0.5623121436125302  0.9931750012970966
  0.7774765452056513  0.5611373123211649  0.5037877220682390
  0.5408327408012639  0.4383987692558122  0.7433075262977056
  0.4437720108881678  0.5555386750965283  0.0063291469707423
  0.2241250222285487  0.7737988785734160  0.2481530562336332
  0.1135941087915313  0.8823666391123908  0.4936597224919694
  0.8959386521435064  0.7828873810309886  0.7463347615304556
  0.7786556585627622  0.8863964538762019  0.0061391871361920
  0.5587540627334846  0.7737259898825144  0.2495112874849923
  0.4340241603780157  0.8781954007939987  0.4961701155936922
  0.2116194573476022  0.7713051996019260  0.7488404009284153
  0.1097244174882732  0.8857006456992522  0.9972774460937970
  0.8864224040726185  0.7811277265398999  0.2473042678158635
  0.7878930139905194  0.8864620784016637  0.4926382511178176
  0.4395989570724552  0.8784722875007702  0.0097397580828869
  0.1322116411586052  0.2263245637971778  0.4974652222583416
  0.5475338049677489  0.1105288571790055  0.2395981677708292
  0.7929360979172984  0.2250680139118799  0.5050679605650785
  0.5394140258107782  0.1061250833888039  0.7528152583361063
  0.8973995902403047  0.4642112402253673  0.2334996688258357
  0.5594546070437474  0.7677135914266842  0.7395233832792627
  0.2368333032113696  0.0893800340278759  0.4230123707904525
  0.1166386199918392  0.2253314709866601  0.1918767550869305
  0.8896525452092234  0.1048484595261385  0.9516777918393302
  0.7999528222790957  0.2319075636105410  0.7254352778528528
  0.5396370386936553  0.0995604909023697  0.4680895963026686
  0.4289562570202037  0.2448564560979207  0.1827339968319421
  0.2203616160234390  0.1067187492716783  0.9440272249281634
  0.1087545782395622  0.2217520213402366  0.7182751180571501
  0.8913562813773197  0.0871992807173996  0.4227068440435247
  0.7976997673999691  0.2148357981507871  0.1862829860405455
  0.5505003353069142  0.1100231964378793  0.9790274734547637
  0.4169813929821728  0.2287728040344632  0.6820727570985810
  0.2310913309819327  0.4746331798994206  0.4286605861884993
  0.1420078300563432  0.5712826854701447  0.1749240792043310
  0.8894876062351074  0.4524681293515300  0.9533638501452941
  0.7696308814802677  0.5553998309071915  0.6959796919180832
  0.5545618653731736  0.4421043479825073  0.4384939307263878
  0.4446844953756823  0.5583155065015788  0.1936537472034203
  0.2252057324475487  0.4466741552816700  0.9436202473630857
  0.1074034733495566  0.5529305463774179  0.6981550007130863
  0.9034728425363525  0.4759863088102705  0.4543351354684759
  0.7557571978820121  0.5744115566711230  0.1765804701584557
  0.5490036300884569  0.4452876269003667  0.9328162930732447
  0.4180065192371742  0.5221197796960553  0.6750065297541852
  0.2202586912785662  0.7758146750837440  0.4361604808333226
  0.1093047959702744  0.8822741368408629  0.1864974743686290
  0.8894466362199722  0.7814483599191036  0.9357481192813566
  0.8129073187091080  0.9092780330249397  0.6807472482851367
  0.5618251925552684  0.7782394525387915  0.4471180220143367
  0.4343520248413313  0.8609824718633519  0.1941126187220164
  0.2241700827627753  0.7814859383561270  0.9374385252753257
  0.1117214613515145  0.8878716495892363  0.6885602579943111
  0.8907360681754213  0.7743354328398553  0.4381680746960583
  0.7794176999011597  0.8871940986894273  0.1918912015916163
  0.5565193110843367  0.7770366798518751  0.9603930963650953
  0.4130164937777963  0.8638059595297776  0.6791686310798468
 
  0.00000000E+00  0.00000000E+00  0.00000000E+00
  0.00000000E+00  0.00000000E+00  0.00000000E+00
  0.00000000E+00  0.00000000E+00  0.00000000E+00
  0.00000000E+00  0.00000000E+00  0.00000000E+00
  0.00000000E+00  0.00000000E+00  0.00000000E+00
  0.00000000E+00  0.00000000E+00  0.00000000E+00
  0.00000000E+00  0.00000000E+00  0.00000000E+00
  0.00000000E+00  0.00000000E+00  0.00000000E+00
  0.00000000E+00  0.00000000E+00  0.00000000E+00
  0.00000000E+00  0.00000000E+00  0.00000000E+00
  0.00000000E+00  0.00000000E+00  0.00000000E+00
  0.00000000E+00  0.00000000E+00  0.00000000E+00
  0.00000000E+00  0.00000000E+00  0.00000000E+00
  0.00000000E+00  0.00000000E+00  0.00000000E+00
  0.00000000E+00  0.00000000E+00  0.00000000E+00
  0.00000000E+00  0.00000000E+00  0.00000000E+00
  0.00000000E+00  0.00000000E+00  0.00000000E+00
  0.00000000E+00  0.00000000E+00  0.00000000E+00
  0.00000000E+00  0.00000000E+00  0.00000000E+00
  0.00000000E+00  0.00000000E+00  0.00000000E+00
  0.00000000E+00  0.00000000E+00  0.00000000E+00
  0.00000000E+00  0.00000000E+00  0.00000000E+00
  0.00000000E+00  0.00000000E+00  0.00000000E+00
  0.00000000E+00  0.00000000E+00  0.00000000E+00
  0.00000000E+00  0.00000000E+00  0.00000000E+00
  0.00000000E+00  0.00000000E+00  0.00000000E+00
  0.00000000E+00  0.00000000E+00  0.00000000E+00
  0.00000000E+00  0.00000000E+00  0.00000000E+00
  0.00000000E+00  0.00000000E+00  0.00000000E+00
  0.00000000E+00  0.00000000E+00  0.00000000E+00
  0.00000000E+00  0.00000000E+00  0.00000000E+00
  0.00000000E+00  0.00000000E+00  0.00000000E+00
  0.00000000E+00  0.00000000E+00  0.00000000E+00
  0.00000000E+00  0.00000000E+00  0.00000000E+00
  0.00000000E+00  0.00000000E+00  0.00000000E+00
  0.00000000E+00  0.00000000E+00  0.00000000E+00
  0.00000000E+00  0.00000000E+00  0.00000000E+00
  0.00000000E+00  0.00000000E+00  0.00000000E+00
  0.00000000E+00  0.00000000E+00  0.00000000E+00
  0.00000000E+00  0.00000000E+00  0.00000000E+00
  0.00000000E+00  0.00000000E+00  0.00000000E+00
  0.00000000E+00  0.00000000E+00  0.00000000E+00
  0.00000000E+00  0.00000000E+00  0.00000000E+00
  0.00000000E+00  0.00000000E+00  0.00000000E+00
  0.00000000E+00  0.00000000E+00  0.00000000E+00
  0.00000000E+00  0.00000000E+00  0.00000000E+00
  0.00000000E+00  0.00000000E+00  0.00000000E+00
  0.00000000E+00  0.00000000E+00  0.00000000E+00
  0.00000000E+00  0.00000000E+00  0.00000000E+00
  0.00000000E+00  0.00000000E+00  0.00000000E+00
  0.00000000E+00  0.00000000E+00  0.00000000E+00
  0.00000000E+00  0.00000000E+00  0.00000000E+00
  0.00000000E+00  0.00000000E+00  0.00000000E+00
  0.00000000E+00  0.00000000E+00  0.00000000E+00
  0.00000000E+00  0.00000000E+00  0.00000000E+00
  0.00000000E+00  0.00000000E+00  0.00000000E+00
  0.00000000E+00  0.00000000E+00  0.00000000E+00
  0.00000000E+00  0.00000000E+00  0.00000000E+00
  0.00000000E+00  0.00000000E+00  0.00000000E+00
  0.00000000E+00  0.00000000E+00  0.00000000E+00
  0.00000000E+00  0.00000000E+00  0.00000000E+00
  0.00000000E+00  0.00000000E+00  0.00000000E+00
  0.00000000E+00  0.00000000E+00  0.00000000E+00
  0.00000000E+00  0.00000000E+00  0.00000000E+00
  0.00000000E+00  0.00000000E+00  0.00000000E+00
  0.00000000E+00  0.00000000E+00  0.00000000E+00
  0.00000000E+00  0.00000000E+00  0.00000000E+00
  0.00000000E+00  0.00000000E+00  0.00000000E+00
  0.00000000E+00  0.00000000E+00  0.00000000E+00
  0.00000000E+00  0.00000000E+00  0.00000000E+00
  0.00000000E+00  0.00000000E+00  0.00000000E+00
  0.00000000E+00  0.00000000E+00  0.00000000E+00
