supercell of 100% icsd_608626.cif, 0% i 
   1.00000000000000     
    -9.5866877816464289    0.0002388223699821    0.0045732478443375
    -4.7935303408317171    8.3234893791339477    0.0162462386568860
     0.0049210018386903   -0.0171584489455590  -10.1195508240259713
   Al   Ti   Mg   N 
    26     5     5    36
Direct
  0.1108059476210386  0.0918589222678747  0.2996883058998421
  0.8795554861124870  0.2094069511576322  0.5419563945996799
  0.4495948582319613  0.0912480612395186  0.2996767691806070
  0.5590259206552943  0.2007877027572036  0.0435752181243600
  0.2264109093721274  0.2065422645941410  0.5475371287154474
  0.7762673267969760  0.0913981923355323  0.2969910228908290
  0.4502022335626776  0.0959139555468411  0.7919289168079757
  0.5585191777027845  0.2058638026441599  0.5452342432291459
  0.2214115648188795  0.5427611874293774  0.0427308001472326
  0.7836110377152252  0.4256614801840684  0.7877065786283026
  0.4463503877897779  0.4245869884911073  0.2992684623702146
  0.1114130956446076  0.4335953342118160  0.7918797240357165
  0.2260691880281271  0.5410415379639986  0.5499179865895485
  0.7765045142454454  0.4287710894326224  0.2981030341019419
  0.8830381087444295  0.5466693573295558  0.0420455174862155
  0.4407343085742923  0.4198468269892146  0.7932510528875838
  0.5567239454668496  0.5339133981496644  0.5456501726756287
  0.1076765868382807  0.7653394123531214  0.2966881010532632
  0.2225612527598884  0.8688985322011646  0.0517991537634543
  0.7804707190679281  0.7633542199340795  0.7950057202292129
  0.4452475064057779  0.7623114822990971  0.3001504944372186
  0.5593216455443510  0.8715070514491856  0.0480367813293512
  0.2203679937981420  0.8687412608032119  0.5405993501221573
  0.7765916573580043  0.7654050772902536  0.2931670759404810
  0.8842925217735953  0.8734419743111275  0.0477046271164596
  0.5595176373837845  0.8740976661220756  0.5463171289200872
  0.2241100655603816  0.2045178832036427  0.0489778502946479
  0.1090472781847680  0.0953202856334485  0.7918339122074229
  0.1082918485808690  0.4315557609171208  0.3048428693563352
  0.5559884689739931  0.5362488264286256  0.0519410225307837
  0.4467885668370286  0.7604178533075441  0.7947709781384233
  0.7763641318531640  0.0905530494451767  0.7916444660655131
  0.8870139097823895  0.2018016205722972  0.0503268998651620
  0.8855711107989919  0.5440539943556288  0.5528085448534199
  0.8884191350039075  0.8721748616486451  0.5457603439430088
  0.1059873794222383  0.7571310055676790  0.7950336152940523
  0.2256113489222145  0.2004478786457398  0.3533561359407216
  0.1269797631142069  0.0848851908015078  0.1099075411678925
  0.8978530050699689  0.2133311439377295  0.8475467622823416
  0.7706360246555874  0.1077891430446485  0.5902992577638884
  0.5510700886932725  0.2073976775154804  0.3536942014823552
  0.4474935125034278  0.0907244141501451  0.1078649680772301
  0.2250404070257446  0.2073901159199067  0.8530747066587594
  0.1113714335755560  0.0956066922903247  0.5952099567805291
  0.8892820777160608  0.2077209110651381  0.3476109164968975
  0.7674174613617737  0.0893792858653271  0.1091368782774609
  0.5418824689784358  0.2112013619332700  0.8590112912957437
  0.4438947166095133  0.0947644729058581  0.6028850238699590
  0.2254510359442889  0.5417289418763076  0.3534866756023902
  0.1062387687155777  0.4348601609221987  0.1061896395469759
  0.8895844289899202  0.5372765395736607  0.8525739437546562
  0.7695326653468513  0.4237549454153466  0.6031807355889782
  0.5538081171259748  0.5397366436818558  0.3524582410911918
  0.4415251736336359  0.4235532013497192  0.1085844069054076
  0.2300838931995486  0.5239551576364150  0.8595770542168637
  0.1271789597422242  0.4207260621823394  0.6035947000521560
  0.8842320904564289  0.5430781655290886  0.3439010128773177
  0.7732348839054310  0.4414602894447341  0.1081736900571499
  0.5594073341811523  0.5312863321138792  0.8549924696249818
  0.4452565661846108  0.4272459524243004  0.6034363363344042
  0.2241879787659613  0.8725654740016466  0.3506965947605920
  0.1142947986959655  0.7594696623534816  0.1048197864099691
  0.8813595412391138  0.8653711736599519  0.8657364389909503
  0.7609442498625754  0.7704622813995030  0.6140859462978838
  0.5553392694955335  0.8724957871180763  0.3540920701932535
  0.4445842267268958  0.7640720680428359  0.1062207900849685
  0.2303052587246981  0.8747616693550881  0.8631090210590742
  0.1270688027881590  0.7540953034163778  0.5946896063642129
  0.8891957792713754  0.8702968757239802  0.3388407994188540
  0.7741075207445718  0.7601165768653360  0.1043045733266013
  0.5516292919537591  0.8769758590976551  0.8586386163425246
  0.4430496290695700  0.7632777181737680  0.6004689471740789
 
  0.00000000E+00  0.00000000E+00  0.00000000E+00
  0.00000000E+00  0.00000000E+00  0.00000000E+00
  0.00000000E+00  0.00000000E+00  0.00000000E+00
  0.00000000E+00  0.00000000E+00  0.00000000E+00
  0.00000000E+00  0.00000000E+00  0.00000000E+00
  0.00000000E+00  0.00000000E+00  0.00000000E+00
  0.00000000E+00  0.00000000E+00  0.00000000E+00
  0.00000000E+00  0.00000000E+00  0.00000000E+00
  0.00000000E+00  0.00000000E+00  0.00000000E+00
  0.00000000E+00  0.00000000E+00  0.00000000E+00
  0.00000000E+00  0.00000000E+00  0.00000000E+00
  0.00000000E+00  0.00000000E+00  0.00000000E+00
  0.00000000E+00  0.00000000E+00  0.00000000E+00
  0.00000000E+00  0.00000000E+00  0.00000000E+00
  0.00000000E+00  0.00000000E+00  0.00000000E+00
  0.00000000E+00  0.00000000E+00  0.00000000E+00
  0.00000000E+00  0.00000000E+00  0.00000000E+00
  0.00000000E+00  0.00000000E+00  0.00000000E+00
  0.00000000E+00  0.00000000E+00  0.00000000E+00
  0.00000000E+00  0.00000000E+00  0.00000000E+00
  0.00000000E+00  0.00000000E+00  0.00000000E+00
  0.00000000E+00  0.00000000E+00  0.00000000E+00
  0.00000000E+00  0.00000000E+00  0.00000000E+00
  0.00000000E+00  0.00000000E+00  0.00000000E+00
  0.00000000E+00  0.00000000E+00  0.00000000E+00
  0.00000000E+00  0.00000000E+00  0.00000000E+00
  0.00000000E+00  0.00000000E+00  0.00000000E+00
  0.00000000E+00  0.00000000E+00  0.00000000E+00
  0.00000000E+00  0.00000000E+00  0.00000000E+00
  0.00000000E+00  0.00000000E+00  0.00000000E+00
  0.00000000E+00  0.00000000E+00  0.00000000E+00
  0.00000000E+00  0.00000000E+00  0.00000000E+00
  0.00000000E+00  0.00000000E+00  0.00000000E+00
  0.00000000E+00  0.00000000E+00  0.00000000E+00
  0.00000000E+00  0.00000000E+00  0.00000000E+00
  0.00000000E+00  0.00000000E+00  0.00000000E+00
  0.00000000E+00  0.00000000E+00  0.00000000E+00
  0.00000000E+00  0.00000000E+00  0.00000000E+00
  0.00000000E+00  0.00000000E+00  0.00000000E+00
  0.00000000E+00  0.00000000E+00  0.00000000E+00
  0.00000000E+00  0.00000000E+00  0.00000000E+00
  0.00000000E+00  0.00000000E+00  0.00000000E+00
  0.00000000E+00  0.00000000E+00  0.00000000E+00
  0.00000000E+00  0.00000000E+00  0.00000000E+00
  0.00000000E+00  0.00000000E+00  0.00000000E+00
  0.00000000E+00  0.00000000E+00  0.00000000E+00
  0.00000000E+00  0.00000000E+00  0.00000000E+00
  0.00000000E+00  0.00000000E+00  0.00000000E+00
  0.00000000E+00  0.00000000E+00  0.00000000E+00
  0.00000000E+00  0.00000000E+00  0.00000000E+00
  0.00000000E+00  0.00000000E+00  0.00000000E+00
  0.00000000E+00  0.00000000E+00  0.00000000E+00
  0.00000000E+00  0.00000000E+00  0.00000000E+00
  0.00000000E+00  0.00000000E+00  0.00000000E+00
  0.00000000E+00  0.00000000E+00  0.00000000E+00
  0.00000000E+00  0.00000000E+00  0.00000000E+00
  0.00000000E+00  0.00000000E+00  0.00000000E+00
  0.00000000E+00  0.00000000E+00  0.00000000E+00
  0.00000000E+00  0.00000000E+00  0.00000000E+00
  0.00000000E+00  0.00000000E+00  0.00000000E+00
  0.00000000E+00  0.00000000E+00  0.00000000E+00
  0.00000000E+00  0.00000000E+00  0.00000000E+00
  0.00000000E+00  0.00000000E+00  0.00000000E+00
  0.00000000E+00  0.00000000E+00  0.00000000E+00
  0.00000000E+00  0.00000000E+00  0.00000000E+00
  0.00000000E+00  0.00000000E+00  0.00000000E+00
  0.00000000E+00  0.00000000E+00  0.00000000E+00
  0.00000000E+00  0.00000000E+00  0.00000000E+00
  0.00000000E+00  0.00000000E+00  0.00000000E+00
  0.00000000E+00  0.00000000E+00  0.00000000E+00
  0.00000000E+00  0.00000000E+00  0.00000000E+00
  0.00000000E+00  0.00000000E+00  0.00000000E+00
