generated by phonopy                    
   1.00000000000000     
    10.0351470768999995   -0.0000022330999784   -0.0000001056124209
    -5.0175765436399997    8.6906901959899994    0.0000001395531216
    -0.0000001735893656    0.0000001431815548   14.9533752540999991
   Pb   P    O 
    20    13    49
Direct
  0.0083137893166878  0.7886395063421645  0.1089564711281881
  0.0018496218622630  0.7715120639674140  0.6205273653514638
  0.9935117609737460  0.2065661513888628  0.3790714863423474
  0.9988393205627233  0.2575371974557896  0.8756532055061470
  0.2016327636143345  0.2280884180801408  0.1201880903431558
  0.2250981706428803  0.2245021645129697  0.6255974780692526
  0.7792183729473123  0.7756363090067637  0.3681113434479641
  0.7461011282733097  0.7447882728842501  0.8724270319608749
  0.7745606542932677  0.0000679528526533  0.1109724938088519
  0.7706275769171853  0.9963069510212179  0.6240346763679625
  0.2213777437579694  0.9992827133533737  0.3685618759961642
  0.2598054562747834  0.0025055757377572  0.8724635068164943
  0.6464296013953046  0.3390894813817908  0.0162147942842097
  0.6608253743849986  0.3361376558602274  0.4996748949767422
  0.3374670516613847  0.6728098384911902  0.0012134529667307
  0.3371621057582175  0.6545938573998598  0.4944699674072695
  0.3190840846615828  0.6673387932702184  0.2491731396222363
  0.3332223229948568  0.6696944362005368  0.7404230263330547
  0.7000898741775785  0.3226348626802249  0.2597620870396540
  0.6709012496922355  0.3338772458284964  0.7501213288122059
  0.6395276474625646  0.6315253737393363  0.1226993522311091
  0.6284217610538789  0.5955664852272164  0.6290674323380472
  0.3558736376787763  0.3844340042079040  0.3777808639778968
  0.3712084651318008  0.3996780363240902  0.8754669554493049
  0.3910904318748223  0.0200651485239760  0.1182494544740393
  0.4043250042602793  0.0316814827547063  0.6279676439047464
  0.6014290148674419  0.9604805529121876  0.3833878517677931
  0.6050195803179861  0.9751130109008344  0.8691391165632183
  0.9764117323094652  0.3756393576077670  0.1186271416239677
  0.9709972488370795  0.3702772365830356  0.6294429946839557
  0.0398622639859241  0.6376496790001411  0.3751367843402207
  0.0280737478361743  0.6324156179069718  0.8692229037397468
  0.5181665037757455  0.4024354023363301  0.1630501436230958
  0.5287001159571503  0.6988121140512575  0.1116445030731654
  0.5097511260255985  0.6523802657100859  0.6289946605564936
  0.4710527263393942  0.3250124235439031  0.3851458456938346
  0.4699006012323323  0.3197567642242660  0.8778433790345375
  0.3359310265201501  0.8443734554509064  0.1157711396181682
  0.3517131040610906  0.8572361027302406  0.6284143001527198
  0.6497639497134600  0.1301814727025814  0.4010432348470800
  0.6861576495398936  0.1525724099751855  0.8670884822680165
  0.1513533194967067  0.4973859274960404  0.1142437824962101
  0.1461551426490360  0.4908010849747768  0.6301159672841123
  0.8616369622901274  0.5387944154689777  0.3743114573076483
  0.8500476512727460  0.5398804068428120  0.8688894489816974
  0.7263760843150848  0.6451980362703651  0.0311706149649424
  0.7409040563735658  0.6633456116514864  0.5477849145964910
  0.2533552207100414  0.3454902834683011  0.4649525024751995
  0.2678074867366931  0.3627813728922717  0.9605903454606590
  0.3752046228664412  0.0785571113689585  0.0237618439030953
  0.3286644242221470  0.0713624091294491  0.5485470025190011
  0.6413061274035741  0.8877955206255095  0.4652555162894814
  0.6460918551366035  0.9148938053611744  0.9553723123788842
  0.9219849274495502  0.2776345734414818  0.0309119593164837
  0.9327344303344347  0.2545534086780847  0.5504939491081657
  0.0965125667609570  0.7481854010263902  0.4579708083054399
  0.0925585126814426  0.7396517018633944  0.9532607401978694
  0.2366751350738809  0.3006450787622796  0.3002342811067891
  0.2608500000577791  0.3476898963145985  0.7932360574255668
  0.7692198734141513  0.7397194233765347  0.1908143685350296
  0.7297602923585131  0.6465235448386224  0.7159387679193046
  0.6889951301684007  0.9456361656818402  0.3009280784322215
  0.6509854590002249  0.9075470166656316  0.7882123017363156
  0.2839087557849993  0.0438553778909849  0.1845637393859789
  0.3565351504195249  0.0829645712991223  0.7160649755261090
  0.1004416772810970  0.7415729070603163  0.2890506508291750
  0.0960214228014422  0.7403856238509547  0.7860342754036367
  0.9454659664986096  0.2620414895185448  0.1979008052826146
  0.9186127055853248  0.2720046796449793  0.7176390161365944
  0.5423672364069887  0.4153564262778886  0.6245855810358378
  0.4393577808937295  0.5633431330108252  0.3657988637561402
  0.4808140318292189  0.5799488534371022  0.8708963163751022
  0.5643469231051697  0.1118323648027939  0.1448688103280062
  0.5841370636052261  0.1306631410283714  0.6206916661985389
  0.4226601470589841  0.8629344977540754  0.3681632717410039
  0.4243473172082446  0.9024078052338211  0.8663691122964821
  0.8788671809802366  0.4562168500689765  0.1322063013433237
  0.8744791928529310  0.4532827813250861  0.6216316344811617
  0.1183137132320624  0.5360253188566872  0.3765807223746407
  0.0963101122824810  0.5208746036901601  0.8699893280501954
  0.9928582398232777  0.9946177232518849  0.0618394587530986
  0.9978353335234402  0.9956710441905088  0.6391897033584328
 
  0.00000000E+00  0.00000000E+00  0.00000000E+00
  0.00000000E+00  0.00000000E+00  0.00000000E+00
  0.00000000E+00  0.00000000E+00  0.00000000E+00
  0.00000000E+00  0.00000000E+00  0.00000000E+00
  0.00000000E+00  0.00000000E+00  0.00000000E+00
  0.00000000E+00  0.00000000E+00  0.00000000E+00
  0.00000000E+00  0.00000000E+00  0.00000000E+00
  0.00000000E+00  0.00000000E+00  0.00000000E+00
  0.00000000E+00  0.00000000E+00  0.00000000E+00
  0.00000000E+00  0.00000000E+00  0.00000000E+00
  0.00000000E+00  0.00000000E+00  0.00000000E+00
  0.00000000E+00  0.00000000E+00  0.00000000E+00
  0.00000000E+00  0.00000000E+00  0.00000000E+00
  0.00000000E+00  0.00000000E+00  0.00000000E+00
  0.00000000E+00  0.00000000E+00  0.00000000E+00
  0.00000000E+00  0.00000000E+00  0.00000000E+00
  0.00000000E+00  0.00000000E+00  0.00000000E+00
  0.00000000E+00  0.00000000E+00  0.00000000E+00
  0.00000000E+00  0.00000000E+00  0.00000000E+00
  0.00000000E+00  0.00000000E+00  0.00000000E+00
  0.00000000E+00  0.00000000E+00  0.00000000E+00
  0.00000000E+00  0.00000000E+00  0.00000000E+00
  0.00000000E+00  0.00000000E+00  0.00000000E+00
  0.00000000E+00  0.00000000E+00  0.00000000E+00
  0.00000000E+00  0.00000000E+00  0.00000000E+00
  0.00000000E+00  0.00000000E+00  0.00000000E+00
  0.00000000E+00  0.00000000E+00  0.00000000E+00
  0.00000000E+00  0.00000000E+00  0.00000000E+00
  0.00000000E+00  0.00000000E+00  0.00000000E+00
  0.00000000E+00  0.00000000E+00  0.00000000E+00
  0.00000000E+00  0.00000000E+00  0.00000000E+00
  0.00000000E+00  0.00000000E+00  0.00000000E+00
  0.00000000E+00  0.00000000E+00  0.00000000E+00
  0.00000000E+00  0.00000000E+00  0.00000000E+00
  0.00000000E+00  0.00000000E+00  0.00000000E+00
  0.00000000E+00  0.00000000E+00  0.00000000E+00
  0.00000000E+00  0.00000000E+00  0.00000000E+00
  0.00000000E+00  0.00000000E+00  0.00000000E+00
  0.00000000E+00  0.00000000E+00  0.00000000E+00
  0.00000000E+00  0.00000000E+00  0.00000000E+00
  0.00000000E+00  0.00000000E+00  0.00000000E+00
  0.00000000E+00  0.00000000E+00  0.00000000E+00
  0.00000000E+00  0.00000000E+00  0.00000000E+00
  0.00000000E+00  0.00000000E+00  0.00000000E+00
  0.00000000E+00  0.00000000E+00  0.00000000E+00
  0.00000000E+00  0.00000000E+00  0.00000000E+00
  0.00000000E+00  0.00000000E+00  0.00000000E+00
  0.00000000E+00  0.00000000E+00  0.00000000E+00
  0.00000000E+00  0.00000000E+00  0.00000000E+00
  0.00000000E+00  0.00000000E+00  0.00000000E+00
  0.00000000E+00  0.00000000E+00  0.00000000E+00
  0.00000000E+00  0.00000000E+00  0.00000000E+00
  0.00000000E+00  0.00000000E+00  0.00000000E+00
  0.00000000E+00  0.00000000E+00  0.00000000E+00
  0.00000000E+00  0.00000000E+00  0.00000000E+00
  0.00000000E+00  0.00000000E+00  0.00000000E+00
  0.00000000E+00  0.00000000E+00  0.00000000E+00
  0.00000000E+00  0.00000000E+00  0.00000000E+00
  0.00000000E+00  0.00000000E+00  0.00000000E+00
  0.00000000E+00  0.00000000E+00  0.00000000E+00
  0.00000000E+00  0.00000000E+00  0.00000000E+00
  0.00000000E+00  0.00000000E+00  0.00000000E+00
  0.00000000E+00  0.00000000E+00  0.00000000E+00
  0.00000000E+00  0.00000000E+00  0.00000000E+00
  0.00000000E+00  0.00000000E+00  0.00000000E+00
  0.00000000E+00  0.00000000E+00  0.00000000E+00
  0.00000000E+00  0.00000000E+00  0.00000000E+00
  0.00000000E+00  0.00000000E+00  0.00000000E+00
  0.00000000E+00  0.00000000E+00  0.00000000E+00
  0.00000000E+00  0.00000000E+00  0.00000000E+00
  0.00000000E+00  0.00000000E+00  0.00000000E+00
  0.00000000E+00  0.00000000E+00  0.00000000E+00
  0.00000000E+00  0.00000000E+00  0.00000000E+00
  0.00000000E+00  0.00000000E+00  0.00000000E+00
  0.00000000E+00  0.00000000E+00  0.00000000E+00
  0.00000000E+00  0.00000000E+00  0.00000000E+00
  0.00000000E+00  0.00000000E+00  0.00000000E+00
  0.00000000E+00  0.00000000E+00  0.00000000E+00
  0.00000000E+00  0.00000000E+00  0.00000000E+00
  0.00000000E+00  0.00000000E+00  0.00000000E+00
  0.00000000E+00  0.00000000E+00  0.00000000E+00
  0.00000000E+00  0.00000000E+00  0.00000000E+00
