supercell of 100% icsd_608626.cif, 0% i 
   1.00000000000000     
    -9.3938463469138842   -0.0008604220968320   -0.0039291246833069
    -4.6961795540829439    8.1317233601397838   -0.0027353448370747
    -0.0042128544320331    0.0009759878750240   -9.9693577453960689
   Al   Ti   Be   N 
    30     3     3    36
Direct
  0.1116172756828888  0.0943996314491287  0.2897561106326236
  0.2161916216072939  0.2074920634969999  0.0409701827508897
  0.7824046935546960  0.0931352770647109  0.7883759554533682
  0.8859696539782291  0.2055041870010541  0.5444920523321883
  0.4419432647953272  0.0941620124912035  0.2992869901416029
  0.1117688220172823  0.0969790788752221  0.8028438182723221
  0.2198460846164352  0.2113570287772717  0.5482241191735895
  0.7817064232457227  0.0901137256603448  0.3036047566947673
  0.8948895285548204  0.2031828475750856  0.0454230872611703
  0.4361865248808598  0.0999642752506489  0.7932503416119445
  0.5585488367004317  0.2027289965968464  0.5448339207444448
  0.1110970740059400  0.4279373742758636  0.2963887300251855
  0.2163653533910335  0.5440723839131607  0.0411168848586811
  0.7797587808372626  0.4255998832693777  0.7947458582524405
  0.8937281373650023  0.5367756734892737  0.5472052355368646
  0.4418529691433193  0.4304688125409228  0.2994782061812984
  0.5536040844589323  0.5443730006315946  0.0448249594109100
  0.2173638257356600  0.5381145508165091  0.5488759798696208
  0.7783707763620953  0.4280260177737105  0.2949433864750759
  0.8920996171156261  0.5366587327553134  0.0452574454231680
  0.4386102671144556  0.4315039244965533  0.7936934792309174
  0.5582076069547384  0.5359049872169024  0.5449828661537524
  0.1092810068584029  0.7608109558342591  0.2940035609342146
  0.4433427857466086  0.7611040359898098  0.2903584992204458
  0.5527281368901740  0.8689071584083052  0.0480040836751385
  0.1140435118656029  0.7581901447485677  0.7990114740754493
  0.7803367602130393  0.7611207080755875  0.2982647206075058
  0.8970451808735334  0.8688155752315723  0.0502698032845998
  0.4408238977624492  0.7608985548328775  0.8017482139115444
  0.5587248379692369  0.8729365824377950  0.5437588441247527
  0.5565439477450269  0.2052081529840066  0.0493263251032587
  0.7833258260231375  0.7583422738030805  0.7950121407913429
  0.2179395156933097  0.8722509345219365  0.5530322083852894
  0.1178820333857473  0.4238539257645471  0.7905114010806500
  0.2215227250179765  0.8720904602312345  0.0429703629227376
  0.8872506022819451  0.8753243235285666  0.5391685307174257
  0.2209545868164611  0.2052852227162631  0.3556448795832878
  0.1156045309028499  0.0873648258073132  0.1000317282527234
  0.8873407476205344  0.2054393492327833  0.8543959780536525
  0.7811821751695618  0.0874080874639276  0.5990738903051493
  0.5549740158736469  0.2055867909866222  0.3513384097230059
  0.4405594378359794  0.0926987476713563  0.1057034958654484
  0.2183004761641527  0.2142770765622046  0.8515410064213853
  0.1066083297586289  0.1016801811271293  0.6077412797120587
  0.8902941697452462  0.2056022170131655  0.3534260262119915
  0.7835425261137701  0.0919375044874187  0.1086784863634378
  0.5572570217592840  0.2043534255466639  0.8521364679096095
  0.4442618124733073  0.0942418091522939  0.6026914680846858
  0.2214496280882940  0.5391898896185978  0.3563231441309895
  0.1120207923442109  0.4276456266783484  0.1060815899332681
  0.8961931850896150  0.5320183301979782  0.8527720972922168
  0.7782373817411425  0.4273138871624198  0.6036302406550504
  0.5552846802654869  0.5397453830812466  0.3535908836547534
  0.4409640091247908  0.4333294728444343  0.1055982632103181
  0.2186608423205101  0.5350944207663986  0.8510604415360987
  0.1108692533035764  0.4276211576431379  0.6101090873409589
  0.8889816758462601  0.5383924702048120  0.3549938341506405
  0.7775667919688871  0.4276170893237605  0.1031365178053676
  0.5560595760623812  0.5371306079258247  0.8537254779974219
  0.4445180231550836  0.4271286681623963  0.6025109334359868
  0.2219813807409565  0.8723969176200015  0.3562972110559883
  0.1168376039413062  0.7634114220423314  0.1031205623053424
  0.8917952998144258  0.8765868852566427  0.8588346459617142
  0.7811744639131675  0.7637609458470749  0.6006127782615565
  0.5551620295466719  0.8711793101986558  0.3529190070245534
  0.4366229283452014  0.7646376253976541  0.1008460446088222
  0.2209114588075636  0.8730886299714555  0.8540955606135157
  0.1004443420247298  0.7626017189249268  0.6051145474738320
  0.8903116320994187  0.8704237512299642  0.3590949146159090
  0.7779745372113496  0.7615561031063507  0.1029967943511068
  0.5509582175573087  0.8761014198814507  0.8549177459740633
  0.4512184460099746  0.7578447773371693  0.6072000248028360
 
  0.00000000E+00  0.00000000E+00  0.00000000E+00
  0.00000000E+00  0.00000000E+00  0.00000000E+00
  0.00000000E+00  0.00000000E+00  0.00000000E+00
  0.00000000E+00  0.00000000E+00  0.00000000E+00
  0.00000000E+00  0.00000000E+00  0.00000000E+00
  0.00000000E+00  0.00000000E+00  0.00000000E+00
  0.00000000E+00  0.00000000E+00  0.00000000E+00
  0.00000000E+00  0.00000000E+00  0.00000000E+00
  0.00000000E+00  0.00000000E+00  0.00000000E+00
  0.00000000E+00  0.00000000E+00  0.00000000E+00
  0.00000000E+00  0.00000000E+00  0.00000000E+00
  0.00000000E+00  0.00000000E+00  0.00000000E+00
  0.00000000E+00  0.00000000E+00  0.00000000E+00
  0.00000000E+00  0.00000000E+00  0.00000000E+00
  0.00000000E+00  0.00000000E+00  0.00000000E+00
  0.00000000E+00  0.00000000E+00  0.00000000E+00
  0.00000000E+00  0.00000000E+00  0.00000000E+00
  0.00000000E+00  0.00000000E+00  0.00000000E+00
  0.00000000E+00  0.00000000E+00  0.00000000E+00
  0.00000000E+00  0.00000000E+00  0.00000000E+00
  0.00000000E+00  0.00000000E+00  0.00000000E+00
  0.00000000E+00  0.00000000E+00  0.00000000E+00
  0.00000000E+00  0.00000000E+00  0.00000000E+00
  0.00000000E+00  0.00000000E+00  0.00000000E+00
  0.00000000E+00  0.00000000E+00  0.00000000E+00
  0.00000000E+00  0.00000000E+00  0.00000000E+00
  0.00000000E+00  0.00000000E+00  0.00000000E+00
  0.00000000E+00  0.00000000E+00  0.00000000E+00
  0.00000000E+00  0.00000000E+00  0.00000000E+00
  0.00000000E+00  0.00000000E+00  0.00000000E+00
  0.00000000E+00  0.00000000E+00  0.00000000E+00
  0.00000000E+00  0.00000000E+00  0.00000000E+00
  0.00000000E+00  0.00000000E+00  0.00000000E+00
  0.00000000E+00  0.00000000E+00  0.00000000E+00
  0.00000000E+00  0.00000000E+00  0.00000000E+00
  0.00000000E+00  0.00000000E+00  0.00000000E+00
  0.00000000E+00  0.00000000E+00  0.00000000E+00
  0.00000000E+00  0.00000000E+00  0.00000000E+00
  0.00000000E+00  0.00000000E+00  0.00000000E+00
  0.00000000E+00  0.00000000E+00  0.00000000E+00
  0.00000000E+00  0.00000000E+00  0.00000000E+00
  0.00000000E+00  0.00000000E+00  0.00000000E+00
  0.00000000E+00  0.00000000E+00  0.00000000E+00
  0.00000000E+00  0.00000000E+00  0.00000000E+00
  0.00000000E+00  0.00000000E+00  0.00000000E+00
  0.00000000E+00  0.00000000E+00  0.00000000E+00
  0.00000000E+00  0.00000000E+00  0.00000000E+00
  0.00000000E+00  0.00000000E+00  0.00000000E+00
  0.00000000E+00  0.00000000E+00  0.00000000E+00
  0.00000000E+00  0.00000000E+00  0.00000000E+00
  0.00000000E+00  0.00000000E+00  0.00000000E+00
  0.00000000E+00  0.00000000E+00  0.00000000E+00
  0.00000000E+00  0.00000000E+00  0.00000000E+00
  0.00000000E+00  0.00000000E+00  0.00000000E+00
  0.00000000E+00  0.00000000E+00  0.00000000E+00
  0.00000000E+00  0.00000000E+00  0.00000000E+00
  0.00000000E+00  0.00000000E+00  0.00000000E+00
  0.00000000E+00  0.00000000E+00  0.00000000E+00
  0.00000000E+00  0.00000000E+00  0.00000000E+00
  0.00000000E+00  0.00000000E+00  0.00000000E+00
  0.00000000E+00  0.00000000E+00  0.00000000E+00
  0.00000000E+00  0.00000000E+00  0.00000000E+00
  0.00000000E+00  0.00000000E+00  0.00000000E+00
  0.00000000E+00  0.00000000E+00  0.00000000E+00
  0.00000000E+00  0.00000000E+00  0.00000000E+00
  0.00000000E+00  0.00000000E+00  0.00000000E+00
  0.00000000E+00  0.00000000E+00  0.00000000E+00
  0.00000000E+00  0.00000000E+00  0.00000000E+00
  0.00000000E+00  0.00000000E+00  0.00000000E+00
  0.00000000E+00  0.00000000E+00  0.00000000E+00
  0.00000000E+00  0.00000000E+00  0.00000000E+00
  0.00000000E+00  0.00000000E+00  0.00000000E+00
