supercell of 100% icsd_608626.cif, 0% i 
   1.00000000000000     
    -9.3972969048555903   -0.0054490456904251   -0.0016547902152347
    -4.6939285800522432    8.1359724629193835   -0.0018108789042072
    -0.0017635077295341    0.0012120513855874   -9.9637937847882458
   Al   Ti   Be   N 
    30     3     3    36
Direct
  0.1160209991360261  0.0909974053286220  0.2952127670435800
  0.2197044040700220  0.2090052128286999  0.0447315672534501
  0.8912943530880852  0.2061786635209018  0.5475485016389925
  0.4443110122080967  0.0938198192109923  0.3034196964180822
  0.5523553493977857  0.2143788272833476  0.0486282148263157
  0.1160174112912671  0.0925549626692970  0.7933822548192069
  0.2244830950362768  0.2070137860380825  0.5461016927505256
  0.7761667139818798  0.0917386066595114  0.2947126178946107
  0.8895488556805660  0.2065112378914691  0.0476833901640958
  0.4415780137276641  0.0929565675596749  0.7880482038453067
  0.5466798710345415  0.2103888425822831  0.5450836639330561
  0.1167959684508872  0.4283625157005488  0.2990516632167584
  0.2263694115649741  0.5389313739273902  0.0470387746411305
  0.7724860615058802  0.4339789508034073  0.7964751503882823
  0.8910796646137342  0.5414044609509148  0.5499361667964422
  0.4393218842725872  0.4309975495957730  0.2950973963632890
  0.1136638801388159  0.4292517423999698  0.7895398315879305
  0.8929985735249346  0.5359168252595836  0.0435352306097414
  0.4393174381307787  0.4348201044528039  0.7925905763345753
  0.5491215892086245  0.5435731180850851  0.5512587974051897
  0.1139721123406616  0.7572881861324916  0.3007449402500839
  0.2221935721451302  0.8687101749950941  0.0446727190922118
  0.7759065643291549  0.7583766741552580  0.7884120627408819
  0.8923843943552328  0.8645516241909448  0.5453829545253086
  0.4422992623186488  0.7631359881831301  0.2990970700607605
  0.1172729189931161  0.7542868892974326  0.7884314320794275
  0.2263072056510680  0.8681687386622556  0.5467677629662546
  0.7757030468637893  0.7646049479338970  0.3034403366717058
  0.8942788371958770  0.8688885632876975  0.0482551635325592
  0.4450464790027766  0.7581304219947000  0.7930602431739757
  0.7769140140360378  0.0941733314020610  0.7986520875105896
  0.7742100068388780  0.4304131637911439  0.2957042558825549
  0.5549021102871166  0.8687794275867233  0.0536603779886988
  0.5483607448552874  0.5372871603563780  0.0387955381985918
  0.2229290061514533  0.5382248503268343  0.5420829265735918
  0.5541706857893161  0.8718670642078834  0.5446210466426606
  0.2210633487354983  0.2058380795036783  0.3539478569319314
  0.1122231291359910  0.0934090466566246  0.1032394973806277
  0.8922094811440076  0.2086793620858032  0.8550814764077543
  0.7771600884677241  0.0945421158109170  0.6035689979083259
  0.5562165260193694  0.2068285243831838  0.3529087937997772
  0.4413349278593302  0.1011639005665614  0.1072626425066687
  0.2227736096435819  0.2060639366770829  0.8533884684613398
  0.1114745084467543  0.0942859232637474  0.6034728361061497
  0.8914223539640744  0.1995955732224530  0.3538342765623383
  0.7779584426710784  0.0936615240986782  0.1006510333201192
  0.5485309323535219  0.2081746694779341  0.8550211674829455
  0.4481613864260439  0.0868502471960824  0.5995814473724153
  0.2232126128417775  0.5387207776219256  0.3591354988777056
  0.1121805436337979  0.4282872635625949  0.1056826112920888
  0.8897966097271066  0.5390232217170734  0.8527092466273061
  0.7771907290314388  0.4280223971068295  0.6030730097904069
  0.5496288387756465  0.5420884724763297  0.3581694712737260
  0.4481288324574990  0.4332440117141871  0.1034786400439955
  0.2214797174338301  0.5389343133307420  0.8568862509725221
  0.1145560180201954  0.4306392962107637  0.6004891719160668
  0.8916222770964168  0.5406507733045913  0.3553462030669934
  0.7737756407484468  0.4305808951429952  0.1012236106379305
  0.5543983105731911  0.5389954676497339  0.8587843367772763
  0.4377662425759183  0.4311948692191407  0.6030033235301389
  0.2219156907188733  0.8725571005827106  0.3544258962551439
  0.1117448897921633  0.7606827182153566  0.1070421807748403
  0.8922535443502255  0.8646299090312297  0.8548152691252824
  0.7698321624809807  0.7651943909601258  0.6001208988430449
  0.5549036817501758  0.8716740879855820  0.3526787605164330
  0.4442824136351291  0.7515216281989296  0.1045380796657724
  0.2215773849853448  0.8716044673784111  0.8533590320218423
  0.1143134953472043  0.7552880835254285  0.6001665423198190
  0.8892098970407432  0.8731309362483017  0.3539946958117142
  0.7857359724904782  0.7563168743291442  0.1081051279071232
  0.5555806775537562  0.8723530628865106  0.8567775926003804
  0.4482195708556986  0.7659042994063938  0.6031789792915632
 
  0.00000000E+00  0.00000000E+00  0.00000000E+00
  0.00000000E+00  0.00000000E+00  0.00000000E+00
  0.00000000E+00  0.00000000E+00  0.00000000E+00
  0.00000000E+00  0.00000000E+00  0.00000000E+00
  0.00000000E+00  0.00000000E+00  0.00000000E+00
  0.00000000E+00  0.00000000E+00  0.00000000E+00
  0.00000000E+00  0.00000000E+00  0.00000000E+00
  0.00000000E+00  0.00000000E+00  0.00000000E+00
  0.00000000E+00  0.00000000E+00  0.00000000E+00
  0.00000000E+00  0.00000000E+00  0.00000000E+00
  0.00000000E+00  0.00000000E+00  0.00000000E+00
  0.00000000E+00  0.00000000E+00  0.00000000E+00
  0.00000000E+00  0.00000000E+00  0.00000000E+00
  0.00000000E+00  0.00000000E+00  0.00000000E+00
  0.00000000E+00  0.00000000E+00  0.00000000E+00
  0.00000000E+00  0.00000000E+00  0.00000000E+00
  0.00000000E+00  0.00000000E+00  0.00000000E+00
  0.00000000E+00  0.00000000E+00  0.00000000E+00
  0.00000000E+00  0.00000000E+00  0.00000000E+00
  0.00000000E+00  0.00000000E+00  0.00000000E+00
  0.00000000E+00  0.00000000E+00  0.00000000E+00
  0.00000000E+00  0.00000000E+00  0.00000000E+00
  0.00000000E+00  0.00000000E+00  0.00000000E+00
  0.00000000E+00  0.00000000E+00  0.00000000E+00
  0.00000000E+00  0.00000000E+00  0.00000000E+00
  0.00000000E+00  0.00000000E+00  0.00000000E+00
  0.00000000E+00  0.00000000E+00  0.00000000E+00
  0.00000000E+00  0.00000000E+00  0.00000000E+00
  0.00000000E+00  0.00000000E+00  0.00000000E+00
  0.00000000E+00  0.00000000E+00  0.00000000E+00
  0.00000000E+00  0.00000000E+00  0.00000000E+00
  0.00000000E+00  0.00000000E+00  0.00000000E+00
  0.00000000E+00  0.00000000E+00  0.00000000E+00
  0.00000000E+00  0.00000000E+00  0.00000000E+00
  0.00000000E+00  0.00000000E+00  0.00000000E+00
  0.00000000E+00  0.00000000E+00  0.00000000E+00
  0.00000000E+00  0.00000000E+00  0.00000000E+00
  0.00000000E+00  0.00000000E+00  0.00000000E+00
  0.00000000E+00  0.00000000E+00  0.00000000E+00
  0.00000000E+00  0.00000000E+00  0.00000000E+00
  0.00000000E+00  0.00000000E+00  0.00000000E+00
  0.00000000E+00  0.00000000E+00  0.00000000E+00
  0.00000000E+00  0.00000000E+00  0.00000000E+00
  0.00000000E+00  0.00000000E+00  0.00000000E+00
  0.00000000E+00  0.00000000E+00  0.00000000E+00
  0.00000000E+00  0.00000000E+00  0.00000000E+00
  0.00000000E+00  0.00000000E+00  0.00000000E+00
  0.00000000E+00  0.00000000E+00  0.00000000E+00
  0.00000000E+00  0.00000000E+00  0.00000000E+00
  0.00000000E+00  0.00000000E+00  0.00000000E+00
  0.00000000E+00  0.00000000E+00  0.00000000E+00
  0.00000000E+00  0.00000000E+00  0.00000000E+00
  0.00000000E+00  0.00000000E+00  0.00000000E+00
  0.00000000E+00  0.00000000E+00  0.00000000E+00
  0.00000000E+00  0.00000000E+00  0.00000000E+00
  0.00000000E+00  0.00000000E+00  0.00000000E+00
  0.00000000E+00  0.00000000E+00  0.00000000E+00
  0.00000000E+00  0.00000000E+00  0.00000000E+00
  0.00000000E+00  0.00000000E+00  0.00000000E+00
  0.00000000E+00  0.00000000E+00  0.00000000E+00
  0.00000000E+00  0.00000000E+00  0.00000000E+00
  0.00000000E+00  0.00000000E+00  0.00000000E+00
  0.00000000E+00  0.00000000E+00  0.00000000E+00
  0.00000000E+00  0.00000000E+00  0.00000000E+00
  0.00000000E+00  0.00000000E+00  0.00000000E+00
  0.00000000E+00  0.00000000E+00  0.00000000E+00
  0.00000000E+00  0.00000000E+00  0.00000000E+00
  0.00000000E+00  0.00000000E+00  0.00000000E+00
  0.00000000E+00  0.00000000E+00  0.00000000E+00
  0.00000000E+00  0.00000000E+00  0.00000000E+00
  0.00000000E+00  0.00000000E+00  0.00000000E+00
  0.00000000E+00  0.00000000E+00  0.00000000E+00
