supercell of 100% icsd_608626.cif, 0% i 
   1.00000000000000     
    -9.3997174035351598    0.0030951476352452    0.0068163986584856
    -4.7025224816870672    8.1606634942639644    0.0048836941978872
     0.0073176070520722   -0.0017303615421910   -9.9518036792561926
   Al   Be   Ti   N 
    30     3     3    36
Direct
  0.1144107007408266  0.0956356416549653  0.2938758687560821
  0.2276154555948224  0.2054696287812661  0.0512015918857571
  0.7747175045498409  0.0962792503895216  0.8026831735067148
  0.8905399726106964  0.2055814397228630  0.5426467163735182
  0.1085308388875603  0.0996114708454527  0.7959473190208470
  0.2184754487000689  0.2082567936801425  0.5386589119492342
  0.7707515860422163  0.0978893313275009  0.2888755304436046
  0.8855605726633158  0.2051193775331868  0.0471147866672297
  0.4430951026276801  0.1015307803208145  0.8068338593473925
  0.1185639826268954  0.4251483057421837  0.2940758299014234
  0.2292602274510855  0.5330557858377318  0.0512363961429472
  0.7811423420989883  0.4248127708771321  0.7954037256846860
  0.8928372320242417  0.5342780771420692  0.5428444514706356
  0.5556586824661167  0.5290873972106951  0.0563578370244784
  0.1126836591949925  0.4272757622114511  0.7970608334577491
  0.2218115571931989  0.5401251747760227  0.5392830237424775
  0.7766208419907343  0.4262900734677046  0.2947005369398141
  0.8896962025478530  0.5378147071301242  0.0466297017164834
  0.4436992523365504  0.4233328720258172  0.8032365235539487
  0.5563463970472640  0.5337464958845288  0.5366855995544313
  0.1139721726934368  0.7570052615143368  0.2939391352860525
  0.2183859286826717  0.8743021142423473  0.0507480032580858
  0.7828111989344251  0.7595656900425567  0.7993357047643883
  0.8931055610439032  0.8716983310907267  0.5420830890708785
  0.4438965330752396  0.7552419895924700  0.2920249599272609
  0.5544585086054568  0.8821757416476501  0.0574877735886261
  0.1086663539597907  0.7584420336996871  0.7963422703571368
  0.2161687249684903  0.8744046917599704  0.5424844188907940
  0.7822812626130684  0.7578098260655892  0.2939324617810399
  0.8857100227954930  0.8766243973880847  0.0475968243132954
  0.4320404021891449  0.1205165135277895  0.2816024669937747
  0.5521304515166108  0.2088655124970984  0.0531653793852414
  0.4405258734730566  0.4293053572893228  0.2854150746447175
  0.5524689112510686  0.2092841967360570  0.5408759872896027
  0.4450806171177319  0.7593510266359118  0.8074589555227192
  0.5555451783680283  0.8719196842087271  0.5414731076702139
  0.2301682907618954  0.2026336508463942  0.3499846624284473
  0.1105725609304571  0.0955265581257407  0.1029059055164865
  0.8890667463176030  0.2058338615084310  0.8535975402028839
  0.7827004754672942  0.0918876659884234  0.6055131545007342
  0.5482930944570512  0.2081912626687057  0.3523434022103800
  0.4472876401783097  0.1012271035039589  0.1083507716629555
  0.2210664088995529  0.2062813607628655  0.8564445320412943
  0.1118530558474049  0.0946099093136894  0.6034812515148005
  0.8896203798714382  0.2036397391658440  0.3527514033601946
  0.7711639439569780  0.0978793558388205  0.1000693549295022
  0.5559672797219548  0.2062250247005792  0.8574297815325096
  0.4368023207065903  0.0971466436919428  0.6105705996866604
  0.2289016816798011  0.5365926023463317  0.3506464852586433
  0.1100454847968848  0.4286267874225658  0.1032165596951842
  0.8888641652672931  0.5385833379306817  0.8530630850718737
  0.7766861207950910  0.4280679597578469  0.6029906317723075
  0.5527808387939857  0.5342492919136106  0.3485006392106200
  0.4479011373786932  0.4186358806898909  0.1081386227098520
  0.2216474411688125  0.5395057808243777  0.8560219874296919
  0.1128906397023144  0.4272784420903832  0.6039986557434318
  0.8922215912676279  0.5358261658404047  0.3531506911875795
  0.7796245220947995  0.4269884004002336  0.1037213974854652
  0.5597740881897835  0.5317832739795136  0.8584473262204426
  0.4406035513249194  0.4351927228832295  0.6087063791521459
  0.2227444652745945  0.8721490193919479  0.3527204123598580
  0.1105122275347483  0.7607157902779491  0.1029310996892008
  0.8890826892957122  0.8725678847769132  0.8542674330052051
  0.7838005419419858  0.7582307456027806  0.6051262647659215
  0.5586283415278714  0.8645129661479558  0.3524799921902613
  0.4447948804791011  0.7608830737194623  0.0983599191838209
  0.2148148051498566  0.8761065551900344  0.8554423467317207
  0.1114722145811200  0.7605619880330323  0.6043356463269376
  0.8888579376485595  0.8729836530771422  0.3525215616849877
  0.7790913134939856  0.7600101229522380  0.1034691222287947
  0.5592796425497610  0.8755605015699643  0.8566766029418673
  0.4411522202636391  0.7564514125666832  0.6063069484839687
 
  0.00000000E+00  0.00000000E+00  0.00000000E+00
  0.00000000E+00  0.00000000E+00  0.00000000E+00
  0.00000000E+00  0.00000000E+00  0.00000000E+00
  0.00000000E+00  0.00000000E+00  0.00000000E+00
  0.00000000E+00  0.00000000E+00  0.00000000E+00
  0.00000000E+00  0.00000000E+00  0.00000000E+00
  0.00000000E+00  0.00000000E+00  0.00000000E+00
  0.00000000E+00  0.00000000E+00  0.00000000E+00
  0.00000000E+00  0.00000000E+00  0.00000000E+00
  0.00000000E+00  0.00000000E+00  0.00000000E+00
  0.00000000E+00  0.00000000E+00  0.00000000E+00
  0.00000000E+00  0.00000000E+00  0.00000000E+00
  0.00000000E+00  0.00000000E+00  0.00000000E+00
  0.00000000E+00  0.00000000E+00  0.00000000E+00
  0.00000000E+00  0.00000000E+00  0.00000000E+00
  0.00000000E+00  0.00000000E+00  0.00000000E+00
  0.00000000E+00  0.00000000E+00  0.00000000E+00
  0.00000000E+00  0.00000000E+00  0.00000000E+00
  0.00000000E+00  0.00000000E+00  0.00000000E+00
  0.00000000E+00  0.00000000E+00  0.00000000E+00
  0.00000000E+00  0.00000000E+00  0.00000000E+00
  0.00000000E+00  0.00000000E+00  0.00000000E+00
  0.00000000E+00  0.00000000E+00  0.00000000E+00
  0.00000000E+00  0.00000000E+00  0.00000000E+00
  0.00000000E+00  0.00000000E+00  0.00000000E+00
  0.00000000E+00  0.00000000E+00  0.00000000E+00
  0.00000000E+00  0.00000000E+00  0.00000000E+00
  0.00000000E+00  0.00000000E+00  0.00000000E+00
  0.00000000E+00  0.00000000E+00  0.00000000E+00
  0.00000000E+00  0.00000000E+00  0.00000000E+00
  0.00000000E+00  0.00000000E+00  0.00000000E+00
  0.00000000E+00  0.00000000E+00  0.00000000E+00
  0.00000000E+00  0.00000000E+00  0.00000000E+00
  0.00000000E+00  0.00000000E+00  0.00000000E+00
  0.00000000E+00  0.00000000E+00  0.00000000E+00
  0.00000000E+00  0.00000000E+00  0.00000000E+00
  0.00000000E+00  0.00000000E+00  0.00000000E+00
  0.00000000E+00  0.00000000E+00  0.00000000E+00
  0.00000000E+00  0.00000000E+00  0.00000000E+00
  0.00000000E+00  0.00000000E+00  0.00000000E+00
  0.00000000E+00  0.00000000E+00  0.00000000E+00
  0.00000000E+00  0.00000000E+00  0.00000000E+00
  0.00000000E+00  0.00000000E+00  0.00000000E+00
  0.00000000E+00  0.00000000E+00  0.00000000E+00
  0.00000000E+00  0.00000000E+00  0.00000000E+00
  0.00000000E+00  0.00000000E+00  0.00000000E+00
  0.00000000E+00  0.00000000E+00  0.00000000E+00
  0.00000000E+00  0.00000000E+00  0.00000000E+00
  0.00000000E+00  0.00000000E+00  0.00000000E+00
  0.00000000E+00  0.00000000E+00  0.00000000E+00
  0.00000000E+00  0.00000000E+00  0.00000000E+00
  0.00000000E+00  0.00000000E+00  0.00000000E+00
  0.00000000E+00  0.00000000E+00  0.00000000E+00
  0.00000000E+00  0.00000000E+00  0.00000000E+00
  0.00000000E+00  0.00000000E+00  0.00000000E+00
  0.00000000E+00  0.00000000E+00  0.00000000E+00
  0.00000000E+00  0.00000000E+00  0.00000000E+00
  0.00000000E+00  0.00000000E+00  0.00000000E+00
  0.00000000E+00  0.00000000E+00  0.00000000E+00
  0.00000000E+00  0.00000000E+00  0.00000000E+00
  0.00000000E+00  0.00000000E+00  0.00000000E+00
  0.00000000E+00  0.00000000E+00  0.00000000E+00
  0.00000000E+00  0.00000000E+00  0.00000000E+00
  0.00000000E+00  0.00000000E+00  0.00000000E+00
  0.00000000E+00  0.00000000E+00  0.00000000E+00
  0.00000000E+00  0.00000000E+00  0.00000000E+00
  0.00000000E+00  0.00000000E+00  0.00000000E+00
  0.00000000E+00  0.00000000E+00  0.00000000E+00
  0.00000000E+00  0.00000000E+00  0.00000000E+00
  0.00000000E+00  0.00000000E+00  0.00000000E+00
  0.00000000E+00  0.00000000E+00  0.00000000E+00
  0.00000000E+00  0.00000000E+00  0.00000000E+00
