Al   N                                  
   1.00000000000000     
    -9.5554696820168239   -0.0000589253169602   -0.0000020425227014
    -4.7777754202984770    8.2752584491984447    0.0000021937965550
    -0.0000004233758865    0.0000017102633508   -9.3844280480277114
   Al   N 
    36    35
Direct
  0.1108474056820654  0.0935762698828242  0.3359138626360689
  0.2225382983616129  0.2052673120134259  0.0752657409582156
  0.7780760449675483  0.0941916752027012  0.8321030541886927
  0.8864586180743999  0.2069173271336950  0.5803986426618977
  0.4459202227455563  0.0935761575381875  0.3359139482658762
  0.5550494899692850  0.2052965057286755  0.0825418070999007
  0.1101130072390930  0.0928419891474590  0.8283950075863515
  0.2225383115265629  0.2052672628252452  0.5939490376541414
  0.7785879982571089  0.0931678250578472  0.3303069554802818
  0.8899978461472173  0.2052965796669852  0.0825418142535597
  0.4473887013542353  0.0928419961719484  0.8283949331442955
  0.5569679063163164  0.2069173497890446  0.5803986523920202
  0.1108472629359056  0.4286492624083706  0.3359139436041190
  0.2225678951085115  0.5377782143520875  0.0825418212582960
  0.7785949032862050  0.4272388236497733  0.8324473760396742
  0.8864585774578089  0.5396968504740869  0.5803986555285761
  0.4454652055780315  0.4281938208237221  0.3298094756243586
  0.5558717670064368  0.5386005171231645  0.0797622091222010
  0.1101130275677988  0.4301177775518710  0.8283949097691519
  0.2241885025023578  0.5396968335575849  0.5803986400287044
  0.7766848029927473  0.4281938776659686  0.3298095038971169
  0.8899978784356790  0.5377782436418528  0.0825417982100873
  0.4445101599366055  0.4272388318371583  0.8324474073252333
  0.5558717039162033  0.5386005337459636  0.5827922963556205
  0.1104391714052539  0.7613167780975445  0.3303069648653647
  0.2225678656324632  0.8727267666605911  0.0825418124508985
  0.7780759918209839  0.7608048356388863  0.8321031102762078
  0.8892050803501164  0.8719338015894564  0.5823203551589771
  0.4454651408869736  0.7594136525542510  0.3298095518032298
  0.5550494139511315  0.8727267917253130  0.0825418006887091
  0.1114631199129974  0.7608047954973642  0.8321030357604187
  0.2241884211893321  0.8691876469284239  0.5803986485530004
  0.7785879835094462  0.7613167626773105  0.3303068885445555
  0.8892051897742306  0.8719337492308625  0.0800852444634756
  0.4445101250032906  0.7613236333606324  0.8324473366768288
  0.5569679096100089  0.8691875611447770  0.5803986556447356
  0.1136371192121715  0.0963660561746806  0.1333372800921282
  0.8906854381671607  0.2043297478097159  0.8793640988013607
  0.7778784041152988  0.0945868242695624  0.6291053442174004
  0.5554066878751769  0.2062498741358922  0.3782504533988913
  0.4403404872996859  0.0963660491137830  0.1333373743884181
  0.2225382526965660  0.2052674066527445  0.8708441302566783
  0.1111706852848826  0.0938996723280638  0.6229760700750262
  0.8886873923308229  0.2062498963991288  0.3782504433856460
  0.7781532285846566  0.0940372372172646  0.1283958937452496
  0.5553287187954510  0.2043297187904614  0.8793640829653171
  0.4452732978075460  0.0938996445694542  0.6229759835283346
  0.2235211433118920  0.5381355451704195  0.3782504435404874
  0.1136371413506723  0.4230694775174797  0.1333373727364204
  0.8906854744774364  0.5380576041149325  0.8793640786780372
  0.7782874530491597  0.4273925307774107  0.6297626335302411
  0.5558717054029501  0.5386005873418256  0.3797576605965602
  0.4449050858636454  0.4276337031066006  0.1279127565628073
  0.2216009453563714  0.5380576100876411  0.8793640860480352
  0.1111707140724718  0.4280022994185089  0.6229759583567827
  0.8886872985733021  0.5381356227638108  0.3782504593663560
  0.7778050075882703  0.4276337367077758  0.1279127913616591
  0.5558717634447419  0.5386005655022501  0.8779610173418888
  0.4446637243257285  0.4273925351865984  0.6297626546645034
  0.2235210722898060  0.8714163666791066  0.3782504464944410
  0.1113086682280908  0.7608819695298052  0.1283959157454504
  0.8892051730186452  0.8719338039124906  0.8779525495009466
  0.7778783798071629  0.7606072888931052  0.6291054079693552
  0.5554067352558718  0.8714162730932742  0.3782504546035170
  0.4449050408222277  0.7605337607945799  0.1279128205861753
  0.2216009290990613  0.8734144293124331  0.8793640822550657
  0.1118580941635443  0.7606072770485213  0.6291053248921941
  0.8892051053480898  0.8719338471511762  0.3795609998908986
  0.7781532002071430  0.7608819975715377  0.1283958301903283
  0.5553286469633392  0.8734144679990123  0.8793640769684146
  0.4446636862085853  0.7610163292600234  0.6297625848118287
 
  0.00000000E+00  0.00000000E+00  0.00000000E+00
  0.00000000E+00  0.00000000E+00  0.00000000E+00
  0.00000000E+00  0.00000000E+00  0.00000000E+00
  0.00000000E+00  0.00000000E+00  0.00000000E+00
  0.00000000E+00  0.00000000E+00  0.00000000E+00
  0.00000000E+00  0.00000000E+00  0.00000000E+00
  0.00000000E+00  0.00000000E+00  0.00000000E+00
  0.00000000E+00  0.00000000E+00  0.00000000E+00
  0.00000000E+00  0.00000000E+00  0.00000000E+00
  0.00000000E+00  0.00000000E+00  0.00000000E+00
  0.00000000E+00  0.00000000E+00  0.00000000E+00
  0.00000000E+00  0.00000000E+00  0.00000000E+00
  0.00000000E+00  0.00000000E+00  0.00000000E+00
  0.00000000E+00  0.00000000E+00  0.00000000E+00
  0.00000000E+00  0.00000000E+00  0.00000000E+00
  0.00000000E+00  0.00000000E+00  0.00000000E+00
  0.00000000E+00  0.00000000E+00  0.00000000E+00
  0.00000000E+00  0.00000000E+00  0.00000000E+00
  0.00000000E+00  0.00000000E+00  0.00000000E+00
  0.00000000E+00  0.00000000E+00  0.00000000E+00
  0.00000000E+00  0.00000000E+00  0.00000000E+00
  0.00000000E+00  0.00000000E+00  0.00000000E+00
  0.00000000E+00  0.00000000E+00  0.00000000E+00
  0.00000000E+00  0.00000000E+00  0.00000000E+00
  0.00000000E+00  0.00000000E+00  0.00000000E+00
  0.00000000E+00  0.00000000E+00  0.00000000E+00
  0.00000000E+00  0.00000000E+00  0.00000000E+00
  0.00000000E+00  0.00000000E+00  0.00000000E+00
  0.00000000E+00  0.00000000E+00  0.00000000E+00
  0.00000000E+00  0.00000000E+00  0.00000000E+00
  0.00000000E+00  0.00000000E+00  0.00000000E+00
  0.00000000E+00  0.00000000E+00  0.00000000E+00
  0.00000000E+00  0.00000000E+00  0.00000000E+00
  0.00000000E+00  0.00000000E+00  0.00000000E+00
  0.00000000E+00  0.00000000E+00  0.00000000E+00
  0.00000000E+00  0.00000000E+00  0.00000000E+00
  0.00000000E+00  0.00000000E+00  0.00000000E+00
  0.00000000E+00  0.00000000E+00  0.00000000E+00
  0.00000000E+00  0.00000000E+00  0.00000000E+00
  0.00000000E+00  0.00000000E+00  0.00000000E+00
  0.00000000E+00  0.00000000E+00  0.00000000E+00
  0.00000000E+00  0.00000000E+00  0.00000000E+00
  0.00000000E+00  0.00000000E+00  0.00000000E+00
  0.00000000E+00  0.00000000E+00  0.00000000E+00
  0.00000000E+00  0.00000000E+00  0.00000000E+00
  0.00000000E+00  0.00000000E+00  0.00000000E+00
  0.00000000E+00  0.00000000E+00  0.00000000E+00
  0.00000000E+00  0.00000000E+00  0.00000000E+00
  0.00000000E+00  0.00000000E+00  0.00000000E+00
  0.00000000E+00  0.00000000E+00  0.00000000E+00
  0.00000000E+00  0.00000000E+00  0.00000000E+00
  0.00000000E+00  0.00000000E+00  0.00000000E+00
  0.00000000E+00  0.00000000E+00  0.00000000E+00
  0.00000000E+00  0.00000000E+00  0.00000000E+00
  0.00000000E+00  0.00000000E+00  0.00000000E+00
  0.00000000E+00  0.00000000E+00  0.00000000E+00
  0.00000000E+00  0.00000000E+00  0.00000000E+00
  0.00000000E+00  0.00000000E+00  0.00000000E+00
  0.00000000E+00  0.00000000E+00  0.00000000E+00
  0.00000000E+00  0.00000000E+00  0.00000000E+00
  0.00000000E+00  0.00000000E+00  0.00000000E+00
  0.00000000E+00  0.00000000E+00  0.00000000E+00
  0.00000000E+00  0.00000000E+00  0.00000000E+00
  0.00000000E+00  0.00000000E+00  0.00000000E+00
  0.00000000E+00  0.00000000E+00  0.00000000E+00
  0.00000000E+00  0.00000000E+00  0.00000000E+00
  0.00000000E+00  0.00000000E+00  0.00000000E+00
  0.00000000E+00  0.00000000E+00  0.00000000E+00
  0.00000000E+00  0.00000000E+00  0.00000000E+00
  0.00000000E+00  0.00000000E+00  0.00000000E+00
  0.00000000E+00  0.00000000E+00  0.00000000E+00
