Al   N                                  
   1.00000000000000     
    -9.8612443077106828   -0.0000502739999278    0.0000032878918654
    -4.9306595017794299    8.5400657704180958    0.0000012725293719
    -0.0000029557940387   -0.0000003261140015   -8.4104655410029121
   Al   N 
    36    35
Direct
  0.1124446907554670  0.0951739723147114  0.3539981697604588
  0.2225380261160055  0.2052675275484148  0.0873096034932388
  0.7782373970411030  0.0938688185279162  0.8526394639793082
  0.8878959922665146  0.2063336830964886  0.6003165485412012
  0.4427248878515755  0.0951739593058392  0.3539981613721181
  0.5553612870460825  0.2057607542465334  0.1041031683875246
  0.1099946582475511  0.0927234067540681  0.8502551497876993
  0.2225379709028914  0.2052675612222572  0.6160273184247700
  0.7784148913454842  0.0935138200979821  0.3518198654324607
  0.8892217874131632  0.2057607018845360  0.1041031314804215
  0.4476253275330251  0.0927236357974266  0.8502551354328816
  0.5561141080518652  0.2063336247020757  0.6003164912329098
  0.1124446275881041  0.4254543893745151  0.3539982022354664
  0.2230321665903858  0.5380902336814728  0.1041031831721568
  0.7784847159572763  0.4272938750884947  0.8527408955771563
  0.8878959142325726  0.5388430393121340  0.6003165469997498
  0.4451228671019436  0.4278515602405690  0.3515583372749731
  0.5558718459044414  0.5386004727631715  0.1011649311349956
  0.1099945560503457  0.4303548655853007  0.8502550771169552
  0.2236052283531933  0.5388428456921304  0.6003164721440513
  0.7773695160279601  0.4278515330119461  0.3515583208678237
  0.8892217091037935  0.5380903134726651  0.1041031150937854
  0.4445653766503028  0.4272938389295504  0.8527408657845612
  0.5558718333703041  0.5386004888213947  0.6031329943354038
  0.1107852991538181  0.7611437652400141  0.3518199678280070
  0.2230321695363102  0.8719505835573784  0.1041032361909728
  0.7782372907657447  0.7609663447889616  0.8526394255752336
  0.8892052145288147  0.8719337221118479  0.6024848946404404
  0.4451228381481727  0.7600982143707427  0.3515583787535661
  0.5553612149104126  0.8719507427068720  0.1041032091870946
  0.1111403340152677  0.7609662247036368  0.8526393632386302
  0.2236051013575917  0.8706250495172867  0.6003164366541043
  0.7784147774981989  0.7611438796674506  0.3518199000774302
  0.8892051826610015  0.8719337525412669  0.1019079043549169
  0.4445652875213071  0.7612134234233494  0.8527408337744973
  0.5561139412355018  0.8706251908526710  0.6003164516128905
  0.1138658783980659  0.0965947729180172  0.1126754518166635
  0.8909133171044701  0.2041130493012204  0.8577384049311618
  0.7778938907758857  0.0945559159105258  0.6073334969034789
  0.5552281522738980  0.2054348668748531  0.3571359595854773
  0.4398828548835070  0.0965949323750195  0.1126754535533792
  0.2225380387449292  0.2052674986859770  0.8541352782261740
  0.1129686186906227  0.0956976920148875  0.6021342476055480
  0.8896807030629006  0.2054348827263084  0.3571359672986816
  0.7779372553126152  0.0944691779108453  0.1075378757765790
  0.5553173832260896  0.2041130604606565  0.8577384032387911
  0.4416771260709993  0.0956978473761367  0.6021342200238777
  0.2227062737905143  0.5379569813336715  0.3571359867818202
  0.1138658321813892  0.4226122829581982  0.1126755099531920
  0.8909132632469365  0.5380462802840000  0.8577383922472137
  0.7781792536013441  0.4274466378974893  0.6081345233152646
  0.5558718202518520  0.5386004507067170  0.3576343216192015
  0.4447221463251836  0.4274506943543557  0.1068419663577984
  0.2213845985228247  0.5380462005602809  0.8577383822378550
  0.1129686109909542  0.4244066482620070  0.6021342095495044
  0.8896806439179201  0.5379571283127476  0.3571359872399782
  0.7781712349182328  0.4274506786862062  0.1068419408853032
  0.5558718138014882  0.5386004587173403  0.8573758980278186
  0.4447181789217254  0.4274465988469913  0.6081344937628828
  0.2227061961850154  0.8724097620966305  0.3571359732799948
  0.1117406363297846  0.7606661042606362  0.1075379102090679
  0.8892052319344188  0.8719336605875014  0.8572945919507333
  0.7778937793958818  0.7606228135588040  0.6073335016034918
  0.5552280529445710  0.8724098139052288  0.3571359660423425
  0.4447221162166599  0.7608998033404859  0.1068420030029529
  0.2213845499816145  0.8736421271905002  0.8577384013507086
  0.1118274902908638  0.7606226810671401  0.6073334501182330
  0.8892051969970325  0.8719336881490705  0.3576194217985105
  0.7779371712300787  0.7606662064437018  0.1075378645102063
  0.5553172724174544  0.8736422966147259  0.8577384131033341
  0.4447180834848155  0.7609079401792513  0.6081344633021075
 
  0.00000000E+00  0.00000000E+00  0.00000000E+00
  0.00000000E+00  0.00000000E+00  0.00000000E+00
  0.00000000E+00  0.00000000E+00  0.00000000E+00
  0.00000000E+00  0.00000000E+00  0.00000000E+00
  0.00000000E+00  0.00000000E+00  0.00000000E+00
  0.00000000E+00  0.00000000E+00  0.00000000E+00
  0.00000000E+00  0.00000000E+00  0.00000000E+00
  0.00000000E+00  0.00000000E+00  0.00000000E+00
  0.00000000E+00  0.00000000E+00  0.00000000E+00
  0.00000000E+00  0.00000000E+00  0.00000000E+00
  0.00000000E+00  0.00000000E+00  0.00000000E+00
  0.00000000E+00  0.00000000E+00  0.00000000E+00
  0.00000000E+00  0.00000000E+00  0.00000000E+00
  0.00000000E+00  0.00000000E+00  0.00000000E+00
  0.00000000E+00  0.00000000E+00  0.00000000E+00
  0.00000000E+00  0.00000000E+00  0.00000000E+00
  0.00000000E+00  0.00000000E+00  0.00000000E+00
  0.00000000E+00  0.00000000E+00  0.00000000E+00
  0.00000000E+00  0.00000000E+00  0.00000000E+00
  0.00000000E+00  0.00000000E+00  0.00000000E+00
  0.00000000E+00  0.00000000E+00  0.00000000E+00
  0.00000000E+00  0.00000000E+00  0.00000000E+00
  0.00000000E+00  0.00000000E+00  0.00000000E+00
  0.00000000E+00  0.00000000E+00  0.00000000E+00
  0.00000000E+00  0.00000000E+00  0.00000000E+00
  0.00000000E+00  0.00000000E+00  0.00000000E+00
  0.00000000E+00  0.00000000E+00  0.00000000E+00
  0.00000000E+00  0.00000000E+00  0.00000000E+00
  0.00000000E+00  0.00000000E+00  0.00000000E+00
  0.00000000E+00  0.00000000E+00  0.00000000E+00
  0.00000000E+00  0.00000000E+00  0.00000000E+00
  0.00000000E+00  0.00000000E+00  0.00000000E+00
  0.00000000E+00  0.00000000E+00  0.00000000E+00
  0.00000000E+00  0.00000000E+00  0.00000000E+00
  0.00000000E+00  0.00000000E+00  0.00000000E+00
  0.00000000E+00  0.00000000E+00  0.00000000E+00
  0.00000000E+00  0.00000000E+00  0.00000000E+00
  0.00000000E+00  0.00000000E+00  0.00000000E+00
  0.00000000E+00  0.00000000E+00  0.00000000E+00
  0.00000000E+00  0.00000000E+00  0.00000000E+00
  0.00000000E+00  0.00000000E+00  0.00000000E+00
  0.00000000E+00  0.00000000E+00  0.00000000E+00
  0.00000000E+00  0.00000000E+00  0.00000000E+00
  0.00000000E+00  0.00000000E+00  0.00000000E+00
  0.00000000E+00  0.00000000E+00  0.00000000E+00
  0.00000000E+00  0.00000000E+00  0.00000000E+00
  0.00000000E+00  0.00000000E+00  0.00000000E+00
  0.00000000E+00  0.00000000E+00  0.00000000E+00
  0.00000000E+00  0.00000000E+00  0.00000000E+00
  0.00000000E+00  0.00000000E+00  0.00000000E+00
  0.00000000E+00  0.00000000E+00  0.00000000E+00
  0.00000000E+00  0.00000000E+00  0.00000000E+00
  0.00000000E+00  0.00000000E+00  0.00000000E+00
  0.00000000E+00  0.00000000E+00  0.00000000E+00
  0.00000000E+00  0.00000000E+00  0.00000000E+00
  0.00000000E+00  0.00000000E+00  0.00000000E+00
  0.00000000E+00  0.00000000E+00  0.00000000E+00
  0.00000000E+00  0.00000000E+00  0.00000000E+00
  0.00000000E+00  0.00000000E+00  0.00000000E+00
  0.00000000E+00  0.00000000E+00  0.00000000E+00
  0.00000000E+00  0.00000000E+00  0.00000000E+00
  0.00000000E+00  0.00000000E+00  0.00000000E+00
  0.00000000E+00  0.00000000E+00  0.00000000E+00
  0.00000000E+00  0.00000000E+00  0.00000000E+00
  0.00000000E+00  0.00000000E+00  0.00000000E+00
  0.00000000E+00  0.00000000E+00  0.00000000E+00
  0.00000000E+00  0.00000000E+00  0.00000000E+00
  0.00000000E+00  0.00000000E+00  0.00000000E+00
  0.00000000E+00  0.00000000E+00  0.00000000E+00
  0.00000000E+00  0.00000000E+00  0.00000000E+00
  0.00000000E+00  0.00000000E+00  0.00000000E+00
