Al   N                                  
   1.00000000000000     
    -9.6543264721420794   -0.0000564535120938   -0.0000005195471109
    -4.8272057371871293    8.3608689827424030    0.0000019305773598
    -0.0000011794298119    0.0000008498286863   -9.0715278351194701
   Al   N 
    36    35
Direct
  0.1119312105359427  0.0946601782997334  0.3423360423555835
  0.2225382408552719  0.2052673582481930  0.0768252490668999
  0.7780500278668327  0.0942437397349423  0.8367655125734359
  0.8861619790246493  0.2071084193575814  0.5839838388997691
  0.4437523766319487  0.0946601358079917  0.3423361030707213
  0.5547918915966790  0.2051335268096537  0.0877539171364603
  0.1095712921766463  0.0923001626450102  0.8318126241274655
  0.2225381813864615  0.2052673927552675  0.6031969856970534
  0.7786155587153019  0.0931126754745932  0.3344565998224454
  0.8904184033163318  0.2051335651393273  0.0877539035392800
  0.4484721288479037  0.0923002755582445  0.8318125580806139
  0.5570734209033148  0.2071083485981262  0.5839838099312971
  0.1119311150869180  0.4264815564361015  0.3423361468172814
  0.2224049217070316  0.5375206914087656  0.0877539294544789
  0.7787844694927841  0.4271440090894103  0.8372229078912312
  0.8861619234300875  0.5398023260310225  0.5839838576801810
  0.4454928313361037  0.4282214574885970  0.3338197708460626
  0.5558717842453689  0.5386004977655361  0.0836616901940204
  0.1095712279749179  0.4312014651836265  0.8318125212994119
  0.2243796986327595  0.5398021970007321  0.5839838153900061
  0.7766295938884085  0.4282214915597464  0.3338197555645976
  0.8904183994556192  0.5375207440016467  0.0877538903495463
  0.4444155047154226  0.4271439749158787  0.8372228884898760
  0.5558717505510344  0.5386005001463161  0.5875453164019149
  0.1103841208187291  0.7613443077344044  0.3344566821028465
  0.2224049318551167  0.8731472523202299  0.0877539372068910
  0.7780499356325947  0.7607787722452883  0.8367655354223160
  0.8892051787427278  0.8719337147890585  0.5869047913432155
  0.4454927692346118  0.7593584046655408  0.3338198752622077
  0.5547918218199968  0.8731473320657912  0.0877539294469187
  0.1115153465882415  0.7607786886638053  0.8367654285576549
  0.2243795471831262  0.8688911760929017  0.5839838020464327
  0.7786155195900193  0.7613443462792233  0.3344565760380362
  0.8892052160758581  0.8719337255533546  0.0841900557932007
  0.4444154381197549  0.7615131453662940  0.8372227886887629
  0.5570733231366276  0.8688911354607853  0.5839837968768506
  0.1142009591300237  0.0969298905807534  0.1298650659486213
  0.8909939172702153  0.2041240024322875  0.8752328565247964
  0.7778094376635991  0.0947247965534075  0.6247935809010770
  0.5554907732879641  0.2061916156014618  0.3732191348406175
  0.4392128034478091  0.0969299313683294  0.1298651402401561
  0.2225381230599837  0.2052674835703954  0.8631583926353201
  0.1112935921005160  0.0940227667580587  0.6168496839911768
  0.8886614251099729  0.2061916579831049  0.3732191469644803
  0.7781741845037828  0.0939953487675851  0.1237082387565351
  0.5552259262042867  0.2041239783651463  0.8752328534640554
  0.4450272532801165  0.0940227549844437  0.6168496210785079
  0.2234628911421979  0.5382196228842275  0.3732191616955589
  0.1142009461784568  0.4219419478675661  0.1298651625400353
  0.8909939002732656  0.5379547842597319  0.8752328334994601
  0.7783916223859535  0.4273404627789361  0.6256425106970838
  0.5558717077966264  0.5386005529319320  0.3755401948473320
  0.4449370252730205  0.4276656932988274  0.1230511655759514
  0.2213953807108950  0.5379547511912364  0.8752328416709574
  0.1112935993267143  0.4277565082218899  0.6168495830105840
  0.8886613688315563  0.5382197204800931  0.3732191779903147
  0.7777411638663452  0.4276657187207604  0.1230511492993074
  0.5558717466222660  0.5386005379003294  0.8732099643876268
  0.4446117474489526  0.4273404234571885  0.6256424767249555
  0.2234627942287091  0.8713905068587877  0.3732191481295430
  0.1112667449786713  0.7609029969701950  0.1237083152548450
  0.8892052148215441  0.8719337184510039  0.8732389219066050
  0.7778093529895642  0.7605383618949304  0.6247936134036536
  0.5554907672315466  0.8713904573646687  0.3732191340582460
  0.4449369993811700  0.7604699128924466  0.1230512603567746
  0.2213953507813358  0.8737228069993890  0.8752328464136880
  0.1119962245181085  0.7605382757443309  0.6247935055505707
  0.8892051131313607  0.8719337950156572  0.3753306565615162
  0.7781741409074527  0.7609030551655280  0.1237082078984244
  0.5552258186550674  0.8737229090495973  0.8752328539948877
  0.4446116684312145  0.7611205344929814  0.6256423743351860
 
  0.00000000E+00  0.00000000E+00  0.00000000E+00
  0.00000000E+00  0.00000000E+00  0.00000000E+00
  0.00000000E+00  0.00000000E+00  0.00000000E+00
  0.00000000E+00  0.00000000E+00  0.00000000E+00
  0.00000000E+00  0.00000000E+00  0.00000000E+00
  0.00000000E+00  0.00000000E+00  0.00000000E+00
  0.00000000E+00  0.00000000E+00  0.00000000E+00
  0.00000000E+00  0.00000000E+00  0.00000000E+00
  0.00000000E+00  0.00000000E+00  0.00000000E+00
  0.00000000E+00  0.00000000E+00  0.00000000E+00
  0.00000000E+00  0.00000000E+00  0.00000000E+00
  0.00000000E+00  0.00000000E+00  0.00000000E+00
  0.00000000E+00  0.00000000E+00  0.00000000E+00
  0.00000000E+00  0.00000000E+00  0.00000000E+00
  0.00000000E+00  0.00000000E+00  0.00000000E+00
  0.00000000E+00  0.00000000E+00  0.00000000E+00
  0.00000000E+00  0.00000000E+00  0.00000000E+00
  0.00000000E+00  0.00000000E+00  0.00000000E+00
  0.00000000E+00  0.00000000E+00  0.00000000E+00
  0.00000000E+00  0.00000000E+00  0.00000000E+00
  0.00000000E+00  0.00000000E+00  0.00000000E+00
  0.00000000E+00  0.00000000E+00  0.00000000E+00
  0.00000000E+00  0.00000000E+00  0.00000000E+00
  0.00000000E+00  0.00000000E+00  0.00000000E+00
  0.00000000E+00  0.00000000E+00  0.00000000E+00
  0.00000000E+00  0.00000000E+00  0.00000000E+00
  0.00000000E+00  0.00000000E+00  0.00000000E+00
  0.00000000E+00  0.00000000E+00  0.00000000E+00
  0.00000000E+00  0.00000000E+00  0.00000000E+00
  0.00000000E+00  0.00000000E+00  0.00000000E+00
  0.00000000E+00  0.00000000E+00  0.00000000E+00
  0.00000000E+00  0.00000000E+00  0.00000000E+00
  0.00000000E+00  0.00000000E+00  0.00000000E+00
  0.00000000E+00  0.00000000E+00  0.00000000E+00
  0.00000000E+00  0.00000000E+00  0.00000000E+00
  0.00000000E+00  0.00000000E+00  0.00000000E+00
  0.00000000E+00  0.00000000E+00  0.00000000E+00
  0.00000000E+00  0.00000000E+00  0.00000000E+00
  0.00000000E+00  0.00000000E+00  0.00000000E+00
  0.00000000E+00  0.00000000E+00  0.00000000E+00
  0.00000000E+00  0.00000000E+00  0.00000000E+00
  0.00000000E+00  0.00000000E+00  0.00000000E+00
  0.00000000E+00  0.00000000E+00  0.00000000E+00
  0.00000000E+00  0.00000000E+00  0.00000000E+00
  0.00000000E+00  0.00000000E+00  0.00000000E+00
  0.00000000E+00  0.00000000E+00  0.00000000E+00
  0.00000000E+00  0.00000000E+00  0.00000000E+00
  0.00000000E+00  0.00000000E+00  0.00000000E+00
  0.00000000E+00  0.00000000E+00  0.00000000E+00
  0.00000000E+00  0.00000000E+00  0.00000000E+00
  0.00000000E+00  0.00000000E+00  0.00000000E+00
  0.00000000E+00  0.00000000E+00  0.00000000E+00
  0.00000000E+00  0.00000000E+00  0.00000000E+00
  0.00000000E+00  0.00000000E+00  0.00000000E+00
  0.00000000E+00  0.00000000E+00  0.00000000E+00
  0.00000000E+00  0.00000000E+00  0.00000000E+00
  0.00000000E+00  0.00000000E+00  0.00000000E+00
  0.00000000E+00  0.00000000E+00  0.00000000E+00
  0.00000000E+00  0.00000000E+00  0.00000000E+00
  0.00000000E+00  0.00000000E+00  0.00000000E+00
  0.00000000E+00  0.00000000E+00  0.00000000E+00
  0.00000000E+00  0.00000000E+00  0.00000000E+00
  0.00000000E+00  0.00000000E+00  0.00000000E+00
  0.00000000E+00  0.00000000E+00  0.00000000E+00
  0.00000000E+00  0.00000000E+00  0.00000000E+00
  0.00000000E+00  0.00000000E+00  0.00000000E+00
  0.00000000E+00  0.00000000E+00  0.00000000E+00
  0.00000000E+00  0.00000000E+00  0.00000000E+00
  0.00000000E+00  0.00000000E+00  0.00000000E+00
  0.00000000E+00  0.00000000E+00  0.00000000E+00
  0.00000000E+00  0.00000000E+00  0.00000000E+00
