Al   N                                  
   1.00000000000000     
    -9.3519896508007889   -0.0000280277561303    0.0000169946721800
    -4.6760228981492054    8.0990471338705294   -0.0000010964433845
    -0.0000207016760430   -0.0000134035715225   -9.9757594974325752
   Al   N 
    36    35
Direct
  0.1090768252573326  0.0915187716983468  0.4110468697188665
  0.2225729303676260  0.2050154717930894  0.1528855487478680
  0.7782542788956093  0.0936533987865644  0.9101175850347474
  0.8885026400348295  0.2056287079835855  0.6605379635201700
  0.4495678680752917  0.0915184898650026  0.4110477872519098
  0.5562811191258206  0.2058767108836577  0.1596628368266124
  0.1111686903210156  0.0936091499321279  0.9099836126936864
  0.2225743548041521  0.2050142298597848  0.6615075979345946
  0.7784159715334198  0.0933311137727131  0.4105705481522861
  0.8880040942218059  0.2058769495506212  0.1596627387965199
  0.4453839755878448  0.0936092129460988  0.9099836033046884
  0.5560324672106916  0.2056286914578394  0.6605382163305080
  0.1090763274046651  0.4320096531875990  0.4110472883711438
  0.2234341579614139  0.5387235613958836  0.1596627496486605
  0.7779379280927188  0.4273320151560469  0.9099782115363908
  0.8885022149241948  0.5384723301760133  0.6605381367987917
  0.4452241693847014  0.4276661926547192  0.4109376602258337
  0.5559064658736546  0.5383489812508344  0.1596686892082815
  0.1111685762542578  0.4278242912672212  0.9099836604669989
  0.2231887253763318  0.5384720339789126  0.6605380459482504
  0.7772716499016639  0.4276664226139744  0.4109379162597051
  0.8880038241046933  0.5387234596256363  0.1596628620974130
  0.4448910648496422  0.4273318500448795  0.9099786172829667
  0.5559076246355019  0.5383478170826521  0.6606498895775843
  0.1108893067798249  0.7608576977573023  0.4105707030041188
  0.2234343727216768  0.8704464413165169  0.1596627466735541
  0.7782542224993847  0.7606948638435043  0.9101178505635588
  0.8892411347347107  0.8716810820207641  0.6605934827672826
  0.4452243279425829  0.7597139223224048  0.4109377277459529
  0.5562808070835459  0.8704466614239124  0.1596629172381867
  0.1112128472795959  0.7606946802602366  0.9101172776708779
  0.2231888371377835  0.8709424553421812  0.6605378841460805
  0.7784159243671027  0.7608580440455057  0.4105704361013096
  0.8892399746340800  0.8716822410550407  0.1598677244848545
  0.4448911392722152  0.7603789056806249  0.9099784166091993
  0.5560324443226605  0.8709420799948262  0.6605382604716752
  0.1115444636676131  0.0939866821150162  0.1031543610998611
  0.8896609194073903  0.2047399036992203  0.8513532022063117
  0.7780735763426208  0.0940166235842810  0.6009699498050978
  0.5547480866638566  0.2056590725554983  0.3508525657478998
  0.4446304113303867  0.0939869317592112  0.1031543693577319
  0.2225738242900022  0.2050141044526370  0.8524940954519948
  0.1121662165598138  0.0946060422441022  0.6000329935148443
  0.8897553917116809  0.2056593975772998  0.3508524658764927
  0.7780910732268538  0.0939799455395445  0.1014164382989193
  0.5557611546016687  0.2047399118387716  0.8513533996528935
  0.4433913081889642  0.0946060218277651  0.6000337870913341
  0.2232169379472921  0.5371900797796556  0.3508524873714052
  0.1115443028272409  0.4270728417005785  0.1031544500244266
  0.8896605906575985  0.5382015746832707  0.8513533753876956
  0.7780936165070500  0.4272549221643800  0.6012806977907346
  0.5559066124022394  0.5383489148608476  0.3509458559893019
  0.4447997030693429  0.4272421061672773  0.1010083294444755
  0.2222992738994307  0.5382013485289718  0.8513532622436983
  0.1121660463408887  0.4258309767426027  0.6000333047184085
  0.8897551267245731  0.5371902014461938  0.3508525917664826
  0.7781197913330899  0.4272421897713201  0.1010079547050466
  0.5559065655963522  0.5383475673144531  0.8512261163768429
  0.4448148348531618  0.4272547306122974  0.6012804612019025
  0.2232171553044964  0.8721974495555216  0.3508524525874108
  0.1115376696494721  0.7605332688175110  0.1014161598083518
  0.8892404068265591  0.8716809535278998  0.8513138059096335
  0.7780734804218525  0.7605134448169935  0.6009698308844165
  0.5547479243456408  0.8721976566803917  0.3508526418900644
  0.4447997752350048  0.7605623034347389  0.1010081426430745
  0.2222993376181535  0.8721013899933183  0.8513530992976683
  0.1115767634066032  0.7605132981099274  0.6009700983630282
  0.8892404707179296  0.8716823254295605  0.3510739966705074
  0.7780908789406595  0.7605334365667247  0.1014166838277717
  0.5557610780700912  0.8721010827004321  0.8513534582263347
  0.4448149425472891  0.7605337209109635  0.6012805024422718
 
  0.00000000E+00  0.00000000E+00  0.00000000E+00
  0.00000000E+00  0.00000000E+00  0.00000000E+00
  0.00000000E+00  0.00000000E+00  0.00000000E+00
  0.00000000E+00  0.00000000E+00  0.00000000E+00
  0.00000000E+00  0.00000000E+00  0.00000000E+00
  0.00000000E+00  0.00000000E+00  0.00000000E+00
  0.00000000E+00  0.00000000E+00  0.00000000E+00
  0.00000000E+00  0.00000000E+00  0.00000000E+00
  0.00000000E+00  0.00000000E+00  0.00000000E+00
  0.00000000E+00  0.00000000E+00  0.00000000E+00
  0.00000000E+00  0.00000000E+00  0.00000000E+00
  0.00000000E+00  0.00000000E+00  0.00000000E+00
  0.00000000E+00  0.00000000E+00  0.00000000E+00
  0.00000000E+00  0.00000000E+00  0.00000000E+00
  0.00000000E+00  0.00000000E+00  0.00000000E+00
  0.00000000E+00  0.00000000E+00  0.00000000E+00
  0.00000000E+00  0.00000000E+00  0.00000000E+00
  0.00000000E+00  0.00000000E+00  0.00000000E+00
  0.00000000E+00  0.00000000E+00  0.00000000E+00
  0.00000000E+00  0.00000000E+00  0.00000000E+00
  0.00000000E+00  0.00000000E+00  0.00000000E+00
  0.00000000E+00  0.00000000E+00  0.00000000E+00
  0.00000000E+00  0.00000000E+00  0.00000000E+00
  0.00000000E+00  0.00000000E+00  0.00000000E+00
  0.00000000E+00  0.00000000E+00  0.00000000E+00
  0.00000000E+00  0.00000000E+00  0.00000000E+00
  0.00000000E+00  0.00000000E+00  0.00000000E+00
  0.00000000E+00  0.00000000E+00  0.00000000E+00
  0.00000000E+00  0.00000000E+00  0.00000000E+00
  0.00000000E+00  0.00000000E+00  0.00000000E+00
  0.00000000E+00  0.00000000E+00  0.00000000E+00
  0.00000000E+00  0.00000000E+00  0.00000000E+00
  0.00000000E+00  0.00000000E+00  0.00000000E+00
  0.00000000E+00  0.00000000E+00  0.00000000E+00
  0.00000000E+00  0.00000000E+00  0.00000000E+00
  0.00000000E+00  0.00000000E+00  0.00000000E+00
  0.00000000E+00  0.00000000E+00  0.00000000E+00
  0.00000000E+00  0.00000000E+00  0.00000000E+00
  0.00000000E+00  0.00000000E+00  0.00000000E+00
  0.00000000E+00  0.00000000E+00  0.00000000E+00
  0.00000000E+00  0.00000000E+00  0.00000000E+00
  0.00000000E+00  0.00000000E+00  0.00000000E+00
  0.00000000E+00  0.00000000E+00  0.00000000E+00
  0.00000000E+00  0.00000000E+00  0.00000000E+00
  0.00000000E+00  0.00000000E+00  0.00000000E+00
  0.00000000E+00  0.00000000E+00  0.00000000E+00
  0.00000000E+00  0.00000000E+00  0.00000000E+00
  0.00000000E+00  0.00000000E+00  0.00000000E+00
  0.00000000E+00  0.00000000E+00  0.00000000E+00
  0.00000000E+00  0.00000000E+00  0.00000000E+00
  0.00000000E+00  0.00000000E+00  0.00000000E+00
  0.00000000E+00  0.00000000E+00  0.00000000E+00
  0.00000000E+00  0.00000000E+00  0.00000000E+00
  0.00000000E+00  0.00000000E+00  0.00000000E+00
  0.00000000E+00  0.00000000E+00  0.00000000E+00
  0.00000000E+00  0.00000000E+00  0.00000000E+00
  0.00000000E+00  0.00000000E+00  0.00000000E+00
  0.00000000E+00  0.00000000E+00  0.00000000E+00
  0.00000000E+00  0.00000000E+00  0.00000000E+00
  0.00000000E+00  0.00000000E+00  0.00000000E+00
  0.00000000E+00  0.00000000E+00  0.00000000E+00
  0.00000000E+00  0.00000000E+00  0.00000000E+00
  0.00000000E+00  0.00000000E+00  0.00000000E+00
  0.00000000E+00  0.00000000E+00  0.00000000E+00
  0.00000000E+00  0.00000000E+00  0.00000000E+00
  0.00000000E+00  0.00000000E+00  0.00000000E+00
  0.00000000E+00  0.00000000E+00  0.00000000E+00
  0.00000000E+00  0.00000000E+00  0.00000000E+00
  0.00000000E+00  0.00000000E+00  0.00000000E+00
  0.00000000E+00  0.00000000E+00  0.00000000E+00
  0.00000000E+00  0.00000000E+00  0.00000000E+00
