Al   N                                  
   1.00000000000000     
    -9.5028042017911041   -0.0000601612193934   -0.0000028040104966
    -4.7514430490698425    8.2296487033925629    0.0000023254061526
     0.0000001969806387    0.0000023843177401   -9.5452735454937407
   Al   N 
    36    35
Direct
  0.1102016588947876  0.0929305630944484  0.3327234704793653
  0.2225383078244860  0.2052672914830111  0.0749295265211529
  0.7781066373557479  0.0941304775108733  0.8301132548781212
  0.8867910609755469  0.2067359642910560  0.5790443861798522
  0.4472117054145386  0.0929304148611294  0.3327235526232144
  0.5552511457603799  0.2054317060932291  0.0802691976563423
  0.1104826015941356  0.0932115791592523  0.8272667846087032
  0.2225383790446642  0.2052671912950856  0.5892101272557611
  0.7785488051943901  0.0932462105481164  0.3286545635711775
  0.8896609835069427  0.2054317790531144  0.0802692014920439
  0.4466495826217880  0.0932115399390838  0.8272667167253829
  0.5568168635008064  0.2067360186866907  0.5790443992541299
  0.1102015196824908  0.4299407112146696  0.3327235137706950
  0.2227030371704970  0.5379798970570988  0.0802692063616917
  0.7784478195855584  0.4273123728616994  0.8303878224185368
  0.8867910364089653  0.5395457561767287  0.5790443960872835
  0.4454196258361591  0.4281482777745040  0.3282234080037441
  0.5558717394508221  0.5386005314495748  0.0782410508974110
  0.1104826521187050  0.4293785031553057  0.8272667031095082
  0.2240071501262619  0.5395457873868494  0.5790443868100539
  0.7767759049132295  0.4281483266053101  0.3282234491778908
  0.8896610241563110  0.5379799032007071  0.0802691844595955
  0.4445836408257264  0.4273123884188905  0.8303878715550255
  0.5558717052957221  0.5386005236628222  0.5807380894337015
  0.1105175152100415  0.7612776049955841  0.3286545578422349
  0.2227029975697903  0.8723899354935440  0.0802692029917225
  0.7781066098964047  0.7608354422937040  0.8301133131731717
  0.8892050431241643  0.8719338270480961  0.5803559935763332
  0.4454195699017376  0.7595047572713369  0.3282234652323552
  0.5552510845504770  0.8723899346679929  0.0802691936999835
  0.1114018224788964  0.7608354339518542  0.8301132582108721
  0.2240071054932997  0.8695199615336406  0.5790443965763075
  0.7785487929594197  0.7612775674628693  0.3286544985249478
  0.8892051463294450  0.8719337774083726  0.0784677255409889
  0.4445836128364533  0.7611765982024679  0.8303878253754107
  0.5568169002534091  0.8695198658062964  0.5790444026129151
  0.1132604480631940  0.0959893963460487  0.1344896835557137
  0.8904797559496416  0.2044684249942748  0.8810042516807215
  0.7779265357138385  0.0944905919349281  0.6308472585624472
  0.5553100626391299  0.2062208132944576  0.3804289817464976
  0.4410938023803581  0.0959893768203202  0.1344897762057187
  0.2225383198594457  0.2052673383196009  0.8748327535862828
  0.1112581527147967  0.0939870182815596  0.6258161071119517
  0.8888131177036342  0.2062208249433084  0.3804289735130979
  0.7781256171233011  0.0940924576183733  0.1304146450132961
  0.5553957390996231  0.2044683933220455  0.8810042417799195
  0.4450985425102587  0.0939869804009703  0.6258160353404989
  0.2234920619692460  0.5380389121065932  0.3804289761672592
  0.1132604772307317  0.4238227719091796  0.1344897485805916
  0.8904798108901559  0.5381246021083754  0.8810042347098204
  0.7782187977204202  0.4274268453890784  0.6314106535378627
  0.5558717172002261  0.5386005704566657  0.3814412297727898
  0.4448737056939009  0.4276023454827396  0.1300131323567939
  0.2217395819917556  0.5381246183792072  0.8810042469154951
  0.1112581888036388  0.4278273885201358  0.6258160099870835
  0.8888130321609182  0.5380389665901149  0.3804289877636720
  0.7778677031756374  0.4276023771670268  0.1300131753028282
  0.5558717507526509  0.5386005705232577  0.8800340548247476
  0.4446980693158906  0.4274268655035200  0.6314106930923344
  0.2234920047425177  0.8715420548988675  0.3804289799996781
  0.1113638657806320  0.7608543493947053  0.1304146483958561
  0.8892051346126593  0.8719338342303189  0.8800032529461532
  0.7779265325210503  0.7606553428741165  0.6308473261632912
  0.5553101224647463  0.8715419357184331  0.3804289846321893
  0.4448736599916643  0.7605964771578755  0.1300131776329820
  0.2217395627959036  0.8732087605147214  0.8810042465314964
  0.1117618466259600  0.7606553667933298  0.6308472626734059
  0.8892051109365440  0.8719338385109054  0.3812559286712158
  0.7781256016365390  0.7608543579535407  0.1304145835065853
  0.5553956929363366  0.8732087651005855  0.8810042407436569
  0.4446980538907539  0.7609475815800124  0.6314106475605570
 
  0.00000000E+00  0.00000000E+00  0.00000000E+00
  0.00000000E+00  0.00000000E+00  0.00000000E+00
  0.00000000E+00  0.00000000E+00  0.00000000E+00
  0.00000000E+00  0.00000000E+00  0.00000000E+00
  0.00000000E+00  0.00000000E+00  0.00000000E+00
  0.00000000E+00  0.00000000E+00  0.00000000E+00
  0.00000000E+00  0.00000000E+00  0.00000000E+00
  0.00000000E+00  0.00000000E+00  0.00000000E+00
  0.00000000E+00  0.00000000E+00  0.00000000E+00
  0.00000000E+00  0.00000000E+00  0.00000000E+00
  0.00000000E+00  0.00000000E+00  0.00000000E+00
  0.00000000E+00  0.00000000E+00  0.00000000E+00
  0.00000000E+00  0.00000000E+00  0.00000000E+00
  0.00000000E+00  0.00000000E+00  0.00000000E+00
  0.00000000E+00  0.00000000E+00  0.00000000E+00
  0.00000000E+00  0.00000000E+00  0.00000000E+00
  0.00000000E+00  0.00000000E+00  0.00000000E+00
  0.00000000E+00  0.00000000E+00  0.00000000E+00
  0.00000000E+00  0.00000000E+00  0.00000000E+00
  0.00000000E+00  0.00000000E+00  0.00000000E+00
  0.00000000E+00  0.00000000E+00  0.00000000E+00
  0.00000000E+00  0.00000000E+00  0.00000000E+00
  0.00000000E+00  0.00000000E+00  0.00000000E+00
  0.00000000E+00  0.00000000E+00  0.00000000E+00
  0.00000000E+00  0.00000000E+00  0.00000000E+00
  0.00000000E+00  0.00000000E+00  0.00000000E+00
  0.00000000E+00  0.00000000E+00  0.00000000E+00
  0.00000000E+00  0.00000000E+00  0.00000000E+00
  0.00000000E+00  0.00000000E+00  0.00000000E+00
  0.00000000E+00  0.00000000E+00  0.00000000E+00
  0.00000000E+00  0.00000000E+00  0.00000000E+00
  0.00000000E+00  0.00000000E+00  0.00000000E+00
  0.00000000E+00  0.00000000E+00  0.00000000E+00
  0.00000000E+00  0.00000000E+00  0.00000000E+00
  0.00000000E+00  0.00000000E+00  0.00000000E+00
  0.00000000E+00  0.00000000E+00  0.00000000E+00
  0.00000000E+00  0.00000000E+00  0.00000000E+00
  0.00000000E+00  0.00000000E+00  0.00000000E+00
  0.00000000E+00  0.00000000E+00  0.00000000E+00
  0.00000000E+00  0.00000000E+00  0.00000000E+00
  0.00000000E+00  0.00000000E+00  0.00000000E+00
  0.00000000E+00  0.00000000E+00  0.00000000E+00
  0.00000000E+00  0.00000000E+00  0.00000000E+00
  0.00000000E+00  0.00000000E+00  0.00000000E+00
  0.00000000E+00  0.00000000E+00  0.00000000E+00
  0.00000000E+00  0.00000000E+00  0.00000000E+00
  0.00000000E+00  0.00000000E+00  0.00000000E+00
  0.00000000E+00  0.00000000E+00  0.00000000E+00
  0.00000000E+00  0.00000000E+00  0.00000000E+00
  0.00000000E+00  0.00000000E+00  0.00000000E+00
  0.00000000E+00  0.00000000E+00  0.00000000E+00
  0.00000000E+00  0.00000000E+00  0.00000000E+00
  0.00000000E+00  0.00000000E+00  0.00000000E+00
  0.00000000E+00  0.00000000E+00  0.00000000E+00
  0.00000000E+00  0.00000000E+00  0.00000000E+00
  0.00000000E+00  0.00000000E+00  0.00000000E+00
  0.00000000E+00  0.00000000E+00  0.00000000E+00
  0.00000000E+00  0.00000000E+00  0.00000000E+00
  0.00000000E+00  0.00000000E+00  0.00000000E+00
  0.00000000E+00  0.00000000E+00  0.00000000E+00
  0.00000000E+00  0.00000000E+00  0.00000000E+00
  0.00000000E+00  0.00000000E+00  0.00000000E+00
  0.00000000E+00  0.00000000E+00  0.00000000E+00
  0.00000000E+00  0.00000000E+00  0.00000000E+00
  0.00000000E+00  0.00000000E+00  0.00000000E+00
  0.00000000E+00  0.00000000E+00  0.00000000E+00
  0.00000000E+00  0.00000000E+00  0.00000000E+00
  0.00000000E+00  0.00000000E+00  0.00000000E+00
  0.00000000E+00  0.00000000E+00  0.00000000E+00
  0.00000000E+00  0.00000000E+00  0.00000000E+00
  0.00000000E+00  0.00000000E+00  0.00000000E+00
