Al   N                                  
   1.00000000000000     
    -9.8233996716582048   -0.0000515099023610    0.0000025264040702
    -4.9117368752163735    8.5072912629777608    0.0000014041389695
    -0.0000027579381607   -0.0000000603162175   -8.5237959442537168
   Al   N 
    36    35
Direct
  0.1126676076443047  0.0953969578992684  0.3524742278185826
  0.2225380703772899  0.2052674953257636  0.0838309237519610
  0.7781675836615776  0.0940085112711060  0.8491321270383381
  0.8872412633621636  0.2066396504111268  0.5961569486479235
  0.4422790189749932  0.0953969033311211  0.3524742242494838
  0.5550321206811617  0.2054567041504853  0.1006451322797304
  0.1097631985802252  0.0924918677420834  0.8450467871619622
  0.2225380198836149  0.2052675226762588  0.6139243449287122
  0.7784749061768892  0.0933938325500776  0.3475065898204903
  0.8898550355983090  0.2054566375621647  0.1006450569330397
  0.4480883951703873  0.0924920937947604  0.8450467475302119
  0.5564629185263215  0.2066395469584990  0.5961568519760974
  0.1126675321801258  0.4250085016328242  0.3524742946837947
  0.2227280324292380  0.5377611147872230  0.1006451327128417
  0.7786487722350728  0.4272118397347455  0.8493972441138880
  0.8872411786368417  0.5391917631446219  0.5961569558607493
  0.4452434653150732  0.4279722097776215  0.3469598481308296
  0.5558718208232563  0.5386004847807797  0.0966551759711507
  0.1097630828932523  0.4308178470403732  0.8450466702972719
  0.2239112060206878  0.5391915312253062  0.5961568503098675
  0.7771282444691394  0.4279721862155483  0.3469598212801017
  0.8898549647358109  0.5377611568396645  0.1006450347679078
  0.4444833637582519  0.4272117850042889  0.8493972121115263
  0.5558718136149210  0.5386004887843256  0.5996489225737918
  0.1106653039065222  0.7612037550189612  0.3475067871247788
  0.2227280799616551  0.8725837619034067  0.1006452123013446
  0.7781674735899173  0.7608964645585417  0.8491320768254909
  0.8892052261380385  0.8719337019388291  0.5989257715511371
  0.4452434449797806  0.7598569828161956  0.3469599278367284
  0.5550320790817693  0.8725839191486813  0.1006451950992400
  0.1112800615930567  0.7608963471763204  0.8491319566620490
  0.2239110377967535  0.8699703833960299  0.5961567971496251
  0.7784747986361751  0.7612038722687515  0.3475066450547288
  0.8892051968074597  0.8719337436107395  0.0975071728854147
  0.4444832671338546  0.7613774933190740  0.8493971583801496
  0.5564627289544219  0.8699704775949542  0.5961567970684527
  0.1142407277447148  0.0969696333290386  0.1172040165508008
  0.8910286470473565  0.2040578004922224  0.8621359610895780
  0.7778499525678626  0.0946437773059117  0.6115604108501316
  0.5552682149773389  0.2056184771722585  0.3606715458509839
  0.4391331160634664  0.0969697855632106  0.1172040640701510
  0.2225380823739727  0.2052674900925950  0.8544925663031151
  0.1124903194955564  0.0952194154613792  0.6049623715525385
  0.8894570514317763  0.2056185212956478  0.3606715974240657
  0.7780056709000718  0.0943323380435643  0.1113312187567175
  0.5552573836010026  0.2040578031848952  0.8621359999764664
  0.4426337326917249  0.0952195318644016  0.6049623131794348
  0.2228898246731106  0.5379970275995092  0.3606716128622693
  0.1142406647916800  0.4218625460841565  0.1172041041948546
  0.8910285876518529  0.5379862296245221  0.8621359322467299
  0.7782648913858026  0.4274037972528930  0.6125264819823713
  0.5558717935795059  0.5386004856884625  0.3621178816460784
  0.4447842306090450  0.4275128887576329  0.1105728563909878
  0.2213293540409325  0.5379861673314537  0.8621359524092824
  0.1124903058376745  0.4253631820972572  0.6049623183818156
  0.8894569920949351  0.5379972020926189  0.3606716349837242
  0.7780468849522677  0.4275128650250863  0.1105728127587255
  0.5558718031148828  0.5386004839348999  0.8610741071007908
  0.4446753091661790  0.4274037287777688  0.6125264366196177
  0.2228897356926751  0.8721861981601151  0.3606715709986972
  0.1116037470453080  0.7607345217610302  0.1113313246583587
  0.8892052634137428  0.8719336572627157  0.8610023509101552
  0.7778498260313995  0.7605788608611803  0.6115603990622986
  0.5552681250244973  0.8721862006357171  0.3606715363327595
  0.4447842261124393  0.7607754940037523  0.1105729256046502
  0.2213293135788845  0.8737573988062550  0.8621360010879542
  0.1119153780466320  0.7605787134777273  0.6115602856710183
  0.8892051807648826  0.8719337277189965  0.3620118243091284
  0.7780055954658707  0.7607346155391213  0.1113312229049797
  0.5552572714218371  0.8737575726340125  0.8621360254672368
  0.4446751959057806  0.7609936729523099  0.6125263747483629
 
  0.00000000E+00  0.00000000E+00  0.00000000E+00
  0.00000000E+00  0.00000000E+00  0.00000000E+00
  0.00000000E+00  0.00000000E+00  0.00000000E+00
  0.00000000E+00  0.00000000E+00  0.00000000E+00
  0.00000000E+00  0.00000000E+00  0.00000000E+00
  0.00000000E+00  0.00000000E+00  0.00000000E+00
  0.00000000E+00  0.00000000E+00  0.00000000E+00
  0.00000000E+00  0.00000000E+00  0.00000000E+00
  0.00000000E+00  0.00000000E+00  0.00000000E+00
  0.00000000E+00  0.00000000E+00  0.00000000E+00
  0.00000000E+00  0.00000000E+00  0.00000000E+00
  0.00000000E+00  0.00000000E+00  0.00000000E+00
  0.00000000E+00  0.00000000E+00  0.00000000E+00
  0.00000000E+00  0.00000000E+00  0.00000000E+00
  0.00000000E+00  0.00000000E+00  0.00000000E+00
  0.00000000E+00  0.00000000E+00  0.00000000E+00
  0.00000000E+00  0.00000000E+00  0.00000000E+00
  0.00000000E+00  0.00000000E+00  0.00000000E+00
  0.00000000E+00  0.00000000E+00  0.00000000E+00
  0.00000000E+00  0.00000000E+00  0.00000000E+00
  0.00000000E+00  0.00000000E+00  0.00000000E+00
  0.00000000E+00  0.00000000E+00  0.00000000E+00
  0.00000000E+00  0.00000000E+00  0.00000000E+00
  0.00000000E+00  0.00000000E+00  0.00000000E+00
  0.00000000E+00  0.00000000E+00  0.00000000E+00
  0.00000000E+00  0.00000000E+00  0.00000000E+00
  0.00000000E+00  0.00000000E+00  0.00000000E+00
  0.00000000E+00  0.00000000E+00  0.00000000E+00
  0.00000000E+00  0.00000000E+00  0.00000000E+00
  0.00000000E+00  0.00000000E+00  0.00000000E+00
  0.00000000E+00  0.00000000E+00  0.00000000E+00
  0.00000000E+00  0.00000000E+00  0.00000000E+00
  0.00000000E+00  0.00000000E+00  0.00000000E+00
  0.00000000E+00  0.00000000E+00  0.00000000E+00
  0.00000000E+00  0.00000000E+00  0.00000000E+00
  0.00000000E+00  0.00000000E+00  0.00000000E+00
  0.00000000E+00  0.00000000E+00  0.00000000E+00
  0.00000000E+00  0.00000000E+00  0.00000000E+00
  0.00000000E+00  0.00000000E+00  0.00000000E+00
  0.00000000E+00  0.00000000E+00  0.00000000E+00
  0.00000000E+00  0.00000000E+00  0.00000000E+00
  0.00000000E+00  0.00000000E+00  0.00000000E+00
  0.00000000E+00  0.00000000E+00  0.00000000E+00
  0.00000000E+00  0.00000000E+00  0.00000000E+00
  0.00000000E+00  0.00000000E+00  0.00000000E+00
  0.00000000E+00  0.00000000E+00  0.00000000E+00
  0.00000000E+00  0.00000000E+00  0.00000000E+00
  0.00000000E+00  0.00000000E+00  0.00000000E+00
  0.00000000E+00  0.00000000E+00  0.00000000E+00
  0.00000000E+00  0.00000000E+00  0.00000000E+00
  0.00000000E+00  0.00000000E+00  0.00000000E+00
  0.00000000E+00  0.00000000E+00  0.00000000E+00
  0.00000000E+00  0.00000000E+00  0.00000000E+00
  0.00000000E+00  0.00000000E+00  0.00000000E+00
  0.00000000E+00  0.00000000E+00  0.00000000E+00
  0.00000000E+00  0.00000000E+00  0.00000000E+00
  0.00000000E+00  0.00000000E+00  0.00000000E+00
  0.00000000E+00  0.00000000E+00  0.00000000E+00
  0.00000000E+00  0.00000000E+00  0.00000000E+00
  0.00000000E+00  0.00000000E+00  0.00000000E+00
  0.00000000E+00  0.00000000E+00  0.00000000E+00
  0.00000000E+00  0.00000000E+00  0.00000000E+00
  0.00000000E+00  0.00000000E+00  0.00000000E+00
  0.00000000E+00  0.00000000E+00  0.00000000E+00
  0.00000000E+00  0.00000000E+00  0.00000000E+00
  0.00000000E+00  0.00000000E+00  0.00000000E+00
  0.00000000E+00  0.00000000E+00  0.00000000E+00
  0.00000000E+00  0.00000000E+00  0.00000000E+00
  0.00000000E+00  0.00000000E+00  0.00000000E+00
  0.00000000E+00  0.00000000E+00  0.00000000E+00
  0.00000000E+00  0.00000000E+00  0.00000000E+00
