Al   N                                  
   1.00000000000000     
    -9.7437686637491332   -0.0000539817072274    0.0000010034284797
    -4.8719252647950135    8.4383271449214163    0.0000016673581647
    -0.0000019453126582    0.0000003235732291   -8.7810482415967730
   Al   N 
    36    35
Direct
  0.1125537638639713  0.0952830290406510  0.3480948521260814
  0.2225381694185984  0.2052674094749634  0.0796367813908390
  0.7780775165928659  0.0941887430851693  0.8424314223259728
  0.8864270551310298  0.2070188845897647  0.5891297443967645
  0.4425068606684164  0.0952829692222892  0.3480948798913417
  0.5547685130384465  0.2051660986464938  0.0938431753413980
  0.1094817413613782  0.0922104441979599  0.8372462728105106
  0.2225380926198852  0.2052674703868860  0.6097379373971705
  0.7785768122968264  0.0931900975105577  0.3400703391829154
  0.8904092132707504  0.2051660693383823  0.0938431106799769
  0.4486513734042603  0.0922106218767880  0.8372462088756265
  0.5568978913360212  0.2070187661552723  0.5891296642290484
  0.1125537049115266  0.4252362311504569  0.3480949495366090
  0.2224374131444051  0.5374974565857613  0.0938431819781869
  0.7788150535985352  0.4271287022002568  0.8428960066328486
  0.8864269826975999  0.5396267119463261  0.5891297611011979
  0.4454229845955595  0.4281516990393541  0.3393635383864009
  0.5558717883554891  0.5386004926210433  0.0891060940194350
  0.1094816376460770  0.4313807489895609  0.8372461607208947
  0.2242903529462907  0.5396265025535101  0.5891296746903052
  0.7767692315574166  0.4281516966721881  0.3393634986704726
  0.8904091821113056  0.5374974881465420  0.0938430923680045
  0.4444002559809022  0.4271286402106611  0.8428959687144086
  0.5558717984386661  0.5386004680245833  0.5931767928774576
  0.1104615791854187  0.7613056047701008  0.3400705024894393
  0.2224374617753071  0.8731379929864715  0.0938432394795186
  0.7780774164653792  0.7608062865952547  0.8424314029263087
  0.8892052330616309  0.8719336713474846  0.5924268181420089
  0.4454229511336791  0.7594980046711228  0.3393636486699947
  0.5547684704649285  0.8731381089705650  0.0938432283834985
  0.1114603585356377  0.7608061917043045  0.8424312695095324
  0.2242901691987456  0.8691562443794894  0.5891296249718323
  0.7785767384221813  0.7613056926061503  0.3400703588228708
  0.8892051974292201  0.8719337334178903  0.0898355999645659
  0.4444001614033510  0.7615437541201757  0.8428958744319743
  0.5568977244358635  0.8691562604026473  0.5891296178353898
  0.1144343207414522  0.0971632887649179  0.1245719708234532
  0.8911218648166539  0.2040286063933721  0.8696084919663178
  0.7777961198955126  0.0947514408886434  0.6190385765736792
  0.5554287305254277  0.2059706774946406  0.3673252899150512
  0.4387459721160383  0.0971633641017462  0.1245720259207914
  0.2225381015884693  0.2052674866373252  0.8575315521168321
  0.1117768313683669  0.0945059894621920  0.6106835432850133
  0.8889443187064430  0.2059707387589143  0.3673253364902962
  0.7781282818111421  0.0940871209306025  0.1180639191076551
  0.5551933769884485  0.2040285998671578  0.8696085145702668
  0.4440607365104157  0.0945060294831421  0.6106834822198977
  0.2232419529379328  0.5381575661604785  0.3673253288173015
  0.1144342927279141  0.4214752563812141  0.1245720697170043
  0.8911218214841483  0.5379221817900728  0.8696084668426920
  0.7783974307779715  0.4273375427112924  0.6200311699701828
  0.5558717424661808  0.5386005159059053  0.3698117568504031
  0.4449027134804240  0.4276314421049676  0.1172879856482112
  0.2213001382270221  0.5379221331896886  0.8696084896641878
  0.1117768146431644  0.4267901253691662  0.6106834557529766
  0.8889442855415055  0.5381577098219950  0.3673253694567009
  0.7778097742518639  0.4276314388264382  0.1172879398744371
  0.5558717538499351  0.5386005214917020  0.8676018668532279
  0.4446089655654362  0.4273374775947758  0.6200311066770610
  0.2232418459100600  0.8716735195689012  0.3673252870683612
  0.1113584591480574  0.7608571693423656  0.1180640422527830
  0.8892052399692929  0.8719336782684337  0.8676222906289652
  0.7777959969881536  0.7605250413951836  0.6190385854012774
  0.5554286795092622  0.8716734814565044  0.3673252681820074
  0.4449027073621963  0.7605384944362044  0.1172880869160835
  0.2213000987742859  0.8738506350439579  0.8696085227917081
  0.1120230134801616  0.7605249050825407  0.6190384600307084
  0.8892051413881958  0.8719337558992208  0.3696186391930567
  0.7781282314645352  0.7608572372248830  0.1180639171194358
  0.5551932657389997  0.8738507766646393  0.8696085364648170
  0.4446088605152312  0.7611262816595499  0.6200309989822301
 
  0.00000000E+00  0.00000000E+00  0.00000000E+00
  0.00000000E+00  0.00000000E+00  0.00000000E+00
  0.00000000E+00  0.00000000E+00  0.00000000E+00
  0.00000000E+00  0.00000000E+00  0.00000000E+00
  0.00000000E+00  0.00000000E+00  0.00000000E+00
  0.00000000E+00  0.00000000E+00  0.00000000E+00
  0.00000000E+00  0.00000000E+00  0.00000000E+00
  0.00000000E+00  0.00000000E+00  0.00000000E+00
  0.00000000E+00  0.00000000E+00  0.00000000E+00
  0.00000000E+00  0.00000000E+00  0.00000000E+00
  0.00000000E+00  0.00000000E+00  0.00000000E+00
  0.00000000E+00  0.00000000E+00  0.00000000E+00
  0.00000000E+00  0.00000000E+00  0.00000000E+00
  0.00000000E+00  0.00000000E+00  0.00000000E+00
  0.00000000E+00  0.00000000E+00  0.00000000E+00
  0.00000000E+00  0.00000000E+00  0.00000000E+00
  0.00000000E+00  0.00000000E+00  0.00000000E+00
  0.00000000E+00  0.00000000E+00  0.00000000E+00
  0.00000000E+00  0.00000000E+00  0.00000000E+00
  0.00000000E+00  0.00000000E+00  0.00000000E+00
  0.00000000E+00  0.00000000E+00  0.00000000E+00
  0.00000000E+00  0.00000000E+00  0.00000000E+00
  0.00000000E+00  0.00000000E+00  0.00000000E+00
  0.00000000E+00  0.00000000E+00  0.00000000E+00
  0.00000000E+00  0.00000000E+00  0.00000000E+00
  0.00000000E+00  0.00000000E+00  0.00000000E+00
  0.00000000E+00  0.00000000E+00  0.00000000E+00
  0.00000000E+00  0.00000000E+00  0.00000000E+00
  0.00000000E+00  0.00000000E+00  0.00000000E+00
  0.00000000E+00  0.00000000E+00  0.00000000E+00
  0.00000000E+00  0.00000000E+00  0.00000000E+00
  0.00000000E+00  0.00000000E+00  0.00000000E+00
  0.00000000E+00  0.00000000E+00  0.00000000E+00
  0.00000000E+00  0.00000000E+00  0.00000000E+00
  0.00000000E+00  0.00000000E+00  0.00000000E+00
  0.00000000E+00  0.00000000E+00  0.00000000E+00
  0.00000000E+00  0.00000000E+00  0.00000000E+00
  0.00000000E+00  0.00000000E+00  0.00000000E+00
  0.00000000E+00  0.00000000E+00  0.00000000E+00
  0.00000000E+00  0.00000000E+00  0.00000000E+00
  0.00000000E+00  0.00000000E+00  0.00000000E+00
  0.00000000E+00  0.00000000E+00  0.00000000E+00
  0.00000000E+00  0.00000000E+00  0.00000000E+00
  0.00000000E+00  0.00000000E+00  0.00000000E+00
  0.00000000E+00  0.00000000E+00  0.00000000E+00
  0.00000000E+00  0.00000000E+00  0.00000000E+00
  0.00000000E+00  0.00000000E+00  0.00000000E+00
  0.00000000E+00  0.00000000E+00  0.00000000E+00
  0.00000000E+00  0.00000000E+00  0.00000000E+00
  0.00000000E+00  0.00000000E+00  0.00000000E+00
  0.00000000E+00  0.00000000E+00  0.00000000E+00
  0.00000000E+00  0.00000000E+00  0.00000000E+00
  0.00000000E+00  0.00000000E+00  0.00000000E+00
  0.00000000E+00  0.00000000E+00  0.00000000E+00
  0.00000000E+00  0.00000000E+00  0.00000000E+00
  0.00000000E+00  0.00000000E+00  0.00000000E+00
  0.00000000E+00  0.00000000E+00  0.00000000E+00
  0.00000000E+00  0.00000000E+00  0.00000000E+00
  0.00000000E+00  0.00000000E+00  0.00000000E+00
  0.00000000E+00  0.00000000E+00  0.00000000E+00
  0.00000000E+00  0.00000000E+00  0.00000000E+00
  0.00000000E+00  0.00000000E+00  0.00000000E+00
  0.00000000E+00  0.00000000E+00  0.00000000E+00
  0.00000000E+00  0.00000000E+00  0.00000000E+00
  0.00000000E+00  0.00000000E+00  0.00000000E+00
  0.00000000E+00  0.00000000E+00  0.00000000E+00
  0.00000000E+00  0.00000000E+00  0.00000000E+00
  0.00000000E+00  0.00000000E+00  0.00000000E+00
  0.00000000E+00  0.00000000E+00  0.00000000E+00
  0.00000000E+00  0.00000000E+00  0.00000000E+00
  0.00000000E+00  0.00000000E+00  0.00000000E+00
