Al   N                                  
   1.00000000000000     
    -9.7002989354376687   -0.0000552176096606    0.0000002419406844
    -4.8501913504965470    8.4006815351473048    0.0000017989677623
    -0.0000015701574966    0.0000005568232124   -8.9227836630990947
   Al   N 
    36    35
Direct
  0.1123040658378329  0.0950331898749255  0.3453507927015877
  0.2225382059418735  0.2052673834727443  0.0780800419347258
  0.7780566210493589  0.0942305562476236  0.8394668605292708
  0.8862231184060789  0.2071006128019377  0.5863351529337422
  0.4430064452511928  0.0950331422325306  0.3453508384462793
  0.5547481053679988  0.2051219110921423  0.0906924693618478
  0.1094694415824762  0.0921982198723938  0.8342497706183352
  0.2225381300272673  0.2052674430497490  0.6068486738267751
  0.7786044758605684  0.0931348043508109  0.3370527841065893
  0.8904738048955991  0.2051219155728816  0.0906924321249036
  0.4486759026514804  0.0921983724661928  0.8342497080860269
  0.5570200961943286  0.2071005078766746  0.5863351005062896
  0.1123039899861524  0.4257357283176830  0.3453508905777980
  0.2223932716172285  0.5374769749029440  0.0906924805680163
  0.7788217789454066  0.4271253428889636  0.8399476772321179
  0.8862230552118859  0.5397489529880701  0.5863351716062866
  0.4454711679945760  0.4281998430235419  0.3363650681728387
  0.5558717891147325  0.5386004924246564  0.0861543746520823
  0.1094693497803902  0.4314052766720593  0.8342496675068318
  0.2243719839641187  0.5397487774957099  0.5863351081507844
  0.7766728866528965  0.4281998576155388  0.3363650371990019
  0.8904737833418821  0.5374770219244098  0.0906924185730347
  0.4443968850882527  0.4271252903748746  0.8399476447201266
  0.5558717735256025  0.5386004846415133  0.5902525256163074
  0.1104062728875022  0.7613332428293518  0.3370529125657313
  0.2223933001097294  0.8732026190159203  0.0906925114557282
  0.7780565217023394  0.7607853605096722  0.8394668627463417
  0.8892052151906995  0.8719336844012844  0.5895456490288069
  0.4454711201062551  0.7594016817684590  0.3363651763399957
  0.5547480477982702  0.8732027193449099  0.0906925016984985
  0.1115021928016873  0.7607852675587168  0.8394667421464135
  0.2243718115433850  0.8689523296122132  0.5863350763307551
  0.7786044180614553  0.7613333098232289  0.3370527858821504
  0.8892052137026667  0.8719337239353493  0.0867858113441642
  0.4443968022782343  0.7615504600982135  0.8399475474018345
  0.5570199563635256  0.8689523167970918  0.5863350709345099
  0.1143639165884167  0.0970928661588459  0.1274662359094876
  0.8910844176577086  0.2040610400665059  0.8726346854853517
  0.7777947273196872  0.0947542288774557  0.6221220451672878
  0.5554773517825282  0.2061011243140172  0.3703773365108063
  0.4388868336117682  0.0970929268298164  0.1274662974245615
  0.2225381030785840  0.2052674929317391  0.8600192346059643
  0.1114996572240443  0.0942288500632174  0.6137305285553794
  0.8887652867543565  0.2061011782608162  0.3703773670291284
  0.7781609238906384  0.0940218543311246  0.1210141842410266
  0.5551983932863394  0.2040610238945675  0.8726346903189324
  0.4446150771878834  0.0942288574294636  0.6137304692612986
  0.2233723826728635  0.5382062021046323  0.3703773671645223
  0.1143638920664714  0.4216160573734271  0.1274663312125028
  0.8910843819630330  0.5379272143410034  0.8726346638128959
  0.7784104536673340  0.4273310384840414  0.6230542280603331
  0.5558717226593259  0.5386005371526750  0.3728971922432294
  0.4449299950920036  0.4276586906089150  0.1202852774121226
  0.2213325171951794  0.5379271654828983  0.8726346756440790
  0.1114996503744905  0.4273444120412151  0.6137304379555104
  0.8887652466431319  0.5382063207835159  0.3703773979592242
  0.7777552230442879  0.4276587014339199  0.1202852459997956
  0.5558717518846308  0.5386005278397334  0.8705165268904125
  0.4446023915432562  0.4273309805139718  0.6230541746962928
  0.2233722789105315  0.8714944434501959  0.3703773378910427
  0.1112932201285304  0.7608897762361977  0.1210142877167044
  0.8892052361689053  0.8719336900266370  0.8705502877186433
  0.7777946183570137  0.7605236460252840  0.6221220661457920
  0.5554773224284304  0.8714943993624118  0.3703773227556795
  0.4449299764995374  0.7604839597010127  0.1202853762807976
  0.2213324783889234  0.8738132386151776  0.8726346918263417
  0.1120257358241545  0.7605235325768618  0.6221219472712107
  0.8892051284994835  0.8719337736003325  0.3726905756876135
  0.7781608757470977  0.7608898410463638  0.1210141705669017
  0.5551982792511723  0.8738133665848764  0.8726347007047934
  0.4446022964901317  0.7611393489949947  0.6230540689437092
 
  0.00000000E+00  0.00000000E+00  0.00000000E+00
  0.00000000E+00  0.00000000E+00  0.00000000E+00
  0.00000000E+00  0.00000000E+00  0.00000000E+00
  0.00000000E+00  0.00000000E+00  0.00000000E+00
  0.00000000E+00  0.00000000E+00  0.00000000E+00
  0.00000000E+00  0.00000000E+00  0.00000000E+00
  0.00000000E+00  0.00000000E+00  0.00000000E+00
  0.00000000E+00  0.00000000E+00  0.00000000E+00
  0.00000000E+00  0.00000000E+00  0.00000000E+00
  0.00000000E+00  0.00000000E+00  0.00000000E+00
  0.00000000E+00  0.00000000E+00  0.00000000E+00
  0.00000000E+00  0.00000000E+00  0.00000000E+00
  0.00000000E+00  0.00000000E+00  0.00000000E+00
  0.00000000E+00  0.00000000E+00  0.00000000E+00
  0.00000000E+00  0.00000000E+00  0.00000000E+00
  0.00000000E+00  0.00000000E+00  0.00000000E+00
  0.00000000E+00  0.00000000E+00  0.00000000E+00
  0.00000000E+00  0.00000000E+00  0.00000000E+00
  0.00000000E+00  0.00000000E+00  0.00000000E+00
  0.00000000E+00  0.00000000E+00  0.00000000E+00
  0.00000000E+00  0.00000000E+00  0.00000000E+00
  0.00000000E+00  0.00000000E+00  0.00000000E+00
  0.00000000E+00  0.00000000E+00  0.00000000E+00
  0.00000000E+00  0.00000000E+00  0.00000000E+00
  0.00000000E+00  0.00000000E+00  0.00000000E+00
  0.00000000E+00  0.00000000E+00  0.00000000E+00
  0.00000000E+00  0.00000000E+00  0.00000000E+00
  0.00000000E+00  0.00000000E+00  0.00000000E+00
  0.00000000E+00  0.00000000E+00  0.00000000E+00
  0.00000000E+00  0.00000000E+00  0.00000000E+00
  0.00000000E+00  0.00000000E+00  0.00000000E+00
  0.00000000E+00  0.00000000E+00  0.00000000E+00
  0.00000000E+00  0.00000000E+00  0.00000000E+00
  0.00000000E+00  0.00000000E+00  0.00000000E+00
  0.00000000E+00  0.00000000E+00  0.00000000E+00
  0.00000000E+00  0.00000000E+00  0.00000000E+00
  0.00000000E+00  0.00000000E+00  0.00000000E+00
  0.00000000E+00  0.00000000E+00  0.00000000E+00
  0.00000000E+00  0.00000000E+00  0.00000000E+00
  0.00000000E+00  0.00000000E+00  0.00000000E+00
  0.00000000E+00  0.00000000E+00  0.00000000E+00
  0.00000000E+00  0.00000000E+00  0.00000000E+00
  0.00000000E+00  0.00000000E+00  0.00000000E+00
  0.00000000E+00  0.00000000E+00  0.00000000E+00
  0.00000000E+00  0.00000000E+00  0.00000000E+00
  0.00000000E+00  0.00000000E+00  0.00000000E+00
  0.00000000E+00  0.00000000E+00  0.00000000E+00
  0.00000000E+00  0.00000000E+00  0.00000000E+00
  0.00000000E+00  0.00000000E+00  0.00000000E+00
  0.00000000E+00  0.00000000E+00  0.00000000E+00
  0.00000000E+00  0.00000000E+00  0.00000000E+00
  0.00000000E+00  0.00000000E+00  0.00000000E+00
  0.00000000E+00  0.00000000E+00  0.00000000E+00
  0.00000000E+00  0.00000000E+00  0.00000000E+00
  0.00000000E+00  0.00000000E+00  0.00000000E+00
  0.00000000E+00  0.00000000E+00  0.00000000E+00
  0.00000000E+00  0.00000000E+00  0.00000000E+00
  0.00000000E+00  0.00000000E+00  0.00000000E+00
  0.00000000E+00  0.00000000E+00  0.00000000E+00
  0.00000000E+00  0.00000000E+00  0.00000000E+00
  0.00000000E+00  0.00000000E+00  0.00000000E+00
  0.00000000E+00  0.00000000E+00  0.00000000E+00
  0.00000000E+00  0.00000000E+00  0.00000000E+00
  0.00000000E+00  0.00000000E+00  0.00000000E+00
  0.00000000E+00  0.00000000E+00  0.00000000E+00
  0.00000000E+00  0.00000000E+00  0.00000000E+00
  0.00000000E+00  0.00000000E+00  0.00000000E+00
  0.00000000E+00  0.00000000E+00  0.00000000E+00
  0.00000000E+00  0.00000000E+00  0.00000000E+00
  0.00000000E+00  0.00000000E+00  0.00000000E+00
  0.00000000E+00  0.00000000E+00  0.00000000E+00
