Al   N                                  
   1.00000000000000     
    -9.3545220725371827   -0.0000638689266929   -0.0000050884738824
    -4.6773151880439539    8.1012240944858469    0.0000027202349453
     0.0000050334843263    0.0000062049123488   -9.9688612703330648
   Al   N 
    36    35
Direct
  0.1090260377881549  0.0917908687952504  0.3215732908196003
  0.2225338118089581  0.2052986543266400  0.0710174252010276
  0.7782132616052024  0.0939398958721540  0.8224420540271922
  0.8879454018915922  0.2061698569684793  0.5728805031495554
  0.4495496763559430  0.0917906969760409  0.3215732467713011
  0.5559754488958433  0.2059045963343777  0.0720198652479667
  0.1111352179597631  0.0938997239551398  0.8224983835864350
  0.2225339533528867  0.2052985910995417  0.5794916751519210
  0.7783784158897404  0.0936095226919420  0.3219684800762579
  0.8884865996529498  0.2059046551668828  0.0720198494902888
  0.4453314731564646  0.0938998957408685  0.8224982611209910
  0.5562517173120156  0.2061699188576256  0.5728804888911654
  0.1090259268524250  0.4323143711291664  0.3215732557930338
  0.2231398373073219  0.5387401374030247  0.0720198926901645
  0.7779086833108693  0.4276111275742878  0.8225804372320411
  0.8879453072132577  0.5390160859221638  0.5728804774667751
  0.4451900339416426  0.4279548421534187  0.3216030173361517
  0.5558673435805801  0.5386319894249993  0.0718870463331100
  0.1111353240577060  0.4280961296717791  0.8224983011202482
  0.2234052645482691  0.5390162927582836  0.5728804926468030
  0.7772210419685237  0.4279549286878890  0.3216030736357069
  0.8884865012259411  0.5387400117153760  0.0720197935187485
  0.4448464567282002  0.4276111345470497  0.8225804451314644
  0.5558674504951071  0.5386319866869940  0.5728914443679116
  0.1108448629523551  0.7611431361805074  0.3219684981153677
  0.2231398951480230  0.8712512994478558  0.0720199076106027
  0.7782132988890993  0.7609780030881055  0.8224420440253866
  0.8892007074484667  0.8719652656511983  0.5726918702721662
  0.4451900630818031  0.7599859591173441  0.3216030608494265
  0.5559753850823128  0.8712511465202866  0.0720198186938887
  0.1111753270882474  0.7609778980536319  0.8224420743280660
  0.2234052547571750  0.8707098980367292  0.5728804968718748
  0.7783784453146438  0.7611432409833796  0.3219684660441757
  0.8892006292741854  0.8719652710681700  0.0719434635033167
  0.4448464178788072  0.7606734027009523  0.8225804460962038
  0.5562516251843661  0.8707097478469805  0.5728804656260422
  0.1121423441806968  0.0949070781702517  0.1324695585705840
  0.8896469859146166  0.2050107636636014  0.8810866572092593
  0.7780510528596238  0.0942647553225058  0.6310356492517144
  0.5547293022081732  0.2059530962274039  0.3815885201558871
  0.4433170027477686  0.0949070705948500  0.1324694918521416
  0.2225339351321907  0.2052986168831197  0.8799141789567315
  0.1115139899206881  0.0942784518035893  0.6292151278690525
  0.8896840348252653  0.2059531336104001  0.3815885379811235
  0.7780332641706096  0.0943001039791938  0.1314599051062970
  0.5557087509709930  0.2050108003111077  0.8810866755755526
  0.4445742336817631  0.0942785332786329  0.6292149692510947
  0.2231883009349858  0.5374940322834476  0.3815885202749882
  0.1121423182607089  0.4260817470545462  0.1324695098085584
  0.8896469884059357  0.5384733400603352  0.8810865931113128
  0.7780795378169856  0.4275258303285057  0.6314427318889244
  0.5558670498879792  0.5386319326058029  0.3815024702188765
  0.4447745840084210  0.4275393094473685  0.1311512323799420
  0.2222461332112431  0.5384734402228517  0.8810867015563844
  0.1115140157629284  0.4273387766236141  0.6292150261305949
  0.8896839287336746  0.5374940185370605  0.3815885043138607
  0.7780525964061624  0.4275392679741046  0.1311512938897650
  0.5558672037430341  0.5386319178978738  0.8812083428625215
  0.4447613008732105  0.4275259300554737  0.6314427191005194
  0.2231883085458364  0.8724488591324970  0.3815885293582824
  0.1115354201879839  0.7607979211473861  0.1314599228053979
  0.8892006780144399  0.8719652804799622  0.8811221566070913
  0.7780509784269327  0.7608154800338625  0.6310356414091416
  0.5547292656895522  0.8724487072577531  0.3815884932742080
  0.4447745753874273  0.7608172902918824  0.1311512822287710
  0.2222460862436293  0.8724116308206149  0.8810867146909018
  0.1115001694010118  0.7608155969106889  0.6310356640986470
  0.8892006297369193  0.8719653103912393  0.3813721252499178
  0.7780331965181730  0.7607978430958724  0.1314598926726944
  0.5557086643694333  0.8724116282898109  0.8810866181599692
  0.4447612617129053  0.7608440890725063  0.6314427223975656
 
  0.00000000E+00  0.00000000E+00  0.00000000E+00
  0.00000000E+00  0.00000000E+00  0.00000000E+00
  0.00000000E+00  0.00000000E+00  0.00000000E+00
  0.00000000E+00  0.00000000E+00  0.00000000E+00
  0.00000000E+00  0.00000000E+00  0.00000000E+00
  0.00000000E+00  0.00000000E+00  0.00000000E+00
  0.00000000E+00  0.00000000E+00  0.00000000E+00
  0.00000000E+00  0.00000000E+00  0.00000000E+00
  0.00000000E+00  0.00000000E+00  0.00000000E+00
  0.00000000E+00  0.00000000E+00  0.00000000E+00
  0.00000000E+00  0.00000000E+00  0.00000000E+00
  0.00000000E+00  0.00000000E+00  0.00000000E+00
  0.00000000E+00  0.00000000E+00  0.00000000E+00
  0.00000000E+00  0.00000000E+00  0.00000000E+00
  0.00000000E+00  0.00000000E+00  0.00000000E+00
  0.00000000E+00  0.00000000E+00  0.00000000E+00
  0.00000000E+00  0.00000000E+00  0.00000000E+00
  0.00000000E+00  0.00000000E+00  0.00000000E+00
  0.00000000E+00  0.00000000E+00  0.00000000E+00
  0.00000000E+00  0.00000000E+00  0.00000000E+00
  0.00000000E+00  0.00000000E+00  0.00000000E+00
  0.00000000E+00  0.00000000E+00  0.00000000E+00
  0.00000000E+00  0.00000000E+00  0.00000000E+00
  0.00000000E+00  0.00000000E+00  0.00000000E+00
  0.00000000E+00  0.00000000E+00  0.00000000E+00
  0.00000000E+00  0.00000000E+00  0.00000000E+00
  0.00000000E+00  0.00000000E+00  0.00000000E+00
  0.00000000E+00  0.00000000E+00  0.00000000E+00
  0.00000000E+00  0.00000000E+00  0.00000000E+00
  0.00000000E+00  0.00000000E+00  0.00000000E+00
  0.00000000E+00  0.00000000E+00  0.00000000E+00
  0.00000000E+00  0.00000000E+00  0.00000000E+00
  0.00000000E+00  0.00000000E+00  0.00000000E+00
  0.00000000E+00  0.00000000E+00  0.00000000E+00
  0.00000000E+00  0.00000000E+00  0.00000000E+00
  0.00000000E+00  0.00000000E+00  0.00000000E+00
  0.00000000E+00  0.00000000E+00  0.00000000E+00
  0.00000000E+00  0.00000000E+00  0.00000000E+00
  0.00000000E+00  0.00000000E+00  0.00000000E+00
  0.00000000E+00  0.00000000E+00  0.00000000E+00
  0.00000000E+00  0.00000000E+00  0.00000000E+00
  0.00000000E+00  0.00000000E+00  0.00000000E+00
  0.00000000E+00  0.00000000E+00  0.00000000E+00
  0.00000000E+00  0.00000000E+00  0.00000000E+00
  0.00000000E+00  0.00000000E+00  0.00000000E+00
  0.00000000E+00  0.00000000E+00  0.00000000E+00
  0.00000000E+00  0.00000000E+00  0.00000000E+00
  0.00000000E+00  0.00000000E+00  0.00000000E+00
  0.00000000E+00  0.00000000E+00  0.00000000E+00
  0.00000000E+00  0.00000000E+00  0.00000000E+00
  0.00000000E+00  0.00000000E+00  0.00000000E+00
  0.00000000E+00  0.00000000E+00  0.00000000E+00
  0.00000000E+00  0.00000000E+00  0.00000000E+00
  0.00000000E+00  0.00000000E+00  0.00000000E+00
  0.00000000E+00  0.00000000E+00  0.00000000E+00
  0.00000000E+00  0.00000000E+00  0.00000000E+00
  0.00000000E+00  0.00000000E+00  0.00000000E+00
  0.00000000E+00  0.00000000E+00  0.00000000E+00
  0.00000000E+00  0.00000000E+00  0.00000000E+00
  0.00000000E+00  0.00000000E+00  0.00000000E+00
  0.00000000E+00  0.00000000E+00  0.00000000E+00
  0.00000000E+00  0.00000000E+00  0.00000000E+00
  0.00000000E+00  0.00000000E+00  0.00000000E+00
  0.00000000E+00  0.00000000E+00  0.00000000E+00
  0.00000000E+00  0.00000000E+00  0.00000000E+00
  0.00000000E+00  0.00000000E+00  0.00000000E+00
  0.00000000E+00  0.00000000E+00  0.00000000E+00
  0.00000000E+00  0.00000000E+00  0.00000000E+00
  0.00000000E+00  0.00000000E+00  0.00000000E+00
  0.00000000E+00  0.00000000E+00  0.00000000E+00
  0.00000000E+00  0.00000000E+00  0.00000000E+00
