Al   N                                  
   1.00000000000000     
    -9.7846660254975699   -0.0000465662926282    0.0000055723552512
    -4.8923708548125378    8.4737526595608532    0.0000008777005792
    -0.0000046054398046   -0.0000014763488311   -8.6480396452977430
   Al   N 
    36    35
Direct
  0.1126751142275495  0.0954042726003621  0.3589583090338095
  0.2225380651493438  0.2052674167575503  0.0974389581144877
  0.7781153551696107  0.0941129929058349  0.8637984961015164
  0.8902117702974337  0.2052736097740393  0.6122837307678921
  0.4422640941332006  0.0954042806804409  0.3589583651563473
  0.5567129381016684  0.2068644343561488  0.1170491151858855
  0.1095890062419684  0.0923174991113740  0.8686247909263685
  0.2225380891954316  0.2052673713573725  0.6279219575004760
  0.7785320176435988  0.0932795829129418  0.3659079590496859
  0.8867662128704055  0.2068645767478472  0.1170490391566119
  0.4484369763014939  0.0923177168244962  0.8686247120186152
  0.5548583119440309  0.2052737011612322  0.6122836566025427
  0.1126750680724200  0.4249934370642379  0.3589582528025446
  0.2241361692869006  0.5394414633368427  0.1170491137579859
  0.7787564309657995  0.4271579177960945  0.8634036747052249
  0.8902117052570730  0.5375872845833740  0.6122837447624789
  0.4453459345933766  0.4280745277878495  0.3665762796277861
  0.5558718258946200  0.5386003808019382  0.1131554063361264
  0.1095888881862308  0.4311662193386923  0.8686248412163096
  0.2225450536751268  0.5375872228746488  0.6122836618567007
  0.7769234292166729  0.4280745039783795  0.3665763813313987
  0.8867661461606460  0.5394416786196530  0.1170490203821331
  0.4444296198449962  0.4271578564917675  0.8634037750445316
  0.5558717723306472  0.5386004280353518  0.6168618668034256
  0.1105512222166141  0.7612606852543635  0.3659078190066367
  0.2241359973848134  0.8694952835028502  0.1170491846621005
  0.7781152478586861  0.7608440259287903  0.8637985617961661
  0.8892051567948513  0.8719336776803175  0.6160537962057333
  0.4453459105407447  0.7596520269664566  0.3665761965814909
  0.5567127374901233  0.8694953987537843  0.1170491716333970
  0.1113847189297630  0.7608439175700639  0.8637986271493077
  0.2225450999811542  0.8729404439634934  0.6122835889858536
  0.7785319235836141  0.7612608150775131  0.3659078847575685
  0.8892052418424967  0.8719335959584953  0.1139127276485183
  0.4444295198407531  0.7614849903339689  0.8634038441372880
  0.5548582821881993  0.8729405657310068  0.6122835927072217
  0.1121074941482831  0.0948364155983938  0.1016717447262039
  0.8911031810991545  0.2040278696094617  0.8433191126948074
  0.7780751306890181  0.0941933927993901  0.5945909394723117
  0.5553551979912825  0.2058067478622121  0.3453457665722155
  0.4433996023816249  0.0948365020404083  0.1016717034368639
  0.2225380524881544  0.2052674166201598  0.8537356016230078
  0.1143996553904501  0.0971284140022135  0.5882713017056815
  0.8891816208402048  0.2058068238291426  0.3453457172282484
  0.7778156701705328  0.0947123192965194  0.0939134586721764
  0.5552126883939437  0.2040278969349600  0.8433190848362813
  0.4388154445240460  0.0971285364647656  0.5882713637846422
  0.2230780767509657  0.5380840076069831  0.3453457193785994
  0.1121074675757754  0.4261288303497963  0.1016717696004008
  0.8911031077142155  0.5379414728384191  0.8433191339163741
  0.7779099295955589  0.4275812703620119  0.5953764502734060
  0.5558717659787149  0.5386004234151969  0.3432061918301201
  0.4446345382826493  0.4273627868900860  0.0929026264065769
  0.2212994900212735  0.5379413855087520  0.8433191147794759
  0.1143996073823388  0.4215446208692200  0.5882712509243575
  0.8891816043434062  0.5380841473585818  0.3453456814203122
  0.7783465860188485  0.4273628537398437  0.0929025051445649
  0.5558717307359302  0.5386004518121652  0.8449659149690589
  0.4448527316713893  0.4275812908298420  0.5953763450561240
  0.2230779795291866  0.8719107721435293  0.3453457673887499
  0.1119841101909884  0.7605442508805140  0.0939135266507520
  0.8892051991886945  0.8719336125674886  0.8449826107038447
  0.7780750637360327  0.7608039449526274  0.5945909053612937
  0.5553551167404720  0.8719108128117696  0.3453457809507228
  0.4446344301590273  0.7610751867827261  0.0929027102447364
  0.2212994436740985  0.8738318747238480  0.8433190943397193
  0.1114648988192783  0.7608038571252251  0.5945908653176843
  0.8892051519558919  0.8719336637263879  0.3433691981777045
  0.7778155366341437  0.7605444071608431  0.0939134794749847
  0.5552125825755212  0.8738320109848488  0.8433190781216169
  0.4448527296495044  0.7606384470374792  0.5953762731789496
 
  0.00000000E+00  0.00000000E+00  0.00000000E+00
  0.00000000E+00  0.00000000E+00  0.00000000E+00
  0.00000000E+00  0.00000000E+00  0.00000000E+00
  0.00000000E+00  0.00000000E+00  0.00000000E+00
  0.00000000E+00  0.00000000E+00  0.00000000E+00
  0.00000000E+00  0.00000000E+00  0.00000000E+00
  0.00000000E+00  0.00000000E+00  0.00000000E+00
  0.00000000E+00  0.00000000E+00  0.00000000E+00
  0.00000000E+00  0.00000000E+00  0.00000000E+00
  0.00000000E+00  0.00000000E+00  0.00000000E+00
  0.00000000E+00  0.00000000E+00  0.00000000E+00
  0.00000000E+00  0.00000000E+00  0.00000000E+00
  0.00000000E+00  0.00000000E+00  0.00000000E+00
  0.00000000E+00  0.00000000E+00  0.00000000E+00
  0.00000000E+00  0.00000000E+00  0.00000000E+00
  0.00000000E+00  0.00000000E+00  0.00000000E+00
  0.00000000E+00  0.00000000E+00  0.00000000E+00
  0.00000000E+00  0.00000000E+00  0.00000000E+00
  0.00000000E+00  0.00000000E+00  0.00000000E+00
  0.00000000E+00  0.00000000E+00  0.00000000E+00
  0.00000000E+00  0.00000000E+00  0.00000000E+00
  0.00000000E+00  0.00000000E+00  0.00000000E+00
  0.00000000E+00  0.00000000E+00  0.00000000E+00
  0.00000000E+00  0.00000000E+00  0.00000000E+00
  0.00000000E+00  0.00000000E+00  0.00000000E+00
  0.00000000E+00  0.00000000E+00  0.00000000E+00
  0.00000000E+00  0.00000000E+00  0.00000000E+00
  0.00000000E+00  0.00000000E+00  0.00000000E+00
  0.00000000E+00  0.00000000E+00  0.00000000E+00
  0.00000000E+00  0.00000000E+00  0.00000000E+00
  0.00000000E+00  0.00000000E+00  0.00000000E+00
  0.00000000E+00  0.00000000E+00  0.00000000E+00
  0.00000000E+00  0.00000000E+00  0.00000000E+00
  0.00000000E+00  0.00000000E+00  0.00000000E+00
  0.00000000E+00  0.00000000E+00  0.00000000E+00
  0.00000000E+00  0.00000000E+00  0.00000000E+00
  0.00000000E+00  0.00000000E+00  0.00000000E+00
  0.00000000E+00  0.00000000E+00  0.00000000E+00
  0.00000000E+00  0.00000000E+00  0.00000000E+00
  0.00000000E+00  0.00000000E+00  0.00000000E+00
  0.00000000E+00  0.00000000E+00  0.00000000E+00
  0.00000000E+00  0.00000000E+00  0.00000000E+00
  0.00000000E+00  0.00000000E+00  0.00000000E+00
  0.00000000E+00  0.00000000E+00  0.00000000E+00
  0.00000000E+00  0.00000000E+00  0.00000000E+00
  0.00000000E+00  0.00000000E+00  0.00000000E+00
  0.00000000E+00  0.00000000E+00  0.00000000E+00
  0.00000000E+00  0.00000000E+00  0.00000000E+00
  0.00000000E+00  0.00000000E+00  0.00000000E+00
  0.00000000E+00  0.00000000E+00  0.00000000E+00
  0.00000000E+00  0.00000000E+00  0.00000000E+00
  0.00000000E+00  0.00000000E+00  0.00000000E+00
  0.00000000E+00  0.00000000E+00  0.00000000E+00
  0.00000000E+00  0.00000000E+00  0.00000000E+00
  0.00000000E+00  0.00000000E+00  0.00000000E+00
  0.00000000E+00  0.00000000E+00  0.00000000E+00
  0.00000000E+00  0.00000000E+00  0.00000000E+00
  0.00000000E+00  0.00000000E+00  0.00000000E+00
  0.00000000E+00  0.00000000E+00  0.00000000E+00
  0.00000000E+00  0.00000000E+00  0.00000000E+00
  0.00000000E+00  0.00000000E+00  0.00000000E+00
  0.00000000E+00  0.00000000E+00  0.00000000E+00
  0.00000000E+00  0.00000000E+00  0.00000000E+00
  0.00000000E+00  0.00000000E+00  0.00000000E+00
  0.00000000E+00  0.00000000E+00  0.00000000E+00
  0.00000000E+00  0.00000000E+00  0.00000000E+00
  0.00000000E+00  0.00000000E+00  0.00000000E+00
  0.00000000E+00  0.00000000E+00  0.00000000E+00
  0.00000000E+00  0.00000000E+00  0.00000000E+00
  0.00000000E+00  0.00000000E+00  0.00000000E+00
  0.00000000E+00  0.00000000E+00  0.00000000E+00
