Al   N                                  
   1.00000000000000     
    -9.3520053976770967   -0.0000663407315593   -0.0000066114494729
    -4.6760595962181473    8.0990417807777586    0.0000029834541405
     0.0000070313727504    0.0000076813241602   -9.9757164360821609
   Al   N 
    36    35
Direct
  0.1090258871517165  0.0918809945835051  0.3131886517092184
  0.2225227084014918  0.2053777914194654  0.0627273416067098
  0.7782032938616865  0.0940168106075774  0.8141193659229913
  0.8879537783849401  0.2062392196471876  0.5645742868412995
  0.4495166400965189  0.0918808228706567  0.3131885998571349
  0.5559806551127551  0.2059921487523653  0.0636978572849216
  0.1111176647441070  0.0939723802487222  0.8142527274085154
  0.2225228726584589  0.2053777046236860  0.5713515927248167
  0.7783649278172362  0.0936934383074686  0.3136655202461043
  0.8884507857147952  0.2059921949917864  0.0636978386312492
  0.4453333530427841  0.0939725513856899  0.8142526246361754
  0.5562309076733101  0.2062392687098367  0.5645742700848260
  0.1090257732043582  0.4323716036658638  0.3131886146938143
  0.2231371592344118  0.5388355595033616  0.0636978865784315
  0.7778872097761109  0.4276954887328159  0.8142587894224675
  0.8879536935529089  0.5390854834307959  0.5645742724730383
  0.4451734707224162  0.4280285595923132  0.3132979471334139
  0.5558562515168859  0.5387111016116108  0.0635860467561216
  0.1111177521278961  0.4281882397918224  0.8142526637516880
  0.2233844189010625  0.5390856711329448  0.5645742720294109
  0.7772208430592755  0.4280286540337883  0.3132979995102829
  0.8884506940868988  0.5388354472428176  0.0636977858559504
  0.4448405740887793  0.4276954801402084  0.8142587892461179
  0.5558563715649143  0.5387110760460558  0.5645685797553952
  0.1108385079501844  0.7612199226124616  0.3136655280163154
  0.2231372130811806  0.8713056994525701  0.0636979019989568
  0.7782033217286894  0.7610582830197927  0.8141193577546488
  0.8891896174081282  0.8720443913414897  0.5643694207358436
  0.4451735061218756  0.7600760499868215  0.3132979819396695
  0.5559806030809185  0.8713055591173244  0.0636978113281401
  0.1111619989888766  0.7610581685565592  0.8141193909350619
  0.2233844206973714  0.8708084536246332  0.5645742706562586
  0.7783649549905078  0.7612200411921890  0.3136655045442041
  0.8891895297114161  0.8720444131488350  0.0636425289554197
  0.4448405417320558  0.7607421629483895  0.8142587905539642
  0.5562308337175565  0.8708083226812633  0.5645742555279867
  0.1121145876180591  0.0949695552525256  0.1242023196054731
  0.8896100629478809  0.2051033077657962  0.8728825862983172
  0.7780408140934938  0.0943421764992110  0.6228197431335616
  0.5546972716674787  0.2060213951009473  0.3733836434523710
  0.4433392167115073  0.0949695567996329  0.1242022489264016
  0.2225228550585641  0.2053777462059827  0.8717408266827178
  0.1114942686765659  0.0943489210853272  0.6210814033730543
  0.8897046889088642  0.2060214467136205  0.3733836614516477
  0.7780218102550549  0.0943799477369680  0.1232660160921313
  0.5557101104721340  0.2051033426519027  0.8728826038012443
  0.4445804347655411  0.0943490065903134  0.6210812781063808
  0.2231663453348176  0.5375522505621859  0.3733836413965790
  0.1121145536521908  0.4261942108926391  0.1242022752536016
  0.8896100620762155  0.5385649370266350  0.8728825268546956
  0.7780697502036844  0.4276043134578416  0.6232282463466419
  0.5558559496606890  0.5387110902133116  0.3732904666073793
  0.4447631551111044  0.4276181302692166  0.1229552435361185
  0.2222484626629608  0.5385650122602925  0.8728826292644598
  0.1114942806037362  0.4274351882594232  0.6210813310455023
  0.8897045854950605  0.5375522599038618  0.3733836340944947
  0.7780421493656959  0.4276180904612232  0.1229552992976863
  0.5558561249675478  0.5387110537525075  0.8730099831536151
  0.4447495564618151  0.4276043985175235  0.6232282227156887
  0.2231663706989409  0.8725597581640869  0.3733836466888789
  0.1115250097810474  0.7608767082736136  0.1232660200571090
  0.8891895932956686  0.8720444146834154  0.8729221434943142
  0.7780407531325721  0.7608954660535261  0.6228197379858855
  0.5546972556131706  0.8725596172268055  0.3733836220923479
  0.4447631632757734  0.7608970762299947  0.1229552784308439
  0.2222484247757492  0.8724648993222246  0.8728826443618658
  0.1114873691407325  0.7608955644505215  0.6228197580772132
  0.8891895316019855  0.8720444511888417  0.3731622762581850
  0.7780217578967168  0.7608766424803761  0.1232659996661098
  0.5557100378947553  0.8724649071410369  0.8728825510063629
  0.4447495340689613  0.7609245016101411  0.6232282247072902
 
  0.00000000E+00  0.00000000E+00  0.00000000E+00
  0.00000000E+00  0.00000000E+00  0.00000000E+00
  0.00000000E+00  0.00000000E+00  0.00000000E+00
  0.00000000E+00  0.00000000E+00  0.00000000E+00
  0.00000000E+00  0.00000000E+00  0.00000000E+00
  0.00000000E+00  0.00000000E+00  0.00000000E+00
  0.00000000E+00  0.00000000E+00  0.00000000E+00
  0.00000000E+00  0.00000000E+00  0.00000000E+00
  0.00000000E+00  0.00000000E+00  0.00000000E+00
  0.00000000E+00  0.00000000E+00  0.00000000E+00
  0.00000000E+00  0.00000000E+00  0.00000000E+00
  0.00000000E+00  0.00000000E+00  0.00000000E+00
  0.00000000E+00  0.00000000E+00  0.00000000E+00
  0.00000000E+00  0.00000000E+00  0.00000000E+00
  0.00000000E+00  0.00000000E+00  0.00000000E+00
  0.00000000E+00  0.00000000E+00  0.00000000E+00
  0.00000000E+00  0.00000000E+00  0.00000000E+00
  0.00000000E+00  0.00000000E+00  0.00000000E+00
  0.00000000E+00  0.00000000E+00  0.00000000E+00
  0.00000000E+00  0.00000000E+00  0.00000000E+00
  0.00000000E+00  0.00000000E+00  0.00000000E+00
  0.00000000E+00  0.00000000E+00  0.00000000E+00
  0.00000000E+00  0.00000000E+00  0.00000000E+00
  0.00000000E+00  0.00000000E+00  0.00000000E+00
  0.00000000E+00  0.00000000E+00  0.00000000E+00
  0.00000000E+00  0.00000000E+00  0.00000000E+00
  0.00000000E+00  0.00000000E+00  0.00000000E+00
  0.00000000E+00  0.00000000E+00  0.00000000E+00
  0.00000000E+00  0.00000000E+00  0.00000000E+00
  0.00000000E+00  0.00000000E+00  0.00000000E+00
  0.00000000E+00  0.00000000E+00  0.00000000E+00
  0.00000000E+00  0.00000000E+00  0.00000000E+00
  0.00000000E+00  0.00000000E+00  0.00000000E+00
  0.00000000E+00  0.00000000E+00  0.00000000E+00
  0.00000000E+00  0.00000000E+00  0.00000000E+00
  0.00000000E+00  0.00000000E+00  0.00000000E+00
  0.00000000E+00  0.00000000E+00  0.00000000E+00
  0.00000000E+00  0.00000000E+00  0.00000000E+00
  0.00000000E+00  0.00000000E+00  0.00000000E+00
  0.00000000E+00  0.00000000E+00  0.00000000E+00
  0.00000000E+00  0.00000000E+00  0.00000000E+00
  0.00000000E+00  0.00000000E+00  0.00000000E+00
  0.00000000E+00  0.00000000E+00  0.00000000E+00
  0.00000000E+00  0.00000000E+00  0.00000000E+00
  0.00000000E+00  0.00000000E+00  0.00000000E+00
  0.00000000E+00  0.00000000E+00  0.00000000E+00
  0.00000000E+00  0.00000000E+00  0.00000000E+00
  0.00000000E+00  0.00000000E+00  0.00000000E+00
  0.00000000E+00  0.00000000E+00  0.00000000E+00
  0.00000000E+00  0.00000000E+00  0.00000000E+00
  0.00000000E+00  0.00000000E+00  0.00000000E+00
  0.00000000E+00  0.00000000E+00  0.00000000E+00
  0.00000000E+00  0.00000000E+00  0.00000000E+00
  0.00000000E+00  0.00000000E+00  0.00000000E+00
  0.00000000E+00  0.00000000E+00  0.00000000E+00
  0.00000000E+00  0.00000000E+00  0.00000000E+00
  0.00000000E+00  0.00000000E+00  0.00000000E+00
  0.00000000E+00  0.00000000E+00  0.00000000E+00
  0.00000000E+00  0.00000000E+00  0.00000000E+00
  0.00000000E+00  0.00000000E+00  0.00000000E+00
  0.00000000E+00  0.00000000E+00  0.00000000E+00
  0.00000000E+00  0.00000000E+00  0.00000000E+00
  0.00000000E+00  0.00000000E+00  0.00000000E+00
  0.00000000E+00  0.00000000E+00  0.00000000E+00
  0.00000000E+00  0.00000000E+00  0.00000000E+00
  0.00000000E+00  0.00000000E+00  0.00000000E+00
  0.00000000E+00  0.00000000E+00  0.00000000E+00
  0.00000000E+00  0.00000000E+00  0.00000000E+00
  0.00000000E+00  0.00000000E+00  0.00000000E+00
  0.00000000E+00  0.00000000E+00  0.00000000E+00
  0.00000000E+00  0.00000000E+00  0.00000000E+00
