Al   N                                  
   1.00000000000000     
    -9.3519873546134473   -0.0000712843412921   -0.0000096574006539
    -4.6760600696976971    8.0990208827535692    0.0000035098925308
     0.0000112733333464    0.0000100212800131   -9.9757745431506191
   Al   N 
    36    35
Direct
  0.1090058994089560  0.0920225677253654  0.2983926784263531
  0.2225028397769719  0.2055194697719074  0.0479340926503724
  0.7781834667445722  0.0941583936337480  0.7993216850520142
  0.8879342344598484  0.2063804608901094  0.5497761828397429
  0.4494969300303637  0.0920224244766530  0.2983926255922498
  0.5559608030712013  0.2061338913793520  0.0489017726882963
  0.1110980254493867  0.0941142249008351  0.7994568617661457
  0.2225030134458663  0.2055193193577480  0.5565552974850476
  0.7783451772349110  0.0938348397099062  0.2988688902929653
  0.8884307354700667  0.2061339663851598  0.0489017976787522
  0.4453130778031920  0.0941143836381571  0.7994567337482152
  0.5562110616501457  0.2063804757878671  0.5497761534698924
  0.1090058953066659  0.4325133670570693  0.2983926742910370
  0.2231174063396182  0.5389772107198212  0.0489018357524316
  0.7778675034908531  0.4278371063227979  0.7994605204138949
  0.8879342301916680  0.5392270865152113  0.5497761733211348
  0.4451535566877354  0.4281701472399746  0.2985022737059637
  0.5558363603528917  0.5388527534424838  0.0487899969283561
  0.1110981057684270  0.4283294843621590  0.7994568072018211
  0.2233642036474563  0.5392272361020005  0.5497761707459077
  0.7772011513676773  0.4281702720494778  0.2985023338269031
  0.8884307214995886  0.5389771285375318  0.0489017601981345
  0.4448206640726156  0.4278370704972119  0.7994605155429539
  0.5558364852297260  0.5388526817713668  0.5497700361951559
  0.1108184845920519  0.7613616547256257  0.2988689183091324
  0.2231174377662128  0.8714472158555324  0.0489018527872744
  0.7781835064322067  0.7611999357687012  0.7993216700225005
  0.8891698279419629  0.8721859607795679  0.5495711862921198
  0.4451535740441059  0.7602179514942833  0.2985022908532997
  0.5559608014992463  0.8714470857491250  0.0489017541669980
  0.1111421931358763  0.7611997968609217  0.7993217193826752
  0.2233641970372204  0.8709503945326205  0.5497761708943756
  0.7783452232347372  0.7613617859481820  0.2988688819784002
  0.8891696981399591  0.8721860423703163  0.0488462281637680
  0.4448206448083525  0.7608840006128474  0.7994605121464886
  0.5562110516638867  0.8709502606226778  0.5497761433654347
  0.1120944474274950  0.0951109809668367  0.1094072057149589
  0.8895897973615448  0.2052451993166073  0.8580869055133107
  0.7780209870414723  0.0944837516373269  0.6080231406921897
  0.5546774843346682  0.2061628875839645  0.3585872846733196
  0.4433199598443380  0.0951109498221570  0.1094071447427751
  0.2225029607391988  0.2055193676516893  0.8569473293447416
  0.1114743999994019  0.0944905632146273  0.6062860475815413
  0.8896847716906535  0.2061629540878087  0.3585873061156164
  0.7780019592266569  0.0945215738247285  0.1084701855952659
  0.5556902797704026  0.2052452209907685  0.8580868959374399
  0.4445606379766858  0.0944906100912206  0.6062859117535737
  0.2231463825948907  0.5376939361894699  0.3585872940471333
  0.1120944422451444  0.4263364719793330  0.1094072030746034
  0.8895898352007094  0.5387066798559772  0.8580868639681896
  0.7780498879467643  0.4277459901531060  0.6084312135188412
  0.5558360296138289  0.5388527858122032  0.3584938959245818
  0.4447433814441339  0.4277598309941766  0.1081599997950278
  0.2222288620572996  0.5387066954860558  0.8580869413018846
  0.1114744439740463  0.4275768270356153  0.6062859946266101
  0.8896847722160928  0.5376939648838714  0.3585873013528555
  0.7780221772181264  0.4277598679252392  0.1081600576385284
  0.5558362242078800  0.5388527204570508  0.8582138818672647
  0.4447297514247950  0.4277460012613474  0.6084312029390659
  0.2231463797545246  0.8727014023052817  0.3585872889817665
  0.1115051823702871  0.7610183708503513  0.1084702139441731
  0.8891697676578900  0.8721859896634498  0.8581262218777610
  0.7780209878920203  0.7610371105661997  0.6080231276434915
  0.5546774891076041  0.8727013013480303  0.3585872730404702
  0.4447433920220831  0.7610386835073086  0.1081600183171361
  0.2222288450465939  0.8726061603258017  0.8580869552715455
  0.1114675873593214  0.7610371489838812  0.6080231655114332
  0.8891696880469979  0.8721860338595988  0.3583656159919286
  0.7780019575707158  0.7610183535767447  0.1084701849368770
  0.5556902753217088  0.8726062005522124  0.8580868729901141
  0.4447297410150242  0.7610661508006942  0.6084311964449967
 
  0.00000000E+00  0.00000000E+00  0.00000000E+00
  0.00000000E+00  0.00000000E+00  0.00000000E+00
  0.00000000E+00  0.00000000E+00  0.00000000E+00
  0.00000000E+00  0.00000000E+00  0.00000000E+00
  0.00000000E+00  0.00000000E+00  0.00000000E+00
  0.00000000E+00  0.00000000E+00  0.00000000E+00
  0.00000000E+00  0.00000000E+00  0.00000000E+00
  0.00000000E+00  0.00000000E+00  0.00000000E+00
  0.00000000E+00  0.00000000E+00  0.00000000E+00
  0.00000000E+00  0.00000000E+00  0.00000000E+00
  0.00000000E+00  0.00000000E+00  0.00000000E+00
  0.00000000E+00  0.00000000E+00  0.00000000E+00
  0.00000000E+00  0.00000000E+00  0.00000000E+00
  0.00000000E+00  0.00000000E+00  0.00000000E+00
  0.00000000E+00  0.00000000E+00  0.00000000E+00
  0.00000000E+00  0.00000000E+00  0.00000000E+00
  0.00000000E+00  0.00000000E+00  0.00000000E+00
  0.00000000E+00  0.00000000E+00  0.00000000E+00
  0.00000000E+00  0.00000000E+00  0.00000000E+00
  0.00000000E+00  0.00000000E+00  0.00000000E+00
  0.00000000E+00  0.00000000E+00  0.00000000E+00
  0.00000000E+00  0.00000000E+00  0.00000000E+00
  0.00000000E+00  0.00000000E+00  0.00000000E+00
  0.00000000E+00  0.00000000E+00  0.00000000E+00
  0.00000000E+00  0.00000000E+00  0.00000000E+00
  0.00000000E+00  0.00000000E+00  0.00000000E+00
  0.00000000E+00  0.00000000E+00  0.00000000E+00
  0.00000000E+00  0.00000000E+00  0.00000000E+00
  0.00000000E+00  0.00000000E+00  0.00000000E+00
  0.00000000E+00  0.00000000E+00  0.00000000E+00
  0.00000000E+00  0.00000000E+00  0.00000000E+00
  0.00000000E+00  0.00000000E+00  0.00000000E+00
  0.00000000E+00  0.00000000E+00  0.00000000E+00
  0.00000000E+00  0.00000000E+00  0.00000000E+00
  0.00000000E+00  0.00000000E+00  0.00000000E+00
  0.00000000E+00  0.00000000E+00  0.00000000E+00
  0.00000000E+00  0.00000000E+00  0.00000000E+00
  0.00000000E+00  0.00000000E+00  0.00000000E+00
  0.00000000E+00  0.00000000E+00  0.00000000E+00
  0.00000000E+00  0.00000000E+00  0.00000000E+00
  0.00000000E+00  0.00000000E+00  0.00000000E+00
  0.00000000E+00  0.00000000E+00  0.00000000E+00
  0.00000000E+00  0.00000000E+00  0.00000000E+00
  0.00000000E+00  0.00000000E+00  0.00000000E+00
  0.00000000E+00  0.00000000E+00  0.00000000E+00
  0.00000000E+00  0.00000000E+00  0.00000000E+00
  0.00000000E+00  0.00000000E+00  0.00000000E+00
  0.00000000E+00  0.00000000E+00  0.00000000E+00
  0.00000000E+00  0.00000000E+00  0.00000000E+00
  0.00000000E+00  0.00000000E+00  0.00000000E+00
  0.00000000E+00  0.00000000E+00  0.00000000E+00
  0.00000000E+00  0.00000000E+00  0.00000000E+00
  0.00000000E+00  0.00000000E+00  0.00000000E+00
  0.00000000E+00  0.00000000E+00  0.00000000E+00
  0.00000000E+00  0.00000000E+00  0.00000000E+00
  0.00000000E+00  0.00000000E+00  0.00000000E+00
  0.00000000E+00  0.00000000E+00  0.00000000E+00
  0.00000000E+00  0.00000000E+00  0.00000000E+00
  0.00000000E+00  0.00000000E+00  0.00000000E+00
  0.00000000E+00  0.00000000E+00  0.00000000E+00
  0.00000000E+00  0.00000000E+00  0.00000000E+00
  0.00000000E+00  0.00000000E+00  0.00000000E+00
  0.00000000E+00  0.00000000E+00  0.00000000E+00
  0.00000000E+00  0.00000000E+00  0.00000000E+00
  0.00000000E+00  0.00000000E+00  0.00000000E+00
  0.00000000E+00  0.00000000E+00  0.00000000E+00
  0.00000000E+00  0.00000000E+00  0.00000000E+00
  0.00000000E+00  0.00000000E+00  0.00000000E+00
  0.00000000E+00  0.00000000E+00  0.00000000E+00
  0.00000000E+00  0.00000000E+00  0.00000000E+00
  0.00000000E+00  0.00000000E+00  0.00000000E+00
