Al   N                                  
   1.00000000000000     
    -9.5554894343354970   -0.0000403867804622    0.0000093797942275
    -4.7777766817541645    8.2752784886584010    0.0000002196525913
    -0.0000066957688904   -0.0000030928455582   -9.3843966709542102
   Al   N 
    36    35
Direct
  0.1108476481911111  0.0935764460207977  0.3735359658143835
  0.2225383412149284  0.2052671873026313  0.1154899631983568
  0.7780763380503330  0.0941910765505440  0.8773362231867949
  0.8899970900044067  0.2052966404410697  0.6269001762552975
  0.4459196223984563  0.0935764555287122  0.3735360306430167
  0.5569676837458886  0.2069171045858269  0.1290423162574044
  0.1101125492709158  0.0928414442064778  0.8810519745931344
  0.2225382550964383  0.2052672279695997  0.6341805786462231
  0.7785876220297681  0.0931685146448089  0.3791324840542671
  0.8864589269814402  0.2069171279957374  0.1290423218043628
  0.4473897095888901  0.0928414560874060  0.8810519032189532
  0.5550500844490642  0.2052966236299554  0.6269001831497008
  0.1108476199082773  0.4286486162485090  0.3735359492216261
  0.2241883492633718  0.5396965610802553  0.1290423288745615
  0.7785939962378592  0.4272392448527569  0.8769927760352090
  0.8899971051565387  0.5377787811288357  0.6269001723693250
  0.4454647106875669  0.4281932494721801  0.3796323594415654
  0.5558717333533707  0.5386004483821978  0.1266499392769802
  0.1101125643876557  0.4301187174830474  0.8810519892208220
  0.2225680986293241  0.5377787018258360  0.6269001664681326
  0.7766858890026285  0.4281932871169403  0.3796324262842319
  0.8864589341982807  0.5396965244370406  0.1290423195161097
  0.4445106640989849  0.4272392548964845  0.8769928439772059
  0.5558717547253380  0.5386004270306017  0.6296779202683425
  0.1104399260205895  0.7613163433269889  0.3791325340021388
  0.2241882906457136  0.8691878695286590  0.1290423222923920
  0.7780762859481598  0.7608050574355971  0.8773362266099483
  0.8892051551534550  0.8719336628209433  0.6293529136425207
  0.4454646306025012  0.7594146619717321  0.3796323336243717
  0.5569676543101991  0.8691878722254529  0.1290423167273076
  0.1114625928628001  0.7608050201028220  0.8773361846253636
  0.2225680445130251  0.8727259212572775  0.6269001817077680
  0.7785876164892755  0.7613163463325634  0.3791324834374521
  0.8892050986686968  0.8719337138973700  0.1271198666531959
  0.4445106301035651  0.7613226368574431  0.8769928737795922
  0.5550500347115133  0.8727259048115883  0.6269001857480418
  0.1111707569104254  0.0938996929697566  0.0864686013217906
  0.8906851805643612  0.2043296854263730  0.8300794921241703
  0.7781529141356103  0.0940378982241867  0.5810458128638842
  0.5554057632069487  0.2062492352740932  0.3311926650867392
  0.4452732724148518  0.0938996617564811  0.0864685164225634
  0.2225382160768135  0.2052672914685587  0.8386032533075252
  0.1136369439378200  0.0963658253970223  0.5761114238396985
  0.8886887286003500  0.2062492809286667  0.3311926658654727
  0.7778786607317940  0.0945863462490735  0.0803366732468831
  0.5553289085529087  0.2043297095397634  0.8300794944962462
  0.4403409142643255  0.0963658335463009  0.5761114741065043
  0.2235206178249030  0.5381345524009120  0.3311926776974730
  0.1111707770245474  0.4280022337411964  0.0864686195441351
  0.8906851900582495  0.5380577040417620  0.8300794960702476
  0.7778056826899018  0.4276333946356417  0.5815306324543030
  0.5558717252454386  0.5386004723727709  0.3296866796124363
  0.4446640195710074  0.4273927726652573  0.0796798834000398
  0.2216010509825423  0.5380576663050789  0.8300794971920951
  0.1136369763005050  0.4230698643624677  0.5761114029177890
  0.8886887222866449  0.5381345597728568  0.3311926649570651
  0.7782869909937205  0.4273927616742412  0.0796798094433413
  0.5558717475742583  0.5386004455590410  0.8314801956989228
  0.4449048105834663  0.4276333742816973  0.5815305760338063
  0.2235205519126282  0.8714175997657705  0.3311926728565666
  0.1118576668470652  0.7606074906241602  0.0803366404213506
  0.8892051380240034  0.8719336825420072  0.8314875491841036
  0.7781528830842319  0.7608816471366282  0.5810458108275327
  0.5554057522538969  0.8714176358986094  0.3311926683034514
  0.4446639749614789  0.7610158082860323  0.0796799155905319
  0.2216010122092413  0.8734140506784129  0.8300795154741678
  0.1113093674723800  0.7608816192182815  0.5810458484302075
  0.8892051063601443  0.8719337256643840  0.3298815748819095
  0.7778786295602558  0.7606074966549485  0.0803366745044940
  0.5553288588436871  0.8734140417007268  0.8300795076624681
  0.4449047621769893  0.7605343683495605  0.5815305601509166
 
  0.00000000E+00  0.00000000E+00  0.00000000E+00
  0.00000000E+00  0.00000000E+00  0.00000000E+00
  0.00000000E+00  0.00000000E+00  0.00000000E+00
  0.00000000E+00  0.00000000E+00  0.00000000E+00
  0.00000000E+00  0.00000000E+00  0.00000000E+00
  0.00000000E+00  0.00000000E+00  0.00000000E+00
  0.00000000E+00  0.00000000E+00  0.00000000E+00
  0.00000000E+00  0.00000000E+00  0.00000000E+00
  0.00000000E+00  0.00000000E+00  0.00000000E+00
  0.00000000E+00  0.00000000E+00  0.00000000E+00
  0.00000000E+00  0.00000000E+00  0.00000000E+00
  0.00000000E+00  0.00000000E+00  0.00000000E+00
  0.00000000E+00  0.00000000E+00  0.00000000E+00
  0.00000000E+00  0.00000000E+00  0.00000000E+00
  0.00000000E+00  0.00000000E+00  0.00000000E+00
  0.00000000E+00  0.00000000E+00  0.00000000E+00
  0.00000000E+00  0.00000000E+00  0.00000000E+00
  0.00000000E+00  0.00000000E+00  0.00000000E+00
  0.00000000E+00  0.00000000E+00  0.00000000E+00
  0.00000000E+00  0.00000000E+00  0.00000000E+00
  0.00000000E+00  0.00000000E+00  0.00000000E+00
  0.00000000E+00  0.00000000E+00  0.00000000E+00
  0.00000000E+00  0.00000000E+00  0.00000000E+00
  0.00000000E+00  0.00000000E+00  0.00000000E+00
  0.00000000E+00  0.00000000E+00  0.00000000E+00
  0.00000000E+00  0.00000000E+00  0.00000000E+00
  0.00000000E+00  0.00000000E+00  0.00000000E+00
  0.00000000E+00  0.00000000E+00  0.00000000E+00
  0.00000000E+00  0.00000000E+00  0.00000000E+00
  0.00000000E+00  0.00000000E+00  0.00000000E+00
  0.00000000E+00  0.00000000E+00  0.00000000E+00
  0.00000000E+00  0.00000000E+00  0.00000000E+00
  0.00000000E+00  0.00000000E+00  0.00000000E+00
  0.00000000E+00  0.00000000E+00  0.00000000E+00
  0.00000000E+00  0.00000000E+00  0.00000000E+00
  0.00000000E+00  0.00000000E+00  0.00000000E+00
  0.00000000E+00  0.00000000E+00  0.00000000E+00
  0.00000000E+00  0.00000000E+00  0.00000000E+00
  0.00000000E+00  0.00000000E+00  0.00000000E+00
  0.00000000E+00  0.00000000E+00  0.00000000E+00
  0.00000000E+00  0.00000000E+00  0.00000000E+00
  0.00000000E+00  0.00000000E+00  0.00000000E+00
  0.00000000E+00  0.00000000E+00  0.00000000E+00
  0.00000000E+00  0.00000000E+00  0.00000000E+00
  0.00000000E+00  0.00000000E+00  0.00000000E+00
  0.00000000E+00  0.00000000E+00  0.00000000E+00
  0.00000000E+00  0.00000000E+00  0.00000000E+00
  0.00000000E+00  0.00000000E+00  0.00000000E+00
  0.00000000E+00  0.00000000E+00  0.00000000E+00
  0.00000000E+00  0.00000000E+00  0.00000000E+00
  0.00000000E+00  0.00000000E+00  0.00000000E+00
  0.00000000E+00  0.00000000E+00  0.00000000E+00
  0.00000000E+00  0.00000000E+00  0.00000000E+00
  0.00000000E+00  0.00000000E+00  0.00000000E+00
  0.00000000E+00  0.00000000E+00  0.00000000E+00
  0.00000000E+00  0.00000000E+00  0.00000000E+00
  0.00000000E+00  0.00000000E+00  0.00000000E+00
  0.00000000E+00  0.00000000E+00  0.00000000E+00
  0.00000000E+00  0.00000000E+00  0.00000000E+00
  0.00000000E+00  0.00000000E+00  0.00000000E+00
  0.00000000E+00  0.00000000E+00  0.00000000E+00
  0.00000000E+00  0.00000000E+00  0.00000000E+00
  0.00000000E+00  0.00000000E+00  0.00000000E+00
  0.00000000E+00  0.00000000E+00  0.00000000E+00
  0.00000000E+00  0.00000000E+00  0.00000000E+00
  0.00000000E+00  0.00000000E+00  0.00000000E+00
  0.00000000E+00  0.00000000E+00  0.00000000E+00
  0.00000000E+00  0.00000000E+00  0.00000000E+00
  0.00000000E+00  0.00000000E+00  0.00000000E+00
  0.00000000E+00  0.00000000E+00  0.00000000E+00
  0.00000000E+00  0.00000000E+00  0.00000000E+00
