Al   N                                  
   1.00000000000000     
    -9.3519961925756103   -0.0000688125364257   -0.0000081344250634
    -4.6760573743343690    8.0990323607975530    0.0000032466733357
     0.0000086796207003    0.0000094360261520   -9.9757490178317632
   Al   N 
    36    35
Direct
  0.1090156161183344  0.0919548180053340  0.3054925791745831
  0.2225123346435396  0.2054515126978700  0.0550319033230267
  0.7781929715349918  0.0940905053819634  0.8064222878339180
  0.8879436395095084  0.2063127262895605  0.5568771083969253
  0.4495060709324150  0.0919546630539472  0.3054924844423823
  0.5559703677748047  0.2060657906864449  0.0560018269698901
  0.1111073550252257  0.0940461384212625  0.8065565305583178
  0.2225125308737717  0.2054514496657376  0.5636560962720907
  0.7783546675081254  0.0937669443119944  0.3059693463703610
  0.8884404289383454  0.2060658526576304  0.0560018542323277
  0.4453229241918137  0.0940463163281535  0.8065564428595025
  0.5562205800456255  0.2063127349061560  0.5568771025078831
  0.1090155619989233  0.4324450866584471  0.3054925618169904
  0.2231267869224993  0.5389092929272508  0.0560018789888659
  0.7778770771125849  0.4277691341865619  0.8065615159222403
  0.8879435944832608  0.5391592265970004  0.5568770978758977
  0.4451630799053490  0.4281022255255138  0.3056020704713021
  0.5558459357662997  0.5387848038277667  0.0558899703209832
  0.1111074394667853  0.4282619105563867  0.8065564744780076
  0.2233738648560788  0.5391593782545954  0.5568771112770179
  0.7772106460836596  0.4281023370620360  0.3056021345356470
  0.8884403971052350  0.5389092158330016  0.0560018011217878
  0.4448301558544188  0.4277691256797667  0.8065615037594966
  0.5558460348991829  0.5387847939016766  0.5568712641043092
  0.1108280084307509  0.7612937112859868  0.3059693672435984
  0.2231268222800509  0.8713793939323935  0.0560019038442903
  0.7781930030115092  0.7611320097086249  0.8064222752106076
  0.8891793111488440  0.8721181026642455  0.5566721970917854
  0.4451631044519360  0.7601499657754829  0.3056020952049039
  0.5559703498906288  0.8713792734810113  0.0560017870116241
  0.1111516930259384  0.7611318856240956  0.8064223092934739
  0.2233738537675691  0.8708823879326673  0.5568771039401099
  0.7783547107031055  0.7612938597173837  0.3059693206775691
  0.8891792271156689  0.8721181107089251  0.0559463551089721
  0.4448301212557624  0.7608161105955205  0.8065615096916261
  0.5562205271371852  0.8708822636141633  0.5568770916997465
  0.1121041417563973  0.0950431592294336  0.1165059774327872
  0.8895994934359379  0.2051771616271765  0.8651863363167251
  0.7780304733739172  0.0944159118078431  0.6151230587583711
  0.5546868794956126  0.2060950451730506  0.3656869005396644
  0.4433290374815684  0.0950431739993434  0.1165058583532428
  0.2225124834325598  0.2054514814249586  0.8640450658318528
  0.1114838533489504  0.0944226042770566  0.6133853835959755
  0.8896943978516347  0.2060951052600544  0.3656869138994807
  0.7780114682100958  0.0944536190316754  0.1155695354039423
  0.5556998549791174  0.2051771965965443  0.8651863198423655
  0.4445702122963411  0.0944226661070715  0.6133853067292492
  0.2231559744522755  0.5376259078657100  0.3656869078598106
  0.1121041527832674  0.4262680899745064  0.1165059612418560
  0.8895995130112269  0.5386387589570631  0.8651862786024367
  0.7780594168679258  0.4276780581995538  0.6155314237561313
  0.5558455982737343  0.5387848615526352  0.3655936405254749
  0.4447528827181699  0.4276918468037039  0.1152589006935685
  0.2222382631601150  0.5386388164564693  0.8651863522271483
  0.1114838771409055  0.4275090401041837  0.6133853342753781
  0.8896943549364806  0.5376259537354215  0.3656868954679453
  0.7780317661670537  0.4276918524974533  0.1152589829722217
  0.5558457974946833  0.5387848069775103  0.8653134153614133
  0.4447392472433691  0.4276780931434061  0.6155313817120884
  0.2231559803091940  0.8726335677902455  0.3656869014827038
  0.1115146860073395  0.7609503919333775  0.1155695587989598
  0.8891792956224904  0.8721181070179114  0.8652256620719072
  0.7780304306915582  0.7609691885864862  0.6151230539067924
  0.5546868918805430  0.8726334693010713  0.3656868805943958
  0.4447528788941923  0.7609707314684755  0.1152589349958077
  0.2222382329642585  0.8725384096492519  0.8651863797059391
  0.1114770762040109  0.7609692575995552  0.6151230683071205
  0.8891792175052302  0.8721181396271831  0.3654654896631016
  0.7780114533208788  0.7609503796100725  0.1155695062594120
  0.5556998152132522  0.8725384246989663  0.8651862739228235
  0.4447392078041545  0.7609982228996728  0.6155313941504730
 
  0.00000000E+00  0.00000000E+00  0.00000000E+00
  0.00000000E+00  0.00000000E+00  0.00000000E+00
  0.00000000E+00  0.00000000E+00  0.00000000E+00
  0.00000000E+00  0.00000000E+00  0.00000000E+00
  0.00000000E+00  0.00000000E+00  0.00000000E+00
  0.00000000E+00  0.00000000E+00  0.00000000E+00
  0.00000000E+00  0.00000000E+00  0.00000000E+00
  0.00000000E+00  0.00000000E+00  0.00000000E+00
  0.00000000E+00  0.00000000E+00  0.00000000E+00
  0.00000000E+00  0.00000000E+00  0.00000000E+00
  0.00000000E+00  0.00000000E+00  0.00000000E+00
  0.00000000E+00  0.00000000E+00  0.00000000E+00
  0.00000000E+00  0.00000000E+00  0.00000000E+00
  0.00000000E+00  0.00000000E+00  0.00000000E+00
  0.00000000E+00  0.00000000E+00  0.00000000E+00
  0.00000000E+00  0.00000000E+00  0.00000000E+00
  0.00000000E+00  0.00000000E+00  0.00000000E+00
  0.00000000E+00  0.00000000E+00  0.00000000E+00
  0.00000000E+00  0.00000000E+00  0.00000000E+00
  0.00000000E+00  0.00000000E+00  0.00000000E+00
  0.00000000E+00  0.00000000E+00  0.00000000E+00
  0.00000000E+00  0.00000000E+00  0.00000000E+00
  0.00000000E+00  0.00000000E+00  0.00000000E+00
  0.00000000E+00  0.00000000E+00  0.00000000E+00
  0.00000000E+00  0.00000000E+00  0.00000000E+00
  0.00000000E+00  0.00000000E+00  0.00000000E+00
  0.00000000E+00  0.00000000E+00  0.00000000E+00
  0.00000000E+00  0.00000000E+00  0.00000000E+00
  0.00000000E+00  0.00000000E+00  0.00000000E+00
  0.00000000E+00  0.00000000E+00  0.00000000E+00
  0.00000000E+00  0.00000000E+00  0.00000000E+00
  0.00000000E+00  0.00000000E+00  0.00000000E+00
  0.00000000E+00  0.00000000E+00  0.00000000E+00
  0.00000000E+00  0.00000000E+00  0.00000000E+00
  0.00000000E+00  0.00000000E+00  0.00000000E+00
  0.00000000E+00  0.00000000E+00  0.00000000E+00
  0.00000000E+00  0.00000000E+00  0.00000000E+00
  0.00000000E+00  0.00000000E+00  0.00000000E+00
  0.00000000E+00  0.00000000E+00  0.00000000E+00
  0.00000000E+00  0.00000000E+00  0.00000000E+00
  0.00000000E+00  0.00000000E+00  0.00000000E+00
  0.00000000E+00  0.00000000E+00  0.00000000E+00
  0.00000000E+00  0.00000000E+00  0.00000000E+00
  0.00000000E+00  0.00000000E+00  0.00000000E+00
  0.00000000E+00  0.00000000E+00  0.00000000E+00
  0.00000000E+00  0.00000000E+00  0.00000000E+00
  0.00000000E+00  0.00000000E+00  0.00000000E+00
  0.00000000E+00  0.00000000E+00  0.00000000E+00
  0.00000000E+00  0.00000000E+00  0.00000000E+00
  0.00000000E+00  0.00000000E+00  0.00000000E+00
  0.00000000E+00  0.00000000E+00  0.00000000E+00
  0.00000000E+00  0.00000000E+00  0.00000000E+00
  0.00000000E+00  0.00000000E+00  0.00000000E+00
  0.00000000E+00  0.00000000E+00  0.00000000E+00
  0.00000000E+00  0.00000000E+00  0.00000000E+00
  0.00000000E+00  0.00000000E+00  0.00000000E+00
  0.00000000E+00  0.00000000E+00  0.00000000E+00
  0.00000000E+00  0.00000000E+00  0.00000000E+00
  0.00000000E+00  0.00000000E+00  0.00000000E+00
  0.00000000E+00  0.00000000E+00  0.00000000E+00
  0.00000000E+00  0.00000000E+00  0.00000000E+00
  0.00000000E+00  0.00000000E+00  0.00000000E+00
  0.00000000E+00  0.00000000E+00  0.00000000E+00
  0.00000000E+00  0.00000000E+00  0.00000000E+00
  0.00000000E+00  0.00000000E+00  0.00000000E+00
  0.00000000E+00  0.00000000E+00  0.00000000E+00
  0.00000000E+00  0.00000000E+00  0.00000000E+00
  0.00000000E+00  0.00000000E+00  0.00000000E+00
  0.00000000E+00  0.00000000E+00  0.00000000E+00
  0.00000000E+00  0.00000000E+00  0.00000000E+00
  0.00000000E+00  0.00000000E+00  0.00000000E+00
