Al   N                                  
   1.00000000000000     
    -9.7847796948711032   -0.0000527458047942    0.0000017649162749
    -4.8924296391713575    8.4738445994165712    0.0000015357485671
    -0.0000022674410108    0.0000001148948606   -8.6476058667262237
   Al   N 
    36    35
Direct
  0.1126779602394805  0.0954072978983973  0.3504880188497523
  0.2225381253404706  0.2052674458914154  0.0815179387671137
  0.7781140114719634  0.0941157152854544  0.8456611129879690
  0.8867676018705239  0.2068645671486493  0.5924001856755865
  0.4422583585664199  0.0954072349934521  0.3504880294886448
  0.5548588971693675  0.2052734955845992  0.0971785392496614
  0.1095878236148877  0.0923164867393780  0.8408297016559487
  0.2225380662234926  0.2052674849075871  0.6120169112096292
  0.7785331287209658  0.0932774335539577  0.3435491480123929
  0.8902114443061109  0.2052734398967715  0.0971784573456489
  0.4484392251320131  0.0923166859387266  0.8408296522163781
  0.5567116652970299  0.2068644462002069  0.5924000908692051
  0.1126779014338197  0.4249877936456770  0.3504881063804604
  0.2225447837787655  0.5375878980902016  0.0971785401060430
  0.7787594987018238  0.4271564817680655  0.8460564835928253
  0.8867675241574560  0.5394404732320695  0.5924002014620271
  0.4453472135419716  0.4280759505402614  0.3428774832746484
  0.5558717957084696  0.5386004914035922  0.0925870624730152
  0.1095877129251974  0.4311686121473528  0.8408295795056304
  0.2241361008816156  0.5394402442883859  0.5924001017894511
  0.7769207612943418  0.4280759359038058  0.3428774427170254
  0.8902113964617371  0.5375879228978135  0.0971784327076080
  0.4444280176903490  0.4271564208150735  0.8460564513235980
  0.5558718053938634  0.5386004736104653  0.5963111254825861
  0.1105489292215083  0.7612619380861432  0.3435493519832775
  0.2225448424122831  0.8729401933132266  0.0971786197781626
  0.7781139100645689  0.7608428392993858  0.8456610715121258
  0.8892052243576885  0.8719336840072742  0.5955521573195668
  0.4453471925881303  0.7596495105748460  0.3428775821938430
  0.5548588649420978  0.8729403284682746  0.0971786036691000
  0.1113872788980501  0.7608427408404594  0.8456609321149315
  0.2241359174724593  0.8694967570147583  0.5924000424788218
  0.7785330387645359  0.7612620423454999  0.3435491901759988
  0.8892051889838299  0.8719337428251919  0.0933997014584378
  0.4444279193286391  0.7614882194502002  0.8460563765643698
  0.5567114838503713  0.8694968072841149  0.5924000374188125
  0.1144004502513880  0.0971293869286498  0.1211574003285847
  0.8911032493348827  0.2040275634222439  0.8661153230246512
  0.7778145509021357  0.0947145948360912  0.6155156829414423
  0.5553539945058645  0.2058064097111725  0.3640800477223181
  0.4388137088218897  0.0971294928691862  0.1211574575057242
  0.2225381015188646  0.2052674779915762  0.8556961919879953
  0.1121082544015621  0.0948373585557221  0.6077591416023225
  0.8891833058616427  0.2058064741361250  0.3640800974801124
  0.7780758142815642  0.0941920570075681  0.1148411175809514
  0.5552130266037310  0.2040275655941670  0.8661153684566187
  0.4433979257941303  0.0948374292295071  0.6077590991030988
  0.2230777006995766  0.5380828237641992  0.3640801086436980
  0.1144004060556085  0.4215430510134297  0.1211574922168239
  0.8911031988741627  0.5379418556983993  0.8661152876840532
  0.7783486149047647  0.4273619383094882  0.6165284559765851
  0.5558717688832857  0.5386004960101047  0.3662287376702196
  0.4448534473020302  0.4275821729303644  0.1140535153130813
  0.2212990905072729  0.5379418064082699  0.8661153207491950
  0.1121082409219198  0.4261273085084909  0.6077590519472409
  0.8891832724626312  0.5380829838517371  0.3640801387711221
  0.7779083398137772  0.4275821597965219  0.1140534583262038
  0.5558717557884236  0.5386005178215569  0.8644606584446777
  0.4446334331428901  0.4273618667155858  0.6165284000608224
  0.2230775984444193  0.8719125216452426  0.3640800628420635
  0.1114634131674066  0.7608046958647847  0.1148412502256519
  0.8892052305040323  0.8719336830320685  0.8644446228471594
  0.7778144249278469  0.7605434465998826  0.6155156839265032
  0.5553539272027024  0.8719124949591972  0.3640800317062585
  0.4448534485614388  0.7606370230678721  0.1140536085871275
  0.2212990528011929  0.8738320094599104  0.8661153769014263
  0.1119861993420628  0.7605433068774019  0.6155155564901520
  0.8892051638657819  0.8719337350809866  0.3660655889023872
  0.7780757563419272  0.7608047729168703  0.1148411249748094
  0.5552129236793348  0.8738321594397291  0.8661153966089614
  0.4446333201763224  0.7610774154572368  0.6165283156037233
 
  0.00000000E+00  0.00000000E+00  0.00000000E+00
  0.00000000E+00  0.00000000E+00  0.00000000E+00
  0.00000000E+00  0.00000000E+00  0.00000000E+00
  0.00000000E+00  0.00000000E+00  0.00000000E+00
  0.00000000E+00  0.00000000E+00  0.00000000E+00
  0.00000000E+00  0.00000000E+00  0.00000000E+00
  0.00000000E+00  0.00000000E+00  0.00000000E+00
  0.00000000E+00  0.00000000E+00  0.00000000E+00
  0.00000000E+00  0.00000000E+00  0.00000000E+00
  0.00000000E+00  0.00000000E+00  0.00000000E+00
  0.00000000E+00  0.00000000E+00  0.00000000E+00
  0.00000000E+00  0.00000000E+00  0.00000000E+00
  0.00000000E+00  0.00000000E+00  0.00000000E+00
  0.00000000E+00  0.00000000E+00  0.00000000E+00
  0.00000000E+00  0.00000000E+00  0.00000000E+00
  0.00000000E+00  0.00000000E+00  0.00000000E+00
  0.00000000E+00  0.00000000E+00  0.00000000E+00
  0.00000000E+00  0.00000000E+00  0.00000000E+00
  0.00000000E+00  0.00000000E+00  0.00000000E+00
  0.00000000E+00  0.00000000E+00  0.00000000E+00
  0.00000000E+00  0.00000000E+00  0.00000000E+00
  0.00000000E+00  0.00000000E+00  0.00000000E+00
  0.00000000E+00  0.00000000E+00  0.00000000E+00
  0.00000000E+00  0.00000000E+00  0.00000000E+00
  0.00000000E+00  0.00000000E+00  0.00000000E+00
  0.00000000E+00  0.00000000E+00  0.00000000E+00
  0.00000000E+00  0.00000000E+00  0.00000000E+00
  0.00000000E+00  0.00000000E+00  0.00000000E+00
  0.00000000E+00  0.00000000E+00  0.00000000E+00
  0.00000000E+00  0.00000000E+00  0.00000000E+00
  0.00000000E+00  0.00000000E+00  0.00000000E+00
  0.00000000E+00  0.00000000E+00  0.00000000E+00
  0.00000000E+00  0.00000000E+00  0.00000000E+00
  0.00000000E+00  0.00000000E+00  0.00000000E+00
  0.00000000E+00  0.00000000E+00  0.00000000E+00
  0.00000000E+00  0.00000000E+00  0.00000000E+00
  0.00000000E+00  0.00000000E+00  0.00000000E+00
  0.00000000E+00  0.00000000E+00  0.00000000E+00
  0.00000000E+00  0.00000000E+00  0.00000000E+00
  0.00000000E+00  0.00000000E+00  0.00000000E+00
  0.00000000E+00  0.00000000E+00  0.00000000E+00
  0.00000000E+00  0.00000000E+00  0.00000000E+00
  0.00000000E+00  0.00000000E+00  0.00000000E+00
  0.00000000E+00  0.00000000E+00  0.00000000E+00
  0.00000000E+00  0.00000000E+00  0.00000000E+00
  0.00000000E+00  0.00000000E+00  0.00000000E+00
  0.00000000E+00  0.00000000E+00  0.00000000E+00
  0.00000000E+00  0.00000000E+00  0.00000000E+00
  0.00000000E+00  0.00000000E+00  0.00000000E+00
  0.00000000E+00  0.00000000E+00  0.00000000E+00
  0.00000000E+00  0.00000000E+00  0.00000000E+00
  0.00000000E+00  0.00000000E+00  0.00000000E+00
  0.00000000E+00  0.00000000E+00  0.00000000E+00
  0.00000000E+00  0.00000000E+00  0.00000000E+00
  0.00000000E+00  0.00000000E+00  0.00000000E+00
  0.00000000E+00  0.00000000E+00  0.00000000E+00
  0.00000000E+00  0.00000000E+00  0.00000000E+00
  0.00000000E+00  0.00000000E+00  0.00000000E+00
  0.00000000E+00  0.00000000E+00  0.00000000E+00
  0.00000000E+00  0.00000000E+00  0.00000000E+00
  0.00000000E+00  0.00000000E+00  0.00000000E+00
  0.00000000E+00  0.00000000E+00  0.00000000E+00
  0.00000000E+00  0.00000000E+00  0.00000000E+00
  0.00000000E+00  0.00000000E+00  0.00000000E+00
  0.00000000E+00  0.00000000E+00  0.00000000E+00
  0.00000000E+00  0.00000000E+00  0.00000000E+00
  0.00000000E+00  0.00000000E+00  0.00000000E+00
  0.00000000E+00  0.00000000E+00  0.00000000E+00
  0.00000000E+00  0.00000000E+00  0.00000000E+00
  0.00000000E+00  0.00000000E+00  0.00000000E+00
  0.00000000E+00  0.00000000E+00  0.00000000E+00
