Al   N                                  
   1.00000000000000     
    -9.3521669239442424   -0.0000651048291261   -0.0000058499616777
    -4.6761364452010641    8.0991908945682667    0.0000028518445429
     0.0000082632517051    0.0000019277346864   -9.9753233715483738
   Al   N 
    36    35
Direct
  0.1090301491468111  0.0918409077320277  0.3172420106879059
  0.2225281493143072  0.2053389983322802  0.0667809746881147
  0.7782087286420207  0.0939780094458555  0.8181679045104673
  0.8879589655245255  0.2062003640297121  0.5686221081159388
  0.4495246016125449  0.0918407008228925  0.3172419479662381
  0.5559852692196046  0.2059532650233322  0.0677477236218493
  0.1111239030612836  0.0939343243586137  0.8183005854773100
  0.2225282966626452  0.2053389360841749  0.5753945189872098
  0.7783705439191451  0.0936543047193013  0.3177138804147646
  0.8884571414034497  0.2059533091858370  0.0677477257536410
  0.4453372053190421  0.0939345105853491  0.8183004805355978
  0.5562366822713614  0.2062004309237437  0.5686220963760107
  0.1090299466569391  0.4323353180926617  0.3172419355193696
  0.2231424910605000  0.5387959665811834  0.0677477559009461
  0.7778932658402553  0.4276563137211156  0.8183066271488286
  0.8879588681096209  0.5390470583777685  0.5686220993192421
  0.4451789614254267  0.4279897369038181  0.3173478404700560
  0.5558616750388481  0.5386723202776267  0.0676354040081222
  0.1111240074013935  0.4281477933676570  0.8183005181610383
  0.2233897570075456  0.5390472718886414  0.5686220925133938
  0.7772262307098785  0.4279898184332680  0.3173478905079392
  0.8884570304617014  0.5387958457730164  0.0677476638987713
  0.4448457136781414  0.4276563304446199  0.8183066385083180
  0.5558617886907484  0.5386723202907149  0.5686160814906955
  0.1108436717851617  0.7611812337162718  0.3177138883408617
  0.2231425341040563  0.8712678430972502  0.0677477827539121
  0.7782087535164024  0.7610194103755248  0.8181678960902445
  0.8891950542237907  0.8720056346391871  0.5684170891406666
  0.4451790003691016  0.7600370987465936  0.3173478839662991
  0.5559851944618899  0.8712676886542567  0.0677476828036134
  0.1111675031435411  0.7610192951697670  0.8181679309756547
  0.2233897449133693  0.8707694668852071  0.5686220886331483
  0.7783705555183715  0.7611813403959147  0.3177138545087601
  0.8891949616772621  0.8720056404104213  0.0676911738107151
  0.4448456657113837  0.7607039184054116  0.8183066385819160
  0.5562365827184124  0.8707693168339858  0.5686220802242516
  0.1121203294539086  0.0949309915045404  0.1282499946788249
  0.8896162992295444  0.2050642722857248  0.8769263799325060
  0.7780462780501907  0.0943033152318264  0.6268632217193115
  0.5547041132030941  0.2059829217140603  0.3774271482052143
  0.4433440990197681  0.0949309805610454  0.1282499117953222
  0.2225282773135575  0.2053390167243094  0.8757875675138749
  0.1115002641606324  0.0943106469094417  0.6251234276832847
  0.8897084795845061  0.2059829660928330  0.3774271635119391
  0.7780272335372374  0.0943411468393549  0.1273089925617441
  0.5557150307190213  0.2050643134249555  0.8769263918320647
  0.4445847677699319  0.0943107417282647  0.6251232805973999
  0.2231720352616904  0.5375149485448176  0.3774271408377530
  0.1121202821728673  0.4261547915405899  0.1282499272448234
  0.8896162919672221  0.5385256881439346  0.8769263093117559
  0.7780751210803700  0.4275655045926854  0.6272710562081656
  0.5558613853018528  0.5386723401008879  0.3773335616019722
  0.4447686257540298  0.4275792969510448  0.1269993679785202
  0.2222535849525542  0.5385257756959021  0.8769264179646115
  0.1115002953932844  0.4273952349267915  0.6251233286259748
  0.8897083271020279  0.5375149569294138  0.3774271364773583
  0.7780475419090962  0.4275792542615591  0.1269994277047886
  0.5558615511741891  0.5386723202579304  0.8770532010753200
  0.4447550336552979  0.4275656093914364  0.6272710373078283
  0.2231720586695971  0.8725193552983086  0.3774271459299214
  0.1115305060025236  0.7608378341711273  0.1273089987726834
  0.8891950219162794  0.8720056914017675  0.8769655039869804
  0.7780462091805589  0.7608566522075577  0.6268632102698177
  0.5547041079841861  0.8725191975168300  0.3774271247604517
  0.4447686243698570  0.7608581639864056  0.1269994158818477
  0.2222535377432280  0.8724269882918279  0.8769264388110258
  0.1114927853388821  0.7608567572904548  0.6268632396508522
  0.8891949613393351  0.8720057350762431  0.3772049495374006
  0.7780271700260215  0.7608377700170053  0.1273089644444454
  0.5557149413907894  0.8724269908632678  0.8769263376173413
  0.4447550009872145  0.7608855968797030  0.6272710397698305
 
  0.00000000E+00  0.00000000E+00  0.00000000E+00
  0.00000000E+00  0.00000000E+00  0.00000000E+00
  0.00000000E+00  0.00000000E+00  0.00000000E+00
  0.00000000E+00  0.00000000E+00  0.00000000E+00
  0.00000000E+00  0.00000000E+00  0.00000000E+00
  0.00000000E+00  0.00000000E+00  0.00000000E+00
  0.00000000E+00  0.00000000E+00  0.00000000E+00
  0.00000000E+00  0.00000000E+00  0.00000000E+00
  0.00000000E+00  0.00000000E+00  0.00000000E+00
  0.00000000E+00  0.00000000E+00  0.00000000E+00
  0.00000000E+00  0.00000000E+00  0.00000000E+00
  0.00000000E+00  0.00000000E+00  0.00000000E+00
  0.00000000E+00  0.00000000E+00  0.00000000E+00
  0.00000000E+00  0.00000000E+00  0.00000000E+00
  0.00000000E+00  0.00000000E+00  0.00000000E+00
  0.00000000E+00  0.00000000E+00  0.00000000E+00
  0.00000000E+00  0.00000000E+00  0.00000000E+00
  0.00000000E+00  0.00000000E+00  0.00000000E+00
  0.00000000E+00  0.00000000E+00  0.00000000E+00
  0.00000000E+00  0.00000000E+00  0.00000000E+00
  0.00000000E+00  0.00000000E+00  0.00000000E+00
  0.00000000E+00  0.00000000E+00  0.00000000E+00
  0.00000000E+00  0.00000000E+00  0.00000000E+00
  0.00000000E+00  0.00000000E+00  0.00000000E+00
  0.00000000E+00  0.00000000E+00  0.00000000E+00
  0.00000000E+00  0.00000000E+00  0.00000000E+00
  0.00000000E+00  0.00000000E+00  0.00000000E+00
  0.00000000E+00  0.00000000E+00  0.00000000E+00
  0.00000000E+00  0.00000000E+00  0.00000000E+00
  0.00000000E+00  0.00000000E+00  0.00000000E+00
  0.00000000E+00  0.00000000E+00  0.00000000E+00
  0.00000000E+00  0.00000000E+00  0.00000000E+00
  0.00000000E+00  0.00000000E+00  0.00000000E+00
  0.00000000E+00  0.00000000E+00  0.00000000E+00
  0.00000000E+00  0.00000000E+00  0.00000000E+00
  0.00000000E+00  0.00000000E+00  0.00000000E+00
  0.00000000E+00  0.00000000E+00  0.00000000E+00
  0.00000000E+00  0.00000000E+00  0.00000000E+00
  0.00000000E+00  0.00000000E+00  0.00000000E+00
  0.00000000E+00  0.00000000E+00  0.00000000E+00
  0.00000000E+00  0.00000000E+00  0.00000000E+00
  0.00000000E+00  0.00000000E+00  0.00000000E+00
  0.00000000E+00  0.00000000E+00  0.00000000E+00
  0.00000000E+00  0.00000000E+00  0.00000000E+00
  0.00000000E+00  0.00000000E+00  0.00000000E+00
  0.00000000E+00  0.00000000E+00  0.00000000E+00
  0.00000000E+00  0.00000000E+00  0.00000000E+00
  0.00000000E+00  0.00000000E+00  0.00000000E+00
  0.00000000E+00  0.00000000E+00  0.00000000E+00
  0.00000000E+00  0.00000000E+00  0.00000000E+00
  0.00000000E+00  0.00000000E+00  0.00000000E+00
  0.00000000E+00  0.00000000E+00  0.00000000E+00
  0.00000000E+00  0.00000000E+00  0.00000000E+00
  0.00000000E+00  0.00000000E+00  0.00000000E+00
  0.00000000E+00  0.00000000E+00  0.00000000E+00
  0.00000000E+00  0.00000000E+00  0.00000000E+00
  0.00000000E+00  0.00000000E+00  0.00000000E+00
  0.00000000E+00  0.00000000E+00  0.00000000E+00
  0.00000000E+00  0.00000000E+00  0.00000000E+00
  0.00000000E+00  0.00000000E+00  0.00000000E+00
  0.00000000E+00  0.00000000E+00  0.00000000E+00
  0.00000000E+00  0.00000000E+00  0.00000000E+00
  0.00000000E+00  0.00000000E+00  0.00000000E+00
  0.00000000E+00  0.00000000E+00  0.00000000E+00
  0.00000000E+00  0.00000000E+00  0.00000000E+00
  0.00000000E+00  0.00000000E+00  0.00000000E+00
  0.00000000E+00  0.00000000E+00  0.00000000E+00
  0.00000000E+00  0.00000000E+00  0.00000000E+00
  0.00000000E+00  0.00000000E+00  0.00000000E+00
  0.00000000E+00  0.00000000E+00  0.00000000E+00
  0.00000000E+00  0.00000000E+00  0.00000000E+00
