Al   N                                  
   1.00000000000000     
    -9.3519836567787653   -0.0000675766339925   -0.0000073729372682
    -4.6760500131583997    8.0990221454281599    0.0000031150637381
     0.0000077653832120    0.0000080121622341   -9.9757599425038954
   Al   N 
    36    35
Direct
  0.1090209415010364  0.0919188035816205  0.3092748049028771
  0.2225174412687920  0.2054152962380869  0.0588176865980685
  0.7781980631242007  0.0940542825461677  0.8102033638266093
  0.8879488736071934  0.2062762650126686  0.5606582030882450
  0.4495107789262320  0.0919186355863033  0.3092747570989047
  0.5559754884581878  0.2060297858820377  0.0597839125446740
  0.1111123693226190  0.0940098140653447  0.8103402891614166
  0.2225176323121403  0.2054152060777312  0.5674446827712316
  0.7783598413641002  0.0937306067915245  0.3097507416987852
  0.8884452854197207  0.2060298332385457  0.0597839174379686
  0.4453281965396343  0.0940099904551417  0.8103402069779122
  0.5562257641908417  0.2062763084602395  0.5606582000407414
  0.1090208381042359  0.4324084922411657  0.3092747720880737
  0.2231320192899560  0.5388731660866242  0.0597839507458673
  0.7778821525547315  0.4277328935866009  0.8103423690104492
  0.8879488050075750  0.5391230669677896  0.5606581921596359
  0.4451680552309440  0.4280659343307391  0.3093844922782480
  0.5558509823607665  0.5387486013833040  0.0596720019359935
  0.1111124515534101  0.4282258422013712  0.8103402371375523
  0.2233787117222192  0.5391232659120249  0.5606581921813287
  0.7772158937899079  0.4280660188538121  0.3093845322374094
  0.8884452099916658  0.5388730507329882  0.0597838648327098
  0.4448352129419675  0.4277328991504916  0.8103423750222802
  0.5558511054742894  0.5387485679477635  0.5606520751855086
  0.1108329281406171  0.7612575892893361  0.3097507509599353
  0.2231320641350010  0.8713429618086792  0.0597839728162910
  0.7781980820403760  0.7610957757100181  0.8102033541746394
  0.8891843830645669  0.8720818656207499  0.5604528354380562
  0.4451680925522865  0.7601138787132484  0.3093845113258311
  0.5559754442718372  0.8713428206607574  0.0597838742004058
  0.1111567482314442  0.7610956614444930  0.8102033827152368
  0.2233787131679676  0.8708462862508881  0.5606581918716600
  0.7783598642782579  0.7612577027754952  0.3097507139251618
  0.8891842743014422  0.8720819145191143  0.0597278796237859
  0.4448351752611543  0.7607798671458994  0.8103423761310751
  0.5562256935332002  0.8708461442870288  0.5606581844282346
  0.1121088697453985  0.0950066011252204  0.1202896140422638
  0.8896040555022537  0.2051412723964461  0.8689699785216121
  0.7780355831090162  0.0943796481228674  0.6189059154178125
  0.5546920243145337  0.2060586473391979  0.3694699851350478
  0.4433348491848292  0.0950066092922057  0.1202895337262007
  0.2225175874385315  0.2054152439425323  0.8678311357179496
  0.1114885900012936  0.0943859991003251  0.6171705679114439
  0.8896996736319949  0.2060586911359792  0.3694699922910161
  0.7780165690519922  0.0944173948194020  0.1193526314249809
  0.5557051459075950  0.2051413057874001  0.8689699795380434
  0.4445760525971778  0.0943860650017498  0.6171704727750154
  0.2231608282770807  0.5375897725874808  0.3694699861790482
  0.1121088475129284  0.4262326193760231  0.1202895795293983
  0.8896040548416622  0.5386027224546979  0.8689699185889026
  0.7780644904296423  0.4276418161540931  0.6193140128194727
  0.5558506836356685  0.5387486194729618  0.3693765864657124
  0.4447579738401899  0.4276557246038379  0.1190427886721253
  0.2222436688575797  0.5386028022770972  0.8689700225498740
  0.1114886039522247  0.4274735387959936  0.6171705118605431
  0.8896995891285115  0.5375897751007273  0.3694699632773180
  0.7780367029978592  0.4276556939624356  0.1190428443474261
  0.5558508716571353  0.5387485621917634  0.8690965582281862
  0.4447443045462975  0.4276418858739888  0.6193139832613426
  0.2231608502713911  0.8725975106104187  0.3694699874218301
  0.1115196810239212  0.7609142426240822  0.1193526504257605
  0.8891843464594160  0.8720819041537808  0.8690086804517847
  0.7780355188983918  0.7609329628199433  0.6189059142776046
  0.5546920121764245  0.8725973808504222  0.3694699552051617
  0.4447579763199556  0.7609344097149844  0.1190428109596908
  0.2222436266402426  0.8725016444608329  0.8689700396466193
  0.1114821046714098  0.7609330650013746  0.6189059246070343
  0.8891842802873740  0.8720819453377899  0.3692480561711591
  0.7780165273161188  0.7609141890729916  0.1193526014335120
  0.5557050771763201  0.8725016463337596  0.8689699331520586
  0.4447442742045951  0.7609619958517087  0.6193139940199757
 
  0.00000000E+00  0.00000000E+00  0.00000000E+00
  0.00000000E+00  0.00000000E+00  0.00000000E+00
  0.00000000E+00  0.00000000E+00  0.00000000E+00
  0.00000000E+00  0.00000000E+00  0.00000000E+00
  0.00000000E+00  0.00000000E+00  0.00000000E+00
  0.00000000E+00  0.00000000E+00  0.00000000E+00
  0.00000000E+00  0.00000000E+00  0.00000000E+00
  0.00000000E+00  0.00000000E+00  0.00000000E+00
  0.00000000E+00  0.00000000E+00  0.00000000E+00
  0.00000000E+00  0.00000000E+00  0.00000000E+00
  0.00000000E+00  0.00000000E+00  0.00000000E+00
  0.00000000E+00  0.00000000E+00  0.00000000E+00
  0.00000000E+00  0.00000000E+00  0.00000000E+00
  0.00000000E+00  0.00000000E+00  0.00000000E+00
  0.00000000E+00  0.00000000E+00  0.00000000E+00
  0.00000000E+00  0.00000000E+00  0.00000000E+00
  0.00000000E+00  0.00000000E+00  0.00000000E+00
  0.00000000E+00  0.00000000E+00  0.00000000E+00
  0.00000000E+00  0.00000000E+00  0.00000000E+00
  0.00000000E+00  0.00000000E+00  0.00000000E+00
  0.00000000E+00  0.00000000E+00  0.00000000E+00
  0.00000000E+00  0.00000000E+00  0.00000000E+00
  0.00000000E+00  0.00000000E+00  0.00000000E+00
  0.00000000E+00  0.00000000E+00  0.00000000E+00
  0.00000000E+00  0.00000000E+00  0.00000000E+00
  0.00000000E+00  0.00000000E+00  0.00000000E+00
  0.00000000E+00  0.00000000E+00  0.00000000E+00
  0.00000000E+00  0.00000000E+00  0.00000000E+00
  0.00000000E+00  0.00000000E+00  0.00000000E+00
  0.00000000E+00  0.00000000E+00  0.00000000E+00
  0.00000000E+00  0.00000000E+00  0.00000000E+00
  0.00000000E+00  0.00000000E+00  0.00000000E+00
  0.00000000E+00  0.00000000E+00  0.00000000E+00
  0.00000000E+00  0.00000000E+00  0.00000000E+00
  0.00000000E+00  0.00000000E+00  0.00000000E+00
  0.00000000E+00  0.00000000E+00  0.00000000E+00
  0.00000000E+00  0.00000000E+00  0.00000000E+00
  0.00000000E+00  0.00000000E+00  0.00000000E+00
  0.00000000E+00  0.00000000E+00  0.00000000E+00
  0.00000000E+00  0.00000000E+00  0.00000000E+00
  0.00000000E+00  0.00000000E+00  0.00000000E+00
  0.00000000E+00  0.00000000E+00  0.00000000E+00
  0.00000000E+00  0.00000000E+00  0.00000000E+00
  0.00000000E+00  0.00000000E+00  0.00000000E+00
  0.00000000E+00  0.00000000E+00  0.00000000E+00
  0.00000000E+00  0.00000000E+00  0.00000000E+00
  0.00000000E+00  0.00000000E+00  0.00000000E+00
  0.00000000E+00  0.00000000E+00  0.00000000E+00
  0.00000000E+00  0.00000000E+00  0.00000000E+00
  0.00000000E+00  0.00000000E+00  0.00000000E+00
  0.00000000E+00  0.00000000E+00  0.00000000E+00
  0.00000000E+00  0.00000000E+00  0.00000000E+00
  0.00000000E+00  0.00000000E+00  0.00000000E+00
  0.00000000E+00  0.00000000E+00  0.00000000E+00
  0.00000000E+00  0.00000000E+00  0.00000000E+00
  0.00000000E+00  0.00000000E+00  0.00000000E+00
  0.00000000E+00  0.00000000E+00  0.00000000E+00
  0.00000000E+00  0.00000000E+00  0.00000000E+00
  0.00000000E+00  0.00000000E+00  0.00000000E+00
  0.00000000E+00  0.00000000E+00  0.00000000E+00
  0.00000000E+00  0.00000000E+00  0.00000000E+00
  0.00000000E+00  0.00000000E+00  0.00000000E+00
  0.00000000E+00  0.00000000E+00  0.00000000E+00
  0.00000000E+00  0.00000000E+00  0.00000000E+00
  0.00000000E+00  0.00000000E+00  0.00000000E+00
  0.00000000E+00  0.00000000E+00  0.00000000E+00
  0.00000000E+00  0.00000000E+00  0.00000000E+00
  0.00000000E+00  0.00000000E+00  0.00000000E+00
  0.00000000E+00  0.00000000E+00  0.00000000E+00
  0.00000000E+00  0.00000000E+00  0.00000000E+00
  0.00000000E+00  0.00000000E+00  0.00000000E+00
