Al   N                                  
   1.00000000000000     
    -9.3519808674151719   -0.0000700484388589   -0.0000088959128587
    -4.6760503401085129    8.0990189335978204    0.0000033782829332
     0.0000094960571911    0.0000083723079495   -9.9757623244135178
   Al   N 
    36    35
Direct
  0.1090110212267490  0.0919895495343042  0.3018863898371791
  0.2225075050596672  0.2054860204951225  0.0514280246324503
  0.7781881593506057  0.0941249570963976  0.8028154818809270
  0.8879388800093153  0.2063471368315248  0.5532708617698958
  0.4495007723860525  0.0919893789951871  0.3018863542255517
  0.5559656374113331  0.2061004084832234  0.0523954135709062
  0.1111023505484070  0.0940804437910430  0.8029517138561957
  0.2225077072496191  0.2054859202336417  0.5600568459603892
  0.7783498488470357  0.0938014148237514  0.3023626973056679
  0.8884353383939043  0.2061004827850610  0.0523954474830504
  0.4453184468374403  0.0940806305504438  0.8029516272972614
  0.5562157663646801  0.2063471313005323  0.5532708480210360
  0.1090109473270076  0.4324791310794467  0.3018863524214765
  0.2231220675348737  0.5389439153872573  0.0523954348998004
  0.7778721841617795  0.4278036687200597  0.8029549309844981
  0.8879388463479643  0.5391936782907791  0.5532708490496319
  0.4451581809306049  0.4281366471477952  0.3019959115809456
  0.5558410681225254  0.5388193073376470  0.0522834910196366
  0.1111024318053779  0.4282967544599998  0.8029516696473351
  0.2233689803711059  0.5391938163691563  0.5532708313727213
  0.7772059217493990  0.4281367799308882  0.3019959749073493
  0.8884353065860324  0.5389438452595101  0.0523953921459466
  0.4448253352695843  0.4278036607373394  0.8029549025576230
  0.5558411967091388  0.5388192662232925  0.5532648137863632
  0.1108231863461455  0.7613281993761731  0.3023626972605769
  0.2231220917760481  0.8714136587723331  0.0523954580255150
  0.7781882007794110  0.7611665279540958  0.8028154588814189
  0.8891745319662547  0.8721525539702881  0.5530652321104554
  0.4451582034905286  0.7601845947259207  0.3019959210731784
  0.5559656271277973  0.8714135434844152  0.0523953841262070
  0.1111468310206831  0.7611663916357756  0.8028154654761437
  0.2233689788755200  0.8709169296454746  0.5532708233843806
  0.7783498896194487  0.7613283582534294  0.3023626751763118
  0.8891744032806628  0.8721526032784226  0.0523395721679591
  0.4448253193378093  0.7608505713264009  0.8029549021353048
  0.5562157281258848  0.8709167934557343  0.5532708337872876
  0.1120990261182655  0.0950774019518761  0.1129015873083929
  0.8895942612421592  0.2052118415773663  0.8615819433612870
  0.7780256978115929  0.0944502691706575  0.6115182842483975
  0.5546820015607992  0.2061293862804732  0.3620825547770323
  0.4433247160818894  0.0950774171658608  0.1129015479663806
  0.2225076597054567  0.2054859762658268  0.8604422126510869
  0.1114786685109195  0.0944567324452237  0.6097827407672796
  0.8896897543983684  0.2061294617925142  0.3620825652968449
  0.7780066356890671  0.0944880575308460  0.1119648758931220
  0.5556952179723353  0.2052118881586367  0.8615819013859607
  0.4445660732977643  0.0944567952629711  0.6097826464012854
  0.2231509913859782  0.5376603412194569  0.3620825409478172
  0.1120990279182550  0.4263031464537903  0.1129015559062623
  0.8895942851711638  0.5386735045543674  0.8615818822313557
  0.7780545989744780  0.4277125268504847  0.6119267911974617
  0.5558407336133584  0.5388193782317003  0.3619891360015188
  0.4447480550537293  0.4277263662480806  0.1116545849434445
  0.2222335842673999  0.5386735547806936  0.8615819257381716
  0.1114786919046367  0.4275441987424955  0.6097826960434745
  0.8896897168957167  0.5376604115006884  0.3620825400134322
  0.7780268304119318  0.4277264033841774  0.1116546736501149
  0.5558409349853264  0.5388193365402287  0.8617087446182197
  0.4447343958208876  0.4277125298482858  0.6119267427404722
  0.2231510003884836  0.8726682648485706  0.3620825367878808
  0.1115097993537617  0.7609849078114266  0.1119648808688183
  0.8891744742666319  0.8721526050178383  0.8616208094940134
  0.7780256710649596  0.7610037016102851  0.6115182671947537
  0.5546820253605276  0.8726681505202691  0.3620825310666120
  0.4447480528646182  0.7610051752468792  0.1116545958765514
  0.2222335753388904  0.8725725069728014  0.8615819458902791
  0.1114722079419366  0.7610037397513096  0.6115182623995707
  0.8891744097533234  0.8721526261954509  0.3618605649024005
  0.7780066331196878  0.7609849219734528  0.1119648517161593
  0.5556952153421193  0.8725725572514023  0.8615818652168912
  0.4447343785867730  0.7610327403144979  0.6119267408956048
 
  0.00000000E+00  0.00000000E+00  0.00000000E+00
  0.00000000E+00  0.00000000E+00  0.00000000E+00
  0.00000000E+00  0.00000000E+00  0.00000000E+00
  0.00000000E+00  0.00000000E+00  0.00000000E+00
  0.00000000E+00  0.00000000E+00  0.00000000E+00
  0.00000000E+00  0.00000000E+00  0.00000000E+00
  0.00000000E+00  0.00000000E+00  0.00000000E+00
  0.00000000E+00  0.00000000E+00  0.00000000E+00
  0.00000000E+00  0.00000000E+00  0.00000000E+00
  0.00000000E+00  0.00000000E+00  0.00000000E+00
  0.00000000E+00  0.00000000E+00  0.00000000E+00
  0.00000000E+00  0.00000000E+00  0.00000000E+00
  0.00000000E+00  0.00000000E+00  0.00000000E+00
  0.00000000E+00  0.00000000E+00  0.00000000E+00
  0.00000000E+00  0.00000000E+00  0.00000000E+00
  0.00000000E+00  0.00000000E+00  0.00000000E+00
  0.00000000E+00  0.00000000E+00  0.00000000E+00
  0.00000000E+00  0.00000000E+00  0.00000000E+00
  0.00000000E+00  0.00000000E+00  0.00000000E+00
  0.00000000E+00  0.00000000E+00  0.00000000E+00
  0.00000000E+00  0.00000000E+00  0.00000000E+00
  0.00000000E+00  0.00000000E+00  0.00000000E+00
  0.00000000E+00  0.00000000E+00  0.00000000E+00
  0.00000000E+00  0.00000000E+00  0.00000000E+00
  0.00000000E+00  0.00000000E+00  0.00000000E+00
  0.00000000E+00  0.00000000E+00  0.00000000E+00
  0.00000000E+00  0.00000000E+00  0.00000000E+00
  0.00000000E+00  0.00000000E+00  0.00000000E+00
  0.00000000E+00  0.00000000E+00  0.00000000E+00
  0.00000000E+00  0.00000000E+00  0.00000000E+00
  0.00000000E+00  0.00000000E+00  0.00000000E+00
  0.00000000E+00  0.00000000E+00  0.00000000E+00
  0.00000000E+00  0.00000000E+00  0.00000000E+00
  0.00000000E+00  0.00000000E+00  0.00000000E+00
  0.00000000E+00  0.00000000E+00  0.00000000E+00
  0.00000000E+00  0.00000000E+00  0.00000000E+00
  0.00000000E+00  0.00000000E+00  0.00000000E+00
  0.00000000E+00  0.00000000E+00  0.00000000E+00
  0.00000000E+00  0.00000000E+00  0.00000000E+00
  0.00000000E+00  0.00000000E+00  0.00000000E+00
  0.00000000E+00  0.00000000E+00  0.00000000E+00
  0.00000000E+00  0.00000000E+00  0.00000000E+00
  0.00000000E+00  0.00000000E+00  0.00000000E+00
  0.00000000E+00  0.00000000E+00  0.00000000E+00
  0.00000000E+00  0.00000000E+00  0.00000000E+00
  0.00000000E+00  0.00000000E+00  0.00000000E+00
  0.00000000E+00  0.00000000E+00  0.00000000E+00
  0.00000000E+00  0.00000000E+00  0.00000000E+00
  0.00000000E+00  0.00000000E+00  0.00000000E+00
  0.00000000E+00  0.00000000E+00  0.00000000E+00
  0.00000000E+00  0.00000000E+00  0.00000000E+00
  0.00000000E+00  0.00000000E+00  0.00000000E+00
  0.00000000E+00  0.00000000E+00  0.00000000E+00
  0.00000000E+00  0.00000000E+00  0.00000000E+00
  0.00000000E+00  0.00000000E+00  0.00000000E+00
  0.00000000E+00  0.00000000E+00  0.00000000E+00
  0.00000000E+00  0.00000000E+00  0.00000000E+00
  0.00000000E+00  0.00000000E+00  0.00000000E+00
  0.00000000E+00  0.00000000E+00  0.00000000E+00
  0.00000000E+00  0.00000000E+00  0.00000000E+00
  0.00000000E+00  0.00000000E+00  0.00000000E+00
  0.00000000E+00  0.00000000E+00  0.00000000E+00
  0.00000000E+00  0.00000000E+00  0.00000000E+00
  0.00000000E+00  0.00000000E+00  0.00000000E+00
  0.00000000E+00  0.00000000E+00  0.00000000E+00
  0.00000000E+00  0.00000000E+00  0.00000000E+00
  0.00000000E+00  0.00000000E+00  0.00000000E+00
  0.00000000E+00  0.00000000E+00  0.00000000E+00
  0.00000000E+00  0.00000000E+00  0.00000000E+00
  0.00000000E+00  0.00000000E+00  0.00000000E+00
  0.00000000E+00  0.00000000E+00  0.00000000E+00
