Al   N                                  
   1.00000000000000     
    -9.3521243244600800   -0.0000725202437253   -0.0000104188884492
    -4.6759976889923198    8.0991368273957498    0.0000036415021284
    -0.0000143856893088   -0.0000191214534478   -9.9761379581436991
   Al   N 
    36    35
Direct
  0.1090005063476625  0.0920910292069834  0.2948832588212156
  0.2224825878926495  0.2055808341835572  0.0444249186165351
  0.7781986765406828  0.0941705093874035  0.7958446326922370
  0.8879570284396436  0.2063733110478481  0.5462944394038090
  0.4495176747663763  0.0920388469791789  0.2948911586075411
  0.5559246591364584  0.2062237105961273  0.0454230449957720
  0.1111120309074849  0.0941448318705369  0.7959737460690377
  0.2225271561752891  0.2055136145818182  0.5529977016006100
  0.7783244072463447  0.0938984399823113  0.2954072199711106
  0.8883873915437874  0.2062175627998712  0.0454281804990373
  0.4453179679816088  0.0941330562557212  0.7959543616712850
  0.5562245749418153  0.2063757982286560  0.5463022382557128
  0.1089667075613647  0.4325877634681277  0.2948853736552337
  0.2230696969752444  0.5390670360469372  0.0454248243588538
  0.7779012341735410  0.4278486239819799  0.7959853937645462
  0.8879518630452949  0.5392134644513575  0.5463088893330053
  0.4451231444327277  0.4282123382225436  0.2950344344933029
  0.5557957169385972  0.5389289605000513  0.0453364440226665
  0.1111513021639823  0.4283245917230047  0.7959553479387935
  0.2233787633930859  0.5392364134533310  0.5462940641810832
  0.7771857524234989  0.4282156222940259  0.2950381335501575
  0.8884038813273776  0.5390332772095761  0.0454160960335415
  0.4448503798529728  0.4278572242321772  0.7959848495983550
  0.5558503816113429  0.5388444759066360  0.5462933416313760
  0.1107987495750820  0.7614298409890168  0.2954085917522775
  0.2230654720433236  0.8715253305049586  0.0454169350929234
  0.7782108803206640  0.7611988859741246  0.7958497414499348
  0.8891798430793614  0.8721767718772782  0.5460914396641670
  0.4451217584764322  0.7602780543216525  0.2950365913957995
  0.5559285677660455  0.8715000213651436  0.0454196386617056
  0.1111695531964045  0.7612104204801540  0.7958435345507056
  0.2233667146589440  0.8709676463031926  0.5463024464156092
  0.7783166521249498  0.7614047625024014  0.2954006736893291
  0.8891176119757702  0.8722622089891559  0.0453945114261032
  0.4448380382823132  0.7609013684263033  0.7959814840150301
  0.5562276649676861  0.8709276121132348  0.5463054920980568
  0.1120585058244075  0.0951901506962898  0.1059047636883079
  0.8896044015257374  0.2052616143191983  0.8546156331870236
  0.7780396878191809  0.0944748354947649  0.6045411179872033
  0.5546528610558283  0.2062045019654377  0.3551251068944765
  0.4433001282283371  0.0951754751326988  0.1059241095574208
  0.2225257101071634  0.2055338756537353  0.8534538424910778
  0.1114911397959304  0.0945049824864199  0.6028121575628802
  0.8896968601054382  0.2061990851345783  0.3551158653335804
  0.7779527780070481  0.0946095918114267  0.1050149195109569
  0.5556983002473359  0.2052640142980096  0.8546125748245217
  0.4445608629639963  0.0944863301181726  0.6027926900824241
  0.2231120710385497  0.5377423447472793  0.3551158644877717
  0.1120630263095208  0.4264002844508568  0.1059238594549399
  0.8896445838289324  0.5387024353595820  0.8546093006540687
  0.7780675665182528  0.4277293579948704  0.6049609708416028
  0.5558144221232055  0.5388942921579840  0.3550182938514297
  0.4446925624595650  0.4278457981650234  0.1046998262199494
  0.2222586943731173  0.5387206689515622  0.8546135840298490
  0.1115085765540087  0.4275601912423639  0.6027852759567409
  0.8896717330009665  0.5377343775583654  0.3551238540504045
  0.7779873169386988  0.4278352614406487  0.1047022415184173
  0.5558659853236776  0.5388752230207174  0.8547557735694227
  0.4447494512455350  0.4277367953545905  0.6049539420069792
  0.2231195854296715  0.8727809424356323  0.3551235200043408
  0.1114586551106811  0.7610968440325010  0.1050137361081909
  0.8891877735661140  0.8722017861256717  0.8546712240696976
  0.7780401000409398  0.7610229264789368  0.6045496371097698
  0.5546565798649112  0.8727445148784838  0.3551260919168087
  0.4446888395555249  0.7611177958721029  0.1046981141329084
  0.2222409766282993  0.8726396837594521  0.8546042804648337
  0.1114801528510156  0.7610424792506549  0.6045457501350811
  0.8891438159260829  0.8722370273886142  0.3548914003759691
  0.7779627716000022  0.7610742936595116  0.1050062763655077
  0.5557037438858927  0.8726312945252346  0.8546129009596442
  0.4447371894928409  0.7610525267508521  0.6049530912388690
 
  0.00000000E+00  0.00000000E+00  0.00000000E+00
  0.00000000E+00  0.00000000E+00  0.00000000E+00
  0.00000000E+00  0.00000000E+00  0.00000000E+00
  0.00000000E+00  0.00000000E+00  0.00000000E+00
  0.00000000E+00  0.00000000E+00  0.00000000E+00
  0.00000000E+00  0.00000000E+00  0.00000000E+00
  0.00000000E+00  0.00000000E+00  0.00000000E+00
  0.00000000E+00  0.00000000E+00  0.00000000E+00
  0.00000000E+00  0.00000000E+00  0.00000000E+00
  0.00000000E+00  0.00000000E+00  0.00000000E+00
  0.00000000E+00  0.00000000E+00  0.00000000E+00
  0.00000000E+00  0.00000000E+00  0.00000000E+00
  0.00000000E+00  0.00000000E+00  0.00000000E+00
  0.00000000E+00  0.00000000E+00  0.00000000E+00
  0.00000000E+00  0.00000000E+00  0.00000000E+00
  0.00000000E+00  0.00000000E+00  0.00000000E+00
  0.00000000E+00  0.00000000E+00  0.00000000E+00
  0.00000000E+00  0.00000000E+00  0.00000000E+00
  0.00000000E+00  0.00000000E+00  0.00000000E+00
  0.00000000E+00  0.00000000E+00  0.00000000E+00
  0.00000000E+00  0.00000000E+00  0.00000000E+00
  0.00000000E+00  0.00000000E+00  0.00000000E+00
  0.00000000E+00  0.00000000E+00  0.00000000E+00
  0.00000000E+00  0.00000000E+00  0.00000000E+00
  0.00000000E+00  0.00000000E+00  0.00000000E+00
  0.00000000E+00  0.00000000E+00  0.00000000E+00
  0.00000000E+00  0.00000000E+00  0.00000000E+00
  0.00000000E+00  0.00000000E+00  0.00000000E+00
  0.00000000E+00  0.00000000E+00  0.00000000E+00
  0.00000000E+00  0.00000000E+00  0.00000000E+00
  0.00000000E+00  0.00000000E+00  0.00000000E+00
  0.00000000E+00  0.00000000E+00  0.00000000E+00
  0.00000000E+00  0.00000000E+00  0.00000000E+00
  0.00000000E+00  0.00000000E+00  0.00000000E+00
  0.00000000E+00  0.00000000E+00  0.00000000E+00
  0.00000000E+00  0.00000000E+00  0.00000000E+00
  0.00000000E+00  0.00000000E+00  0.00000000E+00
  0.00000000E+00  0.00000000E+00  0.00000000E+00
  0.00000000E+00  0.00000000E+00  0.00000000E+00
  0.00000000E+00  0.00000000E+00  0.00000000E+00
  0.00000000E+00  0.00000000E+00  0.00000000E+00
  0.00000000E+00  0.00000000E+00  0.00000000E+00
  0.00000000E+00  0.00000000E+00  0.00000000E+00
  0.00000000E+00  0.00000000E+00  0.00000000E+00
  0.00000000E+00  0.00000000E+00  0.00000000E+00
  0.00000000E+00  0.00000000E+00  0.00000000E+00
  0.00000000E+00  0.00000000E+00  0.00000000E+00
  0.00000000E+00  0.00000000E+00  0.00000000E+00
  0.00000000E+00  0.00000000E+00  0.00000000E+00
  0.00000000E+00  0.00000000E+00  0.00000000E+00
  0.00000000E+00  0.00000000E+00  0.00000000E+00
  0.00000000E+00  0.00000000E+00  0.00000000E+00
  0.00000000E+00  0.00000000E+00  0.00000000E+00
  0.00000000E+00  0.00000000E+00  0.00000000E+00
  0.00000000E+00  0.00000000E+00  0.00000000E+00
  0.00000000E+00  0.00000000E+00  0.00000000E+00
  0.00000000E+00  0.00000000E+00  0.00000000E+00
  0.00000000E+00  0.00000000E+00  0.00000000E+00
  0.00000000E+00  0.00000000E+00  0.00000000E+00
  0.00000000E+00  0.00000000E+00  0.00000000E+00
  0.00000000E+00  0.00000000E+00  0.00000000E+00
  0.00000000E+00  0.00000000E+00  0.00000000E+00
  0.00000000E+00  0.00000000E+00  0.00000000E+00
  0.00000000E+00  0.00000000E+00  0.00000000E+00
  0.00000000E+00  0.00000000E+00  0.00000000E+00
  0.00000000E+00  0.00000000E+00  0.00000000E+00
  0.00000000E+00  0.00000000E+00  0.00000000E+00
  0.00000000E+00  0.00000000E+00  0.00000000E+00
  0.00000000E+00  0.00000000E+00  0.00000000E+00
  0.00000000E+00  0.00000000E+00  0.00000000E+00
  0.00000000E+00  0.00000000E+00  0.00000000E+00
