Al   N                                  
   1.00000000000000     
    -9.4481662537964297   -0.0000379149755959    0.0000109027698180
    -4.7241129023968549    8.1823350430636044   -0.0000000435666039
    -0.0000090414345734   -0.0000048305789201   -9.7069850059025189
   Al   N 
    36    35
Direct
  0.1095793091649284  0.0923083046207438  0.3797846799139393
  0.2225384356054363  0.2052671671488895  0.1241807257389738
  0.7781465024331382  0.0940508462354046  0.8811018418545800
  0.8892590923779977  0.2055908115940781  0.6312161007773085
  0.4484562324025134  0.0923082610599977  0.3797846897683428
  0.5566173756971153  0.2065174200540767  0.1315365553668641
  0.1108355950073658  0.0935645588859728  0.8829863323463201
  0.2225382915809178  0.2052672686317649  0.6346677806246745
  0.7784929647917807  0.0933578964472659  0.3821995718916114
  0.8872091426534396  0.2065173846412094  0.1315365637391395
  0.4459437568051143  0.0935645098081750  0.8829862949584779
  0.5554939699469088  0.2055908029206606  0.6312160988536917
  0.1095793009849402  0.4311852678450236  0.3797846957163671
  0.2237885165298934  0.5393463234118556  0.1315365666246677
  0.7782671781799166  0.4274027776274067  0.8808952503963283
  0.8892591270549559  0.5382228121421235  0.6312161049251444
  0.4453530215715631  0.4280818264189392  0.3825808383222835
  0.5558717082271798  0.5386005440589017  0.1305482992326432
  0.1108356502057575  0.4286726175995454  0.8829863326381400
  0.2228620115704487  0.5382228006597671  0.6312161012329014
  0.7769090315927798  0.4280818397410400  0.3825808574007397
  0.8872091765385690  0.5393462253209265  0.1315365619571622
  0.4446739532948669  0.4274027912103406  0.8808952638622003
  0.5558716908976606  0.5386005578865749  0.6324796352634650
  0.1106290575400948  0.7612218731488767  0.3821996210080201
  0.2237885143881755  0.8699379734418571  0.1315365645623245
  0.7781464987305000  0.7608753461723694  0.8811018336030685
  0.8892050497754767  0.8719338304216961  0.6323383533233553
  0.4453529745368030  0.7596379566651379  0.3825808377995159
  0.5566174139957312  0.8699379396764826  0.1315365574785972
  0.1113220604585123  0.7608753668891879  0.8811017994891444
  0.2228619616044369  0.8719880596836020  0.6312161029982803
  0.7784929710317172  0.7612218377911475  0.3821995796950759
  0.8892050174695711  0.8719338639658432  0.1308440487578153
  0.4446739281744527  0.7609960377875495  0.8808952640482275
  0.5554939549764129  0.8719880218184386  0.6312160999207563
  0.1114016678369580  0.0941305073020331  0.0809862456235564
  0.8902337208383955  0.2046317020378723  0.8270153291361027
  0.7780913213261798  0.0941611678320271  0.5772088867889238
  0.5551686487371370  0.2061515481626444  0.3270728833080483
  0.4448117550026183  0.0941304622069126  0.0809862009912337
  0.2225383504482110  0.2052672459902212  0.8309253874531848
  0.1128428034206692  0.0955717635069320  0.5741506494127364
  0.8890236695197231  0.2061515616494631  0.3270728863881374
  0.7779790538414417  0.0943857276092004  0.0770758678595911
  0.5554784833878159  0.2046317082337339  0.8270153259048598
  0.4419292285596157  0.0955717506880234  0.5741506591720835
  0.2234226931761540  0.5378975703704683  0.3270728996649410
  0.1114017083968122  0.4275405337332288  0.0809862498505325
  0.8902337631602393  0.5382073215101144  0.8270153306550938
  0.7779419627075654  0.4275653539186948  0.5775465672204732
  0.5558716935752699  0.5386005742540974  0.3265456434727554
  0.4447319470384556  0.4274608156333954  0.0765959579888928
  0.2219028849207803  0.5382073265361882  0.8270153287805542
  0.1128428480615185  0.4246581829340812  0.5741506481329495
  0.8890236949703336  0.5378975303672675  0.3270728871222346
  0.7781511378254748  0.4274607798330123  0.0765959391791213
  0.5558717107825331  0.5386005603408179  0.8275252098254953
  0.4448365749961312  0.4275653463915390  0.5775465517868525
  0.2234226515297379  0.8717526350297504  0.3270728989585479
  0.1116568748717981  0.7607079316565120  0.0770758285749409
  0.8892050546242203  0.8719338498025522  0.8275770514118008
  0.7780913182706968  0.7608201520449924  0.5772088946581633
  0.5551686652796235  0.8717526090758057  0.3270728878924345
  0.4447319328334061  0.7608799572271465  0.0765959600712023
  0.2219028416827769  0.8729626889607260  0.8270153367450135
  0.1114324137197471  0.7608201649881750  0.5772089298732155
  0.8892050471634008  0.8719338572791742  0.3267161124791329
  0.7779790727945866  0.7607078778305763  0.0770758584361602
  0.5554784637007160  0.8729626447768197  0.8270153299607301
  0.4448365327461445  0.7606708175952477  0.5775465558594490
 
  0.00000000E+00  0.00000000E+00  0.00000000E+00
  0.00000000E+00  0.00000000E+00  0.00000000E+00
  0.00000000E+00  0.00000000E+00  0.00000000E+00
  0.00000000E+00  0.00000000E+00  0.00000000E+00
  0.00000000E+00  0.00000000E+00  0.00000000E+00
  0.00000000E+00  0.00000000E+00  0.00000000E+00
  0.00000000E+00  0.00000000E+00  0.00000000E+00
  0.00000000E+00  0.00000000E+00  0.00000000E+00
  0.00000000E+00  0.00000000E+00  0.00000000E+00
  0.00000000E+00  0.00000000E+00  0.00000000E+00
  0.00000000E+00  0.00000000E+00  0.00000000E+00
  0.00000000E+00  0.00000000E+00  0.00000000E+00
  0.00000000E+00  0.00000000E+00  0.00000000E+00
  0.00000000E+00  0.00000000E+00  0.00000000E+00
  0.00000000E+00  0.00000000E+00  0.00000000E+00
  0.00000000E+00  0.00000000E+00  0.00000000E+00
  0.00000000E+00  0.00000000E+00  0.00000000E+00
  0.00000000E+00  0.00000000E+00  0.00000000E+00
  0.00000000E+00  0.00000000E+00  0.00000000E+00
  0.00000000E+00  0.00000000E+00  0.00000000E+00
  0.00000000E+00  0.00000000E+00  0.00000000E+00
  0.00000000E+00  0.00000000E+00  0.00000000E+00
  0.00000000E+00  0.00000000E+00  0.00000000E+00
  0.00000000E+00  0.00000000E+00  0.00000000E+00
  0.00000000E+00  0.00000000E+00  0.00000000E+00
  0.00000000E+00  0.00000000E+00  0.00000000E+00
  0.00000000E+00  0.00000000E+00  0.00000000E+00
  0.00000000E+00  0.00000000E+00  0.00000000E+00
  0.00000000E+00  0.00000000E+00  0.00000000E+00
  0.00000000E+00  0.00000000E+00  0.00000000E+00
  0.00000000E+00  0.00000000E+00  0.00000000E+00
  0.00000000E+00  0.00000000E+00  0.00000000E+00
  0.00000000E+00  0.00000000E+00  0.00000000E+00
  0.00000000E+00  0.00000000E+00  0.00000000E+00
  0.00000000E+00  0.00000000E+00  0.00000000E+00
  0.00000000E+00  0.00000000E+00  0.00000000E+00
  0.00000000E+00  0.00000000E+00  0.00000000E+00
  0.00000000E+00  0.00000000E+00  0.00000000E+00
  0.00000000E+00  0.00000000E+00  0.00000000E+00
  0.00000000E+00  0.00000000E+00  0.00000000E+00
  0.00000000E+00  0.00000000E+00  0.00000000E+00
  0.00000000E+00  0.00000000E+00  0.00000000E+00
  0.00000000E+00  0.00000000E+00  0.00000000E+00
  0.00000000E+00  0.00000000E+00  0.00000000E+00
  0.00000000E+00  0.00000000E+00  0.00000000E+00
  0.00000000E+00  0.00000000E+00  0.00000000E+00
  0.00000000E+00  0.00000000E+00  0.00000000E+00
  0.00000000E+00  0.00000000E+00  0.00000000E+00
  0.00000000E+00  0.00000000E+00  0.00000000E+00
  0.00000000E+00  0.00000000E+00  0.00000000E+00
  0.00000000E+00  0.00000000E+00  0.00000000E+00
  0.00000000E+00  0.00000000E+00  0.00000000E+00
  0.00000000E+00  0.00000000E+00  0.00000000E+00
  0.00000000E+00  0.00000000E+00  0.00000000E+00
  0.00000000E+00  0.00000000E+00  0.00000000E+00
  0.00000000E+00  0.00000000E+00  0.00000000E+00
  0.00000000E+00  0.00000000E+00  0.00000000E+00
  0.00000000E+00  0.00000000E+00  0.00000000E+00
  0.00000000E+00  0.00000000E+00  0.00000000E+00
  0.00000000E+00  0.00000000E+00  0.00000000E+00
  0.00000000E+00  0.00000000E+00  0.00000000E+00
  0.00000000E+00  0.00000000E+00  0.00000000E+00
  0.00000000E+00  0.00000000E+00  0.00000000E+00
  0.00000000E+00  0.00000000E+00  0.00000000E+00
  0.00000000E+00  0.00000000E+00  0.00000000E+00
  0.00000000E+00  0.00000000E+00  0.00000000E+00
  0.00000000E+00  0.00000000E+00  0.00000000E+00
  0.00000000E+00  0.00000000E+00  0.00000000E+00
  0.00000000E+00  0.00000000E+00  0.00000000E+00
  0.00000000E+00  0.00000000E+00  0.00000000E+00
  0.00000000E+00  0.00000000E+00  0.00000000E+00
