Al   N                                  
   1.00000000000000     
    -9.8610701136955097   -0.0000490380974946    0.0000040493796607
    -4.9305720720266626    8.5399157012807940    0.0000011409197744
    -0.0000038472842472   -0.0000009881943480   -8.4109298095924583
   Al   N 
    36    35
Direct
  0.1124475288842959  0.0951766973239714  0.3554434780158147
  0.2225379810924224  0.2052674636786804  0.0934095985425500
  0.7782367023298065  0.0938701334940362  0.8568145116581078
  0.8892241073287366  0.2057593051371569  0.6053457540521023
  0.4427191980134495  0.0951767217197812  0.3554434962603708
  0.5561150672137387  0.2063346436169624  0.1091425544373976
  0.1099929158736543  0.0927215618467230  0.8591995654676339
  0.2225380177780920  0.2052674285770166  0.6221426174463502
  0.7784155456311197  0.0935124269596201  0.3576376169182751
  0.8878939196998843  0.2063347076436557  0.1091425155434607
  0.4476288334009837  0.0927218004032468  0.8591995136479511
  0.5553602774218263  0.2057593667040862  0.6053457007666907
  0.1124474862516749  0.4254486152350694  0.3554434513651117
  0.2236063763602658  0.5388436871838564  0.1091425707712332
  0.7784865133545509  0.4272928853466311  0.8567115636916967
  0.8892240381776304  0.5380892018376713  0.6053457701173883
  0.4451239373043236  0.4278525144953846  0.3579003448973737
  0.5558718588516882  0.5386003849935648  0.1063186147114550
  0.1099928206567995  0.4303582601185312  0.8591996100875789
  0.2230308816392892  0.5380891070697373  0.6053457107809237
  0.7773674404566151  0.4278524811583893  0.3579003834467898
  0.8878938517750896  0.5388438846607144  0.1091425072777810
  0.4445645141682064  0.4272928519046246  0.8567115858922847
  0.5558718564647407  0.5386003849731296  0.6082964999047107
  0.1107840348699582  0.7611442979675260  0.3576375371375633
  0.2236062470784717  0.8706228608702773  0.1091426113482896
  0.7782365969400331  0.7609655386815817  0.8568145550832398
  0.8892051976172084  0.8719336486408125  0.6075515107917369
  0.4451239059880265  0.7600960219554622  0.3579003059523345
  0.5561148951463508  0.8706230328220599  0.1091425849974925
  0.1111417750622792  0.7609654090498310  0.8568145975186567
  0.2230308754108279  0.8719528097494731  0.6053456545743074
  0.7784154337840761  0.7611444291167970  0.3576375738875512
  0.8892052416520571  0.8719336088706697  0.1069693824855236
  0.4445644209001216  0.7612151065386357  0.8567116105185448
  0.5553602095758663  0.8719529731264188  0.6053456594319826
  0.1129675318500460  0.0956964904150936  0.1073013557346130
  0.8909133451386921  0.2041128330636752  0.8516915463063839
  0.7779375967621291  0.0944684326571448  0.6018940460817674
  0.5552277297411123  0.2054354313447959  0.3522981488089911
  0.4416793384859616  0.0956966583210175  0.1073013623341836
  0.2225380384434033  0.2052673961822222  0.8553043898242976
  0.1138669654674018  0.0965957567863711  0.5967524034109886
  0.8896804537039458  0.2054354497307287  0.3522981291389655
  0.7778936919886519  0.0945562442635364  0.1020992165636869
  0.5553174812597348  0.2041128506885812  0.8516915389244417
  0.4398806972322546  0.0965959295970080  0.5967524326851077
  0.2227069486307300  0.5379564600479512  0.3522981035456922
  0.1129675285461431  0.4244087552373514  0.1073013603241293
  0.8909132888711113  0.5380462836136459  0.8516915595083319
  0.7781706318563977  0.4274508972540119  0.6025908286988511
  0.5558718453960836  0.5386003514943383  0.3517961688054783
  0.4447179797960104  0.4274462446843401  0.1012968433299477
  0.2213844949602048  0.5380461807495607  0.8516915514437642
  0.1138669315559824  0.4226100161783179  0.5967523573638616
  0.8896804127558013  0.5379566089031798  0.3522980991792366
  0.7781797675677424  0.4274462818017000  0.1012968036526232
  0.5558718292216938  0.5386003637480741  0.8520579189003286
  0.4447224794374804  0.4274509190307256  0.6025907949912153
  0.2227068697090999  0.8724094090961714  0.3522981236827221
  0.1118279596878793  0.7606223480238725  0.1020992300410128
  0.8892052425823920  0.8719335574543194  0.8521390603888008
  0.7779375140005911  0.7606664215667536  0.6018940428259256
  0.5552276260265998  0.8724094972825966  0.3522981426913745
  0.4447178805535259  0.7609083082573420  0.1012968728339487
  0.2213844388364947  0.8736420655793964  0.8516915479028029
  0.1117400207093127  0.7606663152808508  0.6018940187490784
  0.8892052226917500  0.8719335767648175  0.3518116105636082
  0.7778935787727974  0.7606224891751054  0.1020992077073828
  0.5553173741750328  0.8736422363022385  0.8516915465795236
  0.4447224456499654  0.7608990935911777  0.6025907707831379
 
  0.00000000E+00  0.00000000E+00  0.00000000E+00
  0.00000000E+00  0.00000000E+00  0.00000000E+00
  0.00000000E+00  0.00000000E+00  0.00000000E+00
  0.00000000E+00  0.00000000E+00  0.00000000E+00
  0.00000000E+00  0.00000000E+00  0.00000000E+00
  0.00000000E+00  0.00000000E+00  0.00000000E+00
  0.00000000E+00  0.00000000E+00  0.00000000E+00
  0.00000000E+00  0.00000000E+00  0.00000000E+00
  0.00000000E+00  0.00000000E+00  0.00000000E+00
  0.00000000E+00  0.00000000E+00  0.00000000E+00
  0.00000000E+00  0.00000000E+00  0.00000000E+00
  0.00000000E+00  0.00000000E+00  0.00000000E+00
  0.00000000E+00  0.00000000E+00  0.00000000E+00
  0.00000000E+00  0.00000000E+00  0.00000000E+00
  0.00000000E+00  0.00000000E+00  0.00000000E+00
  0.00000000E+00  0.00000000E+00  0.00000000E+00
  0.00000000E+00  0.00000000E+00  0.00000000E+00
  0.00000000E+00  0.00000000E+00  0.00000000E+00
  0.00000000E+00  0.00000000E+00  0.00000000E+00
  0.00000000E+00  0.00000000E+00  0.00000000E+00
  0.00000000E+00  0.00000000E+00  0.00000000E+00
  0.00000000E+00  0.00000000E+00  0.00000000E+00
  0.00000000E+00  0.00000000E+00  0.00000000E+00
  0.00000000E+00  0.00000000E+00  0.00000000E+00
  0.00000000E+00  0.00000000E+00  0.00000000E+00
  0.00000000E+00  0.00000000E+00  0.00000000E+00
  0.00000000E+00  0.00000000E+00  0.00000000E+00
  0.00000000E+00  0.00000000E+00  0.00000000E+00
  0.00000000E+00  0.00000000E+00  0.00000000E+00
  0.00000000E+00  0.00000000E+00  0.00000000E+00
  0.00000000E+00  0.00000000E+00  0.00000000E+00
  0.00000000E+00  0.00000000E+00  0.00000000E+00
  0.00000000E+00  0.00000000E+00  0.00000000E+00
  0.00000000E+00  0.00000000E+00  0.00000000E+00
  0.00000000E+00  0.00000000E+00  0.00000000E+00
  0.00000000E+00  0.00000000E+00  0.00000000E+00
  0.00000000E+00  0.00000000E+00  0.00000000E+00
  0.00000000E+00  0.00000000E+00  0.00000000E+00
  0.00000000E+00  0.00000000E+00  0.00000000E+00
  0.00000000E+00  0.00000000E+00  0.00000000E+00
  0.00000000E+00  0.00000000E+00  0.00000000E+00
  0.00000000E+00  0.00000000E+00  0.00000000E+00
  0.00000000E+00  0.00000000E+00  0.00000000E+00
  0.00000000E+00  0.00000000E+00  0.00000000E+00
  0.00000000E+00  0.00000000E+00  0.00000000E+00
  0.00000000E+00  0.00000000E+00  0.00000000E+00
  0.00000000E+00  0.00000000E+00  0.00000000E+00
  0.00000000E+00  0.00000000E+00  0.00000000E+00
  0.00000000E+00  0.00000000E+00  0.00000000E+00
  0.00000000E+00  0.00000000E+00  0.00000000E+00
  0.00000000E+00  0.00000000E+00  0.00000000E+00
  0.00000000E+00  0.00000000E+00  0.00000000E+00
  0.00000000E+00  0.00000000E+00  0.00000000E+00
  0.00000000E+00  0.00000000E+00  0.00000000E+00
  0.00000000E+00  0.00000000E+00  0.00000000E+00
  0.00000000E+00  0.00000000E+00  0.00000000E+00
  0.00000000E+00  0.00000000E+00  0.00000000E+00
  0.00000000E+00  0.00000000E+00  0.00000000E+00
  0.00000000E+00  0.00000000E+00  0.00000000E+00
  0.00000000E+00  0.00000000E+00  0.00000000E+00
  0.00000000E+00  0.00000000E+00  0.00000000E+00
  0.00000000E+00  0.00000000E+00  0.00000000E+00
  0.00000000E+00  0.00000000E+00  0.00000000E+00
  0.00000000E+00  0.00000000E+00  0.00000000E+00
  0.00000000E+00  0.00000000E+00  0.00000000E+00
  0.00000000E+00  0.00000000E+00  0.00000000E+00
  0.00000000E+00  0.00000000E+00  0.00000000E+00
  0.00000000E+00  0.00000000E+00  0.00000000E+00
  0.00000000E+00  0.00000000E+00  0.00000000E+00
  0.00000000E+00  0.00000000E+00  0.00000000E+00
  0.00000000E+00  0.00000000E+00  0.00000000E+00
