Al   N                                  
   1.00000000000000     
    -9.3521685182756329   -0.0000342072682963    0.0000131872332038
    -4.6761130290532735    8.0991997597117216   -0.0000004383953966
    -0.0000132194260245   -0.0000111917507476   -9.9753302390877057
   Al   N 
    36    35
Direct
  0.1090501688278138  0.0916973477408831  0.3921925831515409
  0.2225483675242899  0.2051953824059751  0.1340432797413413
  0.7782287597951125  0.0938345820499080  0.8912667802551866
  0.8884773558465042  0.2058097503734757  0.6416868493229870
  0.4495449193146612  0.0916971035435878  0.3921926311742041
  0.5562567718978642  0.2060568708944146  0.1408129741612854
  0.1111440632948373  0.0937910008285598  0.8911347676669266
  0.2225483128219778  0.2051954364347992  0.6426541299747797
  0.7783906737352240  0.0935108105200015  0.3917206988682906
  0.8879790533592242  0.2060568460385710  0.1408129386696828
  0.4453570308767922  0.0937911895780701  0.8911349295825559
  0.5560053442305417  0.2058096519697088  0.6416868395593269
  0.1090500075662604  0.4321919565598265  0.3921926181265221
  0.2234098730390031  0.5389037101948446  0.1408129554227813
  0.7779133683561739  0.4275128451118491  0.8911282544327932
  0.8884772683126556  0.5386522575891917  0.6416869196942585
  0.4451991165516063  0.4278462403318457  0.3920867514043636
  0.5558818743111047  0.5385288242052582  0.1408188678548683
  0.1111442157994276  0.4280040697735927  0.8911348936942289
  0.2231625872541159  0.5386523680227597  0.6416867996157265
  0.7772462856285713  0.4278463621044040  0.3920867060852302
  0.8879789658839670  0.5389035462629650  0.1408129665142113
  0.4448657595099519  0.4275128412927671  0.8911282202555739
  0.5558817873662676  0.5385288088707583  0.6417991065056299
  0.1108638274778855  0.7610377243375837  0.3917206714907664
  0.2234098509887730  0.8706259787741004  0.1408129313090569
  0.7782288641319397  0.7608759281945296  0.8912668005088165
  0.8892151088407303  0.8718620814886648  0.6417432570098285
  0.4451991827842363  0.7598935284714372  0.3920866934694445
  0.5562566889730292  0.8706258055095688  0.1408129691683655
  0.1111876264704037  0.7608757984930179  0.8912667417665716
  0.2231626546480427  0.8711244140515788  0.6416867744505481
  0.7783907360098112  0.7610378261585993  0.3917207269719469
  0.8892151845291778  0.8718620761905456  0.1410176430398522
  0.4448657440645292  0.7605604991589701  0.8911282245139915
  0.5560053006949914  0.8711242330403053  0.6416868943072558
  0.1115204264230414  0.0941673322608025  0.0843126404399968
  0.8896364793627995  0.2049206549838232  0.8325087966954641
  0.7780473595040078  0.0941976427883517  0.5821259414754110
  0.5547243470332219  0.2058393485073182  0.3320080860570940
  0.4446045629041251  0.0941673919104744  0.0843128640678614
  0.2225483918811832  0.2051954192230596  0.8336479808241961
  0.1121405030360592  0.0947875884174252  0.5811848946205558
  0.8897284794955667  0.2058394227127351  0.3320080568451331
  0.7780663347084698  0.0941598270515129  0.0825719964392206
  0.5557350130243108  0.2049206839840707  0.8325087506809723
  0.4433641268532540  0.0947875085929013  0.5811849444519837
  0.2231922642883788  0.5373713853911255  0.3320080730378621
  0.1115204890712107  0.4272514878222182  0.0843127995377344
  0.8896365366949297  0.5383820156623429  0.8325088563040595
  0.7780676408265350  0.4274357998785234  0.5824355594429136
  0.5558815115073870  0.5385287148436149  0.3321015446674735
  0.4447751617489999  0.4274221087743229  0.0821642267584437
  0.2222736230104445  0.5383820902682643  0.8325087164679701
  0.1121404934440307  0.4260111502991464  0.5811849190564971
  0.8897283530981994  0.5373713930833262  0.3320080878860736
  0.7780951538818499  0.4274220757949507  0.0821642466111427
  0.5558816280332124  0.5385287485133787  0.8323818317361003
  0.4447887649509283  0.4274357659096353  0.5824355840141990
  0.2231922970915363  0.8723756277756038  0.3320080509498737
  0.1115129232809480  0.7607132380017418  0.0825719551406507
  0.8892151531907331  0.8718620988518353  0.8324694401608284
  0.7780473176770357  0.7606942679885051  0.5821259480803036
  0.5547243668842512  0.8723754231669716  0.3320080859589467
  0.4447751069949248  0.7607421116635322  0.0821642257338127
  0.2222736189648344  0.8722835172732175  0.8325087111167022
  0.1115506495356300  0.7606943501459327  0.5821259079721131
  0.8892151481915889  0.8718621052981916  0.3322300516448919
  0.7780663001953201  0.7607131704733803  0.0825719787412424
  0.5557350000436614  0.8722835430100275  0.8325088230939457
  0.4447887633436949  0.7607146797170827  0.5824355287071867
 
  0.00000000E+00  0.00000000E+00  0.00000000E+00
  0.00000000E+00  0.00000000E+00  0.00000000E+00
  0.00000000E+00  0.00000000E+00  0.00000000E+00
  0.00000000E+00  0.00000000E+00  0.00000000E+00
  0.00000000E+00  0.00000000E+00  0.00000000E+00
  0.00000000E+00  0.00000000E+00  0.00000000E+00
  0.00000000E+00  0.00000000E+00  0.00000000E+00
  0.00000000E+00  0.00000000E+00  0.00000000E+00
  0.00000000E+00  0.00000000E+00  0.00000000E+00
  0.00000000E+00  0.00000000E+00  0.00000000E+00
  0.00000000E+00  0.00000000E+00  0.00000000E+00
  0.00000000E+00  0.00000000E+00  0.00000000E+00
  0.00000000E+00  0.00000000E+00  0.00000000E+00
  0.00000000E+00  0.00000000E+00  0.00000000E+00
  0.00000000E+00  0.00000000E+00  0.00000000E+00
  0.00000000E+00  0.00000000E+00  0.00000000E+00
  0.00000000E+00  0.00000000E+00  0.00000000E+00
  0.00000000E+00  0.00000000E+00  0.00000000E+00
  0.00000000E+00  0.00000000E+00  0.00000000E+00
  0.00000000E+00  0.00000000E+00  0.00000000E+00
  0.00000000E+00  0.00000000E+00  0.00000000E+00
  0.00000000E+00  0.00000000E+00  0.00000000E+00
  0.00000000E+00  0.00000000E+00  0.00000000E+00
  0.00000000E+00  0.00000000E+00  0.00000000E+00
  0.00000000E+00  0.00000000E+00  0.00000000E+00
  0.00000000E+00  0.00000000E+00  0.00000000E+00
  0.00000000E+00  0.00000000E+00  0.00000000E+00
  0.00000000E+00  0.00000000E+00  0.00000000E+00
  0.00000000E+00  0.00000000E+00  0.00000000E+00
  0.00000000E+00  0.00000000E+00  0.00000000E+00
  0.00000000E+00  0.00000000E+00  0.00000000E+00
  0.00000000E+00  0.00000000E+00  0.00000000E+00
  0.00000000E+00  0.00000000E+00  0.00000000E+00
  0.00000000E+00  0.00000000E+00  0.00000000E+00
  0.00000000E+00  0.00000000E+00  0.00000000E+00
  0.00000000E+00  0.00000000E+00  0.00000000E+00
  0.00000000E+00  0.00000000E+00  0.00000000E+00
  0.00000000E+00  0.00000000E+00  0.00000000E+00
  0.00000000E+00  0.00000000E+00  0.00000000E+00
  0.00000000E+00  0.00000000E+00  0.00000000E+00
  0.00000000E+00  0.00000000E+00  0.00000000E+00
  0.00000000E+00  0.00000000E+00  0.00000000E+00
  0.00000000E+00  0.00000000E+00  0.00000000E+00
  0.00000000E+00  0.00000000E+00  0.00000000E+00
  0.00000000E+00  0.00000000E+00  0.00000000E+00
  0.00000000E+00  0.00000000E+00  0.00000000E+00
  0.00000000E+00  0.00000000E+00  0.00000000E+00
  0.00000000E+00  0.00000000E+00  0.00000000E+00
  0.00000000E+00  0.00000000E+00  0.00000000E+00
  0.00000000E+00  0.00000000E+00  0.00000000E+00
  0.00000000E+00  0.00000000E+00  0.00000000E+00
  0.00000000E+00  0.00000000E+00  0.00000000E+00
  0.00000000E+00  0.00000000E+00  0.00000000E+00
  0.00000000E+00  0.00000000E+00  0.00000000E+00
  0.00000000E+00  0.00000000E+00  0.00000000E+00
  0.00000000E+00  0.00000000E+00  0.00000000E+00
  0.00000000E+00  0.00000000E+00  0.00000000E+00
  0.00000000E+00  0.00000000E+00  0.00000000E+00
  0.00000000E+00  0.00000000E+00  0.00000000E+00
  0.00000000E+00  0.00000000E+00  0.00000000E+00
  0.00000000E+00  0.00000000E+00  0.00000000E+00
  0.00000000E+00  0.00000000E+00  0.00000000E+00
  0.00000000E+00  0.00000000E+00  0.00000000E+00
  0.00000000E+00  0.00000000E+00  0.00000000E+00
  0.00000000E+00  0.00000000E+00  0.00000000E+00
  0.00000000E+00  0.00000000E+00  0.00000000E+00
  0.00000000E+00  0.00000000E+00  0.00000000E+00
  0.00000000E+00  0.00000000E+00  0.00000000E+00
  0.00000000E+00  0.00000000E+00  0.00000000E+00
  0.00000000E+00  0.00000000E+00  0.00000000E+00
  0.00000000E+00  0.00000000E+00  0.00000000E+00
