Al   N                                  
   1.00000000000000     
    -9.6060115421178143   -0.0000576894145270   -0.0000012810349061
    -4.8030480741400492    8.3190273553097178    0.0000020621869574
    -0.0000007991535100    0.0000012254418456   -9.2259048169774420
   Al   N 
    36    35
Direct
  0.1114395365230436  0.0941684037255897  0.3391528280503024
  0.2225382679573826  0.2052673352024428  0.0758841311275873
  0.7780566102841675  0.0942305615325552  0.8343170394417143
  0.8862430390933298  0.2070451870063437  0.5820252345387331
  0.4447358991069024  0.0941683406565232  0.3391529063488434
  0.5548941175616378  0.2051943319799321  0.0850379026964774
  0.1097927539844221  0.0925216993222620  0.8298852520112945
  0.2225382384361794  0.2052673326884289  0.5987987326288291
  0.7786102303593410  0.0931233586131484  0.3322265532703028
  0.8902553703933833  0.2051943943029002  0.0850379049548806
  0.4480291798703746  0.0925217623303567  0.8298851802591045
  0.5570555930096717  0.2070451605960741  0.5820252294271313
  0.1114394160529244  0.4274649926525740  0.3391529307133254
  0.2224657372397303  0.5376228698853538  0.0850379147869376
  0.7787077687750354  0.4271823792968235  0.8347249605271401
  0.8862429884970098  0.5397845364311351  0.5820252504807115
  0.4454901979221333  0.4282187969082045  0.3316574895590065
  0.5558717752555538  0.5386005036721144  0.0815530192941267
  0.1097927294915451  0.4307584190772573  0.8298851471103035
  0.2243163996067707  0.5397844592276257  0.5820252232394267
  0.7766348686404854  0.4282188485072496  0.3316574965541434
  0.8902553865282314  0.5376229160732962  0.0850378897306854
  0.4444537941089592  0.4271823667055870  0.8347249642722758
  0.5558717241452484  0.5386005148241466  0.5850605778451339
  0.1103947676072679  0.7613389809767099  0.3322265927764008
  0.2224657285156297  0.8729842561023844  0.0850379080535717
  0.7780565349267761  0.7607853827287485  0.8343170834007552
  0.8892051306462889  0.8719337532490314  0.5845008289088724
  0.4454901320610603  0.7593636957297321  0.3316575829326140
  0.5548940411326839  0.8729843123541414  0.0850378994767667
  0.1115020965524351  0.7607853157158502  0.8343169916835436
  0.2243162824329232  0.8689721727962620  0.5820252247838127
  0.7786102063818490  0.7613389924798142  0.3322265025513502
  0.8892052084655333  0.8719337303008601  0.0819776921993736
  0.4444537453514741  0.7614364690038116  0.8347248732931192
  0.5570555467210809  0.8689721084788573  0.5820252280034879
  0.1139552344137655  0.0966841521283186  0.1318071930573197
  0.8908581866764678  0.2042144560093533  0.8774567933553001
  0.7778382571172671  0.0946671441008817  0.6271026685088259
  0.5554667995142140  0.2062405876244497  0.3758437800084238
  0.4397042780231146  0.0966841752276437  0.1318072810433364
  0.2225381715543406  0.2052674544844493  0.8668449435351775
  0.1111794958834054  0.0939086037954340  0.6199609124435526
  0.8886364864633194  0.2062406199097495  0.3758437759634674
  0.7781706131448871  0.0940024901881387  0.1261630720188407
  0.5552712182217761  0.2042144251884821  0.8774567774534958
  0.4452555302303196  0.0939085823242465  0.6199608369046743
  0.2235118845839708  0.5381956454340653  0.3758437806449848
  0.1139552333322769  0.4224333523361281  0.1318072909785499
  0.8908581970621867  0.5380000937455236  0.8774567710200856
  0.7783480976326658  0.4273622252219127  0.6278572345248179
  0.5558717089837515  0.5386005590026954  0.3778063125684454
  0.4449274181770306  0.4276560641619511  0.1255915351815204
  0.2214857411470561  0.5380000769448401  0.8774567728644200
  0.1111795124247621  0.4279846847338646  0.6199607999336507
  0.8886364066710115  0.5381957341242227  0.3758437989446435
  0.7777603660411643  0.4276560955478246  0.1255915447247489
  0.5558717506308213  0.5386005510574776  0.8756879203321972
  0.4446334586661251  0.4273622066157827  0.6278572277232968
  0.2235117990856565  0.8713654973309062  0.3758437794994762
  0.1112739034717265  0.7608993943770486  0.1261631154113161
  0.8892051903574938  0.8719337597623138  0.8757007900758040
  0.7778381965565089  0.7605671753540122  0.6271027209683240
  0.5554668171198927  0.8713654362407510  0.3758437825856831
  0.4449273840675829  0.7604891199453547  0.1255916165140007
  0.2214857156925731  0.8735871430043218  0.8774567689896244
  0.1119384922547937  0.7605671246131749  0.6271026243258362
  0.8892051112695469  0.8719338101369800  0.3776009588479425
  0.7781705751209458  0.7608994390839356  0.1261630197222132
  0.5552711229106251  0.8735872130745719  0.8774567703177212
  0.4446334018101510  0.7610769973652154  0.6278571376297890
 
  0.00000000E+00  0.00000000E+00  0.00000000E+00
  0.00000000E+00  0.00000000E+00  0.00000000E+00
  0.00000000E+00  0.00000000E+00  0.00000000E+00
  0.00000000E+00  0.00000000E+00  0.00000000E+00
  0.00000000E+00  0.00000000E+00  0.00000000E+00
  0.00000000E+00  0.00000000E+00  0.00000000E+00
  0.00000000E+00  0.00000000E+00  0.00000000E+00
  0.00000000E+00  0.00000000E+00  0.00000000E+00
  0.00000000E+00  0.00000000E+00  0.00000000E+00
  0.00000000E+00  0.00000000E+00  0.00000000E+00
  0.00000000E+00  0.00000000E+00  0.00000000E+00
  0.00000000E+00  0.00000000E+00  0.00000000E+00
  0.00000000E+00  0.00000000E+00  0.00000000E+00
  0.00000000E+00  0.00000000E+00  0.00000000E+00
  0.00000000E+00  0.00000000E+00  0.00000000E+00
  0.00000000E+00  0.00000000E+00  0.00000000E+00
  0.00000000E+00  0.00000000E+00  0.00000000E+00
  0.00000000E+00  0.00000000E+00  0.00000000E+00
  0.00000000E+00  0.00000000E+00  0.00000000E+00
  0.00000000E+00  0.00000000E+00  0.00000000E+00
  0.00000000E+00  0.00000000E+00  0.00000000E+00
  0.00000000E+00  0.00000000E+00  0.00000000E+00
  0.00000000E+00  0.00000000E+00  0.00000000E+00
  0.00000000E+00  0.00000000E+00  0.00000000E+00
  0.00000000E+00  0.00000000E+00  0.00000000E+00
  0.00000000E+00  0.00000000E+00  0.00000000E+00
  0.00000000E+00  0.00000000E+00  0.00000000E+00
  0.00000000E+00  0.00000000E+00  0.00000000E+00
  0.00000000E+00  0.00000000E+00  0.00000000E+00
  0.00000000E+00  0.00000000E+00  0.00000000E+00
  0.00000000E+00  0.00000000E+00  0.00000000E+00
  0.00000000E+00  0.00000000E+00  0.00000000E+00
  0.00000000E+00  0.00000000E+00  0.00000000E+00
  0.00000000E+00  0.00000000E+00  0.00000000E+00
  0.00000000E+00  0.00000000E+00  0.00000000E+00
  0.00000000E+00  0.00000000E+00  0.00000000E+00
  0.00000000E+00  0.00000000E+00  0.00000000E+00
  0.00000000E+00  0.00000000E+00  0.00000000E+00
  0.00000000E+00  0.00000000E+00  0.00000000E+00
  0.00000000E+00  0.00000000E+00  0.00000000E+00
  0.00000000E+00  0.00000000E+00  0.00000000E+00
  0.00000000E+00  0.00000000E+00  0.00000000E+00
  0.00000000E+00  0.00000000E+00  0.00000000E+00
  0.00000000E+00  0.00000000E+00  0.00000000E+00
  0.00000000E+00  0.00000000E+00  0.00000000E+00
  0.00000000E+00  0.00000000E+00  0.00000000E+00
  0.00000000E+00  0.00000000E+00  0.00000000E+00
  0.00000000E+00  0.00000000E+00  0.00000000E+00
  0.00000000E+00  0.00000000E+00  0.00000000E+00
  0.00000000E+00  0.00000000E+00  0.00000000E+00
  0.00000000E+00  0.00000000E+00  0.00000000E+00
  0.00000000E+00  0.00000000E+00  0.00000000E+00
  0.00000000E+00  0.00000000E+00  0.00000000E+00
  0.00000000E+00  0.00000000E+00  0.00000000E+00
  0.00000000E+00  0.00000000E+00  0.00000000E+00
  0.00000000E+00  0.00000000E+00  0.00000000E+00
  0.00000000E+00  0.00000000E+00  0.00000000E+00
  0.00000000E+00  0.00000000E+00  0.00000000E+00
  0.00000000E+00  0.00000000E+00  0.00000000E+00
  0.00000000E+00  0.00000000E+00  0.00000000E+00
  0.00000000E+00  0.00000000E+00  0.00000000E+00
  0.00000000E+00  0.00000000E+00  0.00000000E+00
  0.00000000E+00  0.00000000E+00  0.00000000E+00
  0.00000000E+00  0.00000000E+00  0.00000000E+00
  0.00000000E+00  0.00000000E+00  0.00000000E+00
  0.00000000E+00  0.00000000E+00  0.00000000E+00
  0.00000000E+00  0.00000000E+00  0.00000000E+00
  0.00000000E+00  0.00000000E+00  0.00000000E+00
  0.00000000E+00  0.00000000E+00  0.00000000E+00
  0.00000000E+00  0.00000000E+00  0.00000000E+00
  0.00000000E+00  0.00000000E+00  0.00000000E+00
