Al   B    N                             
   1.00000000000000     
    -9.2817799301422053   -0.0055888101047536   -0.0008043397247333
    -4.6598308362899559    8.0152747151560426   -0.0014213550266559
    -0.0405836424021573   -0.0304464471602386  -10.0667400978963730
   Al   B    N 
    33     3    36
Direct
  0.1127153781553218  0.0882158169724576  0.3967021722792623
  0.2230880246809832  0.2054220636284612  0.0754388383605828
  0.7768938739334388  0.0881955092560531  0.8174719195312719
  0.8891455228543848  0.2018911687269522  0.6025653552665986
  0.4484071106421226  0.0889743586914093  0.3178041437361543
  0.5628499458466862  0.2032159780611522  0.0724341587978330
  0.0957098361310216  0.0977369047008665  0.8886546609197552
  0.2306796528493607  0.2077792394317370  0.5732684517040667
  0.7824499156445910  0.0939405505084139  0.3308474444843910
  0.4448676123636162  0.0916084759633478  0.8303759676243629
  0.5601017040907834  0.1978128221178963  0.5698957780574432
  0.1119092646584789  0.4289396973095023  0.3221659854050714
  0.2232607445271739  0.5373820410491135  0.0695989381982827
  0.7759304734388337  0.4312635121640582  0.8144164656903143
  0.8903912973862163  0.5466662901119079  0.5692707762837230
  0.4437101246876551  0.4287340054465787  0.3230615683788827
  0.5624557580631802  0.5338882970596046  0.0729817503480135
  0.1106993549945159  0.4239307865387616  0.8217156167800326
  0.2161135119967312  0.5458661225887980  0.5731417505258776
  0.7820560268500358  0.4215298336209798  0.3294140807847583
  0.8863613522265439  0.5351004434456570  0.0729473356833168
  0.4467364394986220  0.4261070075817770  0.8211245702458854
  0.5540273215736491  0.5443175879090774  0.5688279621638728
  0.1054196159419476  0.7604659348199903  0.3221617805417907
  0.2162382020409694  0.8828229908254386  0.1326274957278599
  0.7770046887077626  0.7629737690059457  0.8307916543898060
  0.4537788683255712  0.7626748716736245  0.3167716725906118
  0.1011472261938451  0.7587359228638419  0.8302387667789262
  0.2167820988889133  0.8781589654720392  0.6485484464517839
  0.7738482491086529  0.7654019015291027  0.3192355652520931
  0.8843669794874813  0.8781333401197671  0.0783221866670587
  0.4512960783882889  0.7588337116255204  0.8355124662045057
  0.5605126222879520  0.8736924587696961  0.5752367519022812
  0.8867687668547219  0.2064606269190250  0.1135711041140013
  0.8857821087608926  0.8712550102977303  0.5984361103208471
  0.5589285962074015  0.8687435143182114  0.0689583742806619
  0.2276839648851379  0.2077702878519645  0.3789186533633639
  0.0736487139273692  0.1125791693012843  0.0860379456995375
  0.8879045779058146  0.2038517902873664  0.8203838198867857
  0.7871430733172105  0.0608179087028446  0.6255398955804949
  0.5548894032244931  0.2046916561716046  0.3797736725293319
  0.4586971676742522  0.0693005564816147  0.1254612301821680
  0.2226090561400014  0.2048285901701163  0.8860216418520679
  0.1213849638909963  0.0881161643047292  0.5862985679191581
  0.8819349395779099  0.2083611084935768  0.3956451561423293
  0.7922283649687571  0.1113449527854087  0.1320866010730128
  0.5573108019359481  0.2044230445676263  0.8837182597830164
  0.4472304118152479  0.0934378140477392  0.6399625897751449
  0.2219977043678014  0.5410031101248620  0.3847832721608455
  0.1107921676697359  0.4285650236051239  0.1331586206267374
  0.8880440162833025  0.5373170624183885  0.8837952597461722
  0.7736648838065534  0.4413639245428342  0.6259786032345858
  0.5540677816389135  0.5425585456242956  0.3781671960727593
  0.4442145566246083  0.4277298326592316  0.1330424608507315
  0.2230467729928236  0.5350593940588055  0.8806677270419243
  0.1112526348034706  0.4285280952092378  0.6329271224445066
  0.8881211034669363  0.5416051157767114  0.3786970611946856
  0.7934287262870185  0.3971959097745170  0.1322965646587733
  0.5583951164141041  0.5346819376624410  0.8857746211117927
  0.4463168243410323  0.4277562724556105  0.6304721378191118
  0.2222348972004937  0.8769953923173688  0.3257349430000360
  0.1085269468574452  0.7568631147273450  0.1278762795983042
  0.8839099639136876  0.8751653860490052  0.8918861715962620
  0.7906742560424078  0.7740257627355476  0.6343530864411235
  0.5561761227779627  0.8728354613213440  0.3882496602494925
  0.4628819789629688  0.7707904357012509  0.1211962159765179
  0.2184714153663307  0.8727702692752572  0.8445075694515367
  0.0794296591632744  0.7743484186205905  0.6330830386477828
  0.8865906107974340  0.8711192377883705  0.3761065582186021
  0.7523704666793662  0.7716962395813738  0.1253979480922780
  0.5570883087450440  0.8719354496304419  0.9042646934055796
  0.4523362823319772  0.7603910876237876  0.6404835958025501
 
  0.00000000E+00  0.00000000E+00  0.00000000E+00
  0.00000000E+00  0.00000000E+00  0.00000000E+00
  0.00000000E+00  0.00000000E+00  0.00000000E+00
  0.00000000E+00  0.00000000E+00  0.00000000E+00
  0.00000000E+00  0.00000000E+00  0.00000000E+00
  0.00000000E+00  0.00000000E+00  0.00000000E+00
  0.00000000E+00  0.00000000E+00  0.00000000E+00
  0.00000000E+00  0.00000000E+00  0.00000000E+00
  0.00000000E+00  0.00000000E+00  0.00000000E+00
  0.00000000E+00  0.00000000E+00  0.00000000E+00
  0.00000000E+00  0.00000000E+00  0.00000000E+00
  0.00000000E+00  0.00000000E+00  0.00000000E+00
  0.00000000E+00  0.00000000E+00  0.00000000E+00
  0.00000000E+00  0.00000000E+00  0.00000000E+00
  0.00000000E+00  0.00000000E+00  0.00000000E+00
  0.00000000E+00  0.00000000E+00  0.00000000E+00
  0.00000000E+00  0.00000000E+00  0.00000000E+00
  0.00000000E+00  0.00000000E+00  0.00000000E+00
  0.00000000E+00  0.00000000E+00  0.00000000E+00
  0.00000000E+00  0.00000000E+00  0.00000000E+00
  0.00000000E+00  0.00000000E+00  0.00000000E+00
  0.00000000E+00  0.00000000E+00  0.00000000E+00
  0.00000000E+00  0.00000000E+00  0.00000000E+00
  0.00000000E+00  0.00000000E+00  0.00000000E+00
  0.00000000E+00  0.00000000E+00  0.00000000E+00
  0.00000000E+00  0.00000000E+00  0.00000000E+00
  0.00000000E+00  0.00000000E+00  0.00000000E+00
  0.00000000E+00  0.00000000E+00  0.00000000E+00
  0.00000000E+00  0.00000000E+00  0.00000000E+00
  0.00000000E+00  0.00000000E+00  0.00000000E+00
  0.00000000E+00  0.00000000E+00  0.00000000E+00
  0.00000000E+00  0.00000000E+00  0.00000000E+00
  0.00000000E+00  0.00000000E+00  0.00000000E+00
  0.00000000E+00  0.00000000E+00  0.00000000E+00
  0.00000000E+00  0.00000000E+00  0.00000000E+00
  0.00000000E+00  0.00000000E+00  0.00000000E+00
  0.00000000E+00  0.00000000E+00  0.00000000E+00
  0.00000000E+00  0.00000000E+00  0.00000000E+00
  0.00000000E+00  0.00000000E+00  0.00000000E+00
  0.00000000E+00  0.00000000E+00  0.00000000E+00
  0.00000000E+00  0.00000000E+00  0.00000000E+00
  0.00000000E+00  0.00000000E+00  0.00000000E+00
  0.00000000E+00  0.00000000E+00  0.00000000E+00
  0.00000000E+00  0.00000000E+00  0.00000000E+00
  0.00000000E+00  0.00000000E+00  0.00000000E+00
  0.00000000E+00  0.00000000E+00  0.00000000E+00
  0.00000000E+00  0.00000000E+00  0.00000000E+00
  0.00000000E+00  0.00000000E+00  0.00000000E+00
  0.00000000E+00  0.00000000E+00  0.00000000E+00
  0.00000000E+00  0.00000000E+00  0.00000000E+00
  0.00000000E+00  0.00000000E+00  0.00000000E+00
  0.00000000E+00  0.00000000E+00  0.00000000E+00
  0.00000000E+00  0.00000000E+00  0.00000000E+00
  0.00000000E+00  0.00000000E+00  0.00000000E+00
  0.00000000E+00  0.00000000E+00  0.00000000E+00
  0.00000000E+00  0.00000000E+00  0.00000000E+00
  0.00000000E+00  0.00000000E+00  0.00000000E+00
  0.00000000E+00  0.00000000E+00  0.00000000E+00
  0.00000000E+00  0.00000000E+00  0.00000000E+00
  0.00000000E+00  0.00000000E+00  0.00000000E+00
  0.00000000E+00  0.00000000E+00  0.00000000E+00
  0.00000000E+00  0.00000000E+00  0.00000000E+00
  0.00000000E+00  0.00000000E+00  0.00000000E+00
  0.00000000E+00  0.00000000E+00  0.00000000E+00
  0.00000000E+00  0.00000000E+00  0.00000000E+00
  0.00000000E+00  0.00000000E+00  0.00000000E+00
  0.00000000E+00  0.00000000E+00  0.00000000E+00
  0.00000000E+00  0.00000000E+00  0.00000000E+00
  0.00000000E+00  0.00000000E+00  0.00000000E+00
  0.00000000E+00  0.00000000E+00  0.00000000E+00
  0.00000000E+00  0.00000000E+00  0.00000000E+00
  0.00000000E+00  0.00000000E+00  0.00000000E+00
