Al   B    N                             
   1.00000000000000     
    -9.2709434078658290   -0.0038359988510024   -0.0012250868405669
    -4.6859564289246194    8.0607699413358187   -0.0014488728527615
    -0.0554500221998223   -0.0940868111802678  -10.1970195134869890
   Al   B    N 
    33     3    36
Direct
  0.1154364720472003  0.0940405961978428  0.3968123145108393
  0.2132881580141586  0.2045054690544390  0.1371518919868464
  0.7799333062504701  0.0844789263902825  0.8202973341608839
  0.8892982669970735  0.2000497111849029  0.6008928797971933
  0.4537126731771934  0.0844723125422462  0.3244772499297355
  0.5626353327841684  0.2002909361809913  0.0670555944668081
  0.0976822952051535  0.1009800843065491  0.8872096030425993
  0.2141430249244181  0.2111491526427258  0.6430049866467371
  0.7836720507225579  0.0982011967654870  0.3180239816953545
  0.4480634308861795  0.0933425189092176  0.8163328437672064
  0.5613215613344380  0.1959746716821087  0.5636123866032676
  0.1128035940860954  0.4270103572306567  0.3858359541217879
  0.2188173663748287  0.5417374182814072  0.1453246771520185
  0.7724635163163924  0.4313645526021759  0.8163092523676170
  0.8930250790340892  0.5458118151168918  0.6175825993843631
  0.4527945508010518  0.4231641707524432  0.3207473538941201
  0.5636408779010722  0.5282787511241978  0.0712940464271412
  0.1132108236869698  0.4281821761753548  0.8922825888654415
  0.2123073440386563  0.5464488386472084  0.6359973349098524
  0.7830147661265840  0.4178894784068632  0.3246692442758601
  0.8858361596363977  0.5350109958960445  0.1144708932098979
  0.4500047426496252  0.4241389599762542  0.8181645666303012
  0.5572971734670844  0.5327077540978280  0.5660346656740032
  0.1018585250630011  0.7680927943046711  0.3857145065385126
  0.2202747967259526  0.8792129242289732  0.1425635259555733
  0.7817236903380120  0.7656270386060484  0.8304453245970507
  0.4385299101689100  0.7681664288430738  0.3951317130972427
  0.1150721163125610  0.7586405249133321  0.8970248390190108
  0.2148890246057320  0.8754661531731358  0.6464951101026131
  0.7696800044721783  0.7659267662774383  0.3165467008422667
  0.8870180757000341  0.8784314762816621  0.0999292523876179
  0.4432864118662962  0.7705630206980274  0.8870111309291957
  0.5582893549220032  0.8743298367495740  0.6016102960926730
  0.8860577068174464  0.2066578800155483  0.1053266864557187
  0.8904568474382586  0.8706392217538834  0.6062707051025384
  0.5537214057654793  0.8712217377860085  0.1046774220365805
  0.2186891655373913  0.2061013451856439  0.3242337227738474
  0.0779623808699981  0.1102756396106486  0.0819358699541368
  0.8865102475459850  0.2039710269566655  0.8203298796141993
  0.7915303793813635  0.0569792392170712  0.6242600056168115
  0.5589416965768166  0.2024936449763715  0.3768237390297671
  0.4637530215957000  0.0612848967274289  0.1255110672178716
  0.2140704949403016  0.2084915888876466  0.8341221652132376
  0.1220119472199244  0.0895841247679741  0.5819563899711611
  0.8828706126636945  0.2069746866650419  0.3944897416581128
  0.7909789838780625  0.1168677275765475  0.1239781377132019
  0.5544766802960126  0.2046485363875661  0.8817487409705294
  0.4430325614033279  0.1036295745698297  0.6272873125769962
  0.2191210331130478  0.5432712706381935  0.3346632547885946
  0.1177038371577268  0.4259069209460833  0.0791509142841704
  0.8872039399524567  0.5402174130310087  0.8570545504070068
  0.7728854318887954  0.4387881458461607  0.6260247009117776
  0.5592975675020497  0.5355726485300139  0.3760009937571667
  0.4519820834681880  0.4198383059587911  0.1319159393949434
  0.2139501953449852  0.5443042615957054  0.8243111276962622
  0.1144830304164088  0.4258730908002661  0.5733620768265837
  0.8929008879060447  0.5373918284104988  0.3274321207604487
  0.7931614450604769  0.3936118330331482  0.1261888879697182
  0.5537003465533701  0.5362114467155621  0.8855762295517806
  0.4540578957823911  0.4193683537680144  0.6279130240407795
  0.2210250438920411  0.8755094774224972  0.3284695442096890
  0.1274249263480201  0.7542222628863016  0.0818554677094241
  0.8814750434000160  0.8777478179333968  0.8989777181987435
  0.8029213312487613  0.7743892198160864  0.6272027497864059
  0.5615292810571688  0.8747839880999990  0.3951741237720938
  0.4542600393969352  0.7822440634644039  0.0846232427030316
  0.2180700560709923  0.8744970755592405  0.8337533012689846
  0.0813243621255282  0.7788134791438139  0.5807177977462032
  0.8925765673405124  0.8705924575130766  0.3120717646789117
  0.7395304114160339  0.7738013360486775  0.1200628731150033
  0.5554083790280515  0.8671852017580477  0.8215822359292346
  0.4330512411057867  0.7610444753185988  0.5841936371205563
 
  0.00000000E+00  0.00000000E+00  0.00000000E+00
  0.00000000E+00  0.00000000E+00  0.00000000E+00
  0.00000000E+00  0.00000000E+00  0.00000000E+00
  0.00000000E+00  0.00000000E+00  0.00000000E+00
  0.00000000E+00  0.00000000E+00  0.00000000E+00
  0.00000000E+00  0.00000000E+00  0.00000000E+00
  0.00000000E+00  0.00000000E+00  0.00000000E+00
  0.00000000E+00  0.00000000E+00  0.00000000E+00
  0.00000000E+00  0.00000000E+00  0.00000000E+00
  0.00000000E+00  0.00000000E+00  0.00000000E+00
  0.00000000E+00  0.00000000E+00  0.00000000E+00
  0.00000000E+00  0.00000000E+00  0.00000000E+00
  0.00000000E+00  0.00000000E+00  0.00000000E+00
  0.00000000E+00  0.00000000E+00  0.00000000E+00
  0.00000000E+00  0.00000000E+00  0.00000000E+00
  0.00000000E+00  0.00000000E+00  0.00000000E+00
  0.00000000E+00  0.00000000E+00  0.00000000E+00
  0.00000000E+00  0.00000000E+00  0.00000000E+00
  0.00000000E+00  0.00000000E+00  0.00000000E+00
  0.00000000E+00  0.00000000E+00  0.00000000E+00
  0.00000000E+00  0.00000000E+00  0.00000000E+00
  0.00000000E+00  0.00000000E+00  0.00000000E+00
  0.00000000E+00  0.00000000E+00  0.00000000E+00
  0.00000000E+00  0.00000000E+00  0.00000000E+00
  0.00000000E+00  0.00000000E+00  0.00000000E+00
  0.00000000E+00  0.00000000E+00  0.00000000E+00
  0.00000000E+00  0.00000000E+00  0.00000000E+00
  0.00000000E+00  0.00000000E+00  0.00000000E+00
  0.00000000E+00  0.00000000E+00  0.00000000E+00
  0.00000000E+00  0.00000000E+00  0.00000000E+00
  0.00000000E+00  0.00000000E+00  0.00000000E+00
  0.00000000E+00  0.00000000E+00  0.00000000E+00
  0.00000000E+00  0.00000000E+00  0.00000000E+00
  0.00000000E+00  0.00000000E+00  0.00000000E+00
  0.00000000E+00  0.00000000E+00  0.00000000E+00
  0.00000000E+00  0.00000000E+00  0.00000000E+00
  0.00000000E+00  0.00000000E+00  0.00000000E+00
  0.00000000E+00  0.00000000E+00  0.00000000E+00
  0.00000000E+00  0.00000000E+00  0.00000000E+00
  0.00000000E+00  0.00000000E+00  0.00000000E+00
  0.00000000E+00  0.00000000E+00  0.00000000E+00
  0.00000000E+00  0.00000000E+00  0.00000000E+00
  0.00000000E+00  0.00000000E+00  0.00000000E+00
  0.00000000E+00  0.00000000E+00  0.00000000E+00
  0.00000000E+00  0.00000000E+00  0.00000000E+00
  0.00000000E+00  0.00000000E+00  0.00000000E+00
  0.00000000E+00  0.00000000E+00  0.00000000E+00
  0.00000000E+00  0.00000000E+00  0.00000000E+00
  0.00000000E+00  0.00000000E+00  0.00000000E+00
  0.00000000E+00  0.00000000E+00  0.00000000E+00
  0.00000000E+00  0.00000000E+00  0.00000000E+00
  0.00000000E+00  0.00000000E+00  0.00000000E+00
  0.00000000E+00  0.00000000E+00  0.00000000E+00
  0.00000000E+00  0.00000000E+00  0.00000000E+00
  0.00000000E+00  0.00000000E+00  0.00000000E+00
  0.00000000E+00  0.00000000E+00  0.00000000E+00
  0.00000000E+00  0.00000000E+00  0.00000000E+00
  0.00000000E+00  0.00000000E+00  0.00000000E+00
  0.00000000E+00  0.00000000E+00  0.00000000E+00
  0.00000000E+00  0.00000000E+00  0.00000000E+00
  0.00000000E+00  0.00000000E+00  0.00000000E+00
  0.00000000E+00  0.00000000E+00  0.00000000E+00
  0.00000000E+00  0.00000000E+00  0.00000000E+00
  0.00000000E+00  0.00000000E+00  0.00000000E+00
  0.00000000E+00  0.00000000E+00  0.00000000E+00
  0.00000000E+00  0.00000000E+00  0.00000000E+00
  0.00000000E+00  0.00000000E+00  0.00000000E+00
  0.00000000E+00  0.00000000E+00  0.00000000E+00
  0.00000000E+00  0.00000000E+00  0.00000000E+00
  0.00000000E+00  0.00000000E+00  0.00000000E+00
  0.00000000E+00  0.00000000E+00  0.00000000E+00
  0.00000000E+00  0.00000000E+00  0.00000000E+00
