Al   B    N                             
   1.00000000000000     
    -9.2879325723021786   -0.0056167505073593   -0.0008181281204169
    -4.6555719418978470    8.0221778644766637   -0.0013402372182199
    -0.0419200912460783   -0.0359636712067067  -10.0135190377204371
   Al   B    N 
    33     3    36
Direct
  0.1136499044984802  0.0889480395788596  0.3955721388278945
  0.2222865798600822  0.2048543120884077  0.0741455736873249
  0.7769384403468607  0.0867607136310795  0.8110110292489736
  0.8890126865463586  0.2024135675584660  0.6011818728756353
  0.4480020848674471  0.0891416757894490  0.3160820023651922
  0.5632986852368091  0.2027792498595460  0.0716616133376533
  0.0953623113562969  0.0966084270686451  0.8862363130906701
  0.2307610924584367  0.2081117103071080  0.5731504025595626
  0.7826444435720106  0.0940626329183232  0.3344992465599077
  0.4448987311041108  0.0916026218051442  0.8297202565399360
  0.5592700551908294  0.1990901684789108  0.5689364687692873
  0.1126251400899108  0.4279971566202292  0.3204342467328019
  0.2209978504372927  0.5394502951864553  0.0693640879553072
  0.7758992322055036  0.4309309187337576  0.8136161386604641
  0.8902715543679918  0.5464371961590118  0.5681991140346483
  0.4441609169677392  0.4283721649409529  0.3213248829766400
  0.5623073199023096  0.5339052108034252  0.0716826761987335
  0.1101403527416664  0.4243530669395099  0.8213279012414745
  0.2177367492907081  0.5447032401337921  0.5721594329627209
  0.7822716054506103  0.4216920765160737  0.3276916978932434
  0.8857874617472987  0.5364326351860100  0.0721479663529294
  0.4463952781558191  0.4262418727072088  0.8207861457472205
  0.5544054660096265  0.5441161156161982  0.5681909348115681
  0.1062583501837366  0.7602908461056188  0.3285598880288632
  0.2145718215955128  0.8818720497693988  0.1329174661841819
  0.7772188238523796  0.7634818046219323  0.8239572969602165
  0.4543338525667338  0.7623914596736938  0.3159399807709207
  0.1000540110908048  0.7587126054439111  0.8215202027575046
  0.2183025666641001  0.8771972835234223  0.6444206152665544
  0.7745969731137592  0.7656618243387143  0.3224626632595715
  0.8839563988873991  0.8784893793412749  0.0727029960958632
  0.4507844078756307  0.7592829046420491  0.8345360751367181
  0.5604560617247358  0.8737196323437431  0.5740785869586915
  0.8873071141964104  0.2049545955602241  0.1140561382250027
  0.8848739309717502  0.8732810299958231  0.5699860968429888
  0.5582353804522739  0.8705972886061915  0.0679697076083201
  0.2282228752265638  0.2076464675608989  0.3773339435127099
  0.0734438487303422  0.1112200335411089  0.0859529348294856
  0.8869468120346511  0.2036010484426356  0.8194479926573379
  0.7860210248382558  0.0635492007943839  0.6194975763084045
  0.5547445389764292  0.2043561570178341  0.3776453087252989
  0.4580042804736095  0.0694070409752001  0.1235072340165573
  0.2219413772707810  0.2044068849906111  0.8843031493346984
  0.1213639793443733  0.0890103586256004  0.5858544964142993
  0.8838399284228800  0.2085341635810565  0.3930366080525118
  0.7929261703501354  0.1081833387891749  0.1347811984049585
  0.5583574726064811  0.2037939020404167  0.8821630062858432
  0.4472677662391504  0.0936365960448242  0.6387044659995027
  0.2231530320879074  0.5387920199784801  0.3831551182257016
  0.1104731822176674  0.4279912002551214  0.1310654045880568
  0.8869026132844837  0.5389051731446273  0.8821497091625119
  0.7739844093670740  0.4409161185444930  0.6242541328003526
  0.5546163626319753  0.5421127793151044  0.3765051997375579
  0.4433143337638867  0.4283015689060008  0.1308838362282714
  0.2217425872020939  0.5369619019139975  0.8794082498287992
  0.1112084842223169  0.4288252330173705  0.6317988788191542
  0.8890798878318336  0.5412586874322969  0.3764510285137987
  0.7933135547021521  0.3962758274182505  0.1303604663210294
  0.5581878762312584  0.5350574448113790  0.8841537467932739
  0.4465959515397273  0.4276994274635513  0.6293776494012704
  0.2229145397791328  0.8763013190853783  0.3271192589498710
  0.1029300924573775  0.7581363966063535  0.1334759602385276
  0.8845716680273839  0.8745562148196129  0.8869140737637764
  0.7898031534148799  0.7737498741056115  0.6279150084190519
  0.5559633825555608  0.8736695036460773  0.3864184694042834
  0.4624990688131305  0.7709412617128280  0.1202008225381661
  0.2181347237781210  0.8717781926051771  0.8429033242892956
  0.0835396794347574  0.7734090598516588  0.6254320264429012
  0.8879466501039701  0.8706266047059614  0.4000362581084147
  0.7537017214413737  0.7743376419579135  0.1273666759910199
  0.5584001487478076  0.8714738991795059  0.9029365335846364
  0.4530469335505458  0.7603960965473888  0.6387553063007445
 
  0.00000000E+00  0.00000000E+00  0.00000000E+00
  0.00000000E+00  0.00000000E+00  0.00000000E+00
  0.00000000E+00  0.00000000E+00  0.00000000E+00
  0.00000000E+00  0.00000000E+00  0.00000000E+00
  0.00000000E+00  0.00000000E+00  0.00000000E+00
  0.00000000E+00  0.00000000E+00  0.00000000E+00
  0.00000000E+00  0.00000000E+00  0.00000000E+00
  0.00000000E+00  0.00000000E+00  0.00000000E+00
  0.00000000E+00  0.00000000E+00  0.00000000E+00
  0.00000000E+00  0.00000000E+00  0.00000000E+00
  0.00000000E+00  0.00000000E+00  0.00000000E+00
  0.00000000E+00  0.00000000E+00  0.00000000E+00
  0.00000000E+00  0.00000000E+00  0.00000000E+00
  0.00000000E+00  0.00000000E+00  0.00000000E+00
  0.00000000E+00  0.00000000E+00  0.00000000E+00
  0.00000000E+00  0.00000000E+00  0.00000000E+00
  0.00000000E+00  0.00000000E+00  0.00000000E+00
  0.00000000E+00  0.00000000E+00  0.00000000E+00
  0.00000000E+00  0.00000000E+00  0.00000000E+00
  0.00000000E+00  0.00000000E+00  0.00000000E+00
  0.00000000E+00  0.00000000E+00  0.00000000E+00
  0.00000000E+00  0.00000000E+00  0.00000000E+00
  0.00000000E+00  0.00000000E+00  0.00000000E+00
  0.00000000E+00  0.00000000E+00  0.00000000E+00
  0.00000000E+00  0.00000000E+00  0.00000000E+00
  0.00000000E+00  0.00000000E+00  0.00000000E+00
  0.00000000E+00  0.00000000E+00  0.00000000E+00
  0.00000000E+00  0.00000000E+00  0.00000000E+00
  0.00000000E+00  0.00000000E+00  0.00000000E+00
  0.00000000E+00  0.00000000E+00  0.00000000E+00
  0.00000000E+00  0.00000000E+00  0.00000000E+00
  0.00000000E+00  0.00000000E+00  0.00000000E+00
  0.00000000E+00  0.00000000E+00  0.00000000E+00
  0.00000000E+00  0.00000000E+00  0.00000000E+00
  0.00000000E+00  0.00000000E+00  0.00000000E+00
  0.00000000E+00  0.00000000E+00  0.00000000E+00
  0.00000000E+00  0.00000000E+00  0.00000000E+00
  0.00000000E+00  0.00000000E+00  0.00000000E+00
  0.00000000E+00  0.00000000E+00  0.00000000E+00
  0.00000000E+00  0.00000000E+00  0.00000000E+00
  0.00000000E+00  0.00000000E+00  0.00000000E+00
  0.00000000E+00  0.00000000E+00  0.00000000E+00
  0.00000000E+00  0.00000000E+00  0.00000000E+00
  0.00000000E+00  0.00000000E+00  0.00000000E+00
  0.00000000E+00  0.00000000E+00  0.00000000E+00
  0.00000000E+00  0.00000000E+00  0.00000000E+00
  0.00000000E+00  0.00000000E+00  0.00000000E+00
  0.00000000E+00  0.00000000E+00  0.00000000E+00
  0.00000000E+00  0.00000000E+00  0.00000000E+00
  0.00000000E+00  0.00000000E+00  0.00000000E+00
  0.00000000E+00  0.00000000E+00  0.00000000E+00
  0.00000000E+00  0.00000000E+00  0.00000000E+00
  0.00000000E+00  0.00000000E+00  0.00000000E+00
  0.00000000E+00  0.00000000E+00  0.00000000E+00
  0.00000000E+00  0.00000000E+00  0.00000000E+00
  0.00000000E+00  0.00000000E+00  0.00000000E+00
  0.00000000E+00  0.00000000E+00  0.00000000E+00
  0.00000000E+00  0.00000000E+00  0.00000000E+00
  0.00000000E+00  0.00000000E+00  0.00000000E+00
  0.00000000E+00  0.00000000E+00  0.00000000E+00
  0.00000000E+00  0.00000000E+00  0.00000000E+00
  0.00000000E+00  0.00000000E+00  0.00000000E+00
  0.00000000E+00  0.00000000E+00  0.00000000E+00
  0.00000000E+00  0.00000000E+00  0.00000000E+00
  0.00000000E+00  0.00000000E+00  0.00000000E+00
  0.00000000E+00  0.00000000E+00  0.00000000E+00
  0.00000000E+00  0.00000000E+00  0.00000000E+00
  0.00000000E+00  0.00000000E+00  0.00000000E+00
  0.00000000E+00  0.00000000E+00  0.00000000E+00
  0.00000000E+00  0.00000000E+00  0.00000000E+00
  0.00000000E+00  0.00000000E+00  0.00000000E+00
  0.00000000E+00  0.00000000E+00  0.00000000E+00
