Al   B    N                             
   1.00000000000000     
    -9.2560734917889285   -0.0019815748620042   -0.0024117256385523
    -4.6270447986779102    8.0162227469101435   -0.0022716297558483
    -0.0029822424668098    0.0013574857709293   -9.8971004724943672
   Al   B    N 
    33     3    36
Direct
  0.1060273896114481  0.0967841953627797  0.2969800087798902
  0.2198476069516175  0.2026768052719490  0.0513582268473343
  0.7817780025651189  0.0906601600137904  0.8033034088130719
  0.8905037001335288  0.2000013253089890  0.5528774517127175
  0.4473288216435947  0.0886486543519709  0.2965675582570029
  0.5625178164283398  0.2019663840469832  0.0511552954927907
  0.1083677875741458  0.0955415586360431  0.8079638344773485
  0.2232378513225370  0.2033343943299997  0.5516952695419590
  0.7815925040437506  0.0941172461061015  0.3035749635253921
  0.4458341577996094  0.0921538025647877  0.8085147806733204
  0.5602366411999355  0.1982761525976073  0.5515002447589978
  0.1111038666932984  0.4276989606942649  0.3010638780936716
  0.2207114336711840  0.5410366613701356  0.0505213313058093
  0.7790381080970334  0.4248359964770358  0.8076319748086505
  0.8888491367828237  0.5428825632835199  0.5516423789927742
  0.4443137454165509  0.4275211492439865  0.3015573654774713
  0.5607386974523791  0.5368030828732557  0.0514427960756194
  0.1106163662763464  0.4278439826947746  0.8010165213897977
  0.2172506769356346  0.5421807986677507  0.5513486620658767
  0.7806924722715536  0.4224555156237599  0.2971828714908185
  0.8845882992738012  0.5389977292784920  0.0512725428747345
  0.4447674759408713  0.4278931917876392  0.8007060658323226
  0.5569297315453454  0.5393745775841694  0.5511526643958433
  0.1082478093347916  0.7626325889612673  0.3085527783993101
  0.2186396514675053  0.8767344812803159  0.0516833830089709
  0.7778012559028582  0.7650447434923464  0.8040374990521357
  0.4472459714311867  0.7641558082137720  0.2972580531651090
  0.1054431901233244  0.7642090911759212  0.7969165456421976
  0.2185077438077201  0.8745703167114058  0.5520013794402345
  0.7738904462572123  0.7652336734754641  0.3036891418034173
  0.8850905341341573  0.8779489555059214  0.0528530618238321
  0.4457707300883413  0.7622119140343031  0.8086664855169658
  0.5597439332249863  0.8734986196553294  0.5532037801215424
  0.8888471871231047  0.2046439198433347  0.0489041149865841
  0.8880833347576029  0.8731346094792158  0.5499907874338703
  0.5561620324914784  0.8727976187849507  0.0482963985287412
  0.2235367622525501  0.2030384286216531  0.3570762359949597
  0.0853438205566235  0.1069874573838803  0.1031800707719910
  0.8880107299111160  0.2043139542468495  0.8809230039500946
  0.7909615565057564  0.0697115309664085  0.6068965925430660
  0.5562048977019103  0.2030114723184155  0.3578964693115978
  0.4568936300543101  0.0700227869229835  0.1022471174449322
  0.2216609970741032  0.2062496899002468  0.8617987973174266
  0.1100275953398366  0.0951057558370962  0.6155639716618495
  0.8893852059814762  0.2056768774114488  0.3647507207381366
  0.7910212750841552  0.1059702759104795  0.1078231303887023
  0.5579350513370969  0.2052864003263295  0.8598581962885845
  0.4447071936175604  0.0931141225228416  0.6157272745833922
  0.2223309992004587  0.5382813951946090  0.3612423168778278
  0.1105170581326789  0.4283082081359453  0.1097525387123284
  0.8878267550786347  0.5408982934937328  0.8599524585602367
  0.7793443085789704  0.4252014471962084  0.6142459302751035
  0.5567736865667925  0.5400259427301748  0.3570748187905863
  0.4437914552367630  0.4278912354462179  0.1099376336541553
  0.2209786477549542  0.5413184990610205  0.8578647817087912
  0.1111178511745479  0.4264384515636266  0.6096595233171627
  0.8869799466505199  0.5396816529949788  0.3580458780558615
  0.7908270735983933  0.4021711938691084  0.1032319255287319
  0.5554912883659497  0.5383741768764239  0.8616743146931825
  0.4450361956304434  0.4268466117722340  0.6084204674182345
  0.2237056236798907  0.8736308083998665  0.3585263326833754
  0.1083752710669401  0.7623226885538159  0.1157782744588545
  0.8894979803720702  0.8721382080037330  0.8651622051493391
  0.7895157890537874  0.7739009980514382  0.6073092031474161
  0.5550474071484786  0.8726354891503405  0.3650111820226414
  0.4563111826383803  0.7739948451827487  0.1027146611875267
  0.2206518150053327  0.8706798987791586  0.8605076967800045
  0.0860013559165509  0.7741896144753539  0.6023079478449560
  0.8867868285768736  0.8734307345218681  0.3801120291677051
  0.7536681059866268  0.7747897726277131  0.1072364023729619
  0.5575750176674319  0.8714891858405451  0.8810908071709775
  0.4456366886077490  0.7620708942765901  0.6147594338709723
 
  0.00000000E+00  0.00000000E+00  0.00000000E+00
  0.00000000E+00  0.00000000E+00  0.00000000E+00
  0.00000000E+00  0.00000000E+00  0.00000000E+00
  0.00000000E+00  0.00000000E+00  0.00000000E+00
  0.00000000E+00  0.00000000E+00  0.00000000E+00
  0.00000000E+00  0.00000000E+00  0.00000000E+00
  0.00000000E+00  0.00000000E+00  0.00000000E+00
  0.00000000E+00  0.00000000E+00  0.00000000E+00
  0.00000000E+00  0.00000000E+00  0.00000000E+00
  0.00000000E+00  0.00000000E+00  0.00000000E+00
  0.00000000E+00  0.00000000E+00  0.00000000E+00
  0.00000000E+00  0.00000000E+00  0.00000000E+00
  0.00000000E+00  0.00000000E+00  0.00000000E+00
  0.00000000E+00  0.00000000E+00  0.00000000E+00
  0.00000000E+00  0.00000000E+00  0.00000000E+00
  0.00000000E+00  0.00000000E+00  0.00000000E+00
  0.00000000E+00  0.00000000E+00  0.00000000E+00
  0.00000000E+00  0.00000000E+00  0.00000000E+00
  0.00000000E+00  0.00000000E+00  0.00000000E+00
  0.00000000E+00  0.00000000E+00  0.00000000E+00
  0.00000000E+00  0.00000000E+00  0.00000000E+00
  0.00000000E+00  0.00000000E+00  0.00000000E+00
  0.00000000E+00  0.00000000E+00  0.00000000E+00
  0.00000000E+00  0.00000000E+00  0.00000000E+00
  0.00000000E+00  0.00000000E+00  0.00000000E+00
  0.00000000E+00  0.00000000E+00  0.00000000E+00
  0.00000000E+00  0.00000000E+00  0.00000000E+00
  0.00000000E+00  0.00000000E+00  0.00000000E+00
  0.00000000E+00  0.00000000E+00  0.00000000E+00
  0.00000000E+00  0.00000000E+00  0.00000000E+00
  0.00000000E+00  0.00000000E+00  0.00000000E+00
  0.00000000E+00  0.00000000E+00  0.00000000E+00
  0.00000000E+00  0.00000000E+00  0.00000000E+00
  0.00000000E+00  0.00000000E+00  0.00000000E+00
  0.00000000E+00  0.00000000E+00  0.00000000E+00
  0.00000000E+00  0.00000000E+00  0.00000000E+00
  0.00000000E+00  0.00000000E+00  0.00000000E+00
  0.00000000E+00  0.00000000E+00  0.00000000E+00
  0.00000000E+00  0.00000000E+00  0.00000000E+00
  0.00000000E+00  0.00000000E+00  0.00000000E+00
  0.00000000E+00  0.00000000E+00  0.00000000E+00
  0.00000000E+00  0.00000000E+00  0.00000000E+00
  0.00000000E+00  0.00000000E+00  0.00000000E+00
  0.00000000E+00  0.00000000E+00  0.00000000E+00
  0.00000000E+00  0.00000000E+00  0.00000000E+00
  0.00000000E+00  0.00000000E+00  0.00000000E+00
  0.00000000E+00  0.00000000E+00  0.00000000E+00
  0.00000000E+00  0.00000000E+00  0.00000000E+00
  0.00000000E+00  0.00000000E+00  0.00000000E+00
  0.00000000E+00  0.00000000E+00  0.00000000E+00
  0.00000000E+00  0.00000000E+00  0.00000000E+00
  0.00000000E+00  0.00000000E+00  0.00000000E+00
  0.00000000E+00  0.00000000E+00  0.00000000E+00
  0.00000000E+00  0.00000000E+00  0.00000000E+00
  0.00000000E+00  0.00000000E+00  0.00000000E+00
  0.00000000E+00  0.00000000E+00  0.00000000E+00
  0.00000000E+00  0.00000000E+00  0.00000000E+00
  0.00000000E+00  0.00000000E+00  0.00000000E+00
  0.00000000E+00  0.00000000E+00  0.00000000E+00
  0.00000000E+00  0.00000000E+00  0.00000000E+00
  0.00000000E+00  0.00000000E+00  0.00000000E+00
  0.00000000E+00  0.00000000E+00  0.00000000E+00
  0.00000000E+00  0.00000000E+00  0.00000000E+00
  0.00000000E+00  0.00000000E+00  0.00000000E+00
  0.00000000E+00  0.00000000E+00  0.00000000E+00
  0.00000000E+00  0.00000000E+00  0.00000000E+00
  0.00000000E+00  0.00000000E+00  0.00000000E+00
  0.00000000E+00  0.00000000E+00  0.00000000E+00
  0.00000000E+00  0.00000000E+00  0.00000000E+00
  0.00000000E+00  0.00000000E+00  0.00000000E+00
  0.00000000E+00  0.00000000E+00  0.00000000E+00
  0.00000000E+00  0.00000000E+00  0.00000000E+00
