supercell of supercell of icsd_608626.c 
   1.00600000000000     
    18.8433725412000008    0.0042597715995000    0.0111656436851000
    -6.2786657403800001   10.8752831735999997   -0.0012954496991100
     0.0059525623905900    0.0022414031449000   10.0498800689000003
   Al   Gd   N 
    91     4    96
Direct
  0.1108697681645410  0.0829165676819912  0.2481570444670993
  0.0529038013684300  0.1636080343386794  0.9988486932586014
  0.4442385108057607  0.3350421252864919  0.7462495861216354
  0.3903585036403854  0.4174712327508274  0.4931533046188505
  0.2789077389028165  0.0853492770285058  0.2576140780318994
  0.2245560372531230  0.1661075140704114  0.9988385903034143
  0.1085541116931523  0.3308106130574586  0.7462518380075238
  0.0550545721248881  0.4171608282155788  0.5005902131786613
  0.4438692656536460  0.0829576503366525  0.2489237106916207
  0.3909383435784477  0.1711377682869610  0.9990366661030592
  0.2800973442497749  0.3299292099183049  0.7349323769759906
  0.2216482330251850  0.4165012183525008  0.4988075905889247
  0.1112606013908675  0.0827909017348532  0.7494650674989174
  0.0547525404771463  0.1646275349531479  0.5005244640762569
  0.4445886260003888  0.3333949038468447  0.2484429400047077
  0.2793614591468767  0.0869795251358809  0.7427436792302160
  0.2203412552156507  0.1635776126420154  0.4993038186686860
  0.1096026767009874  0.3320451626523138  0.2573665940773182
  0.0554042755763646  0.4163289921949485  0.9997834669878713
  0.4432646545831602  0.0823776984830147  0.7496493541313995
  0.3903591581294208  0.1676817078222115  0.4991469562737905
  0.2778757475095901  0.3313819247892980  0.2610336219972496
  0.6116422173548628  0.0841445368079405  0.2485079186256627
  0.5497128307584731  0.1608549258630347  0.9984768514370472
  0.9454080641560410  0.3343548766291420  0.7508267759184619
  0.8899573590098271  0.4168368827483633  0.5003472328699274
  0.7792932887953370  0.0858967012393990  0.2582894950192482
  0.7252027694655823  0.1689522748109340  0.9987055653524450
  0.6056507395472792  0.3299394821935024  0.7420851422509003
  0.5552691295133556  0.4179436023735832  0.4990361234832221
  0.9444084031046529  0.0832810423401540  0.2495889486597846
  0.8923411184753007  0.1719916855245174  0.9987868595179066
  0.7793250132543719  0.3314518527720409  0.7449718816248279
  0.7221388510207731  0.4164789073611814  0.5003185499706007
  0.6108860001182990  0.0834551116854669  0.7493073501191247
  0.5543232661592583  0.1641783790505755  0.4999243417602486
  0.9449812839821234  0.3337143157256790  0.2497671177132190
  0.8900292217417416  0.4141421385173203  0.9997980455176432
  0.7799026283405723  0.0880377775697738  0.7450591280989158
  0.7215110150809565  0.1661364365016595  0.5013661135894907
  0.6095418747026358  0.3319721175405661  0.2588854205933728
  0.5530928175884071  0.4199329470994897  0.0019953247780862
  0.9445339240554773  0.0828430212633506  0.7502103190068965
  0.8906644601767866  0.1683496060650143  0.5007292412460629
  0.7788718374127299  0.3328012686539594  0.2584534797532356
  0.1113224725114534  0.5832895470106578  0.2488847041482458
  0.0506889083749016  0.6608159044578201  0.9986034607444836
  0.4444978824734633  0.8347166772552157  0.7496231604223880
  0.3896142745255915  0.9171056647038398  0.4996867903651463
  0.2787200381072310  0.5855541577346131  0.2581032715661422
  0.2240227061118176  0.6670805937169106  0.9983145317075284
  0.1062264227971497  0.8291205757846285  0.7431379478127624
  0.0544677014466970  0.9170852050559830  0.5000017136470305
  0.4440651202231720  0.5842199078575447  0.2482780020699948
  0.3915427519691832  0.6759891353533902  0.9986183616341435
  0.2788335870578322  0.8309000485717704  0.7443038057870268
  0.2218013359066475  0.9159899271914682  0.4993868581339100
  0.1109443896527225  0.5827504945805586  0.7499744493736102
  0.0543058509478769  0.6636945061572348  0.5002996022769040
  0.4445153533477111  0.8342530802450412  0.2492620628733135
  0.3883947986417624  0.9148365116039798  0.9995418563789968
  0.2798327585410973  0.5876904126984002  0.7437727524981952
  0.2212040267307671  0.6656785442585900  0.5012218431692830
  0.1090213167319121  0.8312456375343160  0.2589668173614044
  0.0525512642830179  0.9150682050727355  0.9991322789311070
  0.4434694055112658  0.5817302219111227  0.7457952970151638
  0.3903807674386499  0.6691710876701507  0.4993978663683194
  0.2783242135607722  0.8321253290270221  0.2584518942515430
  0.6118745038674831  0.5842619243642773  0.2495441854625611
  0.5514481246235619  0.6595459067195364  0.0014191729998174
  0.9447063719295343  0.8341724390312280  0.7505302409233749
  0.8899667808552820  0.9171981778810547  0.5002999415823552
  0.7790573316745295  0.5855447475159821  0.2583174886644244
  0.7256770051812467  0.6696042445885411  0.9989466751777982
  0.6057929609321206  0.8290079719885810  0.7416729849349224
  0.5548013675692971  0.9180689157450246  0.4996305870158011
  0.9440238481135381  0.5827308712087813  0.2493498864714212
  0.8917146938544320  0.6714098317447608  0.9985851506395065
  0.7793780953186129  0.8319581892808969  0.7448946731128316
  0.7222503593439669  0.9170217268249132  0.5002316266965039
  0.6109289261018205  0.5834001440958190  0.7488811666811870
  0.5548896223381590  0.6649308759470927  0.4991960116864860
  0.9444862616366123  0.8332916189258697  0.2495359079390980
  0.8901216357968167  0.9158081161323253  0.9998808629601754
  0.7796854764100019  0.5877972564694218  0.7449475562666237
  0.7216283485537502  0.6662946395159466  0.5015988751741247
  0.6096417648599726  0.8325206927489077  0.2590685261819061
  0.5523475168604364  0.9168996979978061  0.9991815414727370
  0.9438437182100543  0.5819515912492363  0.7502677154871549
  0.8903977080234711  0.6679588062298976  0.5005787683724137
  0.7789272826655775  0.8330508833871804  0.2586325210137730
  0.2292989682633646  0.4154911543960935  0.9985983621563292
  0.7180534614770977  0.4139717186756755  0.9971342059638602
  0.2187757213947279  0.9140899752152407  0.9981213854341249
  0.7180066548382058  0.9140124571241870  0.9974582990440695
  0.1102633813648382  0.0823057084725960  0.4376828801013062
  0.0556810242499282  0.1669843388261469  0.1903422622180813
  0.4504200492893773  0.3294742157079540  0.9323939661079024
  0.3908364743762789  0.4181705193445708  0.6826848378195862
  0.2788446943728999  0.0848541278302264  0.4455682192676562
  0.2227311743801081  0.1667278126462719  0.1908498968867818
  0.0990969371903745  0.3231013128016116  0.9328939984380540
  0.0554337603632717  0.4176096134610106  0.6893967977214572
  0.4442057677015185  0.0826060607812167  0.4383964063899697
  0.3884991703445664  0.1662740522857007  0.1899283596010193
  0.2822805455059267  0.3161548625922492  0.9175272417203146
  0.2224420462017775  0.4166713573840539  0.6941653171091673
  0.1119505791120616  0.0827377409937569  0.9418152297482081
  0.0550146895199433  0.1641476279908787  0.6897390918217781
  0.4457033742156753  0.3325345910411812  0.4389130370957943
  0.3882398464214063  0.4165222021385659  0.2155980648981100
  0.2862392412028498  0.1021686569260112  0.9293265985813832
  0.2197812852744647  0.1621026663106733  0.6844813544739097
  0.1088932939598806  0.3313835793328792  0.4465062215085780
  0.0562275583047196  0.4165758509102204  0.1911554616963755
  0.4403134420756416  0.0781002071403734  0.9406438639432579
  0.3904136119818062  0.1678997855214703  0.6872087689391222
  0.2768444956417540  0.3304012893793882  0.4492732231688876
  0.2222416775006835  0.4165728332120366  0.2204611686852047
  0.6113506222128890  0.0838546717578410  0.4384307925741524
  0.5556768318831189  0.1674615605365162  0.1897910431081797
  0.9472408398918546  0.3369510199762971  0.9410430983790050
  0.8900819944548957  0.4168918163393158  0.6888174984106072
  0.7791205386882893  0.0859439902664008  0.4471732239689032
  0.7233595586265906  0.1674732391945568  0.1913041777217757
  0.5902599049807122  0.3187712398559910  0.9283102929141194
  0.5551759225937758  0.4192969311616181  0.6864715036398934
  0.9442406658346840  0.0829608217122768  0.4396236425899644
  0.8889680874666297  0.1668457909784706  0.1908586221323390
  0.7850422254660359  0.3260758937632957  0.9310517820809210
  0.7212404488804225  0.4159871565055866  0.6966096517141978
  0.6123840088088386  0.0851451279520106  0.9416815156800595
  0.5539332277776410  0.1632743249250055  0.6887038517014190
  0.9448481773308828  0.3337661194887147  0.4394958722676492
  0.8884470447393653  0.4158730030072562  0.1914451255069167
  0.7864883376731058  0.1027594562466589  0.9312634038729328
  0.7207996364745100  0.1655134815276895  0.6885410308915993
  0.6095077922091932  0.3316063892894476  0.4472112059587730
  0.5568251518986429  0.4174184969443431  0.1912927908825850
  0.9426446277132712  0.0806407125108919  0.9411771862549543
  0.8911348200915157  0.1684577703817141  0.6895548750770573
  0.7786209706063474  0.3324710469024268  0.4470604974345136
  0.7222802197258176  0.4166619726963532  0.2189649022975004
  0.1110100867863366  0.5830502419820789  0.4388951630953599
  0.0555357412270112  0.6668387479138502  0.1903762655292169
  0.4456623709048415  0.8399117251669068  0.9397289095891210
  0.3895738888076821  0.9173939395486670  0.6878450854412392
  0.2788473251872361  0.5858466548540164  0.4464240402942536
  0.2229734241789600  0.6671417701394660  0.1910702281566401
  0.0921961552290114  0.8179295435454463  0.9285736662921948
  0.0543872422405016  0.9176869343656193  0.6882191419175570
  0.4450376412149382  0.5860043926503309  0.4390812398727135
  0.3885062586979515  0.6678616727795514  0.1897456727760556
  0.2839881819750332  0.8246362597746426  0.9303556053919593
  0.2211536043378430  0.9153503722072642  0.6952151341196711
  0.1119417895246713  0.5842381985056733  0.9418321127825138
  0.0540316534554606  0.6625277176796658  0.6887848096419944
  0.4448641175558947  0.8347100020473093  0.4382872849360169
  0.3879466963619080  0.9162317245983900  0.1910292145565791
  0.2863145459785770  0.6033952671448262  0.9300040278129202
  0.2205552117927709  0.6649791942250332  0.6881492391830406
  0.1087632751499257  0.8310824566944319  0.4474805274183851
  0.0559449816999518  0.9157878967455986  0.1905089223152672
  0.4474965491891112  0.5987938375185990  0.9328400736712510
  0.3907831665691148  0.6694522620951275  0.6873322519875202
  0.2783020846176782  0.8319260181760768  0.4466821009686015
  0.2217282272243892  0.9160201196237310  0.2197765741804361
  0.6116742852386707  0.5840459794180006  0.4384236927960430
  0.5563316410858263  0.6679534335404682  0.1909369304662576
  0.9452904031417404  0.8363606914590562  0.9406572573315799
  0.8901024086495042  0.9175752370026942  0.6887533886662567
  0.7788671487139496  0.5855089893709930  0.4472237451387073
  0.7235601588067837  0.6677694398514973  0.1914425952930401
  0.5904689178678737  0.8167986849209328  0.9279464678430358
  0.5546395419936161  0.9186146654031475  0.6879436579201510
  0.9439614266879488  0.5825727517224166  0.4392617146052018
  0.8887147166167182  0.6665244492575582  0.1906249655558909
  0.7851802043640319  0.8269927819525833  0.9312130893535411
  0.7212975728250228  0.9163505596223445  0.6964369724593524
  0.6131453482968467  0.5856312968147890  0.9418568886983252
  0.5547009266242497  0.6634293841500565  0.6869085721233787
  0.9443617018629240  0.8333015626746345  0.4390554526930046
  0.8885210124747331  0.9163941808325973  0.1914872223300108
  0.7861277209803958  0.6025933056283748  0.9311307118159533
  0.7210789226364369  0.6659342040187965  0.6887594739428451
  0.6095366369364896  0.8326797157420529  0.4473089138568511
  0.5563741766993644  0.9169630400585760  0.1902709508697455
  0.9409209611689349  0.5784520385267768  0.9411699175672226
  0.8908840150296697  0.6681790334182125  0.6894457845005704
  0.7785938792815088  0.8326777998663886  0.4471811287475376
  0.7223721759163695  0.9169536255993620  0.2192064127995792
 
  0.00000000E+00  0.00000000E+00  0.00000000E+00
  0.00000000E+00  0.00000000E+00  0.00000000E+00
  0.00000000E+00  0.00000000E+00  0.00000000E+00
  0.00000000E+00  0.00000000E+00  0.00000000E+00
  0.00000000E+00  0.00000000E+00  0.00000000E+00
  0.00000000E+00  0.00000000E+00  0.00000000E+00
  0.00000000E+00  0.00000000E+00  0.00000000E+00
  0.00000000E+00  0.00000000E+00  0.00000000E+00
  0.00000000E+00  0.00000000E+00  0.00000000E+00
  0.00000000E+00  0.00000000E+00  0.00000000E+00
  0.00000000E+00  0.00000000E+00  0.00000000E+00
  0.00000000E+00  0.00000000E+00  0.00000000E+00
  0.00000000E+00  0.00000000E+00  0.00000000E+00
  0.00000000E+00  0.00000000E+00  0.00000000E+00
  0.00000000E+00  0.00000000E+00  0.00000000E+00
  0.00000000E+00  0.00000000E+00  0.00000000E+00
  0.00000000E+00  0.00000000E+00  0.00000000E+00
  0.00000000E+00  0.00000000E+00  0.00000000E+00
  0.00000000E+00  0.00000000E+00  0.00000000E+00
  0.00000000E+00  0.00000000E+00  0.00000000E+00
  0.00000000E+00  0.00000000E+00  0.00000000E+00
  0.00000000E+00  0.00000000E+00  0.00000000E+00
  0.00000000E+00  0.00000000E+00  0.00000000E+00
  0.00000000E+00  0.00000000E+00  0.00000000E+00
  0.00000000E+00  0.00000000E+00  0.00000000E+00
  0.00000000E+00  0.00000000E+00  0.00000000E+00
  0.00000000E+00  0.00000000E+00  0.00000000E+00
  0.00000000E+00  0.00000000E+00  0.00000000E+00
  0.00000000E+00  0.00000000E+00  0.00000000E+00
  0.00000000E+00  0.00000000E+00  0.00000000E+00
  0.00000000E+00  0.00000000E+00  0.00000000E+00
  0.00000000E+00  0.00000000E+00  0.00000000E+00
  0.00000000E+00  0.00000000E+00  0.00000000E+00
  0.00000000E+00  0.00000000E+00  0.00000000E+00
  0.00000000E+00  0.00000000E+00  0.00000000E+00
  0.00000000E+00  0.00000000E+00  0.00000000E+00
  0.00000000E+00  0.00000000E+00  0.00000000E+00
  0.00000000E+00  0.00000000E+00  0.00000000E+00
  0.00000000E+00  0.00000000E+00  0.00000000E+00
  0.00000000E+00  0.00000000E+00  0.00000000E+00
  0.00000000E+00  0.00000000E+00  0.00000000E+00
  0.00000000E+00  0.00000000E+00  0.00000000E+00
  0.00000000E+00  0.00000000E+00  0.00000000E+00
  0.00000000E+00  0.00000000E+00  0.00000000E+00
  0.00000000E+00  0.00000000E+00  0.00000000E+00
  0.00000000E+00  0.00000000E+00  0.00000000E+00
  0.00000000E+00  0.00000000E+00  0.00000000E+00
  0.00000000E+00  0.00000000E+00  0.00000000E+00
  0.00000000E+00  0.00000000E+00  0.00000000E+00
  0.00000000E+00  0.00000000E+00  0.00000000E+00
  0.00000000E+00  0.00000000E+00  0.00000000E+00
  0.00000000E+00  0.00000000E+00  0.00000000E+00
  0.00000000E+00  0.00000000E+00  0.00000000E+00
  0.00000000E+00  0.00000000E+00  0.00000000E+00
  0.00000000E+00  0.00000000E+00  0.00000000E+00
  0.00000000E+00  0.00000000E+00  0.00000000E+00
  0.00000000E+00  0.00000000E+00  0.00000000E+00
  0.00000000E+00  0.00000000E+00  0.00000000E+00
  0.00000000E+00  0.00000000E+00  0.00000000E+00
  0.00000000E+00  0.00000000E+00  0.00000000E+00
  0.00000000E+00  0.00000000E+00  0.00000000E+00
  0.00000000E+00  0.00000000E+00  0.00000000E+00
  0.00000000E+00  0.00000000E+00  0.00000000E+00
  0.00000000E+00  0.00000000E+00  0.00000000E+00
  0.00000000E+00  0.00000000E+00  0.00000000E+00
  0.00000000E+00  0.00000000E+00  0.00000000E+00
  0.00000000E+00  0.00000000E+00  0.00000000E+00
  0.00000000E+00  0.00000000E+00  0.00000000E+00
  0.00000000E+00  0.00000000E+00  0.00000000E+00
  0.00000000E+00  0.00000000E+00  0.00000000E+00
  0.00000000E+00  0.00000000E+00  0.00000000E+00
  0.00000000E+00  0.00000000E+00  0.00000000E+00
  0.00000000E+00  0.00000000E+00  0.00000000E+00
  0.00000000E+00  0.00000000E+00  0.00000000E+00
  0.00000000E+00  0.00000000E+00  0.00000000E+00
  0.00000000E+00  0.00000000E+00  0.00000000E+00
  0.00000000E+00  0.00000000E+00  0.00000000E+00
  0.00000000E+00  0.00000000E+00  0.00000000E+00
  0.00000000E+00  0.00000000E+00  0.00000000E+00
  0.00000000E+00  0.00000000E+00  0.00000000E+00
  0.00000000E+00  0.00000000E+00  0.00000000E+00
  0.00000000E+00  0.00000000E+00  0.00000000E+00
  0.00000000E+00  0.00000000E+00  0.00000000E+00
  0.00000000E+00  0.00000000E+00  0.00000000E+00
  0.00000000E+00  0.00000000E+00  0.00000000E+00
  0.00000000E+00  0.00000000E+00  0.00000000E+00
  0.00000000E+00  0.00000000E+00  0.00000000E+00
  0.00000000E+00  0.00000000E+00  0.00000000E+00
  0.00000000E+00  0.00000000E+00  0.00000000E+00
  0.00000000E+00  0.00000000E+00  0.00000000E+00
  0.00000000E+00  0.00000000E+00  0.00000000E+00
  0.00000000E+00  0.00000000E+00  0.00000000E+00
  0.00000000E+00  0.00000000E+00  0.00000000E+00
  0.00000000E+00  0.00000000E+00  0.00000000E+00
  0.00000000E+00  0.00000000E+00  0.00000000E+00
  0.00000000E+00  0.00000000E+00  0.00000000E+00
  0.00000000E+00  0.00000000E+00  0.00000000E+00
  0.00000000E+00  0.00000000E+00  0.00000000E+00
  0.00000000E+00  0.00000000E+00  0.00000000E+00
  0.00000000E+00  0.00000000E+00  0.00000000E+00
  0.00000000E+00  0.00000000E+00  0.00000000E+00
  0.00000000E+00  0.00000000E+00  0.00000000E+00
  0.00000000E+00  0.00000000E+00  0.00000000E+00
  0.00000000E+00  0.00000000E+00  0.00000000E+00
  0.00000000E+00  0.00000000E+00  0.00000000E+00
  0.00000000E+00  0.00000000E+00  0.00000000E+00
  0.00000000E+00  0.00000000E+00  0.00000000E+00
  0.00000000E+00  0.00000000E+00  0.00000000E+00
  0.00000000E+00  0.00000000E+00  0.00000000E+00
  0.00000000E+00  0.00000000E+00  0.00000000E+00
  0.00000000E+00  0.00000000E+00  0.00000000E+00
  0.00000000E+00  0.00000000E+00  0.00000000E+00
  0.00000000E+00  0.00000000E+00  0.00000000E+00
  0.00000000E+00  0.00000000E+00  0.00000000E+00
  0.00000000E+00  0.00000000E+00  0.00000000E+00
  0.00000000E+00  0.00000000E+00  0.00000000E+00
  0.00000000E+00  0.00000000E+00  0.00000000E+00
  0.00000000E+00  0.00000000E+00  0.00000000E+00
  0.00000000E+00  0.00000000E+00  0.00000000E+00
  0.00000000E+00  0.00000000E+00  0.00000000E+00
  0.00000000E+00  0.00000000E+00  0.00000000E+00
  0.00000000E+00  0.00000000E+00  0.00000000E+00
  0.00000000E+00  0.00000000E+00  0.00000000E+00
  0.00000000E+00  0.00000000E+00  0.00000000E+00
  0.00000000E+00  0.00000000E+00  0.00000000E+00
  0.00000000E+00  0.00000000E+00  0.00000000E+00
  0.00000000E+00  0.00000000E+00  0.00000000E+00
  0.00000000E+00  0.00000000E+00  0.00000000E+00
  0.00000000E+00  0.00000000E+00  0.00000000E+00
  0.00000000E+00  0.00000000E+00  0.00000000E+00
  0.00000000E+00  0.00000000E+00  0.00000000E+00
  0.00000000E+00  0.00000000E+00  0.00000000E+00
  0.00000000E+00  0.00000000E+00  0.00000000E+00
  0.00000000E+00  0.00000000E+00  0.00000000E+00
  0.00000000E+00  0.00000000E+00  0.00000000E+00
  0.00000000E+00  0.00000000E+00  0.00000000E+00
  0.00000000E+00  0.00000000E+00  0.00000000E+00
  0.00000000E+00  0.00000000E+00  0.00000000E+00
  0.00000000E+00  0.00000000E+00  0.00000000E+00
  0.00000000E+00  0.00000000E+00  0.00000000E+00
  0.00000000E+00  0.00000000E+00  0.00000000E+00
  0.00000000E+00  0.00000000E+00  0.00000000E+00
  0.00000000E+00  0.00000000E+00  0.00000000E+00
  0.00000000E+00  0.00000000E+00  0.00000000E+00
  0.00000000E+00  0.00000000E+00  0.00000000E+00
  0.00000000E+00  0.00000000E+00  0.00000000E+00
  0.00000000E+00  0.00000000E+00  0.00000000E+00
  0.00000000E+00  0.00000000E+00  0.00000000E+00
  0.00000000E+00  0.00000000E+00  0.00000000E+00
  0.00000000E+00  0.00000000E+00  0.00000000E+00
  0.00000000E+00  0.00000000E+00  0.00000000E+00
  0.00000000E+00  0.00000000E+00  0.00000000E+00
  0.00000000E+00  0.00000000E+00  0.00000000E+00
  0.00000000E+00  0.00000000E+00  0.00000000E+00
  0.00000000E+00  0.00000000E+00  0.00000000E+00
  0.00000000E+00  0.00000000E+00  0.00000000E+00
  0.00000000E+00  0.00000000E+00  0.00000000E+00
  0.00000000E+00  0.00000000E+00  0.00000000E+00
  0.00000000E+00  0.00000000E+00  0.00000000E+00
  0.00000000E+00  0.00000000E+00  0.00000000E+00
  0.00000000E+00  0.00000000E+00  0.00000000E+00
  0.00000000E+00  0.00000000E+00  0.00000000E+00
  0.00000000E+00  0.00000000E+00  0.00000000E+00
  0.00000000E+00  0.00000000E+00  0.00000000E+00
  0.00000000E+00  0.00000000E+00  0.00000000E+00
  0.00000000E+00  0.00000000E+00  0.00000000E+00
  0.00000000E+00  0.00000000E+00  0.00000000E+00
  0.00000000E+00  0.00000000E+00  0.00000000E+00
  0.00000000E+00  0.00000000E+00  0.00000000E+00
  0.00000000E+00  0.00000000E+00  0.00000000E+00
  0.00000000E+00  0.00000000E+00  0.00000000E+00
  0.00000000E+00  0.00000000E+00  0.00000000E+00
  0.00000000E+00  0.00000000E+00  0.00000000E+00
  0.00000000E+00  0.00000000E+00  0.00000000E+00
  0.00000000E+00  0.00000000E+00  0.00000000E+00
  0.00000000E+00  0.00000000E+00  0.00000000E+00
  0.00000000E+00  0.00000000E+00  0.00000000E+00
  0.00000000E+00  0.00000000E+00  0.00000000E+00
  0.00000000E+00  0.00000000E+00  0.00000000E+00
  0.00000000E+00  0.00000000E+00  0.00000000E+00
  0.00000000E+00  0.00000000E+00  0.00000000E+00
  0.00000000E+00  0.00000000E+00  0.00000000E+00
  0.00000000E+00  0.00000000E+00  0.00000000E+00
  0.00000000E+00  0.00000000E+00  0.00000000E+00
  0.00000000E+00  0.00000000E+00  0.00000000E+00
  0.00000000E+00  0.00000000E+00  0.00000000E+00
  0.00000000E+00  0.00000000E+00  0.00000000E+00
  0.00000000E+00  0.00000000E+00  0.00000000E+00
  0.00000000E+00  0.00000000E+00  0.00000000E+00
  0.00000000E+00  0.00000000E+00  0.00000000E+00
  0.00000000E+00  0.00000000E+00  0.00000000E+00
