supercell of icsd_191774.cif            
   1.00000000000000     
    11.1414074189924559    0.0514312119861416   -0.0042342390461585
    -5.5261192630559570    9.5343456990801680   -0.0042977873279034
    -0.0067751507940555   -0.0079243840871466    9.5675376650135515
   N    In   Sc
    36    14    22
Direct
  0.2225273406693660  0.1113186146718093  0.4673673994509215
  0.1060613757583582  0.2262152737269005  0.2145748678724075
  0.8938453336293861  0.1117620751770403  0.9650253705656979
  0.7775857009378626  0.2220159787575540  0.7176369634018656
  0.5560065894973647  0.1107989002559862  0.4652833527405349
  0.4479281365890202  0.2222701318437572  0.2082074744202131
  0.2226981476284280  0.1134598904679365  0.9685283365055213
  0.1059049116511659  0.2257393046561234  0.7151277290391462
  0.8942175695450842  0.1096690064133696  0.4638593767518486
  0.7773591725092217  0.2222699939429944  0.2165755752505163
  0.5498892320636557  0.1083067504597324  0.9646274325326161
  0.4486165859325055  0.2233800628502678  0.7275980706034204
  0.2258138375960996  0.4401444266945163  0.4646515739984594
  0.1099064706079602  0.5534305470893486  0.2153663410349296
  0.8883788708046154  0.4457000220024980  0.9650886499145415
  0.7796024741779419  0.5560250198724646  0.7051395555390414
  0.5555404492513247  0.4470831254007663  0.4775589650766463
  0.4395416120464475  0.5533912704451254  0.2151078083731903
  0.2281224551294443  0.4415760229927983  0.9643116266677012
  0.1094682912893106  0.5530242965441445  0.7175994746673027
  0.8874673791903831  0.4471757457001218  0.4634621982844536
  0.7797396291655403  0.5571869425542175  0.2263901019243448
  0.5544492199582933  0.4463937391407313  0.9551168097859701
  0.4425432734541275  0.5553670310645202  0.7141094952362153
  0.2231435687968499  0.7784627375969748  0.4720387213460526
  0.1064188471699836  0.8860703299742454  0.2081066495690322
  0.8920461839060181  0.7800015091601082  0.9650850172761736
  0.7786114787864591  0.8898274520196736  0.7046563545143130
  0.5556147060269296  0.7752594728184263  0.4770264693387389
  0.4468644413709129  0.8921194816607851  0.2071161965505155
  0.2250190238584793  0.7822109784868658  0.9563051845765713
  0.1062761195837325  0.8834761164865057  0.7269967491853180
  0.8854259839385179  0.7764347434490517  0.4653845947610122
  0.7790593324617845  0.8892516327139930  0.2265223300961452
  0.5551052840719350  0.7756330162994374  0.9557304437654466
  0.4450921454420254  0.8893369409073557  0.7286745136583548
  0.2224147406291905  0.1136668603398974  0.2181666720672837
  0.7743206624584502  0.2192677375362990  0.9719092719153721
  0.4446623252297428  0.2220320830266331  0.4784608260302576
  0.2214516712560766  0.1126751539310291  0.7276215474023005
  0.7801882248709404  0.2216662679973567  0.4739398584901835
  0.1106177810947599  0.5515126657935454  0.4747760508434595
  0.7757987107526745  0.5559568200280296  0.9695573426464890
  0.5566089088367008  0.4460945943770369  0.2261318651659110
  0.1130852934129507  0.5550346353880897  0.9690753617172518
  0.2239071908954600  0.7793473162003011  0.2205067427266556
  0.1072442953757076  0.8863577395140183  0.4755295571272953
  0.7760797049135917  0.8875317205110562  0.9711695792800370
  0.5559814276300230  0.7780561684144587  0.2258983131432188
  0.4445560940193474  0.8878562528812992  0.4808636338474059
  0.1111276078490704  0.2209958505874354  0.4753823648740081
  0.8876138055294973  0.1101448578427622  0.7246902176986012
  0.5563882510826588  0.1117690892550556  0.2245965008742203
  0.1114216695659493  0.2217841876122080  0.9747633251686096
  0.8870525714192823  0.1112251209246651  0.2242064179024510
  0.5562226891944917  0.1106263805980348  0.7268557573086198
  0.4450782698854852  0.2238621371782941  0.9702273571451059
  0.2213090268344402  0.4452960008970734  0.2241548010106342
  0.8890713724757831  0.4448619211790898  0.7242385803789944
  0.4430545942017829  0.5545630125262520  0.4765991286357902
  0.2237223127444281  0.4457572827602050  0.7259310427754784
  0.8885409106898265  0.4446117066303188  0.2232518112304902
  0.7773017314189232  0.5552271404761058  0.4731169251947946
  0.5568248367996844  0.4466304168238224  0.7208381297488486
  0.4469249919996585  0.5564794603472976  0.9734924084854555
  0.8876670140013232  0.7779643520405983  0.7226544720916053
  0.2228549223349319  0.7778899783013031  0.7246375034203254
  0.1116252135191047  0.8891427680126185  0.9703833691947494
  0.8886940172990805  0.7778834170123687  0.2237162052079142
  0.7773596705751089  0.8888535435680964  0.4729116822151340
  0.5569248493075847  0.7780120288820527  0.7218718295500821
  0.4444114653997602  0.8875747463071804  0.9697157732097992
 
  0.00000000E+00  0.00000000E+00  0.00000000E+00
  0.00000000E+00  0.00000000E+00  0.00000000E+00
  0.00000000E+00  0.00000000E+00  0.00000000E+00
  0.00000000E+00  0.00000000E+00  0.00000000E+00
  0.00000000E+00  0.00000000E+00  0.00000000E+00
  0.00000000E+00  0.00000000E+00  0.00000000E+00
  0.00000000E+00  0.00000000E+00  0.00000000E+00
  0.00000000E+00  0.00000000E+00  0.00000000E+00
  0.00000000E+00  0.00000000E+00  0.00000000E+00
  0.00000000E+00  0.00000000E+00  0.00000000E+00
  0.00000000E+00  0.00000000E+00  0.00000000E+00
  0.00000000E+00  0.00000000E+00  0.00000000E+00
  0.00000000E+00  0.00000000E+00  0.00000000E+00
  0.00000000E+00  0.00000000E+00  0.00000000E+00
  0.00000000E+00  0.00000000E+00  0.00000000E+00
  0.00000000E+00  0.00000000E+00  0.00000000E+00
  0.00000000E+00  0.00000000E+00  0.00000000E+00
  0.00000000E+00  0.00000000E+00  0.00000000E+00
  0.00000000E+00  0.00000000E+00  0.00000000E+00
  0.00000000E+00  0.00000000E+00  0.00000000E+00
  0.00000000E+00  0.00000000E+00  0.00000000E+00
  0.00000000E+00  0.00000000E+00  0.00000000E+00
  0.00000000E+00  0.00000000E+00  0.00000000E+00
  0.00000000E+00  0.00000000E+00  0.00000000E+00
  0.00000000E+00  0.00000000E+00  0.00000000E+00
  0.00000000E+00  0.00000000E+00  0.00000000E+00
  0.00000000E+00  0.00000000E+00  0.00000000E+00
  0.00000000E+00  0.00000000E+00  0.00000000E+00
  0.00000000E+00  0.00000000E+00  0.00000000E+00
  0.00000000E+00  0.00000000E+00  0.00000000E+00
  0.00000000E+00  0.00000000E+00  0.00000000E+00
  0.00000000E+00  0.00000000E+00  0.00000000E+00
  0.00000000E+00  0.00000000E+00  0.00000000E+00
  0.00000000E+00  0.00000000E+00  0.00000000E+00
  0.00000000E+00  0.00000000E+00  0.00000000E+00
  0.00000000E+00  0.00000000E+00  0.00000000E+00
  0.00000000E+00  0.00000000E+00  0.00000000E+00
  0.00000000E+00  0.00000000E+00  0.00000000E+00
  0.00000000E+00  0.00000000E+00  0.00000000E+00
  0.00000000E+00  0.00000000E+00  0.00000000E+00
  0.00000000E+00  0.00000000E+00  0.00000000E+00
  0.00000000E+00  0.00000000E+00  0.00000000E+00
  0.00000000E+00  0.00000000E+00  0.00000000E+00
  0.00000000E+00  0.00000000E+00  0.00000000E+00
  0.00000000E+00  0.00000000E+00  0.00000000E+00
  0.00000000E+00  0.00000000E+00  0.00000000E+00
  0.00000000E+00  0.00000000E+00  0.00000000E+00
  0.00000000E+00  0.00000000E+00  0.00000000E+00
  0.00000000E+00  0.00000000E+00  0.00000000E+00
  0.00000000E+00  0.00000000E+00  0.00000000E+00
  0.00000000E+00  0.00000000E+00  0.00000000E+00
  0.00000000E+00  0.00000000E+00  0.00000000E+00
  0.00000000E+00  0.00000000E+00  0.00000000E+00
  0.00000000E+00  0.00000000E+00  0.00000000E+00
  0.00000000E+00  0.00000000E+00  0.00000000E+00
  0.00000000E+00  0.00000000E+00  0.00000000E+00
  0.00000000E+00  0.00000000E+00  0.00000000E+00
  0.00000000E+00  0.00000000E+00  0.00000000E+00
  0.00000000E+00  0.00000000E+00  0.00000000E+00
  0.00000000E+00  0.00000000E+00  0.00000000E+00
  0.00000000E+00  0.00000000E+00  0.00000000E+00
  0.00000000E+00  0.00000000E+00  0.00000000E+00
  0.00000000E+00  0.00000000E+00  0.00000000E+00
  0.00000000E+00  0.00000000E+00  0.00000000E+00
  0.00000000E+00  0.00000000E+00  0.00000000E+00
  0.00000000E+00  0.00000000E+00  0.00000000E+00
  0.00000000E+00  0.00000000E+00  0.00000000E+00
  0.00000000E+00  0.00000000E+00  0.00000000E+00
  0.00000000E+00  0.00000000E+00  0.00000000E+00
  0.00000000E+00  0.00000000E+00  0.00000000E+00
  0.00000000E+00  0.00000000E+00  0.00000000E+00
  0.00000000E+00  0.00000000E+00  0.00000000E+00
