supercell of icsd_181358.cif            
   1.00000000000000     
    10.1751380819179893    0.0164627904768875    0.0412504179782437
    -5.0735524011360571    8.7230227827343132   -0.0290361844969938
     0.0449412086486099   -0.0098482149173611   10.7050700043698068
   N    Ga   La
    36    28     8
Direct
  0.1776985498613612  0.0830597772948209  0.4313128512997864
  0.0873813821633576  0.1916069694192331  0.1828761278586839
  0.8848880499099039  0.1044665905611240  0.9582228940994071
  0.7631987195093970  0.2429798917372068  0.6808768148241100
  0.5566069469650401  0.1003650655873756  0.4586713037843211
  0.4150713296261017  0.2422210401722538  0.2152620706994099
  0.1799845000726137  0.0906279380063495  0.9283789083594272
  0.1468932096126636  0.2288604817936246  0.6763190365874650
  0.8864418240597161  0.1164528189305756  0.4446097898211647
  0.8089609065291441  0.2340702879849843  0.1822753251958318
  0.5767580361111300  0.0990463299145503  0.9426005315144650
  0.4450142505205790  0.2215404357959798  0.7373418093012063
  0.2375151308203414  0.4301105892125960  0.4466443761743051
  0.0822613042990454  0.5457095654460531  0.1631276912354664
  0.8790879096766133  0.4393019691789988  0.9382325950467347
  0.7863569757819917  0.5570119036552370  0.6828854058783165
  0.5766210356189347  0.4833359639452013  0.4305549752667019
  0.4928332891796288  0.5817011353189869  0.1799509306677081
  0.2345029048083163  0.4378122392835806  0.9493740905865948
  0.1176116764064830  0.5493312497689402  0.7405465226235961
  0.8503622961299016  0.4262527017619675  0.4215584668733143
  0.7778102410031451  0.5535348334489498  0.1822060915017971
  0.5829679876608722  0.4859377083529210  0.9280732818306916
  0.4394622576018534  0.5185798985425976  0.6774141677730867
  0.2279107940436518  0.7954606992730930  0.4637520834863480
  0.0840267803741739  0.8996478668028089  0.1712250993209352
  0.8847225639818177  0.7756066309280953  0.9345871762045874
  0.8028933929176105  0.8745284271907963  0.6659222919747592
  0.5524911074476719  0.7801033661407857  0.4482372174302114
  0.4602266732149971  0.8702678651840969  0.1792176950294007
  0.2272670243550508  0.7881715473462449  0.9472474654313672
  0.1088507040389786  0.8827592286929971  0.6933542810460978
  0.8932505496986494  0.7722378503135587  0.4310646511357774
  0.7805333055983326  0.8902808672965463  0.2009132121347648
  0.5692578234192283  0.7850865571261494  0.9532738292031340
  0.4300482986263532  0.9058161442343575  0.6933458157412531
  0.1955016689416667  0.1024390288083410  0.2502985829872841
  0.0949153870698893  0.2041423053696008  0.0036576597627018
  0.7653677813305038  0.2215394340145949  0.4984183810110423
  0.2155574007670396  0.1004934562671380  0.7524386282533655
  0.1081201442480335  0.2153687904624064  0.4944664986312617
  0.8888314053578128  0.1090574054905105  0.2505978571567198
  0.7884008372298936  0.2212858545529031  0.0028304283080942
  0.5565976918458446  0.1151218518984152  0.7551475135870760
  0.1052605849391028  0.5534661299447023  0.9780238668957892
  0.8784710428486733  0.4443265397011942  0.7585697880327444
  0.7774317330503919  0.5599137526314593  0.4925889904974952
  0.5679899768711678  0.4618920135923545  0.2508717900218045
  0.4725709169417627  0.5751675234537856  0.0015664067052441
  0.2378642820430699  0.4325916647490686  0.7595706310650741
  0.8833931396918402  0.4439242978678166  0.2371864147467235
  0.7844915741769682  0.5643236721881095  0.9985093381012504
  0.5694960266394844  0.4502975253154062  0.7507060030086095
  0.4495180941635084  0.5571022570142290  0.4953132990780205
  0.0935006940868561  0.8859260476328572  0.9927875083550504
  0.8934164132263476  0.7715118288369993  0.7471922949800955
  0.7850950241855301  0.8843217322540013  0.4883842955100093
  0.5691169692236429  0.7811686058910254  0.2522544280626207
  0.4579179907004374  0.8854886846164831  0.9999603928830396
  0.2239979555825471  0.7870083661853400  0.7613142731490257
  0.1003609150584381  0.8841794113433821  0.5066347654843639
  0.8833997152790616  0.7763896125686927  0.2461051381172510
  0.7800881396751222  0.8892264992068561  0.0131344749612978
  0.4401957719069713  0.8944176406540549  0.5104944593753515
  0.8974861543130359  0.1194426658396068  0.7408080846041898
  0.5626258565625406  0.1209909688352582  0.2445341678089719
  0.4369334052822111  0.2278448251843201  0.9842932910126976
  0.4267698893009637  0.2334254099110780  0.5074883434301327
  0.2347934878341107  0.4447258809884644  0.2233185108302180
  0.0969874998501936  0.5409030381170581  0.5161084256182278
  0.2139943991489730  0.7852817070117908  0.2397847501460575
  0.5557702989817130  0.7714091359570716  0.7371834408788658
 
  0.00000000E+00  0.00000000E+00  0.00000000E+00
  0.00000000E+00  0.00000000E+00  0.00000000E+00
  0.00000000E+00  0.00000000E+00  0.00000000E+00
  0.00000000E+00  0.00000000E+00  0.00000000E+00
  0.00000000E+00  0.00000000E+00  0.00000000E+00
  0.00000000E+00  0.00000000E+00  0.00000000E+00
  0.00000000E+00  0.00000000E+00  0.00000000E+00
  0.00000000E+00  0.00000000E+00  0.00000000E+00
  0.00000000E+00  0.00000000E+00  0.00000000E+00
  0.00000000E+00  0.00000000E+00  0.00000000E+00
  0.00000000E+00  0.00000000E+00  0.00000000E+00
  0.00000000E+00  0.00000000E+00  0.00000000E+00
  0.00000000E+00  0.00000000E+00  0.00000000E+00
  0.00000000E+00  0.00000000E+00  0.00000000E+00
  0.00000000E+00  0.00000000E+00  0.00000000E+00
  0.00000000E+00  0.00000000E+00  0.00000000E+00
  0.00000000E+00  0.00000000E+00  0.00000000E+00
  0.00000000E+00  0.00000000E+00  0.00000000E+00
  0.00000000E+00  0.00000000E+00  0.00000000E+00
  0.00000000E+00  0.00000000E+00  0.00000000E+00
  0.00000000E+00  0.00000000E+00  0.00000000E+00
  0.00000000E+00  0.00000000E+00  0.00000000E+00
  0.00000000E+00  0.00000000E+00  0.00000000E+00
  0.00000000E+00  0.00000000E+00  0.00000000E+00
  0.00000000E+00  0.00000000E+00  0.00000000E+00
  0.00000000E+00  0.00000000E+00  0.00000000E+00
  0.00000000E+00  0.00000000E+00  0.00000000E+00
  0.00000000E+00  0.00000000E+00  0.00000000E+00
  0.00000000E+00  0.00000000E+00  0.00000000E+00
  0.00000000E+00  0.00000000E+00  0.00000000E+00
  0.00000000E+00  0.00000000E+00  0.00000000E+00
  0.00000000E+00  0.00000000E+00  0.00000000E+00
  0.00000000E+00  0.00000000E+00  0.00000000E+00
  0.00000000E+00  0.00000000E+00  0.00000000E+00
  0.00000000E+00  0.00000000E+00  0.00000000E+00
  0.00000000E+00  0.00000000E+00  0.00000000E+00
  0.00000000E+00  0.00000000E+00  0.00000000E+00
  0.00000000E+00  0.00000000E+00  0.00000000E+00
  0.00000000E+00  0.00000000E+00  0.00000000E+00
  0.00000000E+00  0.00000000E+00  0.00000000E+00
  0.00000000E+00  0.00000000E+00  0.00000000E+00
  0.00000000E+00  0.00000000E+00  0.00000000E+00
  0.00000000E+00  0.00000000E+00  0.00000000E+00
  0.00000000E+00  0.00000000E+00  0.00000000E+00
  0.00000000E+00  0.00000000E+00  0.00000000E+00
  0.00000000E+00  0.00000000E+00  0.00000000E+00
  0.00000000E+00  0.00000000E+00  0.00000000E+00
  0.00000000E+00  0.00000000E+00  0.00000000E+00
  0.00000000E+00  0.00000000E+00  0.00000000E+00
  0.00000000E+00  0.00000000E+00  0.00000000E+00
  0.00000000E+00  0.00000000E+00  0.00000000E+00
  0.00000000E+00  0.00000000E+00  0.00000000E+00
  0.00000000E+00  0.00000000E+00  0.00000000E+00
  0.00000000E+00  0.00000000E+00  0.00000000E+00
  0.00000000E+00  0.00000000E+00  0.00000000E+00
  0.00000000E+00  0.00000000E+00  0.00000000E+00
  0.00000000E+00  0.00000000E+00  0.00000000E+00
  0.00000000E+00  0.00000000E+00  0.00000000E+00
  0.00000000E+00  0.00000000E+00  0.00000000E+00
  0.00000000E+00  0.00000000E+00  0.00000000E+00
  0.00000000E+00  0.00000000E+00  0.00000000E+00
  0.00000000E+00  0.00000000E+00  0.00000000E+00
  0.00000000E+00  0.00000000E+00  0.00000000E+00
  0.00000000E+00  0.00000000E+00  0.00000000E+00
  0.00000000E+00  0.00000000E+00  0.00000000E+00
  0.00000000E+00  0.00000000E+00  0.00000000E+00
  0.00000000E+00  0.00000000E+00  0.00000000E+00
  0.00000000E+00  0.00000000E+00  0.00000000E+00
  0.00000000E+00  0.00000000E+00  0.00000000E+00
  0.00000000E+00  0.00000000E+00  0.00000000E+00
  0.00000000E+00  0.00000000E+00  0.00000000E+00
  0.00000000E+00  0.00000000E+00  0.00000000E+00
