generated by phonopy                    
   1.00000000000000     
    10.0351470768999995   -0.0000022330999784   -0.0000001056124209
    -5.0175765436399997    8.6906901959899994    0.0000001395531216
    -0.0000001735893656    0.0000001431815548   14.9533752540999991
   Pb   P    O 
    21    11    50
Direct
  0.9812964939161262  0.7519627165180083  0.1243222338727463
  0.9966706857240197  0.7602043472336177  0.6238809973001480
  0.0044393149893267  0.2599580214453212  0.3753217001611091
  0.0049301446193297  0.2603086087940980  0.8716071511085772
  0.2292079097210760  0.2192861010400620  0.1241197131079943
  0.2491459927431876  0.2311968637974928  0.6246934931111525
  0.7456829835046790  0.7435086044230204  0.3728192758170294
  0.7454036330062905  0.7424956157565674  0.8742007001636267
  0.7505483816861798  0.0127041655379685  0.1228971468997031
  0.7750972551196043  0.0100188474762177  0.6231526912082401
  0.2602774392674618  0.9996008648590973  0.3758824951560129
  0.2611039138176068  0.9997472106551299  0.8730484897719322
  0.6718186848098142  0.3487155532533492  0.9966710674218504
  0.6722118001782746  0.3315712052583706  0.4998836891879392
  0.3124660312555108  0.6746404234984666  0.0014099436474027
  0.3437553151022286  0.6637242485017651  0.5027006392384976
  0.3139443777158704  0.6771194028863690  0.2465478504143022
  0.3465364776754711  0.6684852436445325  0.7453055898298686
  0.6708205454173992  0.3440740774945397  0.2515381405411290
  0.6720915638548490  0.3301480659151466  0.7480944122464805
  0.5996208709063922  0.6050532730588785  0.1246239725092266
  0.6221566034076389  0.5902533483880461  0.6240662488336071
  0.3735572977253554  0.3941523092050048  0.3716233594771907
  0.3733802429630018  0.3945315692753084  0.8758425487273627
  0.3811423509753951  0.0186629979621600  0.1242428462010565
  0.4092864586125771  0.0255348143094807  0.6238741598590423
  0.6103975337049334  0.9803432818162747  0.3736577468340130
  0.6110179584050499  0.9803948017587061  0.8742586188394128
  0.9718339195874393  0.3780678594299545  0.1244743062217140
  0.9791294650116029  0.3758358757915659  0.6239147904014715
  0.0255707115080810  0.6275900361964375  0.3779124686324806
  0.0262089455853953  0.6282525372082830  0.8693486150491978
  0.5039116067487583  0.7429952967551117  0.1234635942169717
  0.5073802501428943  0.6527284487351821  0.6240088834682140
  0.4758034181058406  0.3168313674002974  0.3729558240093809
  0.4769087883770027  0.3186866749020254  0.8754402347449783
  0.2987382261152831  0.8381865812969878  0.1237985993541884
  0.3443249947051896  0.8483572461968834  0.6238662446295606
  0.6868734465877679  0.1592407752049567  0.3776681820425409
  0.6875521487460432  0.1590237287405074  0.8695125386744138
  0.1497774492923512  0.4858488065003002  0.1244804368981391
  0.1571830382085082  0.4849440489946204  0.6237187410536578
  0.8472200403406305  0.5239810813899268  0.3772979041160980
  0.8477905133538357  0.5250290356899185  0.8699816388269852
  0.7561578182869368  0.6424516106953533  0.0210516394516986
  0.7276987981513940  0.6434873109546828  0.5395915299494547
  0.2740878239807572  0.3575008623747493  0.4590339127770164
  0.2606351148704107  0.3405603755819087  0.9576568937998431
  0.3280807760826718  0.0724936324198637  0.0398146094845160
  0.3527430950916113  0.0781775319942923  0.5397835313213690
  0.6375381754270251  0.9107212543501575  0.4606547487863466
  0.6768030349697369  0.9302033069196654  0.9542977830379655
  0.9156267523993407  0.2715723278728817  0.0399185672843814
  0.9232418253856309  0.2666455047310876  0.5398941049535679
  0.0843919661541435  0.7412996534861733  0.4588307157048916
  0.0897897066433515  0.7298113610030299  0.9560868631973278
  0.2575768127676383  0.3354341283932740  0.2912471894925872
  0.2703886838063880  0.3514409637988933  0.7895473486642786
  0.7602300270650701  0.6480167527855656  0.2262167021340247
  0.7289095121926863  0.6453674596654650  0.7080431462586958
  0.6751578676357965  0.9291108492940978  0.2935870607759057
  0.6368347914713937  0.9092740784279414  0.7873894514187896
  0.3253615028895354  0.0708783496969190  0.2082184575888917
  0.3531173048207137  0.0782532545969303  0.7081856662639439
  0.0890921872656065  0.7292695428159064  0.2912182386034345
  0.0853292856526764  0.7422592472783762  0.7885634201559242
  0.9151139724806256  0.2725533435341418  0.2094654050426001
  0.9239044541717334  0.2669525104770401  0.7080984725353261
  0.4940098956916756  0.3670123986251994  0.1252427509185523
  0.5285759084338935  0.4077847157887291  0.6246687292711925
  0.4793404166864406  0.5748390827117547  0.3638313688977846
  0.4783470726445671  0.5758088023897372  0.8797429183074570
  0.5607659541198160  0.0959014685734019  0.1255221404068863
  0.5902490628384029  0.1173620141801308  0.6238481912421463
  0.4297560421736293  0.9068105206073156  0.3612743894482833
  0.4303634642814131  0.9065853967345561  0.8870388869334533
  0.8881446020457915  0.4761932625581338  0.1240131651012746
  0.8913974115046841  0.4691220254766648  0.6240084652021096
  0.1017995551118744  0.5226771202829426  0.3826383448508324
  0.1019314037775985  0.5229663559193796  0.8646709900346892
  0.9852615625361238  0.9928616694273842  0.1228808780440360
  0.0187258132257213  0.0175535650271996  0.6235856284160306
 
  0.00000000E+00  0.00000000E+00  0.00000000E+00
  0.00000000E+00  0.00000000E+00  0.00000000E+00
  0.00000000E+00  0.00000000E+00  0.00000000E+00
  0.00000000E+00  0.00000000E+00  0.00000000E+00
  0.00000000E+00  0.00000000E+00  0.00000000E+00
  0.00000000E+00  0.00000000E+00  0.00000000E+00
  0.00000000E+00  0.00000000E+00  0.00000000E+00
  0.00000000E+00  0.00000000E+00  0.00000000E+00
  0.00000000E+00  0.00000000E+00  0.00000000E+00
  0.00000000E+00  0.00000000E+00  0.00000000E+00
  0.00000000E+00  0.00000000E+00  0.00000000E+00
  0.00000000E+00  0.00000000E+00  0.00000000E+00
  0.00000000E+00  0.00000000E+00  0.00000000E+00
  0.00000000E+00  0.00000000E+00  0.00000000E+00
  0.00000000E+00  0.00000000E+00  0.00000000E+00
  0.00000000E+00  0.00000000E+00  0.00000000E+00
  0.00000000E+00  0.00000000E+00  0.00000000E+00
  0.00000000E+00  0.00000000E+00  0.00000000E+00
  0.00000000E+00  0.00000000E+00  0.00000000E+00
  0.00000000E+00  0.00000000E+00  0.00000000E+00
  0.00000000E+00  0.00000000E+00  0.00000000E+00
  0.00000000E+00  0.00000000E+00  0.00000000E+00
  0.00000000E+00  0.00000000E+00  0.00000000E+00
  0.00000000E+00  0.00000000E+00  0.00000000E+00
  0.00000000E+00  0.00000000E+00  0.00000000E+00
  0.00000000E+00  0.00000000E+00  0.00000000E+00
  0.00000000E+00  0.00000000E+00  0.00000000E+00
  0.00000000E+00  0.00000000E+00  0.00000000E+00
  0.00000000E+00  0.00000000E+00  0.00000000E+00
  0.00000000E+00  0.00000000E+00  0.00000000E+00
  0.00000000E+00  0.00000000E+00  0.00000000E+00
  0.00000000E+00  0.00000000E+00  0.00000000E+00
  0.00000000E+00  0.00000000E+00  0.00000000E+00
  0.00000000E+00  0.00000000E+00  0.00000000E+00
  0.00000000E+00  0.00000000E+00  0.00000000E+00
  0.00000000E+00  0.00000000E+00  0.00000000E+00
  0.00000000E+00  0.00000000E+00  0.00000000E+00
  0.00000000E+00  0.00000000E+00  0.00000000E+00
  0.00000000E+00  0.00000000E+00  0.00000000E+00
  0.00000000E+00  0.00000000E+00  0.00000000E+00
  0.00000000E+00  0.00000000E+00  0.00000000E+00
  0.00000000E+00  0.00000000E+00  0.00000000E+00
  0.00000000E+00  0.00000000E+00  0.00000000E+00
  0.00000000E+00  0.00000000E+00  0.00000000E+00
  0.00000000E+00  0.00000000E+00  0.00000000E+00
  0.00000000E+00  0.00000000E+00  0.00000000E+00
  0.00000000E+00  0.00000000E+00  0.00000000E+00
  0.00000000E+00  0.00000000E+00  0.00000000E+00
  0.00000000E+00  0.00000000E+00  0.00000000E+00
  0.00000000E+00  0.00000000E+00  0.00000000E+00
  0.00000000E+00  0.00000000E+00  0.00000000E+00
  0.00000000E+00  0.00000000E+00  0.00000000E+00
  0.00000000E+00  0.00000000E+00  0.00000000E+00
  0.00000000E+00  0.00000000E+00  0.00000000E+00
  0.00000000E+00  0.00000000E+00  0.00000000E+00
  0.00000000E+00  0.00000000E+00  0.00000000E+00
  0.00000000E+00  0.00000000E+00  0.00000000E+00
  0.00000000E+00  0.00000000E+00  0.00000000E+00
  0.00000000E+00  0.00000000E+00  0.00000000E+00
  0.00000000E+00  0.00000000E+00  0.00000000E+00
  0.00000000E+00  0.00000000E+00  0.00000000E+00
  0.00000000E+00  0.00000000E+00  0.00000000E+00
  0.00000000E+00  0.00000000E+00  0.00000000E+00
  0.00000000E+00  0.00000000E+00  0.00000000E+00
  0.00000000E+00  0.00000000E+00  0.00000000E+00
  0.00000000E+00  0.00000000E+00  0.00000000E+00
  0.00000000E+00  0.00000000E+00  0.00000000E+00
  0.00000000E+00  0.00000000E+00  0.00000000E+00
  0.00000000E+00  0.00000000E+00  0.00000000E+00
  0.00000000E+00  0.00000000E+00  0.00000000E+00
  0.00000000E+00  0.00000000E+00  0.00000000E+00
  0.00000000E+00  0.00000000E+00  0.00000000E+00
  0.00000000E+00  0.00000000E+00  0.00000000E+00
  0.00000000E+00  0.00000000E+00  0.00000000E+00
  0.00000000E+00  0.00000000E+00  0.00000000E+00
  0.00000000E+00  0.00000000E+00  0.00000000E+00
  0.00000000E+00  0.00000000E+00  0.00000000E+00
  0.00000000E+00  0.00000000E+00  0.00000000E+00
  0.00000000E+00  0.00000000E+00  0.00000000E+00
  0.00000000E+00  0.00000000E+00  0.00000000E+00
  0.00000000E+00  0.00000000E+00  0.00000000E+00
  0.00000000E+00  0.00000000E+00  0.00000000E+00
