supercell of icsd_191774.cif            
   1.00000000000000     
    10.2845708915391416    0.0043834009175739   -0.0753971048162853
    -5.1387847326079754    8.8943797406790317    0.0215784830658127
    -0.0833245230039925   -0.0216449889817536   11.2225488136370295
   N    In   B 
    36    32     4
Direct
  0.2225394375606484  0.1043647285602205  0.4189474730843514
  0.0589261192048340  0.2083147354938788  0.2590308040380833
  0.9471061421981020  0.1409612080883775  0.9407741407143675
  0.7808670077128923  0.2158637767447757  0.6922304830924304
  0.5484273243182258  0.1113000583389621  0.4461923551586935
  0.4466769538833830  0.2262750000357343  0.1910508076209965
  0.1985875786050073  0.1476810908327693  0.9929612506203327
  0.1357575759406231  0.1915860202998374  0.6759124075222971
  0.8612541980414932  0.0931051709122599  0.4118635148533016
  0.7974989575781564  0.1988535143477819  0.2076657261308767
  0.5638070088213212  0.1192238519575497  0.9449360508934106
  0.3929502949292001  0.1945383398250868  0.6956874921759706
  0.2666700467163565  0.4635714784950267  0.4547565486132044
  0.1127323182961106  0.5560133634135909  0.1854034384568735
  0.8870695924797118  0.4411663427012300  0.9461107974366385
  0.7797446794517597  0.5555494704319415  0.6909400494800764
  0.5313616355071176  0.4646446801627988  0.4574915068816452
  0.4387968822102550  0.5544137707373054  0.1828733904509505
  0.2020424986069429  0.3971814532028546  0.9308285561261300
  0.1168866415959755  0.5532644241846540  0.6970962493899435
  0.8914283357128667  0.4443827197663097  0.4424132013569348
  0.7735104165716820  0.5555200215054157  0.1952491657332800
  0.5562877704805445  0.4467545428013509  0.9245274504214862
  0.4452381475506613  0.5567972019662264  0.6494624848941939
  0.2181966497168588  0.7739635462149366  0.4409323371805627
  0.1074624481256237  0.8879621908138731  0.1825391804465184
  0.8876636314251130  0.7824774551775349  0.9380277578554370
  0.7790218660488364  0.8921786539193590  0.6851452679095047
  0.5276889135290688  0.7265651528871615  0.4511096855750196
  0.4456533058815353  0.8878030887547581  0.1940162494579099
  0.2216460804709115  0.7810320781439373  0.9389647951387161
  0.1365336462078233  0.9376033619094670  0.6961353205046876
  0.8895484111620533  0.7776015358681292  0.4424432523621320
  0.7974101471242392  0.9344689342893773  0.2068277484964156
  0.5636457645814730  0.7796891316415113  0.9390290138403685
  0.4469374228603442  0.8888828391640544  0.6887786049582942
  0.2048261046563340  0.1188728893117883  0.2256124013058169
  0.1052672190895549  0.2147225454211394  0.4649318399377904
  0.9116778257045084  0.1130766633088740  0.7490803559251731
  0.7983190071285691  0.2201827368339337  0.0136197284991368
  0.5623984085762075  0.1136321543061953  0.2541329438524187
  0.4320610368112128  0.2257788992762357  0.4982005318978793
  0.7764334572675295  0.2169654723541825  0.5001999598699740
  0.5495036508473490  0.1108964353472643  0.7527979792660702
  0.4383036948734400  0.2292651471528302  0.9995192135119524
  0.2193378464677878  0.4433453050062752  0.2587869034830348
  0.1223323384807031  0.5527005651295411  0.5050123790609931
  0.8901748619552450  0.4407154626847429  0.7555602949541438
  0.7763500816966413  0.5572929082373221  0.0021555368671002
  0.5489588019119722  0.4475301097969364  0.2626486891240774
  0.2291487942652779  0.4249905009254604  0.7323039924431285
  0.1159802152307563  0.5468720943825218  0.9953457855411472
  0.8907479258668403  0.4370044694126207  0.2516367092644529
  0.7707207713201001  0.5538829248653485  0.5003954012874416
  0.5440797160068129  0.4385160639807992  0.7350832067418054
  0.4364106090125333  0.5454976114677450  0.9956043431878072
  0.2198763735990070  0.7804092680450125  0.2497475433430267
  0.1156026436803756  0.8949636081456376  0.4991251180710137
  0.8973755015852305  0.7879419288599649  0.7483905341980233
  0.7978218679454301  0.9112332410922264  0.0122845955290671
  0.5599020523987761  0.7773631734413158  0.2574816851430057
  0.4439615183871766  0.8780765525066982  0.4994942338297292
  0.2260263671065061  0.7882311868086234  0.7495560273427699
  0.1140361272428194  0.9063312322116417  0.9944782837129154
  0.8909388576223449  0.7892675683792021  0.2527362217521656
  0.7632593674362127  0.8773033658802518  0.4955341550069576
  0.5556295653075267  0.7708189677872070  0.7452826203090126
  0.4489839691256279  0.8904615633185955  0.0035410276599137
  0.2215775825656934  0.1095715369062873  0.6965749007571631
  0.1186581845871686  0.2265263401868651  0.9592339120565754
  0.8848129971852856  0.1149093866084883  0.2678712470250488
  0.4409288059477490  0.5532951870301730  0.5014851393702742
 
  0.00000000E+00  0.00000000E+00  0.00000000E+00
  0.00000000E+00  0.00000000E+00  0.00000000E+00
  0.00000000E+00  0.00000000E+00  0.00000000E+00
  0.00000000E+00  0.00000000E+00  0.00000000E+00
  0.00000000E+00  0.00000000E+00  0.00000000E+00
  0.00000000E+00  0.00000000E+00  0.00000000E+00
  0.00000000E+00  0.00000000E+00  0.00000000E+00
  0.00000000E+00  0.00000000E+00  0.00000000E+00
  0.00000000E+00  0.00000000E+00  0.00000000E+00
  0.00000000E+00  0.00000000E+00  0.00000000E+00
  0.00000000E+00  0.00000000E+00  0.00000000E+00
  0.00000000E+00  0.00000000E+00  0.00000000E+00
  0.00000000E+00  0.00000000E+00  0.00000000E+00
  0.00000000E+00  0.00000000E+00  0.00000000E+00
  0.00000000E+00  0.00000000E+00  0.00000000E+00
  0.00000000E+00  0.00000000E+00  0.00000000E+00
  0.00000000E+00  0.00000000E+00  0.00000000E+00
  0.00000000E+00  0.00000000E+00  0.00000000E+00
  0.00000000E+00  0.00000000E+00  0.00000000E+00
  0.00000000E+00  0.00000000E+00  0.00000000E+00
  0.00000000E+00  0.00000000E+00  0.00000000E+00
  0.00000000E+00  0.00000000E+00  0.00000000E+00
  0.00000000E+00  0.00000000E+00  0.00000000E+00
  0.00000000E+00  0.00000000E+00  0.00000000E+00
  0.00000000E+00  0.00000000E+00  0.00000000E+00
  0.00000000E+00  0.00000000E+00  0.00000000E+00
  0.00000000E+00  0.00000000E+00  0.00000000E+00
  0.00000000E+00  0.00000000E+00  0.00000000E+00
  0.00000000E+00  0.00000000E+00  0.00000000E+00
  0.00000000E+00  0.00000000E+00  0.00000000E+00
  0.00000000E+00  0.00000000E+00  0.00000000E+00
  0.00000000E+00  0.00000000E+00  0.00000000E+00
  0.00000000E+00  0.00000000E+00  0.00000000E+00
  0.00000000E+00  0.00000000E+00  0.00000000E+00
  0.00000000E+00  0.00000000E+00  0.00000000E+00
  0.00000000E+00  0.00000000E+00  0.00000000E+00
  0.00000000E+00  0.00000000E+00  0.00000000E+00
  0.00000000E+00  0.00000000E+00  0.00000000E+00
  0.00000000E+00  0.00000000E+00  0.00000000E+00
  0.00000000E+00  0.00000000E+00  0.00000000E+00
  0.00000000E+00  0.00000000E+00  0.00000000E+00
  0.00000000E+00  0.00000000E+00  0.00000000E+00
  0.00000000E+00  0.00000000E+00  0.00000000E+00
  0.00000000E+00  0.00000000E+00  0.00000000E+00
  0.00000000E+00  0.00000000E+00  0.00000000E+00
  0.00000000E+00  0.00000000E+00  0.00000000E+00
  0.00000000E+00  0.00000000E+00  0.00000000E+00
  0.00000000E+00  0.00000000E+00  0.00000000E+00
  0.00000000E+00  0.00000000E+00  0.00000000E+00
  0.00000000E+00  0.00000000E+00  0.00000000E+00
  0.00000000E+00  0.00000000E+00  0.00000000E+00
  0.00000000E+00  0.00000000E+00  0.00000000E+00
  0.00000000E+00  0.00000000E+00  0.00000000E+00
  0.00000000E+00  0.00000000E+00  0.00000000E+00
  0.00000000E+00  0.00000000E+00  0.00000000E+00
  0.00000000E+00  0.00000000E+00  0.00000000E+00
  0.00000000E+00  0.00000000E+00  0.00000000E+00
  0.00000000E+00  0.00000000E+00  0.00000000E+00
  0.00000000E+00  0.00000000E+00  0.00000000E+00
  0.00000000E+00  0.00000000E+00  0.00000000E+00
  0.00000000E+00  0.00000000E+00  0.00000000E+00
  0.00000000E+00  0.00000000E+00  0.00000000E+00
  0.00000000E+00  0.00000000E+00  0.00000000E+00
  0.00000000E+00  0.00000000E+00  0.00000000E+00
  0.00000000E+00  0.00000000E+00  0.00000000E+00
  0.00000000E+00  0.00000000E+00  0.00000000E+00
  0.00000000E+00  0.00000000E+00  0.00000000E+00
  0.00000000E+00  0.00000000E+00  0.00000000E+00
  0.00000000E+00  0.00000000E+00  0.00000000E+00
  0.00000000E+00  0.00000000E+00  0.00000000E+00
  0.00000000E+00  0.00000000E+00  0.00000000E+00
  0.00000000E+00  0.00000000E+00  0.00000000E+00
