Ge   O    Li
   1.00000000000000     
   0.0000003341300186  -0.0000232518771056  -4.9312638194836396
   0.0000070145007717   5.5403795706133101  -0.0000255334491029
   4.8616602991837601   2.7702008362520001  -0.0000130977363080
Ge   O    Li
2  6  4  
Direct
  0.0066011015135672  0.8156203841019050  0.0000004462415433  
  0.5066023961924486  0.1732702937372039  0.9999997228879068  
  0.1355393003732672  0.1290256685333233  0.9999977192872578  
  0.6355382593413594  0.8598666827591401  0.0000019174968671  
  0.0984180358332907  0.8295261400122698  0.6944969202707441  
  0.0984184776498154  0.5240249631943712  0.3055030205953102  
  0.5984186634643649  0.4648668009230477  0.6944978109261299  
  0.5984184193807067  0.1593660577659008  0.3055017048904247  
  0.9971785595825936  0.5106035731068488  0.6507779074209949  
  0.9971778972178100  0.1613843105319646  0.3492247515856803  
  0.4971773662522665  0.8275108211607929  0.6507543777188118  
  0.4971788069541390  0.4782676375065975  0.3492437006783149  
