Ge   O    Li                            
   1.00000000000000     
     0.0219859156154246   -0.0000247268987725   -4.9312699810458298
     0.0008367653884210    5.5753048870069177   -0.0000266502912483
     4.8849915843965315    2.7877177725512241    0.0238710383077988
   Ge   O    Li
     2     6     4
Direct
  0.0571037479331446  0.8163758915185815  0.9999683512021539
  0.5443044190655690  0.1711344411121302  0.0000124247302378
  0.1680645348939339  0.1320752513335319  0.9999347338022022
  0.6598300201038043  0.8569433665565320  0.0000316279752860
  0.1318432353977670  0.8308895879410798  0.6925021979554437
  0.1319636885598754  0.5233965743374096  0.3075291944043810
  0.6343245241847990  0.4634116698523362  0.6965676228867276
  0.6343811517824646  0.1599247536285886  0.3034930924253602
  0.0322725929134864  0.5089950825195416  0.6536190528412915
  0.0324035803263325  0.1626911209797247  0.3462616931203158
  0.5488355730080415  0.8284201348478487  0.6507893414058851
  0.5489239667776361  0.4791218739595448  0.3492740539994868
 
             NaN             NaN             NaN
             NaN             NaN             NaN
             NaN             NaN             NaN
             NaN             NaN             NaN
             NaN             NaN             NaN
             NaN             NaN             NaN
             NaN             NaN             NaN
             NaN             NaN             NaN
             NaN             NaN             NaN
             NaN             NaN             NaN
             NaN             NaN             NaN
             NaN             NaN             NaN
