generated by phonopy                    
   1.00000000000000     
    10.0351470768999995   -0.0000022330999784   -0.0000001056124209
    -5.0175765436399997    8.6906901959899994    0.0000001395531216
    -0.0000001735893656    0.0000001431815548   14.9533752540999991
   Pb   P    O 
    20    12    49
Direct
  0.9904155051489667  0.7690315798832899  0.1236473797078474
  0.9947086581712838  0.7710760033175745  0.6232299199951683
  0.0035802536673089  0.2642081598217771  0.3729410063823480
  0.0040676386689142  0.2639729619240043  0.8738785956617932
  0.2312623734471444  0.2233118438055399  0.1232317952822513
  0.2278255571553771  0.2249288599047716  0.6232708312198341
  0.7368058794778705  0.7414327511988859  0.3702872949324529
  0.7359630554276251  0.7402280513330979  0.8772056240548167
  0.7731309974362546  0.0036370112867843  0.1239061814987750
  0.7739913000613896  0.0034717546400316  0.6232164273221557
  0.2585841433520670  0.9947900603935267  0.3732622385864346
  0.2589597291658947  0.9946410571500977  0.8742606000939617
  0.6718113799049306  0.3396240798867041  0.0000481919140896
  0.6662496105871014  0.3340800518552385  0.5012071429146658
  0.3388703123928991  0.6647341324931020  0.0052150865072775
  0.3321027824914040  0.6671731120530282  0.5035301900978411
  0.3385688745141593  0.6643220211997800  0.2422910977582120
  0.3320828815283505  0.6668742350001224  0.7438515939142789
  0.6673029052753492  0.3397679945499732  0.2472315510796577
  0.6657666666909776  0.3338728305761762  0.7464207909397942
  0.6132689594702541  0.5696614165686427  0.1248876294795878
  0.6231031756411980  0.5949366292528211  0.6240895059747160
  0.3674530540564120  0.3956672959069110  0.3740812783922820
  0.3676072439336053  0.3948889423427531  0.8739816082204044
  0.4092769457390304  0.0307345826235661  0.1240597610654817
  0.4045320044357510  0.0286695254455083  0.6239455753870615
  0.6056810525555818  0.9746820489070984  0.3727373082849326
  0.6059536463543367  0.9741387336087399  0.8751091232673289
  0.9713458435767848  0.3770509981421100  0.1239887512809830
  0.9708651157782100  0.3774885439967335  0.6238978763922489
  0.0265914387288646  0.6324195399630739  0.3728714578435159
  0.0276193284431443  0.6321793193936855  0.8747501851007371
  0.4934983859650686  0.6316485836675838  0.1239823774082609
  0.4995761451160092  0.6462358662437850  0.6237258863760289
  0.4696762427721950  0.3198247838559425  0.3745407731014438
  0.4705177777045577  0.3198293523365123  0.8740554490948185
  0.3607576805709272  0.8571467081114363  0.1239699623900563
  0.3545130397549201  0.8541650288746325  0.6237393750117164
  0.6813352435009534  0.1529994714438914  0.3705087840453629
  0.6816071468513840  0.1524664672004334  0.8775112808356127
  0.1463162966146641  0.4987635469226532  0.1235584544525494
  0.1454640641852905  0.5018059712061884  0.6236753749357362
  0.8481562213372484  0.5288904481761563  0.3732585063391625
  0.8492061247043523  0.5280799682577140  0.8749220482624338
  0.7246780412331120  0.6448913253859700  0.0395368990575022
  0.7293019913048013  0.6563501496432806  0.5394430358738234
  0.2600164303185366  0.3516537781292470  0.4577705551428650
  0.2609557049378211  0.3497636484949496  0.9582746495960990
  0.3464904549877872  0.0749644509803602  0.0395790492194621
  0.3423146624837372  0.0724685759024126  0.5392967555375918
  0.6545736561146924  0.9158073434546949  0.4563569542196078
  0.6467899838020443  0.9083328171670786  0.9594206570497903
  0.9239307136134798  0.2725402885014248  0.0385055632669733
  0.9268753400794125  0.2718675790236418  0.5390922307137060
  0.0891322250128397  0.7374950189824503  0.4576848369480473
  0.0875819602261316  0.7406552056057905  0.9580814799547070
  0.2604379176746434  0.3495857485076570  0.2899475266846565
  0.2595760219172334  0.3491691852887229  0.7904850613214975
  0.7276362125404745  0.6519018660238061  0.2083087442652030
  0.7291215745319803  0.6571403909433471  0.7087678868586309
  0.6486027121835818  0.9096381144786108  0.2889057096873913
  0.6567411128159932  0.9158926619416405  0.7920417843120191
  0.3457374469650958  0.0747124724656629  0.2083696556211194
  0.3410401875276037  0.0716234370926401  0.7083420703394978
  0.0858464592878789  0.7423566647591784  0.2901324930051103
  0.0887638770052774  0.7384605062690497  0.7904266138124996
  0.9272440832942763  0.2691187583946686  0.2077343766126774
  0.9281353045456839  0.2711991136448049  0.7083305035999885
  0.5433032701817311  0.4142188778633624  0.6243203423924086
  0.4736047946696189  0.5776520709183472  0.3733680471721641
  0.4730072302326533  0.5770118837379670  0.8736935491748383
  0.5894289932060559  0.1345332185865828  0.1244713810525511
  0.5849133621509424  0.1302531648048699  0.6243259118696614
  0.4239111481182931  0.8981144197840436  0.3744353803766032
  0.4242512208798317  0.8978733911469163  0.8720686653985155
  0.8721991607940609  0.4586572673244333  0.1258672794638827
  0.8692595141714605  0.4562880988091322  0.6244459322876139
  0.1029463008664990  0.5270265577606565  0.3709025660642169
  0.1043436821049539  0.5270513476282588  0.8750572993651815
  0.0030476454825816  0.0061225558549864  0.1217190376311805
  0.9989976399429850  0.0002411111012535  0.6215235607168736
 
  0.00000000E+00  0.00000000E+00  0.00000000E+00
  0.00000000E+00  0.00000000E+00  0.00000000E+00
  0.00000000E+00  0.00000000E+00  0.00000000E+00
  0.00000000E+00  0.00000000E+00  0.00000000E+00
  0.00000000E+00  0.00000000E+00  0.00000000E+00
  0.00000000E+00  0.00000000E+00  0.00000000E+00
  0.00000000E+00  0.00000000E+00  0.00000000E+00
  0.00000000E+00  0.00000000E+00  0.00000000E+00
  0.00000000E+00  0.00000000E+00  0.00000000E+00
  0.00000000E+00  0.00000000E+00  0.00000000E+00
  0.00000000E+00  0.00000000E+00  0.00000000E+00
  0.00000000E+00  0.00000000E+00  0.00000000E+00
  0.00000000E+00  0.00000000E+00  0.00000000E+00
  0.00000000E+00  0.00000000E+00  0.00000000E+00
  0.00000000E+00  0.00000000E+00  0.00000000E+00
  0.00000000E+00  0.00000000E+00  0.00000000E+00
  0.00000000E+00  0.00000000E+00  0.00000000E+00
  0.00000000E+00  0.00000000E+00  0.00000000E+00
  0.00000000E+00  0.00000000E+00  0.00000000E+00
  0.00000000E+00  0.00000000E+00  0.00000000E+00
  0.00000000E+00  0.00000000E+00  0.00000000E+00
  0.00000000E+00  0.00000000E+00  0.00000000E+00
  0.00000000E+00  0.00000000E+00  0.00000000E+00
  0.00000000E+00  0.00000000E+00  0.00000000E+00
  0.00000000E+00  0.00000000E+00  0.00000000E+00
  0.00000000E+00  0.00000000E+00  0.00000000E+00
  0.00000000E+00  0.00000000E+00  0.00000000E+00
  0.00000000E+00  0.00000000E+00  0.00000000E+00
  0.00000000E+00  0.00000000E+00  0.00000000E+00
  0.00000000E+00  0.00000000E+00  0.00000000E+00
  0.00000000E+00  0.00000000E+00  0.00000000E+00
  0.00000000E+00  0.00000000E+00  0.00000000E+00
  0.00000000E+00  0.00000000E+00  0.00000000E+00
  0.00000000E+00  0.00000000E+00  0.00000000E+00
  0.00000000E+00  0.00000000E+00  0.00000000E+00
  0.00000000E+00  0.00000000E+00  0.00000000E+00
  0.00000000E+00  0.00000000E+00  0.00000000E+00
  0.00000000E+00  0.00000000E+00  0.00000000E+00
  0.00000000E+00  0.00000000E+00  0.00000000E+00
  0.00000000E+00  0.00000000E+00  0.00000000E+00
  0.00000000E+00  0.00000000E+00  0.00000000E+00
  0.00000000E+00  0.00000000E+00  0.00000000E+00
  0.00000000E+00  0.00000000E+00  0.00000000E+00
  0.00000000E+00  0.00000000E+00  0.00000000E+00
  0.00000000E+00  0.00000000E+00  0.00000000E+00
  0.00000000E+00  0.00000000E+00  0.00000000E+00
  0.00000000E+00  0.00000000E+00  0.00000000E+00
  0.00000000E+00  0.00000000E+00  0.00000000E+00
  0.00000000E+00  0.00000000E+00  0.00000000E+00
  0.00000000E+00  0.00000000E+00  0.00000000E+00
  0.00000000E+00  0.00000000E+00  0.00000000E+00
  0.00000000E+00  0.00000000E+00  0.00000000E+00
  0.00000000E+00  0.00000000E+00  0.00000000E+00
  0.00000000E+00  0.00000000E+00  0.00000000E+00
  0.00000000E+00  0.00000000E+00  0.00000000E+00
  0.00000000E+00  0.00000000E+00  0.00000000E+00
  0.00000000E+00  0.00000000E+00  0.00000000E+00
  0.00000000E+00  0.00000000E+00  0.00000000E+00
  0.00000000E+00  0.00000000E+00  0.00000000E+00
  0.00000000E+00  0.00000000E+00  0.00000000E+00
  0.00000000E+00  0.00000000E+00  0.00000000E+00
  0.00000000E+00  0.00000000E+00  0.00000000E+00
  0.00000000E+00  0.00000000E+00  0.00000000E+00
  0.00000000E+00  0.00000000E+00  0.00000000E+00
  0.00000000E+00  0.00000000E+00  0.00000000E+00
  0.00000000E+00  0.00000000E+00  0.00000000E+00
  0.00000000E+00  0.00000000E+00  0.00000000E+00
  0.00000000E+00  0.00000000E+00  0.00000000E+00
  0.00000000E+00  0.00000000E+00  0.00000000E+00
  0.00000000E+00  0.00000000E+00  0.00000000E+00
  0.00000000E+00  0.00000000E+00  0.00000000E+00
  0.00000000E+00  0.00000000E+00  0.00000000E+00
  0.00000000E+00  0.00000000E+00  0.00000000E+00
  0.00000000E+00  0.00000000E+00  0.00000000E+00
  0.00000000E+00  0.00000000E+00  0.00000000E+00
  0.00000000E+00  0.00000000E+00  0.00000000E+00
  0.00000000E+00  0.00000000E+00  0.00000000E+00
  0.00000000E+00  0.00000000E+00  0.00000000E+00
  0.00000000E+00  0.00000000E+00  0.00000000E+00
  0.00000000E+00  0.00000000E+00  0.00000000E+00
  0.00000000E+00  0.00000000E+00  0.00000000E+00
