generated by phonopy                    
   1.00000000000000     
    11.7777700938999992   -0.0000006592896312    0.0000118211769744
    -0.0000006477562692   11.7777479613999994   -0.0000130806483528
     0.0000177256125076   -0.0000204342245446   17.8544012557999991
   Ti   Bi   Cu   Se   O 
     1    35    36    36    36
Direct
  0.0002484534674636  0.1669483816872130  0.4539518574297503
  0.3333215936632712  0.1668301734367290  0.4267530438299332
  0.6670561871928200  0.1668505145342749  0.4267318914827314
  0.0001547456103168  0.5000060173487384  0.4267600131629976
  0.3325354517612951  0.4992143439819046  0.4283267321722377
  0.6677965880912922  0.4992200335930903  0.4283160248954871
  0.0001778547978262  0.8337327193762647  0.4267245753668618
  0.3325432767768675  0.8344699072572581  0.4283106227738003
  0.6678134569399319  0.8344807528256126  0.4283016881008592
  0.0000318413497098  0.1666899672806892  0.9288352434756462
  0.3337084732870821  0.1666899054861730  0.9291945658148890
  0.6663582675060482  0.1666954665473739  0.9291967065245359
  0.0000317730066683  0.5003651758671168  0.9291921032128343
  0.3333276238518579  0.4999801604163139  0.9292242874960692
  0.6667342242121777  0.4999803324700096  0.9292252287539426
  0.0000368768619552  0.8330174258976157  0.9291965245501856
  0.3333247351354913  0.8333921284954755  0.9292246001130593
  0.6667415525720273  0.8333986066160080  0.9292233346834493
  0.1666754539016253  0.0000502231887722  0.0707869694398937
  0.5000378830124532  0.9998033026615190  0.0713938140781920
  0.8333980740479703  0.0000581672129059  0.0707897672712079
  0.1666642527529945  0.3333236021956978  0.0707866917920512
  0.5000231371026302  0.3335881233854039  0.0714022654878192
  0.8333926014103099  0.3333344844228350  0.0707871140809218
  0.1669288962189910  0.6666787337546296  0.0713974018257630
  0.5000392736132895  0.6666992139077763  0.0710752283192519
  0.8331438991131677  0.6666955701143635  0.0713938136158632
  0.1679045838487951  0.9990849860081852  0.5711796172928558
  0.5001857378500887  0.0015452546895816  0.5700142802566006
  0.8324644738513953  0.9991308373145458  0.5711432904812952
  0.1679595936397149  0.3346341772799661  0.5712263582039867
  0.5001777246688519  0.3321134392075464  0.5700174043535071
  0.8324013627935329  0.3345965701043525  0.5711976334731119
  0.1654396558959874  0.6668584189798139  0.5700210419798069
  0.5001713074880314  0.6668485195111771  0.5690911044599289
  0.8348761847938988  0.6668641963666815  0.5700185585179014
  0.0001350449689710  0.0019521906021822  0.2485031486568090
  0.3280603316560473  0.0017081796558713  0.2524323705661828
  0.6721925754160480  0.0017406139579634  0.2524303911154533
  0.0000627012692078  0.3314488858183537  0.2484724929286912
  0.3278995810187908  0.3316140598240978  0.2525040280810913
  0.6721715880591361  0.3316934445827826  0.2524476471707331
  0.0001252714286366  0.6667015133650125  0.2489465437823455
  0.3338000436528077  0.6667113124762594  0.2502455506745207
  0.6664666034363051  0.6667197492616808  0.2502472200960355
  0.0000707097392976  0.9998049328891625  0.7503321899050377
  0.3330995889297625  0.9999974777602816  0.7496170252442056
  0.6670648194792648  0.0000105372991683  0.7496125892566070
  0.0000709639012655  0.3338194466588149  0.7503266769987178
  0.3330987629381212  0.3335758150649397  0.7496150175733902
  0.6670549912709447  0.3335757515812858  0.7496073409002051
  0.0000676190455522  0.6668180366184515  0.7495237291627319
  0.3325767648365670  0.6668189391732682  0.7490446293884787
  0.6675561602082496  0.6668221566633505  0.7490388279355784
  0.1648015323492018  0.1667169033364360  0.2484771088039395
  0.5000477813222943  0.1667832296369980  0.2489422503398231
  0.8353047486419811  0.1667918272959383  0.2484985297477422
  0.1649632853996792  0.4945486293498220  0.2525041526187906
  0.5000573144129135  0.5004637368154263  0.2502445403083655
  0.8350729579244316  0.4946859088299220  0.2524474365167677
  0.1650553608082390  0.8388040672142196  0.2524319472055083
  0.5000602438961224  0.8331307641494377  0.2502448919285740
  0.8350874149856580  0.8388507985368321  0.2524318299186632
  0.1671451076699739  0.1667270774286820  0.7503280392010296
  0.5001414134148945  0.1667251928172959  0.7495241565830995
  0.8331276577577569  0.1667320244980957  0.7503323863721363
  0.1669088781304850  0.4997631021455646  0.7496159132754698
  0.5001419052486966  0.4992296218947061  0.7490479234216281
  0.8333360537783818  0.4997675473046996  0.7496169062736300
  0.1669059270527811  0.8337233788929197  0.7496043094577161
  0.5001420817453379  0.8342205770246878  0.7490347247234581
  0.8333488254153281  0.8337296300386754  0.7496082907584238
  0.1597248528733815  0.3263829440065749  0.3407941457948738
  0.5000771666553163  0.3320689941854340  0.3373368508092014
  0.8403156861809435  0.3265679602900349  0.3407299487156763
  0.1654110939561377  0.6667270598792712  0.3373387320095134
  0.5001262674378211  0.6667882626357127  0.3382602395338239
  0.8348291672038926  0.6667735486185720  0.3373403498194492
  0.1599487876933097  0.0069386364142758  0.3407082370857921
  0.5001216759103713  0.0014912829555342  0.3373425093278897
  0.8403034679184316  0.0069638957101859  0.3406921173224688
  0.1671533904301512  0.3338144642685990  0.8371469889479357
  0.5000729160880297  0.3332496167267252  0.8363378785591422
  0.8329744401768409  0.3338208861586764  0.8371498351457376
  0.1665922947788729  0.6667381742829264  0.8363345622864955
  0.5000646483373643  0.6667241476915677  0.8351523510789391
  0.8335285623410584  0.6667399172624400  0.8363345054422027
  0.1671589879944975  0.9996348338335821  0.8371522772236020
  0.5000760418843058  0.0001886725955984  0.8363357857731941
  0.8329799813349084  0.9996398456181481  0.8371570053704218
  0.3327044194558937  0.1667042340522542  0.1634207106705077
  0.6673949564118402  0.1667161314578820  0.1634199491412787
  0.0000428377835959  0.1666886926957361  0.1603217949742941
  0.3318001730720397  0.4984527350830916  0.1653971011373301
  0.6682443636386424  0.4985131258696427  0.1653400857758598
  0.0000514517654935  0.4993582378688757  0.1634251853145017
  0.3318698608541553  0.8348812974404467  0.1653248445113604
  0.6682436171331219  0.8348969077845609  0.1653264522340905
  0.0000609878565356  0.8340451786646241  0.1634210097343143
  0.3327459368373979  0.1667861849595198  0.6614978389522719
  0.6675380892117104  0.1667923579752610  0.6614910934426987
  0.0001343555475373  0.1668044840285532  0.6636780880994948
  0.3328944650502592  0.4995621557412164  0.6612272654413616
  0.6673678604750677  0.4995626188100672  0.6612174211104644
  0.0001215422273546  0.4994211050949673  0.6614998486214532
  0.3328932856558708  0.8340399745242024  0.6612139040046614
  0.6673818815694332  0.8340511514287030  0.6612082797469512
  0.0001258167442870  0.8342136601597616  0.6614888150340548
  0.1550403664315425  0.1668475248933419  0.4966429138365598
  0.5001582069635973  0.1668176782160415  0.4979904303508036
  0.8453153005730911  0.1668583468335001  0.4965774825426763
  0.1647835529496575  0.4982829972081007  0.4998578012825590
  0.5001448648316753  0.4989212636831724  0.4986530093834673
  0.8355058395480057  0.4982767900191831  0.4998528627402834
  0.1647719308038518  0.8353702416842808  0.4998409230713108
  0.5001611649992057  0.8347338507283411  0.4986442381725382
  0.8355426786569922  0.8353911952495920  0.4998341302248122
  0.1670410161323801  0.1666943240784775  0.9996932572882784
  0.5000392340884687  0.1667025674780760  0.0007236542349673
  0.8330422828325865  0.1666994707969138  0.9996954594793408
  0.1670576109714688  0.5005788427628204  0.0000029838355360
  0.5000344472496892  0.5005829645611755  0.0007782962357155
  0.8330229419558179  0.5005865960305940  0.0000023726345262
  0.1670617528438996  0.8328077074864453  0.0000071745339767
  0.5000422624319469  0.8328010186267107  0.0007790226206836
  0.8330251324724358  0.8328103162931413  0.0000057117682246
  0.0000413700805808  0.9997014987790251  0.9996960407128057
  0.3339311109251923  0.9996814060709838  0.0000025152351242
  0.6661516814374977  0.9996845390909854  0.0000052364934149
  0.0000366716467255  0.3337003131353811  0.9996930427367801
  0.3339223197575478  0.3337171863083697  0.0000060527196553
  0.6661516195924690  0.3337201938606782  0.0000088571179973
  0.0000427652083346  0.6666960917575082  0.0007217228097289
  0.3339286865384636  0.6666895525774947  0.0007772066411817
  0.6661450656125965  0.6666991540312281  0.0007782039894977
  0.0001756787102849  0.0119920641141817  0.4965561045713045
  0.3315977585481207  0.0021763771911907  0.4998479677965122
  0.6687264422737087  0.0022043142510100  0.4998348140010194
  0.0001639794622434  0.3217316981800309  0.4966524789999696
  0.3316079599749813  0.3314555958709917  0.4998549674401431
  0.6687036005038394  0.3314486471655727  0.4998454541823065
  0.0001455672634663  0.6668293928237929  0.4979947458470164
  0.3322455615470972  0.6668185638688584  0.4986560142091747
  0.6680656931500266  0.6668283966931270  0.4986493688819067
 
  0.00000000E+00  0.00000000E+00  0.00000000E+00
  0.00000000E+00  0.00000000E+00  0.00000000E+00
  0.00000000E+00  0.00000000E+00  0.00000000E+00
  0.00000000E+00  0.00000000E+00  0.00000000E+00
  0.00000000E+00  0.00000000E+00  0.00000000E+00
  0.00000000E+00  0.00000000E+00  0.00000000E+00
  0.00000000E+00  0.00000000E+00  0.00000000E+00
  0.00000000E+00  0.00000000E+00  0.00000000E+00
  0.00000000E+00  0.00000000E+00  0.00000000E+00
  0.00000000E+00  0.00000000E+00  0.00000000E+00
  0.00000000E+00  0.00000000E+00  0.00000000E+00
  0.00000000E+00  0.00000000E+00  0.00000000E+00
  0.00000000E+00  0.00000000E+00  0.00000000E+00
  0.00000000E+00  0.00000000E+00  0.00000000E+00
  0.00000000E+00  0.00000000E+00  0.00000000E+00
  0.00000000E+00  0.00000000E+00  0.00000000E+00
  0.00000000E+00  0.00000000E+00  0.00000000E+00
  0.00000000E+00  0.00000000E+00  0.00000000E+00
  0.00000000E+00  0.00000000E+00  0.00000000E+00
  0.00000000E+00  0.00000000E+00  0.00000000E+00
  0.00000000E+00  0.00000000E+00  0.00000000E+00
  0.00000000E+00  0.00000000E+00  0.00000000E+00
  0.00000000E+00  0.00000000E+00  0.00000000E+00
  0.00000000E+00  0.00000000E+00  0.00000000E+00
  0.00000000E+00  0.00000000E+00  0.00000000E+00
  0.00000000E+00  0.00000000E+00  0.00000000E+00
  0.00000000E+00  0.00000000E+00  0.00000000E+00
  0.00000000E+00  0.00000000E+00  0.00000000E+00
  0.00000000E+00  0.00000000E+00  0.00000000E+00
  0.00000000E+00  0.00000000E+00  0.00000000E+00
  0.00000000E+00  0.00000000E+00  0.00000000E+00
  0.00000000E+00  0.00000000E+00  0.00000000E+00
  0.00000000E+00  0.00000000E+00  0.00000000E+00
  0.00000000E+00  0.00000000E+00  0.00000000E+00
  0.00000000E+00  0.00000000E+00  0.00000000E+00
  0.00000000E+00  0.00000000E+00  0.00000000E+00
  0.00000000E+00  0.00000000E+00  0.00000000E+00
  0.00000000E+00  0.00000000E+00  0.00000000E+00
  0.00000000E+00  0.00000000E+00  0.00000000E+00
  0.00000000E+00  0.00000000E+00  0.00000000E+00
  0.00000000E+00  0.00000000E+00  0.00000000E+00
  0.00000000E+00  0.00000000E+00  0.00000000E+00
  0.00000000E+00  0.00000000E+00  0.00000000E+00
  0.00000000E+00  0.00000000E+00  0.00000000E+00
  0.00000000E+00  0.00000000E+00  0.00000000E+00
  0.00000000E+00  0.00000000E+00  0.00000000E+00
  0.00000000E+00  0.00000000E+00  0.00000000E+00
  0.00000000E+00  0.00000000E+00  0.00000000E+00
  0.00000000E+00  0.00000000E+00  0.00000000E+00
  0.00000000E+00  0.00000000E+00  0.00000000E+00
  0.00000000E+00  0.00000000E+00  0.00000000E+00
  0.00000000E+00  0.00000000E+00  0.00000000E+00
  0.00000000E+00  0.00000000E+00  0.00000000E+00
  0.00000000E+00  0.00000000E+00  0.00000000E+00
  0.00000000E+00  0.00000000E+00  0.00000000E+00
  0.00000000E+00  0.00000000E+00  0.00000000E+00
  0.00000000E+00  0.00000000E+00  0.00000000E+00
  0.00000000E+00  0.00000000E+00  0.00000000E+00
  0.00000000E+00  0.00000000E+00  0.00000000E+00
  0.00000000E+00  0.00000000E+00  0.00000000E+00
  0.00000000E+00  0.00000000E+00  0.00000000E+00
  0.00000000E+00  0.00000000E+00  0.00000000E+00
  0.00000000E+00  0.00000000E+00  0.00000000E+00
  0.00000000E+00  0.00000000E+00  0.00000000E+00
  0.00000000E+00  0.00000000E+00  0.00000000E+00
  0.00000000E+00  0.00000000E+00  0.00000000E+00
  0.00000000E+00  0.00000000E+00  0.00000000E+00
  0.00000000E+00  0.00000000E+00  0.00000000E+00
  0.00000000E+00  0.00000000E+00  0.00000000E+00
  0.00000000E+00  0.00000000E+00  0.00000000E+00
  0.00000000E+00  0.00000000E+00  0.00000000E+00
  0.00000000E+00  0.00000000E+00  0.00000000E+00
  0.00000000E+00  0.00000000E+00  0.00000000E+00
  0.00000000E+00  0.00000000E+00  0.00000000E+00
  0.00000000E+00  0.00000000E+00  0.00000000E+00
  0.00000000E+00  0.00000000E+00  0.00000000E+00
  0.00000000E+00  0.00000000E+00  0.00000000E+00
  0.00000000E+00  0.00000000E+00  0.00000000E+00
  0.00000000E+00  0.00000000E+00  0.00000000E+00
  0.00000000E+00  0.00000000E+00  0.00000000E+00
  0.00000000E+00  0.00000000E+00  0.00000000E+00
  0.00000000E+00  0.00000000E+00  0.00000000E+00
  0.00000000E+00  0.00000000E+00  0.00000000E+00
  0.00000000E+00  0.00000000E+00  0.00000000E+00
  0.00000000E+00  0.00000000E+00  0.00000000E+00
  0.00000000E+00  0.00000000E+00  0.00000000E+00
  0.00000000E+00  0.00000000E+00  0.00000000E+00
  0.00000000E+00  0.00000000E+00  0.00000000E+00
  0.00000000E+00  0.00000000E+00  0.00000000E+00
  0.00000000E+00  0.00000000E+00  0.00000000E+00
  0.00000000E+00  0.00000000E+00  0.00000000E+00
  0.00000000E+00  0.00000000E+00  0.00000000E+00
  0.00000000E+00  0.00000000E+00  0.00000000E+00
  0.00000000E+00  0.00000000E+00  0.00000000E+00
  0.00000000E+00  0.00000000E+00  0.00000000E+00
  0.00000000E+00  0.00000000E+00  0.00000000E+00
  0.00000000E+00  0.00000000E+00  0.00000000E+00
  0.00000000E+00  0.00000000E+00  0.00000000E+00
  0.00000000E+00  0.00000000E+00  0.00000000E+00
  0.00000000E+00  0.00000000E+00  0.00000000E+00
  0.00000000E+00  0.00000000E+00  0.00000000E+00
  0.00000000E+00  0.00000000E+00  0.00000000E+00
  0.00000000E+00  0.00000000E+00  0.00000000E+00
  0.00000000E+00  0.00000000E+00  0.00000000E+00
  0.00000000E+00  0.00000000E+00  0.00000000E+00
  0.00000000E+00  0.00000000E+00  0.00000000E+00
  0.00000000E+00  0.00000000E+00  0.00000000E+00
  0.00000000E+00  0.00000000E+00  0.00000000E+00
  0.00000000E+00  0.00000000E+00  0.00000000E+00
  0.00000000E+00  0.00000000E+00  0.00000000E+00
  0.00000000E+00  0.00000000E+00  0.00000000E+00
  0.00000000E+00  0.00000000E+00  0.00000000E+00
  0.00000000E+00  0.00000000E+00  0.00000000E+00
  0.00000000E+00  0.00000000E+00  0.00000000E+00
  0.00000000E+00  0.00000000E+00  0.00000000E+00
  0.00000000E+00  0.00000000E+00  0.00000000E+00
  0.00000000E+00  0.00000000E+00  0.00000000E+00
  0.00000000E+00  0.00000000E+00  0.00000000E+00
  0.00000000E+00  0.00000000E+00  0.00000000E+00
  0.00000000E+00  0.00000000E+00  0.00000000E+00
  0.00000000E+00  0.00000000E+00  0.00000000E+00
  0.00000000E+00  0.00000000E+00  0.00000000E+00
  0.00000000E+00  0.00000000E+00  0.00000000E+00
  0.00000000E+00  0.00000000E+00  0.00000000E+00
  0.00000000E+00  0.00000000E+00  0.00000000E+00
  0.00000000E+00  0.00000000E+00  0.00000000E+00
  0.00000000E+00  0.00000000E+00  0.00000000E+00
  0.00000000E+00  0.00000000E+00  0.00000000E+00
  0.00000000E+00  0.00000000E+00  0.00000000E+00
  0.00000000E+00  0.00000000E+00  0.00000000E+00
  0.00000000E+00  0.00000000E+00  0.00000000E+00
  0.00000000E+00  0.00000000E+00  0.00000000E+00
  0.00000000E+00  0.00000000E+00  0.00000000E+00
  0.00000000E+00  0.00000000E+00  0.00000000E+00
  0.00000000E+00  0.00000000E+00  0.00000000E+00
  0.00000000E+00  0.00000000E+00  0.00000000E+00
  0.00000000E+00  0.00000000E+00  0.00000000E+00
  0.00000000E+00  0.00000000E+00  0.00000000E+00
  0.00000000E+00  0.00000000E+00  0.00000000E+00
  0.00000000E+00  0.00000000E+00  0.00000000E+00
  0.00000000E+00  0.00000000E+00  0.00000000E+00
  0.00000000E+00  0.00000000E+00  0.00000000E+00
  0.00000000E+00  0.00000000E+00  0.00000000E+00
  0.00000000E+00  0.00000000E+00  0.00000000E+00
