generated by phonopy                    
   1.00000000000000     
    10.0351470768999995   -0.0000022330999784   -0.0000001056124209
    -5.0175765436399997    8.6906901959899994    0.0000001395531216
    -0.0000001735893656    0.0000001431815548   14.9533752540999991
   Pb   P    O    Cu
    20    12    49     1
Direct
  0.0069177546222221  0.7612839220100369  0.1220339742552241
  0.9962888821343014  0.7699887735632913  0.6230801329534685
  0.9997282892818831  0.2632951199804765  0.3715573318390497
  0.9993365071057454  0.2627278058287672  0.8756756303059348
  0.2046721502046083  0.2000162554397349  0.1215128244267376
  0.2298424444008873  0.2270359403372026  0.6230677846349337
  0.7406381378668243  0.7397864094343802  0.3735375174084581
  0.7405550404544599  0.7395551617260452  0.8737614978820787
  0.7726786481923895  0.0174992467091712  0.1218125965223535
  0.7760084256952524  0.0028409397660951  0.6230241676715167
  0.2605456041381942  0.9961038017933603  0.3738766043857211
  0.2608812031006309  0.9965362618504159  0.8731302295903589
  0.6521002214223799  0.3451193670844930  0.0121077105297118
  0.6671522451567853  0.3310211771091431  0.4994352325891214
  0.3338061725248451  0.6609607119650462  0.0028103615239559
  0.3364771794337429  0.6685369261767775  0.5036073604339251
  0.3337553459625511  0.6605935427786562  0.2450546702729852
  0.3357125476713634  0.6679177103041667  0.7441142409234871
  0.6554800462477388  0.3446345461489670  0.2381422493598180
  0.6673158449241825  0.3310439562805385  0.7497001849746709
  0.6733804872064511  0.7093820366469714  0.1239226725981695
  0.6237861985649928  0.5945672361038490  0.6244034233823044
  0.3666837484718215  0.3915702466846938  0.3756704430433260
  0.3663390227324541  0.3913827552219828  0.8726502620732930
  0.3964756169704344  0.0145985348334037  0.1242484770451284
  0.4078990439366663  0.0296695949141679  0.6242408709303646
  0.6069344417820091  0.9709350650922133  0.3753338188435364
  0.6068394077068220  0.9709223357214540  0.8727322301278875
  0.9822713415296391  0.3870195870237652  0.1239425922952577
  0.9716421101260124  0.3765234495565366  0.6241601119317437
  0.0275438428415882  0.6345804955889491  0.3787560960198064
  0.0274632899155876  0.6342711803194518  0.8695001803498457
  0.4843279130861902  0.6118083695808494  0.1239094603312765
  0.5006053582922974  0.6465671220765188  0.6239843246369219
  0.4654796797469771  0.3117221096348501  0.3751754278549484
  0.4651455836530616  0.3115307390201423  0.8736893929623051
  0.3638580512415928  0.8448459167205442  0.1238065628174567
  0.3551802861846269  0.8544347514110697  0.6239328087848222
  0.6876659707630068  0.1485772657848941  0.3791839122697453
  0.6879472078381568  0.1485974263592880  0.8698696475306349
  0.1503129067726192  0.5269994078843823  0.1241355228437016
  0.1463874945367394  0.5003810996177620  0.6238754616516360
  0.8496476349311806  0.5384786136229280  0.3832817158615214
  0.8494889668273444  0.5387023544441973  0.8658544290862338
  0.7306406901286095  0.6521472427646486  0.0392309979115666
  0.7300332399111724  0.6563288375931577  0.5399229473744356
  0.2592199127068753  0.3472820844106437  0.4592266591016383
  0.2611483712664864  0.3501800936435941  0.9573477032885265
  0.3255809375878229  0.0469621404103506  0.0394412528290289
  0.3478724906620414  0.0755584417344792  0.5395673904663809
  0.6450158235373920  0.9008552741033498  0.4587328396427566
  0.6499163586614927  0.9095877228952602  0.9581056186297587
  0.9553848448748070  0.2894331777851988  0.0382599921482480
  0.9268199124166330  0.2705776664898067  0.5394080923006399
  0.0990257076601821  0.7445773254285868  0.4612686474183647
  0.0867099694466802  0.7371149589944821  0.9551510033936452
  0.2608817460630490  0.3493820254268627  0.2912587336730823
  0.2583170276469389  0.3459195306151486  0.7894284224783306
  0.7306781937325368  0.6546494855235565  0.2095949144285498
  0.7309517008937263  0.6591673121592905  0.7083885352132242
  0.6535766497389517  0.9112604511631091  0.2907829290616704
  0.6481091747221157  0.9019963979413603  0.7901541630198992
  0.3192910097234005  0.0434223254589909  0.2072479594716725
  0.3450084386626102  0.0738799456400443  0.7083530594856455
  0.0851258450231924  0.7389373574617935  0.2937733796424880
  0.0979847114673120  0.7457487970786119  0.7876050223774484
  0.9553697576689686  0.2874277923991997  0.2087999348709673
  0.9285348047290753  0.2689343674154330  0.7080571846353436
  0.5435418902673419  0.4146514530049572  0.6252926884698269
  0.4764755929963655  0.5727529683698620  0.3760695736714439
  0.4762967239951692  0.5725071793879053  0.8715563937380395
  0.5746008650438199  0.1239829953491736  0.1261120744387938
  0.5880975304555207  0.1282475075426817  0.6251212469319327
  0.4255779558691728  0.8986023510878027  0.3734487248012996
  0.4255520115188816  0.8987224276124621  0.8723456694189480
  0.8660851633627473  0.4498966663340696  0.1245250214973979
  0.8707826240254306  0.4558246685206768  0.6251833783890817
  0.0997913898186695  0.5256819542770685  0.3772412079155032
  0.0992812682257522  0.5250496910956812  0.8690253969184738
  0.9913018277094352  0.9822282150304886  0.1163237800216805
  0.0013736705701604  0.9999711408561822  0.6200122990161390
  0.4919300531751034  0.4141383165572492  0.1271962612348290
 
  0.00000000E+00  0.00000000E+00  0.00000000E+00
  0.00000000E+00  0.00000000E+00  0.00000000E+00
  0.00000000E+00  0.00000000E+00  0.00000000E+00
  0.00000000E+00  0.00000000E+00  0.00000000E+00
  0.00000000E+00  0.00000000E+00  0.00000000E+00
  0.00000000E+00  0.00000000E+00  0.00000000E+00
  0.00000000E+00  0.00000000E+00  0.00000000E+00
  0.00000000E+00  0.00000000E+00  0.00000000E+00
  0.00000000E+00  0.00000000E+00  0.00000000E+00
  0.00000000E+00  0.00000000E+00  0.00000000E+00
  0.00000000E+00  0.00000000E+00  0.00000000E+00
  0.00000000E+00  0.00000000E+00  0.00000000E+00
  0.00000000E+00  0.00000000E+00  0.00000000E+00
  0.00000000E+00  0.00000000E+00  0.00000000E+00
  0.00000000E+00  0.00000000E+00  0.00000000E+00
  0.00000000E+00  0.00000000E+00  0.00000000E+00
  0.00000000E+00  0.00000000E+00  0.00000000E+00
  0.00000000E+00  0.00000000E+00  0.00000000E+00
  0.00000000E+00  0.00000000E+00  0.00000000E+00
  0.00000000E+00  0.00000000E+00  0.00000000E+00
  0.00000000E+00  0.00000000E+00  0.00000000E+00
  0.00000000E+00  0.00000000E+00  0.00000000E+00
  0.00000000E+00  0.00000000E+00  0.00000000E+00
  0.00000000E+00  0.00000000E+00  0.00000000E+00
  0.00000000E+00  0.00000000E+00  0.00000000E+00
  0.00000000E+00  0.00000000E+00  0.00000000E+00
  0.00000000E+00  0.00000000E+00  0.00000000E+00
  0.00000000E+00  0.00000000E+00  0.00000000E+00
  0.00000000E+00  0.00000000E+00  0.00000000E+00
  0.00000000E+00  0.00000000E+00  0.00000000E+00
  0.00000000E+00  0.00000000E+00  0.00000000E+00
  0.00000000E+00  0.00000000E+00  0.00000000E+00
  0.00000000E+00  0.00000000E+00  0.00000000E+00
  0.00000000E+00  0.00000000E+00  0.00000000E+00
  0.00000000E+00  0.00000000E+00  0.00000000E+00
  0.00000000E+00  0.00000000E+00  0.00000000E+00
  0.00000000E+00  0.00000000E+00  0.00000000E+00
  0.00000000E+00  0.00000000E+00  0.00000000E+00
  0.00000000E+00  0.00000000E+00  0.00000000E+00
  0.00000000E+00  0.00000000E+00  0.00000000E+00
  0.00000000E+00  0.00000000E+00  0.00000000E+00
  0.00000000E+00  0.00000000E+00  0.00000000E+00
  0.00000000E+00  0.00000000E+00  0.00000000E+00
  0.00000000E+00  0.00000000E+00  0.00000000E+00
  0.00000000E+00  0.00000000E+00  0.00000000E+00
  0.00000000E+00  0.00000000E+00  0.00000000E+00
  0.00000000E+00  0.00000000E+00  0.00000000E+00
  0.00000000E+00  0.00000000E+00  0.00000000E+00
  0.00000000E+00  0.00000000E+00  0.00000000E+00
  0.00000000E+00  0.00000000E+00  0.00000000E+00
  0.00000000E+00  0.00000000E+00  0.00000000E+00
  0.00000000E+00  0.00000000E+00  0.00000000E+00
  0.00000000E+00  0.00000000E+00  0.00000000E+00
  0.00000000E+00  0.00000000E+00  0.00000000E+00
  0.00000000E+00  0.00000000E+00  0.00000000E+00
  0.00000000E+00  0.00000000E+00  0.00000000E+00
  0.00000000E+00  0.00000000E+00  0.00000000E+00
  0.00000000E+00  0.00000000E+00  0.00000000E+00
  0.00000000E+00  0.00000000E+00  0.00000000E+00
  0.00000000E+00  0.00000000E+00  0.00000000E+00
  0.00000000E+00  0.00000000E+00  0.00000000E+00
  0.00000000E+00  0.00000000E+00  0.00000000E+00
  0.00000000E+00  0.00000000E+00  0.00000000E+00
  0.00000000E+00  0.00000000E+00  0.00000000E+00
  0.00000000E+00  0.00000000E+00  0.00000000E+00
  0.00000000E+00  0.00000000E+00  0.00000000E+00
  0.00000000E+00  0.00000000E+00  0.00000000E+00
  0.00000000E+00  0.00000000E+00  0.00000000E+00
  0.00000000E+00  0.00000000E+00  0.00000000E+00
  0.00000000E+00  0.00000000E+00  0.00000000E+00
  0.00000000E+00  0.00000000E+00  0.00000000E+00
  0.00000000E+00  0.00000000E+00  0.00000000E+00
  0.00000000E+00  0.00000000E+00  0.00000000E+00
  0.00000000E+00  0.00000000E+00  0.00000000E+00
  0.00000000E+00  0.00000000E+00  0.00000000E+00
  0.00000000E+00  0.00000000E+00  0.00000000E+00
  0.00000000E+00  0.00000000E+00  0.00000000E+00
  0.00000000E+00  0.00000000E+00  0.00000000E+00
  0.00000000E+00  0.00000000E+00  0.00000000E+00
  0.00000000E+00  0.00000000E+00  0.00000000E+00
  0.00000000E+00  0.00000000E+00  0.00000000E+00
  0.00000000E+00  0.00000000E+00  0.00000000E+00
