Zn   W    N
1.0
  6.628059986185683 0.0001140099156314 -0.0198312798090457
  1.59829423e-07 5.7465997039901415 -0.0776713647227061
  -1.641374562e-07 -1.122018986e-07 5.591346361030812
 Zn  W  N 
6 2 8 
direct
   -0.2484387751482160  -0.8370204411374831   0.0696667977457608
   -0.7382866135234284  -0.8402383382631985   0.0619338543703805
   -0.9948061748371163  -0.6656027527410373   0.6774448614225007
   -0.7458115642333567  -0.1827312575185971   0.6444800963580093
   -0.2399359454285985  -0.1839201073587162   0.6757862305739977
   -0.4957896041204322  -0.3554675050765754   0.0644619306973269
   -0.9948826108981881  -0.3382213677484103   0.1907071975431336
   -0.4948164561723374  -0.6844150020579178   0.5508348177261979
   -0.7595006270660394  -0.1847807461930203   0.0958938557455085
   -0.2277688002975965  -0.1845871734157427   0.0787442969946568
   -0.9928594892438272  -0.6466342122696109   0.0725742440412134
   -0.7277386222016988  -0.8380878728668081   0.6630847397580553
   -0.2620690023932539  -0.8361002304265313   0.6621844844752047
   -0.9978838345050749  -0.3437282730285105   0.5377698651525762
   -0.4944949030503595  -0.6805206305243419   0.2059928074977364
   -0.4960280217050368  -0.3757223623883590   0.6690561469030740
