Zn   W    N
1.0
  6.608440402415423 -3.6296719353e-06 -4.9565444427e-06
  -1.598294227e-07 -5.7152577397302124 0.0048289463639602
  -1.641374489e-07 -1.12201891e-07 5.355857665896815
 Zn  W  N 
6 2 8 
direct
   -0.2428246611694576   0.8435524349782708   0.1835323036955927
   -0.7460650658838973   0.8435529114802872   0.1835324633540978
   -0.9944424811991583   0.6784903896093863   0.6829527393097905
   -0.7427748552555259   0.1785714676916967   0.6838194828777661
   -0.2461140436660045   0.1785708964928857   0.6838194506069826
   -0.4944432207162350   0.3436530680717310   0.1827398932939985
   -0.9944446868709919   0.3411504196367260   0.1837116380299619
   -0.4944445047173573   0.6810471866096320   0.6833519447190568
   -0.7577384636014202   0.1845292929642851   0.0682715564739311
   -0.2311505764324195   0.1845285307655188   0.0682711452595441
   -0.9944449031213978   0.6547798931792241   0.0677822496136216
   -0.7312141588512090   0.8378096228897289   0.5680739459065549
   -0.2576746120422300   0.8378086156781631   0.5680744494351090
   -0.9944449227604296   0.3401043465272123   0.5357512748941673
   -0.4944450656115436   0.6821510001283781   0.0353951186829917
   -0.4944448248096975   0.3674781820217914   0.5676782167198483
