Zn   W    N
1.0
  6.70724529126815 6.0206159488e-06 -1.737536258e-06
  1.598294231e-07 5.785048111312442 -0.0292334034684886
  -1.641374591e-07 -1.122019017e-07 5.3350541550573185
 Zn  W  N 
6 2 8 
direct
   -0.2421059292118529  -0.8436103448326833   0.0603627804476687
   -0.7467813471520376  -0.8436102025515598   0.0603625093155813
   -0.9944447834762682  -0.6880331847825261   0.5948062174350710
   -0.7340261823089237  -0.1736365966540634   0.5917465204923716
   -0.2548639844607834  -0.1736359462630617   0.5917421735075337
   -0.4944437983858166  -0.3454846630580803   0.0606250237811068
   -0.9944430527620940  -0.3410546593958443   0.2126675076428625
   -0.4944453847994623  -0.6804828551527748   0.5519278369369118
   -0.7543928266196147  -0.1838836800549686   0.1398795698975235
   -0.2344963422056239  -0.1838828568369877   0.1398808884374247
   -0.9944441052465152  -0.6602300836087808   0.1407675642600026
   -0.7287081022417612  -0.8347110131131643   0.6654721094296150
   -0.2601815518446173  -0.8347113015505274   0.6654725471779415
   -0.9944449321122872  -0.3399647367781072   0.5805755779014204
   -0.4944440610238205  -0.6816384057437403   0.1992550082463893
   -0.4944446609730946  -0.3692077426378901   0.6650726229755790
