Zn   W    N
1.0
  6.59579006225 1.847750686e-07 -2.011814472e-07
  -1.598294233e-07 -5.70841442113 1.19306874e-07
  -1.641374649e-07 -1.122019078e-07 5.38525582553
 Zn  W  N 
6 2 8 
direct
   -0.2431061817717081   0.8433870774648042   0.0028000237744976
   -0.7457826922923588   0.8433871022963331   0.0028000178233683
   -0.9944444324459955   0.6777498334266241   0.5036761599669362
   -0.7431062180259077   0.1788352472121915   0.5028000253254774
   -0.2457826708621695   0.1788352530590416   0.5028000266935777
   -0.4944444242152387   0.3444724857517443   0.0036761937474665
   -0.9944444324330707   0.3409556924685688   0.0038912482628177
   -0.4944444293506792   0.6812666779116583   0.5038912073143463
   -0.7575904768026833   0.1842936447459778   0.1200513321199210
   -0.2312983868691205   0.1842936476179986   0.1200513077906749
   -0.9944444391477349   0.6544517702504394   0.1204838505970613
   -0.7312984097801520   0.8379286943447896   0.6200513276179151
   -0.2575904642508391   0.8379286814200171   0.6200513304771391
   -0.9944444256124285   0.3399009214506564   0.6535973950295926
   -0.4944444432231380   0.6823214716877004   0.1535974473672042
   -0.4944444514527718   0.3677705671590275   0.6204838619031818
