Zn   W    N                             
   1.00000000000000     
     5.0603407216996175   -0.0000001122018933   -0.0000001641374511
     0.0253633949937059   -5.8402553360573606   -0.0000001598294228
    -0.0000017055147227    0.0000072571947917   -6.7830426709407803
   Zn   W    N 
     6     2     8
Direct
  0.1529857748241881  0.8451116234933238  0.2410309202420677
  0.1529854873456600  0.8451132107174431  0.7478579883159995
  0.6751605077449341  0.6792803781367311  0.9944444055942512
  0.6750139881925463  0.1776973659528096  0.7421612091359293
  0.6750140490819092  0.1776965293018264  0.2467292078785448
  0.1492747227126330  0.3420176714917886  0.4944430258998977
  0.1833930986326777  0.3423908598147420  0.9944441085661708
  0.5814866065986166  0.6799166200776199  0.4944447771169038
  0.0806358836335050  0.1861055571792534  0.7597916312134458
  0.0806353936927664  0.1861042584317119  0.2290955799040191
  0.0815435278784662  0.6558694608645368  0.9944440518821551
  0.5920663922315796  0.8391390112220520  0.7353974534221734
  0.5920663030272948  0.8391383622020356  0.2534921391318008
  0.5539162152236017  0.3412272379908927  0.9944451000242722
  0.1049324946061105  0.6821618778149698  0.4944445595616358
  0.5895068966406569  0.3588082483225676  0.4944448869354545
 
             NaN             NaN             NaN
             NaN             NaN             NaN
             NaN             NaN             NaN
             NaN             NaN             NaN
             NaN             NaN             NaN
             NaN             NaN             NaN
             NaN             NaN             NaN
             NaN             NaN             NaN
             NaN             NaN             NaN
             NaN             NaN             NaN
             NaN             NaN             NaN
             NaN             NaN             NaN
             NaN             NaN             NaN
             NaN             NaN             NaN
             NaN             NaN             NaN
             NaN             NaN             NaN
