Zn   W    N                             
   1.00000000000000     
     5.5388028144263437   -0.0000001122019002   -0.0000001641374576
     0.1036335647682623   -5.7447243799407266   -0.0000001598294230
    -0.0006795095185456    0.0002593479005758   -6.6484456677396437
   Zn   W    N 
     6     2     8
Direct
  0.0634532681958220  0.8432373734730518  0.2489872163566034
  0.0636238003194407  0.8431288146329194  0.7399497645864699
  0.6833539536001823  0.6698049183336536  0.9944521481464577
  0.6016738321536437  0.1779007428424322  0.7379065782061645
  0.6001948835392739  0.1778004477105242  0.2510775137415209
  0.0575023393232286  0.3494640948971224  0.4943962998981064
  0.2013008710771800  0.3411792231279591  0.9944176060602246
  0.5508545802393598  0.6829738302419557  0.4944208378529353
  0.1281152392753100  0.1822700096172483  0.7559309215612728
  0.1290242927687260  0.1821896792150994  0.2331144250656720
  0.0789276502128970  0.6497508490824515  0.9944838348176432
  0.6655836069855994  0.8381885753077398  0.7257924143359844
  0.6655976620820425  0.8382699451955560  0.2630891136571094
  0.5537701659491461  0.3505154874107816  0.9943102053629005
  0.2067386852089328  0.6795476897951218  0.4944441769952022
  0.6709016269558816  0.3715565921311068  0.4943379881803196
 
             NaN             NaN             NaN
             NaN             NaN             NaN
             NaN             NaN             NaN
             NaN             NaN             NaN
             NaN             NaN             NaN
             NaN             NaN             NaN
             NaN             NaN             NaN
             NaN             NaN             NaN
             NaN             NaN             NaN
             NaN             NaN             NaN
             NaN             NaN             NaN
             NaN             NaN             NaN
             NaN             NaN             NaN
             NaN             NaN             NaN
             NaN             NaN             NaN
             NaN             NaN             NaN
