Zn   W    N                             
   1.00000000000000     
     5.3797215790334354   -0.0000001122019063   -0.0000001641374634
     0.0002641649732398   -5.7044903571434231   -0.0000001598294232
    -0.0000056447359558    0.0000179941040751   -6.5927560947635202
   Zn   W    N 
     6     2     8
Direct
  0.0384489987440020  0.8434172510126743  0.2431253352154599
  0.0384493796265843  0.8434175996281894  0.7457638208911845
  0.5392737753118837  0.6780714515750006  0.9944430234225834
  0.5384568721049661  0.1788146542846150  0.7431265726334715
  0.5384566486032796  0.1788137216758585  0.2457623753144134
  0.0392822135890682  0.3441575159818413  0.4944427687273318
  0.0394469362388534  0.3410561677826252  0.9944452298865585
  0.5394424632906052  0.6811652489203581  0.4944440681876259
  0.1556287178882201  0.1842840852990548  0.7575412533457069
  0.1556295731498949  0.1842823920265033  0.2313490518397003
  0.1560659263089548  0.6547358806402244  0.9944452407769546
  0.6556217311895267  0.8379324227985023  0.7313465445808944
  0.6556216862574900  0.8379321903623023  0.2575411102972893
  0.6888210506995236  0.3400714383186383  0.9944452722402772
  0.1888162386051206  0.6821479188917294  0.4944447872466782
  0.6560729713530122  0.3674785030632108  0.4944445675915574
 
             NaN             NaN             NaN
             NaN             NaN             NaN
             NaN             NaN             NaN
             NaN             NaN             NaN
             NaN             NaN             NaN
             NaN             NaN             NaN
             NaN             NaN             NaN
             NaN             NaN             NaN
             NaN             NaN             NaN
             NaN             NaN             NaN
             NaN             NaN             NaN
             NaN             NaN             NaN
             NaN             NaN             NaN
             NaN             NaN             NaN
             NaN             NaN             NaN
             NaN             NaN             NaN
