Zn   W    N
1.0
  6.78304267094078 -7.2571947917e-06 1.7055147227e-06
  1.598294228e-07 5.840255336057361 -0.0253633949937059
  -1.641374511e-07 -1.122018933e-07 5.0603407216996175
 Zn  W  N 
6 2 8 
direct
   -0.2410309202420677  -0.8451116234933231   0.1529857748241881
   -0.7478579883159993  -0.8451132107174428   0.1529854873456600
   -0.9944444055942512  -0.6792803781367307   0.6751605077449339
   -0.7421612091359292  -0.1776973659528096   0.6750139881925461
   -0.2467292078785448  -0.1776965293018264   0.6750140490819091
   -0.4944430258998975  -0.3420176714917885   0.1492747227126330
   -0.9944441085661705  -0.3423908598147418   0.1833930986326777
   -0.4944447771169038  -0.6799166200776195   0.5814866065986167
   -0.7597916312134458  -0.1861055571792533   0.0806358836335050
   -0.2290955799040191  -0.1861042584317119   0.0806353936927664
   -0.9944440518821552  -0.6558694608645367   0.0815435278784662
   -0.7353974534221733  -0.8391390112220514   0.5920663922315796
   -0.2534921391318008  -0.8391383622020356   0.5920663030272949
   -0.9944451000242722  -0.3412272379908927   0.5539162152236016
   -0.4944445595616358  -0.6821618778149698   0.1049324946061105
   -0.4944448869354545  -0.3588082483225674   0.5895068966406570
