Zn   W    N
1.0
  6.702142091457458 2.4579031279e-06 -1.1585842311e-05
  1.598294228e-07 5.781153118280825 -0.0301225639844012
  -1.641374525e-07 -1.122018948e-07 5.348396038766119
 Zn  W  N 
6 2 8 
direct
   -0.2339351475567923  -0.8486415426618807   0.1489355611521503
   -0.7549551556395786  -0.8486424302747794   0.1489417799694763
   -0.9944442651788495  -0.6765152003739916   0.6798522962446258
   -0.7422476423266960  -0.1786668316743345   0.6801125415640570
   -0.2466376874244176  -0.1786672616248737   0.6801118311074248
   -0.4944454320946648  -0.3341695709750496   0.1456355627077812
   -0.9944462794168634  -0.3417320314444581   0.1881948852584046
   -0.4944427375007693  -0.6811787542926524   0.5271015963445009
   -0.7601930073855958  -0.1875161121024078   0.0741584856814086
   -0.2286966475298940  -0.1875167077417572   0.0741598935876695
   -0.9944449626526012  -0.6529721608311474   0.0745185862628261
   -0.7346186968646509  -0.8384084603038033   0.5998510972983483
   -0.2542713392730533  -0.8384077477715055   0.5998524649449311
   -0.9944435608262912  -0.3405854468080136   0.5400439848760783
   -0.4944447918441955  -0.6822678145665861   0.1600174322367708
   -0.4944436913097477  -0.3618901995670287   0.5991293428306932
