Zn   W    N
1.0
  6.785710928447183 -2.25533308758e-05 -6.872881501e-07
  1.598294232e-07 5.842999128340357 -0.0224796080843483
  -1.641374613e-07 -1.12201904e-07 5.041726179153348
 Zn  W  N 
6 2 8 
direct
   -0.2414872310541156  -0.8448557913082129   0.0670025423639089
   -0.7474060574630172  -0.8448565513454156   0.0670030115371034
   -0.9944444311979552  -0.6801073665625736   0.5878197727820764
   -0.7414123984697483  -0.1774068525475272   0.5842754201585336
   -0.2474749292347269  -0.1774064721913220   0.5842744825284001
   -0.4944422864358416  -0.3420974590189445   0.0668079366090311
   -0.9944435488442809  -0.3424069431737138   0.0986001771511766
   -0.4944449379824505  -0.6798645192051895   0.5571986136480973
   -0.7549896067776840  -0.1839158192584094   0.1553734060376755
   -0.2338962634335999  -0.1839143671819201   0.1553735007593957
   -0.9944453138011154  -0.6608816391464813   0.1575766841363091
   -0.7291457708203166  -0.8360163141416596   0.6599610059184897
   -0.2597445838842702  -0.8360162397579388   0.6599604664911071
   -0.9944441204643867  -0.3401957447277439   0.6749625211203993
   -0.4944456016014485  -0.6812222008094224   0.1852266328554464
   -0.4944439633596218  -0.3666139926382783   0.6592002837878398
