Zn   W    N                             
   1.00000000000000     
     5.3483960387661194   -0.0000001122018948   -0.0000001641374525
     0.0301225639844012   -5.7811531182808249   -0.0000001598294228
     0.0000115858423110   -0.0000024579031279   -6.7021420914574579
   Zn   W    N 
     6     2     8
Direct
  0.1489355611521503  0.8486415426618805  0.2339351475567923
  0.1489417799694763  0.8486424302747793  0.7549551556395784
  0.6798522962446256  0.6765152003739914  0.9944442651788492
  0.6801125415640570  0.1786668316743345  0.7422476423266957
  0.6801118311074248  0.1786672616248737  0.2466376874244176
  0.1456355627077812  0.3341695709750496  0.4944454320946647
  0.1881948852584046  0.3417320314444581  0.9944462794168629
  0.5271015963445009  0.6811787542926524  0.4944427375007692
  0.0741584856814086  0.1875161121024078  0.7601930073855954
  0.0741598935876695  0.1875167077417572  0.2286966475298939
  0.0745185862628261  0.6529721608311476  0.9944449626526009
  0.5998510972983482  0.8384084603038033  0.7346186968646506
  0.5998524649449308  0.8384077477715053  0.2542713392730533
  0.5400439848760783  0.3405854468080136  0.9944435608262907
  0.1600174322367707  0.6822678145665861  0.4944447918441952
  0.5991293428306932  0.3618901995670285  0.4944436913097476
 
             NaN             NaN             NaN
             NaN             NaN             NaN
             NaN             NaN             NaN
             NaN             NaN             NaN
             NaN             NaN             NaN
             NaN             NaN             NaN
             NaN             NaN             NaN
             NaN             NaN             NaN
             NaN             NaN             NaN
             NaN             NaN             NaN
             NaN             NaN             NaN
             NaN             NaN             NaN
             NaN             NaN             NaN
             NaN             NaN             NaN
             NaN             NaN             NaN
             NaN             NaN             NaN
