Zn   W    N
1.0
  6.769442936823726 -2.32381565476e-05 1.5085232128e-06
  1.598294231e-07 5.830669551398127 -0.0253263083587519
  -1.641374598e-07 -1.122019025e-07 5.140517897281162
 Zn  W  N 
6 2 8 
direct
   -0.2410238015202708  -0.8445885430269293   0.0646152875460615
   -0.7478683756542850  -0.8445884820979260   0.0646156305995476
   -0.9944450943590933  -0.6866244962497274   0.5939525113890201
   -0.7356913161574992  -0.1742516210123881   0.5910456587886871
   -0.2531960510225558  -0.1742511073924646   0.5910437864263471
   -0.4944428042370888  -0.3428412121233677   0.0645300557789525
   -0.9944445842132197  -0.3417261319550631   0.2061111132961173
   -0.4944443421493645  -0.6800931515726345   0.5543046881411087
   -0.7548206804027586  -0.1842079645438091   0.1416883333268473
   -0.2340649962026617  -0.1842073143190247   0.1416886363012821
   -0.9944449940502762  -0.6611319494374110   0.1439203040204688
   -0.7291305680893101  -0.8351706444398772   0.6601547587218806
   -0.2597601753988243  -0.8351706509922178   0.6601544203550703
   -0.9944440464284553  -0.3400630167961862   0.5944219763604438
   -0.4944451881835548  -0.6813474885509900   0.1892185778198296
   -0.4944440267553530  -0.3675144985047467   0.6591507190133541
