Zn   W    N
1.0
  6.592521191826669 -4.904448167e-07 -3.4791578447e-06
  1.598294227e-07 5.70431560444781 -0.0001343399036613
  -1.641374482e-07 -1.122018902e-07 5.3801104595926335
 Zn  W  N 
6 2 8 
direct
   -0.2431307951457742  -0.8434083359246716   0.2021478542129813
   -0.7457588762747778  -0.8434094824201142   0.2021475126600620
   -0.9944424602360302  -0.6780568307786300   0.7013028089576210
   -0.7431292455018695  -0.1788134094663718   0.7021490261774519
   -0.2457597619560518  -0.1788125966957139   0.7021489337874414
   -0.4944427446588548  -0.3441614400868788   0.2013064487246652
   -0.9944447429080585  -0.3410564385381605   0.2011526399860628
   -0.4944445370742871  -0.6811673152246057   0.7011475529471201
   -0.7575396365925120  -0.1842846018372555   0.0849590002676806
   -0.2313493577848079  -0.1842833845807732   0.0849586348975109
   -0.9944450201726771  -0.6547379560721396   0.0845086255491623
   -0.7313488333770838  -0.8379402207114737   0.5849570943713047
   -0.2575399177503997  -0.8379390895865981   0.5849577937079005
   -0.9944450720355965  -0.3400700203949683   0.5517542161305543
   -0.4944452373502063  -0.6821513724167545   0.0517549165868942
   -0.4944448292579441  -0.3674856043604323   0.5845106630663750
