Zn   W    N
1.0
  6.592356885422451 -9.443388806e-07 9.5468670964e-06
  -1.598294233e-07 -5.704210030329918 2.11889714765e-05
  -1.641374642e-07 -1.12201907e-07 5.380304309577761
 Zn  W  N 
6 2 8 
direct
   -0.2431338871258150   0.8434092789476112   0.0206300050664296
   -0.7457556845583684   0.8434103323207934   0.0206304388783138
   -0.9944425520735863   0.6780543801351014   0.5214714492494679
   -0.7431323975247254   0.1788157692035313   0.5206322002241279
   -0.2457561279770104   0.1788150368733595   0.5206326413235445
   -0.4944427517218629   0.3441678224067671   0.0214734769699447
   -0.9944446942536233   0.3410541723281355   0.0216435569712061
   -0.4944446465814565   0.6811678466346293   0.5216453984287668
   -0.7575377162864569   0.1842818860376383   0.1378380013569682
   -0.2313513926370518   0.1842807081045876   0.1378385167582650
   -0.9944450638639921   0.6547380787689717   0.1382844935020699
   -0.7313511813657102   0.8379405294466409   0.6378363363853552
   -0.2575378417850231   0.8379394431432913   0.6378356269030973
   -0.9944449693580995   0.3400697810093121   0.6710386752183197
   -0.4944452785189953   0.6821506720225016   0.1710375903884511
   -0.4944448146703095   0.3674828682821952   0.6382860264882098
