Zn   W    N
1.0
  6.718743755210574 -1.77688663348e-05 -1.4028121853e-06
  1.598294232e-07 5.794865463074954 -0.0167791361936044
  -1.64137462e-07 -1.122019047e-07 5.167895950168754
 Zn  W  N 
6 2 8 
direct
   -0.2409725152029409  -0.8449162115982602   0.0644051643001688
   -0.7479194714291072  -0.8449159674873878   0.0644057361026711
   -0.9944441479507733  -0.6808000784451452   0.5714139752154066
   -0.7412301250007545  -0.1775940671566261   0.5694665276249609
   -0.2476577453064125  -0.1775940107611120   0.5694661070506368
   -0.4944434254937917  -0.3414969401387111   0.0647098645801307
   -0.9944438655024047  -0.3419646780765788   0.0642555460505605
   -0.4944446619322705  -0.6803969960250598   0.5575162013286955
   -0.7576781767609689  -0.1850392313413280   0.1675500452129626
   -0.2312085119140761  -0.1850385708316296   0.1675501837037672
   -0.9944450102482141  -0.6560543042932918   0.1684683401299694
   -0.7299081850191489  -0.8363901840251201   0.6665552294536425
   -0.2589817096165206  -0.8363901520980119   0.6665548618222558
   -0.9944442272058327  -0.3401505137318778   0.6979212908658921
   -0.4944450782314860  -0.6817652268766774   0.1938368975255003
   -0.4944441880098724  -0.3672711401279257   0.6665404869177534
