Zn   W    N                             
   1.00000000000000     
     5.3350541550573185   -0.0000001122019017   -0.0000001641374591
     0.0292334034684886   -5.7850481113124417   -0.0000001598294231
     0.0000017375362580   -0.0000060206159488   -6.7072452912681504
   Zn   W    N 
     6     2     8
Direct
  0.0603627804476687  0.8436103448326833  0.2421059292118528
  0.0603625093155813  0.8436102025515595  0.7467813471520373
  0.5948062174350710  0.6880331847825261  0.9944447834762684
  0.5917465204923715  0.1736365966540632  0.7340261823089236
  0.5917421735075337  0.1736359462630617  0.2548639844607834
  0.0606250237811068  0.3454846630580803  0.4944437983858165
  0.2126675076428626  0.3410546593958443  0.9944430527620938
  0.5519278369369118  0.6804828551527748  0.4944453847994623
  0.1398795698975235  0.1838836800549686  0.7543928266196147
  0.1398808884374247  0.1838828568369877  0.2344963422056239
  0.1407675642600026  0.6602300836087807  0.9944441052465152
  0.6654721094296150  0.8347110131131643  0.7287081022417610
  0.6654725471779415  0.8347113015505272  0.2601815518446173
  0.5805755779014206  0.3399647367781071  0.9944449321122875
  0.1992550082463893  0.6816384057437403  0.4944440610238203
  0.6650726229755790  0.3692077426378901  0.4944446609730946
 
             NaN             NaN             NaN
             NaN             NaN             NaN
             NaN             NaN             NaN
             NaN             NaN             NaN
             NaN             NaN             NaN
             NaN             NaN             NaN
             NaN             NaN             NaN
             NaN             NaN             NaN
             NaN             NaN             NaN
             NaN             NaN             NaN
             NaN             NaN             NaN
             NaN             NaN             NaN
             NaN             NaN             NaN
             NaN             NaN             NaN
             NaN             NaN             NaN
             NaN             NaN             NaN
