Zn   W    N
1.0
  6.648445667739644 -0.0002593479005758 0.0006795095185456
  1.59829423e-07 5.744724379940727 -0.1036335647682623
  -1.641374576e-07 -1.122019002e-07 5.538802814426344
 Zn  W  N 
6 2 8 
direct
   -0.2489872163566034  -0.8432373734730519   0.0634532681958220
   -0.7399497645864698  -0.8431288146329194   0.0636238003194407
   -0.9944521481464574  -0.6698049183336536   0.6833539536001820
   -0.7379065782061643  -0.1779007428424322   0.6016738321536437
   -0.2510775137415209  -0.1778004477105242   0.6001948835392739
   -0.4943962998981064  -0.3494640948971224   0.0575023393232286
   -0.9944176060602247  -0.3411792231279592   0.2013008710771800
   -0.4944208378529352  -0.6829738302419557   0.5508545802393598
   -0.7559309215612728  -0.1822700096172483   0.1281152392753100
   -0.2331144250656720  -0.1821896792150995   0.1290242927687260
   -0.9944838348176430  -0.6497508490824516   0.0789276502128970
   -0.7257924143359845  -0.8381885753077395   0.6655836069855996
   -0.2630891136571094  -0.8382699451955560   0.6655976620820425
   -0.9943102053629005  -0.3505154874107814   0.5537701659491459
   -0.4944441769952022  -0.6795476897951218   0.2067386852089328
   -0.4943379881803196  -0.3715565921311068   0.6709016269558815
