Zn   W    N
1.0
  6.773027633730545 -7.5285032775e-06 1.5533267375e-06
  -1.598294227e-07 -5.833086065235187 0.0241542307390094
  -1.641374503e-07 -1.122018925e-07 5.072086094301114
 Zn  W  N 
6 2 8 
direct
   -0.2415293518155295   0.8447349239127818   0.1568462626566998
   -0.7473601131696838   0.8447358886181320   0.1568455720204085
   -0.9944443514117721   0.6794299588836523   0.6746837562747388
   -0.7419215006648725   0.1776181729795638   0.6745471350992815
   -0.2469685013088636   0.1776175320245770   0.6745475034977774
   -0.4944433447832707   0.3422919959629596   0.1533199770247506
   -0.9944441339760741   0.3423321748206689   0.1831859553482786
   -0.4944447289209107   0.6798932109998505   0.6416805142846442
   -0.7597895582591788   0.1861784844856444   0.0790311521741387
   -0.2290976677643498   0.1861774705736252   0.0790306038026571
   -0.9944440584563663   0.6555137363989019   0.0796803267398403
   -0.7341686794285990   0.8385213731175797   0.5840688029256285
   -0.2547206934644066   0.8385208526416221   0.5840688102018419
   -0.9944450180831196   0.3409900065216506   0.5529718102861878
   -0.4944446312736658   0.6820792059066889   0.0642293403497192
   -0.4944447120440357   0.3611432851664134   0.5818798193805819
