Zn   W    N 
   1.00000000000000     
   5.3852558255299998  -0.0000001122018887  -0.0000001641374467
   0.0000001193068559  -5.7084144211299996  -0.0000001598294226
   0.0000002011814324  -0.0000001847750646  -6.5957900622499999
Zn   W    N 
6  2  8  
Direct
  0.2372752873525883  0.8433870155591947  0.2431061900576523  
  0.2372752814014589  0.8433870403907235  0.7457827005783031  
  0.7363991511601569  0.6777497715210146  0.9944444407319396  
  0.7372752889035681  0.1788351853065748  0.7431062263118520  
  0.7372752902716684  0.1788351911534249  0.2457826791481139  
  0.2363991173796194  0.3444724238461347  0.4944444325011830  
  0.2361840628642753  0.3409556305629664  0.9944444407190148  
  0.7361840219158040  0.6812666160060488  0.4944444376366235  
  0.1200239790071720  0.1842935828403753  0.7575904850886275  
  0.1200239546779258  0.1842935857123962  0.2312983951550649  
  0.1195914605300246  0.6544517083448298  0.9944444474336792  
  0.6200239745051661  0.8379286324391799  0.7312984180660962  
  0.6200239773643901  0.8379286195144076  0.2575904725367906  
  0.5864779160974933  0.3399008595450397  0.9944444338983658  
  0.0864779684351049  0.6823214097820838  0.4944444515090822  
  0.6195914492239041  0.3677705052534108  0.4944444597387090  
