Zn   W    N
1.0
  6.796908250580305 -2.21499754161e-05 -1.001917816e-06
  1.598294231e-07 5.850984201224198 -0.0236261779220086
  -1.641374605e-07 -1.122019032e-07 5.025271231673568
 Zn  W  N 
6 2 8 
direct
   -0.2416882787716403  -0.8448034867940990   0.0666884414843025
   -0.7472053768434817  -0.8448044699698013   0.0666890283129433
   -0.9944445846545451  -0.6803198431837814   0.5919948107185322
   -0.7409635777997892  -0.1770548823305660   0.5882553724576313
   -0.2479232636302626  -0.1770545607231924   0.5882541975842415
   -0.4944421682400846  -0.3421788183700157   0.0664667126606417
   -0.9944437083330160  -0.3423930386094509   0.1605591610907382
   -0.4944448800134822  -0.6798107669592284   0.5570916594818132
   -0.7538735534628602  -0.1833783658529455   0.1471528607291930
   -0.2350121591189733  -0.1833768540782188   0.1471528080669628
   -0.9944453879824025  -0.6630802500423769   0.1497434895612599
   -0.7291813002303372  -0.8361069057833672   0.6581285841621992
   -0.2597091551512918  -0.8361068368931579   0.6581279093108210
   -0.9944440393884477  -0.3401206011812263   0.6332363886455141
   -0.4944457072335737  -0.6809852515156789   0.1840049331644522
   -0.4944439039703710  -0.3662033407276438   0.6570701004537440
