Zn   W    N
1.0
  6.625188706563029 0.0003361844014514 -0.0309980978481861
  1.598294229e-07 5.745186990210148 -0.0808081374584286
  -1.641374554e-07 -1.122018979e-07 5.597124278658375
 Zn  W  N 
6 2 8 
direct
   -0.2490233371185725  -0.8381196926046144   0.0616753285387261
   -0.7441936944372359  -0.8400524885539158   0.1070280868853573
   -0.9925297573826127  -0.6670561514817166   0.6764266368209706
   -0.7509560912785176  -0.1811250366940413   0.6788696628076636
   -0.2407642649828858  -0.1857929962407709   0.6696457100330805
   -0.4940716550496945  -0.3564387245528808   0.0618867607307862
   -0.9939084342583301  -0.3377820354994086   0.1892905467584498
   -0.4938028047356298  -0.6838942983268694   0.5486808332008692
   -0.7610918090813428  -0.1833380805891309   0.0770754558366988
   -0.2264976448152325  -0.1861750466781018   0.0777151220030845
   -0.9919363076364078  -0.6464897847403748   0.0701093776328676
   -0.7302195036772119  -0.8380523593132240   0.6364753610652232
   -0.2613531978823929  -0.8380820957365035   0.6622587580269725
   -0.9946010399492027  -0.3420503496491563   0.5336395451427691
   -0.4893978306074871  -0.6776346223908976   0.2018098781562545
   -0.4967636719318875  -0.3756945099626421   0.6680302782075884
