Zn   W    N
1.0
  6.707278627208486 -6.2966883132e-06 1.5475803568e-06
  1.598294227e-07 5.785983596409374 -0.0178794010873032
  -1.641374496e-07 -1.122018918e-07 5.190741814434504
 Zn  W  N 
6 2 8 
direct
   -0.2414311395501301  -0.8445037342029306   0.1716992541893347
   -0.7474581843810668  -0.8445039425861791   0.1716996373735498
   -0.9944439960680000  -0.6802942294264152   0.6762780242697701
   -0.7412484884430839  -0.1774624183728122   0.6766368654190698
   -0.2476406871438286  -0.1774614578624352   0.6766357738992355
   -0.4944440562011607  -0.3416918366576525   0.1698006540166617
   -0.9944443328131385  -0.3417706533459253   0.1826768284160849
   -0.4944445570441047  -0.6803215713678693   0.6762520002723066
   -0.7589155822988969  -0.1857597107478952   0.0727646229490020
   -0.2299725302610014  -0.1857594463541759   0.0727638313081513
   -0.9944442512558707  -0.6549430412438326   0.0727165597828261
   -0.7312893645196183  -0.8372804136353195   0.5718874573810524
   -0.2575998053299955  -0.8372798999240769   0.5718873353843463
   -0.9944448402729762  -0.3404210342671661   0.5448593495443035
   -0.4944446787754798  -0.6821153199714298   0.0410516604252109
   -0.4944445504663477  -0.3662095630481801   0.5710074874362902
