Zn   W    N
1.0
  6.63599637383167 0.0033389495665401 -0.0247048997810378
  1.59829423e-07 5.744025501020916 -0.1014650551348595
  -1.641374569e-07 -1.122018994e-07 5.568952327705263
 Zn  W  N 
6 2 8 
direct
   -0.2483681392232243  -0.8388844101967617   0.0685168009788981
   -0.7383735803051651  -0.8438019001313960   0.0608676606690182
   -0.9943267527582549  -0.6674602106160774   0.6832018768338131
   -0.7396453389257406  -0.1786122508271788   0.5960243244377637
   -0.2450269817923072  -0.1815404970119232   0.6542891392747237
   -0.4963998800771563  -0.3521170742045996   0.0598448741259574
   -0.9953858376021716  -0.3399365504791163   0.1965652890202421
   -0.4951429724095390  -0.6836068939900102   0.5507646108342499
   -0.7550405328422584  -0.1820448437663913   0.1298902245330140
   -0.2283155297507307  -0.1838892628143896   0.0936765299666718
   -0.9922733984522125  -0.6483177239823517   0.0746770950406841
   -0.7267073237085527  -0.8397116071371113   0.6646296046648530
   -0.2630817225299680  -0.8361176271214174   0.6638370844886907
   -0.0003508374378569  -0.3488294409479806   0.5459679387359274
   -0.4943401994529281  -0.6795425974891527   0.2067894714082570
   -0.4983320175565140  -0.3733653822988571   0.6710739328773629
