Zn   W    N
1.0
  6.680004482554902 -4.8027817073e-06 -5.2892119788e-06
  1.598294229e-07 5.760103122876984 -0.0604464281257088
  -1.641374533e-07 -1.122018956e-07 5.437575911135383
 Zn  W  N 
6 2 8 
direct
   -0.2344270103643922  -0.8472255269875504   0.1520660705165398
   -0.7544624152726627  -0.8472254150133341   0.1520648629270269
   -0.9944434057951812  -0.6752909674697634   0.6823165314774543
   -0.7453129096736433  -0.1782430856221566   0.6784532914795207
   -0.2435737406666192  -0.1782433023570036   0.6784521738402134
   -0.4944453435283407  -0.3422173704145735   0.0962656535327042
   -0.9944434233955453  -0.3408012614110589   0.1888820363848254
   -0.4944464731785417  -0.6804024943251152   0.5319222908839123
   -0.7618498071782867  -0.1854306812058297   0.0734924209886429
   -0.2270411568388440  -0.1854301293125503   0.0734924568611817
   -0.9944450212505558  -0.6521293415901894   0.0722924270867367
   -0.7350056831611484  -0.8393079604801061   0.6005413176332440
   -0.2538819053336214  -0.8393085825166370   0.6005413310458252
   -0.9944438615756546  -0.3413142648739724   0.5364817850763259
   -0.4944449648128357  -0.6771148535265753   0.1712096633441789
   -0.4944439227987942  -0.3680930359078545   0.6321430289888073
