Zn   W    N
1.0
  6.681977400161324 -6.7084276166e-06 7.6038851289e-06
  -1.59829423e-07 -5.7616414161280485 0.0597175829139241
  -1.641374583e-07 -1.122019009e-07 5.432051476203761
 Zn  W  N 
6 2 8 
direct
   -0.2452628332475797   0.8440107341397578   0.0618321111753559
   -0.7436257442790080   0.8440107607465351   0.0618322544687970
   -0.9944447212684011   0.6799672705311223   0.6441307227460626
   -0.7344723761098280   0.1750138844850113   0.5882816958992906
   -0.2544165903361844   0.1750126270910215   0.5882751013084331
   -0.4944430312048597   0.3468475117467095   0.0578361830876872
   -0.9944442013803610   0.3418220858943143   0.2080310122661331
   -0.4944448894420789   0.6814172855241694   0.5511934709758108
   -0.7539383117273388   0.1829591564656781   0.1393497551927041
   -0.2349505584895226   0.1829578956215485   0.1393534969874324
   -0.9944444202418481   0.6541156378642867   0.1078207725747049
   -0.7270524324721849   0.8367880648343160   0.6663949251349024
   -0.2618378242979276   0.8367880454000057   0.6663955031844040
   -0.9944443513180586   0.3450919881874626   0.5690564042271901
   -0.4944444898415057   0.6809005694397001   0.2032634090411420
   -0.4944442691678860   0.3700747550431132   0.6675696396149391
