Zn   W    N                             
   1.00000000000000     
     5.5658383165761895   -0.0000001122018971   -0.0000001641374547
     0.1032324277781572   -5.7428192423696114   -0.0000001598294229
     0.0279045412099030   -0.0048989239241044   -6.6363083408904595
   Zn   W    N 
     6     2     8
Direct
  0.0862159824147994  0.8407938067663636  0.2433005711726324
  0.1532622440645781  0.8444456980863464  0.7504140208567449
  0.6809849542611346  0.6703410173998705  0.9921750053409468
  0.6800288086990776  0.1777847860277575  0.7507412961642999
  0.6713577855560757  0.1833129461572014  0.2405749932317676
  0.0564307503950587  0.3544548258436109  0.4946390038155286
  0.1891319018179090  0.3387395903029002  0.9936097768455312
  0.5424901788022609  0.6820072169813045  0.4933046167349389
  0.0749442850435571  0.1821238098565061  0.7622798186392927
  0.0757609179477825  0.1862105019807601  0.2256860996140091
  0.0687568741456772  0.6491638587262045  0.9898357503386066
  0.6041550482457296  0.8407344923509541  0.7348517785488866
  0.6457583020642090  0.8382663175699108  0.2606439467473365
  0.5330974822821943  0.3427667059377697  0.9945337112453956
  0.1932766654840918  0.6728319862361118  0.4876816792549690
  0.6649651608387330  0.3738007127907252  0.4968389762737715
 
             NaN             NaN             NaN
             NaN             NaN             NaN
             NaN             NaN             NaN
             NaN             NaN             NaN
             NaN             NaN             NaN
             NaN             NaN             NaN
             NaN             NaN             NaN
             NaN             NaN             NaN
             NaN             NaN             NaN
             NaN             NaN             NaN
             NaN             NaN             NaN
             NaN             NaN             NaN
             NaN             NaN             NaN
             NaN             NaN             NaN
             NaN             NaN             NaN
             NaN             NaN             NaN
