Zn   W    N                             
   1.00000000000000     
     5.0417261791533479   -0.0000001122019040   -0.0000001641374613
     0.0224796080843483   -5.8429991283403568   -0.0000001598294232
     0.0000006872881501    0.0000225533308758   -6.7857109284471830
   Zn   W    N 
     6     2     8
Direct
  0.0670025423639089  0.8448557913082126  0.2414872310541156
  0.0670030115371034  0.8448565513454156  0.7474060574630172
  0.5878197727820762  0.6801073665625736  0.9944444311979552
  0.5842754201585336  0.1774068525475272  0.7414123984697483
  0.5842744825284001  0.1774064721913220  0.2474749292347269
  0.0668079366090311  0.3420974590189445  0.4944422864358415
  0.0986001771511766  0.3424069431737138  0.9944435488442807
  0.5571986136480973  0.6798645192051893  0.4944449379824505
  0.1553734060376755  0.1839158192584094  0.7549896067776842
  0.1553735007593957  0.1839143671819201  0.2338962634335999
  0.1575766841363091  0.6608816391464813  0.9944453138011156
  0.6599610059184897  0.8360163141416592  0.7291457708203168
  0.6599604664911070  0.8360162397579387  0.2597445838842702
  0.6749625211203991  0.3401957447277439  0.9944441204643866
  0.1852266328554464  0.6812222008094224  0.4944456016014485
  0.6592002837878397  0.3666139926382783  0.4944439633596218
 
             NaN             NaN             NaN
             NaN             NaN             NaN
             NaN             NaN             NaN
             NaN             NaN             NaN
             NaN             NaN             NaN
             NaN             NaN             NaN
             NaN             NaN             NaN
             NaN             NaN             NaN
             NaN             NaN             NaN
             NaN             NaN             NaN
             NaN             NaN             NaN
             NaN             NaN             NaN
             NaN             NaN             NaN
             NaN             NaN             NaN
             NaN             NaN             NaN
             NaN             NaN             NaN
