Zn   W    N
1.0
  6.59275609476352 -1.79941040751e-05 5.6447359558e-06
  -1.598294232e-07 -5.704490357143423 0.0002641649732398
  -1.641374634e-07 -1.122019063e-07 5.379721579033435
 Zn  W  N 
6 2 8 
direct
   -0.2431253352154599   0.8434172510126744   0.0384489987440020
   -0.7457638208911844   0.8434175996281895   0.0384493796265843
   -0.9944430234225834   0.6780714515750006   0.5392737753118837
   -0.7431265726334715   0.1788146542846150   0.5384568721049661
   -0.2457623753144134   0.1788137216758585   0.5384566486032796
   -0.4944427687273317   0.3441575159818414   0.0392822135890682
   -0.9944452298865584   0.3410561677826252   0.0394469362388534
   -0.4944440681876258   0.6811652489203581   0.5394424632906052
   -0.7575412533457069   0.1842840852990548   0.1556287178882201
   -0.2313490518397003   0.1842823920265033   0.1556295731498949
   -0.9944452407769546   0.6547358806402244   0.1560659263089548
   -0.7313465445808944   0.8379324227985023   0.6556217311895268
   -0.2575411102972893   0.8379321903623022   0.6556216862574900
   -0.9944452722402771   0.3400714383186383   0.6888210506995236
   -0.4944447872466781   0.6821479188917294   0.1888162386051206
   -0.4944445675915574   0.3674785030632108   0.6560729713530123
