POSCAR                                  
  0.915000000000000     
     2.4212666183299998   -7.4312244922900001   -4.7238517966800000
     0.0518381275672000   -4.9897071062400000    9.5199653249900003
   -14.3601321808000009    0.0791699326892000   -0.0356885389106000
   Tb   Al   N 
    12    36    48
Direct
  0.1424772024838319  0.8352896400225234  0.8565424449323800
  0.7654618281034544  0.9009510695668865  0.8084453496080144
  0.9938962901959414  0.4956081010165860  0.8089748540599899
  0.5273916174503412  0.2825598707253150  0.7492005643064203
  0.0418443681713043  0.4896003637494530  0.5090484793426100
  0.6460469798758126  0.5664646779265397  0.4531088588034109
  0.5016489740446417  0.2294120109430651  0.4236407496109322
  0.3614876594557472  0.4324683132653462  0.2377587246073603
  0.2508024799240687  0.6308984007244192  0.0535329932264546
  0.5141171183545268  0.7447965277510491  0.9247799321392094
  0.0955005227295516  0.2733610556896764  0.9994218488754711
  0.7405933415529944  0.3780283321071209  0.9710647852126471
  0.4132477237030514  0.9662254616585102  0.7218295283602316
  0.0123008206500543  0.9911462936407744  0.6550514177906521
  0.6286455489348413  0.0210846384636696  0.5852237276633403
  0.6254104418838295  0.6201938837378194  0.7510920770264846
  0.2699544467440020  0.6580738700607256  0.6901543312663918
  0.8740958699821633  0.7094356122176535  0.6455568302413965
  0.4619906083987146  0.7618041261491939  0.5628076268854514
  0.0903436284552441  0.8045330809315985  0.5081543941605986
  0.7734614913023279  0.8849514802815293  0.4564653220232699
  0.3417834512348392  0.9206297994484416  0.3891729160326847
  0.9988171345195838  0.9894118627432604  0.3320106445059423
  0.6465520539540321  0.0675695272868637  0.2765314867712121
  0.8645535664714501  0.1697313527927733  0.7634281208990714
  0.1521335323587607  0.2839289141216028  0.6753227298326863
  0.7798612419346114  0.3515708916540348  0.5973041948035345
  0.4080207540139185  0.4594380139345731  0.5630461745189237
  0.2411759789663392  0.6364721977481764  0.3754076878287123
  0.8593316690150772  0.6848332117407878  0.3138575642342332
  0.5132898896776936  0.7694398695429499  0.2670230176945054
  0.1332034372151725  0.8196243491701125  0.2046048983141517
  0.7363956985108189  0.8690784273946193  0.1410520606685353
  0.3840511774633342  0.9483888306078541  0.0995562816924433
  0.9895935216201721  0.9869036824322919  0.0418944367020586
  0.6213550992404251  0.0659776391615736  0.9776712074358755
  0.2234912627679932  0.0958759196992318  0.5284206418351900
  0.8891594592828795  0.1751787261520121  0.4728278744070664
  0.1369313576645013  0.2863893371025696  0.3602323404907892
  0.7976720725534747  0.3604706523367511  0.3049769082651252
  0.9907224036138018  0.5182805845693963  0.1788145050266294
  0.6327422103930047  0.5422126088124060  0.1420222905555875
  0.8988388735961976  0.7010435061459859  0.0166010281808227
  0.2592728569740785  0.1187467833798479  0.2163169039643833
  0.8975185127580829  0.1770007982428865  0.1662588778631573
  0.5186750505734494  0.2500146097034914  0.0991138388132811
  0.3695737339821221  0.4466914480815518  0.9005223214248659
  0.2840802161627352  0.1324235223937364  0.8605964468254967
  0.4813709807248898  0.7767462028873311  0.7325926036547585
  0.1066655889497454  0.8030710775369769  0.6709738504059501
  0.7789270034118019  0.8843942926689223  0.6108400784483123
  0.3934611112086870  0.9574343199776152  0.5471804707344248
  0.0103778205326961  0.9878166716942403  0.4955540443371689
  0.2800263527965470  0.4553190036812182  0.6637233932343065
  0.9023674266475936  0.5169756314490641  0.6341309488332882
  0.5783966903045226  0.6061088385887814  0.6052654517204203
  0.2431036726137066  0.6710453832866605  0.5296012130716434
  0.8735559142040614  0.7104416937820446  0.4648344963277466
  0.4704967810576619  0.7601736557860193  0.4103446151833765
  0.1089601388045054  0.8136786172611892  0.3511464802151565
  0.7402975435481451  0.8810205470138399  0.2964840199855061
  0.3557401721501421  0.9280807645231235  0.2410208642758960
  0.9795109309063506  0.9765974806803186  0.1838747668657490
  0.2615667145133216  0.1128675771542902  0.6905989250939513
  0.9157373945527212  0.2008481253939038  0.6333407628925443
  0.5556377427063453  0.3177949925200920  0.5886090743941352
  0.1153820635370835  0.2641567761805845  0.5027600076013883
  0.7679247718494366  0.3518407107780064  0.4438698319700265
  0.3378688798507454  0.4427012857444694  0.4084980677170691
  0.9797534535197343  0.5054313672576427  0.3235776122920271
  0.6128684615591169  0.5895138008300975  0.2738277613433482
  0.2110728743279964  0.6306758169916336  0.2227426980896112
  0.8294813563653918  0.6728524223705961  0.1478253268295830
  0.4961449552875052  0.7778815655009979  0.1021147358225960
  0.0992764204780130  0.8193069440169864  0.0395759326303633
  0.7680071192547473  0.8697328575096677  0.9861686206660352
  0.4033632346111631  0.9615064424205357  0.8792658926727128
  0.0147958782978392  0.0323271660698765  0.8122608778942961
  0.6685108586798307  0.0562996686420405  0.4445362834668387
  0.2338995139554783  0.1025061043619786  0.3701969538989047
  0.8737231345102359  0.1708271002738968  0.3107335777941884
  0.4871872314538308  0.2219667071372626  0.2442284033153115
  0.1159631386125000  0.2838375790303118  0.2032889014729307
  0.7408496280814205  0.3661423778330501  0.1533934284279610
  0.4139727941541054  0.4398052400344454  0.0607892218694701
  0.9832265413275607  0.5177063858622475  0.0240410289150290
  0.5672625136699949  0.5215745671057306  0.8623393996344575
  0.2538620746152915  0.6220342648217780  0.8742419208414987
  0.8551906880800715  0.6940893287685981  0.7965412571562780
  0.6055635613873847  0.0515082889926362  0.1203039164247599
  0.2298185892119591  0.0890165616102223  0.0604488143671418
  0.8572164774707858  0.1491246991166264  0.0150077318320427
  0.5004026922734184  0.2252760026627953  0.9419677752048727
  0.1917783915044566  0.3105612942428735  0.8374316218954760
  0.8172290721447411  0.3204345320159732  0.8257297664228247
  0.6326884713797369  0.0747333889015493  0.7257343321269758
 
  0.00000000E+00  0.00000000E+00  0.00000000E+00
  0.00000000E+00  0.00000000E+00  0.00000000E+00
  0.00000000E+00  0.00000000E+00  0.00000000E+00
  0.00000000E+00  0.00000000E+00  0.00000000E+00
  0.00000000E+00  0.00000000E+00  0.00000000E+00
  0.00000000E+00  0.00000000E+00  0.00000000E+00
  0.00000000E+00  0.00000000E+00  0.00000000E+00
  0.00000000E+00  0.00000000E+00  0.00000000E+00
  0.00000000E+00  0.00000000E+00  0.00000000E+00
  0.00000000E+00  0.00000000E+00  0.00000000E+00
  0.00000000E+00  0.00000000E+00  0.00000000E+00
  0.00000000E+00  0.00000000E+00  0.00000000E+00
  0.00000000E+00  0.00000000E+00  0.00000000E+00
  0.00000000E+00  0.00000000E+00  0.00000000E+00
  0.00000000E+00  0.00000000E+00  0.00000000E+00
  0.00000000E+00  0.00000000E+00  0.00000000E+00
  0.00000000E+00  0.00000000E+00  0.00000000E+00
  0.00000000E+00  0.00000000E+00  0.00000000E+00
  0.00000000E+00  0.00000000E+00  0.00000000E+00
  0.00000000E+00  0.00000000E+00  0.00000000E+00
  0.00000000E+00  0.00000000E+00  0.00000000E+00
  0.00000000E+00  0.00000000E+00  0.00000000E+00
  0.00000000E+00  0.00000000E+00  0.00000000E+00
  0.00000000E+00  0.00000000E+00  0.00000000E+00
  0.00000000E+00  0.00000000E+00  0.00000000E+00
  0.00000000E+00  0.00000000E+00  0.00000000E+00
  0.00000000E+00  0.00000000E+00  0.00000000E+00
  0.00000000E+00  0.00000000E+00  0.00000000E+00
  0.00000000E+00  0.00000000E+00  0.00000000E+00
  0.00000000E+00  0.00000000E+00  0.00000000E+00
  0.00000000E+00  0.00000000E+00  0.00000000E+00
  0.00000000E+00  0.00000000E+00  0.00000000E+00
  0.00000000E+00  0.00000000E+00  0.00000000E+00
  0.00000000E+00  0.00000000E+00  0.00000000E+00
  0.00000000E+00  0.00000000E+00  0.00000000E+00
  0.00000000E+00  0.00000000E+00  0.00000000E+00
  0.00000000E+00  0.00000000E+00  0.00000000E+00
  0.00000000E+00  0.00000000E+00  0.00000000E+00
  0.00000000E+00  0.00000000E+00  0.00000000E+00
  0.00000000E+00  0.00000000E+00  0.00000000E+00
  0.00000000E+00  0.00000000E+00  0.00000000E+00
  0.00000000E+00  0.00000000E+00  0.00000000E+00
  0.00000000E+00  0.00000000E+00  0.00000000E+00
  0.00000000E+00  0.00000000E+00  0.00000000E+00
  0.00000000E+00  0.00000000E+00  0.00000000E+00
  0.00000000E+00  0.00000000E+00  0.00000000E+00
  0.00000000E+00  0.00000000E+00  0.00000000E+00
  0.00000000E+00  0.00000000E+00  0.00000000E+00
  0.00000000E+00  0.00000000E+00  0.00000000E+00
  0.00000000E+00  0.00000000E+00  0.00000000E+00
  0.00000000E+00  0.00000000E+00  0.00000000E+00
  0.00000000E+00  0.00000000E+00  0.00000000E+00
  0.00000000E+00  0.00000000E+00  0.00000000E+00
  0.00000000E+00  0.00000000E+00  0.00000000E+00
  0.00000000E+00  0.00000000E+00  0.00000000E+00
  0.00000000E+00  0.00000000E+00  0.00000000E+00
  0.00000000E+00  0.00000000E+00  0.00000000E+00
  0.00000000E+00  0.00000000E+00  0.00000000E+00
  0.00000000E+00  0.00000000E+00  0.00000000E+00
  0.00000000E+00  0.00000000E+00  0.00000000E+00
  0.00000000E+00  0.00000000E+00  0.00000000E+00
  0.00000000E+00  0.00000000E+00  0.00000000E+00
  0.00000000E+00  0.00000000E+00  0.00000000E+00
  0.00000000E+00  0.00000000E+00  0.00000000E+00
  0.00000000E+00  0.00000000E+00  0.00000000E+00
  0.00000000E+00  0.00000000E+00  0.00000000E+00
  0.00000000E+00  0.00000000E+00  0.00000000E+00
  0.00000000E+00  0.00000000E+00  0.00000000E+00
  0.00000000E+00  0.00000000E+00  0.00000000E+00
  0.00000000E+00  0.00000000E+00  0.00000000E+00
  0.00000000E+00  0.00000000E+00  0.00000000E+00
  0.00000000E+00  0.00000000E+00  0.00000000E+00
  0.00000000E+00  0.00000000E+00  0.00000000E+00
  0.00000000E+00  0.00000000E+00  0.00000000E+00
  0.00000000E+00  0.00000000E+00  0.00000000E+00
  0.00000000E+00  0.00000000E+00  0.00000000E+00
  0.00000000E+00  0.00000000E+00  0.00000000E+00
  0.00000000E+00  0.00000000E+00  0.00000000E+00
  0.00000000E+00  0.00000000E+00  0.00000000E+00
  0.00000000E+00  0.00000000E+00  0.00000000E+00
  0.00000000E+00  0.00000000E+00  0.00000000E+00
  0.00000000E+00  0.00000000E+00  0.00000000E+00
  0.00000000E+00  0.00000000E+00  0.00000000E+00
  0.00000000E+00  0.00000000E+00  0.00000000E+00
  0.00000000E+00  0.00000000E+00  0.00000000E+00
  0.00000000E+00  0.00000000E+00  0.00000000E+00
  0.00000000E+00  0.00000000E+00  0.00000000E+00
  0.00000000E+00  0.00000000E+00  0.00000000E+00
  0.00000000E+00  0.00000000E+00  0.00000000E+00
  0.00000000E+00  0.00000000E+00  0.00000000E+00
  0.00000000E+00  0.00000000E+00  0.00000000E+00
  0.00000000E+00  0.00000000E+00  0.00000000E+00
  0.00000000E+00  0.00000000E+00  0.00000000E+00
  0.00000000E+00  0.00000000E+00  0.00000000E+00
  0.00000000E+00  0.00000000E+00  0.00000000E+00
  0.00000000E+00  0.00000000E+00  0.00000000E+00
