supercell of POSCAR                     
   1.01800000000000     
     3.1310994802600001   -5.4896946145000003   10.0244832682999991
    -9.4821132118399998   -5.5089477087900001    0.0170740616273000
     6.3359946057599998  -11.0114127993000004  -10.0652216442999993
   Al   Gd   N 
    83    12    96
Direct
  0.0908972356387068  0.5861650694779357  0.3351553338286308
  0.5010844773519381  0.3224318689025480  0.2560581704634544
  0.2543804150358397  0.5844876316638192  0.4955387680563703
  0.3317193761784196  0.3182848448556967  0.0772634507471466
  0.4039409926050794  0.0861396264598184  0.1774580614001096
  0.0079622271245654  0.8461376043097317  0.2527812326913192
  0.1718607506384444  0.3343190839382117  0.4140912331516731
  0.2450626158220857  0.0915730490756701  0.4958761349111214
  0.1633582210479716  0.8401794733806227  0.4148851770736215
  0.3386579294937420  0.6750251471388111  0.3402581245779075
  0.1546893028797172  0.6749224156216584  0.1654224578640182
  0.2515115255406997  0.4010816166150875  0.2519910500948654
  0.3341345344645745  0.1639305223928247  0.3337635856158343
  0.0083235457495192  0.6730308075309637  0.4944458059384900
  0.1671832345322102  0.1584134311393655  0.1696296675449034
  0.2543668174576936  0.9212742258729776  0.2545522688678332
  0.4124268721110624  0.4160394534979588  0.4161234570116648
  0.4983908607352987  0.1607439593297215  0.4969653032709829
  0.0824747201482765  0.9243520420608533  0.0793851382140289
  0.4201803083682734  0.9211530880242194  0.4111651195312760
  0.0889912632560055  0.5851005101334721  0.8339862783408520
  0.4992823357579113  0.3229992185108728  0.7557265721803290
  0.0848113325774165  0.0850679210174974  0.8338962591015502
  0.2508806071059695  0.5782880290561039  0.9942482026244477
  0.3324301593323895  0.3180209632197943  0.5780724610490680
  0.4179982743580339  0.0873570304704927  0.6724596335256052
  0.0065987502026701  0.8432140124001890  0.7546161684900810
  0.1671720856289909  0.3321628402991976  0.9114666803974885
  0.2464442062317715  0.0877800281436620  0.9948129869252114
  0.1609993306583632  0.8369729746082015  0.9158563721333906
  0.3363694785133973  0.6732387430098115  0.8399270556507688
  0.1564348043034869  0.6751021476294667  0.6644653302417325
  0.2501249438725068  0.4023179200182909  0.7509387525222380
  0.3337100480439190  0.1639549218920777  0.8339206492632485
  0.0060823015304265  0.6724664035799819  0.9945404920582135
  0.1670269958106516  0.1581193457259431  0.6687040303347800
  0.2519340503323519  0.9199023918283729  0.7559945778892327
  0.4121291686878337  0.4145726731833719  0.9150518741324873
  0.4967023872883516  0.1602912260153602  0.9987263953235868
  0.0818277256304683  0.9249423131957144  0.5792971035886225
  0.4196623855376984  0.9195367293529557  0.9114506617525890
  0.5907175820943564  0.5845770605697140  0.3355122912848429
  0.0039103972598298  0.3194674847219972  0.2575841629201463
  0.5869217638564308  0.0848847006143458  0.3350489951405322
  0.7521676590991149  0.5792196594931909  0.4951645344350268
  0.8310567307367975  0.3168376464320630  0.0783780672260121
  0.9154255430571752  0.0867576587514876  0.1699516223929365
  0.5097466315794108  0.8414612500946248  0.2546584672840524
  0.6674574458739784  0.3324025688768657  0.4129901913390626
  0.7487385450529871  0.0875877531416052  0.4962423513003387
  0.6625819697707982  0.8374274579043046  0.4159137229133805
  0.8378195740740750  0.6748678744870773  0.3405042308663511
  0.6556277227181440  0.6737359124073308  0.1661657081790722
  0.7514592462697962  0.4001494430989467  0.2522891553375146
  0.8345623884584157  0.1629871848487880  0.3340889188024505
  0.5075897451620364  0.6744881897279740  0.4948198191350670
  0.6641047954539445  0.1573525528520463  0.1700829834559912
  0.7538032331778837  0.9199599353432575  0.2558277286956141
  0.9122128973628634  0.4144272290785693  0.4149874490801295
  0.0005786231585319  0.1637958436829550  0.4956277308544443
  0.5809200136343193  0.9246842300762950  0.0812068791757454
  0.9218470864925337  0.9214652074996863  0.4116414589856205
  0.5889691005528874  0.5846965184791628  0.8349237483587260
  0.9993520344844384  0.3223733381071625  0.7544372859963531
  0.5851799458157103  0.0851182015770178  0.8352589389004237
  0.7516656590515538  0.5775881403700964  0.9949235798099636
  0.8292698676829247  0.3185305401772283  0.5787984784876699
  0.9164810468439768  0.0869917423051305  0.6713132305160414
  0.5072591251809939  0.8428839824261871  0.7552100629167100
  0.6668749591870125  0.3314469127635817  0.9127028591025450
  0.7457694612579218  0.0864587670734593  0.9960824347318606
  0.6610438668269154  0.8362812839196039  0.9168260309825840
  0.8362066073976422  0.6726253169471192  0.8394199265528002
  0.6567737943631755  0.6745245268615960  0.6661719074341335
  0.7498213498078243  0.4022389060946807  0.7524154637414711
  0.8334981093344282  0.1640381230447829  0.8343115728705897
  0.5064158524329656  0.6725195217623394  0.9947841580851389
  0.6664571661038252  0.1586418506731277  0.6700881531316938
  0.7519719602076975  0.9199546963406746  0.7564880166644485
  0.9120994288324198  0.4141327260281287  0.9151519144407629
  0.9977189532210318  0.1607596752986780  0.9966346607930419
  0.5834532890950612  0.9240502118612284  0.5797336650846248
  0.9192073103139009  0.9192508968660817  0.9116529491671912
  0.3977894559647694  0.5802230281258645  0.1789834840189641
  0.3306282830019782  0.8355197942581611  0.0813580933902998
  0.0812960144939865  0.4173183276879158  0.0848614012890536
  0.3986025136138451  0.5818417634468247  0.6774479166831782
  0.3320162857654481  0.8447223463588855  0.5824702036172766
  0.0840536144672726  0.4103340312404100  0.5794334263747416
  0.8988119263532042  0.5779878218788852  0.1798224576112872
  0.8303571502053231  0.8351301284782053  0.0827796178996465
  0.5812867835260036  0.4179439119492017  0.0852721680384292
  0.9024270825884884  0.5775644437647784  0.6765443040612453
  0.8312941936785663  0.8382017720546600  0.5837255630510185
  0.5803684738501289  0.4184328005350295  0.5856153773768114
  0.2196003106409421  0.5821467011987949  0.2664578667140844
  0.0328537567456166  0.6098737340507583  0.1004344840114229
  0.1307595183587935  0.3182966442729551  0.2000663635130451
  0.2395905771336615  0.0835435542797569  0.2582640404720706
  0.3845141246732169  0.5863634209918800  0.4374899104658141
  0.4487204439824595  0.3196263460997883  0.0095160593086163
  0.0390602938701292  0.0855881867978781  0.1025041551171029
  0.1324800524792451  0.8423830466255495  0.1840675769466955
  0.2978703756423258  0.3313620928032535  0.3522553756163020
  0.3767146102643224  0.0807003639796875  0.4360572021696925
  0.4759566303765581  0.8370543753380630  0.0072849914738669
  0.2942507900817120  0.8359601731061801  0.3559509765306785
  0.4737149821465252  0.6836839916641111  0.2871591419155166
  0.2633379555599475  0.6538818406328843  0.0944886700051697
  0.3756587778056186  0.3823137375791887  0.1845348985267776
  0.4662969299282409  0.1644411688046432  0.2764496357569968
  0.1361832778399261  0.6669845144397186  0.4333727968086265
  0.2233014965609357  0.4121805075502749  0.0081817927266599
  0.2876162069335422  0.1600943347457857  0.0976363664270750
  0.3879983459210266  0.9188399321313625  0.1992133195898447
  0.0439146052983688  0.4212105258149563  0.3527763202306247
  0.1332736437194768  0.1916859867733365  0.4547263967418971
  0.1948651997837274  0.9328758166741551  0.0089823022053466
  0.0438533327327377  0.9086216978736843  0.3529392107946236
  0.2184870036084305  0.5814823582311206  0.7662874660857426
  0.0385837414726566  0.6045151154789536  0.5991709561935465
  0.1294930198217727  0.3174511171333521  0.6994666136476155
  0.2113988972653900  0.0823822999168158  0.7724424249975499
  0.3816804362801989  0.5835204416998749  0.9371149527259206
  0.4495042666121591  0.3184597163794862  0.5105323641983617
  0.0385942870429261  0.0849764671858040  0.6054554476234699
  0.1311822206692312  0.8421466471938786  0.6860295062184534
  0.2954802409002468  0.3297885805638145  0.8514793357274471
  0.3760376955304210  0.0800252418308531  0.9343362886978852
  0.4765758078979587  0.8387213553923090  0.5079809387906735
  0.2919830406717452  0.8345150928112020  0.8564502595886125
  0.4712369290076310  0.6847307816249497  0.7870762537305112
  0.2675331464935553  0.6639271078783011  0.5952673482564208
  0.3749903959267371  0.3838783086604707  0.6854542015831342
  0.4620131036031268  0.1633268336524907  0.7750290508140196
  0.1336165218436776  0.6654631851509478  0.9325780783918844
  0.2320377872274264  0.4206928088169306  0.5102083877300814
  0.2935084333115228  0.1565261103211526  0.6054257199456714
  0.3847326964139910  0.9283335568682105  0.7038453480141627
  0.0420621621905184  0.4198143914499965  0.8511810819218155
  0.1251474496150493  0.1713271871920554  0.9332358024896195
  0.1942024580547397  0.9349451937210986  0.5095422653107917
  0.0475441918653843  0.9236821694430262  0.8521507239019002
  0.7194723405661492  0.5808606199540520  0.2669402083436054
  0.5332563269286510  0.6105906989925955  0.1008173119866811
  0.6306486524141306  0.3176274949573070  0.2001837479788193
  0.7111283191517686  0.0808708019328463  0.2726531281376410
  0.8825377070362492  0.5841819703394577  0.4374971425973229
  0.9477566041761207  0.3184661194713172  0.0098628371971117
  0.5362520480457533  0.0853169878497724  0.1052572187190819
  0.6344523907300257  0.8410600164046613  0.1856808118671225
  0.7946465973147099  0.3301593247634997  0.3530718693547144
  0.8767758914127697  0.0808636172532502  0.4360176190228273
  0.9752433310174666  0.8370606125268694  0.0075617571745852
  0.7923440616827406  0.8353688785578228  0.3566150542345312
  0.9720391271745044  0.6853249769507102  0.2856621912532376
  0.7645769640777687  0.6527700121575961  0.0954667859634455
  0.8751689611907594  0.3819971834573082  0.1845908404794656
  0.9464989354112703  0.1695978742375743  0.2663138931159210
  0.6356130528064909  0.6663550011252042  0.4339055186992695
  0.7235146167814150  0.4113920772382684  0.0092173094292676
  0.7866164574196901  0.1569085167874817  0.1006488928904119
  0.8833174132263792  0.9267567982489382  0.1997169297946400
  0.5432285691979644  0.4203099601752598  0.3525980055276037
  0.6274197150652299  0.1708552663323815  0.4357856681029020
  0.6945703489069359  0.9315314547593445  0.0105092696119229
  0.5486828452379342  0.9234788231192468  0.3523993671985224
  0.7176080209924152  0.5808636802488962  0.7670771566576207
  0.5353274001110080  0.6115100242616762  0.6008845140041856
  0.6294730219186562  0.3169933050569966  0.7010568570468791
  0.7113582037989872  0.0823197911069329  0.7729986211500872
  0.8816977346924944  0.5830670152531923  0.9369098349431795
  0.9415652792210736  0.3197683843551147  0.5102959998824872
  0.5406244863485554  0.0850018519698637  0.6047092649609311
  0.6322339434939579  0.8420989732699269  0.6861584735845270
  0.7950093861670808  0.3293225054219704  0.8525713702586017
  0.8753860750258227  0.0798199069165051  0.9348897969917331
  0.9747232627192801  0.8366947281452966  0.5099363140765618
  0.7918216731100145  0.8340269749820806  0.8567289408735732
  0.9704743030013745  0.6844492899614139  0.7858312624686334
  0.7666725809952055  0.6555376210183326  0.5960681821385307
  0.8722253635281589  0.3817808129042248  0.6861433014327716
  0.9606910638306942  0.1631062057995223  0.7742852604053923
  0.6342293895550313  0.6647451929856771  0.9335195499930578
  0.7213011269894025  0.4135553655495841  0.5102954262287085
  0.7886264648887433  0.1570992867316079  0.6032357834040525
  0.8833137119123435  0.9280879336943499  0.7030362123328615
  0.5424704652699504  0.4197256395516433  0.8521848859629202
  0.6251771003521824  0.1705888232892363  0.9349326965411322
  0.6961547095372396  0.9325306301133054  0.5102108339136464
  0.5485566923050200  0.9235049702775981  0.8525875564449805
 
  0.00000000E+00  0.00000000E+00  0.00000000E+00
  0.00000000E+00  0.00000000E+00  0.00000000E+00
  0.00000000E+00  0.00000000E+00  0.00000000E+00
  0.00000000E+00  0.00000000E+00  0.00000000E+00
  0.00000000E+00  0.00000000E+00  0.00000000E+00
  0.00000000E+00  0.00000000E+00  0.00000000E+00
  0.00000000E+00  0.00000000E+00  0.00000000E+00
  0.00000000E+00  0.00000000E+00  0.00000000E+00
  0.00000000E+00  0.00000000E+00  0.00000000E+00
  0.00000000E+00  0.00000000E+00  0.00000000E+00
  0.00000000E+00  0.00000000E+00  0.00000000E+00
  0.00000000E+00  0.00000000E+00  0.00000000E+00
  0.00000000E+00  0.00000000E+00  0.00000000E+00
  0.00000000E+00  0.00000000E+00  0.00000000E+00
  0.00000000E+00  0.00000000E+00  0.00000000E+00
  0.00000000E+00  0.00000000E+00  0.00000000E+00
  0.00000000E+00  0.00000000E+00  0.00000000E+00
  0.00000000E+00  0.00000000E+00  0.00000000E+00
  0.00000000E+00  0.00000000E+00  0.00000000E+00
  0.00000000E+00  0.00000000E+00  0.00000000E+00
  0.00000000E+00  0.00000000E+00  0.00000000E+00
  0.00000000E+00  0.00000000E+00  0.00000000E+00
  0.00000000E+00  0.00000000E+00  0.00000000E+00
  0.00000000E+00  0.00000000E+00  0.00000000E+00
  0.00000000E+00  0.00000000E+00  0.00000000E+00
  0.00000000E+00  0.00000000E+00  0.00000000E+00
  0.00000000E+00  0.00000000E+00  0.00000000E+00
  0.00000000E+00  0.00000000E+00  0.00000000E+00
  0.00000000E+00  0.00000000E+00  0.00000000E+00
  0.00000000E+00  0.00000000E+00  0.00000000E+00
  0.00000000E+00  0.00000000E+00  0.00000000E+00
  0.00000000E+00  0.00000000E+00  0.00000000E+00
  0.00000000E+00  0.00000000E+00  0.00000000E+00
  0.00000000E+00  0.00000000E+00  0.00000000E+00
  0.00000000E+00  0.00000000E+00  0.00000000E+00
  0.00000000E+00  0.00000000E+00  0.00000000E+00
  0.00000000E+00  0.00000000E+00  0.00000000E+00
  0.00000000E+00  0.00000000E+00  0.00000000E+00
  0.00000000E+00  0.00000000E+00  0.00000000E+00
  0.00000000E+00  0.00000000E+00  0.00000000E+00
  0.00000000E+00  0.00000000E+00  0.00000000E+00
  0.00000000E+00  0.00000000E+00  0.00000000E+00
  0.00000000E+00  0.00000000E+00  0.00000000E+00
  0.00000000E+00  0.00000000E+00  0.00000000E+00
  0.00000000E+00  0.00000000E+00  0.00000000E+00
  0.00000000E+00  0.00000000E+00  0.00000000E+00
  0.00000000E+00  0.00000000E+00  0.00000000E+00
  0.00000000E+00  0.00000000E+00  0.00000000E+00
  0.00000000E+00  0.00000000E+00  0.00000000E+00
  0.00000000E+00  0.00000000E+00  0.00000000E+00
  0.00000000E+00  0.00000000E+00  0.00000000E+00
  0.00000000E+00  0.00000000E+00  0.00000000E+00
  0.00000000E+00  0.00000000E+00  0.00000000E+00
  0.00000000E+00  0.00000000E+00  0.00000000E+00
  0.00000000E+00  0.00000000E+00  0.00000000E+00
  0.00000000E+00  0.00000000E+00  0.00000000E+00
  0.00000000E+00  0.00000000E+00  0.00000000E+00
  0.00000000E+00  0.00000000E+00  0.00000000E+00
  0.00000000E+00  0.00000000E+00  0.00000000E+00
  0.00000000E+00  0.00000000E+00  0.00000000E+00
  0.00000000E+00  0.00000000E+00  0.00000000E+00
  0.00000000E+00  0.00000000E+00  0.00000000E+00
  0.00000000E+00  0.00000000E+00  0.00000000E+00
  0.00000000E+00  0.00000000E+00  0.00000000E+00
  0.00000000E+00  0.00000000E+00  0.00000000E+00
  0.00000000E+00  0.00000000E+00  0.00000000E+00
  0.00000000E+00  0.00000000E+00  0.00000000E+00
  0.00000000E+00  0.00000000E+00  0.00000000E+00
  0.00000000E+00  0.00000000E+00  0.00000000E+00
  0.00000000E+00  0.00000000E+00  0.00000000E+00
  0.00000000E+00  0.00000000E+00  0.00000000E+00
  0.00000000E+00  0.00000000E+00  0.00000000E+00
  0.00000000E+00  0.00000000E+00  0.00000000E+00
  0.00000000E+00  0.00000000E+00  0.00000000E+00
  0.00000000E+00  0.00000000E+00  0.00000000E+00
  0.00000000E+00  0.00000000E+00  0.00000000E+00
  0.00000000E+00  0.00000000E+00  0.00000000E+00
  0.00000000E+00  0.00000000E+00  0.00000000E+00
  0.00000000E+00  0.00000000E+00  0.00000000E+00
  0.00000000E+00  0.00000000E+00  0.00000000E+00
  0.00000000E+00  0.00000000E+00  0.00000000E+00
  0.00000000E+00  0.00000000E+00  0.00000000E+00
  0.00000000E+00  0.00000000E+00  0.00000000E+00
  0.00000000E+00  0.00000000E+00  0.00000000E+00
  0.00000000E+00  0.00000000E+00  0.00000000E+00
  0.00000000E+00  0.00000000E+00  0.00000000E+00
  0.00000000E+00  0.00000000E+00  0.00000000E+00
  0.00000000E+00  0.00000000E+00  0.00000000E+00
  0.00000000E+00  0.00000000E+00  0.00000000E+00
  0.00000000E+00  0.00000000E+00  0.00000000E+00
  0.00000000E+00  0.00000000E+00  0.00000000E+00
  0.00000000E+00  0.00000000E+00  0.00000000E+00
  0.00000000E+00  0.00000000E+00  0.00000000E+00
  0.00000000E+00  0.00000000E+00  0.00000000E+00
  0.00000000E+00  0.00000000E+00  0.00000000E+00
  0.00000000E+00  0.00000000E+00  0.00000000E+00
  0.00000000E+00  0.00000000E+00  0.00000000E+00
  0.00000000E+00  0.00000000E+00  0.00000000E+00
  0.00000000E+00  0.00000000E+00  0.00000000E+00
  0.00000000E+00  0.00000000E+00  0.00000000E+00
  0.00000000E+00  0.00000000E+00  0.00000000E+00
  0.00000000E+00  0.00000000E+00  0.00000000E+00
  0.00000000E+00  0.00000000E+00  0.00000000E+00
  0.00000000E+00  0.00000000E+00  0.00000000E+00
  0.00000000E+00  0.00000000E+00  0.00000000E+00
  0.00000000E+00  0.00000000E+00  0.00000000E+00
  0.00000000E+00  0.00000000E+00  0.00000000E+00
  0.00000000E+00  0.00000000E+00  0.00000000E+00
  0.00000000E+00  0.00000000E+00  0.00000000E+00
  0.00000000E+00  0.00000000E+00  0.00000000E+00
  0.00000000E+00  0.00000000E+00  0.00000000E+00
  0.00000000E+00  0.00000000E+00  0.00000000E+00
  0.00000000E+00  0.00000000E+00  0.00000000E+00
  0.00000000E+00  0.00000000E+00  0.00000000E+00
  0.00000000E+00  0.00000000E+00  0.00000000E+00
  0.00000000E+00  0.00000000E+00  0.00000000E+00
  0.00000000E+00  0.00000000E+00  0.00000000E+00
  0.00000000E+00  0.00000000E+00  0.00000000E+00
  0.00000000E+00  0.00000000E+00  0.00000000E+00
  0.00000000E+00  0.00000000E+00  0.00000000E+00
  0.00000000E+00  0.00000000E+00  0.00000000E+00
  0.00000000E+00  0.00000000E+00  0.00000000E+00
  0.00000000E+00  0.00000000E+00  0.00000000E+00
  0.00000000E+00  0.00000000E+00  0.00000000E+00
  0.00000000E+00  0.00000000E+00  0.00000000E+00
  0.00000000E+00  0.00000000E+00  0.00000000E+00
  0.00000000E+00  0.00000000E+00  0.00000000E+00
  0.00000000E+00  0.00000000E+00  0.00000000E+00
  0.00000000E+00  0.00000000E+00  0.00000000E+00
  0.00000000E+00  0.00000000E+00  0.00000000E+00
  0.00000000E+00  0.00000000E+00  0.00000000E+00
  0.00000000E+00  0.00000000E+00  0.00000000E+00
  0.00000000E+00  0.00000000E+00  0.00000000E+00
  0.00000000E+00  0.00000000E+00  0.00000000E+00
  0.00000000E+00  0.00000000E+00  0.00000000E+00
  0.00000000E+00  0.00000000E+00  0.00000000E+00
  0.00000000E+00  0.00000000E+00  0.00000000E+00
  0.00000000E+00  0.00000000E+00  0.00000000E+00
  0.00000000E+00  0.00000000E+00  0.00000000E+00
  0.00000000E+00  0.00000000E+00  0.00000000E+00
  0.00000000E+00  0.00000000E+00  0.00000000E+00
  0.00000000E+00  0.00000000E+00  0.00000000E+00
  0.00000000E+00  0.00000000E+00  0.00000000E+00
  0.00000000E+00  0.00000000E+00  0.00000000E+00
  0.00000000E+00  0.00000000E+00  0.00000000E+00
  0.00000000E+00  0.00000000E+00  0.00000000E+00
  0.00000000E+00  0.00000000E+00  0.00000000E+00
  0.00000000E+00  0.00000000E+00  0.00000000E+00
  0.00000000E+00  0.00000000E+00  0.00000000E+00
  0.00000000E+00  0.00000000E+00  0.00000000E+00
  0.00000000E+00  0.00000000E+00  0.00000000E+00
  0.00000000E+00  0.00000000E+00  0.00000000E+00
  0.00000000E+00  0.00000000E+00  0.00000000E+00
  0.00000000E+00  0.00000000E+00  0.00000000E+00
  0.00000000E+00  0.00000000E+00  0.00000000E+00
  0.00000000E+00  0.00000000E+00  0.00000000E+00
  0.00000000E+00  0.00000000E+00  0.00000000E+00
  0.00000000E+00  0.00000000E+00  0.00000000E+00
  0.00000000E+00  0.00000000E+00  0.00000000E+00
  0.00000000E+00  0.00000000E+00  0.00000000E+00
  0.00000000E+00  0.00000000E+00  0.00000000E+00
  0.00000000E+00  0.00000000E+00  0.00000000E+00
  0.00000000E+00  0.00000000E+00  0.00000000E+00
  0.00000000E+00  0.00000000E+00  0.00000000E+00
  0.00000000E+00  0.00000000E+00  0.00000000E+00
  0.00000000E+00  0.00000000E+00  0.00000000E+00
  0.00000000E+00  0.00000000E+00  0.00000000E+00
  0.00000000E+00  0.00000000E+00  0.00000000E+00
  0.00000000E+00  0.00000000E+00  0.00000000E+00
  0.00000000E+00  0.00000000E+00  0.00000000E+00
  0.00000000E+00  0.00000000E+00  0.00000000E+00
  0.00000000E+00  0.00000000E+00  0.00000000E+00
  0.00000000E+00  0.00000000E+00  0.00000000E+00
  0.00000000E+00  0.00000000E+00  0.00000000E+00
  0.00000000E+00  0.00000000E+00  0.00000000E+00
  0.00000000E+00  0.00000000E+00  0.00000000E+00
  0.00000000E+00  0.00000000E+00  0.00000000E+00
  0.00000000E+00  0.00000000E+00  0.00000000E+00
  0.00000000E+00  0.00000000E+00  0.00000000E+00
  0.00000000E+00  0.00000000E+00  0.00000000E+00
  0.00000000E+00  0.00000000E+00  0.00000000E+00
  0.00000000E+00  0.00000000E+00  0.00000000E+00
  0.00000000E+00  0.00000000E+00  0.00000000E+00
  0.00000000E+00  0.00000000E+00  0.00000000E+00
  0.00000000E+00  0.00000000E+00  0.00000000E+00
  0.00000000E+00  0.00000000E+00  0.00000000E+00
  0.00000000E+00  0.00000000E+00  0.00000000E+00
  0.00000000E+00  0.00000000E+00  0.00000000E+00
  0.00000000E+00  0.00000000E+00  0.00000000E+00
  0.00000000E+00  0.00000000E+00  0.00000000E+00
  0.00000000E+00  0.00000000E+00  0.00000000E+00
