generated by phonopy                    
   1.00000000000000     
    11.7777700938999992   -0.0000006592896312    0.0000118211769744
    -0.0000006477562692   11.7777479613999994   -0.0000130806483528
     0.0000177256125076   -0.0000204342245446   17.8544012557999991
   Ge   Bi   Cu   Se   O 
     1    35    36    36    36
Direct
  0.9998740678252744  0.1666390500225106  0.4421024379970220
  0.3282176744442182  0.1666817848578361  0.4283902165508735
  0.6716344560709402  0.1666688786160364  0.4283884942640128
  0.9999562153420385  0.4949550659191573  0.4283867403051929
  0.3324145587929692  0.4991397251059340  0.4280553290714906
  0.6674999967139641  0.4991211385042078  0.4280597962979797
  0.9999425468945446  0.8383678833324453  0.4283825421550489
  0.3324071836839835  0.8342290286331959  0.4280565125279594
  0.6674922943058874  0.8342133802080696  0.4280617146661641
  0.0000175403440679  0.1666786107444409  0.9293843470593259
  0.3332814259761321  0.1666837439028228  0.9292753326355125
  0.6667563925452953  0.1666743207958916  0.9292851733532714
  0.0000225165374346  0.4999439335133573  0.9292814146410961
  0.3333730669254109  0.5000419109751277  0.9292118772589575
  0.6666640185954620  0.5000258519278304  0.9292172008038051
  0.0000173298598511  0.8334149181911243  0.9292894087952277
  0.3333654799191308  0.8333249268934253  0.9292171987673399
  0.6666660809590113  0.8333230402257144  0.9292236727295133
  0.1666488865240723  0.0000590516944072  0.0716404949280118
  0.5000067620270912  0.0001796497496898  0.0713680243237320
  0.8333861497894617  0.0000410200347432  0.0716458819876991
  0.1666550736395180  0.3333196287828031  0.0716368900013222
  0.5000126672383516  0.3331842852593496  0.0713660927225632
  0.8333916511123434  0.3333048120064888  0.0716402568570800
  0.1665234725629929  0.6666825501454099  0.0713740382505534
  0.5000204998653572  0.6666808835086471  0.0713964832949685
  0.8335203356195109  0.6666642576603437  0.0713735827665474
  0.1654788961658511  0.0011612392769038  0.5706498030434588
  0.4999502599101646  0.0013392362204598  0.5692408716664872
  0.8344229141449517  0.0011409702257268  0.5706618326019637
  0.1654804328185620  0.3322000807769925  0.5706468160261764
  0.4999521705022545  0.3320035480909240  0.5692362028440101
  0.8344353200769774  0.3322074920143834  0.5706579932070994
  0.1652787416101091  0.6666827065734182  0.5692286927355283
  0.4999481383379916  0.6666748101746478  0.5695563803298427
  0.8346103274137207  0.6666714639403466  0.5692379686908708
  0.9999697729139569  0.0019078016034584  0.2518621967976316
  0.3322518211561416  0.9980784293381930  0.2504134252887553
  0.6676894684612336  0.9980240815856618  0.2503972342215519
  0.9999837961166662  0.3314346278057556  0.2518685123442381
  0.3322844385773678  0.3353674424692201  0.2504097942561998
  0.6677179311792827  0.3352998181251294  0.2504049796700087
  0.9999865245701614  0.6666663745827535  0.2502471477336528
  0.3323163750200706  0.6667280531787014  0.2502782472131102
  0.6676951757130709  0.6666567127088499  0.2502675335246707
  0.0000035501945135  0.9991174152573876  0.7504062944876253
  0.3336984840295401  0.9994182704518551  0.7495387317010795
  0.6663071680902135  0.9994074666492168  0.7495405644245778
  0.0000086440983083  0.3342459940428100  0.7504032836574979
  0.3336999128979485  0.3339613516461455  0.7495295714538770
  0.6663202680024440  0.3339390255986814  0.7495302108241475
  0.9999739134224512  0.6666930099811879  0.7501004585356696
  0.3336141448289922  0.6666832433785430  0.7495927303865813
  0.6664076994947976  0.6666722654128492  0.7496034013071764
  0.1647648757018345  0.1667001348243247  0.2518634531121862
  0.4999962641681961  0.1666892777250695  0.2502463624685518
  0.8352220239333121  0.1666591519417793  0.2518512325141842
  0.1686833430000547  0.4989911819205446  0.2504091202372791
  0.5000444817111074  0.4990018359134751  0.2502784423892450
  0.8313881590363366  0.4989193675272858  0.2504144195429632
  0.1686587655951968  0.8344364239345765  0.2504088651458645
  0.5000208340527692  0.8343806067024957  0.2502711203332382
  0.8313777357949235  0.8343747893886331  0.2504043353097600
  0.1675364185336647  0.1666878746749774  0.7504072828827901
  0.4999857414597741  0.1666613608769083  0.7501072226184320
  0.8324110491977166  0.1666764509988994  0.7504089038759432
  0.1672379305625640  0.5003818592542473  0.7495255394471982
  0.4999680948780210  0.5002978435499088  0.7495921904291052
  0.8327146974875461  0.5003819758055386  0.7495409682554737
  0.1672312802260478  0.8330027359526824  0.7495278269333951
  0.4999591786947448  0.8330816078803878  0.7495967578894920
  0.8327119495177442  0.8329773697621690  0.7495384161078746
  0.1673776858833875  0.3340850375156421  0.3370610741033602
  0.4999938906165156  0.3331122803093862  0.3371386062084625
  0.8325993791425006  0.3340439826632817  0.3370702184075896
  0.1664166018426911  0.6667028796483336  0.3371337857064987
  0.4999965095362313  0.6666886727092916  0.3365259282646420
  0.8335523587337832  0.6666624848792537  0.3371379522347056
  0.1673574520483783  0.9993112045350188  0.3370681391779158
  0.4999788319050396  0.0002559419660173  0.3371363258135531
  0.8325747773112795  0.9992779932987546  0.3370587252180357
  0.1669807522535152  0.3336625963298800  0.8373375732556525
  0.5000097729770872  0.3334248147814378  0.8373780471147256
  0.8330361207135581  0.3336513548283193  0.8373407036600469
  0.1667406700579406  0.6666887724488078  0.8373753506124046
  0.5000033295016877  0.6666834943378959  0.8376570937917691
  0.8332585722184973  0.6666824736580992  0.8373980877548775
  0.1669743845950507  0.9997101370509824  0.8373420693307168
  0.5000064574976051  0.9999308428603086  0.8373936767269328
  0.8330340553735525  0.9997042456838372  0.8373428178607512
  0.3327885516177531  0.1667033777146756  0.1635391778752435
  0.6672111211487604  0.1666747209224368  0.1635312074089441
  0.0000069937770917  0.1666799000902088  0.1626796318894463
  0.3343326716862123  0.5010059418318846  0.1615470552838261
  0.6657243627825906  0.5009687751269354  0.1615406601245439
  0.0000229286718252  0.4994541715047163  0.1635432158211287
  0.3343157941477912  0.8324025919039926  0.1615433259747476
  0.6657133077029584  0.8323692718648417  0.1615393579764799
  0.0000166387974829  0.8338918333325438  0.1635393586284479
  0.3336009186638904  0.1666793567654921  0.6629662056427748
  0.6663568055174593  0.1666700691215013  0.6629607888979336
  0.9999748804754702  0.1666811677985507  0.6642744753917356
  0.3336483648786555  0.5003634744527403  0.6625780591028843
  0.6662986508325304  0.5003546375046426  0.6625877823228450
  0.9999681678969949  0.5003085822526003  0.6629602050966881
  0.3336431969261255  0.8330082802659220  0.6625831084957454
  0.6662935601748430  0.8329971013547066  0.6625906024299439
  0.9999627214327660  0.8330628162863789  0.6629559888613272
  0.1630810135396672  0.1666794532646492  0.5006453174005046
  0.4999544317831308  0.1666703137005427  0.4984479767336225
  0.8368868612618314  0.1666770637845403  0.5006252716470527
  0.1661448301401336  0.4989125276157509  0.4996954184228173
  0.4999642462175800  0.4993333821143153  0.4991921073854684
  0.8337771758126848  0.4989005309109800  0.4997041617112217
  0.1661295206909301  0.8344527425887662  0.4996923679026537
  0.4999647372090692  0.8340208883291069  0.4991931657344608
  0.8337817765064273  0.8344475966321099  0.4997061386035213
  0.1665452718118132  0.1666852045840628  0.0002615825122376
  0.5000097597280373  0.1666816356790406  0.0000114635931467
  0.8334864788816816  0.1666774807000664  0.0002638550094218
  0.1664746930945142  0.4998732528338010  0.0002694012080013
  0.5000135187225752  0.4995567358005317  0.9998482046467458
  0.8335600135750880  0.4998628678680603  0.0002702142093227
  0.1664707078156553  0.8334926223031971  0.0002750539724161
  0.5000111485803700  0.8338054431057458  0.9998516787723730
  0.8335589123546043  0.8334891387685985  0.0002768346314426
  0.0000154110589179  0.0001522282371127  0.0002657635748449
  0.3331985685593750  0.0002264883787575  0.0002673133894149
  0.6668267520445283  0.0002224379816909  0.0002740569033719
  0.0000191494680521  0.3332111237729691  0.0002628071702162
  0.3332030709363920  0.3331427730238090  0.0002639428753000
  0.6668263861404427  0.3331351259309940  0.0002707726400928
  0.0000184478826952  0.6666767752143201  0.0000190897338896
  0.3328890831133933  0.6666819723789672  0.9998515042745524
  0.6671426588261369  0.6666750846099347  0.9998540907938462
  0.9999535305239391  0.0035926244394631  0.5006254861250312
  0.3321877266013828  0.0004927909675416  0.4997045197746814
  0.6677344404305643  0.0005006241817540  0.4997052657497107
  0.9999627918186746  0.3297874968778061  0.5006416072820485
  0.3321940671652399  0.3328661945994966  0.4996978827457994
  0.6677342062478715  0.3328438504282758  0.4997010233669741
  0.9999516337450416  0.6666744216929956  0.4984414169174656
  0.3326195754545722  0.6666861808107996  0.4991896523174120
  0.6673005347079908  0.6666737564942196  0.4991918649801335
 
  0.00000000E+00  0.00000000E+00  0.00000000E+00
  0.00000000E+00  0.00000000E+00  0.00000000E+00
  0.00000000E+00  0.00000000E+00  0.00000000E+00
  0.00000000E+00  0.00000000E+00  0.00000000E+00
  0.00000000E+00  0.00000000E+00  0.00000000E+00
  0.00000000E+00  0.00000000E+00  0.00000000E+00
  0.00000000E+00  0.00000000E+00  0.00000000E+00
  0.00000000E+00  0.00000000E+00  0.00000000E+00
  0.00000000E+00  0.00000000E+00  0.00000000E+00
  0.00000000E+00  0.00000000E+00  0.00000000E+00
  0.00000000E+00  0.00000000E+00  0.00000000E+00
  0.00000000E+00  0.00000000E+00  0.00000000E+00
  0.00000000E+00  0.00000000E+00  0.00000000E+00
  0.00000000E+00  0.00000000E+00  0.00000000E+00
  0.00000000E+00  0.00000000E+00  0.00000000E+00
  0.00000000E+00  0.00000000E+00  0.00000000E+00
  0.00000000E+00  0.00000000E+00  0.00000000E+00
  0.00000000E+00  0.00000000E+00  0.00000000E+00
  0.00000000E+00  0.00000000E+00  0.00000000E+00
  0.00000000E+00  0.00000000E+00  0.00000000E+00
  0.00000000E+00  0.00000000E+00  0.00000000E+00
  0.00000000E+00  0.00000000E+00  0.00000000E+00
  0.00000000E+00  0.00000000E+00  0.00000000E+00
  0.00000000E+00  0.00000000E+00  0.00000000E+00
  0.00000000E+00  0.00000000E+00  0.00000000E+00
  0.00000000E+00  0.00000000E+00  0.00000000E+00
  0.00000000E+00  0.00000000E+00  0.00000000E+00
  0.00000000E+00  0.00000000E+00  0.00000000E+00
  0.00000000E+00  0.00000000E+00  0.00000000E+00
  0.00000000E+00  0.00000000E+00  0.00000000E+00
  0.00000000E+00  0.00000000E+00  0.00000000E+00
  0.00000000E+00  0.00000000E+00  0.00000000E+00
  0.00000000E+00  0.00000000E+00  0.00000000E+00
  0.00000000E+00  0.00000000E+00  0.00000000E+00
  0.00000000E+00  0.00000000E+00  0.00000000E+00
  0.00000000E+00  0.00000000E+00  0.00000000E+00
  0.00000000E+00  0.00000000E+00  0.00000000E+00
  0.00000000E+00  0.00000000E+00  0.00000000E+00
  0.00000000E+00  0.00000000E+00  0.00000000E+00
  0.00000000E+00  0.00000000E+00  0.00000000E+00
  0.00000000E+00  0.00000000E+00  0.00000000E+00
  0.00000000E+00  0.00000000E+00  0.00000000E+00
  0.00000000E+00  0.00000000E+00  0.00000000E+00
  0.00000000E+00  0.00000000E+00  0.00000000E+00
  0.00000000E+00  0.00000000E+00  0.00000000E+00
  0.00000000E+00  0.00000000E+00  0.00000000E+00
  0.00000000E+00  0.00000000E+00  0.00000000E+00
  0.00000000E+00  0.00000000E+00  0.00000000E+00
  0.00000000E+00  0.00000000E+00  0.00000000E+00
  0.00000000E+00  0.00000000E+00  0.00000000E+00
  0.00000000E+00  0.00000000E+00  0.00000000E+00
  0.00000000E+00  0.00000000E+00  0.00000000E+00
  0.00000000E+00  0.00000000E+00  0.00000000E+00
  0.00000000E+00  0.00000000E+00  0.00000000E+00
  0.00000000E+00  0.00000000E+00  0.00000000E+00
  0.00000000E+00  0.00000000E+00  0.00000000E+00
  0.00000000E+00  0.00000000E+00  0.00000000E+00
  0.00000000E+00  0.00000000E+00  0.00000000E+00
  0.00000000E+00  0.00000000E+00  0.00000000E+00
  0.00000000E+00  0.00000000E+00  0.00000000E+00
  0.00000000E+00  0.00000000E+00  0.00000000E+00
  0.00000000E+00  0.00000000E+00  0.00000000E+00
  0.00000000E+00  0.00000000E+00  0.00000000E+00
  0.00000000E+00  0.00000000E+00  0.00000000E+00
  0.00000000E+00  0.00000000E+00  0.00000000E+00
  0.00000000E+00  0.00000000E+00  0.00000000E+00
  0.00000000E+00  0.00000000E+00  0.00000000E+00
  0.00000000E+00  0.00000000E+00  0.00000000E+00
  0.00000000E+00  0.00000000E+00  0.00000000E+00
  0.00000000E+00  0.00000000E+00  0.00000000E+00
  0.00000000E+00  0.00000000E+00  0.00000000E+00
  0.00000000E+00  0.00000000E+00  0.00000000E+00
  0.00000000E+00  0.00000000E+00  0.00000000E+00
  0.00000000E+00  0.00000000E+00  0.00000000E+00
  0.00000000E+00  0.00000000E+00  0.00000000E+00
  0.00000000E+00  0.00000000E+00  0.00000000E+00
  0.00000000E+00  0.00000000E+00  0.00000000E+00
  0.00000000E+00  0.00000000E+00  0.00000000E+00
  0.00000000E+00  0.00000000E+00  0.00000000E+00
  0.00000000E+00  0.00000000E+00  0.00000000E+00
  0.00000000E+00  0.00000000E+00  0.00000000E+00
  0.00000000E+00  0.00000000E+00  0.00000000E+00
  0.00000000E+00  0.00000000E+00  0.00000000E+00
  0.00000000E+00  0.00000000E+00  0.00000000E+00
  0.00000000E+00  0.00000000E+00  0.00000000E+00
  0.00000000E+00  0.00000000E+00  0.00000000E+00
  0.00000000E+00  0.00000000E+00  0.00000000E+00
  0.00000000E+00  0.00000000E+00  0.00000000E+00
  0.00000000E+00  0.00000000E+00  0.00000000E+00
  0.00000000E+00  0.00000000E+00  0.00000000E+00
  0.00000000E+00  0.00000000E+00  0.00000000E+00
  0.00000000E+00  0.00000000E+00  0.00000000E+00
  0.00000000E+00  0.00000000E+00  0.00000000E+00
  0.00000000E+00  0.00000000E+00  0.00000000E+00
  0.00000000E+00  0.00000000E+00  0.00000000E+00
  0.00000000E+00  0.00000000E+00  0.00000000E+00
  0.00000000E+00  0.00000000E+00  0.00000000E+00
  0.00000000E+00  0.00000000E+00  0.00000000E+00
  0.00000000E+00  0.00000000E+00  0.00000000E+00
  0.00000000E+00  0.00000000E+00  0.00000000E+00
  0.00000000E+00  0.00000000E+00  0.00000000E+00
  0.00000000E+00  0.00000000E+00  0.00000000E+00
  0.00000000E+00  0.00000000E+00  0.00000000E+00
  0.00000000E+00  0.00000000E+00  0.00000000E+00
  0.00000000E+00  0.00000000E+00  0.00000000E+00
  0.00000000E+00  0.00000000E+00  0.00000000E+00
  0.00000000E+00  0.00000000E+00  0.00000000E+00
  0.00000000E+00  0.00000000E+00  0.00000000E+00
  0.00000000E+00  0.00000000E+00  0.00000000E+00
  0.00000000E+00  0.00000000E+00  0.00000000E+00
  0.00000000E+00  0.00000000E+00  0.00000000E+00
  0.00000000E+00  0.00000000E+00  0.00000000E+00
  0.00000000E+00  0.00000000E+00  0.00000000E+00
  0.00000000E+00  0.00000000E+00  0.00000000E+00
  0.00000000E+00  0.00000000E+00  0.00000000E+00
  0.00000000E+00  0.00000000E+00  0.00000000E+00
  0.00000000E+00  0.00000000E+00  0.00000000E+00
  0.00000000E+00  0.00000000E+00  0.00000000E+00
  0.00000000E+00  0.00000000E+00  0.00000000E+00
  0.00000000E+00  0.00000000E+00  0.00000000E+00
  0.00000000E+00  0.00000000E+00  0.00000000E+00
  0.00000000E+00  0.00000000E+00  0.00000000E+00
  0.00000000E+00  0.00000000E+00  0.00000000E+00
  0.00000000E+00  0.00000000E+00  0.00000000E+00
  0.00000000E+00  0.00000000E+00  0.00000000E+00
  0.00000000E+00  0.00000000E+00  0.00000000E+00
  0.00000000E+00  0.00000000E+00  0.00000000E+00
  0.00000000E+00  0.00000000E+00  0.00000000E+00
  0.00000000E+00  0.00000000E+00  0.00000000E+00
  0.00000000E+00  0.00000000E+00  0.00000000E+00
  0.00000000E+00  0.00000000E+00  0.00000000E+00
  0.00000000E+00  0.00000000E+00  0.00000000E+00
  0.00000000E+00  0.00000000E+00  0.00000000E+00
  0.00000000E+00  0.00000000E+00  0.00000000E+00
  0.00000000E+00  0.00000000E+00  0.00000000E+00
  0.00000000E+00  0.00000000E+00  0.00000000E+00
  0.00000000E+00  0.00000000E+00  0.00000000E+00
  0.00000000E+00  0.00000000E+00  0.00000000E+00
  0.00000000E+00  0.00000000E+00  0.00000000E+00
  0.00000000E+00  0.00000000E+00  0.00000000E+00
  0.00000000E+00  0.00000000E+00  0.00000000E+00
  0.00000000E+00  0.00000000E+00  0.00000000E+00
  0.00000000E+00  0.00000000E+00  0.00000000E+00
  0.00000000E+00  0.00000000E+00  0.00000000E+00
