generated by phonopy                    
   1.00000000000000     
    11.7777700938999992   -0.0000006592896312    0.0000118211769744
    -0.0000006477562692   11.7777479613999994   -0.0000130806483528
     0.0000177256125076   -0.0000204342245446   17.8544012557999991
   Bi   Cu   Se   O 
    36    35    36    36
Direct
  0.9998930439106530  0.1648685396016560  0.4267504867057426
  0.3318108344512751  0.1643522615079291  0.4275711850652399
  0.6679733774351888  0.1643379881647888  0.4275711481290827
  0.9999062413871798  0.5000787073918929  0.4285405082756597
  0.3331995627583879  0.5000780643438034  0.4285814937266821
  0.6666133316489393  0.5000637741934213  0.4285864179966978
  0.9999078342593393  0.8352895723792884  0.4267504777309270
  0.3318306088558742  0.8358064643811360  0.4275686744536173
  0.6679912650714073  0.8357867333763522  0.4275745077471598
  0.9999635620549157  0.1663706910511138  0.9294290991909548
  0.3329191586130520  0.1666851946908139  0.9301443523381252
  0.6670029247919587  0.1666680384069323  0.9301420948191392
  0.9999704786559036  0.5000799472294446  0.9294914608786371
  0.3321481057437055  0.5000769408109278  0.9305320039667748
  0.6677940733716099  0.5000687731845019  0.9305256244674638
  0.9999682371210525  0.8337840532909908  0.9294289906341646
  0.3329311061973996  0.8334712890224836  0.9301404914229892
  0.6670114361562440  0.8334677398318036  0.9301433161609012
  0.1647545907986725  0.0000852979168116  0.0732705298789043
  0.4999593254771995  0.0000703863716467  0.0714799315088541
  0.8351745261334216  0.0000711551122379  0.0732779157850487
  0.1642321424043018  0.3320090394006101  0.0724600780604021
  0.4999641478707559  0.3333614825628430  0.0714409276515369
  0.8356844006347401  0.3319875992684942  0.0724547509666706
  0.1642529966184583  0.6681713374286034  0.0724569549817033
  0.4999790205221473  0.6667814175115225  0.0714404799866770
  0.8356987468418069  0.6681510909878625  0.0724571280753779
  0.1661940675499807  0.0000774332599534  0.5705985731656895
  0.4999041964871012  0.0000699303730940  0.5705395028188107
  0.8336103724305062  0.0000719662339677  0.5705995310851009
  0.1665046871844709  0.3330398767690497  0.5698812480403390
  0.4998999609851680  0.3322463842858809  0.5694983020618594
  0.8332978594150973  0.3330312210200859  0.5698807547560136
  0.1665130006398883  0.6671198947838164  0.5698779683369324
  0.4999066328264519  0.6678937999076595  0.5694983817628412
  0.8333068465915332  0.6671081318848948  0.5698823224312903
  0.3304955974908808  0.0001141624816725  0.2498404310534639
  0.6692942866374025  0.0000473847913085  0.2498326415581502
  0.9998759167125897  0.3307007119302767  0.2501831872623939
  0.3332547023377117  0.3334837668025159  0.2500186392628976
  0.6665193221210686  0.3334184689833677  0.2500129856947382
  0.9999435526973954  0.6695101197438333  0.2501926054617556
  0.3333183334037599  0.6667543812969186  0.2500103221536918
  0.6665740361185186  0.6666928131616672  0.2500119525446749
  0.9999648779039063  0.0000623492652423  0.7500116140899138
  0.3336146555244639  0.0000632797191642  0.7500526566776458
  0.6662988990388214  0.0000426675146628  0.7500587969920147
  0.9999614198074909  0.3337233311669010  0.7499697567089854
  0.3336750322154955  0.3337837186719952  0.7500142348263665
  0.6662474153451754  0.3337704974651530  0.7500124322481909
  0.9999821268575957  0.6664006631817472  0.7499707841543781
  0.3336883789920719  0.6663406823427991  0.7500119238752845
  0.6662550126144282  0.6663325096688482  0.7500205268253310
  0.1642457718857031  0.1644423928039558  0.2500210588469614
  0.4998997178891997  0.1671164246765002  0.2498676088440206
  0.8355861996719227  0.1644005965144189  0.2500100085121630
  0.1670092715943952  0.5001292578188767  0.2501564443385149
  0.4999602116207598  0.5000739154237621  0.2500133342171367
  0.8329032930957965  0.5000696863813872  0.2501583590260736
  0.1642791712213665  0.8357804858476783  0.2500007219497036
  0.4999601954765183  0.8330285751288571  0.2498755998826709
  0.8356165744775623  0.8357502229581826  0.2500275282917386
  0.1666879437796212  0.1668346120887634  0.7500125831495623
  0.4999202058362400  0.1671174127233712  0.7502992701853515
  0.8331566105901373  0.1668174692180244  0.7500148712414259
  0.1670008723898846  0.5000641971738133  0.7497302781900217
  0.4999361363894508  0.5000533421547217  0.7500108544684423
  0.8328811859347027  0.5000555860171474  0.7497284012618550
  0.1667005066809466  0.8333000014222023  0.7500164901386057
  0.4999301133867391  0.8329877995464372  0.7502977381491078
  0.8331768689648413  0.8332827586192408  0.7500118175892965
  0.1667935365305553  0.3332860985060506  0.3370584808144415
  0.4998992598178447  0.3333843142512265  0.3371574490809834
  0.8329924632022525  0.3332603820125115  0.3370597665899098
  0.1668395883352431  0.6669320458395518  0.3370592621566644
  0.4999348532195782  0.6667673410868460  0.3371571209342648
  0.8330293187178412  0.6668963411389441  0.3370563050797983
  0.1661974340546521  0.0000939103692446  0.3374258252214872
  0.4999055362199698  0.0000796412317996  0.3363913266479770
  0.8336310679817416  0.0000855921117875  0.3374167403855139
  0.1666657116146695  0.3332967702010237  0.8372168122850567
  0.4999593653991141  0.3334953323775167  0.8375139488640784
  0.8332521231448453  0.3332880449130968  0.8372166472004707
  0.1666767516467047  0.6668440877091442  0.8372172387771357
  0.4999642333131007  0.6666266940012946  0.8375159413587170
  0.8332626853007952  0.6668349395475630  0.8372179552386569
  0.1665574601536051  0.0000738288743705  0.8373044466707285
  0.4999529765346935  0.0000622252906766  0.8373751694847158
  0.8333573298409007  0.0000611561253550  0.8373019379926276
  0.3330999679457065  0.1670071995562026  0.1629688043558559
  0.6667420310935128  0.1669699397178306  0.1629674951636986
  0.9999328522759967  0.1663587695887330  0.1626125694639455
  0.3332642601306688  0.5001047553530000  0.1628734491566064
  0.6666437176512545  0.5000631682201444  0.1628680061175984
  0.9999524232963282  0.5000934401999686  0.1636393051839136
  0.3331403347573101  0.8332086999788544  0.1629680165857295
  0.6667748513413869  0.8331602424999218  0.1629650193477374
  0.9999422893500451  0.8338040100970687  0.1626034600359745
  0.3331488647167262  0.1667770294219366  0.6628094603956853
  0.6666986517069518  0.1667662593590151  0.6628123520949671
  0.9999256138211194  0.1666710563227340  0.6627227494141579
  0.3333644685707355  0.5000670777556735  0.6625102065522270
  0.6665015234782032  0.5000606784865909  0.6625125742715241
  0.9999354103985141  0.5000690557116982  0.6626490729251628
  0.3331544189314783  0.8333593110882020  0.6628101270027926
  0.6667059280313552  0.8333455954049498  0.6628138593951718
  0.9999366714915041  0.8334654819998875  0.6627232017644360
  0.1663433623486625  0.1662156601253386  0.4993510547354418
  0.4999052444993950  0.1658554263516407  0.4993652156002355
  0.8334667028979368  0.1662130768256844  0.4993493794061905
  0.1665102071174402  0.5000803260779847  0.4995416464350413
  0.4999065421302831  0.5000707341426249  0.4993865584012482
  0.8333163250636133  0.5000728268358827  0.4995420777785213
  0.1663499326650566  0.8339392333115541  0.4993466526300310
  0.4999194114124990  0.8342881082483515  0.4993659630039673
  0.8334712344128974  0.8339322719260522  0.4993522083546722
  0.1660972845714284  0.1665243613853349  0.0006794528760921
  0.4999549737476912  0.1666704802731260  0.0004800017482722
  0.8338217879843270  0.1665119779647455  0.0006756837681721
  0.1657508614850727  0.5000863682823464  0.0006650172245273
  0.4999646792318373  0.5000733409550193  0.0006411542013041
  0.8341774518172258  0.5000716680622190  0.0006614815020640
  0.1661046481443123  0.8336376744542306  0.0006737547998341
  0.4999660330300628  0.8334812191931746  0.0004796764857744
  0.8338256305689669  0.8336354975158073  0.0006776028924662
  0.9999602518131994  0.0000755831410189  0.0005535623555772
  0.3332882757987008  0.0000756305846821  0.0007734745619388
  0.6666275625798832  0.0000719026188065  0.0007775187126171
  0.9999595983445531  0.3335217374895691  0.9998014802683031
  0.3331894529027011  0.3330733426210983  0.0006938542004846
  0.6667236798468039  0.3330614957723341  0.0006888004782439
  0.9999641762655003  0.6666337657156660  0.9998032322505921
  0.3332032159152476  0.6670857802008072  0.0006928379316591
  0.6667296769624755  0.6670775736231533  0.0006881346596117
  0.9999076816961932  0.0000784704406698  0.4994729728987224
  0.3333539677701367  0.0000755969767638  0.5002280861765911
  0.6664694998725125  0.0000730996345197  0.5002282867359540
  0.9999107112197123  0.3334132871186526  0.4992484340145396
  0.3329012803963849  0.3333119303919005  0.4993337299677378
  0.6669137344340044  0.3333066267488931  0.4993365900753162
  0.9999145446856019  0.6667475578227098  0.4992480196775873
  0.3329113842238840  0.6668464699799443  0.4993335736736952
  0.6669201460797751  0.6668359645339947  0.4993364292380562
 
  0.00000000E+00  0.00000000E+00  0.00000000E+00
  0.00000000E+00  0.00000000E+00  0.00000000E+00
  0.00000000E+00  0.00000000E+00  0.00000000E+00
  0.00000000E+00  0.00000000E+00  0.00000000E+00
  0.00000000E+00  0.00000000E+00  0.00000000E+00
  0.00000000E+00  0.00000000E+00  0.00000000E+00
  0.00000000E+00  0.00000000E+00  0.00000000E+00
  0.00000000E+00  0.00000000E+00  0.00000000E+00
  0.00000000E+00  0.00000000E+00  0.00000000E+00
  0.00000000E+00  0.00000000E+00  0.00000000E+00
  0.00000000E+00  0.00000000E+00  0.00000000E+00
  0.00000000E+00  0.00000000E+00  0.00000000E+00
  0.00000000E+00  0.00000000E+00  0.00000000E+00
  0.00000000E+00  0.00000000E+00  0.00000000E+00
  0.00000000E+00  0.00000000E+00  0.00000000E+00
  0.00000000E+00  0.00000000E+00  0.00000000E+00
  0.00000000E+00  0.00000000E+00  0.00000000E+00
  0.00000000E+00  0.00000000E+00  0.00000000E+00
  0.00000000E+00  0.00000000E+00  0.00000000E+00
  0.00000000E+00  0.00000000E+00  0.00000000E+00
  0.00000000E+00  0.00000000E+00  0.00000000E+00
  0.00000000E+00  0.00000000E+00  0.00000000E+00
  0.00000000E+00  0.00000000E+00  0.00000000E+00
  0.00000000E+00  0.00000000E+00  0.00000000E+00
  0.00000000E+00  0.00000000E+00  0.00000000E+00
  0.00000000E+00  0.00000000E+00  0.00000000E+00
  0.00000000E+00  0.00000000E+00  0.00000000E+00
  0.00000000E+00  0.00000000E+00  0.00000000E+00
  0.00000000E+00  0.00000000E+00  0.00000000E+00
  0.00000000E+00  0.00000000E+00  0.00000000E+00
  0.00000000E+00  0.00000000E+00  0.00000000E+00
  0.00000000E+00  0.00000000E+00  0.00000000E+00
  0.00000000E+00  0.00000000E+00  0.00000000E+00
  0.00000000E+00  0.00000000E+00  0.00000000E+00
  0.00000000E+00  0.00000000E+00  0.00000000E+00
  0.00000000E+00  0.00000000E+00  0.00000000E+00
  0.00000000E+00  0.00000000E+00  0.00000000E+00
  0.00000000E+00  0.00000000E+00  0.00000000E+00
  0.00000000E+00  0.00000000E+00  0.00000000E+00
  0.00000000E+00  0.00000000E+00  0.00000000E+00
  0.00000000E+00  0.00000000E+00  0.00000000E+00
  0.00000000E+00  0.00000000E+00  0.00000000E+00
  0.00000000E+00  0.00000000E+00  0.00000000E+00
  0.00000000E+00  0.00000000E+00  0.00000000E+00
  0.00000000E+00  0.00000000E+00  0.00000000E+00
  0.00000000E+00  0.00000000E+00  0.00000000E+00
  0.00000000E+00  0.00000000E+00  0.00000000E+00
  0.00000000E+00  0.00000000E+00  0.00000000E+00
  0.00000000E+00  0.00000000E+00  0.00000000E+00
  0.00000000E+00  0.00000000E+00  0.00000000E+00
  0.00000000E+00  0.00000000E+00  0.00000000E+00
  0.00000000E+00  0.00000000E+00  0.00000000E+00
  0.00000000E+00  0.00000000E+00  0.00000000E+00
  0.00000000E+00  0.00000000E+00  0.00000000E+00
  0.00000000E+00  0.00000000E+00  0.00000000E+00
  0.00000000E+00  0.00000000E+00  0.00000000E+00
  0.00000000E+00  0.00000000E+00  0.00000000E+00
  0.00000000E+00  0.00000000E+00  0.00000000E+00
  0.00000000E+00  0.00000000E+00  0.00000000E+00
  0.00000000E+00  0.00000000E+00  0.00000000E+00
  0.00000000E+00  0.00000000E+00  0.00000000E+00
  0.00000000E+00  0.00000000E+00  0.00000000E+00
  0.00000000E+00  0.00000000E+00  0.00000000E+00
  0.00000000E+00  0.00000000E+00  0.00000000E+00
  0.00000000E+00  0.00000000E+00  0.00000000E+00
  0.00000000E+00  0.00000000E+00  0.00000000E+00
  0.00000000E+00  0.00000000E+00  0.00000000E+00
  0.00000000E+00  0.00000000E+00  0.00000000E+00
  0.00000000E+00  0.00000000E+00  0.00000000E+00
  0.00000000E+00  0.00000000E+00  0.00000000E+00
  0.00000000E+00  0.00000000E+00  0.00000000E+00
  0.00000000E+00  0.00000000E+00  0.00000000E+00
  0.00000000E+00  0.00000000E+00  0.00000000E+00
  0.00000000E+00  0.00000000E+00  0.00000000E+00
  0.00000000E+00  0.00000000E+00  0.00000000E+00
  0.00000000E+00  0.00000000E+00  0.00000000E+00
  0.00000000E+00  0.00000000E+00  0.00000000E+00
  0.00000000E+00  0.00000000E+00  0.00000000E+00
  0.00000000E+00  0.00000000E+00  0.00000000E+00
  0.00000000E+00  0.00000000E+00  0.00000000E+00
  0.00000000E+00  0.00000000E+00  0.00000000E+00
  0.00000000E+00  0.00000000E+00  0.00000000E+00
  0.00000000E+00  0.00000000E+00  0.00000000E+00
  0.00000000E+00  0.00000000E+00  0.00000000E+00
  0.00000000E+00  0.00000000E+00  0.00000000E+00
  0.00000000E+00  0.00000000E+00  0.00000000E+00
  0.00000000E+00  0.00000000E+00  0.00000000E+00
  0.00000000E+00  0.00000000E+00  0.00000000E+00
  0.00000000E+00  0.00000000E+00  0.00000000E+00
  0.00000000E+00  0.00000000E+00  0.00000000E+00
  0.00000000E+00  0.00000000E+00  0.00000000E+00
  0.00000000E+00  0.00000000E+00  0.00000000E+00
  0.00000000E+00  0.00000000E+00  0.00000000E+00
  0.00000000E+00  0.00000000E+00  0.00000000E+00
  0.00000000E+00  0.00000000E+00  0.00000000E+00
  0.00000000E+00  0.00000000E+00  0.00000000E+00
  0.00000000E+00  0.00000000E+00  0.00000000E+00
  0.00000000E+00  0.00000000E+00  0.00000000E+00
  0.00000000E+00  0.00000000E+00  0.00000000E+00
  0.00000000E+00  0.00000000E+00  0.00000000E+00
  0.00000000E+00  0.00000000E+00  0.00000000E+00
  0.00000000E+00  0.00000000E+00  0.00000000E+00
  0.00000000E+00  0.00000000E+00  0.00000000E+00
  0.00000000E+00  0.00000000E+00  0.00000000E+00
  0.00000000E+00  0.00000000E+00  0.00000000E+00
  0.00000000E+00  0.00000000E+00  0.00000000E+00
  0.00000000E+00  0.00000000E+00  0.00000000E+00
  0.00000000E+00  0.00000000E+00  0.00000000E+00
  0.00000000E+00  0.00000000E+00  0.00000000E+00
  0.00000000E+00  0.00000000E+00  0.00000000E+00
  0.00000000E+00  0.00000000E+00  0.00000000E+00
  0.00000000E+00  0.00000000E+00  0.00000000E+00
  0.00000000E+00  0.00000000E+00  0.00000000E+00
  0.00000000E+00  0.00000000E+00  0.00000000E+00
  0.00000000E+00  0.00000000E+00  0.00000000E+00
  0.00000000E+00  0.00000000E+00  0.00000000E+00
  0.00000000E+00  0.00000000E+00  0.00000000E+00
  0.00000000E+00  0.00000000E+00  0.00000000E+00
  0.00000000E+00  0.00000000E+00  0.00000000E+00
  0.00000000E+00  0.00000000E+00  0.00000000E+00
  0.00000000E+00  0.00000000E+00  0.00000000E+00
  0.00000000E+00  0.00000000E+00  0.00000000E+00
  0.00000000E+00  0.00000000E+00  0.00000000E+00
  0.00000000E+00  0.00000000E+00  0.00000000E+00
  0.00000000E+00  0.00000000E+00  0.00000000E+00
  0.00000000E+00  0.00000000E+00  0.00000000E+00
  0.00000000E+00  0.00000000E+00  0.00000000E+00
  0.00000000E+00  0.00000000E+00  0.00000000E+00
  0.00000000E+00  0.00000000E+00  0.00000000E+00
  0.00000000E+00  0.00000000E+00  0.00000000E+00
  0.00000000E+00  0.00000000E+00  0.00000000E+00
  0.00000000E+00  0.00000000E+00  0.00000000E+00
  0.00000000E+00  0.00000000E+00  0.00000000E+00
  0.00000000E+00  0.00000000E+00  0.00000000E+00
  0.00000000E+00  0.00000000E+00  0.00000000E+00
  0.00000000E+00  0.00000000E+00  0.00000000E+00
  0.00000000E+00  0.00000000E+00  0.00000000E+00
  0.00000000E+00  0.00000000E+00  0.00000000E+00
  0.00000000E+00  0.00000000E+00  0.00000000E+00
  0.00000000E+00  0.00000000E+00  0.00000000E+00
  0.00000000E+00  0.00000000E+00  0.00000000E+00
  0.00000000E+00  0.00000000E+00  0.00000000E+00
  0.00000000E+00  0.00000000E+00  0.00000000E+00
