generated by phonopy                    
   1.00000000000000     
    10.0351470768999995   -0.0000022330999784   -0.0000001056124209
    -5.0175765436399997    8.6906901959899994    0.0000001395531216
    -0.0000001735893656    0.0000001431815548   14.9533752540999991
   Pb   P    O 
    20    12    49
Direct
  0.9984385176738471  0.7713203746006343  0.1281272186996034
  0.9972388173770597  0.7715115890386528  0.6200875470945775
  0.0015835526370154  0.2658993151015991  0.3717045343342065
  0.0049009761748451  0.2630059820374626  0.8746140626720234
  0.2336661834318789  0.2283268049892797  0.1240360320885046
  0.2288329703802461  0.2260308652561918  0.6220238888742315
  0.7380660680023894  0.7415494730574252  0.3704162027973794
  0.7360171407295582  0.7403632255446340  0.8636372256500451
  0.7779301278296842  0.0047131645081464  0.1257782139118788
  0.7753226281330114  0.0035685628286686  0.6205996358080625
  0.2599132868151841  0.9984709049858438  0.3735116864428960
  0.2566246777059433  0.9923919801023473  0.8730749754505851
  0.6616528452646904  0.3199696867910404  0.0011401316273592
  0.6659905830541391  0.3319851574146284  0.5006608093654208
  0.3418727981069125  0.6687729889435232  0.0053773892144449
  0.3371705124486510  0.6703171042127920  0.5031961168374366
  0.3393485737055499  0.6629492460660558  0.2428750538258342
  0.3237106159844600  0.6615467759659026  0.7438994346672700
  0.6667099015758424  0.3480502123548135  0.2443326569447208
  0.6660848623208366  0.3299707152197016  0.7475274952663611
  0.6387940938666148  0.6082442406828150  0.1180828045081199
  0.6219280357533137  0.5947597919094747  0.6256007944527724
  0.3668839284136070  0.3958521870245235  0.3751966559689848
  0.3676079180045022  0.3936205686565941  0.8737305808236044
  0.4065792936179875  0.0287909136422329  0.1246760100394013
  0.4043158216705294  0.0278520087020269  0.6245594984755485
  0.6049474102782284  0.9743315039289087  0.3750948931069402
  0.6035734896232512  0.9686896361525683  0.8741021180168289
  0.9738266597420306  0.3761569871759249  0.1239739771785153
  0.9694750623865147  0.3765503163017385  0.6242328859276896
  0.0249908753217767  0.6348462212728307  0.3739995623308658
  0.0239063597244638  0.6315091779662367  0.8758904389860263
  0.5031223279574135  0.6494005114151946  0.1254883342061675
  0.4978757801461740  0.6449832373742623  0.6248448796077994
  0.4675941562201302  0.3183791776063174  0.3748417415864651
  0.4674008305075787  0.3153165976171763  0.8733601179708899
  0.3520534213832107  0.8535100899465604  0.1248007420097395
  0.3519401504274740  0.8527730479222697  0.6240698330074963
  0.6832341468275800  0.1524420601881289  0.3753033492197986
  0.6824231884591327  0.1468635931183258  0.8727055794716208
  0.1485843359387431  0.4991769593969408  0.1235035375658313
  0.1441880154867761  0.5000829709730681  0.6231215821882117
  0.8467682078200198  0.5319422434231313  0.3764472731059314
  0.8453716565290534  0.5315130812083879  0.8765544487105927
  0.7307239776941827  0.6583773607050247  0.5425022166893783
  0.2578853026810322  0.3492748159921391  0.4581911968220069
  0.2608082657363653  0.3506515082062123  0.9577813637535897
  0.3516169568009744  0.0762011204684967  0.0380778137105082
  0.3440969628846773  0.0734998724174503  0.5396660373731947
  0.6449910903118763  0.9094797904855199  0.4598478703989954
  0.6405530747605894  0.9053147941625852  0.9602841960639026
  0.9280623244542596  0.2686797159825858  0.0397088736596203
  0.9239803858925271  0.2699836016221866  0.5396286497955884
  0.0906314514232065  0.7409149882749233  0.4582947645991595
  0.0872437416192753  0.7404349697787325  0.9589323760653272
  0.2618854597848710  0.3539459584534015  0.2903113100361594
  0.2594391179922297  0.3502434872737368  0.7902125758717276
  0.7235887135165200  0.6455083446809553  0.2146041412916446
  0.7276533576200919  0.6588982341180127  0.7109867510898340
  0.6529330493991523  0.9119480996684075  0.2920902176561597
  0.6551306307039724  0.9066632439344673  0.7923116739660969
  0.3399906479427557  0.0731109133459640  0.2071938918949243
  0.3406919151660190  0.0710746509506919  0.7086934802452944
  0.0807255530680848  0.7451707777422811  0.2911759072130877
  0.0862404480346015  0.7376033126810455  0.7911478011648612
  0.9315793354624589  0.2693144623831145  0.2082026086338828
  0.9270422547557544  0.2707650631186667  0.7088148933700253
  0.5533470398295890  0.4223365892671467  0.1146980988169872
  0.5444101190312125  0.4148788177656471  0.6266299319885249
  0.4740860236025455  0.5775843102824467  0.3768254899130525
  0.4758161133010006  0.5753556266137636  0.8737425249947464
  0.5869497065270082  0.1284196567232243  0.1277509027164569
  0.5847186732081440  0.1278849502262318  0.6254362490644993
  0.4233416843671662  0.8993802841983296  0.3726392018322073
  0.4225955101860492  0.8953163939391047  0.8684317713889911
  0.8729667543005135  0.4554663359750961  0.1242556371747625
  0.8687063170240705  0.4561842807713674  0.6247705778677926
  0.1008658895967400  0.5294697437377351  0.3700617717833623
  0.0982236047779494  0.5242894286139546  0.8751406502830363
  0.0036938121707450  0.0003871546833309  0.1264105584830375
  0.0006085810349745  0.0003418858612037  0.6168087428289439
 
  0.00000000E+00  0.00000000E+00  0.00000000E+00
  0.00000000E+00  0.00000000E+00  0.00000000E+00
  0.00000000E+00  0.00000000E+00  0.00000000E+00
  0.00000000E+00  0.00000000E+00  0.00000000E+00
  0.00000000E+00  0.00000000E+00  0.00000000E+00
  0.00000000E+00  0.00000000E+00  0.00000000E+00
  0.00000000E+00  0.00000000E+00  0.00000000E+00
  0.00000000E+00  0.00000000E+00  0.00000000E+00
  0.00000000E+00  0.00000000E+00  0.00000000E+00
  0.00000000E+00  0.00000000E+00  0.00000000E+00
  0.00000000E+00  0.00000000E+00  0.00000000E+00
  0.00000000E+00  0.00000000E+00  0.00000000E+00
  0.00000000E+00  0.00000000E+00  0.00000000E+00
  0.00000000E+00  0.00000000E+00  0.00000000E+00
  0.00000000E+00  0.00000000E+00  0.00000000E+00
  0.00000000E+00  0.00000000E+00  0.00000000E+00
  0.00000000E+00  0.00000000E+00  0.00000000E+00
  0.00000000E+00  0.00000000E+00  0.00000000E+00
  0.00000000E+00  0.00000000E+00  0.00000000E+00
  0.00000000E+00  0.00000000E+00  0.00000000E+00
  0.00000000E+00  0.00000000E+00  0.00000000E+00
  0.00000000E+00  0.00000000E+00  0.00000000E+00
  0.00000000E+00  0.00000000E+00  0.00000000E+00
  0.00000000E+00  0.00000000E+00  0.00000000E+00
  0.00000000E+00  0.00000000E+00  0.00000000E+00
  0.00000000E+00  0.00000000E+00  0.00000000E+00
  0.00000000E+00  0.00000000E+00  0.00000000E+00
  0.00000000E+00  0.00000000E+00  0.00000000E+00
  0.00000000E+00  0.00000000E+00  0.00000000E+00
  0.00000000E+00  0.00000000E+00  0.00000000E+00
  0.00000000E+00  0.00000000E+00  0.00000000E+00
  0.00000000E+00  0.00000000E+00  0.00000000E+00
  0.00000000E+00  0.00000000E+00  0.00000000E+00
  0.00000000E+00  0.00000000E+00  0.00000000E+00
  0.00000000E+00  0.00000000E+00  0.00000000E+00
  0.00000000E+00  0.00000000E+00  0.00000000E+00
  0.00000000E+00  0.00000000E+00  0.00000000E+00
  0.00000000E+00  0.00000000E+00  0.00000000E+00
  0.00000000E+00  0.00000000E+00  0.00000000E+00
  0.00000000E+00  0.00000000E+00  0.00000000E+00
  0.00000000E+00  0.00000000E+00  0.00000000E+00
  0.00000000E+00  0.00000000E+00  0.00000000E+00
  0.00000000E+00  0.00000000E+00  0.00000000E+00
  0.00000000E+00  0.00000000E+00  0.00000000E+00
  0.00000000E+00  0.00000000E+00  0.00000000E+00
  0.00000000E+00  0.00000000E+00  0.00000000E+00
  0.00000000E+00  0.00000000E+00  0.00000000E+00
  0.00000000E+00  0.00000000E+00  0.00000000E+00
  0.00000000E+00  0.00000000E+00  0.00000000E+00
  0.00000000E+00  0.00000000E+00  0.00000000E+00
  0.00000000E+00  0.00000000E+00  0.00000000E+00
  0.00000000E+00  0.00000000E+00  0.00000000E+00
  0.00000000E+00  0.00000000E+00  0.00000000E+00
  0.00000000E+00  0.00000000E+00  0.00000000E+00
  0.00000000E+00  0.00000000E+00  0.00000000E+00
  0.00000000E+00  0.00000000E+00  0.00000000E+00
  0.00000000E+00  0.00000000E+00  0.00000000E+00
  0.00000000E+00  0.00000000E+00  0.00000000E+00
  0.00000000E+00  0.00000000E+00  0.00000000E+00
  0.00000000E+00  0.00000000E+00  0.00000000E+00
  0.00000000E+00  0.00000000E+00  0.00000000E+00
  0.00000000E+00  0.00000000E+00  0.00000000E+00
  0.00000000E+00  0.00000000E+00  0.00000000E+00
  0.00000000E+00  0.00000000E+00  0.00000000E+00
  0.00000000E+00  0.00000000E+00  0.00000000E+00
  0.00000000E+00  0.00000000E+00  0.00000000E+00
  0.00000000E+00  0.00000000E+00  0.00000000E+00
  0.00000000E+00  0.00000000E+00  0.00000000E+00
  0.00000000E+00  0.00000000E+00  0.00000000E+00
  0.00000000E+00  0.00000000E+00  0.00000000E+00
  0.00000000E+00  0.00000000E+00  0.00000000E+00
  0.00000000E+00  0.00000000E+00  0.00000000E+00
  0.00000000E+00  0.00000000E+00  0.00000000E+00
  0.00000000E+00  0.00000000E+00  0.00000000E+00
  0.00000000E+00  0.00000000E+00  0.00000000E+00
  0.00000000E+00  0.00000000E+00  0.00000000E+00
  0.00000000E+00  0.00000000E+00  0.00000000E+00
  0.00000000E+00  0.00000000E+00  0.00000000E+00
  0.00000000E+00  0.00000000E+00  0.00000000E+00
  0.00000000E+00  0.00000000E+00  0.00000000E+00
  0.00000000E+00  0.00000000E+00  0.00000000E+00
