supercell of icsd_181358.cif            
   1.00000000000000     
    10.2303557368613447   -0.0268842763562698   -0.0004608341710342
    -5.1384835063245244    8.8827428761777831   -0.0032567154626002
    -0.0002606904250410   -0.0043770153332818   10.4557215237953685
   N    Ga   Sc
    36    20    16
Direct
  0.2245813425586007  0.0904729140895952  0.4451575736975641
  0.1140919456203164  0.2221480674459073  0.2259987529646281
  0.8886635531612797  0.1018176195958773  0.9394427829810041
  0.7697560171941760  0.2283430517168625  0.6943453932661967
  0.5728748032992641  0.1184159035240810  0.4352476783514376
  0.4399047438151484  0.2040536078701720  0.1927886320049765
  0.2272329045885968  0.1090506197733063  0.9440002438651049
  0.1135338220934727  0.2177896890607016  0.6750813878637203
  0.8720074026829465  0.1025710092652119  0.4474169400756693
  0.7795082136429130  0.2216125317692885  0.1945183528638381
  0.5412238903328372  0.1038911491344052  0.9401678278063414
  0.4605692796078316  0.2344642240882777  0.6974289809816270
  0.2210778682341896  0.4604217146084153  0.4510411749797854
  0.1026585843127563  0.5362021571854640  0.1880717471611177
  0.8771670658771455  0.4473819649979447  0.9339742924923939
  0.7745076961984694  0.5566917669940352  0.6987536374799461
  0.5640903247108611  0.4469999461528076  0.4279366424426101
  0.4389217895264608  0.5665095166219345  0.2003567034236298
  0.2180707869245637  0.4357773433187901  0.9347277389132529
  0.1003382532676227  0.5623296654545271  0.6970649016400046
  0.8944594941225503  0.4331195318821059  0.4416402790971503
  0.7956821204482125  0.5511082748584073  0.1917492175422453
  0.5597863095378131  0.4363998042493762  0.9585533321964519
  0.4583630228739182  0.5527577223346753  0.7004316455302515
  0.1991583386352360  0.7651221509979180  0.4391868962369969
  0.1171788352166345  0.9032911780495141  0.1828189410364303
  0.8855617558178892  0.7780158640074362  0.9488533084997783
  0.7856425864818988  0.8786634433224307  0.6872615558572122
  0.5701839614366904  0.7901873253253271  0.4427424257435248
  0.4534959397100948  0.8961950209124012  0.1962682279013848
  0.2270702485301257  0.7906886986945807  0.9462769253923753
  0.0976965480973888  0.8711032262219973  0.6925905190833532
  0.8945967055442807  0.7918141155090908  0.4379428500412814
  0.7697301314833140  0.8998498756630795  0.1882490844001339
  0.5593591592264389  0.7954396863475353  0.9443830330878384
  0.4324265429958700  0.8980281799408161  0.6906028061893252
  0.2276483129466058  0.1032481907412901  0.2552607268237779
  0.7783013636653351  0.2222826561661648  0.5015813696792861
  0.5632995156526093  0.1118523458953007  0.2488064855463250
  0.4399019413645746  0.2105605184004276  0.0011650667457772
  0.8759091050879135  0.1083295540893872  0.2569826512937681
  0.5508314337812408  0.1141709616338247  0.7507422134331208
  0.2212687863612430  0.4520000805738817  0.2576430785204522
  0.8795534109157188  0.4478714325571360  0.7472489531893913
  0.1042009694641308  0.5568517715103027  0.5033512266644351
  0.8925881049488282  0.4347456959318450  0.2518599390445644
  0.7826774538831742  0.5553733663258100  0.0008519755913667
  0.5631852257907823  0.4437917481458200  0.7594159403917260
  0.1149508859249195  0.8960551976593152  0.9961039384179387
  0.8856700126917687  0.7709816099849149  0.7538789281148297
  0.7827559310860082  0.8888514837171968  0.4988086834702443
  0.5584243984727877  0.7873463484198169  0.2500864567628156
  0.4454327300042280  0.8958555131329788  0.0015943173650470
  0.2168770722943236  0.7810846871739585  0.7510286144204485
  0.1030094505783339  0.8789454176043989  0.5019445025582314
  0.7747860999192255  0.8935509306895781  0.9988306681061445
  0.1111245697036622  0.2170214285190468  0.0128202454006967
  0.8903631165993957  0.1090496371134151  0.7354833690466975
  0.2247063227017705  0.1069315214039221  0.7403654469077097
  0.1101583048958190  0.2179189127022525  0.4697012965007019
  0.7727585410115196  0.2186255033238496  0.9904889806391211
  0.4563201380523836  0.2258426411806767  0.4938069658495863
  0.1062686257598315  0.5531292060349955  0.9842143622022661
  0.7871887338619246  0.5600812774692443  0.4931312768182252
  0.5578704818552538  0.4411846620310911  0.2279208353610542
  0.4447676305231738  0.5615837440809486  0.9921653943066318
  0.2209375590471154  0.4419334657461462  0.7313980392312018
  0.4553237608622140  0.5604629166723711  0.4900456157749886
  0.2145665128235450  0.7718658100775357  0.2368575380051894
  0.8895058407145129  0.7855837541290285  0.2358688094408876
  0.5576659907034625  0.7854926210124873  0.7420466939352366
  0.4380296782429127  0.8908148271653076  0.4874269613495628
 
  0.00000000E+00  0.00000000E+00  0.00000000E+00
  0.00000000E+00  0.00000000E+00  0.00000000E+00
  0.00000000E+00  0.00000000E+00  0.00000000E+00
  0.00000000E+00  0.00000000E+00  0.00000000E+00
  0.00000000E+00  0.00000000E+00  0.00000000E+00
  0.00000000E+00  0.00000000E+00  0.00000000E+00
  0.00000000E+00  0.00000000E+00  0.00000000E+00
  0.00000000E+00  0.00000000E+00  0.00000000E+00
  0.00000000E+00  0.00000000E+00  0.00000000E+00
  0.00000000E+00  0.00000000E+00  0.00000000E+00
  0.00000000E+00  0.00000000E+00  0.00000000E+00
  0.00000000E+00  0.00000000E+00  0.00000000E+00
  0.00000000E+00  0.00000000E+00  0.00000000E+00
  0.00000000E+00  0.00000000E+00  0.00000000E+00
  0.00000000E+00  0.00000000E+00  0.00000000E+00
  0.00000000E+00  0.00000000E+00  0.00000000E+00
  0.00000000E+00  0.00000000E+00  0.00000000E+00
  0.00000000E+00  0.00000000E+00  0.00000000E+00
  0.00000000E+00  0.00000000E+00  0.00000000E+00
  0.00000000E+00  0.00000000E+00  0.00000000E+00
  0.00000000E+00  0.00000000E+00  0.00000000E+00
  0.00000000E+00  0.00000000E+00  0.00000000E+00
  0.00000000E+00  0.00000000E+00  0.00000000E+00
  0.00000000E+00  0.00000000E+00  0.00000000E+00
  0.00000000E+00  0.00000000E+00  0.00000000E+00
  0.00000000E+00  0.00000000E+00  0.00000000E+00
  0.00000000E+00  0.00000000E+00  0.00000000E+00
  0.00000000E+00  0.00000000E+00  0.00000000E+00
  0.00000000E+00  0.00000000E+00  0.00000000E+00
  0.00000000E+00  0.00000000E+00  0.00000000E+00
  0.00000000E+00  0.00000000E+00  0.00000000E+00
  0.00000000E+00  0.00000000E+00  0.00000000E+00
  0.00000000E+00  0.00000000E+00  0.00000000E+00
  0.00000000E+00  0.00000000E+00  0.00000000E+00
  0.00000000E+00  0.00000000E+00  0.00000000E+00
  0.00000000E+00  0.00000000E+00  0.00000000E+00
  0.00000000E+00  0.00000000E+00  0.00000000E+00
  0.00000000E+00  0.00000000E+00  0.00000000E+00
  0.00000000E+00  0.00000000E+00  0.00000000E+00
  0.00000000E+00  0.00000000E+00  0.00000000E+00
  0.00000000E+00  0.00000000E+00  0.00000000E+00
  0.00000000E+00  0.00000000E+00  0.00000000E+00
  0.00000000E+00  0.00000000E+00  0.00000000E+00
  0.00000000E+00  0.00000000E+00  0.00000000E+00
  0.00000000E+00  0.00000000E+00  0.00000000E+00
  0.00000000E+00  0.00000000E+00  0.00000000E+00
  0.00000000E+00  0.00000000E+00  0.00000000E+00
  0.00000000E+00  0.00000000E+00  0.00000000E+00
  0.00000000E+00  0.00000000E+00  0.00000000E+00
  0.00000000E+00  0.00000000E+00  0.00000000E+00
  0.00000000E+00  0.00000000E+00  0.00000000E+00
  0.00000000E+00  0.00000000E+00  0.00000000E+00
  0.00000000E+00  0.00000000E+00  0.00000000E+00
  0.00000000E+00  0.00000000E+00  0.00000000E+00
  0.00000000E+00  0.00000000E+00  0.00000000E+00
  0.00000000E+00  0.00000000E+00  0.00000000E+00
  0.00000000E+00  0.00000000E+00  0.00000000E+00
  0.00000000E+00  0.00000000E+00  0.00000000E+00
  0.00000000E+00  0.00000000E+00  0.00000000E+00
  0.00000000E+00  0.00000000E+00  0.00000000E+00
  0.00000000E+00  0.00000000E+00  0.00000000E+00
  0.00000000E+00  0.00000000E+00  0.00000000E+00
  0.00000000E+00  0.00000000E+00  0.00000000E+00
  0.00000000E+00  0.00000000E+00  0.00000000E+00
  0.00000000E+00  0.00000000E+00  0.00000000E+00
  0.00000000E+00  0.00000000E+00  0.00000000E+00
  0.00000000E+00  0.00000000E+00  0.00000000E+00
  0.00000000E+00  0.00000000E+00  0.00000000E+00
  0.00000000E+00  0.00000000E+00  0.00000000E+00
  0.00000000E+00  0.00000000E+00  0.00000000E+00
  0.00000000E+00  0.00000000E+00  0.00000000E+00
  0.00000000E+00  0.00000000E+00  0.00000000E+00
