POSCAR                                  
  0.988000000000000     
     2.5045501315399998   -5.0140238287200001    7.5492274250599998
     2.5008160182800001   -9.9739586066499992   -7.5122565689399998
     9.9682750155599997    9.9775390497899998   -0.0166852215092000
   Gd   Al   N 
    42     6    48
Direct
  0.6663799602828036  0.0027122544280118  0.0890515264871041
  0.7577859754864136  0.7457180273305326  0.1230362646506578
  0.9082381838936229  0.2575447649893547  0.2136085009970614
  0.0073447803439564  0.0001489508810124  0.2498847150766892
  0.0789728652985744  0.7433411080193508  0.2892918560935271
  0.1640635256087108  0.5065405938056742  0.0872657323840329
  0.2505720558468241  0.2522766735113251  0.1291253575029572
  0.4891640271401982  0.5052028735294627  0.2474259162974377
  0.6728839642321915  0.0078286504421712  0.3314589590885006
  0.7449643020821242  0.7483782040712583  0.3697446824590216
  0.9071386636325656  0.2546703701508690  0.4534631121164452
  0.9987181829794949  0.0004531649871495  0.4992088245761082
  0.0745610077100309  0.7453654376605670  0.5404291013119860
  0.1480471696750172  0.4986443945385375  0.3314086333293815
  0.2426830194800971  0.2521946283425081  0.3782657993646268
  0.3330283720710838  0.0029771763722550  0.4177608903848764
  0.4060533604723062  0.7482861272262085  0.4523207483142500
  0.4878419028795236  0.4978123002221935  0.4970071414019799
  0.5796413558188789  0.2517535386208394  0.5410784569671421
  0.6678563145046184  0.0008402953395077  0.5865827622795621
  0.7488956242439500  0.7421229988660230  0.6228948600243314
  0.8330964761939086  0.5119966263059723  0.6764389886709097
  0.9143106042033509  0.2537920441042374  0.7096625067071045
  0.0007089811350838  0.0020745122824124  0.7522605924377217
  0.0911601334776435  0.7525867950166116  0.7927215081019270
  0.1555284667713792  0.5018277209937949  0.5822472787618977
  0.2477917864500085  0.2526812895363122  0.6265732080355448
  0.3325967676871073  0.9988157264426860  0.6689942279229584
  0.4235343638910862  0.7501948851603331  0.7114609438060242
  0.5043589082230753  0.5056904041370558  0.7535232949978123
  0.5818708429157056  0.2510888231022648  0.7939181283561041
  0.6680083148331235  0.9969022971277965  0.8393806707522415
  0.8340266748556004  0.5062927706089724  0.9253066273677319
  0.9148674954434384  0.2569429970177097  0.9648075438095205
  0.0098844576077539  0.0027807689189956  0.0048088579868519
  0.1075049935256445  0.7573280901588504  0.0473472538766373
  0.1727222675566722  0.5019544406052816  0.8364569273790750
  0.2510485277677930  0.2515758098602916  0.8780136733986694
  0.3358744490899639  0.0018976592403916  0.9250507426261549
  0.4266990394754302  0.7541184575894704  0.9633332715568486
  0.5060684944887086  0.5062836400265738  0.0079766412452571
  0.5889689934664872  0.2592948979244341  0.0476060094180042
  0.8162440186579545  0.5167800334592414  0.2100031078112963
  0.3302466922112899  0.0361223619713655  0.1926519368979882
  0.4286863855991285  0.8188130655052888  0.2213535997315859
  0.5281664119166294  0.2459244380840602  0.2982852463853121
  0.7518032929854357  0.4684308146033160  0.3905157730131492
  0.8200730821386060  0.7682637223759343  0.8937183881283062
  0.7288533996145716  0.3957294782164738  0.2369699521993809
  0.8125485520726343  0.1105680377196308  0.2651208442592079
  0.8808794571052871  0.8705058939601571  0.3104399174531736
  0.9538504693711474  0.6221604883930496  0.3387458006335748
  0.0453111415793188  0.3642202665306442  0.3937776614207209
  0.1261757969456951  0.1180598912600530  0.4338357074559767
  0.2516710560464048  0.8947427143438063  0.2196266526384321
  0.2817883122758076  0.6127121126360393  0.2742119481294552
  0.3819679455478351  0.3618888238813156  0.3082636203076632
  0.4568977956163991  0.1286601453250995  0.3428225293365088
  0.5293541551323386  0.8635235997511543  0.3702599447446033
  0.6356906629662689  0.6040173489939420  0.4293518849826512
  0.6843105298334322  0.3552497583519525  0.4359515330341139
  0.7897271389207461  0.1222474928830053  0.5167365369491748
  0.8696435230308168  0.8678921578691146  0.5572241746282671
  0.9627865827757773  0.6282764143253274  0.6118391159270331
  0.0345040927226137  0.3736321648429382  0.6419140760237809
  0.1238537391961856  0.1204241653167060  0.6868697882320305
  0.2135462331713995  0.8718834738297900  0.4738491422312663
  0.2853189275965491  0.6213313684064019  0.5162617125795350
  0.3754421656331459  0.3697310716943534  0.5608182370226942
  0.4601903459820562  0.1229443768747203  0.5976002713063338
  0.5420117851022539  0.8696150977093211  0.6416558207055871
  0.6166615124141543  0.6134499308060199  0.6726422205802294
  0.7095586552282853  0.3747309486394457  0.7247632791713770
  0.7890575481252213  0.1178274136059443  0.7653789084142417
  0.8688996057447298  0.8644289274143730  0.8208618819403526
  0.9450472591841574  0.6364465999584041  0.8552847546195110
  0.0392617465198981  0.3754109332164006  0.8967865176385388
  0.1224980363545924  0.1222925302668898  0.9362200747277498
  0.2057902725893399  0.8734428956229152  0.7245294757651308
  0.2951341905896427  0.6228823829538044  0.7700121775744080
  0.3691489730512743  0.3726903377550954  0.8097349637998690
  0.4587471710520958  0.1262314151450070  0.8566823850009087
  0.5302701136607340  0.8828458319636994  0.8992182115000205
  0.6240581249164876  0.6177208971763974  0.9423884992702298
  0.7018081124719515  0.3639764455423773  0.9700420021852452
  0.7879366337401308  0.1255520586429029  0.0252649860935605
  0.8757539757791193  0.8651270334516639  0.0485392187225884
  0.9784012166777600  0.6363174406725420  0.1007613716126841
  0.0465668155344332  0.3653981360645346  0.1460357940282435
  0.1458429051812118  0.1143945708551257  0.1880102497990137
  0.2086430955224046  0.8730526157558458  0.9702825639674657
  0.2914147115632204  0.6212304913421534  0.0139212010689889
  0.3792334390158274  0.3722038290825864  0.0643869777870876
  0.4611543500748567  0.1274281714139534  0.1339287040434982
  0.5533201512569903  0.8656032976393249  0.1496936646012088
  0.6587820392618013  0.6040308964031667  0.1857522535963909
 
  0.00000000E+00  0.00000000E+00  0.00000000E+00
  0.00000000E+00  0.00000000E+00  0.00000000E+00
  0.00000000E+00  0.00000000E+00  0.00000000E+00
  0.00000000E+00  0.00000000E+00  0.00000000E+00
  0.00000000E+00  0.00000000E+00  0.00000000E+00
  0.00000000E+00  0.00000000E+00  0.00000000E+00
  0.00000000E+00  0.00000000E+00  0.00000000E+00
  0.00000000E+00  0.00000000E+00  0.00000000E+00
  0.00000000E+00  0.00000000E+00  0.00000000E+00
  0.00000000E+00  0.00000000E+00  0.00000000E+00
  0.00000000E+00  0.00000000E+00  0.00000000E+00
  0.00000000E+00  0.00000000E+00  0.00000000E+00
  0.00000000E+00  0.00000000E+00  0.00000000E+00
  0.00000000E+00  0.00000000E+00  0.00000000E+00
  0.00000000E+00  0.00000000E+00  0.00000000E+00
  0.00000000E+00  0.00000000E+00  0.00000000E+00
  0.00000000E+00  0.00000000E+00  0.00000000E+00
  0.00000000E+00  0.00000000E+00  0.00000000E+00
  0.00000000E+00  0.00000000E+00  0.00000000E+00
  0.00000000E+00  0.00000000E+00  0.00000000E+00
  0.00000000E+00  0.00000000E+00  0.00000000E+00
  0.00000000E+00  0.00000000E+00  0.00000000E+00
  0.00000000E+00  0.00000000E+00  0.00000000E+00
  0.00000000E+00  0.00000000E+00  0.00000000E+00
  0.00000000E+00  0.00000000E+00  0.00000000E+00
  0.00000000E+00  0.00000000E+00  0.00000000E+00
  0.00000000E+00  0.00000000E+00  0.00000000E+00
  0.00000000E+00  0.00000000E+00  0.00000000E+00
  0.00000000E+00  0.00000000E+00  0.00000000E+00
  0.00000000E+00  0.00000000E+00  0.00000000E+00
  0.00000000E+00  0.00000000E+00  0.00000000E+00
  0.00000000E+00  0.00000000E+00  0.00000000E+00
  0.00000000E+00  0.00000000E+00  0.00000000E+00
  0.00000000E+00  0.00000000E+00  0.00000000E+00
  0.00000000E+00  0.00000000E+00  0.00000000E+00
  0.00000000E+00  0.00000000E+00  0.00000000E+00
  0.00000000E+00  0.00000000E+00  0.00000000E+00
  0.00000000E+00  0.00000000E+00  0.00000000E+00
  0.00000000E+00  0.00000000E+00  0.00000000E+00
  0.00000000E+00  0.00000000E+00  0.00000000E+00
  0.00000000E+00  0.00000000E+00  0.00000000E+00
  0.00000000E+00  0.00000000E+00  0.00000000E+00
  0.00000000E+00  0.00000000E+00  0.00000000E+00
  0.00000000E+00  0.00000000E+00  0.00000000E+00
  0.00000000E+00  0.00000000E+00  0.00000000E+00
  0.00000000E+00  0.00000000E+00  0.00000000E+00
  0.00000000E+00  0.00000000E+00  0.00000000E+00
  0.00000000E+00  0.00000000E+00  0.00000000E+00
  0.00000000E+00  0.00000000E+00  0.00000000E+00
  0.00000000E+00  0.00000000E+00  0.00000000E+00
  0.00000000E+00  0.00000000E+00  0.00000000E+00
  0.00000000E+00  0.00000000E+00  0.00000000E+00
  0.00000000E+00  0.00000000E+00  0.00000000E+00
  0.00000000E+00  0.00000000E+00  0.00000000E+00
  0.00000000E+00  0.00000000E+00  0.00000000E+00
  0.00000000E+00  0.00000000E+00  0.00000000E+00
  0.00000000E+00  0.00000000E+00  0.00000000E+00
  0.00000000E+00  0.00000000E+00  0.00000000E+00
  0.00000000E+00  0.00000000E+00  0.00000000E+00
  0.00000000E+00  0.00000000E+00  0.00000000E+00
  0.00000000E+00  0.00000000E+00  0.00000000E+00
  0.00000000E+00  0.00000000E+00  0.00000000E+00
  0.00000000E+00  0.00000000E+00  0.00000000E+00
  0.00000000E+00  0.00000000E+00  0.00000000E+00
  0.00000000E+00  0.00000000E+00  0.00000000E+00
  0.00000000E+00  0.00000000E+00  0.00000000E+00
  0.00000000E+00  0.00000000E+00  0.00000000E+00
  0.00000000E+00  0.00000000E+00  0.00000000E+00
  0.00000000E+00  0.00000000E+00  0.00000000E+00
  0.00000000E+00  0.00000000E+00  0.00000000E+00
  0.00000000E+00  0.00000000E+00  0.00000000E+00
  0.00000000E+00  0.00000000E+00  0.00000000E+00
  0.00000000E+00  0.00000000E+00  0.00000000E+00
  0.00000000E+00  0.00000000E+00  0.00000000E+00
  0.00000000E+00  0.00000000E+00  0.00000000E+00
  0.00000000E+00  0.00000000E+00  0.00000000E+00
  0.00000000E+00  0.00000000E+00  0.00000000E+00
  0.00000000E+00  0.00000000E+00  0.00000000E+00
  0.00000000E+00  0.00000000E+00  0.00000000E+00
  0.00000000E+00  0.00000000E+00  0.00000000E+00
  0.00000000E+00  0.00000000E+00  0.00000000E+00
  0.00000000E+00  0.00000000E+00  0.00000000E+00
  0.00000000E+00  0.00000000E+00  0.00000000E+00
  0.00000000E+00  0.00000000E+00  0.00000000E+00
  0.00000000E+00  0.00000000E+00  0.00000000E+00
  0.00000000E+00  0.00000000E+00  0.00000000E+00
  0.00000000E+00  0.00000000E+00  0.00000000E+00
  0.00000000E+00  0.00000000E+00  0.00000000E+00
  0.00000000E+00  0.00000000E+00  0.00000000E+00
  0.00000000E+00  0.00000000E+00  0.00000000E+00
  0.00000000E+00  0.00000000E+00  0.00000000E+00
  0.00000000E+00  0.00000000E+00  0.00000000E+00
  0.00000000E+00  0.00000000E+00  0.00000000E+00
  0.00000000E+00  0.00000000E+00  0.00000000E+00
  0.00000000E+00  0.00000000E+00  0.00000000E+00
  0.00000000E+00  0.00000000E+00  0.00000000E+00
