generated by phonopy                    
   1.00000000000000     
    11.7777700938999992   -0.0000006592896312    0.0000118211769744
    -0.0000006477562692   11.7777479613999994   -0.0000130806483528
     0.0000177256125076   -0.0000204342245446   17.8544012557999991
   Mg   Bi   Cu   Se   O 
     1    35    36    36    36
Direct
  0.0000668847848146  0.1666864982630543  0.4599730040051497
  0.3286141291415561  0.1666659112717852  0.4284362078356594
  0.6715193470173659  0.1666769219122131  0.4284353043361193
  0.0000631893338365  0.4952138837219948  0.4284454030307003
  0.3328349378750559  0.4994420296737161  0.4276545746995097
  0.6672923524131704  0.4994523619194382  0.4276535353197133
  0.0000709150242457  0.8381282359655131  0.4284291629698629
  0.3328393828924163  0.8338945335055783  0.4276502071465842
  0.6672954660632158  0.8339050279315785  0.4276481886399637
  0.0000240958958813  0.1666437833540755  0.9290447771184347
  0.3334714588266010  0.1666422388792128  0.9291198371483560
  0.6665749355571293  0.1666475660440696  0.9291201524255541
  0.0000217978873565  0.5000912964131032  0.9291182686656398
  0.3334010259345064  0.5000200708685014  0.9291017681685716
  0.6666425386017423  0.5000257797053109  0.9291026866723087
  0.0000235352555578  0.8331957743855511  0.9291244630052446
  0.3334017274267893  0.8332604817983906  0.9291074335009100
  0.6666436847444004  0.8332647061418470  0.9291079061249405
  0.1667092188676236  0.9999568816553364  0.0712985855862840
  0.5000248527345548  0.9999435957643357  0.0714477246122343
  0.8333423164561609  0.9999669295654314  0.0712983048288223
  0.1667036596337397  0.3333195012693793  0.0712942974011881
  0.5000191786773556  0.3333477953749480  0.0714450146546284
  0.8333390001900298  0.3333292924482478  0.0712935190553949
  0.1667255044645657  0.6666334348347505  0.0714483313226211
  0.5000215962627124  0.6666419588117449  0.0713717813022470
  0.8333208375241767  0.6666457604031137  0.0714484982717138
  0.1658131278955537  0.0009263773352828  0.5694336784146117
  0.5000666557867675  0.0011888348122540  0.5692299066376094
  0.8343222684475435  0.0009290976822385  0.5694316665839594
  0.1658186514920956  0.3324218159239720  0.5694466371303051
  0.5000659479706329  0.3321591001043558  0.5692316330339438
  0.8343113101928452  0.3324266515155969  0.5694457962398189
  0.1655459628218097  0.6666782053316140  0.5692327831780375
  0.5000658746638607  0.6666769098370651  0.5692856228626013
  0.8345826646129524  0.6666829547459017  0.5692309367189736
  0.0000700440370522  0.0020218266581082  0.2504565002426560
  0.3302625673956143  0.9991098656326400  0.2514806776831193
  0.6698771395099072  0.9991523772972286  0.2514899169261540
  0.0000433418177153  0.3312329121434203  0.2504575416087178
  0.3302109333030216  0.3341206244124706  0.2515050397421419
  0.6698532234878414  0.3341547355418726  0.2514958092133526
  0.0000607010926501  0.6666228161768757  0.2502857724933136
  0.3324795405645418  0.6666131353371867  0.2498743286851663
  0.6676316034620768  0.6666484210915300  0.2498752346883677
  0.0000282869569972  0.9991318990859668  0.7497326428691267
  0.3338625820134737  0.9993951720257073  0.7494017604654815
  0.6662054493122298  0.9994032656267322  0.7494005271605388
  0.0000294632522326  0.3342262375788678  0.7497285760746877
  0.3338624605694065  0.3339462545017682  0.7493989362505289
  0.6662068068707896  0.3339514960549224  0.7493968125497616
  0.0000291475468330  0.6666857371093968  0.7501303287964163
  0.3336575973943781  0.6666759406665363  0.7493683519675827
  0.6664049342684990  0.6666843151533683  0.7493656930633392
  0.1646420691032375  0.1666295344854234  0.2504576963763583
  0.5000353110561306  0.1666599143675498  0.2502826898683779
  0.8354275025302940  0.1666588994564151  0.2504583110294547
  0.1675269604853540  0.4967954883424639  0.2515029040494881
  0.5000325558424379  0.4990685034234303  0.2498769068814966
  0.8325222207802057  0.4968484462922547  0.2514915299889111
  0.1675528764053524  0.8364261895168781  0.2514847809606806
  0.5000399429964801  0.8342284356880612  0.2498771294139033
  0.8325357166690139  0.8364696617058627  0.2514901458900312
  0.1676005132199592  0.1666531921931167  0.7497311932870119
  0.5000564896702500  0.1666564703808859  0.7501272632845968
  0.8325078296810773  0.1666612451768117  0.7497314198528713
  0.1673248762051216  0.5004937389939457  0.7494009694803125
  0.5000536439406815  0.5002919027186792  0.7493696240208649
  0.8327718846249752  0.5004990167913093  0.7494019854578653
  0.1673271822595481  0.8328334241906532  0.7493958627412383
  0.5000554097648333  0.8330364735786802  0.7493670525917793
  0.8327726721460920  0.8328409710142068  0.7493983168556611
  0.1644213008968691  0.3310146094348809  0.3384869376591197
  0.5000425299747491  0.3334298092958221  0.3364907279158160
  0.8356524005569952  0.3310581751448964  0.3384721030877103
  0.1668291004561411  0.6666343295776400  0.3364873924310459
  0.5000539593262801  0.6666547018111828  0.3363178441127914
  0.8332836485137491  0.6666606727808215  0.3364858880422545
  0.1644707848325169  0.0022348715299501  0.3384613903075007
  0.5000616359501251  0.9998851606018562  0.3364853511575632
  0.8356690544958099  0.0022688189233548  0.3384693955576097
  0.1668529969573243  0.3334785555211326  0.8370006566944284
  0.5000342637246860  0.3337017656598107  0.8374865306009767
  0.8332089700647103  0.3334815488126495  0.8370017978436906
  0.1670780947323678  0.6666608745684499  0.8374885275300628
  0.5000318007473084  0.6666598476271091  0.8375772877853862
  0.8329828203705887  0.6666634513571097  0.8374890841869842
  0.1668544756134906  0.9998293960847917  0.8370038685686580
  0.5000336480499357  0.9996071659910584  0.8374904492028890
  0.8332094343878111  0.9998355923654003  0.8370058818517805
  0.3327817477003663  0.1666372909408693  0.1634512022671260
  0.6672879424334326  0.1666536831073060  0.1634495800696953
  0.0000327524940147  0.1666358798949119  0.1614674671563421
  0.3332928160751010  0.4998865262239960  0.1622441528876948
  0.6667643579503135  0.4999113565779965  0.1622401220576535
  0.0000312077611824  0.4993781012056928  0.1634512529574437
  0.3333075606966673  0.8333569795130487  0.1622345715065308
  0.6667681400149092  0.8333846561564826  0.1622406146692299
  0.0000361816083512  0.8338889126104121  0.1634507327476200
  0.3340846054898634  0.1666648956271501  0.6630008015033795
  0.6660269994082810  0.1666705762087020  0.6629978917786659
  0.0000543951187240  0.1666712945529412  0.6632109451744199
  0.3336873192178729  0.5003034355472451  0.6624173579976471
  0.6664186936931742  0.5003093474502691  0.6624158656050270
  0.0000501766059955  0.5007077955714365  0.6630022231547841
  0.3336875592591753  0.8330384697017621  0.6624141872059326
  0.6664207328321012  0.8330452309746335  0.6624130945948394
  0.0000511328584878  0.8326482702506581  0.6629971231522447
  0.1645796994797308  0.1666718096608903  0.4994658161717496
  0.5000621933999270  0.1666686990314545  0.4988914452891109
  0.8355488070193005  0.1666782154006370  0.4994628902167619
  0.1666885162795069  0.4994968628572707  0.4992362326549582
  0.5000600336842069  0.4996915945184739  0.4987137070758934
  0.8334311819406963  0.4995033828692286  0.4992360907614568
  0.1666871096245188  0.8338415806065598  0.4992267901551699
  0.5000639710694443  0.8336530885743301  0.4987116553557911
  0.8334396984927963  0.8338437385953839  0.4992244747110917
  0.1667109091465235  0.1666412911128035  0.9999182834175500
  0.5000254374283415  0.1666453176480118  0.0001720536309691
  0.8333443341588520  0.1666463828113152  0.9999177795743606
  0.1666006583455015  0.5000104018208731  0.0001151477430241
  0.5000248567614918  0.4998940934382645  0.0001839067069298
  0.8334511109127476  0.5000156204041986  0.0001156591614730
  0.1666020675993423  0.8332722687672600  0.0001213675639846
  0.5000267539063259  0.8333922449126447  0.0001896968829769
  0.8334521824786165  0.8332763338694420  0.0001214512327365
  0.0000282812147105  0.9999635753313711  0.9999211630495708
  0.3333966531418753  0.0000708600081438  0.0001188249893076
  0.6666583444410392  0.0000747657855698  0.0001196324404944
  0.0000271465285806  0.3333299467460691  0.9999161931505256
  0.3333937032829510  0.3332197126540990  0.0001151806026343
  0.6666579047118049  0.3332234799981038  0.0001157855488003
  0.0000268532354255  0.6666436722261224  0.0001744122295477
  0.3332772573570111  0.6666404219128808  0.0001875005268417
  0.6667749915354690  0.6666455961633417  0.0001885281951246
  0.0000664940573500  0.0021663814666724  0.4994497792951620
  0.3328912705768374  0.0000367701605271  0.4992305108581760
  0.6672361641632918  0.0000416432682613  0.4992292414813519
  0.0000603918831530  0.3311908179741536  0.4994743638228698
  0.3328945652865869  0.3332927660857692  0.4992336740132401
  0.6672282897409900  0.3332975925157911  0.4992332652097886
  0.0000608040679779  0.6666687204652320  0.4988968341544151
  0.3330738066568486  0.6666709168008325  0.4987127064960504
  0.6670471458291161  0.6666778988626163  0.4987087694998067
 
  0.00000000E+00  0.00000000E+00  0.00000000E+00
  0.00000000E+00  0.00000000E+00  0.00000000E+00
  0.00000000E+00  0.00000000E+00  0.00000000E+00
  0.00000000E+00  0.00000000E+00  0.00000000E+00
  0.00000000E+00  0.00000000E+00  0.00000000E+00
  0.00000000E+00  0.00000000E+00  0.00000000E+00
  0.00000000E+00  0.00000000E+00  0.00000000E+00
  0.00000000E+00  0.00000000E+00  0.00000000E+00
  0.00000000E+00  0.00000000E+00  0.00000000E+00
  0.00000000E+00  0.00000000E+00  0.00000000E+00
  0.00000000E+00  0.00000000E+00  0.00000000E+00
  0.00000000E+00  0.00000000E+00  0.00000000E+00
  0.00000000E+00  0.00000000E+00  0.00000000E+00
  0.00000000E+00  0.00000000E+00  0.00000000E+00
  0.00000000E+00  0.00000000E+00  0.00000000E+00
  0.00000000E+00  0.00000000E+00  0.00000000E+00
  0.00000000E+00  0.00000000E+00  0.00000000E+00
  0.00000000E+00  0.00000000E+00  0.00000000E+00
  0.00000000E+00  0.00000000E+00  0.00000000E+00
  0.00000000E+00  0.00000000E+00  0.00000000E+00
  0.00000000E+00  0.00000000E+00  0.00000000E+00
  0.00000000E+00  0.00000000E+00  0.00000000E+00
  0.00000000E+00  0.00000000E+00  0.00000000E+00
  0.00000000E+00  0.00000000E+00  0.00000000E+00
  0.00000000E+00  0.00000000E+00  0.00000000E+00
  0.00000000E+00  0.00000000E+00  0.00000000E+00
  0.00000000E+00  0.00000000E+00  0.00000000E+00
  0.00000000E+00  0.00000000E+00  0.00000000E+00
  0.00000000E+00  0.00000000E+00  0.00000000E+00
  0.00000000E+00  0.00000000E+00  0.00000000E+00
  0.00000000E+00  0.00000000E+00  0.00000000E+00
  0.00000000E+00  0.00000000E+00  0.00000000E+00
  0.00000000E+00  0.00000000E+00  0.00000000E+00
  0.00000000E+00  0.00000000E+00  0.00000000E+00
  0.00000000E+00  0.00000000E+00  0.00000000E+00
  0.00000000E+00  0.00000000E+00  0.00000000E+00
  0.00000000E+00  0.00000000E+00  0.00000000E+00
  0.00000000E+00  0.00000000E+00  0.00000000E+00
  0.00000000E+00  0.00000000E+00  0.00000000E+00
  0.00000000E+00  0.00000000E+00  0.00000000E+00
  0.00000000E+00  0.00000000E+00  0.00000000E+00
  0.00000000E+00  0.00000000E+00  0.00000000E+00
  0.00000000E+00  0.00000000E+00  0.00000000E+00
  0.00000000E+00  0.00000000E+00  0.00000000E+00
  0.00000000E+00  0.00000000E+00  0.00000000E+00
  0.00000000E+00  0.00000000E+00  0.00000000E+00
  0.00000000E+00  0.00000000E+00  0.00000000E+00
  0.00000000E+00  0.00000000E+00  0.00000000E+00
  0.00000000E+00  0.00000000E+00  0.00000000E+00
  0.00000000E+00  0.00000000E+00  0.00000000E+00
  0.00000000E+00  0.00000000E+00  0.00000000E+00
  0.00000000E+00  0.00000000E+00  0.00000000E+00
  0.00000000E+00  0.00000000E+00  0.00000000E+00
  0.00000000E+00  0.00000000E+00  0.00000000E+00
  0.00000000E+00  0.00000000E+00  0.00000000E+00
  0.00000000E+00  0.00000000E+00  0.00000000E+00
  0.00000000E+00  0.00000000E+00  0.00000000E+00
  0.00000000E+00  0.00000000E+00  0.00000000E+00
  0.00000000E+00  0.00000000E+00  0.00000000E+00
  0.00000000E+00  0.00000000E+00  0.00000000E+00
  0.00000000E+00  0.00000000E+00  0.00000000E+00
  0.00000000E+00  0.00000000E+00  0.00000000E+00
  0.00000000E+00  0.00000000E+00  0.00000000E+00
  0.00000000E+00  0.00000000E+00  0.00000000E+00
  0.00000000E+00  0.00000000E+00  0.00000000E+00
  0.00000000E+00  0.00000000E+00  0.00000000E+00
  0.00000000E+00  0.00000000E+00  0.00000000E+00
  0.00000000E+00  0.00000000E+00  0.00000000E+00
  0.00000000E+00  0.00000000E+00  0.00000000E+00
  0.00000000E+00  0.00000000E+00  0.00000000E+00
  0.00000000E+00  0.00000000E+00  0.00000000E+00
  0.00000000E+00  0.00000000E+00  0.00000000E+00
  0.00000000E+00  0.00000000E+00  0.00000000E+00
  0.00000000E+00  0.00000000E+00  0.00000000E+00
  0.00000000E+00  0.00000000E+00  0.00000000E+00
  0.00000000E+00  0.00000000E+00  0.00000000E+00
  0.00000000E+00  0.00000000E+00  0.00000000E+00
  0.00000000E+00  0.00000000E+00  0.00000000E+00
  0.00000000E+00  0.00000000E+00  0.00000000E+00
  0.00000000E+00  0.00000000E+00  0.00000000E+00
  0.00000000E+00  0.00000000E+00  0.00000000E+00
  0.00000000E+00  0.00000000E+00  0.00000000E+00
  0.00000000E+00  0.00000000E+00  0.00000000E+00
  0.00000000E+00  0.00000000E+00  0.00000000E+00
  0.00000000E+00  0.00000000E+00  0.00000000E+00
  0.00000000E+00  0.00000000E+00  0.00000000E+00
  0.00000000E+00  0.00000000E+00  0.00000000E+00
  0.00000000E+00  0.00000000E+00  0.00000000E+00
  0.00000000E+00  0.00000000E+00  0.00000000E+00
  0.00000000E+00  0.00000000E+00  0.00000000E+00
  0.00000000E+00  0.00000000E+00  0.00000000E+00
  0.00000000E+00  0.00000000E+00  0.00000000E+00
  0.00000000E+00  0.00000000E+00  0.00000000E+00
  0.00000000E+00  0.00000000E+00  0.00000000E+00
  0.00000000E+00  0.00000000E+00  0.00000000E+00
  0.00000000E+00  0.00000000E+00  0.00000000E+00
  0.00000000E+00  0.00000000E+00  0.00000000E+00
  0.00000000E+00  0.00000000E+00  0.00000000E+00
  0.00000000E+00  0.00000000E+00  0.00000000E+00
  0.00000000E+00  0.00000000E+00  0.00000000E+00
  0.00000000E+00  0.00000000E+00  0.00000000E+00
  0.00000000E+00  0.00000000E+00  0.00000000E+00
  0.00000000E+00  0.00000000E+00  0.00000000E+00
  0.00000000E+00  0.00000000E+00  0.00000000E+00
  0.00000000E+00  0.00000000E+00  0.00000000E+00
  0.00000000E+00  0.00000000E+00  0.00000000E+00
  0.00000000E+00  0.00000000E+00  0.00000000E+00
  0.00000000E+00  0.00000000E+00  0.00000000E+00
  0.00000000E+00  0.00000000E+00  0.00000000E+00
  0.00000000E+00  0.00000000E+00  0.00000000E+00
  0.00000000E+00  0.00000000E+00  0.00000000E+00
  0.00000000E+00  0.00000000E+00  0.00000000E+00
  0.00000000E+00  0.00000000E+00  0.00000000E+00
  0.00000000E+00  0.00000000E+00  0.00000000E+00
  0.00000000E+00  0.00000000E+00  0.00000000E+00
  0.00000000E+00  0.00000000E+00  0.00000000E+00
  0.00000000E+00  0.00000000E+00  0.00000000E+00
  0.00000000E+00  0.00000000E+00  0.00000000E+00
  0.00000000E+00  0.00000000E+00  0.00000000E+00
  0.00000000E+00  0.00000000E+00  0.00000000E+00
  0.00000000E+00  0.00000000E+00  0.00000000E+00
  0.00000000E+00  0.00000000E+00  0.00000000E+00
  0.00000000E+00  0.00000000E+00  0.00000000E+00
  0.00000000E+00  0.00000000E+00  0.00000000E+00
  0.00000000E+00  0.00000000E+00  0.00000000E+00
  0.00000000E+00  0.00000000E+00  0.00000000E+00
  0.00000000E+00  0.00000000E+00  0.00000000E+00
  0.00000000E+00  0.00000000E+00  0.00000000E+00
  0.00000000E+00  0.00000000E+00  0.00000000E+00
  0.00000000E+00  0.00000000E+00  0.00000000E+00
  0.00000000E+00  0.00000000E+00  0.00000000E+00
  0.00000000E+00  0.00000000E+00  0.00000000E+00
  0.00000000E+00  0.00000000E+00  0.00000000E+00
  0.00000000E+00  0.00000000E+00  0.00000000E+00
  0.00000000E+00  0.00000000E+00  0.00000000E+00
  0.00000000E+00  0.00000000E+00  0.00000000E+00
  0.00000000E+00  0.00000000E+00  0.00000000E+00
  0.00000000E+00  0.00000000E+00  0.00000000E+00
  0.00000000E+00  0.00000000E+00  0.00000000E+00
  0.00000000E+00  0.00000000E+00  0.00000000E+00
  0.00000000E+00  0.00000000E+00  0.00000000E+00
  0.00000000E+00  0.00000000E+00  0.00000000E+00
  0.00000000E+00  0.00000000E+00  0.00000000E+00
  0.00000000E+00  0.00000000E+00  0.00000000E+00
