supercell of icsd_191774.cif            
   1.00000000000000     
    11.0629271334864931   -0.0255813288125899    0.0008308436045646
    -5.5536515549752474    9.5607800141041146   -0.0116325366330699
     0.0009351930692508   -0.0134374500158254   11.5977860531988561
   N    In   La
    36    26    10
Direct
  0.2235263038349586  0.1103206839884052  0.4390978902928993
  0.1121571089536246  0.2148347516676878  0.2018714931190573
  0.8820041823703662  0.0943822366274532  0.9312765650366828
  0.7788198274375446  0.2246442494506695  0.7107213904210852
  0.5400621174292226  0.1078891051744719  0.4347471305953547
  0.4410109868731880  0.2212426845747473  0.1849127593261244
  0.2293790227734860  0.0934394765515520  0.9286060266239105
  0.1044596727445679  0.2025173451672799  0.6891254919616188
  0.8983382080389077  0.1060711512267432  0.4387133182823462
  0.7767443079810192  0.2184501979924391  0.2041796721823346
  0.5377907522554466  0.0953204578749904  0.9349077684985048
  0.4446841289308665  0.2225225408671534  0.6856874382710814
  0.2210874907409774  0.4445806499080831  0.4763072443775869
  0.1031985647638152  0.5646579542407508  0.1915428520775606
  0.8993054097807018  0.4626068891115978  0.9422582569196720
  0.7783560215633827  0.5589268452504470  0.6987551210423391
  0.5371731945966829  0.4333220726351641  0.4347555733936659
  0.4475850458055319  0.5507000422309218  0.1960282416452728
  0.2105594274901819  0.4472182194482670  0.9422005923155439
  0.0891645218374393  0.5567947931222292  0.6816459255393852
  0.9008498443316029  0.4504288856197789  0.4308246741434374
  0.7740501618483009  0.5560976424730413  0.1926602337074641
  0.5669668281641407  0.4256281688368730  0.9380096233413440
  0.4590867434022314  0.5513377046469543  0.6976350659123014
  0.2206187552817909  0.7790754819305334  0.4377520388780880
  0.1125581874621204  0.8933084590537064  0.1897161771692595
  0.8895998536719034  0.7769794172264568  0.9415663316127336
  0.7977366782300948  0.8959321779291045  0.6828456200982060
  0.5588749363621019  0.7795328922813596  0.4613673165244947
  0.4354510208028870  0.8972674110476859  0.1936293967598886
  0.2216561613802384  0.7764080057203842  0.9555687613221195
  0.1006237131927250  0.8936952762489554  0.6779873559795817
  0.8985377695690460  0.7925134105390228  0.4285891293664221
  0.7970214663704027  0.8981832864924755  0.1850066675018880
  0.5603212469567111  0.7907180175910753  0.9556811574540802
  0.4498746210003404  0.9083748443256070  0.6782097797268563
  0.2237113111173556  0.1090169013284026  0.2518294151160774
  0.1119023864527477  0.2117553551397009  0.5007173158027598
  0.8907671470805738  0.1066655162657639  0.7472677849855955
  0.5484303911080701  0.1141506903451415  0.2487984518944160
  0.4370281390272837  0.2187255806806547  0.4972823646659279
  0.2229724985731352  0.1052714261003018  0.7418805719769921
  0.8949971845391573  0.1097418926301827  0.2521069133963749
  0.5520678251272315  0.1152025270895507  0.7483673104818607
  0.4420667383257708  0.2093217807623731  0.9955738748691942
  0.1076609815884524  0.5620523280999947  0.4980227568505740
  0.8849714959479797  0.4501894929383425  0.7553892152120767
  0.7824010272909590  0.5573313018375075  0.9995629097900931
  0.5501577810460887  0.4383847893385138  0.2460741995888327
  0.4475700030074705  0.5528296524551379  0.5072705991473967
  0.1115907498372763  0.5603776117749319  0.0041353402791984
  0.8869541720227545  0.4477288754351392  0.2453359325336919
  0.5611670723424140  0.4375559100684825  0.7508025707801522
  0.2166761833977304  0.7828823531814848  0.2463526018438458
  0.1109458960545808  0.8928905353693182  0.4923036180633176
  0.8918672755031736  0.7808183613692421  0.7514340871109511
  0.7816557250548115  0.8874172555352615  0.9992167180177134
  0.4390926221163269  0.8927994389599618  0.4944024729016760
  0.1119894508929420  0.8839600904543374  0.0027473430007490
  0.8954648491248349  0.7832371025852325  0.2423296743627361
  0.7901531222296043  0.8924489065829846  0.4981824425130625
  0.4387403660214844  0.8884820258026949  0.0062365229983357
  0.7740753270162912  0.2208476163497508  0.9909780023467363
  0.1127047228059510  0.2091203480006598  0.9962714390368816
  0.7764244410170065  0.2182095761246785  0.4973988050934679
  0.2162066464731467  0.4461134638853963  0.2645157680193790
  0.2117863476921258  0.4401492214584906  0.7293347979195133
  0.7761737281933350  0.5602397270363468  0.4927005317338384
  0.4502526938375695  0.5498874331102357  0.9913255893578636
  0.5635579079480095  0.7879165656374596  0.2507795306678346
  0.2184846684130832  0.7866283216696743  0.7504897542370372
  0.5680968375447577  0.7937265955225641  0.7419926919837039
 
  0.00000000E+00  0.00000000E+00  0.00000000E+00
  0.00000000E+00  0.00000000E+00  0.00000000E+00
  0.00000000E+00  0.00000000E+00  0.00000000E+00
  0.00000000E+00  0.00000000E+00  0.00000000E+00
  0.00000000E+00  0.00000000E+00  0.00000000E+00
  0.00000000E+00  0.00000000E+00  0.00000000E+00
  0.00000000E+00  0.00000000E+00  0.00000000E+00
  0.00000000E+00  0.00000000E+00  0.00000000E+00
  0.00000000E+00  0.00000000E+00  0.00000000E+00
  0.00000000E+00  0.00000000E+00  0.00000000E+00
  0.00000000E+00  0.00000000E+00  0.00000000E+00
  0.00000000E+00  0.00000000E+00  0.00000000E+00
  0.00000000E+00  0.00000000E+00  0.00000000E+00
  0.00000000E+00  0.00000000E+00  0.00000000E+00
  0.00000000E+00  0.00000000E+00  0.00000000E+00
  0.00000000E+00  0.00000000E+00  0.00000000E+00
  0.00000000E+00  0.00000000E+00  0.00000000E+00
  0.00000000E+00  0.00000000E+00  0.00000000E+00
  0.00000000E+00  0.00000000E+00  0.00000000E+00
  0.00000000E+00  0.00000000E+00  0.00000000E+00
  0.00000000E+00  0.00000000E+00  0.00000000E+00
  0.00000000E+00  0.00000000E+00  0.00000000E+00
  0.00000000E+00  0.00000000E+00  0.00000000E+00
  0.00000000E+00  0.00000000E+00  0.00000000E+00
  0.00000000E+00  0.00000000E+00  0.00000000E+00
  0.00000000E+00  0.00000000E+00  0.00000000E+00
  0.00000000E+00  0.00000000E+00  0.00000000E+00
  0.00000000E+00  0.00000000E+00  0.00000000E+00
  0.00000000E+00  0.00000000E+00  0.00000000E+00
  0.00000000E+00  0.00000000E+00  0.00000000E+00
  0.00000000E+00  0.00000000E+00  0.00000000E+00
  0.00000000E+00  0.00000000E+00  0.00000000E+00
  0.00000000E+00  0.00000000E+00  0.00000000E+00
  0.00000000E+00  0.00000000E+00  0.00000000E+00
  0.00000000E+00  0.00000000E+00  0.00000000E+00
  0.00000000E+00  0.00000000E+00  0.00000000E+00
  0.00000000E+00  0.00000000E+00  0.00000000E+00
  0.00000000E+00  0.00000000E+00  0.00000000E+00
  0.00000000E+00  0.00000000E+00  0.00000000E+00
  0.00000000E+00  0.00000000E+00  0.00000000E+00
  0.00000000E+00  0.00000000E+00  0.00000000E+00
  0.00000000E+00  0.00000000E+00  0.00000000E+00
  0.00000000E+00  0.00000000E+00  0.00000000E+00
  0.00000000E+00  0.00000000E+00  0.00000000E+00
  0.00000000E+00  0.00000000E+00  0.00000000E+00
  0.00000000E+00  0.00000000E+00  0.00000000E+00
  0.00000000E+00  0.00000000E+00  0.00000000E+00
  0.00000000E+00  0.00000000E+00  0.00000000E+00
  0.00000000E+00  0.00000000E+00  0.00000000E+00
  0.00000000E+00  0.00000000E+00  0.00000000E+00
  0.00000000E+00  0.00000000E+00  0.00000000E+00
  0.00000000E+00  0.00000000E+00  0.00000000E+00
  0.00000000E+00  0.00000000E+00  0.00000000E+00
  0.00000000E+00  0.00000000E+00  0.00000000E+00
  0.00000000E+00  0.00000000E+00  0.00000000E+00
  0.00000000E+00  0.00000000E+00  0.00000000E+00
  0.00000000E+00  0.00000000E+00  0.00000000E+00
  0.00000000E+00  0.00000000E+00  0.00000000E+00
  0.00000000E+00  0.00000000E+00  0.00000000E+00
  0.00000000E+00  0.00000000E+00  0.00000000E+00
  0.00000000E+00  0.00000000E+00  0.00000000E+00
  0.00000000E+00  0.00000000E+00  0.00000000E+00
  0.00000000E+00  0.00000000E+00  0.00000000E+00
  0.00000000E+00  0.00000000E+00  0.00000000E+00
  0.00000000E+00  0.00000000E+00  0.00000000E+00
  0.00000000E+00  0.00000000E+00  0.00000000E+00
  0.00000000E+00  0.00000000E+00  0.00000000E+00
  0.00000000E+00  0.00000000E+00  0.00000000E+00
  0.00000000E+00  0.00000000E+00  0.00000000E+00
  0.00000000E+00  0.00000000E+00  0.00000000E+00
  0.00000000E+00  0.00000000E+00  0.00000000E+00
  0.00000000E+00  0.00000000E+00  0.00000000E+00
