As   O    Li                            
   1.00000000000000     
     0.0000058895809588    0.0185564379285246   -5.1776814297950136
    -0.0000562061763006   -5.5221557644490469    0.0208081846995651
    -6.3774366103023059   -0.0000638050555965    0.0000237637279345
   As   O    Li
     2     8     6
Direct
  0.1312373482590274  0.1742314083134033  0.9958523180190184
  0.4996828098718851  0.8257699531014566  0.4958443390674958
  0.0186172844437991  0.8792712955318223  0.9958336632803011
  0.4658746320645122  0.1738254432403039  0.9958422765534252
  0.0206461351003355  0.3211364659387357  0.7746859789786242
  0.0206691360210272  0.3211391468466900  0.2170129203874751
  0.6101930920782053  0.6788494911581182  0.7170385390835463
  0.6102114681561162  0.6788629611155059  0.2746670143175649
  0.1650245023381558  0.8261620418696864  0.4958408802979264
  0.6122244542490307  0.1207580375307984  0.4958323222247785
  0.0067414887918602  0.6751849616479362  0.7445033348712258
  0.0067824549051636  0.6752100638253964  0.2471096924115272
  0.6214296148794247  0.8471869831885073  0.9958276481784623
  0.0099038588394507  0.1528594083002304  0.4958331584624744
  0.6244862750676603  0.3247493777425845  0.7471261213749329
  0.6244989343065441  0.3248036281404438  0.2444833907932420
