Mg   Si   N                             
   1.00000000000000     
    -0.0121670078588926    0.0248289209700087   -5.2168135009545011
    -5.2174048465835421    0.0001498300199787    0.0121706557221084
     0.0002520888003449    6.5123089341006866    0.0309686249872759
   Mg   Si   N 
     4     4     8
Direct
  0.9776275993600478  0.4335429481876005  0.8833469584534086
  0.1018937788147767  0.9335380080033886  0.6333209638878614
  0.4776288870921519  0.5581315291486746  0.1333198111960812
  0.6018870226259736  0.0581406737018355  0.3833473415145932
  0.1056648925689885  0.9299145615962274  0.1333378890292423
  0.6056684804565933  0.0617544304457383  0.8833331909878481
  0.9738607651711391  0.4299138007729084  0.3833315060612321
  0.4738607626405624  0.5617553457723901  0.6333344359407178
  0.9416809481895925  0.0291732193090724  0.9138796689227249
  0.4416785527551426  0.9624965440283830  0.1027861461773298
  0.0731117718556646  0.5939287892499721  0.1638895828421738
  0.0064129815810219  0.0939290476731713  0.3527795012169292
  0.5731096110845044  0.3977393630430086  0.8527779796115098
  0.5064205387297847  0.8977400096407138  0.6638889377743737
  0.1378482851767586  0.5291722418762035  0.6027888475163437
  0.6378474627052384  0.4624997985822574  0.4138801176883362
