S    Al   Li                            
1.0
        6.5412988663         0.0000000000         0.0000000000
        0.1900428279         6.5950946545         0.0000000000
        0.0004684252         0.0003484269         7.8522619984
    S   Al   Li
    8    4    4
Direct
     0.870510995         0.069528997         0.865315974
     0.950532019         0.603080988         0.132835001
     0.950469017         0.103055999         0.342175990
     0.468234986         0.938812017         0.109566003
     0.870482028         0.569508016         0.609646022
     0.388227999         0.405328006         0.842224002
     0.388291001         0.905357003         0.632732987
     0.468219995         0.438818008         0.365422994
     0.815977991         0.924103975         0.123446003
     0.522777021         0.084297001         0.851468027
     0.815958023         0.424091011         0.351532996
     0.522755027         0.584302008         0.623504996
     0.004260000         0.406958014         0.864247978
     0.004396000         0.906838000         0.610764980
     0.334609002         0.601375997         0.110843003
     0.334463000         0.101415001         0.364096999
