supercell of icsd_608626.cif            
   1.07770222697014     
     9.1469645884759281    0.0810824433440894    0.0374667819072947
    -4.5045726885222903    7.8988319883732450   -0.0074514964538483
     0.0383461358366205    0.0130080039837950    9.7600777198672244
   Al   La   N 
    28     8    36
Direct
  0.2073582601520201  0.1107864288136682  0.2497889941809248
  0.8958736957003239  0.1056421813347299  0.7588130380833036
  0.7920422729311554  0.2277751516323221  0.0000889355929914
  0.2036712026156380  0.1061035305510103  0.7839817140808663
  0.0969397739066054  0.2188156661403511  0.0131918711972716
  0.8867396359296009  0.1095673257324918  0.2360272147221067
  0.7635304377072814  0.2188351301091771  0.5007934199182884
  0.2354880840542251  0.4505382001684097  0.2347709210888240
  0.1260990911047415  0.5624061455988851  0.4699503507186691
  0.8957432264170038  0.4392667245939350  0.7306578811903250
  0.7910709949253700  0.5698078940959874  0.9941581305162330
  0.5637801113153742  0.4547434195453661  0.2501244731856787
  0.4683995045741938  0.5799304331893609  0.4808764797415677
  0.1100745343357801  0.5513830926712302  0.0226232720662836
  0.8933222170836430  0.4473017217189934  0.2446981386064309
  0.7745965811874811  0.5591726544499238  0.4900111574559318
  0.5838110476157041  0.4668610703921985  0.7531085665644710
  0.4616667877414429  0.5773597555348928  0.0062967569802126
  0.2224914663228432  0.7672028638859061  0.2355093147956566
  0.8872552372579605  0.7852988862412218  0.7592733309101121
  0.7754398999097702  0.8902424466626826  0.9955615769357067
  0.5578102526407420  0.7669961946120054  0.2446648026670672
  0.4412963481041601  0.8669346455645695  0.4985175858514381
  0.0993020212733953  0.8852702175415317  0.0184667762532627
  0.8754313850868982  0.7727919986697884  0.2402374436306829
  0.7591731793529206  0.8852910538061067  0.4834266833721159
  0.5749394837718711  0.7686294407909813  0.7384300309193463
  0.4463436593345094  0.8773651212778830  0.0122429457738136
  0.0678191865562781  0.2385273446668421  0.4990917142231979
  0.5685609341694473  0.0978631335697742  0.2573827025381803
  0.4193152766290495  0.2446550878657447  0.5108371742179045
  0.5602668301860874  0.0873261557544183  0.7461548967429010
  0.4462854794666455  0.2457857184767178  0.0014560961249188
  0.2557156851449207  0.4575417150742780  0.7540068503082651
  0.0909422633664079  0.8682251332459714  0.4953934322890419
  0.1974561442237359  0.7499410681583569  0.7657825163103311
  0.1838046860733442  0.1066513623241292  0.4223071651374894
  0.1038758576373979  0.2219021204867957  0.1955279811131234
  0.8854580582107161  0.1090302024975784  0.9408838945639459
  0.8167611649535900  0.2291197070185262  0.6768695616356482
  0.5446269727797741  0.0936422394506948  0.4968076724779138
  0.4287735077865591  0.2339528351951756  0.2312169559176240
  0.1824770049824025  0.0927973646940501  0.9625344817766717
  0.1018210246745852  0.2018156987501101  0.7169200495140586
  0.8246524585554837  0.0880767853487399  0.4096207136239727
  0.8206576046278968  0.2487521111524416  0.1734020404151337
  0.5718439289463575  0.0963214837749717  0.9822524109329933
  0.4274955239105225  0.2416078678650777  0.7507962699944457
  0.2585623390337091  0.4782809053761596  0.4186150842961496
  0.1068368802277959  0.5503114754401750  0.2007683430127187
  0.9015365156374031  0.4518417801543748  0.9267796541943341
  0.7947428851226235  0.5601396432639874  0.6818337757908495
  0.5785192566031867  0.4807734357224973  0.4227172912486949
  0.4591618262848769  0.5576231320974401  0.1837500531691560
  0.2301789576134468  0.4477875785578789  0.9836634359326766
  0.0881077118345033  0.5254945440957854  0.6446033360958978
  0.8789248571127715  0.4381738154129451  0.4283138094606898
  0.7798544553355811  0.5522262824175357  0.1786147278373491
  0.5905606747808037  0.5056851669956544  0.9275895719711187
  0.5024226726829255  0.5712505639022609  0.6603300815399038
  0.2454943098646609  0.7705124235757523  0.4179272821503801
  0.1010129799915802  0.8830537536587570  0.2019440017398182
  0.8911200257551357  0.7824405975787414  0.9443766518011643
  0.7855354510439341  0.8954436965083161  0.6855720851467595
  0.5576118078900549  0.7841431361153042  0.4244160235324870
  0.4314253609711471  0.8437574111386610  0.1841962406310103
  0.2184979419053832  0.7762993482690845  0.9881362433093273
  0.0996000045132135  0.9052237344903702  0.7203705269762253
  0.8457641762094568  0.7645179178212018  0.4187485879750241
  0.7730128345165852  0.8889384155753177  0.1775368280285150
  0.5555425140827879  0.7810793440580852  0.9279070175130784
  0.4376735757526404  0.8291473670777805  0.6737529597892831
 
  0.00000000E+00  0.00000000E+00  0.00000000E+00
  0.00000000E+00  0.00000000E+00  0.00000000E+00
  0.00000000E+00  0.00000000E+00  0.00000000E+00
  0.00000000E+00  0.00000000E+00  0.00000000E+00
  0.00000000E+00  0.00000000E+00  0.00000000E+00
  0.00000000E+00  0.00000000E+00  0.00000000E+00
  0.00000000E+00  0.00000000E+00  0.00000000E+00
  0.00000000E+00  0.00000000E+00  0.00000000E+00
  0.00000000E+00  0.00000000E+00  0.00000000E+00
  0.00000000E+00  0.00000000E+00  0.00000000E+00
  0.00000000E+00  0.00000000E+00  0.00000000E+00
  0.00000000E+00  0.00000000E+00  0.00000000E+00
  0.00000000E+00  0.00000000E+00  0.00000000E+00
  0.00000000E+00  0.00000000E+00  0.00000000E+00
  0.00000000E+00  0.00000000E+00  0.00000000E+00
  0.00000000E+00  0.00000000E+00  0.00000000E+00
  0.00000000E+00  0.00000000E+00  0.00000000E+00
  0.00000000E+00  0.00000000E+00  0.00000000E+00
  0.00000000E+00  0.00000000E+00  0.00000000E+00
  0.00000000E+00  0.00000000E+00  0.00000000E+00
  0.00000000E+00  0.00000000E+00  0.00000000E+00
  0.00000000E+00  0.00000000E+00  0.00000000E+00
  0.00000000E+00  0.00000000E+00  0.00000000E+00
  0.00000000E+00  0.00000000E+00  0.00000000E+00
  0.00000000E+00  0.00000000E+00  0.00000000E+00
  0.00000000E+00  0.00000000E+00  0.00000000E+00
  0.00000000E+00  0.00000000E+00  0.00000000E+00
  0.00000000E+00  0.00000000E+00  0.00000000E+00
  0.00000000E+00  0.00000000E+00  0.00000000E+00
  0.00000000E+00  0.00000000E+00  0.00000000E+00
  0.00000000E+00  0.00000000E+00  0.00000000E+00
  0.00000000E+00  0.00000000E+00  0.00000000E+00
  0.00000000E+00  0.00000000E+00  0.00000000E+00
  0.00000000E+00  0.00000000E+00  0.00000000E+00
  0.00000000E+00  0.00000000E+00  0.00000000E+00
  0.00000000E+00  0.00000000E+00  0.00000000E+00
  0.00000000E+00  0.00000000E+00  0.00000000E+00
  0.00000000E+00  0.00000000E+00  0.00000000E+00
  0.00000000E+00  0.00000000E+00  0.00000000E+00
  0.00000000E+00  0.00000000E+00  0.00000000E+00
  0.00000000E+00  0.00000000E+00  0.00000000E+00
  0.00000000E+00  0.00000000E+00  0.00000000E+00
  0.00000000E+00  0.00000000E+00  0.00000000E+00
  0.00000000E+00  0.00000000E+00  0.00000000E+00
  0.00000000E+00  0.00000000E+00  0.00000000E+00
  0.00000000E+00  0.00000000E+00  0.00000000E+00
  0.00000000E+00  0.00000000E+00  0.00000000E+00
  0.00000000E+00  0.00000000E+00  0.00000000E+00
  0.00000000E+00  0.00000000E+00  0.00000000E+00
  0.00000000E+00  0.00000000E+00  0.00000000E+00
  0.00000000E+00  0.00000000E+00  0.00000000E+00
  0.00000000E+00  0.00000000E+00  0.00000000E+00
  0.00000000E+00  0.00000000E+00  0.00000000E+00
  0.00000000E+00  0.00000000E+00  0.00000000E+00
  0.00000000E+00  0.00000000E+00  0.00000000E+00
  0.00000000E+00  0.00000000E+00  0.00000000E+00
  0.00000000E+00  0.00000000E+00  0.00000000E+00
  0.00000000E+00  0.00000000E+00  0.00000000E+00
  0.00000000E+00  0.00000000E+00  0.00000000E+00
  0.00000000E+00  0.00000000E+00  0.00000000E+00
  0.00000000E+00  0.00000000E+00  0.00000000E+00
  0.00000000E+00  0.00000000E+00  0.00000000E+00
  0.00000000E+00  0.00000000E+00  0.00000000E+00
  0.00000000E+00  0.00000000E+00  0.00000000E+00
  0.00000000E+00  0.00000000E+00  0.00000000E+00
  0.00000000E+00  0.00000000E+00  0.00000000E+00
  0.00000000E+00  0.00000000E+00  0.00000000E+00
  0.00000000E+00  0.00000000E+00  0.00000000E+00
  0.00000000E+00  0.00000000E+00  0.00000000E+00
  0.00000000E+00  0.00000000E+00  0.00000000E+00
  0.00000000E+00  0.00000000E+00  0.00000000E+00
  0.00000000E+00  0.00000000E+00  0.00000000E+00
