POSCAR                                  
  0.995000000000000     
   -15.6630333416000003    7.8109836408200000    7.8538124564200000
     5.2195517948300001  -13.0310330685999993  -13.0801476600999997
    -0.0055386983263100   -5.2439443698300003    5.2609942113599999
   Pr   Al   N 
    45     3    48
Direct
  0.7577555694179523  0.7629774677331724  0.7611726805055383
  0.6726054503248662  0.5103360705675399  0.7517906509786627
  0.7541753629212096  0.7582179010057786  0.2498135894984657
  0.6695106124311678  0.5076013453132049  0.2522083390982885
  0.7488467521908433  0.2538818711388089  0.4958396258817785
  0.6629609493125130  0.0024622638259402  0.4931277976081390
  0.5806050934937304  0.7488779453315502  0.4780515399704299
  0.5001500179225857  0.5023739354688388  0.5079095921004040
  0.5840890887017522  0.2562383435120097  0.7494220099382076
  0.4983794475847034  0.0030331783471240  0.7476304578208826
  0.4125512787248056  0.7493889503028441  0.7419384084813743
  0.3216568003152673  0.4848720510431548  0.7336187326580017
  0.7475206385277318  0.2515064546592356  0.9953142631646799
  0.6615563580741579  0.9964047665330327  0.0021939436248601
  0.5002054347470732  0.5047632298985292  0.0039469066346740
  0.5824746561730478  0.2553910640378874  0.2489502853851420
  0.4978971126913621  0.0037328646239772  0.2476454857727930
  0.4194351103473863  0.7535572295663400  0.2421663810930568
  0.3372763422023297  0.5045685290641089  0.2445852964330300
  0.4169192552319814  0.2571562814183679  0.5109663845338517
  0.3318489392556785  0.0061825476717132  0.4972665399824692
  0.2499415221276848  0.7543856729158094  0.4940219908925343
  0.1656579249416410  0.5018899489227096  0.4912066998719169
  0.1642742316151171  0.0095583225956872  0.7488243412886177
  0.0845591576670586  0.7567629774393865  0.7456524888563223
  0.9997392489454739  0.5035281840774459  0.7453315065635593
  0.4193785489305242  0.2608516880800948  0.9998384472022650
  0.3331559687572749  0.0067426718473058  0.9967911072430837
  0.2499154940705495  0.7539456011810302  0.9957088047144040
  0.1643977600838582  0.5009600802287224  0.9919853562065910
  0.2498339923433832  0.2520564285477249  0.2764752645923778
  0.1636451958038521  0.0057313083283788  0.2413413062018179
  0.0842263742901324  0.7560815061176314  0.2454968554125401
  0.9996971178593625  0.5036092885332977  0.2447890252155318
  0.0810200320808576  0.2507870303059079  0.4890990140847435
  0.0012160663269114  0.0013582609966249  0.5118816399752433
  0.9174510041367938  0.7538462490341971  0.4961986547832637
  0.8345638475109070  0.5049073418211805  0.4973075565891136
  0.9125644822452017  0.2485559575129130  0.7449164491527682
  0.8224681135579033  0.9919483640581959  0.7610013221099194
  0.0782327077577420  0.2497677972168830  0.9994766313160071
  0.9212220768729154  0.7628038785869791  0.9979567782740588
  0.8349701457223802  0.5060238533770303  0.9976355531617784
  0.9140610659345469  0.2521646700796438  0.2459322147877003
  0.8264694414731864  0.9976806872286801  0.2521810278071968
  0.5376027021744676  0.7164397338236839  0.8990789787720530
  0.2066996618073063  0.2157466851130465  0.8695447412015014
  0.9894640429282830  0.0246507757447674  0.0281816654111537
  0.6178399866115640  0.8502646427090212  0.7762685485866498
  0.5418711567971357  0.6318775373141605  0.7707103696119617
  0.6298505917079211  0.8833964564436485  0.2794801544116083
  0.5440203762282110  0.6169685228358190  0.2671448230808693
  0.6265990318004810  0.3734874965388144  0.4985581173643894
  0.5425560788337549  0.1218343546837133  0.4979050830946861
  0.4580041983272309  0.8705887643467562  0.4943887764058204
  0.3745888509056812  0.6189675015809541  0.4835314812741345
  0.4785618680406145  0.3857378926769286  0.7568734137960362
  0.3755669835423987  0.1253615130598860  0.7492634470005939
  0.2928172098943023  0.8720297968152195  0.7473118652196007
  0.2091706023185935  0.6193583885486618  0.7472759317455626
  0.6280327366479241  0.3743625161730719  0.0017358117649522
  0.5423514454089329  0.1222538039875616  0.9968856691942136
  0.4578285620571947  0.8690592790892850  0.9930261576696822
  0.3922346602611526  0.6299561800764977  0.9746189891215309
  0.4595743134705614  0.3758141533868624  0.2606026101460515
  0.3773839152680125  0.1243192760166423  0.2465341516010824
  0.2919682162955652  0.8716037094362719  0.2464161434191539
  0.2106442485255826  0.6204623818994079  0.2447863371262358
  0.2965166435851572  0.3857412160966192  0.4717792433681538
  0.2045571289295083  0.1153529138562206  0.4863245025492091
  0.1283164066474072  0.8741395908521454  0.4944879212619995
  0.0433239560620109  0.6218251230695557  0.4971209421421534
  0.1253366250228325  0.3681411074834884  0.7479357538674520
  0.0552128511027590  0.1167206446819193  0.8099513309256992
  0.9580537551716830  0.8665988800944717  0.7337329628052345
  0.8799755960637796  0.6231909173742594  0.7504514889662488
  0.2809564567725431  0.3507298205519973  0.9814484560215817
  0.2173537060065200  0.1381721908821092  0.9956181298741953
  0.1255870793140801  0.8746342912080109  0.9964615861227202
  0.0435119019171637  0.6218664340747395  0.9971766942808102
  0.1233902218835894  0.3673757823617549  0.2521642013978891
  0.0390693506062476  0.1161534074211730  0.2422779441153438
  0.9608907774217457  0.8724261778042006  0.2644939074025174
  0.8755779735827360  0.6210964459206991  0.2482306139330177
  0.9581548901768357  0.3693213967400979  0.4976207944975641
  0.8786342145999058  0.1205602500051626  0.5093569318598483
  0.7950894065540055  0.8737071149924276  0.5055808112674711
  0.7104023581193886  0.6252005646661303  0.4998002467567915
  0.7920686539753845  0.3707432322703994  0.7491789979840178
  0.7093781181795151  0.1206208828901012  0.7610615013073243
  0.9635048868661471  0.3732702106066128  0.9992967283697709
  0.8722692933149432  0.1171406456102773  0.0012796799057924
  0.8337965947461186  0.9020236869315639  0.0048215569465171
  0.7114272124439580  0.6283550904233834  0.0023954326380036
  0.7940318100877874  0.3717530402549087  0.2505510783646940
  0.7072988993459859  0.1191255184782563  0.2526683465804425
 
  0.00000000E+00  0.00000000E+00  0.00000000E+00
  0.00000000E+00  0.00000000E+00  0.00000000E+00
  0.00000000E+00  0.00000000E+00  0.00000000E+00
  0.00000000E+00  0.00000000E+00  0.00000000E+00
  0.00000000E+00  0.00000000E+00  0.00000000E+00
  0.00000000E+00  0.00000000E+00  0.00000000E+00
  0.00000000E+00  0.00000000E+00  0.00000000E+00
  0.00000000E+00  0.00000000E+00  0.00000000E+00
  0.00000000E+00  0.00000000E+00  0.00000000E+00
  0.00000000E+00  0.00000000E+00  0.00000000E+00
  0.00000000E+00  0.00000000E+00  0.00000000E+00
  0.00000000E+00  0.00000000E+00  0.00000000E+00
  0.00000000E+00  0.00000000E+00  0.00000000E+00
  0.00000000E+00  0.00000000E+00  0.00000000E+00
  0.00000000E+00  0.00000000E+00  0.00000000E+00
  0.00000000E+00  0.00000000E+00  0.00000000E+00
  0.00000000E+00  0.00000000E+00  0.00000000E+00
  0.00000000E+00  0.00000000E+00  0.00000000E+00
  0.00000000E+00  0.00000000E+00  0.00000000E+00
  0.00000000E+00  0.00000000E+00  0.00000000E+00
  0.00000000E+00  0.00000000E+00  0.00000000E+00
  0.00000000E+00  0.00000000E+00  0.00000000E+00
  0.00000000E+00  0.00000000E+00  0.00000000E+00
  0.00000000E+00  0.00000000E+00  0.00000000E+00
  0.00000000E+00  0.00000000E+00  0.00000000E+00
  0.00000000E+00  0.00000000E+00  0.00000000E+00
  0.00000000E+00  0.00000000E+00  0.00000000E+00
  0.00000000E+00  0.00000000E+00  0.00000000E+00
  0.00000000E+00  0.00000000E+00  0.00000000E+00
  0.00000000E+00  0.00000000E+00  0.00000000E+00
  0.00000000E+00  0.00000000E+00  0.00000000E+00
  0.00000000E+00  0.00000000E+00  0.00000000E+00
  0.00000000E+00  0.00000000E+00  0.00000000E+00
  0.00000000E+00  0.00000000E+00  0.00000000E+00
  0.00000000E+00  0.00000000E+00  0.00000000E+00
  0.00000000E+00  0.00000000E+00  0.00000000E+00
  0.00000000E+00  0.00000000E+00  0.00000000E+00
  0.00000000E+00  0.00000000E+00  0.00000000E+00
  0.00000000E+00  0.00000000E+00  0.00000000E+00
  0.00000000E+00  0.00000000E+00  0.00000000E+00
  0.00000000E+00  0.00000000E+00  0.00000000E+00
  0.00000000E+00  0.00000000E+00  0.00000000E+00
  0.00000000E+00  0.00000000E+00  0.00000000E+00
  0.00000000E+00  0.00000000E+00  0.00000000E+00
  0.00000000E+00  0.00000000E+00  0.00000000E+00
  0.00000000E+00  0.00000000E+00  0.00000000E+00
  0.00000000E+00  0.00000000E+00  0.00000000E+00
  0.00000000E+00  0.00000000E+00  0.00000000E+00
  0.00000000E+00  0.00000000E+00  0.00000000E+00
  0.00000000E+00  0.00000000E+00  0.00000000E+00
  0.00000000E+00  0.00000000E+00  0.00000000E+00
  0.00000000E+00  0.00000000E+00  0.00000000E+00
  0.00000000E+00  0.00000000E+00  0.00000000E+00
  0.00000000E+00  0.00000000E+00  0.00000000E+00
  0.00000000E+00  0.00000000E+00  0.00000000E+00
  0.00000000E+00  0.00000000E+00  0.00000000E+00
  0.00000000E+00  0.00000000E+00  0.00000000E+00
  0.00000000E+00  0.00000000E+00  0.00000000E+00
  0.00000000E+00  0.00000000E+00  0.00000000E+00
  0.00000000E+00  0.00000000E+00  0.00000000E+00
  0.00000000E+00  0.00000000E+00  0.00000000E+00
  0.00000000E+00  0.00000000E+00  0.00000000E+00
  0.00000000E+00  0.00000000E+00  0.00000000E+00
  0.00000000E+00  0.00000000E+00  0.00000000E+00
  0.00000000E+00  0.00000000E+00  0.00000000E+00
  0.00000000E+00  0.00000000E+00  0.00000000E+00
  0.00000000E+00  0.00000000E+00  0.00000000E+00
  0.00000000E+00  0.00000000E+00  0.00000000E+00
  0.00000000E+00  0.00000000E+00  0.00000000E+00
  0.00000000E+00  0.00000000E+00  0.00000000E+00
  0.00000000E+00  0.00000000E+00  0.00000000E+00
  0.00000000E+00  0.00000000E+00  0.00000000E+00
  0.00000000E+00  0.00000000E+00  0.00000000E+00
  0.00000000E+00  0.00000000E+00  0.00000000E+00
  0.00000000E+00  0.00000000E+00  0.00000000E+00
  0.00000000E+00  0.00000000E+00  0.00000000E+00
  0.00000000E+00  0.00000000E+00  0.00000000E+00
  0.00000000E+00  0.00000000E+00  0.00000000E+00
  0.00000000E+00  0.00000000E+00  0.00000000E+00
  0.00000000E+00  0.00000000E+00  0.00000000E+00
  0.00000000E+00  0.00000000E+00  0.00000000E+00
  0.00000000E+00  0.00000000E+00  0.00000000E+00
  0.00000000E+00  0.00000000E+00  0.00000000E+00
  0.00000000E+00  0.00000000E+00  0.00000000E+00
  0.00000000E+00  0.00000000E+00  0.00000000E+00
  0.00000000E+00  0.00000000E+00  0.00000000E+00
  0.00000000E+00  0.00000000E+00  0.00000000E+00
  0.00000000E+00  0.00000000E+00  0.00000000E+00
  0.00000000E+00  0.00000000E+00  0.00000000E+00
  0.00000000E+00  0.00000000E+00  0.00000000E+00
  0.00000000E+00  0.00000000E+00  0.00000000E+00
  0.00000000E+00  0.00000000E+00  0.00000000E+00
  0.00000000E+00  0.00000000E+00  0.00000000E+00
  0.00000000E+00  0.00000000E+00  0.00000000E+00
  0.00000000E+00  0.00000000E+00  0.00000000E+00
  0.00000000E+00  0.00000000E+00  0.00000000E+00
