supercell of icsd_181358.cif            
   1.00000000000000     
     9.7786793817461799   -0.0027138208514519   -0.0008229185733997
    -4.8916908936210080    8.4704743653384416    0.0016222482022503
    -0.0008691292197513    0.0015198191423788   10.5281274787461445
   N    Ga   Sc
    36    32     4
Direct
  0.2299746358392198  0.1036536084416682  0.4386396185935411
  0.1249782665396566  0.2303096587228026  0.1935141546834416
  0.8880481787190817  0.1111704053686964  0.9464065179524610
  0.7781430830581400  0.2223424175096440  0.6913327372466895
  0.5567955705388030  0.1106242722208890  0.4379351823323319
  0.4464241391732813  0.2237144568112015  0.1908000585293195
  0.2229361644286456  0.1109052810764197  0.9511431597345563
  0.1042335199397044  0.2263246880805241  0.6945863700578485
  0.8734187280267491  0.1036775535247330  0.4399063425245657
  0.7689392624784261  0.2316230616459976  0.1833586386313826
  0.5538152495278439  0.1103725320404081  0.9376112981466918
  0.4585937263417890  0.2280936155602618  0.6841252618700153
  0.2302492550759183  0.4615059857765047  0.4377712236536908
  0.1098922267163474  0.5558575442959821  0.1884931419537281
  0.8895140664236862  0.4459953949404536  0.9368540037636848
  0.7791256228082162  0.5557921200938978  0.6871484289119962
  0.5562349737939627  0.4455207593650101  0.4404494384926068
  0.4456919834329582  0.5561511453933576  0.1964566292788348
  0.2084544403160038  0.4391276640032302  0.9374298518874582
  0.1104879334456896  0.5559120584016455  0.6879648378627365
  0.8888933315857912  0.4441630824432110  0.4394084491538237
  0.7774074779012068  0.5550735158177034  0.1887543243418932
  0.5633003383311461  0.4368024568414128  0.9351484124717260
  0.4444393826447026  0.5550206109833624  0.6931789487270024
  0.2231636195913254  0.7776693290408474  0.4370983973523224
  0.1096853055351517  0.8869180609901335  0.1906379433094401
  0.8893105521656608  0.7766775833070554  0.9378440842026450
  0.7793617769063701  0.8893156999556098  0.6906908270316592
  0.5561404093775906  0.7788435353861303  0.4416744937584625
  0.4451333448345736  0.8891180159655505  0.1891723617101064
  0.2223484856545994  0.7779928828758571  0.9392816784490989
  0.1040635311883733  0.8739186434407387  0.6847788902065517
  0.8878342669110211  0.7776259670029333  0.4382209307359801
  0.7681129484102200  0.8704043317461796  0.1836286445504314
  0.5611610068766169  0.7923181731400177  0.9331774305117548
  0.4431773140398860  0.8895422526457892  0.6873798774735818
  0.2269063087606327  0.1099015196483606  0.2496417476202808
  0.1119106019254801  0.2232159980901116  0.0035839170203573
  0.8866094934915836  0.1114500340148581  0.7545719453347459
  0.7748306626296468  0.2213694108595305  0.5022299450625809
  0.5540149225066813  0.1121534820992522  0.2502096778999174
  0.4473255781763612  0.2211331475036502  0.0032234002049520
  0.7746996045015635  0.2256054540249082  0.9975534429909558
  0.5578133566584285  0.1113500956433668  0.7495796612443115
  0.4502786201310940  0.2226335155833752  0.4981574216494522
  0.2266712717602033  0.4515445944598895  0.2516065911275547
  0.1075850608737881  0.5552322026112293  0.0001258501488479
  0.8893351811627852  0.4453450980755065  0.7490605375485515
  0.7783969237462642  0.5560023675534183  0.4997307452735669
  0.5563884158940482  0.4451484223519770  0.2524917659274308
  0.2175813443907018  0.4450808905075618  0.7507000425571562
  0.1119313800588984  0.5597155017698370  0.4998502979681376
  0.8875292873210441  0.4465024580298760  0.2502774889070949
  0.7800373576562478  0.5544428248952968  0.9999792021740745
  0.5610128433312411  0.4440907000178029  0.7479826379943262
  0.4469674718339434  0.5591036364441493  0.5018987305836404
  0.2224440609278133  0.7774032268765083  0.2496223853545345
  0.1100825078066023  0.8870534461901158  0.0030723929212115
  0.8874374748438782  0.7740420940595598  0.7491884474704591
  0.7757653129438111  0.8873258184121582  0.5020918599743709
  0.5536184266598525  0.7749965647895039  0.2530648662804680
  0.4453403898605970  0.8918940443933749  0.9997683595408660
  0.2211630966681994  0.7744981239061275  0.7499152801881408
  0.1103295744296773  0.8832232559526929  0.4977689051017009
  0.8866504940962159  0.7737386335761869  0.2498001956493212
  0.7767392628717786  0.8860937038849386  0.9973752079037297
  0.5566451376728665  0.7817336995802933  0.7475793698660311
  0.4440223966264227  0.8894510921593550  0.4991196162398381
  0.2237844279166339  0.1090239515794309  0.7503864052353109
  0.1104235624006336  0.2241257582849627  0.4947717119816275
  0.8823487315383360  0.1079093265292599  0.2403209210818531
  0.4458953373477001  0.5563875407857068  0.9956964358785854
 
  0.00000000E+00  0.00000000E+00  0.00000000E+00
  0.00000000E+00  0.00000000E+00  0.00000000E+00
  0.00000000E+00  0.00000000E+00  0.00000000E+00
  0.00000000E+00  0.00000000E+00  0.00000000E+00
  0.00000000E+00  0.00000000E+00  0.00000000E+00
  0.00000000E+00  0.00000000E+00  0.00000000E+00
  0.00000000E+00  0.00000000E+00  0.00000000E+00
  0.00000000E+00  0.00000000E+00  0.00000000E+00
  0.00000000E+00  0.00000000E+00  0.00000000E+00
  0.00000000E+00  0.00000000E+00  0.00000000E+00
  0.00000000E+00  0.00000000E+00  0.00000000E+00
  0.00000000E+00  0.00000000E+00  0.00000000E+00
  0.00000000E+00  0.00000000E+00  0.00000000E+00
  0.00000000E+00  0.00000000E+00  0.00000000E+00
  0.00000000E+00  0.00000000E+00  0.00000000E+00
  0.00000000E+00  0.00000000E+00  0.00000000E+00
  0.00000000E+00  0.00000000E+00  0.00000000E+00
  0.00000000E+00  0.00000000E+00  0.00000000E+00
  0.00000000E+00  0.00000000E+00  0.00000000E+00
  0.00000000E+00  0.00000000E+00  0.00000000E+00
  0.00000000E+00  0.00000000E+00  0.00000000E+00
  0.00000000E+00  0.00000000E+00  0.00000000E+00
  0.00000000E+00  0.00000000E+00  0.00000000E+00
  0.00000000E+00  0.00000000E+00  0.00000000E+00
  0.00000000E+00  0.00000000E+00  0.00000000E+00
  0.00000000E+00  0.00000000E+00  0.00000000E+00
  0.00000000E+00  0.00000000E+00  0.00000000E+00
  0.00000000E+00  0.00000000E+00  0.00000000E+00
  0.00000000E+00  0.00000000E+00  0.00000000E+00
  0.00000000E+00  0.00000000E+00  0.00000000E+00
  0.00000000E+00  0.00000000E+00  0.00000000E+00
  0.00000000E+00  0.00000000E+00  0.00000000E+00
  0.00000000E+00  0.00000000E+00  0.00000000E+00
  0.00000000E+00  0.00000000E+00  0.00000000E+00
  0.00000000E+00  0.00000000E+00  0.00000000E+00
  0.00000000E+00  0.00000000E+00  0.00000000E+00
  0.00000000E+00  0.00000000E+00  0.00000000E+00
  0.00000000E+00  0.00000000E+00  0.00000000E+00
  0.00000000E+00  0.00000000E+00  0.00000000E+00
  0.00000000E+00  0.00000000E+00  0.00000000E+00
  0.00000000E+00  0.00000000E+00  0.00000000E+00
  0.00000000E+00  0.00000000E+00  0.00000000E+00
  0.00000000E+00  0.00000000E+00  0.00000000E+00
  0.00000000E+00  0.00000000E+00  0.00000000E+00
  0.00000000E+00  0.00000000E+00  0.00000000E+00
  0.00000000E+00  0.00000000E+00  0.00000000E+00
  0.00000000E+00  0.00000000E+00  0.00000000E+00
  0.00000000E+00  0.00000000E+00  0.00000000E+00
  0.00000000E+00  0.00000000E+00  0.00000000E+00
  0.00000000E+00  0.00000000E+00  0.00000000E+00
  0.00000000E+00  0.00000000E+00  0.00000000E+00
  0.00000000E+00  0.00000000E+00  0.00000000E+00
  0.00000000E+00  0.00000000E+00  0.00000000E+00
  0.00000000E+00  0.00000000E+00  0.00000000E+00
  0.00000000E+00  0.00000000E+00  0.00000000E+00
  0.00000000E+00  0.00000000E+00  0.00000000E+00
  0.00000000E+00  0.00000000E+00  0.00000000E+00
  0.00000000E+00  0.00000000E+00  0.00000000E+00
  0.00000000E+00  0.00000000E+00  0.00000000E+00
  0.00000000E+00  0.00000000E+00  0.00000000E+00
  0.00000000E+00  0.00000000E+00  0.00000000E+00
  0.00000000E+00  0.00000000E+00  0.00000000E+00
  0.00000000E+00  0.00000000E+00  0.00000000E+00
  0.00000000E+00  0.00000000E+00  0.00000000E+00
  0.00000000E+00  0.00000000E+00  0.00000000E+00
  0.00000000E+00  0.00000000E+00  0.00000000E+00
  0.00000000E+00  0.00000000E+00  0.00000000E+00
  0.00000000E+00  0.00000000E+00  0.00000000E+00
  0.00000000E+00  0.00000000E+00  0.00000000E+00
  0.00000000E+00  0.00000000E+00  0.00000000E+00
  0.00000000E+00  0.00000000E+00  0.00000000E+00
  0.00000000E+00  0.00000000E+00  0.00000000E+00
