Al   B    N                             
   1.00000000000000     
    -9.2983738686781265    0.0008851956515277    0.0092023149988122
    -4.6378732708228831    8.0349517054771624    0.0046874082210118
    -0.0708571313311075    0.0244473972428811   -9.9757242680411888
   Al   B    N 
    33     3    36
Direct
  0.1079607926626309  0.0957553682986969  0.4023365124423748
  0.2246105679925705  0.1972905954253079  0.1475139130014327
  0.8854966018296224  0.2033217503167961  0.6527939423596791
  0.4454167305254941  0.0919947290157594  0.3978655547673569
  0.5588396258547732  0.2018341613432284  0.1448283398367494
  0.1107192205262351  0.0868466656850018  0.8925989923002646
  0.2206735379974347  0.2083391359151747  0.6500782967244092
  0.7820666015775686  0.0887630594129689  0.3939073839182115
  0.8915538092534803  0.1974638710921539  0.1395989057252507
  0.4545040371602198  0.0903665081110461  0.8979940170230449
  0.5599095574422748  0.2039010613658405  0.6498058748026168
  0.1063951918515684  0.4253942365451309  0.3913014232602379
  0.2248142483122137  0.5444100115866490  0.0858494285635345
  0.7773786170382380  0.4286517551500069  0.8973460332865315
  0.8861061869445308  0.5451122296319326  0.6497190024502260
  0.4515932729374157  0.4231908135844193  0.3931787664857680
  0.5512140712475997  0.5426311549775775  0.1486459553878916
  0.1040522935062569  0.4322782501984008  0.8979846691427440
  0.2162793051775225  0.5469421044742759  0.5796680448278480
  0.7791052268866352  0.4259517904273125  0.3970307994008522
  0.8856987440606403  0.5411458381320244  0.1424828726292446
  0.4584127910822176  0.4193263610907181  0.8985961173247503
  0.5571580484769711  0.5380248291399496  0.6492729807279147
  0.1179156183416836  0.7649391105962451  0.3238094568893004
  0.8744474527974617  0.8788441345597349  0.6553286381628922
  0.4470001735554376  0.7605846231737061  0.4023818987370902
  0.5500239564174123  0.8735892226273876  0.1422508389841113
  0.1101694981065862  0.7608037798349514  0.8336403941887838
  0.2226072088678563  0.8736305109181046  0.6234366337700834
  0.7789136863109505  0.7628021585765410  0.3928284656207452
  0.8861287721181696  0.8766967294497050  0.1244383559519875
  0.4460643809353542  0.7618049350546201  0.8929588714446481
  0.5618950047676066  0.8695166947777366  0.6528955934028957
  0.7717458615640567  0.0921352073815527  0.9029613353120638
  0.2242499620322391  0.8719328861612254  0.1050698707813496
  0.7704194572358745  0.7702014350500406  0.9034541619873693
  0.2229260737997549  0.2019620865624745  0.3371888100749274
  0.1270565938454595  0.0628754215781484  0.0888441649226905
  0.8778666039503804  0.1907734116896052  0.8464947795935558
  0.7786253637105105  0.0929677357099266  0.5835787848081253
  0.5591809471798896  0.2010446384863513  0.3351182768676892
  0.4443210140387848  0.0951037767315412  0.0865423850114482
  0.2223746746552351  0.2065067351616179  0.8415278784455111
  0.1041303170345600  0.1052370758392200  0.5936494469800593
  0.8892774741276526  0.2035908905641435  0.3313276466468338
  0.7747923479696439  0.0968109523347636  0.0640359051487494
  0.5816889530773608  0.1920836213779040  0.8435252957794503
  0.4454982624224542  0.0939191856934016  0.5920025952016701
  0.2206050833990858  0.5420238568533975  0.3726615171379919
  0.1085129577930815  0.4235880809885941  0.0916968296803233
  0.8770072398961091  0.5657077211386436  0.8430492274356141
  0.7798067029742697  0.4264135048304993  0.5906948406030068
  0.5571479973007669  0.5400490256263168  0.3374464047145267
  0.4540261251268731  0.4224223503909172  0.0912193938609676
  0.2255393067979199  0.5406795498240911  0.8873823783671213
  0.1058173990895952  0.4270471124588866  0.5870609916711942
  0.8853595610186176  0.5411429857152186  0.3330218182322753
  0.7773918517257741  0.4271088592028534  0.0866971254634521
  0.5580697251784983  0.5385908610446251  0.8391764471370209
  0.4489253172934298  0.4251634039042500  0.5888889592488198
  0.2210407285717579  0.8701368327671730  0.3888002034827451
  0.1302637100296309  0.7776541106851980  0.1230744324620687
  0.8627725307976633  0.8859927660331550  0.8544788984754348
  0.7775605517636421  0.7637758458397172  0.5825897703157565
  0.5564686012234930  0.8705308261355427  0.3325869962141539
  0.4156455935113428  0.7752144662551999  0.0889013672256240
  0.2303814455060902  0.8735331474470911  0.8292388254596545
  0.1032701934408777  0.7597869525949790  0.6407895859552468
  0.8838588669932079  0.8736147433651240  0.3194336089915453
  0.7742626823264587  0.7611496326978937  0.0655160131749426
  0.5810170252225433  0.8599988956015849  0.8473453026356950
  0.4550036608795693  0.7581825658550443  0.5933847069576927
 
  0.00000000E+00  0.00000000E+00  0.00000000E+00
  0.00000000E+00  0.00000000E+00  0.00000000E+00
  0.00000000E+00  0.00000000E+00  0.00000000E+00
  0.00000000E+00  0.00000000E+00  0.00000000E+00
  0.00000000E+00  0.00000000E+00  0.00000000E+00
  0.00000000E+00  0.00000000E+00  0.00000000E+00
  0.00000000E+00  0.00000000E+00  0.00000000E+00
  0.00000000E+00  0.00000000E+00  0.00000000E+00
  0.00000000E+00  0.00000000E+00  0.00000000E+00
  0.00000000E+00  0.00000000E+00  0.00000000E+00
  0.00000000E+00  0.00000000E+00  0.00000000E+00
  0.00000000E+00  0.00000000E+00  0.00000000E+00
  0.00000000E+00  0.00000000E+00  0.00000000E+00
  0.00000000E+00  0.00000000E+00  0.00000000E+00
  0.00000000E+00  0.00000000E+00  0.00000000E+00
  0.00000000E+00  0.00000000E+00  0.00000000E+00
  0.00000000E+00  0.00000000E+00  0.00000000E+00
  0.00000000E+00  0.00000000E+00  0.00000000E+00
  0.00000000E+00  0.00000000E+00  0.00000000E+00
  0.00000000E+00  0.00000000E+00  0.00000000E+00
  0.00000000E+00  0.00000000E+00  0.00000000E+00
  0.00000000E+00  0.00000000E+00  0.00000000E+00
  0.00000000E+00  0.00000000E+00  0.00000000E+00
  0.00000000E+00  0.00000000E+00  0.00000000E+00
  0.00000000E+00  0.00000000E+00  0.00000000E+00
  0.00000000E+00  0.00000000E+00  0.00000000E+00
  0.00000000E+00  0.00000000E+00  0.00000000E+00
  0.00000000E+00  0.00000000E+00  0.00000000E+00
  0.00000000E+00  0.00000000E+00  0.00000000E+00
  0.00000000E+00  0.00000000E+00  0.00000000E+00
  0.00000000E+00  0.00000000E+00  0.00000000E+00
  0.00000000E+00  0.00000000E+00  0.00000000E+00
  0.00000000E+00  0.00000000E+00  0.00000000E+00
  0.00000000E+00  0.00000000E+00  0.00000000E+00
  0.00000000E+00  0.00000000E+00  0.00000000E+00
  0.00000000E+00  0.00000000E+00  0.00000000E+00
  0.00000000E+00  0.00000000E+00  0.00000000E+00
  0.00000000E+00  0.00000000E+00  0.00000000E+00
  0.00000000E+00  0.00000000E+00  0.00000000E+00
  0.00000000E+00  0.00000000E+00  0.00000000E+00
  0.00000000E+00  0.00000000E+00  0.00000000E+00
  0.00000000E+00  0.00000000E+00  0.00000000E+00
  0.00000000E+00  0.00000000E+00  0.00000000E+00
  0.00000000E+00  0.00000000E+00  0.00000000E+00
  0.00000000E+00  0.00000000E+00  0.00000000E+00
  0.00000000E+00  0.00000000E+00  0.00000000E+00
  0.00000000E+00  0.00000000E+00  0.00000000E+00
  0.00000000E+00  0.00000000E+00  0.00000000E+00
  0.00000000E+00  0.00000000E+00  0.00000000E+00
  0.00000000E+00  0.00000000E+00  0.00000000E+00
  0.00000000E+00  0.00000000E+00  0.00000000E+00
  0.00000000E+00  0.00000000E+00  0.00000000E+00
  0.00000000E+00  0.00000000E+00  0.00000000E+00
  0.00000000E+00  0.00000000E+00  0.00000000E+00
  0.00000000E+00  0.00000000E+00  0.00000000E+00
  0.00000000E+00  0.00000000E+00  0.00000000E+00
  0.00000000E+00  0.00000000E+00  0.00000000E+00
  0.00000000E+00  0.00000000E+00  0.00000000E+00
  0.00000000E+00  0.00000000E+00  0.00000000E+00
  0.00000000E+00  0.00000000E+00  0.00000000E+00
  0.00000000E+00  0.00000000E+00  0.00000000E+00
  0.00000000E+00  0.00000000E+00  0.00000000E+00
  0.00000000E+00  0.00000000E+00  0.00000000E+00
  0.00000000E+00  0.00000000E+00  0.00000000E+00
  0.00000000E+00  0.00000000E+00  0.00000000E+00
  0.00000000E+00  0.00000000E+00  0.00000000E+00
  0.00000000E+00  0.00000000E+00  0.00000000E+00
  0.00000000E+00  0.00000000E+00  0.00000000E+00
  0.00000000E+00  0.00000000E+00  0.00000000E+00
  0.00000000E+00  0.00000000E+00  0.00000000E+00
  0.00000000E+00  0.00000000E+00  0.00000000E+00
  0.00000000E+00  0.00000000E+00  0.00000000E+00
