Al   B    N                             
   1.00000000000000     
    -9.2899376596346190    0.0131818865978882    0.0045104430102008
    -4.6329621871100981    8.0866897801406203    0.0084456906540156
    -0.0456474924667107   -0.0274796878902872  -10.0510245753169301
   Al   B    N 
    33     3    36
Direct
  0.1150520196755309  0.0882123475478238  0.3174581954085482
  0.2218904741249617  0.2022819044378039  0.0693981474790490
  0.8938526335545731  0.2052232042768267  0.5728684307288674
  0.4436204472905914  0.0968936205457283  0.3187422883626780
  0.5491033514084052  0.2115451413420004  0.0707781160300982
  0.1095060314429190  0.0888651769380999  0.8284098456740878
  0.2229506998735360  0.2031610386503928  0.5712730820570471
  0.7833762535931683  0.0848415587844400  0.3883021474100161
  0.8958682933416711  0.2030780841507109  0.0691725211402883
  0.4540250447606127  0.0957174492388617  0.8244545209356104
  0.5497483007781625  0.2105937321140843  0.5720909362856474
  0.1102067060056839  0.4276516272893076  0.3222720870182627
  0.2244147170674964  0.5403824640542041  0.0720704069043236
  0.7793427377687507  0.4160310033561814  0.8205141799692939
  0.8926145049181002  0.5321526041481803  0.5778366062027587
  0.4441452768243295  0.4281871222879943  0.3231829716105210
  0.5520211867824898  0.5406699455023656  0.0714095724174015
  0.1138858668693672  0.4210527715909649  0.8204832937258217
  0.2164416381741177  0.5458641494153866  0.5760557961443666
  0.7792134586215269  0.4278512472004863  0.3201875579667117
  0.8924016023518391  0.5337960202774070  0.0563526029863368
  0.4497072405853331  0.4255281341809223  0.8214425470769839
  0.5545938888364219  0.5404372287703936  0.5725809385080609
  0.1208582072880588  0.7594711307807529  0.3164591761385367
  0.8723535017282842  0.8830968781785060  0.6588347844746423
  0.4386662764824152  0.7604483811991400  0.3180974449580134
  0.5493720985852661  0.8740320104356201  0.1046414834190941
  0.1106366782595956  0.7611694745395283  0.8422650833644170
  0.2180879183352786  0.8717612860228527  0.5787400348069198
  0.7802380154093740  0.7631703182248870  0.3894678593038989
  0.8920279835102747  0.8764621869937841  0.1306442541676276
  0.4515031612928837  0.7595825702086003  0.8360087134019665
  0.5564785425085361  0.8707578069667292  0.6081477014374741
  0.7739466084129631  0.0944229683694076  0.9083982131978132
  0.2249020924160163  0.8693794861099349  0.0673244376670539
  0.7485888334107358  0.8232123742843669  0.9150915149635850
  0.2226933549476087  0.2029614805763202  0.3805036858240172
  0.1243157948286253  0.0692630717038227  0.1245874962921718
  0.8789574695550328  0.1869796549326281  0.8770251466261527
  0.7807931148314893  0.0878793509150171  0.5807188918766997
  0.5500775520946348  0.2085160731056845  0.3797762546974042
  0.4405242593921272  0.1017525910192845  0.1293259450940880
  0.2303685583877098  0.1968129303116584  0.8811319162488331
  0.1129109389925205  0.0927128934268282  0.6375273344731696
  0.8943670777672210  0.2058192871435480  0.3765844249919397
  0.7785089525987772  0.0905757326280323  0.0716167179811649
  0.5735891040162429  0.2010313539581361  0.8797076984223224
  0.4441482055045540  0.0966293276045036  0.6335615955954452
  0.2194636006124213  0.5430730888762696  0.3834500174103681
  0.1095153910982205  0.4297911228394113  0.1321615164039969
  0.9004365685782716  0.5103697269574354  0.8752832573134981
  0.7756633786560343  0.4253439388923823  0.6309434662200104
  0.5546646078222182  0.5407515250197363  0.3816526580436985
  0.4444530230235273  0.4284767220148922  0.1343236355649537
  0.2249955599385132  0.5331867031526301  0.8843153705496931
  0.1153250072544765  0.4243890624905191  0.6308658447091773
  0.8923740745053692  0.5321261476362480  0.3838479124800642
  0.7775377004049986  0.4297428104909002  0.1305147225426708
  0.5578186261598503  0.5365678314747626  0.8838437239395205
  0.4417413789295352  0.4308478275011822  0.6321103291633747
  0.2215328317402125  0.8714317907410205  0.3891734851695503
  0.1304743874446075  0.7707829036121439  0.1205955628165825
  0.8540122007832736  0.8955994790586175  0.8542674431798574
  0.7801897457175642  0.7652398890786287  0.5821151784050187
  0.5586768705616123  0.8680891562630819  0.3417546621261849
  0.4179749961926120  0.7709690386788708  0.1232674046315410
  0.2259238832601937  0.8707070294589414  0.9052700656603676
  0.1082825851992979  0.7638327910127742  0.6494981355773959
  0.8871234049356786  0.8710141502955793  0.3192392454318522
  0.7794181430919807  0.7711825932228180  0.0614301968247872
  0.5771323719233408  0.8696348298972723  0.8713400710767161
  0.4412626878220038  0.7609764840342237  0.6418348627727966
 
  0.00000000E+00  0.00000000E+00  0.00000000E+00
  0.00000000E+00  0.00000000E+00  0.00000000E+00
  0.00000000E+00  0.00000000E+00  0.00000000E+00
  0.00000000E+00  0.00000000E+00  0.00000000E+00
  0.00000000E+00  0.00000000E+00  0.00000000E+00
  0.00000000E+00  0.00000000E+00  0.00000000E+00
  0.00000000E+00  0.00000000E+00  0.00000000E+00
  0.00000000E+00  0.00000000E+00  0.00000000E+00
  0.00000000E+00  0.00000000E+00  0.00000000E+00
  0.00000000E+00  0.00000000E+00  0.00000000E+00
  0.00000000E+00  0.00000000E+00  0.00000000E+00
  0.00000000E+00  0.00000000E+00  0.00000000E+00
  0.00000000E+00  0.00000000E+00  0.00000000E+00
  0.00000000E+00  0.00000000E+00  0.00000000E+00
  0.00000000E+00  0.00000000E+00  0.00000000E+00
  0.00000000E+00  0.00000000E+00  0.00000000E+00
  0.00000000E+00  0.00000000E+00  0.00000000E+00
  0.00000000E+00  0.00000000E+00  0.00000000E+00
  0.00000000E+00  0.00000000E+00  0.00000000E+00
  0.00000000E+00  0.00000000E+00  0.00000000E+00
  0.00000000E+00  0.00000000E+00  0.00000000E+00
  0.00000000E+00  0.00000000E+00  0.00000000E+00
  0.00000000E+00  0.00000000E+00  0.00000000E+00
  0.00000000E+00  0.00000000E+00  0.00000000E+00
  0.00000000E+00  0.00000000E+00  0.00000000E+00
  0.00000000E+00  0.00000000E+00  0.00000000E+00
  0.00000000E+00  0.00000000E+00  0.00000000E+00
  0.00000000E+00  0.00000000E+00  0.00000000E+00
  0.00000000E+00  0.00000000E+00  0.00000000E+00
  0.00000000E+00  0.00000000E+00  0.00000000E+00
  0.00000000E+00  0.00000000E+00  0.00000000E+00
  0.00000000E+00  0.00000000E+00  0.00000000E+00
  0.00000000E+00  0.00000000E+00  0.00000000E+00
  0.00000000E+00  0.00000000E+00  0.00000000E+00
  0.00000000E+00  0.00000000E+00  0.00000000E+00
  0.00000000E+00  0.00000000E+00  0.00000000E+00
  0.00000000E+00  0.00000000E+00  0.00000000E+00
  0.00000000E+00  0.00000000E+00  0.00000000E+00
  0.00000000E+00  0.00000000E+00  0.00000000E+00
  0.00000000E+00  0.00000000E+00  0.00000000E+00
  0.00000000E+00  0.00000000E+00  0.00000000E+00
  0.00000000E+00  0.00000000E+00  0.00000000E+00
  0.00000000E+00  0.00000000E+00  0.00000000E+00
  0.00000000E+00  0.00000000E+00  0.00000000E+00
  0.00000000E+00  0.00000000E+00  0.00000000E+00
  0.00000000E+00  0.00000000E+00  0.00000000E+00
  0.00000000E+00  0.00000000E+00  0.00000000E+00
  0.00000000E+00  0.00000000E+00  0.00000000E+00
  0.00000000E+00  0.00000000E+00  0.00000000E+00
  0.00000000E+00  0.00000000E+00  0.00000000E+00
  0.00000000E+00  0.00000000E+00  0.00000000E+00
  0.00000000E+00  0.00000000E+00  0.00000000E+00
  0.00000000E+00  0.00000000E+00  0.00000000E+00
  0.00000000E+00  0.00000000E+00  0.00000000E+00
  0.00000000E+00  0.00000000E+00  0.00000000E+00
  0.00000000E+00  0.00000000E+00  0.00000000E+00
  0.00000000E+00  0.00000000E+00  0.00000000E+00
  0.00000000E+00  0.00000000E+00  0.00000000E+00
  0.00000000E+00  0.00000000E+00  0.00000000E+00
  0.00000000E+00  0.00000000E+00  0.00000000E+00
  0.00000000E+00  0.00000000E+00  0.00000000E+00
  0.00000000E+00  0.00000000E+00  0.00000000E+00
  0.00000000E+00  0.00000000E+00  0.00000000E+00
  0.00000000E+00  0.00000000E+00  0.00000000E+00
  0.00000000E+00  0.00000000E+00  0.00000000E+00
  0.00000000E+00  0.00000000E+00  0.00000000E+00
  0.00000000E+00  0.00000000E+00  0.00000000E+00
  0.00000000E+00  0.00000000E+00  0.00000000E+00
  0.00000000E+00  0.00000000E+00  0.00000000E+00
  0.00000000E+00  0.00000000E+00  0.00000000E+00
  0.00000000E+00  0.00000000E+00  0.00000000E+00
  0.00000000E+00  0.00000000E+00  0.00000000E+00
