Al   B    N                             
   1.00000000000000     
    -9.2905809397225045    0.0017827151465351   -0.0080311675662639
    -4.6337965579126319    8.0217966132533203   -0.0029627058278010
     0.0398043120252900   -0.0057945263845309  -10.0879617630054437
   Al   B    N 
    33     3    36
Direct
  0.1129176754519605  0.0894668838691786  0.3160582792611635
  0.2150657556965925  0.2057822918965400  0.0695036529314805
  0.8932325235262581  0.2048154061423588  0.5761358080081536
  0.4526752531544886  0.0875269024631180  0.3902133538876456
  0.5579881966645388  0.2015053771274253  0.1382530058671350
  0.1086659092235038  0.0908891752427152  0.8263737172829195
  0.2187150268508233  0.2047617273582389  0.5730001011944097
  0.7801124408692459  0.0864877284719441  0.3894774531546545
  0.8921144551923206  0.2019216223365063  0.0629883631590147
  0.4591449545941586  0.0895883772538255  0.8915077661805526
  0.5660968132851636  0.1954128542332185  0.6433194856106539
  0.1112631520750611  0.4267904121931068  0.3202918178760399
  0.2246995074294347  0.5417992275615333  0.0705489955482221
  0.7765397748931377  0.4296552085566674  0.8214491992100790
  0.8920248358411982  0.5324686322505556  0.5708210841843524
  0.4421432758062878  0.4323351163448876  0.3243051206834551
  0.5496533806641111  0.5438410055507745  0.0714063030868957
  0.1066743169618078  0.4341809342428675  0.8193774697267102
  0.2203794267838148  0.5420964803341732  0.5745219286853498
  0.7794277625284778  0.4257922736131761  0.3182053928402624
  0.8884219949925765  0.5401499883827867  0.0636906566677808
  0.4480175832981246  0.4290555634143516  0.8245918788225595
  0.5546128753001796  0.5403699510338953  0.5731041910066281
  0.1180026521133044  0.7610441163562172  0.3136085322714095
  0.8800442452597537  0.8747267866804833  0.6541353650553532
  0.4363715195959088  0.7605766933015587  0.3178388498278508
  0.5512098675502486  0.8772262851983825  0.1325687755301885
  0.1098647303154863  0.7642280685435239  0.8395766736033536
  0.2214891633058045  0.8699617748711006  0.5763240409550150
  0.7777158594615159  0.7652663578601775  0.3871137957692099
  0.8872090974839111  0.8774928384886920  0.1230768469711023
  0.4453818936147016  0.7600245874064910  0.8338056101531848
  0.5660060084046066  0.8686227396347874  0.6472713231684537
  0.7673455589877420  0.0908988256424905  0.8994469452176759
  0.2237888154865075  0.8710373834503855  0.0673160474548666
  0.7684598726615164  0.7771545872359980  0.9009500341737962
  0.2194692114825116  0.2042699547260298  0.3789207876432314
  0.1202614549601577  0.0712875065289751  0.1237968575515183
  0.8797759640623752  0.1954437497129007  0.8732770018215206
  0.7805490533486861  0.0857030552807103  0.5781364884474769
  0.5611447115318100  0.1982208636401097  0.3288633952042161
  0.4450288502963815  0.0969387374023682  0.0793441253154370
  0.2166448263661351  0.2094493158640134  0.8781739358134075
  0.1135192364322535  0.0909576862576671  0.6374567898489190
  0.8936937257840327  0.2053988077095283  0.3784732794301959
  0.7677163640014513  0.0946434559246399  0.0589661618542578
  0.5841598034791389  0.1900846616633913  0.8368149558224331
  0.4521476845655030  0.0881957315485380  0.5835084049492849
  0.2198317117423585  0.5420259671113286  0.3831543901233800
  0.1084696032389303  0.4319523104096703  0.1308672064418985
  0.8802399299935786  0.5595132122187607  0.8741323397843388
  0.7769987701716801  0.4276948745007445  0.6331452430833551
  0.5564216959523023  0.5402752182318622  0.3826183337180282
  0.4416700739190560  0.4342538696632730  0.1335438734957890
  0.2255115820471048  0.5355738107467758  0.8841052236508418
  0.1123044642300925  0.4269204648049225  0.6312899873557001
  0.8920658398918704  0.5322403615271440  0.3791536933668027
  0.7779014445820494  0.4284942948084733  0.1277896694723424
  0.5576407756454671  0.5379709473038616  0.8855762468220689
  0.4433959340773299  0.4293509468616605  0.6328404988570355
  0.2211781674999926  0.8714642628684928  0.3875297393788841
  0.1270693637783040  0.7732525851692387  0.1189351256789664
  0.8633475392091938  0.8851948538289491  0.8494281409316429
  0.7784872573482673  0.7652301584033907  0.5771272872999162
  0.5599704470605218  0.8698162291880678  0.3227670445923181
  0.4156762414092015  0.7739063991572337  0.1232945183116101
  0.2244864778330538  0.8734777726605500  0.9052442376250980
  0.1133649640275252  0.7606274074329917  0.6459703921185067
  0.8852494033150649  0.8723512552260999  0.3148731392006354
  0.7689128309650002  0.7737386752231146  0.0605178261667092
  0.5839203663946719  0.8611638995644952  0.8405173195160245
  0.4411065493048127  0.7600357293533762  0.6409202416269153
 
  0.00000000E+00  0.00000000E+00  0.00000000E+00
  0.00000000E+00  0.00000000E+00  0.00000000E+00
  0.00000000E+00  0.00000000E+00  0.00000000E+00
  0.00000000E+00  0.00000000E+00  0.00000000E+00
  0.00000000E+00  0.00000000E+00  0.00000000E+00
  0.00000000E+00  0.00000000E+00  0.00000000E+00
  0.00000000E+00  0.00000000E+00  0.00000000E+00
  0.00000000E+00  0.00000000E+00  0.00000000E+00
  0.00000000E+00  0.00000000E+00  0.00000000E+00
  0.00000000E+00  0.00000000E+00  0.00000000E+00
  0.00000000E+00  0.00000000E+00  0.00000000E+00
  0.00000000E+00  0.00000000E+00  0.00000000E+00
  0.00000000E+00  0.00000000E+00  0.00000000E+00
  0.00000000E+00  0.00000000E+00  0.00000000E+00
  0.00000000E+00  0.00000000E+00  0.00000000E+00
  0.00000000E+00  0.00000000E+00  0.00000000E+00
  0.00000000E+00  0.00000000E+00  0.00000000E+00
  0.00000000E+00  0.00000000E+00  0.00000000E+00
  0.00000000E+00  0.00000000E+00  0.00000000E+00
  0.00000000E+00  0.00000000E+00  0.00000000E+00
  0.00000000E+00  0.00000000E+00  0.00000000E+00
  0.00000000E+00  0.00000000E+00  0.00000000E+00
  0.00000000E+00  0.00000000E+00  0.00000000E+00
  0.00000000E+00  0.00000000E+00  0.00000000E+00
  0.00000000E+00  0.00000000E+00  0.00000000E+00
  0.00000000E+00  0.00000000E+00  0.00000000E+00
  0.00000000E+00  0.00000000E+00  0.00000000E+00
  0.00000000E+00  0.00000000E+00  0.00000000E+00
  0.00000000E+00  0.00000000E+00  0.00000000E+00
  0.00000000E+00  0.00000000E+00  0.00000000E+00
  0.00000000E+00  0.00000000E+00  0.00000000E+00
  0.00000000E+00  0.00000000E+00  0.00000000E+00
  0.00000000E+00  0.00000000E+00  0.00000000E+00
  0.00000000E+00  0.00000000E+00  0.00000000E+00
  0.00000000E+00  0.00000000E+00  0.00000000E+00
  0.00000000E+00  0.00000000E+00  0.00000000E+00
  0.00000000E+00  0.00000000E+00  0.00000000E+00
  0.00000000E+00  0.00000000E+00  0.00000000E+00
  0.00000000E+00  0.00000000E+00  0.00000000E+00
  0.00000000E+00  0.00000000E+00  0.00000000E+00
  0.00000000E+00  0.00000000E+00  0.00000000E+00
  0.00000000E+00  0.00000000E+00  0.00000000E+00
  0.00000000E+00  0.00000000E+00  0.00000000E+00
  0.00000000E+00  0.00000000E+00  0.00000000E+00
  0.00000000E+00  0.00000000E+00  0.00000000E+00
  0.00000000E+00  0.00000000E+00  0.00000000E+00
  0.00000000E+00  0.00000000E+00  0.00000000E+00
  0.00000000E+00  0.00000000E+00  0.00000000E+00
  0.00000000E+00  0.00000000E+00  0.00000000E+00
  0.00000000E+00  0.00000000E+00  0.00000000E+00
  0.00000000E+00  0.00000000E+00  0.00000000E+00
  0.00000000E+00  0.00000000E+00  0.00000000E+00
  0.00000000E+00  0.00000000E+00  0.00000000E+00
  0.00000000E+00  0.00000000E+00  0.00000000E+00
  0.00000000E+00  0.00000000E+00  0.00000000E+00
  0.00000000E+00  0.00000000E+00  0.00000000E+00
  0.00000000E+00  0.00000000E+00  0.00000000E+00
  0.00000000E+00  0.00000000E+00  0.00000000E+00
  0.00000000E+00  0.00000000E+00  0.00000000E+00
  0.00000000E+00  0.00000000E+00  0.00000000E+00
  0.00000000E+00  0.00000000E+00  0.00000000E+00
  0.00000000E+00  0.00000000E+00  0.00000000E+00
  0.00000000E+00  0.00000000E+00  0.00000000E+00
  0.00000000E+00  0.00000000E+00  0.00000000E+00
  0.00000000E+00  0.00000000E+00  0.00000000E+00
  0.00000000E+00  0.00000000E+00  0.00000000E+00
  0.00000000E+00  0.00000000E+00  0.00000000E+00
  0.00000000E+00  0.00000000E+00  0.00000000E+00
  0.00000000E+00  0.00000000E+00  0.00000000E+00
  0.00000000E+00  0.00000000E+00  0.00000000E+00
  0.00000000E+00  0.00000000E+00  0.00000000E+00
  0.00000000E+00  0.00000000E+00  0.00000000E+00
