Al   B    N                             
   1.00000000000000     
    -9.2989256494035359    0.0086913039049309   -0.0004301914593156
    -4.6564445517248254    8.0995590088441656    0.0039514738581485
     0.0005246925925746   -0.0173576053275615  -10.0424797135411872
   Al   B    N 
    33     3    36
Direct
  0.1142000643625138  0.0881059612519905  0.3169350120034551
  0.2186519698553084  0.2032510152051685  0.0686381066649631
  0.8959339989280437  0.2053892142338611  0.5705710641889112
  0.4420033118046760  0.0950194459518059  0.3187015080037128
  0.5552874397748724  0.2088767742622935  0.1178078056186180
  0.1078006121316761  0.0892960610895983  0.8268980980654561
  0.2271940998042510  0.2010267066647344  0.5715538753337484
  0.7794301369757264  0.0868366146545370  0.3874055345976117
  0.8941107472138015  0.2034823205456107  0.0671552927420862
  0.4500401737555890  0.0984756570739265  0.8332308308587244
  0.5630120517172941  0.2049381040616893  0.6242523995767897
  0.1097523804627301  0.4280335821322154  0.3219944809204307
  0.2219114386338461  0.5416724786919289  0.0712166281204674
  0.7791480149819208  0.4164535159991303  0.8196327564914228
  0.8936395315030055  0.5315150431735773  0.5765342647564466
  0.4424244560410031  0.4321690126347519  0.3244405387728690
  0.5508892070991678  0.5424155250419176  0.0713124478750089
  0.1124914901807443  0.4218803358601164  0.8193335174666458
  0.2181257967350518  0.5443507488943666  0.5756284748417499
  0.7793587126720993  0.4275977336421022  0.3201166373079189
  0.8898421706216695  0.5356994257626440  0.0549122925382477
  0.4473567419712055  0.4296137163006932  0.8260159297511578
  0.5548114709529344  0.5423091320096276  0.5733410245883235
  0.1186676643827695  0.7604166581700724  0.3157626139603877
  0.8777566720234091  0.8793072157719664  0.6549516899074206
  0.4372127245029347  0.7591223661599145  0.3178948824744197
  0.5531762286897361  0.8701401544174274  0.1264022700912761
  0.1088036603233391  0.7618722810347620  0.8415234389263446
  0.2217096814241515  0.8711136383880458  0.5785784570290531
  0.7773126285610417  0.7645415788633727  0.3900500119598576
  0.8892703740448482  0.8773817253998288  0.1274415483268072
  0.4473657515612359  0.7582840858208186  0.8382739388872551
  0.5687027624361534  0.8649320604431736  0.6474938818898863
  0.7678447093449918  0.0994374015887161  0.9043650624903776
  0.2231918904094172  0.8700311669873599  0.0667163944133478
  0.7486346069725798  0.8222216944465544  0.9089031912534580
  0.2233959973646762  0.2022446600074019  0.3801133704219026
  0.1217042802007597  0.0699934836816070  0.1242489311522448
  0.8783236666575434  0.1881909907091668  0.8755050709061436
  0.7825774913980439  0.0868313595890058  0.5780005307313587
  0.5590430972631069  0.2044800477315505  0.3401298805068009
  0.4373214754834578  0.0991218686672042  0.1222239751496090
  0.2259989781405594  0.1985677466157298  0.8810346378255858
  0.1141587009364002  0.0922728455905713  0.6362865917409195
  0.8943045197085979  0.2055334170890646  0.3762073686783580
  0.7736959634340650  0.0926368605851877  0.0655644071452599
  0.5809446293844829  0.1985884687901915  0.8545094012599108
  0.4449393465445297  0.0947153277487942  0.6356628244825799
  0.2190357807856600  0.5433571541195121  0.3833658292486035
  0.1074219617645866  0.4312112431517292  0.1316448034377373
  0.8991797248131874  0.5120652045059657  0.8737689486778564
  0.7766742650865481  0.4247399089407935  0.6300458569717193
  0.5549807152291706  0.5415145591995625  0.3825205720985778
  0.4398353826813235  0.4361073562908970  0.1327291139019948
  0.2228948775174189  0.5342760758873126  0.8837227375029357
  0.1165773737936604  0.4234712253480524  0.6298883950818990
  0.8920329943133325  0.5325429796018497  0.3832205499136805
  0.7766660718741747  0.4301247433186290  0.1300876152476818
  0.5586057501718784  0.5368221472284560  0.8848105058175904
  0.4418872871000303  0.4336105345180101  0.6330030935765691
  0.2216486567442004  0.8712159448980685  0.3884622090802310
  0.1274181724098611  0.7722223881108405  0.1195318165230006
  0.8562489455525792  0.8925305076673240  0.8509979427228984
  0.7801286746118450  0.7651810089946451  0.5804941894454032
  0.5632819791051631  0.8634149194053862  0.3224385655411623
  0.4157451411538915  0.7718029095405612  0.1210805927288803
  0.2232361636453319  0.8718311313508522  0.9049291810016058
  0.1113530940274714  0.7627668567033297  0.6478301249021285
  0.8853835281133300  0.8713588095645051  0.3178794091098140
  0.7723418043948911  0.7749753754067896  0.0558430881918710
  0.5842442471502736  0.8640285836908959  0.8474662056588969
  0.4425503598922305  0.7605012726458469  0.6436037564332651
 
  0.00000000E+00  0.00000000E+00  0.00000000E+00
  0.00000000E+00  0.00000000E+00  0.00000000E+00
  0.00000000E+00  0.00000000E+00  0.00000000E+00
  0.00000000E+00  0.00000000E+00  0.00000000E+00
  0.00000000E+00  0.00000000E+00  0.00000000E+00
  0.00000000E+00  0.00000000E+00  0.00000000E+00
  0.00000000E+00  0.00000000E+00  0.00000000E+00
  0.00000000E+00  0.00000000E+00  0.00000000E+00
  0.00000000E+00  0.00000000E+00  0.00000000E+00
  0.00000000E+00  0.00000000E+00  0.00000000E+00
  0.00000000E+00  0.00000000E+00  0.00000000E+00
  0.00000000E+00  0.00000000E+00  0.00000000E+00
  0.00000000E+00  0.00000000E+00  0.00000000E+00
  0.00000000E+00  0.00000000E+00  0.00000000E+00
  0.00000000E+00  0.00000000E+00  0.00000000E+00
  0.00000000E+00  0.00000000E+00  0.00000000E+00
  0.00000000E+00  0.00000000E+00  0.00000000E+00
  0.00000000E+00  0.00000000E+00  0.00000000E+00
  0.00000000E+00  0.00000000E+00  0.00000000E+00
  0.00000000E+00  0.00000000E+00  0.00000000E+00
  0.00000000E+00  0.00000000E+00  0.00000000E+00
  0.00000000E+00  0.00000000E+00  0.00000000E+00
  0.00000000E+00  0.00000000E+00  0.00000000E+00
  0.00000000E+00  0.00000000E+00  0.00000000E+00
  0.00000000E+00  0.00000000E+00  0.00000000E+00
  0.00000000E+00  0.00000000E+00  0.00000000E+00
  0.00000000E+00  0.00000000E+00  0.00000000E+00
  0.00000000E+00  0.00000000E+00  0.00000000E+00
  0.00000000E+00  0.00000000E+00  0.00000000E+00
  0.00000000E+00  0.00000000E+00  0.00000000E+00
  0.00000000E+00  0.00000000E+00  0.00000000E+00
  0.00000000E+00  0.00000000E+00  0.00000000E+00
  0.00000000E+00  0.00000000E+00  0.00000000E+00
  0.00000000E+00  0.00000000E+00  0.00000000E+00
  0.00000000E+00  0.00000000E+00  0.00000000E+00
  0.00000000E+00  0.00000000E+00  0.00000000E+00
  0.00000000E+00  0.00000000E+00  0.00000000E+00
  0.00000000E+00  0.00000000E+00  0.00000000E+00
  0.00000000E+00  0.00000000E+00  0.00000000E+00
  0.00000000E+00  0.00000000E+00  0.00000000E+00
  0.00000000E+00  0.00000000E+00  0.00000000E+00
  0.00000000E+00  0.00000000E+00  0.00000000E+00
  0.00000000E+00  0.00000000E+00  0.00000000E+00
  0.00000000E+00  0.00000000E+00  0.00000000E+00
  0.00000000E+00  0.00000000E+00  0.00000000E+00
  0.00000000E+00  0.00000000E+00  0.00000000E+00
  0.00000000E+00  0.00000000E+00  0.00000000E+00
  0.00000000E+00  0.00000000E+00  0.00000000E+00
  0.00000000E+00  0.00000000E+00  0.00000000E+00
  0.00000000E+00  0.00000000E+00  0.00000000E+00
  0.00000000E+00  0.00000000E+00  0.00000000E+00
  0.00000000E+00  0.00000000E+00  0.00000000E+00
  0.00000000E+00  0.00000000E+00  0.00000000E+00
  0.00000000E+00  0.00000000E+00  0.00000000E+00
  0.00000000E+00  0.00000000E+00  0.00000000E+00
  0.00000000E+00  0.00000000E+00  0.00000000E+00
  0.00000000E+00  0.00000000E+00  0.00000000E+00
  0.00000000E+00  0.00000000E+00  0.00000000E+00
  0.00000000E+00  0.00000000E+00  0.00000000E+00
  0.00000000E+00  0.00000000E+00  0.00000000E+00
  0.00000000E+00  0.00000000E+00  0.00000000E+00
  0.00000000E+00  0.00000000E+00  0.00000000E+00
  0.00000000E+00  0.00000000E+00  0.00000000E+00
  0.00000000E+00  0.00000000E+00  0.00000000E+00
  0.00000000E+00  0.00000000E+00  0.00000000E+00
  0.00000000E+00  0.00000000E+00  0.00000000E+00
  0.00000000E+00  0.00000000E+00  0.00000000E+00
  0.00000000E+00  0.00000000E+00  0.00000000E+00
  0.00000000E+00  0.00000000E+00  0.00000000E+00
  0.00000000E+00  0.00000000E+00  0.00000000E+00
  0.00000000E+00  0.00000000E+00  0.00000000E+00
  0.00000000E+00  0.00000000E+00  0.00000000E+00
