supercell of icsd_191774.cif            
   1.00000000000000     
    10.6856106071187735    0.0008704272058918    0.0007275299994876
    -5.3420515799906934    9.2527101142695827   -0.0000028929973641
     0.0007913908282857    0.0004534070178437   11.3527850230311440
   N    In   Y 
    36    34     2
Direct
  0.2223717317533769  0.1113768465456317  0.4400288116864104
  0.1116582036537679  0.2224953156717930  0.1899301362562937
  0.8884061592105894  0.1108688856457221  0.9406675449736852
  0.7790544972363946  0.2226202526669283  0.6889063471118035
  0.5555689600519287  0.1115353469786342  0.4426690614602222
  0.4405002010794234  0.2138373061563215  0.1886252210335115
  0.2212998840787890  0.1102957405517557  0.9396111772420213
  0.1107825412203098  0.2220585101388082  0.6897867914637033
  0.8891737007810434  0.1112545589209688  0.4391357971243366
  0.7773398266483440  0.2224300091472102  0.1908702669931941
  0.5601886287462960  0.1186185567735762  0.9376001325147456
  0.4437003510266635  0.2225169867665002  0.6913687373244883
  0.2223724278772536  0.4443282443314374  0.4400291848561011
  0.1113190287547496  0.5560095330573276  0.1903676097705329
  0.8893648658838273  0.4439015715063661  0.9391940359012665
  0.7780122054252558  0.5556728039714258  0.6922269494764208
  0.5558612856495131  0.4445986323986801  0.4431114565817680
  0.4404997007889122  0.5599961450178554  0.1886231346049527
  0.2212969881488149  0.4443367743839701  0.9396112259920315
  0.1106356620391580  0.5546448412488019  0.6890234803642059
  0.8886710847378865  0.4447375139303631  0.4402114392341900
  0.7860409716404249  0.5596870407199575  0.1877762276883956
  0.5557090300981642  0.4445212174848976  0.9437259863125931
  0.4436993095521586  0.5545167147644179  0.6913711031508143
  0.2219302180994589  0.7776321236433930  0.4416718540378426
  0.1113204290719167  0.8886425020380315  0.1903653788444757
  0.8893646494763203  0.7787950081303308  0.9391938979888153
  0.7790546841864057  0.8897683981292417  0.6889043556647110
  0.5555701560446167  0.7773667525613632  0.4426691386220014
  0.4444646753986774  0.8888981394862441  0.1941598998703995
  0.2140675712443993  0.7737004018703502  0.9384002430388279
  0.1106352716485475  0.8893256045409075  0.6890251467933837
  0.8886728101272254  0.7772677549175597  0.4402101672556782
  0.7773406090401807  0.8882428289126096  0.1908706410498979
  0.5601886159477161  0.7749025623815342  0.9376005600492263
  0.4441349712882214  0.8887336167133810  0.6933970282029094
  0.2209298039046601  0.1090446712013247  0.2491390729634944
  0.1109335066419490  0.2221335078613365  0.4990234273082450
  0.8889082019856929  0.1111209635059680  0.7496106717027402
  0.7790041495675482  0.2243140049813803  0.9997082345420694
  0.5548384797649462  0.1092476791677015  0.2518702332114984
  0.4439347425565359  0.2225414021405641  0.5012805560419551
  0.2213427026327537  0.1107328758723014  0.7492120655854961
  0.1110733853778996  0.2222031411500964  0.9991623130935707
  0.8890864737482573  0.1112100711989967  0.2486469375878215
  0.7787019065845797  0.2225399775043115  0.4987786877114928
  0.5576831522112187  0.1141029710297587  0.7476067162520934
  0.4435376384529519  0.2208761805688439  0.9979108007018382
  0.2209300270385128  0.4452167840989461  0.2491391573458586
  0.1108338743120711  0.5549505624838531  0.4990696603849685
  0.8892635743255042  0.4439615806243609  0.7491384075236169
  0.7812849656769671  0.5573084091221503  0.9974091525043107
  0.4439344289988227  0.5547282891376994  0.5012835568074081
  0.2213400161934516  0.4439440952421307  0.7492121178289253
  0.1089406840156144  0.5542821809680447  0.9995561540686708
  0.8909419191997685  0.4455198770434876  0.2494933916612254
  0.7778630915813736  0.5555993257729952  0.5016071687257480
  0.5555301969237405  0.4444320699088564  0.7510822673054349
  0.4435351199192894  0.5559934846584085  0.9979080569881233
  0.2221222224071298  0.7777272992061341  0.2511899563201823
  0.1108338455927651  0.8892174193580615  0.4990722608249243
  0.8892613562693512  0.7786344479445262  0.7491382023869875
  0.7790040043134070  0.8880211935654216  0.9997085864462107
  0.5548391581123369  0.7789226075842990  0.2518704619484566
  0.4441771021483163  0.8887546067930998  0.5009518866818325
  0.2187490878725882  0.7760420040376346  0.7479608995288345
  0.1089413805803474  0.8879938138871353  0.9995539719541284
  0.8909448007638900  0.7787557650031687  0.2494919663569135
  0.7787044793651887  0.8894972565689585  0.4987758643662801
  0.5576849029493758  0.7769136222746766  0.7476074820751393
  0.5557375073409077  0.4445361417869762  0.2449578469198030
  0.4443562030135908  0.8888446746421081  0.9957316358078216
 
  0.00000000E+00  0.00000000E+00  0.00000000E+00
  0.00000000E+00  0.00000000E+00  0.00000000E+00
  0.00000000E+00  0.00000000E+00  0.00000000E+00
  0.00000000E+00  0.00000000E+00  0.00000000E+00
  0.00000000E+00  0.00000000E+00  0.00000000E+00
  0.00000000E+00  0.00000000E+00  0.00000000E+00
  0.00000000E+00  0.00000000E+00  0.00000000E+00
  0.00000000E+00  0.00000000E+00  0.00000000E+00
  0.00000000E+00  0.00000000E+00  0.00000000E+00
  0.00000000E+00  0.00000000E+00  0.00000000E+00
  0.00000000E+00  0.00000000E+00  0.00000000E+00
  0.00000000E+00  0.00000000E+00  0.00000000E+00
  0.00000000E+00  0.00000000E+00  0.00000000E+00
  0.00000000E+00  0.00000000E+00  0.00000000E+00
  0.00000000E+00  0.00000000E+00  0.00000000E+00
  0.00000000E+00  0.00000000E+00  0.00000000E+00
  0.00000000E+00  0.00000000E+00  0.00000000E+00
  0.00000000E+00  0.00000000E+00  0.00000000E+00
  0.00000000E+00  0.00000000E+00  0.00000000E+00
  0.00000000E+00  0.00000000E+00  0.00000000E+00
  0.00000000E+00  0.00000000E+00  0.00000000E+00
  0.00000000E+00  0.00000000E+00  0.00000000E+00
  0.00000000E+00  0.00000000E+00  0.00000000E+00
  0.00000000E+00  0.00000000E+00  0.00000000E+00
  0.00000000E+00  0.00000000E+00  0.00000000E+00
  0.00000000E+00  0.00000000E+00  0.00000000E+00
  0.00000000E+00  0.00000000E+00  0.00000000E+00
  0.00000000E+00  0.00000000E+00  0.00000000E+00
  0.00000000E+00  0.00000000E+00  0.00000000E+00
  0.00000000E+00  0.00000000E+00  0.00000000E+00
  0.00000000E+00  0.00000000E+00  0.00000000E+00
  0.00000000E+00  0.00000000E+00  0.00000000E+00
  0.00000000E+00  0.00000000E+00  0.00000000E+00
  0.00000000E+00  0.00000000E+00  0.00000000E+00
  0.00000000E+00  0.00000000E+00  0.00000000E+00
  0.00000000E+00  0.00000000E+00  0.00000000E+00
  0.00000000E+00  0.00000000E+00  0.00000000E+00
  0.00000000E+00  0.00000000E+00  0.00000000E+00
  0.00000000E+00  0.00000000E+00  0.00000000E+00
  0.00000000E+00  0.00000000E+00  0.00000000E+00
  0.00000000E+00  0.00000000E+00  0.00000000E+00
  0.00000000E+00  0.00000000E+00  0.00000000E+00
  0.00000000E+00  0.00000000E+00  0.00000000E+00
  0.00000000E+00  0.00000000E+00  0.00000000E+00
  0.00000000E+00  0.00000000E+00  0.00000000E+00
  0.00000000E+00  0.00000000E+00  0.00000000E+00
  0.00000000E+00  0.00000000E+00  0.00000000E+00
  0.00000000E+00  0.00000000E+00  0.00000000E+00
  0.00000000E+00  0.00000000E+00  0.00000000E+00
  0.00000000E+00  0.00000000E+00  0.00000000E+00
  0.00000000E+00  0.00000000E+00  0.00000000E+00
  0.00000000E+00  0.00000000E+00  0.00000000E+00
  0.00000000E+00  0.00000000E+00  0.00000000E+00
  0.00000000E+00  0.00000000E+00  0.00000000E+00
  0.00000000E+00  0.00000000E+00  0.00000000E+00
  0.00000000E+00  0.00000000E+00  0.00000000E+00
  0.00000000E+00  0.00000000E+00  0.00000000E+00
  0.00000000E+00  0.00000000E+00  0.00000000E+00
  0.00000000E+00  0.00000000E+00  0.00000000E+00
  0.00000000E+00  0.00000000E+00  0.00000000E+00
  0.00000000E+00  0.00000000E+00  0.00000000E+00
  0.00000000E+00  0.00000000E+00  0.00000000E+00
  0.00000000E+00  0.00000000E+00  0.00000000E+00
  0.00000000E+00  0.00000000E+00  0.00000000E+00
  0.00000000E+00  0.00000000E+00  0.00000000E+00
  0.00000000E+00  0.00000000E+00  0.00000000E+00
  0.00000000E+00  0.00000000E+00  0.00000000E+00
  0.00000000E+00  0.00000000E+00  0.00000000E+00
  0.00000000E+00  0.00000000E+00  0.00000000E+00
  0.00000000E+00  0.00000000E+00  0.00000000E+00
  0.00000000E+00  0.00000000E+00  0.00000000E+00
  0.00000000E+00  0.00000000E+00  0.00000000E+00
