B    Al   N                             
   1.00000000000000     
    -9.1591565523929841   -0.0021811813503482   -0.0001441605000962
    -4.5774720661667869    8.0122959997749721   -0.0085382258246199
     0.0018741540572270    0.0142810067718978   -9.7860939157445301
   B    Al   N 
     5    31    36
Direct
  0.1162084708262299  0.0879201620199126  0.3012228781269002
  0.5808646765686660  0.4891486964320251  0.0433883459082551
  0.2287431901267780  0.8793472599147805  0.0606022836046378
  0.5341446468813800  0.8841845166599711  0.0578351662369698
  0.7680575510291945  0.7642736309101963  0.3005171833792630
  0.2230643743151006  0.1996210223559984  0.0651771678834550
  0.7815192358174983  0.0906093382264856  0.8069080773967912
  0.8956110244359579  0.2023049032635313  0.5530376565083444
  0.4494448663791886  0.0828068793259291  0.3042122717400417
  0.5609850518517163  0.1964920403748138  0.0558781676123559
  0.1137066557223321  0.0922247765216540  0.8149997162224238
  0.2201741787798710  0.2016051700295094  0.5529680906084593
  0.7816573927669026  0.0877225568933611  0.3089377324320353
  0.8941822684702387  0.1970931092624610  0.0642369364152700
  0.4439956488214776  0.0899684127732669  0.8128901712103698
  0.5547260070094069  0.2047633665443982  0.5576603180277004
  0.1053764293982056  0.4309343024812620  0.3066967463783641
  0.2291408711778118  0.5469640845868824  0.0571405696933809
  0.7813001523786056  0.4242963473649937  0.8111498613161601
  0.8841213494287672  0.5448485741694427  0.5531337512114973
  0.4483601264003454  0.4303390527246407  0.3036732998748093
  0.1096737735648858  0.4283297339541150  0.8092093682666217
  0.2230387757025198  0.5402775567858171  0.5575148296404677
  0.7733384691469425  0.4320925005137397  0.3047664744974128
  0.8735887282147630  0.5491681293316546  0.0639635389670588
  0.4456863712700923  0.4248325769114984  0.8104826263381923
  0.5530520285340046  0.5436949823242543  0.5596803052001675
  0.1113883119546983  0.7684573521473510  0.3050979471927278
  0.7747184829875380  0.7626936842139287  0.8167773806420229
  0.8877194339480283  0.8671666739669917  0.5534293741570764
  0.4436930824114782  0.7702471440322967  0.2930257715550653
  0.1120036454950650  0.7653634531217008  0.8149389972333410
  0.2243543497263474  0.8757851446852953  0.5587006755130588
  0.8894129406912512  0.8693619059513296  0.0667939394058550
  0.4457499766529125  0.7583814720711146  0.8394017240387797
  0.5585161324890819  0.8666896565172308  0.5582366806510493
  0.2113848485887360  0.1925168622398488  0.3552826777579341
  0.1185682241936306  0.0778345770944924  0.1319121161780856
  0.8906839730114768  0.2031773332948390  0.8711809296426907
  0.7811015582522316  0.0912261203329834  0.6112392119529630
  0.5528430075901980  0.2072568577587575  0.3634808763419102
  0.4544024961275142  0.0757457133126778  0.1110110080065922
  0.2210296641795040  0.2073535365189869  0.8718878835375108
  0.1123941412862592  0.0926268192901460  0.6240999308340420
  0.9129876319841586  0.1952110720373028  0.3560802955662865
  0.7789654046298295  0.0909231324864308  0.1190931632304313
  0.5576058306587868  0.2021303450524954  0.8643168647767396
  0.4440491682645700  0.0903218355538939  0.6167236790251067
  0.2238860681983255  0.5407585582765577  0.3625951770155780
  0.1104136957985702  0.4321675464032424  0.1151143776028789
  0.8868460849355486  0.5403558588301181  0.8715406723656116
  0.7785804176872304  0.4258061217554641  0.6157942797754075
  0.5500456647705363  0.5484152923065011  0.3668282315948304
  0.4645510336207224  0.4311304328016732  0.1070796952396975
  0.2226828737778064  0.5404841820115180  0.8656711564888226
  0.1101391597443353  0.4263831166673171  0.6116926525225779
  0.8730211476274974  0.5637019364784095  0.3554028155697111
  0.7526143449861564  0.4329167109011038  0.1095294419248347
  0.5618393913785482  0.5271228675489468  0.8903280042610504
  0.4465146593483880  0.4268454728066615  0.6185100800117098
  0.2127682599941281  0.8984625727523934  0.3637870238065801
  0.1300073114263256  0.7737236318192373  0.1131163931483954
  0.8890728510770671  0.8711302755330195  0.8731156939663407
  0.7768636234989330  0.7605461296531004  0.6248734935966240
  0.5798688516162045  0.8580801986090805  0.3638198903079370
  0.4229189572217606  0.8033020961162549  0.1041311853104929
  0.2191863532394080  0.8778865479087159  0.8941041799959777
  0.1118231870794517  0.7632550893115848  0.6176478730746737
  0.8784311388752784  0.8568286216963017  0.3566473063440156
  0.7542376217779392  0.7714244016403242  0.1335454799823097
  0.5567647240329734  0.8737756074653831  0.8943024553045475
  0.4448570725313274  0.7600874219895104  0.6345539527193935
 
  0.00000000E+00  0.00000000E+00  0.00000000E+00
  0.00000000E+00  0.00000000E+00  0.00000000E+00
  0.00000000E+00  0.00000000E+00  0.00000000E+00
  0.00000000E+00  0.00000000E+00  0.00000000E+00
  0.00000000E+00  0.00000000E+00  0.00000000E+00
  0.00000000E+00  0.00000000E+00  0.00000000E+00
  0.00000000E+00  0.00000000E+00  0.00000000E+00
  0.00000000E+00  0.00000000E+00  0.00000000E+00
  0.00000000E+00  0.00000000E+00  0.00000000E+00
  0.00000000E+00  0.00000000E+00  0.00000000E+00
  0.00000000E+00  0.00000000E+00  0.00000000E+00
  0.00000000E+00  0.00000000E+00  0.00000000E+00
  0.00000000E+00  0.00000000E+00  0.00000000E+00
  0.00000000E+00  0.00000000E+00  0.00000000E+00
  0.00000000E+00  0.00000000E+00  0.00000000E+00
  0.00000000E+00  0.00000000E+00  0.00000000E+00
  0.00000000E+00  0.00000000E+00  0.00000000E+00
  0.00000000E+00  0.00000000E+00  0.00000000E+00
  0.00000000E+00  0.00000000E+00  0.00000000E+00
  0.00000000E+00  0.00000000E+00  0.00000000E+00
  0.00000000E+00  0.00000000E+00  0.00000000E+00
  0.00000000E+00  0.00000000E+00  0.00000000E+00
  0.00000000E+00  0.00000000E+00  0.00000000E+00
  0.00000000E+00  0.00000000E+00  0.00000000E+00
  0.00000000E+00  0.00000000E+00  0.00000000E+00
  0.00000000E+00  0.00000000E+00  0.00000000E+00
  0.00000000E+00  0.00000000E+00  0.00000000E+00
  0.00000000E+00  0.00000000E+00  0.00000000E+00
  0.00000000E+00  0.00000000E+00  0.00000000E+00
  0.00000000E+00  0.00000000E+00  0.00000000E+00
  0.00000000E+00  0.00000000E+00  0.00000000E+00
  0.00000000E+00  0.00000000E+00  0.00000000E+00
  0.00000000E+00  0.00000000E+00  0.00000000E+00
  0.00000000E+00  0.00000000E+00  0.00000000E+00
  0.00000000E+00  0.00000000E+00  0.00000000E+00
  0.00000000E+00  0.00000000E+00  0.00000000E+00
  0.00000000E+00  0.00000000E+00  0.00000000E+00
  0.00000000E+00  0.00000000E+00  0.00000000E+00
  0.00000000E+00  0.00000000E+00  0.00000000E+00
  0.00000000E+00  0.00000000E+00  0.00000000E+00
  0.00000000E+00  0.00000000E+00  0.00000000E+00
  0.00000000E+00  0.00000000E+00  0.00000000E+00
  0.00000000E+00  0.00000000E+00  0.00000000E+00
  0.00000000E+00  0.00000000E+00  0.00000000E+00
  0.00000000E+00  0.00000000E+00  0.00000000E+00
  0.00000000E+00  0.00000000E+00  0.00000000E+00
  0.00000000E+00  0.00000000E+00  0.00000000E+00
  0.00000000E+00  0.00000000E+00  0.00000000E+00
  0.00000000E+00  0.00000000E+00  0.00000000E+00
  0.00000000E+00  0.00000000E+00  0.00000000E+00
  0.00000000E+00  0.00000000E+00  0.00000000E+00
  0.00000000E+00  0.00000000E+00  0.00000000E+00
  0.00000000E+00  0.00000000E+00  0.00000000E+00
  0.00000000E+00  0.00000000E+00  0.00000000E+00
  0.00000000E+00  0.00000000E+00  0.00000000E+00
  0.00000000E+00  0.00000000E+00  0.00000000E+00
  0.00000000E+00  0.00000000E+00  0.00000000E+00
  0.00000000E+00  0.00000000E+00  0.00000000E+00
  0.00000000E+00  0.00000000E+00  0.00000000E+00
  0.00000000E+00  0.00000000E+00  0.00000000E+00
  0.00000000E+00  0.00000000E+00  0.00000000E+00
  0.00000000E+00  0.00000000E+00  0.00000000E+00
  0.00000000E+00  0.00000000E+00  0.00000000E+00
  0.00000000E+00  0.00000000E+00  0.00000000E+00
  0.00000000E+00  0.00000000E+00  0.00000000E+00
  0.00000000E+00  0.00000000E+00  0.00000000E+00
  0.00000000E+00  0.00000000E+00  0.00000000E+00
  0.00000000E+00  0.00000000E+00  0.00000000E+00
  0.00000000E+00  0.00000000E+00  0.00000000E+00
  0.00000000E+00  0.00000000E+00  0.00000000E+00
  0.00000000E+00  0.00000000E+00  0.00000000E+00
  0.00000000E+00  0.00000000E+00  0.00000000E+00
