B    Al   N                             
   1.00000000000000     
    -9.2390176480382618    0.0020994524028758    0.0111124019772569
    -4.6853280404562652    8.0867334941804376    0.0242069432869425
    -0.0373412284400975   -0.0510172775821399   -9.8015844509074928
   B    Al   N 
     5    31    36
Direct
  0.1117201235925265  0.0981465843140086  0.4019619186891603
  0.5858817823606088  0.4758923649512710  0.1694105803717889
  0.2474583927426863  0.9158534199961110  0.1719671456585203
  0.5561486127608291  0.8738751073253539  0.1634213496194761
  0.7794426661699703  0.7568917989689652  0.4004162955604826
  0.2233763221278622  0.2024462262508422  0.1517904649079966
  0.7762559035131247  0.0919704949396589  0.8312955285785009
  0.8963593668893495  0.2062635108701869  0.6420288240816987
  0.4518726530749291  0.0854374540828360  0.3448114013417580
  0.5666605923837409  0.1898390917476931  0.0872387133103985
  0.1160423791136935  0.0874003694633956  0.9024529823432204
  0.2162481015471229  0.2071106107997167  0.6278770379171945
  0.7829491880725286  0.0855548150791279  0.3468164566327161
  0.9031654478848097  0.1946917948541724  0.1569215031837672
  0.4432149131513015  0.0961326303012697  0.8283397187124280
  0.5591753999890514  0.2021325009551447  0.5809439924651585
  0.1047600331248901  0.4345587911013737  0.3972914863422972
  0.2251877403002425  0.5419506227065298  0.1495440242732826
  0.7728062893074892  0.4285863084823944  0.9050074069228700
  0.8855371194988777  0.5429837657690086  0.6486766787979406
  0.4429751280353642  0.4323504315675493  0.3978243966424984
  0.1086284064077461  0.4274471072494705  0.9014381815076433
  0.2233782321415774  0.5401762146232869  0.6508702173711001
  0.7860077704563651  0.4263161241181521  0.3998764312377858
  0.8683303337099986  0.5516952713241352  0.1553002065676949
  0.4459875494678087  0.4356255642175739  0.9038237153479400
  0.5534670440627281  0.5442650310995631  0.6533488529557445
  0.1099214482955801  0.7663695712236205  0.3880356413408421
  0.7658679266133817  0.7660671465480959  0.9025365343531462
  0.8916376061544469  0.8618150678330210  0.6359186164265722
  0.4527854668248494  0.7574940632069058  0.3745832485996132
  0.1076261900089364  0.7624127676220311  0.9053724276401311
  0.2259547129479671  0.8691934234667471  0.6423983798459716
  0.8831704763069510  0.8587437327713516  0.1527679480927944
  0.4380150557056339  0.7733023875409231  0.9203487576182567
  0.5574685920597062  0.8621808308906509  0.6359626425593845
  0.2074836177712882  0.1985077020139556  0.3547066865468267
  0.1262946481613270  0.0755776361259635  0.0975307835073167
  0.8928180065401747  0.2073860677177422  0.8439449513998056
  0.7798000396122191  0.0928856780491927  0.6299336956585435
  0.5579064425322784  0.2028024800778212  0.3885636156949772
  0.4584313713570296  0.0785047540169117  0.1458208493277837
  0.2127633907908546  0.2082368397297785  0.8396846323698313
  0.1149718007096183  0.0870103262940560  0.5665685129027409
  0.9187638926812483  0.1939927065977542  0.3528544832400087
  0.7831061302280631  0.0882198863481349  0.1450470423614121
  0.5557648861135576  0.2019476777454017  0.8920192752216423
  0.4470661772319744  0.0933994987517295  0.6260396426058747
  0.2242686446719588  0.5387495657293613  0.3400182968130068
  0.1054416445935544  0.4256481354201256  0.0975551127157388
  0.8832285917907328  0.5418369597213442  0.8454115143309906
  0.7770896273984960  0.4286402566746688  0.5912777788492249
  0.5662866487499087  0.5226710660147376  0.3190159340998733
  0.4645805415200570  0.4326881524292787  0.1034113231511142
  0.2241136084826891  0.5364630702241868  0.8452379191458022
  0.1090432739473073  0.4323902047980752  0.5900106163430294
  0.8755425763946647  0.5629161503012625  0.3471834191619578
  0.7575627244918834  0.4262783648076436  0.1046266827383846
  0.5510635291101238  0.5497357856657814  0.8473852248449489
  0.4455153951667441  0.4333402070284009  0.5932762750309024
  0.2149169222613239  0.9039412857786289  0.3265671629555129
  0.1008103461547805  0.7548440560484124  0.0929959508542595
  0.8879506102432444  0.8615450796544053  0.8355655277070682
  0.7766047831922123  0.7575945210372907  0.5664848257122159
  0.5876404570413101  0.8514393010540715  0.3355291849585456
  0.4236490841052074  0.8176600585900076  0.1164260158881589
  0.2219517354223655  0.8701057065701931  0.8376172323138817
  0.1157899221836161  0.7589959400598190  0.5825769812336006
  0.8788836786582834  0.8514184501462196  0.3506837218804648
  0.7393733181257574  0.7755019862950618  0.0950711361171059
  0.5524606932033862  0.8661607177894979  0.8319379175950914
  0.4460940598710081  0.7547304026507859  0.5718597833729788
 
  0.00000000E+00  0.00000000E+00  0.00000000E+00
  0.00000000E+00  0.00000000E+00  0.00000000E+00
  0.00000000E+00  0.00000000E+00  0.00000000E+00
  0.00000000E+00  0.00000000E+00  0.00000000E+00
  0.00000000E+00  0.00000000E+00  0.00000000E+00
  0.00000000E+00  0.00000000E+00  0.00000000E+00
  0.00000000E+00  0.00000000E+00  0.00000000E+00
  0.00000000E+00  0.00000000E+00  0.00000000E+00
  0.00000000E+00  0.00000000E+00  0.00000000E+00
  0.00000000E+00  0.00000000E+00  0.00000000E+00
  0.00000000E+00  0.00000000E+00  0.00000000E+00
  0.00000000E+00  0.00000000E+00  0.00000000E+00
  0.00000000E+00  0.00000000E+00  0.00000000E+00
  0.00000000E+00  0.00000000E+00  0.00000000E+00
  0.00000000E+00  0.00000000E+00  0.00000000E+00
  0.00000000E+00  0.00000000E+00  0.00000000E+00
  0.00000000E+00  0.00000000E+00  0.00000000E+00
  0.00000000E+00  0.00000000E+00  0.00000000E+00
  0.00000000E+00  0.00000000E+00  0.00000000E+00
  0.00000000E+00  0.00000000E+00  0.00000000E+00
  0.00000000E+00  0.00000000E+00  0.00000000E+00
  0.00000000E+00  0.00000000E+00  0.00000000E+00
  0.00000000E+00  0.00000000E+00  0.00000000E+00
  0.00000000E+00  0.00000000E+00  0.00000000E+00
  0.00000000E+00  0.00000000E+00  0.00000000E+00
  0.00000000E+00  0.00000000E+00  0.00000000E+00
  0.00000000E+00  0.00000000E+00  0.00000000E+00
  0.00000000E+00  0.00000000E+00  0.00000000E+00
  0.00000000E+00  0.00000000E+00  0.00000000E+00
  0.00000000E+00  0.00000000E+00  0.00000000E+00
  0.00000000E+00  0.00000000E+00  0.00000000E+00
  0.00000000E+00  0.00000000E+00  0.00000000E+00
  0.00000000E+00  0.00000000E+00  0.00000000E+00
  0.00000000E+00  0.00000000E+00  0.00000000E+00
  0.00000000E+00  0.00000000E+00  0.00000000E+00
  0.00000000E+00  0.00000000E+00  0.00000000E+00
  0.00000000E+00  0.00000000E+00  0.00000000E+00
  0.00000000E+00  0.00000000E+00  0.00000000E+00
  0.00000000E+00  0.00000000E+00  0.00000000E+00
  0.00000000E+00  0.00000000E+00  0.00000000E+00
  0.00000000E+00  0.00000000E+00  0.00000000E+00
  0.00000000E+00  0.00000000E+00  0.00000000E+00
  0.00000000E+00  0.00000000E+00  0.00000000E+00
  0.00000000E+00  0.00000000E+00  0.00000000E+00
  0.00000000E+00  0.00000000E+00  0.00000000E+00
  0.00000000E+00  0.00000000E+00  0.00000000E+00
  0.00000000E+00  0.00000000E+00  0.00000000E+00
  0.00000000E+00  0.00000000E+00  0.00000000E+00
  0.00000000E+00  0.00000000E+00  0.00000000E+00
  0.00000000E+00  0.00000000E+00  0.00000000E+00
  0.00000000E+00  0.00000000E+00  0.00000000E+00
  0.00000000E+00  0.00000000E+00  0.00000000E+00
  0.00000000E+00  0.00000000E+00  0.00000000E+00
  0.00000000E+00  0.00000000E+00  0.00000000E+00
  0.00000000E+00  0.00000000E+00  0.00000000E+00
  0.00000000E+00  0.00000000E+00  0.00000000E+00
  0.00000000E+00  0.00000000E+00  0.00000000E+00
  0.00000000E+00  0.00000000E+00  0.00000000E+00
  0.00000000E+00  0.00000000E+00  0.00000000E+00
  0.00000000E+00  0.00000000E+00  0.00000000E+00
  0.00000000E+00  0.00000000E+00  0.00000000E+00
  0.00000000E+00  0.00000000E+00  0.00000000E+00
  0.00000000E+00  0.00000000E+00  0.00000000E+00
  0.00000000E+00  0.00000000E+00  0.00000000E+00
  0.00000000E+00  0.00000000E+00  0.00000000E+00
  0.00000000E+00  0.00000000E+00  0.00000000E+00
  0.00000000E+00  0.00000000E+00  0.00000000E+00
  0.00000000E+00  0.00000000E+00  0.00000000E+00
  0.00000000E+00  0.00000000E+00  0.00000000E+00
  0.00000000E+00  0.00000000E+00  0.00000000E+00
  0.00000000E+00  0.00000000E+00  0.00000000E+00
  0.00000000E+00  0.00000000E+00  0.00000000E+00
