B    Al   N                             
   1.00000000000000     
    -9.1511447606744110   -0.0021434765785405   -0.0020941750648514
    -4.5651306038384636    8.0226357215637005   -0.0065316198888132
     0.0622311861296503    0.0309011651128280   -9.9005371905569426
   B    Al   N 
     5    31    36
Direct
  0.1111622901018947  0.0895160473439915  0.3061572945790942
  0.5883506254501185  0.4726708341298291  0.0495633502815878
  0.2139752313960628  0.8899242146511455  0.0726187786393240
  0.5393732634373052  0.8843780338653247  0.1111223787107178
  0.7683636580298909  0.7672081370721031  0.3104220983702604
  0.2234712121339086  0.1988682711188119  0.0692808263282672
  0.7806395763304010  0.0893265492224558  0.8097737625598356
  0.8951281714291071  0.2035478082109634  0.5583250474270756
  0.4479102665878045  0.0877147850696218  0.3179561847587848
  0.5615497770825684  0.1917853737364013  0.0582480259418361
  0.1166235186719291  0.0903124370537256  0.8193841262653763
  0.2184242247395431  0.2039307284274514  0.5562391208731299
  0.7823199727158610  0.0879793579158914  0.3118128701938900
  0.8945506763335089  0.1944456516102804  0.0642467356906238
  0.4431345948559482  0.0886699568606630  0.8087064023084309
  0.5553756626128745  0.2080003905885022  0.5608134810874290
  0.1053260523972384  0.4324037882479885  0.3104677216368188
  0.2288796065535834  0.5466831930924982  0.0597664414598498
  0.7798737165525509  0.4259986616247673  0.8147574977614198
  0.8854120764023179  0.5438814836588790  0.5549558293581711
  0.4493551793222679  0.4278213489663614  0.3055436809893664
  0.1100761783277022  0.4279566688892587  0.8128586810870431
  0.2240297161127103  0.5418798965467531  0.5627452319573436
  0.7774074596007452  0.4285341984301212  0.3061436098629571
  0.8709508358457825  0.5495301035968652  0.0662308428794205
  0.4456928588329703  0.4256393821608100  0.8151520097335592
  0.5560238890044715  0.5389645682200950  0.5576448849470097
  0.1099216017437783  0.7680093460983599  0.3078231640644518
  0.7761248053187586  0.7598704999714272  0.8114565845432082
  0.8897487749106858  0.8676783849831224  0.5557020574420619
  0.4445973588021133  0.7681514793819701  0.3373202510739262
  0.1136585481729782  0.7658604823654755  0.8194561495934778
  0.2173537856182506  0.8804972425978477  0.5576935434081989
  0.8863850838330976  0.8698234138023153  0.0676517082543810
  0.4514888823702989  0.7615124650970557  0.9177139642597183
  0.5604779404693900  0.8696405311900008  0.5694492430046338
  0.2090475693515259  0.1946419068594807  0.3598760744119929
  0.1166032651514541  0.0783413420583585  0.1365763650838687
  0.8910161768648095  0.2024148376956845  0.8737510004595634
  0.7815497221113290  0.0912580786125758  0.6156455065703668
  0.5555345472161832  0.2082296310759375  0.3688439308888647
  0.4552975259219849  0.0742496949188762  0.1238588106510221
  0.2229728457582780  0.2070621959620667  0.8778853499717201
  0.1125248206912914  0.0938888517484955  0.6297160382467766
  0.9131924382715084  0.1954159615956641  0.3611419027365486
  0.7793185220778653  0.0894017831918887  0.1228781189010206
  0.5565544734800483  0.2009416117198626  0.8689097804590631
  0.4416210420703877  0.0979650322419019  0.6149399263269686
  0.2254998234879508  0.5411491428595170  0.3678580598350436
  0.1088719936741853  0.4335754320184648  0.1199852534892045
  0.8875200883203505  0.5401464868116221  0.8762831047005051
  0.7791307504486227  0.4264102546119304  0.6213051873531512
  0.5593417651452484  0.5346320405108997  0.3663565847861818
  0.4652254254640837  0.4252549315405076  0.1114365401723560
  0.2229252224888469  0.5409313930580950  0.8705286879454306
  0.1107724802104642  0.4272383165306692  0.6166410894100380
  0.8735804389038861  0.5639465489022015  0.3584101862566627
  0.7568402292275920  0.4267820022759139  0.1134670463586787
  0.5636772176844289  0.5231964467227783  0.9021380680376012
  0.4477027780642189  0.4279401458959455  0.6252070530119695
  0.2011382647980469  0.9048740703288374  0.3642732896268441
  0.1272881357540570  0.7737118122468516  0.1186071947543894
  0.8889818818509028  0.8694598876023676  0.8766801536076017
  0.7848608047393100  0.7572227963281932  0.6228841123355409
  0.5849719166807930  0.8634124690707878  0.3701563678607727
  0.4278200380354136  0.8042455864837379  0.1144829845631250
  0.2158823706226727  0.8800081670138979  0.9072651762473427
  0.1119175592770532  0.7647243034559992  0.6239092636850643
  0.8793460168288476  0.8569746443946542  0.3597568798077333
  0.7435561741090240  0.7757221622557466  0.1398272126124454
  0.5543912843223282  0.8681347673340056  0.8518102907061120
  0.4414547634881245  0.7615830606581468  0.5773384441171672
 
  0.00000000E+00  0.00000000E+00  0.00000000E+00
  0.00000000E+00  0.00000000E+00  0.00000000E+00
  0.00000000E+00  0.00000000E+00  0.00000000E+00
  0.00000000E+00  0.00000000E+00  0.00000000E+00
  0.00000000E+00  0.00000000E+00  0.00000000E+00
  0.00000000E+00  0.00000000E+00  0.00000000E+00
  0.00000000E+00  0.00000000E+00  0.00000000E+00
  0.00000000E+00  0.00000000E+00  0.00000000E+00
  0.00000000E+00  0.00000000E+00  0.00000000E+00
  0.00000000E+00  0.00000000E+00  0.00000000E+00
  0.00000000E+00  0.00000000E+00  0.00000000E+00
  0.00000000E+00  0.00000000E+00  0.00000000E+00
  0.00000000E+00  0.00000000E+00  0.00000000E+00
  0.00000000E+00  0.00000000E+00  0.00000000E+00
  0.00000000E+00  0.00000000E+00  0.00000000E+00
  0.00000000E+00  0.00000000E+00  0.00000000E+00
  0.00000000E+00  0.00000000E+00  0.00000000E+00
  0.00000000E+00  0.00000000E+00  0.00000000E+00
  0.00000000E+00  0.00000000E+00  0.00000000E+00
  0.00000000E+00  0.00000000E+00  0.00000000E+00
  0.00000000E+00  0.00000000E+00  0.00000000E+00
  0.00000000E+00  0.00000000E+00  0.00000000E+00
  0.00000000E+00  0.00000000E+00  0.00000000E+00
  0.00000000E+00  0.00000000E+00  0.00000000E+00
  0.00000000E+00  0.00000000E+00  0.00000000E+00
  0.00000000E+00  0.00000000E+00  0.00000000E+00
  0.00000000E+00  0.00000000E+00  0.00000000E+00
  0.00000000E+00  0.00000000E+00  0.00000000E+00
  0.00000000E+00  0.00000000E+00  0.00000000E+00
  0.00000000E+00  0.00000000E+00  0.00000000E+00
  0.00000000E+00  0.00000000E+00  0.00000000E+00
  0.00000000E+00  0.00000000E+00  0.00000000E+00
  0.00000000E+00  0.00000000E+00  0.00000000E+00
  0.00000000E+00  0.00000000E+00  0.00000000E+00
  0.00000000E+00  0.00000000E+00  0.00000000E+00
  0.00000000E+00  0.00000000E+00  0.00000000E+00
  0.00000000E+00  0.00000000E+00  0.00000000E+00
  0.00000000E+00  0.00000000E+00  0.00000000E+00
  0.00000000E+00  0.00000000E+00  0.00000000E+00
  0.00000000E+00  0.00000000E+00  0.00000000E+00
  0.00000000E+00  0.00000000E+00  0.00000000E+00
  0.00000000E+00  0.00000000E+00  0.00000000E+00
  0.00000000E+00  0.00000000E+00  0.00000000E+00
  0.00000000E+00  0.00000000E+00  0.00000000E+00
  0.00000000E+00  0.00000000E+00  0.00000000E+00
  0.00000000E+00  0.00000000E+00  0.00000000E+00
  0.00000000E+00  0.00000000E+00  0.00000000E+00
  0.00000000E+00  0.00000000E+00  0.00000000E+00
  0.00000000E+00  0.00000000E+00  0.00000000E+00
  0.00000000E+00  0.00000000E+00  0.00000000E+00
  0.00000000E+00  0.00000000E+00  0.00000000E+00
  0.00000000E+00  0.00000000E+00  0.00000000E+00
  0.00000000E+00  0.00000000E+00  0.00000000E+00
  0.00000000E+00  0.00000000E+00  0.00000000E+00
  0.00000000E+00  0.00000000E+00  0.00000000E+00
  0.00000000E+00  0.00000000E+00  0.00000000E+00
  0.00000000E+00  0.00000000E+00  0.00000000E+00
  0.00000000E+00  0.00000000E+00  0.00000000E+00
  0.00000000E+00  0.00000000E+00  0.00000000E+00
  0.00000000E+00  0.00000000E+00  0.00000000E+00
  0.00000000E+00  0.00000000E+00  0.00000000E+00
  0.00000000E+00  0.00000000E+00  0.00000000E+00
  0.00000000E+00  0.00000000E+00  0.00000000E+00
  0.00000000E+00  0.00000000E+00  0.00000000E+00
  0.00000000E+00  0.00000000E+00  0.00000000E+00
  0.00000000E+00  0.00000000E+00  0.00000000E+00
  0.00000000E+00  0.00000000E+00  0.00000000E+00
  0.00000000E+00  0.00000000E+00  0.00000000E+00
  0.00000000E+00  0.00000000E+00  0.00000000E+00
  0.00000000E+00  0.00000000E+00  0.00000000E+00
  0.00000000E+00  0.00000000E+00  0.00000000E+00
  0.00000000E+00  0.00000000E+00  0.00000000E+00
