B    Al   N                             
   1.00000000000000     
    -9.1320652863146776   -0.0022950601724633    0.0180175204301490
    -4.5494151933758706    7.9544931392711744    0.0248050543428694
     0.0593971724042755   -0.2496475470407851  -10.3652301255153088
   B    Al   N 
     5    31    36
Direct
  0.1199880663671280  0.0809747713903448  0.3537877672271392
  0.5847798964795388  0.4802187914406204  0.1592274163218619
  0.2264986318783642  0.8932948264942979  0.0973640040537873
  0.5366497116244204  0.8840387949180126  0.0975581426282304
  0.7731879506999846  0.7632017057805669  0.3577078342801556
  0.2257964176725977  0.1946814677466335  0.0722372751814504
  0.7790596373802217  0.0925160671706777  0.8178741178190378
  0.8971932318008840  0.1934651493767845  0.5653049961525127
  0.4528777225475977  0.0766797781665502  0.3181862200378518
  0.5625520168582838  0.1913737817536898  0.0720125567539185
  0.1067334112655089  0.1044996464135295  0.8221218430275243
  0.2246973333661657  0.1962164922746013  0.5616987668173508
  0.7871230728738610  0.0796009419139381  0.3175919296819174
  0.8961453672512292  0.1883623078121417  0.0721757532903737
  0.4368724295551658  0.1060034501270906  0.8144758225961439
  0.5592630231317131  0.1984506346020751  0.5642440749917128
  0.1037156282385183  0.4373298217020007  0.3833857535831484
  0.2289974516106454  0.5554520768988027  0.1436874403201145
  0.7679103143996997  0.4356210844950468  0.9005077508263639
  0.8976134822589898  0.5216300790644368  0.6425168764846561
  0.4445379342449485  0.4302211876318651  0.3874782699059978
  0.1063099415491209  0.4378746904300783  0.8985372983732987
  0.2226951807548403  0.5377689885537933  0.6409013788539042
  0.7826590392021018  0.4311389480339614  0.3834568815003223
  0.8607195747455734  0.5621151002977882  0.1425407921459581
  0.4471218902131326  0.4354011289183859  0.8964632591865467
  0.5574333052101181  0.5374069929251490  0.6415774263691461
  0.1156426237107127  0.7639114372400400  0.3914031802480622
  0.7767627817104596  0.7612885831694882  0.8278536221701955
  0.8818271983579677  0.8664069508545111  0.5702706621146518
  0.4493894673728178  0.7619832266540527  0.3849004066873079
  0.1226954694821316  0.7629692661012868  0.8895430641019288
  0.2262334184616961  0.8668131648359321  0.6346818276509367
  0.8767376410666117  0.8728295070723178  0.0653137714472862
  0.4408998876002812  0.7716124332651262  0.8910808646658595
  0.5559526843542102  0.8658464933125245  0.6303776171733446
  0.2137758044819975  0.1838752453900554  0.3717422403205433
  0.1202629264567605  0.0746290637336244  0.1101591209160659
  0.8876029245325725  0.2018603025014656  0.8874209785770475
  0.7789130500584847  0.0921783979167685  0.6315911829060141
  0.5618855155112144  0.1951364937539495  0.3782092615586237
  0.4523768485749784  0.0767601586815445  0.1319549681043028
  0.2256378214372177  0.2047939535537751  0.8883658106166408
  0.1072391898041687  0.1054085065836574  0.6372606298995720
  0.9240066393374917  0.1796537698657446  0.3754490424200227
  0.7795953070067867  0.0883128117565164  0.1372678028401921
  0.5589295323042194  0.2002684426566574  0.8871763766303928
  0.4393527015156806  0.1037243483590515  0.6282156571879582
  0.2249646102122185  0.5407943882791457  0.3247466199959916
  0.0981273866587244  0.4503375021483080  0.0853694454396390
  0.8928686881635599  0.5237928497893520  0.8300351441585647
  0.7741601560875608  0.4288946889399341  0.5678049746257230
  0.5636743579938255  0.5249979610372577  0.3048116863727230
  0.4632041773561397  0.4355960951754128  0.0909068496914429
  0.2257741841711294  0.5362478252666136  0.8294664508543121
  0.1109280953290863  0.4308515320245832  0.5686632673864338
  0.8738385438790672  0.5686426552083788  0.3299000838238868
  0.7519518216868590  0.4344158748699840  0.0949005073891982
  0.5550270432043618  0.5420562658436126  0.8278463735486170
  0.4427022171995105  0.4333252163527490  0.5740139382067682
  0.2134643564716825  0.8973977826902129  0.3579214781045010
  0.1377361838966280  0.7781910381232677  0.0786665807138149
  0.8890221235515483  0.8731022555011805  0.8824951483445247
  0.7879482403296478  0.7528127880098978  0.6367096888885513
  0.5901931738739208  0.8526888782118291  0.3652337262060357
  0.4175231123314305  0.8153505325971295  0.0730441578615526
  0.2260957812447444  0.8682082379391218  0.8192963526308787
  0.1145436875391113  0.7565278635637256  0.5763300657964763
  0.8744269659834458  0.8549530644412684  0.3777530419014283
  0.7266279079193012  0.7827460931704309  0.0846764940782379
  0.5460184762639457  0.8750386448687948  0.8197954491941317
  0.4476460431324369  0.7519263514248706  0.5706596983937260
 
  0.00000000E+00  0.00000000E+00  0.00000000E+00
  0.00000000E+00  0.00000000E+00  0.00000000E+00
  0.00000000E+00  0.00000000E+00  0.00000000E+00
  0.00000000E+00  0.00000000E+00  0.00000000E+00
  0.00000000E+00  0.00000000E+00  0.00000000E+00
  0.00000000E+00  0.00000000E+00  0.00000000E+00
  0.00000000E+00  0.00000000E+00  0.00000000E+00
  0.00000000E+00  0.00000000E+00  0.00000000E+00
  0.00000000E+00  0.00000000E+00  0.00000000E+00
  0.00000000E+00  0.00000000E+00  0.00000000E+00
  0.00000000E+00  0.00000000E+00  0.00000000E+00
  0.00000000E+00  0.00000000E+00  0.00000000E+00
  0.00000000E+00  0.00000000E+00  0.00000000E+00
  0.00000000E+00  0.00000000E+00  0.00000000E+00
  0.00000000E+00  0.00000000E+00  0.00000000E+00
  0.00000000E+00  0.00000000E+00  0.00000000E+00
  0.00000000E+00  0.00000000E+00  0.00000000E+00
  0.00000000E+00  0.00000000E+00  0.00000000E+00
  0.00000000E+00  0.00000000E+00  0.00000000E+00
  0.00000000E+00  0.00000000E+00  0.00000000E+00
  0.00000000E+00  0.00000000E+00  0.00000000E+00
  0.00000000E+00  0.00000000E+00  0.00000000E+00
  0.00000000E+00  0.00000000E+00  0.00000000E+00
  0.00000000E+00  0.00000000E+00  0.00000000E+00
  0.00000000E+00  0.00000000E+00  0.00000000E+00
  0.00000000E+00  0.00000000E+00  0.00000000E+00
  0.00000000E+00  0.00000000E+00  0.00000000E+00
  0.00000000E+00  0.00000000E+00  0.00000000E+00
  0.00000000E+00  0.00000000E+00  0.00000000E+00
  0.00000000E+00  0.00000000E+00  0.00000000E+00
  0.00000000E+00  0.00000000E+00  0.00000000E+00
  0.00000000E+00  0.00000000E+00  0.00000000E+00
  0.00000000E+00  0.00000000E+00  0.00000000E+00
  0.00000000E+00  0.00000000E+00  0.00000000E+00
  0.00000000E+00  0.00000000E+00  0.00000000E+00
  0.00000000E+00  0.00000000E+00  0.00000000E+00
  0.00000000E+00  0.00000000E+00  0.00000000E+00
  0.00000000E+00  0.00000000E+00  0.00000000E+00
  0.00000000E+00  0.00000000E+00  0.00000000E+00
  0.00000000E+00  0.00000000E+00  0.00000000E+00
  0.00000000E+00  0.00000000E+00  0.00000000E+00
  0.00000000E+00  0.00000000E+00  0.00000000E+00
  0.00000000E+00  0.00000000E+00  0.00000000E+00
  0.00000000E+00  0.00000000E+00  0.00000000E+00
  0.00000000E+00  0.00000000E+00  0.00000000E+00
  0.00000000E+00  0.00000000E+00  0.00000000E+00
  0.00000000E+00  0.00000000E+00  0.00000000E+00
  0.00000000E+00  0.00000000E+00  0.00000000E+00
  0.00000000E+00  0.00000000E+00  0.00000000E+00
  0.00000000E+00  0.00000000E+00  0.00000000E+00
  0.00000000E+00  0.00000000E+00  0.00000000E+00
  0.00000000E+00  0.00000000E+00  0.00000000E+00
  0.00000000E+00  0.00000000E+00  0.00000000E+00
  0.00000000E+00  0.00000000E+00  0.00000000E+00
  0.00000000E+00  0.00000000E+00  0.00000000E+00
  0.00000000E+00  0.00000000E+00  0.00000000E+00
  0.00000000E+00  0.00000000E+00  0.00000000E+00
  0.00000000E+00  0.00000000E+00  0.00000000E+00
  0.00000000E+00  0.00000000E+00  0.00000000E+00
  0.00000000E+00  0.00000000E+00  0.00000000E+00
  0.00000000E+00  0.00000000E+00  0.00000000E+00
  0.00000000E+00  0.00000000E+00  0.00000000E+00
  0.00000000E+00  0.00000000E+00  0.00000000E+00
  0.00000000E+00  0.00000000E+00  0.00000000E+00
  0.00000000E+00  0.00000000E+00  0.00000000E+00
  0.00000000E+00  0.00000000E+00  0.00000000E+00
  0.00000000E+00  0.00000000E+00  0.00000000E+00
  0.00000000E+00  0.00000000E+00  0.00000000E+00
  0.00000000E+00  0.00000000E+00  0.00000000E+00
  0.00000000E+00  0.00000000E+00  0.00000000E+00
  0.00000000E+00  0.00000000E+00  0.00000000E+00
  0.00000000E+00  0.00000000E+00  0.00000000E+00
