B    Al   N                             
   1.00000000000000     
    -9.1641122662164012    0.0007457544325123    0.0161466828748272
    -4.5844199597782476    8.0173296194190158    0.0272496074749140
     0.0335972664638558   -0.1509853351884383  -10.0894052453189342
   B    Al   N 
     5    31    36
Direct
  0.1117692121439617  0.0899739325791344  0.3975646037850069
  0.5854922363549306  0.4794013762736711  0.1701251668450894
  0.2256688267108302  0.8922955349528650  0.1562153943720190
  0.5373825889492068  0.8829127325399924  0.1184632585190712
  0.7729842695616327  0.7628448153770577  0.3755406874947695
  0.2274421884012199  0.2010112121437189  0.0952669142987332
  0.7789746910877113  0.0844324385267825  0.8289520106304309
  0.8959390633893349  0.2021381275305032  0.6433712280242361
  0.4514006342625123  0.0798493674989160  0.3311350795848611
  0.5662865840785329  0.1909379048239614  0.0840070931863579
  0.1098884526177031  0.0874521806017725  0.9051779564433673
  0.2255233330533457  0.1978216001878224  0.5684010534332202
  0.7799223409296587  0.0823252719478234  0.3381164231766078
  0.9024373129099388  0.1995136301591458  0.1625861831487541
  0.4348435775649833  0.1030255992947886  0.8282626060271525
  0.5574799588291057  0.1971796656549998  0.5801649740965189
  0.1023623219759955  0.4397633457757948  0.3948990293290322
  0.2310248649832758  0.5505754617753098  0.1557136033698328
  0.7741821539932801  0.4245797743647017  0.9083088345443215
  0.8925611605987243  0.5324363239708347  0.6590139533319785
  0.4450535006864698  0.4305733729162142  0.4014874283271723
  0.1065632477836118  0.4369066657004765  0.9098245696499774
  0.2222313125292672  0.5382498824994002  0.6520213966401371
  0.7852132855188643  0.4277766341909270  0.4028803213312528
  0.8615741637046170  0.5612868571446370  0.1548734325043171
  0.4485587390124479  0.4336027225338555  0.9058083616761436
  0.5557386379077656  0.5405435894920814  0.6538354852886954
  0.1165933768455076  0.7651052162847947  0.3919270604241092
  0.7661229856436549  0.7631350797530772  0.8866920782837084
  0.8853016006984191  0.8634983482421532  0.5796925683549716
  0.4526813779044971  0.7599182554262995  0.3837321167927499
  0.1240088437906621  0.7618956505751342  0.9059412998971652
  0.2254214537388535  0.8682849193928561  0.6425402687863482
  0.8865207888432209  0.8754743372624816  0.0891598726464835
  0.4399335136239344  0.7704076888595992  0.9122902104337598
  0.5576459041004256  0.8624590713462652  0.6421096732142502
  0.2141866996986010  0.1933769589326317  0.3745318565523661
  0.1170210772087259  0.0747025097363334  0.0965471628533905
  0.8934252868897445  0.2067186018697882  0.8381672920261991
  0.7774453804099579  0.0845964257743859  0.6390991493751912
  0.5565901271351876  0.1983481784656504  0.3909855631783614
  0.4567061392062826  0.0749442617221234  0.1416000278866676
  0.2237826708359165  0.2069836231008466  0.9008582604085404
  0.1098367230663442  0.0800717571193488  0.5635644892232392
  0.9184547770591962  0.1936439194740771  0.3514609475890822
  0.7788509261494028  0.0909550024087977  0.1514735668651781
  0.5592092827475810  0.1998553318225333  0.8955974670971685
  0.4365556856370176  0.0997231069335811  0.6390968811547921
  0.2266480375036082  0.5397542962329140  0.3395795749091590
  0.0997076531757628  0.4476670876900641  0.1020043394025905
  0.8883664631883690  0.5324244204736459  0.8502699413320229
  0.7785948481039355  0.4240898812019580  0.5892844768280412
  0.5664783638220925  0.5230102961084739  0.3182075369718902
  0.4648638251166020  0.4335877396564882  0.1027912410945717
  0.2253037784649976  0.5385483759137202  0.8447317633983289
  0.1097687645027250  0.4287437913557568  0.5872038044876149
  0.8713850277558848  0.5701811374143020  0.3449918589800447
  0.7570829674268609  0.4277676387807361  0.1050364933822081
  0.5542584619124185  0.5452139338931588  0.8442072584864988
  0.4450000528075719  0.4306414700542973  0.5917708372416186
  0.2149685199832163  0.8980840383525717  0.3248902818964936
  0.1360294534505755  0.7751760415054818  0.1012684554273520
  0.8916418169342890  0.8721961221446932  0.8990467022678388
  0.7831860872679854  0.7513732563126041  0.6252098773338091
  0.5896387319065255  0.8541059962809570  0.3668435772125491
  0.4209459321982507  0.8129181139721666  0.1014277656830629
  0.2238725373990036  0.8735830312061807  0.8317250534177774
  0.1184227811632610  0.7548172752955082  0.5830240222746212
  0.8765246104032087  0.8548652283317324  0.3819003543980344
  0.7307762793513035  0.7807300767472682  0.0878905603489457
  0.5459629330772842  0.8725032260283783  0.8350672402819939
  0.4455770168934805  0.7523607553185485  0.5759456002902752
 
  0.00000000E+00  0.00000000E+00  0.00000000E+00
  0.00000000E+00  0.00000000E+00  0.00000000E+00
  0.00000000E+00  0.00000000E+00  0.00000000E+00
  0.00000000E+00  0.00000000E+00  0.00000000E+00
  0.00000000E+00  0.00000000E+00  0.00000000E+00
  0.00000000E+00  0.00000000E+00  0.00000000E+00
  0.00000000E+00  0.00000000E+00  0.00000000E+00
  0.00000000E+00  0.00000000E+00  0.00000000E+00
  0.00000000E+00  0.00000000E+00  0.00000000E+00
  0.00000000E+00  0.00000000E+00  0.00000000E+00
  0.00000000E+00  0.00000000E+00  0.00000000E+00
  0.00000000E+00  0.00000000E+00  0.00000000E+00
  0.00000000E+00  0.00000000E+00  0.00000000E+00
  0.00000000E+00  0.00000000E+00  0.00000000E+00
  0.00000000E+00  0.00000000E+00  0.00000000E+00
  0.00000000E+00  0.00000000E+00  0.00000000E+00
  0.00000000E+00  0.00000000E+00  0.00000000E+00
  0.00000000E+00  0.00000000E+00  0.00000000E+00
  0.00000000E+00  0.00000000E+00  0.00000000E+00
  0.00000000E+00  0.00000000E+00  0.00000000E+00
  0.00000000E+00  0.00000000E+00  0.00000000E+00
  0.00000000E+00  0.00000000E+00  0.00000000E+00
  0.00000000E+00  0.00000000E+00  0.00000000E+00
  0.00000000E+00  0.00000000E+00  0.00000000E+00
  0.00000000E+00  0.00000000E+00  0.00000000E+00
  0.00000000E+00  0.00000000E+00  0.00000000E+00
  0.00000000E+00  0.00000000E+00  0.00000000E+00
  0.00000000E+00  0.00000000E+00  0.00000000E+00
  0.00000000E+00  0.00000000E+00  0.00000000E+00
  0.00000000E+00  0.00000000E+00  0.00000000E+00
  0.00000000E+00  0.00000000E+00  0.00000000E+00
  0.00000000E+00  0.00000000E+00  0.00000000E+00
  0.00000000E+00  0.00000000E+00  0.00000000E+00
  0.00000000E+00  0.00000000E+00  0.00000000E+00
  0.00000000E+00  0.00000000E+00  0.00000000E+00
  0.00000000E+00  0.00000000E+00  0.00000000E+00
  0.00000000E+00  0.00000000E+00  0.00000000E+00
  0.00000000E+00  0.00000000E+00  0.00000000E+00
  0.00000000E+00  0.00000000E+00  0.00000000E+00
  0.00000000E+00  0.00000000E+00  0.00000000E+00
  0.00000000E+00  0.00000000E+00  0.00000000E+00
  0.00000000E+00  0.00000000E+00  0.00000000E+00
  0.00000000E+00  0.00000000E+00  0.00000000E+00
  0.00000000E+00  0.00000000E+00  0.00000000E+00
  0.00000000E+00  0.00000000E+00  0.00000000E+00
  0.00000000E+00  0.00000000E+00  0.00000000E+00
  0.00000000E+00  0.00000000E+00  0.00000000E+00
  0.00000000E+00  0.00000000E+00  0.00000000E+00
  0.00000000E+00  0.00000000E+00  0.00000000E+00
  0.00000000E+00  0.00000000E+00  0.00000000E+00
  0.00000000E+00  0.00000000E+00  0.00000000E+00
  0.00000000E+00  0.00000000E+00  0.00000000E+00
  0.00000000E+00  0.00000000E+00  0.00000000E+00
  0.00000000E+00  0.00000000E+00  0.00000000E+00
  0.00000000E+00  0.00000000E+00  0.00000000E+00
  0.00000000E+00  0.00000000E+00  0.00000000E+00
  0.00000000E+00  0.00000000E+00  0.00000000E+00
  0.00000000E+00  0.00000000E+00  0.00000000E+00
  0.00000000E+00  0.00000000E+00  0.00000000E+00
  0.00000000E+00  0.00000000E+00  0.00000000E+00
  0.00000000E+00  0.00000000E+00  0.00000000E+00
  0.00000000E+00  0.00000000E+00  0.00000000E+00
  0.00000000E+00  0.00000000E+00  0.00000000E+00
  0.00000000E+00  0.00000000E+00  0.00000000E+00
  0.00000000E+00  0.00000000E+00  0.00000000E+00
  0.00000000E+00  0.00000000E+00  0.00000000E+00
  0.00000000E+00  0.00000000E+00  0.00000000E+00
  0.00000000E+00  0.00000000E+00  0.00000000E+00
  0.00000000E+00  0.00000000E+00  0.00000000E+00
  0.00000000E+00  0.00000000E+00  0.00000000E+00
  0.00000000E+00  0.00000000E+00  0.00000000E+00
  0.00000000E+00  0.00000000E+00  0.00000000E+00
