B    Al   N                             
   1.00000000000000     
    -9.1607868259579686   -0.0109267808943947   -0.0017891175119257
    -4.6345099041507449    8.0196215238633286   -0.0068298281375530
    -0.0812030812869579   -0.1856367138951310  -10.1796317832471370
   B    Al   N 
     5    31    36
Direct
  0.1122826116097357  0.1028294750537100  0.3133164075435175
  0.5899987620745151  0.4818975878550518  0.1661523203568933
  0.2486321388545321  0.9093538165135584  0.1626598098659713
  0.5377070056848723  0.8906076594908541  0.1089703799928401
  0.7748970658367753  0.7582990883831471  0.4033078148478850
  0.2258399754209606  0.2043393489425966  0.0747912172290555
  0.7809136604592837  0.0904036948654010  0.8197846714125632
  0.9006340897315468  0.1907068151249618  0.5632596012082445
  0.4566075543492687  0.0793101914046375  0.3233987876836224
  0.5633001601562597  0.1981308805951016  0.0687037674890760
  0.1069671273620330  0.1000060514636445  0.8223481907328747
  0.2209392915107671  0.2001799631944081  0.5616836894673369
  0.7872290710262817  0.0838057255162639  0.3201883165116115
  0.8982435645108922  0.1927346041116067  0.0794896727324925
  0.4412825620276664  0.0951614481481116  0.8133868336891936
  0.5578985821780122  0.2027351069695911  0.5687450539370147
  0.1115098770352887  0.4292126596835786  0.3201399615269835
  0.2264141849183403  0.5444314801420376  0.0718386923252012
  0.7643812133310348  0.4357408569285965  0.9014251010574057
  0.8842004117870346  0.5364272873509321  0.6394399716540917
  0.4441832366193168  0.4216983335202542  0.3220707993811516
  0.1160553948847536  0.4207402205240314  0.8228581030347044
  0.2233239666700371  0.5349673345185266  0.5694202236805737
  0.7864768663327695  0.4316440959323629  0.3877348467458432
  0.8566488016609668  0.5672356700699197  0.1504597973817923
  0.4419880023558633  0.4221005881897497  0.8223121262191810
  0.5577432094678443  0.5405387040313911  0.6437177075668146
  0.1095754419546111  0.7640646931635189  0.3104207805150310
  0.7612769430809720  0.7622149656864892  0.8870196718256409
  0.8939777182272408  0.8674168679694532  0.5655164713207697
  0.4553991753306477  0.7610262669668018  0.3800113619626515
  0.1063383126477646  0.7540645206938947  0.8245000876390733
  0.2296226025873551  0.8632268882916918  0.6426986340456295
  0.8882854480476539  0.8729707033660148  0.0716014537449681
  0.4331386648994879  0.7714341623007570  0.9030425960889232
  0.5568278150733761  0.8638231953551596  0.6197402842178690
  0.2126425289602665  0.1947579754115623  0.3712046133801792
  0.1169150227447346  0.0961144519313777  0.1508205293527922
  0.8895310974319202  0.2011887618565140  0.8918308658180365
  0.7817545265971191  0.0898294783810414  0.6311072089289240
  0.5600458122861838  0.2044232883053496  0.3817512166301000
  0.4560043964075788  0.0808341338277074  0.1318465953499697
  0.2226729011188766  0.2030061069767797  0.8882790951590209
  0.1112492513949519  0.0961146523701473  0.6338176593984173
  0.9228946739115145  0.1853090974529366  0.3709041432259781
  0.7801949972703071  0.0912992921032867  0.1355490621025197
  0.5557521097270239  0.2013395445834831  0.8823638436809915
  0.4407510982743617  0.0980538815430450  0.6244160996792374
  0.2241102653826843  0.5417072491176427  0.3817285546976379
  0.1087183076167335  0.4312632048655445  0.1313139887498451
  0.8799002871864658  0.5383735740265081  0.8322471175089561
  0.7758460362648805  0.4251645975448497  0.5733555610352781
  0.5691291488571153  0.5327764648422217  0.3103875025463125
  0.4635062798027931  0.4251937337017893  0.1309425868842737
  0.2216610215764021  0.5350498661014100  0.8861024232967551
  0.1188602792742657  0.4181032445414417  0.6305541819804361
  0.8736838851443594  0.5701581540262950  0.3377046084584165
  0.7521768623155722  0.4377606998986465  0.0963585534617408
  0.5505518126792239  0.5469432763375579  0.8349097508449717
  0.4436025654902096  0.4213106111953167  0.6327807574252802
  0.2309801012336123  0.8934405312082205  0.3133932876767247
  0.1087638080124975  0.7621235817532224  0.1281437564467183
  0.8850783055137086  0.8725516759850436  0.8831636889966390
  0.7821335012383273  0.7466307498341820  0.5651939813782150
  0.5884590420227127  0.8582961686121280  0.3640208401571670
  0.4171129202924106  0.8271750509832216  0.0888472733459125
  0.2224538447690563  0.8695715979906424  0.8322343743549752
  0.1073826263044495  0.7522109990912611  0.6335861187974601
  0.8861896880627995  0.8630446378367793  0.3793475454549693
  0.7284645592327124  0.7838314522554697  0.0775730803015549
  0.5514670554920968  0.8638863284690856  0.8149283360963793
  0.4419020436109165  0.7503193952461018  0.5667384098508279
 
  0.00000000E+00  0.00000000E+00  0.00000000E+00
  0.00000000E+00  0.00000000E+00  0.00000000E+00
  0.00000000E+00  0.00000000E+00  0.00000000E+00
  0.00000000E+00  0.00000000E+00  0.00000000E+00
  0.00000000E+00  0.00000000E+00  0.00000000E+00
  0.00000000E+00  0.00000000E+00  0.00000000E+00
  0.00000000E+00  0.00000000E+00  0.00000000E+00
  0.00000000E+00  0.00000000E+00  0.00000000E+00
  0.00000000E+00  0.00000000E+00  0.00000000E+00
  0.00000000E+00  0.00000000E+00  0.00000000E+00
  0.00000000E+00  0.00000000E+00  0.00000000E+00
  0.00000000E+00  0.00000000E+00  0.00000000E+00
  0.00000000E+00  0.00000000E+00  0.00000000E+00
  0.00000000E+00  0.00000000E+00  0.00000000E+00
  0.00000000E+00  0.00000000E+00  0.00000000E+00
  0.00000000E+00  0.00000000E+00  0.00000000E+00
  0.00000000E+00  0.00000000E+00  0.00000000E+00
  0.00000000E+00  0.00000000E+00  0.00000000E+00
  0.00000000E+00  0.00000000E+00  0.00000000E+00
  0.00000000E+00  0.00000000E+00  0.00000000E+00
  0.00000000E+00  0.00000000E+00  0.00000000E+00
  0.00000000E+00  0.00000000E+00  0.00000000E+00
  0.00000000E+00  0.00000000E+00  0.00000000E+00
  0.00000000E+00  0.00000000E+00  0.00000000E+00
  0.00000000E+00  0.00000000E+00  0.00000000E+00
  0.00000000E+00  0.00000000E+00  0.00000000E+00
  0.00000000E+00  0.00000000E+00  0.00000000E+00
  0.00000000E+00  0.00000000E+00  0.00000000E+00
  0.00000000E+00  0.00000000E+00  0.00000000E+00
  0.00000000E+00  0.00000000E+00  0.00000000E+00
  0.00000000E+00  0.00000000E+00  0.00000000E+00
  0.00000000E+00  0.00000000E+00  0.00000000E+00
  0.00000000E+00  0.00000000E+00  0.00000000E+00
  0.00000000E+00  0.00000000E+00  0.00000000E+00
  0.00000000E+00  0.00000000E+00  0.00000000E+00
  0.00000000E+00  0.00000000E+00  0.00000000E+00
  0.00000000E+00  0.00000000E+00  0.00000000E+00
  0.00000000E+00  0.00000000E+00  0.00000000E+00
  0.00000000E+00  0.00000000E+00  0.00000000E+00
  0.00000000E+00  0.00000000E+00  0.00000000E+00
  0.00000000E+00  0.00000000E+00  0.00000000E+00
  0.00000000E+00  0.00000000E+00  0.00000000E+00
  0.00000000E+00  0.00000000E+00  0.00000000E+00
  0.00000000E+00  0.00000000E+00  0.00000000E+00
  0.00000000E+00  0.00000000E+00  0.00000000E+00
  0.00000000E+00  0.00000000E+00  0.00000000E+00
  0.00000000E+00  0.00000000E+00  0.00000000E+00
  0.00000000E+00  0.00000000E+00  0.00000000E+00
  0.00000000E+00  0.00000000E+00  0.00000000E+00
  0.00000000E+00  0.00000000E+00  0.00000000E+00
  0.00000000E+00  0.00000000E+00  0.00000000E+00
  0.00000000E+00  0.00000000E+00  0.00000000E+00
  0.00000000E+00  0.00000000E+00  0.00000000E+00
  0.00000000E+00  0.00000000E+00  0.00000000E+00
  0.00000000E+00  0.00000000E+00  0.00000000E+00
  0.00000000E+00  0.00000000E+00  0.00000000E+00
  0.00000000E+00  0.00000000E+00  0.00000000E+00
  0.00000000E+00  0.00000000E+00  0.00000000E+00
  0.00000000E+00  0.00000000E+00  0.00000000E+00
  0.00000000E+00  0.00000000E+00  0.00000000E+00
  0.00000000E+00  0.00000000E+00  0.00000000E+00
  0.00000000E+00  0.00000000E+00  0.00000000E+00
  0.00000000E+00  0.00000000E+00  0.00000000E+00
  0.00000000E+00  0.00000000E+00  0.00000000E+00
  0.00000000E+00  0.00000000E+00  0.00000000E+00
  0.00000000E+00  0.00000000E+00  0.00000000E+00
  0.00000000E+00  0.00000000E+00  0.00000000E+00
  0.00000000E+00  0.00000000E+00  0.00000000E+00
  0.00000000E+00  0.00000000E+00  0.00000000E+00
  0.00000000E+00  0.00000000E+00  0.00000000E+00
  0.00000000E+00  0.00000000E+00  0.00000000E+00
  0.00000000E+00  0.00000000E+00  0.00000000E+00
