supercell of icsd_191774.cif            
   1.00000000000000     
    10.6316383122541644    0.0001067420451740   -0.0000512349950458
    -5.3157267827988077    9.2071056687903692   -0.0000018711183244
    -0.0000544790078215   -0.0000338081085881   11.3187419268730416
   N    In   Sc
    36    34     2
Direct
  0.2223201515375948  0.1110528455198718  0.4401996280726550
  0.1112875917495515  0.2223100550650940  0.1899843477027403
  0.8887344306413212  0.1110334930866301  0.9400004360883116
  0.7772550900162258  0.2221161124243309  0.6903058439949419
  0.5553031393415608  0.1106786785801290  0.4392770313931109
  0.4468134545921956  0.2268986925635730  0.1925848685585123
  0.2227739282517263  0.1111843296795669  0.9401582309678744
  0.1112263276614769  0.2222798078275829  0.6901146581485875
  0.8887600372305045  0.1110469873538946  0.4401072142767362
  0.7776430589088221  0.2223084124391690  0.1900661548547546
  0.5529519568694994  0.1065449202992355  0.9427392559237546
  0.4449359177162933  0.2224730847839567  0.6893666926159270
  0.2223198993492730  0.4446005959622212  0.4401994028836640
  0.1109474665754746  0.5552563220420126  0.1903656115920143
  0.8888910468693467  0.4445828049232574  0.9404591080528562
  0.7773438564993995  0.5553383065185997  0.6893919756004294
  0.5554735755870226  0.4444021453814102  0.4334497169741880
  0.4468133672606101  0.5532465613615258  0.1925872192378435
  0.2227744273233441  0.4449224557834839  0.9401588797265177
  0.1112261932414071  0.5559174745449766  0.6903919842497146
  0.8889329079878081  0.4444165012894103  0.4402775295007402
  0.7731193448214100  0.5532256058614280  0.1925542729834291
  0.5552450227705847  0.4442899460346439  0.9410579957034884
  0.4449348730151357  0.5557957461914356  0.6893642607658279
  0.2226116790257606  0.7779735404827477  0.4392265973092719
  0.1109459347465389  0.8890245494491893  0.1903659786185585
  0.8888908039190966  0.7776405116214136  0.9404593832260701
  0.7772552344073418  0.8884722231026956  0.6903059773661866
  0.5553036524677921  0.7779579744258527  0.4392764252921140
  0.4446697380014513  0.8890022589129600  0.1838577097953618
  0.2269932784057858  0.7801638218731384  0.9428142326431157
  0.1112250229254030  0.8886414086216874  0.6903925031114468
  0.8889327570525225  0.7778507222122499  0.4402778273534480
  0.7776422048730751  0.8886674788211693  0.1900659640623488
  0.5529515124762625  0.7797409721822817  0.9427387280601067
  0.4445306140721286  0.8889314736352603  0.6909606578289313
  0.2229288428230305  0.1114618073011115  0.2493961313037829
  0.1111224332500527  0.2222278096526225  0.4992718064023407
  0.8888027118453223  0.1110687149170673  0.7492874903468731
  0.7770899742723572  0.2219334712899013  0.9994028376978221
  0.5545764635965753  0.1101574423989007  0.2483418606103172
  0.4452428406782829  0.2232795668567604  0.4982314024084928
  0.2226373512855631  0.1112945790889199  0.7492992564068075
  0.1112247862439091  0.2222787136502191  0.9992915061597074
  0.8888749762860542  0.1111045076019792  0.2492801152637654
  0.7773855445685811  0.2219970703259762  0.4993040502863977
  0.5554973246265433  0.1115306099381712  0.7506897589618831
  0.4446804481290698  0.2216367085707631  0.0007778369994469
  0.2229268948942860  0.4447992495942046  0.2493959703028850
  0.1113111150813850  0.5558833165720998  0.4994206397962486
  0.8886725184588471  0.4445862130246070  0.7493914639642227
  0.7779994171043256  0.5556659956611156  0.0008688581309997
  0.4452437836220611  0.5552953565392684  0.4982284217227075
  0.2226370878011537  0.4446757329257451  0.7492996392860150
  0.1114409319379774  0.5561973238474991  0.9995029859348392
  0.8885740779057372  0.4447583076102291  0.2495108251962819
  0.7764994335508959  0.5549174634031075  0.4983862517582480
  0.5555248992319335  0.4444306487860317  0.7499922988486318
  0.4446810817503817  0.5563785678438933  0.0007804111710001
  0.2234219122331709  0.7783789921093103  0.2484543568985060
  0.1113101969627053  0.8887618100627819  0.4994217005200596
  0.8886702147127536  0.7774172653994214  0.7493924801715153
  0.7770887661198245  0.8884879679655953  0.9994026341625855
  0.5545752682137746  0.7777517187805643  0.2483411773156661
  0.4444611733441732  0.8888967774369334  0.4999732373484136
  0.2220229985916333  0.7776786786015251  0.7508634467576272
  0.1114396581700916  0.8885768086364862  0.9995036950996834
  0.8885711339938211  0.7771464771013541  0.2495117411324443
  0.7773850278130396  0.8887219831490754  0.4993044779490248
  0.5554971680693441  0.7772983761630670  0.7506888499063678
  0.5555443374208551  0.4444368976206974  0.2477842665472494
  0.4444577072197475  0.8888982487149235  0.9979018126955452
 
  0.00000000E+00  0.00000000E+00  0.00000000E+00
  0.00000000E+00  0.00000000E+00  0.00000000E+00
  0.00000000E+00  0.00000000E+00  0.00000000E+00
  0.00000000E+00  0.00000000E+00  0.00000000E+00
  0.00000000E+00  0.00000000E+00  0.00000000E+00
  0.00000000E+00  0.00000000E+00  0.00000000E+00
  0.00000000E+00  0.00000000E+00  0.00000000E+00
  0.00000000E+00  0.00000000E+00  0.00000000E+00
  0.00000000E+00  0.00000000E+00  0.00000000E+00
  0.00000000E+00  0.00000000E+00  0.00000000E+00
  0.00000000E+00  0.00000000E+00  0.00000000E+00
  0.00000000E+00  0.00000000E+00  0.00000000E+00
  0.00000000E+00  0.00000000E+00  0.00000000E+00
  0.00000000E+00  0.00000000E+00  0.00000000E+00
  0.00000000E+00  0.00000000E+00  0.00000000E+00
  0.00000000E+00  0.00000000E+00  0.00000000E+00
  0.00000000E+00  0.00000000E+00  0.00000000E+00
  0.00000000E+00  0.00000000E+00  0.00000000E+00
  0.00000000E+00  0.00000000E+00  0.00000000E+00
  0.00000000E+00  0.00000000E+00  0.00000000E+00
  0.00000000E+00  0.00000000E+00  0.00000000E+00
  0.00000000E+00  0.00000000E+00  0.00000000E+00
  0.00000000E+00  0.00000000E+00  0.00000000E+00
  0.00000000E+00  0.00000000E+00  0.00000000E+00
  0.00000000E+00  0.00000000E+00  0.00000000E+00
  0.00000000E+00  0.00000000E+00  0.00000000E+00
  0.00000000E+00  0.00000000E+00  0.00000000E+00
  0.00000000E+00  0.00000000E+00  0.00000000E+00
  0.00000000E+00  0.00000000E+00  0.00000000E+00
  0.00000000E+00  0.00000000E+00  0.00000000E+00
  0.00000000E+00  0.00000000E+00  0.00000000E+00
  0.00000000E+00  0.00000000E+00  0.00000000E+00
  0.00000000E+00  0.00000000E+00  0.00000000E+00
  0.00000000E+00  0.00000000E+00  0.00000000E+00
  0.00000000E+00  0.00000000E+00  0.00000000E+00
  0.00000000E+00  0.00000000E+00  0.00000000E+00
  0.00000000E+00  0.00000000E+00  0.00000000E+00
  0.00000000E+00  0.00000000E+00  0.00000000E+00
  0.00000000E+00  0.00000000E+00  0.00000000E+00
  0.00000000E+00  0.00000000E+00  0.00000000E+00
  0.00000000E+00  0.00000000E+00  0.00000000E+00
  0.00000000E+00  0.00000000E+00  0.00000000E+00
  0.00000000E+00  0.00000000E+00  0.00000000E+00
  0.00000000E+00  0.00000000E+00  0.00000000E+00
  0.00000000E+00  0.00000000E+00  0.00000000E+00
  0.00000000E+00  0.00000000E+00  0.00000000E+00
  0.00000000E+00  0.00000000E+00  0.00000000E+00
  0.00000000E+00  0.00000000E+00  0.00000000E+00
  0.00000000E+00  0.00000000E+00  0.00000000E+00
  0.00000000E+00  0.00000000E+00  0.00000000E+00
  0.00000000E+00  0.00000000E+00  0.00000000E+00
  0.00000000E+00  0.00000000E+00  0.00000000E+00
  0.00000000E+00  0.00000000E+00  0.00000000E+00
  0.00000000E+00  0.00000000E+00  0.00000000E+00
  0.00000000E+00  0.00000000E+00  0.00000000E+00
  0.00000000E+00  0.00000000E+00  0.00000000E+00
  0.00000000E+00  0.00000000E+00  0.00000000E+00
  0.00000000E+00  0.00000000E+00  0.00000000E+00
  0.00000000E+00  0.00000000E+00  0.00000000E+00
  0.00000000E+00  0.00000000E+00  0.00000000E+00
  0.00000000E+00  0.00000000E+00  0.00000000E+00
  0.00000000E+00  0.00000000E+00  0.00000000E+00
  0.00000000E+00  0.00000000E+00  0.00000000E+00
  0.00000000E+00  0.00000000E+00  0.00000000E+00
  0.00000000E+00  0.00000000E+00  0.00000000E+00
  0.00000000E+00  0.00000000E+00  0.00000000E+00
  0.00000000E+00  0.00000000E+00  0.00000000E+00
  0.00000000E+00  0.00000000E+00  0.00000000E+00
  0.00000000E+00  0.00000000E+00  0.00000000E+00
  0.00000000E+00  0.00000000E+00  0.00000000E+00
  0.00000000E+00  0.00000000E+00  0.00000000E+00
  0.00000000E+00  0.00000000E+00  0.00000000E+00
