supercell of icsd_191774.cif            
   1.00000000000000     
    11.0194714538527982    0.0136086362073910    0.0022783520183877
    -5.4979335257349247    9.5886966371165965    0.0124779163132426
     0.0022849615098218    0.0166624830540501   11.5768000473689892
   N    In   La
    36    26    10
Direct
  0.2055078100599914  0.0988422254443009  0.4473241388924336
  0.1114423093596884  0.2219716065072035  0.2061083708415765
  0.8883694477371620  0.0955541916818703  0.9333769984538591
  0.7761502641214975  0.2247959777754431  0.7189935756529664
  0.5587858892012605  0.1047391484394282  0.4283577981889692
  0.4400829753738904  0.2193458492020071  0.1993837743562850
  0.2287479937431911  0.1070869766887625  0.9378768820119063
  0.1020994562422999  0.2345268822502860  0.6849226775980597
  0.8936778288049396  0.1011703451143404  0.4384387194265216
  0.7804663779318943  0.2194855834928759  0.1989993119185058
  0.5367810289718236  0.1031311266242696  0.9451222306701439
  0.4643798758068982  0.2345272628994834  0.6878931735968550
  0.2346266174619345  0.4366967324994064  0.4371963009647288
  0.1038620536185988  0.5341192708663911  0.1873993895728816
  0.8996524867865787  0.4610186424302043  0.9444193628013977
  0.7743999286727217  0.5566531387513507  0.7179448654283291
  0.5595599836241902  0.4614167730787955  0.4215373683155761
  0.4449114255952509  0.5594950007048567  0.1849688343611433
  0.2337609892167833  0.4628079241704626  0.9342469860590512
  0.1116722317683738  0.5596067669926796  0.7039700249383074
  0.8875291467099160  0.4446016631323886  0.4309318177959511
  0.7688601956892782  0.5355760434968602  0.1798566232406102
  0.5482028890166859  0.4393913555074036  0.9475848485591811
  0.4468808053221878  0.5569182473088006  0.6867427541191162
  0.2147884030737828  0.7855166976776573  0.4338306624260255
  0.1135575857909643  0.9077916199231097  0.1801448616522734
  0.8868781509754768  0.7783702536858144  0.9487846822082560
  0.7758661219434728  0.8883398114024459  0.6904292943255754
  0.5675097455785334  0.7728251545336988  0.4337466107726371
  0.4621894910342235  0.8969040484813036  0.1827661592739958
  0.2211646513326642  0.7784038690158539  0.9553204951329661
  0.0989971560839464  0.8676464723161885  0.6930913491538959
  0.8943621305437759  0.7889176453633411  0.4432398109634121
  0.7716634070349144  0.9009505052544995  0.1815392761298469
  0.5569505069488088  0.7770652334711698  0.9384989678312721
  0.4410294266951595  0.8886982364592839  0.7111166448506978
  0.2167781078357365  0.1097106018376550  0.2546397347214793
  0.1088671637458489  0.2201891905344411  0.4925078222510280
  0.8867292293511753  0.1085811405434569  0.7492785847950358
  0.5609499345213749  0.1100288055782528  0.2430717286270365
  0.8879381779885946  0.1097112415459236  0.2522783676782723
  0.5519524887991807  0.1125563218097341  0.7591247655598394
  0.4379234263958978  0.2169317498983929  0.0068992258899030
  0.2265461731102221  0.4408124226707031  0.2501153668426142
  0.8928743535439594  0.4511084102093790  0.7605101763073776
  0.7752944778835129  0.5542895500139622  0.9922837490828371
  0.5534180734111303  0.4450897681558104  0.2364823920234898
  0.4511144848564825  0.5569963550437720  0.4940112544983180
  0.2248982925855856  0.4516499460438510  0.7474565022180357
  0.1143166688699608  0.5569243519812090  0.9971726994625669
  0.8844086879048376  0.4356956625477082  0.2439061165491623
  0.5535750918868274  0.4435207083731711  0.7592310966189331
  0.4467735666142687  0.5618925680725084  0.9973810737909119
  0.1040830952420677  0.8831987320285108  0.5013257352590372
  0.8849113852060029  0.7764902799468771  0.7585795188819873
  0.7733336451700836  0.8877805472251268  0.9952695385253278
  0.5598724192156155  0.7804000803587314  0.2444692874297161
  0.2182079170042712  0.7734865979187902  0.7634005090435352
  0.1118802935817342  0.8945078912204494  0.9950092542549882
  0.7825070314258156  0.8880965865470074  0.5003767548127769
  0.5557736986531125  0.7761361145849222  0.7519678136280348
  0.4465345196909567  0.8875693335221726  0.9931024406586957
  0.7754342454180900  0.2212250204981316  0.9915935484738796
  0.4469597339148592  0.2290249354804388  0.4795719009354258
  0.2220287817160624  0.1095286284982109  0.7353063874369496
  0.1180764102533942  0.2278056467086103  0.0017827993832213
  0.7813186717395908  0.2191569798859234  0.5051479206724352
  0.1155141894412992  0.5556340484986038  0.4972704415029625
  0.7772353443506930  0.5620510146771522  0.5096145445892830
  0.2230882703960901  0.7791086126710312  0.2272460090284625
  0.4432810362299122  0.8828042016171054  0.5022489897888391
  0.8802341241730218  0.7753976706080081  0.2380603062923825
 
  0.00000000E+00  0.00000000E+00  0.00000000E+00
  0.00000000E+00  0.00000000E+00  0.00000000E+00
  0.00000000E+00  0.00000000E+00  0.00000000E+00
  0.00000000E+00  0.00000000E+00  0.00000000E+00
  0.00000000E+00  0.00000000E+00  0.00000000E+00
  0.00000000E+00  0.00000000E+00  0.00000000E+00
  0.00000000E+00  0.00000000E+00  0.00000000E+00
  0.00000000E+00  0.00000000E+00  0.00000000E+00
  0.00000000E+00  0.00000000E+00  0.00000000E+00
  0.00000000E+00  0.00000000E+00  0.00000000E+00
  0.00000000E+00  0.00000000E+00  0.00000000E+00
  0.00000000E+00  0.00000000E+00  0.00000000E+00
  0.00000000E+00  0.00000000E+00  0.00000000E+00
  0.00000000E+00  0.00000000E+00  0.00000000E+00
  0.00000000E+00  0.00000000E+00  0.00000000E+00
  0.00000000E+00  0.00000000E+00  0.00000000E+00
  0.00000000E+00  0.00000000E+00  0.00000000E+00
  0.00000000E+00  0.00000000E+00  0.00000000E+00
  0.00000000E+00  0.00000000E+00  0.00000000E+00
  0.00000000E+00  0.00000000E+00  0.00000000E+00
  0.00000000E+00  0.00000000E+00  0.00000000E+00
  0.00000000E+00  0.00000000E+00  0.00000000E+00
  0.00000000E+00  0.00000000E+00  0.00000000E+00
  0.00000000E+00  0.00000000E+00  0.00000000E+00
  0.00000000E+00  0.00000000E+00  0.00000000E+00
  0.00000000E+00  0.00000000E+00  0.00000000E+00
  0.00000000E+00  0.00000000E+00  0.00000000E+00
  0.00000000E+00  0.00000000E+00  0.00000000E+00
  0.00000000E+00  0.00000000E+00  0.00000000E+00
  0.00000000E+00  0.00000000E+00  0.00000000E+00
  0.00000000E+00  0.00000000E+00  0.00000000E+00
  0.00000000E+00  0.00000000E+00  0.00000000E+00
  0.00000000E+00  0.00000000E+00  0.00000000E+00
  0.00000000E+00  0.00000000E+00  0.00000000E+00
  0.00000000E+00  0.00000000E+00  0.00000000E+00
  0.00000000E+00  0.00000000E+00  0.00000000E+00
  0.00000000E+00  0.00000000E+00  0.00000000E+00
  0.00000000E+00  0.00000000E+00  0.00000000E+00
  0.00000000E+00  0.00000000E+00  0.00000000E+00
  0.00000000E+00  0.00000000E+00  0.00000000E+00
  0.00000000E+00  0.00000000E+00  0.00000000E+00
  0.00000000E+00  0.00000000E+00  0.00000000E+00
  0.00000000E+00  0.00000000E+00  0.00000000E+00
  0.00000000E+00  0.00000000E+00  0.00000000E+00
  0.00000000E+00  0.00000000E+00  0.00000000E+00
  0.00000000E+00  0.00000000E+00  0.00000000E+00
  0.00000000E+00  0.00000000E+00  0.00000000E+00
  0.00000000E+00  0.00000000E+00  0.00000000E+00
  0.00000000E+00  0.00000000E+00  0.00000000E+00
  0.00000000E+00  0.00000000E+00  0.00000000E+00
  0.00000000E+00  0.00000000E+00  0.00000000E+00
  0.00000000E+00  0.00000000E+00  0.00000000E+00
  0.00000000E+00  0.00000000E+00  0.00000000E+00
  0.00000000E+00  0.00000000E+00  0.00000000E+00
  0.00000000E+00  0.00000000E+00  0.00000000E+00
  0.00000000E+00  0.00000000E+00  0.00000000E+00
  0.00000000E+00  0.00000000E+00  0.00000000E+00
  0.00000000E+00  0.00000000E+00  0.00000000E+00
  0.00000000E+00  0.00000000E+00  0.00000000E+00
  0.00000000E+00  0.00000000E+00  0.00000000E+00
  0.00000000E+00  0.00000000E+00  0.00000000E+00
  0.00000000E+00  0.00000000E+00  0.00000000E+00
  0.00000000E+00  0.00000000E+00  0.00000000E+00
  0.00000000E+00  0.00000000E+00  0.00000000E+00
  0.00000000E+00  0.00000000E+00  0.00000000E+00
  0.00000000E+00  0.00000000E+00  0.00000000E+00
  0.00000000E+00  0.00000000E+00  0.00000000E+00
  0.00000000E+00  0.00000000E+00  0.00000000E+00
  0.00000000E+00  0.00000000E+00  0.00000000E+00
  0.00000000E+00  0.00000000E+00  0.00000000E+00
  0.00000000E+00  0.00000000E+00  0.00000000E+00
  0.00000000E+00  0.00000000E+00  0.00000000E+00
