generated by phonopy                    
   1.00000000000000     
    10.0351470768999995   -0.0000022330999784   -0.0000001056124209
    -5.0175765436399997    8.6906901959899994    0.0000001395531216
    -0.0000001735893656    0.0000001431815548   14.9533752540999991
   Pb   P    O 
    21    12    49
Direct
  0.0044803930580102  0.7828383055580730  0.1223122247610675
  0.0092090316665434  0.7870824352110759  0.6163319174286457
  0.9886910103358915  0.3131357436010020  0.3743460847962083
  0.0079573318074040  0.2491266448460365  0.8732272143771453
  0.2210359331664904  0.2360977727333875  0.1304450695428656
  0.2220327954895396  0.2266689758023475  0.6008453584354996
  0.7286589472017511  0.7295993528110714  0.3693507336176935
  0.7475599148784227  0.7390056812194743  0.8734198449635215
  0.7689944441895946  0.0049528312104741  0.1213393262687248
  0.7674859866463208  0.0017218763896594  0.6234209508928643
  0.0855115285653198  0.0146243815089662  0.3530511556128673
  0.2682628597937793  0.9907036381784238  0.8734784012549142
  0.6704014592817771  0.3333305731780172  0.9992626348950893
  0.6962145808464228  0.3567236224393895  0.5104878546782103
  0.3351459460060440  0.6559563679442135  0.0023538827968039
  0.3502108274493594  0.6813629896389699  0.5026313490556973
  0.3489592352052711  0.6964170089662858  0.2477577379157907
  0.3366538399379309  0.6536673792874694  0.7478724332421223
  0.6740134006098799  0.3378727915829103  0.2461142009271455
  0.6682648285660804  0.3274937631045276  0.7538928276687145
  0.4047755852692063  0.1734358605906436  0.3925081204560854
  0.6225283419921439  0.5905420504854106  0.1218586456651778
  0.6249018772878685  0.5880524197618087  0.6284962709160311
  0.3403927383651819  0.4023033778549632  0.3738125941957406
  0.3761562003603203  0.3906693918683359  0.8743384816247755
  0.4099446509852100  0.0249564732255081  0.1073140174131950
  0.4157543399836712  0.0197636699887624  0.6426060931682116
  0.6105508304132101  0.9656838221166382  0.3728486161838518
  0.6142863350427490  0.9683879906135857  0.8751502743128441
  0.9734174827620521  0.3792934042676634  0.1182120435442187
  0.9782371862145780  0.3779081955552073  0.6332696582751893
  0.0271513639012326  0.6706774197593646  0.3712923843770994
  0.0346258354007034  0.6251043096809354  0.8737815368045645
  0.5011906278587333  0.6438535041718083  0.1243323375517562
  0.5025834740702990  0.6397128328308739  0.6258446661579384
  0.4821253134390631  0.3189095155840604  0.8740111121205487
  0.3733074629679294  0.8544314826529842  0.1092067352425588
  0.3858067253992203  0.8521299632328265  0.6411180119264657
  0.6964199134591453  0.1436162574034086  0.3712053584200063
  0.6904818619507367  0.1469831327937641  0.8755946676247248
  0.1497965222148636  0.4931237661855405  0.1186749903768032
  0.1536573926406390  0.4942026409682683  0.6305743638093588
  0.8586956320600692  0.5322504701544730  0.3707775173201284
  0.8555246555491252  0.5317980366968982  0.8749325863149622
  0.7199451169495461  0.6415622583559468  0.0339919773424384
  0.7311988596969456  0.6483384972591821  0.5439044071593386
  0.2443882756039528  0.4013473285371418  0.4599542209442546
  0.2704933764601591  0.3421629930880457  0.9590105358319789
  0.4092305425865419  0.0822560861482557  0.0102164346502036
  0.2862648047152661  0.0223982965089746  0.5880071466328403
  0.6597418903904355  0.9031217596475116  0.4560677068106713
  0.6661423560848760  0.9105081285231194  0.9582902583285886
  0.9219129772217869  0.2681398395312371  0.0352590715764478
  0.9269268436427538  0.2715472928291689  0.5481241972418189
  0.0502977490983625  0.7861876020101022  0.4478292991906230
  0.1017926336705486  0.7312135582145629  0.9577841458369534
  0.2224812395459850  0.3582220585353824  0.2918735344983290
  0.2677913788929942  0.3412637423624929  0.7912498629039533
  0.7363765728379406  0.6601176665504482  0.2026266327928639
  0.7274159661941582  0.6491013845169178  0.7138025465449616
  0.6479856231899532  0.8973113864807374  0.2875631905308467
  0.6657103603098236  0.9113026272309739  0.7913854461085990
  0.2885329021437357  0.0378435416202620  0.1640876308576651
  0.4165067295846256  0.0786069455526146  0.7394872352911293
  0.0693092841138991  0.7660848488888661  0.2833474200290524
  0.1008193783809261  0.7302994451573070  0.7897907360556502
  0.9239622239372594  0.2727674694510540  0.2031966244086405
  0.9283047924893566  0.2669068133176182  0.7158461239197180
  0.5404651974455632  0.4097090464967010  0.1274692831776818
  0.5445206503109716  0.4069659128628729  0.6275674653614303
  0.4571410308866035  0.5840660501397608  0.3611023999366623
  0.4817088739864204  0.5720711442236848  0.8742444755189709
  0.5785346752788172  0.1304972963417725  0.1419016962445738
  0.5807532656588847  0.1304326802321043  0.6051563347092497
  0.4321968332148174  0.8957619498322487  0.3753133198352501
  0.4333468109587315  0.8859014942010575  0.8758487393723655
  0.8829075298142826  0.4683779498828997  0.1172216651279854
  0.8867774940414392  0.4662811470926016  0.6354459346256078
  0.1334339881482975  0.5987287142478195  0.3831709325988797
  0.0994152751163355  0.5097040176533767  0.8744065558704364
  0.9945936614593478  0.0074140068810991  0.1145162561763939
  0.9927594293016213  0.0030540152640768  0.6245557780655346
 
  0.00000000E+00  0.00000000E+00  0.00000000E+00
  0.00000000E+00  0.00000000E+00  0.00000000E+00
  0.00000000E+00  0.00000000E+00  0.00000000E+00
  0.00000000E+00  0.00000000E+00  0.00000000E+00
  0.00000000E+00  0.00000000E+00  0.00000000E+00
  0.00000000E+00  0.00000000E+00  0.00000000E+00
  0.00000000E+00  0.00000000E+00  0.00000000E+00
  0.00000000E+00  0.00000000E+00  0.00000000E+00
  0.00000000E+00  0.00000000E+00  0.00000000E+00
  0.00000000E+00  0.00000000E+00  0.00000000E+00
  0.00000000E+00  0.00000000E+00  0.00000000E+00
  0.00000000E+00  0.00000000E+00  0.00000000E+00
  0.00000000E+00  0.00000000E+00  0.00000000E+00
  0.00000000E+00  0.00000000E+00  0.00000000E+00
  0.00000000E+00  0.00000000E+00  0.00000000E+00
  0.00000000E+00  0.00000000E+00  0.00000000E+00
  0.00000000E+00  0.00000000E+00  0.00000000E+00
  0.00000000E+00  0.00000000E+00  0.00000000E+00
  0.00000000E+00  0.00000000E+00  0.00000000E+00
  0.00000000E+00  0.00000000E+00  0.00000000E+00
  0.00000000E+00  0.00000000E+00  0.00000000E+00
  0.00000000E+00  0.00000000E+00  0.00000000E+00
  0.00000000E+00  0.00000000E+00  0.00000000E+00
  0.00000000E+00  0.00000000E+00  0.00000000E+00
  0.00000000E+00  0.00000000E+00  0.00000000E+00
  0.00000000E+00  0.00000000E+00  0.00000000E+00
  0.00000000E+00  0.00000000E+00  0.00000000E+00
  0.00000000E+00  0.00000000E+00  0.00000000E+00
  0.00000000E+00  0.00000000E+00  0.00000000E+00
  0.00000000E+00  0.00000000E+00  0.00000000E+00
  0.00000000E+00  0.00000000E+00  0.00000000E+00
  0.00000000E+00  0.00000000E+00  0.00000000E+00
  0.00000000E+00  0.00000000E+00  0.00000000E+00
  0.00000000E+00  0.00000000E+00  0.00000000E+00
  0.00000000E+00  0.00000000E+00  0.00000000E+00
  0.00000000E+00  0.00000000E+00  0.00000000E+00
  0.00000000E+00  0.00000000E+00  0.00000000E+00
  0.00000000E+00  0.00000000E+00  0.00000000E+00
  0.00000000E+00  0.00000000E+00  0.00000000E+00
  0.00000000E+00  0.00000000E+00  0.00000000E+00
  0.00000000E+00  0.00000000E+00  0.00000000E+00
  0.00000000E+00  0.00000000E+00  0.00000000E+00
  0.00000000E+00  0.00000000E+00  0.00000000E+00
  0.00000000E+00  0.00000000E+00  0.00000000E+00
  0.00000000E+00  0.00000000E+00  0.00000000E+00
  0.00000000E+00  0.00000000E+00  0.00000000E+00
  0.00000000E+00  0.00000000E+00  0.00000000E+00
  0.00000000E+00  0.00000000E+00  0.00000000E+00
  0.00000000E+00  0.00000000E+00  0.00000000E+00
  0.00000000E+00  0.00000000E+00  0.00000000E+00
  0.00000000E+00  0.00000000E+00  0.00000000E+00
  0.00000000E+00  0.00000000E+00  0.00000000E+00
  0.00000000E+00  0.00000000E+00  0.00000000E+00
  0.00000000E+00  0.00000000E+00  0.00000000E+00
  0.00000000E+00  0.00000000E+00  0.00000000E+00
  0.00000000E+00  0.00000000E+00  0.00000000E+00
  0.00000000E+00  0.00000000E+00  0.00000000E+00
  0.00000000E+00  0.00000000E+00  0.00000000E+00
  0.00000000E+00  0.00000000E+00  0.00000000E+00
  0.00000000E+00  0.00000000E+00  0.00000000E+00
  0.00000000E+00  0.00000000E+00  0.00000000E+00
  0.00000000E+00  0.00000000E+00  0.00000000E+00
  0.00000000E+00  0.00000000E+00  0.00000000E+00
  0.00000000E+00  0.00000000E+00  0.00000000E+00
  0.00000000E+00  0.00000000E+00  0.00000000E+00
  0.00000000E+00  0.00000000E+00  0.00000000E+00
  0.00000000E+00  0.00000000E+00  0.00000000E+00
  0.00000000E+00  0.00000000E+00  0.00000000E+00
  0.00000000E+00  0.00000000E+00  0.00000000E+00
  0.00000000E+00  0.00000000E+00  0.00000000E+00
  0.00000000E+00  0.00000000E+00  0.00000000E+00
  0.00000000E+00  0.00000000E+00  0.00000000E+00
  0.00000000E+00  0.00000000E+00  0.00000000E+00
  0.00000000E+00  0.00000000E+00  0.00000000E+00
  0.00000000E+00  0.00000000E+00  0.00000000E+00
  0.00000000E+00  0.00000000E+00  0.00000000E+00
  0.00000000E+00  0.00000000E+00  0.00000000E+00
  0.00000000E+00  0.00000000E+00  0.00000000E+00
  0.00000000E+00  0.00000000E+00  0.00000000E+00
  0.00000000E+00  0.00000000E+00  0.00000000E+00
  0.00000000E+00  0.00000000E+00  0.00000000E+00
  0.00000000E+00  0.00000000E+00  0.00000000E+00
