supercell of supercell of icsd_608626.c 
   1.00600000000000     
    18.8433725412000008    0.0042597715995000    0.0111656436851000
    -6.2786657403800001   10.8752831735999997   -0.0012954496991100
     0.0059525623905900    0.0022414031449000   10.0498800689000003
   Al   Gd   N 
    92     3    96
Direct
  0.1110957448198988  0.0832730226266136  0.2499656369995336
  0.0557403151484337  0.1652374405926977  0.0006475753367639
  0.4441115164152905  0.3354446401705218  0.7497400733675477
  0.3887319988525206  0.4166642792535171  0.4983558256915757
  0.2784494776039566  0.0854141322082285  0.2574643589181491
  0.2208346332931228  0.1727843392651351  0.0016376250404164
  0.1121762413904221  0.3339764817579436  0.7469660548132495
  0.0559404910761003  0.4169598119179980  0.4987698189741039
  0.4435726777733251  0.0827287064752085  0.2485985676101876
  0.3913199465818451  0.1747770407803628  0.9982505504904395
  0.2769043085043421  0.3347300497077299  0.7464586945281795
  0.2222606988178342  0.4167851645553426  0.4948006710656045
  0.1113117477274841  0.0840361067995588  0.7490149776041051
  0.0555524670308358  0.1664749554668674  0.4989800117534102
  0.4445922633088131  0.3341384720087177  0.2490908882780758
  0.3871978154251678  0.4179785879774798  0.0008570350957413
  0.2797954414149331  0.0913896449766298  0.7432768393152642
  0.2216005218079076  0.1677918872154720  0.4990795137435029
  0.1102201971890864  0.3323657606227073  0.2486708516650751
  0.0581484305294637  0.4195370695844503  0.0013618063681804
  0.4430231512808191  0.0816910758085427  0.7494312026982399
  0.3903978302424562  0.1685262411502677  0.4998118382057299
  0.2783874222295424  0.3331398876795220  0.2492682894793106
  0.6114190450674428  0.0836229100530943  0.2481726596170404
  0.5494148389385316  0.1605100334834972  0.9982617858051555
  0.9465157528989181  0.3347063542382287  0.7499718485123026
  0.8903907343410253  0.4171179587735239  0.5002991108530139
  0.7793626520641510  0.0860130339458323  0.2585068931960635
  0.7252536786969159  0.1686342509002330  0.9981899378437618
  0.6057972734448782  0.3293878567200181  0.7432845545258573
  0.5547147477504879  0.4179043208507522  0.4997928108370004
  0.9445120639771858  0.0832814484518352  0.2493319150589244
  0.8933825219286859  0.1729120175720311  0.9984538930836280
  0.7798124825556485  0.3315438024407484  0.7446498017825220
  0.7220654997702596  0.4164388918208530  0.5001380193172622
  0.6106982750225072  0.0828210871269377  0.7494827246156746
  0.5542202414843231  0.1639681188568858  0.4999770542373767
  0.9450927606751875  0.3338252396817083  0.2496050290830638
  0.8913994836948973  0.4149434828111680  0.9994123151576915
  0.7803152526573811  0.0881856781826258  0.7446080617876802
  0.7214686823112260  0.1660266073530963  0.5014262301769321
  0.6091858946818931  0.3317197470242235  0.2586320323356261
  0.5521848163297491  0.4168365912692451  0.9987897226395575
  0.9456127911698715  0.0843472597131409  0.7496908606349422
  0.8908807119769975  0.1685295321222497  0.5004594832311611
  0.7789193843233662  0.3327194717166222  0.2584064408767830
  0.1110961240310004  0.5833889363982792  0.2500042052275617
  0.0518609876689453  0.6624187479774690  0.9993525300590278
  0.4442263004019864  0.8327552764424127  0.7496530245080422
  0.3897348440264068  0.9167368572316832  0.4994027198097228
  0.2787828260791372  0.5847204598275653  0.2486947258926193
  0.2208403591652228  0.6587967691827430  0.0017918461164257
  0.1073049561036257  0.8302573126237576  0.7448119633641568
  0.0552967284955059  0.9177190893730653  0.5001498416055767
  0.4443535280419013  0.5833206038201411  0.2494832332396228
  0.3901142761831764  0.6664447850109241  0.9995395375195812
  0.2792458181479489  0.8282285346040723  0.7431101352277594
  0.2224143533592695  0.9168738096177051  0.5012403502024654
  0.1113237030043379  0.5826860034642110  0.7490701902146526
  0.0548799529728541  0.6646276609305488  0.5003582404359719
  0.4446940029783875  0.8332213362700784  0.2491537231789138
  0.3889850812710876  0.9112546392724425  0.9997170553532584
  0.2774717407116469  0.5814017213775600  0.7463832639613059
  0.2216209739555026  0.6645282758010467  0.4989993400375141
  0.1099597266438579  0.8321590820818230  0.2575441744316151
  0.0539522542908131  0.9162849165041038  0.9999793465583622
  0.4435013871481104  0.5821502349302037  0.7488311428770800
  0.3894045818433085  0.6671383993548474  0.4986843613512022
  0.2781122098599624  0.8320403063670341  0.2578025328873963
  0.6117555748612773  0.5840020106457544  0.2483456622831568
  0.5513699378966876  0.6621341015613709  0.9980935110042211
  0.9454184905269045  0.8347072890340499  0.7505915260554303
  0.8905845975496192  0.9177282620289660  0.5003864153366209
  0.7790559506926087  0.5854613675190095  0.2582123892103283
  0.7256939422283821  0.6694223652607079  0.9982955881883626
  0.6069332822708589  0.8299531276838295  0.7433285939637955
  0.5547484248777508  0.9173954028766715  0.4999145205639550
  0.9442458534798917  0.5830205782460496  0.2494850644015898
  0.8919827600590935  0.6716320361506334  0.9986094410181892
  0.7800585318664233  0.8323879352766355  0.7444722173168259
  0.7223954642060875  0.9168310225036151  0.4996214665159329
  0.6112099977217937  0.5836279498253276  0.7495339749836276
  0.5545326034910545  0.6643119653908443  0.5000692346085671
  0.9448262878138891  0.8335483863569735  0.2496547410909997
  0.8915115694316853  0.9166349505702485  0.9993030954651445
  0.7799102934200519  0.5878219663841477  0.7449576977101273
  0.7216911004390951  0.6662132106353909  0.5014160024939684
  0.6095813026292447  0.8319733838346082  0.2588757214018855
  0.5526118169919982  0.9147561491393645  0.9987157573163330
  0.9444356485990681  0.5825150109842383  0.7502337403977108
  0.8906538375378119  0.6682593142242510  0.5005818814667506
  0.7791672645772323  0.8328737217373785  0.2588162221356285
  0.7187472705218170  0.4135634809049549  0.9973557855949338
  0.2240229583712861  0.9184731239240733  0.9929090004740004
  0.7204122407193694  0.9156290514290788  0.9987645753885488
  0.1110153244441889  0.0833068694018095  0.4392568218318047
  0.0554410487047718  0.1658252013266051  0.1903505761042652
  0.4442515212337597  0.3393106513881037  0.9401546984612708
  0.3881913674389494  0.4166518022559131  0.6878633861739445
  0.2786943551843919  0.0855497054858532  0.4467234070097064
  0.2223067300798931  0.1660847227212940  0.1915816040805325
  0.0996181735951467  0.3239226958768668  0.9333764746957200
  0.0565172692420646  0.4174284676876994  0.6884692992055221
  0.4438362237663540  0.0827306005396977  0.4386325023783968
  0.3884376555027345  0.1670560933379832  0.1899715933343913
  0.2814002830451869  0.3292484381740053  0.9333771270890523
  0.2221300238582344  0.4168942907864803  0.6863466607904840
  0.1113383757030704  0.0826388118762083  0.9408760402257030
  0.0560363867196614  0.1667265763807322  0.6890198761409039
  0.4445647274800422  0.3340268410816734  0.4386908464828778
  0.3891563057178971  0.4171489752082564  0.1906032327586118
  0.2855499761411338  0.1118108394458659  0.9298030685653202
  0.2209804408536584  0.1683521470190783  0.6867465315581356
  0.1101524359839416  0.3323732248667568  0.4402314964040883
  0.0560147708890000  0.4174335842591077  0.1908428451532913
  0.4382561779917609  0.0768916072726995  0.9410473522634106
  0.3910182277285443  0.1692429957990313  0.6888272821145378
  0.2782967937604468  0.3329822770769297  0.4398228768360255
  0.2222160352530835  0.4166931294692304  0.2127197717531004
  0.6111636354812831  0.0834618444182595  0.4384509940096279
  0.5552298527952004  0.1668679423803994  0.1898631238763357
  0.9494469718208478  0.3377740338118400  0.9404054499599113
  0.8908652150138465  0.4173639583982407  0.6888419805713397
  0.7792634230395024  0.0861485961748087  0.4472136477408100
  0.7232958008924228  0.1673515553847196  0.1909992522930892
  0.5908627312826411  0.3178530428835771  0.9287502742676068
  0.5544411680909889  0.4186706563941698  0.6881489393024722
  0.9446651713726766  0.0834253402485814  0.4393926763514813
  0.8890923459082245  0.1669440998750460  0.1905628992400850
  0.7862882554764212  0.3262013664862735  0.9307439900869099
  0.7213905350027119  0.4158982333100738  0.6963989082787734
  0.6116022523974820  0.0839849696039963  0.9417899263266705
  0.5536679351802078  0.1626976908062261  0.6888141391048137
  0.9452626375278115  0.3339806574205113  0.4392862422735604
  0.8886301539801593  0.4160756034070516  0.1911656220660447
  0.7875085077712711  0.1039960108439928  0.9306105293661062
  0.7207710000623564  0.1653658094155261  0.6886329846459773
  0.6089787253467094  0.3315536716732765  0.4474834312283065
  0.5562595419430849  0.4167112154656252  0.1903990444203458
  0.9446425572380903  0.0829366229824728  0.9408641032454739
  0.8915590252615928  0.1688835568319789  0.6890968145012053
  0.7788168845572443  0.3325381878113518  0.4471521531750327
  0.7220452395516475  0.4163441713647700  0.2194857500091985
  0.1110326611517678  0.5832762929789226  0.4392653280614880
  0.0556986315697614  0.6671635983051090  0.1909186778778889
  0.4447283640077799  0.8333182058116506  0.9400907420497049
  0.3898861120428094  0.9167228087148942  0.6879190285095120
  0.2787991767721039  0.5848559637054151  0.4397607868727249
  0.2223195435262184  0.6672870989449393  0.1916330573654079
  0.0959660945841421  0.8211115275532705  0.9315170080877735
  0.0555210432759452  0.9184922333485233  0.6887223843333885
  0.4442844083869488  0.5830695968216375  0.4391316535242851
  0.3896944622601453  0.6673403319679565  0.1896981718085371
  0.2841387079779665  0.8160950008845020  0.9297360696098735
  0.2228167106529071  0.9173376564131885  0.6986072984459710
  0.1114083926159140  0.5845300402667419  0.9409121643812099
  0.0549609675742389  0.6639831297488499  0.6892705556111736
  0.4446099279080897  0.8334856485566604  0.4387150380099172
  0.3879964370198010  0.9154742815103489  0.1909089807972322
  0.2834217577995375  0.5960139357127829  0.9332856668164311
  0.2209873535261622  0.6630819531205958  0.6867002156468729
  0.1099126430516932  0.8321490126076938  0.4470797837363989
  0.0562976224688470  0.9164502865340154  0.1913292123025485
  0.4420416901859738  0.5800402097183621  0.9394652551850413
  0.3893279982202316  0.6669143491972633  0.6886564003621842
  0.2782279967893544  0.8321623487477368  0.4466542099580053
  0.2223745475999053  0.9167935342657287  0.2154449723610981
  0.6114654631060148  0.5837544151642575  0.4384449499677814
  0.5559909162859569  0.6675175522057941  0.1900533284552850
  0.9466706264626836  0.8366572674313346  0.9407293339036613
  0.8911349095685210  0.9185401995373113  0.6888441457571233
  0.7790531256114264  0.5855822182603561  0.4471792278632449
  0.7235923926248304  0.6676995348444379  0.1911603785895082
  0.5937049222102715  0.8195076737088058  0.9287075033493934
  0.5545162400977688  0.9177669864857094  0.6882831420594755
  0.9443873011600772  0.5830278404950278  0.4395047548587456
  0.8888425510307911  0.6666470501641513  0.1907404234165782
  0.7865045477521306  0.8270826469950521  0.9304404613182342
  0.7220001921509862  0.9166335478193162  0.6955030844159609
  0.6128222583110841  0.5850107374834295  0.9416922946781270
  0.5542125386694750  0.6632987038413916  0.6885614593642657
  0.9450380360480537  0.8338079220546248  0.4393162816186233
  0.8887333912483371  0.9164723155728396  0.1910953232664596
  0.7863729025630661  0.6023969344606144  0.9310161226059037
  0.7211971596887778  0.6659386678949701  0.6885632993081643
  0.6092750056653387  0.8317834656172636  0.4474789371121801
  0.5563347081304642  0.9165460289114762  0.1903603849742339
  0.9420997154655666  0.5797942398960885  0.9411669424119111
  0.8913237557862388  0.6686173354374745  0.6894880741135196
  0.7791130663819104  0.8326880939736796  0.4473141400134182
  0.7224653052822845  0.9168317519060807  0.2207642600679307
 
  0.00000000E+00  0.00000000E+00  0.00000000E+00
  0.00000000E+00  0.00000000E+00  0.00000000E+00
  0.00000000E+00  0.00000000E+00  0.00000000E+00
  0.00000000E+00  0.00000000E+00  0.00000000E+00
  0.00000000E+00  0.00000000E+00  0.00000000E+00
  0.00000000E+00  0.00000000E+00  0.00000000E+00
  0.00000000E+00  0.00000000E+00  0.00000000E+00
  0.00000000E+00  0.00000000E+00  0.00000000E+00
  0.00000000E+00  0.00000000E+00  0.00000000E+00
  0.00000000E+00  0.00000000E+00  0.00000000E+00
  0.00000000E+00  0.00000000E+00  0.00000000E+00
  0.00000000E+00  0.00000000E+00  0.00000000E+00
  0.00000000E+00  0.00000000E+00  0.00000000E+00
  0.00000000E+00  0.00000000E+00  0.00000000E+00
  0.00000000E+00  0.00000000E+00  0.00000000E+00
  0.00000000E+00  0.00000000E+00  0.00000000E+00
  0.00000000E+00  0.00000000E+00  0.00000000E+00
  0.00000000E+00  0.00000000E+00  0.00000000E+00
  0.00000000E+00  0.00000000E+00  0.00000000E+00
  0.00000000E+00  0.00000000E+00  0.00000000E+00
  0.00000000E+00  0.00000000E+00  0.00000000E+00
  0.00000000E+00  0.00000000E+00  0.00000000E+00
  0.00000000E+00  0.00000000E+00  0.00000000E+00
  0.00000000E+00  0.00000000E+00  0.00000000E+00
  0.00000000E+00  0.00000000E+00  0.00000000E+00
  0.00000000E+00  0.00000000E+00  0.00000000E+00
  0.00000000E+00  0.00000000E+00  0.00000000E+00
  0.00000000E+00  0.00000000E+00  0.00000000E+00
  0.00000000E+00  0.00000000E+00  0.00000000E+00
  0.00000000E+00  0.00000000E+00  0.00000000E+00
  0.00000000E+00  0.00000000E+00  0.00000000E+00
  0.00000000E+00  0.00000000E+00  0.00000000E+00
  0.00000000E+00  0.00000000E+00  0.00000000E+00
  0.00000000E+00  0.00000000E+00  0.00000000E+00
  0.00000000E+00  0.00000000E+00  0.00000000E+00
  0.00000000E+00  0.00000000E+00  0.00000000E+00
  0.00000000E+00  0.00000000E+00  0.00000000E+00
  0.00000000E+00  0.00000000E+00  0.00000000E+00
  0.00000000E+00  0.00000000E+00  0.00000000E+00
  0.00000000E+00  0.00000000E+00  0.00000000E+00
  0.00000000E+00  0.00000000E+00  0.00000000E+00
  0.00000000E+00  0.00000000E+00  0.00000000E+00
  0.00000000E+00  0.00000000E+00  0.00000000E+00
  0.00000000E+00  0.00000000E+00  0.00000000E+00
  0.00000000E+00  0.00000000E+00  0.00000000E+00
  0.00000000E+00  0.00000000E+00  0.00000000E+00
  0.00000000E+00  0.00000000E+00  0.00000000E+00
  0.00000000E+00  0.00000000E+00  0.00000000E+00
  0.00000000E+00  0.00000000E+00  0.00000000E+00
  0.00000000E+00  0.00000000E+00  0.00000000E+00
  0.00000000E+00  0.00000000E+00  0.00000000E+00
  0.00000000E+00  0.00000000E+00  0.00000000E+00
  0.00000000E+00  0.00000000E+00  0.00000000E+00
  0.00000000E+00  0.00000000E+00  0.00000000E+00
  0.00000000E+00  0.00000000E+00  0.00000000E+00
  0.00000000E+00  0.00000000E+00  0.00000000E+00
  0.00000000E+00  0.00000000E+00  0.00000000E+00
  0.00000000E+00  0.00000000E+00  0.00000000E+00
  0.00000000E+00  0.00000000E+00  0.00000000E+00
  0.00000000E+00  0.00000000E+00  0.00000000E+00
  0.00000000E+00  0.00000000E+00  0.00000000E+00
  0.00000000E+00  0.00000000E+00  0.00000000E+00
  0.00000000E+00  0.00000000E+00  0.00000000E+00
  0.00000000E+00  0.00000000E+00  0.00000000E+00
  0.00000000E+00  0.00000000E+00  0.00000000E+00
  0.00000000E+00  0.00000000E+00  0.00000000E+00
  0.00000000E+00  0.00000000E+00  0.00000000E+00
  0.00000000E+00  0.00000000E+00  0.00000000E+00
  0.00000000E+00  0.00000000E+00  0.00000000E+00
  0.00000000E+00  0.00000000E+00  0.00000000E+00
  0.00000000E+00  0.00000000E+00  0.00000000E+00
  0.00000000E+00  0.00000000E+00  0.00000000E+00
  0.00000000E+00  0.00000000E+00  0.00000000E+00
  0.00000000E+00  0.00000000E+00  0.00000000E+00
  0.00000000E+00  0.00000000E+00  0.00000000E+00
  0.00000000E+00  0.00000000E+00  0.00000000E+00
  0.00000000E+00  0.00000000E+00  0.00000000E+00
  0.00000000E+00  0.00000000E+00  0.00000000E+00
  0.00000000E+00  0.00000000E+00  0.00000000E+00
  0.00000000E+00  0.00000000E+00  0.00000000E+00
  0.00000000E+00  0.00000000E+00  0.00000000E+00
  0.00000000E+00  0.00000000E+00  0.00000000E+00
  0.00000000E+00  0.00000000E+00  0.00000000E+00
  0.00000000E+00  0.00000000E+00  0.00000000E+00
  0.00000000E+00  0.00000000E+00  0.00000000E+00
  0.00000000E+00  0.00000000E+00  0.00000000E+00
  0.00000000E+00  0.00000000E+00  0.00000000E+00
  0.00000000E+00  0.00000000E+00  0.00000000E+00
  0.00000000E+00  0.00000000E+00  0.00000000E+00
  0.00000000E+00  0.00000000E+00  0.00000000E+00
  0.00000000E+00  0.00000000E+00  0.00000000E+00
  0.00000000E+00  0.00000000E+00  0.00000000E+00
  0.00000000E+00  0.00000000E+00  0.00000000E+00
  0.00000000E+00  0.00000000E+00  0.00000000E+00
  0.00000000E+00  0.00000000E+00  0.00000000E+00
  0.00000000E+00  0.00000000E+00  0.00000000E+00
  0.00000000E+00  0.00000000E+00  0.00000000E+00
  0.00000000E+00  0.00000000E+00  0.00000000E+00
  0.00000000E+00  0.00000000E+00  0.00000000E+00
  0.00000000E+00  0.00000000E+00  0.00000000E+00
  0.00000000E+00  0.00000000E+00  0.00000000E+00
  0.00000000E+00  0.00000000E+00  0.00000000E+00
  0.00000000E+00  0.00000000E+00  0.00000000E+00
  0.00000000E+00  0.00000000E+00  0.00000000E+00
  0.00000000E+00  0.00000000E+00  0.00000000E+00
  0.00000000E+00  0.00000000E+00  0.00000000E+00
  0.00000000E+00  0.00000000E+00  0.00000000E+00
  0.00000000E+00  0.00000000E+00  0.00000000E+00
  0.00000000E+00  0.00000000E+00  0.00000000E+00
  0.00000000E+00  0.00000000E+00  0.00000000E+00
  0.00000000E+00  0.00000000E+00  0.00000000E+00
  0.00000000E+00  0.00000000E+00  0.00000000E+00
  0.00000000E+00  0.00000000E+00  0.00000000E+00
  0.00000000E+00  0.00000000E+00  0.00000000E+00
  0.00000000E+00  0.00000000E+00  0.00000000E+00
  0.00000000E+00  0.00000000E+00  0.00000000E+00
  0.00000000E+00  0.00000000E+00  0.00000000E+00
  0.00000000E+00  0.00000000E+00  0.00000000E+00
  0.00000000E+00  0.00000000E+00  0.00000000E+00
  0.00000000E+00  0.00000000E+00  0.00000000E+00
  0.00000000E+00  0.00000000E+00  0.00000000E+00
  0.00000000E+00  0.00000000E+00  0.00000000E+00
  0.00000000E+00  0.00000000E+00  0.00000000E+00
  0.00000000E+00  0.00000000E+00  0.00000000E+00
  0.00000000E+00  0.00000000E+00  0.00000000E+00
  0.00000000E+00  0.00000000E+00  0.00000000E+00
  0.00000000E+00  0.00000000E+00  0.00000000E+00
  0.00000000E+00  0.00000000E+00  0.00000000E+00
  0.00000000E+00  0.00000000E+00  0.00000000E+00
  0.00000000E+00  0.00000000E+00  0.00000000E+00
  0.00000000E+00  0.00000000E+00  0.00000000E+00
  0.00000000E+00  0.00000000E+00  0.00000000E+00
  0.00000000E+00  0.00000000E+00  0.00000000E+00
  0.00000000E+00  0.00000000E+00  0.00000000E+00
  0.00000000E+00  0.00000000E+00  0.00000000E+00
  0.00000000E+00  0.00000000E+00  0.00000000E+00
  0.00000000E+00  0.00000000E+00  0.00000000E+00
  0.00000000E+00  0.00000000E+00  0.00000000E+00
  0.00000000E+00  0.00000000E+00  0.00000000E+00
  0.00000000E+00  0.00000000E+00  0.00000000E+00
  0.00000000E+00  0.00000000E+00  0.00000000E+00
  0.00000000E+00  0.00000000E+00  0.00000000E+00
  0.00000000E+00  0.00000000E+00  0.00000000E+00
  0.00000000E+00  0.00000000E+00  0.00000000E+00
  0.00000000E+00  0.00000000E+00  0.00000000E+00
  0.00000000E+00  0.00000000E+00  0.00000000E+00
  0.00000000E+00  0.00000000E+00  0.00000000E+00
  0.00000000E+00  0.00000000E+00  0.00000000E+00
  0.00000000E+00  0.00000000E+00  0.00000000E+00
  0.00000000E+00  0.00000000E+00  0.00000000E+00
  0.00000000E+00  0.00000000E+00  0.00000000E+00
  0.00000000E+00  0.00000000E+00  0.00000000E+00
  0.00000000E+00  0.00000000E+00  0.00000000E+00
  0.00000000E+00  0.00000000E+00  0.00000000E+00
  0.00000000E+00  0.00000000E+00  0.00000000E+00
  0.00000000E+00  0.00000000E+00  0.00000000E+00
  0.00000000E+00  0.00000000E+00  0.00000000E+00
  0.00000000E+00  0.00000000E+00  0.00000000E+00
  0.00000000E+00  0.00000000E+00  0.00000000E+00
  0.00000000E+00  0.00000000E+00  0.00000000E+00
  0.00000000E+00  0.00000000E+00  0.00000000E+00
  0.00000000E+00  0.00000000E+00  0.00000000E+00
  0.00000000E+00  0.00000000E+00  0.00000000E+00
  0.00000000E+00  0.00000000E+00  0.00000000E+00
  0.00000000E+00  0.00000000E+00  0.00000000E+00
  0.00000000E+00  0.00000000E+00  0.00000000E+00
  0.00000000E+00  0.00000000E+00  0.00000000E+00
  0.00000000E+00  0.00000000E+00  0.00000000E+00
  0.00000000E+00  0.00000000E+00  0.00000000E+00
  0.00000000E+00  0.00000000E+00  0.00000000E+00
  0.00000000E+00  0.00000000E+00  0.00000000E+00
  0.00000000E+00  0.00000000E+00  0.00000000E+00
  0.00000000E+00  0.00000000E+00  0.00000000E+00
  0.00000000E+00  0.00000000E+00  0.00000000E+00
  0.00000000E+00  0.00000000E+00  0.00000000E+00
  0.00000000E+00  0.00000000E+00  0.00000000E+00
  0.00000000E+00  0.00000000E+00  0.00000000E+00
  0.00000000E+00  0.00000000E+00  0.00000000E+00
  0.00000000E+00  0.00000000E+00  0.00000000E+00
  0.00000000E+00  0.00000000E+00  0.00000000E+00
  0.00000000E+00  0.00000000E+00  0.00000000E+00
  0.00000000E+00  0.00000000E+00  0.00000000E+00
  0.00000000E+00  0.00000000E+00  0.00000000E+00
  0.00000000E+00  0.00000000E+00  0.00000000E+00
  0.00000000E+00  0.00000000E+00  0.00000000E+00
  0.00000000E+00  0.00000000E+00  0.00000000E+00
  0.00000000E+00  0.00000000E+00  0.00000000E+00
  0.00000000E+00  0.00000000E+00  0.00000000E+00
  0.00000000E+00  0.00000000E+00  0.00000000E+00
  0.00000000E+00  0.00000000E+00  0.00000000E+00
  0.00000000E+00  0.00000000E+00  0.00000000E+00
