generated by phonopy                    
   1.00000000000000     
    10.0351470768999995   -0.0000022330999784   -0.0000001056124209
    -5.0175765436399997    8.6906901959899994    0.0000001395531216
    -0.0000001735893656    0.0000001431815548   14.9533752540999991
   Pb   P    O 
    20    13    49
Direct
  0.9879485763521743  0.7665461677720984  0.1159455774189979
  0.9959065179446540  0.7745570891728306  0.6350860886610477
  0.9746127648987368  0.2350612425845782  0.3699077308387047
  0.0061256231167022  0.2710447257596797  0.8731631191170379
  0.2326703521969691  0.2294076945457419  0.1186930474857917
  0.2258203765781772  0.2210126317162846  0.6259365638371932
  0.7759518488761827  0.7698387211347182  0.3771282258531983
  0.7428982921225042  0.7495203154639682  0.8743145359419628
  0.7667465319720677  0.0146516497547964  0.1217010879454037
  0.7766168708109404  0.0068046516098192  0.6285990974258908
  0.2705576432504628  0.9935145447264517  0.3720085275187017
  0.2596333900549084  0.9954751317759047  0.8721884491060834
  0.6653929959795590  0.3366507308990023  0.9972956738915641
  0.6766477779412341  0.3388793793387137  0.5018679160551542
  0.3397292089218951  0.6690873142354405  0.0009079835436125
  0.3210535754927903  0.6808180478564054  0.5109797546216797
  0.3180540590089223  0.6708950745244522  0.2368255970668756
  0.3408575559691585  0.6574943020414423  0.7486038370487549
  0.6684348746366524  0.3441232267820808  0.2463980313826966
  0.6652993724738465  0.3388251915685316  0.7457546665651336
  0.6167579398760452  0.5935812621731671  0.1304130498038134
  0.6240399904360885  0.6013676721157353  0.6211549389343318
  0.3305239360937406  0.3432441071286689  0.3756886138108371
  0.3714441382042111  0.4001375537579932  0.8747452612204398
  0.4075007365520946  0.0287942931641609  0.1250209964749018
  0.4077362177914097  0.0266259043547734  0.6193659292322096
  0.6171649363072049  0.9810623388698687  0.3719065653765483
  0.6046476057277985  0.9757707629915799  0.8771897996334630
  0.9682351971618104  0.3796652987020153  0.1224984080638336
  0.9763193022863774  0.3830682893301400  0.6174265495295899
  0.0392961676020107  0.6188984332286438  0.3740418407056438
  0.0209747553034845  0.6348358921418651  0.8760622338778958
  0.4546051786066627  0.5933980508284549  0.3885778045840951
  0.5024867078326736  0.6562987290632236  0.1264056558891724
  0.4979825423236264  0.6505831449893833  0.6226590097064886
  0.4658869965986767  0.3108874459499944  0.3737875824422119
  0.4708219127517097  0.3216618015146366  0.8719697281757917
  0.3492824509527352  0.8518323579363738  0.1224941628056797
  0.3625835616364412  0.8490562356181357  0.6179824008952153
  0.6761097339700015  0.1569391398817714  0.3700082334369768
  0.6777305213698952  0.1532275279529642  0.8752090071743908
  0.1463690183087252  0.4935651845662932  0.1245931097336239
  0.1550113429922746  0.5081349147515439  0.6137928750626358
  0.8626834503663048  0.5442940506514873  0.3806264591882780
  0.8430460025225983  0.5277709540880480  0.8753889630589455
  0.7321318390903286  0.6571505580263448  0.0492299394189430
  0.7303482399332424  0.6665975593530931  0.5367609219592637
  0.2174215896628766  0.2689223643503880  0.4540417779971975
  0.2622447189993053  0.3517598292105149  0.9580559158946755
  0.3458788357483797  0.0766656280524529  0.0421354645908991
  0.3429357947507725  0.0659150514789602  0.5357306769030714
  0.6867642679645058  0.9363192201440995  0.4523523036754682
  0.6493819934904863  0.9151720326917427  0.9627795062294098
  0.9214423720205005  0.2775782118520596  0.0360190780696925
  0.9234194886753073  0.2815092763206195  0.5315188640915665
  0.1209347284659614  0.7148118551268041  0.4622667338279811
  0.0791426980815544  0.7415143971886309  0.9606243304003499
  0.2422859968428313  0.3127264309872544  0.2866914002591514
  0.2666098804131494  0.3648577310634664  0.7902220297538278
  0.7134440707304179  0.6403031865962276  0.2192672775848763
  0.7306539049936163  0.6663319456251386  0.7060696124134722
  0.6625670704752906  0.9244517349918482  0.2856163266490341
  0.6552100649773607  0.9133468173010755  0.7952977290845595
  0.3528609187072291  0.0753720744691293  0.2110929712782408
  0.3363954288183066  0.0539055051137467  0.7051101640974835
  0.1060580416247703  0.7347556720295003  0.2938672054169871
  0.0783931261344719  0.7460448969493996  0.7935789380948677
  0.9142711078621772  0.2663025515104138  0.2040906284267763
  0.9494157845240423  0.2785055262544702  0.7004121190965336
  0.5285222400864527  0.4124769183428825  0.1251259957331641
  0.5479081231271081  0.4216477757659476  0.6218796525069337
  0.4791930554596036  0.5824501339689974  0.8776777170849499
  0.5894701082835283  0.1233191337513091  0.1229849676001322
  0.5867337491683600  0.1301794871968198  0.6225164721368159
  0.4349771397836406  0.8909189258409000  0.3820012929127401
  0.4223508745012055  0.8940580392354676  0.8753808311553826
  0.8772992649511195  0.4693668787351086  0.1244204811818079
  0.8773765234045854  0.4633208100350785  0.6265953116599263
  0.0954274779262647  0.4997949672715123  0.3630706936434933
  0.1032326351004116  0.5350799803402708  0.8738731682843834
  0.9805989336820176  0.9990352326079943  0.1171345558098906
  0.9987257194020032  0.0013146990898605  0.6354108635655251
 
  0.00000000E+00  0.00000000E+00  0.00000000E+00
  0.00000000E+00  0.00000000E+00  0.00000000E+00
  0.00000000E+00  0.00000000E+00  0.00000000E+00
  0.00000000E+00  0.00000000E+00  0.00000000E+00
  0.00000000E+00  0.00000000E+00  0.00000000E+00
  0.00000000E+00  0.00000000E+00  0.00000000E+00
  0.00000000E+00  0.00000000E+00  0.00000000E+00
  0.00000000E+00  0.00000000E+00  0.00000000E+00
  0.00000000E+00  0.00000000E+00  0.00000000E+00
  0.00000000E+00  0.00000000E+00  0.00000000E+00
  0.00000000E+00  0.00000000E+00  0.00000000E+00
  0.00000000E+00  0.00000000E+00  0.00000000E+00
  0.00000000E+00  0.00000000E+00  0.00000000E+00
  0.00000000E+00  0.00000000E+00  0.00000000E+00
  0.00000000E+00  0.00000000E+00  0.00000000E+00
  0.00000000E+00  0.00000000E+00  0.00000000E+00
  0.00000000E+00  0.00000000E+00  0.00000000E+00
  0.00000000E+00  0.00000000E+00  0.00000000E+00
  0.00000000E+00  0.00000000E+00  0.00000000E+00
  0.00000000E+00  0.00000000E+00  0.00000000E+00
  0.00000000E+00  0.00000000E+00  0.00000000E+00
  0.00000000E+00  0.00000000E+00  0.00000000E+00
  0.00000000E+00  0.00000000E+00  0.00000000E+00
  0.00000000E+00  0.00000000E+00  0.00000000E+00
  0.00000000E+00  0.00000000E+00  0.00000000E+00
  0.00000000E+00  0.00000000E+00  0.00000000E+00
  0.00000000E+00  0.00000000E+00  0.00000000E+00
  0.00000000E+00  0.00000000E+00  0.00000000E+00
  0.00000000E+00  0.00000000E+00  0.00000000E+00
  0.00000000E+00  0.00000000E+00  0.00000000E+00
  0.00000000E+00  0.00000000E+00  0.00000000E+00
  0.00000000E+00  0.00000000E+00  0.00000000E+00
  0.00000000E+00  0.00000000E+00  0.00000000E+00
  0.00000000E+00  0.00000000E+00  0.00000000E+00
  0.00000000E+00  0.00000000E+00  0.00000000E+00
  0.00000000E+00  0.00000000E+00  0.00000000E+00
  0.00000000E+00  0.00000000E+00  0.00000000E+00
  0.00000000E+00  0.00000000E+00  0.00000000E+00
  0.00000000E+00  0.00000000E+00  0.00000000E+00
  0.00000000E+00  0.00000000E+00  0.00000000E+00
  0.00000000E+00  0.00000000E+00  0.00000000E+00
  0.00000000E+00  0.00000000E+00  0.00000000E+00
  0.00000000E+00  0.00000000E+00  0.00000000E+00
  0.00000000E+00  0.00000000E+00  0.00000000E+00
  0.00000000E+00  0.00000000E+00  0.00000000E+00
  0.00000000E+00  0.00000000E+00  0.00000000E+00
  0.00000000E+00  0.00000000E+00  0.00000000E+00
  0.00000000E+00  0.00000000E+00  0.00000000E+00
  0.00000000E+00  0.00000000E+00  0.00000000E+00
  0.00000000E+00  0.00000000E+00  0.00000000E+00
  0.00000000E+00  0.00000000E+00  0.00000000E+00
  0.00000000E+00  0.00000000E+00  0.00000000E+00
  0.00000000E+00  0.00000000E+00  0.00000000E+00
  0.00000000E+00  0.00000000E+00  0.00000000E+00
  0.00000000E+00  0.00000000E+00  0.00000000E+00
  0.00000000E+00  0.00000000E+00  0.00000000E+00
  0.00000000E+00  0.00000000E+00  0.00000000E+00
  0.00000000E+00  0.00000000E+00  0.00000000E+00
  0.00000000E+00  0.00000000E+00  0.00000000E+00
  0.00000000E+00  0.00000000E+00  0.00000000E+00
  0.00000000E+00  0.00000000E+00  0.00000000E+00
  0.00000000E+00  0.00000000E+00  0.00000000E+00
  0.00000000E+00  0.00000000E+00  0.00000000E+00
  0.00000000E+00  0.00000000E+00  0.00000000E+00
  0.00000000E+00  0.00000000E+00  0.00000000E+00
  0.00000000E+00  0.00000000E+00  0.00000000E+00
  0.00000000E+00  0.00000000E+00  0.00000000E+00
  0.00000000E+00  0.00000000E+00  0.00000000E+00
  0.00000000E+00  0.00000000E+00  0.00000000E+00
  0.00000000E+00  0.00000000E+00  0.00000000E+00
  0.00000000E+00  0.00000000E+00  0.00000000E+00
  0.00000000E+00  0.00000000E+00  0.00000000E+00
  0.00000000E+00  0.00000000E+00  0.00000000E+00
  0.00000000E+00  0.00000000E+00  0.00000000E+00
  0.00000000E+00  0.00000000E+00  0.00000000E+00
  0.00000000E+00  0.00000000E+00  0.00000000E+00
  0.00000000E+00  0.00000000E+00  0.00000000E+00
  0.00000000E+00  0.00000000E+00  0.00000000E+00
  0.00000000E+00  0.00000000E+00  0.00000000E+00
  0.00000000E+00  0.00000000E+00  0.00000000E+00
  0.00000000E+00  0.00000000E+00  0.00000000E+00
  0.00000000E+00  0.00000000E+00  0.00000000E+00
