generated by phonopy                    
   1.00000000000000     
    10.0351470768999995   -0.0000022330999784   -0.0000001056124209
    -5.0175765436399997    8.6906901959899994    0.0000001395531216
    -0.0000001735893656    0.0000001431815548   14.9533752540999991
   Pb   P    O 
    21    12    49
Direct
  0.0364735390030617  0.7537513621687708  0.1491530617928092
  0.9969955124415009  0.7682553460304575  0.6205977493424228
  0.0026148864001385  0.2570827056289247  0.3819021738514792
  0.9911126560166466  0.2657944562810641  0.8810664790256695
  0.2419170875017898  0.2305571651533427  0.1240890098696710
  0.2187141836554503  0.2212893040565405  0.6259322282527222
  0.7464198026987461  0.7468537349225244  0.3795468881047341
  0.6908228847614950  0.6888828680968828  0.8394982830195232
  0.7556340112590973  0.0182019554747015  0.1499726203946921
  0.7692682692237014  0.9953019921987902  0.6210709646427119
  0.2646599612480358  0.0000576355460424  0.3823878305247632
  0.2607874124924550  0.0001562929598364  0.8650214649243182
  0.6544799683443472  0.3150120378371213  0.9945020042492416
  0.6616853339045150  0.3307855862477496  0.4951201664218559
  0.3501986317014882  0.6689627674982717  0.0071225451130630
  0.3271602303915628  0.6552334660260186  0.5074927507161817
  0.3482731933276213  0.6573816684367415  0.2488204069989379
  0.3053046077870505  0.6661313245105163  0.7483994321880161
  0.6759676354860318  0.3616544809556714  0.2442997473099666
  0.6666997136173904  0.3141272174968037  0.7393837351506320
  0.8996989540410283  0.8909094964297921  0.9966746372001438
  0.6617177680089554  0.6355434380514282  0.1147659001028742
  0.6112788440640387  0.5819193702007581  0.6131230869370015
  0.3714505837342585  0.3998907458699108  0.3742752317261093
  0.3429689383411656  0.3678624123065575  0.8748328834705532
  0.4104312219554842  0.0311298096396442  0.1253464217625364
  0.3972669749847739  0.0213968271336782  0.6230837501065665
  0.6115998047749116  0.9823734093830438  0.3779879702928994
  0.5930807000800300  0.9561392747819113  0.8747486039479710
  0.9777906444084010  0.3778326547842710  0.1272675919261417
  0.9634535551375762  0.3715396933043280  0.6231391804004360
  0.0274127137891682  0.6283930198864383  0.3790605897826325
  0.0126837187820996  0.6307145781192602  0.8795562901929301
  0.5307039697334872  0.6785441840134112  0.1294791661867052
  0.4939692104556457  0.6386988387947952  0.6202989600776334
  0.4677472016255138  0.3175748269502634  0.3725727564393750
  0.4646581550205653  0.3144517654113557  0.8747476482561325
  0.3512703079099992  0.8547217654074188  0.1217283607057880
  0.3416534714106092  0.8459534380991514  0.6259857660345176
  0.6914439061714077  0.1599743617290130  0.3696621940143459
  0.6690766741225858  0.1334581401024835  0.8671759143277455
  0.1531878717206823  0.4978014411284875  0.1282059544179077
  0.1381961373864300  0.4934812824854049  0.6256828936155117
  0.8495271744202455  0.5336724596721680  0.3685965876943200
  0.8373843376642824  0.5163227364617953  0.8685979656325813
  0.7205250378013091  0.6464409659020731  0.5300489168384530
  0.2619184503485243  0.3523403782461330  0.4571863641461178
  0.2441859605158214  0.3255209330966338  0.9620212171815439
  0.3699548186969537  0.0911113810300890  0.0380717433889046
  0.3222955761355379  0.0606583873136657  0.5430764009697953
  0.6820776931562378  0.9303793261954283  0.4545597405141564
  0.6337860268292985  0.9025259861051751  0.9635163957229409
  0.9283136927711908  0.2677434308858508  0.0449712041556793
  0.9281727040136971  0.2561183800091342  0.5439225088428046
  0.0785645894443761  0.7420168277794019  0.4593694815248810
  0.0454243761291977  0.7431700259853713  0.9604228014680487
  0.2701883101871587  0.3660487760508815  0.2884723390111290
  0.2270352041903934  0.2975292136789349  0.7955800825540322
  0.7514414427205551  0.6573441812797540  0.2061097320669134
  0.7248380693390146  0.6445431751723234  0.6959710091633013
  0.6332180308631976  0.9073141923029766  0.2904268463021040
  0.6365746884598309  0.8864910006980722  0.7932544655548242
  0.3392164790633885  0.0701925453372212  0.2069652423445874
  0.3486147816899390  0.0726624568810337  0.7108167299613370
  0.1080205498959685  0.7331537455143362  0.2953879611603654
  0.0860065519139965  0.7344765194270977  0.7941925684798150
  0.9285526933859387  0.2728549604348558  0.2134880668635617
  0.9090755193327809  0.2752753494853195  0.7118878417008361
  0.5787425449031289  0.4580994120089770  0.0919262516139909
  0.5327969817157623  0.4030945347473747  0.6143483639983955
  0.4821241482890670  0.5814318886833760  0.3773506156841862
  0.4306881393697353  0.5503431438392852  0.8661094379126482
  0.5916875058673696  0.1263145898934326  0.1334867538783797
  0.5767395294773436  0.1192372775565929  0.6147771397098296
  0.4336209308553194  0.9088230853627906  0.3936540940718061
  0.4108668246933220  0.8813490535755832  0.8729818150881883
  0.8825954222668599  0.4640128942493220  0.1268240186467935
  0.8644156889597170  0.4518535921923004  0.6122956754243845
  0.0951330309905813  0.5178489928976120  0.3895513590020698
  0.1001655879316345  0.5376511495072265  0.8934421729849120
  0.0175346953893012  0.9938884035251476  0.1221823111800191
  0.9930036400117928  0.9918248553279199  0.6246041589675428
 
  0.00000000E+00  0.00000000E+00  0.00000000E+00
  0.00000000E+00  0.00000000E+00  0.00000000E+00
  0.00000000E+00  0.00000000E+00  0.00000000E+00
  0.00000000E+00  0.00000000E+00  0.00000000E+00
  0.00000000E+00  0.00000000E+00  0.00000000E+00
  0.00000000E+00  0.00000000E+00  0.00000000E+00
  0.00000000E+00  0.00000000E+00  0.00000000E+00
  0.00000000E+00  0.00000000E+00  0.00000000E+00
  0.00000000E+00  0.00000000E+00  0.00000000E+00
  0.00000000E+00  0.00000000E+00  0.00000000E+00
  0.00000000E+00  0.00000000E+00  0.00000000E+00
  0.00000000E+00  0.00000000E+00  0.00000000E+00
  0.00000000E+00  0.00000000E+00  0.00000000E+00
  0.00000000E+00  0.00000000E+00  0.00000000E+00
  0.00000000E+00  0.00000000E+00  0.00000000E+00
  0.00000000E+00  0.00000000E+00  0.00000000E+00
  0.00000000E+00  0.00000000E+00  0.00000000E+00
  0.00000000E+00  0.00000000E+00  0.00000000E+00
  0.00000000E+00  0.00000000E+00  0.00000000E+00
  0.00000000E+00  0.00000000E+00  0.00000000E+00
  0.00000000E+00  0.00000000E+00  0.00000000E+00
  0.00000000E+00  0.00000000E+00  0.00000000E+00
  0.00000000E+00  0.00000000E+00  0.00000000E+00
  0.00000000E+00  0.00000000E+00  0.00000000E+00
  0.00000000E+00  0.00000000E+00  0.00000000E+00
  0.00000000E+00  0.00000000E+00  0.00000000E+00
  0.00000000E+00  0.00000000E+00  0.00000000E+00
  0.00000000E+00  0.00000000E+00  0.00000000E+00
  0.00000000E+00  0.00000000E+00  0.00000000E+00
  0.00000000E+00  0.00000000E+00  0.00000000E+00
  0.00000000E+00  0.00000000E+00  0.00000000E+00
  0.00000000E+00  0.00000000E+00  0.00000000E+00
  0.00000000E+00  0.00000000E+00  0.00000000E+00
  0.00000000E+00  0.00000000E+00  0.00000000E+00
  0.00000000E+00  0.00000000E+00  0.00000000E+00
  0.00000000E+00  0.00000000E+00  0.00000000E+00
  0.00000000E+00  0.00000000E+00  0.00000000E+00
  0.00000000E+00  0.00000000E+00  0.00000000E+00
  0.00000000E+00  0.00000000E+00  0.00000000E+00
  0.00000000E+00  0.00000000E+00  0.00000000E+00
  0.00000000E+00  0.00000000E+00  0.00000000E+00
  0.00000000E+00  0.00000000E+00  0.00000000E+00
  0.00000000E+00  0.00000000E+00  0.00000000E+00
  0.00000000E+00  0.00000000E+00  0.00000000E+00
  0.00000000E+00  0.00000000E+00  0.00000000E+00
  0.00000000E+00  0.00000000E+00  0.00000000E+00
  0.00000000E+00  0.00000000E+00  0.00000000E+00
  0.00000000E+00  0.00000000E+00  0.00000000E+00
  0.00000000E+00  0.00000000E+00  0.00000000E+00
  0.00000000E+00  0.00000000E+00  0.00000000E+00
  0.00000000E+00  0.00000000E+00  0.00000000E+00
  0.00000000E+00  0.00000000E+00  0.00000000E+00
  0.00000000E+00  0.00000000E+00  0.00000000E+00
  0.00000000E+00  0.00000000E+00  0.00000000E+00
  0.00000000E+00  0.00000000E+00  0.00000000E+00
  0.00000000E+00  0.00000000E+00  0.00000000E+00
  0.00000000E+00  0.00000000E+00  0.00000000E+00
  0.00000000E+00  0.00000000E+00  0.00000000E+00
  0.00000000E+00  0.00000000E+00  0.00000000E+00
  0.00000000E+00  0.00000000E+00  0.00000000E+00
  0.00000000E+00  0.00000000E+00  0.00000000E+00
  0.00000000E+00  0.00000000E+00  0.00000000E+00
  0.00000000E+00  0.00000000E+00  0.00000000E+00
  0.00000000E+00  0.00000000E+00  0.00000000E+00
  0.00000000E+00  0.00000000E+00  0.00000000E+00
  0.00000000E+00  0.00000000E+00  0.00000000E+00
  0.00000000E+00  0.00000000E+00  0.00000000E+00
  0.00000000E+00  0.00000000E+00  0.00000000E+00
  0.00000000E+00  0.00000000E+00  0.00000000E+00
  0.00000000E+00  0.00000000E+00  0.00000000E+00
  0.00000000E+00  0.00000000E+00  0.00000000E+00
  0.00000000E+00  0.00000000E+00  0.00000000E+00
  0.00000000E+00  0.00000000E+00  0.00000000E+00
  0.00000000E+00  0.00000000E+00  0.00000000E+00
  0.00000000E+00  0.00000000E+00  0.00000000E+00
  0.00000000E+00  0.00000000E+00  0.00000000E+00
  0.00000000E+00  0.00000000E+00  0.00000000E+00
  0.00000000E+00  0.00000000E+00  0.00000000E+00
  0.00000000E+00  0.00000000E+00  0.00000000E+00
  0.00000000E+00  0.00000000E+00  0.00000000E+00
  0.00000000E+00  0.00000000E+00  0.00000000E+00
  0.00000000E+00  0.00000000E+00  0.00000000E+00
