generated by phonopy                    
   1.00000000000000     
    10.0351470768999995   -0.0000022330999784   -0.0000001056124209
    -5.0175765436399997    8.6906901959899994    0.0000001395531216
    -0.0000001735893656    0.0000001431815548   14.9533752540999991
   Cu   Pb   P    O 
     1    19    12    50
Direct
  0.9093628285395425  0.8266792795577871  0.0743175770823257
  0.0010159752929795  0.7693186920796435  0.6226467332190495
  0.0048546653334967  0.2424675323378409  0.3748623884574798
  0.0030064180461267  0.2435953591976272  0.8747462995407460
  0.2314075304660648  0.2287937270361269  0.1233021815949371
  0.2303089813608707  0.2250411504100569  0.6238071375805490
  0.7539074087495408  0.7526211059073660  0.3690702376373594
  0.7539312462989116  0.7560059817570703  0.8713833682367138
  0.7685798994146538  0.0091018412785644  0.1267762865133832
  0.7764938042781253  0.0006891803090028  0.6229517140812604
  0.2387774245468179  0.9925596777488437  0.3646543500708290
  0.2396248068872566  0.9924428400526466  0.8819908067802942
  0.6776078186006842  0.3430970673968474  0.0021139866221347
  0.6632680712427330  0.3292574186722987  0.4996704839327961
  0.3297354105085404  0.6699972353059920  0.0030886181243304
  0.3396777386004075  0.6700621131079174  0.5017020094815692
  0.3215665798053351  0.6689996712769997  0.2459058266091461
  0.3319887729792512  0.6660016969944778  0.7466579222050171
  0.6759813389662170  0.3489296553720678  0.2481860077012783
  0.6641334959852117  0.3296630269692642  0.7504604725493920
  0.6178562673723889  0.5845263820067785  0.1267150291032451
  0.6304359215718591  0.5969767816997518  0.6248948081363537
  0.3682905014325897  0.4000668663121516  0.3757368953266536
  0.3663912294323950  0.3987027282039790  0.8736293862861118
  0.4050787388274131  0.0312557217037934  0.1245552416217066
  0.4061401789556669  0.0331513360651243  0.6248422940317937
  0.6045539587003077  0.9692534360267544  0.3756771475379495
  0.6016978043746448  0.9674007406607998  0.8737180648583092
  0.9691970474021261  0.3763574730590804  0.1247763567992379
  0.9702017479663994  0.3699125990990524  0.6246409272419271
  0.0378880621483617  0.6300522497822882  0.3779873330659385
  0.0359296902697679  0.6317131211410327  0.8720643619679436
  0.5015601728453589  0.6430938032050264  0.1212695630156517
  0.5094409235424280  0.6506220353709935  0.6247788196562993
  0.4781518463738053  0.3329652731211894  0.3750556594196652
  0.4760155336218901  0.3314980741517815  0.8738129086008115
  0.3633564628907493  0.8596125234590772  0.1251317090231794
  0.3510276128659839  0.8581162955044093  0.6246945462959488
  0.6743559801376122  0.1464168473009622  0.3770606267648304
  0.6741000556281307  0.1449844690535542  0.8719638961963554
  0.1449403239520848  0.4945761650656451  0.1239584148205708
  0.1445217968229997  0.4921374318487608  0.6242247498131022
  0.8597567472462728  0.5292134516056777  0.3745056182753572
  0.8578767681853634  0.5297513938868477  0.8730666842129864
  0.7298018807822686  0.6411164542125789  0.0426758841842627
  0.7376858570234290  0.6572317826820750  0.5408722826034449
  0.2590796899710242  0.3448133125267248  0.4594459148934789
  0.2568649854536957  0.3439330605836730  0.9572718508772127
  0.3402845526028173  0.0727880418992157  0.0403491037837682
  0.3478503276282368  0.0812849393564505  0.5402364456459523
  0.6510744759980085  0.9090442996618435  0.4602028597360217
  0.6516909922108880  0.9115032954497195  0.9584279960708173
  0.9218234076947880  0.2694723858569219  0.0400130058076584
  0.9247178167511336  0.2614829531217353  0.5407461785664935
  0.0926790010542291  0.7388759404066860  0.4614404174661004
  0.0986795932452438  0.7385909712782208  0.9561213912292814
  0.2597756924001260  0.3470359665696563  0.2918830375904164
  0.2574590579070133  0.3458022011568147  0.7898056127127830
  0.7088967881915309  0.6311448712783303  0.2160657493849172
  0.7374204334722521  0.6586343520449063  0.7093302399587031
  0.6623739863321347  0.9164415844207383  0.2925727193708099
  0.6526945982753460  0.9077105483320338  0.7904900573286255
  0.3428570629203023  0.0749607594837087  0.2089824789379833
  0.3468745069017132  0.0805397393133021  0.7092851353953549
  0.1058904735826331  0.7355518697099228  0.2936301834973065
  0.0940593075656437  0.7393032753911868  0.7878781030561228
  0.9251228674432852  0.2699597847621433  0.2095484175698985
  0.9252569619302093  0.2625335254944119  0.7088501994020575
  0.5370759775511189  0.4042563618044142  0.1204688912083114
  0.5476907180993891  0.4164688194964299  0.6254991061980206
  0.4638181795185545  0.5812984434774648  0.3774439998345329
  0.4615575728761385  0.5799880713859906  0.8738177797425593
  0.5854408303575269  0.1359054818869296  0.1236046143627334
  0.5872335234134951  0.1295082655674733  0.6249746460136478
  0.4233980300376530  0.8851114108126836  0.3723384608081020
  0.4205127204999926  0.8859686911712359  0.8727596313084192
  0.8718277632928917  0.4584380703914519  0.1253275202233368
  0.8706764814668588  0.4505716906823949  0.6244484810511253
  0.1141802215653556  0.5254844351768355  0.3819696800184431
  0.1130637320279675  0.5276656990191952  0.8704149412535287
  0.0014471591940151  0.0169812995591059  0.1233700601033618
  0.0024895192850565  0.9979155238121962  0.6216130550895400
 
  0.00000000E+00  0.00000000E+00  0.00000000E+00
  0.00000000E+00  0.00000000E+00  0.00000000E+00
  0.00000000E+00  0.00000000E+00  0.00000000E+00
  0.00000000E+00  0.00000000E+00  0.00000000E+00
  0.00000000E+00  0.00000000E+00  0.00000000E+00
  0.00000000E+00  0.00000000E+00  0.00000000E+00
  0.00000000E+00  0.00000000E+00  0.00000000E+00
  0.00000000E+00  0.00000000E+00  0.00000000E+00
  0.00000000E+00  0.00000000E+00  0.00000000E+00
  0.00000000E+00  0.00000000E+00  0.00000000E+00
  0.00000000E+00  0.00000000E+00  0.00000000E+00
  0.00000000E+00  0.00000000E+00  0.00000000E+00
  0.00000000E+00  0.00000000E+00  0.00000000E+00
  0.00000000E+00  0.00000000E+00  0.00000000E+00
  0.00000000E+00  0.00000000E+00  0.00000000E+00
  0.00000000E+00  0.00000000E+00  0.00000000E+00
  0.00000000E+00  0.00000000E+00  0.00000000E+00
  0.00000000E+00  0.00000000E+00  0.00000000E+00
  0.00000000E+00  0.00000000E+00  0.00000000E+00
  0.00000000E+00  0.00000000E+00  0.00000000E+00
  0.00000000E+00  0.00000000E+00  0.00000000E+00
  0.00000000E+00  0.00000000E+00  0.00000000E+00
  0.00000000E+00  0.00000000E+00  0.00000000E+00
  0.00000000E+00  0.00000000E+00  0.00000000E+00
  0.00000000E+00  0.00000000E+00  0.00000000E+00
  0.00000000E+00  0.00000000E+00  0.00000000E+00
  0.00000000E+00  0.00000000E+00  0.00000000E+00
  0.00000000E+00  0.00000000E+00  0.00000000E+00
  0.00000000E+00  0.00000000E+00  0.00000000E+00
  0.00000000E+00  0.00000000E+00  0.00000000E+00
  0.00000000E+00  0.00000000E+00  0.00000000E+00
  0.00000000E+00  0.00000000E+00  0.00000000E+00
  0.00000000E+00  0.00000000E+00  0.00000000E+00
  0.00000000E+00  0.00000000E+00  0.00000000E+00
  0.00000000E+00  0.00000000E+00  0.00000000E+00
  0.00000000E+00  0.00000000E+00  0.00000000E+00
  0.00000000E+00  0.00000000E+00  0.00000000E+00
  0.00000000E+00  0.00000000E+00  0.00000000E+00
  0.00000000E+00  0.00000000E+00  0.00000000E+00
  0.00000000E+00  0.00000000E+00  0.00000000E+00
  0.00000000E+00  0.00000000E+00  0.00000000E+00
  0.00000000E+00  0.00000000E+00  0.00000000E+00
  0.00000000E+00  0.00000000E+00  0.00000000E+00
  0.00000000E+00  0.00000000E+00  0.00000000E+00
  0.00000000E+00  0.00000000E+00  0.00000000E+00
  0.00000000E+00  0.00000000E+00  0.00000000E+00
  0.00000000E+00  0.00000000E+00  0.00000000E+00
  0.00000000E+00  0.00000000E+00  0.00000000E+00
  0.00000000E+00  0.00000000E+00  0.00000000E+00
  0.00000000E+00  0.00000000E+00  0.00000000E+00
  0.00000000E+00  0.00000000E+00  0.00000000E+00
  0.00000000E+00  0.00000000E+00  0.00000000E+00
  0.00000000E+00  0.00000000E+00  0.00000000E+00
  0.00000000E+00  0.00000000E+00  0.00000000E+00
  0.00000000E+00  0.00000000E+00  0.00000000E+00
  0.00000000E+00  0.00000000E+00  0.00000000E+00
  0.00000000E+00  0.00000000E+00  0.00000000E+00
  0.00000000E+00  0.00000000E+00  0.00000000E+00
  0.00000000E+00  0.00000000E+00  0.00000000E+00
  0.00000000E+00  0.00000000E+00  0.00000000E+00
  0.00000000E+00  0.00000000E+00  0.00000000E+00
  0.00000000E+00  0.00000000E+00  0.00000000E+00
  0.00000000E+00  0.00000000E+00  0.00000000E+00
  0.00000000E+00  0.00000000E+00  0.00000000E+00
  0.00000000E+00  0.00000000E+00  0.00000000E+00
  0.00000000E+00  0.00000000E+00  0.00000000E+00
  0.00000000E+00  0.00000000E+00  0.00000000E+00
  0.00000000E+00  0.00000000E+00  0.00000000E+00
  0.00000000E+00  0.00000000E+00  0.00000000E+00
  0.00000000E+00  0.00000000E+00  0.00000000E+00
  0.00000000E+00  0.00000000E+00  0.00000000E+00
  0.00000000E+00  0.00000000E+00  0.00000000E+00
  0.00000000E+00  0.00000000E+00  0.00000000E+00
  0.00000000E+00  0.00000000E+00  0.00000000E+00
  0.00000000E+00  0.00000000E+00  0.00000000E+00
  0.00000000E+00  0.00000000E+00  0.00000000E+00
  0.00000000E+00  0.00000000E+00  0.00000000E+00
  0.00000000E+00  0.00000000E+00  0.00000000E+00
  0.00000000E+00  0.00000000E+00  0.00000000E+00
  0.00000000E+00  0.00000000E+00  0.00000000E+00
  0.00000000E+00  0.00000000E+00  0.00000000E+00
  0.00000000E+00  0.00000000E+00  0.00000000E+00
