supercell of icsd_181358.cif            
   1.00000000000000     
    10.5832176674679097   -0.0178592047818020   -0.0158602962939701
    -5.3070971282193176    9.1288145184644218    0.0086318722455860
    -0.0169474377738338    0.0009998411548822   10.1194348071792604
   N    Ga   Sc
    36    14    22
Direct
  0.2037100886077852  0.1013092776706301  0.4562994620657577
  0.1225005469174860  0.2075929567015180  0.1917271283231869
  0.8879049145391917  0.1118805016739657  0.9680565162341210
  0.7883024948113615  0.2353110330662318  0.6922722644766992
  0.5614170924465540  0.1146813806031588  0.4451393444171856
  0.4421661056480986  0.2221823253623540  0.2191990860709296
  0.2207854267143645  0.1232009668469161  0.9348933211787411
  0.1037931180883760  0.2239184014269924  0.6885199234777275
  0.8999863152070802  0.1147158586067079  0.4389919651771521
  0.7692481799554329  0.2289414499484650  0.2008549022101107
  0.5606290225271806  0.1060474962283209  0.9521989119501981
  0.4442620624238600  0.2190433906814420  0.6893117342802810
  0.2118473771910772  0.4268747144313068  0.4389315950573902
  0.1083616222768100  0.5690661925775728  0.2088938856209879
  0.8831132089122207  0.4267477066753429  0.9468752733761292
  0.7891536268585995  0.5606923938996005  0.7203108193491659
  0.5663611294315558  0.4500562958790297  0.4560416711451936
  0.4529338868894328  0.5407903169294102  0.2059064931488734
  0.2250980169418213  0.4407079452088070  0.9691431245417448
  0.0989005300806554  0.5485604030618987  0.6969235584319975
  0.8886902422306164  0.4488675962389905  0.4342582889641591
  0.7671331587020447  0.5403229134796561  0.1912197634809729
  0.5415680026401262  0.4448080408444852  0.9419633808257188
  0.4387937552057792  0.5573563539587170  0.6879583405873930
  0.2134655223673221  0.7902757259888347  0.4552545352580424
  0.1305641208139434  0.9020183081050703  0.1888980149256199
  0.8826615769874664  0.7853233690358863  0.9587907116006207
  0.7817825738505988  0.8798542059201893  0.6976395019644599
  0.5580373226057063  0.7774740986737427  0.4317915740289067
  0.4359061344715514  0.8994861436864170  0.2055428118818625
  0.2404349993079364  0.7879275397011298  0.9382340698455920
  0.0927738735200663  0.8796674937911959  0.7056755628767633
  0.9035937845033715  0.7822386135985013  0.4363856247708355
  0.7814329567662170  0.8873770369595277  0.2010799505421446
  0.5518592362688537  0.7760286606713436  0.9740744548574725
  0.4533978302655015  0.8896298438407300  0.6854844395757027
  0.2186443797781763  0.1033945256606543  0.2560865420303173
  0.1167516357544613  0.2178102690111317  0.9990268912515958
  0.5546252806450411  0.1164568037008777  0.2488197842210269
  0.1042609570895650  0.2186717336194448  0.4926845693417903
  0.7721774785522726  0.2194118359463459  0.0031812496334922
  0.8916855428586672  0.4405973025837184  0.7507301781618381
  0.5637885215389460  0.4425418945848705  0.2545597082400661
  0.4444263249328273  0.5465421461079956  0.0059560741625688
  0.8801043304007123  0.4464903123575539  0.2421647293415035
  0.2200205489984057  0.7914850042111397  0.2527746376679332
  0.8851105226237124  0.7787059043043598  0.7556235383243006
  0.4432733675324769  0.8948422830026672  0.0043187141915126
  0.1009143164463495  0.8876296034025941  0.5023184911470722
  0.7775477228825736  0.8901998699029221  0.0038923466519734
  0.8868236932686173  0.1100219450046040  0.7489611960358076
  0.7866135960744742  0.2274832827565021  0.4810632982923622
  0.4405516464029873  0.2217367707746476  0.9999704632451483
  0.2174465350110566  0.1134344822930089  0.7233009447919727
  0.8940652957043582  0.1143264700668283  0.2260576882970966
  0.5611396112501978  0.1131492205306799  0.7368914421765851
  0.4417554997997257  0.2196018095733692  0.4753780191366133
  0.2211123050636772  0.4350290360192872  0.2276468919236123
  0.1119710760583033  0.5613699889336772  0.9947489853744784
  0.7915000212396635  0.5638263587145929  0.5015819643214101
  0.2187465452362360  0.4428943490728514  0.7451042672889585
  0.1087875276886834  0.5537817849663824  0.4752366575503970
  0.7697911193823970  0.5481635792008603  0.9754610863764270
  0.5505957342901127  0.4443501154567073  0.7299522984780680
  0.4419283846176754  0.5538948982085685  0.4766806115084208
  0.1190524926757774  0.8980370404817961  0.9772082064718788
  0.7834772843817319  0.8873734506069368  0.4809327946712045
  0.5537015259822340  0.7764087824616723  0.2210824985877053
  0.2245598014777599  0.7789273066740989  0.7255482700680744
  0.8975107793538939  0.7751033005315477  0.2272026528792708
  0.5557191560905679  0.7754931910691951  0.7516872167121988
  0.4472495819396443  0.8898363962318143  0.4754230849255094
 
  0.00000000E+00  0.00000000E+00  0.00000000E+00
  0.00000000E+00  0.00000000E+00  0.00000000E+00
  0.00000000E+00  0.00000000E+00  0.00000000E+00
  0.00000000E+00  0.00000000E+00  0.00000000E+00
  0.00000000E+00  0.00000000E+00  0.00000000E+00
  0.00000000E+00  0.00000000E+00  0.00000000E+00
  0.00000000E+00  0.00000000E+00  0.00000000E+00
  0.00000000E+00  0.00000000E+00  0.00000000E+00
  0.00000000E+00  0.00000000E+00  0.00000000E+00
  0.00000000E+00  0.00000000E+00  0.00000000E+00
  0.00000000E+00  0.00000000E+00  0.00000000E+00
  0.00000000E+00  0.00000000E+00  0.00000000E+00
  0.00000000E+00  0.00000000E+00  0.00000000E+00
  0.00000000E+00  0.00000000E+00  0.00000000E+00
  0.00000000E+00  0.00000000E+00  0.00000000E+00
  0.00000000E+00  0.00000000E+00  0.00000000E+00
  0.00000000E+00  0.00000000E+00  0.00000000E+00
  0.00000000E+00  0.00000000E+00  0.00000000E+00
  0.00000000E+00  0.00000000E+00  0.00000000E+00
  0.00000000E+00  0.00000000E+00  0.00000000E+00
  0.00000000E+00  0.00000000E+00  0.00000000E+00
  0.00000000E+00  0.00000000E+00  0.00000000E+00
  0.00000000E+00  0.00000000E+00  0.00000000E+00
  0.00000000E+00  0.00000000E+00  0.00000000E+00
  0.00000000E+00  0.00000000E+00  0.00000000E+00
  0.00000000E+00  0.00000000E+00  0.00000000E+00
  0.00000000E+00  0.00000000E+00  0.00000000E+00
  0.00000000E+00  0.00000000E+00  0.00000000E+00
  0.00000000E+00  0.00000000E+00  0.00000000E+00
  0.00000000E+00  0.00000000E+00  0.00000000E+00
  0.00000000E+00  0.00000000E+00  0.00000000E+00
  0.00000000E+00  0.00000000E+00  0.00000000E+00
  0.00000000E+00  0.00000000E+00  0.00000000E+00
  0.00000000E+00  0.00000000E+00  0.00000000E+00
  0.00000000E+00  0.00000000E+00  0.00000000E+00
  0.00000000E+00  0.00000000E+00  0.00000000E+00
  0.00000000E+00  0.00000000E+00  0.00000000E+00
  0.00000000E+00  0.00000000E+00  0.00000000E+00
  0.00000000E+00  0.00000000E+00  0.00000000E+00
  0.00000000E+00  0.00000000E+00  0.00000000E+00
  0.00000000E+00  0.00000000E+00  0.00000000E+00
  0.00000000E+00  0.00000000E+00  0.00000000E+00
  0.00000000E+00  0.00000000E+00  0.00000000E+00
  0.00000000E+00  0.00000000E+00  0.00000000E+00
  0.00000000E+00  0.00000000E+00  0.00000000E+00
  0.00000000E+00  0.00000000E+00  0.00000000E+00
  0.00000000E+00  0.00000000E+00  0.00000000E+00
  0.00000000E+00  0.00000000E+00  0.00000000E+00
  0.00000000E+00  0.00000000E+00  0.00000000E+00
  0.00000000E+00  0.00000000E+00  0.00000000E+00
  0.00000000E+00  0.00000000E+00  0.00000000E+00
  0.00000000E+00  0.00000000E+00  0.00000000E+00
  0.00000000E+00  0.00000000E+00  0.00000000E+00
  0.00000000E+00  0.00000000E+00  0.00000000E+00
  0.00000000E+00  0.00000000E+00  0.00000000E+00
  0.00000000E+00  0.00000000E+00  0.00000000E+00
  0.00000000E+00  0.00000000E+00  0.00000000E+00
  0.00000000E+00  0.00000000E+00  0.00000000E+00
  0.00000000E+00  0.00000000E+00  0.00000000E+00
  0.00000000E+00  0.00000000E+00  0.00000000E+00
  0.00000000E+00  0.00000000E+00  0.00000000E+00
  0.00000000E+00  0.00000000E+00  0.00000000E+00
  0.00000000E+00  0.00000000E+00  0.00000000E+00
  0.00000000E+00  0.00000000E+00  0.00000000E+00
  0.00000000E+00  0.00000000E+00  0.00000000E+00
  0.00000000E+00  0.00000000E+00  0.00000000E+00
  0.00000000E+00  0.00000000E+00  0.00000000E+00
  0.00000000E+00  0.00000000E+00  0.00000000E+00
  0.00000000E+00  0.00000000E+00  0.00000000E+00
  0.00000000E+00  0.00000000E+00  0.00000000E+00
  0.00000000E+00  0.00000000E+00  0.00000000E+00
  0.00000000E+00  0.00000000E+00  0.00000000E+00
