Al   Mg   Hf   N                        
   1.00000000000000     
    -9.6740368157994858    0.0083638868007991   -0.0008960550368731
    -4.8477322568382162    8.3700076889740860   -0.0009469566221692
    -0.0000767139246526    0.0025218797584255   -9.4619465878184528
   Al   Mg   Hf   N 
    34     1     1    36
Direct
  0.1059639031542913  0.0969130712832052  0.3289240446729839
  0.2218184947704230  0.2057217856687097  0.0808414938722577
  0.7779657090362586  0.0945119366003400  0.8300614034460598
  0.8889528663554798  0.2046618487229783  0.5780719145067242
  0.4451663485719037  0.0987270019639249  0.3295092820733340
  0.5565626395785939  0.2047017317018906  0.0798860938893792
  0.1092564324602798  0.0973682041670971  0.8312446497462350
  0.2214960607684314  0.2058646689834526  0.5798567602433722
  0.7786956053084010  0.0935329742985945  0.3303965099495733
  0.8873402100716098  0.2061043318505986  0.0813019170732494
  0.4425194066637891  0.0977000324205323  0.8307360412783938
  0.5553637153152530  0.2058915310018235  0.5800934869555784
  0.1107469132749589  0.4287841249336663  0.3305703109675193
  0.2214649920762116  0.5383369564436963  0.0805367391876515
  0.7810637712232554  0.4263776463292865  0.8362459098493265
  0.8899513301283088  0.5397798047978408  0.5784550595605771
  0.4428915122126754  0.4236433544082465  0.3283203096213680
  0.5572543624503552  0.5360163011206674  0.0740524884343314
  0.1109826154366872  0.4277346875291510  0.8298553671409279
  0.2222258350925898  0.5374686860596325  0.5793601701182214
  0.8890197689939332  0.5381328138527518  0.0815183454146935
  0.4421727932154680  0.4264930643097103  0.8316766485797846
  0.5589074006131334  0.5296776716887304  0.5889457586596483
  0.1064167050412353  0.7606537937502793  0.3300079785500545
  0.2197164214261646  0.8730551732164199  0.0742626253679418
  0.7815366198640957  0.7593690468704679  0.8320720530151121
  0.8883789786510461  0.8726011506502195  0.5799279434447110
  0.5568714614837155  0.8736864936913123  0.0745415319732977
  0.1098735046330982  0.7590614158585085  0.8303922140397115
  0.2130289392001936  0.8768697080129864  0.5887864262078062
  0.7843601506812199  0.7623445623282262  0.3283493374432785
  0.8885443815204880  0.8736831963463004  0.0794849916953465
  0.4443691384341126  0.7615662123214786  0.8255911144554311
  0.5614046274890143  0.8771261190179892  0.5889960641802545
  0.7821323370184632  0.4242312326335081  0.3336718439203119
  0.4448631533622662  0.7616880955641403  0.3478598926398399
  0.2227869388248637  0.2033890272560062  0.3771942069026789
  0.1122892103650412  0.0926737960614366  0.1264128622196606
  0.8895435562023897  0.2027665408576525  0.8788849348001546
  0.7767796682821538  0.0944091903383031  0.6289216118730103
  0.5553878636884457  0.2054918413935310  0.3779892833181568
  0.4448739108369612  0.0936473109783044  0.1272888331758046
  0.2217753380653606  0.2060163747241995  0.8795226038918404
  0.1102986583338266  0.0970623101363579  0.6308783322841052
  0.8945489825568241  0.1915456544246823  0.3797350442865402
  0.7770526046602928  0.0941329726540580  0.1281288795895857
  0.5559012945256813  0.2048095243386763  0.8792348168257181
  0.4427083390277055  0.0978841988343130  0.6300386116390027
  0.2226170482211210  0.5382799707165494  0.3771567098565343
  0.1120440572329380  0.4268783721899329  0.1287933263314965
  0.8912638935944766  0.5393200493570184  0.8789905803895833
  0.7809126065609863  0.4265607273489309  0.6304923841671192
  0.5496884802705949  0.5262187055284854  0.3878814174458346
  0.4444829151872749  0.4277712202274336  0.1257573015853150
  0.2210757476933410  0.5385578864291315  0.8794940446809379
  0.1122268052474733  0.4267321349492927  0.6283082010038782
  0.8950956289471029  0.5478893280008864  0.3791705274266811
  0.7763648109775021  0.4287475254310815  0.1131367288684259
  0.5527071617167379  0.5404699501083821  0.8708478099758403
  0.4421438759338857  0.4254700019601738  0.6317723393483049
  0.2036238716941378  0.8797968370030752  0.3848577101705150
  0.1115658656744757  0.7614482738738054  0.1274103478700773
  0.8893012716215809  0.8728238214761113  0.8789066007104394
  0.7808410127771215  0.7607514778558473  0.6321654777864996
  0.5678019489681347  0.8827002425276465  0.3852089841108772
  0.4442135563596956  0.7617583729503175  0.1227725797863217
  0.2223776510965170  0.8714916345510787  0.8722252082315605
  0.1099447872860461  0.7591204465272063  0.6296037244474274
  0.8890060210131561  0.8731623724355613  0.3783677713289517
  0.7768709632874607  0.7629330752451622  0.1256119466531237
  0.5551623978210345  0.8724559644829561  0.8728172864542392
  0.4444723410278028  0.7632350991704521  0.6176868391296149
