Al   Mg   Hf   N                        
   1.00000000000000     
    -9.4529819699326971    0.0084487594508982    0.0020070927502074
    -4.7338176884930814    8.1840554253719020    0.0021295345373078
     0.0027842804440018   -0.0017099536400719  -10.0721526432437720
   Al   Mg   Hf   N 
    34     1     1    36
Direct
  0.1047883136454737  0.0984074981839816  0.4069080930741261
  0.2216810391729008  0.2059406836800936  0.1570420271782195
  0.7776372228838567  0.0940994230281696  0.9071944348500026
  0.8875594483932054  0.2065868065138034  0.6590101517192730
  0.4445877225609763  0.0996596894644017  0.4073313827215228
  0.5556428071493740  0.2056866383073266  0.1569651803254307
  0.1103987610087856  0.0958467099874772  0.9074690293342227
  0.2212737358653806  0.2060234232586191  0.6566605788498333
  0.7792857125276496  0.0942054626952106  0.4061985848413652
  0.8891173484208793  0.2042521123578293  0.1573493693428850
  0.4432932456137495  0.0965393793860948  0.9070094308931385
  0.5562250974669142  0.2052567764498922  0.6569334786784951
  0.1096218404039932  0.4293032063066325  0.4064787479964236
  0.2220459443317271  0.5379322587116527  0.1576851292474145
  0.7797016832340313  0.4268344878760448  0.9062801611460087
  0.8883955081623861  0.5382127292756340  0.6589015209653387
  0.4433672879274274  0.4237410365668619  0.4073601440264891
  0.5571591611148952  0.5333789170811444  0.1511439555765974
  0.1113760234206020  0.4276687841127311  0.9073866270625541
  0.2216583644146481  0.5383490341555400  0.6569450827311598
  0.8899841670953690  0.5396561061235193  0.1574399895369980
  0.4428437241217077  0.4267176529258608  0.9072986575575331
  0.5582444601036735  0.5341389040103482  0.6650010793506441
  0.1063608984828397  0.7602949700185782  0.4068764811081372
  0.2166835322380389  0.8749771266361479  0.1521573764608957
  0.7798846175498167  0.7606242677147563  0.9071844990445510
  0.8883165728588236  0.8730559398662536  0.6570111328296245
  0.5592041560344369  0.8755044464159722  0.1512005060144244
  0.1100965695649867  0.7600715743858688  0.9072928699819984
  0.2179285967370553  0.8741213296199130  0.6624815894322774
  0.7852560972368722  0.7607626513205943  0.4068251278464264
  0.8884676681747026  0.8728095409184686  0.1574855233331235
  0.4440346424410528  0.7616472639375832  0.9096933859570077
  0.5577117776500233  0.8738607501288984  0.6625583198181750
  0.7836265906393300  0.4226822608349373  0.4073746920185750
  0.4461763360106996  0.7605536806619069  0.4023642400277093
  0.2225337388989150  0.2041572065796062  0.3486799808820883
  0.1114360231979538  0.0955830364632488  0.0964086834444593
  0.8895289117087439  0.2034998872169766  0.8496585347885112
  0.7776649911883213  0.0944921801570593  0.5979722788197028
  0.5559165292291309  0.2052756673585446  0.3478141045021423
  0.4432629649591321  0.0967903465766565  0.0967749779231755
  0.2219525274529959  0.2055840868671676  0.8470859195663686
  0.1112173119993622  0.0935170598036613  0.5985337751422484
  0.8945905089431728  0.1914673876265609  0.3430358371921002
  0.7768050324471603  0.0940670855174246  0.0969099511366976
  0.5554587555226644  0.2052722123593879  0.8469996070851428
  0.4445635557210859  0.0937008283204730  0.5981693762326291
  0.2225542682052907  0.5382158721097130  0.3487534536348018
  0.1123582504943402  0.4268602543730332  0.0973748845552904
  0.8900034752682019  0.5396363916954554  0.8496497082630208
  0.7766960116563845  0.4284601514451818  0.6123537217506109
  0.5495019425428943  0.5283004612159536  0.3381173697100392
  0.4426650893251587  0.4261404476043095  0.0960187211677021
  0.2216319615033123  0.5388478094441355  0.8472097971029288
  0.1108241092099623  0.4277105227517828  0.5978521790528508
  0.8950657404354413  0.5471161541925911  0.3441422862067639
  0.7797506208578485  0.4270280202472916  0.0972912087550097
  0.5537163476813751  0.5391380788919773  0.8545926529991804
  0.4443874634875046  0.4280895826494214  0.5988762075783826
  0.2067703532648758  0.8785613007654007  0.3429409218314627
  0.1103948363888593  0.7599302739867729  0.0972876874305702
  0.8889949947482054  0.8723497628366313  0.8470579412793368
  0.7771372343598633  0.7616627412305153  0.5986365094238305
  0.5658457338762554  0.8819197568314290  0.3417236747494397
  0.4443512066543031  0.7626551611118628  0.1035392646498312
  0.2213804290868270  0.8722037136064180  0.8517414822345031
  0.1113621041577935  0.7611891565507115  0.5980526915482872
  0.8888641941602917  0.8734840788730762  0.3477266730912190
  0.7795152274419278  0.7615223544106728  0.0957656529350174
  0.5556450836406998  0.8727049390463807  0.8516560687540439
  0.4442776608407665  0.7607431714363438  0.6102468189900092
