supercell of 100% icsd_608626.cif, 0% i 
   1.00000000000000     
    -9.5023426057023901    0.0060372178246610   -0.0044401538223396
    -4.7563959953423431    8.2288082127237185   -0.0060356756681865
    -0.0047397537975000    0.0047102937302124  -10.1293355806671084
   Al   Sr   Hf   N 
    34     1     1    36
Direct
  0.1078694447524384  0.0925899012919871  0.2981161172757680
  0.2208614737734891  0.2060125597806817  0.0471617256085963
  0.7766142155811409  0.0919798610011355  0.7945572762817577
  0.8910814980444925  0.2000120145392970  0.5524262546059404
  0.4450367261991630  0.0998556003482420  0.2961155358103014
  0.5563043816709055  0.2055246098649235  0.0465532440701963
  0.1133259470846326  0.0937964658833152  0.7942395978188159
  0.2222904238193451  0.2056510848278066  0.5462375602636556
  0.7811374332873697  0.0893495467295509  0.2982076264741664
  0.8896860689908408  0.2016698082317276  0.0329059310004993
  0.4432581097092907  0.0967373110511716  0.7962647219323529
  0.5553660194042749  0.2059353045794552  0.5461930424492323
  0.1128256290818470  0.4311151317762167  0.2981434354821957
  0.2214528108826315  0.5385339836468077  0.0465860585910036
  0.7795054180015057  0.4270241768423588  0.8022516484162736
  0.8925100179318548  0.5419606653398432  0.5517833572444175
  0.4394141538934377  0.4257454652348542  0.2964687771517802
  0.5532506494872109  0.5370119229762480  0.0280799368749598
  0.1144021642347397  0.4266514392756164  0.7944444990654915
  0.2223047261381055  0.5376984665678108  0.5446641921569864
  0.8906152947164969  0.5405451228336204  0.0332946473603073
  0.4409929698732924  0.4260532835578275  0.7944029098080208
  0.5531015158497823  0.5366983691661531  0.5580679523659313
  0.1063195972720550  0.7593272709443184  0.2970242746703846
  0.2174196593461204  0.8738361299066000  0.0407640981345452
  0.7789363038567103  0.7636287136239588  0.7945800689944633
  0.8883616982749842  0.8728971103694718  0.5446635566358609
  0.5576077785718425  0.8736631674714346  0.0407691467972882
  0.1099547523391635  0.7600195130653447  0.7960205515269294
  0.2169001286727550  0.8746774435473625  0.5507398422410361
  0.7864846961547514  0.7630347755463660  0.2979651926861706
  0.8884236948897595  0.8727181334021381  0.0467882176223000
  0.4420311252161326  0.7647731132291540  0.7922533534619447
  0.5589706260857312  0.8764630352773750  0.5519971838354110
  0.7842290786566579  0.4225410673630208  0.2877565475125863
  0.4419596402802455  0.7650116047321447  0.3005536271205145
  0.2219374880004850  0.2040803124326018  0.3539577620481538
  0.1090569317081176  0.0944257549605467  0.1051204955873288
  0.8924325375720912  0.1976222251840554  0.8455274474612011
  0.7747121799327914  0.0924633408348470  0.6073897494176137
  0.5563950792390884  0.2063552361956837  0.3545826025265697
  0.4445181403673999  0.0936759737727897  0.1056515064996901
  0.2221228330731861  0.2053823444531275  0.8572048634109990
  0.1149200181968126  0.0938863225603228  0.6076494302509730
  0.9067351786173532  0.1665405092628163  0.3712149820154238
  0.7782552029895911  0.0955205734134879  0.1052833224789680
  0.5552745229628187  0.2054155730121963  0.8570794258015724
  0.4432505522449972  0.0971680130783028  0.6065063277927791
  0.2232326142646386  0.5380460813051045  0.3540967236071708
  0.1087695840303269  0.4282476467037952  0.1055744168874213
  0.8930692971108343  0.5425191339142401  0.8458384682508537
  0.7796115120502805  0.4272257506842934  0.6050683249672346
  0.5236030846575304  0.5435356323752316  0.3744222968358173
  0.4454183486052656  0.4287280244775715  0.1042292863610541
  0.2216716603759323  0.5389799514006910  0.8571370226600621
  0.1160508564003706  0.4247435125160806  0.6070148261251873
  0.9086844371055491  0.5592139680269028  0.3699302818703600
  0.7770964665683380  0.4278403750030577  0.0534367997310810
  0.5481429466894454  0.5421590088794517  0.8409688782612079
  0.4413860576294226  0.4247098881234095  0.6079091801915837
  0.2073915060318043  0.8763736753338591  0.3605266094599031
  0.1111617845377637  0.7609262109048842  0.1057482976689599
  0.8891510235143727  0.8722152096773499  0.8574873488488279
  0.7776759908855553  0.7650412843103140  0.6084927837199317
  0.5662334507446545  0.8823278787788169  0.3617337789590707
  0.4445957084758447  0.7594063809398861  0.0920983973294085
  0.2210159862438772  0.8721730985962992  0.8525006894315226
  0.1103250373587414  0.7598055109797670  0.6059191132404251
  0.8894676921594140  0.8731764757949776  0.3549637629044611
  0.7774226188470195  0.7596568938046175  0.1048036965839856
  0.5555281657706317  0.8732682454674787  0.8524685332874853
  0.4428776330124222  0.7664008090158561  0.6014208581775478
 
  0.00000000E+00  0.00000000E+00  0.00000000E+00
  0.00000000E+00  0.00000000E+00  0.00000000E+00
  0.00000000E+00  0.00000000E+00  0.00000000E+00
  0.00000000E+00  0.00000000E+00  0.00000000E+00
  0.00000000E+00  0.00000000E+00  0.00000000E+00
  0.00000000E+00  0.00000000E+00  0.00000000E+00
  0.00000000E+00  0.00000000E+00  0.00000000E+00
  0.00000000E+00  0.00000000E+00  0.00000000E+00
  0.00000000E+00  0.00000000E+00  0.00000000E+00
  0.00000000E+00  0.00000000E+00  0.00000000E+00
  0.00000000E+00  0.00000000E+00  0.00000000E+00
  0.00000000E+00  0.00000000E+00  0.00000000E+00
  0.00000000E+00  0.00000000E+00  0.00000000E+00
  0.00000000E+00  0.00000000E+00  0.00000000E+00
  0.00000000E+00  0.00000000E+00  0.00000000E+00
  0.00000000E+00  0.00000000E+00  0.00000000E+00
  0.00000000E+00  0.00000000E+00  0.00000000E+00
  0.00000000E+00  0.00000000E+00  0.00000000E+00
  0.00000000E+00  0.00000000E+00  0.00000000E+00
  0.00000000E+00  0.00000000E+00  0.00000000E+00
  0.00000000E+00  0.00000000E+00  0.00000000E+00
  0.00000000E+00  0.00000000E+00  0.00000000E+00
  0.00000000E+00  0.00000000E+00  0.00000000E+00
  0.00000000E+00  0.00000000E+00  0.00000000E+00
  0.00000000E+00  0.00000000E+00  0.00000000E+00
  0.00000000E+00  0.00000000E+00  0.00000000E+00
  0.00000000E+00  0.00000000E+00  0.00000000E+00
  0.00000000E+00  0.00000000E+00  0.00000000E+00
  0.00000000E+00  0.00000000E+00  0.00000000E+00
  0.00000000E+00  0.00000000E+00  0.00000000E+00
  0.00000000E+00  0.00000000E+00  0.00000000E+00
  0.00000000E+00  0.00000000E+00  0.00000000E+00
  0.00000000E+00  0.00000000E+00  0.00000000E+00
  0.00000000E+00  0.00000000E+00  0.00000000E+00
  0.00000000E+00  0.00000000E+00  0.00000000E+00
  0.00000000E+00  0.00000000E+00  0.00000000E+00
  0.00000000E+00  0.00000000E+00  0.00000000E+00
  0.00000000E+00  0.00000000E+00  0.00000000E+00
  0.00000000E+00  0.00000000E+00  0.00000000E+00
  0.00000000E+00  0.00000000E+00  0.00000000E+00
  0.00000000E+00  0.00000000E+00  0.00000000E+00
  0.00000000E+00  0.00000000E+00  0.00000000E+00
  0.00000000E+00  0.00000000E+00  0.00000000E+00
  0.00000000E+00  0.00000000E+00  0.00000000E+00
  0.00000000E+00  0.00000000E+00  0.00000000E+00
  0.00000000E+00  0.00000000E+00  0.00000000E+00
  0.00000000E+00  0.00000000E+00  0.00000000E+00
  0.00000000E+00  0.00000000E+00  0.00000000E+00
  0.00000000E+00  0.00000000E+00  0.00000000E+00
  0.00000000E+00  0.00000000E+00  0.00000000E+00
  0.00000000E+00  0.00000000E+00  0.00000000E+00
  0.00000000E+00  0.00000000E+00  0.00000000E+00
  0.00000000E+00  0.00000000E+00  0.00000000E+00
  0.00000000E+00  0.00000000E+00  0.00000000E+00
  0.00000000E+00  0.00000000E+00  0.00000000E+00
  0.00000000E+00  0.00000000E+00  0.00000000E+00
  0.00000000E+00  0.00000000E+00  0.00000000E+00
  0.00000000E+00  0.00000000E+00  0.00000000E+00
  0.00000000E+00  0.00000000E+00  0.00000000E+00
  0.00000000E+00  0.00000000E+00  0.00000000E+00
  0.00000000E+00  0.00000000E+00  0.00000000E+00
  0.00000000E+00  0.00000000E+00  0.00000000E+00
  0.00000000E+00  0.00000000E+00  0.00000000E+00
  0.00000000E+00  0.00000000E+00  0.00000000E+00
  0.00000000E+00  0.00000000E+00  0.00000000E+00
  0.00000000E+00  0.00000000E+00  0.00000000E+00
  0.00000000E+00  0.00000000E+00  0.00000000E+00
  0.00000000E+00  0.00000000E+00  0.00000000E+00
  0.00000000E+00  0.00000000E+00  0.00000000E+00
  0.00000000E+00  0.00000000E+00  0.00000000E+00
  0.00000000E+00  0.00000000E+00  0.00000000E+00
  0.00000000E+00  0.00000000E+00  0.00000000E+00
