supercell of 100% icsd_608626.cif, 0% i 
   1.00000000000000     
    -9.4977855165190324   -0.0029402526676026    0.0065921091159001
    -4.7463464123154031    8.2209130279322871   -0.0000001991200841
     0.0070212135264724    0.0040539437557457  -10.1273536296125588
   Hf   Al   Sr   N 
     1    34     1    36
Direct
  0.1099810853661012  0.0950095135848841  0.2928917369403052
  0.2217797682563543  0.2049855673197740  0.0404646902635264
  0.7771097911021982  0.0934619263851602  0.7965339261118132
  0.8836881931703005  0.2081566124237497  0.5515008817948583
  0.4498210282619155  0.0937929915671347  0.2949961053043069
  0.5592814552429530  0.2055467163149345  0.0467566882402934
  0.1109649152810519  0.0945169999501303  0.7955806814937105
  0.2263195173892925  0.2040077742134088  0.5504117194213833
  0.7716789507101254  0.0947220036496574  0.2936089340069543
  0.8836492714109170  0.2081756717693253  0.0402237504945475
  0.4467659965630233  0.0937541803396087  0.7965758412337109
  0.5576009968677127  0.2027137203923601  0.5451094415564484
  0.1080036402705247  0.4287515898044774  0.3028991598422266
  0.7771091996242845  0.4294293702073801  0.7965340152663245
  0.8852537667945839  0.5403424817753688  0.5452237594494136
  0.4499963659794730  0.4250015747536793  0.3007191443480224
  0.5592812332211992  0.5351714366856442  0.0467565972642419
  0.1092980307165021  0.4277574340908075  0.7839964452220585
  0.2225785396589757  0.5387108009389081  0.5520671293824577
  0.7716786814914656  0.4335997036734156  0.2936089545975449
  0.8870495487159573  0.5340321503980405  0.0484615198099831
  0.4476277583452628  0.4261857928909905  0.7851508936550999
  0.5576004045058838  0.5396862177147952  0.5451095250693996
  0.1080038036996811  0.7632443656547991  0.3028989335944274
  0.2217796101657399  0.8732339831694844  0.0404647809687120
  0.7794259526721845  0.7602873425264320  0.7977652825488804
  0.8852538585604037  0.8744045000461824  0.5452239760710356
  0.4498209624532947  0.7563857637420668  0.2949960363364497
  0.5573008546391947  0.8713493523167841  0.0458851061520988
  0.1092984582226180  0.7629426968980866  0.7839967000684354
  0.2263189151691662  0.8696734593326028  0.5504117324655482
  0.7779880844778972  0.7610063220194405  0.2958273908966547
  0.8870495205866291  0.8789185796936820  0.0484613112853580
  0.4467656876982673  0.7594799201777960  0.7965759196268252
  0.5567353558144390  0.8716324888317999  0.5465136709918070
  0.2160451152633271  0.5419769879351364  0.0433812345662901
  0.2338636590993843  0.2070184381351794  0.3630035477261302
  0.1118714243856047  0.0940639406565325  0.0872515027557057
  0.8878655212505109  0.2060677163743065  0.8513739850189097
  0.7771212797302809  0.0938113804296208  0.6073946682775357
  0.5567451640871468  0.2020240925587728  0.3576387693893608
  0.4441480065918171  0.0946753053257581  0.1037895894591614
  0.2228346930359777  0.2073742350153225  0.8501514791344249
  0.1104484571224660  0.0947760858828417  0.6020342409731825
  0.8719070360149388  0.2140468487526803  0.3597301775925033
  0.7766558857234571  0.0961802457274601  0.1040240851168903
  0.5550855273502791  0.2069662736407949  0.8548958364888435
  0.4470898262347163  0.0925592193290328  0.6072954837264888
  0.2222164234199440  0.5388916426391290  0.3538898069226590
  0.0908873309785108  0.4019121412788849  0.1228780269049210
  0.8916618785263779  0.5375481993471354  0.8559062412582321
  0.7771206516589757  0.4290688453792910  0.6073947415157335
  0.5567448217313924  0.5412305948437250  0.3576388239671289
  0.4810004770534562  0.4094994601602622  0.1188589370151547
  0.2229429893730597  0.5385274118354531  0.8089256302625643
  0.1068797626770532  0.4257666070003268  0.5963382305169347
  0.8838955450120380  0.5410704612114969  0.3574291685209872
  0.7766555725611468  0.4271644777999697  0.1040241382227549
  0.5550849614474416  0.5379482189465676  0.8548957695559523
  0.4513348673531397  0.4243327910532670  0.5962784508352357
  0.2338634603974228  0.8591177931945566  0.3630034742243637
  0.0908872195272750  0.8071997203682528  0.1228778652516880
  0.8916621472499529  0.8707902323282610  0.8559060930489224
  0.7778557549918830  0.7610724942542006  0.6069849984325231
  0.5557017661365080  0.8721490111885828  0.3545824048010076
  0.4441479733941165  0.7611761942774535  0.1037895513397018
  0.2228344995257530  0.8697898239655046  0.8501515767211956
  0.1068799095150084  0.7673536712367905  0.5963385958767233
  0.8838959010165937  0.8750344544010815  0.3574293695844517
  0.7804329282835170  0.7597836963888014  0.1048913696383309
  0.5567832085952844  0.8716083752263302  0.8561242650368968
  0.4470891505787051  0.7603519066584852  0.6072954885455033
 
  0.00000000E+00  0.00000000E+00  0.00000000E+00
  0.00000000E+00  0.00000000E+00  0.00000000E+00
  0.00000000E+00  0.00000000E+00  0.00000000E+00
  0.00000000E+00  0.00000000E+00  0.00000000E+00
  0.00000000E+00  0.00000000E+00  0.00000000E+00
  0.00000000E+00  0.00000000E+00  0.00000000E+00
  0.00000000E+00  0.00000000E+00  0.00000000E+00
  0.00000000E+00  0.00000000E+00  0.00000000E+00
  0.00000000E+00  0.00000000E+00  0.00000000E+00
  0.00000000E+00  0.00000000E+00  0.00000000E+00
  0.00000000E+00  0.00000000E+00  0.00000000E+00
  0.00000000E+00  0.00000000E+00  0.00000000E+00
  0.00000000E+00  0.00000000E+00  0.00000000E+00
  0.00000000E+00  0.00000000E+00  0.00000000E+00
  0.00000000E+00  0.00000000E+00  0.00000000E+00
  0.00000000E+00  0.00000000E+00  0.00000000E+00
  0.00000000E+00  0.00000000E+00  0.00000000E+00
  0.00000000E+00  0.00000000E+00  0.00000000E+00
  0.00000000E+00  0.00000000E+00  0.00000000E+00
  0.00000000E+00  0.00000000E+00  0.00000000E+00
  0.00000000E+00  0.00000000E+00  0.00000000E+00
  0.00000000E+00  0.00000000E+00  0.00000000E+00
  0.00000000E+00  0.00000000E+00  0.00000000E+00
  0.00000000E+00  0.00000000E+00  0.00000000E+00
  0.00000000E+00  0.00000000E+00  0.00000000E+00
  0.00000000E+00  0.00000000E+00  0.00000000E+00
  0.00000000E+00  0.00000000E+00  0.00000000E+00
  0.00000000E+00  0.00000000E+00  0.00000000E+00
  0.00000000E+00  0.00000000E+00  0.00000000E+00
  0.00000000E+00  0.00000000E+00  0.00000000E+00
  0.00000000E+00  0.00000000E+00  0.00000000E+00
  0.00000000E+00  0.00000000E+00  0.00000000E+00
  0.00000000E+00  0.00000000E+00  0.00000000E+00
  0.00000000E+00  0.00000000E+00  0.00000000E+00
  0.00000000E+00  0.00000000E+00  0.00000000E+00
  0.00000000E+00  0.00000000E+00  0.00000000E+00
  0.00000000E+00  0.00000000E+00  0.00000000E+00
  0.00000000E+00  0.00000000E+00  0.00000000E+00
  0.00000000E+00  0.00000000E+00  0.00000000E+00
  0.00000000E+00  0.00000000E+00  0.00000000E+00
  0.00000000E+00  0.00000000E+00  0.00000000E+00
  0.00000000E+00  0.00000000E+00  0.00000000E+00
  0.00000000E+00  0.00000000E+00  0.00000000E+00
  0.00000000E+00  0.00000000E+00  0.00000000E+00
  0.00000000E+00  0.00000000E+00  0.00000000E+00
  0.00000000E+00  0.00000000E+00  0.00000000E+00
  0.00000000E+00  0.00000000E+00  0.00000000E+00
  0.00000000E+00  0.00000000E+00  0.00000000E+00
  0.00000000E+00  0.00000000E+00  0.00000000E+00
  0.00000000E+00  0.00000000E+00  0.00000000E+00
  0.00000000E+00  0.00000000E+00  0.00000000E+00
  0.00000000E+00  0.00000000E+00  0.00000000E+00
  0.00000000E+00  0.00000000E+00  0.00000000E+00
  0.00000000E+00  0.00000000E+00  0.00000000E+00
  0.00000000E+00  0.00000000E+00  0.00000000E+00
  0.00000000E+00  0.00000000E+00  0.00000000E+00
  0.00000000E+00  0.00000000E+00  0.00000000E+00
  0.00000000E+00  0.00000000E+00  0.00000000E+00
  0.00000000E+00  0.00000000E+00  0.00000000E+00
  0.00000000E+00  0.00000000E+00  0.00000000E+00
  0.00000000E+00  0.00000000E+00  0.00000000E+00
  0.00000000E+00  0.00000000E+00  0.00000000E+00
  0.00000000E+00  0.00000000E+00  0.00000000E+00
  0.00000000E+00  0.00000000E+00  0.00000000E+00
  0.00000000E+00  0.00000000E+00  0.00000000E+00
  0.00000000E+00  0.00000000E+00  0.00000000E+00
  0.00000000E+00  0.00000000E+00  0.00000000E+00
  0.00000000E+00  0.00000000E+00  0.00000000E+00
  0.00000000E+00  0.00000000E+00  0.00000000E+00
  0.00000000E+00  0.00000000E+00  0.00000000E+00
  0.00000000E+00  0.00000000E+00  0.00000000E+00
  0.00000000E+00  0.00000000E+00  0.00000000E+00
