supercell of icsd_608626.cif            
   1.13463349675962     
     9.4502937298430698    0.0121667845164501    0.0156309795786168
    -4.7140104161718375    8.1661391128969978   -0.0277017871638240
     0.0148006064373844   -0.0238878919421403    9.1150040037547431
   Y    Al   N 
    20    16    36
Direct
  0.2036634177570349  0.1067195638136837  0.2287389398844368
  0.8745106331015791  0.1000280069751369  0.7303380871511536
  0.5500204326496743  0.0954236582176193  0.2330924350849202
  0.4406882544898636  0.2275834374248973  0.4820272609778158
  0.2201543282079257  0.1057016368860744  0.7518569845280823
  0.0966225032067598  0.2223136620485207  0.9776690514752460
  0.7910632517735365  0.2343948465085788  0.4723553498853263
  0.5702545755185824  0.1341033313497846  0.7454970114514836
  0.2109460157198058  0.4400658330438958  0.2568726079420927
  0.7787188128640921  0.5687773346194689  0.9577054227070292
  0.5668149968587812  0.4631541392774707  0.2346650674195345
  0.1206959917969144  0.5647478072838510  0.9673748632590673
  0.8945583294714865  0.4552459756221765  0.2195369211153562
  0.8053092638852846  0.5778393518403817  0.5151070073168498
  0.2082013663314441  0.7731525549585641  0.2695838888558555
  0.5490000683481995  0.7686264557019626  0.2231515951042127
  0.2024857546905565  0.7707690671455438  0.7070004610501783
  0.7746717217385140  0.8810227954158805  0.4639364955272782
  0.5629840686301506  0.7543792766651265  0.7412309469292850
  0.4384286021797976  0.8886597765218340  0.9673355728390192
  0.1130358701913607  0.2291202976642595  0.5137169219130158
  0.7708753206501555  0.2111644800583150  0.0085646034748805
  0.8956592542820019  0.1112771697449446  0.2458041856371977
  0.4427816380288405  0.2227221940783011  0.0136790587632092
  0.1188472372193701  0.5401962474201198  0.5178694938620509
  0.8989532956860486  0.4388993807481114  0.7587228528677983
  0.4358667086723429  0.5453561656670445  0.5089989187835187
  0.2223477234434768  0.4374476610785933  0.7400044593719954
  0.4928059442002208  0.4127728938203035  0.7690880834719493
  0.4401809169500837  0.5450810703426043  0.9956790421224255
  0.0804386373313619  0.9223050642397368  0.5027041759422275
  0.9049430217931871  0.7948057372512594  0.7548867631031371
  0.7860518290022185  0.8952101550601768  0.0059624334884418
  0.4435114135844103  0.8684584298130744  0.5156213628655237
  0.1103582642303849  0.8962266812476827  0.9990747352985636
  0.9018614712183961  0.7895871890981425  0.2321867672115658
  0.1992153477442784  0.1144764912127627  0.4628564403933808
  0.0822826300845563  0.2167608704165715  0.1868875021593652
  0.8407432836456579  0.0873884585029003  0.9469425737943808
  0.7947501585930752  0.2541644151963709  0.6858138297967997
  0.5373681207685124  0.0737886011764033  0.4611848018502513
  0.4456933321976777  0.2271298586029289  0.2041575692052362
  0.2371725279332821  0.1103732412814509  0.9756738179920887
  0.1132269585483456  0.2340430987529487  0.7062861307490920
  0.9181809451168021  0.1249308791376791  0.4459138547008052
  0.7889563364716423  0.2060706035161033  0.2023749680289839
  0.5637327469010955  0.1375208670021095  0.9756406347664139
  0.4483568182150748  0.2416931281248509  0.6967356041753021
  0.2219086099891143  0.4344545632564234  0.4782205695792427
  0.1192051929458842  0.5635003779312910  0.1789078773520885
  0.8771145665662559  0.4110618761465759  0.9506496467705574
  0.8397952469902279  0.5859561134292477  0.7353835382882750
  0.5620320414006486  0.4728771623595307  0.4518958468923699
  0.4263554838418742  0.5407648105378158  0.1744851742403597
  0.2522460041130046  0.4576439723815255  0.9246344391324115
  0.1020674797796204  0.5230131082982226  0.7091372105323828
  0.9310692748605192  0.4726904291803180  0.4405312349612700
  0.7970875851031778  0.5955177936186402  0.1784898800733146
  0.5254696121070381  0.4251880199938540  0.9471347331980269
  0.4231732703309774  0.5193648498074808  0.6916626137287381
  0.2399263210548739  0.7470506936850754  0.4870191375830544
  0.0921191603810030  0.8782328564786255  0.1783038093746470
  0.9159619817033828  0.8334337675763592  0.9352173926428478
  0.7904777329512598  0.8618532533119492  0.6766925972417610
  0.5254618138240943  0.7493839336349524  0.4649290695511610
  0.4251562151791646  0.8712581192328912  0.1803181348553480
  0.2027099773935248  0.8011643997136275  0.9270920895501220
  0.0834229420677133  0.8893113132202188  0.6721669286416230
  0.9208082996103784  0.7947427380909886  0.4156375155824534
  0.8037978432445669  0.9049441549222834  0.2017609360941393
  0.5777965907125093  0.7552668865713983  0.9678146291099168
  0.4568466119253642  0.8896449650445675  0.7118074387300979
 
  0.00000000E+00  0.00000000E+00  0.00000000E+00
  0.00000000E+00  0.00000000E+00  0.00000000E+00
  0.00000000E+00  0.00000000E+00  0.00000000E+00
  0.00000000E+00  0.00000000E+00  0.00000000E+00
  0.00000000E+00  0.00000000E+00  0.00000000E+00
  0.00000000E+00  0.00000000E+00  0.00000000E+00
  0.00000000E+00  0.00000000E+00  0.00000000E+00
  0.00000000E+00  0.00000000E+00  0.00000000E+00
  0.00000000E+00  0.00000000E+00  0.00000000E+00
  0.00000000E+00  0.00000000E+00  0.00000000E+00
  0.00000000E+00  0.00000000E+00  0.00000000E+00
  0.00000000E+00  0.00000000E+00  0.00000000E+00
  0.00000000E+00  0.00000000E+00  0.00000000E+00
  0.00000000E+00  0.00000000E+00  0.00000000E+00
  0.00000000E+00  0.00000000E+00  0.00000000E+00
  0.00000000E+00  0.00000000E+00  0.00000000E+00
  0.00000000E+00  0.00000000E+00  0.00000000E+00
  0.00000000E+00  0.00000000E+00  0.00000000E+00
  0.00000000E+00  0.00000000E+00  0.00000000E+00
  0.00000000E+00  0.00000000E+00  0.00000000E+00
  0.00000000E+00  0.00000000E+00  0.00000000E+00
  0.00000000E+00  0.00000000E+00  0.00000000E+00
  0.00000000E+00  0.00000000E+00  0.00000000E+00
  0.00000000E+00  0.00000000E+00  0.00000000E+00
  0.00000000E+00  0.00000000E+00  0.00000000E+00
  0.00000000E+00  0.00000000E+00  0.00000000E+00
  0.00000000E+00  0.00000000E+00  0.00000000E+00
  0.00000000E+00  0.00000000E+00  0.00000000E+00
  0.00000000E+00  0.00000000E+00  0.00000000E+00
  0.00000000E+00  0.00000000E+00  0.00000000E+00
  0.00000000E+00  0.00000000E+00  0.00000000E+00
  0.00000000E+00  0.00000000E+00  0.00000000E+00
  0.00000000E+00  0.00000000E+00  0.00000000E+00
  0.00000000E+00  0.00000000E+00  0.00000000E+00
  0.00000000E+00  0.00000000E+00  0.00000000E+00
  0.00000000E+00  0.00000000E+00  0.00000000E+00
  0.00000000E+00  0.00000000E+00  0.00000000E+00
  0.00000000E+00  0.00000000E+00  0.00000000E+00
  0.00000000E+00  0.00000000E+00  0.00000000E+00
  0.00000000E+00  0.00000000E+00  0.00000000E+00
  0.00000000E+00  0.00000000E+00  0.00000000E+00
  0.00000000E+00  0.00000000E+00  0.00000000E+00
  0.00000000E+00  0.00000000E+00  0.00000000E+00
  0.00000000E+00  0.00000000E+00  0.00000000E+00
  0.00000000E+00  0.00000000E+00  0.00000000E+00
  0.00000000E+00  0.00000000E+00  0.00000000E+00
  0.00000000E+00  0.00000000E+00  0.00000000E+00
  0.00000000E+00  0.00000000E+00  0.00000000E+00
  0.00000000E+00  0.00000000E+00  0.00000000E+00
  0.00000000E+00  0.00000000E+00  0.00000000E+00
  0.00000000E+00  0.00000000E+00  0.00000000E+00
  0.00000000E+00  0.00000000E+00  0.00000000E+00
  0.00000000E+00  0.00000000E+00  0.00000000E+00
  0.00000000E+00  0.00000000E+00  0.00000000E+00
  0.00000000E+00  0.00000000E+00  0.00000000E+00
  0.00000000E+00  0.00000000E+00  0.00000000E+00
  0.00000000E+00  0.00000000E+00  0.00000000E+00
  0.00000000E+00  0.00000000E+00  0.00000000E+00
  0.00000000E+00  0.00000000E+00  0.00000000E+00
  0.00000000E+00  0.00000000E+00  0.00000000E+00
  0.00000000E+00  0.00000000E+00  0.00000000E+00
  0.00000000E+00  0.00000000E+00  0.00000000E+00
  0.00000000E+00  0.00000000E+00  0.00000000E+00
  0.00000000E+00  0.00000000E+00  0.00000000E+00
  0.00000000E+00  0.00000000E+00  0.00000000E+00
  0.00000000E+00  0.00000000E+00  0.00000000E+00
  0.00000000E+00  0.00000000E+00  0.00000000E+00
  0.00000000E+00  0.00000000E+00  0.00000000E+00
  0.00000000E+00  0.00000000E+00  0.00000000E+00
  0.00000000E+00  0.00000000E+00  0.00000000E+00
  0.00000000E+00  0.00000000E+00  0.00000000E+00
  0.00000000E+00  0.00000000E+00  0.00000000E+00
