generated by phonopy                    
   1.00000000000000     
    11.7777700938999992   -0.0000006592896312    0.0000118211769744
    -0.0000006477562692   11.7777479613999994   -0.0000130806483528
     0.0000177256125076   -0.0000204342245446   17.8544012557999991
   Bi   Cu   Br   Se   O 
    36    36     1    35    36
Direct
  0.9975597325955832  0.1641189011772255  0.4311479050094178
  0.3359819656771492  0.1641220994410801  0.4311498501383397
  0.6667737570880305  0.1661061019459140  0.4303275613861501
  0.9975552927584843  0.5025507342535889  0.4311468182805740
  0.3359832077251852  0.5025479145031255  0.4311461659098015
  0.6667659106949557  0.5005561248189636  0.4303253624635559
  0.9995479321115113  0.8333334722939725  0.4303253619542531
  0.3340021580542754  0.8333371611967308  0.4303256233859543
  0.6667695482477569  0.8333351807803524  0.4309520775963804
  0.0002104502120659  0.1669339762546613  0.9288653538461844
  0.3330244903201063  0.1669375905268566  0.9288655073700696
  0.6666172531659100  0.1658156600542569  0.9279694929118918
  0.0002120521181652  0.4997513132391660  0.9288656923223328
  0.3330264724053364  0.4997464245507146  0.9288659450999859
  0.6666177330781480  0.5008664303763908  0.9279696890456250
  0.9990964915866556  0.8333440463282855  0.9279695320828623
  0.3341488166640119  0.8333435689491040  0.9279682247908170
  0.6666211703021787  0.8333413743296489  0.9282657172574460
  0.1666251726497450  0.9986935967957891  0.0693735203676340
  0.5002491818391093  0.9997118087210453  0.0703621105789836
  0.8329911266314554  0.9997107285479245  0.0703621444409848
  0.1666151189934837  0.3333458137413814  0.0711757154657917
  0.5012712183899239  0.3333399725113964  0.0693752160220811
  0.8319659542563045  0.3333401528693827  0.0693734487849298
  0.1666262173969102  0.6679997677140221  0.0693716311841683
  0.5002498534189286  0.6669692977718498  0.0703628164191059
  0.8329921024495448  0.6669699423484090  0.0703623714018420
  0.1667693281052962  0.0003667060135157  0.5721508494198488
  0.5006852762117759  0.9994164725840236  0.5731675526132634
  0.8328539430434887  0.9994146929883954  0.5731636128011885
  0.1667653669056861  0.3333328537253593  0.5707732109128401
  0.4997286076047587  0.3333308147319158  0.5721534145733926
  0.8338091607514002  0.3333340053577132  0.5721490951922092
  0.1667791507675958  0.6662929125955657  0.5721502164115293
  0.5006948910518574  0.6672495174773303  0.5731639432419868
  0.8328592508114525  0.6672496864243271  0.5731630524056328
  0.9967846809167611  0.9954902389616933  0.2511529751747830
  0.3366456988988702  0.9955397866431852  0.2511482937122054
  0.6667169957046468  0.9995124916677653  0.2500544766085966
  0.9699459466738176  0.3333317494914567  0.2398400995949359
  0.3633738483131239  0.3333346212648962  0.2399065585009339
  0.6667278618189627  0.3333334349721042  0.2502219109773662
  0.9967366581597759  0.6712129260315933  0.2511551537932206
  0.3366797703734363  0.6711599531815367  0.2511490111637329
  0.6667167060000878  0.6671630686916501  0.2500537208315023
  0.0004115870544226  0.0004767144405875  0.7501751488891202
  0.3329193676871895  0.0004762617264191  0.7501760365096715
  0.6666668549375814  0.0007042200248506  0.7504435780483476
  0.0003745814439426  0.3333334570568596  0.7502896222060542
  0.3329587202549718  0.3333383908716101  0.7502881578916742
  0.6666676543999230  0.3333355691789137  0.7507376044074121
  0.0004094025909325  0.6662004274698390  0.7501776343034265
  0.3329163182738384  0.6661966574906657  0.7501785056446550
  0.6666603398343867  0.6659730025978519  0.7504453752088907
  0.1666645107898361  0.1366730129749669  0.2398905932472815
  0.5044746126803901  0.1633928874496178  0.2511498742537128
  0.8288305474949880  0.1633800525401838  0.2511488715820818
  0.1666672598484880  0.5301361288448732  0.2398371048509844
  0.5044954436843341  0.5032725061899939  0.2511539669990057
  0.8288096669627265  0.5032831313285868  0.2511519667685249
  0.1666666999935202  0.8333220029802249  0.2502199007008699
  0.5004819674037151  0.8333412154518811  0.2500520833740723
  0.8328298909803280  0.8333410234329932  0.2500545414784838
  0.1667419010896225  0.1670485553446639  0.7502881260774359
  0.4996002712999967  0.1670845133246956  0.7501748758047810
  0.8338766075375403  0.1670917719628875  0.7501744424335470
  0.1667336647389135  0.4996332655378737  0.7502893202823913
  0.4995995655092003  0.4995951724933150  0.7501772566939238
  0.8338717219617635  0.4995905452839011  0.7501776775213287
  0.1667378048270010  0.8333397054760425  0.7507391217520052
  0.4993728312409047  0.8333423420299155  0.7504437482331738
  0.8341056036065950  0.8333390867293389  0.7504456015965815
  0.1667129988069291  0.3333551482809369  0.3279346896857191
  0.5017063749961324  0.3333319666617882  0.3394917996611468
  0.8317525838476172  0.3333325701267427  0.3394935590407613
  0.1667313747686165  0.6683178294559156  0.3394934219217447
  0.5008584175148485  0.6674619942817657  0.3386935592996281
  0.8325970525086532  0.6674612609801471  0.3387005210709333
  0.1667292996869705  0.9983648518685797  0.3394884637171387
  0.5008483793236707  0.9992127022675064  0.3386912041504004
  0.8326041940414299  0.9992086632734356  0.3386946411972858
  0.1666586532428411  0.3333403747730301  0.8376646433986252
  0.4996710508980087  0.3333379001599894  0.8374124022477503
  0.8336461032208007  0.3333395704371114  0.8374148376396420
  0.1666578055370493  0.6663516771965377  0.8374146587094771
  0.4997664379880078  0.6664493265197464  0.8371043416035704
  0.8335512195669494  0.6664474261616604  0.8371046336071757
  0.1666584089886314  0.0003274987072430  0.8374128799020966
  0.4997667665428125  0.0002328010173613  0.8371030004474562
  0.8335499769326020  0.0002338051476514  0.8371039088934253
  0.3352048276550761  0.1648048936203850  0.1636133354311440
  0.6666535709651811  0.1666367753277029  0.1622622076246145
  0.9981074404805526  0.1647661535060791  0.1636152158972379
  0.3352274808335025  0.5018765507776095  0.1636167237756183
  0.6666534073279422  0.5000378925461320  0.1622572051005378
  0.9980949020626042  0.5019131492824442  0.1636226853760618
  0.3333594338024994  0.8333452637550991  0.1622640927027064
  0.6666609408974864  0.8333371111336447  0.1631033605188605
  0.9999592204082433  0.8333445005302025  0.1622517441449034
  0.3331674225745260  0.1669053165828061  0.6628515635795580
  0.6667377001505059  0.1671967011344080  0.6630407252153248
  0.0003072027712534  0.1669054039676183  0.6628528047299298
  0.3331677490406193  0.4997677574872910  0.6628542375348943
  0.6667376626202284  0.4994766343999473  0.6630418798588309
  0.0003044253354005  0.4997673630612169  0.6628547811266472
  0.3328781509533769  0.8333345243720345  0.6630428345788175
  0.6667404697490582  0.8333355206441198  0.6636480779442380
  0.0005982601326622  0.8333349624742681  0.6630412512417010
  0.1667563682104998  0.1670234976607645  0.4996425961930839
  0.4996278581763107  0.1661085754909735  0.5010592768930735
  0.8338926957300359  0.1661083330972630  0.5010557308491030
  0.1667607543988510  0.4996464947899497  0.4996410239135187
  0.4996290674159596  0.5005577263448444  0.5010576177231698
  0.8338890896515920  0.5005596792848479  0.5010543598811950
  0.1667597741359614  0.8333331794002490  0.5009906570037614
  0.4999721160198263  0.8333353509828640  0.5017620964106939
  0.8335487280758400  0.8333337463925261  0.5017583663688256
  0.1666288714666777  0.1669459955447152  0.0004196104003285
  0.5001839677183924  0.1666296822176889  0.9995296181532751
  0.8330766680828035  0.1666280141356182  0.9995297479293868
  0.1666311731771657  0.4997398185806148  0.0004202998475478
  0.5001854063831743  0.5000509600243603  0.9995287146396450
  0.8330766363071476  0.5000539436137714  0.9995297188309138
  0.1666367047079120  0.8333441991439727  0.9990758025262778
  0.5001293405247580  0.8333422353351310  0.9993475288333542
  0.8331339582622306  0.8333407867389795  0.9993438813248261
  0.9999198208873281  0.9997863780862204  0.9995291613130561
  0.3333459647994914  0.9997897934172002  0.9995295601874332
  0.6666290096360541  0.9998436535212250  0.9993460005057955
  0.0002304060365148  0.3333427760298164  0.0004200176911056
  0.3330242537433818  0.3333410351040342  0.0004205404400892
  0.6666310266959243  0.3333403290388048  0.9990773097131651
  0.9999217755234042  0.6668967878664560  0.9995299473410526
  0.3333467681055211  0.6668950521004220  0.9995280720090705
  0.6666295647104903  0.6668375057301432  0.9993454101334152
  0.9995335436558648  0.0004638437516675  0.5010545392433414
  0.3339846996543869  0.0004642281323299  0.5010594679342404
  0.6667590824788263  0.0001242217193465  0.5017619297874845
  0.0004506822002597  0.3333363045428115  0.4996385872941929
  0.3330668340043417  0.3333351861960026  0.4996423199974487
  0.6667580729327511  0.3333333247048031  0.5009934232471309
  0.9995365077885694  0.6662042031474087  0.5010563374760295
  0.3339898114539182  0.6662064764140965  0.5010555573430011
  0.6667605753439432  0.6665431410828688  0.5017587138567592
 
  0.00000000E+00  0.00000000E+00  0.00000000E+00
  0.00000000E+00  0.00000000E+00  0.00000000E+00
  0.00000000E+00  0.00000000E+00  0.00000000E+00
  0.00000000E+00  0.00000000E+00  0.00000000E+00
  0.00000000E+00  0.00000000E+00  0.00000000E+00
  0.00000000E+00  0.00000000E+00  0.00000000E+00
  0.00000000E+00  0.00000000E+00  0.00000000E+00
  0.00000000E+00  0.00000000E+00  0.00000000E+00
  0.00000000E+00  0.00000000E+00  0.00000000E+00
  0.00000000E+00  0.00000000E+00  0.00000000E+00
  0.00000000E+00  0.00000000E+00  0.00000000E+00
  0.00000000E+00  0.00000000E+00  0.00000000E+00
  0.00000000E+00  0.00000000E+00  0.00000000E+00
  0.00000000E+00  0.00000000E+00  0.00000000E+00
  0.00000000E+00  0.00000000E+00  0.00000000E+00
  0.00000000E+00  0.00000000E+00  0.00000000E+00
  0.00000000E+00  0.00000000E+00  0.00000000E+00
  0.00000000E+00  0.00000000E+00  0.00000000E+00
  0.00000000E+00  0.00000000E+00  0.00000000E+00
  0.00000000E+00  0.00000000E+00  0.00000000E+00
  0.00000000E+00  0.00000000E+00  0.00000000E+00
  0.00000000E+00  0.00000000E+00  0.00000000E+00
  0.00000000E+00  0.00000000E+00  0.00000000E+00
  0.00000000E+00  0.00000000E+00  0.00000000E+00
  0.00000000E+00  0.00000000E+00  0.00000000E+00
  0.00000000E+00  0.00000000E+00  0.00000000E+00
  0.00000000E+00  0.00000000E+00  0.00000000E+00
  0.00000000E+00  0.00000000E+00  0.00000000E+00
  0.00000000E+00  0.00000000E+00  0.00000000E+00
  0.00000000E+00  0.00000000E+00  0.00000000E+00
  0.00000000E+00  0.00000000E+00  0.00000000E+00
  0.00000000E+00  0.00000000E+00  0.00000000E+00
  0.00000000E+00  0.00000000E+00  0.00000000E+00
  0.00000000E+00  0.00000000E+00  0.00000000E+00
  0.00000000E+00  0.00000000E+00  0.00000000E+00
  0.00000000E+00  0.00000000E+00  0.00000000E+00
  0.00000000E+00  0.00000000E+00  0.00000000E+00
  0.00000000E+00  0.00000000E+00  0.00000000E+00
  0.00000000E+00  0.00000000E+00  0.00000000E+00
  0.00000000E+00  0.00000000E+00  0.00000000E+00
  0.00000000E+00  0.00000000E+00  0.00000000E+00
  0.00000000E+00  0.00000000E+00  0.00000000E+00
  0.00000000E+00  0.00000000E+00  0.00000000E+00
  0.00000000E+00  0.00000000E+00  0.00000000E+00
  0.00000000E+00  0.00000000E+00  0.00000000E+00
  0.00000000E+00  0.00000000E+00  0.00000000E+00
  0.00000000E+00  0.00000000E+00  0.00000000E+00
  0.00000000E+00  0.00000000E+00  0.00000000E+00
  0.00000000E+00  0.00000000E+00  0.00000000E+00
  0.00000000E+00  0.00000000E+00  0.00000000E+00
  0.00000000E+00  0.00000000E+00  0.00000000E+00
  0.00000000E+00  0.00000000E+00  0.00000000E+00
  0.00000000E+00  0.00000000E+00  0.00000000E+00
  0.00000000E+00  0.00000000E+00  0.00000000E+00
  0.00000000E+00  0.00000000E+00  0.00000000E+00
  0.00000000E+00  0.00000000E+00  0.00000000E+00
  0.00000000E+00  0.00000000E+00  0.00000000E+00
  0.00000000E+00  0.00000000E+00  0.00000000E+00
  0.00000000E+00  0.00000000E+00  0.00000000E+00
  0.00000000E+00  0.00000000E+00  0.00000000E+00
  0.00000000E+00  0.00000000E+00  0.00000000E+00
  0.00000000E+00  0.00000000E+00  0.00000000E+00
  0.00000000E+00  0.00000000E+00  0.00000000E+00
  0.00000000E+00  0.00000000E+00  0.00000000E+00
  0.00000000E+00  0.00000000E+00  0.00000000E+00
  0.00000000E+00  0.00000000E+00  0.00000000E+00
  0.00000000E+00  0.00000000E+00  0.00000000E+00
  0.00000000E+00  0.00000000E+00  0.00000000E+00
  0.00000000E+00  0.00000000E+00  0.00000000E+00
  0.00000000E+00  0.00000000E+00  0.00000000E+00
  0.00000000E+00  0.00000000E+00  0.00000000E+00
  0.00000000E+00  0.00000000E+00  0.00000000E+00
  0.00000000E+00  0.00000000E+00  0.00000000E+00
  0.00000000E+00  0.00000000E+00  0.00000000E+00
  0.00000000E+00  0.00000000E+00  0.00000000E+00
  0.00000000E+00  0.00000000E+00  0.00000000E+00
  0.00000000E+00  0.00000000E+00  0.00000000E+00
  0.00000000E+00  0.00000000E+00  0.00000000E+00
  0.00000000E+00  0.00000000E+00  0.00000000E+00
  0.00000000E+00  0.00000000E+00  0.00000000E+00
  0.00000000E+00  0.00000000E+00  0.00000000E+00
  0.00000000E+00  0.00000000E+00  0.00000000E+00
  0.00000000E+00  0.00000000E+00  0.00000000E+00
  0.00000000E+00  0.00000000E+00  0.00000000E+00
  0.00000000E+00  0.00000000E+00  0.00000000E+00
  0.00000000E+00  0.00000000E+00  0.00000000E+00
  0.00000000E+00  0.00000000E+00  0.00000000E+00
  0.00000000E+00  0.00000000E+00  0.00000000E+00
  0.00000000E+00  0.00000000E+00  0.00000000E+00
  0.00000000E+00  0.00000000E+00  0.00000000E+00
  0.00000000E+00  0.00000000E+00  0.00000000E+00
  0.00000000E+00  0.00000000E+00  0.00000000E+00
  0.00000000E+00  0.00000000E+00  0.00000000E+00
  0.00000000E+00  0.00000000E+00  0.00000000E+00
  0.00000000E+00  0.00000000E+00  0.00000000E+00
  0.00000000E+00  0.00000000E+00  0.00000000E+00
  0.00000000E+00  0.00000000E+00  0.00000000E+00
  0.00000000E+00  0.00000000E+00  0.00000000E+00
  0.00000000E+00  0.00000000E+00  0.00000000E+00
  0.00000000E+00  0.00000000E+00  0.00000000E+00
  0.00000000E+00  0.00000000E+00  0.00000000E+00
  0.00000000E+00  0.00000000E+00  0.00000000E+00
  0.00000000E+00  0.00000000E+00  0.00000000E+00
  0.00000000E+00  0.00000000E+00  0.00000000E+00
  0.00000000E+00  0.00000000E+00  0.00000000E+00
  0.00000000E+00  0.00000000E+00  0.00000000E+00
  0.00000000E+00  0.00000000E+00  0.00000000E+00
  0.00000000E+00  0.00000000E+00  0.00000000E+00
  0.00000000E+00  0.00000000E+00  0.00000000E+00
  0.00000000E+00  0.00000000E+00  0.00000000E+00
  0.00000000E+00  0.00000000E+00  0.00000000E+00
  0.00000000E+00  0.00000000E+00  0.00000000E+00
  0.00000000E+00  0.00000000E+00  0.00000000E+00
  0.00000000E+00  0.00000000E+00  0.00000000E+00
  0.00000000E+00  0.00000000E+00  0.00000000E+00
  0.00000000E+00  0.00000000E+00  0.00000000E+00
  0.00000000E+00  0.00000000E+00  0.00000000E+00
  0.00000000E+00  0.00000000E+00  0.00000000E+00
  0.00000000E+00  0.00000000E+00  0.00000000E+00
  0.00000000E+00  0.00000000E+00  0.00000000E+00
  0.00000000E+00  0.00000000E+00  0.00000000E+00
  0.00000000E+00  0.00000000E+00  0.00000000E+00
  0.00000000E+00  0.00000000E+00  0.00000000E+00
  0.00000000E+00  0.00000000E+00  0.00000000E+00
  0.00000000E+00  0.00000000E+00  0.00000000E+00
  0.00000000E+00  0.00000000E+00  0.00000000E+00
  0.00000000E+00  0.00000000E+00  0.00000000E+00
  0.00000000E+00  0.00000000E+00  0.00000000E+00
  0.00000000E+00  0.00000000E+00  0.00000000E+00
  0.00000000E+00  0.00000000E+00  0.00000000E+00
  0.00000000E+00  0.00000000E+00  0.00000000E+00
  0.00000000E+00  0.00000000E+00  0.00000000E+00
  0.00000000E+00  0.00000000E+00  0.00000000E+00
  0.00000000E+00  0.00000000E+00  0.00000000E+00
  0.00000000E+00  0.00000000E+00  0.00000000E+00
  0.00000000E+00  0.00000000E+00  0.00000000E+00
  0.00000000E+00  0.00000000E+00  0.00000000E+00
  0.00000000E+00  0.00000000E+00  0.00000000E+00
  0.00000000E+00  0.00000000E+00  0.00000000E+00
  0.00000000E+00  0.00000000E+00  0.00000000E+00
  0.00000000E+00  0.00000000E+00  0.00000000E+00
  0.00000000E+00  0.00000000E+00  0.00000000E+00
  0.00000000E+00  0.00000000E+00  0.00000000E+00
  0.00000000E+00  0.00000000E+00  0.00000000E+00
