POSCAR                                  
   1.12100000000000     
    -3.4655985122000001    6.0112323121599998   -4.5624802581499999
     8.7119619120599996   -2.9741436604699998   -4.5598062993899999
   -10.5040903948000004  -12.0674855060000006   -4.5441775884100002
   Tb   Al   N 
    48     6    54
Direct
  0.0338064617871581  0.7239967153745255  0.7650314898998403
  0.4149724557192158  0.3257872177120049  0.8020901791176911
  0.3028670469962194  0.5449366107263458  0.6868964068186614
  0.1977210165589511  0.7703588701812549  0.5719829173559603
  0.6722383676889550  0.1345624096962439  0.7251650362377546
  0.5668210119427570  0.3654555768654077  0.6126574143274155
  0.4595120570721178  0.5883955382746535  0.4930443955667414
  0.3642088744236460  0.8195176962433450  0.3804102840630179
  0.7330261554467512  0.4088621125435026  0.4209248455782841
  0.6288089579884115  0.6269620168735699  0.3116107210202443
  0.4935244744389138  0.8424375879596155  0.1997789677688573
  0.7558338654423551  0.6605586236495782  0.1232895465408177
  0.9375699909686475  0.9533964584713956  0.6505207233041546
  0.8358567109376551  0.1836501238222681  0.5373142298599305
  0.0967304320829427  0.9955612256836375  0.4607142414405203
  0.9929533354433815  0.2252739253987812  0.3421441710820972
  0.2433770359752501  0.0261967387381787  0.2721577809119822
  0.0113909999018347  0.4649179776789794  0.0656393717884924
  0.8645405321664938  0.6896352535229653  0.9430511148320520
  0.3877494385544225  0.0663296249757011  0.0950300668840569
  0.2696617770010974  0.2859783255607837  0.9862709519975041
  0.1464802466045469  0.5051982731996745  0.8768515423007202
  0.5331353212012715  0.0888879521766270  0.9121961561018139
  0.7803090731264746  0.8956228302890707  0.8363642377934895
  0.4160552317948998  0.7646071878104621  0.8530947280439776
  0.7711068868371527  0.3736431530900859  0.8889188935940311
  0.5608767422765624  0.8086966140260543  0.6625353557441542
  0.0322693766779309  0.1807064976205552  0.8131425524994782
  0.9225039445144603  0.4087768617045455  0.7028332069552761
  0.8206035058681351  0.6314946417649594  0.5889557931910971
  0.7224510362474987  0.8600887188326851  0.4743766899345090
  0.0893056044865759  0.4501803385542686  0.5097804467976346
  0.9897403971415528  0.6701642488328687  0.3895738655369740
  0.8723592608691106  0.8941739243569700  0.2857065294658341
  0.0073891426931993  0.9352067555691050  0.1065622000928741
  0.2986035260310658  0.9956859198665668  0.7389369703986333
  0.1926519500109194  0.2243780781751852  0.6260198220981010
  0.4587253108289318  0.0413266703594886  0.5491270742800154
  0.3500477092212506  0.2683431096701838  0.4348568712890568
  0.2277542157116628  0.4939675004955220  0.3111542109146939
  0.6250309942149457  0.0930764084465778  0.3626004155738940
  0.4906645721320047  0.3080188771600945  0.2503139985451952
  0.3780989727854234  0.5244634178971310  0.1410624124684077
  0.2538602420189591  0.7386572932357325  0.0348724794365296
  0.7572905002502353  0.1159990823828281  0.1716706274815678
  0.6352579463825521  0.3410242003817743  0.0675949575615320
  0.8873040917848627  0.1337909649821611  0.9977530399805232
  0.1594000095631642  0.9649736490884635  0.9248613266357424
  0.6120719619744648  0.8462279528329049  0.0142248013210633
  0.8499621336618475  0.4188507803998789  0.2285520067547893
  0.1139051441669778  0.2461828438146298  0.1605351916983153
  0.6319392676146691  0.5697913208796166  0.7665568606634849
  0.0918777492438423  0.6865141846951701  0.2093599828867667
  0.4891237379077751  0.5397201620987744  0.9504966220169635
  0.7930743839294294  0.5566628408336527  0.7038996645256006
  0.1904478552352202  0.1482935728936638  0.7314231372588296
  0.0806244385695578  0.3754922048292570  0.6175708055995912
  0.9768897718874072  0.5993744170481250  0.5016072852964868
  0.4543646980041913  0.9628583863706055  0.6553713551436431
  0.3473856677587221  0.1922550032322334  0.5416141673804304
  0.2376420425296430  0.4189836950607386  0.4204727171210649
  0.1499578663466252  0.6627657747608069  0.3058074201791143
  0.5097426857701919  0.2404542608346816  0.3561095606169999
  0.4114052679550539  0.4716384850537381  0.2475436121161536
  0.2432678710659673  0.6657390648574975  0.1424656253431991
  0.5294236048641636  0.4939313642652507  0.0454560437436555
  0.4257917625747609  0.6876986121144881  0.9586678325066558
  0.7171517617535415  0.7823453510759251  0.5799839835977139
  0.6192599108314241  0.0143270669503863  0.4679362933412961
  0.8768153086600918  0.8202416058501285  0.3901730751890256
  0.7764837780500145  0.0509196932576188  0.2775256137908571
  0.6554864507987475  0.2733055511409219  0.1724983147434287
  0.0257946321643416  0.8336388272363564  0.2045123417052537
  0.9400050643236142  0.1047941567114989  0.1083707213832952
  0.7884962522115799  0.2913759300778054  0.9901335969163796
  0.6383500560123494  0.5250232992533981  0.8721477115175773
  0.1713528740830199  0.9014838015332387  0.0315866262246161
  0.0510399490829556  0.1156955114782505  0.9187937903222263
  0.9263623208238343  0.3349616181521640  0.8074707803704939
  0.3156992635387894  0.9215064969539597  0.8435403937516952
  0.5669223775192549  0.7163595783086123  0.7664363181422260
  0.1808994594595461  0.6021860409233923  0.7818358882360457
  0.5563374739319258  0.1978287536106293  0.8202070026788988
  0.4470659431195187  0.4239571012792922  0.7071767588670852
  0.3386630658697740  0.6437998351682666  0.5902033981791135
  0.8129373382606104  0.0082094649793873  0.7457912643425573
  0.7080819223436094  0.2387073547376133  0.6313898660072539
  0.6032327260756816  0.4654275536407084  0.5161964507673318
  0.5059569999284932  0.6957454064301203  0.4033966961894038
  0.8711940888282612  0.2811891993578044  0.4390956942955384
  0.7783802400175404  0.4920116580365672  0.3173267535100166
  0.6430416714586045  0.7249886925800197  0.2163785626798926
  0.8929357112419112  0.5295446662865686  0.1589511661232947
  0.7771094118955020  0.7860927140405636  0.0398851334315040
  0.0741983339532482  0.8241656538282811  0.6689889408367051
  0.9745232565713877  0.0548951168175691  0.5559072312217808
  0.2399487438010866  0.8711646435696565  0.4773564732145417
  0.1275920228173888  0.0940293951198186  0.3647715671458513
  0.0057657237602058  0.3264565495454619  0.2404985664298636
  0.4149477529775822  0.9351862489258167  0.2955204249905989
  0.2561524287469084  0.1492718329083758  0.1849567710261155
  0.1617559409819975  0.3451188847861602  0.0865764290731406
  0.0193126467109721  0.5708698719116541  0.9692235912163412
  0.5318554851162745  0.9290385626528774  0.0971335291599260
  0.4166347760758669  0.1641071582871518  0.0021312734719459
  0.3007211579426183  0.3940583490415790  0.8957265454113283
  0.6585159181498312  0.9456088089174557  0.9365491342625987
  0.9456750392370452  0.8030032678388892  0.8625393729506001
 
  0.00000000E+00  0.00000000E+00  0.00000000E+00
  0.00000000E+00  0.00000000E+00  0.00000000E+00
  0.00000000E+00  0.00000000E+00  0.00000000E+00
  0.00000000E+00  0.00000000E+00  0.00000000E+00
  0.00000000E+00  0.00000000E+00  0.00000000E+00
  0.00000000E+00  0.00000000E+00  0.00000000E+00
  0.00000000E+00  0.00000000E+00  0.00000000E+00
  0.00000000E+00  0.00000000E+00  0.00000000E+00
  0.00000000E+00  0.00000000E+00  0.00000000E+00
  0.00000000E+00  0.00000000E+00  0.00000000E+00
  0.00000000E+00  0.00000000E+00  0.00000000E+00
  0.00000000E+00  0.00000000E+00  0.00000000E+00
  0.00000000E+00  0.00000000E+00  0.00000000E+00
  0.00000000E+00  0.00000000E+00  0.00000000E+00
  0.00000000E+00  0.00000000E+00  0.00000000E+00
  0.00000000E+00  0.00000000E+00  0.00000000E+00
  0.00000000E+00  0.00000000E+00  0.00000000E+00
  0.00000000E+00  0.00000000E+00  0.00000000E+00
  0.00000000E+00  0.00000000E+00  0.00000000E+00
  0.00000000E+00  0.00000000E+00  0.00000000E+00
  0.00000000E+00  0.00000000E+00  0.00000000E+00
  0.00000000E+00  0.00000000E+00  0.00000000E+00
  0.00000000E+00  0.00000000E+00  0.00000000E+00
  0.00000000E+00  0.00000000E+00  0.00000000E+00
  0.00000000E+00  0.00000000E+00  0.00000000E+00
  0.00000000E+00  0.00000000E+00  0.00000000E+00
  0.00000000E+00  0.00000000E+00  0.00000000E+00
  0.00000000E+00  0.00000000E+00  0.00000000E+00
  0.00000000E+00  0.00000000E+00  0.00000000E+00
  0.00000000E+00  0.00000000E+00  0.00000000E+00
  0.00000000E+00  0.00000000E+00  0.00000000E+00
  0.00000000E+00  0.00000000E+00  0.00000000E+00
  0.00000000E+00  0.00000000E+00  0.00000000E+00
  0.00000000E+00  0.00000000E+00  0.00000000E+00
  0.00000000E+00  0.00000000E+00  0.00000000E+00
  0.00000000E+00  0.00000000E+00  0.00000000E+00
  0.00000000E+00  0.00000000E+00  0.00000000E+00
  0.00000000E+00  0.00000000E+00  0.00000000E+00
  0.00000000E+00  0.00000000E+00  0.00000000E+00
  0.00000000E+00  0.00000000E+00  0.00000000E+00
  0.00000000E+00  0.00000000E+00  0.00000000E+00
  0.00000000E+00  0.00000000E+00  0.00000000E+00
  0.00000000E+00  0.00000000E+00  0.00000000E+00
  0.00000000E+00  0.00000000E+00  0.00000000E+00
  0.00000000E+00  0.00000000E+00  0.00000000E+00
  0.00000000E+00  0.00000000E+00  0.00000000E+00
  0.00000000E+00  0.00000000E+00  0.00000000E+00
  0.00000000E+00  0.00000000E+00  0.00000000E+00
  0.00000000E+00  0.00000000E+00  0.00000000E+00
  0.00000000E+00  0.00000000E+00  0.00000000E+00
  0.00000000E+00  0.00000000E+00  0.00000000E+00
  0.00000000E+00  0.00000000E+00  0.00000000E+00
  0.00000000E+00  0.00000000E+00  0.00000000E+00
  0.00000000E+00  0.00000000E+00  0.00000000E+00
  0.00000000E+00  0.00000000E+00  0.00000000E+00
  0.00000000E+00  0.00000000E+00  0.00000000E+00
  0.00000000E+00  0.00000000E+00  0.00000000E+00
  0.00000000E+00  0.00000000E+00  0.00000000E+00
  0.00000000E+00  0.00000000E+00  0.00000000E+00
  0.00000000E+00  0.00000000E+00  0.00000000E+00
  0.00000000E+00  0.00000000E+00  0.00000000E+00
  0.00000000E+00  0.00000000E+00  0.00000000E+00
  0.00000000E+00  0.00000000E+00  0.00000000E+00
  0.00000000E+00  0.00000000E+00  0.00000000E+00
  0.00000000E+00  0.00000000E+00  0.00000000E+00
  0.00000000E+00  0.00000000E+00  0.00000000E+00
  0.00000000E+00  0.00000000E+00  0.00000000E+00
  0.00000000E+00  0.00000000E+00  0.00000000E+00
  0.00000000E+00  0.00000000E+00  0.00000000E+00
  0.00000000E+00  0.00000000E+00  0.00000000E+00
  0.00000000E+00  0.00000000E+00  0.00000000E+00
  0.00000000E+00  0.00000000E+00  0.00000000E+00
  0.00000000E+00  0.00000000E+00  0.00000000E+00
  0.00000000E+00  0.00000000E+00  0.00000000E+00
  0.00000000E+00  0.00000000E+00  0.00000000E+00
  0.00000000E+00  0.00000000E+00  0.00000000E+00
  0.00000000E+00  0.00000000E+00  0.00000000E+00
  0.00000000E+00  0.00000000E+00  0.00000000E+00
  0.00000000E+00  0.00000000E+00  0.00000000E+00
  0.00000000E+00  0.00000000E+00  0.00000000E+00
  0.00000000E+00  0.00000000E+00  0.00000000E+00
  0.00000000E+00  0.00000000E+00  0.00000000E+00
  0.00000000E+00  0.00000000E+00  0.00000000E+00
  0.00000000E+00  0.00000000E+00  0.00000000E+00
  0.00000000E+00  0.00000000E+00  0.00000000E+00
  0.00000000E+00  0.00000000E+00  0.00000000E+00
  0.00000000E+00  0.00000000E+00  0.00000000E+00
  0.00000000E+00  0.00000000E+00  0.00000000E+00
  0.00000000E+00  0.00000000E+00  0.00000000E+00
  0.00000000E+00  0.00000000E+00  0.00000000E+00
  0.00000000E+00  0.00000000E+00  0.00000000E+00
  0.00000000E+00  0.00000000E+00  0.00000000E+00
  0.00000000E+00  0.00000000E+00  0.00000000E+00
  0.00000000E+00  0.00000000E+00  0.00000000E+00
  0.00000000E+00  0.00000000E+00  0.00000000E+00
  0.00000000E+00  0.00000000E+00  0.00000000E+00
  0.00000000E+00  0.00000000E+00  0.00000000E+00
  0.00000000E+00  0.00000000E+00  0.00000000E+00
  0.00000000E+00  0.00000000E+00  0.00000000E+00
  0.00000000E+00  0.00000000E+00  0.00000000E+00
  0.00000000E+00  0.00000000E+00  0.00000000E+00
  0.00000000E+00  0.00000000E+00  0.00000000E+00
  0.00000000E+00  0.00000000E+00  0.00000000E+00
  0.00000000E+00  0.00000000E+00  0.00000000E+00
  0.00000000E+00  0.00000000E+00  0.00000000E+00
  0.00000000E+00  0.00000000E+00  0.00000000E+00
  0.00000000E+00  0.00000000E+00  0.00000000E+00
  0.00000000E+00  0.00000000E+00  0.00000000E+00
