supercell of icsd_181358.cif            
   1.00000000000000     
     9.4541538218238603    0.0001426037844733   -0.0000087068308220
    -4.7269534161678548    8.1873053244434626    0.0000001565318990
    -0.0000081451071443   -0.0000045096435891   10.1952471664592395
   N    Ga   B 
    36    34     2
Direct
  0.2213836051027513  0.1112972976012117  0.4383423964048347
  0.1105085548622924  0.2219209534595805  0.1885349618335184
  0.8884404042629939  0.1108873029888358  0.9401812374296199
  0.7779039102665237  0.2224414438898563  0.6898759038634523
  0.5406387663839283  0.0810214541703189  0.4473770302414763
  0.4608992082497991  0.2512200254060062  0.2001403983891521
  0.2253227510798510  0.1121552321031842  0.9420146243511454
  0.1117174124555333  0.2225250455801060  0.6911350344320368
  0.8893422689594743  0.1113376252039444  0.4393527621091735
  0.7750924979499985  0.2205017750326235  0.1902882050229309
  0.5532591062789933  0.1107817324617741  0.9352269967840314
  0.4450336398707293  0.2240450343290092  0.6832393659377090
  0.2213831021979473  0.4434199269513925  0.4383421906833505
  0.1119989301445727  0.5575439392068304  0.1918949591675272
  0.8877962343994383  0.4458084840464167  0.9419346402069166
  0.7761151249246012  0.5547238889062598  0.6845285066129208
  0.5550698684178457  0.4442018736655982  0.4129909657060225
  0.4608998045411070  0.5430125342485752  0.2001400051426430
  0.2253233496223004  0.4465019679589304  0.9420147995894368
  0.1109098515983860  0.5547146920153736  0.6896502733324326
  0.8893210551781294  0.4436129647927416  0.4398209773298021
  0.7473762268613413  0.5403547057844307  0.1988345097388446
  0.5549955673399225  0.4441646033017648  0.9359918276875447
  0.4450333617014124  0.5543213238344578  0.6832395231379849
  0.2526645588286840  0.7929990049469779  0.4487749635599769
  0.1119995380201857  0.8877881615840408  0.1918947152105090
  0.8877961224859234  0.7753213870012772  0.9419345113217545
  0.7779032279690128  0.8887946532791844  0.6898760575956118
  0.5406383382214841  0.7929505605122671  0.4473769868224338
  0.4453807670464585  0.8893567183056348  0.1859548115523992
  0.2240372817583136  0.7786855330898064  0.9337396192256477
  0.1109098618808986  0.8895279995533798  0.6896500977137734
  0.8893216672340500  0.7790420726966758  0.4398208681619096
  0.7750931072111058  0.8879237482696709  0.1902878905595102
  0.5532593915874031  0.7758117071896677  0.9352269932909749
  0.4448890634221598  0.8891112072019141  0.6620489060853885
  0.2271990096349015  0.1173716155424245  0.2500589738309955
  0.1114584590961343  0.2223963180311870  0.9999162265956230
  0.8888091500662370  0.1110709175075044  0.7509403044656153
  0.7727277972993889  0.2158670439545176  0.5009189702590575
  0.5540098825340891  0.1107990512385868  0.2557133628019628
  0.4485440937194625  0.2272175892472461  0.0056582107204477
  0.2245725007057331  0.1122247836263881  0.7508431237597009
  0.1111210325356993  0.2222271940903227  0.5013786086959087
  0.8886509053722733  0.1109920706181882  0.2502351266283469
  0.7754527911937217  0.2212162394436561  0.9997290061253139
  0.5525861451873979  0.1082221293502599  0.7423710542803192
  0.4447654400243621  0.2193931569043244  0.4930491110216835
  0.2272001229818201  0.4431617021782799  0.2500585453819468
  0.1124142369853018  0.5579488880847734  0.0005532849269869
  0.8878609710289496  0.4453359585655861  0.7502789701789965
  0.7738924395482982  0.5536130409018725  0.4936903489035203
  0.4485453433603013  0.5546606892408406  0.0056579270201169
  0.2245722420908436  0.4456807095042592  0.7508434010994591
  0.1173106472416094  0.5600357903825781  0.5004338531887669
  0.8823652346255244  0.4428564651676936  0.2508202235124557
  0.7714783365362123  0.5524057107129607  0.0061701033228587
  0.5553983875414659  0.4443657690819052  0.7481526177419155
  0.4447645837467391  0.5587050707163357  0.4930493697497838
  0.2284218738284309  0.7808775004734585  0.2563780969476426
  0.1124142424951344  0.8877986496335097  0.0005528737147031
  0.8878609074453436  0.7758580812697673  0.7502787624192280
  0.7727266694536397  0.8901928584106216  0.5009192177605399
  0.5540106550543840  0.7765444792395684  0.2557132189892215
  0.4444094694550387  0.8888715965329723  0.9981060319640278
  0.2263079395220089  0.7798207283795975  0.7427664504243765
  0.1173120337942208  0.8906086284433101  0.5004335067644092
  0.8823668702154563  0.7728430925761103  0.2508199132047295
  0.7754532098095552  0.8875703543098439  0.9997286405758601
  0.5525851698259743  0.7776972597023786  0.7423711184471102
  0.5565748918532734  0.4449541271039479  0.2527246136172039
  0.4441987858755212  0.8887661592635041  0.5010083147248210
 
  0.00000000E+00  0.00000000E+00  0.00000000E+00
  0.00000000E+00  0.00000000E+00  0.00000000E+00
  0.00000000E+00  0.00000000E+00  0.00000000E+00
  0.00000000E+00  0.00000000E+00  0.00000000E+00
  0.00000000E+00  0.00000000E+00  0.00000000E+00
  0.00000000E+00  0.00000000E+00  0.00000000E+00
  0.00000000E+00  0.00000000E+00  0.00000000E+00
  0.00000000E+00  0.00000000E+00  0.00000000E+00
  0.00000000E+00  0.00000000E+00  0.00000000E+00
  0.00000000E+00  0.00000000E+00  0.00000000E+00
  0.00000000E+00  0.00000000E+00  0.00000000E+00
  0.00000000E+00  0.00000000E+00  0.00000000E+00
  0.00000000E+00  0.00000000E+00  0.00000000E+00
  0.00000000E+00  0.00000000E+00  0.00000000E+00
  0.00000000E+00  0.00000000E+00  0.00000000E+00
  0.00000000E+00  0.00000000E+00  0.00000000E+00
  0.00000000E+00  0.00000000E+00  0.00000000E+00
  0.00000000E+00  0.00000000E+00  0.00000000E+00
  0.00000000E+00  0.00000000E+00  0.00000000E+00
  0.00000000E+00  0.00000000E+00  0.00000000E+00
  0.00000000E+00  0.00000000E+00  0.00000000E+00
  0.00000000E+00  0.00000000E+00  0.00000000E+00
  0.00000000E+00  0.00000000E+00  0.00000000E+00
  0.00000000E+00  0.00000000E+00  0.00000000E+00
  0.00000000E+00  0.00000000E+00  0.00000000E+00
  0.00000000E+00  0.00000000E+00  0.00000000E+00
  0.00000000E+00  0.00000000E+00  0.00000000E+00
  0.00000000E+00  0.00000000E+00  0.00000000E+00
  0.00000000E+00  0.00000000E+00  0.00000000E+00
  0.00000000E+00  0.00000000E+00  0.00000000E+00
  0.00000000E+00  0.00000000E+00  0.00000000E+00
  0.00000000E+00  0.00000000E+00  0.00000000E+00
  0.00000000E+00  0.00000000E+00  0.00000000E+00
  0.00000000E+00  0.00000000E+00  0.00000000E+00
  0.00000000E+00  0.00000000E+00  0.00000000E+00
  0.00000000E+00  0.00000000E+00  0.00000000E+00
  0.00000000E+00  0.00000000E+00  0.00000000E+00
  0.00000000E+00  0.00000000E+00  0.00000000E+00
  0.00000000E+00  0.00000000E+00  0.00000000E+00
  0.00000000E+00  0.00000000E+00  0.00000000E+00
  0.00000000E+00  0.00000000E+00  0.00000000E+00
  0.00000000E+00  0.00000000E+00  0.00000000E+00
  0.00000000E+00  0.00000000E+00  0.00000000E+00
  0.00000000E+00  0.00000000E+00  0.00000000E+00
  0.00000000E+00  0.00000000E+00  0.00000000E+00
  0.00000000E+00  0.00000000E+00  0.00000000E+00
  0.00000000E+00  0.00000000E+00  0.00000000E+00
  0.00000000E+00  0.00000000E+00  0.00000000E+00
  0.00000000E+00  0.00000000E+00  0.00000000E+00
  0.00000000E+00  0.00000000E+00  0.00000000E+00
  0.00000000E+00  0.00000000E+00  0.00000000E+00
  0.00000000E+00  0.00000000E+00  0.00000000E+00
  0.00000000E+00  0.00000000E+00  0.00000000E+00
  0.00000000E+00  0.00000000E+00  0.00000000E+00
  0.00000000E+00  0.00000000E+00  0.00000000E+00
  0.00000000E+00  0.00000000E+00  0.00000000E+00
  0.00000000E+00  0.00000000E+00  0.00000000E+00
  0.00000000E+00  0.00000000E+00  0.00000000E+00
  0.00000000E+00  0.00000000E+00  0.00000000E+00
  0.00000000E+00  0.00000000E+00  0.00000000E+00
  0.00000000E+00  0.00000000E+00  0.00000000E+00
  0.00000000E+00  0.00000000E+00  0.00000000E+00
  0.00000000E+00  0.00000000E+00  0.00000000E+00
  0.00000000E+00  0.00000000E+00  0.00000000E+00
  0.00000000E+00  0.00000000E+00  0.00000000E+00
  0.00000000E+00  0.00000000E+00  0.00000000E+00
  0.00000000E+00  0.00000000E+00  0.00000000E+00
  0.00000000E+00  0.00000000E+00  0.00000000E+00
  0.00000000E+00  0.00000000E+00  0.00000000E+00
  0.00000000E+00  0.00000000E+00  0.00000000E+00
  0.00000000E+00  0.00000000E+00  0.00000000E+00
  0.00000000E+00  0.00000000E+00  0.00000000E+00
