supercell of icsd_191774.cif            
   1.00000000000000     
    10.6324857492873868    0.0000008237200471    0.0000006637494729
    -5.3162421781506071    9.2079843133865396   -0.0000021740722642
     0.0000006834052992   -0.0000013767073435   11.3176630944266368
   N    In   Sc
    36    34     2
Direct
  0.2227362332893392  0.1113720468292456  0.4403896977692128
  0.1110718090216096  0.2221439625323924  0.1902311723022265
  0.8885296052939609  0.1109777445366973  0.9403839365203837
  0.7733817877408029  0.2202980417799836  0.6927944450659709
  0.5556036995148688  0.1112079130167700  0.4409832787599584
  0.4446676533666718  0.2220483335301253  0.1892280262384958
  0.2224486354865931  0.1109786567112749  0.9403840031046258
  0.1109366355927577  0.2218745048246120  0.6904752871092512
  0.8886354612221723  0.1113719666236292  0.4403896017314395
  0.7773803760692957  0.2220480829329503  0.1892278066672546
  0.5556841444420542  0.1113688643529187  0.9331822766834605
  0.4469153799827694  0.2202984881031327  0.6927943546567121
  0.2222647612141486  0.4445294382879226  0.4404010688473718
  0.1110295566839596  0.5555691565358032  0.1902825694790380
  0.8864842557511068  0.4468114790915010  0.9426378408134894
  0.7776642470905841  0.5553283378370253  0.6907965239633072
  0.5556760259729572  0.4441820393093892  0.4393528250823380
  0.4445395680168787  0.5555691702710419  0.1902825582338608
  0.2223976279615343  0.4447939558542657  0.9403061347012880
  0.1104456288419797  0.5554035916370736  0.6904667926374728
  0.8885058568743744  0.4441817243115480  0.4393530799213536
  0.7777231006316185  0.5554453074314836  0.1834459627766591
  0.5603295690758969  0.4468121996730616  0.9426383103385945
  0.4449582982250249  0.5554038479255325  0.6904670870957688
  0.2225973651782880  0.7779072107954477  0.4403054208831421
  0.1111719175513954  0.8889284729589377  0.1902204736128112
  0.8865528018277331  0.7731043972963150  0.9425693407952807
  0.7779651571030257  0.8888017847830554  0.6901661259819818
  0.5553097392841480  0.7779072330552239  0.4403054249857945
  0.4446685632863350  0.8893374526868598  0.1891164469847766
  0.2220573297063027  0.7776930154897101  0.9400702144850115
  0.1108363387785900  0.8888017887484736  0.6901661855386791
  0.8886737018248780  0.7773476931224579  0.4391736306781553
  0.7777565463679537  0.8889283542999067  0.1902203581766457
  0.5556358476639502  0.7776930949477219  0.9400703541590971
  0.4467800185330262  0.8935607042595848  0.6926278459354620
  0.2226079079048304  0.1112624776960232  0.2494229777123067
  0.1110983752854651  0.2221970049458832  0.4995559513707946
  0.8885222591127402  0.1114006423403779  0.7494807048710470
  0.7768577009777715  0.2222997850497421  0.9983002804902625
  0.5555530849666255  0.1111064205426118  0.2499391175481378
  0.4445607260807307  0.2227078365751396  0.5007311097052352
  0.2228774453545270  0.1114008032796221  0.7494805798235546
  0.1111102579741186  0.2222208599783144  0.9995833162063690
  0.8886544103397895  0.1112623578026017  0.2494227108967166
  0.7781464340372608  0.2227074349052245  0.5007314518162005
  0.4454422367411155  0.2223005795683690  0.9983005098520152
  0.2222278262689841  0.4444555089560893  0.2496047480708867
  0.1107202778400023  0.5554221017047354  0.4993712548313525
  0.8886343479603482  0.4436447041565899  0.7507946065924145
  0.5566660392848988  0.4446918719006092  0.2482396908551792
  0.4447016660698537  0.5554220080079446  0.4993714653153702
  0.2222318508129248  0.4444635112810502  0.7495228016571431
  0.1104262979779378  0.5552317869369148  0.9995089686335135
  0.8880261969585774  0.4446916044885256  0.2482401110661954
  0.7777303804793121  0.5554609634629699  0.4998748496504959
  0.5550107233332113  0.4436451511203714  0.7507950570483217
  0.4448069198650941  0.5552315913550387  0.9995090686088233
  0.2226253626745063  0.7780196445536163  0.2493056263690150
  0.1108191383307897  0.8887046228119289  0.4992739670007040
  0.8889850542144018  0.7779701856667742  0.7507068249009805
  0.7781199146316808  0.8885474862000038  0.9994126640450673
  0.5553941204461097  0.7780194812808148  0.2493055926757393
  0.4443285919269400  0.8886571456784154  0.5007610664212407
  0.2227930311345432  0.7780590835119980  0.7493663542049305
  0.1104284368356048  0.8885482309984383  0.9994126796003187
  0.8882500378507743  0.7764998334337108  0.2482359614877296
  0.7778853526837111  0.8887047166791149  0.4992739877987447
  0.5552657903715570  0.7780596139515907  0.7493665200404891
  0.4450793820694301  0.8901586263041068  0.9981874321267767
  0.5555948736129537  0.1111950935621095  0.7477014601973835
  0.7778023031223356  0.5555991729296039  0.9978020677921862
 
  0.00000000E+00  0.00000000E+00  0.00000000E+00
  0.00000000E+00  0.00000000E+00  0.00000000E+00
  0.00000000E+00  0.00000000E+00  0.00000000E+00
  0.00000000E+00  0.00000000E+00  0.00000000E+00
  0.00000000E+00  0.00000000E+00  0.00000000E+00
  0.00000000E+00  0.00000000E+00  0.00000000E+00
  0.00000000E+00  0.00000000E+00  0.00000000E+00
  0.00000000E+00  0.00000000E+00  0.00000000E+00
  0.00000000E+00  0.00000000E+00  0.00000000E+00
  0.00000000E+00  0.00000000E+00  0.00000000E+00
  0.00000000E+00  0.00000000E+00  0.00000000E+00
  0.00000000E+00  0.00000000E+00  0.00000000E+00
  0.00000000E+00  0.00000000E+00  0.00000000E+00
  0.00000000E+00  0.00000000E+00  0.00000000E+00
  0.00000000E+00  0.00000000E+00  0.00000000E+00
  0.00000000E+00  0.00000000E+00  0.00000000E+00
  0.00000000E+00  0.00000000E+00  0.00000000E+00
  0.00000000E+00  0.00000000E+00  0.00000000E+00
  0.00000000E+00  0.00000000E+00  0.00000000E+00
  0.00000000E+00  0.00000000E+00  0.00000000E+00
  0.00000000E+00  0.00000000E+00  0.00000000E+00
  0.00000000E+00  0.00000000E+00  0.00000000E+00
  0.00000000E+00  0.00000000E+00  0.00000000E+00
  0.00000000E+00  0.00000000E+00  0.00000000E+00
  0.00000000E+00  0.00000000E+00  0.00000000E+00
  0.00000000E+00  0.00000000E+00  0.00000000E+00
  0.00000000E+00  0.00000000E+00  0.00000000E+00
  0.00000000E+00  0.00000000E+00  0.00000000E+00
  0.00000000E+00  0.00000000E+00  0.00000000E+00
  0.00000000E+00  0.00000000E+00  0.00000000E+00
  0.00000000E+00  0.00000000E+00  0.00000000E+00
  0.00000000E+00  0.00000000E+00  0.00000000E+00
  0.00000000E+00  0.00000000E+00  0.00000000E+00
  0.00000000E+00  0.00000000E+00  0.00000000E+00
  0.00000000E+00  0.00000000E+00  0.00000000E+00
  0.00000000E+00  0.00000000E+00  0.00000000E+00
  0.00000000E+00  0.00000000E+00  0.00000000E+00
  0.00000000E+00  0.00000000E+00  0.00000000E+00
  0.00000000E+00  0.00000000E+00  0.00000000E+00
  0.00000000E+00  0.00000000E+00  0.00000000E+00
  0.00000000E+00  0.00000000E+00  0.00000000E+00
  0.00000000E+00  0.00000000E+00  0.00000000E+00
  0.00000000E+00  0.00000000E+00  0.00000000E+00
  0.00000000E+00  0.00000000E+00  0.00000000E+00
  0.00000000E+00  0.00000000E+00  0.00000000E+00
  0.00000000E+00  0.00000000E+00  0.00000000E+00
  0.00000000E+00  0.00000000E+00  0.00000000E+00
  0.00000000E+00  0.00000000E+00  0.00000000E+00
  0.00000000E+00  0.00000000E+00  0.00000000E+00
  0.00000000E+00  0.00000000E+00  0.00000000E+00
  0.00000000E+00  0.00000000E+00  0.00000000E+00
  0.00000000E+00  0.00000000E+00  0.00000000E+00
  0.00000000E+00  0.00000000E+00  0.00000000E+00
  0.00000000E+00  0.00000000E+00  0.00000000E+00
  0.00000000E+00  0.00000000E+00  0.00000000E+00
  0.00000000E+00  0.00000000E+00  0.00000000E+00
  0.00000000E+00  0.00000000E+00  0.00000000E+00
  0.00000000E+00  0.00000000E+00  0.00000000E+00
  0.00000000E+00  0.00000000E+00  0.00000000E+00
  0.00000000E+00  0.00000000E+00  0.00000000E+00
  0.00000000E+00  0.00000000E+00  0.00000000E+00
  0.00000000E+00  0.00000000E+00  0.00000000E+00
  0.00000000E+00  0.00000000E+00  0.00000000E+00
  0.00000000E+00  0.00000000E+00  0.00000000E+00
  0.00000000E+00  0.00000000E+00  0.00000000E+00
  0.00000000E+00  0.00000000E+00  0.00000000E+00
  0.00000000E+00  0.00000000E+00  0.00000000E+00
  0.00000000E+00  0.00000000E+00  0.00000000E+00
  0.00000000E+00  0.00000000E+00  0.00000000E+00
  0.00000000E+00  0.00000000E+00  0.00000000E+00
  0.00000000E+00  0.00000000E+00  0.00000000E+00
  0.00000000E+00  0.00000000E+00  0.00000000E+00
