supercell of icsd_608626.cif            
  0.948910476625986     
     9.3644273831484313   -0.0507338735230123   -0.0264130772452284
    -4.7264539034120814    8.1004668543581015    0.0427600181426107
    -0.0293559178385091    0.0378012800780178    9.7937978252975402
   Al   B    N 
    24    12    36
Direct
  0.2201422847837833  0.1174439554511366  0.2443493725401140
  0.1052963974732180  0.2132555326361967  0.5038864544072581
  0.7719306237942263  0.2111718178047894  0.9924610810950369
  0.5504098489561713  0.1034095303637343  0.2547016971522424
  0.4376909748625053  0.2196088159192584  0.5151284447668161
  0.1010088727604881  0.2214478711852905  0.9935957306675789
  0.8880490980156139  0.1047500975962876  0.2485056077285677
  0.7810448969591732  0.2162814194984506  0.5063033544327666
  0.5522922822702796  0.0964115448791745  0.7424111817551236
  0.4349803074074785  0.2061917978493852  0.9814892560742408
  0.1230277584661437  0.5655511912861471  0.4869488215217217
  0.8955621528412507  0.4461274691544617  0.7564194583716670
  0.7899199464965818  0.5710035180221666  0.9976477197677269
  0.5516614703323626  0.4454964876236929  0.2469005245301759
  0.4524116772407396  0.5666293590285889  0.5028612157470889
  0.2239941684565423  0.4425665424044567  0.7495320574033713
  0.8959709028283882  0.4502457868725074  0.2388270182377568
  0.7756834035709801  0.5616994099249055  0.4968957461530934
  0.4446065635266621  0.5655258970282873  0.9915480880273790
  0.2261104758136767  0.7804502158319977  0.2131547816817729
  0.1157740365476556  0.8893856537454852  0.4954529925445925
  0.8868568312928673  0.7899027260049110  0.7464039284322581
  0.5575943136200436  0.7779272047228574  0.2471276076493893
  0.2337739632252394  0.7779360465642498  0.7650156772545458
  0.8794959678500831  0.0950511394904510  0.7570114020871799
  0.2048259012361697  0.0994626075222627  0.7618400550762061
  0.2236008553286339  0.4444653655191999  0.2473189441599786
  0.1333577467016553  0.5570958469071527  0.0094434995500379
  0.5553896015399431  0.4540495259854680  0.7622014730374573
  0.7753478002847558  0.8909587043367182  0.9936545175645364
  0.4553871603674651  0.8870613156687952  0.5056249047436623
  0.0664427907431175  0.9142029515213821  0.0129819953533499
  0.8790530097181843  0.7829936165354212  0.2413474597772662
  0.7688055793139696  0.8989072735869996  0.5038871016785151
  0.5689229667496747  0.7883243537526212  0.7502416362125075
  0.4503178047978764  0.8814101110034684  0.9998247748797624
  0.2221896901971334  0.1119253620922791  0.4385118869782474
  0.1192873863813020  0.2460890556666726  0.1942586550693690
  0.8720954570241801  0.0824952165981827  0.9300680762544644
  0.7961176596354278  0.2110061324696630  0.7089134351982906
  0.5439883933168943  0.0898816475215725  0.4642947333873835
  0.4453362760551798  0.2196026398305335  0.1830261975658871
  0.1949802279125663  0.0804306974826403  0.9376906990166347
  0.0961151814071499  0.1933738106563681  0.7106609760092724
  0.8754913223538949  0.0867203744473883  0.4470696733704216
  0.7753708486407547  0.2193204837068663  0.1923730200973921
  0.5354490581953328  0.0753655489603773  0.9390287253561169
  0.4250072978846262  0.2304657720233081  0.7178092804672147
  0.2234472746586462  0.4419224913701782  0.4259019902374703
  0.1274088447771433  0.5422326439279885  0.1831960369959447
  0.9183470356005188  0.4620895167714423  0.9573737028967528
  0.7565023885965374  0.5447691400314980  0.7039623473362724
  0.5509462123344520  0.4406222246440166  0.4435580312802543
  0.4221935093778981  0.5459446878772383  0.1950905607113285
  0.2106327116610487  0.4500553864984909  0.9439777245961807
  0.1156193044933005  0.5594106976645250  0.6840270812002984
  0.8887773107274981  0.4462070028127272  0.4407412810533771
  0.7895196175746690  0.5852094467225371  0.1981946493613052
  0.5576823049876438  0.4455798425086570  0.9299021843372302
  0.4698623935252471  0.5687312175208419  0.7081364324885939
  0.2537348369208203  0.7964982601909298  0.4305148888301602
  0.0791541355743846  0.8861101086131313  0.1725768714668945
  0.8915349553401128  0.8056866078645371  0.9453480803334244
  0.7666715424647492  0.8997092104501903  0.6826791086044608
  0.5703688973142107  0.8046027296411182  0.4485502200325371
  0.4576831036863709  0.8919792490716318  0.1668994566859539
  0.2499033941924509  0.7550838142944158  0.9627215008803915
  0.1275629603086657  0.9081172393929862  0.6997872036301303
  0.8764147763717531  0.7933010490971455  0.4289487144862250
  0.7836406135821079  0.8787857783365496  0.1710741825331965
  0.5783108209326784  0.7993848468164302  0.9294161583535185
  0.4559118198190930  0.8668873631965823  0.6787706508346716
 
  0.00000000E+00  0.00000000E+00  0.00000000E+00
  0.00000000E+00  0.00000000E+00  0.00000000E+00
  0.00000000E+00  0.00000000E+00  0.00000000E+00
  0.00000000E+00  0.00000000E+00  0.00000000E+00
  0.00000000E+00  0.00000000E+00  0.00000000E+00
  0.00000000E+00  0.00000000E+00  0.00000000E+00
  0.00000000E+00  0.00000000E+00  0.00000000E+00
  0.00000000E+00  0.00000000E+00  0.00000000E+00
  0.00000000E+00  0.00000000E+00  0.00000000E+00
  0.00000000E+00  0.00000000E+00  0.00000000E+00
  0.00000000E+00  0.00000000E+00  0.00000000E+00
  0.00000000E+00  0.00000000E+00  0.00000000E+00
  0.00000000E+00  0.00000000E+00  0.00000000E+00
  0.00000000E+00  0.00000000E+00  0.00000000E+00
  0.00000000E+00  0.00000000E+00  0.00000000E+00
  0.00000000E+00  0.00000000E+00  0.00000000E+00
  0.00000000E+00  0.00000000E+00  0.00000000E+00
  0.00000000E+00  0.00000000E+00  0.00000000E+00
  0.00000000E+00  0.00000000E+00  0.00000000E+00
  0.00000000E+00  0.00000000E+00  0.00000000E+00
  0.00000000E+00  0.00000000E+00  0.00000000E+00
  0.00000000E+00  0.00000000E+00  0.00000000E+00
  0.00000000E+00  0.00000000E+00  0.00000000E+00
  0.00000000E+00  0.00000000E+00  0.00000000E+00
  0.00000000E+00  0.00000000E+00  0.00000000E+00
  0.00000000E+00  0.00000000E+00  0.00000000E+00
  0.00000000E+00  0.00000000E+00  0.00000000E+00
  0.00000000E+00  0.00000000E+00  0.00000000E+00
  0.00000000E+00  0.00000000E+00  0.00000000E+00
  0.00000000E+00  0.00000000E+00  0.00000000E+00
  0.00000000E+00  0.00000000E+00  0.00000000E+00
  0.00000000E+00  0.00000000E+00  0.00000000E+00
  0.00000000E+00  0.00000000E+00  0.00000000E+00
  0.00000000E+00  0.00000000E+00  0.00000000E+00
  0.00000000E+00  0.00000000E+00  0.00000000E+00
  0.00000000E+00  0.00000000E+00  0.00000000E+00
  0.00000000E+00  0.00000000E+00  0.00000000E+00
  0.00000000E+00  0.00000000E+00  0.00000000E+00
  0.00000000E+00  0.00000000E+00  0.00000000E+00
  0.00000000E+00  0.00000000E+00  0.00000000E+00
  0.00000000E+00  0.00000000E+00  0.00000000E+00
  0.00000000E+00  0.00000000E+00  0.00000000E+00
  0.00000000E+00  0.00000000E+00  0.00000000E+00
  0.00000000E+00  0.00000000E+00  0.00000000E+00
  0.00000000E+00  0.00000000E+00  0.00000000E+00
  0.00000000E+00  0.00000000E+00  0.00000000E+00
  0.00000000E+00  0.00000000E+00  0.00000000E+00
  0.00000000E+00  0.00000000E+00  0.00000000E+00
  0.00000000E+00  0.00000000E+00  0.00000000E+00
  0.00000000E+00  0.00000000E+00  0.00000000E+00
  0.00000000E+00  0.00000000E+00  0.00000000E+00
  0.00000000E+00  0.00000000E+00  0.00000000E+00
  0.00000000E+00  0.00000000E+00  0.00000000E+00
  0.00000000E+00  0.00000000E+00  0.00000000E+00
  0.00000000E+00  0.00000000E+00  0.00000000E+00
  0.00000000E+00  0.00000000E+00  0.00000000E+00
  0.00000000E+00  0.00000000E+00  0.00000000E+00
  0.00000000E+00  0.00000000E+00  0.00000000E+00
  0.00000000E+00  0.00000000E+00  0.00000000E+00
  0.00000000E+00  0.00000000E+00  0.00000000E+00
  0.00000000E+00  0.00000000E+00  0.00000000E+00
  0.00000000E+00  0.00000000E+00  0.00000000E+00
  0.00000000E+00  0.00000000E+00  0.00000000E+00
  0.00000000E+00  0.00000000E+00  0.00000000E+00
  0.00000000E+00  0.00000000E+00  0.00000000E+00
  0.00000000E+00  0.00000000E+00  0.00000000E+00
  0.00000000E+00  0.00000000E+00  0.00000000E+00
  0.00000000E+00  0.00000000E+00  0.00000000E+00
  0.00000000E+00  0.00000000E+00  0.00000000E+00
  0.00000000E+00  0.00000000E+00  0.00000000E+00
  0.00000000E+00  0.00000000E+00  0.00000000E+00
  0.00000000E+00  0.00000000E+00  0.00000000E+00
