supercell of icsd_181358.cif            
   1.00000000000000     
    10.6435828226107070   -0.0313025133192046    0.0030262865726671
    -5.3489229511788929    9.2501466193988158    0.0012349682430227
     0.0017103850849002    0.0042594580578603    9.7924352879901075
   N    Ga   Sc
    36    14    22
Direct
  0.2373032262434407  0.1223720873066512  0.4648151749137668
  0.1279082185515321  0.2283156889825406  0.2046307100426077
  0.8830437365116595  0.0952875270705107  0.9673315264016864
  0.7870941038864601  0.2148751139610354  0.7127348912466971
  0.5613558371897938  0.1221136017243083  0.4670232146543682
  0.4336865803945358  0.1984372753841157  0.1990269874978097
  0.2115502457995575  0.0933632708985499  0.9385027445048024
  0.1032786785728561  0.2283005428530558  0.7131210721599857
  0.8804730917125738  0.1244289185769176  0.4345559646702100
  0.7551634694615501  0.2138333787241251  0.1907589522771005
  0.5494859753374968  0.1019035838145257  0.9320899237750666
  0.4469147132564686  0.2277765089331893  0.7107692885213837
  0.2201964074789373  0.4438697617373251  0.4428488610923580
  0.1142690748808732  0.5423025407240374  0.1981261775388816
  0.8886824936522260  0.4462181651402801  0.9545147370018583
  0.7751887611351975  0.5591414365452749  0.7082331583119128
  0.5476435403318334  0.4297839146948235  0.4480832202436886
  0.4403663300565839  0.5630641736172990  0.2079601745246009
  0.2479652123495271  0.4552481209606611  0.9462524279766171
  0.1252509011933114  0.5638657319609308  0.7180000421592894
  0.8842880198710361  0.4325518434099109  0.4666387841493531
  0.7870552876587027  0.5700399990299658  0.2161656653444624
  0.5513039440497920  0.4478871427581481  0.9722928345535280
  0.4411425418068333  0.5659312672889953  0.6915634288274859
  0.2215901860957246  0.7727320674279241  0.4281654896518248
  0.0997793577983117  0.9007995915350691  0.2139493194685897
  0.8991271304641941  0.7957243348894849  0.9460210109323199
  0.7698827699716091  0.8997800215159373  0.6976813632304442
  0.5528641626031714  0.7780710668795479  0.4417898162214016
  0.4586196526709614  0.8961667017500119  0.2045713106038392
  0.2137582458692080  0.7874928299093327  0.9708936417504006
  0.1225424665928045  0.8752027214046691  0.6868206459612551
  0.8862293488496675  0.7835531269157698  0.4635090830185788
  0.7690573070182793  0.8744524849612816  0.2059363497908109
  0.5696604606536582  0.7683257927165457  0.9480327144957599
  0.4344303381835388  0.8692368726015189  0.7108496026509741
  0.2281244841884771  0.1178857530680659  0.2527120382796468
  0.8849697164292962  0.1049763116259328  0.7548829563126844
  0.7810564362091910  0.2218440737097183  0.4999615706756657
  0.5529954670297030  0.1091750786236076  0.2504636068844803
  0.4504771730289150  0.2283829959172436  0.5001498642594058
  0.2236835796516630  0.4435908902958303  0.2404026309825156
  0.4514163947376488  0.5623632145857442  0.0026652341952342
  0.2342003172305169  0.4565533631398040  0.7456049642465743
  0.1033925988617739  0.8967081092655818  0.0029406072793492
  0.5545730991907760  0.7790190049692427  0.2423634032560784
  0.2230816551380173  0.7788054186001006  0.7536037055620000
  0.8837774952379718  0.7816564748998474  0.2539858267675044
  0.7788072780873492  0.8793605424635231  0.9981391264409822
  0.5543864177833555  0.7742971372776211  0.7445264079272036
  0.1204337727755700  0.2231132844125909  0.9755461016828662
  0.4367693922938543  0.2083367777400937  0.9769217592637460
  0.2184317777855043  0.1031247901519023  0.7203203008412657
  0.1052845608730024  0.2263399157704100  0.4839133958353230
  0.8843217076267393  0.1110733446371270  0.2166633926488473
  0.7690470311550328  0.2163946939793178  0.9718650264917841
  0.5536150999100968  0.1039837540618507  0.7180058582751343
  0.1169385043983766  0.5537920626493289  0.9749801930279745
  0.8906973910260092  0.4453410675692737  0.7293029077411646
  0.7734935141867609  0.5526502728956189  0.4789017312497847
  0.5484141980792145  0.4347807354832725  0.2234607410250504
  0.1169079413839853  0.5578659708988951  0.4876564874448377
  0.8863487831649834  0.4362917830007760  0.2341050257273380
  0.7863774560293777  0.5699406466040173  0.9864200688264972
  0.5499353863231988  0.4521859740803080  0.7439847278533094
  0.4430737357236936  0.5549636753465848  0.4734719335163575
  0.2214228668111176  0.7779781037273708  0.2137024223079962
  0.8938459674767429  0.7876520322127547  0.7238372485379827
  0.7730596083274932  0.8998426600280283  0.4796617144410433
  0.4519038070354853  0.8861980451610023  0.9774747978375373
  0.1171541048742810  0.8878963606136807  0.4682741711620722
  0.4394294617809109  0.8831864719296689  0.4788677410270665
 
  0.00000000E+00  0.00000000E+00  0.00000000E+00
  0.00000000E+00  0.00000000E+00  0.00000000E+00
  0.00000000E+00  0.00000000E+00  0.00000000E+00
  0.00000000E+00  0.00000000E+00  0.00000000E+00
  0.00000000E+00  0.00000000E+00  0.00000000E+00
  0.00000000E+00  0.00000000E+00  0.00000000E+00
  0.00000000E+00  0.00000000E+00  0.00000000E+00
  0.00000000E+00  0.00000000E+00  0.00000000E+00
  0.00000000E+00  0.00000000E+00  0.00000000E+00
  0.00000000E+00  0.00000000E+00  0.00000000E+00
  0.00000000E+00  0.00000000E+00  0.00000000E+00
  0.00000000E+00  0.00000000E+00  0.00000000E+00
  0.00000000E+00  0.00000000E+00  0.00000000E+00
  0.00000000E+00  0.00000000E+00  0.00000000E+00
  0.00000000E+00  0.00000000E+00  0.00000000E+00
  0.00000000E+00  0.00000000E+00  0.00000000E+00
  0.00000000E+00  0.00000000E+00  0.00000000E+00
  0.00000000E+00  0.00000000E+00  0.00000000E+00
  0.00000000E+00  0.00000000E+00  0.00000000E+00
  0.00000000E+00  0.00000000E+00  0.00000000E+00
  0.00000000E+00  0.00000000E+00  0.00000000E+00
  0.00000000E+00  0.00000000E+00  0.00000000E+00
  0.00000000E+00  0.00000000E+00  0.00000000E+00
  0.00000000E+00  0.00000000E+00  0.00000000E+00
  0.00000000E+00  0.00000000E+00  0.00000000E+00
  0.00000000E+00  0.00000000E+00  0.00000000E+00
  0.00000000E+00  0.00000000E+00  0.00000000E+00
  0.00000000E+00  0.00000000E+00  0.00000000E+00
  0.00000000E+00  0.00000000E+00  0.00000000E+00
  0.00000000E+00  0.00000000E+00  0.00000000E+00
  0.00000000E+00  0.00000000E+00  0.00000000E+00
  0.00000000E+00  0.00000000E+00  0.00000000E+00
  0.00000000E+00  0.00000000E+00  0.00000000E+00
  0.00000000E+00  0.00000000E+00  0.00000000E+00
  0.00000000E+00  0.00000000E+00  0.00000000E+00
  0.00000000E+00  0.00000000E+00  0.00000000E+00
  0.00000000E+00  0.00000000E+00  0.00000000E+00
  0.00000000E+00  0.00000000E+00  0.00000000E+00
  0.00000000E+00  0.00000000E+00  0.00000000E+00
  0.00000000E+00  0.00000000E+00  0.00000000E+00
  0.00000000E+00  0.00000000E+00  0.00000000E+00
  0.00000000E+00  0.00000000E+00  0.00000000E+00
  0.00000000E+00  0.00000000E+00  0.00000000E+00
  0.00000000E+00  0.00000000E+00  0.00000000E+00
  0.00000000E+00  0.00000000E+00  0.00000000E+00
  0.00000000E+00  0.00000000E+00  0.00000000E+00
  0.00000000E+00  0.00000000E+00  0.00000000E+00
  0.00000000E+00  0.00000000E+00  0.00000000E+00
  0.00000000E+00  0.00000000E+00  0.00000000E+00
  0.00000000E+00  0.00000000E+00  0.00000000E+00
  0.00000000E+00  0.00000000E+00  0.00000000E+00
  0.00000000E+00  0.00000000E+00  0.00000000E+00
  0.00000000E+00  0.00000000E+00  0.00000000E+00
  0.00000000E+00  0.00000000E+00  0.00000000E+00
  0.00000000E+00  0.00000000E+00  0.00000000E+00
  0.00000000E+00  0.00000000E+00  0.00000000E+00
  0.00000000E+00  0.00000000E+00  0.00000000E+00
  0.00000000E+00  0.00000000E+00  0.00000000E+00
  0.00000000E+00  0.00000000E+00  0.00000000E+00
  0.00000000E+00  0.00000000E+00  0.00000000E+00
  0.00000000E+00  0.00000000E+00  0.00000000E+00
  0.00000000E+00  0.00000000E+00  0.00000000E+00
  0.00000000E+00  0.00000000E+00  0.00000000E+00
  0.00000000E+00  0.00000000E+00  0.00000000E+00
  0.00000000E+00  0.00000000E+00  0.00000000E+00
  0.00000000E+00  0.00000000E+00  0.00000000E+00
  0.00000000E+00  0.00000000E+00  0.00000000E+00
  0.00000000E+00  0.00000000E+00  0.00000000E+00
  0.00000000E+00  0.00000000E+00  0.00000000E+00
  0.00000000E+00  0.00000000E+00  0.00000000E+00
  0.00000000E+00  0.00000000E+00  0.00000000E+00
  0.00000000E+00  0.00000000E+00  0.00000000E+00
