generated by phonopy                    
   1.00000000000000     
    10.0351470768999995   -0.0000022330999784   -0.0000001056124209
    -5.0175765436399997    8.6906901959899994    0.0000001395531216
    -0.0000001735893656    0.0000001431815548   14.9533752540999991
   Pb   P    O 
    19    12    50
Direct
  0.9989422598450588  0.7748128763997357  0.1270713570117721
  0.9997070772652847  0.7775473965579920  0.6203894227807112
  0.0030963375609190  0.2626026976510261  0.8734692701962103
  0.2442944789553252  0.2349114688260201  0.1317062817534662
  0.2377532021681787  0.2317158100522363  0.6159975389018939
  0.7465579055387437  0.7504550584462493  0.3745124890604288
  0.7344359623677690  0.7403759345364236  0.8732268074974883
  0.7710845670028661  0.0067780275057316  0.1334961830298056
  0.7719383265389723  0.0032966160263044  0.6143013905630994
  0.2723415900264925  0.9986531969227173  0.3746756012507291
  0.2553938918298968  0.9948638959424940  0.8730763055381061
  0.6682339032048787  0.3334569357574111  0.9993633674348033
  0.6863040665426965  0.3299200050512496  0.4986909930177887
  0.3372178903786818  0.6695731602192510  0.0053423817902996
  0.3126116560088334  0.6303922465031704  0.4974773783795143
  0.3140784071218761  0.6331362960595186  0.2497633234520649
  0.3373096369146964  0.6693247655132524  0.7413190736728765
  0.6862624360096490  0.3305799076754852  0.2510105391763560
  0.6664938952819668  0.3333843933386191  0.7466488030231702
  0.6247444981586057  0.5954188052577294  0.1226613543344612
  0.6249809224575174  0.5949288322570112  0.6247428361891849
  0.3813269626747484  0.4002326705025041  0.3725797601733163
  0.3680317030900397  0.3932353369642598  0.8751974250464087
  0.4033745676298679  0.0249832189656871  0.1222889131055780
  0.4030079932209318  0.0251096557704713  0.6255790615842258
  0.6010406511979483  0.9684423729762770  0.3730262625588381
  0.5985929389214562  0.9692538413134599  0.8746498182587032
  0.9648904997737375  0.3744917562296521  0.1171720736880033
  0.9646841405035218  0.3735587904204110  0.6310202538047704
  0.0280672754392697  0.6434669859504325  0.3730197282608430
  0.0267348479835476  0.6312846612057328  0.8745576369397767
  0.5001494918290135  0.6446652145493061  0.1224543804502645
  0.4975273487275018  0.6405580559941839  0.6246854371549801
  0.4842366078203284  0.3254440361524900  0.3728901030783618
  0.4732069660531621  0.3204459764429259  0.8747199125430356
  0.3434200446032776  0.8490872604351267  0.1222991473430994
  0.3468910061904893  0.8499741782619523  0.6254919990898884
  0.6510525509978606  0.1414468845335080  0.3733896798205336
  0.6749013108580897  0.1471762690044685  0.8745808788925302
  0.1438217721816457  0.4779807984250652  0.1214199424584592
  0.1430362235609834  0.4821287859069585  0.6265036855210582
  0.8496832048377456  0.5334084531483612  0.3734387273252366
  0.8482121621885810  0.5271902976235694  0.8745796870465270
  0.7252889642071167  0.6479164360237277  0.0356828539813492
  0.7373581551022852  0.6710648822041634  0.5435792300869551
  0.2802566416336987  0.3607414086370113  0.4582089881247882
  0.2623317406905343  0.3469234793422089  0.9598607447093599
  0.3505262557311539  0.0779982320367765  0.0372310904484863
  0.3374164416247254  0.0692126980331835  0.5422746767122533
  0.6589991348389503  0.9172480221849497  0.4560883769819597
  0.6411855043803811  0.9056633511597880  0.9590176741725571
  0.9122381319502821  0.2775016367490650  0.0289983053024230
  0.9058948868758065  0.2604450869878292  0.5498494070910738
  0.0792575785131646  0.7533408747225252  0.4566733324447512
  0.0873304214956363  0.7383602852353235  0.9586259899091374
  0.2809364134282504  0.3604738384937178  0.2861685187972256
  0.2599968410289648  0.3450429796225336  0.7916763295080571
  0.7378919159552595  0.6696879830109452  0.2035928771995401
  0.7253871028710677  0.6506619215933469  0.7118501456661832
  0.6588919235700033  0.9179802177871963  0.2894486955403437
  0.6433290233683451  0.9061369099632017  0.7909841992257114
  0.3389564304670714  0.0712996123229814  0.2052891444686864
  0.3474717785097994  0.0755480182700410  0.7106456384520072
  0.0786139833947175  0.7530980722468499  0.2892383750880043
  0.0864039155651213  0.7400406103138195  0.7911758387878933
  0.9032803515943399  0.2604061939024547  0.1981097791947022
  0.9156462991089569  0.2763241342907676  0.7191156539768571
  0.5447771946695994  0.4148088550532236  0.1294186513756088
  0.5497262893061361  0.4153324297645682  0.6185962467865238
  0.4847931537101076  0.5844849094289444  0.3724450216035606
  0.4720005975523947  0.5754829607831766  0.8744209192059031
  0.5842539294664846  0.1195444674174198  0.1260501271143539
  0.5836090080563991  0.1231455520296763  0.6225164781446679
  0.4180471870620650  0.8743412038627980  0.3730846429202472
  0.4167500292729116  0.8940217028586730  0.8738630802934040
  0.8847012089139383  0.4745324187142472  0.1213605659210870
  0.8799367670929641  0.4694483106323872  0.6278349300541279
  0.1145869892009088  0.5507267861678358  0.3728475686144819
  0.1040880237863533  0.5269328068514056  0.8736490435083866
  0.0078454873137304  0.0202933531148375  0.1266876444115042
  0.0045779101643220  0.0120645244086930  0.6194905486996376
 
  0.00000000E+00  0.00000000E+00  0.00000000E+00
  0.00000000E+00  0.00000000E+00  0.00000000E+00
  0.00000000E+00  0.00000000E+00  0.00000000E+00
  0.00000000E+00  0.00000000E+00  0.00000000E+00
  0.00000000E+00  0.00000000E+00  0.00000000E+00
  0.00000000E+00  0.00000000E+00  0.00000000E+00
  0.00000000E+00  0.00000000E+00  0.00000000E+00
  0.00000000E+00  0.00000000E+00  0.00000000E+00
  0.00000000E+00  0.00000000E+00  0.00000000E+00
  0.00000000E+00  0.00000000E+00  0.00000000E+00
  0.00000000E+00  0.00000000E+00  0.00000000E+00
  0.00000000E+00  0.00000000E+00  0.00000000E+00
  0.00000000E+00  0.00000000E+00  0.00000000E+00
  0.00000000E+00  0.00000000E+00  0.00000000E+00
  0.00000000E+00  0.00000000E+00  0.00000000E+00
  0.00000000E+00  0.00000000E+00  0.00000000E+00
  0.00000000E+00  0.00000000E+00  0.00000000E+00
  0.00000000E+00  0.00000000E+00  0.00000000E+00
  0.00000000E+00  0.00000000E+00  0.00000000E+00
  0.00000000E+00  0.00000000E+00  0.00000000E+00
  0.00000000E+00  0.00000000E+00  0.00000000E+00
  0.00000000E+00  0.00000000E+00  0.00000000E+00
  0.00000000E+00  0.00000000E+00  0.00000000E+00
  0.00000000E+00  0.00000000E+00  0.00000000E+00
  0.00000000E+00  0.00000000E+00  0.00000000E+00
  0.00000000E+00  0.00000000E+00  0.00000000E+00
  0.00000000E+00  0.00000000E+00  0.00000000E+00
  0.00000000E+00  0.00000000E+00  0.00000000E+00
  0.00000000E+00  0.00000000E+00  0.00000000E+00
  0.00000000E+00  0.00000000E+00  0.00000000E+00
  0.00000000E+00  0.00000000E+00  0.00000000E+00
  0.00000000E+00  0.00000000E+00  0.00000000E+00
  0.00000000E+00  0.00000000E+00  0.00000000E+00
  0.00000000E+00  0.00000000E+00  0.00000000E+00
  0.00000000E+00  0.00000000E+00  0.00000000E+00
  0.00000000E+00  0.00000000E+00  0.00000000E+00
  0.00000000E+00  0.00000000E+00  0.00000000E+00
  0.00000000E+00  0.00000000E+00  0.00000000E+00
  0.00000000E+00  0.00000000E+00  0.00000000E+00
  0.00000000E+00  0.00000000E+00  0.00000000E+00
  0.00000000E+00  0.00000000E+00  0.00000000E+00
  0.00000000E+00  0.00000000E+00  0.00000000E+00
  0.00000000E+00  0.00000000E+00  0.00000000E+00
  0.00000000E+00  0.00000000E+00  0.00000000E+00
  0.00000000E+00  0.00000000E+00  0.00000000E+00
  0.00000000E+00  0.00000000E+00  0.00000000E+00
  0.00000000E+00  0.00000000E+00  0.00000000E+00
  0.00000000E+00  0.00000000E+00  0.00000000E+00
  0.00000000E+00  0.00000000E+00  0.00000000E+00
  0.00000000E+00  0.00000000E+00  0.00000000E+00
  0.00000000E+00  0.00000000E+00  0.00000000E+00
  0.00000000E+00  0.00000000E+00  0.00000000E+00
  0.00000000E+00  0.00000000E+00  0.00000000E+00
  0.00000000E+00  0.00000000E+00  0.00000000E+00
  0.00000000E+00  0.00000000E+00  0.00000000E+00
  0.00000000E+00  0.00000000E+00  0.00000000E+00
  0.00000000E+00  0.00000000E+00  0.00000000E+00
  0.00000000E+00  0.00000000E+00  0.00000000E+00
  0.00000000E+00  0.00000000E+00  0.00000000E+00
  0.00000000E+00  0.00000000E+00  0.00000000E+00
  0.00000000E+00  0.00000000E+00  0.00000000E+00
  0.00000000E+00  0.00000000E+00  0.00000000E+00
  0.00000000E+00  0.00000000E+00  0.00000000E+00
  0.00000000E+00  0.00000000E+00  0.00000000E+00
  0.00000000E+00  0.00000000E+00  0.00000000E+00
  0.00000000E+00  0.00000000E+00  0.00000000E+00
  0.00000000E+00  0.00000000E+00  0.00000000E+00
  0.00000000E+00  0.00000000E+00  0.00000000E+00
  0.00000000E+00  0.00000000E+00  0.00000000E+00
  0.00000000E+00  0.00000000E+00  0.00000000E+00
  0.00000000E+00  0.00000000E+00  0.00000000E+00
  0.00000000E+00  0.00000000E+00  0.00000000E+00
  0.00000000E+00  0.00000000E+00  0.00000000E+00
  0.00000000E+00  0.00000000E+00  0.00000000E+00
  0.00000000E+00  0.00000000E+00  0.00000000E+00
  0.00000000E+00  0.00000000E+00  0.00000000E+00
  0.00000000E+00  0.00000000E+00  0.00000000E+00
  0.00000000E+00  0.00000000E+00  0.00000000E+00
  0.00000000E+00  0.00000000E+00  0.00000000E+00
  0.00000000E+00  0.00000000E+00  0.00000000E+00
  0.00000000E+00  0.00000000E+00  0.00000000E+00
