Al   Sc   N                             
   1.00000000000000     
   -10.0351363093915182    0.0271646547906974   -0.0008880167068594
    -5.0571679096408575    8.6976139446904313   -0.0036081535347636
     0.0286050771775116   -0.0583390145874372   -9.9013963327204575
   Al   Sc   N 
    23    13    35
Direct
  0.1091951612758422  0.0940768611084692  0.4001341350251693
  0.2186254162199859  0.2005506672891570  0.1425415452636258
  0.7704542431255206  0.1041339499800529  0.8905892757226468
  0.8806310158588246  0.2041065769242039  0.6435394040665017
  0.5485934378349455  0.2131620567235188  0.1344007112061050
  0.2231242798349697  0.2092968968863431  0.6395398536101453
  0.8895614569943220  0.2093313994840571  0.1415062186935145
  0.5572982537591287  0.2120372399026138  0.6414928345590880
  0.2232166824105164  0.5391812101927087  0.1439067397009168
  0.4386285156923009  0.4400114468373317  0.3900886532142636
  0.5615995528425728  0.5508108384845301  0.1443887623379183
  0.2283734371833859  0.5342887774485590  0.6395261773186363
  0.8887349659233124  0.5340628844252322  0.1493775348333344
  0.4424514990947230  0.4325647660707546  0.8882869575980052
  0.5513593655149052  0.5346566685925964  0.6465205739732696
  0.1111322114436248  0.7583804922441928  0.3971273187730660
  0.7762009967612968  0.7566895244944050  0.8935184875440498
  0.8820886992685004  0.8757453736491101  0.6515597973250280
  0.4430503251089561  0.7549623497284017  0.3962405577110886
  0.5543268970543807  0.8674775368518937  0.1074719237851411
  0.1240812605737460  0.7514740096872288  0.8834620497619099
  0.4442632677550193  0.7526772738633838  0.8900578722745180
  0.5579169832132749  0.8705043238069976  0.6119709079671267
  0.4429595646828446  0.0946200591748081  0.3751178172949565
  0.1103001782443229  0.0901145255120284  0.8758765241924991
  0.7792434585992893  0.0937731758935598  0.3797821773764838
  0.4529272864963687  0.0897093642656372  0.8704713779102420
  0.1244166285307031  0.4225279215318523  0.3747226011442208
  0.7722782918128388  0.4302658175868288  0.8834991931370411
  0.8890496609637921  0.5428263129352118  0.6266698322892097
  0.1156320066453276  0.4339361977697749  0.8918950016818314
  0.7684434950087038  0.4233388330640011  0.3844831977397405
  0.2232806333358113  0.8702242284268706  0.1474630001483561
  0.2237583297141228  0.8658774078839286  0.6228634428081108
  0.7774266365559868  0.7681984241805395  0.3707993267450505
  0.8933579817614472  0.8716649714907518  0.1108476394462841
  0.2137511787234985  0.1883139922382924  0.3330631775792199
  0.1016412274802363  0.1077917793344909  0.0887439571149571
  0.8776052583870779  0.1971744150289254  0.8329929803013982
  0.7769357976750157  0.0913654397766379  0.5969577128839418
  0.5400200709145793  0.2363477861587100  0.3234512160861769
  0.4444455062602231  0.0940290388395653  0.1003603134523843
  0.2215483143786727  0.2090519440054237  0.8298221356323694
  0.0989135167899704  0.1151219388175164  0.5954009270318039
  0.9083048716052105  0.1922823218646883  0.3321171197836676
  0.7625115684637862  0.1216153328329312  0.0861271166748097
  0.5605961002812023  0.2226482815734698  0.8354749204822411
  0.4476139985901781  0.0939990485900992  0.6051856648847220
  0.2331261533756859  0.5539213219969241  0.3315945484601457
  0.1143197428362583  0.4253164640532674  0.1145104021725061
  0.8849551165553606  0.5532567292972885  0.8392804132684191
  0.7653036728260290  0.4181546712399111  0.6034375879119693
  0.5304986572950128  0.5514266190608978  0.3288201799767521
  0.2362941686017948  0.5428938954281648  0.8304549963985579
  0.1339669251586528  0.4184008094377631  0.5919487484804122
  0.8890766957644161  0.5344808460414612  0.3454794907666781
  0.7771595937580642  0.4286852852409382  0.1075812641585046
  0.5362258530722173  0.5444780550970236  0.8395957658325344
  0.4448837673847876  0.4293620730772076  0.5836142550160730
  0.2205199494220409  0.8706295777209192  0.3722587826008237
  0.1315510550445254  0.7357569426829969  0.0730489192429786
  0.8846244865072990  0.8745447380364695  0.8545802329126104
  0.7693605171874083  0.7842840791660421  0.5903277858077089
  0.5418746469062299  0.8616921799400430  0.3483844154304236
  0.4551041380143559  0.7524639719897692  0.0844704292198344
  0.2330322469832922  0.8525010965967255  0.8398044172955323
  0.0954596829196035  0.7489379095641269  0.5906845176285245
  0.9139266585285171  0.8648770088254096  0.3219782160832665
  0.7740243249768000  0.7469453806334272  0.0965339237280958
  0.5628907944777168  0.8500742604991487  0.8636377745252517
  0.4687174290768894  0.7434339771981371  0.5888136186861672
 
  0.00000000E+00  0.00000000E+00  0.00000000E+00
  0.00000000E+00  0.00000000E+00  0.00000000E+00
  0.00000000E+00  0.00000000E+00  0.00000000E+00
  0.00000000E+00  0.00000000E+00  0.00000000E+00
  0.00000000E+00  0.00000000E+00  0.00000000E+00
  0.00000000E+00  0.00000000E+00  0.00000000E+00
  0.00000000E+00  0.00000000E+00  0.00000000E+00
  0.00000000E+00  0.00000000E+00  0.00000000E+00
  0.00000000E+00  0.00000000E+00  0.00000000E+00
  0.00000000E+00  0.00000000E+00  0.00000000E+00
  0.00000000E+00  0.00000000E+00  0.00000000E+00
  0.00000000E+00  0.00000000E+00  0.00000000E+00
  0.00000000E+00  0.00000000E+00  0.00000000E+00
  0.00000000E+00  0.00000000E+00  0.00000000E+00
  0.00000000E+00  0.00000000E+00  0.00000000E+00
  0.00000000E+00  0.00000000E+00  0.00000000E+00
  0.00000000E+00  0.00000000E+00  0.00000000E+00
  0.00000000E+00  0.00000000E+00  0.00000000E+00
  0.00000000E+00  0.00000000E+00  0.00000000E+00
  0.00000000E+00  0.00000000E+00  0.00000000E+00
  0.00000000E+00  0.00000000E+00  0.00000000E+00
  0.00000000E+00  0.00000000E+00  0.00000000E+00
  0.00000000E+00  0.00000000E+00  0.00000000E+00
  0.00000000E+00  0.00000000E+00  0.00000000E+00
  0.00000000E+00  0.00000000E+00  0.00000000E+00
  0.00000000E+00  0.00000000E+00  0.00000000E+00
  0.00000000E+00  0.00000000E+00  0.00000000E+00
  0.00000000E+00  0.00000000E+00  0.00000000E+00
  0.00000000E+00  0.00000000E+00  0.00000000E+00
  0.00000000E+00  0.00000000E+00  0.00000000E+00
  0.00000000E+00  0.00000000E+00  0.00000000E+00
  0.00000000E+00  0.00000000E+00  0.00000000E+00
  0.00000000E+00  0.00000000E+00  0.00000000E+00
  0.00000000E+00  0.00000000E+00  0.00000000E+00
  0.00000000E+00  0.00000000E+00  0.00000000E+00
  0.00000000E+00  0.00000000E+00  0.00000000E+00
  0.00000000E+00  0.00000000E+00  0.00000000E+00
  0.00000000E+00  0.00000000E+00  0.00000000E+00
  0.00000000E+00  0.00000000E+00  0.00000000E+00
  0.00000000E+00  0.00000000E+00  0.00000000E+00
  0.00000000E+00  0.00000000E+00  0.00000000E+00
  0.00000000E+00  0.00000000E+00  0.00000000E+00
  0.00000000E+00  0.00000000E+00  0.00000000E+00
  0.00000000E+00  0.00000000E+00  0.00000000E+00
  0.00000000E+00  0.00000000E+00  0.00000000E+00
  0.00000000E+00  0.00000000E+00  0.00000000E+00
  0.00000000E+00  0.00000000E+00  0.00000000E+00
  0.00000000E+00  0.00000000E+00  0.00000000E+00
  0.00000000E+00  0.00000000E+00  0.00000000E+00
  0.00000000E+00  0.00000000E+00  0.00000000E+00
  0.00000000E+00  0.00000000E+00  0.00000000E+00
  0.00000000E+00  0.00000000E+00  0.00000000E+00
  0.00000000E+00  0.00000000E+00  0.00000000E+00
  0.00000000E+00  0.00000000E+00  0.00000000E+00
  0.00000000E+00  0.00000000E+00  0.00000000E+00
  0.00000000E+00  0.00000000E+00  0.00000000E+00
  0.00000000E+00  0.00000000E+00  0.00000000E+00
  0.00000000E+00  0.00000000E+00  0.00000000E+00
  0.00000000E+00  0.00000000E+00  0.00000000E+00
  0.00000000E+00  0.00000000E+00  0.00000000E+00
  0.00000000E+00  0.00000000E+00  0.00000000E+00
  0.00000000E+00  0.00000000E+00  0.00000000E+00
  0.00000000E+00  0.00000000E+00  0.00000000E+00
  0.00000000E+00  0.00000000E+00  0.00000000E+00
  0.00000000E+00  0.00000000E+00  0.00000000E+00
  0.00000000E+00  0.00000000E+00  0.00000000E+00
  0.00000000E+00  0.00000000E+00  0.00000000E+00
  0.00000000E+00  0.00000000E+00  0.00000000E+00
  0.00000000E+00  0.00000000E+00  0.00000000E+00
  0.00000000E+00  0.00000000E+00  0.00000000E+00
  0.00000000E+00  0.00000000E+00  0.00000000E+00
