Al   Sc   N                             
   1.00000000000000     
   -10.1242479113656358    0.0199714994978000   -0.0103441894905261
    -5.0783909861324199    8.7772108853491364   -0.0133159131579222
    -0.0296177819766412    0.0128301022358420   -9.6518930199567059
   Al   Sc   N 
    23    13    35
Direct
  0.1107516355564968  0.0929955570606040  0.3034877200240302
  0.2209858867677212  0.2078484012530026  0.0608330453520551
  0.7765215479813747  0.0929376698490927  0.7972897615105410
  0.8926783587546510  0.2045506091050271  0.5587067615389714
  0.5588781795588602  0.2088360532096729  0.0541989199925865
  0.2253720478519767  0.2011842806040178  0.5543978511223813
  0.8803069541293880  0.2097118300390406  0.0568339745537116
  0.5449837954638781  0.2181245887356482  0.5601582353833265
  0.2150346819425764  0.5414221363322511  0.0769104661029445
  0.4427666118268405  0.4371824051688833  0.2977730552498485
  0.5615616963630075  0.5466330825720789  0.0603238673462414
  0.2322805256091627  0.5337209723211629  0.5653090266763527
  0.8847266875774906  0.5424890067165009  0.0446038835226190
  0.4441706007260251  0.4348568134752853  0.8105319500126029
  0.5506830314993749  0.5360775370898452  0.5537571435638426
  0.1161807786803806  0.7607342717037184  0.3483524301298786
  0.7746361669730888  0.7691821200258531  0.8009877884694703
  0.8886433584532298  0.8714825661158798  0.5581010294315831
  0.4426417782248038  0.7584076864830180  0.3101983605468277
  0.5634136200596203  0.8587891162741101  0.0525223437272402
  0.1143468379009107  0.7571469609886066  0.8619945537516145
  0.4508980934485223  0.7498697202718532  0.8077113807476763
  0.5531439885012190  0.8701681586999754  0.5615584223118759
  0.4457757621781440  0.0910832957105399  0.3170610607697526
  0.1086363696170451  0.0929421143193068  0.8262767966381617
  0.7731241614115376  0.1038116692785991  0.3310523108103567
  0.4553260823197007  0.0881669240931444  0.8207900780462296
  0.1164039975223687  0.4252823865260353  0.3182271040073772
  0.7654827566515863  0.4246145099409659  0.8208750632743715
  0.8899244005012790  0.5357253841661986  0.5835837773359955
  0.1236386664997084  0.4285520921340265  0.8238529847135609
  0.7750448844048208  0.4257597200162735  0.3160155055398945
  0.2295757242015100  0.8682420534495208  0.0806044877114047
  0.2256339339357041  0.8700694264419795  0.5779448731684269
  0.7731372620855268  0.7567719489413562  0.3231683961135019
  0.8764297434079893  0.8810532213664004  0.0728299409625350
  0.2160419844045407  0.1913487506214082  0.3547415860560506
  0.0983003831939229  0.1136700851994163  0.0995548338405996
  0.8766241073423089  0.1914448941257376  0.8617098226559179
  0.7760499795566318  0.0950473592370429  0.5936334198630178
  0.5332259289726196  0.2381043698843968  0.3642724422043813
  0.4534213011471309  0.0890717736643225  0.0881988822843596
  0.2288171688752101  0.2013815239826329  0.8673585508610060
  0.1038998825731028  0.1130032433732566  0.6071439826825582
  0.9102285403345860  0.1956824236359012  0.3631053551857093
  0.7619493664211276  0.1215168160717113  0.1120225036641216
  0.5639781691322554  0.2209673139341675  0.8562241066428555
  0.4458232123961849  0.0934395736412625  0.5925567884603993
  0.2323303866580062  0.5506787972011509  0.3132915468704454
  0.1053454266249787  0.4296225140574208  0.0867271979569395
  0.8811310987796261  0.5548876991496385  0.8375109666386038
  0.7625134145790184  0.4160198756217284  0.5957143096564437
  0.5332380278740416  0.5491343729849021  0.3559884009922172
  0.2401635184174040  0.5414195735524387  0.8689875411453514
  0.1399946622163881  0.4153721212573203  0.5906135864404405
  0.8914557205621847  0.5320168266262684  0.3681827604719246
  0.7799011190641210  0.4292760985606776  0.0838811161477793
  0.5333957798662965  0.5472973901394482  0.8701821892792552
  0.4421804269276208  0.4334533138451917  0.6120742279033067
  0.2221286419465187  0.8733010851222431  0.3334202069356706
  0.1110818476957149  0.7531626002313772  0.0706468177170336
  0.8850393562468639  0.8753272371128062  0.8414149867258089
  0.7667546166882602  0.7826570919822160  0.5992223592926464
  0.5407647836867113  0.8614705125713797  0.3676453015438312
  0.4666267773894077  0.7509674125223214  0.1136783319625607
  0.2335007376061853  0.8529120824040604  0.8367761490163304
  0.1075818927627807  0.7462687813890483  0.5635622713886121
  0.9014492393524876  0.8662304736111537  0.3458564043903394
  0.7717799282340323  0.7479845491413499  0.1008114451010371
  0.5652482705871691  0.8483682266865955  0.8557295227593613
  0.4675952292630257  0.7439538406233410  0.6115005735578691
 
  0.00000000E+00  0.00000000E+00  0.00000000E+00
  0.00000000E+00  0.00000000E+00  0.00000000E+00
  0.00000000E+00  0.00000000E+00  0.00000000E+00
  0.00000000E+00  0.00000000E+00  0.00000000E+00
  0.00000000E+00  0.00000000E+00  0.00000000E+00
  0.00000000E+00  0.00000000E+00  0.00000000E+00
  0.00000000E+00  0.00000000E+00  0.00000000E+00
  0.00000000E+00  0.00000000E+00  0.00000000E+00
  0.00000000E+00  0.00000000E+00  0.00000000E+00
  0.00000000E+00  0.00000000E+00  0.00000000E+00
  0.00000000E+00  0.00000000E+00  0.00000000E+00
  0.00000000E+00  0.00000000E+00  0.00000000E+00
  0.00000000E+00  0.00000000E+00  0.00000000E+00
  0.00000000E+00  0.00000000E+00  0.00000000E+00
  0.00000000E+00  0.00000000E+00  0.00000000E+00
  0.00000000E+00  0.00000000E+00  0.00000000E+00
  0.00000000E+00  0.00000000E+00  0.00000000E+00
  0.00000000E+00  0.00000000E+00  0.00000000E+00
  0.00000000E+00  0.00000000E+00  0.00000000E+00
  0.00000000E+00  0.00000000E+00  0.00000000E+00
  0.00000000E+00  0.00000000E+00  0.00000000E+00
  0.00000000E+00  0.00000000E+00  0.00000000E+00
  0.00000000E+00  0.00000000E+00  0.00000000E+00
  0.00000000E+00  0.00000000E+00  0.00000000E+00
  0.00000000E+00  0.00000000E+00  0.00000000E+00
  0.00000000E+00  0.00000000E+00  0.00000000E+00
  0.00000000E+00  0.00000000E+00  0.00000000E+00
  0.00000000E+00  0.00000000E+00  0.00000000E+00
  0.00000000E+00  0.00000000E+00  0.00000000E+00
  0.00000000E+00  0.00000000E+00  0.00000000E+00
  0.00000000E+00  0.00000000E+00  0.00000000E+00
  0.00000000E+00  0.00000000E+00  0.00000000E+00
  0.00000000E+00  0.00000000E+00  0.00000000E+00
  0.00000000E+00  0.00000000E+00  0.00000000E+00
  0.00000000E+00  0.00000000E+00  0.00000000E+00
  0.00000000E+00  0.00000000E+00  0.00000000E+00
  0.00000000E+00  0.00000000E+00  0.00000000E+00
  0.00000000E+00  0.00000000E+00  0.00000000E+00
  0.00000000E+00  0.00000000E+00  0.00000000E+00
  0.00000000E+00  0.00000000E+00  0.00000000E+00
  0.00000000E+00  0.00000000E+00  0.00000000E+00
  0.00000000E+00  0.00000000E+00  0.00000000E+00
  0.00000000E+00  0.00000000E+00  0.00000000E+00
  0.00000000E+00  0.00000000E+00  0.00000000E+00
  0.00000000E+00  0.00000000E+00  0.00000000E+00
  0.00000000E+00  0.00000000E+00  0.00000000E+00
  0.00000000E+00  0.00000000E+00  0.00000000E+00
  0.00000000E+00  0.00000000E+00  0.00000000E+00
  0.00000000E+00  0.00000000E+00  0.00000000E+00
  0.00000000E+00  0.00000000E+00  0.00000000E+00
  0.00000000E+00  0.00000000E+00  0.00000000E+00
  0.00000000E+00  0.00000000E+00  0.00000000E+00
  0.00000000E+00  0.00000000E+00  0.00000000E+00
  0.00000000E+00  0.00000000E+00  0.00000000E+00
  0.00000000E+00  0.00000000E+00  0.00000000E+00
  0.00000000E+00  0.00000000E+00  0.00000000E+00
  0.00000000E+00  0.00000000E+00  0.00000000E+00
  0.00000000E+00  0.00000000E+00  0.00000000E+00
  0.00000000E+00  0.00000000E+00  0.00000000E+00
  0.00000000E+00  0.00000000E+00  0.00000000E+00
  0.00000000E+00  0.00000000E+00  0.00000000E+00
  0.00000000E+00  0.00000000E+00  0.00000000E+00
  0.00000000E+00  0.00000000E+00  0.00000000E+00
  0.00000000E+00  0.00000000E+00  0.00000000E+00
  0.00000000E+00  0.00000000E+00  0.00000000E+00
  0.00000000E+00  0.00000000E+00  0.00000000E+00
  0.00000000E+00  0.00000000E+00  0.00000000E+00
  0.00000000E+00  0.00000000E+00  0.00000000E+00
  0.00000000E+00  0.00000000E+00  0.00000000E+00
  0.00000000E+00  0.00000000E+00  0.00000000E+00
  0.00000000E+00  0.00000000E+00  0.00000000E+00
