Al   Sc   N                             
   1.00000000000000     
   -10.0383856718153606    0.0189409013675385   -0.0070262041474694
    -5.0599365608657045    8.7233641394949064   -0.0121710033257149
     0.0288298001762205    0.0402942997715937   -9.9054828722698574
   Al   Sc   N 
    23    13    35
Direct
  0.1086109350214102  0.0926706235536443  0.3124479237933073
  0.2192406078777793  0.2079450099687676  0.0694218696429303
  0.7718745045185926  0.1014609513784634  0.8107988630468697
  0.8901206864189248  0.2053518233337144  0.5655586060845152
  0.5488266253411922  0.2192539104556701  0.0573989668849748
  0.2249240881403907  0.2008442221518010  0.5628860333699066
  0.8790078661852121  0.2100863176488232  0.0641913976353976
  0.5518721964673290  0.2043664793507034  0.5702473340010954
  0.2331194423747718  0.5321998048623655  0.1240666476896948
  0.4361344729527090  0.4395729047200589  0.3806977830530016
  0.5555321295569513  0.5449092331935788  0.0613517534325538
  0.2197230766878988  0.5447808284249263  0.6171897058376956
  0.8871279571336288  0.5422810899908441  0.0555973651192119
  0.4470596166264755  0.4352672692676904  0.8050348229772766
  0.5596033235817757  0.5413155919187034  0.5665071197495521
  0.1115415325095555  0.7603367041349784  0.3667611237301784
  0.7705776134440256  0.7659979357138624  0.8144905344853086
  0.8899712685063506  0.8733648934862401  0.6254329960578886
  0.4438979042420925  0.7566774537201439  0.3177321876522967
  0.5618255268441601  0.8582638687562749  0.0613520743488891
  0.1222701233707468  0.7528307889902308  0.8694004855461728
  0.4489495845980613  0.7531323169904169  0.8144275450640350
  0.5540623512867953  0.8716907689414697  0.5674185712616833
  0.4439791127376012  0.0905167677583094  0.3185552653379915
  0.1078997774713457  0.0930959420496222  0.8291770075766607
  0.7751339101433530  0.0979684635448521  0.3307905119043326
  0.4521891208447570  0.0872884656185988  0.8292636491119723
  0.1165802432113594  0.4248836962417144  0.3366465477330536
  0.7685642585758501  0.4258391198871365  0.8322959079240206
  0.8893631057829978  0.5361845612069374  0.5897019471141078
  0.1233171230309580  0.4306685064060076  0.8395855544319204
  0.7728259730854603  0.4262683324770364  0.3157923742209263
  0.2283795488456377  0.8664703373123999  0.0880475340978393
  0.2258734911718463  0.8725069455503061  0.5782889048212496
  0.7766717128939291  0.7584404203756705  0.3264221282208268
  0.8856509746861860  0.8748046288773352  0.0854576307895627
  0.2153808365029803  0.1898368461852868  0.3690170011549014
  0.0963440420324559  0.1137985327260296  0.1149049262262096
  0.8772476035480352  0.1926783601780215  0.8755439401111218
  0.7766922871780224  0.0957349196025632  0.6107597048721445
  0.5370624007831850  0.2276290199098128  0.3797702961848159
  0.4507654410683983  0.0890613042175232  0.0966625404584391
  0.2252624115141870  0.2024924779555732  0.8807811753080159
  0.1029772144424825  0.1119899996431499  0.6162233882687502
  0.9062369492535751  0.1967061099939968  0.3750986642666945
  0.7558098077164388  0.1249215105605401  0.1153286231714219
  0.5582431260089891  0.2246463907555025  0.8601704529078305
  0.4446984362941535  0.0908604268121920  0.6081967874956078
  0.2357700585174669  0.5506469235547726  0.3177283048675434
  0.1114682179098381  0.4292287190185604  0.1000858515090641
  0.8830289475334823  0.5551553851022462  0.8546065460500714
  0.7668688007647262  0.4142716749213164  0.6151605026993465
  0.5375014264639759  0.5504266060553178  0.3751919476712260
  0.2330386352590921  0.5539349920705945  0.8077346103053813
  0.1364145563869812  0.4145476224094011  0.5991452530743686
  0.8878552126880237  0.5332205313751146  0.3787710106919135
  0.7769764752757240  0.4306373142688500  0.0912114779601865
  0.5318643216172205  0.5481672347910802  0.8737709023061200
  0.4456214174327400  0.4321364511694838  0.5993633089185550
  0.2223101827756295  0.8713518356616490  0.3438964304852590
  0.1263187568544737  0.7326024414497283  0.0592581766263365
  0.8888635481667748  0.8748754278831754  0.8343927427798050
  0.7656523204585497  0.7827515344318954  0.6166507154708682
  0.5426334351153912  0.8614745681253311  0.3779467763057198
  0.4666982033383107  0.7469807326665361  0.1254967878249929
  0.2345561622664505  0.8559851967016670  0.8497196157473539
  0.0973512327649573  0.7546508055498080  0.5637425805288885
  0.9094546333138496  0.8625348453363770  0.3082402198924896
  0.7714134988279682  0.7483169996295800  0.1081142729310258
  0.5634605439116740  0.8480930091823922  0.8706320089247015
  0.4677380200914243  0.7480041026070694  0.6239820920403858
 
  0.00000000E+00  0.00000000E+00  0.00000000E+00
  0.00000000E+00  0.00000000E+00  0.00000000E+00
  0.00000000E+00  0.00000000E+00  0.00000000E+00
  0.00000000E+00  0.00000000E+00  0.00000000E+00
  0.00000000E+00  0.00000000E+00  0.00000000E+00
  0.00000000E+00  0.00000000E+00  0.00000000E+00
  0.00000000E+00  0.00000000E+00  0.00000000E+00
  0.00000000E+00  0.00000000E+00  0.00000000E+00
  0.00000000E+00  0.00000000E+00  0.00000000E+00
  0.00000000E+00  0.00000000E+00  0.00000000E+00
  0.00000000E+00  0.00000000E+00  0.00000000E+00
  0.00000000E+00  0.00000000E+00  0.00000000E+00
  0.00000000E+00  0.00000000E+00  0.00000000E+00
  0.00000000E+00  0.00000000E+00  0.00000000E+00
  0.00000000E+00  0.00000000E+00  0.00000000E+00
  0.00000000E+00  0.00000000E+00  0.00000000E+00
  0.00000000E+00  0.00000000E+00  0.00000000E+00
  0.00000000E+00  0.00000000E+00  0.00000000E+00
  0.00000000E+00  0.00000000E+00  0.00000000E+00
  0.00000000E+00  0.00000000E+00  0.00000000E+00
  0.00000000E+00  0.00000000E+00  0.00000000E+00
  0.00000000E+00  0.00000000E+00  0.00000000E+00
  0.00000000E+00  0.00000000E+00  0.00000000E+00
  0.00000000E+00  0.00000000E+00  0.00000000E+00
  0.00000000E+00  0.00000000E+00  0.00000000E+00
  0.00000000E+00  0.00000000E+00  0.00000000E+00
  0.00000000E+00  0.00000000E+00  0.00000000E+00
  0.00000000E+00  0.00000000E+00  0.00000000E+00
  0.00000000E+00  0.00000000E+00  0.00000000E+00
  0.00000000E+00  0.00000000E+00  0.00000000E+00
  0.00000000E+00  0.00000000E+00  0.00000000E+00
  0.00000000E+00  0.00000000E+00  0.00000000E+00
  0.00000000E+00  0.00000000E+00  0.00000000E+00
  0.00000000E+00  0.00000000E+00  0.00000000E+00
  0.00000000E+00  0.00000000E+00  0.00000000E+00
  0.00000000E+00  0.00000000E+00  0.00000000E+00
  0.00000000E+00  0.00000000E+00  0.00000000E+00
  0.00000000E+00  0.00000000E+00  0.00000000E+00
  0.00000000E+00  0.00000000E+00  0.00000000E+00
  0.00000000E+00  0.00000000E+00  0.00000000E+00
  0.00000000E+00  0.00000000E+00  0.00000000E+00
  0.00000000E+00  0.00000000E+00  0.00000000E+00
  0.00000000E+00  0.00000000E+00  0.00000000E+00
  0.00000000E+00  0.00000000E+00  0.00000000E+00
  0.00000000E+00  0.00000000E+00  0.00000000E+00
  0.00000000E+00  0.00000000E+00  0.00000000E+00
  0.00000000E+00  0.00000000E+00  0.00000000E+00
  0.00000000E+00  0.00000000E+00  0.00000000E+00
  0.00000000E+00  0.00000000E+00  0.00000000E+00
  0.00000000E+00  0.00000000E+00  0.00000000E+00
  0.00000000E+00  0.00000000E+00  0.00000000E+00
  0.00000000E+00  0.00000000E+00  0.00000000E+00
  0.00000000E+00  0.00000000E+00  0.00000000E+00
  0.00000000E+00  0.00000000E+00  0.00000000E+00
  0.00000000E+00  0.00000000E+00  0.00000000E+00
  0.00000000E+00  0.00000000E+00  0.00000000E+00
  0.00000000E+00  0.00000000E+00  0.00000000E+00
  0.00000000E+00  0.00000000E+00  0.00000000E+00
  0.00000000E+00  0.00000000E+00  0.00000000E+00
  0.00000000E+00  0.00000000E+00  0.00000000E+00
  0.00000000E+00  0.00000000E+00  0.00000000E+00
  0.00000000E+00  0.00000000E+00  0.00000000E+00
  0.00000000E+00  0.00000000E+00  0.00000000E+00
  0.00000000E+00  0.00000000E+00  0.00000000E+00
  0.00000000E+00  0.00000000E+00  0.00000000E+00
  0.00000000E+00  0.00000000E+00  0.00000000E+00
  0.00000000E+00  0.00000000E+00  0.00000000E+00
  0.00000000E+00  0.00000000E+00  0.00000000E+00
  0.00000000E+00  0.00000000E+00  0.00000000E+00
  0.00000000E+00  0.00000000E+00  0.00000000E+00
  0.00000000E+00  0.00000000E+00  0.00000000E+00
