Al   Sc   N                             
   1.00000000000000     
   -10.1819618732015229    0.0228839698859089   -0.0049185945703862
    -5.1319893821025042    8.8203698727885538   -0.0075874508947724
     0.0264179147010161   -0.0513254432983619   -9.5118780152965261
   Al   Sc   N 
    23    13    35
Direct
  0.1127140373879243  0.0915420408422705  0.3775046743745207
  0.2158568851992868  0.2025895975756384  0.1187136165950449
  0.7671864214801829  0.1038266025008596  0.8727774248818392
  0.8818765613783341  0.2027101944660288  0.6047977613191264
  0.5398614623381519  0.2241548309489261  0.1192981313645589
  0.2308239427489909  0.2054299563457178  0.6206897847346582
  0.8861198312997871  0.2111568781140676  0.0936316166202218
  0.5618580211741886  0.2021503573443084  0.6167769204096132
  0.2307043579566184  0.5343100148843334  0.1243027296406751
  0.4363310261476769  0.4388875042425582  0.3767992971073681
  0.5530290315768056  0.5458170980090671  0.0745838512108463
  0.2206908676358310  0.5417986978650617  0.6142737027371439
  0.8843880199454617  0.5415981358899700  0.0651047565459564
  0.4452865309647223  0.4356620661266248  0.8127199662317608
  0.5567581047801298  0.5414851885037564  0.5646272976232822
  0.1106268374822790  0.7614190446760674  0.3716781183767921
  0.7700653261826034  0.7664317849087112  0.8211488718415154
  0.8843109302769037  0.8805533366258658  0.6283710134637630
  0.4420448255581988  0.7583387032407884  0.3228917687178097
  0.5599845390916798  0.8586066933183218  0.0712948713699362
  0.1232727628946080  0.7524194006074083  0.8647421369351065
  0.4495209605593615  0.7516745028017127  0.8226922836417003
  0.5553023015025076  0.8689402031093323  0.5747880170099720
  0.4436804474138043  0.0907515108072303  0.3482478085223022
  0.1089479812091270  0.0935887565505098  0.8450164260598640
  0.7789321466960359  0.0950892653361421  0.3470686788349440
  0.4561418246001097  0.0886049484514331  0.8540549033909528
  0.1210839828982770  0.4231779435555367  0.3515820507408591
  0.7639771531102468  0.4297961486481512  0.8373745334416114
  0.8926720197563611  0.5361505841809660  0.5985668519589069
  0.1245195819804437  0.4317175730867220  0.8598780480000130
  0.7752922210663371  0.4267872618057922  0.3337073569954399
  0.2207441874516007  0.8724363405717099  0.1027176896281006
  0.2285516076036203  0.8627864498093061  0.5975169890034522
  0.7788928485447286  0.7602334558702140  0.3408245733103570
  0.8897472047394928  0.8657748574273540  0.0887990134897478
  0.2141265191265660  0.1894773979333593  0.3198383776109353
  0.0986133413687469  0.1117545209980904  0.0711151272777144
  0.8758534422991815  0.1965170609879934  0.8299152051669836
  0.7772810033535436  0.0908308389077561  0.5785738344698643
  0.5353879240593002  0.2372553849868595  0.3206872364031383
  0.4469064874285564  0.0901353394723472  0.0937302326400342
  0.2286914897291652  0.2048056007203911  0.8212038356205866
  0.1055573130714222  0.1098828871053215  0.5871546340377520
  0.9078870028056585  0.1947413820361135  0.3374606744560751
  0.7587851385894879  0.1197650241546029  0.0800871165086221
  0.5605028822744913  0.2219641248226338  0.8205529435693464
  0.4507183971698225  0.0916832406098109  0.5932879555379671
  0.2330547843379804  0.5529007788542870  0.3241709029121722
  0.1123129755584031  0.4275375439534415  0.0951107753635654
  0.8836541018725512  0.5539738260526050  0.8510862265858350
  0.7651859835861359  0.4180234212413367  0.6010991113783462
  0.5344737319714454  0.5506395070846324  0.3636682862965017
  0.2349494027043164  0.5491787359255014  0.8125064589052542
  0.1374028944897177  0.4160463047683152  0.5874111479675221
  0.8923509164073238  0.5345775904325762  0.3762316981306526
  0.7756116798877457  0.4305521246243131  0.0917771982122346
  0.5298861911335564  0.5474961365740185  0.8773273854371553
  0.4456226277100654  0.4305467474775071  0.5895608610653014
  0.2216115129872378  0.8709518757182835  0.3504256003748409
  0.1274697395646740  0.7337839287470516  0.0620587335476159
  0.8842049300282468  0.8784490537013312  0.8398378615566884
  0.7669831724559941  0.7831161834662197  0.6134059498246387
  0.5444909577413171  0.8577995729036161  0.3757406920802779
  0.4590627621487755  0.7527802179878620  0.1220110173563853
  0.2327072547761873  0.8549088109705636  0.8376492364394252
  0.0951365725804862  0.7542212966823314  0.5755221345977262
  0.9103573696538945  0.8633074446753781  0.3127148880229527
  0.7696972601891545  0.7481158787914453  0.1097398237656151
  0.5627739724075340  0.8482176287230843  0.8695732036699511
  0.4703578001900013  0.7447512059357138  0.6233054087571759
 
  0.00000000E+00  0.00000000E+00  0.00000000E+00
  0.00000000E+00  0.00000000E+00  0.00000000E+00
  0.00000000E+00  0.00000000E+00  0.00000000E+00
  0.00000000E+00  0.00000000E+00  0.00000000E+00
  0.00000000E+00  0.00000000E+00  0.00000000E+00
  0.00000000E+00  0.00000000E+00  0.00000000E+00
  0.00000000E+00  0.00000000E+00  0.00000000E+00
  0.00000000E+00  0.00000000E+00  0.00000000E+00
  0.00000000E+00  0.00000000E+00  0.00000000E+00
  0.00000000E+00  0.00000000E+00  0.00000000E+00
  0.00000000E+00  0.00000000E+00  0.00000000E+00
  0.00000000E+00  0.00000000E+00  0.00000000E+00
  0.00000000E+00  0.00000000E+00  0.00000000E+00
  0.00000000E+00  0.00000000E+00  0.00000000E+00
  0.00000000E+00  0.00000000E+00  0.00000000E+00
  0.00000000E+00  0.00000000E+00  0.00000000E+00
  0.00000000E+00  0.00000000E+00  0.00000000E+00
  0.00000000E+00  0.00000000E+00  0.00000000E+00
  0.00000000E+00  0.00000000E+00  0.00000000E+00
  0.00000000E+00  0.00000000E+00  0.00000000E+00
  0.00000000E+00  0.00000000E+00  0.00000000E+00
  0.00000000E+00  0.00000000E+00  0.00000000E+00
  0.00000000E+00  0.00000000E+00  0.00000000E+00
  0.00000000E+00  0.00000000E+00  0.00000000E+00
  0.00000000E+00  0.00000000E+00  0.00000000E+00
  0.00000000E+00  0.00000000E+00  0.00000000E+00
  0.00000000E+00  0.00000000E+00  0.00000000E+00
  0.00000000E+00  0.00000000E+00  0.00000000E+00
  0.00000000E+00  0.00000000E+00  0.00000000E+00
  0.00000000E+00  0.00000000E+00  0.00000000E+00
  0.00000000E+00  0.00000000E+00  0.00000000E+00
  0.00000000E+00  0.00000000E+00  0.00000000E+00
  0.00000000E+00  0.00000000E+00  0.00000000E+00
  0.00000000E+00  0.00000000E+00  0.00000000E+00
  0.00000000E+00  0.00000000E+00  0.00000000E+00
  0.00000000E+00  0.00000000E+00  0.00000000E+00
  0.00000000E+00  0.00000000E+00  0.00000000E+00
  0.00000000E+00  0.00000000E+00  0.00000000E+00
  0.00000000E+00  0.00000000E+00  0.00000000E+00
  0.00000000E+00  0.00000000E+00  0.00000000E+00
  0.00000000E+00  0.00000000E+00  0.00000000E+00
  0.00000000E+00  0.00000000E+00  0.00000000E+00
  0.00000000E+00  0.00000000E+00  0.00000000E+00
  0.00000000E+00  0.00000000E+00  0.00000000E+00
  0.00000000E+00  0.00000000E+00  0.00000000E+00
  0.00000000E+00  0.00000000E+00  0.00000000E+00
  0.00000000E+00  0.00000000E+00  0.00000000E+00
  0.00000000E+00  0.00000000E+00  0.00000000E+00
  0.00000000E+00  0.00000000E+00  0.00000000E+00
  0.00000000E+00  0.00000000E+00  0.00000000E+00
  0.00000000E+00  0.00000000E+00  0.00000000E+00
  0.00000000E+00  0.00000000E+00  0.00000000E+00
  0.00000000E+00  0.00000000E+00  0.00000000E+00
  0.00000000E+00  0.00000000E+00  0.00000000E+00
  0.00000000E+00  0.00000000E+00  0.00000000E+00
  0.00000000E+00  0.00000000E+00  0.00000000E+00
  0.00000000E+00  0.00000000E+00  0.00000000E+00
  0.00000000E+00  0.00000000E+00  0.00000000E+00
  0.00000000E+00  0.00000000E+00  0.00000000E+00
  0.00000000E+00  0.00000000E+00  0.00000000E+00
  0.00000000E+00  0.00000000E+00  0.00000000E+00
  0.00000000E+00  0.00000000E+00  0.00000000E+00
  0.00000000E+00  0.00000000E+00  0.00000000E+00
  0.00000000E+00  0.00000000E+00  0.00000000E+00
  0.00000000E+00  0.00000000E+00  0.00000000E+00
  0.00000000E+00  0.00000000E+00  0.00000000E+00
  0.00000000E+00  0.00000000E+00  0.00000000E+00
  0.00000000E+00  0.00000000E+00  0.00000000E+00
  0.00000000E+00  0.00000000E+00  0.00000000E+00
  0.00000000E+00  0.00000000E+00  0.00000000E+00
  0.00000000E+00  0.00000000E+00  0.00000000E+00
