Al   Sc   N                             
   1.00000000000000     
   -10.0500035253649376    0.0243366793400453   -0.0041421068314608
    -5.0926787075733637    8.7111303674489449   -0.0058987736833726
     0.0288911405094792   -0.0359510096428694   -9.9288051433427835
   Al   Sc   N 
    23    13    35
Direct
  0.1100081314253814  0.0950110210527697  0.3830502443077179
  0.2174925783453858  0.2028942570891559  0.1269974774479863
  0.7709211446199120  0.1036723974160694  0.8789043681302644
  0.8829526991410930  0.1992451644224928  0.6256402857347680
  0.5449322984487779  0.2140629751186083  0.1209632197290986
  0.2276513426214493  0.2059164301236649  0.6262656139372638
  0.8898008617715192  0.2087404945202351  0.1226163271281138
  0.5574348424779600  0.2129765253573197  0.6291654137740323
  0.2211928458270123  0.5361423889217605  0.1270397753319301
  0.4367804677666243  0.4377249684990829  0.3763469695253363
  0.5632628096838914  0.5583360163626025  0.0774844379093054
  0.2313477542909510  0.5349601957534844  0.6261080771447496
  0.8837611145003947  0.5406124292987400  0.0631002734912229
  0.4384578139619251  0.4318206398825453  0.8824105092459789
  0.5538491937426215  0.5377796121555534  0.5646552936375926
  0.1106149638632914  0.7583835249529400  0.3794112524411233
  0.7685413463669519  0.7658453375151311  0.8230026620519624
  0.8854856207427133  0.8787574024182021  0.6374181098574923
  0.4435376167554850  0.7608360400776277  0.3295284796424411
  0.5557618689504835  0.8640907019384869  0.0695264573631107
  0.1236909146131353  0.7527978536963928  0.8706415067732962
  0.4479574255890313  0.7509069438194445  0.8191682424624531
  0.5575873524838286  0.8680829103705960  0.5772539199411639
  0.4435584454484029  0.0955407194369684  0.3638309179319350
  0.1113107005368050  0.0894947706115303  0.8604190609579803
  0.7797759225016279  0.0936206595847082  0.3616767863569876
  0.4552974360164015  0.0890095923786589  0.8558078436694885
  0.1234162753413841  0.4242923177225322  0.3640354687334337
  0.7619147681699445  0.4267814226637796  0.8364831575580283
  0.8910105933571515  0.5373633147110723  0.6007753031750696
  0.1229575939987413  0.4302334250494155  0.8661675756985687
  0.7761266577498205  0.4274961951023499  0.3393942125685214
  0.2158762764700199  0.8736226366195652  0.1253686968979864
  0.2256110309352479  0.8650897231744565  0.6014261499720064
  0.7783954364360568  0.7588218312953927  0.3319318742601283
  0.8883803785429691  0.8686787797091426  0.0916166943077741
  0.2142999737526026  0.1904407008801172  0.3181265125586918
  0.1011303772446013  0.1101912622599883  0.0722269612686688
  0.8803670398769512  0.1906329371515199  0.8165747414501112
  0.7770242358099537  0.0902373165295316  0.5791652574993975
  0.5391314894670458  0.2361169729541075  0.3094443735973584
  0.4454591229522933  0.0912749311562564  0.0891314160340357
  0.2260218628922388  0.2038533852089301  0.8158927878481279
  0.1009869330814439  0.1145269807349294  0.5786592586503616
  0.9100587406840930  0.1907660623300700  0.3147370656033033
  0.7613974275407855  0.1215418630604574  0.0729122053042772
  0.5614132540184684  0.2250267637727461  0.8228545589606000
  0.4503012723554818  0.0941602201420935  0.5963741801251601
  0.2334691343479207  0.5533749451030587  0.3144347552135613
  0.1099259190029116  0.4269640063109961  0.0930049060640030
  0.8804886951957300  0.5523286525483613  0.8581575649062430
  0.7642642415008609  0.4158250939661272  0.6066694766643224
  0.5360895795577747  0.5524622744563246  0.3700678557907366
  0.2378719541245076  0.5464624694311553  0.8153072112152202
  0.1384140226862343  0.4165822482738548  0.5881057147034667
  0.8919111732770943  0.5365968198819360  0.3882597293027885
  0.7784310815087281  0.4302726522057512  0.1016413679375532
  0.5289545933898907  0.5522020697509120  0.8935959377567073
  0.4436330688784906  0.4260610026529932  0.5712852533620278
  0.2205269606285896  0.8716837811675191  0.3560159284498567
  0.1286824138958238  0.7343661575208245  0.0588275755521863
  0.8858833844745320  0.8770718536151492  0.8426926394614185
  0.7658063691534167  0.7831943221887556  0.6280449536598240
  0.5461654529344102  0.8601946636256059  0.3871260527507232
  0.4572169366484289  0.7601239425783177  0.1363242204070616
  0.2303184559060441  0.8539354252608646  0.8267521774730682
  0.0961809102780435  0.7490937777737017  0.5735209631112284
  0.9116059954194284  0.8633825022089567  0.3081348972048019
  0.7678234703009181  0.7481550055753132  0.1135945643669842
  0.5601076447725362  0.8472733689961203  0.8771265896011258
  0.4728366914807651  0.7417944589941783  0.6286874116938037
 
  0.00000000E+00  0.00000000E+00  0.00000000E+00
  0.00000000E+00  0.00000000E+00  0.00000000E+00
  0.00000000E+00  0.00000000E+00  0.00000000E+00
  0.00000000E+00  0.00000000E+00  0.00000000E+00
  0.00000000E+00  0.00000000E+00  0.00000000E+00
  0.00000000E+00  0.00000000E+00  0.00000000E+00
  0.00000000E+00  0.00000000E+00  0.00000000E+00
  0.00000000E+00  0.00000000E+00  0.00000000E+00
  0.00000000E+00  0.00000000E+00  0.00000000E+00
  0.00000000E+00  0.00000000E+00  0.00000000E+00
  0.00000000E+00  0.00000000E+00  0.00000000E+00
  0.00000000E+00  0.00000000E+00  0.00000000E+00
  0.00000000E+00  0.00000000E+00  0.00000000E+00
  0.00000000E+00  0.00000000E+00  0.00000000E+00
  0.00000000E+00  0.00000000E+00  0.00000000E+00
  0.00000000E+00  0.00000000E+00  0.00000000E+00
  0.00000000E+00  0.00000000E+00  0.00000000E+00
  0.00000000E+00  0.00000000E+00  0.00000000E+00
  0.00000000E+00  0.00000000E+00  0.00000000E+00
  0.00000000E+00  0.00000000E+00  0.00000000E+00
  0.00000000E+00  0.00000000E+00  0.00000000E+00
  0.00000000E+00  0.00000000E+00  0.00000000E+00
  0.00000000E+00  0.00000000E+00  0.00000000E+00
  0.00000000E+00  0.00000000E+00  0.00000000E+00
  0.00000000E+00  0.00000000E+00  0.00000000E+00
  0.00000000E+00  0.00000000E+00  0.00000000E+00
  0.00000000E+00  0.00000000E+00  0.00000000E+00
  0.00000000E+00  0.00000000E+00  0.00000000E+00
  0.00000000E+00  0.00000000E+00  0.00000000E+00
  0.00000000E+00  0.00000000E+00  0.00000000E+00
  0.00000000E+00  0.00000000E+00  0.00000000E+00
  0.00000000E+00  0.00000000E+00  0.00000000E+00
  0.00000000E+00  0.00000000E+00  0.00000000E+00
  0.00000000E+00  0.00000000E+00  0.00000000E+00
  0.00000000E+00  0.00000000E+00  0.00000000E+00
  0.00000000E+00  0.00000000E+00  0.00000000E+00
  0.00000000E+00  0.00000000E+00  0.00000000E+00
  0.00000000E+00  0.00000000E+00  0.00000000E+00
  0.00000000E+00  0.00000000E+00  0.00000000E+00
  0.00000000E+00  0.00000000E+00  0.00000000E+00
  0.00000000E+00  0.00000000E+00  0.00000000E+00
  0.00000000E+00  0.00000000E+00  0.00000000E+00
  0.00000000E+00  0.00000000E+00  0.00000000E+00
  0.00000000E+00  0.00000000E+00  0.00000000E+00
  0.00000000E+00  0.00000000E+00  0.00000000E+00
  0.00000000E+00  0.00000000E+00  0.00000000E+00
  0.00000000E+00  0.00000000E+00  0.00000000E+00
  0.00000000E+00  0.00000000E+00  0.00000000E+00
  0.00000000E+00  0.00000000E+00  0.00000000E+00
  0.00000000E+00  0.00000000E+00  0.00000000E+00
  0.00000000E+00  0.00000000E+00  0.00000000E+00
  0.00000000E+00  0.00000000E+00  0.00000000E+00
  0.00000000E+00  0.00000000E+00  0.00000000E+00
  0.00000000E+00  0.00000000E+00  0.00000000E+00
  0.00000000E+00  0.00000000E+00  0.00000000E+00
  0.00000000E+00  0.00000000E+00  0.00000000E+00
  0.00000000E+00  0.00000000E+00  0.00000000E+00
  0.00000000E+00  0.00000000E+00  0.00000000E+00
  0.00000000E+00  0.00000000E+00  0.00000000E+00
  0.00000000E+00  0.00000000E+00  0.00000000E+00
  0.00000000E+00  0.00000000E+00  0.00000000E+00
  0.00000000E+00  0.00000000E+00  0.00000000E+00
  0.00000000E+00  0.00000000E+00  0.00000000E+00
  0.00000000E+00  0.00000000E+00  0.00000000E+00
  0.00000000E+00  0.00000000E+00  0.00000000E+00
  0.00000000E+00  0.00000000E+00  0.00000000E+00
  0.00000000E+00  0.00000000E+00  0.00000000E+00
  0.00000000E+00  0.00000000E+00  0.00000000E+00
  0.00000000E+00  0.00000000E+00  0.00000000E+00
  0.00000000E+00  0.00000000E+00  0.00000000E+00
  0.00000000E+00  0.00000000E+00  0.00000000E+00
