Al   Sc   N                             
   1.00000000000000     
   -10.0258392378390084    0.0192836505798661   -0.0085624903109649
    -5.0577919294340399    8.7257240570693764   -0.0128138741409340
     0.0020346164432179    0.0073552697853152   -9.9109450004398205
   Al   Sc   N 
    23    13    35
Direct
  0.1086515507812038  0.0933270846184726  0.3019438693359078
  0.2200122343988298  0.2078088466762154  0.0589900826505101
  0.7775456812899435  0.0919767427710383  0.7954250855653484
  0.8907155509625042  0.2054563083604819  0.5554247793912097
  0.5514344348483675  0.2169148694620020  0.0462601456192360
  0.2251637426706310  0.2011226366488259  0.5533624366614660
  0.8797932619687003  0.2091433768701165  0.0529664469514159
  0.5505763858134500  0.2066201248815673  0.5609459901483120
  0.2304682194428267  0.5337699701601579  0.1115049893807409
  0.4343312268322492  0.4413249608385357  0.3673087864506854
  0.5560753122259499  0.5445627238256208  0.0514370811766085
  0.2217999908594166  0.5440702098713217  0.6118273850222025
  0.8866804021248953  0.5432441206696552  0.0439024286793384
  0.4478866658729928  0.4341632229881185  0.7983159792559036
  0.5591746383393286  0.5404910283044941  0.5573732183471023
  0.1171146536783212  0.7578045194009064  0.3583398086912268
  0.7753781683987597  0.7701414261849919  0.7995156837048611
  0.8864627765533086  0.8741689290954682  0.5526932286541353
  0.4427290381290732  0.7569533229409302  0.3068928564855185
  0.5633634666727190  0.8578412533723778  0.0501335368068538
  0.1160926703345666  0.7561961711087406  0.8602031712867628
  0.4503662475606873  0.7525636628993553  0.8056558505877192
  0.5541318097038541  0.8713852323127185  0.5583688708377110
  0.4443082011883206  0.0899944826562873  0.3092950968727806
  0.1081524756033190  0.0925736979723766  0.8193903180001243
  0.7707078284198516  0.1047967128237772  0.3218663224900453
  0.4538514239468228  0.0864702089885654  0.8188039927077000
  0.1168724203031033  0.4245460203984948  0.3266842275798112
  0.7692119471600236  0.4244515887171829  0.8219746269039945
  0.8895302000916843  0.5360774536640633  0.5810620420405925
  0.1229506621813314  0.4295337453581638  0.8292700781191940
  0.7728077150898613  0.4267689883422605  0.3053092422295975
  0.2287819950579504  0.8670790276592797  0.0767355099227345
  0.2274897223724608  0.8720933217278457  0.5705362960215155
  0.7727888931247975  0.7562538956761244  0.3171301656725234
  0.8804261836625003  0.8779357021617500  0.0670429743557719
  0.2155721230710341  0.1900000340075181  0.3592490914560997
  0.0967458309419342  0.1140950492802872  0.1046018253547842
  0.8768148760864989  0.1905060578798441  0.8643617299785902
  0.7778042806325942  0.0936769318083108  0.5964172034720931
  0.5337775285361062  0.2305520135400201  0.3700327677594260
  0.4520670734913708  0.0885709729347113  0.0871429436252171
  0.2264406785519242  0.2013218722404631  0.8708164065066413
  0.1032075929709322  0.1123035208796068  0.6065265164881026
  0.9062522573555611  0.1984673640609103  0.3648506808090133
  0.7580361789099186  0.1228451433257831  0.1088650372809497
  0.5613528374434011  0.2223853844830899  0.8497693781409055
  0.4450253845235395  0.0909837989361861  0.5977818042601442
  0.2343720371714326  0.5512463351216468  0.3045672898651901
  0.1107840291173616  0.4294670606192170  0.0891329084801455
  0.8819498733678799  0.5571132273886050  0.8427957971427134
  0.7667700856375816  0.4140575256875465  0.6051576041377729
  0.5363362841451362  0.5511502756642344  0.3655620057007454
  0.2325876364305586  0.5539157096041265  0.8034235269573813
  0.1372737237753370  0.4147610454788975  0.5903966215182237
  0.8882913159911539  0.5320636070497216  0.3699186991773544
  0.7777656912348050  0.4300925058278153  0.0805502455525229
  0.5326725335471352  0.5479580871295013  0.8645207865776285
  0.4462237460472025  0.4316665931897532  0.5926152968043752
  0.2210931408191286  0.8725382529273844  0.3324135527997711
  0.1213363187099148  0.7372680424654376  0.0551074611780606
  0.8840815415549130  0.8770354986752054  0.8445553960713141
  0.7675704746178482  0.7838605476834886  0.6031810354316463
  0.5401155298718621  0.8615172136362759  0.3691676177023737
  0.4677698828708898  0.7469659000271065  0.1151217387905916
  0.2343592520600950  0.8552035311440918  0.8414521980872536
  0.1067750326309849  0.7500476337910342  0.5559616333656692
  0.9000336724719133  0.8669494904540471  0.3456226497796706
  0.7726343704554921  0.7483081452272771  0.1022343343949075
  0.5665914654781190  0.8472394448679523  0.8596022449876770
  0.4689897245130084  0.7471276593658587  0.6153263243047675
 
  0.00000000E+00  0.00000000E+00  0.00000000E+00
  0.00000000E+00  0.00000000E+00  0.00000000E+00
  0.00000000E+00  0.00000000E+00  0.00000000E+00
  0.00000000E+00  0.00000000E+00  0.00000000E+00
  0.00000000E+00  0.00000000E+00  0.00000000E+00
  0.00000000E+00  0.00000000E+00  0.00000000E+00
  0.00000000E+00  0.00000000E+00  0.00000000E+00
  0.00000000E+00  0.00000000E+00  0.00000000E+00
  0.00000000E+00  0.00000000E+00  0.00000000E+00
  0.00000000E+00  0.00000000E+00  0.00000000E+00
  0.00000000E+00  0.00000000E+00  0.00000000E+00
  0.00000000E+00  0.00000000E+00  0.00000000E+00
  0.00000000E+00  0.00000000E+00  0.00000000E+00
  0.00000000E+00  0.00000000E+00  0.00000000E+00
  0.00000000E+00  0.00000000E+00  0.00000000E+00
  0.00000000E+00  0.00000000E+00  0.00000000E+00
  0.00000000E+00  0.00000000E+00  0.00000000E+00
  0.00000000E+00  0.00000000E+00  0.00000000E+00
  0.00000000E+00  0.00000000E+00  0.00000000E+00
  0.00000000E+00  0.00000000E+00  0.00000000E+00
  0.00000000E+00  0.00000000E+00  0.00000000E+00
  0.00000000E+00  0.00000000E+00  0.00000000E+00
  0.00000000E+00  0.00000000E+00  0.00000000E+00
  0.00000000E+00  0.00000000E+00  0.00000000E+00
  0.00000000E+00  0.00000000E+00  0.00000000E+00
  0.00000000E+00  0.00000000E+00  0.00000000E+00
  0.00000000E+00  0.00000000E+00  0.00000000E+00
  0.00000000E+00  0.00000000E+00  0.00000000E+00
  0.00000000E+00  0.00000000E+00  0.00000000E+00
  0.00000000E+00  0.00000000E+00  0.00000000E+00
  0.00000000E+00  0.00000000E+00  0.00000000E+00
  0.00000000E+00  0.00000000E+00  0.00000000E+00
  0.00000000E+00  0.00000000E+00  0.00000000E+00
  0.00000000E+00  0.00000000E+00  0.00000000E+00
  0.00000000E+00  0.00000000E+00  0.00000000E+00
  0.00000000E+00  0.00000000E+00  0.00000000E+00
  0.00000000E+00  0.00000000E+00  0.00000000E+00
  0.00000000E+00  0.00000000E+00  0.00000000E+00
  0.00000000E+00  0.00000000E+00  0.00000000E+00
  0.00000000E+00  0.00000000E+00  0.00000000E+00
  0.00000000E+00  0.00000000E+00  0.00000000E+00
  0.00000000E+00  0.00000000E+00  0.00000000E+00
  0.00000000E+00  0.00000000E+00  0.00000000E+00
  0.00000000E+00  0.00000000E+00  0.00000000E+00
  0.00000000E+00  0.00000000E+00  0.00000000E+00
  0.00000000E+00  0.00000000E+00  0.00000000E+00
  0.00000000E+00  0.00000000E+00  0.00000000E+00
  0.00000000E+00  0.00000000E+00  0.00000000E+00
  0.00000000E+00  0.00000000E+00  0.00000000E+00
  0.00000000E+00  0.00000000E+00  0.00000000E+00
  0.00000000E+00  0.00000000E+00  0.00000000E+00
  0.00000000E+00  0.00000000E+00  0.00000000E+00
  0.00000000E+00  0.00000000E+00  0.00000000E+00
  0.00000000E+00  0.00000000E+00  0.00000000E+00
  0.00000000E+00  0.00000000E+00  0.00000000E+00
  0.00000000E+00  0.00000000E+00  0.00000000E+00
  0.00000000E+00  0.00000000E+00  0.00000000E+00
  0.00000000E+00  0.00000000E+00  0.00000000E+00
  0.00000000E+00  0.00000000E+00  0.00000000E+00
  0.00000000E+00  0.00000000E+00  0.00000000E+00
  0.00000000E+00  0.00000000E+00  0.00000000E+00
  0.00000000E+00  0.00000000E+00  0.00000000E+00
  0.00000000E+00  0.00000000E+00  0.00000000E+00
  0.00000000E+00  0.00000000E+00  0.00000000E+00
  0.00000000E+00  0.00000000E+00  0.00000000E+00
  0.00000000E+00  0.00000000E+00  0.00000000E+00
  0.00000000E+00  0.00000000E+00  0.00000000E+00
  0.00000000E+00  0.00000000E+00  0.00000000E+00
  0.00000000E+00  0.00000000E+00  0.00000000E+00
  0.00000000E+00  0.00000000E+00  0.00000000E+00
  0.00000000E+00  0.00000000E+00  0.00000000E+00
