Al   Sc   N                             
   1.00000000000000     
    -9.9443620320450901    0.0281926587490529    0.0003190122420757
    -4.9966238367335905    8.6339470473253499   -0.0027892854789920
    -0.0003893156436535    0.0037593233670987  -10.0897498777253993
   Al   Sc   N 
    23    13    35
Direct
  0.1090774833457786  0.0944806160238443  0.4152216096133259
  0.2202980837269450  0.1998201320788056  0.1608949127080095
  0.7704487773765578  0.1033428553912472  0.9057618401131151
  0.8815746327173954  0.2041109458549215  0.6591941096878955
  0.5482897571166632  0.2113470643751612  0.1528262012251957
  0.2240007028380617  0.2085947925515583  0.6567521761821311
  0.8892791904021990  0.2086576006128880  0.1580754862228275
  0.5566464116868630  0.2107044770679707  0.6581981711862852
  0.2240122944631437  0.5392780382738067  0.1600340361427115
  0.4384650215234487  0.4401303839932211  0.4050994759331275
  0.5606919277315754  0.5517771781973195  0.1591802122337072
  0.2276419002988135  0.5345892586273493  0.6541428051521621
  0.8861903713267480  0.5377750573375764  0.1633178543195939
  0.4420551578530052  0.4333990345313907  0.8981581431876222
  0.5527740252862188  0.5356117516569014  0.6586901403665308
  0.1107904076930879  0.7589026727160331  0.4124762351874054
  0.7726687117742586  0.7580474509389390  0.9088681764125326
  0.8827778048988293  0.8754331583101518  0.6676818361154702
  0.4456673343862576  0.7572285575349582  0.4109728848545302
  0.5532751578792627  0.8666745100800668  0.1522394052316685
  0.1227895802964412  0.7527181268865561  0.8989729505864830
  0.4453431836979860  0.7537796306028071  0.9028783537384300
  0.5608223689318805  0.8664799731743358  0.6613805067843401
  0.4437495491543757  0.0914495481130686  0.4022337479034448
  0.1106336319071346  0.0888617951630337  0.8945613061577120
  0.7792130370445136  0.0930418746929149  0.3987855637623525
  0.4518679420463627  0.0897123338626429  0.8943248017564329
  0.1230942548381151  0.4234523397594216  0.3902642595326427
  0.7715287714451051  0.4290970561702849  0.9028082784766696
  0.8908111326006463  0.5404753475602533  0.6475017575703674
  0.1158115524601442  0.4336353354330029  0.9118739061200287
  0.7689954151771730  0.4239996352904285  0.3996669514417022
  0.2259542931275931  0.8679191286921650  0.1647934082864992
  0.2253176100696948  0.8660297549016178  0.6368012230990274
  0.7751541859638564  0.7685582114914951  0.3968880967819217
  0.8911822551845958  0.8712038236200286  0.1282357354890422
  0.2162359496528836  0.1875715736082384  0.3474250922990123
  0.1028612886788380  0.1062184323001816  0.1041926050064319
  0.8780188317358508  0.1971063552061096  0.8453470022325149
  0.7770515276098564  0.0913765865240492  0.6116281919005715
  0.5388276965660665  0.2337463952673744  0.3391318879657206
  0.4446446537145903  0.0926841808909273  0.1124198935610465
  0.2211324590930985  0.2096016720464533  0.8434655299205929
  0.0990571672410994  0.1156532054908723  0.6068800257471239
  0.9078360721684078  0.1920818995708515  0.3448632209641289
  0.7615474768165598  0.1218432220028731  0.0983771270683604
  0.5596259693662731  0.2220821510141491  0.8485317195655782
  0.4486228521168485  0.0912853878301192  0.6210797749066757
  0.2325650930995522  0.5551302670200400  0.3444695085156155
  0.1142950918586365  0.4255818041897044  0.1296916638693375
  0.8848688185740770  0.5523079759805611  0.8554165386675834
  0.7668251910172117  0.4176542991557071  0.6138309634784136
  0.5302118590043818  0.5535571693090020  0.3411815740464093
  0.2341778414016318  0.5439782097371477  0.8422813866407637
  0.1343284990154174  0.4175893219701123  0.6033983124249858
  0.8870143018444949  0.5379312136551064  0.3541145448660927
  0.7768063775969338  0.4283781367653319  0.1213760462675921
  0.5368641722237300  0.5455270068986380  0.8484803069354427
  0.4450739919611095  0.4294280514979150  0.5963672644453482
  0.2214382936819916  0.8712935887335789  0.3862251266742831
  0.1312737189941089  0.7364643099555437  0.0858504307945012
  0.8844710582101101  0.8746106547982322  0.8674443586707596
  0.7685215311607223  0.7836375353384071  0.6070546164555211
  0.5419400805299190  0.8612895354829888  0.3386231435058988
  0.4575414033090794  0.7536302375376422  0.0916656469239570
  0.2335375426222370  0.8524570930202131  0.8498673670046983
  0.0952320544322660  0.7493398237985147  0.6023839917003642
  0.9114076339410602  0.8635586762684397  0.3364892238117889
  0.7686215330712045  0.7496081323850703  0.1023511533049657
  0.5629943471292620  0.8492789448581348  0.8498935105506575
  0.4722490293246366  0.7452633447329546  0.5975287403581078
 
  0.00000000E+00  0.00000000E+00  0.00000000E+00
  0.00000000E+00  0.00000000E+00  0.00000000E+00
  0.00000000E+00  0.00000000E+00  0.00000000E+00
  0.00000000E+00  0.00000000E+00  0.00000000E+00
  0.00000000E+00  0.00000000E+00  0.00000000E+00
  0.00000000E+00  0.00000000E+00  0.00000000E+00
  0.00000000E+00  0.00000000E+00  0.00000000E+00
  0.00000000E+00  0.00000000E+00  0.00000000E+00
  0.00000000E+00  0.00000000E+00  0.00000000E+00
  0.00000000E+00  0.00000000E+00  0.00000000E+00
  0.00000000E+00  0.00000000E+00  0.00000000E+00
  0.00000000E+00  0.00000000E+00  0.00000000E+00
  0.00000000E+00  0.00000000E+00  0.00000000E+00
  0.00000000E+00  0.00000000E+00  0.00000000E+00
  0.00000000E+00  0.00000000E+00  0.00000000E+00
  0.00000000E+00  0.00000000E+00  0.00000000E+00
  0.00000000E+00  0.00000000E+00  0.00000000E+00
  0.00000000E+00  0.00000000E+00  0.00000000E+00
  0.00000000E+00  0.00000000E+00  0.00000000E+00
  0.00000000E+00  0.00000000E+00  0.00000000E+00
  0.00000000E+00  0.00000000E+00  0.00000000E+00
  0.00000000E+00  0.00000000E+00  0.00000000E+00
  0.00000000E+00  0.00000000E+00  0.00000000E+00
  0.00000000E+00  0.00000000E+00  0.00000000E+00
  0.00000000E+00  0.00000000E+00  0.00000000E+00
  0.00000000E+00  0.00000000E+00  0.00000000E+00
  0.00000000E+00  0.00000000E+00  0.00000000E+00
  0.00000000E+00  0.00000000E+00  0.00000000E+00
  0.00000000E+00  0.00000000E+00  0.00000000E+00
  0.00000000E+00  0.00000000E+00  0.00000000E+00
  0.00000000E+00  0.00000000E+00  0.00000000E+00
  0.00000000E+00  0.00000000E+00  0.00000000E+00
  0.00000000E+00  0.00000000E+00  0.00000000E+00
  0.00000000E+00  0.00000000E+00  0.00000000E+00
  0.00000000E+00  0.00000000E+00  0.00000000E+00
  0.00000000E+00  0.00000000E+00  0.00000000E+00
  0.00000000E+00  0.00000000E+00  0.00000000E+00
  0.00000000E+00  0.00000000E+00  0.00000000E+00
  0.00000000E+00  0.00000000E+00  0.00000000E+00
  0.00000000E+00  0.00000000E+00  0.00000000E+00
  0.00000000E+00  0.00000000E+00  0.00000000E+00
  0.00000000E+00  0.00000000E+00  0.00000000E+00
  0.00000000E+00  0.00000000E+00  0.00000000E+00
  0.00000000E+00  0.00000000E+00  0.00000000E+00
  0.00000000E+00  0.00000000E+00  0.00000000E+00
  0.00000000E+00  0.00000000E+00  0.00000000E+00
  0.00000000E+00  0.00000000E+00  0.00000000E+00
  0.00000000E+00  0.00000000E+00  0.00000000E+00
  0.00000000E+00  0.00000000E+00  0.00000000E+00
  0.00000000E+00  0.00000000E+00  0.00000000E+00
  0.00000000E+00  0.00000000E+00  0.00000000E+00
  0.00000000E+00  0.00000000E+00  0.00000000E+00
  0.00000000E+00  0.00000000E+00  0.00000000E+00
  0.00000000E+00  0.00000000E+00  0.00000000E+00
  0.00000000E+00  0.00000000E+00  0.00000000E+00
  0.00000000E+00  0.00000000E+00  0.00000000E+00
  0.00000000E+00  0.00000000E+00  0.00000000E+00
  0.00000000E+00  0.00000000E+00  0.00000000E+00
  0.00000000E+00  0.00000000E+00  0.00000000E+00
  0.00000000E+00  0.00000000E+00  0.00000000E+00
  0.00000000E+00  0.00000000E+00  0.00000000E+00
  0.00000000E+00  0.00000000E+00  0.00000000E+00
  0.00000000E+00  0.00000000E+00  0.00000000E+00
  0.00000000E+00  0.00000000E+00  0.00000000E+00
  0.00000000E+00  0.00000000E+00  0.00000000E+00
  0.00000000E+00  0.00000000E+00  0.00000000E+00
  0.00000000E+00  0.00000000E+00  0.00000000E+00
  0.00000000E+00  0.00000000E+00  0.00000000E+00
  0.00000000E+00  0.00000000E+00  0.00000000E+00
  0.00000000E+00  0.00000000E+00  0.00000000E+00
  0.00000000E+00  0.00000000E+00  0.00000000E+00
