Al   Sc   N                             
   1.00000000000000     
   -10.0489852510369673    0.0189167978236347   -0.0076122507485323
    -5.0667401363038005    8.7313757862884458   -0.0125461199985403
     0.0272817496994895    0.0380156591271135   -9.8740534803775333
   Al   Sc   N 
    23    13    35
Direct
  0.1088115205077145  0.0925710936186164  0.3025502333626093
  0.2194578977759818  0.2079513497421246  0.0599165933095449
  0.7718677583297051  0.1013873410224235  0.8008108228410933
  0.8904443817086900  0.2053183269906285  0.5559214038399531
  0.5491219493863397  0.2191614155525485  0.0479767180678152
  0.2249947476821603  0.2007471211266321  0.5532799144139062
  0.8788941676226543  0.2100492799705762  0.0546331566050569
  0.5515212194842505  0.2048400316869419  0.5605459423402195
  0.2326544456005806  0.5326016401110394  0.1138844069345453
  0.4360858553126192  0.4397914982987388  0.3702159599551322
  0.5555769241191513  0.5448219052531940  0.0521739314583485
  0.2198964231301588  0.5446410241071433  0.6072864078823983
  0.8869612415786179  0.5424339857481542  0.0460827649893218
  0.4469869780605222  0.4353265103891033  0.7955581327716672
  0.5594340463003888  0.5413554791291659  0.5565951451102720
  0.1116592369242326  0.7605529264805071  0.3570281647478666
  0.7706167610080001  0.7661231326340072  0.8044732971438222
  0.8898334464274740  0.8734454975206347  0.6146523420088883
  0.4437846929499045  0.7568401490827554  0.3080076087330923
  0.5620619559737463  0.8581126118446321  0.0518446832228108
  0.1219190021322163  0.7530561731133787  0.8590246498433913
  0.4491056060255332  0.7529971386748073  0.8048667651928767
  0.5539101152985140  0.8716783591096444  0.5576934935325895
  0.4441558466372868  0.0904846304459994  0.3091280097121114
  0.1078881760850408  0.0932775820997165  0.8203671913833972
  0.7751455568101235  0.0981024875774139  0.3219116368465649
  0.4524116340792190  0.0872713596769046  0.8198996348778280
  0.1169366853207308  0.4249415218874759  0.3275859960053324
  0.7683765480091580  0.4258657301131450  0.8226376473507884
  0.8896651174285779  0.5359342104419298  0.5805424197376823
  0.1233826060308090  0.4307303609254305  0.8305391255069452
  0.7731114230440284  0.4262788160370192  0.3067494327836968
  0.2283332209819164  0.8662474749437976  0.0785453498048980
  0.2257810063588437  0.8725104603449196  0.5698191603327984
  0.7768503588574305  0.7585013568190533  0.3178702369289539
  0.8854483883208388  0.8748985288848132  0.0759742148318736
  0.2154366502302381  0.1898205172578784  0.3585562530374418
  0.0965480822921592  0.1135824375373318  0.1041576499635326
  0.8770065307637438  0.1928084691738903  0.8652576958999632
  0.7766693984642288  0.0957617848917636  0.6000914248286549
  0.5367639255519521  0.2281058339582387  0.3694213402083761
  0.4510117187616984  0.0890535824900667  0.0865742341472426
  0.2255252389388787  0.2025615961444132  0.8705726092421173
  0.1030242911744210  0.1121876822269385  0.6065714605353563
  0.9065722122056314  0.1965912140349388  0.3648419822797493
  0.7560249608214207  0.1246943349263745  0.1055729337789515
  0.5583553833543391  0.2246627739750622  0.8500273331301003
  0.4447973759816861  0.0908701170979782  0.5979634632215962
  0.2355611102851185  0.5509890786993878  0.3080342963720852
  0.1114423202239649  0.4294182034551000  0.0897470669788945
  0.8829426011512425  0.5551665383397335  0.8440387589422613
  0.7667712594965579  0.4143570406793486  0.6046272297245565
  0.5373734716330532  0.5504732307585058  0.3646237377700388
  0.2331254565150687  0.5536674192135251  0.7985329681168949
  0.1367205102954117  0.4145319049260650  0.5887030854688788
  0.8882760175032374  0.5331005940582045  0.3688561077748531
  0.7770881692628322  0.4306087416005937  0.0814072162454380
  0.5318605311171325  0.5481321104467298  0.8639607200775572
  0.4455485008641062  0.4323705181724975  0.5894915560711027
  0.2222694550953577  0.8714265440068232  0.3338359746180117
  0.1258690136987539  0.7330958044089542  0.0495590308624756
  0.8885406938752993  0.8750158573763329  0.8243474017281045
  0.7657695697679401  0.7827248986537256  0.6057555088856930
  0.5425552431029317  0.8614445748713848  0.3676758083009588
  0.4665192440528472  0.7472026078431782  0.1151680071543879
  0.2343643649649394  0.8559069170926037  0.8387412717017639
  0.0976534660811126  0.7545939577620828  0.5545477307726046
  0.9092568012843358  0.8628112833563861  0.2995631212918468
  0.7715020929757230  0.7483304058813118  0.0985260921484326
  0.5636062309985590  0.8480315546215920  0.8604349886963192
  0.4678424780994206  0.7479105539213364  0.6138304373068664
 
  0.00000000E+00  0.00000000E+00  0.00000000E+00
  0.00000000E+00  0.00000000E+00  0.00000000E+00
  0.00000000E+00  0.00000000E+00  0.00000000E+00
  0.00000000E+00  0.00000000E+00  0.00000000E+00
  0.00000000E+00  0.00000000E+00  0.00000000E+00
  0.00000000E+00  0.00000000E+00  0.00000000E+00
  0.00000000E+00  0.00000000E+00  0.00000000E+00
  0.00000000E+00  0.00000000E+00  0.00000000E+00
  0.00000000E+00  0.00000000E+00  0.00000000E+00
  0.00000000E+00  0.00000000E+00  0.00000000E+00
  0.00000000E+00  0.00000000E+00  0.00000000E+00
  0.00000000E+00  0.00000000E+00  0.00000000E+00
  0.00000000E+00  0.00000000E+00  0.00000000E+00
  0.00000000E+00  0.00000000E+00  0.00000000E+00
  0.00000000E+00  0.00000000E+00  0.00000000E+00
  0.00000000E+00  0.00000000E+00  0.00000000E+00
  0.00000000E+00  0.00000000E+00  0.00000000E+00
  0.00000000E+00  0.00000000E+00  0.00000000E+00
  0.00000000E+00  0.00000000E+00  0.00000000E+00
  0.00000000E+00  0.00000000E+00  0.00000000E+00
  0.00000000E+00  0.00000000E+00  0.00000000E+00
  0.00000000E+00  0.00000000E+00  0.00000000E+00
  0.00000000E+00  0.00000000E+00  0.00000000E+00
  0.00000000E+00  0.00000000E+00  0.00000000E+00
  0.00000000E+00  0.00000000E+00  0.00000000E+00
  0.00000000E+00  0.00000000E+00  0.00000000E+00
  0.00000000E+00  0.00000000E+00  0.00000000E+00
  0.00000000E+00  0.00000000E+00  0.00000000E+00
  0.00000000E+00  0.00000000E+00  0.00000000E+00
  0.00000000E+00  0.00000000E+00  0.00000000E+00
  0.00000000E+00  0.00000000E+00  0.00000000E+00
  0.00000000E+00  0.00000000E+00  0.00000000E+00
  0.00000000E+00  0.00000000E+00  0.00000000E+00
  0.00000000E+00  0.00000000E+00  0.00000000E+00
  0.00000000E+00  0.00000000E+00  0.00000000E+00
  0.00000000E+00  0.00000000E+00  0.00000000E+00
  0.00000000E+00  0.00000000E+00  0.00000000E+00
  0.00000000E+00  0.00000000E+00  0.00000000E+00
  0.00000000E+00  0.00000000E+00  0.00000000E+00
  0.00000000E+00  0.00000000E+00  0.00000000E+00
  0.00000000E+00  0.00000000E+00  0.00000000E+00
  0.00000000E+00  0.00000000E+00  0.00000000E+00
  0.00000000E+00  0.00000000E+00  0.00000000E+00
  0.00000000E+00  0.00000000E+00  0.00000000E+00
  0.00000000E+00  0.00000000E+00  0.00000000E+00
  0.00000000E+00  0.00000000E+00  0.00000000E+00
  0.00000000E+00  0.00000000E+00  0.00000000E+00
  0.00000000E+00  0.00000000E+00  0.00000000E+00
  0.00000000E+00  0.00000000E+00  0.00000000E+00
  0.00000000E+00  0.00000000E+00  0.00000000E+00
  0.00000000E+00  0.00000000E+00  0.00000000E+00
  0.00000000E+00  0.00000000E+00  0.00000000E+00
  0.00000000E+00  0.00000000E+00  0.00000000E+00
  0.00000000E+00  0.00000000E+00  0.00000000E+00
  0.00000000E+00  0.00000000E+00  0.00000000E+00
  0.00000000E+00  0.00000000E+00  0.00000000E+00
  0.00000000E+00  0.00000000E+00  0.00000000E+00
  0.00000000E+00  0.00000000E+00  0.00000000E+00
  0.00000000E+00  0.00000000E+00  0.00000000E+00
  0.00000000E+00  0.00000000E+00  0.00000000E+00
  0.00000000E+00  0.00000000E+00  0.00000000E+00
  0.00000000E+00  0.00000000E+00  0.00000000E+00
  0.00000000E+00  0.00000000E+00  0.00000000E+00
  0.00000000E+00  0.00000000E+00  0.00000000E+00
  0.00000000E+00  0.00000000E+00  0.00000000E+00
  0.00000000E+00  0.00000000E+00  0.00000000E+00
  0.00000000E+00  0.00000000E+00  0.00000000E+00
  0.00000000E+00  0.00000000E+00  0.00000000E+00
  0.00000000E+00  0.00000000E+00  0.00000000E+00
  0.00000000E+00  0.00000000E+00  0.00000000E+00
  0.00000000E+00  0.00000000E+00  0.00000000E+00
