Al   Sc   N                             
   1.00000000000000     
    -9.9450183672889736    0.0279870579573819    0.0000776064522887
    -4.9975575468909632    8.6341940534037711   -0.0029530590901463
    -0.0001144423993436    0.0034912322817076  -10.0891076238964086
   Al   Sc   N 
    23    13    35
Direct
  0.1090584185048940  0.0945148088654122  0.4101157935179032
  0.2203388869926002  0.1997635434196496  0.1557956098429685
  0.7704389452845746  0.1034048268091468  0.9007440770011570
  0.8816071707854007  0.2041269981756528  0.6541381498975554
  0.5482262862978828  0.2112782884292557  0.1477363395508817
  0.2239520742549956  0.2086849998191980  0.6516843161848627
  0.8892575512202114  0.2087182814506221  0.1529603096256906
  0.5566876257624500  0.2107424210873532  0.6531346826232252
  0.2241138643434439  0.5392442316101906  0.1549433927051140
  0.4385135881791271  0.4400931884470651  0.3999877098878457
  0.5607806361813701  0.5517490974427588  0.1540267572604961
  0.2276711983724056  0.5346226678242658  0.6490136692053170
  0.8862054417066858  0.5377838801565815  0.1582281663570129
  0.4420458156913369  0.4334417349291613  0.8931048632580527
  0.5527903772412870  0.5356332854570525  0.6536250416621527
  0.1107934176335448  0.7589268897157382  0.4073981960827737
  0.7726595581614504  0.7581087757524259  0.9038014846300868
  0.8827691516936156  0.8755038396674806  0.6625846177087169
  0.4456655744836979  0.7572083531513556  0.4058359247426466
  0.5532359148991333  0.8666958912974749  0.1471298302527160
  0.1227863228895245  0.7527638971980437  0.8938496739837518
  0.4453445601439157  0.7537900375922888  0.8978038455050239
  0.5608696695606525  0.8664318151318398  0.6563005292141924
  0.4437267949344417  0.0914129285166041  0.3972868747105665
  0.1106497849243198  0.0889108112788293  0.8894952548324895
  0.7791915680477928  0.0930829356157972  0.3936228912902706
  0.4518526722100518  0.0897296863523138  0.8891044911196104
  0.1231316964499527  0.4234500707958517  0.3850726606398709
  0.7715848813458592  0.4291796381696216  0.8975910774770952
  0.8908936057794108  0.5405501206525827  0.6423832390113446
  0.1158348878274182  0.4337346435783829  0.9068528654024846
  0.7690128021085911  0.4240542303753472  0.3946693986883929
  0.2259500449418894  0.8678894032535638  0.1596691349433286
  0.2253440202261459  0.8660704140708901  0.6317160942677589
  0.7751297511809696  0.7686059325224406  0.3917383711086657
  0.8911982076836864  0.8712039225537538  0.1231334221290510
  0.2162596077072934  0.1875456733462926  0.3423512237177988
  0.1028574689190336  0.1062017510357691  0.0991463041743472
  0.8780260280687031  0.1971189673242932  0.8403233924382576
  0.7770648827955284  0.0914438518885845  0.6065213647744940
  0.5387421769413692  0.2336908093202510  0.3340750070536558
  0.4446249590866387  0.0926440264391601  0.1072357664031145
  0.2210572485820634  0.2097301697570231  0.8384180455877086
  0.0990680906737325  0.1156949878185998  0.6018134658632661
  0.9077967395120936  0.1921715844187162  0.3397886686093372
  0.7615133543032968  0.1218695591928736  0.0933848056726205
  0.5596335655712394  0.2221242622125885  0.8434905081120121
  0.4486255017053153  0.0913001946130905  0.6161531504054665
  0.2326111469964758  0.5551536772302228  0.3394083506892045
  0.1143383189397511  0.4255703415895198  0.1246891725130581
  0.8849413805923945  0.5523993616859642  0.8503253061305287
  0.7668868653888765  0.4177073952368744  0.6088750707954276
  0.5302716375351295  0.5534958243161796  0.3360575307440499
  0.2342020753181728  0.5440175937427725  0.8371632717410691
  0.1343892992954849  0.4176183664803972  0.5982407652509849
  0.8870231938091706  0.5379435714590031  0.3490547108157145
  0.7768695327345227  0.4283998751629952  0.1161864079106962
  0.5368689887589824  0.5455369085607060  0.8434304975176659
  0.4451353178863258  0.4294354189785068  0.5912770122640225
  0.2214230499374636  0.8713115239614595  0.3811284719989487
  0.1312835731437900  0.7364230331521071  0.0807495785505381
  0.8844324578969562  0.8746890384005255  0.8623887570239575
  0.7685306218667662  0.7837075900378920  0.6019379932140154
  0.5419029571392571  0.8613040728942423  0.3335418835582189
  0.4575479146189778  0.7536148005264636  0.0865975778665629
  0.2335329774833141  0.8525114292802058  0.8448134529437539
  0.0952472558084949  0.7494033225097922  0.5973295917948960
  0.9114239571388012  0.8635753150227998  0.3314092515760620
  0.7686183229916423  0.7496346668309712  0.0973128132573038
  0.5630088781141183  0.8492506228929244  0.8448240845425374
  0.4722774654992250  0.7452497725122811  0.5924207523318827
 
  0.00000000E+00  0.00000000E+00  0.00000000E+00
  0.00000000E+00  0.00000000E+00  0.00000000E+00
  0.00000000E+00  0.00000000E+00  0.00000000E+00
  0.00000000E+00  0.00000000E+00  0.00000000E+00
  0.00000000E+00  0.00000000E+00  0.00000000E+00
  0.00000000E+00  0.00000000E+00  0.00000000E+00
  0.00000000E+00  0.00000000E+00  0.00000000E+00
  0.00000000E+00  0.00000000E+00  0.00000000E+00
  0.00000000E+00  0.00000000E+00  0.00000000E+00
  0.00000000E+00  0.00000000E+00  0.00000000E+00
  0.00000000E+00  0.00000000E+00  0.00000000E+00
  0.00000000E+00  0.00000000E+00  0.00000000E+00
  0.00000000E+00  0.00000000E+00  0.00000000E+00
  0.00000000E+00  0.00000000E+00  0.00000000E+00
  0.00000000E+00  0.00000000E+00  0.00000000E+00
  0.00000000E+00  0.00000000E+00  0.00000000E+00
  0.00000000E+00  0.00000000E+00  0.00000000E+00
  0.00000000E+00  0.00000000E+00  0.00000000E+00
  0.00000000E+00  0.00000000E+00  0.00000000E+00
  0.00000000E+00  0.00000000E+00  0.00000000E+00
  0.00000000E+00  0.00000000E+00  0.00000000E+00
  0.00000000E+00  0.00000000E+00  0.00000000E+00
  0.00000000E+00  0.00000000E+00  0.00000000E+00
  0.00000000E+00  0.00000000E+00  0.00000000E+00
  0.00000000E+00  0.00000000E+00  0.00000000E+00
  0.00000000E+00  0.00000000E+00  0.00000000E+00
  0.00000000E+00  0.00000000E+00  0.00000000E+00
  0.00000000E+00  0.00000000E+00  0.00000000E+00
  0.00000000E+00  0.00000000E+00  0.00000000E+00
  0.00000000E+00  0.00000000E+00  0.00000000E+00
  0.00000000E+00  0.00000000E+00  0.00000000E+00
  0.00000000E+00  0.00000000E+00  0.00000000E+00
  0.00000000E+00  0.00000000E+00  0.00000000E+00
  0.00000000E+00  0.00000000E+00  0.00000000E+00
  0.00000000E+00  0.00000000E+00  0.00000000E+00
  0.00000000E+00  0.00000000E+00  0.00000000E+00
  0.00000000E+00  0.00000000E+00  0.00000000E+00
  0.00000000E+00  0.00000000E+00  0.00000000E+00
  0.00000000E+00  0.00000000E+00  0.00000000E+00
  0.00000000E+00  0.00000000E+00  0.00000000E+00
  0.00000000E+00  0.00000000E+00  0.00000000E+00
  0.00000000E+00  0.00000000E+00  0.00000000E+00
  0.00000000E+00  0.00000000E+00  0.00000000E+00
  0.00000000E+00  0.00000000E+00  0.00000000E+00
  0.00000000E+00  0.00000000E+00  0.00000000E+00
  0.00000000E+00  0.00000000E+00  0.00000000E+00
  0.00000000E+00  0.00000000E+00  0.00000000E+00
  0.00000000E+00  0.00000000E+00  0.00000000E+00
  0.00000000E+00  0.00000000E+00  0.00000000E+00
  0.00000000E+00  0.00000000E+00  0.00000000E+00
  0.00000000E+00  0.00000000E+00  0.00000000E+00
  0.00000000E+00  0.00000000E+00  0.00000000E+00
  0.00000000E+00  0.00000000E+00  0.00000000E+00
  0.00000000E+00  0.00000000E+00  0.00000000E+00
  0.00000000E+00  0.00000000E+00  0.00000000E+00
  0.00000000E+00  0.00000000E+00  0.00000000E+00
  0.00000000E+00  0.00000000E+00  0.00000000E+00
  0.00000000E+00  0.00000000E+00  0.00000000E+00
  0.00000000E+00  0.00000000E+00  0.00000000E+00
  0.00000000E+00  0.00000000E+00  0.00000000E+00
  0.00000000E+00  0.00000000E+00  0.00000000E+00
  0.00000000E+00  0.00000000E+00  0.00000000E+00
  0.00000000E+00  0.00000000E+00  0.00000000E+00
  0.00000000E+00  0.00000000E+00  0.00000000E+00
  0.00000000E+00  0.00000000E+00  0.00000000E+00
  0.00000000E+00  0.00000000E+00  0.00000000E+00
  0.00000000E+00  0.00000000E+00  0.00000000E+00
  0.00000000E+00  0.00000000E+00  0.00000000E+00
  0.00000000E+00  0.00000000E+00  0.00000000E+00
  0.00000000E+00  0.00000000E+00  0.00000000E+00
  0.00000000E+00  0.00000000E+00  0.00000000E+00
