Al   Sc   N                             
   1.00000000000000     
   -10.1252984125220262    0.0199256429032710   -0.0102254095452220
    -5.0784193009042538    8.7769116274154264   -0.0132824438901230
    -0.0289353668365979    0.0086383182235684   -9.6533929851693259
   Al   Sc   N 
    23    13    35
Direct
  0.1107273226149701  0.0930180953812467  0.3035413830768121
  0.2210255207188325  0.2076705228592033  0.0609779669107056
  0.7764922764048805  0.0929534980528572  0.7971679592475454
  0.8926709495325653  0.2045774378745904  0.5586275481670029
  0.5588738414951706  0.2092999606766242  0.0543431575895426
  0.2254669960374684  0.2011352024905335  0.5544967357823651
  0.8803462542922915  0.2096466743231318  0.0568580139897250
  0.5450312100654173  0.2180119076082789  0.5600769196837518
  0.2140758171391610  0.5424709794235199  0.0793341965238525
  0.4429058742867582  0.4371510226719835  0.2976562408331702
  0.5615062699091240  0.5462579880366150  0.0603891088841237
  0.2318073151241151  0.5341476393106959  0.5746679324172845
  0.8844420561688224  0.5425201238120110  0.0447768901082739
  0.4448936907131298  0.4344487762790266  0.8112120310689619
  0.5507937695770906  0.5361201937123994  0.5537663598084279
  0.1168969785124929  0.7595583166286985  0.3488284687323429
  0.7744744615835089  0.7692597055381896  0.8008818231895845
  0.8885897036111530  0.8714505451851977  0.5580005609544259
  0.4426204693178661  0.7583569241746488  0.3101365517578785
  0.5633513924552105  0.8587488023070122  0.0525640032139449
  0.1140369573349034  0.7576100678213962  0.8620658840869808
  0.4509027486962793  0.7499349709331824  0.8076626537057834
  0.5531762282737418  0.8701740492479217  0.5614577684914863
  0.4457599517408184  0.0910863077023478  0.3169919268635084
  0.1086154205381504  0.0928397003214911  0.8262100685446043
  0.7732652488805343  0.1036419679546370  0.3309760268816433
  0.4554394048902566  0.0881025951946484  0.8208944322515350
  0.1169443183074748  0.4256796484336007  0.3186340756970836
  0.7654479826893024  0.4246060952454087  0.8209026120933629
  0.8899126992848139  0.5356841311609060  0.5836806860073906
  0.1229575610997671  0.4281827070045807  0.8256046863978170
  0.7750978624786455  0.4257893830405024  0.3160018094708690
  0.2295177159471748  0.8682175008772717  0.0805769524769389
  0.2258603106476045  0.8701684326338537  0.5778191207558478
  0.7732702008398746  0.7567125012228502  0.3231406203553391
  0.8762323699812953  0.8811937058931392  0.0724252331086035
  0.2159404420257260  0.1916144937704871  0.3548002707177034
  0.0983274215811107  0.1135829527194403  0.0996581374774621
  0.8766157389414460  0.1914219423753707  0.8617125055464641
  0.7761326806844124  0.0950107434241048  0.5935110867653677
  0.5331597113195130  0.2381775212710693  0.3643287203448295
  0.4534290270084469  0.0891017021606899  0.0882812805852495
  0.2290710121304542  0.2008180878952075  0.8674835397264005
  0.1039087872974065  0.1130407404065323  0.6070537376242413
  0.9101759184325573  0.1957226039609026  0.3631003591994073
  0.7621260529339011  0.1213577277767115  0.1120462378997402
  0.5641566691263833  0.2207880991033306  0.8562544886021968
  0.4458445547167713  0.0934446572586864  0.5925734845098276
  0.2322777821434627  0.5513483531895318  0.3048011752614315
  0.1050506007942502  0.4295661543943012  0.0860415854426719
  0.8806897323548526  0.5550640509404801  0.8375154709978148
  0.7625574181520989  0.4160342151796144  0.5957113594011432
  0.5331298686940613  0.5491440140361306  0.3562326951125740
  0.2395685194450081  0.5418963269165431  0.8661038797896836
  0.1399773957875965  0.4153073969120413  0.5911738031780231
  0.8918105623374970  0.5318880768599357  0.3682119626826150
  0.7799097761742289  0.4292200916288920  0.0839426142221882
  0.5334837992299697  0.5474445018178571  0.8701623617705323
  0.4428648254866800  0.4331374409905209  0.6124351594968900
  0.2220569741891794  0.8731673898969916  0.3334954921469091
  0.1105609057413588  0.7539486667897179  0.0684486139397578
  0.8847563613796794  0.8754894217900855  0.8408663476491185
  0.7667802087384956  0.7825842352869898  0.5991115554083422
  0.5408037384626638  0.8614315167227105  0.3675990952089379
  0.4666170619206014  0.7508221905849837  0.1136735341576056
  0.2335394804086164  0.8529835507627155  0.8362162750518110
  0.1080950530849023  0.7455569543533045  0.5628211731933064
  0.9018907808362258  0.8659210853773445  0.3459663723941588
  0.7717051097929186  0.7480290590313459  0.1008636519615891
  0.5652259538572295  0.8483852121364137  0.8557609409775111
  0.4676324595655714  0.7440076354895879  0.6114574608825549
 
  0.00000000E+00  0.00000000E+00  0.00000000E+00
  0.00000000E+00  0.00000000E+00  0.00000000E+00
  0.00000000E+00  0.00000000E+00  0.00000000E+00
  0.00000000E+00  0.00000000E+00  0.00000000E+00
  0.00000000E+00  0.00000000E+00  0.00000000E+00
  0.00000000E+00  0.00000000E+00  0.00000000E+00
  0.00000000E+00  0.00000000E+00  0.00000000E+00
  0.00000000E+00  0.00000000E+00  0.00000000E+00
  0.00000000E+00  0.00000000E+00  0.00000000E+00
  0.00000000E+00  0.00000000E+00  0.00000000E+00
  0.00000000E+00  0.00000000E+00  0.00000000E+00
  0.00000000E+00  0.00000000E+00  0.00000000E+00
  0.00000000E+00  0.00000000E+00  0.00000000E+00
  0.00000000E+00  0.00000000E+00  0.00000000E+00
  0.00000000E+00  0.00000000E+00  0.00000000E+00
  0.00000000E+00  0.00000000E+00  0.00000000E+00
  0.00000000E+00  0.00000000E+00  0.00000000E+00
  0.00000000E+00  0.00000000E+00  0.00000000E+00
  0.00000000E+00  0.00000000E+00  0.00000000E+00
  0.00000000E+00  0.00000000E+00  0.00000000E+00
  0.00000000E+00  0.00000000E+00  0.00000000E+00
  0.00000000E+00  0.00000000E+00  0.00000000E+00
  0.00000000E+00  0.00000000E+00  0.00000000E+00
  0.00000000E+00  0.00000000E+00  0.00000000E+00
  0.00000000E+00  0.00000000E+00  0.00000000E+00
  0.00000000E+00  0.00000000E+00  0.00000000E+00
  0.00000000E+00  0.00000000E+00  0.00000000E+00
  0.00000000E+00  0.00000000E+00  0.00000000E+00
  0.00000000E+00  0.00000000E+00  0.00000000E+00
  0.00000000E+00  0.00000000E+00  0.00000000E+00
  0.00000000E+00  0.00000000E+00  0.00000000E+00
  0.00000000E+00  0.00000000E+00  0.00000000E+00
  0.00000000E+00  0.00000000E+00  0.00000000E+00
  0.00000000E+00  0.00000000E+00  0.00000000E+00
  0.00000000E+00  0.00000000E+00  0.00000000E+00
  0.00000000E+00  0.00000000E+00  0.00000000E+00
  0.00000000E+00  0.00000000E+00  0.00000000E+00
  0.00000000E+00  0.00000000E+00  0.00000000E+00
  0.00000000E+00  0.00000000E+00  0.00000000E+00
  0.00000000E+00  0.00000000E+00  0.00000000E+00
  0.00000000E+00  0.00000000E+00  0.00000000E+00
  0.00000000E+00  0.00000000E+00  0.00000000E+00
  0.00000000E+00  0.00000000E+00  0.00000000E+00
  0.00000000E+00  0.00000000E+00  0.00000000E+00
  0.00000000E+00  0.00000000E+00  0.00000000E+00
  0.00000000E+00  0.00000000E+00  0.00000000E+00
  0.00000000E+00  0.00000000E+00  0.00000000E+00
  0.00000000E+00  0.00000000E+00  0.00000000E+00
  0.00000000E+00  0.00000000E+00  0.00000000E+00
  0.00000000E+00  0.00000000E+00  0.00000000E+00
  0.00000000E+00  0.00000000E+00  0.00000000E+00
  0.00000000E+00  0.00000000E+00  0.00000000E+00
  0.00000000E+00  0.00000000E+00  0.00000000E+00
  0.00000000E+00  0.00000000E+00  0.00000000E+00
  0.00000000E+00  0.00000000E+00  0.00000000E+00
  0.00000000E+00  0.00000000E+00  0.00000000E+00
  0.00000000E+00  0.00000000E+00  0.00000000E+00
  0.00000000E+00  0.00000000E+00  0.00000000E+00
  0.00000000E+00  0.00000000E+00  0.00000000E+00
  0.00000000E+00  0.00000000E+00  0.00000000E+00
  0.00000000E+00  0.00000000E+00  0.00000000E+00
  0.00000000E+00  0.00000000E+00  0.00000000E+00
  0.00000000E+00  0.00000000E+00  0.00000000E+00
  0.00000000E+00  0.00000000E+00  0.00000000E+00
  0.00000000E+00  0.00000000E+00  0.00000000E+00
  0.00000000E+00  0.00000000E+00  0.00000000E+00
  0.00000000E+00  0.00000000E+00  0.00000000E+00
  0.00000000E+00  0.00000000E+00  0.00000000E+00
  0.00000000E+00  0.00000000E+00  0.00000000E+00
  0.00000000E+00  0.00000000E+00  0.00000000E+00
  0.00000000E+00  0.00000000E+00  0.00000000E+00
