Al   Sc   N                             
   1.00000000000000     
    -9.9771742492819904    0.0275244561761219   -0.0004655565747321
    -5.0203398269971826    8.6585138147032641   -0.0033215497152435
     0.0054664651444290   -0.0108523782695626  -10.0064413846876530
   Al   Sc   N 
    23    13    35
Direct
  0.1092389441307304  0.0943700537100796  0.4002888268597360
  0.2200775798168806  0.1998816032760971  0.1447955256790863
  0.7701429688850610  0.1037642015092572  0.8911989358175134
  0.8810626676721895  0.2039540018571628  0.6437971427585438
  0.5480779755870486  0.2116875255027679  0.1370004873592023
  0.2243045554072083  0.2085841014541074  0.6414864103480937
  0.8897010896635464  0.2089515052226858  0.1422971338282579
  0.5566624535101283  0.2110886444405438  0.6429571947075345
  0.2237873204303469  0.5393774952067432  0.1444183962475236
  0.4384600815038340  0.4402989314255947  0.3900097546709986
  0.5611083951225808  0.5519313085981494  0.1430365110415863
  0.2280900795140894  0.5345762069021660  0.6394623981766330
  0.8867312296241465  0.5370904482426013  0.1486890055674550
  0.4422575784902563  0.4333256278232369  0.8857917912119362
  0.5522295287528252  0.5355638896913391  0.6443856156655769
  0.1108642581018202  0.7588278374870612  0.3971037206854291
  0.7724968387550319  0.7579604553918315  0.8939054405339348
  0.8822533543003388  0.8758154287154767  0.6522183731798066
  0.4455575845267958  0.7568770114674948  0.3955808797467668
  0.5530821635102967  0.8665925588082075  0.1369658918859358
  0.1232789526647267  0.7524849800842333  0.8835420575179143
  0.4455586231636062  0.7539135497323386  0.8876937032213377
  0.5609448162981465  0.8663960281289036  0.6454555617897668
  0.4439327173894725  0.0914838117451993  0.3855339269458824
  0.1104701136501944  0.0893739749480744  0.8774685949545997
  0.7790696473958647  0.0933485071984634  0.3815472000397193
  0.4522653439040880  0.0896207469455206  0.8782825002271295
  0.1239815215362654  0.4229673737739787  0.3749637850407836
  0.7720462278323552  0.4294969068483638  0.8854308460218618
  0.8902546487910499  0.5415233114735400  0.6296379290843106
  0.1153860601281238  0.4341253393011471  0.8947668184011732
  0.7685771756355635  0.4239089424894331  0.3842708321393076
  0.2256675214150619  0.8686099298680929  0.1479295399261105
  0.2254221125987073  0.8656356785243631  0.6215052736061750
  0.7751743682306582  0.7690106886632790  0.3793171509977071
  0.8916324406816472  0.8710483916448482  0.1118573578945998
  0.2160962805047149  0.1874909018651039  0.3331928094246095
  0.1026896765021306  0.1067778137441096  0.0888540282283046
  0.8775940297099254  0.1969988102491200  0.8315046591869049
  0.7767319074237520  0.0915764329623343  0.5964401543435400
  0.5382117644190245  0.2344746291939259  0.3245577470000072
  0.4450052673192531  0.0924101927803136  0.0983976466828977
  0.2217435004566113  0.2093753944397676  0.8297588124900841
  0.0992346264396957  0.1152783939936626  0.5938059184315492
  0.9081324497009220  0.1923095373071391  0.3308455809440360
  0.7618506483847511  0.1217350040724270  0.0853553788570807
  0.5595770085224103  0.2224046889938194  0.8350229963162192
  0.4487306614845323  0.0914521443238030  0.6065615032605436
  0.2327636881346251  0.5548433594105902  0.3302693027897163
  0.1142007175761606  0.4256866317902848  0.1148389424556413
  0.8845494391713657  0.5532100093021768  0.8395874980525448
  0.7664017689748874  0.4177789507080476  0.6006540885170679
  0.5300866346319353  0.5531959429001887  0.3263071319361330
  0.2351096513606237  0.5437224829374898  0.8288530132535286
  0.1345816962800583  0.4177305589959914  0.5901081705713338
  0.8876439722621541  0.5371675827096567  0.3421531616894455
  0.7772625868730074  0.4285431853282589  0.1066168675780332
  0.5366004581478236  0.5453696477153898  0.8356837491588109
  0.4450945387657299  0.4295704107722784  0.5823031317382714
  0.2214025355523219  0.8711674574027413  0.3713178359300500
  0.1312945248709170  0.7365142802921625  0.0717007043270641
  0.8839065380024991  0.8749332740126334  0.8536120585326117
  0.7680663007546968  0.7846154246518395  0.5912744525209490
  0.5415633502858697  0.8610651373275147  0.3247572299655204
  0.4577192148086127  0.7538773710125781  0.0775565703513408
  0.2336558329259404  0.8524882448157740  0.8363720929959513
  0.0952870257937448  0.7493444069204287  0.5887478082359365
  0.9119169682407815  0.8636146872142518  0.3217153797894525
  0.7690160441221252  0.7492786149841137  0.0895585617937940
  0.5631373350890883  0.8491756948069309  0.8356824044959694
  0.4720581817787632  0.7448752780942201  0.5837174463061885
 
  0.00000000E+00  0.00000000E+00  0.00000000E+00
  0.00000000E+00  0.00000000E+00  0.00000000E+00
  0.00000000E+00  0.00000000E+00  0.00000000E+00
  0.00000000E+00  0.00000000E+00  0.00000000E+00
  0.00000000E+00  0.00000000E+00  0.00000000E+00
  0.00000000E+00  0.00000000E+00  0.00000000E+00
  0.00000000E+00  0.00000000E+00  0.00000000E+00
  0.00000000E+00  0.00000000E+00  0.00000000E+00
  0.00000000E+00  0.00000000E+00  0.00000000E+00
  0.00000000E+00  0.00000000E+00  0.00000000E+00
  0.00000000E+00  0.00000000E+00  0.00000000E+00
  0.00000000E+00  0.00000000E+00  0.00000000E+00
  0.00000000E+00  0.00000000E+00  0.00000000E+00
  0.00000000E+00  0.00000000E+00  0.00000000E+00
  0.00000000E+00  0.00000000E+00  0.00000000E+00
  0.00000000E+00  0.00000000E+00  0.00000000E+00
  0.00000000E+00  0.00000000E+00  0.00000000E+00
  0.00000000E+00  0.00000000E+00  0.00000000E+00
  0.00000000E+00  0.00000000E+00  0.00000000E+00
  0.00000000E+00  0.00000000E+00  0.00000000E+00
  0.00000000E+00  0.00000000E+00  0.00000000E+00
  0.00000000E+00  0.00000000E+00  0.00000000E+00
  0.00000000E+00  0.00000000E+00  0.00000000E+00
  0.00000000E+00  0.00000000E+00  0.00000000E+00
  0.00000000E+00  0.00000000E+00  0.00000000E+00
  0.00000000E+00  0.00000000E+00  0.00000000E+00
  0.00000000E+00  0.00000000E+00  0.00000000E+00
  0.00000000E+00  0.00000000E+00  0.00000000E+00
  0.00000000E+00  0.00000000E+00  0.00000000E+00
  0.00000000E+00  0.00000000E+00  0.00000000E+00
  0.00000000E+00  0.00000000E+00  0.00000000E+00
  0.00000000E+00  0.00000000E+00  0.00000000E+00
  0.00000000E+00  0.00000000E+00  0.00000000E+00
  0.00000000E+00  0.00000000E+00  0.00000000E+00
  0.00000000E+00  0.00000000E+00  0.00000000E+00
  0.00000000E+00  0.00000000E+00  0.00000000E+00
  0.00000000E+00  0.00000000E+00  0.00000000E+00
  0.00000000E+00  0.00000000E+00  0.00000000E+00
  0.00000000E+00  0.00000000E+00  0.00000000E+00
  0.00000000E+00  0.00000000E+00  0.00000000E+00
  0.00000000E+00  0.00000000E+00  0.00000000E+00
  0.00000000E+00  0.00000000E+00  0.00000000E+00
  0.00000000E+00  0.00000000E+00  0.00000000E+00
  0.00000000E+00  0.00000000E+00  0.00000000E+00
  0.00000000E+00  0.00000000E+00  0.00000000E+00
  0.00000000E+00  0.00000000E+00  0.00000000E+00
  0.00000000E+00  0.00000000E+00  0.00000000E+00
  0.00000000E+00  0.00000000E+00  0.00000000E+00
  0.00000000E+00  0.00000000E+00  0.00000000E+00
  0.00000000E+00  0.00000000E+00  0.00000000E+00
  0.00000000E+00  0.00000000E+00  0.00000000E+00
  0.00000000E+00  0.00000000E+00  0.00000000E+00
  0.00000000E+00  0.00000000E+00  0.00000000E+00
  0.00000000E+00  0.00000000E+00  0.00000000E+00
  0.00000000E+00  0.00000000E+00  0.00000000E+00
  0.00000000E+00  0.00000000E+00  0.00000000E+00
  0.00000000E+00  0.00000000E+00  0.00000000E+00
  0.00000000E+00  0.00000000E+00  0.00000000E+00
  0.00000000E+00  0.00000000E+00  0.00000000E+00
  0.00000000E+00  0.00000000E+00  0.00000000E+00
  0.00000000E+00  0.00000000E+00  0.00000000E+00
  0.00000000E+00  0.00000000E+00  0.00000000E+00
  0.00000000E+00  0.00000000E+00  0.00000000E+00
  0.00000000E+00  0.00000000E+00  0.00000000E+00
  0.00000000E+00  0.00000000E+00  0.00000000E+00
  0.00000000E+00  0.00000000E+00  0.00000000E+00
  0.00000000E+00  0.00000000E+00  0.00000000E+00
  0.00000000E+00  0.00000000E+00  0.00000000E+00
  0.00000000E+00  0.00000000E+00  0.00000000E+00
  0.00000000E+00  0.00000000E+00  0.00000000E+00
  0.00000000E+00  0.00000000E+00  0.00000000E+00
