Al   Sc   N                             
   1.00000000000000     
   -10.1393494265494173    0.0198747860166262   -0.0065270334581602
    -5.0951171856479833    8.7945815232456450   -0.0110854251183864
     0.0561365329708128    0.0123611400601375   -9.6373225891090311
   Al   Sc   N 
    23    13    35
Direct
  0.1095964409563805  0.0907724474891154  0.3133146950900709
  0.2213132603308807  0.2074658776506624  0.0771843543275139
  0.7738272645911977  0.1003220364329636  0.8079915467186538
  0.8945924798839187  0.2035054438832375  0.5684029265000987
  0.5410348491265964  0.2247954617225432  0.1117578378075592
  0.2229476594575814  0.2003227543246240  0.5681429876314397
  0.8763873334485908  0.2098396924516024  0.0697377246745958
  0.5510696501378405  0.2086815719242736  0.5904955045838491
  0.2262983718782081  0.5347016032966820  0.1248088480107796
  0.4339613009437713  0.4414916639354090  0.3822321016498051
  0.5595605331757199  0.5463735304563571  0.0694182447693734
  0.2193218381849604  0.5445526604503641  0.6166923674747480
  0.8860309249125322  0.5426920076741126  0.0601892830042132
  0.4468310612421433  0.4361517139629782  0.8054422817736793
  0.5573833829486858  0.5432142491436238  0.5651172206549191
  0.1126269765671637  0.7606132692043985  0.3687068909910565
  0.7708682842875518  0.7664176863271166  0.8187720865315526
  0.8909651358954989  0.8712518579682609  0.6216372480787840
  0.4432140973559058  0.7569727899076710  0.3201118208661455
  0.5620082059759213  0.8606647697328214  0.0673869331146477
  0.1214231889304074  0.7527572512789718  0.8667537159898373
  0.4498064647409521  0.7526760524571188  0.8204173682674281
  0.5542688603704420  0.8687580200116614  0.5724810971684562
  0.4430330819904214  0.0872990705729393  0.3379971894333238
  0.1084643364834861  0.0943548761832886  0.8411918899710500
  0.7785492174648923  0.0944899995835087  0.3464516070773271
  0.4553663617677657  0.0902791364324713  0.8349452366126329
  0.1174023980735726  0.4249097046981660  0.3438555559958871
  0.7662886983915556  0.4246403416032081  0.8345457753584853
  0.8899232807939157  0.5353636342476804  0.5963758241676587
  0.1238720293408093  0.4300741185489301  0.8457269175468483
  0.7747526108105305  0.4248750094393543  0.3252735292191318
  0.2283174609908940  0.8638624441348526  0.0916478170415118
  0.2252785863814566  0.8724302139194080  0.5894271261968669
  0.7782421013979146  0.7581581056744398  0.3345869501089282
  0.8839103692256032  0.8772341762675779  0.0879460157751950
  0.2124669881081900  0.1905214396709383  0.3667515284931326
  0.0972761497048609  0.1111450697645964  0.1097245758710343
  0.8760715041500120  0.1929323844993149  0.8747771060810123
  0.7844924395354482  0.0905473070507838  0.6004070465322258
  0.5356746179028633  0.2310243384190187  0.3698893580569376
  0.4512197132334563  0.0901363180443582  0.1052478558903758
  0.2291552740992771  0.2024362777421302  0.8819347214417945
  0.1032608374167836  0.1126943565049743  0.6207984562409408
  0.9095777063360444  0.1947972622263947  0.3724264433031195
  0.7542215323835393  0.1249812131157810  0.1191617330482089
  0.5606582977204724  0.2233208717535788  0.8143659787834210
  0.4432167575024124  0.0888974059526646  0.6013636132474005
  0.2333891607764400  0.5520131783314568  0.3219349304410457
  0.1094905658590548  0.4302691996562089  0.1003183954304205
  0.8822282239105377  0.5535796529264374  0.8518721828280178
  0.7650554752303904  0.4143922736868220  0.6092909109232281
  0.5364787407985645  0.5498843086167469  0.3671076767130188
  0.2348260901245141  0.5506140807493907  0.8135314847295660
  0.1366784201513696  0.4144776594730573  0.5983666565837424
  0.8898737453195338  0.5329457957609876  0.3789206056902330
  0.7780787150350932  0.4303617580088002  0.0941809137931386
  0.5314622726694793  0.5472915439713546  0.8774207680629189
  0.4401918732565591  0.4402968831950673  0.5930031368747137
  0.2226312585812735  0.8707452239593323  0.3444440901388646
  0.1238637894570331  0.7343851423685166  0.0622518244349450
  0.8881644812159237  0.8753624049504083  0.8351491487111815
  0.7665440832910093  0.7818664389689474  0.6137030179896072
  0.5452756522916289  0.8560884328510454  0.3776152388376488
  0.4650405067248329  0.7503195892389769  0.1227414724918816
  0.2337918885397912  0.8554178094606968  0.8461586445803988
  0.0992449664211748  0.7540961056298556  0.5706774447040956
  0.9100537119593639  0.8617659875486865  0.3159458114190201
  0.7718956779619432  0.7495046499358935  0.1079677478939303
  0.5632263147829519  0.8505209195206618  0.8701482328791172
  0.4679996456092326  0.7465862532697898  0.6245078482195652
 
  0.00000000E+00  0.00000000E+00  0.00000000E+00
  0.00000000E+00  0.00000000E+00  0.00000000E+00
  0.00000000E+00  0.00000000E+00  0.00000000E+00
  0.00000000E+00  0.00000000E+00  0.00000000E+00
  0.00000000E+00  0.00000000E+00  0.00000000E+00
  0.00000000E+00  0.00000000E+00  0.00000000E+00
  0.00000000E+00  0.00000000E+00  0.00000000E+00
  0.00000000E+00  0.00000000E+00  0.00000000E+00
  0.00000000E+00  0.00000000E+00  0.00000000E+00
  0.00000000E+00  0.00000000E+00  0.00000000E+00
  0.00000000E+00  0.00000000E+00  0.00000000E+00
  0.00000000E+00  0.00000000E+00  0.00000000E+00
  0.00000000E+00  0.00000000E+00  0.00000000E+00
  0.00000000E+00  0.00000000E+00  0.00000000E+00
  0.00000000E+00  0.00000000E+00  0.00000000E+00
  0.00000000E+00  0.00000000E+00  0.00000000E+00
  0.00000000E+00  0.00000000E+00  0.00000000E+00
  0.00000000E+00  0.00000000E+00  0.00000000E+00
  0.00000000E+00  0.00000000E+00  0.00000000E+00
  0.00000000E+00  0.00000000E+00  0.00000000E+00
  0.00000000E+00  0.00000000E+00  0.00000000E+00
  0.00000000E+00  0.00000000E+00  0.00000000E+00
  0.00000000E+00  0.00000000E+00  0.00000000E+00
  0.00000000E+00  0.00000000E+00  0.00000000E+00
  0.00000000E+00  0.00000000E+00  0.00000000E+00
  0.00000000E+00  0.00000000E+00  0.00000000E+00
  0.00000000E+00  0.00000000E+00  0.00000000E+00
  0.00000000E+00  0.00000000E+00  0.00000000E+00
  0.00000000E+00  0.00000000E+00  0.00000000E+00
  0.00000000E+00  0.00000000E+00  0.00000000E+00
  0.00000000E+00  0.00000000E+00  0.00000000E+00
  0.00000000E+00  0.00000000E+00  0.00000000E+00
  0.00000000E+00  0.00000000E+00  0.00000000E+00
  0.00000000E+00  0.00000000E+00  0.00000000E+00
  0.00000000E+00  0.00000000E+00  0.00000000E+00
  0.00000000E+00  0.00000000E+00  0.00000000E+00
  0.00000000E+00  0.00000000E+00  0.00000000E+00
  0.00000000E+00  0.00000000E+00  0.00000000E+00
  0.00000000E+00  0.00000000E+00  0.00000000E+00
  0.00000000E+00  0.00000000E+00  0.00000000E+00
  0.00000000E+00  0.00000000E+00  0.00000000E+00
  0.00000000E+00  0.00000000E+00  0.00000000E+00
  0.00000000E+00  0.00000000E+00  0.00000000E+00
  0.00000000E+00  0.00000000E+00  0.00000000E+00
  0.00000000E+00  0.00000000E+00  0.00000000E+00
  0.00000000E+00  0.00000000E+00  0.00000000E+00
  0.00000000E+00  0.00000000E+00  0.00000000E+00
  0.00000000E+00  0.00000000E+00  0.00000000E+00
  0.00000000E+00  0.00000000E+00  0.00000000E+00
  0.00000000E+00  0.00000000E+00  0.00000000E+00
  0.00000000E+00  0.00000000E+00  0.00000000E+00
  0.00000000E+00  0.00000000E+00  0.00000000E+00
  0.00000000E+00  0.00000000E+00  0.00000000E+00
  0.00000000E+00  0.00000000E+00  0.00000000E+00
  0.00000000E+00  0.00000000E+00  0.00000000E+00
  0.00000000E+00  0.00000000E+00  0.00000000E+00
  0.00000000E+00  0.00000000E+00  0.00000000E+00
  0.00000000E+00  0.00000000E+00  0.00000000E+00
  0.00000000E+00  0.00000000E+00  0.00000000E+00
  0.00000000E+00  0.00000000E+00  0.00000000E+00
  0.00000000E+00  0.00000000E+00  0.00000000E+00
  0.00000000E+00  0.00000000E+00  0.00000000E+00
  0.00000000E+00  0.00000000E+00  0.00000000E+00
  0.00000000E+00  0.00000000E+00  0.00000000E+00
  0.00000000E+00  0.00000000E+00  0.00000000E+00
  0.00000000E+00  0.00000000E+00  0.00000000E+00
  0.00000000E+00  0.00000000E+00  0.00000000E+00
  0.00000000E+00  0.00000000E+00  0.00000000E+00
  0.00000000E+00  0.00000000E+00  0.00000000E+00
  0.00000000E+00  0.00000000E+00  0.00000000E+00
  0.00000000E+00  0.00000000E+00  0.00000000E+00
