Al   Sc   N                             
   1.00000000000000     
   -10.1053191547527756    0.0193559612115775   -0.0068043505077764
    -5.0874929147763561    8.7705638708235334   -0.0116885241224578
     0.0316935883964978    0.0290510299556735   -9.7177956108998451
   Al   Sc   N 
    23    13    35
Direct
  0.1094950188471842  0.0914058080293643  0.3143498405454466
  0.2204881604581388  0.2076042911632143  0.0745705630343778
  0.7717605450506113  0.1011130151931781  0.8132423128550172
  0.8919652226228720  0.2043450256450612  0.5692353717721588
  0.5489590674481164  0.2194613042746809  0.0627725497001705
  0.2243544076644142  0.2003607271635488  0.5666957033837221
  0.8779056613345091  0.2101221171183383  0.0685066712870039
  0.5507326629378184  0.2065977606430351  0.5744428734741334
  0.2307441329784510  0.5333774473209090  0.1247561601083049
  0.4359194093879211  0.4397984392583467  0.3798104983130060
  0.5566880441184807  0.5449846181226974  0.0679839586368587
  0.2202552597377334  0.5438524914059428  0.6183643211471548
  0.8862292331031369  0.5425431628981698  0.0601220580092132
  0.4464131285768573  0.4357242389957037  0.8091115238504969
  0.5580903786128744  0.5417543650228325  0.5677801419619826
  0.1121180647486497  0.7607962825498191  0.3693581157643138
  0.7706286100585231  0.7662461897745700  0.8178239821083508
  0.8893804159414387  0.8732843463193447  0.6242419178767520
  0.4434484266363370  0.7573303626993209  0.3207636325945273
  0.5622149422928757  0.8589000333591486  0.0657153740535463
  0.1214172639400957  0.7529872725259779  0.8686841166666639
  0.4495782884393691  0.7524345887755217  0.8187038451239346
  0.5538285449769944  0.8707955195410761  0.5709474228377402
  0.4445729279522865  0.0902277014731609  0.3256191450705899
  0.1077502059818443  0.0938384298205222  0.8379740528112762
  0.7754023695407213  0.0975537725341979  0.3378241523088121
  0.4527608421382894  0.0875317005148730  0.8333940727610454
  0.1175456368077192  0.4249525911170764  0.3424227965480640
  0.7670911392586959  0.4259498723224979  0.8349398720038153
  0.8902747354428584  0.5355995162261848  0.5952244458029199
  0.1232637045874085  0.4305854380833196  0.8454133220336999
  0.7741867077374991  0.4254930607426246  0.3239203485750295
  0.2284685371982960  0.8645824889449827  0.0920564510275739
  0.2252210954726124  0.8724119281643752  0.5874943709012754
  0.7775285215260226  0.7588075422125016  0.3337212550941899
  0.8852460558347488  0.8752105945521080  0.0881892597443041
  0.2149767212230671  0.1896411407561303  0.3676789750988618
  0.0971614244462486  0.1120059583040387  0.1120213003897916
  0.8759796445284422  0.1937883167235270  0.8752681188821327
  0.7770278699381947  0.0952562700784867  0.6093211909951677
  0.5366608439882654  0.2292770495104008  0.3798104124771342
  0.4515956820141085  0.0893029562716947  0.0990442162003120
  0.2267178388169171  0.2026850284737449  0.8814369028738795
  0.1030420524725741  0.1125802687841500  0.6197222887027394
  0.9081851347028902  0.1948570703958836  0.3748241736341242
  0.7561684441406626  0.1238157058624694  0.1171113731564475
  0.5585078986414018  0.2246525903324965  0.8595342968575892
  0.4447349415218511  0.0908123542094330  0.6071761237101256
  0.2346091200593463  0.5514139373160205  0.3218321826045880
  0.1107411460400556  0.4298881157516092  0.1005430705262782
  0.8824783757287591  0.5544591813923532  0.8533358045810004
  0.7660182795987041  0.4147404073312089  0.6120099669127939
  0.5364584925029448  0.5502301467850117  0.3722206319246482
  0.2336698763341616  0.5518192947179870  0.8132614007801138
  0.1370954891413945  0.4143696862340818  0.5987499183702738
  0.8894446419403153  0.5331570152767995  0.3796719571299860
  0.7774977080995953  0.4304378139717713  0.0945270145191230
  0.5318763227564745  0.5478344775410235  0.8765325105878006
  0.4447000410679891  0.4337964295078862  0.6008633881092038
  0.2224178986484162  0.8709981880871922  0.3451167400904538
  0.1247024594738946  0.7340842628284392  0.0625212013130891
  0.8877046381575724  0.8752998804325358  0.8364635952327788
  0.7660794625432601  0.7825234699068417  0.6147869555739547
  0.5431850467867037  0.8604007102723941  0.3778974511374642
  0.4657338143178293  0.7487655118333834  0.1248889864320617
  0.2338438020155209  0.8554068050609303  0.8469709893667527
  0.0983279124097862  0.7544227930722656  0.5699315266127059
  0.9091488913736825  0.8631006418592904  0.3154504914844054
  0.7717377706344521  0.7489322542974151  0.1094428334512827
  0.5635001014301082  0.8485372304448475  0.8707107888951100
  0.4678580196286504  0.7473277716841054  0.6244178431422682
 
  0.00000000E+00  0.00000000E+00  0.00000000E+00
  0.00000000E+00  0.00000000E+00  0.00000000E+00
  0.00000000E+00  0.00000000E+00  0.00000000E+00
  0.00000000E+00  0.00000000E+00  0.00000000E+00
  0.00000000E+00  0.00000000E+00  0.00000000E+00
  0.00000000E+00  0.00000000E+00  0.00000000E+00
  0.00000000E+00  0.00000000E+00  0.00000000E+00
  0.00000000E+00  0.00000000E+00  0.00000000E+00
  0.00000000E+00  0.00000000E+00  0.00000000E+00
  0.00000000E+00  0.00000000E+00  0.00000000E+00
  0.00000000E+00  0.00000000E+00  0.00000000E+00
  0.00000000E+00  0.00000000E+00  0.00000000E+00
  0.00000000E+00  0.00000000E+00  0.00000000E+00
  0.00000000E+00  0.00000000E+00  0.00000000E+00
  0.00000000E+00  0.00000000E+00  0.00000000E+00
  0.00000000E+00  0.00000000E+00  0.00000000E+00
  0.00000000E+00  0.00000000E+00  0.00000000E+00
  0.00000000E+00  0.00000000E+00  0.00000000E+00
  0.00000000E+00  0.00000000E+00  0.00000000E+00
  0.00000000E+00  0.00000000E+00  0.00000000E+00
  0.00000000E+00  0.00000000E+00  0.00000000E+00
  0.00000000E+00  0.00000000E+00  0.00000000E+00
  0.00000000E+00  0.00000000E+00  0.00000000E+00
  0.00000000E+00  0.00000000E+00  0.00000000E+00
  0.00000000E+00  0.00000000E+00  0.00000000E+00
  0.00000000E+00  0.00000000E+00  0.00000000E+00
  0.00000000E+00  0.00000000E+00  0.00000000E+00
  0.00000000E+00  0.00000000E+00  0.00000000E+00
  0.00000000E+00  0.00000000E+00  0.00000000E+00
  0.00000000E+00  0.00000000E+00  0.00000000E+00
  0.00000000E+00  0.00000000E+00  0.00000000E+00
  0.00000000E+00  0.00000000E+00  0.00000000E+00
  0.00000000E+00  0.00000000E+00  0.00000000E+00
  0.00000000E+00  0.00000000E+00  0.00000000E+00
  0.00000000E+00  0.00000000E+00  0.00000000E+00
  0.00000000E+00  0.00000000E+00  0.00000000E+00
  0.00000000E+00  0.00000000E+00  0.00000000E+00
  0.00000000E+00  0.00000000E+00  0.00000000E+00
  0.00000000E+00  0.00000000E+00  0.00000000E+00
  0.00000000E+00  0.00000000E+00  0.00000000E+00
  0.00000000E+00  0.00000000E+00  0.00000000E+00
  0.00000000E+00  0.00000000E+00  0.00000000E+00
  0.00000000E+00  0.00000000E+00  0.00000000E+00
  0.00000000E+00  0.00000000E+00  0.00000000E+00
  0.00000000E+00  0.00000000E+00  0.00000000E+00
  0.00000000E+00  0.00000000E+00  0.00000000E+00
  0.00000000E+00  0.00000000E+00  0.00000000E+00
  0.00000000E+00  0.00000000E+00  0.00000000E+00
  0.00000000E+00  0.00000000E+00  0.00000000E+00
  0.00000000E+00  0.00000000E+00  0.00000000E+00
  0.00000000E+00  0.00000000E+00  0.00000000E+00
  0.00000000E+00  0.00000000E+00  0.00000000E+00
  0.00000000E+00  0.00000000E+00  0.00000000E+00
  0.00000000E+00  0.00000000E+00  0.00000000E+00
  0.00000000E+00  0.00000000E+00  0.00000000E+00
  0.00000000E+00  0.00000000E+00  0.00000000E+00
  0.00000000E+00  0.00000000E+00  0.00000000E+00
  0.00000000E+00  0.00000000E+00  0.00000000E+00
  0.00000000E+00  0.00000000E+00  0.00000000E+00
  0.00000000E+00  0.00000000E+00  0.00000000E+00
  0.00000000E+00  0.00000000E+00  0.00000000E+00
  0.00000000E+00  0.00000000E+00  0.00000000E+00
  0.00000000E+00  0.00000000E+00  0.00000000E+00
  0.00000000E+00  0.00000000E+00  0.00000000E+00
  0.00000000E+00  0.00000000E+00  0.00000000E+00
  0.00000000E+00  0.00000000E+00  0.00000000E+00
  0.00000000E+00  0.00000000E+00  0.00000000E+00
  0.00000000E+00  0.00000000E+00  0.00000000E+00
  0.00000000E+00  0.00000000E+00  0.00000000E+00
  0.00000000E+00  0.00000000E+00  0.00000000E+00
  0.00000000E+00  0.00000000E+00  0.00000000E+00
