Al   Sc   N                             
   1.00000000000000     
   -10.0979722686404916    0.0267534532073552   -0.0013708282864335
    -5.1098749031131527    8.7524680318966315   -0.0039357007570722
     0.0136256111873707   -0.0793931306093963   -9.7454174180884348
   Al   Sc   N 
    23    13    35
Direct
  0.1098328632131640  0.0936683147121613  0.3987205229180333
  0.2188569537087020  0.2003684122174434  0.1395829639930071
  0.7701921635120712  0.1046802177210679  0.8909879315379428
  0.8796426194611868  0.2042328763867616  0.6418168853899502
  0.5486645314043130  0.2119458710775461  0.1324288816544552
  0.2241216741417063  0.2095002463885081  0.6382790699165568
  0.8904643458407193  0.2092224173494017  0.1400427759006462
  0.5572598090637229  0.2122227450035084  0.6412598406791403
  0.2238004043874469  0.5387722450554975  0.1419107376938555
  0.4389492765519947  0.4391712649306712  0.3901417187728384
  0.5613919071260511  0.5523163552639119  0.1436215444465745
  0.2290048949017987  0.5341908859602924  0.6390518885522738
  0.8893320504781315  0.5340627365519950  0.1484180664842967
  0.4420025817263493  0.4329438449779062  0.8923792371870576
  0.5517518133140626  0.5317302907268200  0.6462872549293195
  0.1111259844666606  0.7580877709006231  0.3949483598644505
  0.7783479310738528  0.7563102071540229  0.8885152629169184
  0.8816328522221824  0.8760579285174401  0.6502360888807317
  0.4401531238353726  0.7544142323181831  0.3931731316414044
  0.5551672564936680  0.8656708178118819  0.0839096442095482
  0.1237684828905330  0.7511297128523111  0.8820018740925661
  0.4449611199124561  0.7536280190441147  0.8718556231890062
  0.5566239392695849  0.8707679026373754  0.5895686915595348
  0.4426967478961217  0.0950619022248418  0.3705496354203177
  0.1089595999794426  0.0925178899348964  0.8713263279307739
  0.7786225569545167  0.0943880894510585  0.3762428129618911
  0.4537944176013795  0.0899165717536974  0.8643631580737292
  0.1257087819051534  0.4220969185518086  0.3733249200020481
  0.7727053990413850  0.4301395598098949  0.8821835984326185
  0.8883457139599571  0.5433271024826638  0.6231848727655134
  0.1156395541417865  0.4342891055859539  0.8882003154867633
  0.7699275870010425  0.4224074961625917  0.3819748082100674
  0.2226761946358593  0.8713305839675769  0.1382092608626806
  0.2213453622593136  0.8665781971096749  0.6208231247887142
  0.7776899125956049  0.7679635285890143  0.3679137485766830
  0.8930771853041293  0.8710158591628030  0.1094847512390658
  0.2138621707291506  0.1883732079884695  0.3341816584058321
  0.1008792235104394  0.1102881965093019  0.0875019740295926
  0.8762428930144566  0.1977909626891901  0.8346283115141588
  0.7765031930653166  0.0915927379816281  0.5973273467536941
  0.5386285894581491  0.2368143111378558  0.3242304379429513
  0.4463719004006634  0.0911779647704449  0.1031345984531029
  0.2228166773001092  0.2087737348307783  0.8323191941875763
  0.0992307839374433  0.1153590286157069  0.5978338418337614
  0.9090893484338025  0.1914970501634699  0.3338425867659325
  0.7635349224755430  0.1208127887032120  0.0896531079531897
  0.5602964839592701  0.2234221402072407  0.8394043886251410
  0.4483297388804033  0.0954693694392930  0.6084798637917075
  0.2340110890408411  0.5532032191369041  0.3326752329556442
  0.1148236921208010  0.4252329216080071  0.1147431156961005
  0.8846268572678611  0.5527523515106836  0.8404000181037290
  0.7651590538169870  0.4178655148835162  0.6046646127793309
  0.5317718763859958  0.5496084883439636  0.3321935127401758
  0.2372902939506787  0.5428946470633420  0.8326467761725240
  0.1341822358259677  0.4188449818518762  0.5947882288405424
  0.8901975231814276  0.5345172425257587  0.3497052119429753
  0.7775801474287221  0.4288904544461758  0.1103358759055482
  0.5370019536724513  0.5426077192351357  0.8438417124479756
  0.4451884474953616  0.4281823912281340  0.5856542885692306
  0.2198110233267840  0.8706657636713899  0.3710478033184117
  0.1298749225829283  0.7354803343458087  0.0742379264925788
  0.8839945240762859  0.8753658387760410  0.8558446023174469
  0.7700813575906267  0.7836678463131932  0.5950915535289312
  0.5417341733690577  0.8621828561695750  0.3812565635771747
  0.4551867225684987  0.7548672494968400  0.0943345590153797
  0.2306142670180762  0.8544604082278440  0.8434006686994238
  0.0957846784444172  0.7485559764779026  0.5923379952398733
  0.9130371835722997  0.8648792940686931  0.3242438056619079
  0.7738401024994772  0.7471898147183609  0.1008825764395738
  0.5637642008425843  0.8504923023293927  0.8757115325562950
  0.4651859211019058  0.7436123461422000  0.6027825378158482
 
  0.00000000E+00  0.00000000E+00  0.00000000E+00
  0.00000000E+00  0.00000000E+00  0.00000000E+00
  0.00000000E+00  0.00000000E+00  0.00000000E+00
  0.00000000E+00  0.00000000E+00  0.00000000E+00
  0.00000000E+00  0.00000000E+00  0.00000000E+00
  0.00000000E+00  0.00000000E+00  0.00000000E+00
  0.00000000E+00  0.00000000E+00  0.00000000E+00
  0.00000000E+00  0.00000000E+00  0.00000000E+00
  0.00000000E+00  0.00000000E+00  0.00000000E+00
  0.00000000E+00  0.00000000E+00  0.00000000E+00
  0.00000000E+00  0.00000000E+00  0.00000000E+00
  0.00000000E+00  0.00000000E+00  0.00000000E+00
  0.00000000E+00  0.00000000E+00  0.00000000E+00
  0.00000000E+00  0.00000000E+00  0.00000000E+00
  0.00000000E+00  0.00000000E+00  0.00000000E+00
  0.00000000E+00  0.00000000E+00  0.00000000E+00
  0.00000000E+00  0.00000000E+00  0.00000000E+00
  0.00000000E+00  0.00000000E+00  0.00000000E+00
  0.00000000E+00  0.00000000E+00  0.00000000E+00
  0.00000000E+00  0.00000000E+00  0.00000000E+00
  0.00000000E+00  0.00000000E+00  0.00000000E+00
  0.00000000E+00  0.00000000E+00  0.00000000E+00
  0.00000000E+00  0.00000000E+00  0.00000000E+00
  0.00000000E+00  0.00000000E+00  0.00000000E+00
  0.00000000E+00  0.00000000E+00  0.00000000E+00
  0.00000000E+00  0.00000000E+00  0.00000000E+00
  0.00000000E+00  0.00000000E+00  0.00000000E+00
  0.00000000E+00  0.00000000E+00  0.00000000E+00
  0.00000000E+00  0.00000000E+00  0.00000000E+00
  0.00000000E+00  0.00000000E+00  0.00000000E+00
  0.00000000E+00  0.00000000E+00  0.00000000E+00
  0.00000000E+00  0.00000000E+00  0.00000000E+00
  0.00000000E+00  0.00000000E+00  0.00000000E+00
  0.00000000E+00  0.00000000E+00  0.00000000E+00
  0.00000000E+00  0.00000000E+00  0.00000000E+00
  0.00000000E+00  0.00000000E+00  0.00000000E+00
  0.00000000E+00  0.00000000E+00  0.00000000E+00
  0.00000000E+00  0.00000000E+00  0.00000000E+00
  0.00000000E+00  0.00000000E+00  0.00000000E+00
  0.00000000E+00  0.00000000E+00  0.00000000E+00
  0.00000000E+00  0.00000000E+00  0.00000000E+00
  0.00000000E+00  0.00000000E+00  0.00000000E+00
  0.00000000E+00  0.00000000E+00  0.00000000E+00
  0.00000000E+00  0.00000000E+00  0.00000000E+00
  0.00000000E+00  0.00000000E+00  0.00000000E+00
  0.00000000E+00  0.00000000E+00  0.00000000E+00
  0.00000000E+00  0.00000000E+00  0.00000000E+00
  0.00000000E+00  0.00000000E+00  0.00000000E+00
  0.00000000E+00  0.00000000E+00  0.00000000E+00
  0.00000000E+00  0.00000000E+00  0.00000000E+00
  0.00000000E+00  0.00000000E+00  0.00000000E+00
  0.00000000E+00  0.00000000E+00  0.00000000E+00
  0.00000000E+00  0.00000000E+00  0.00000000E+00
  0.00000000E+00  0.00000000E+00  0.00000000E+00
  0.00000000E+00  0.00000000E+00  0.00000000E+00
  0.00000000E+00  0.00000000E+00  0.00000000E+00
  0.00000000E+00  0.00000000E+00  0.00000000E+00
  0.00000000E+00  0.00000000E+00  0.00000000E+00
  0.00000000E+00  0.00000000E+00  0.00000000E+00
  0.00000000E+00  0.00000000E+00  0.00000000E+00
  0.00000000E+00  0.00000000E+00  0.00000000E+00
  0.00000000E+00  0.00000000E+00  0.00000000E+00
  0.00000000E+00  0.00000000E+00  0.00000000E+00
  0.00000000E+00  0.00000000E+00  0.00000000E+00
  0.00000000E+00  0.00000000E+00  0.00000000E+00
  0.00000000E+00  0.00000000E+00  0.00000000E+00
  0.00000000E+00  0.00000000E+00  0.00000000E+00
  0.00000000E+00  0.00000000E+00  0.00000000E+00
  0.00000000E+00  0.00000000E+00  0.00000000E+00
  0.00000000E+00  0.00000000E+00  0.00000000E+00
  0.00000000E+00  0.00000000E+00  0.00000000E+00
