Al   Sc   N                             
   1.00000000000000     
   -10.0948846263035659    0.0261880510302596   -0.0020346942083478
    -5.1173794628185485    8.7574909399271945   -0.0043860781877466
    -0.0153910372666777   -0.1122494952059188   -9.7487684567082891
   Al   Sc   N 
    23    13    35
Direct
  0.1100462891267568  0.0927667859308485  0.3968751804443329
  0.2193308804156189  0.1997693557284421  0.1397498373399202
  0.7695232651166037  0.1056712843129759  0.8921753570739881
  0.8794618102981246  0.2035667912658212  0.6411193633820744
  0.5479697120388209  0.2108975756280174  0.1343760986546485
  0.2253672335993215  0.2096134528876732  0.6385080658486899
  0.8903668359808918  0.2096154200511009  0.1399197665367709
  0.5570346071303760  0.2117979663440792  0.6418763427620604
  0.2232111391103757  0.5386302455803644  0.1428681726600729
  0.4389095579969009  0.4396623441681839  0.3910163944497569
  0.5618680318486540  0.5469982174706303  0.1378496555091928
  0.2292887130818357  0.5344158799051755  0.6386624174079074
  0.8884780556141294  0.5346733609753969  0.1515095510596893
  0.4406319957879816  0.4327283819592438  0.8947085755823352
  0.5534395264778311  0.5293302754982108  0.6492600710828853
  0.1120673392712845  0.7589613023504995  0.3925898523721543
  0.7752246016372908  0.7617209440316515  0.8594891658480108
  0.8835635281234318  0.8785558345342039  0.6477086851707838
  0.4386343094430671  0.7612880419286512  0.3372839340453382
  0.5589282680406882  0.8622504850921331  0.0828809645322508
  0.1228285984318447  0.7511758505927233  0.8807874373302909
  0.4481481037718211  0.7555406175144057  0.8368253597960589
  0.5546923309737721  0.8685282690271521  0.5890561103047176
  0.4431836921207761  0.0931365172948588  0.3724973739408028
  0.1079811831102049  0.0943382969596982  0.8677815801316058
  0.7782072221478202  0.0949686348291365  0.3746936300689043
  0.4526389079682573  0.0908166876883740  0.8669814736034169
  0.1274428540867873  0.4206298875006595  0.3727409583096133
  0.7746424237315210  0.4301666014158556  0.8830563968745935
  0.8906842992957280  0.5395175891835748  0.6203710025754745
  0.1142487000631149  0.4363668462707082  0.8900870924846984
  0.7675187191077555  0.4231367403329358  0.3822805373937683
  0.2176831039103675  0.8739186327248163  0.1226119523596552
  0.2267112302651881  0.8645620105243736  0.6145126404364021
  0.7774333909114333  0.7669221066652057  0.3674994286824216
  0.8893684279403118  0.8685022114331176  0.1091101568063024
  0.2150355108561541  0.1867642368246720  0.3339666901599543
  0.0994402313975016  0.1131392256087054  0.0847319794325543
  0.8751811758225685  0.1981880331580328  0.8337901678341240
  0.7759908960971842  0.0922659994801052  0.5957177515679604
  0.5368397247274643  0.2363456912424766  0.3260437613781448
  0.4469727014267448  0.0904287209301771  0.1042651523352305
  0.2223216025229604  0.2108810210679621  0.8324846411883442
  0.1006453171206019  0.1138888694459084  0.5977937746293165
  0.9089102754039899  0.1921887368599968  0.3335711052572208
  0.7630857955735593  0.1206113537853852  0.0907215068780403
  0.5597164449630085  0.2233857516201638  0.8400209167459920
  0.4490137026733407  0.0946008000055443  0.6101001480875823
  0.2340833846191330  0.5532536315438321  0.3330943586911346
  0.1144238969720845  0.4250021459015727  0.1166403754356082
  0.8848407460090826  0.5532804637682034  0.8386790267406568
  0.7648323589088761  0.4170369523066739  0.6055411761248806
  0.5328318145558129  0.5456446180240775  0.3300585975951051
  0.2370138861018205  0.5431441606701739  0.8317876394641033
  0.1362473223619602  0.4179896815231032  0.5935916409732513
  0.8910167903453967  0.5330575577247672  0.3557725558355997
  0.7791768529704797  0.4284196561412017  0.1100518080445738
  0.5375054937373136  0.5422416391366554  0.8547593597168373
  0.4459400043511081  0.4286886194189137  0.5870508335753613
  0.2195946273632643  0.8712083945550049  0.3673074985161975
  0.1267974909609251  0.7338173584121250  0.0731491617250768
  0.8838135502085152  0.8775068785151490  0.8542169879336612
  0.7688205163012327  0.7836632035269702  0.6094114154110599
  0.5414255838566575  0.8591911711473301  0.3926197603904100
  0.4557639102482867  0.7608902993057569  0.1336585607368974
  0.2307188042757744  0.8552753530447106  0.8502864529235552
  0.0978252860509201  0.7495482081532714  0.5916587409406091
  0.9121933860072460  0.8648391274551344  0.3263367872495095
  0.7720513379418250  0.7471098201707846  0.1166371175019947
  0.5628499250899708  0.8495645372508562  0.8849330437773020
  0.4690983124893222  0.7453249598877889  0.6373993218918912
 
  0.00000000E+00  0.00000000E+00  0.00000000E+00
  0.00000000E+00  0.00000000E+00  0.00000000E+00
  0.00000000E+00  0.00000000E+00  0.00000000E+00
  0.00000000E+00  0.00000000E+00  0.00000000E+00
  0.00000000E+00  0.00000000E+00  0.00000000E+00
  0.00000000E+00  0.00000000E+00  0.00000000E+00
  0.00000000E+00  0.00000000E+00  0.00000000E+00
  0.00000000E+00  0.00000000E+00  0.00000000E+00
  0.00000000E+00  0.00000000E+00  0.00000000E+00
  0.00000000E+00  0.00000000E+00  0.00000000E+00
  0.00000000E+00  0.00000000E+00  0.00000000E+00
  0.00000000E+00  0.00000000E+00  0.00000000E+00
  0.00000000E+00  0.00000000E+00  0.00000000E+00
  0.00000000E+00  0.00000000E+00  0.00000000E+00
  0.00000000E+00  0.00000000E+00  0.00000000E+00
  0.00000000E+00  0.00000000E+00  0.00000000E+00
  0.00000000E+00  0.00000000E+00  0.00000000E+00
  0.00000000E+00  0.00000000E+00  0.00000000E+00
  0.00000000E+00  0.00000000E+00  0.00000000E+00
  0.00000000E+00  0.00000000E+00  0.00000000E+00
  0.00000000E+00  0.00000000E+00  0.00000000E+00
  0.00000000E+00  0.00000000E+00  0.00000000E+00
  0.00000000E+00  0.00000000E+00  0.00000000E+00
  0.00000000E+00  0.00000000E+00  0.00000000E+00
  0.00000000E+00  0.00000000E+00  0.00000000E+00
  0.00000000E+00  0.00000000E+00  0.00000000E+00
  0.00000000E+00  0.00000000E+00  0.00000000E+00
  0.00000000E+00  0.00000000E+00  0.00000000E+00
  0.00000000E+00  0.00000000E+00  0.00000000E+00
  0.00000000E+00  0.00000000E+00  0.00000000E+00
  0.00000000E+00  0.00000000E+00  0.00000000E+00
  0.00000000E+00  0.00000000E+00  0.00000000E+00
  0.00000000E+00  0.00000000E+00  0.00000000E+00
  0.00000000E+00  0.00000000E+00  0.00000000E+00
  0.00000000E+00  0.00000000E+00  0.00000000E+00
  0.00000000E+00  0.00000000E+00  0.00000000E+00
  0.00000000E+00  0.00000000E+00  0.00000000E+00
  0.00000000E+00  0.00000000E+00  0.00000000E+00
  0.00000000E+00  0.00000000E+00  0.00000000E+00
  0.00000000E+00  0.00000000E+00  0.00000000E+00
  0.00000000E+00  0.00000000E+00  0.00000000E+00
  0.00000000E+00  0.00000000E+00  0.00000000E+00
  0.00000000E+00  0.00000000E+00  0.00000000E+00
  0.00000000E+00  0.00000000E+00  0.00000000E+00
  0.00000000E+00  0.00000000E+00  0.00000000E+00
  0.00000000E+00  0.00000000E+00  0.00000000E+00
  0.00000000E+00  0.00000000E+00  0.00000000E+00
  0.00000000E+00  0.00000000E+00  0.00000000E+00
  0.00000000E+00  0.00000000E+00  0.00000000E+00
  0.00000000E+00  0.00000000E+00  0.00000000E+00
  0.00000000E+00  0.00000000E+00  0.00000000E+00
  0.00000000E+00  0.00000000E+00  0.00000000E+00
  0.00000000E+00  0.00000000E+00  0.00000000E+00
  0.00000000E+00  0.00000000E+00  0.00000000E+00
  0.00000000E+00  0.00000000E+00  0.00000000E+00
  0.00000000E+00  0.00000000E+00  0.00000000E+00
  0.00000000E+00  0.00000000E+00  0.00000000E+00
  0.00000000E+00  0.00000000E+00  0.00000000E+00
  0.00000000E+00  0.00000000E+00  0.00000000E+00
  0.00000000E+00  0.00000000E+00  0.00000000E+00
  0.00000000E+00  0.00000000E+00  0.00000000E+00
  0.00000000E+00  0.00000000E+00  0.00000000E+00
  0.00000000E+00  0.00000000E+00  0.00000000E+00
  0.00000000E+00  0.00000000E+00  0.00000000E+00
  0.00000000E+00  0.00000000E+00  0.00000000E+00
  0.00000000E+00  0.00000000E+00  0.00000000E+00
  0.00000000E+00  0.00000000E+00  0.00000000E+00
  0.00000000E+00  0.00000000E+00  0.00000000E+00
  0.00000000E+00  0.00000000E+00  0.00000000E+00
  0.00000000E+00  0.00000000E+00  0.00000000E+00
  0.00000000E+00  0.00000000E+00  0.00000000E+00
