Al   Sc   N                             
   1.00000000000000     
   -10.1333714090964957    0.0257254492489996   -0.0025778572353686
    -5.1601806091356828    8.7646973900762504   -0.0047545688128438
     0.0001807889812283   -0.0991064480030175   -9.6563068150214324
   Al   Sc   N 
    23    13    35
Direct
  0.1108270364081037  0.0915208112310921  0.3963370791899763
  0.2195589657131052  0.1985595745929345  0.1380844972790740
  0.7690166009322965  0.1065688844756494  0.8926398051181863
  0.8783659962768411  0.2032343971018093  0.6390660373090427
  0.5432883919674296  0.2142172528232109  0.1341844472024007
  0.2271079438489707  0.2085138217982632  0.6389290406225143
  0.8913933090304269  0.2094744661276025  0.1386302827260835
  0.5571696063522964  0.2121246750081482  0.6398901092613372
  0.2245888285114219  0.5356268543539358  0.1417392280527210
  0.4389598140612136  0.4409113816200048  0.3864020725123183
  0.5629988683868419  0.5534821035578119  0.1175291375786784
  0.2300468860099159  0.5349702466570818  0.6373557627786681
  0.8905276518309222  0.5344232438936913  0.1540795117290372
  0.4378089749778269  0.4304609537034665  0.9023487043530807
  0.5533923891868326  0.5296255979605817  0.6417062280785899
  0.1121804193014100  0.7594019547018718  0.3907601486626007
  0.7724737387346607  0.7659430408219734  0.8274848575514042
  0.8854584123631568  0.8818199752062057  0.6436247399106492
  0.4387663592622744  0.7607453560513022  0.3302295491093830
  0.5634067048666225  0.8626878185791682  0.0816077745916459
  0.1208989596519601  0.7518027902670568  0.8798422532046715
  0.4478771895142586  0.7547597790912874  0.8491165360811053
  0.5530047180135327  0.8668129801078166  0.5942125339370818
  0.4448039518382814  0.0884917522544413  0.3708858291454362
  0.1072782390781128  0.0955419748799073  0.8654560418226112
  0.7771073040283767  0.0960446336235421  0.3692338177287837
  0.4530238935873356  0.0920925158380044  0.8673523080065166
  0.1311305498115161  0.4178816027998096  0.3720436265650449
  0.7772661986942637  0.4308562449473214  0.8824151666143010
  0.8941320631863476  0.5334838605412244  0.6140431801878350
  0.1128462714059424  0.4388507584284653  0.8881369461368607
  0.7648134984340089  0.4248183663957974  0.3742073240247095
  0.2154516101726642  0.8742983080941542  0.1183936256735834
  0.2291902478902372  0.8624165998991771  0.6156101072122198
  0.7760964072112131  0.7661252269252117  0.3668207177320824
  0.8868221386628932  0.8655688207848513  0.1075520344611363
  0.2166615813688537  0.1842657049304464  0.3348036537403090
  0.0993497331962985  0.1129279631883691  0.0845021267753552
  0.8740165068635761  0.1993116869309830  0.8341777463317257
  0.7749759246799641  0.0936610541840537  0.5931470540265877
  0.5336905754406658  0.2360082744322511  0.3285793835667690
  0.4481121112573874  0.0891941975031045  0.1055184201397594
  0.2222763123608260  0.2116137109785043  0.8351547485908597
  0.1013808709251407  0.1128590516375496  0.5997938026238288
  0.9091526263491048  0.1924719590059780  0.3348113798057852
  0.7617544316006359  0.1211168522305215  0.0935098596453088
  0.5598332917965010  0.2244794526793541  0.8392536210749952
  0.4497573045455425  0.0933302186380160  0.6117539221652351
  0.2332508169791296  0.5533187059853475  0.3341942494153258
  0.1133416383910202  0.4247163963432783  0.1179973453597114
  0.8840732915607248  0.5550963834686655  0.8359016122395033
  0.7623544074087292  0.4171451268448010  0.6055020773917406
  0.5309312743365737  0.5454110270787069  0.3170580773681522
  0.2380483218857705  0.5437500023376884  0.8313309919246237
  0.1391746194982488  0.4166725742212876  0.5951332912057623
  0.8937560788984129  0.5306259066673675  0.3651644631416104
  0.7843937491146562  0.4284107152981846  0.1122404023084727
  0.5359625484367569  0.5444907588401193  0.8946238519379790
  0.4465423090430178  0.4308598459985262  0.5863504239141406
  0.2206194709791234  0.8699310289810569  0.3668506884755303
  0.1246460219209382  0.7327008040606628  0.0741537100825340
  0.8834933987591924  0.8790332016397997  0.8524933095754079
  0.7683091235882529  0.7839514755823274  0.6195429930545870
  0.5406883258819803  0.8542085997250197  0.3990375568617708
  0.4530514012796587  0.7688438618923001  0.1283759679944509
  0.2295210217773587  0.8559015979042641  0.8540922782233196
  0.0987516234772698  0.7506722661990111  0.5922546275628093
  0.9108178671412119  0.8647541294662915  0.3293497149410598
  0.7691806187052137  0.7475606091853493  0.1350541303947850
  0.5665334789058960  0.8498647054575059  0.8826915483146962
  0.4712868646589357  0.7402087403838635  0.6480558973641948
 
  0.00000000E+00  0.00000000E+00  0.00000000E+00
  0.00000000E+00  0.00000000E+00  0.00000000E+00
  0.00000000E+00  0.00000000E+00  0.00000000E+00
  0.00000000E+00  0.00000000E+00  0.00000000E+00
  0.00000000E+00  0.00000000E+00  0.00000000E+00
  0.00000000E+00  0.00000000E+00  0.00000000E+00
  0.00000000E+00  0.00000000E+00  0.00000000E+00
  0.00000000E+00  0.00000000E+00  0.00000000E+00
  0.00000000E+00  0.00000000E+00  0.00000000E+00
  0.00000000E+00  0.00000000E+00  0.00000000E+00
  0.00000000E+00  0.00000000E+00  0.00000000E+00
  0.00000000E+00  0.00000000E+00  0.00000000E+00
  0.00000000E+00  0.00000000E+00  0.00000000E+00
  0.00000000E+00  0.00000000E+00  0.00000000E+00
  0.00000000E+00  0.00000000E+00  0.00000000E+00
  0.00000000E+00  0.00000000E+00  0.00000000E+00
  0.00000000E+00  0.00000000E+00  0.00000000E+00
  0.00000000E+00  0.00000000E+00  0.00000000E+00
  0.00000000E+00  0.00000000E+00  0.00000000E+00
  0.00000000E+00  0.00000000E+00  0.00000000E+00
  0.00000000E+00  0.00000000E+00  0.00000000E+00
  0.00000000E+00  0.00000000E+00  0.00000000E+00
  0.00000000E+00  0.00000000E+00  0.00000000E+00
  0.00000000E+00  0.00000000E+00  0.00000000E+00
  0.00000000E+00  0.00000000E+00  0.00000000E+00
  0.00000000E+00  0.00000000E+00  0.00000000E+00
  0.00000000E+00  0.00000000E+00  0.00000000E+00
  0.00000000E+00  0.00000000E+00  0.00000000E+00
  0.00000000E+00  0.00000000E+00  0.00000000E+00
  0.00000000E+00  0.00000000E+00  0.00000000E+00
  0.00000000E+00  0.00000000E+00  0.00000000E+00
  0.00000000E+00  0.00000000E+00  0.00000000E+00
  0.00000000E+00  0.00000000E+00  0.00000000E+00
  0.00000000E+00  0.00000000E+00  0.00000000E+00
  0.00000000E+00  0.00000000E+00  0.00000000E+00
  0.00000000E+00  0.00000000E+00  0.00000000E+00
  0.00000000E+00  0.00000000E+00  0.00000000E+00
  0.00000000E+00  0.00000000E+00  0.00000000E+00
  0.00000000E+00  0.00000000E+00  0.00000000E+00
  0.00000000E+00  0.00000000E+00  0.00000000E+00
  0.00000000E+00  0.00000000E+00  0.00000000E+00
  0.00000000E+00  0.00000000E+00  0.00000000E+00
  0.00000000E+00  0.00000000E+00  0.00000000E+00
  0.00000000E+00  0.00000000E+00  0.00000000E+00
  0.00000000E+00  0.00000000E+00  0.00000000E+00
  0.00000000E+00  0.00000000E+00  0.00000000E+00
  0.00000000E+00  0.00000000E+00  0.00000000E+00
  0.00000000E+00  0.00000000E+00  0.00000000E+00
  0.00000000E+00  0.00000000E+00  0.00000000E+00
  0.00000000E+00  0.00000000E+00  0.00000000E+00
  0.00000000E+00  0.00000000E+00  0.00000000E+00
  0.00000000E+00  0.00000000E+00  0.00000000E+00
  0.00000000E+00  0.00000000E+00  0.00000000E+00
  0.00000000E+00  0.00000000E+00  0.00000000E+00
  0.00000000E+00  0.00000000E+00  0.00000000E+00
  0.00000000E+00  0.00000000E+00  0.00000000E+00
  0.00000000E+00  0.00000000E+00  0.00000000E+00
  0.00000000E+00  0.00000000E+00  0.00000000E+00
  0.00000000E+00  0.00000000E+00  0.00000000E+00
  0.00000000E+00  0.00000000E+00  0.00000000E+00
  0.00000000E+00  0.00000000E+00  0.00000000E+00
  0.00000000E+00  0.00000000E+00  0.00000000E+00
  0.00000000E+00  0.00000000E+00  0.00000000E+00
  0.00000000E+00  0.00000000E+00  0.00000000E+00
  0.00000000E+00  0.00000000E+00  0.00000000E+00
  0.00000000E+00  0.00000000E+00  0.00000000E+00
  0.00000000E+00  0.00000000E+00  0.00000000E+00
  0.00000000E+00  0.00000000E+00  0.00000000E+00
  0.00000000E+00  0.00000000E+00  0.00000000E+00
  0.00000000E+00  0.00000000E+00  0.00000000E+00
  0.00000000E+00  0.00000000E+00  0.00000000E+00
