Al   Sc   N                             
   1.00000000000000     
   -10.1225717097374517    0.0200173560923289   -0.0104629694358302
    -5.0781102351921490    8.7771329460945822   -0.0133493824257214
    -0.0301874814732434    0.0173053582994157   -9.6522509915100869
   Al   Sc   N 
    23    13    35
Direct
  0.1107707752644487  0.0929600881003410  0.3034172791095955
  0.2209815522684693  0.2080051585922789  0.0606977545927236
  0.7765280961232293  0.0929379135879529  0.7973967167058689
  0.8926816560403878  0.2045171652778919  0.5587710080166985
  0.5588722421005556  0.2082571290563280  0.0540310658642227
  0.2252256922702429  0.2012930885855440  0.5542816984425514
  0.8802540516867836  0.2097872933460394  0.0567917756781426
  0.5448811884717912  0.2183169392984610  0.5601849440611915
  0.2160994225583082  0.5402436322434667  0.0739875062188844
  0.4423132910669807  0.4373354598648547  0.2980976365296044
  0.5616702106353273  0.5471119754511093  0.0602498820186455
  0.2326325798653173  0.5335457064766729  0.5571551346140637
  0.8850366651585375  0.5424825820445491  0.0444224345519473
  0.4436686553883931  0.4351603621465259  0.8096946959869626
  0.5505475412933833  0.5359919708950613  0.5536966416203271
  0.1155742424723769  0.7617097181061752  0.3480431392669061
  0.7747936690762245  0.7691120960163218  0.8010751225622457
  0.8887065889862882  0.8715368325108912  0.5582257616247546
  0.4426533563304318  0.7584667736522945  0.3102455785790923
  0.5634722801712755  0.8588664429772521  0.0524576976408540
  0.1145301514838550  0.7568538355082879  0.8615342286925269
  0.4508873162110305  0.7498135355105688  0.8077359981900258
  0.5531091469990486  0.8701502482257339  0.5616519273100451
  0.4457821621833133  0.0910669423669788  0.3171398461199431
  0.1086552941874928  0.0930555471728240  0.8263179567332983
  0.7729769175771040  0.1039686775461277  0.3311242495238886
  0.4552054859219297  0.0882185830456379  0.8206090374130426
  0.1159954138295021  0.4249720053351211  0.3179894210095426
  0.7655109439097032  0.4246386998378782  0.8207932763800230
  0.8899603182862066  0.5357690317766028  0.5834215392691888
  0.1242149387645100  0.4288096289769996  0.8219250366475208
  0.7750071917640895  0.4257113704437288  0.3160235381967595
  0.2296182203510710  0.8682002636115911  0.0806096444925259
  0.2253792573230342  0.8699768154787648  0.5780493858298854
  0.7730052288655429  0.7568357974807185  0.3231826259950736
  0.8767433378373184  0.8808309780002190  0.0732560944040586
  0.2161064222714302  0.1911292306313399  0.3546561059289530
  0.0982708081208941  0.1137421071958116  0.0994679267260210
  0.8766091886722194  0.1914912656193124  0.8617262736066493
  0.7759346209262290  0.0951068387869327  0.5937638544998265
  0.5332741441318660  0.2380209146428527  0.3641632837123296
  0.4534160863428198  0.0890049614141475  0.0881412294782606
  0.2285846834345122  0.2019158514205870  0.8672842363701463
  0.1038792461693063  0.1129708941259580  0.6072476904844279
  0.9102788087585125  0.1956278958338515  0.3631206877963535
  0.7617506921585075  0.1216804038077512  0.1120096555042096
  0.5637796526044028  0.2211317264384007  0.8562444055688303
  0.4457856544798560  0.0934340759725316  0.5925261481727162
  0.2324882153492496  0.5499697478050862  0.3227995140290147
  0.1057704232420349  0.4297131554486384  0.0873869721708616
  0.8815556052174784  0.5547189067727558  0.8375388906218006
  0.7624814626855638  0.4160137441967962  0.5956993653915958
  0.5333231567092724  0.5491057798353154  0.3556434633948129
  0.2405545908255320  0.5411625993021474  0.8704540328394970
  0.1399533412315819  0.4154388982523329  0.5900322530333355
  0.8911518651941819  0.5321296410545742  0.3680935741844777
  0.7799037639486102  0.4293425457278417  0.0838409946361267
  0.5332882523299034  0.5471618082846206  0.8702827569957705
  0.4416336609801803  0.4336870094485406  0.6116802230771228
  0.2221944371076106  0.8733818498302455  0.3333391975240261
  0.1117952592383489  0.7520421056705402  0.0727544883716078
  0.8852634440648970  0.8752189808661797  0.8420333289006194
  0.7667221940721234  0.7827463626728104  0.5993545119916490
  0.5407287126564242  0.8614913191511135  0.3677150785495229
  0.4666178995916042  0.7511700490847062  0.1136972132331664
  0.2334768620663183  0.8528875772283371  0.8374013042926052
  0.1069930596324227  0.7470860413112774  0.5646038534255027
  0.9010720521617657  0.8664904748532294  0.3457391005041757
  0.7718653119102754  0.7479589426420787  0.1007654515177947
  0.5652747277584496  0.8483459292088185  0.8557123812408491
  0.4675781471981324  0.7438569711595875  0.6115581107873567
 
  0.00000000E+00  0.00000000E+00  0.00000000E+00
  0.00000000E+00  0.00000000E+00  0.00000000E+00
  0.00000000E+00  0.00000000E+00  0.00000000E+00
  0.00000000E+00  0.00000000E+00  0.00000000E+00
  0.00000000E+00  0.00000000E+00  0.00000000E+00
  0.00000000E+00  0.00000000E+00  0.00000000E+00
  0.00000000E+00  0.00000000E+00  0.00000000E+00
  0.00000000E+00  0.00000000E+00  0.00000000E+00
  0.00000000E+00  0.00000000E+00  0.00000000E+00
  0.00000000E+00  0.00000000E+00  0.00000000E+00
  0.00000000E+00  0.00000000E+00  0.00000000E+00
  0.00000000E+00  0.00000000E+00  0.00000000E+00
  0.00000000E+00  0.00000000E+00  0.00000000E+00
  0.00000000E+00  0.00000000E+00  0.00000000E+00
  0.00000000E+00  0.00000000E+00  0.00000000E+00
  0.00000000E+00  0.00000000E+00  0.00000000E+00
  0.00000000E+00  0.00000000E+00  0.00000000E+00
  0.00000000E+00  0.00000000E+00  0.00000000E+00
  0.00000000E+00  0.00000000E+00  0.00000000E+00
  0.00000000E+00  0.00000000E+00  0.00000000E+00
  0.00000000E+00  0.00000000E+00  0.00000000E+00
  0.00000000E+00  0.00000000E+00  0.00000000E+00
  0.00000000E+00  0.00000000E+00  0.00000000E+00
  0.00000000E+00  0.00000000E+00  0.00000000E+00
  0.00000000E+00  0.00000000E+00  0.00000000E+00
  0.00000000E+00  0.00000000E+00  0.00000000E+00
  0.00000000E+00  0.00000000E+00  0.00000000E+00
  0.00000000E+00  0.00000000E+00  0.00000000E+00
  0.00000000E+00  0.00000000E+00  0.00000000E+00
  0.00000000E+00  0.00000000E+00  0.00000000E+00
  0.00000000E+00  0.00000000E+00  0.00000000E+00
  0.00000000E+00  0.00000000E+00  0.00000000E+00
  0.00000000E+00  0.00000000E+00  0.00000000E+00
  0.00000000E+00  0.00000000E+00  0.00000000E+00
  0.00000000E+00  0.00000000E+00  0.00000000E+00
  0.00000000E+00  0.00000000E+00  0.00000000E+00
  0.00000000E+00  0.00000000E+00  0.00000000E+00
  0.00000000E+00  0.00000000E+00  0.00000000E+00
  0.00000000E+00  0.00000000E+00  0.00000000E+00
  0.00000000E+00  0.00000000E+00  0.00000000E+00
  0.00000000E+00  0.00000000E+00  0.00000000E+00
  0.00000000E+00  0.00000000E+00  0.00000000E+00
  0.00000000E+00  0.00000000E+00  0.00000000E+00
  0.00000000E+00  0.00000000E+00  0.00000000E+00
  0.00000000E+00  0.00000000E+00  0.00000000E+00
  0.00000000E+00  0.00000000E+00  0.00000000E+00
  0.00000000E+00  0.00000000E+00  0.00000000E+00
  0.00000000E+00  0.00000000E+00  0.00000000E+00
  0.00000000E+00  0.00000000E+00  0.00000000E+00
  0.00000000E+00  0.00000000E+00  0.00000000E+00
  0.00000000E+00  0.00000000E+00  0.00000000E+00
  0.00000000E+00  0.00000000E+00  0.00000000E+00
  0.00000000E+00  0.00000000E+00  0.00000000E+00
  0.00000000E+00  0.00000000E+00  0.00000000E+00
  0.00000000E+00  0.00000000E+00  0.00000000E+00
  0.00000000E+00  0.00000000E+00  0.00000000E+00
  0.00000000E+00  0.00000000E+00  0.00000000E+00
  0.00000000E+00  0.00000000E+00  0.00000000E+00
  0.00000000E+00  0.00000000E+00  0.00000000E+00
  0.00000000E+00  0.00000000E+00  0.00000000E+00
  0.00000000E+00  0.00000000E+00  0.00000000E+00
  0.00000000E+00  0.00000000E+00  0.00000000E+00
  0.00000000E+00  0.00000000E+00  0.00000000E+00
  0.00000000E+00  0.00000000E+00  0.00000000E+00
  0.00000000E+00  0.00000000E+00  0.00000000E+00
  0.00000000E+00  0.00000000E+00  0.00000000E+00
  0.00000000E+00  0.00000000E+00  0.00000000E+00
  0.00000000E+00  0.00000000E+00  0.00000000E+00
  0.00000000E+00  0.00000000E+00  0.00000000E+00
  0.00000000E+00  0.00000000E+00  0.00000000E+00
  0.00000000E+00  0.00000000E+00  0.00000000E+00
