Al   Sc   N                             
   1.00000000000000     
   -10.2129440417662831    0.0213274954707627   -0.0057505457192348
    -5.1402643143964584    8.8501368462030126   -0.0093967479069865
     0.0401822506001817   -0.0169160600053083   -9.4147367750179445
   Al   Sc   N 
    23    13    35
Direct
  0.1102373555760394  0.0890308835973812  0.3131283946627903
  0.2212525639215883  0.2054527117519527  0.0892043249000238
  0.7663205532499973  0.1030273161689905  0.8714544516179998
  0.8910879376593783  0.2020780334240868  0.5695798376896235
  0.5396264590517532  0.2227650203260154  0.1210577908166428
  0.2255152287797557  0.2028660007482372  0.5888959199078769
  0.8801257472886377  0.2123167850384107  0.0728942178656524
  0.5621334101248081  0.2041232399607367  0.6144275080691557
  0.2302732857680780  0.5331390033741386  0.1230294198080344
  0.4360685108350424  0.4390760687211284  0.3761398392844129
  0.5574852186098980  0.5451614649557186  0.0766632644679035
  0.2219274174278851  0.5423542675065534  0.6122537645382948
  0.8850380297958651  0.5418304324014613  0.0654145041423533
  0.4457228708018874  0.4356466974074351  0.8139959332122189
  0.5559862457324840  0.5415931858471836  0.5644157302410449
  0.1113931751663060  0.7614305996877775  0.3703407905739127
  0.7703879054087466  0.7666840762029423  0.8220507220712960
  0.8842352243875666  0.8822536784432913  0.6261658117729780
  0.4422436362216260  0.7587270875701293  0.3220124987726578
  0.5620295293953177  0.8589558257061398  0.0701490299814580
  0.1223146941548947  0.7523157671389029  0.8600598657114418
  0.4494605965772394  0.7512137614015373  0.8223189313212913
  0.5541767386147924  0.8691687616846551  0.5774002589625624
  0.4436416714211404  0.0890877861448018  0.3427263967201029
  0.1071712570351480  0.0947059867616602  0.8442084324558223
  0.7776834215588480  0.0944389314880425  0.3437657822582736
  0.4551705855706487  0.0893181702538044  0.8489751124018809
  0.1188035920584340  0.4242739441542938  0.3457018766301729
  0.7646063935506433  0.4277413984275213  0.8343402661037231
  0.8912676250690623  0.5368745504993129  0.5988147993880020
  0.1232973188671593  0.4325592970987273  0.8528869646553687
  0.7754500938996571  0.4266513853094835  0.3322796181186050
  0.2286045139935950  0.8609377129250220  0.0909838172833801
  0.2246999150931757  0.8730285001739873  0.5909244510646374
  0.7777751060400888  0.7609571049449428  0.3423527830266480
  0.8908452861089415  0.8650454196080375  0.0890991891739503
  0.2142969464719187  0.1913557641600789  0.3387349148296721
  0.0979988395640206  0.1063272610029316  0.1017634164636263
  0.8760075243784229  0.1989608745758176  0.8682125338690554
  0.7788219814574617  0.0933878232210787  0.5831301280697403
  0.5345158691676914  0.2367872364130434  0.3266999599772404
  0.4529321642123989  0.0861885163673932  0.0980676174136903
  0.2270872213144912  0.2040828640452119  0.8733434469631334
  0.1033759354561781  0.1138989598080471  0.6134763548900892
  0.9080206279584928  0.1943343138438323  0.3619833848050291
  0.7563511130232001  0.1171293958698314  0.0887634025427744
  0.5607000543246059  0.2226478196824786  0.8214662419009287
  0.4458727041329951  0.0929092368902786  0.5995906106578133
  0.2324985809967401  0.5527513683462502  0.3270137847721628
  0.1096230127529552  0.4315090180309724  0.0979043950855853
  0.8821442344288712  0.5540472379420862  0.8503153185688817
  0.7652815915316467  0.4162926216126763  0.6010519948524404
  0.5348569682658706  0.5500837348919134  0.3602032816647025
  0.2364289004661018  0.5486989256782238  0.8132621456253588
  0.1368684019605908  0.4150062081169850  0.5955343050003350
  0.8912914661117881  0.5350754669953091  0.3754790116539226
  0.7772766198035725  0.4305624501211867  0.0956194988816392
  0.5315177769634474  0.5467241963509721  0.8774480870176049
  0.4456892346294126  0.4313496884610828  0.5898402160947498
  0.2216661076737907  0.8703193544263002  0.3444339033421286
  0.1266432745460975  0.7314836416261485  0.0609789457759078
  0.8839692535375221  0.8792096640598004  0.8397157913776709
  0.7671498180982397  0.7839033386853416  0.6115500357766166
  0.5441572650068736  0.8578439996299991  0.3763338230871369
  0.4635162673204931  0.7514157516254443  0.1198307519444626
  0.2332625629113494  0.8555393963297035  0.8428805263058976
  0.0968672689030114  0.7566495488963128  0.5781354954368396
  0.9101612214930555  0.8628769877495230  0.3163083071094235
  0.7708781362229900  0.7482465844387249  0.1077241053760858
  0.5625364009404663  0.8492728457178274  0.8659787999087953
  0.4671642499973530  0.7454309408404498  0.6210213705624668
 
  0.00000000E+00  0.00000000E+00  0.00000000E+00
  0.00000000E+00  0.00000000E+00  0.00000000E+00
  0.00000000E+00  0.00000000E+00  0.00000000E+00
  0.00000000E+00  0.00000000E+00  0.00000000E+00
  0.00000000E+00  0.00000000E+00  0.00000000E+00
  0.00000000E+00  0.00000000E+00  0.00000000E+00
  0.00000000E+00  0.00000000E+00  0.00000000E+00
  0.00000000E+00  0.00000000E+00  0.00000000E+00
  0.00000000E+00  0.00000000E+00  0.00000000E+00
  0.00000000E+00  0.00000000E+00  0.00000000E+00
  0.00000000E+00  0.00000000E+00  0.00000000E+00
  0.00000000E+00  0.00000000E+00  0.00000000E+00
  0.00000000E+00  0.00000000E+00  0.00000000E+00
  0.00000000E+00  0.00000000E+00  0.00000000E+00
  0.00000000E+00  0.00000000E+00  0.00000000E+00
  0.00000000E+00  0.00000000E+00  0.00000000E+00
  0.00000000E+00  0.00000000E+00  0.00000000E+00
  0.00000000E+00  0.00000000E+00  0.00000000E+00
  0.00000000E+00  0.00000000E+00  0.00000000E+00
  0.00000000E+00  0.00000000E+00  0.00000000E+00
  0.00000000E+00  0.00000000E+00  0.00000000E+00
  0.00000000E+00  0.00000000E+00  0.00000000E+00
  0.00000000E+00  0.00000000E+00  0.00000000E+00
  0.00000000E+00  0.00000000E+00  0.00000000E+00
  0.00000000E+00  0.00000000E+00  0.00000000E+00
  0.00000000E+00  0.00000000E+00  0.00000000E+00
  0.00000000E+00  0.00000000E+00  0.00000000E+00
  0.00000000E+00  0.00000000E+00  0.00000000E+00
  0.00000000E+00  0.00000000E+00  0.00000000E+00
  0.00000000E+00  0.00000000E+00  0.00000000E+00
  0.00000000E+00  0.00000000E+00  0.00000000E+00
  0.00000000E+00  0.00000000E+00  0.00000000E+00
  0.00000000E+00  0.00000000E+00  0.00000000E+00
  0.00000000E+00  0.00000000E+00  0.00000000E+00
  0.00000000E+00  0.00000000E+00  0.00000000E+00
  0.00000000E+00  0.00000000E+00  0.00000000E+00
  0.00000000E+00  0.00000000E+00  0.00000000E+00
  0.00000000E+00  0.00000000E+00  0.00000000E+00
  0.00000000E+00  0.00000000E+00  0.00000000E+00
  0.00000000E+00  0.00000000E+00  0.00000000E+00
  0.00000000E+00  0.00000000E+00  0.00000000E+00
  0.00000000E+00  0.00000000E+00  0.00000000E+00
  0.00000000E+00  0.00000000E+00  0.00000000E+00
  0.00000000E+00  0.00000000E+00  0.00000000E+00
  0.00000000E+00  0.00000000E+00  0.00000000E+00
  0.00000000E+00  0.00000000E+00  0.00000000E+00
  0.00000000E+00  0.00000000E+00  0.00000000E+00
  0.00000000E+00  0.00000000E+00  0.00000000E+00
  0.00000000E+00  0.00000000E+00  0.00000000E+00
  0.00000000E+00  0.00000000E+00  0.00000000E+00
  0.00000000E+00  0.00000000E+00  0.00000000E+00
  0.00000000E+00  0.00000000E+00  0.00000000E+00
  0.00000000E+00  0.00000000E+00  0.00000000E+00
  0.00000000E+00  0.00000000E+00  0.00000000E+00
  0.00000000E+00  0.00000000E+00  0.00000000E+00
  0.00000000E+00  0.00000000E+00  0.00000000E+00
  0.00000000E+00  0.00000000E+00  0.00000000E+00
  0.00000000E+00  0.00000000E+00  0.00000000E+00
  0.00000000E+00  0.00000000E+00  0.00000000E+00
  0.00000000E+00  0.00000000E+00  0.00000000E+00
  0.00000000E+00  0.00000000E+00  0.00000000E+00
  0.00000000E+00  0.00000000E+00  0.00000000E+00
  0.00000000E+00  0.00000000E+00  0.00000000E+00
  0.00000000E+00  0.00000000E+00  0.00000000E+00
  0.00000000E+00  0.00000000E+00  0.00000000E+00
  0.00000000E+00  0.00000000E+00  0.00000000E+00
  0.00000000E+00  0.00000000E+00  0.00000000E+00
  0.00000000E+00  0.00000000E+00  0.00000000E+00
  0.00000000E+00  0.00000000E+00  0.00000000E+00
  0.00000000E+00  0.00000000E+00  0.00000000E+00
  0.00000000E+00  0.00000000E+00  0.00000000E+00
