Al   Sc   N                             
   1.00000000000000     
   -10.0327719669206292    0.0206134918212049   -0.0120071087247832
    -5.0434517846871225    8.7052066188651853   -0.0137844829071112
    -0.0118759808604138    0.0113801630465849   -9.8680373261411507
   Al   Sc   N 
    23    13    35
Direct
  0.1108831379793358  0.0923391229013788  0.3002279871842717
  0.2210010431760807  0.2080251700707691  0.0581420331335920
  0.7747567320288908  0.0947820931449570  0.7969440824768057
  0.8908960871086151  0.2048987172624805  0.5563303459208768
  0.5589235197262283  0.2045273477979563  0.0528085494021937
  0.2237869040352294  0.2020528511191415  0.5512908867844715
  0.8809625980635687  0.2089509750739538  0.0548450864507046
  0.5452436262096754  0.2180280910532986  0.5590323968491191
  0.2180732490468813  0.5397326469208608  0.0566663855931964
  0.4369619564605145  0.4400613288751742  0.3075475502499359
  0.5627050057399217  0.5494802370594343  0.0565153129473401
  0.2295612476984488  0.5378657681813195  0.5542056646347930
  0.8877771394214236  0.5422789870745675  0.0427543050700052
  0.4429552399314787  0.4361585230828027  0.8081727852707914
  0.5501755082517263  0.5361915365850791  0.5532796313449566
  0.1175468824580079  0.7586089188770160  0.3075030992875085
  0.7736283473609404  0.7688940334400982  0.8000623115676007
  0.8903245925374748  0.8706469214223986  0.5599399809989123
  0.4426419623697058  0.7589429476743206  0.3073777575173366
  0.5633952451699287  0.8605847129360100  0.0509899364878095
  0.1125425723077669  0.7569011311883642  0.8047863053190838
  0.4485018822009721  0.7515933066173091  0.8049774904391285
  0.5529653733096893  0.8703474862924310  0.5593024852169108
  0.4450045724438780  0.0911185750287800  0.3149608095755170
  0.1087200238525909  0.0923320532467642  0.8200043198580360
  0.7753467534484386  0.0997829733952713  0.3289416324008698
  0.4540148030836022  0.0882157394554781  0.8161006917861542
  0.1178472974631788  0.4274435072182783  0.3163498652596672
  0.7663806518805671  0.4251378470232297  0.8184666039695117
  0.8885671953269210  0.5368997303244711  0.5789925154308193
  0.1244544979324473  0.4286979041872385  0.8135986198984853
  0.7749375825816713  0.4259113690569336  0.3112984148951483
  0.2295320903730982  0.8647866814345946  0.0683771894103771
  0.2232170688292570  0.8702136461090859  0.5631184886495006
  0.7759647919019201  0.7583040292111392  0.3192467176572080
  0.8841382216837772  0.8765610543006659  0.0615917486709066
  0.2145814928602974  0.1926309493370724  0.3567199208192022
  0.0991520912021002  0.1119683499405824  0.1019245982447359
  0.8765660336142744  0.1915047389058486  0.8646692218313703
  0.7749756045913614  0.0960442457165769  0.5978631610814844
  0.5347172996916782  0.2363183589488500  0.3667578089910677
  0.4521704199155749  0.0887100193228392  0.0904194532005818
  0.2270173269943001  0.2027670944351598  0.8693518231195583
  0.1036259121470948  0.1114443139533066  0.6066829320533387
  0.9094680768644494  0.1956162532317620  0.3647961499479919
  0.7636152134406871  0.1174740321277170  0.1134366790460106
  0.5617337909717790  0.2217793414459237  0.8599474174317479
  0.4445688024773276  0.0936630109847343  0.5937705670759357
  0.2321178284999803  0.5524778746564323  0.3620085140746596
  0.1094296222218460  0.4299531439321029  0.0902701491958453
  0.8827792079682624  0.5547582904724209  0.8410459634055485
  0.7626305384541041  0.4162868612849167  0.5987649741425756
  0.5339642271187373  0.5495095635421521  0.3583876310786209
  0.2356287323209756  0.5489177250804005  0.8685622799389492
  0.1379471490367763  0.4152320826002764  0.5927966995638130
  0.8910979651870932  0.5330667939046378  0.3681675921525240
  0.7805868043356554  0.4294787030964216  0.0845650005461067
  0.5329095960683290  0.5484419749838665  0.8713673130111346
  0.4417177025909140  0.4331570758820575  0.6150220998799725
  0.2221676610150709  0.8729909858521410  0.3369707305937268
  0.1178633752494846  0.7420577874841001  0.1154228536677948
  0.8843281895850410  0.8761089239591371  0.8450649839117119
  0.7653848921534987  0.7835721479267050  0.6044180594899231
  0.5428459846988787  0.8605225356311195  0.3693094161837536
  0.4663358741379895  0.7524267447689965  0.1155326015319034
  0.2317290419858580  0.8526256352775476  0.8449578396858541
  0.1034483194933671  0.7481020951280541  0.6128060818681007
  0.9091227650054350  0.8619544511951602  0.3629493435832316
  0.7738822636693925  0.7496152494840373  0.1014339761395533
  0.5642090267534670  0.8485348090262548  0.8586957429420536
  0.4646473002510021  0.7458767660825174  0.6131552714146551
 
  0.00000000E+00  0.00000000E+00  0.00000000E+00
  0.00000000E+00  0.00000000E+00  0.00000000E+00
  0.00000000E+00  0.00000000E+00  0.00000000E+00
  0.00000000E+00  0.00000000E+00  0.00000000E+00
  0.00000000E+00  0.00000000E+00  0.00000000E+00
  0.00000000E+00  0.00000000E+00  0.00000000E+00
  0.00000000E+00  0.00000000E+00  0.00000000E+00
  0.00000000E+00  0.00000000E+00  0.00000000E+00
  0.00000000E+00  0.00000000E+00  0.00000000E+00
  0.00000000E+00  0.00000000E+00  0.00000000E+00
  0.00000000E+00  0.00000000E+00  0.00000000E+00
  0.00000000E+00  0.00000000E+00  0.00000000E+00
  0.00000000E+00  0.00000000E+00  0.00000000E+00
  0.00000000E+00  0.00000000E+00  0.00000000E+00
  0.00000000E+00  0.00000000E+00  0.00000000E+00
  0.00000000E+00  0.00000000E+00  0.00000000E+00
  0.00000000E+00  0.00000000E+00  0.00000000E+00
  0.00000000E+00  0.00000000E+00  0.00000000E+00
  0.00000000E+00  0.00000000E+00  0.00000000E+00
  0.00000000E+00  0.00000000E+00  0.00000000E+00
  0.00000000E+00  0.00000000E+00  0.00000000E+00
  0.00000000E+00  0.00000000E+00  0.00000000E+00
  0.00000000E+00  0.00000000E+00  0.00000000E+00
  0.00000000E+00  0.00000000E+00  0.00000000E+00
  0.00000000E+00  0.00000000E+00  0.00000000E+00
  0.00000000E+00  0.00000000E+00  0.00000000E+00
  0.00000000E+00  0.00000000E+00  0.00000000E+00
  0.00000000E+00  0.00000000E+00  0.00000000E+00
  0.00000000E+00  0.00000000E+00  0.00000000E+00
  0.00000000E+00  0.00000000E+00  0.00000000E+00
  0.00000000E+00  0.00000000E+00  0.00000000E+00
  0.00000000E+00  0.00000000E+00  0.00000000E+00
  0.00000000E+00  0.00000000E+00  0.00000000E+00
  0.00000000E+00  0.00000000E+00  0.00000000E+00
  0.00000000E+00  0.00000000E+00  0.00000000E+00
  0.00000000E+00  0.00000000E+00  0.00000000E+00
  0.00000000E+00  0.00000000E+00  0.00000000E+00
  0.00000000E+00  0.00000000E+00  0.00000000E+00
  0.00000000E+00  0.00000000E+00  0.00000000E+00
  0.00000000E+00  0.00000000E+00  0.00000000E+00
  0.00000000E+00  0.00000000E+00  0.00000000E+00
  0.00000000E+00  0.00000000E+00  0.00000000E+00
  0.00000000E+00  0.00000000E+00  0.00000000E+00
  0.00000000E+00  0.00000000E+00  0.00000000E+00
  0.00000000E+00  0.00000000E+00  0.00000000E+00
  0.00000000E+00  0.00000000E+00  0.00000000E+00
  0.00000000E+00  0.00000000E+00  0.00000000E+00
  0.00000000E+00  0.00000000E+00  0.00000000E+00
  0.00000000E+00  0.00000000E+00  0.00000000E+00
  0.00000000E+00  0.00000000E+00  0.00000000E+00
  0.00000000E+00  0.00000000E+00  0.00000000E+00
  0.00000000E+00  0.00000000E+00  0.00000000E+00
  0.00000000E+00  0.00000000E+00  0.00000000E+00
  0.00000000E+00  0.00000000E+00  0.00000000E+00
  0.00000000E+00  0.00000000E+00  0.00000000E+00
  0.00000000E+00  0.00000000E+00  0.00000000E+00
  0.00000000E+00  0.00000000E+00  0.00000000E+00
  0.00000000E+00  0.00000000E+00  0.00000000E+00
  0.00000000E+00  0.00000000E+00  0.00000000E+00
  0.00000000E+00  0.00000000E+00  0.00000000E+00
  0.00000000E+00  0.00000000E+00  0.00000000E+00
  0.00000000E+00  0.00000000E+00  0.00000000E+00
  0.00000000E+00  0.00000000E+00  0.00000000E+00
  0.00000000E+00  0.00000000E+00  0.00000000E+00
  0.00000000E+00  0.00000000E+00  0.00000000E+00
  0.00000000E+00  0.00000000E+00  0.00000000E+00
  0.00000000E+00  0.00000000E+00  0.00000000E+00
  0.00000000E+00  0.00000000E+00  0.00000000E+00
  0.00000000E+00  0.00000000E+00  0.00000000E+00
  0.00000000E+00  0.00000000E+00  0.00000000E+00
  0.00000000E+00  0.00000000E+00  0.00000000E+00
