Al   Sc   N                             
   1.00000000000000     
   -10.0991965894765201    0.0267020530094374   -0.0014311797338802
    -5.1107718941746514    8.7545925640830902   -0.0039766441598608
     0.0108290485148382   -0.0806888612837111   -9.7425614885361966
   Al   Sc   N 
    23    13    35
Direct
  0.1097639338742269  0.0937666526211913  0.3985901167922492
  0.2188944989878578  0.2003441867821962  0.1395273387829903
  0.7701710920725517  0.1047044352669388  0.8910208765199528
  0.8796587615190958  0.2041882321850679  0.6418096527012764
  0.5486823833427010  0.2118435397657876  0.1324576710631078
  0.2241821126087444  0.2095168497212612  0.6382656484349312
  0.8904877460300824  0.2092323416804547  0.1399902568424665
  0.5572454693325497  0.2121289054270221  0.6413529875996247
  0.2237874453553488  0.5387578683067531  0.1418876185973303
  0.4389478855047031  0.4389575642416688  0.3903071193395462
  0.5614228005842961  0.5520532486185914  0.1437733025519563
  0.2289649201825767  0.5341753009495989  0.6390648335786295
  0.8892764219664855  0.5341463596198253  0.1483975904789148
  0.4419216007045534  0.4329999742639572  0.8925826022151213
  0.5521630901160606  0.5309664519381130  0.6459659982969512
  0.1110650101175779  0.7580136486767728  0.3948307262603805
  0.7784115560891962  0.7562483515966250  0.8887036394651275
  0.8816222040271740  0.8760618766957293  0.6502764450756402
  0.4397290734868236  0.7550643686732954  0.3886862765472188
  0.5548759540193942  0.8653178488258462  0.0835485945946317
  0.1237989637090919  0.7510372937838383  0.8819475688975587
  0.4453715336759103  0.7541198697821443  0.8630484286463656
  0.5566487404323794  0.8707872350917185  0.5891229091378278
  0.4426849535967676  0.0950607912446415  0.3705576871012113
  0.1088900616342201  0.0926427879440652  0.8711765630465678
  0.7786067630181819  0.0943896917125144  0.3762106418897986
  0.4537790027611805  0.0899705339699395  0.8645345974479710
  0.1257117965289609  0.4220887852950881  0.3732675408444308
  0.7727356329850963  0.4301209735454634  0.8823615715113249
  0.8883211564964171  0.5433992413943756  0.6232031989986666
  0.1156226137423673  0.4342993251844689  0.8882163433273149
  0.7701822394353215  0.4222477442068211  0.3819794941918957
  0.2225519752980674  0.8714349716181928  0.1370731248436101
  0.2210690282600112  0.8667677587921077  0.6199580121611206
  0.7777348474033445  0.7679464956861892  0.3679452059053574
  0.8930321161884294  0.8710135371944219  0.1094630370310625
  0.2139109232045513  0.1883529381484550  0.3342133325502061
  0.1007383858262045  0.1106326880630633  0.0873481311263973
  0.8761894707104645  0.1978307417983274  0.8346383419220373
  0.7765037081934310  0.0915969173532858  0.5973583158388536
  0.5385830309026929  0.2366953273168093  0.3243187348856225
  0.4464589729150390  0.0911248625963168  0.1032113918576769
  0.2229036269313980  0.2087672549021633  0.8323430476962130
  0.0992207129348159  0.1154222849449837  0.5978015295710222
  0.9091222642034396  0.1914132305689620  0.3338304209171454
  0.7635406940852292  0.1208344316865606  0.0897186783108168
  0.5602498044047337  0.2234493747129420  0.8395440623798578
  0.4483836505556980  0.0954997981006471  0.6086491897690252
  0.2340740568156292  0.5531542163445877  0.3327059268763577
  0.1148549842368141  0.4252047354583723  0.1147829339603561
  0.8845882237302618  0.5527675435599875  0.8404596905847797
  0.7653221335117806  0.4177473324857459  0.6046561241216324
  0.5322783619840123  0.5487595413769952  0.3330037825575332
  0.2373108433010600  0.5428590685202366  0.8326452539543112
  0.1341702965378815  0.4188403567305414  0.5948025370794383
  0.8902194049426839  0.5345969731362601  0.3497564616041444
  0.7776390321546529  0.4288401282196688  0.1104214882005579
  0.5371453059091280  0.5423759884842099  0.8442090038077339
  0.4451471408947398  0.4280499824663337  0.5858057616481886
  0.2195404504514045  0.8707732273279589  0.3712347109086735
  0.1297059954606610  0.7352908963625211  0.0741461917921455
  0.8838895763207262  0.8754285470319090  0.8558711509859975
  0.7701387861599471  0.7836729103374296  0.5952867816153002
  0.5417948995926452  0.8621887305602627  0.3828064006894181
  0.4552345162742810  0.7557689411307322  0.1008791296348548
  0.2303551666948778  0.8546379517659872  0.8434631588882766
  0.0957914759345115  0.7484975704469718  0.5923338679418535
  0.9129863632644941  0.8648806795487758  0.3243106146069223
  0.7738528382037444  0.7472511529102803  0.1009304352381619
  0.5636178909904999  0.8502999072919408  0.8766222165822981
  0.4652873912943321  0.7441983019603171  0.6070633314102665
 
  0.00000000E+00  0.00000000E+00  0.00000000E+00
  0.00000000E+00  0.00000000E+00  0.00000000E+00
  0.00000000E+00  0.00000000E+00  0.00000000E+00
  0.00000000E+00  0.00000000E+00  0.00000000E+00
  0.00000000E+00  0.00000000E+00  0.00000000E+00
  0.00000000E+00  0.00000000E+00  0.00000000E+00
  0.00000000E+00  0.00000000E+00  0.00000000E+00
  0.00000000E+00  0.00000000E+00  0.00000000E+00
  0.00000000E+00  0.00000000E+00  0.00000000E+00
  0.00000000E+00  0.00000000E+00  0.00000000E+00
  0.00000000E+00  0.00000000E+00  0.00000000E+00
  0.00000000E+00  0.00000000E+00  0.00000000E+00
  0.00000000E+00  0.00000000E+00  0.00000000E+00
  0.00000000E+00  0.00000000E+00  0.00000000E+00
  0.00000000E+00  0.00000000E+00  0.00000000E+00
  0.00000000E+00  0.00000000E+00  0.00000000E+00
  0.00000000E+00  0.00000000E+00  0.00000000E+00
  0.00000000E+00  0.00000000E+00  0.00000000E+00
  0.00000000E+00  0.00000000E+00  0.00000000E+00
  0.00000000E+00  0.00000000E+00  0.00000000E+00
  0.00000000E+00  0.00000000E+00  0.00000000E+00
  0.00000000E+00  0.00000000E+00  0.00000000E+00
  0.00000000E+00  0.00000000E+00  0.00000000E+00
  0.00000000E+00  0.00000000E+00  0.00000000E+00
  0.00000000E+00  0.00000000E+00  0.00000000E+00
  0.00000000E+00  0.00000000E+00  0.00000000E+00
  0.00000000E+00  0.00000000E+00  0.00000000E+00
  0.00000000E+00  0.00000000E+00  0.00000000E+00
  0.00000000E+00  0.00000000E+00  0.00000000E+00
  0.00000000E+00  0.00000000E+00  0.00000000E+00
  0.00000000E+00  0.00000000E+00  0.00000000E+00
  0.00000000E+00  0.00000000E+00  0.00000000E+00
  0.00000000E+00  0.00000000E+00  0.00000000E+00
  0.00000000E+00  0.00000000E+00  0.00000000E+00
  0.00000000E+00  0.00000000E+00  0.00000000E+00
  0.00000000E+00  0.00000000E+00  0.00000000E+00
  0.00000000E+00  0.00000000E+00  0.00000000E+00
  0.00000000E+00  0.00000000E+00  0.00000000E+00
  0.00000000E+00  0.00000000E+00  0.00000000E+00
  0.00000000E+00  0.00000000E+00  0.00000000E+00
  0.00000000E+00  0.00000000E+00  0.00000000E+00
  0.00000000E+00  0.00000000E+00  0.00000000E+00
  0.00000000E+00  0.00000000E+00  0.00000000E+00
  0.00000000E+00  0.00000000E+00  0.00000000E+00
  0.00000000E+00  0.00000000E+00  0.00000000E+00
  0.00000000E+00  0.00000000E+00  0.00000000E+00
  0.00000000E+00  0.00000000E+00  0.00000000E+00
  0.00000000E+00  0.00000000E+00  0.00000000E+00
  0.00000000E+00  0.00000000E+00  0.00000000E+00
  0.00000000E+00  0.00000000E+00  0.00000000E+00
  0.00000000E+00  0.00000000E+00  0.00000000E+00
  0.00000000E+00  0.00000000E+00  0.00000000E+00
  0.00000000E+00  0.00000000E+00  0.00000000E+00
  0.00000000E+00  0.00000000E+00  0.00000000E+00
  0.00000000E+00  0.00000000E+00  0.00000000E+00
  0.00000000E+00  0.00000000E+00  0.00000000E+00
  0.00000000E+00  0.00000000E+00  0.00000000E+00
  0.00000000E+00  0.00000000E+00  0.00000000E+00
  0.00000000E+00  0.00000000E+00  0.00000000E+00
  0.00000000E+00  0.00000000E+00  0.00000000E+00
  0.00000000E+00  0.00000000E+00  0.00000000E+00
  0.00000000E+00  0.00000000E+00  0.00000000E+00
  0.00000000E+00  0.00000000E+00  0.00000000E+00
  0.00000000E+00  0.00000000E+00  0.00000000E+00
  0.00000000E+00  0.00000000E+00  0.00000000E+00
  0.00000000E+00  0.00000000E+00  0.00000000E+00
  0.00000000E+00  0.00000000E+00  0.00000000E+00
  0.00000000E+00  0.00000000E+00  0.00000000E+00
  0.00000000E+00  0.00000000E+00  0.00000000E+00
  0.00000000E+00  0.00000000E+00  0.00000000E+00
  0.00000000E+00  0.00000000E+00  0.00000000E+00
