Al   Sc   N                             
   1.00000000000000     
   -10.1258685859986883    0.0198797863087421   -0.0101066295999179
    -5.0782869400837960    8.7764109520263247   -0.0132489746223238
    -0.0280487626856254    0.0046050101564123   -9.6558902706780856
   Al   Sc   N 
    23    13    35
Direct
  0.1107052055783910  0.0930191317726923  0.3035968695588238
  0.2211269142045253  0.2074444218039346  0.0611579844781716
  0.7764314697996966  0.0929956640289475  0.7970191706846705
  0.8926650745085993  0.2045950528066598  0.5585376497196322
  0.5588454866333095  0.2096185482389856  0.0544681963241587
  0.2254938251432677  0.2011872913540813  0.5546029138546658
  0.8803721982043342  0.2095916583670956  0.0568705953721960
  0.5450034747195218  0.2180186798693029  0.5599370156550449
  0.2132589171466321  0.5433265280496684  0.0813004631539727
  0.4427703845057138  0.4372354097228239  0.2978408038565377
  0.5614923455178200  0.5460198611017262  0.0604578024683349
  0.2312322182151405  0.5348241767955528  0.5849071139286295
  0.8841490524459203  0.5426034569674698  0.0449502345413890
  0.4458502110504909  0.4339350691204444  0.8116593978189499
  0.5508749412785789  0.5360981479559825  0.5537323948547268
  0.1176626969882548  0.7582970959481443  0.3496458678317893
  0.7742971888658943  0.7693499567222943  0.8007482719745340
  0.8885861865603388  0.8714200317741145  0.5579471767691970
  0.4425874128848690  0.7583201996560476  0.3100721977678660
  0.5632797348703278  0.8587534523894860  0.0525906795784508
  0.1135912708834539  0.7582509897890262  0.8616906559180038
  0.4508989637385739  0.7500134208509692  0.8075862820624806
  0.5532108626403058  0.8701644047475696  0.5613492055172316
  0.4457381319146663  0.0910657885124522  0.3169533834113523
  0.1085892796112091  0.0927513732739342  0.8261110509129210
  0.7734059650618335  0.1034514280230283  0.3309136319085582
  0.4555455179146222  0.0880256871616822  0.8209148187273030
  0.1175904794298503  0.4261172168782537  0.3193231708687279
  0.7653960716579178  0.4246112855492328  0.8208667913730565
  0.8899713204931814  0.5356255845646984  0.5837229000060731
  0.1221549623345055  0.4276894540074494  0.8271624002107103
  0.7751818163736388  0.4257977423082622  0.3160122360952116
  0.2294479115985126  0.8681175131289223  0.0805283119954225
  0.2260586614653306  0.8702599006190113  0.5776916178072184
  0.7734111444684046  0.7566614491787789  0.3231235814136184
  0.8761567805339396  0.8812410689418329  0.0720448250848733
  0.2158210531558566  0.1918947513449965  0.3548175141555561
  0.0983517994739458  0.1134741629202196  0.0997761150121761
  0.8765800841282498  0.1914250957826980  0.8617319876919041
  0.7761821183175641  0.0949981288241659  0.5933818985550019
  0.5330881082690766  0.2382239046030037  0.3642889825373743
  0.4534468705672552  0.0890951367875488  0.0883921717208480
  0.2293568516568527  0.2002042357790046  0.8676800293010274
  0.1039078457202152  0.1130804504343672  0.6069667703595485
  0.9101237892844054  0.1957432343868106  0.3630918709456381
  0.7622655717284346  0.1212119290551215  0.1120687290197466
  0.5643053552483366  0.2206072533032284  0.8563546381115756
  0.4458598405342755  0.0934453808940532  0.5925673055708387
  0.2322967538443450  0.5519531007462675  0.2981319327960108
  0.1049301487916097  0.4295784220708825  0.0853252799476820
  0.8802046665374448  0.5552541492876770  0.8375773084624427
  0.7626259448609005  0.4160546183690599  0.5956825497729952
  0.5330402344592713  0.5491352279202175  0.3563418362057362
  0.2386787499966161  0.5426692358829683  0.8612122240850582
  0.1398993127921244  0.4152597014978241  0.5917127122846892
  0.8921974254170237  0.5317568245215512  0.3681687039440646
  0.7799169108657225  0.4291746111761015  0.0840364409943533
  0.5335324603827587  0.5476055985513852  0.8702419776651880
  0.4436844386756675  0.4327359415189562  0.6127050895372577
  0.2219819187499112  0.8729900257713297  0.3335399651566320
  0.1103131297526687  0.7542606028392953  0.0660639341626350
  0.8843964665503279  0.8757245925465185  0.8403795748430696
  0.7668051329202967  0.7825258468487490  0.5990082785919810
  0.5408522174881938  0.8613689850796789  0.3675603577838231
  0.4665742980516114  0.7507482083952013  0.1136734805973489
  0.2335894493905357  0.8531166879595062  0.8357158677489736
  0.1085344823531997  0.7449733503553730  0.5623640627525006
  0.9023806619029031  0.8655794037649684  0.3460258015883397
  0.7716359102397661  0.7481104162770436  0.1009185365084377
  0.5652026222061934  0.8484008371942124  0.8558054901432044
  0.4677048324107815  0.7440086995742945  0.6114177563964347
 
  0.00000000E+00  0.00000000E+00  0.00000000E+00
  0.00000000E+00  0.00000000E+00  0.00000000E+00
  0.00000000E+00  0.00000000E+00  0.00000000E+00
  0.00000000E+00  0.00000000E+00  0.00000000E+00
  0.00000000E+00  0.00000000E+00  0.00000000E+00
  0.00000000E+00  0.00000000E+00  0.00000000E+00
  0.00000000E+00  0.00000000E+00  0.00000000E+00
  0.00000000E+00  0.00000000E+00  0.00000000E+00
  0.00000000E+00  0.00000000E+00  0.00000000E+00
  0.00000000E+00  0.00000000E+00  0.00000000E+00
  0.00000000E+00  0.00000000E+00  0.00000000E+00
  0.00000000E+00  0.00000000E+00  0.00000000E+00
  0.00000000E+00  0.00000000E+00  0.00000000E+00
  0.00000000E+00  0.00000000E+00  0.00000000E+00
  0.00000000E+00  0.00000000E+00  0.00000000E+00
  0.00000000E+00  0.00000000E+00  0.00000000E+00
  0.00000000E+00  0.00000000E+00  0.00000000E+00
  0.00000000E+00  0.00000000E+00  0.00000000E+00
  0.00000000E+00  0.00000000E+00  0.00000000E+00
  0.00000000E+00  0.00000000E+00  0.00000000E+00
  0.00000000E+00  0.00000000E+00  0.00000000E+00
  0.00000000E+00  0.00000000E+00  0.00000000E+00
  0.00000000E+00  0.00000000E+00  0.00000000E+00
  0.00000000E+00  0.00000000E+00  0.00000000E+00
  0.00000000E+00  0.00000000E+00  0.00000000E+00
  0.00000000E+00  0.00000000E+00  0.00000000E+00
  0.00000000E+00  0.00000000E+00  0.00000000E+00
  0.00000000E+00  0.00000000E+00  0.00000000E+00
  0.00000000E+00  0.00000000E+00  0.00000000E+00
  0.00000000E+00  0.00000000E+00  0.00000000E+00
  0.00000000E+00  0.00000000E+00  0.00000000E+00
  0.00000000E+00  0.00000000E+00  0.00000000E+00
  0.00000000E+00  0.00000000E+00  0.00000000E+00
  0.00000000E+00  0.00000000E+00  0.00000000E+00
  0.00000000E+00  0.00000000E+00  0.00000000E+00
  0.00000000E+00  0.00000000E+00  0.00000000E+00
  0.00000000E+00  0.00000000E+00  0.00000000E+00
  0.00000000E+00  0.00000000E+00  0.00000000E+00
  0.00000000E+00  0.00000000E+00  0.00000000E+00
  0.00000000E+00  0.00000000E+00  0.00000000E+00
  0.00000000E+00  0.00000000E+00  0.00000000E+00
  0.00000000E+00  0.00000000E+00  0.00000000E+00
  0.00000000E+00  0.00000000E+00  0.00000000E+00
  0.00000000E+00  0.00000000E+00  0.00000000E+00
  0.00000000E+00  0.00000000E+00  0.00000000E+00
  0.00000000E+00  0.00000000E+00  0.00000000E+00
  0.00000000E+00  0.00000000E+00  0.00000000E+00
  0.00000000E+00  0.00000000E+00  0.00000000E+00
  0.00000000E+00  0.00000000E+00  0.00000000E+00
  0.00000000E+00  0.00000000E+00  0.00000000E+00
  0.00000000E+00  0.00000000E+00  0.00000000E+00
  0.00000000E+00  0.00000000E+00  0.00000000E+00
  0.00000000E+00  0.00000000E+00  0.00000000E+00
  0.00000000E+00  0.00000000E+00  0.00000000E+00
  0.00000000E+00  0.00000000E+00  0.00000000E+00
  0.00000000E+00  0.00000000E+00  0.00000000E+00
  0.00000000E+00  0.00000000E+00  0.00000000E+00
  0.00000000E+00  0.00000000E+00  0.00000000E+00
  0.00000000E+00  0.00000000E+00  0.00000000E+00
  0.00000000E+00  0.00000000E+00  0.00000000E+00
  0.00000000E+00  0.00000000E+00  0.00000000E+00
  0.00000000E+00  0.00000000E+00  0.00000000E+00
  0.00000000E+00  0.00000000E+00  0.00000000E+00
  0.00000000E+00  0.00000000E+00  0.00000000E+00
  0.00000000E+00  0.00000000E+00  0.00000000E+00
  0.00000000E+00  0.00000000E+00  0.00000000E+00
  0.00000000E+00  0.00000000E+00  0.00000000E+00
  0.00000000E+00  0.00000000E+00  0.00000000E+00
  0.00000000E+00  0.00000000E+00  0.00000000E+00
  0.00000000E+00  0.00000000E+00  0.00000000E+00
  0.00000000E+00  0.00000000E+00  0.00000000E+00
