Al   Sc   N                             
   1.00000000000000     
   -10.0605317921269783    0.0191460807962793   -0.0082061504750527
    -5.0782970306227888    8.7460648285296472   -0.0127134663375363
     0.0134524773926069    0.0189938282146203   -9.8170946196864470
   Al   Sc   N 
    23    13    35
Direct
  0.1089880778112757  0.0927873496393516  0.3020566099368267
  0.2199237928404898  0.2078652384740138  0.0600897604370729
  0.7762162928003633  0.0938307018474163  0.7977447408544620
  0.8912454106918730  0.2054531864829201  0.5560915849207220
  0.5509634074248808  0.2177952982177658  0.0471544221468250
  0.2251222155707140  0.2007313719243697  0.5538593764380124
  0.8791419245433900  0.2092615702005531  0.0540339022955436
  0.5500323661679758  0.2062709183691211  0.5618621265203885
  0.2320678938332819  0.5329575265464825  0.1121219903435176
  0.4349156524942615  0.4408617402647863  0.3702913916966182
  0.5558772047761593  0.5443195743958000  0.0527898674394365
  0.2207244304047933  0.5442724492397559  0.6096838530813500
  0.8866572489082003  0.5430898963537345  0.0454774436775907
  0.4471293078862857  0.4349331780407439  0.7975852048324867
  0.5591303902694236  0.5413754348696997  0.5572335508993973
  0.1157596477654010  0.7588189712192488  0.3567552500895061
  0.7744829715205341  0.7693955744387679  0.8013375788005206
  0.8869801194824234  0.8745490707273760  0.5691396170824774
  0.4429986582382455  0.7569206530929833  0.3075453918680040
  0.5636265863171275  0.8573109387454636  0.0513363050189284
  0.1164385968140422  0.7559529053711103  0.8590945873731073
  0.4499745058900970  0.7526296500900003  0.8061291774226760
  0.5530724408309453  0.8717889086318422  0.5585380960934145
  0.4444038298190733  0.0902485804538031  0.3098120028131675
  0.1078248474737222  0.0931463676041702  0.8218684014535995
  0.7715519478919006  0.1033963053036118  0.3235268375385161
  0.4535007811350766  0.0866012472001358  0.8208093542477144
  0.1174855195231004  0.4248638148755433  0.3285099867877079
  0.7686478128907765  0.4250389706637776  0.8229451816359941
  0.8901994740199513  0.5352321526279553  0.5824401935080630
  0.1233757223268555  0.4303538386606860  0.8316434780878765
  0.7732893225552999  0.4264976267290592  0.3074386958495552
  0.2288676461211381  0.8661789001770543  0.0778034995163637
  0.2264679177149276  0.8722594888149970  0.5725548974918908
  0.7738826642526604  0.7568434906127095  0.3201599691294774
  0.8827310976124068  0.8762338555811411  0.0735206943638502
  0.2155001934688414  0.1899289631333119  0.3574537260922881
  0.0969059626500055  0.1133663328065566  0.1024155165220009
  0.8762765375797628  0.1916167492664300  0.8633964773588687
  0.7772667691341937  0.0946178851301909  0.5961141240077126
  0.5340925543422657  0.2301929252172457  0.3693344233697147
  0.4521375248617545  0.0886324036755894  0.0858377575699123
  0.2261425290578387  0.2021334830387858  0.8697158596206549
  0.1032652355264361  0.1123827266417834  0.6065535526933630
  0.9069366967340216  0.1974565476258618  0.3638496094832320
  0.7575075637020490  0.1230784113833465  0.1073855187324568
  0.5603661540152416  0.2232432374980675  0.8481784580847460
  0.4448443902282335  0.0908086256158214  0.5973954838527291
  0.2352946983968707  0.5508670168115941  0.3069244191862310
  0.1112897572892706  0.4296908137082838  0.0885169688493406
  0.8823584993315023  0.5564496189519232  0.8417439746706705
  0.7665740612800889  0.4142991849888347  0.6036125000619421
  0.5365640948325421  0.5507528031908890  0.3638568641813293
  0.2327571898174909  0.5538565210193482  0.8025936509682126
  0.1375196663557006  0.4145949258785961  0.5885450482850061
  0.8890741750340965  0.5318249101003332  0.3693195819743877
  0.7776729119769854  0.4301420725794998  0.0805927849773482
  0.5323563572119738  0.5478427052154302  0.8637615081564078
  0.4452538445928198  0.4328350424507903  0.5904513695334899
  0.2216896864144857  0.8720637142651171  0.3322718471356367
  0.1229534887790749  0.7359504006415420  0.0545167433230418
  0.8852407770102175  0.8763684896689412  0.8389531514020874
  0.7667444335751341  0.7832700695703778  0.6016806650956070
  0.5402416503050915  0.8617619232882063  0.3676841749708544
  0.4672367067039644  0.7471571128591989  0.1138798679117983
  0.2338166113423910  0.8552694725600958  0.8387433702166760
  0.1038484728414275  0.7516425230302417  0.5559727098682998
  0.9028914720485304  0.8659633475561748  0.3302711713532247
  0.7725555681744325  0.7480533112412999  0.1015747132296738
  0.5661447879218287  0.8470902339111817  0.8588701841049300
  0.4682736470172202  0.7475975529739358  0.6140650696608390
 
  0.00000000E+00  0.00000000E+00  0.00000000E+00
  0.00000000E+00  0.00000000E+00  0.00000000E+00
  0.00000000E+00  0.00000000E+00  0.00000000E+00
  0.00000000E+00  0.00000000E+00  0.00000000E+00
  0.00000000E+00  0.00000000E+00  0.00000000E+00
  0.00000000E+00  0.00000000E+00  0.00000000E+00
  0.00000000E+00  0.00000000E+00  0.00000000E+00
  0.00000000E+00  0.00000000E+00  0.00000000E+00
  0.00000000E+00  0.00000000E+00  0.00000000E+00
  0.00000000E+00  0.00000000E+00  0.00000000E+00
  0.00000000E+00  0.00000000E+00  0.00000000E+00
  0.00000000E+00  0.00000000E+00  0.00000000E+00
  0.00000000E+00  0.00000000E+00  0.00000000E+00
  0.00000000E+00  0.00000000E+00  0.00000000E+00
  0.00000000E+00  0.00000000E+00  0.00000000E+00
  0.00000000E+00  0.00000000E+00  0.00000000E+00
  0.00000000E+00  0.00000000E+00  0.00000000E+00
  0.00000000E+00  0.00000000E+00  0.00000000E+00
  0.00000000E+00  0.00000000E+00  0.00000000E+00
  0.00000000E+00  0.00000000E+00  0.00000000E+00
  0.00000000E+00  0.00000000E+00  0.00000000E+00
  0.00000000E+00  0.00000000E+00  0.00000000E+00
  0.00000000E+00  0.00000000E+00  0.00000000E+00
  0.00000000E+00  0.00000000E+00  0.00000000E+00
  0.00000000E+00  0.00000000E+00  0.00000000E+00
  0.00000000E+00  0.00000000E+00  0.00000000E+00
  0.00000000E+00  0.00000000E+00  0.00000000E+00
  0.00000000E+00  0.00000000E+00  0.00000000E+00
  0.00000000E+00  0.00000000E+00  0.00000000E+00
  0.00000000E+00  0.00000000E+00  0.00000000E+00
  0.00000000E+00  0.00000000E+00  0.00000000E+00
  0.00000000E+00  0.00000000E+00  0.00000000E+00
  0.00000000E+00  0.00000000E+00  0.00000000E+00
  0.00000000E+00  0.00000000E+00  0.00000000E+00
  0.00000000E+00  0.00000000E+00  0.00000000E+00
  0.00000000E+00  0.00000000E+00  0.00000000E+00
  0.00000000E+00  0.00000000E+00  0.00000000E+00
  0.00000000E+00  0.00000000E+00  0.00000000E+00
  0.00000000E+00  0.00000000E+00  0.00000000E+00
  0.00000000E+00  0.00000000E+00  0.00000000E+00
  0.00000000E+00  0.00000000E+00  0.00000000E+00
  0.00000000E+00  0.00000000E+00  0.00000000E+00
  0.00000000E+00  0.00000000E+00  0.00000000E+00
  0.00000000E+00  0.00000000E+00  0.00000000E+00
  0.00000000E+00  0.00000000E+00  0.00000000E+00
  0.00000000E+00  0.00000000E+00  0.00000000E+00
  0.00000000E+00  0.00000000E+00  0.00000000E+00
  0.00000000E+00  0.00000000E+00  0.00000000E+00
  0.00000000E+00  0.00000000E+00  0.00000000E+00
  0.00000000E+00  0.00000000E+00  0.00000000E+00
  0.00000000E+00  0.00000000E+00  0.00000000E+00
  0.00000000E+00  0.00000000E+00  0.00000000E+00
  0.00000000E+00  0.00000000E+00  0.00000000E+00
  0.00000000E+00  0.00000000E+00  0.00000000E+00
  0.00000000E+00  0.00000000E+00  0.00000000E+00
  0.00000000E+00  0.00000000E+00  0.00000000E+00
  0.00000000E+00  0.00000000E+00  0.00000000E+00
  0.00000000E+00  0.00000000E+00  0.00000000E+00
  0.00000000E+00  0.00000000E+00  0.00000000E+00
  0.00000000E+00  0.00000000E+00  0.00000000E+00
  0.00000000E+00  0.00000000E+00  0.00000000E+00
  0.00000000E+00  0.00000000E+00  0.00000000E+00
  0.00000000E+00  0.00000000E+00  0.00000000E+00
  0.00000000E+00  0.00000000E+00  0.00000000E+00
  0.00000000E+00  0.00000000E+00  0.00000000E+00
  0.00000000E+00  0.00000000E+00  0.00000000E+00
  0.00000000E+00  0.00000000E+00  0.00000000E+00
  0.00000000E+00  0.00000000E+00  0.00000000E+00
  0.00000000E+00  0.00000000E+00  0.00000000E+00
  0.00000000E+00  0.00000000E+00  0.00000000E+00
  0.00000000E+00  0.00000000E+00  0.00000000E+00
