Al   Sc   N                             
   1.00000000000000     
   -10.1300431242621443    0.0254684482594107   -0.0028796144726024
    -5.1540955898794225    8.7584976693166432   -0.0049592858267867
    -0.0018920251235859   -0.0632803284671506   -9.6885865104191602
   Al   Sc   N 
    23    13    35
Direct
  0.1120006022004887  0.0904726118668862  0.3973193650219784
  0.2197434980213870  0.1981003931641041  0.1379670431279365
  0.7685635790871856  0.1071202323939389  0.8920574124343190
  0.8776510106628876  0.2043164617423940  0.6387149028576999
  0.5425525215231417  0.2140928543323497  0.1326096829017729
  0.2269578507223358  0.2088089147507119  0.6397683283728455
  0.8924511434701756  0.2070904931828039  0.1370680925830214
  0.5567727327916501  0.2138341420692669  0.6413258650390858
  0.2246981195405695  0.5347599020165603  0.1399716690098103
  0.4364628613580166  0.4378914535334530  0.3842038224159978
  0.5634080681598164  0.5572374567183758  0.1196336897878041
  0.2305106772674677  0.5345770002003647  0.6382624799279952
  0.8915871821979096  0.5353244898105061  0.1526933081757136
  0.4380557559030862  0.4319692652463374  0.9033998333329762
  0.5526213515750342  0.5355374904739989  0.5885312112005963
  0.1119101640239109  0.7594126277785378  0.3913932819442252
  0.7717797445017922  0.7645368178669116  0.8286474059340421
  0.8851927245831774  0.8814922776854743  0.6450311772018935
  0.4379612370822414  0.7650422226529798  0.3367273141200542
  0.5620015667867762  0.8623896156238047  0.0819296405599630
  0.1216193163740371  0.7515655073729803  0.8805046260883032
  0.4497750196787393  0.7472071135473328  0.8446250827487845
  0.5535499508275166  0.8680239598591371  0.5961203749621475
  0.4444519389137085  0.0898036124402992  0.3725026359330528
  0.1068681914635619  0.0956777448522033  0.8653934559847301
  0.7773960644594879  0.0952395808556901  0.3702180432418771
  0.4530637601554091  0.0913076763084106  0.8674150041158128
  0.1320792828148143  0.4179769578852515  0.3722687915610052
  0.7681837469786359  0.4343296355792816  0.8805127238384358
  0.8938649879227327  0.5333315218057777  0.6138684556461058
  0.1120839532684883  0.4382957543933017  0.8876892513557308
  0.7759324532237741  0.4188562881180786  0.3671145264462794
  0.2169865657495862  0.8732306410885684  0.1206203266720252
  0.2274433772173836  0.8629511048919127  0.6168450441426359
  0.7759750443276587  0.7668323998432314  0.3662269177963466
  0.8868946754144673  0.8661726485183365  0.1071825692210240
  0.2164362050364161  0.1844313270165472  0.3342777099795811
  0.1003594176753069  0.1116153003722218  0.0833878977036022
  0.8724492853897772  0.2017287000118699  0.8335551257351668
  0.7748547535240462  0.0937471175828719  0.5936491498142118
  0.5348541109052078  0.2348297183886032  0.3261724744236787
  0.4478264296729506  0.0885368132724267  0.1044883049740122
  0.2224509173727256  0.2112506205726916  0.8350103562035684
  0.1010202566446452  0.1133871732110308  0.5999642380464252
  0.9126819239771464  0.1866959081172155  0.3322074488723743
  0.7615429574854886  0.1211405442575781  0.0918268441283487
  0.5591243916803421  0.2258279465917425  0.8396621260130814
  0.4495508915470054  0.0943113106411531  0.6131028327611929
  0.2327464818033391  0.5542790758760390  0.3314978752093012
  0.1131228781996612  0.4244008006163753  0.1167524039347114
  0.8822077129137256  0.5530060139548780  0.8362384841282733
  0.7640229561276257  0.4161795613904786  0.5986371154467989
  0.5338031503485681  0.5487235817468346  0.3444696988510287
  0.2382822598250058  0.5435625649997604  0.8315418677816453
  0.1388593591147682  0.4169468567117889  0.5950989847125641
  0.8963052313059521  0.5320418735304884  0.3642325928373538
  0.7843951411493535  0.4282169400085962  0.1174798310295486
  0.5308112201704631  0.5489089598337245  0.9209898052628418
  0.4445503359063423  0.4294102832094282  0.5833417957075397
  0.2202734920767924  0.8701956490180578  0.3697047857020905
  0.1249373719204101  0.7331819851926014  0.0738268830870155
  0.8831563364315471  0.8787513774448072  0.8527677990575384
  0.7684877186457797  0.7835279663467958  0.6213690290562255
  0.5414809176151891  0.8570602375183469  0.4025454843045679
  0.4536561773570114  0.7699149350295542  0.1406522424760510
  0.2306084881795059  0.8551694989325895  0.8520664495688237
  0.0981729773662465  0.7502066498562598  0.5919652888324123
  0.9109881918289986  0.8646101098640244  0.3285707765722847
  0.7686005229097930  0.7483294023412341  0.1343360922307042
  0.5645961663885544  0.8473688620522424  0.8829425710218430
  0.4725023334716028  0.7372226790640894  0.6457102685197142
 
  0.00000000E+00  0.00000000E+00  0.00000000E+00
  0.00000000E+00  0.00000000E+00  0.00000000E+00
  0.00000000E+00  0.00000000E+00  0.00000000E+00
  0.00000000E+00  0.00000000E+00  0.00000000E+00
  0.00000000E+00  0.00000000E+00  0.00000000E+00
  0.00000000E+00  0.00000000E+00  0.00000000E+00
  0.00000000E+00  0.00000000E+00  0.00000000E+00
  0.00000000E+00  0.00000000E+00  0.00000000E+00
  0.00000000E+00  0.00000000E+00  0.00000000E+00
  0.00000000E+00  0.00000000E+00  0.00000000E+00
  0.00000000E+00  0.00000000E+00  0.00000000E+00
  0.00000000E+00  0.00000000E+00  0.00000000E+00
  0.00000000E+00  0.00000000E+00  0.00000000E+00
  0.00000000E+00  0.00000000E+00  0.00000000E+00
  0.00000000E+00  0.00000000E+00  0.00000000E+00
  0.00000000E+00  0.00000000E+00  0.00000000E+00
  0.00000000E+00  0.00000000E+00  0.00000000E+00
  0.00000000E+00  0.00000000E+00  0.00000000E+00
  0.00000000E+00  0.00000000E+00  0.00000000E+00
  0.00000000E+00  0.00000000E+00  0.00000000E+00
  0.00000000E+00  0.00000000E+00  0.00000000E+00
  0.00000000E+00  0.00000000E+00  0.00000000E+00
  0.00000000E+00  0.00000000E+00  0.00000000E+00
  0.00000000E+00  0.00000000E+00  0.00000000E+00
  0.00000000E+00  0.00000000E+00  0.00000000E+00
  0.00000000E+00  0.00000000E+00  0.00000000E+00
  0.00000000E+00  0.00000000E+00  0.00000000E+00
  0.00000000E+00  0.00000000E+00  0.00000000E+00
  0.00000000E+00  0.00000000E+00  0.00000000E+00
  0.00000000E+00  0.00000000E+00  0.00000000E+00
  0.00000000E+00  0.00000000E+00  0.00000000E+00
  0.00000000E+00  0.00000000E+00  0.00000000E+00
  0.00000000E+00  0.00000000E+00  0.00000000E+00
  0.00000000E+00  0.00000000E+00  0.00000000E+00
  0.00000000E+00  0.00000000E+00  0.00000000E+00
  0.00000000E+00  0.00000000E+00  0.00000000E+00
  0.00000000E+00  0.00000000E+00  0.00000000E+00
  0.00000000E+00  0.00000000E+00  0.00000000E+00
  0.00000000E+00  0.00000000E+00  0.00000000E+00
  0.00000000E+00  0.00000000E+00  0.00000000E+00
  0.00000000E+00  0.00000000E+00  0.00000000E+00
  0.00000000E+00  0.00000000E+00  0.00000000E+00
  0.00000000E+00  0.00000000E+00  0.00000000E+00
  0.00000000E+00  0.00000000E+00  0.00000000E+00
  0.00000000E+00  0.00000000E+00  0.00000000E+00
  0.00000000E+00  0.00000000E+00  0.00000000E+00
  0.00000000E+00  0.00000000E+00  0.00000000E+00
  0.00000000E+00  0.00000000E+00  0.00000000E+00
  0.00000000E+00  0.00000000E+00  0.00000000E+00
  0.00000000E+00  0.00000000E+00  0.00000000E+00
  0.00000000E+00  0.00000000E+00  0.00000000E+00
  0.00000000E+00  0.00000000E+00  0.00000000E+00
  0.00000000E+00  0.00000000E+00  0.00000000E+00
  0.00000000E+00  0.00000000E+00  0.00000000E+00
  0.00000000E+00  0.00000000E+00  0.00000000E+00
  0.00000000E+00  0.00000000E+00  0.00000000E+00
  0.00000000E+00  0.00000000E+00  0.00000000E+00
  0.00000000E+00  0.00000000E+00  0.00000000E+00
  0.00000000E+00  0.00000000E+00  0.00000000E+00
  0.00000000E+00  0.00000000E+00  0.00000000E+00
  0.00000000E+00  0.00000000E+00  0.00000000E+00
  0.00000000E+00  0.00000000E+00  0.00000000E+00
  0.00000000E+00  0.00000000E+00  0.00000000E+00
  0.00000000E+00  0.00000000E+00  0.00000000E+00
  0.00000000E+00  0.00000000E+00  0.00000000E+00
  0.00000000E+00  0.00000000E+00  0.00000000E+00
  0.00000000E+00  0.00000000E+00  0.00000000E+00
  0.00000000E+00  0.00000000E+00  0.00000000E+00
  0.00000000E+00  0.00000000E+00  0.00000000E+00
  0.00000000E+00  0.00000000E+00  0.00000000E+00
  0.00000000E+00  0.00000000E+00  0.00000000E+00
