Al   Sc   N                             
   1.00000000000000     
    -9.9911837549379285    0.0207510616047916   -0.0123634485606954
    -5.0211540011578695    8.6726715507912111   -0.0138848907105088
    -0.0113288813821636    0.0071457946801470   -9.9807150725665661
   Al   Sc   N 
    23    13    35
Direct
  0.1105706326070504  0.0930837292036273  0.3001080874373585
  0.2208050064835874  0.2078127048347440  0.0567449732783061
  0.7749756787380520  0.0948058990470670  0.7965340922261106
  0.8900924239489214  0.2052511802957540  0.5552682979868280
  0.5587002886345900  0.2044022709906130  0.0515026825910851
  0.2236537696579930  0.2024497426629637  0.5503277467950340
  0.8816591531308973  0.2086544433254360  0.0537820614799358
  0.5461749781450109  0.2171414649471117  0.5587888320538781
  0.2182125328163380  0.5395829024720555  0.0549027954277364
  0.4373682227466702  0.4401086350861192  0.3107180368541833
  0.5624325497337423  0.5494036653760759  0.0539886282333413
  0.2291725536348252  0.5377298278106792  0.5547220123834720
  0.8879284922517598  0.5423086535290622  0.0417580325725382
  0.4429201062647081  0.4359911011733431  0.8076509101544715
  0.5507406262586017  0.5363453492731480  0.5541859010345718
  0.1174517024011266  0.7582595604829407  0.3071837638454014
  0.7732814975288136  0.7686019385555696  0.7996668879113074
  0.8899209691997214  0.8708239144087031  0.5603713436875779
  0.4432851460673675  0.7586138301005505  0.3065566839340121
  0.5629255004601106  0.8611407230923049  0.0502012478441145
  0.1127818833396645  0.7571477225184893  0.8035313221726454
  0.4477795501374828  0.7523954841034382  0.8042428008160059
  0.5531124687713884  0.8706099576717747  0.5582541165460952
  0.4448026607687510  0.0914274099144592  0.3134518721459187
  0.1090702796079555  0.0914204774705922  0.8166544292945090
  0.7760094236299508  0.0989206795315809  0.3267520021949011
  0.4535958372027267  0.0882480108699752  0.8139780139364348
  0.1177874251814544  0.4278697071803137  0.3137873795472217
  0.7672461077730262  0.4248471017160256  0.8176204779040788
  0.8881287788226899  0.5372254791357491  0.5764291458826420
  0.1238393618784954  0.4285901693914624  0.8120967319176344
  0.7744507680962940  0.4262522844006114  0.3080081549580811
  0.2292484698647073  0.8651815645706478  0.0679254815580990
  0.2232947500073337  0.8699521656224931  0.5592712171570824
  0.7764470825825498  0.7585902324595963  0.3163520930027417
  0.8847274643162280  0.8763848731993704  0.0581675560988799
  0.2143901693099934  0.1934510388545121  0.3584801114790395
  0.0989987426038113  0.1124952277638371  0.1045752756548595
  0.8774809130323575  0.1907133295063161  0.8661013999176959
  0.7750666950955534  0.0961327954757252  0.5997021905594622
  0.5357145241477710  0.2354487635514317  0.3685848430998817
  0.4514176220648096  0.0891268301930594  0.0915516915998538
  0.2264561501385245  0.2023470854141820  0.8702913555288703
  0.1036381119720247  0.1108356854075367  0.6059987826622049
  0.9086090459510743  0.1964934361783719  0.3659492981410750
  0.7638323705024206  0.1170023226885064  0.1136130941258671
  0.5617807497292517  0.2213585634590345  0.8608001769635578
  0.4443324294757360  0.0937455141994405  0.5946440204768564
  0.2319472211852514  0.5524447685018572  0.3646145965776810
  0.1097163393879583  0.4296670024113851  0.0908557499460301
  0.8826780154340383  0.5550500870097750  0.8433933618840967
  0.7631266169628361  0.4161719247143196  0.6012274852951549
  0.5345915811178301  0.5497906965783415  0.3614150836256229
  0.2350080877497973  0.5491423323947515  0.8688164919065784
  0.1372100909533671  0.4153367255115654  0.5946887649840704
  0.8907067310047836  0.5333042406404829  0.3680168550701310
  0.7803584943143491  0.4294479945794833  0.0844019400552583
  0.5330753152361538  0.5487709028741961  0.8708766377488502
  0.4419370252266006  0.4326697725920212  0.6161220395028266
  0.2222944157803184  0.8731012554423074  0.3367780857272606
  0.1178282537232818  0.7413042607040836  0.1173521742794250
  0.8845988445843176  0.8758510642118580  0.8448088188016598
  0.7649844428622359  0.7835740735409473  0.6068004073274906
  0.5434706466385961  0.8605710719298330  0.3701998048064468
  0.4669311915825034  0.7516319085925289  0.1167401800689234
  0.2315894216522736  0.8524928989834777  0.8478349450106535
  0.1037921663893897  0.7483742775741575  0.6139510557132297
  0.9094963141090702  0.8614354619410918  0.3661147252518901
  0.7739724995081900  0.7501567162516807  0.1013926106152852
  0.5636844793704086  0.8489775600516651  0.8602169504189519
  0.4639916744784287  0.7468944480966755  0.6143680207636422
 
  0.00000000E+00  0.00000000E+00  0.00000000E+00
  0.00000000E+00  0.00000000E+00  0.00000000E+00
  0.00000000E+00  0.00000000E+00  0.00000000E+00
  0.00000000E+00  0.00000000E+00  0.00000000E+00
  0.00000000E+00  0.00000000E+00  0.00000000E+00
  0.00000000E+00  0.00000000E+00  0.00000000E+00
  0.00000000E+00  0.00000000E+00  0.00000000E+00
  0.00000000E+00  0.00000000E+00  0.00000000E+00
  0.00000000E+00  0.00000000E+00  0.00000000E+00
  0.00000000E+00  0.00000000E+00  0.00000000E+00
  0.00000000E+00  0.00000000E+00  0.00000000E+00
  0.00000000E+00  0.00000000E+00  0.00000000E+00
  0.00000000E+00  0.00000000E+00  0.00000000E+00
  0.00000000E+00  0.00000000E+00  0.00000000E+00
  0.00000000E+00  0.00000000E+00  0.00000000E+00
  0.00000000E+00  0.00000000E+00  0.00000000E+00
  0.00000000E+00  0.00000000E+00  0.00000000E+00
  0.00000000E+00  0.00000000E+00  0.00000000E+00
  0.00000000E+00  0.00000000E+00  0.00000000E+00
  0.00000000E+00  0.00000000E+00  0.00000000E+00
  0.00000000E+00  0.00000000E+00  0.00000000E+00
  0.00000000E+00  0.00000000E+00  0.00000000E+00
  0.00000000E+00  0.00000000E+00  0.00000000E+00
  0.00000000E+00  0.00000000E+00  0.00000000E+00
  0.00000000E+00  0.00000000E+00  0.00000000E+00
  0.00000000E+00  0.00000000E+00  0.00000000E+00
  0.00000000E+00  0.00000000E+00  0.00000000E+00
  0.00000000E+00  0.00000000E+00  0.00000000E+00
  0.00000000E+00  0.00000000E+00  0.00000000E+00
  0.00000000E+00  0.00000000E+00  0.00000000E+00
  0.00000000E+00  0.00000000E+00  0.00000000E+00
  0.00000000E+00  0.00000000E+00  0.00000000E+00
  0.00000000E+00  0.00000000E+00  0.00000000E+00
  0.00000000E+00  0.00000000E+00  0.00000000E+00
  0.00000000E+00  0.00000000E+00  0.00000000E+00
  0.00000000E+00  0.00000000E+00  0.00000000E+00
  0.00000000E+00  0.00000000E+00  0.00000000E+00
  0.00000000E+00  0.00000000E+00  0.00000000E+00
  0.00000000E+00  0.00000000E+00  0.00000000E+00
  0.00000000E+00  0.00000000E+00  0.00000000E+00
  0.00000000E+00  0.00000000E+00  0.00000000E+00
  0.00000000E+00  0.00000000E+00  0.00000000E+00
  0.00000000E+00  0.00000000E+00  0.00000000E+00
  0.00000000E+00  0.00000000E+00  0.00000000E+00
  0.00000000E+00  0.00000000E+00  0.00000000E+00
  0.00000000E+00  0.00000000E+00  0.00000000E+00
  0.00000000E+00  0.00000000E+00  0.00000000E+00
  0.00000000E+00  0.00000000E+00  0.00000000E+00
  0.00000000E+00  0.00000000E+00  0.00000000E+00
  0.00000000E+00  0.00000000E+00  0.00000000E+00
  0.00000000E+00  0.00000000E+00  0.00000000E+00
  0.00000000E+00  0.00000000E+00  0.00000000E+00
  0.00000000E+00  0.00000000E+00  0.00000000E+00
  0.00000000E+00  0.00000000E+00  0.00000000E+00
  0.00000000E+00  0.00000000E+00  0.00000000E+00
  0.00000000E+00  0.00000000E+00  0.00000000E+00
  0.00000000E+00  0.00000000E+00  0.00000000E+00
  0.00000000E+00  0.00000000E+00  0.00000000E+00
  0.00000000E+00  0.00000000E+00  0.00000000E+00
  0.00000000E+00  0.00000000E+00  0.00000000E+00
  0.00000000E+00  0.00000000E+00  0.00000000E+00
  0.00000000E+00  0.00000000E+00  0.00000000E+00
  0.00000000E+00  0.00000000E+00  0.00000000E+00
  0.00000000E+00  0.00000000E+00  0.00000000E+00
  0.00000000E+00  0.00000000E+00  0.00000000E+00
  0.00000000E+00  0.00000000E+00  0.00000000E+00
  0.00000000E+00  0.00000000E+00  0.00000000E+00
  0.00000000E+00  0.00000000E+00  0.00000000E+00
  0.00000000E+00  0.00000000E+00  0.00000000E+00
  0.00000000E+00  0.00000000E+00  0.00000000E+00
  0.00000000E+00  0.00000000E+00  0.00000000E+00
