Al   Sc   N                             
   1.00000000000000     
    -9.9457090810357478    0.0211179143610230   -0.0133136881231281
    -4.9918458198184075    8.6396427294539606   -0.0141526448529026
    -0.0148702388270458    0.0087993067681368  -10.0988696176593464
   Al   Sc   N 
    23    13    35
Direct
  0.1100207635681514  0.0943037094673613  0.2951571671742030
  0.2204591951012986  0.2076570008487977  0.0501323341331315
  0.7755440674004888  0.0945758553564318  0.7911502886967199
  0.8892496195917303  0.2055828140186975  0.5491687443386581
  0.5583882662027548  0.2043943270938300  0.0447461041620016
  0.2235380948089229  0.2029989625085307  0.5442206653960753
  0.8825300169225017  0.2084184825588835  0.0474736899925716
  0.5474428249559082  0.2159652203841205  0.5536592718974234
  0.2186607067915958  0.5393964762209720  0.0478658088038770
  0.4378198748334157  0.4401634533977017  0.3100147818678494
  0.5618209402269798  0.5490934888520442  0.0463186011657299
  0.2285467144152804  0.5376281977978508  0.5502553581432679
  0.8878804054236653  0.5425500888054913  0.0358114114232251
  0.4430038969986256  0.4356209976372156  0.8018020747781023
  0.5514773546428131  0.5365894170121592  0.5503769411286541
  0.1172110532574564  0.7579322546240661  0.3016005465093698
  0.7731400462385167  0.7681893358188745  0.7941784326914672
  0.8896635930462367  0.8710451727628268  0.5557039593973130
  0.4440118960985018  0.7583708944775154  0.3005920342278472
  0.5624306188642905  0.8617693098590777  0.0441553562442323
  0.1132879384884617  0.7573041316567668  0.7974294243743998
  0.4470247024906655  0.7531668434453920  0.7987381415952726
  0.5532834432765412  0.8709378783292507  0.5523688618922051
  0.4445396229197058  0.0919469071565260  0.3067025870083313
  0.1097063801456031  0.0900460274355410  0.8077059726673994
  0.7767696516408975  0.0981157967138984  0.3189277486956072
  0.4530377319647272  0.0883169362345768  0.8066460448010560
  0.1175477271128500  0.4284882202536195  0.3053336285791346
  0.7683961884462036  0.4245437566558508  0.8118688218826193
  0.8876739779784373  0.5376023038460218  0.5679056307547725
  0.1228650154253330  0.4285666323256478  0.8057007048170703
  0.7735836537091956  0.4267258357066410  0.2991976879954095
  0.2288798291139074  0.8660118708867657  0.0630629112929313
  0.2236809827893609  0.8693970293522923  0.5498822599742397
  0.7766148662443868  0.7592712675866196  0.3081677243208958
  0.8854785874295388  0.8762157959814587  0.0495937313111270
  0.2141872344889961  0.1947384939074510  0.3550041847298573
  0.0985748767751176  0.1134842998532690  0.1025199052976618
  0.8789323280428221  0.1896836313937413  0.8622523788476997
  0.7753542940338747  0.0960772500678004  0.5966963493471482
  0.5371431981769632  0.2343180436320864  0.3654650313463463
  0.4505344205601105  0.0896181312209734  0.0874168958991675
  0.2257047827971306  0.2017554054540014  0.8659520010146622
  0.1039179602058411  0.1097430037381599  0.5995857689394199
  0.9073621410829986  0.1977986270395675  0.3619829931090877
  0.7639957059313005  0.1165604649595835  0.1082271036141407
  0.5620310854596582  0.2206908571813457  0.8561558769699005
  0.4440607075830911  0.0938753915463550  0.5903756609815574
  0.2314761388399944  0.5524426091314680  0.3620948162877298
  0.1100089330890270  0.4294346462189793  0.0858380499324625
  0.8824912298370293  0.5555648895739651  0.8412017498409696
  0.7638783127279396  0.4160406341752250  0.5986883215851222
  0.5352633470398942  0.5503318661166929  0.3596003079383436
  0.2345596550955733  0.5491076409972564  0.8637328600646512
  0.1360853029036946  0.4155251830713667  0.5916110846711575
  0.8900855005794668  0.5337002048344246  0.3618100677209029
  0.7799087011195809  0.4294322345401724  0.0787792434372676
  0.5334169506636215  0.5488482766860869  0.8651042030807474
  0.4421429786036342  0.4320881813659412  0.6118538938563560
  0.2223546479963616  0.8733500537117109  0.3309114596183775
  0.1178077542966633  0.7404470265688019  0.1139893653270363
  0.8851625724622636  0.8753860637904012  0.8393519084427439
  0.7647570164058024  0.7833749155576513  0.6039769176021608
  0.5439265294036844  0.8609011577255217  0.3661301373833865
  0.4677154389796030  0.7505863621154774  0.1127567823061071
  0.2315705257682197  0.8523000981087279  0.8462964555574217
  0.1043363168673110  0.7487238704440955  0.6100379274318541
  0.9097326189446875  0.8610949281346834  0.3639409354362471
  0.7739176181044840  0.7510008481373234  0.0961131851007053
  0.5632114388932692  0.8495390947602885  0.8564450243712045
  0.4632136298440699  0.7479906074132927  0.6107102364841097
 
  0.00000000E+00  0.00000000E+00  0.00000000E+00
  0.00000000E+00  0.00000000E+00  0.00000000E+00
  0.00000000E+00  0.00000000E+00  0.00000000E+00
  0.00000000E+00  0.00000000E+00  0.00000000E+00
  0.00000000E+00  0.00000000E+00  0.00000000E+00
  0.00000000E+00  0.00000000E+00  0.00000000E+00
  0.00000000E+00  0.00000000E+00  0.00000000E+00
  0.00000000E+00  0.00000000E+00  0.00000000E+00
  0.00000000E+00  0.00000000E+00  0.00000000E+00
  0.00000000E+00  0.00000000E+00  0.00000000E+00
  0.00000000E+00  0.00000000E+00  0.00000000E+00
  0.00000000E+00  0.00000000E+00  0.00000000E+00
  0.00000000E+00  0.00000000E+00  0.00000000E+00
  0.00000000E+00  0.00000000E+00  0.00000000E+00
  0.00000000E+00  0.00000000E+00  0.00000000E+00
  0.00000000E+00  0.00000000E+00  0.00000000E+00
  0.00000000E+00  0.00000000E+00  0.00000000E+00
  0.00000000E+00  0.00000000E+00  0.00000000E+00
  0.00000000E+00  0.00000000E+00  0.00000000E+00
  0.00000000E+00  0.00000000E+00  0.00000000E+00
  0.00000000E+00  0.00000000E+00  0.00000000E+00
  0.00000000E+00  0.00000000E+00  0.00000000E+00
  0.00000000E+00  0.00000000E+00  0.00000000E+00
  0.00000000E+00  0.00000000E+00  0.00000000E+00
  0.00000000E+00  0.00000000E+00  0.00000000E+00
  0.00000000E+00  0.00000000E+00  0.00000000E+00
  0.00000000E+00  0.00000000E+00  0.00000000E+00
  0.00000000E+00  0.00000000E+00  0.00000000E+00
  0.00000000E+00  0.00000000E+00  0.00000000E+00
  0.00000000E+00  0.00000000E+00  0.00000000E+00
  0.00000000E+00  0.00000000E+00  0.00000000E+00
  0.00000000E+00  0.00000000E+00  0.00000000E+00
  0.00000000E+00  0.00000000E+00  0.00000000E+00
  0.00000000E+00  0.00000000E+00  0.00000000E+00
  0.00000000E+00  0.00000000E+00  0.00000000E+00
  0.00000000E+00  0.00000000E+00  0.00000000E+00
  0.00000000E+00  0.00000000E+00  0.00000000E+00
  0.00000000E+00  0.00000000E+00  0.00000000E+00
  0.00000000E+00  0.00000000E+00  0.00000000E+00
  0.00000000E+00  0.00000000E+00  0.00000000E+00
  0.00000000E+00  0.00000000E+00  0.00000000E+00
  0.00000000E+00  0.00000000E+00  0.00000000E+00
  0.00000000E+00  0.00000000E+00  0.00000000E+00
  0.00000000E+00  0.00000000E+00  0.00000000E+00
  0.00000000E+00  0.00000000E+00  0.00000000E+00
  0.00000000E+00  0.00000000E+00  0.00000000E+00
  0.00000000E+00  0.00000000E+00  0.00000000E+00
  0.00000000E+00  0.00000000E+00  0.00000000E+00
  0.00000000E+00  0.00000000E+00  0.00000000E+00
  0.00000000E+00  0.00000000E+00  0.00000000E+00
  0.00000000E+00  0.00000000E+00  0.00000000E+00
  0.00000000E+00  0.00000000E+00  0.00000000E+00
  0.00000000E+00  0.00000000E+00  0.00000000E+00
  0.00000000E+00  0.00000000E+00  0.00000000E+00
  0.00000000E+00  0.00000000E+00  0.00000000E+00
  0.00000000E+00  0.00000000E+00  0.00000000E+00
  0.00000000E+00  0.00000000E+00  0.00000000E+00
  0.00000000E+00  0.00000000E+00  0.00000000E+00
  0.00000000E+00  0.00000000E+00  0.00000000E+00
  0.00000000E+00  0.00000000E+00  0.00000000E+00
  0.00000000E+00  0.00000000E+00  0.00000000E+00
  0.00000000E+00  0.00000000E+00  0.00000000E+00
  0.00000000E+00  0.00000000E+00  0.00000000E+00
  0.00000000E+00  0.00000000E+00  0.00000000E+00
  0.00000000E+00  0.00000000E+00  0.00000000E+00
  0.00000000E+00  0.00000000E+00  0.00000000E+00
  0.00000000E+00  0.00000000E+00  0.00000000E+00
  0.00000000E+00  0.00000000E+00  0.00000000E+00
  0.00000000E+00  0.00000000E+00  0.00000000E+00
  0.00000000E+00  0.00000000E+00  0.00000000E+00
  0.00000000E+00  0.00000000E+00  0.00000000E+00
