Al   Sc   N                             
   1.00000000000000     
   -10.0602460452118301    0.0239216194960063   -0.0043639604711537
    -5.0873809464523330    8.7238805596104054   -0.0063812528866297
     0.0387307793812520   -0.0426440658670121   -9.8860749009393256
   Al   Sc   N 
    23    13    35
Direct
  0.1094919120083375  0.0951059464505661  0.3790834279303184
  0.2172603764631589  0.2027503708299960  0.1231237367600997
  0.7710537203222785  0.1034164430678501  0.8757230352470344
  0.8822809506249243  0.2000124487159241  0.6220945563799987
  0.5444366533810410  0.2175439177454308  0.1189666034982650
  0.2284258866330617  0.2062985054250959  0.6213210466993146
  0.8899688650729658  0.2088441823064571  0.1176480076315087
  0.5587021647923223  0.2090698323485114  0.6226644384989442
  0.2253906353810180  0.5357782291075424  0.1248428779521333
  0.4365371896269536  0.4379602758532570  0.3761207561986026
  0.5574905858152306  0.5521087341227187  0.0707549324703720
  0.2273527522299190  0.5369756569325546  0.6195289285924446
  0.8829399894528649  0.5412818709860474  0.0610389723353961
  0.4411159281245531  0.4332575457351524  0.8541028041192860
  0.5548984428902060  0.5388814761722500  0.5636438440499418
  0.1105466619225837  0.7593526693328272  0.3749246321257189
  0.7689436936368566  0.7662778390799687  0.8187211737285622
  0.8853619648537929  0.8793359113414780  0.6327936471516225
  0.4431375151082193  0.7592095241474013  0.3246573682968688
  0.5568924252749383  0.8611543702410245  0.0673976375715597
  0.1231837608236006  0.7535515750493573  0.8669579160144707
  0.4486349189191046  0.7522524914389237  0.8154640430334794
  0.5569831978854864  0.8687148492413641  0.5720524967316436
  0.4435826083958077  0.0941544389311844  0.3561385748678418
  0.1115633435880810  0.0904050430856529  0.8545412905944403
  0.7803115739488575  0.0939120377203011  0.3564233845724374
  0.4553874748802329  0.0890670065597661  0.8545540073597593
  0.1219282093358629  0.4242617241280016  0.3569008238010198
  0.7652339336208271  0.4263874965442724  0.8357774849709827
  0.8917571741337653  0.5365188464134718  0.5965970204261239
  0.1237476109667668  0.4307284508240130  0.8649283174678430
  0.7736244865230404  0.4287518805713404  0.3339874442074304
  0.2167430147305609  0.8737205694762125  0.1183316012760827
  0.2258429519980680  0.8653793905141711  0.5973759266204368
  0.7786179959785997  0.7591966869204114  0.3306936300800345
  0.8885528278588097  0.8679462695355937  0.0885048429757731
  0.2139241115779242  0.1899329728435148  0.3146355140649533
  0.1009046424798683  0.1109531905698731  0.0673369158070543
  0.8802446841259837  0.1905416068770194  0.8138407338360381
  0.7775917361077944  0.0901694128905675  0.5746279821898597
  0.5389971203910449  0.2366158708565465  0.3093578367234358
  0.4459956231840891  0.0911399602061493  0.0880095652190604
  0.2268736867758179  0.2050583481365109  0.8122432200692913
  0.1009210011166601  0.1143788766128964  0.5761361481198932
  0.9097027116258474  0.1923107077812958  0.3107679672765258
  0.7609892494203763  0.1212437941571523  0.0706523526600051
  0.5626212306343632  0.2223571180277730  0.8174291407498089
  0.4502518372176922  0.0935610497653556  0.5906517581196411
  0.2336401958099472  0.5533370904630246  0.3139741604794182
  0.1108417017607124  0.4273565905528258  0.0917825151401743
  0.8820809476497686  0.5533899334583836  0.8549215845411240
  0.7650276496821746  0.4161816204504376  0.6042537719034584
  0.5350108603427373  0.5525117831743245  0.3694391554094310
  0.2348925068688459  0.5485139485225758  0.8095592064722297
  0.1382023204389000  0.4162010563890988  0.5817325436904213
  0.8908110234660072  0.5360851895027707  0.3829685450533020
  0.7761795532643916  0.4302113227297895  0.0944313799671903
  0.5300806668500755  0.5511376412527085  0.8830741725644771
  0.4439403318289550  0.4269730233189364  0.5743197191142215
  0.2202711960326056  0.8721243979872213  0.3511762029719350
  0.1288752914155964  0.7337861814233761  0.0559183378755250
  0.8858827760520214  0.8774895622747820  0.8389007267614730
  0.7658740479753234  0.7833174996082377  0.6223401733564273
  0.5456919015772073  0.8592025072907674  0.3809795179574067
  0.4578997068068489  0.7553873549095442  0.1301654188938812
  0.2310834619770148  0.8541831869450718  0.8251885825871739
  0.0953994134776792  0.7507569433257189  0.5696786251072794
  0.9116006424369090  0.8635932343385875  0.3049856999932601
  0.7680519571932010  0.7479597801117279  0.1114754003368716
  0.5611919551774420  0.8475244319039987  0.8739604386730093
  0.4719775853400279  0.7439974010449788  0.6246227120938315
 
  0.00000000E+00  0.00000000E+00  0.00000000E+00
  0.00000000E+00  0.00000000E+00  0.00000000E+00
  0.00000000E+00  0.00000000E+00  0.00000000E+00
  0.00000000E+00  0.00000000E+00  0.00000000E+00
  0.00000000E+00  0.00000000E+00  0.00000000E+00
  0.00000000E+00  0.00000000E+00  0.00000000E+00
  0.00000000E+00  0.00000000E+00  0.00000000E+00
  0.00000000E+00  0.00000000E+00  0.00000000E+00
  0.00000000E+00  0.00000000E+00  0.00000000E+00
  0.00000000E+00  0.00000000E+00  0.00000000E+00
  0.00000000E+00  0.00000000E+00  0.00000000E+00
  0.00000000E+00  0.00000000E+00  0.00000000E+00
  0.00000000E+00  0.00000000E+00  0.00000000E+00
  0.00000000E+00  0.00000000E+00  0.00000000E+00
  0.00000000E+00  0.00000000E+00  0.00000000E+00
  0.00000000E+00  0.00000000E+00  0.00000000E+00
  0.00000000E+00  0.00000000E+00  0.00000000E+00
  0.00000000E+00  0.00000000E+00  0.00000000E+00
  0.00000000E+00  0.00000000E+00  0.00000000E+00
  0.00000000E+00  0.00000000E+00  0.00000000E+00
  0.00000000E+00  0.00000000E+00  0.00000000E+00
  0.00000000E+00  0.00000000E+00  0.00000000E+00
  0.00000000E+00  0.00000000E+00  0.00000000E+00
  0.00000000E+00  0.00000000E+00  0.00000000E+00
  0.00000000E+00  0.00000000E+00  0.00000000E+00
  0.00000000E+00  0.00000000E+00  0.00000000E+00
  0.00000000E+00  0.00000000E+00  0.00000000E+00
  0.00000000E+00  0.00000000E+00  0.00000000E+00
  0.00000000E+00  0.00000000E+00  0.00000000E+00
  0.00000000E+00  0.00000000E+00  0.00000000E+00
  0.00000000E+00  0.00000000E+00  0.00000000E+00
  0.00000000E+00  0.00000000E+00  0.00000000E+00
  0.00000000E+00  0.00000000E+00  0.00000000E+00
  0.00000000E+00  0.00000000E+00  0.00000000E+00
  0.00000000E+00  0.00000000E+00  0.00000000E+00
  0.00000000E+00  0.00000000E+00  0.00000000E+00
  0.00000000E+00  0.00000000E+00  0.00000000E+00
  0.00000000E+00  0.00000000E+00  0.00000000E+00
  0.00000000E+00  0.00000000E+00  0.00000000E+00
  0.00000000E+00  0.00000000E+00  0.00000000E+00
  0.00000000E+00  0.00000000E+00  0.00000000E+00
  0.00000000E+00  0.00000000E+00  0.00000000E+00
  0.00000000E+00  0.00000000E+00  0.00000000E+00
  0.00000000E+00  0.00000000E+00  0.00000000E+00
  0.00000000E+00  0.00000000E+00  0.00000000E+00
  0.00000000E+00  0.00000000E+00  0.00000000E+00
  0.00000000E+00  0.00000000E+00  0.00000000E+00
  0.00000000E+00  0.00000000E+00  0.00000000E+00
  0.00000000E+00  0.00000000E+00  0.00000000E+00
  0.00000000E+00  0.00000000E+00  0.00000000E+00
  0.00000000E+00  0.00000000E+00  0.00000000E+00
  0.00000000E+00  0.00000000E+00  0.00000000E+00
  0.00000000E+00  0.00000000E+00  0.00000000E+00
  0.00000000E+00  0.00000000E+00  0.00000000E+00
  0.00000000E+00  0.00000000E+00  0.00000000E+00
  0.00000000E+00  0.00000000E+00  0.00000000E+00
  0.00000000E+00  0.00000000E+00  0.00000000E+00
  0.00000000E+00  0.00000000E+00  0.00000000E+00
  0.00000000E+00  0.00000000E+00  0.00000000E+00
  0.00000000E+00  0.00000000E+00  0.00000000E+00
  0.00000000E+00  0.00000000E+00  0.00000000E+00
  0.00000000E+00  0.00000000E+00  0.00000000E+00
  0.00000000E+00  0.00000000E+00  0.00000000E+00
  0.00000000E+00  0.00000000E+00  0.00000000E+00
  0.00000000E+00  0.00000000E+00  0.00000000E+00
  0.00000000E+00  0.00000000E+00  0.00000000E+00
  0.00000000E+00  0.00000000E+00  0.00000000E+00
  0.00000000E+00  0.00000000E+00  0.00000000E+00
  0.00000000E+00  0.00000000E+00  0.00000000E+00
  0.00000000E+00  0.00000000E+00  0.00000000E+00
  0.00000000E+00  0.00000000E+00  0.00000000E+00
