Al   Sc   N                             
   1.00000000000000     
   -10.0382535239529531    0.0188371364065287   -0.0070816675573927
    -5.0599684075339537    8.7232133066742534   -0.0122916231265291
     0.0289105181659051    0.0401968279568055   -9.9058799039867917
   Al   Sc   N 
    23    13    35
Direct
  0.1086118853073188  0.0926809290942785  0.3105826516824450
  0.2192416073558832  0.2079522318341986  0.0675509946056891
  0.7718805256606700  0.1014677734998699  0.8089318049146712
  0.8901200183753275  0.2053608111895144  0.5636845270065791
  0.5488281888852597  0.2192629387920491  0.0555219734387222
  0.2249284607567574  0.2008541994243487  0.5610151825803982
  0.8790145883267471  0.2100946855365677  0.0623145248997545
  0.5518791791060593  0.2043703055652202  0.5683794031508782
  0.2331281713582456  0.5322058695946410  0.1222027813916000
  0.4361372210010899  0.4395794971218194  0.3788374381650641
  0.5555362740928942  0.5449196628046238  0.0594742609996786
  0.2197258859549720  0.5447900786745734  0.6153287935638190
  0.8871325861702175  0.5422889246621452  0.0537252810378845
  0.4470647705745563  0.4352753353157297  0.8031673023753498
  0.5596095054355175  0.5413223355446632  0.5646395025036313
  0.1115431137189304  0.7603423170816725  0.3648937204465170
  0.7705824838241142  0.7660044161777222  0.8126180556344522
  0.8899764100249570  0.8733731805892759  0.6235683574046789
  0.4439025932711900  0.7566838509376765  0.3158647940542778
  0.5618282356445690  0.8582719036579718  0.0594804203114734
  0.1222756291092892  0.7528386263889928  0.8675385778712297
  0.4489516767281003  0.7531423767527841  0.8125533152298345
  0.5540666318111107  0.8717004571009284  0.5655516591070651
  0.4439817723887813  0.0905246410753335  0.3166818780384801
  0.1079053968539583  0.0931009410285455  0.8272920714834910
  0.7751347797549144  0.0979787049288561  0.3289072109229991
  0.4521904012605802  0.0872964824401734  0.8273938513989592
  0.1165814216032004  0.4248905134176582  0.3347642149511785
  0.7685719943484770  0.4258474015851021  0.8304210902267357
  0.8893665673928837  0.5361926332081808  0.5878205472458617
  0.1233198210329718  0.4306753157869068  0.8377111638111501
  0.7728256116491607  0.4262773269034170  0.3139099373141221
  0.2283832767611784  0.8664823818005303  0.0861760240702907
  0.2258790058969851  0.8725146669733945  0.5764014815405716
  0.7766724390164583  0.7584491522119947  0.3245444054285400
  0.8856555114923310  0.8748111051006333  0.0835867136048876
  0.2153850150857153  0.1898455967620833  0.3671564584045228
  0.0963453821965814  0.1138097372798299  0.1130497522046525
  0.8772559027990212  0.1926847596866565  0.8736768315373311
  0.7766963834080300  0.0957434405125070  0.6089002883258132
  0.5370675009268737  0.2276326588657938  0.3779098135173555
  0.4507677680027840  0.0890690751592587  0.0947962310013537
  0.2252621920115843  0.2024990438973688  0.8789191757884609
  0.1029810592900091  0.1119956013602845  0.6143492143065430
  0.9062347079204400  0.1967177365481589  0.3732330935835861
  0.7558123490678312  0.1249323546702428  0.1134561042282272
  0.5582468463679504  0.2246536641931769  0.8583045194531707
  0.4447014725314133  0.0908686809439061  0.6063367858119477
  0.2357755349163568  0.5506524527867143  0.3158572789693253
  0.1114729588581511  0.4292351400453924  0.0982226131358956
  0.8830333726744897  0.5551649624810011  0.8527470980847980
  0.7668749391378284  0.4142790932461509  0.6132979779112162
  0.5375064389733666  0.5504336566077228  0.3733325482688912
  0.2330415282383314  0.5539461503756300  0.8058645212798154
  0.1364163707214061  0.4145556831991613  0.5972872599769943
  0.8878559462678197  0.5332281511641597  0.3768998241584072
  0.7769798529187568  0.4306454159094244  0.0893400718317068
  0.5318700861127965  0.5481766379038078  0.8719016130448978
  0.4456258067082857  0.4321428613003775  0.5974984849082574
  0.2223132467667384  0.8713595090578892  0.3420316933677725
  0.1263252986416603  0.7326077312831885  0.0573887963903559
  0.8888707455320457  0.8748815628155668  0.8325238327472917
  0.7656566554364375  0.7827581108056236  0.6147894198633992
  0.5426360158489842  0.8614842444070945  0.3760866481387950
  0.4667043075240187  0.7469864837141031  0.1236363240608398
  0.2345626164718055  0.8559940405478272  0.8478655336918095
  0.0973537845891741  0.7546575678370857  0.5618678896102907
  0.9094582575608570  0.8625426097434143  0.3063626664667751
  0.7714161017160848  0.7483245117818313  0.1062480080640498
  0.5634649143069481  0.8481003350277234  0.8687675448653849
  0.4677406522152623  0.7480131899495461  0.6221165125180619
 
  0.00000000E+00  0.00000000E+00  0.00000000E+00
  0.00000000E+00  0.00000000E+00  0.00000000E+00
  0.00000000E+00  0.00000000E+00  0.00000000E+00
  0.00000000E+00  0.00000000E+00  0.00000000E+00
  0.00000000E+00  0.00000000E+00  0.00000000E+00
  0.00000000E+00  0.00000000E+00  0.00000000E+00
  0.00000000E+00  0.00000000E+00  0.00000000E+00
  0.00000000E+00  0.00000000E+00  0.00000000E+00
  0.00000000E+00  0.00000000E+00  0.00000000E+00
  0.00000000E+00  0.00000000E+00  0.00000000E+00
  0.00000000E+00  0.00000000E+00  0.00000000E+00
  0.00000000E+00  0.00000000E+00  0.00000000E+00
  0.00000000E+00  0.00000000E+00  0.00000000E+00
  0.00000000E+00  0.00000000E+00  0.00000000E+00
  0.00000000E+00  0.00000000E+00  0.00000000E+00
  0.00000000E+00  0.00000000E+00  0.00000000E+00
  0.00000000E+00  0.00000000E+00  0.00000000E+00
  0.00000000E+00  0.00000000E+00  0.00000000E+00
  0.00000000E+00  0.00000000E+00  0.00000000E+00
  0.00000000E+00  0.00000000E+00  0.00000000E+00
  0.00000000E+00  0.00000000E+00  0.00000000E+00
  0.00000000E+00  0.00000000E+00  0.00000000E+00
  0.00000000E+00  0.00000000E+00  0.00000000E+00
  0.00000000E+00  0.00000000E+00  0.00000000E+00
  0.00000000E+00  0.00000000E+00  0.00000000E+00
  0.00000000E+00  0.00000000E+00  0.00000000E+00
  0.00000000E+00  0.00000000E+00  0.00000000E+00
  0.00000000E+00  0.00000000E+00  0.00000000E+00
  0.00000000E+00  0.00000000E+00  0.00000000E+00
  0.00000000E+00  0.00000000E+00  0.00000000E+00
  0.00000000E+00  0.00000000E+00  0.00000000E+00
  0.00000000E+00  0.00000000E+00  0.00000000E+00
  0.00000000E+00  0.00000000E+00  0.00000000E+00
  0.00000000E+00  0.00000000E+00  0.00000000E+00
  0.00000000E+00  0.00000000E+00  0.00000000E+00
  0.00000000E+00  0.00000000E+00  0.00000000E+00
  0.00000000E+00  0.00000000E+00  0.00000000E+00
  0.00000000E+00  0.00000000E+00  0.00000000E+00
  0.00000000E+00  0.00000000E+00  0.00000000E+00
  0.00000000E+00  0.00000000E+00  0.00000000E+00
  0.00000000E+00  0.00000000E+00  0.00000000E+00
  0.00000000E+00  0.00000000E+00  0.00000000E+00
  0.00000000E+00  0.00000000E+00  0.00000000E+00
  0.00000000E+00  0.00000000E+00  0.00000000E+00
  0.00000000E+00  0.00000000E+00  0.00000000E+00
  0.00000000E+00  0.00000000E+00  0.00000000E+00
  0.00000000E+00  0.00000000E+00  0.00000000E+00
  0.00000000E+00  0.00000000E+00  0.00000000E+00
  0.00000000E+00  0.00000000E+00  0.00000000E+00
  0.00000000E+00  0.00000000E+00  0.00000000E+00
  0.00000000E+00  0.00000000E+00  0.00000000E+00
  0.00000000E+00  0.00000000E+00  0.00000000E+00
  0.00000000E+00  0.00000000E+00  0.00000000E+00
  0.00000000E+00  0.00000000E+00  0.00000000E+00
  0.00000000E+00  0.00000000E+00  0.00000000E+00
  0.00000000E+00  0.00000000E+00  0.00000000E+00
  0.00000000E+00  0.00000000E+00  0.00000000E+00
  0.00000000E+00  0.00000000E+00  0.00000000E+00
  0.00000000E+00  0.00000000E+00  0.00000000E+00
  0.00000000E+00  0.00000000E+00  0.00000000E+00
  0.00000000E+00  0.00000000E+00  0.00000000E+00
  0.00000000E+00  0.00000000E+00  0.00000000E+00
  0.00000000E+00  0.00000000E+00  0.00000000E+00
  0.00000000E+00  0.00000000E+00  0.00000000E+00
  0.00000000E+00  0.00000000E+00  0.00000000E+00
  0.00000000E+00  0.00000000E+00  0.00000000E+00
  0.00000000E+00  0.00000000E+00  0.00000000E+00
  0.00000000E+00  0.00000000E+00  0.00000000E+00
  0.00000000E+00  0.00000000E+00  0.00000000E+00
  0.00000000E+00  0.00000000E+00  0.00000000E+00
  0.00000000E+00  0.00000000E+00  0.00000000E+00
