Al   Sc   N                             
   1.00000000000000     
   -10.0500740193469724    0.0247488454885618   -0.0037245347368570
    -5.0923612799867435    8.7113819624199866   -0.0055324934658268
     0.0284744318830518   -0.0357664940456271   -9.9286077111234530
   Al   Sc   N 
    23    13    35
Direct
  0.1099818784309150  0.0949559862293867  0.3957928247331708
  0.2174645536944553  0.2028409926027308  0.1397391405302457
  0.7708935804497798  0.1036181139426660  0.8916368606118610
  0.8829229993166976  0.1991937116020566  0.6383811724972404
  0.5449036081022598  0.2140140411945026  0.1336977567293189
  0.2276285085676761  0.2058621395050082  0.6390106479866589
  0.8897753723608801  0.2086881641260447  0.1353481005561648
  0.5574072092933520  0.2129224267650542  0.6418964843323565
  0.2211647480910912  0.5360903824097534  0.1397810695603781
  0.4367529827461354  0.4376720753388383  0.3890869092651954
  0.5632379483931800  0.5582785418049241  0.0902354151322342
  0.2313215994083677  0.5349084099654604  0.6388503647038561
  0.8837364638218830  0.5405598410545522  0.0758469839181473
  0.4384340202291455  0.4317662947170433  0.8951471483980527
  0.5538219380302181  0.5377276763275134  0.5773916551569371
  0.1105901348865288  0.7583321583202789  0.3921434879075321
  0.7685174577821385  0.7657932218460743  0.8357345978666757
  0.8854596898514586  0.8787046976057127  0.6501444505870495
  0.4435083952391565  0.7607839051837217  0.3422668527096491
  0.5557406589925691  0.8640346508757446  0.0822721700771680
  0.1236606857251417  0.7527466644934151  0.8833792900032549
  0.4479320434183691  0.7508531505444154  0.8319177322661702
  0.5575576252443852  0.8680302891464535  0.5899975540570992
  0.4435339382138181  0.0954822690012378  0.3765609508691625
  0.1112818225418906  0.0894459942713226  0.8731534300486530
  0.7797473308862664  0.0935713096115620  0.3744057215194303
  0.4552738098430780  0.0889553447677187  0.8685512980652845
  0.1233941373546514  0.4242363375020517  0.3767759658079655
  0.7618867343984093  0.4267330494212302  0.8492281839023548
  0.8909881444252719  0.5373061603970868  0.6135172535814490
  0.1229319937495390  0.4301814926801626  0.8789074706865634
  0.7761053198744889  0.4274377860719412  0.3521424698242299
  0.2158533376852461  0.8735696875653858  0.1380929518072165
  0.2255864363324349  0.8650339516520447  0.6141670146504268
  0.7783703529099384  0.7587674340661721  0.3446833506737264
  0.8883520007677035  0.8686257198808747  0.1043594518325577
  0.2142733765093467  0.1903857968702098  0.3308711569926217
  0.1011042276954655  0.1101403937371188  0.0849641057967290
  0.8803358212348726  0.1905857309326819  0.8293180820062105
  0.7769967212632594  0.0901866992052192  0.5918994093060590
  0.5391010552707840  0.2360660457402020  0.3221834617532124
  0.4454344015080025  0.0912192979706319  0.1018776218404440
  0.2259992915555813  0.2037999442082068  0.8286409210237622
  0.1009611884071191  0.1144721137566052  0.5914077019553758
  0.9100353744174186  0.1907110822416840  0.3274739010682737
  0.7613706317450948  0.1214878799651729  0.0856508429360403
  0.5613863075212464  0.2249727636888679  0.8355903812712597
  0.4502749162253323  0.0941060900493795  0.6091135342977338
  0.2334427304778615  0.5533219847216202  0.3271770984125624
  0.1099003973442336  0.4269106169969419  0.1057480672344084
  0.8804639606491378  0.5522773005030928  0.8708930448597556
  0.7642379342396097  0.4157720641407252  0.6194004410726848
  0.5360634492072265  0.5524072054947453  0.3827978257288365
  0.2378463880511461  0.5464108394774101  0.8280513592309475
  0.1383900165804803  0.4165282361477622  0.6008517444380033
  0.8918910249174772  0.5365385100908568  0.4009964887981710
  0.7784076687823145  0.4302186755922790  0.1143774662123107
  0.5289289691487795  0.5521469972328319  0.9063407745657486
  0.4436063151008369  0.4260106224714306  0.5840265906650899
  0.2205000641985890  0.8716313141646097  0.3687522977596842
  0.1286514287118337  0.7343144636084702  0.0715697195862504
  0.8858566851806344  0.8770194619540561  0.8554246694935017
  0.7657822394128075  0.7831396139340185  0.6407715716272264
  0.5461374724741077  0.8601384857885108  0.3998656361239696
  0.4571909682684847  0.7600713726029156  0.1490602920834760
  0.2302930361328706  0.8538833723578847  0.8395025344860656
  0.0961572843055194  0.7490405814174181  0.5862591293442776
  0.9115771200580554  0.8633303670878618  0.3208792227168757
  0.7677993194624619  0.7481005819553346  0.1263398360208967
  0.5600865983678389  0.8472192250926369  0.8898655305732603
  0.4728095559295511  0.7417395118125043  0.6414306633009872
 
  0.00000000E+00  0.00000000E+00  0.00000000E+00
  0.00000000E+00  0.00000000E+00  0.00000000E+00
  0.00000000E+00  0.00000000E+00  0.00000000E+00
  0.00000000E+00  0.00000000E+00  0.00000000E+00
  0.00000000E+00  0.00000000E+00  0.00000000E+00
  0.00000000E+00  0.00000000E+00  0.00000000E+00
  0.00000000E+00  0.00000000E+00  0.00000000E+00
  0.00000000E+00  0.00000000E+00  0.00000000E+00
  0.00000000E+00  0.00000000E+00  0.00000000E+00
  0.00000000E+00  0.00000000E+00  0.00000000E+00
  0.00000000E+00  0.00000000E+00  0.00000000E+00
  0.00000000E+00  0.00000000E+00  0.00000000E+00
  0.00000000E+00  0.00000000E+00  0.00000000E+00
  0.00000000E+00  0.00000000E+00  0.00000000E+00
  0.00000000E+00  0.00000000E+00  0.00000000E+00
  0.00000000E+00  0.00000000E+00  0.00000000E+00
  0.00000000E+00  0.00000000E+00  0.00000000E+00
  0.00000000E+00  0.00000000E+00  0.00000000E+00
  0.00000000E+00  0.00000000E+00  0.00000000E+00
  0.00000000E+00  0.00000000E+00  0.00000000E+00
  0.00000000E+00  0.00000000E+00  0.00000000E+00
  0.00000000E+00  0.00000000E+00  0.00000000E+00
  0.00000000E+00  0.00000000E+00  0.00000000E+00
  0.00000000E+00  0.00000000E+00  0.00000000E+00
  0.00000000E+00  0.00000000E+00  0.00000000E+00
  0.00000000E+00  0.00000000E+00  0.00000000E+00
  0.00000000E+00  0.00000000E+00  0.00000000E+00
  0.00000000E+00  0.00000000E+00  0.00000000E+00
  0.00000000E+00  0.00000000E+00  0.00000000E+00
  0.00000000E+00  0.00000000E+00  0.00000000E+00
  0.00000000E+00  0.00000000E+00  0.00000000E+00
  0.00000000E+00  0.00000000E+00  0.00000000E+00
  0.00000000E+00  0.00000000E+00  0.00000000E+00
  0.00000000E+00  0.00000000E+00  0.00000000E+00
  0.00000000E+00  0.00000000E+00  0.00000000E+00
  0.00000000E+00  0.00000000E+00  0.00000000E+00
  0.00000000E+00  0.00000000E+00  0.00000000E+00
  0.00000000E+00  0.00000000E+00  0.00000000E+00
  0.00000000E+00  0.00000000E+00  0.00000000E+00
  0.00000000E+00  0.00000000E+00  0.00000000E+00
  0.00000000E+00  0.00000000E+00  0.00000000E+00
  0.00000000E+00  0.00000000E+00  0.00000000E+00
  0.00000000E+00  0.00000000E+00  0.00000000E+00
  0.00000000E+00  0.00000000E+00  0.00000000E+00
  0.00000000E+00  0.00000000E+00  0.00000000E+00
  0.00000000E+00  0.00000000E+00  0.00000000E+00
  0.00000000E+00  0.00000000E+00  0.00000000E+00
  0.00000000E+00  0.00000000E+00  0.00000000E+00
  0.00000000E+00  0.00000000E+00  0.00000000E+00
  0.00000000E+00  0.00000000E+00  0.00000000E+00
  0.00000000E+00  0.00000000E+00  0.00000000E+00
  0.00000000E+00  0.00000000E+00  0.00000000E+00
  0.00000000E+00  0.00000000E+00  0.00000000E+00
  0.00000000E+00  0.00000000E+00  0.00000000E+00
  0.00000000E+00  0.00000000E+00  0.00000000E+00
  0.00000000E+00  0.00000000E+00  0.00000000E+00
  0.00000000E+00  0.00000000E+00  0.00000000E+00
  0.00000000E+00  0.00000000E+00  0.00000000E+00
  0.00000000E+00  0.00000000E+00  0.00000000E+00
  0.00000000E+00  0.00000000E+00  0.00000000E+00
  0.00000000E+00  0.00000000E+00  0.00000000E+00
  0.00000000E+00  0.00000000E+00  0.00000000E+00
  0.00000000E+00  0.00000000E+00  0.00000000E+00
  0.00000000E+00  0.00000000E+00  0.00000000E+00
  0.00000000E+00  0.00000000E+00  0.00000000E+00
  0.00000000E+00  0.00000000E+00  0.00000000E+00
  0.00000000E+00  0.00000000E+00  0.00000000E+00
  0.00000000E+00  0.00000000E+00  0.00000000E+00
  0.00000000E+00  0.00000000E+00  0.00000000E+00
  0.00000000E+00  0.00000000E+00  0.00000000E+00
  0.00000000E+00  0.00000000E+00  0.00000000E+00
