Al   Sc   N                             
   1.00000000000000     
   -10.0620438452613037    0.0191002242017504   -0.0080873705297486
    -5.0789857623479238    8.7464417757809105   -0.0126799970697371
     0.0150965236032385    0.0209007295107568   -9.8152131792036954
   Al   Sc   N 
    23    13    35
Direct
  0.1090071363043421  0.0927160238235771  0.3020982473047411
  0.2198967127817397  0.2078696492983312  0.0601398423438155
  0.7755070229167060  0.0950694986857386  0.7983374116844217
  0.8912897495959982  0.2055089219850998  0.5560452975951478
  0.5508113617179475  0.2179485714009815  0.0473680189804639
  0.2251364040710513  0.2007167962710952  0.5538104611126968
  0.8790785488601642  0.2093209860734220  0.0541999402825866
  0.5499289952739019  0.2063082962339564  0.5617011335797315
  0.2320602218208521  0.5330250272372865  0.1122424595670779
  0.4350685394037939  0.4407553659823833  0.3700674394551129
  0.5558499853272352  0.5443444715195582  0.0528620184201145
  0.2206705131107611  0.5442433424482331  0.6093141294311337
  0.8866529795554783  0.5430435024902778  0.0456558479751052
  0.4470556905610721  0.4350351141368449  0.7974432952461896
  0.5591304633962793  0.5413659767722336  0.5571431849558763
  0.1147811050034235  0.7593104058466409  0.3565709236968004
  0.7738865062952982  0.7688116495519566  0.8018627083097130
  0.8874679447728369  0.8744726069258704  0.5794835406004921
  0.4430856016601368  0.7569282698432787  0.3076111694040833
  0.5635193751410128  0.8573242708376583  0.0515047642593203
  0.1170550369326548  0.7556324640336030  0.8590179009626979
  0.4498598646652425  0.7526421947874340  0.8060605499160189
  0.5529413659151956  0.8718352701450058  0.5583964155538297
  0.4444041563074279  0.0902757547346837  0.3097456757218140
  0.1078836092431814  0.0931387328608153  0.8219066730726468
  0.7722041398518726  0.1023897718973572  0.3237591302983489
  0.4533923028455433  0.0866721008380367  0.8208728624845349
  0.1174850592050447  0.4249302175228493  0.3284641169876821
  0.7685949991227830  0.4251300286445883  0.8230147660372467
  0.8902556943204871  0.5350649580641473  0.5823070927480956
  0.1234150846244404  0.4304081403776934  0.8316898963974140
  0.7733197392369746  0.4264490006434727  0.3074676415944211
  0.2287909521740019  0.8661159195306425  0.0779632766529659
  0.2264230639055569  0.8722959018991787  0.5722607138746056
  0.7744532543575886  0.7571760732099051  0.3204620151614463
  0.8832418296310323  0.8759427656885350  0.0752356812047026
  0.2154839814856047  0.1899431705507482  0.3574136162511010
  0.0969181576392018  0.1133258832915018  0.1023923471199595
  0.8763871578603997  0.1917800392203546  0.8634981206196812
  0.7770510448806931  0.0950466282090332  0.5963907216436155
  0.5343018029030091  0.2300207613007998  0.3692546104156165
  0.4520489217277088  0.0886783362972281  0.0857822531908354
  0.2260991338734328  0.2022007502218131  0.8696889535818357
  0.1033023194987095  0.1123306718693087  0.6065441983372963
  0.9069695245054703  0.1973203701669064  0.3638575754572742
  0.7572678401490549  0.1233727778772646  0.1070472478094047
  0.5601289484647509  0.2234223529247004  0.8482742077709702
  0.4448534178778871  0.0908057059512899  0.5974287799534252
  0.2353162856054922  0.5509737918050845  0.3071076908086994
  0.1113157082714196  0.4296917690387403  0.0885141160994820
  0.8824512866004923  0.5562359194024182  0.8418302203317651
  0.7665654052693398  0.4142910236867365  0.6036181116498582
  0.5366541405105565  0.5507083789547664  0.3637840609297385
  0.2327915438303378  0.5538248637044703  0.8021682622194888
  0.1375042926567005  0.4145620828731680  0.5884869741751615
  0.8890924439215198  0.5318743311691421  0.3692407708509009
  0.7776440835122926  0.4301719471740242  0.0806183471652346
  0.5323162894236546  0.5478517858716287  0.8637528817919744
  0.4452315696963822  0.4328793290821622  0.5903432128929538
  0.2218029848787992  0.8719482561661991  0.3324636557598097
  0.1232359861344534  0.7356680926435999  0.0536962902101550
  0.8858784701006428  0.8760676617096408  0.8352020414846280
  0.7664353325757105  0.7829877755678751  0.6018284290255735
  0.5404257532219887  0.8617808168575039  0.3675625819478370
  0.4670978081652777  0.7471912404052574  0.1138744430467469
  0.2338511010465538  0.8553134755920127  0.8385261992979594
  0.1028164159464211  0.7521153058060293  0.5556756634677598
  0.9040174411916411  0.8654375234646281  0.3230177399104548
  0.7723875988992361  0.7480322598203202  0.1011318829820880
  0.5658518148541276  0.8471845286818720  0.8589482709301564
  0.4681913790848569  0.7476111543821986  0.6139671461948666
 
  0.00000000E+00  0.00000000E+00  0.00000000E+00
  0.00000000E+00  0.00000000E+00  0.00000000E+00
  0.00000000E+00  0.00000000E+00  0.00000000E+00
  0.00000000E+00  0.00000000E+00  0.00000000E+00
  0.00000000E+00  0.00000000E+00  0.00000000E+00
  0.00000000E+00  0.00000000E+00  0.00000000E+00
  0.00000000E+00  0.00000000E+00  0.00000000E+00
  0.00000000E+00  0.00000000E+00  0.00000000E+00
  0.00000000E+00  0.00000000E+00  0.00000000E+00
  0.00000000E+00  0.00000000E+00  0.00000000E+00
  0.00000000E+00  0.00000000E+00  0.00000000E+00
  0.00000000E+00  0.00000000E+00  0.00000000E+00
  0.00000000E+00  0.00000000E+00  0.00000000E+00
  0.00000000E+00  0.00000000E+00  0.00000000E+00
  0.00000000E+00  0.00000000E+00  0.00000000E+00
  0.00000000E+00  0.00000000E+00  0.00000000E+00
  0.00000000E+00  0.00000000E+00  0.00000000E+00
  0.00000000E+00  0.00000000E+00  0.00000000E+00
  0.00000000E+00  0.00000000E+00  0.00000000E+00
  0.00000000E+00  0.00000000E+00  0.00000000E+00
  0.00000000E+00  0.00000000E+00  0.00000000E+00
  0.00000000E+00  0.00000000E+00  0.00000000E+00
  0.00000000E+00  0.00000000E+00  0.00000000E+00
  0.00000000E+00  0.00000000E+00  0.00000000E+00
  0.00000000E+00  0.00000000E+00  0.00000000E+00
  0.00000000E+00  0.00000000E+00  0.00000000E+00
  0.00000000E+00  0.00000000E+00  0.00000000E+00
  0.00000000E+00  0.00000000E+00  0.00000000E+00
  0.00000000E+00  0.00000000E+00  0.00000000E+00
  0.00000000E+00  0.00000000E+00  0.00000000E+00
  0.00000000E+00  0.00000000E+00  0.00000000E+00
  0.00000000E+00  0.00000000E+00  0.00000000E+00
  0.00000000E+00  0.00000000E+00  0.00000000E+00
  0.00000000E+00  0.00000000E+00  0.00000000E+00
  0.00000000E+00  0.00000000E+00  0.00000000E+00
  0.00000000E+00  0.00000000E+00  0.00000000E+00
  0.00000000E+00  0.00000000E+00  0.00000000E+00
  0.00000000E+00  0.00000000E+00  0.00000000E+00
  0.00000000E+00  0.00000000E+00  0.00000000E+00
  0.00000000E+00  0.00000000E+00  0.00000000E+00
  0.00000000E+00  0.00000000E+00  0.00000000E+00
  0.00000000E+00  0.00000000E+00  0.00000000E+00
  0.00000000E+00  0.00000000E+00  0.00000000E+00
  0.00000000E+00  0.00000000E+00  0.00000000E+00
  0.00000000E+00  0.00000000E+00  0.00000000E+00
  0.00000000E+00  0.00000000E+00  0.00000000E+00
  0.00000000E+00  0.00000000E+00  0.00000000E+00
  0.00000000E+00  0.00000000E+00  0.00000000E+00
  0.00000000E+00  0.00000000E+00  0.00000000E+00
  0.00000000E+00  0.00000000E+00  0.00000000E+00
  0.00000000E+00  0.00000000E+00  0.00000000E+00
  0.00000000E+00  0.00000000E+00  0.00000000E+00
  0.00000000E+00  0.00000000E+00  0.00000000E+00
  0.00000000E+00  0.00000000E+00  0.00000000E+00
  0.00000000E+00  0.00000000E+00  0.00000000E+00
  0.00000000E+00  0.00000000E+00  0.00000000E+00
  0.00000000E+00  0.00000000E+00  0.00000000E+00
  0.00000000E+00  0.00000000E+00  0.00000000E+00
  0.00000000E+00  0.00000000E+00  0.00000000E+00
  0.00000000E+00  0.00000000E+00  0.00000000E+00
  0.00000000E+00  0.00000000E+00  0.00000000E+00
  0.00000000E+00  0.00000000E+00  0.00000000E+00
  0.00000000E+00  0.00000000E+00  0.00000000E+00
  0.00000000E+00  0.00000000E+00  0.00000000E+00
  0.00000000E+00  0.00000000E+00  0.00000000E+00
  0.00000000E+00  0.00000000E+00  0.00000000E+00
  0.00000000E+00  0.00000000E+00  0.00000000E+00
  0.00000000E+00  0.00000000E+00  0.00000000E+00
  0.00000000E+00  0.00000000E+00  0.00000000E+00
  0.00000000E+00  0.00000000E+00  0.00000000E+00
  0.00000000E+00  0.00000000E+00  0.00000000E+00
