Al   Sc   N                             
   1.00000000000000     
   -10.1842555733247746    0.0226764399638894   -0.0050295213902327
    -5.1331226492097786    8.8206072685793409   -0.0078286904964010
     0.0251695259076311   -0.0545580324371546   -9.5144904272872655
   Al   Sc   N 
    23    13    35
Direct
  0.1142156217796497  0.0906181348914359  0.3774750039502024
  0.2156197013729368  0.2026132117543469  0.1187631098526793
  0.7664318604497353  0.1029571667622449  0.8717194712285519
  0.8832565869376410  0.2034737709204464  0.5869540890747444
  0.5395688565073513  0.2241409836973673  0.1196197182666978
  0.2312222224704854  0.2054090515233895  0.6211387608564038
  0.8840168048389714  0.2121075541401893  0.0738320107489656
  0.5620373083671950  0.2021173836041825  0.6168677452675553
  0.2306865439927748  0.5343218905715474  0.1243736868592435
  0.4363675430707232  0.4389335467284212  0.3769126401565401
  0.5530721094126676  0.5458981769719315  0.0743254211590596
  0.2206939604211087  0.5417866500309287  0.6143030511214604
  0.8843189352676646  0.5416270666781031  0.0648333907257097
  0.4452245145372586  0.4357848994256699  0.8126916082257765
  0.5570573820028599  0.5413491643068653  0.5644411777374643
  0.1106273392926269  0.7614056526496213  0.3717986437550138
  0.7700315031475711  0.7663733242403694  0.8210405411995936
  0.8842712022043600  0.8806635742338997  0.6283245407559761
  0.4422835605206501  0.7581504670530279  0.3227859544280847
  0.5599641112692950  0.8586277335017840  0.0713290643493991
  0.1233701558348130  0.7523422506676809  0.8648646865166185
  0.4495068189307219  0.7517060059931850  0.8227109787026166
  0.5553046707380602  0.8689680678310623  0.5748022559221653
  0.4436142092224671  0.0908176440742423  0.3483576190387510
  0.1091491406858793  0.0934797445491924  0.8434904970019588
  0.7788471732998516  0.0950291617995163  0.3454602444288994
  0.4560760437609019  0.0886426017796182  0.8542685628128694
  0.1209764038878731  0.4233156162504557  0.3515914660557371
  0.7633754034371236  0.4304921292031807  0.8351062174998560
  0.8926696672820071  0.5361821813566863  0.5982943962087930
  0.1244447910063968  0.4318960457583714  0.8599798835605910
  0.7758720650455331  0.4260228411407567  0.3310724791293325
  0.2206315535890653  0.8726420428853885  0.1025818874980260
  0.2289011060741117  0.8623258323302068  0.5976596290412388
  0.7788534845085806  0.7601528471009402  0.3407892979468556
  0.8897763890964043  0.8655921283568873  0.0888341621273128
  0.2139988757497022  0.1897059541857757  0.3199643882198444
  0.0982639610454896  0.1117988134461925  0.0727747834013570
  0.8754594808054676  0.1980804716562972  0.8451598390195940
  0.7772685723430968  0.0909427550958384  0.5803498722719738
  0.5351762261800488  0.2373215173887715  0.3210518701996321
  0.4467678470087506  0.0901300753187826  0.0938811146761154
  0.2287733527649181  0.2049969270302512  0.8218130601424889
  0.1074988893102713  0.1087921794280788  0.5893618551807265
  0.9068804563423143  0.1954247213980764  0.3563916580996960
  0.7581871413030470  0.1190546464346625  0.0818425773506277
  0.5601919778111508  0.2221495148128270  0.8206367167806832
  0.4508106933714586  0.0916890552309226  0.5934014951647129
  0.2331206679324822  0.5529303923050790  0.3242136955914177
  0.1122375643714761  0.4276184773591822  0.0952050926917352
  0.8836484954067458  0.5540553693905039  0.8511907944638324
  0.7650773383770115  0.4180272874061401  0.6028111304115669
  0.5350376055892028  0.5503317773888483  0.3636975658066604
  0.2349399484834649  0.5492040542951244  0.8124564675190484
  0.1373708045685120  0.4160275194869243  0.5874607359339308
  0.8920909684350207  0.5343949687217702  0.3761713429660531
  0.7756685008583801  0.4305317757350764  0.0923610552471033
  0.5297160873362614  0.5476357525491409  0.8773867566910596
  0.4456505511023892  0.4306290340545260  0.5895988080785557
  0.2217907868130879  0.8707885387934766  0.3504713078272843
  0.1274843997638655  0.7337592364399370  0.0620715315777929
  0.8841848761204503  0.8783325913155480  0.8398769275812370
  0.7670134329600913  0.7830535800208125  0.6133862871077511
  0.5444435949847346  0.8578573136458232  0.3757962676926425
  0.4590920836822505  0.7527737961757381  0.1220397151502084
  0.2327110134712029  0.8548425106967130  0.8377467570704695
  0.0951047332008699  0.7541797332265077  0.5755368257729714
  0.9104967486770974  0.8631551437458427  0.3128028849532143
  0.7696328168541342  0.7480791592826108  0.1098251881509640
  0.5627788769721818  0.8482148796975864  0.8696222332538071
  0.4705602140311669  0.7446104791525769  0.6233528164191142
 
  0.00000000E+00  0.00000000E+00  0.00000000E+00
  0.00000000E+00  0.00000000E+00  0.00000000E+00
  0.00000000E+00  0.00000000E+00  0.00000000E+00
  0.00000000E+00  0.00000000E+00  0.00000000E+00
  0.00000000E+00  0.00000000E+00  0.00000000E+00
  0.00000000E+00  0.00000000E+00  0.00000000E+00
  0.00000000E+00  0.00000000E+00  0.00000000E+00
  0.00000000E+00  0.00000000E+00  0.00000000E+00
  0.00000000E+00  0.00000000E+00  0.00000000E+00
  0.00000000E+00  0.00000000E+00  0.00000000E+00
  0.00000000E+00  0.00000000E+00  0.00000000E+00
  0.00000000E+00  0.00000000E+00  0.00000000E+00
  0.00000000E+00  0.00000000E+00  0.00000000E+00
  0.00000000E+00  0.00000000E+00  0.00000000E+00
  0.00000000E+00  0.00000000E+00  0.00000000E+00
  0.00000000E+00  0.00000000E+00  0.00000000E+00
  0.00000000E+00  0.00000000E+00  0.00000000E+00
  0.00000000E+00  0.00000000E+00  0.00000000E+00
  0.00000000E+00  0.00000000E+00  0.00000000E+00
  0.00000000E+00  0.00000000E+00  0.00000000E+00
  0.00000000E+00  0.00000000E+00  0.00000000E+00
  0.00000000E+00  0.00000000E+00  0.00000000E+00
  0.00000000E+00  0.00000000E+00  0.00000000E+00
  0.00000000E+00  0.00000000E+00  0.00000000E+00
  0.00000000E+00  0.00000000E+00  0.00000000E+00
  0.00000000E+00  0.00000000E+00  0.00000000E+00
  0.00000000E+00  0.00000000E+00  0.00000000E+00
  0.00000000E+00  0.00000000E+00  0.00000000E+00
  0.00000000E+00  0.00000000E+00  0.00000000E+00
  0.00000000E+00  0.00000000E+00  0.00000000E+00
  0.00000000E+00  0.00000000E+00  0.00000000E+00
  0.00000000E+00  0.00000000E+00  0.00000000E+00
  0.00000000E+00  0.00000000E+00  0.00000000E+00
  0.00000000E+00  0.00000000E+00  0.00000000E+00
  0.00000000E+00  0.00000000E+00  0.00000000E+00
  0.00000000E+00  0.00000000E+00  0.00000000E+00
  0.00000000E+00  0.00000000E+00  0.00000000E+00
  0.00000000E+00  0.00000000E+00  0.00000000E+00
  0.00000000E+00  0.00000000E+00  0.00000000E+00
  0.00000000E+00  0.00000000E+00  0.00000000E+00
  0.00000000E+00  0.00000000E+00  0.00000000E+00
  0.00000000E+00  0.00000000E+00  0.00000000E+00
  0.00000000E+00  0.00000000E+00  0.00000000E+00
  0.00000000E+00  0.00000000E+00  0.00000000E+00
  0.00000000E+00  0.00000000E+00  0.00000000E+00
  0.00000000E+00  0.00000000E+00  0.00000000E+00
  0.00000000E+00  0.00000000E+00  0.00000000E+00
  0.00000000E+00  0.00000000E+00  0.00000000E+00
  0.00000000E+00  0.00000000E+00  0.00000000E+00
  0.00000000E+00  0.00000000E+00  0.00000000E+00
  0.00000000E+00  0.00000000E+00  0.00000000E+00
  0.00000000E+00  0.00000000E+00  0.00000000E+00
  0.00000000E+00  0.00000000E+00  0.00000000E+00
  0.00000000E+00  0.00000000E+00  0.00000000E+00
  0.00000000E+00  0.00000000E+00  0.00000000E+00
  0.00000000E+00  0.00000000E+00  0.00000000E+00
  0.00000000E+00  0.00000000E+00  0.00000000E+00
  0.00000000E+00  0.00000000E+00  0.00000000E+00
  0.00000000E+00  0.00000000E+00  0.00000000E+00
  0.00000000E+00  0.00000000E+00  0.00000000E+00
  0.00000000E+00  0.00000000E+00  0.00000000E+00
  0.00000000E+00  0.00000000E+00  0.00000000E+00
  0.00000000E+00  0.00000000E+00  0.00000000E+00
  0.00000000E+00  0.00000000E+00  0.00000000E+00
  0.00000000E+00  0.00000000E+00  0.00000000E+00
  0.00000000E+00  0.00000000E+00  0.00000000E+00
  0.00000000E+00  0.00000000E+00  0.00000000E+00
  0.00000000E+00  0.00000000E+00  0.00000000E+00
  0.00000000E+00  0.00000000E+00  0.00000000E+00
  0.00000000E+00  0.00000000E+00  0.00000000E+00
  0.00000000E+00  0.00000000E+00  0.00000000E+00
