Al   Sc   N                             
   1.00000000000000     
   -10.0946779201742824    0.0262394512281774   -0.0019743427609010
    -5.1170815487842658    8.7563333138889519   -0.0043451347849580
    -0.0174471242670777   -0.1103941707238304   -9.7514480343997736
   Al   Sc   N 
    23    13    35
Direct
  0.1099979627861032  0.0927976165226596  0.3968916669048284
  0.2192564860052286  0.1998865796072025  0.1398012491192162
  0.7695255144007689  0.1055430014014647  0.8920563867113884
  0.8795108564699206  0.2035243877867075  0.6411305419286677
  0.5479932248079820  0.2109451982641488  0.1343940461690067
  0.2252221126528298  0.2096601412263084  0.6384353639964147
  0.8903091072462885  0.2097437044916575  0.1399784580288426
  0.5571101627855981  0.2117694034377564  0.6418873629095998
  0.2232549984353653  0.5385801842016633  0.1428644261778018
  0.4389060745359714  0.4395948423214122  0.3910382175431621
  0.5619037399088427  0.5468109050543859  0.1379168655077834
  0.2292046583379488  0.5344589671509752  0.6386483967380343
  0.8886562561192477  0.5345489828068750  0.1510331952574333
  0.4406659439503144  0.4327293244172239  0.8946152277573631
  0.5534698137468510  0.5293290722006248  0.6491519916876314
  0.1119936508044574  0.7589398502142828  0.3927448213551799
  0.7763108984781155  0.7600418647104306  0.8705058778556634
  0.8829576693844530  0.8778687016279321  0.6483066965027291
  0.4385431099700483  0.7611815301399218  0.3373705861272001
  0.5575709370404454  0.8631522110636922  0.0831466012499291
  0.1228309862150070  0.7511576250083607  0.8807154517041837
  0.4481981425987485  0.7555631816963100  0.8365364300975813
  0.5551724839528518  0.8683233429569910  0.5888330736329266
  0.4430362035165487  0.0933181323690206  0.3726500516173772
  0.1080286139322268  0.0942671694215349  0.8678071410747492
  0.7781835124223306  0.0949623608721382  0.3750911962387349
  0.4528567393763652  0.0905592798801749  0.8665648337071801
  0.1270330630178194  0.4208844048131510  0.3728314964320774
  0.7745900358311886  0.4299537308687889  0.8829170096813428
  0.8900153384149405  0.5407729764105511  0.6212371482522769
  0.1145823501357128  0.4360285693493395  0.8899267807898212
  0.7676383625160028  0.4233148977856871  0.3823941720145783
  0.2178024545992443  0.8738929482164437  0.1226722843563905
  0.2266174315677176  0.8645725011257710  0.6145203474425855
  0.7775271337513274  0.7672135662550517  0.3688779639577717
  0.8900191942164142  0.8692426036228085  0.1095803510228066
  0.2148600611208451  0.1869659444867864  0.3339589902597169
  0.0994438613993154  0.1131371066447571  0.0847566323015343
  0.8752623867272646  0.1980390561357837  0.8337505528663485
  0.7760715326729581  0.0921140479928866  0.5959748857988529
  0.5369736092024198  0.2362618231672329  0.3260183399965086
  0.4468586558982750  0.0905951363170914  0.1042844795320335
  0.2224505404298043  0.2106778325816592  0.8323453263922218
  0.1006436125294883  0.1138584773707265  0.5977246400751071
  0.9088070371663548  0.1922692206659065  0.3335941066873147
  0.7630607801043467  0.1208159156767650  0.0906165339623257
  0.5597085508721875  0.2234012218043802  0.8400122146483184
  0.4490271197639686  0.0945630293987136  0.6100239472595348
  0.2340332750404031  0.5532097107424008  0.3330748150095530
  0.1145643416043569  0.4249748703991614  0.1163806891815469
  0.8849201487660068  0.5532094527327587  0.8389126692857900
  0.7649610153854454  0.4171634348131263  0.6055740867165014
  0.5329292198521500  0.5454971581297130  0.3301041744880209
  0.2370538390595200  0.5431017748119586  0.8317725576509289
  0.1358921950351615  0.4181889607010376  0.5936169714038968
  0.8906503793179255  0.5335691257839414  0.3542147210843041
  0.7791192493947889  0.4284724653343019  0.1098206035604434
  0.5374811784634517  0.5422556966042507  0.8545664220586389
  0.4459212558704593  0.4286701058143407  0.5870181129602869
  0.2194878727643115  0.8712065816220544  0.3672903246349861
  0.1270360005336215  0.7337998092440401  0.0730875043651906
  0.8835818433529212  0.8771448758952474  0.8545596292549575
  0.7693375892530128  0.7836237826356722  0.6047137011559585
  0.5412349203228644  0.8593589893510583  0.3917284870098783
  0.4558248026106284  0.7607055643865195  0.1338622002813423
  0.2307556301534746  0.8552280487323927  0.8501757607587876
  0.0977316215964592  0.7495723164965753  0.5917682364168826
  0.9122257455843865  0.8648230887771291  0.3258532567003272
  0.7727945780737286  0.7468601566770374  0.1108766502934699
  0.5624071092049547  0.8496978822176899  0.8849475283436377
  0.4691707652302455  0.7453618997695131  0.6371169356059241
 
  0.00000000E+00  0.00000000E+00  0.00000000E+00
  0.00000000E+00  0.00000000E+00  0.00000000E+00
  0.00000000E+00  0.00000000E+00  0.00000000E+00
  0.00000000E+00  0.00000000E+00  0.00000000E+00
  0.00000000E+00  0.00000000E+00  0.00000000E+00
  0.00000000E+00  0.00000000E+00  0.00000000E+00
  0.00000000E+00  0.00000000E+00  0.00000000E+00
  0.00000000E+00  0.00000000E+00  0.00000000E+00
  0.00000000E+00  0.00000000E+00  0.00000000E+00
  0.00000000E+00  0.00000000E+00  0.00000000E+00
  0.00000000E+00  0.00000000E+00  0.00000000E+00
  0.00000000E+00  0.00000000E+00  0.00000000E+00
  0.00000000E+00  0.00000000E+00  0.00000000E+00
  0.00000000E+00  0.00000000E+00  0.00000000E+00
  0.00000000E+00  0.00000000E+00  0.00000000E+00
  0.00000000E+00  0.00000000E+00  0.00000000E+00
  0.00000000E+00  0.00000000E+00  0.00000000E+00
  0.00000000E+00  0.00000000E+00  0.00000000E+00
  0.00000000E+00  0.00000000E+00  0.00000000E+00
  0.00000000E+00  0.00000000E+00  0.00000000E+00
  0.00000000E+00  0.00000000E+00  0.00000000E+00
  0.00000000E+00  0.00000000E+00  0.00000000E+00
  0.00000000E+00  0.00000000E+00  0.00000000E+00
  0.00000000E+00  0.00000000E+00  0.00000000E+00
  0.00000000E+00  0.00000000E+00  0.00000000E+00
  0.00000000E+00  0.00000000E+00  0.00000000E+00
  0.00000000E+00  0.00000000E+00  0.00000000E+00
  0.00000000E+00  0.00000000E+00  0.00000000E+00
  0.00000000E+00  0.00000000E+00  0.00000000E+00
  0.00000000E+00  0.00000000E+00  0.00000000E+00
  0.00000000E+00  0.00000000E+00  0.00000000E+00
  0.00000000E+00  0.00000000E+00  0.00000000E+00
  0.00000000E+00  0.00000000E+00  0.00000000E+00
  0.00000000E+00  0.00000000E+00  0.00000000E+00
  0.00000000E+00  0.00000000E+00  0.00000000E+00
  0.00000000E+00  0.00000000E+00  0.00000000E+00
  0.00000000E+00  0.00000000E+00  0.00000000E+00
  0.00000000E+00  0.00000000E+00  0.00000000E+00
  0.00000000E+00  0.00000000E+00  0.00000000E+00
  0.00000000E+00  0.00000000E+00  0.00000000E+00
  0.00000000E+00  0.00000000E+00  0.00000000E+00
  0.00000000E+00  0.00000000E+00  0.00000000E+00
  0.00000000E+00  0.00000000E+00  0.00000000E+00
  0.00000000E+00  0.00000000E+00  0.00000000E+00
  0.00000000E+00  0.00000000E+00  0.00000000E+00
  0.00000000E+00  0.00000000E+00  0.00000000E+00
  0.00000000E+00  0.00000000E+00  0.00000000E+00
  0.00000000E+00  0.00000000E+00  0.00000000E+00
  0.00000000E+00  0.00000000E+00  0.00000000E+00
  0.00000000E+00  0.00000000E+00  0.00000000E+00
  0.00000000E+00  0.00000000E+00  0.00000000E+00
  0.00000000E+00  0.00000000E+00  0.00000000E+00
  0.00000000E+00  0.00000000E+00  0.00000000E+00
  0.00000000E+00  0.00000000E+00  0.00000000E+00
  0.00000000E+00  0.00000000E+00  0.00000000E+00
  0.00000000E+00  0.00000000E+00  0.00000000E+00
  0.00000000E+00  0.00000000E+00  0.00000000E+00
  0.00000000E+00  0.00000000E+00  0.00000000E+00
  0.00000000E+00  0.00000000E+00  0.00000000E+00
  0.00000000E+00  0.00000000E+00  0.00000000E+00
  0.00000000E+00  0.00000000E+00  0.00000000E+00
  0.00000000E+00  0.00000000E+00  0.00000000E+00
  0.00000000E+00  0.00000000E+00  0.00000000E+00
  0.00000000E+00  0.00000000E+00  0.00000000E+00
  0.00000000E+00  0.00000000E+00  0.00000000E+00
  0.00000000E+00  0.00000000E+00  0.00000000E+00
  0.00000000E+00  0.00000000E+00  0.00000000E+00
  0.00000000E+00  0.00000000E+00  0.00000000E+00
  0.00000000E+00  0.00000000E+00  0.00000000E+00
  0.00000000E+00  0.00000000E+00  0.00000000E+00
  0.00000000E+00  0.00000000E+00  0.00000000E+00
