Al   Sc   N                             
   1.00000000000000     
   -10.1164056544757504    0.0196963599306264   -0.0096315098187016
    -5.0748434417242212    8.7716341405981613   -0.0131150975511269
    -0.0194960276668170   -0.0060381749655975   -9.6908990011248619
   Al   Sc   N 
    23    13    35
Direct
  0.1106673358398140  0.0924095527140238  0.3033297531902548
  0.2218737463076863  0.2067646746136660  0.0618813185314977
  0.7757060477095408  0.0935852788931300  0.7963782540021427
  0.8926326357740706  0.2045342294550778  0.5580231277737866
  0.5579742836312818  0.2095924113802567  0.0543023298651804
  0.2251427608206100  0.2015608264501196  0.5551166370570613
  0.8800907970685401  0.2096548438456978  0.0564679775987216
  0.5448844021574786  0.2182458742628057  0.5587369517690277
  0.2122132059627617  0.5440212183968640  0.0961160404236736
  0.4416011994487832  0.4378644343785751  0.3038059426311861
  0.5613242840302632  0.5465610238398781  0.0603576514004658
  0.2290984654539301  0.5384850713142129  0.6155551336308278
  0.8837214334776888  0.5432360034247594  0.0454797477041922
  0.4486351370350974  0.4326866341631757  0.8094317659175161
  0.5515244351015127  0.5354959895809941  0.5532386710600008
  0.1191583301358605  0.7559830518530788  0.3567113311725407
  0.7737734598741994  0.7698148390341188  0.8002043770913261
  0.8886378394626817  0.8717596226621325  0.5581170848830226
  0.4422493499185336  0.7585006088336428  0.3095854306343497
  0.5630073813628371  0.8592601177740065  0.0523042625140633
  0.1124426246111341  0.7594354892333399  0.8572018843318290
  0.4507097685378270  0.7503692215917681  0.8071276951738824
  0.5534994334392920  0.8698629779551368  0.5608255305407894
  0.4456276659093277  0.0903471603725023  0.3167635200760373
  0.1082512300577676  0.0930748567101531  0.8255933862986566
  0.7738251727535754  0.1026552339898430  0.3301042723353973
  0.4555984762315930  0.0877560330754861  0.8199660541593587
  0.1197232592339574  0.4262886708340972  0.3273326375240728
  0.7648748572252089  0.4249641154006696  0.8202423289895862
  0.8904373742793794  0.5354783703210160  0.5837387617340042
  0.1201981370083445  0.4269717444501779  0.8305330847251184
  0.7758586814470974  0.4254971259637799  0.3156967443293510
  0.2291196912875364  0.8668158960389150  0.0794897377346402
  0.2265766641009463  0.8706791196949126  0.5777421845913224
  0.7738780794007809  0.7565884492515309  0.3227085579639137
  0.8777930632937654  0.8800374705116525  0.0706791720427091
  0.2156470450207379  0.1915956335362665  0.3550168293583340
  0.0983804001246895  0.1128326746052934  0.1001651740843883
  0.8759313927264500  0.1919783687865504  0.8620493232929221
  0.7761100675457229  0.0951019750941811  0.5930712264452822
  0.5330406733211888  0.2373271567355957  0.3634204327531592
  0.4534978970732553  0.0886460237904814  0.0890484304986217
  0.2300145234825095  0.1990964044058501  0.8689043910938423
  0.1037314938141094  0.1131287463514710  0.6071507598345747
  0.9100132758755919  0.1955447449941232  0.3632051430281109
  0.7622253350199770  0.1207600928147485  0.1117969217764667
  0.5636741322180612  0.2207926633850121  0.8569935684977139
  0.4459312035239762  0.0931686239768368  0.5925139615817088
  0.2318896215789223  0.5537587582835712  0.2932937511148026
  0.1065743701728366  0.4301871808119913  0.0840688467134285
  0.8790359404955410  0.5558011452935574  0.8385352427502184
  0.7633678663254102  0.4159543591496231  0.5958549082953581
  0.5335149203328484  0.5492660336303956  0.3560400451403396
  0.2331472891120114  0.5487071142694617  0.8240813733529464
  0.1390572996338051  0.4151843961062696  0.5910001793895532
  0.8927425014126555  0.5317120666379509  0.3680298193115945
  0.7797968396756829  0.4293587487684292  0.0845240208606199
  0.5326010612444065  0.5481562376796276  0.8711855692900983
  0.4476184047356639  0.4303567466823139  0.6106490526407811
  0.2217157974828368  0.8721965740845903  0.3332545768362394
  0.1134614223845105  0.7486157039101897  0.0561502302871872
  0.8827159522375894  0.8772447954288012  0.8397745554898890
  0.7669752650505686  0.7825945263218443  0.5991604042988143
  0.5411852844124212  0.8607744648501310  0.3677649781563304
  0.4660934573144857  0.7512307208073565  0.1137885441733388
  0.2335615533934146  0.8542989879775575  0.8350341809705597
  0.1088315771704416  0.7453696531892149  0.5618913083128092
  0.9036731020825215  0.8647165303205782  0.3453988649910684
  0.7716335863197017  0.7487539414291930  0.1011304725385003
  0.5651489739362034  0.8483731832635044  0.8562548826229417
  0.4684313003245748  0.7434636746071490  0.6116735272705114
 
  0.00000000E+00  0.00000000E+00  0.00000000E+00
  0.00000000E+00  0.00000000E+00  0.00000000E+00
  0.00000000E+00  0.00000000E+00  0.00000000E+00
  0.00000000E+00  0.00000000E+00  0.00000000E+00
  0.00000000E+00  0.00000000E+00  0.00000000E+00
  0.00000000E+00  0.00000000E+00  0.00000000E+00
  0.00000000E+00  0.00000000E+00  0.00000000E+00
  0.00000000E+00  0.00000000E+00  0.00000000E+00
  0.00000000E+00  0.00000000E+00  0.00000000E+00
  0.00000000E+00  0.00000000E+00  0.00000000E+00
  0.00000000E+00  0.00000000E+00  0.00000000E+00
  0.00000000E+00  0.00000000E+00  0.00000000E+00
  0.00000000E+00  0.00000000E+00  0.00000000E+00
  0.00000000E+00  0.00000000E+00  0.00000000E+00
  0.00000000E+00  0.00000000E+00  0.00000000E+00
  0.00000000E+00  0.00000000E+00  0.00000000E+00
  0.00000000E+00  0.00000000E+00  0.00000000E+00
  0.00000000E+00  0.00000000E+00  0.00000000E+00
  0.00000000E+00  0.00000000E+00  0.00000000E+00
  0.00000000E+00  0.00000000E+00  0.00000000E+00
  0.00000000E+00  0.00000000E+00  0.00000000E+00
  0.00000000E+00  0.00000000E+00  0.00000000E+00
  0.00000000E+00  0.00000000E+00  0.00000000E+00
  0.00000000E+00  0.00000000E+00  0.00000000E+00
  0.00000000E+00  0.00000000E+00  0.00000000E+00
  0.00000000E+00  0.00000000E+00  0.00000000E+00
  0.00000000E+00  0.00000000E+00  0.00000000E+00
  0.00000000E+00  0.00000000E+00  0.00000000E+00
  0.00000000E+00  0.00000000E+00  0.00000000E+00
  0.00000000E+00  0.00000000E+00  0.00000000E+00
  0.00000000E+00  0.00000000E+00  0.00000000E+00
  0.00000000E+00  0.00000000E+00  0.00000000E+00
  0.00000000E+00  0.00000000E+00  0.00000000E+00
  0.00000000E+00  0.00000000E+00  0.00000000E+00
  0.00000000E+00  0.00000000E+00  0.00000000E+00
  0.00000000E+00  0.00000000E+00  0.00000000E+00
  0.00000000E+00  0.00000000E+00  0.00000000E+00
  0.00000000E+00  0.00000000E+00  0.00000000E+00
  0.00000000E+00  0.00000000E+00  0.00000000E+00
  0.00000000E+00  0.00000000E+00  0.00000000E+00
  0.00000000E+00  0.00000000E+00  0.00000000E+00
  0.00000000E+00  0.00000000E+00  0.00000000E+00
  0.00000000E+00  0.00000000E+00  0.00000000E+00
  0.00000000E+00  0.00000000E+00  0.00000000E+00
  0.00000000E+00  0.00000000E+00  0.00000000E+00
  0.00000000E+00  0.00000000E+00  0.00000000E+00
  0.00000000E+00  0.00000000E+00  0.00000000E+00
  0.00000000E+00  0.00000000E+00  0.00000000E+00
  0.00000000E+00  0.00000000E+00  0.00000000E+00
  0.00000000E+00  0.00000000E+00  0.00000000E+00
  0.00000000E+00  0.00000000E+00  0.00000000E+00
  0.00000000E+00  0.00000000E+00  0.00000000E+00
  0.00000000E+00  0.00000000E+00  0.00000000E+00
  0.00000000E+00  0.00000000E+00  0.00000000E+00
  0.00000000E+00  0.00000000E+00  0.00000000E+00
  0.00000000E+00  0.00000000E+00  0.00000000E+00
  0.00000000E+00  0.00000000E+00  0.00000000E+00
  0.00000000E+00  0.00000000E+00  0.00000000E+00
  0.00000000E+00  0.00000000E+00  0.00000000E+00
  0.00000000E+00  0.00000000E+00  0.00000000E+00
  0.00000000E+00  0.00000000E+00  0.00000000E+00
  0.00000000E+00  0.00000000E+00  0.00000000E+00
  0.00000000E+00  0.00000000E+00  0.00000000E+00
  0.00000000E+00  0.00000000E+00  0.00000000E+00
  0.00000000E+00  0.00000000E+00  0.00000000E+00
  0.00000000E+00  0.00000000E+00  0.00000000E+00
  0.00000000E+00  0.00000000E+00  0.00000000E+00
  0.00000000E+00  0.00000000E+00  0.00000000E+00
  0.00000000E+00  0.00000000E+00  0.00000000E+00
  0.00000000E+00  0.00000000E+00  0.00000000E+00
  0.00000000E+00  0.00000000E+00  0.00000000E+00
