Al   Sc   N                             
   1.00000000000000     
   -10.1714215657725315    0.0210162005877334   -0.0059169359490046
    -5.1172168562918197    8.8195430454421917   -0.0097586073094293
     0.0619144625283209   -0.0257200829242520   -9.5377822088116648
   Al   Sc   N 
    23    13    35
Direct
  0.1111196592835952  0.0902335557894816  0.3147761095702677
  0.2218390977352769  0.2064318375178544  0.0777354266667487
  0.7663126126897168  0.1028724537124504  0.8758293029953492
  0.8906048631383285  0.2019382586607108  0.5668958370159416
  0.5387758620520771  0.2236894902628563  0.1224872707821376
  0.2231133889084163  0.2015913270004788  0.5692491853228177
  0.8819329070568287  0.2125139249138073  0.0737664863740832
  0.5628747205446558  0.2027520910176932  0.6154468870144143
  0.2310869456013762  0.5326647912237945  0.1237328702219216
  0.4357349675665176  0.4390987467963825  0.3782614240081870
  0.5574348688197190  0.5452328303464853  0.0724541686367530
  0.2208998816975125  0.5426678360946795  0.6132565986896594
  0.8853177549075966  0.5415772175495874  0.0630018397099334
  0.4459513471735264  0.4356558533052421  0.8122005579967606
  0.5563902918851298  0.5417666594219881  0.5648910438040176
  0.1116177391571327  0.7614383838487129  0.3704884978608334
  0.7700669412385466  0.7669267774704025  0.8202776241722987
  0.8844718591126295  0.8826164926839084  0.6278325457758456
  0.4423276746650160  0.7579467744171069  0.3212174338394007
  0.5614238795702775  0.8593133222010039  0.0691865428043101
  0.1227080493041939  0.7523908513931019  0.8628900572211862
  0.4496502507908460  0.7518421830594448  0.8209372842193403
  0.5542772984068591  0.8697935955693694  0.5748844545772513
  0.4440975903985915  0.0885727485666692  0.3399623457733369
  0.1075811378531668  0.0949631436687852  0.8395443561560967
  0.7778761763253854  0.0939981630251481  0.3438238816465855
  0.4538312144328245  0.0893345534945738  0.8427444929500538
  0.1176634561172776  0.4252983187144466  0.3431113683496889
  0.7658310985844139  0.4260899779014125  0.8329835199682378
  0.8906761898950677  0.5368684624304478  0.5973932060152407
  0.1234774152060893  0.4313846023705423  0.8470645995804134
  0.7736910954062779  0.4277616921857117  0.3298909758038704
  0.2282553154309355  0.8632448706324425  0.0912188127459004
  0.2248139317619078  0.8723723481197680  0.5899389597451332
  0.7780940674040977  0.7603803457739815  0.3401710471701804
  0.8910977029494234  0.8643546459913480  0.0897507736507848
  0.2140573249058306  0.1905993123128837  0.3647364962727266
  0.1002094363322499  0.1097341606896691  0.1083953334718473
  0.8778209248104858  0.1976949307969349  0.8732404542420511
  0.7788804767135673  0.0926849725570449  0.5802134095734530
  0.5342529788064283  0.2373469740857814  0.3249908753099646
  0.4499020697116478  0.0872862740756517  0.1009894422450088
  0.2269663738307912  0.2038691435429740  0.8786203630914571
  0.1016440898613240  0.1130681754492286  0.6156006841382649
  0.9076735947497170  0.1953726826442619  0.3627146344928960
  0.7561455063344411  0.1170290236868112  0.0891367245614205
  0.5618176378801252  0.2219035741901365  0.8200333450607644
  0.4461709649177976  0.0924938183576884  0.6003026981749855
  0.2327415519425813  0.5527518295678604  0.3250898929047139
  0.1102706533984090  0.4300203744256592  0.0997786632600040
  0.8820372485365198  0.5541890000965068  0.8514089537351381
  0.7655265626612078  0.4151697615503380  0.6036008013808356
  0.5344537010718611  0.5507511396891331  0.3646911405492617
  0.2359220332070038  0.5496368867950991  0.8117711567005159
  0.1359726211144618  0.4150447382740765  0.5973053696568016
  0.8906696407642372  0.5349256300209859  0.3775508283520423
  0.7768340046228062  0.4310200988462611  0.0962643633228382
  0.5319877586090698  0.5469546549833737  0.8765676770675839
  0.4453010416611178  0.4307916093630340  0.5899125972743491
  0.2218790230328835  0.8708253625354558  0.3450168258953639
  0.1279097580608166  0.7310486340906337  0.0604748301051643
  0.8846125501757456  0.8792351740951574  0.8400039836086677
  0.7669045734505815  0.7841073717940787  0.6135296986077918
  0.5444831501726526  0.8574081352893543  0.3771133632236499
  0.4637122506109392  0.7504930755347843  0.1215797010024033
  0.2334956169858273  0.8559465557199886  0.8442585209057896
  0.0964179654985671  0.7564885440304892  0.5753702067898558
  0.9108782709593157  0.8622955201840483  0.3133975712769725
  0.7706143689551936  0.7475795693967839  0.1094726291228980
  0.5626271602323243  0.8497591727696729  0.8686553482927835
  0.4677765731904131  0.7460288847340095  0.6228218347704839
 
  0.00000000E+00  0.00000000E+00  0.00000000E+00
  0.00000000E+00  0.00000000E+00  0.00000000E+00
  0.00000000E+00  0.00000000E+00  0.00000000E+00
  0.00000000E+00  0.00000000E+00  0.00000000E+00
  0.00000000E+00  0.00000000E+00  0.00000000E+00
  0.00000000E+00  0.00000000E+00  0.00000000E+00
  0.00000000E+00  0.00000000E+00  0.00000000E+00
  0.00000000E+00  0.00000000E+00  0.00000000E+00
  0.00000000E+00  0.00000000E+00  0.00000000E+00
  0.00000000E+00  0.00000000E+00  0.00000000E+00
  0.00000000E+00  0.00000000E+00  0.00000000E+00
  0.00000000E+00  0.00000000E+00  0.00000000E+00
  0.00000000E+00  0.00000000E+00  0.00000000E+00
  0.00000000E+00  0.00000000E+00  0.00000000E+00
  0.00000000E+00  0.00000000E+00  0.00000000E+00
  0.00000000E+00  0.00000000E+00  0.00000000E+00
  0.00000000E+00  0.00000000E+00  0.00000000E+00
  0.00000000E+00  0.00000000E+00  0.00000000E+00
  0.00000000E+00  0.00000000E+00  0.00000000E+00
  0.00000000E+00  0.00000000E+00  0.00000000E+00
  0.00000000E+00  0.00000000E+00  0.00000000E+00
  0.00000000E+00  0.00000000E+00  0.00000000E+00
  0.00000000E+00  0.00000000E+00  0.00000000E+00
  0.00000000E+00  0.00000000E+00  0.00000000E+00
  0.00000000E+00  0.00000000E+00  0.00000000E+00
  0.00000000E+00  0.00000000E+00  0.00000000E+00
  0.00000000E+00  0.00000000E+00  0.00000000E+00
  0.00000000E+00  0.00000000E+00  0.00000000E+00
  0.00000000E+00  0.00000000E+00  0.00000000E+00
  0.00000000E+00  0.00000000E+00  0.00000000E+00
  0.00000000E+00  0.00000000E+00  0.00000000E+00
  0.00000000E+00  0.00000000E+00  0.00000000E+00
  0.00000000E+00  0.00000000E+00  0.00000000E+00
  0.00000000E+00  0.00000000E+00  0.00000000E+00
  0.00000000E+00  0.00000000E+00  0.00000000E+00
  0.00000000E+00  0.00000000E+00  0.00000000E+00
  0.00000000E+00  0.00000000E+00  0.00000000E+00
  0.00000000E+00  0.00000000E+00  0.00000000E+00
  0.00000000E+00  0.00000000E+00  0.00000000E+00
  0.00000000E+00  0.00000000E+00  0.00000000E+00
  0.00000000E+00  0.00000000E+00  0.00000000E+00
  0.00000000E+00  0.00000000E+00  0.00000000E+00
  0.00000000E+00  0.00000000E+00  0.00000000E+00
  0.00000000E+00  0.00000000E+00  0.00000000E+00
  0.00000000E+00  0.00000000E+00  0.00000000E+00
  0.00000000E+00  0.00000000E+00  0.00000000E+00
  0.00000000E+00  0.00000000E+00  0.00000000E+00
  0.00000000E+00  0.00000000E+00  0.00000000E+00
  0.00000000E+00  0.00000000E+00  0.00000000E+00
  0.00000000E+00  0.00000000E+00  0.00000000E+00
  0.00000000E+00  0.00000000E+00  0.00000000E+00
  0.00000000E+00  0.00000000E+00  0.00000000E+00
  0.00000000E+00  0.00000000E+00  0.00000000E+00
  0.00000000E+00  0.00000000E+00  0.00000000E+00
  0.00000000E+00  0.00000000E+00  0.00000000E+00
  0.00000000E+00  0.00000000E+00  0.00000000E+00
  0.00000000E+00  0.00000000E+00  0.00000000E+00
  0.00000000E+00  0.00000000E+00  0.00000000E+00
  0.00000000E+00  0.00000000E+00  0.00000000E+00
  0.00000000E+00  0.00000000E+00  0.00000000E+00
  0.00000000E+00  0.00000000E+00  0.00000000E+00
  0.00000000E+00  0.00000000E+00  0.00000000E+00
  0.00000000E+00  0.00000000E+00  0.00000000E+00
  0.00000000E+00  0.00000000E+00  0.00000000E+00
  0.00000000E+00  0.00000000E+00  0.00000000E+00
  0.00000000E+00  0.00000000E+00  0.00000000E+00
  0.00000000E+00  0.00000000E+00  0.00000000E+00
  0.00000000E+00  0.00000000E+00  0.00000000E+00
  0.00000000E+00  0.00000000E+00  0.00000000E+00
  0.00000000E+00  0.00000000E+00  0.00000000E+00
  0.00000000E+00  0.00000000E+00  0.00000000E+00
