Al   Sc   N                             
   1.00000000000000     
   -10.0508725624867417    0.0269590539990263   -0.0011294224966465
    -5.0750470804612604    8.7085448213372274   -0.0037719271459179
     0.0364013221767897   -0.0712020115676654   -9.8860304082365040
   Al   Sc   N 
    23    13    35
Direct
  0.1093442397090740  0.0940326962025253  0.4002019078247798
  0.2188050073845531  0.2003949707138943  0.1417121806743964
  0.7705244850005712  0.1043067902571693  0.8907996013344075
  0.8805048765230623  0.2041258473887595  0.6433445768483068
  0.5486257426253616  0.2126771973440569  0.1336712957835005
  0.2230804394550532  0.2096170955768528  0.6390566068809491
  0.8896472797263684  0.2094706887562978  0.1414268303925681
  0.5573957088420869  0.2122566600244937  0.6411310759085111
  0.2232670285620557  0.5390918545651502  0.1437570605788352
  0.4387124083010150  0.4400216709541880  0.3900889350698051
  0.5619591318754686  0.5512746782872782  0.1444458040825083
  0.2285038002327369  0.5343372069258976  0.6394476843630201
  0.8890913227075714  0.5336329446032479  0.1493008041756880
  0.4423632370830717  0.4323770060244101  0.8894832592794728
  0.5509705058918755  0.5341859628836261  0.6474073517867893
  0.1111340558602691  0.7584731634066841  0.3970768718509845
  0.7781879582802986  0.7562447926533835  0.8913507827140990
  0.8819490682768958  0.8757155839446611  0.6510703157975612
  0.4410806035277304  0.7534222772870578  0.3979177186503833
  0.5553779009083826  0.8672473006568922  0.0858420675185627
  0.1241204508798148  0.7513334233690969  0.8836534659679742
  0.4436270022877622  0.7519773302762260  0.8897175482710651
  0.5565934669162829  0.8708686823275258  0.5875628230340482
  0.4422030490629325  0.0964864515096266  0.3724752921251451
  0.1101199763131717  0.0906416822279894  0.8755130184437832
  0.7791973395362604  0.0940848716856735  0.3792975098939451
  0.4535120237674164  0.0894596387834383  0.8648727658026729
  0.1244816062645810  0.4225709018857344  0.3746144452197058
  0.7726299055164461  0.4300876097521780  0.8831197027092443
  0.8885379779865232  0.5433302971722398  0.6260121992685228
  0.1159095681112490  0.4339671097680338  0.8913153320735177
  0.7685148242904134  0.4232149180293803  0.3846408298627324
  0.2227928732824580  0.8707379038795935  0.1466980920508760
  0.2232485913317461  0.8660160037494933  0.6237680152097553
  0.7785412760272834  0.7676751001550599  0.3685597181514311
  0.8933951393262163  0.8716774126997464  0.1108067255293861
  0.2133952533787706  0.1884046555585002  0.3328546443071687
  0.1013960022281779  0.1083348336595691  0.0885519003973414
  0.8775248467275532  0.1970502986263085  0.8332015464446627
  0.7770099520104381  0.0914021436765253  0.5968433210113773
  0.5400752985613266  0.2369211464057486  0.3230421082827917
  0.4450358136243082  0.0929919126937335  0.1014893947535782
  0.2215762649157895  0.2090901730935784  0.8300478672149367
  0.0989783865261202  0.1153187205210386  0.5957831171694465
  0.9084084623198621  0.1923261786375363  0.3324205687301642
  0.7627785506943425  0.1215262712753855  0.0865818760334136
  0.5608035578219628  0.2228121265362120  0.8359239823380378
  0.4475949784474622  0.0950869641847518  0.6064920379961620
  0.2331782084463399  0.5538312092289530  0.3318519610450608
  0.1144890957219928  0.4252176040196716  0.1144450878124985
  0.8851046954552260  0.5529865798442160  0.8393953735606345
  0.7649702082188838  0.4181688565895314  0.6040359165196634
  0.5306949100052094  0.5511914901897654  0.3290382266840055
  0.2365296067335834  0.5429076463800584  0.8307520998847906
  0.1338391187845005  0.4187323243337602  0.5922675954559793
  0.8892139472336140  0.5340700597570915  0.3461433777477652
  0.7773083650386852  0.4287524346469311  0.1077601523309824
  0.5364271641664544  0.5438460478331493  0.8412121315697547
  0.4449926766416894  0.4290855947995240  0.5838343897825666
  0.2201370356613452  0.8707182655256958  0.3719453731130784
  0.1313911475838125  0.7356430633945692  0.0734496848073505
  0.8847224391010258  0.8746300665489883  0.8548499179845521
  0.7702155083939459  0.7837241527419465  0.5915872091159002
  0.5416991077557327  0.8627539910915019  0.3744034979639252
  0.4545816187652036  0.7529470785049099  0.0870666427380939
  0.2325134780912563  0.8528478202404628  0.8413245624138881
  0.0956943660752927  0.7489605304730276  0.5910063048115646
  0.9140265333604702  0.8651786448516532  0.3223061362983088
  0.7745897452710153  0.7468050411374421  0.0994317561196354
  0.5633035890491129  0.8501554145581025  0.8773992380750997
  0.4666159603571600  0.7420645086097508  0.5923781366857099
 
  0.00000000E+00  0.00000000E+00  0.00000000E+00
  0.00000000E+00  0.00000000E+00  0.00000000E+00
  0.00000000E+00  0.00000000E+00  0.00000000E+00
  0.00000000E+00  0.00000000E+00  0.00000000E+00
  0.00000000E+00  0.00000000E+00  0.00000000E+00
  0.00000000E+00  0.00000000E+00  0.00000000E+00
  0.00000000E+00  0.00000000E+00  0.00000000E+00
  0.00000000E+00  0.00000000E+00  0.00000000E+00
  0.00000000E+00  0.00000000E+00  0.00000000E+00
  0.00000000E+00  0.00000000E+00  0.00000000E+00
  0.00000000E+00  0.00000000E+00  0.00000000E+00
  0.00000000E+00  0.00000000E+00  0.00000000E+00
  0.00000000E+00  0.00000000E+00  0.00000000E+00
  0.00000000E+00  0.00000000E+00  0.00000000E+00
  0.00000000E+00  0.00000000E+00  0.00000000E+00
  0.00000000E+00  0.00000000E+00  0.00000000E+00
  0.00000000E+00  0.00000000E+00  0.00000000E+00
  0.00000000E+00  0.00000000E+00  0.00000000E+00
  0.00000000E+00  0.00000000E+00  0.00000000E+00
  0.00000000E+00  0.00000000E+00  0.00000000E+00
  0.00000000E+00  0.00000000E+00  0.00000000E+00
  0.00000000E+00  0.00000000E+00  0.00000000E+00
  0.00000000E+00  0.00000000E+00  0.00000000E+00
  0.00000000E+00  0.00000000E+00  0.00000000E+00
  0.00000000E+00  0.00000000E+00  0.00000000E+00
  0.00000000E+00  0.00000000E+00  0.00000000E+00
  0.00000000E+00  0.00000000E+00  0.00000000E+00
  0.00000000E+00  0.00000000E+00  0.00000000E+00
  0.00000000E+00  0.00000000E+00  0.00000000E+00
  0.00000000E+00  0.00000000E+00  0.00000000E+00
  0.00000000E+00  0.00000000E+00  0.00000000E+00
  0.00000000E+00  0.00000000E+00  0.00000000E+00
  0.00000000E+00  0.00000000E+00  0.00000000E+00
  0.00000000E+00  0.00000000E+00  0.00000000E+00
  0.00000000E+00  0.00000000E+00  0.00000000E+00
  0.00000000E+00  0.00000000E+00  0.00000000E+00
  0.00000000E+00  0.00000000E+00  0.00000000E+00
  0.00000000E+00  0.00000000E+00  0.00000000E+00
  0.00000000E+00  0.00000000E+00  0.00000000E+00
  0.00000000E+00  0.00000000E+00  0.00000000E+00
  0.00000000E+00  0.00000000E+00  0.00000000E+00
  0.00000000E+00  0.00000000E+00  0.00000000E+00
  0.00000000E+00  0.00000000E+00  0.00000000E+00
  0.00000000E+00  0.00000000E+00  0.00000000E+00
  0.00000000E+00  0.00000000E+00  0.00000000E+00
  0.00000000E+00  0.00000000E+00  0.00000000E+00
  0.00000000E+00  0.00000000E+00  0.00000000E+00
  0.00000000E+00  0.00000000E+00  0.00000000E+00
  0.00000000E+00  0.00000000E+00  0.00000000E+00
  0.00000000E+00  0.00000000E+00  0.00000000E+00
  0.00000000E+00  0.00000000E+00  0.00000000E+00
  0.00000000E+00  0.00000000E+00  0.00000000E+00
  0.00000000E+00  0.00000000E+00  0.00000000E+00
  0.00000000E+00  0.00000000E+00  0.00000000E+00
  0.00000000E+00  0.00000000E+00  0.00000000E+00
  0.00000000E+00  0.00000000E+00  0.00000000E+00
  0.00000000E+00  0.00000000E+00  0.00000000E+00
  0.00000000E+00  0.00000000E+00  0.00000000E+00
  0.00000000E+00  0.00000000E+00  0.00000000E+00
  0.00000000E+00  0.00000000E+00  0.00000000E+00
  0.00000000E+00  0.00000000E+00  0.00000000E+00
  0.00000000E+00  0.00000000E+00  0.00000000E+00
  0.00000000E+00  0.00000000E+00  0.00000000E+00
  0.00000000E+00  0.00000000E+00  0.00000000E+00
  0.00000000E+00  0.00000000E+00  0.00000000E+00
  0.00000000E+00  0.00000000E+00  0.00000000E+00
  0.00000000E+00  0.00000000E+00  0.00000000E+00
  0.00000000E+00  0.00000000E+00  0.00000000E+00
  0.00000000E+00  0.00000000E+00  0.00000000E+00
  0.00000000E+00  0.00000000E+00  0.00000000E+00
  0.00000000E+00  0.00000000E+00  0.00000000E+00
