Al   Sc   N                             
   1.00000000000000     
   -10.0853030396418113    0.0204300654430892   -0.0115319889435669
    -5.0677476888738182    8.7502343174149537   -0.0136506058359143
    -0.0207409007876406    0.0266460820775516   -9.7207497383179557
   Al   Sc   N 
    23    13    35
Direct
  0.1108199544036026  0.0922830165981594  0.3016198414266000
  0.2210523876855461  0.2083765361295846  0.0598373457015171
  0.7754565414192456  0.0938306274060423  0.7977239809872785
  0.8918446935544182  0.2045268008467218  0.5581953836613209
  0.5587737225265030  0.2052928784200390  0.0536442260337395
  0.2241023040726233  0.2016721547589029  0.5527770210418197
  0.8801636325133657  0.2096595355543869  0.0561081187920038
  0.5443953216789126  0.2187650297325803  0.5596644713838046
  0.2185529570170814  0.5390914743846693  0.0602350611079530
  0.4372601237703790  0.4395180067012774  0.3033740387994754
  0.5627138328299850  0.5493115929701133  0.0593589115552504
  0.2300539565860547  0.5378992399167970  0.5518508468920729
  0.8874445217516040  0.5422139067333518  0.0437447200403369
  0.4433125547617180  0.4358133399751836  0.8080695706621768
  0.5499051367442718  0.5358482011091681  0.5528478262934655
  0.1167114873261141  0.7597827585178862  0.3094574382093356
  0.7747810498212644  0.7690587788670555  0.8010397677015177
  0.8906627294804110  0.8706666891377424  0.5585149813717294
  0.4421483316356145  0.7589934806463319  0.3091499757426561
  0.5638007835518337  0.8598297402859174  0.0518461857578387
  0.1129130591896583  0.7563806822956494  0.8113816392350728
  0.4499029824135903  0.7503507767541961  0.8068242362697333
  0.5529350462745626  0.8700406535898111  0.5612887352108231
  0.4452898165705008  0.0908622948240918  0.3167824268631065
  0.1086450959637730  0.0931692911184356  0.8244491005247170
  0.7737082415188254  0.1022063883763380  0.3309803970167948
  0.4545606095930168  0.0880813897894726  0.8185749979347960
  0.1171309173118829  0.4263651284097918  0.3184465400567547
  0.7658064646034717  0.4251989641713649  0.8198064338280346
  0.8890271904928113  0.5366733755134092  0.5815293435484818
  0.1251643634753847  0.4288338145653157  0.8152213005078863
  0.7750999425079854  0.4255728163946983  0.3146512318584627
  0.2297427207288720  0.8656513976727496  0.0722019434164238
  0.2236702067958234  0.8702432610153181  0.5698158802272104
  0.7741026593919074  0.7577715903597024  0.3221687875190256
  0.8825274555440217  0.8774678056274752  0.0681054324032502
  0.2151691664843725  0.1916255952944894  0.3547118988266504
  0.0986583897872180  0.1126132033893796  0.0996678956600903
  0.8761086908441058  0.1920336557339795  0.8626209198682275
  0.7751627894309721  0.0955773770450392  0.5956045651889212
  0.5334767519983785  0.2373179553916884  0.3645547487451637
  0.4530587087095057  0.0882632913308399  0.0887875609835618
  0.2277157283031812  0.2032249056385425  0.8678412111779679
  0.1037222092420933  0.1121344262139701  0.6073989806462023
  0.9099865088013246  0.1952852307004420  0.3636471754551280
  0.7624534147985784  0.1195024647449969  0.1126751254860849
  0.5622498389828152  0.2216846506797907  0.8577427927813019
  0.4449336046151942  0.0935284296909060  0.5926279121637208
  0.2319838710547728  0.5517414461137378  0.3554804984925966
  0.1087795331030108  0.4299704698928437  0.0892193661869172
  0.8830581061576126  0.5543983201297280  0.8384487425050366
  0.7623179184884847  0.4163080503797971  0.5961886014788291
  0.5333824080523186  0.5490301875870855  0.3550473021306644
  0.2375065148472686  0.5468941838677779  0.8688525049899525
  0.1386537726795467  0.4153139047546972  0.5897935835610184
  0.8909352705050182  0.5327551497352943  0.3675164607263355
  0.7805623478032402  0.4296054129080531  0.0840389642790527
  0.5330271552865256  0.5473937397212083  0.8714102273188615
  0.4412318586852919  0.4336779038157488  0.6126560412146134
  0.2218451151370502  0.8730654947084986  0.3365433981699724
  0.1174901826898562  0.7437354736947057  0.1103601767306799
  0.8847496435486804  0.8758996369514875  0.8462524218697638
  0.7661442665902243  0.7835506743284668  0.6014234843942319
  0.5414626079529441  0.8608713604841327  0.3685631816070725
  0.4661888674170171  0.7526949402570082  0.1142964663414929
  0.2327097571452583  0.8528951357408587  0.8427977080819531
  0.1035493694505192  0.7481750541272092  0.6090972494631473
  0.9063462462294964  0.8637259526368126  0.3559538935185671
  0.7733377061043143  0.7487052033865780  0.1009634575642551
  0.5651673913300783  0.8481005366673742  0.8565234120021969
  0.4659930282031084  0.7442840573319103  0.6121687692619560
 
  0.00000000E+00  0.00000000E+00  0.00000000E+00
  0.00000000E+00  0.00000000E+00  0.00000000E+00
  0.00000000E+00  0.00000000E+00  0.00000000E+00
  0.00000000E+00  0.00000000E+00  0.00000000E+00
  0.00000000E+00  0.00000000E+00  0.00000000E+00
  0.00000000E+00  0.00000000E+00  0.00000000E+00
  0.00000000E+00  0.00000000E+00  0.00000000E+00
  0.00000000E+00  0.00000000E+00  0.00000000E+00
  0.00000000E+00  0.00000000E+00  0.00000000E+00
  0.00000000E+00  0.00000000E+00  0.00000000E+00
  0.00000000E+00  0.00000000E+00  0.00000000E+00
  0.00000000E+00  0.00000000E+00  0.00000000E+00
  0.00000000E+00  0.00000000E+00  0.00000000E+00
  0.00000000E+00  0.00000000E+00  0.00000000E+00
  0.00000000E+00  0.00000000E+00  0.00000000E+00
  0.00000000E+00  0.00000000E+00  0.00000000E+00
  0.00000000E+00  0.00000000E+00  0.00000000E+00
  0.00000000E+00  0.00000000E+00  0.00000000E+00
  0.00000000E+00  0.00000000E+00  0.00000000E+00
  0.00000000E+00  0.00000000E+00  0.00000000E+00
  0.00000000E+00  0.00000000E+00  0.00000000E+00
  0.00000000E+00  0.00000000E+00  0.00000000E+00
  0.00000000E+00  0.00000000E+00  0.00000000E+00
  0.00000000E+00  0.00000000E+00  0.00000000E+00
  0.00000000E+00  0.00000000E+00  0.00000000E+00
  0.00000000E+00  0.00000000E+00  0.00000000E+00
  0.00000000E+00  0.00000000E+00  0.00000000E+00
  0.00000000E+00  0.00000000E+00  0.00000000E+00
  0.00000000E+00  0.00000000E+00  0.00000000E+00
  0.00000000E+00  0.00000000E+00  0.00000000E+00
  0.00000000E+00  0.00000000E+00  0.00000000E+00
  0.00000000E+00  0.00000000E+00  0.00000000E+00
  0.00000000E+00  0.00000000E+00  0.00000000E+00
  0.00000000E+00  0.00000000E+00  0.00000000E+00
  0.00000000E+00  0.00000000E+00  0.00000000E+00
  0.00000000E+00  0.00000000E+00  0.00000000E+00
  0.00000000E+00  0.00000000E+00  0.00000000E+00
  0.00000000E+00  0.00000000E+00  0.00000000E+00
  0.00000000E+00  0.00000000E+00  0.00000000E+00
  0.00000000E+00  0.00000000E+00  0.00000000E+00
  0.00000000E+00  0.00000000E+00  0.00000000E+00
  0.00000000E+00  0.00000000E+00  0.00000000E+00
  0.00000000E+00  0.00000000E+00  0.00000000E+00
  0.00000000E+00  0.00000000E+00  0.00000000E+00
  0.00000000E+00  0.00000000E+00  0.00000000E+00
  0.00000000E+00  0.00000000E+00  0.00000000E+00
  0.00000000E+00  0.00000000E+00  0.00000000E+00
  0.00000000E+00  0.00000000E+00  0.00000000E+00
  0.00000000E+00  0.00000000E+00  0.00000000E+00
  0.00000000E+00  0.00000000E+00  0.00000000E+00
  0.00000000E+00  0.00000000E+00  0.00000000E+00
  0.00000000E+00  0.00000000E+00  0.00000000E+00
  0.00000000E+00  0.00000000E+00  0.00000000E+00
  0.00000000E+00  0.00000000E+00  0.00000000E+00
  0.00000000E+00  0.00000000E+00  0.00000000E+00
  0.00000000E+00  0.00000000E+00  0.00000000E+00
  0.00000000E+00  0.00000000E+00  0.00000000E+00
  0.00000000E+00  0.00000000E+00  0.00000000E+00
  0.00000000E+00  0.00000000E+00  0.00000000E+00
  0.00000000E+00  0.00000000E+00  0.00000000E+00
  0.00000000E+00  0.00000000E+00  0.00000000E+00
  0.00000000E+00  0.00000000E+00  0.00000000E+00
  0.00000000E+00  0.00000000E+00  0.00000000E+00
  0.00000000E+00  0.00000000E+00  0.00000000E+00
  0.00000000E+00  0.00000000E+00  0.00000000E+00
  0.00000000E+00  0.00000000E+00  0.00000000E+00
  0.00000000E+00  0.00000000E+00  0.00000000E+00
  0.00000000E+00  0.00000000E+00  0.00000000E+00
  0.00000000E+00  0.00000000E+00  0.00000000E+00
  0.00000000E+00  0.00000000E+00  0.00000000E+00
  0.00000000E+00  0.00000000E+00  0.00000000E+00
