Al   Sc   N                             
   1.00000000000000     
   -10.1060750138578541    0.0253142476656574   -0.0030606688149427
    -5.1303792319650894    8.7558409546008633   -0.0050821160351524
     0.0093854866528072   -0.0597653254881893   -9.7409814647164197
   Al   Sc   N 
    23    13    35
Direct
  0.1119084084752870  0.0910513884371156  0.3974690240455345
  0.2195430723118719  0.1985202462140521  0.1389714585469548
  0.7694368900374187  0.1056020791588566  0.8923789827938862
  0.8787954359471968  0.2034843729417304  0.6386975860505331
  0.5441989464568380  0.2135772968660703  0.1327527313884573
  0.2265050086073828  0.2091113189982536  0.6402320624050617
  0.8916636919263823  0.2071194963535845  0.1369182201829702
  0.5566152531970019  0.2137941193803030  0.6430268538397925
  0.2249559318020005  0.5358960414549188  0.1402472119471767
  0.4358290518428163  0.4377930808749397  0.3886739300961182
  0.5640581467915595  0.5564079189032896  0.1043464729347505
  0.2303060755093185  0.5339276157181558  0.6395996369396499
  0.8902050359323042  0.5352254321612975  0.1527629337960903
  0.4383559970078679  0.4322950554057954  0.8979255364103267
  0.5516938964869311  0.5384047181831733  0.5786049943868150
  0.1122425398150568  0.7592581739719719  0.3919896958507181
  0.7707974721692423  0.7647455732651878  0.8283342831768365
  0.8853756074384975  0.8811740437852293  0.6457080626346965
  0.4397245680668505  0.7631762641635902  0.3403888205393102
  0.5614799747472503  0.8609455078696229  0.0834814610639469
  0.1215557212419824  0.7520670270984837  0.8813533586399558
  0.4499325403573309  0.7481057475048445  0.8391558403117614
  0.5529648237283737  0.8695973823618459  0.5939752311312461
  0.4439000924730081  0.0923925843118312  0.3737409596621220
  0.1079283749727722  0.0942011459712830  0.8668829417644019
  0.7779753575030739  0.0946571657279236  0.3716559935980115
  0.4527547153827953  0.0905640269768284  0.8685517869315547
  0.1315685956099415  0.4189218270609132  0.3723374276555234
  0.7683986941963283  0.4328253136123266  0.8701512291759528
  0.8939577045353673  0.5342103740853403  0.6134351721713571
  0.1112118634738621  0.4380776255752679  0.8891473113219988
  0.7752856818972873  0.4187914538238715  0.3676469110347256
  0.2174688164133016  0.8729064855689685  0.1247184849089464
  0.2269790294983096  0.8635160241313784  0.6165382655817027
  0.7759626950151457  0.7669935943161335  0.3652903514827628
  0.8869526062672364  0.8659768196227660  0.1076025417325397
  0.2160123021085312  0.1855435843546474  0.3338176710778527
  0.1004974804202874  0.1111645955344756  0.0837205154098655
  0.8741055013970112  0.1990686758488920  0.8327511101125040
  0.7749614028432887  0.0933174592285582  0.5937269156711480
  0.5359417893674632  0.2364583330531786  0.3249760431036890
  0.4473878638306559  0.0885437928180295  0.1047122741770181
  0.2220461290345810  0.2114843781456131  0.8344284005423859
  0.1012951671333653  0.1133283689949494  0.5988565045791177
  0.9125814147580513  0.1866505682302062  0.3312939558700521
  0.7622055404098518  0.1199758805334810  0.0908085044712621
  0.5596063627944474  0.2247688464887858  0.8407020428486973
  0.4492024696495989  0.0947411356632557  0.6134599009223578
  0.2338701188971797  0.5546150513020152  0.3304725585751811
  0.1127603063836560  0.4249522647950741  0.1167502936664135
  0.8821762208260040  0.5533021304001764  0.8353258242210657
  0.7653362182325054  0.4160048254922657  0.6023749650770398
  0.5332911139426031  0.5524879338140138  0.3730670449237010
  0.2365711269329154  0.5440086257321681  0.8322613726405450
  0.1386303740839168  0.4166864809359936  0.5938826990072457
  0.8957179991479194  0.5320886200243038  0.3634016824894530
  0.7813339809156616  0.4283747018161321  0.1170643605284596
  0.5313626799943520  0.5494557192374856  0.9131294036348194
  0.4438290980560993  0.4274590276976582  0.5869816716970391
  0.2202015252062424  0.8710065734570662  0.3694138293556506
  0.1253520264045349  0.7340266923300902  0.0736406578559325
  0.8833809078952939  0.8781465289822421  0.8527325920790432
  0.7675473356129814  0.7842767568814608  0.6219637608223181
  0.5412160626735414  0.8601383681515600  0.4011692040522945
  0.4563191634806145  0.7633102407633245  0.1450820133485351
  0.2311585723059082  0.8545312019968847  0.8501382773921975
  0.0980989646782504  0.7494075038177215  0.5911640427357838
  0.9115948145344888  0.8644073757172137  0.3277225586159105
  0.7683782236750361  0.7480418573962169  0.1349973979714534
  0.5641916436095684  0.8466895777207810  0.8856858742076597
  0.4721194638447841  0.7397491958314291  0.6440362998722406
 
  0.00000000E+00  0.00000000E+00  0.00000000E+00
  0.00000000E+00  0.00000000E+00  0.00000000E+00
  0.00000000E+00  0.00000000E+00  0.00000000E+00
  0.00000000E+00  0.00000000E+00  0.00000000E+00
  0.00000000E+00  0.00000000E+00  0.00000000E+00
  0.00000000E+00  0.00000000E+00  0.00000000E+00
  0.00000000E+00  0.00000000E+00  0.00000000E+00
  0.00000000E+00  0.00000000E+00  0.00000000E+00
  0.00000000E+00  0.00000000E+00  0.00000000E+00
  0.00000000E+00  0.00000000E+00  0.00000000E+00
  0.00000000E+00  0.00000000E+00  0.00000000E+00
  0.00000000E+00  0.00000000E+00  0.00000000E+00
  0.00000000E+00  0.00000000E+00  0.00000000E+00
  0.00000000E+00  0.00000000E+00  0.00000000E+00
  0.00000000E+00  0.00000000E+00  0.00000000E+00
  0.00000000E+00  0.00000000E+00  0.00000000E+00
  0.00000000E+00  0.00000000E+00  0.00000000E+00
  0.00000000E+00  0.00000000E+00  0.00000000E+00
  0.00000000E+00  0.00000000E+00  0.00000000E+00
  0.00000000E+00  0.00000000E+00  0.00000000E+00
  0.00000000E+00  0.00000000E+00  0.00000000E+00
  0.00000000E+00  0.00000000E+00  0.00000000E+00
  0.00000000E+00  0.00000000E+00  0.00000000E+00
  0.00000000E+00  0.00000000E+00  0.00000000E+00
  0.00000000E+00  0.00000000E+00  0.00000000E+00
  0.00000000E+00  0.00000000E+00  0.00000000E+00
  0.00000000E+00  0.00000000E+00  0.00000000E+00
  0.00000000E+00  0.00000000E+00  0.00000000E+00
  0.00000000E+00  0.00000000E+00  0.00000000E+00
  0.00000000E+00  0.00000000E+00  0.00000000E+00
  0.00000000E+00  0.00000000E+00  0.00000000E+00
  0.00000000E+00  0.00000000E+00  0.00000000E+00
  0.00000000E+00  0.00000000E+00  0.00000000E+00
  0.00000000E+00  0.00000000E+00  0.00000000E+00
  0.00000000E+00  0.00000000E+00  0.00000000E+00
  0.00000000E+00  0.00000000E+00  0.00000000E+00
  0.00000000E+00  0.00000000E+00  0.00000000E+00
  0.00000000E+00  0.00000000E+00  0.00000000E+00
  0.00000000E+00  0.00000000E+00  0.00000000E+00
  0.00000000E+00  0.00000000E+00  0.00000000E+00
  0.00000000E+00  0.00000000E+00  0.00000000E+00
  0.00000000E+00  0.00000000E+00  0.00000000E+00
  0.00000000E+00  0.00000000E+00  0.00000000E+00
  0.00000000E+00  0.00000000E+00  0.00000000E+00
  0.00000000E+00  0.00000000E+00  0.00000000E+00
  0.00000000E+00  0.00000000E+00  0.00000000E+00
  0.00000000E+00  0.00000000E+00  0.00000000E+00
  0.00000000E+00  0.00000000E+00  0.00000000E+00
  0.00000000E+00  0.00000000E+00  0.00000000E+00
  0.00000000E+00  0.00000000E+00  0.00000000E+00
  0.00000000E+00  0.00000000E+00  0.00000000E+00
  0.00000000E+00  0.00000000E+00  0.00000000E+00
  0.00000000E+00  0.00000000E+00  0.00000000E+00
  0.00000000E+00  0.00000000E+00  0.00000000E+00
  0.00000000E+00  0.00000000E+00  0.00000000E+00
  0.00000000E+00  0.00000000E+00  0.00000000E+00
  0.00000000E+00  0.00000000E+00  0.00000000E+00
  0.00000000E+00  0.00000000E+00  0.00000000E+00
  0.00000000E+00  0.00000000E+00  0.00000000E+00
  0.00000000E+00  0.00000000E+00  0.00000000E+00
  0.00000000E+00  0.00000000E+00  0.00000000E+00
  0.00000000E+00  0.00000000E+00  0.00000000E+00
  0.00000000E+00  0.00000000E+00  0.00000000E+00
  0.00000000E+00  0.00000000E+00  0.00000000E+00
  0.00000000E+00  0.00000000E+00  0.00000000E+00
  0.00000000E+00  0.00000000E+00  0.00000000E+00
  0.00000000E+00  0.00000000E+00  0.00000000E+00
  0.00000000E+00  0.00000000E+00  0.00000000E+00
  0.00000000E+00  0.00000000E+00  0.00000000E+00
  0.00000000E+00  0.00000000E+00  0.00000000E+00
  0.00000000E+00  0.00000000E+00  0.00000000E+00
