Al   Sc   N                             
   1.00000000000000     
   -10.0623089521928346    0.0237140895739868   -0.0044748872910002
    -5.0838425556686229    8.7276906736688158   -0.0066224924882582
     0.0427328759412247   -0.0451665967204428   -9.8705410447164059
   Al   Sc   N 
    23    13    35
Direct
  0.1092964113419796  0.0951626881639811  0.3791654506566644
  0.2172345179999908  0.2027475093180158  0.1233875185992801
  0.7705866488683739  0.1038030060201365  0.8765437432040457
  0.8822281494535389  0.2002286847959098  0.6225378199876275
  0.5434785547578258  0.2209231687063991  0.1211247698439664
  0.2286899170965029  0.2063236605996934  0.6211607666325705
  0.8899388047658618  0.2089691037879504  0.1173240437043788
  0.5609666122566992  0.2042729418681191  0.6212423655100494
  0.2289747639894415  0.5349084772938397  0.1265409160658209
  0.4364502773436953  0.4382397363287183  0.3785980961658950
  0.5533577189383365  0.5482172371774823  0.0689890915414821
  0.2224345349713417  0.5397191104895214  0.6180636403391375
  0.8826149566843995  0.5414542607537740  0.0617117987345139
  0.4438097938558130  0.4351874617366320  0.8256148062931459
  0.5563712515280841  0.5403985434948027  0.5650639016998937
  0.1102099057911659  0.7600581180236503  0.3748191619874248
  0.7690659181798409  0.7664032015273534  0.8191434052827304
  0.8853315413779654  0.8795491805684108  0.6332187647799188
  0.4430383804649480  0.7583122739654726  0.3243437424725357
  0.5572847941842198  0.8597724230131050  0.0682654785404608
  0.1234653890774666  0.7534243761844905  0.8677964651849948
  0.4488982692005905  0.7526972928830631  0.8161065717523428
  0.5569066899802095  0.8688492704115447  0.5717993524807312
  0.4435872156973986  0.0932269931706813  0.3547562913069839
  0.1116664755272083  0.0907370703513664  0.8542046683952549
  0.7809519366564004  0.0936705232812898  0.3559112797515454
  0.4554105056346671  0.0896058762297258  0.8564808374511514
  0.1210028769811302  0.4241666852581574  0.3555935950654856
  0.7664826056017660  0.4262214989373874  0.8378283301647400
  0.8919091926710436  0.5361554095816885  0.5968083423423565
  0.1246337905850154  0.4309121668539078  0.8666806187176803
  0.7723586852758757  0.4294304272955358  0.3327765341606934
  0.2172263495332842  0.8736182914189499  0.1175255475501444
  0.2258977482522013  0.8656552444804433  0.5976027940837909
  0.7787072740535734  0.7591952038679111  0.3313345333147382
  0.8887117249434908  0.8676476651422931  0.0886872800714187
  0.2138047082669488  0.1896627518798155  0.3149906196547150
  0.1008766507893384  0.1111678021631519  0.0672744247787946
  0.8802042505693706  0.1904233440691598  0.8145041246225730
  0.7785409088485267  0.0896156755089379  0.5742873280535434
  0.5390224508463177  0.2366639450317791  0.3134339438592306
  0.4462235655570623  0.0915283680941599  0.0896639540026598
  0.2272239735321833  0.2055217193240182  0.8124398921015299
  0.1009329604952072  0.1142988300111440  0.5767041124956762
  0.9095341347072932  0.1931175703861996  0.3108966041137293
  0.7604020981936728  0.1214800203055475  0.0719056003429941
  0.5632947267333961  0.2208995121813473  0.8162587105769248
  0.4501277897245188  0.0930506409312315  0.5897742451462875
  0.2336447118561580  0.5532039926259174  0.3172299398072767
  0.1115184228782837  0.4275140631409826  0.0932512908270766
  0.8829459119855940  0.5536037588589977  0.8553441612188308
  0.7656052707837020  0.4161580780373981  0.6053200913042716
  0.5342807304227577  0.5524568569745512  0.3723818612349845
  0.2328096078974156  0.5498471634358779  0.8083550107061015
  0.1380205630867977  0.4157879455260911  0.5804490207246431
  0.8900065979644012  0.5359453367990881  0.3826995875273767
  0.7749028701053149  0.4303362709631031  0.0930957753837234
  0.5298544939545593  0.5499162645785347  0.8795707721388553
  0.4444564942411446  0.4283324985732406  0.5834469194325322
  0.2202296482934116  0.8722320347160135  0.3510209205302601
  0.1293995653308997  0.7331035807070521  0.0570128114703365
  0.8858870175462954  0.8777470599563628  0.8394816498114679
  0.7658958099810889  0.7834035855452086  0.6222459207207010
  0.5457239422040630  0.8583523866281553  0.3803714237619644
  0.4584510702027700  0.7527845699434508  0.1293672931910592
  0.2312804517397851  0.8542820347083548  0.8261317379869553
  0.0943851529364608  0.7522528044501513  0.5695291716940787
  0.9115954079307187  0.8635029007107420  0.3050913115174438
  0.7681943500869437  0.7478611723187072  0.1119831321054505
  0.5613802048003933  0.8478477324706901  0.8745682733647442
  0.4716120272706803  0.7452820420636428  0.6250849978315429
 
  0.00000000E+00  0.00000000E+00  0.00000000E+00
  0.00000000E+00  0.00000000E+00  0.00000000E+00
  0.00000000E+00  0.00000000E+00  0.00000000E+00
  0.00000000E+00  0.00000000E+00  0.00000000E+00
  0.00000000E+00  0.00000000E+00  0.00000000E+00
  0.00000000E+00  0.00000000E+00  0.00000000E+00
  0.00000000E+00  0.00000000E+00  0.00000000E+00
  0.00000000E+00  0.00000000E+00  0.00000000E+00
  0.00000000E+00  0.00000000E+00  0.00000000E+00
  0.00000000E+00  0.00000000E+00  0.00000000E+00
  0.00000000E+00  0.00000000E+00  0.00000000E+00
  0.00000000E+00  0.00000000E+00  0.00000000E+00
  0.00000000E+00  0.00000000E+00  0.00000000E+00
  0.00000000E+00  0.00000000E+00  0.00000000E+00
  0.00000000E+00  0.00000000E+00  0.00000000E+00
  0.00000000E+00  0.00000000E+00  0.00000000E+00
  0.00000000E+00  0.00000000E+00  0.00000000E+00
  0.00000000E+00  0.00000000E+00  0.00000000E+00
  0.00000000E+00  0.00000000E+00  0.00000000E+00
  0.00000000E+00  0.00000000E+00  0.00000000E+00
  0.00000000E+00  0.00000000E+00  0.00000000E+00
  0.00000000E+00  0.00000000E+00  0.00000000E+00
  0.00000000E+00  0.00000000E+00  0.00000000E+00
  0.00000000E+00  0.00000000E+00  0.00000000E+00
  0.00000000E+00  0.00000000E+00  0.00000000E+00
  0.00000000E+00  0.00000000E+00  0.00000000E+00
  0.00000000E+00  0.00000000E+00  0.00000000E+00
  0.00000000E+00  0.00000000E+00  0.00000000E+00
  0.00000000E+00  0.00000000E+00  0.00000000E+00
  0.00000000E+00  0.00000000E+00  0.00000000E+00
  0.00000000E+00  0.00000000E+00  0.00000000E+00
  0.00000000E+00  0.00000000E+00  0.00000000E+00
  0.00000000E+00  0.00000000E+00  0.00000000E+00
  0.00000000E+00  0.00000000E+00  0.00000000E+00
  0.00000000E+00  0.00000000E+00  0.00000000E+00
  0.00000000E+00  0.00000000E+00  0.00000000E+00
  0.00000000E+00  0.00000000E+00  0.00000000E+00
  0.00000000E+00  0.00000000E+00  0.00000000E+00
  0.00000000E+00  0.00000000E+00  0.00000000E+00
  0.00000000E+00  0.00000000E+00  0.00000000E+00
  0.00000000E+00  0.00000000E+00  0.00000000E+00
  0.00000000E+00  0.00000000E+00  0.00000000E+00
  0.00000000E+00  0.00000000E+00  0.00000000E+00
  0.00000000E+00  0.00000000E+00  0.00000000E+00
  0.00000000E+00  0.00000000E+00  0.00000000E+00
  0.00000000E+00  0.00000000E+00  0.00000000E+00
  0.00000000E+00  0.00000000E+00  0.00000000E+00
  0.00000000E+00  0.00000000E+00  0.00000000E+00
  0.00000000E+00  0.00000000E+00  0.00000000E+00
  0.00000000E+00  0.00000000E+00  0.00000000E+00
  0.00000000E+00  0.00000000E+00  0.00000000E+00
  0.00000000E+00  0.00000000E+00  0.00000000E+00
  0.00000000E+00  0.00000000E+00  0.00000000E+00
  0.00000000E+00  0.00000000E+00  0.00000000E+00
  0.00000000E+00  0.00000000E+00  0.00000000E+00
  0.00000000E+00  0.00000000E+00  0.00000000E+00
  0.00000000E+00  0.00000000E+00  0.00000000E+00
  0.00000000E+00  0.00000000E+00  0.00000000E+00
  0.00000000E+00  0.00000000E+00  0.00000000E+00
  0.00000000E+00  0.00000000E+00  0.00000000E+00
  0.00000000E+00  0.00000000E+00  0.00000000E+00
  0.00000000E+00  0.00000000E+00  0.00000000E+00
  0.00000000E+00  0.00000000E+00  0.00000000E+00
  0.00000000E+00  0.00000000E+00  0.00000000E+00
  0.00000000E+00  0.00000000E+00  0.00000000E+00
  0.00000000E+00  0.00000000E+00  0.00000000E+00
  0.00000000E+00  0.00000000E+00  0.00000000E+00
  0.00000000E+00  0.00000000E+00  0.00000000E+00
  0.00000000E+00  0.00000000E+00  0.00000000E+00
  0.00000000E+00  0.00000000E+00  0.00000000E+00
  0.00000000E+00  0.00000000E+00  0.00000000E+00
