Al   Sc   N                             
   1.00000000000000     
   -10.0669216529222751    0.0269076538011085   -0.0011897739440932
    -5.0859979572209282    8.7220962003958764   -0.0038128705487065
     0.0330404711234475   -0.0702760565230040   -9.8366364359481206
   Al   Sc   N 
    23    13    35
Direct
  0.1095096577748720  0.0938659976415011  0.3999726784437172
  0.2187158653508661  0.2004516339344278  0.1410431309769820
  0.7703774621153556  0.1044110977369215  0.8908775229838852
  0.8801439442389665  0.2041162432016819  0.6428047758485533
  0.5485165821820885  0.2127210814709812  0.1331971419728930
  0.2234220891977259  0.2094557201099931  0.6388611353582689
  0.8899709339335047  0.2093721993119999  0.1409958304371202
  0.5573279533302085  0.2123755367480058  0.6410014743606851
  0.2233371053146485  0.5390894599041616  0.1431595581124014
  0.4386861411036804  0.4400623311617480  0.3899339859967128
  0.5618745671798777  0.5514492485972511  0.1436162486463530
  0.2287223316095535  0.5343629046272582  0.6393993372773323
  0.8892753284937456  0.5336118509885424  0.1490904775281621
  0.4423609524432095  0.4324647673388853  0.8903731769466674
  0.5508809823049248  0.5340514693419394  0.6473675563903640
  0.1111086915416024  0.7584792747867439  0.3965664758875178
  0.7779340683252798  0.7563033844276603  0.8903215784718057
  0.8817769868947423  0.8758885989930150  0.6507419750595176
  0.4411132566618150  0.7534386378468838  0.3974853975713017
  0.5555301485710800  0.8670544136330918  0.0866283841453921
  0.1241132832446112  0.7513535768708266  0.8832251422888362
  0.4439034632045065  0.7521919168060123  0.8888230515754358
  0.5565931172547280  0.8707390102413584  0.5890622594957478
  0.4424278467324712  0.0959306434489662  0.3716783492615292
  0.1098604064421522  0.0910117365162577  0.8742108919220044
  0.7789376426912114  0.0942342254097142  0.3780459211478586
  0.4536719153665487  0.0893967502693656  0.8647518690690177
  0.1249827409487025  0.4223607121806978  0.3742923687359649
  0.7727295777216625  0.4300938712161724  0.8823235537154019
  0.8884785215898461  0.5432760002444041  0.6247056858628355
  0.1157712108812063  0.4340824872965996  0.8900188221845369
  0.7684853413419432  0.4231839245129549  0.3836767742086522
  0.2228584268804283  0.8709218223524147  0.1449874964240649
  0.2232041013920139  0.8658258450964809  0.6234237624176231
  0.7781927021060113  0.7677913714394791  0.3681368402235918
  0.8934053774841928  0.8713823042607700  0.1102487182848577
  0.2134930435353226  0.1883957625591250  0.3333873052931793
  0.1013518354925864  0.1086572041025420  0.0884087889721457
  0.8771609283702517  0.1971521620892531  0.8337100458712428
  0.7767262223964408  0.0915016682036978  0.5968426458372207
  0.5394666930652150  0.2371482782602072  0.3234064957885963
  0.4453472919023653  0.0926028923192774  0.1020483625445934
  0.2220032967388477  0.2088686342408081  0.8309024522898909
  0.0991282405936360  0.1150888482616281  0.5967384903402646
  0.9085712695438843  0.1922339335585193  0.3330331309612689
  0.7630046382613216  0.1212638543123461  0.0877145137579092
  0.5606389920861972  0.2229672904934219  0.8369370456818075
  0.4477818350317051  0.0950293619629505  0.6068911572709226
  0.2332760621993586  0.5537657967066067  0.3321762036621649
  0.1145280297505167  0.4252908261667301  0.1144748444556001
  0.8849259447407007  0.5529860182725841  0.8393968522783695
  0.7647767681623847  0.4181850273080485  0.6043971627608471
  0.5305584557539973  0.5511307809220867  0.3291386339212039
  0.2368280919630266  0.5429502837159106  0.8315458484826124
  0.1340518892502587  0.4187374966890829  0.5932883763983199
  0.8895659111444445  0.5340508816809475  0.3475803526363279
  0.7774873742532407  0.4287745713223003  0.1084050846459732
  0.5364136495677201  0.5437721672105695  0.8422126363310269
  0.4450254682020756  0.4291065252497930  0.5843844993582081
  0.2201467291404668  0.8706745246223093  0.3716946029992272
  0.1310935257463655  0.7358379255034961  0.0739054125660203
  0.8844738634298821  0.8748331755376029  0.8552153782221907
  0.7699874686359536  0.7838251799327409  0.5923817663672324
  0.5416750334774036  0.8624461518452406  0.3739801282075561
  0.4549185305578050  0.7531809253532629  0.0871317584817533
  0.2324145183440791  0.8530635347597837  0.8422200834885416
  0.0957247269908166  0.7489796769379637  0.5916345540543020
  0.9137366753251257  0.8650733882790504  0.3228830493863200
  0.7744483680892458  0.7467720420932693  0.0998711412456927
  0.5633508403000107  0.8502411247111041  0.8760879740202299
  0.4664828287235494  0.7421296108038149  0.5932012244218825
 
  0.00000000E+00  0.00000000E+00  0.00000000E+00
  0.00000000E+00  0.00000000E+00  0.00000000E+00
  0.00000000E+00  0.00000000E+00  0.00000000E+00
  0.00000000E+00  0.00000000E+00  0.00000000E+00
  0.00000000E+00  0.00000000E+00  0.00000000E+00
  0.00000000E+00  0.00000000E+00  0.00000000E+00
  0.00000000E+00  0.00000000E+00  0.00000000E+00
  0.00000000E+00  0.00000000E+00  0.00000000E+00
  0.00000000E+00  0.00000000E+00  0.00000000E+00
  0.00000000E+00  0.00000000E+00  0.00000000E+00
  0.00000000E+00  0.00000000E+00  0.00000000E+00
  0.00000000E+00  0.00000000E+00  0.00000000E+00
  0.00000000E+00  0.00000000E+00  0.00000000E+00
  0.00000000E+00  0.00000000E+00  0.00000000E+00
  0.00000000E+00  0.00000000E+00  0.00000000E+00
  0.00000000E+00  0.00000000E+00  0.00000000E+00
  0.00000000E+00  0.00000000E+00  0.00000000E+00
  0.00000000E+00  0.00000000E+00  0.00000000E+00
  0.00000000E+00  0.00000000E+00  0.00000000E+00
  0.00000000E+00  0.00000000E+00  0.00000000E+00
  0.00000000E+00  0.00000000E+00  0.00000000E+00
  0.00000000E+00  0.00000000E+00  0.00000000E+00
  0.00000000E+00  0.00000000E+00  0.00000000E+00
  0.00000000E+00  0.00000000E+00  0.00000000E+00
  0.00000000E+00  0.00000000E+00  0.00000000E+00
  0.00000000E+00  0.00000000E+00  0.00000000E+00
  0.00000000E+00  0.00000000E+00  0.00000000E+00
  0.00000000E+00  0.00000000E+00  0.00000000E+00
  0.00000000E+00  0.00000000E+00  0.00000000E+00
  0.00000000E+00  0.00000000E+00  0.00000000E+00
  0.00000000E+00  0.00000000E+00  0.00000000E+00
  0.00000000E+00  0.00000000E+00  0.00000000E+00
  0.00000000E+00  0.00000000E+00  0.00000000E+00
  0.00000000E+00  0.00000000E+00  0.00000000E+00
  0.00000000E+00  0.00000000E+00  0.00000000E+00
  0.00000000E+00  0.00000000E+00  0.00000000E+00
  0.00000000E+00  0.00000000E+00  0.00000000E+00
  0.00000000E+00  0.00000000E+00  0.00000000E+00
  0.00000000E+00  0.00000000E+00  0.00000000E+00
  0.00000000E+00  0.00000000E+00  0.00000000E+00
  0.00000000E+00  0.00000000E+00  0.00000000E+00
  0.00000000E+00  0.00000000E+00  0.00000000E+00
  0.00000000E+00  0.00000000E+00  0.00000000E+00
  0.00000000E+00  0.00000000E+00  0.00000000E+00
  0.00000000E+00  0.00000000E+00  0.00000000E+00
  0.00000000E+00  0.00000000E+00  0.00000000E+00
  0.00000000E+00  0.00000000E+00  0.00000000E+00
  0.00000000E+00  0.00000000E+00  0.00000000E+00
  0.00000000E+00  0.00000000E+00  0.00000000E+00
  0.00000000E+00  0.00000000E+00  0.00000000E+00
  0.00000000E+00  0.00000000E+00  0.00000000E+00
  0.00000000E+00  0.00000000E+00  0.00000000E+00
  0.00000000E+00  0.00000000E+00  0.00000000E+00
  0.00000000E+00  0.00000000E+00  0.00000000E+00
  0.00000000E+00  0.00000000E+00  0.00000000E+00
  0.00000000E+00  0.00000000E+00  0.00000000E+00
  0.00000000E+00  0.00000000E+00  0.00000000E+00
  0.00000000E+00  0.00000000E+00  0.00000000E+00
  0.00000000E+00  0.00000000E+00  0.00000000E+00
  0.00000000E+00  0.00000000E+00  0.00000000E+00
  0.00000000E+00  0.00000000E+00  0.00000000E+00
  0.00000000E+00  0.00000000E+00  0.00000000E+00
  0.00000000E+00  0.00000000E+00  0.00000000E+00
  0.00000000E+00  0.00000000E+00  0.00000000E+00
  0.00000000E+00  0.00000000E+00  0.00000000E+00
  0.00000000E+00  0.00000000E+00  0.00000000E+00
  0.00000000E+00  0.00000000E+00  0.00000000E+00
  0.00000000E+00  0.00000000E+00  0.00000000E+00
  0.00000000E+00  0.00000000E+00  0.00000000E+00
  0.00000000E+00  0.00000000E+00  0.00000000E+00
  0.00000000E+00  0.00000000E+00  0.00000000E+00
