Al   Sc   N                             
   1.00000000000000     
    -9.9775315424356918    0.0207969181993206   -0.0124822285059995
    -5.0131801254293142    8.6624313094894934   -0.0139183599783081
    -0.0120724036060298    0.0069237352871426  -10.0167582036957352
   Al   Sc   N 
    23    13    35
Direct
  0.1104248160882051  0.0933975860712692  0.3001487466235417
  0.2207134351585296  0.2077608955870502  0.0563071108853919
  0.7751182105849779  0.0947512891985767  0.7964426912038931
  0.8898294792170347  0.2053546747926589  0.5549736148516331
  0.5586056023895054  0.2043920846735929  0.0510375486163284
  0.2236191348344292  0.2025936344054102  0.5500350347188316
  0.8819115860668987  0.2085690705411949  0.0534337384434522
  0.5465186161175311  0.2168121173402255  0.5587643168245080
  0.2182964154431914  0.5395323644975889  0.0543509536131523
  0.4375009037307507  0.4401153808532783  0.3118991135464526
  0.5622839689061223  0.5493395740875897  0.0532036533989668
  0.2290064807703658  0.5376970782751869  0.5548860176462469
  0.8879504111491201  0.5423467311326249  0.0414793501388786
  0.4429293541364103  0.4358996120740173  0.8074535266910772
  0.5509491269853655  0.5363958945019363  0.5545489126829892
  0.1173804211590763  0.7581583019833360  0.3070555377681643
  0.7732261437437273  0.7684820223612334  0.7995689447562881
  0.8898193445048506  0.8708809203260515  0.5605000838782246
  0.4434983187351946  0.7585141424577486  0.3063159323521845
  0.5627705984953479  0.8613220112972115  0.0499349078586846
  0.1129068726999662  0.7572042531348657  0.8032161267107085
  0.4475527873043674  0.7526307113020962  0.8040885417973129
  0.5531663291476363  0.8706958548705472  0.5579996873962969
  0.4447306463214886  0.0915484691479804  0.3129692577117424
  0.1092417983814897  0.0910510904046191  0.8155349806251877
  0.7762177132088794  0.0986742343939753  0.3259849095031129
  0.4534458135286172  0.0882574805035077  0.8133091952591087
  0.1177241971205802  0.4280218882969606  0.3128734967355058
  0.7675770493579108  0.4247447290228692  0.8174178078125323
  0.8879739885320959  0.5373359553104535  0.5754880610648101
  0.1235974501547048  0.4285716917151206  0.8116548308093314
  0.7742291983893779  0.4263716905135766  0.3069004673528184
  0.2291397330802596  0.8653937827688054  0.0679358164903974
  0.2233737797811841  0.8698125976794131  0.5580152893278623
  0.7765259065929371  0.7587376023108234  0.3154147995290941
  0.8849234072105716  0.8763437020032967  0.0571271285485082
  0.2143335571012130  0.1937726452325776  0.3590197121825369
  0.0988996053285831  0.1127495798829514  0.1055002244282193
  0.8778743035564176  0.1904078652029710  0.8665217156010030
  0.7751326413174340  0.0961236536989247  0.6003318759141507
  0.5360864825388205  0.2351303476819808  0.3691904207744159
  0.4511634157055724  0.0892655194775500  0.0918840784504624
  0.2262476475896165  0.2021943744183901  0.8705635351500831
  0.1036937386385191  0.1105535230980337  0.6056859769343532
  0.9082621163384275  0.1968455672603469  0.3663270410469295
  0.7638768128355835  0.1168824845238419  0.1135963168130374
  0.5618345760396153  0.2211764364114401  0.8609942268252198
  0.4442536456498800  0.0937750205696943  0.5949219982600127
  0.2318303075733184  0.5524359582522180  0.3653966886279036
  0.1098036285322479  0.4295847151511012  0.0909774538597787
  0.8826486849146562  0.5551691470710409  0.8442359685770597
  0.7633225803119927  0.4161256192056157  0.6020423523181435
  0.5347969125773062  0.5499054674300368  0.3624087381426051
  0.2348500246595933  0.5491571840475018  0.8688789387774989
  0.1369059213423682  0.4153887091064732  0.5952833276672251
  0.8905216025373051  0.5334014799760709  0.3678082857591249
  0.7802498199376231  0.4294389444966882  0.0842778478196209
  0.5331609289786385  0.5488180207386790  0.8706998486944997
  0.4419913601290091  0.4325015422510319  0.6164204056423230
  0.2223128619863601  0.8731523142721258  0.3366306885602910
  0.1178097227606543  0.7410658617396564  0.1179151580601996
  0.8847415811308110  0.8757271573020518  0.8447409037005400
  0.7648950276799624  0.7835372213041012  0.6075435038984551
  0.5436288192527812  0.8606265766447123  0.3705234991169561
  0.4671509146126240  0.7513346285001887  0.1171163177180645
  0.2315725524713770  0.8524380315421993  0.8488785078265977
  0.1039338907904224  0.7484690515312096  0.6143264917870681
  0.9095617802221199  0.8613071543379718  0.3670398780984101
  0.7739725552018797  0.7503710409875524  0.1013527810520216
  0.5635333790369543  0.8491290068291164  0.8606613273178425
  0.4637690976575328  0.7472139242321632  0.6147986698787236
 
  0.00000000E+00  0.00000000E+00  0.00000000E+00
  0.00000000E+00  0.00000000E+00  0.00000000E+00
  0.00000000E+00  0.00000000E+00  0.00000000E+00
  0.00000000E+00  0.00000000E+00  0.00000000E+00
  0.00000000E+00  0.00000000E+00  0.00000000E+00
  0.00000000E+00  0.00000000E+00  0.00000000E+00
  0.00000000E+00  0.00000000E+00  0.00000000E+00
  0.00000000E+00  0.00000000E+00  0.00000000E+00
  0.00000000E+00  0.00000000E+00  0.00000000E+00
  0.00000000E+00  0.00000000E+00  0.00000000E+00
  0.00000000E+00  0.00000000E+00  0.00000000E+00
  0.00000000E+00  0.00000000E+00  0.00000000E+00
  0.00000000E+00  0.00000000E+00  0.00000000E+00
  0.00000000E+00  0.00000000E+00  0.00000000E+00
  0.00000000E+00  0.00000000E+00  0.00000000E+00
  0.00000000E+00  0.00000000E+00  0.00000000E+00
  0.00000000E+00  0.00000000E+00  0.00000000E+00
  0.00000000E+00  0.00000000E+00  0.00000000E+00
  0.00000000E+00  0.00000000E+00  0.00000000E+00
  0.00000000E+00  0.00000000E+00  0.00000000E+00
  0.00000000E+00  0.00000000E+00  0.00000000E+00
  0.00000000E+00  0.00000000E+00  0.00000000E+00
  0.00000000E+00  0.00000000E+00  0.00000000E+00
  0.00000000E+00  0.00000000E+00  0.00000000E+00
  0.00000000E+00  0.00000000E+00  0.00000000E+00
  0.00000000E+00  0.00000000E+00  0.00000000E+00
  0.00000000E+00  0.00000000E+00  0.00000000E+00
  0.00000000E+00  0.00000000E+00  0.00000000E+00
  0.00000000E+00  0.00000000E+00  0.00000000E+00
  0.00000000E+00  0.00000000E+00  0.00000000E+00
  0.00000000E+00  0.00000000E+00  0.00000000E+00
  0.00000000E+00  0.00000000E+00  0.00000000E+00
  0.00000000E+00  0.00000000E+00  0.00000000E+00
  0.00000000E+00  0.00000000E+00  0.00000000E+00
  0.00000000E+00  0.00000000E+00  0.00000000E+00
  0.00000000E+00  0.00000000E+00  0.00000000E+00
  0.00000000E+00  0.00000000E+00  0.00000000E+00
  0.00000000E+00  0.00000000E+00  0.00000000E+00
  0.00000000E+00  0.00000000E+00  0.00000000E+00
  0.00000000E+00  0.00000000E+00  0.00000000E+00
  0.00000000E+00  0.00000000E+00  0.00000000E+00
  0.00000000E+00  0.00000000E+00  0.00000000E+00
  0.00000000E+00  0.00000000E+00  0.00000000E+00
  0.00000000E+00  0.00000000E+00  0.00000000E+00
  0.00000000E+00  0.00000000E+00  0.00000000E+00
  0.00000000E+00  0.00000000E+00  0.00000000E+00
  0.00000000E+00  0.00000000E+00  0.00000000E+00
  0.00000000E+00  0.00000000E+00  0.00000000E+00
  0.00000000E+00  0.00000000E+00  0.00000000E+00
  0.00000000E+00  0.00000000E+00  0.00000000E+00
  0.00000000E+00  0.00000000E+00  0.00000000E+00
  0.00000000E+00  0.00000000E+00  0.00000000E+00
  0.00000000E+00  0.00000000E+00  0.00000000E+00
  0.00000000E+00  0.00000000E+00  0.00000000E+00
  0.00000000E+00  0.00000000E+00  0.00000000E+00
  0.00000000E+00  0.00000000E+00  0.00000000E+00
  0.00000000E+00  0.00000000E+00  0.00000000E+00
  0.00000000E+00  0.00000000E+00  0.00000000E+00
  0.00000000E+00  0.00000000E+00  0.00000000E+00
  0.00000000E+00  0.00000000E+00  0.00000000E+00
  0.00000000E+00  0.00000000E+00  0.00000000E+00
  0.00000000E+00  0.00000000E+00  0.00000000E+00
  0.00000000E+00  0.00000000E+00  0.00000000E+00
  0.00000000E+00  0.00000000E+00  0.00000000E+00
  0.00000000E+00  0.00000000E+00  0.00000000E+00
  0.00000000E+00  0.00000000E+00  0.00000000E+00
  0.00000000E+00  0.00000000E+00  0.00000000E+00
  0.00000000E+00  0.00000000E+00  0.00000000E+00
  0.00000000E+00  0.00000000E+00  0.00000000E+00
  0.00000000E+00  0.00000000E+00  0.00000000E+00
  0.00000000E+00  0.00000000E+00  0.00000000E+00
