Al   Sc   N                             
   1.00000000000000     
   -10.0367310174597435    0.0271132545927796   -0.0009483681543062
    -5.0582832778487896    8.6987172501950507   -0.0036490969375522
     0.0298624583795076   -0.0605496741790778   -9.9032710412103846
   Al   Sc   N 
    23    13    35
Direct
  0.1092000071203358  0.0940745099481859  0.4001635274334490
  0.2185980368715192  0.2005529534279091  0.1424960375503161
  0.7704679379029145  0.1041623785709405  0.8906020721364101
  0.8806448653131227  0.2041180829657421  0.6435576077232668
  0.5486350251554555  0.2131304945233836  0.1343683054784535
  0.2230637111546017  0.2093594136013834  0.6394887025511480
  0.8895416756882852  0.2093435116738931  0.1415360014375224
  0.5573202038756904  0.2120634364981129  0.6414589693982222
  0.2231914601361709  0.5391777545649603  0.1439340549306394
  0.4386497352591334  0.4399891456841303  0.3901184266777662
  0.5616372073580678  0.5507627275450560  0.1445363009864238
  0.2283684081307626  0.5342873861138813  0.6395185573544424
  0.8888063271645734  0.5339475373409499  0.1494216926166274
  0.4424359264757598  0.4325426911378685  0.8883319316390299
  0.5513374659868973  0.5345765888149430  0.6466501358080308
  0.1111465720362901  0.7583805755023931  0.3971711922629240
  0.7767025030161037  0.7565594560647284  0.8933015142346079
  0.8821012150858039  0.8757290816364716  0.6515576580459026
  0.4426388236318175  0.7545949115860040  0.3965222468035847
  0.5545896519010185  0.8674908672433830  0.1013217997823546
  0.1240986511258697  0.7514397775768344  0.8835194581112304
  0.4440602151299728  0.7524961941742845  0.8901640159418207
  0.5575521794155875  0.8708304308786339  0.6052209169112004
  0.4427460447227958  0.0951169688674156  0.3745421102541755
  0.1102828423708999  0.0901492560184991  0.8759363520061427
  0.7792732489709948  0.0937898609762442  0.3798585929705354
  0.4529562728088123  0.0897516952929180  0.8695837929788510
  0.1243688390076443  0.4225448094100770  0.3747582496508599
  0.7722971989140390  0.4302473169433227  0.8835485863480628
  0.8889678216027050  0.5429064512567763  0.6266967965735688
  0.1156581276489419  0.4339306982078384  0.8919147953426219
  0.7684698424032774  0.4233064718783552  0.3845758213150674
  0.2231309552111327  0.8703015455480312  0.1475568482083958
  0.2236901913758444  0.8659078561293398  0.6230337743764878
  0.7777947663852842  0.7680377196092962  0.3703172564028421
  0.8934105888724915  0.8717162697638514  0.1109200861269031
  0.2136030584928506  0.1883688158228907  0.3329773371155227
  0.1015930586661256  0.1078399033476813  0.0887174993981290
  0.8776220713170346  0.1971661216717280  0.8329806163621214
  0.7769636912247506  0.0913530097615549  0.5969826964668883
  0.5401822995858652  0.2364542575332038  0.3233642895281719
  0.4444330828927221  0.0940168164108144  0.1006361065326544
  0.2214804617744335  0.2090864946646320  0.8297825202506033
  0.0989112495848872  0.1151519293076646  0.5953755263050269
  0.9083144410724486  0.1922763975081452  0.3321120039743803
  0.7625190430934694  0.1216242295300987  0.0860657503260995
  0.5606474161415136  0.2226774096332278  0.8354488377380989
  0.4475347751182497  0.0942716939829040  0.6053754882124096
  0.2331370282979250  0.5538979803895288  0.3316074413949650
  0.1143354223406519  0.4252907092305662  0.1144785589148256
  0.8849593987709810  0.5532327413764833  0.8393046400866808
  0.7652757667240451  0.4181504125669022  0.6034785705893242
  0.5305691236227759  0.5513272429879237  0.3289016559434117
  0.2362992332354921  0.5428823358326724  0.8304308551999142
  0.1339176251747389  0.4184415465640186  0.5919336431963274
  0.8891164557244551  0.5343470924176899  0.3454561387156190
  0.7771432164074525  0.4286870015513315  0.1075695000591850
  0.5362647162078531  0.5444119824980618  0.8397372144887996
  0.4448881270475908  0.4293150267532440  0.5836217626183284
  0.2204543011926603  0.8706214689610121  0.3722532577825604
  0.1315544718196691  0.7357054912684049  0.0730469946009862
  0.8846865894375000  0.8745319281127450  0.8546006663719723
  0.7696410150550363  0.7841259073565183  0.5905644188294090
  0.5419369134243155  0.8619439839861371  0.3545556710727666
  0.4548480554121070  0.7524029553504334  0.0851878628405984
  0.2329753928166554  0.8525247219391545  0.8399477692843647
  0.0954939151752185  0.7489310663790931  0.5906904869349958
  0.9140563781536528  0.8649845424596165  0.3219588518665546
  0.7743347068131285  0.7468189921120612  0.0971792633244419
  0.5628931018668624  0.8502122502306193  0.8683088873169709
  0.4683456143514917  0.7431282898142371  0.5894403796562244
 
  0.00000000E+00  0.00000000E+00  0.00000000E+00
  0.00000000E+00  0.00000000E+00  0.00000000E+00
  0.00000000E+00  0.00000000E+00  0.00000000E+00
  0.00000000E+00  0.00000000E+00  0.00000000E+00
  0.00000000E+00  0.00000000E+00  0.00000000E+00
  0.00000000E+00  0.00000000E+00  0.00000000E+00
  0.00000000E+00  0.00000000E+00  0.00000000E+00
  0.00000000E+00  0.00000000E+00  0.00000000E+00
  0.00000000E+00  0.00000000E+00  0.00000000E+00
  0.00000000E+00  0.00000000E+00  0.00000000E+00
  0.00000000E+00  0.00000000E+00  0.00000000E+00
  0.00000000E+00  0.00000000E+00  0.00000000E+00
  0.00000000E+00  0.00000000E+00  0.00000000E+00
  0.00000000E+00  0.00000000E+00  0.00000000E+00
  0.00000000E+00  0.00000000E+00  0.00000000E+00
  0.00000000E+00  0.00000000E+00  0.00000000E+00
  0.00000000E+00  0.00000000E+00  0.00000000E+00
  0.00000000E+00  0.00000000E+00  0.00000000E+00
  0.00000000E+00  0.00000000E+00  0.00000000E+00
  0.00000000E+00  0.00000000E+00  0.00000000E+00
  0.00000000E+00  0.00000000E+00  0.00000000E+00
  0.00000000E+00  0.00000000E+00  0.00000000E+00
  0.00000000E+00  0.00000000E+00  0.00000000E+00
  0.00000000E+00  0.00000000E+00  0.00000000E+00
  0.00000000E+00  0.00000000E+00  0.00000000E+00
  0.00000000E+00  0.00000000E+00  0.00000000E+00
  0.00000000E+00  0.00000000E+00  0.00000000E+00
  0.00000000E+00  0.00000000E+00  0.00000000E+00
  0.00000000E+00  0.00000000E+00  0.00000000E+00
  0.00000000E+00  0.00000000E+00  0.00000000E+00
  0.00000000E+00  0.00000000E+00  0.00000000E+00
  0.00000000E+00  0.00000000E+00  0.00000000E+00
  0.00000000E+00  0.00000000E+00  0.00000000E+00
  0.00000000E+00  0.00000000E+00  0.00000000E+00
  0.00000000E+00  0.00000000E+00  0.00000000E+00
  0.00000000E+00  0.00000000E+00  0.00000000E+00
  0.00000000E+00  0.00000000E+00  0.00000000E+00
  0.00000000E+00  0.00000000E+00  0.00000000E+00
  0.00000000E+00  0.00000000E+00  0.00000000E+00
  0.00000000E+00  0.00000000E+00  0.00000000E+00
  0.00000000E+00  0.00000000E+00  0.00000000E+00
  0.00000000E+00  0.00000000E+00  0.00000000E+00
  0.00000000E+00  0.00000000E+00  0.00000000E+00
  0.00000000E+00  0.00000000E+00  0.00000000E+00
  0.00000000E+00  0.00000000E+00  0.00000000E+00
  0.00000000E+00  0.00000000E+00  0.00000000E+00
  0.00000000E+00  0.00000000E+00  0.00000000E+00
  0.00000000E+00  0.00000000E+00  0.00000000E+00
  0.00000000E+00  0.00000000E+00  0.00000000E+00
  0.00000000E+00  0.00000000E+00  0.00000000E+00
  0.00000000E+00  0.00000000E+00  0.00000000E+00
  0.00000000E+00  0.00000000E+00  0.00000000E+00
  0.00000000E+00  0.00000000E+00  0.00000000E+00
  0.00000000E+00  0.00000000E+00  0.00000000E+00
  0.00000000E+00  0.00000000E+00  0.00000000E+00
  0.00000000E+00  0.00000000E+00  0.00000000E+00
  0.00000000E+00  0.00000000E+00  0.00000000E+00
  0.00000000E+00  0.00000000E+00  0.00000000E+00
  0.00000000E+00  0.00000000E+00  0.00000000E+00
  0.00000000E+00  0.00000000E+00  0.00000000E+00
  0.00000000E+00  0.00000000E+00  0.00000000E+00
  0.00000000E+00  0.00000000E+00  0.00000000E+00
  0.00000000E+00  0.00000000E+00  0.00000000E+00
  0.00000000E+00  0.00000000E+00  0.00000000E+00
  0.00000000E+00  0.00000000E+00  0.00000000E+00
  0.00000000E+00  0.00000000E+00  0.00000000E+00
  0.00000000E+00  0.00000000E+00  0.00000000E+00
  0.00000000E+00  0.00000000E+00  0.00000000E+00
  0.00000000E+00  0.00000000E+00  0.00000000E+00
  0.00000000E+00  0.00000000E+00  0.00000000E+00
  0.00000000E+00  0.00000000E+00  0.00000000E+00
