Al   Sc   N                             
   1.00000000000000     
   -10.0114467217621943    0.0274216557802863   -0.0005862594696256
    -5.0419664034581704    8.6824125758752722   -0.0034034365208207
     0.0164329689049360   -0.0355826781885528   -9.9259080665980335
   Al   Sc   N 
    23    13    35
Direct
  0.1092393180539517  0.0941717989301409  0.4001465233120030
  0.2194221127465852  0.2001728407282855  0.1433214047565130
  0.7702734057754270  0.1038907459032217  0.8908017061710893
  0.8806574355283487  0.2039888135240773  0.6434757814037866
  0.5482366215147607  0.2125793173049288  0.1353490746739254
  0.2242936109242208  0.2085639832590545  0.6403229342798795
  0.8897553222803367  0.2091754434754094  0.1415576708771553
  0.5567544960278710  0.2113703939896752  0.6420407288050782
  0.2234546882564601  0.5392445283493004  0.1438849626220531
  0.4385148341590224  0.4402980699572936  0.3899894857495880
  0.5612871107639279  0.5516480677010875  0.1429058284383871
  0.2283869589880609  0.5343854274279067  0.6395489163728811
  0.8875807442074546  0.5357815328786018  0.1488372731317469
  0.4425040602880159  0.4329462036641019  0.8875549676390833
  0.5514992908416900  0.5355594815957687  0.6452147879518293
  0.1110870245406161  0.7585214069084003  0.3969087266716116
  0.7729461516452858  0.7577290030739832  0.8940676755668591
  0.8818869657895405  0.8757693839749692  0.6515512808476203
  0.4451990097589018  0.7567106289197127  0.3953866726609121
  0.5530470675679595  0.8664608419996611  0.1350104751663537
  0.1238188259661328  0.7519075233942019  0.8832286140129426
  0.4454696795092090  0.7538493070041454  0.8882641830484204
  0.5605500563930974  0.8669522547828521  0.6428747843630589
  0.4440030068754055  0.0920679872754278  0.3813262651081857
  0.1103395688716660  0.0898465995628044  0.8758777847744952
  0.7790809668333409  0.0935524159654264  0.3799108182528457
  0.4525519347291436  0.0897688320227275  0.8762493350365830
  0.1244845587191108  0.4225816566460878  0.3747352325970255
  0.7722224615777833  0.4299556024618099  0.8836473769043636
  0.8893932911903448  0.5425989090981318  0.6272367950312656
  0.1152682232284334  0.4341521974862488  0.8924317091771812
  0.7683354321184837  0.4236077176356687  0.3840612323687722
  0.2248727677816262  0.8693658739383210  0.1466652771256207
  0.2249944698338453  0.8655045723798551  0.6216851744300840
  0.7755333500923172  0.7690853834633273  0.3756338649587647
  0.8923681653960713  0.8711734099761230  0.1107163201897450
  0.2153928841094270  0.1876494191285971  0.3335119411231773
  0.1021787943071146  0.1073359823463917  0.0887641249538618
  0.8774693903594297  0.1970879852100609  0.8326235291440653
  0.7767163263014325  0.0915442741500456  0.5966336484434436
  0.5385714529753471  0.2353647335577165  0.3242360703032858
  0.4450994565809978  0.0926892467713074  0.0991585448692831
  0.2222115204840094  0.2088874103098135  0.8302263568407255
  0.0990933913139571  0.1150359071907303  0.5951924408899956
  0.9082706917258037  0.1923193906980956  0.3317744851729429
  0.7623204288476586  0.1215788792441757  0.0863309119731284
  0.5599174958558137  0.2224525627119149  0.8357530320903024
  0.4485543851154787  0.0919923236859930  0.6055689346001287
  0.2330020351009807  0.5542487580595150  0.3311359404185410
  0.1141401730458469  0.4255646846926098  0.1146599540011763
  0.8843993503197538  0.5536849883161636  0.8393313155420330
  0.7657263937784791  0.4180460921458717  0.6025234712424350
  0.5300947543859209  0.5526571411173506  0.3273837022827664
  0.2359984968862889  0.5431730389815570  0.8301824462582275
  0.1342671743698887  0.4180668676211283  0.5916536696308299
  0.8883083639686120  0.5360753019271343  0.3447200036652518
  0.7773156618782195  0.4286257532535487  0.1072782252315605
  0.5362593668567612  0.5451401168113890  0.8380041129021905
  0.4449829954600517  0.4295563258512658  0.5832319619289450
  0.2212379990639519  0.8709121086037968  0.3716503732922547
  0.1313806482985100  0.7362196887929429  0.0726542881555261
  0.8839123422986148  0.8748051406213477  0.8543611721355617
  0.7676527743524417  0.7852331203463478  0.5900526033753621
  0.5413595462464116  0.8608590534347229  0.3258852262037735
  0.4573561016643737  0.7536208536707107  0.0794463342143530
  0.2335380013282133  0.8524819953712637  0.8383744656511425
  0.0953975606901167  0.7491049098330649  0.5901157874615564
  0.9127496079995367  0.8638438094146110  0.3220299193752894
  0.7702406000402817  0.7487015322168560  0.0922714625961873
  0.5632455659269553  0.8492507927244546  0.8378118351102515
  0.4710910428699151  0.7447712307396159  0.5853234162433338
 
  0.00000000E+00  0.00000000E+00  0.00000000E+00
  0.00000000E+00  0.00000000E+00  0.00000000E+00
  0.00000000E+00  0.00000000E+00  0.00000000E+00
  0.00000000E+00  0.00000000E+00  0.00000000E+00
  0.00000000E+00  0.00000000E+00  0.00000000E+00
  0.00000000E+00  0.00000000E+00  0.00000000E+00
  0.00000000E+00  0.00000000E+00  0.00000000E+00
  0.00000000E+00  0.00000000E+00  0.00000000E+00
  0.00000000E+00  0.00000000E+00  0.00000000E+00
  0.00000000E+00  0.00000000E+00  0.00000000E+00
  0.00000000E+00  0.00000000E+00  0.00000000E+00
  0.00000000E+00  0.00000000E+00  0.00000000E+00
  0.00000000E+00  0.00000000E+00  0.00000000E+00
  0.00000000E+00  0.00000000E+00  0.00000000E+00
  0.00000000E+00  0.00000000E+00  0.00000000E+00
  0.00000000E+00  0.00000000E+00  0.00000000E+00
  0.00000000E+00  0.00000000E+00  0.00000000E+00
  0.00000000E+00  0.00000000E+00  0.00000000E+00
  0.00000000E+00  0.00000000E+00  0.00000000E+00
  0.00000000E+00  0.00000000E+00  0.00000000E+00
  0.00000000E+00  0.00000000E+00  0.00000000E+00
  0.00000000E+00  0.00000000E+00  0.00000000E+00
  0.00000000E+00  0.00000000E+00  0.00000000E+00
  0.00000000E+00  0.00000000E+00  0.00000000E+00
  0.00000000E+00  0.00000000E+00  0.00000000E+00
  0.00000000E+00  0.00000000E+00  0.00000000E+00
  0.00000000E+00  0.00000000E+00  0.00000000E+00
  0.00000000E+00  0.00000000E+00  0.00000000E+00
  0.00000000E+00  0.00000000E+00  0.00000000E+00
  0.00000000E+00  0.00000000E+00  0.00000000E+00
  0.00000000E+00  0.00000000E+00  0.00000000E+00
  0.00000000E+00  0.00000000E+00  0.00000000E+00
  0.00000000E+00  0.00000000E+00  0.00000000E+00
  0.00000000E+00  0.00000000E+00  0.00000000E+00
  0.00000000E+00  0.00000000E+00  0.00000000E+00
  0.00000000E+00  0.00000000E+00  0.00000000E+00
  0.00000000E+00  0.00000000E+00  0.00000000E+00
  0.00000000E+00  0.00000000E+00  0.00000000E+00
  0.00000000E+00  0.00000000E+00  0.00000000E+00
  0.00000000E+00  0.00000000E+00  0.00000000E+00
  0.00000000E+00  0.00000000E+00  0.00000000E+00
  0.00000000E+00  0.00000000E+00  0.00000000E+00
  0.00000000E+00  0.00000000E+00  0.00000000E+00
  0.00000000E+00  0.00000000E+00  0.00000000E+00
  0.00000000E+00  0.00000000E+00  0.00000000E+00
  0.00000000E+00  0.00000000E+00  0.00000000E+00
  0.00000000E+00  0.00000000E+00  0.00000000E+00
  0.00000000E+00  0.00000000E+00  0.00000000E+00
  0.00000000E+00  0.00000000E+00  0.00000000E+00
  0.00000000E+00  0.00000000E+00  0.00000000E+00
  0.00000000E+00  0.00000000E+00  0.00000000E+00
  0.00000000E+00  0.00000000E+00  0.00000000E+00
  0.00000000E+00  0.00000000E+00  0.00000000E+00
  0.00000000E+00  0.00000000E+00  0.00000000E+00
  0.00000000E+00  0.00000000E+00  0.00000000E+00
  0.00000000E+00  0.00000000E+00  0.00000000E+00
  0.00000000E+00  0.00000000E+00  0.00000000E+00
  0.00000000E+00  0.00000000E+00  0.00000000E+00
  0.00000000E+00  0.00000000E+00  0.00000000E+00
  0.00000000E+00  0.00000000E+00  0.00000000E+00
  0.00000000E+00  0.00000000E+00  0.00000000E+00
  0.00000000E+00  0.00000000E+00  0.00000000E+00
  0.00000000E+00  0.00000000E+00  0.00000000E+00
  0.00000000E+00  0.00000000E+00  0.00000000E+00
  0.00000000E+00  0.00000000E+00  0.00000000E+00
  0.00000000E+00  0.00000000E+00  0.00000000E+00
  0.00000000E+00  0.00000000E+00  0.00000000E+00
  0.00000000E+00  0.00000000E+00  0.00000000E+00
  0.00000000E+00  0.00000000E+00  0.00000000E+00
  0.00000000E+00  0.00000000E+00  0.00000000E+00
  0.00000000E+00  0.00000000E+00  0.00000000E+00
