Al   Sc   N                             
   1.00000000000000     
   -10.1451544242436569    0.0219500852368211   -0.0054177652596954
    -5.1020894411647904    8.7896493500716222   -0.0086730291021009
     0.0372569142717731   -0.0237089284814223   -9.6538691706794602
   Al   Sc   N 
    23    13    35
Direct
  0.1094742767197872  0.0879365189747645  0.3118192036025462
  0.2202311693302761  0.2052090171962462  0.1159522891839089
  0.7657853186238768  0.1027739468143238  0.8772993656438643
  0.8924240435372681  0.2020150059501731  0.5646573398994903
  0.5375517235749996  0.2229123633565919  0.1248331698707261
  0.2276623540395804  0.2059279912920928  0.6285805479635869
  0.8792946308429421  0.2130911446555928  0.0693628894751868
  0.5648996035097298  0.2014910942466699  0.6178108731505958
  0.2303085216640568  0.5318633866731517  0.1275312872164704
  0.4359422060657039  0.4391330251273473  0.3796806009445177
  0.5565071971566766  0.5439764796905280  0.0688549233710916
  0.2202441791461496  0.5437663110516198  0.6142773300863951
  0.8830580863641586  0.5418508519338019  0.0622953945786051
  0.4458545554753286  0.4361918258085353  0.8089180233581672
  0.5573485612818914  0.5420137185721003  0.5644401582887255
  0.1111221590161193  0.7614890104313474  0.3712106922033342
  0.7698857608865453  0.7669940443023791  0.8185700633083783
  0.8850003836632823  0.8830671859455279  0.6287270675369712
  0.4426102056482293  0.7576948394150520  0.3199762201848486
  0.5613384959945620  0.8581897385703812  0.0694845290204142
  0.1225248054714001  0.7524068230717305  0.8639210974914633
  0.4496653855516968  0.7522614796011169  0.8193648682501902
  0.5553814981706253  0.8690736596620710  0.5748602561711351
  0.4405342160460606  0.0919063356591820  0.3545920811407939
  0.1070098895287828  0.0940479709290614  0.8438871405382784
  0.7775099355347450  0.0939958233249385  0.3445137027013274
  0.4575503376316234  0.0893186892041342  0.8552793510786927
  0.1199891908748327  0.4227355101931920  0.3553650331747846
  0.7652737846159923  0.4267894096561946  0.8301288236211022
  0.8919611590382175  0.5361778456040582  0.5980691804950027
  0.1236141230947609  0.4355279847238194  0.8619758986976862
  0.7734337350417633  0.4286923095218711  0.3271315575500040
  0.2290000973297026  0.8601659765773846  0.0900684979161355
  0.2248613118683380  0.8740032735001861  0.5888546492696136
  0.7780557758312128  0.7600367939151695  0.3390412947607402
  0.8906099467858439  0.8640809798592528  0.0902754192210011
  0.2138886923515386  0.1921685343089479  0.3157917882623025
  0.0977732027930429  0.1061694402955453  0.0972498368791221
  0.8757854476186679  0.1990039127274343  0.8717844898651776
  0.7797675912030329  0.0921625774561647  0.5771480389449266
  0.5333717523067065  0.2373153312704090  0.3229259483327311
  0.4479735299771832  0.0889094390314824  0.0933105570575776
  0.2282778784810375  0.2068078407366869  0.8318306171544236
  0.1029439774593399  0.1132014951384903  0.6131897445768075
  0.9076739339865796  0.1959420386458817  0.3626484543977710
  0.7545240710303176  0.1172223413957099  0.0874941457747909
  0.5630994788460342  0.2218967737383650  0.8176869088953822
  0.4485282752980595  0.0924399090147929  0.5966913984579847
  0.2326924449554824  0.5524407541130714  0.3240033573478485
  0.1105114953657278  0.4286141051087498  0.0942347997964532
  0.8821126260516223  0.5545321002846748  0.8523842832132829
  0.7662278133727227  0.4148049731373007  0.6049861776879766
  0.5347354316747825  0.5512949306157893  0.3681192263344641
  0.2351171993434136  0.5508537562095697  0.8083574822223270
  0.1370509375988220  0.4161363322641023  0.5888323654251693
  0.8902948164652145  0.5348535147024549  0.3800950710505830
  0.7757240038962934  0.4307138490075317  0.0959750248079629
  0.5312795539674227  0.5472236532982322  0.8758213873510030
  0.4457038567994616  0.4303739612191322  0.5894443600169765
  0.2215865914306292  0.8706948163405457  0.3434237956205095
  0.1277395899664597  0.7283824140705235  0.0584361969540197
  0.8847493672376316  0.8794435161683793  0.8395585483385233
  0.7672640726256859  0.7840993863286272  0.6154924151028140
  0.5438071784061052  0.8578331790645279  0.3786840530935862
  0.4646131756562752  0.7484072012487317  0.1231199751304572
  0.2337995241636790  0.8551501936937953  0.8444215341207979
  0.0960267772173324  0.7573129103130825  0.5727487680281840
  0.9113630980167571  0.8622793537996998  0.3104831166327173
  0.7699930436816373  0.7469530929523529  0.1122834663521957
  0.5634692299503712  0.8482022538076421  0.8709971992651262
  0.4684973020070444  0.7464784386520762  0.6243433977035195
 
  0.00000000E+00  0.00000000E+00  0.00000000E+00
  0.00000000E+00  0.00000000E+00  0.00000000E+00
  0.00000000E+00  0.00000000E+00  0.00000000E+00
  0.00000000E+00  0.00000000E+00  0.00000000E+00
  0.00000000E+00  0.00000000E+00  0.00000000E+00
  0.00000000E+00  0.00000000E+00  0.00000000E+00
  0.00000000E+00  0.00000000E+00  0.00000000E+00
  0.00000000E+00  0.00000000E+00  0.00000000E+00
  0.00000000E+00  0.00000000E+00  0.00000000E+00
  0.00000000E+00  0.00000000E+00  0.00000000E+00
  0.00000000E+00  0.00000000E+00  0.00000000E+00
  0.00000000E+00  0.00000000E+00  0.00000000E+00
  0.00000000E+00  0.00000000E+00  0.00000000E+00
  0.00000000E+00  0.00000000E+00  0.00000000E+00
  0.00000000E+00  0.00000000E+00  0.00000000E+00
  0.00000000E+00  0.00000000E+00  0.00000000E+00
  0.00000000E+00  0.00000000E+00  0.00000000E+00
  0.00000000E+00  0.00000000E+00  0.00000000E+00
  0.00000000E+00  0.00000000E+00  0.00000000E+00
  0.00000000E+00  0.00000000E+00  0.00000000E+00
  0.00000000E+00  0.00000000E+00  0.00000000E+00
  0.00000000E+00  0.00000000E+00  0.00000000E+00
  0.00000000E+00  0.00000000E+00  0.00000000E+00
  0.00000000E+00  0.00000000E+00  0.00000000E+00
  0.00000000E+00  0.00000000E+00  0.00000000E+00
  0.00000000E+00  0.00000000E+00  0.00000000E+00
  0.00000000E+00  0.00000000E+00  0.00000000E+00
  0.00000000E+00  0.00000000E+00  0.00000000E+00
  0.00000000E+00  0.00000000E+00  0.00000000E+00
  0.00000000E+00  0.00000000E+00  0.00000000E+00
  0.00000000E+00  0.00000000E+00  0.00000000E+00
  0.00000000E+00  0.00000000E+00  0.00000000E+00
  0.00000000E+00  0.00000000E+00  0.00000000E+00
  0.00000000E+00  0.00000000E+00  0.00000000E+00
  0.00000000E+00  0.00000000E+00  0.00000000E+00
  0.00000000E+00  0.00000000E+00  0.00000000E+00
  0.00000000E+00  0.00000000E+00  0.00000000E+00
  0.00000000E+00  0.00000000E+00  0.00000000E+00
  0.00000000E+00  0.00000000E+00  0.00000000E+00
  0.00000000E+00  0.00000000E+00  0.00000000E+00
  0.00000000E+00  0.00000000E+00  0.00000000E+00
  0.00000000E+00  0.00000000E+00  0.00000000E+00
  0.00000000E+00  0.00000000E+00  0.00000000E+00
  0.00000000E+00  0.00000000E+00  0.00000000E+00
  0.00000000E+00  0.00000000E+00  0.00000000E+00
  0.00000000E+00  0.00000000E+00  0.00000000E+00
  0.00000000E+00  0.00000000E+00  0.00000000E+00
  0.00000000E+00  0.00000000E+00  0.00000000E+00
  0.00000000E+00  0.00000000E+00  0.00000000E+00
  0.00000000E+00  0.00000000E+00  0.00000000E+00
  0.00000000E+00  0.00000000E+00  0.00000000E+00
  0.00000000E+00  0.00000000E+00  0.00000000E+00
  0.00000000E+00  0.00000000E+00  0.00000000E+00
  0.00000000E+00  0.00000000E+00  0.00000000E+00
  0.00000000E+00  0.00000000E+00  0.00000000E+00
  0.00000000E+00  0.00000000E+00  0.00000000E+00
  0.00000000E+00  0.00000000E+00  0.00000000E+00
  0.00000000E+00  0.00000000E+00  0.00000000E+00
  0.00000000E+00  0.00000000E+00  0.00000000E+00
  0.00000000E+00  0.00000000E+00  0.00000000E+00
  0.00000000E+00  0.00000000E+00  0.00000000E+00
  0.00000000E+00  0.00000000E+00  0.00000000E+00
  0.00000000E+00  0.00000000E+00  0.00000000E+00
  0.00000000E+00  0.00000000E+00  0.00000000E+00
  0.00000000E+00  0.00000000E+00  0.00000000E+00
  0.00000000E+00  0.00000000E+00  0.00000000E+00
  0.00000000E+00  0.00000000E+00  0.00000000E+00
  0.00000000E+00  0.00000000E+00  0.00000000E+00
  0.00000000E+00  0.00000000E+00  0.00000000E+00
  0.00000000E+00  0.00000000E+00  0.00000000E+00
  0.00000000E+00  0.00000000E+00  0.00000000E+00
