Al   Sc   N                             
   1.00000000000000     
   -10.0310794379389971    0.0272674551865330   -0.0007673138119659
    -5.0544465414877946    8.6949940381526574   -0.0035262667291864
     0.0258495021926651   -0.0535644293966943   -9.8996067625025503
   Al   Sc   N 
    23    13    35
Direct
  0.1091787786701843  0.0940917555792211  0.4001038144620921
  0.2187401708678181  0.2005071427287461  0.1426218692735830
  0.7704324394187338  0.1040701920876899  0.8905696970747030
  0.8806166938854716  0.2040833984330277  0.6435090658616787
  0.5485117672267350  0.2131509305320662  0.1344696132633700
  0.2233506427997369  0.2091269087046612  0.6396310995185104
  0.8895962244265334  0.2093069728608938  0.1414558306294538
  0.5571979618621654  0.2119204079064616  0.6415448601382181
  0.2232693904370819  0.5391845393247436  0.1438603994185783
  0.4385869732902137  0.4400794350124571  0.3900565052651430
  0.5615148412225679  0.5509614515697834  0.1440303085814989
  0.2283849939009315  0.5342947389499102  0.6395324540545744
  0.8885309387999172  0.5343694650205251  0.1492368758167757
  0.4424812313230504  0.4326228503645595  0.8881718389058193
  0.5513665927507390  0.5348942254023115  0.6462194334754230
  0.1111297920068424  0.7583792843996306  0.3970638845882846
  0.7751455880679643  0.7570031028285982  0.8938698648739631
  0.8820265867507615  0.8757444481422141  0.6515226071030682
  0.4438487366788380  0.7556659291479875  0.3957795317566521
  0.5537812612359545  0.8672169328557828  0.1198099341110890
  0.1240431950176486  0.7515468414756441  0.8833588158847263
  0.4446751720465443  0.7530640781332352  0.8897445747584669
  0.5587337858298156  0.8695249944508774  0.6250513347049917
  0.4433392884510141  0.0937612180125669  0.3764660880814290
  0.1103236618291703  0.0900474492676508  0.8757846379729486
  0.7791964878847182  0.0937289629474591  0.3796970090119061
  0.4528298839626927  0.0897062978304461  0.8722037984730306
  0.1244855781915390  0.4225152983324065  0.3746833496163333
  0.7722519669784020  0.4302606135312317  0.8834274708662377
  0.8891409670301442  0.5427682552356430  0.6266613058891650
  0.1155647246843756  0.4339634652462934  0.8918886676890665
  0.7684050281608421  0.4233830113152308  0.3843412714678749
  0.2236259163488654  0.8700423638638242  0.1472275036098765
  0.2239957236021084  0.8657894466499485  0.6225327408314243
  0.7768016934146829  0.7684861458545527  0.3718976468844346
  0.8931856279721941  0.8715568776271567  0.1106953053296706
  0.2141247720879633  0.1881636211288082  0.3332145260556416
  0.1017370684483296  0.1076951872557927  0.0887927152794177
  0.8775755337678390  0.1971832529438089  0.8329983235725820
  0.7768938090760784  0.0914039419463109  0.5969008769381858
  0.5396583254702136  0.2361194336500176  0.3236270224510918
  0.4445817857110441  0.0938215095329724  0.0998549125492829
  0.2217169667168477  0.2089769492913192  0.8299139585045765
  0.0989189696126829  0.1150834658939317  0.5954221830033930
  0.9082885998992580  0.1922892706094217  0.3321039774147678
  0.7624952207169002  0.1216052692490877  0.0862315610085531
  0.5604688358804992  0.2225829384608389  0.8355411261388781
  0.4478350255329246  0.0934100688349631  0.6048916065348564
  0.2331071223186925  0.5539702189807372  0.3315494323065735
  0.1142836215684397  0.4253664157013191  0.1145682823306231
  0.8848895305797342  0.5533467941634811  0.8392862803973031
  0.7653721212116409  0.4181505706812132  0.6033277747983448
  0.5303797914275208  0.5516956098876662  0.3285960715496614
  0.2362726770985475  0.5429222464913224  0.8304795066134218
  0.1340338660973046  0.4183354608381791  0.5919503912121939
  0.8889385590067107  0.5348203178337627  0.3454592468571462
  0.7771954648276846  0.4286698730654095  0.1075853874944386
  0.5361730735867667  0.5446326315968335  0.8393041294562877
  0.4448880656883532  0.4294367706148492  0.5835811080566629
  0.2206986001808673  0.8706801065498695  0.3721959984737637
  0.1315331747286024  0.7358555206318513  0.0730355700795116
  0.8844811060377893  0.8745829999824650  0.8545427010484516
  0.7687270437799256  0.7846445516731748  0.5898670608696222
  0.5417483549988091  0.8613083440529152  0.3372251717794370
  0.4557221236844455  0.7527145673653592  0.0829816033792241
  0.2331552622596718  0.8524697960703804  0.8395259608318426
  0.0954181406455632  0.7489540314708165  0.5906397532577756
  0.9136573909298988  0.8646150743515051  0.3220203797974008
  0.7731212877946518  0.7473666199615749  0.0952763950815623
  0.5629559332379657  0.8498176791211236  0.8534822920251344
  0.4694282317401033  0.7440090347529988  0.5875830553235843
 
  0.00000000E+00  0.00000000E+00  0.00000000E+00
  0.00000000E+00  0.00000000E+00  0.00000000E+00
  0.00000000E+00  0.00000000E+00  0.00000000E+00
  0.00000000E+00  0.00000000E+00  0.00000000E+00
  0.00000000E+00  0.00000000E+00  0.00000000E+00
  0.00000000E+00  0.00000000E+00  0.00000000E+00
  0.00000000E+00  0.00000000E+00  0.00000000E+00
  0.00000000E+00  0.00000000E+00  0.00000000E+00
  0.00000000E+00  0.00000000E+00  0.00000000E+00
  0.00000000E+00  0.00000000E+00  0.00000000E+00
  0.00000000E+00  0.00000000E+00  0.00000000E+00
  0.00000000E+00  0.00000000E+00  0.00000000E+00
  0.00000000E+00  0.00000000E+00  0.00000000E+00
  0.00000000E+00  0.00000000E+00  0.00000000E+00
  0.00000000E+00  0.00000000E+00  0.00000000E+00
  0.00000000E+00  0.00000000E+00  0.00000000E+00
  0.00000000E+00  0.00000000E+00  0.00000000E+00
  0.00000000E+00  0.00000000E+00  0.00000000E+00
  0.00000000E+00  0.00000000E+00  0.00000000E+00
  0.00000000E+00  0.00000000E+00  0.00000000E+00
  0.00000000E+00  0.00000000E+00  0.00000000E+00
  0.00000000E+00  0.00000000E+00  0.00000000E+00
  0.00000000E+00  0.00000000E+00  0.00000000E+00
  0.00000000E+00  0.00000000E+00  0.00000000E+00
  0.00000000E+00  0.00000000E+00  0.00000000E+00
  0.00000000E+00  0.00000000E+00  0.00000000E+00
  0.00000000E+00  0.00000000E+00  0.00000000E+00
  0.00000000E+00  0.00000000E+00  0.00000000E+00
  0.00000000E+00  0.00000000E+00  0.00000000E+00
  0.00000000E+00  0.00000000E+00  0.00000000E+00
  0.00000000E+00  0.00000000E+00  0.00000000E+00
  0.00000000E+00  0.00000000E+00  0.00000000E+00
  0.00000000E+00  0.00000000E+00  0.00000000E+00
  0.00000000E+00  0.00000000E+00  0.00000000E+00
  0.00000000E+00  0.00000000E+00  0.00000000E+00
  0.00000000E+00  0.00000000E+00  0.00000000E+00
  0.00000000E+00  0.00000000E+00  0.00000000E+00
  0.00000000E+00  0.00000000E+00  0.00000000E+00
  0.00000000E+00  0.00000000E+00  0.00000000E+00
  0.00000000E+00  0.00000000E+00  0.00000000E+00
  0.00000000E+00  0.00000000E+00  0.00000000E+00
  0.00000000E+00  0.00000000E+00  0.00000000E+00
  0.00000000E+00  0.00000000E+00  0.00000000E+00
  0.00000000E+00  0.00000000E+00  0.00000000E+00
  0.00000000E+00  0.00000000E+00  0.00000000E+00
  0.00000000E+00  0.00000000E+00  0.00000000E+00
  0.00000000E+00  0.00000000E+00  0.00000000E+00
  0.00000000E+00  0.00000000E+00  0.00000000E+00
  0.00000000E+00  0.00000000E+00  0.00000000E+00
  0.00000000E+00  0.00000000E+00  0.00000000E+00
  0.00000000E+00  0.00000000E+00  0.00000000E+00
  0.00000000E+00  0.00000000E+00  0.00000000E+00
  0.00000000E+00  0.00000000E+00  0.00000000E+00
  0.00000000E+00  0.00000000E+00  0.00000000E+00
  0.00000000E+00  0.00000000E+00  0.00000000E+00
  0.00000000E+00  0.00000000E+00  0.00000000E+00
  0.00000000E+00  0.00000000E+00  0.00000000E+00
  0.00000000E+00  0.00000000E+00  0.00000000E+00
  0.00000000E+00  0.00000000E+00  0.00000000E+00
  0.00000000E+00  0.00000000E+00  0.00000000E+00
  0.00000000E+00  0.00000000E+00  0.00000000E+00
  0.00000000E+00  0.00000000E+00  0.00000000E+00
  0.00000000E+00  0.00000000E+00  0.00000000E+00
  0.00000000E+00  0.00000000E+00  0.00000000E+00
  0.00000000E+00  0.00000000E+00  0.00000000E+00
  0.00000000E+00  0.00000000E+00  0.00000000E+00
  0.00000000E+00  0.00000000E+00  0.00000000E+00
  0.00000000E+00  0.00000000E+00  0.00000000E+00
  0.00000000E+00  0.00000000E+00  0.00000000E+00
  0.00000000E+00  0.00000000E+00  0.00000000E+00
  0.00000000E+00  0.00000000E+00  0.00000000E+00
