POSCAR                                  
  0.945000000000000     
    -8.0145651001499996    2.2707258741700000    0.0642064556738000
    -2.6784432403800000  -11.3710852154000008    0.0930483351237000
     2.5120213499799999    2.1987508955799999   15.6784043347999997
   Gd   Al   N 
    24    24    48
Direct
  0.1317702532229745  0.6113646919740106  0.9819761246006919
  0.8721270377595332  0.5945956432739976  0.1620351483790401
  0.0477567064259503  0.5809410892431615  0.6631493851151404
  0.6299283884217743  0.6608702340861683  0.6682961076643039
  0.7823650367113544  0.5157843889756322  0.8225560380722357
  0.8967802396482796  0.3405044468595833  0.9899543816233773
  0.5149446000626767  0.5001112426017471  0.9989435715147437
  0.6185972815556795  0.3351446672765164  0.1720221686030357
  0.9574027070212239  0.4377383409365336  0.3354485136981964
  0.5883665792536164  0.5845390009649449  0.3400896217321048
  0.8812949373666754  0.2876236875439986  0.6607060701407761
  0.0818661717253022  0.8877555725935835  0.1545306541329978
  0.2884326787226357  0.5550578437182310  0.5026414384316027
  0.5000069755178984  0.2631224580430995  0.8349852971104212
  0.1716747899968780  0.9680363855468528  0.4892967092971077
  0.7121847077800325  0.1861106283709404  0.3521205596777719
  0.3355784403098099  0.3004077438147590  0.3335811373375108
  0.5443300333344609  0.0421006843357148  0.6634482893403515
  0.6114561166913148  0.9060492764953096  0.8387928341306434
  0.7588789271371965  0.7630302643684033  0.9920526136714116
  0.3291215401587877  0.8802486111312859  0.9758625733754585
  0.7890764527798808  0.8547044518575504  0.3141817086146759
  0.5671751487764709  0.8402095322443870  0.5001024172836281
  0.1944587470642318  0.7169265964703087  0.3316126797821255
  0.9184378642839945  0.7162579598359642  0.4714023428627740
  0.1227438461206845  0.3264595354619217  0.8368329692563634
  0.0435820510684906  0.2314800758871556  0.1477105014478255
  0.3109495476208934  0.5360972167371187  0.7901921641202492
  0.2862806844460053  0.4943258985116898  0.1958498603522898
  0.1047400266763177  0.2946934809169974  0.4880456432459965
  0.2148807380395610  0.1651827809039261  0.6719649865045341
  0.7741404417783642  0.4513282026308119  0.5260844802766798
  0.8547610147521496  0.1174809147740064  0.7995641389258594
  0.0279222541520880  0.0290633613467079  0.9810534097936667
  0.3495507699134350  0.3849402018697532  0.6427494690620605
  0.6618231506344259  0.1218589141300228  0.0319632188155410
  0.6248214183815151  0.9466006361921018  0.1318814065260412
  0.3119481973971361  0.2565241603768342  0.0266021191441155
  0.3588887784929824  0.0927022108205833  0.1680415699112316
  0.0701270311421212  0.0835592628320043  0.3187786875001066
  0.8483924166085544  0.0810472911974927  0.5137952589455352
  0.9584432101150782  0.9265588396547244  0.6415168560421094
  0.0002239332600098  0.7877832014973123  0.8198944232517036
  0.4905110777831680  0.2088893791256154  0.5315235521033514
  0.1876050431749761  0.0196280267792446  0.8062610420455130
  0.4089736277976215  0.7099210609304691  0.1458916861063315
  0.3975999312305660  0.9434599529287340  0.3044285815388506
  0.2730044192523309  0.8391222427760141  0.6921955675447933
  0.7671962910240921  0.7271742751225787  0.8238511690568728
  0.4096643113799985  0.6897862717274421  0.0199529078498628
  0.5041505233408969  0.8016337565557947  0.3431548026031521
  0.7069543489117791  0.6204357865281551  0.5049550366395081
  0.7825704272848384  0.4808983416066397  0.6593508827754491
  0.1646719305358388  0.7376137454480016  0.4862361465955942
  0.3593660559481791  0.5597927081714502  0.6644501655960724
  0.5085049733598765  0.4839643334361696  0.8462482814146739
  0.5578307289759579  0.2771809577259248  0.0049394905750333
  0.0201472034505557  0.7866248144634511  0.6925342508788788
  0.1194846389180668  0.6264089913391544  0.8305731024629921
  0.1962604511598798  0.3844976606274031  0.9639726598072613
  0.8243616263789022  0.5545525301510708  0.0023854086412811
  0.5212781913563944  0.5564070880721204  0.1747828610860083
  0.6666092221279172  0.3846924781613055  0.3269189550663896
  0.7190080973911819  0.2495795882307021  0.5114043565237765
  0.1746651251116162  0.6450561988802974  0.1653322864293969
  0.2880105744879273  0.5155913603123494  0.3320681971738040
  0.3469947808721159  0.3394530968795166  0.5076903952434790
  0.4462279874633950  0.2375518617155166  0.6611151289181052
  0.6283960028998266  0.0923964352331978  0.8148716197809307
  0.6211072903066608  0.9464469515034750  0.9992945493504521
  0.8856862017709233  0.6622463440803870  0.3347726136548914
  0.0153671353265210  0.4564877211470275  0.5093044055096101
  0.1648954160659599  0.3875114342410271  0.7250812910848907
  0.2256064779596940  0.1821357159911869  0.8019790226225894
  0.2609932257822010  0.0866765955080808  0.0285750334876056
  0.8785829268603891  0.2993990709340721  0.8283201400085929
  0.9039219926049071  0.1553055327094981  0.0365329282735942
  0.6089352613557324  0.1211046494019996  0.1550835946762561
  0.8897756369046164  0.0420538973806543  0.3890739606421434
  0.2840350434739563  0.3175711229169522  0.1556563870371193
  0.4385261359519248  0.1119274098549852  0.3098817957804840
  0.4659895669563170  0.0318395096831665  0.5065333811075519
  0.4929239426848255  0.8323016267220353  0.6517677623178670
  0.9191692538080005  0.3873468366949595  0.1723508109429019
  0.0598307720992892  0.2540281575320549  0.3624006705211187
  0.0696142989900181  0.1730765125112370  0.5611863631292380
  0.1967774043296941  0.9900901183907322  0.6625782154434887
  0.3144128076504202  0.8846844184060814  0.8232756446993363
  0.8389315477178911  0.0712041727208472  0.6686371268980764
  0.9773164927190621  0.9941755713554699  0.8520382713177028
  0.0357999687524568  0.8463536382740529  0.9973298139268820
  0.4058142041152522  0.8970154876032410  0.1693738713543596
  0.1137244857892625  0.0967788104378116  0.2004664110369561
  0.1603127823679813  0.9226107657840643  0.3242524018233794
  0.8630653534214190  0.8899661882400309  0.5162951675975052
  0.7906049102882591  0.8304271687426947  0.1585602819840446
 
  0.00000000E+00  0.00000000E+00  0.00000000E+00
  0.00000000E+00  0.00000000E+00  0.00000000E+00
  0.00000000E+00  0.00000000E+00  0.00000000E+00
  0.00000000E+00  0.00000000E+00  0.00000000E+00
  0.00000000E+00  0.00000000E+00  0.00000000E+00
  0.00000000E+00  0.00000000E+00  0.00000000E+00
  0.00000000E+00  0.00000000E+00  0.00000000E+00
  0.00000000E+00  0.00000000E+00  0.00000000E+00
  0.00000000E+00  0.00000000E+00  0.00000000E+00
  0.00000000E+00  0.00000000E+00  0.00000000E+00
  0.00000000E+00  0.00000000E+00  0.00000000E+00
  0.00000000E+00  0.00000000E+00  0.00000000E+00
  0.00000000E+00  0.00000000E+00  0.00000000E+00
  0.00000000E+00  0.00000000E+00  0.00000000E+00
  0.00000000E+00  0.00000000E+00  0.00000000E+00
  0.00000000E+00  0.00000000E+00  0.00000000E+00
  0.00000000E+00  0.00000000E+00  0.00000000E+00
  0.00000000E+00  0.00000000E+00  0.00000000E+00
  0.00000000E+00  0.00000000E+00  0.00000000E+00
  0.00000000E+00  0.00000000E+00  0.00000000E+00
  0.00000000E+00  0.00000000E+00  0.00000000E+00
  0.00000000E+00  0.00000000E+00  0.00000000E+00
  0.00000000E+00  0.00000000E+00  0.00000000E+00
  0.00000000E+00  0.00000000E+00  0.00000000E+00
  0.00000000E+00  0.00000000E+00  0.00000000E+00
  0.00000000E+00  0.00000000E+00  0.00000000E+00
  0.00000000E+00  0.00000000E+00  0.00000000E+00
  0.00000000E+00  0.00000000E+00  0.00000000E+00
  0.00000000E+00  0.00000000E+00  0.00000000E+00
  0.00000000E+00  0.00000000E+00  0.00000000E+00
  0.00000000E+00  0.00000000E+00  0.00000000E+00
  0.00000000E+00  0.00000000E+00  0.00000000E+00
  0.00000000E+00  0.00000000E+00  0.00000000E+00
  0.00000000E+00  0.00000000E+00  0.00000000E+00
  0.00000000E+00  0.00000000E+00  0.00000000E+00
  0.00000000E+00  0.00000000E+00  0.00000000E+00
  0.00000000E+00  0.00000000E+00  0.00000000E+00
  0.00000000E+00  0.00000000E+00  0.00000000E+00
  0.00000000E+00  0.00000000E+00  0.00000000E+00
  0.00000000E+00  0.00000000E+00  0.00000000E+00
  0.00000000E+00  0.00000000E+00  0.00000000E+00
  0.00000000E+00  0.00000000E+00  0.00000000E+00
  0.00000000E+00  0.00000000E+00  0.00000000E+00
  0.00000000E+00  0.00000000E+00  0.00000000E+00
  0.00000000E+00  0.00000000E+00  0.00000000E+00
  0.00000000E+00  0.00000000E+00  0.00000000E+00
  0.00000000E+00  0.00000000E+00  0.00000000E+00
  0.00000000E+00  0.00000000E+00  0.00000000E+00
  0.00000000E+00  0.00000000E+00  0.00000000E+00
  0.00000000E+00  0.00000000E+00  0.00000000E+00
  0.00000000E+00  0.00000000E+00  0.00000000E+00
  0.00000000E+00  0.00000000E+00  0.00000000E+00
  0.00000000E+00  0.00000000E+00  0.00000000E+00
  0.00000000E+00  0.00000000E+00  0.00000000E+00
  0.00000000E+00  0.00000000E+00  0.00000000E+00
  0.00000000E+00  0.00000000E+00  0.00000000E+00
  0.00000000E+00  0.00000000E+00  0.00000000E+00
  0.00000000E+00  0.00000000E+00  0.00000000E+00
  0.00000000E+00  0.00000000E+00  0.00000000E+00
  0.00000000E+00  0.00000000E+00  0.00000000E+00
  0.00000000E+00  0.00000000E+00  0.00000000E+00
  0.00000000E+00  0.00000000E+00  0.00000000E+00
  0.00000000E+00  0.00000000E+00  0.00000000E+00
  0.00000000E+00  0.00000000E+00  0.00000000E+00
  0.00000000E+00  0.00000000E+00  0.00000000E+00
  0.00000000E+00  0.00000000E+00  0.00000000E+00
  0.00000000E+00  0.00000000E+00  0.00000000E+00
  0.00000000E+00  0.00000000E+00  0.00000000E+00
  0.00000000E+00  0.00000000E+00  0.00000000E+00
  0.00000000E+00  0.00000000E+00  0.00000000E+00
  0.00000000E+00  0.00000000E+00  0.00000000E+00
  0.00000000E+00  0.00000000E+00  0.00000000E+00
  0.00000000E+00  0.00000000E+00  0.00000000E+00
  0.00000000E+00  0.00000000E+00  0.00000000E+00
  0.00000000E+00  0.00000000E+00  0.00000000E+00
  0.00000000E+00  0.00000000E+00  0.00000000E+00
  0.00000000E+00  0.00000000E+00  0.00000000E+00
  0.00000000E+00  0.00000000E+00  0.00000000E+00
  0.00000000E+00  0.00000000E+00  0.00000000E+00
  0.00000000E+00  0.00000000E+00  0.00000000E+00
  0.00000000E+00  0.00000000E+00  0.00000000E+00
  0.00000000E+00  0.00000000E+00  0.00000000E+00
  0.00000000E+00  0.00000000E+00  0.00000000E+00
  0.00000000E+00  0.00000000E+00  0.00000000E+00
  0.00000000E+00  0.00000000E+00  0.00000000E+00
  0.00000000E+00  0.00000000E+00  0.00000000E+00
  0.00000000E+00  0.00000000E+00  0.00000000E+00
  0.00000000E+00  0.00000000E+00  0.00000000E+00
  0.00000000E+00  0.00000000E+00  0.00000000E+00
  0.00000000E+00  0.00000000E+00  0.00000000E+00
  0.00000000E+00  0.00000000E+00  0.00000000E+00
  0.00000000E+00  0.00000000E+00  0.00000000E+00
  0.00000000E+00  0.00000000E+00  0.00000000E+00
  0.00000000E+00  0.00000000E+00  0.00000000E+00
  0.00000000E+00  0.00000000E+00  0.00000000E+00
  0.00000000E+00  0.00000000E+00  0.00000000E+00
