generated by phonopy                    
   1.00000000000000     
    10.0351470768999995   -0.0000022330999784   -0.0000001056124209
    -5.0175765436399997    8.6906901959899994    0.0000001395531216
    -0.0000001735893656    0.0000001431815548   14.9533752540999991
   Pb   P    O 
    21    12    49
Direct
  0.9847892940690954  0.7537244060005506  0.0994153074315207
  0.0114031834787554  0.7785637609909060  0.6214143191970649
  0.0108824197014386  0.2708509079686721  0.4026190621549119
  0.0033453076431229  0.2495022033104348  0.8646262129814630
  0.9520053078993627  0.9974330723547169  0.2395390715569761
  0.2382940625396373  0.2309406169759995  0.6264299736739076
  0.7528554836322243  0.7308579615869988  0.3857220837381092
  0.7625279147354860  0.7521385614099074  0.8733202616908358
  0.6338136898274485  0.7071451023908253  0.1143638285397799
  0.7742303136303263  0.9989630187396799  0.6260146437646128
  0.2924868734377881  0.0138530283782998  0.3690436359600824
  0.2635600930135737  0.0052492626812040  0.8647844537735736
  0.6570138354590682  0.3666763126159935  0.0017531681835408
  0.6678214546169059  0.3233276201812814  0.5016985873569695
  0.3336285795406368  0.6942790406720007  0.9899708210246345
  0.3608154414682261  0.6707336913252391  0.5033555466895479
  0.3011191414877246  0.6659128793751350  0.2427064689990885
  0.3508884242494474  0.6661986849111798  0.7409217860564894
  0.6740486460532935  0.4006774275752107  0.2374887426500649
  0.6798027359369669  0.3375215058541272  0.7524748978337072
  0.2741331355633037  0.2608126944497684  0.1125722379295127
  0.8850165023273391  0.2195293968678129  0.1939650577919352
  0.6347751450436974  0.5885972757483771  0.6273105264367942
  0.3730734756508340  0.4035207304498698  0.3739350031303275
  0.3786206905801208  0.3989680807641989  0.8689651464342063
  0.4037543406254116  0.0342807487096053  0.1188163458391358
  0.4132352125388792  0.0305188831454686  0.6232185729230935
  0.6098540566773707  0.9667669179034064  0.3774282685162760
  0.6094634974031266  0.9723339615589239  0.8641721272493896
  0.9795609530786820  0.3938333812988191  0.0902790682550787
  0.9760741412434157  0.3802756301350811  0.6296986695028366
  0.0348735206882438  0.6399174389832964  0.3827982872224993
  0.0400430129917595  0.6295727716259449  0.8605078662329149
  0.5179434205196145  0.6484383015803274  0.6251091453680644
  0.4742773331788186  0.3260096569443647  0.3731567361622865
  0.4694793843181273  0.3106546275946016  0.8656740574127397
  0.3596959442668464  0.8590538144038717  0.1200201379738814
  0.3565528777877276  0.8554965492519315  0.6215175947568454
  0.6602233252277827  0.1379938736103483  0.3864757051381815
  0.6970639048796627  0.1492527143130502  0.8636033714526192
  0.1535895124657358  0.5104119795420488  0.1078872968201523
  0.1524631824394547  0.4869303321930118  0.6258777707360395
  0.8570371197725350  0.5395202773892933  0.3816015926726308
  0.8630837835127494  0.5358056231349408  0.8616730493092746
  0.7589014620613810  0.6461027276596454  0.0120525521548132
  0.7411337715579194  0.6470322501473547  0.5430319867250546
  0.2747422449206383  0.3638620820156717  0.4620889883891408
  0.2768483462087730  0.3552368239854005  0.9551550478664552
  0.3225286212265104  0.0641888444610785  0.0362242195264244
  0.3597943747673114  0.0825810205500161  0.5378226632762022
  0.6394146100286449  0.8978486662260323  0.4642828989849974
  0.6509024051462404  0.8999528893866042  0.9438650153202843
  0.9439405411130011  0.3218159581030378  0.9978992498524306
  0.9134426256527846  0.2728856293697675  0.5445701130680547
  0.0843660130013149  0.7770687659533593  0.4491199410215359
  0.1081079470348172  0.7235518859096572  0.9499975067769384
  0.2606267877175696  0.3552459380944626  0.2930537205776105
  0.2690479604872777  0.3557392980573724  0.7865263981130468
  0.7674036686574794  0.6699108210073064  0.2247810995900394
  0.7411954455479162  0.6490710833618181  0.7106882468085871
  0.6871996491853665  0.9298439420557756  0.2979732087790410
  0.6346000111428225  0.9037259066669279  0.7759167832999836
  0.3314180932093720  0.0686279213492824  0.2033394284846040
  0.3452494634345484  0.0730283923807704  0.7061125330193434
  0.1057877991834459  0.7144803984772352  0.2892912913688406
  0.1025132867192369  0.7530574080416841  0.7847631246118212
  0.9236302795696218  0.3384886692118698  0.2725976906154415
  0.9252090308032450  0.2648021108642098  0.7101069770425212
  0.5199510521684161  0.4174568774607010  0.1179883895787626
  0.5463399743067328  0.4088757141912467  0.6270795943710468
  0.4816916051379749  0.5841516103051276  0.3727005856561050
  0.4922292999736584  0.5775569013707837  0.8673793649205876
  0.5788802188228530  0.1425107120134754  0.1150376853367661
  0.5928266087223975  0.1276226210320957  0.6268954283183561
  0.4274173620795878  0.8752825028206530  0.3615628280865550
  0.4279585820090688  0.9081101111013794  0.8718295616518361
  0.8807960773385517  0.4719438827959692  0.1094393325515881
  0.8877032614606861  0.4708089648094145  0.6336187634201167
  0.1099813575172988  0.5406164441641792  0.4107734503195033
  0.1119591486266316  0.5226727764993342  0.8498287301311294
  0.8859764313480909  0.9263172126547801  0.1048187547313049
  0.0064284624702537  0.0046475498032450  0.6241880720326378
 
  0.00000000E+00  0.00000000E+00  0.00000000E+00
  0.00000000E+00  0.00000000E+00  0.00000000E+00
  0.00000000E+00  0.00000000E+00  0.00000000E+00
  0.00000000E+00  0.00000000E+00  0.00000000E+00
  0.00000000E+00  0.00000000E+00  0.00000000E+00
  0.00000000E+00  0.00000000E+00  0.00000000E+00
  0.00000000E+00  0.00000000E+00  0.00000000E+00
  0.00000000E+00  0.00000000E+00  0.00000000E+00
  0.00000000E+00  0.00000000E+00  0.00000000E+00
  0.00000000E+00  0.00000000E+00  0.00000000E+00
  0.00000000E+00  0.00000000E+00  0.00000000E+00
  0.00000000E+00  0.00000000E+00  0.00000000E+00
  0.00000000E+00  0.00000000E+00  0.00000000E+00
  0.00000000E+00  0.00000000E+00  0.00000000E+00
  0.00000000E+00  0.00000000E+00  0.00000000E+00
  0.00000000E+00  0.00000000E+00  0.00000000E+00
  0.00000000E+00  0.00000000E+00  0.00000000E+00
  0.00000000E+00  0.00000000E+00  0.00000000E+00
  0.00000000E+00  0.00000000E+00  0.00000000E+00
  0.00000000E+00  0.00000000E+00  0.00000000E+00
  0.00000000E+00  0.00000000E+00  0.00000000E+00
  0.00000000E+00  0.00000000E+00  0.00000000E+00
  0.00000000E+00  0.00000000E+00  0.00000000E+00
  0.00000000E+00  0.00000000E+00  0.00000000E+00
  0.00000000E+00  0.00000000E+00  0.00000000E+00
  0.00000000E+00  0.00000000E+00  0.00000000E+00
  0.00000000E+00  0.00000000E+00  0.00000000E+00
  0.00000000E+00  0.00000000E+00  0.00000000E+00
  0.00000000E+00  0.00000000E+00  0.00000000E+00
  0.00000000E+00  0.00000000E+00  0.00000000E+00
  0.00000000E+00  0.00000000E+00  0.00000000E+00
  0.00000000E+00  0.00000000E+00  0.00000000E+00
  0.00000000E+00  0.00000000E+00  0.00000000E+00
  0.00000000E+00  0.00000000E+00  0.00000000E+00
  0.00000000E+00  0.00000000E+00  0.00000000E+00
  0.00000000E+00  0.00000000E+00  0.00000000E+00
  0.00000000E+00  0.00000000E+00  0.00000000E+00
  0.00000000E+00  0.00000000E+00  0.00000000E+00
  0.00000000E+00  0.00000000E+00  0.00000000E+00
  0.00000000E+00  0.00000000E+00  0.00000000E+00
  0.00000000E+00  0.00000000E+00  0.00000000E+00
  0.00000000E+00  0.00000000E+00  0.00000000E+00
  0.00000000E+00  0.00000000E+00  0.00000000E+00
  0.00000000E+00  0.00000000E+00  0.00000000E+00
  0.00000000E+00  0.00000000E+00  0.00000000E+00
  0.00000000E+00  0.00000000E+00  0.00000000E+00
  0.00000000E+00  0.00000000E+00  0.00000000E+00
  0.00000000E+00  0.00000000E+00  0.00000000E+00
  0.00000000E+00  0.00000000E+00  0.00000000E+00
  0.00000000E+00  0.00000000E+00  0.00000000E+00
  0.00000000E+00  0.00000000E+00  0.00000000E+00
  0.00000000E+00  0.00000000E+00  0.00000000E+00
  0.00000000E+00  0.00000000E+00  0.00000000E+00
  0.00000000E+00  0.00000000E+00  0.00000000E+00
  0.00000000E+00  0.00000000E+00  0.00000000E+00
  0.00000000E+00  0.00000000E+00  0.00000000E+00
  0.00000000E+00  0.00000000E+00  0.00000000E+00
  0.00000000E+00  0.00000000E+00  0.00000000E+00
  0.00000000E+00  0.00000000E+00  0.00000000E+00
  0.00000000E+00  0.00000000E+00  0.00000000E+00
  0.00000000E+00  0.00000000E+00  0.00000000E+00
  0.00000000E+00  0.00000000E+00  0.00000000E+00
  0.00000000E+00  0.00000000E+00  0.00000000E+00
  0.00000000E+00  0.00000000E+00  0.00000000E+00
  0.00000000E+00  0.00000000E+00  0.00000000E+00
  0.00000000E+00  0.00000000E+00  0.00000000E+00
  0.00000000E+00  0.00000000E+00  0.00000000E+00
  0.00000000E+00  0.00000000E+00  0.00000000E+00
  0.00000000E+00  0.00000000E+00  0.00000000E+00
  0.00000000E+00  0.00000000E+00  0.00000000E+00
  0.00000000E+00  0.00000000E+00  0.00000000E+00
  0.00000000E+00  0.00000000E+00  0.00000000E+00
  0.00000000E+00  0.00000000E+00  0.00000000E+00
  0.00000000E+00  0.00000000E+00  0.00000000E+00
  0.00000000E+00  0.00000000E+00  0.00000000E+00
  0.00000000E+00  0.00000000E+00  0.00000000E+00
  0.00000000E+00  0.00000000E+00  0.00000000E+00
  0.00000000E+00  0.00000000E+00  0.00000000E+00
  0.00000000E+00  0.00000000E+00  0.00000000E+00
  0.00000000E+00  0.00000000E+00  0.00000000E+00
  0.00000000E+00  0.00000000E+00  0.00000000E+00
  0.00000000E+00  0.00000000E+00  0.00000000E+00
