supercell of icsd_608626.cif            
   1.08461629154403     
     9.2329908151388018    0.0015275924906678    0.0722897636857446
    -4.6140173180632695    8.0569028522681254   -0.0053618394182063
     0.0742090752672126    0.0331701238917092    9.6029781382542172
   Y    Al   N 
    12    24    36
Direct
  0.2196027155933535  0.1124783590911136  0.2382001242146714
  0.7639054576467004  0.2203862757816779  0.9781117787596685
  0.4492278003056143  0.2369892591379426  0.4895260673355466
  0.1077376037664592  0.2413214467889802  0.9912473606867493
  0.1146056099118127  0.5430257239323666  0.4835810718626306
  0.8959102495163620  0.4404587797914274  0.2309955975260038
  0.7694455979926502  0.8786264314591392  0.0126818976962539
  0.2306815978374459  0.7914382127930537  0.7095760002466136
  0.0976884702852914  0.8703697550105503  0.9765687734646065
  0.8824317174151801  0.7607592427416279  0.2717544148445867
  0.5557458630502978  0.7700934478200949  0.7356030078109015
  0.4244397776570565  0.8768619102324635  0.0190438166213553
  0.1105644299990871  0.2158073158659732  0.5064850123176114
  0.8913544889889522  0.1116740817651802  0.7352945436713014
  0.5661753214560079  0.1089556066219686  0.2600287743204177
  0.2259202405457614  0.1228548567786376  0.7553340236124555
  0.8804160064801465  0.1137990416282406  0.2715537020354404
  0.7737330623175467  0.2215715447828259  0.5094026231744451
  0.5517730099576426  0.1191126292266986  0.7455209334919317
  0.4482404167719807  0.2299550230403256  0.9934133609020606
  0.2349850011880577  0.4468388897132556  0.2636967715207916
  0.8758077284029824  0.4389806750570884  0.7376443012415379
  0.7656801007443690  0.5510093986781897  0.9782346142413871
  0.5637505012776316  0.4526135740581978  0.2356106940031566
  0.4567170991588227  0.5510207642224216  0.4947651934354340
  0.2307670815340472  0.4314555082971196  0.7350553939294358
  0.1113579498318558  0.5504339846792092  0.8991769905524620
  0.7745209080521178  0.5548960445100803  0.5109781443509078
  0.5487206724325659  0.4347141185065198  0.7530652423896882
  0.4414831903165748  0.5515512904783080  0.0001607951708422
  0.2351183260450185  0.7862562497866676  0.2830810619968531
  0.1053460120696457  0.9027185395277186  0.5180386283037919
  0.8821567983696994  0.7803135151747043  0.7316625749267658
  0.5516941540091125  0.7766955251602496  0.2747409651638506
  0.4629738032297794  0.9074654111466245  0.4927935224698032
  0.7839385362381037  0.8976301067164130  0.5012863890422921
  0.1945499906015016  0.0970116124886005  0.4509206867229025
  0.0884734207461335  0.2411531417615720  0.2069703519320996
  0.8798517341741743  0.0994481925145578  0.9134352809609751
  0.7734994722279325  0.2253275517805164  0.6973948315770144
  0.5755963272124660  0.1121860786056104  0.4401033499788696
  0.4748598424679997  0.2335091899741073  0.1936540627536871
  0.2393540616064413  0.1268121592497238  0.9458557863182762
  0.1127102315641579  0.2219219650441246  0.6944872619291758
  0.8920222377250440  0.1222765497735168  0.4576386470157203
  0.7647030262273375  0.1896211335731834  0.1927746410844193
  0.5258055642852213  0.1086589908509836  0.9261003301327264
  0.4421213746021238  0.2241688751064999  0.7039896344473533
  0.2502128106797059  0.4186146033905374  0.4442126111469520
  0.1495427917529639  0.5752231129790601  0.2630847530094300
  0.8969681458785672  0.4668411230313723  0.9245600609709541
  0.7656919778551057  0.5461648463637232  0.6918716227632729
  0.5888503289990936  0.4873770856501451  0.4194476636491871
  0.4420685583195905  0.5490173318140990  0.1899137573875009
  0.2456145748391805  0.4723439549277089  0.9157195575911246
  0.0986767591334186  0.5238531179183354  0.7098360369602190
  0.8600918064516918  0.4315917676692678  0.4535699246317151
  0.7601910895450672  0.5492261633556694  0.1588581387979318
  0.5478347824160750  0.4407021552395776  0.9378622265591758
  0.4370853183530414  0.5201346530337787  0.6749119562556700
  0.2351460829333760  0.8115261553633388  0.4720857253185855
  0.1242519595034963  0.8658869866867036  0.1957515420446612
  0.8581190534357930  0.7479953628853124  0.9118116159459433
  0.7995005041432179  0.9066433210992031  0.6799864342013890
  0.5522892270512685  0.7724685788675174  0.4605948207548849
  0.4475174095202306  0.8886743199284055  0.2387066223926979
  0.2145051948287744  0.7537224990717490  0.9176392388928605
  0.1011420334380730  0.9140604192479529  0.7049052075082045
  0.8924629103496002  0.7751772510720301  0.4847118256912566
  0.7693883151902909  0.8970760512271951  0.2367326949018604
  0.5384536264026849  0.7548572723593949  0.9506000874462188
  0.4762301551434973  0.9275938860918416  0.6733868429908085
 
  0.00000000E+00  0.00000000E+00  0.00000000E+00
  0.00000000E+00  0.00000000E+00  0.00000000E+00
  0.00000000E+00  0.00000000E+00  0.00000000E+00
  0.00000000E+00  0.00000000E+00  0.00000000E+00
  0.00000000E+00  0.00000000E+00  0.00000000E+00
  0.00000000E+00  0.00000000E+00  0.00000000E+00
  0.00000000E+00  0.00000000E+00  0.00000000E+00
  0.00000000E+00  0.00000000E+00  0.00000000E+00
  0.00000000E+00  0.00000000E+00  0.00000000E+00
  0.00000000E+00  0.00000000E+00  0.00000000E+00
  0.00000000E+00  0.00000000E+00  0.00000000E+00
  0.00000000E+00  0.00000000E+00  0.00000000E+00
  0.00000000E+00  0.00000000E+00  0.00000000E+00
  0.00000000E+00  0.00000000E+00  0.00000000E+00
  0.00000000E+00  0.00000000E+00  0.00000000E+00
  0.00000000E+00  0.00000000E+00  0.00000000E+00
  0.00000000E+00  0.00000000E+00  0.00000000E+00
  0.00000000E+00  0.00000000E+00  0.00000000E+00
  0.00000000E+00  0.00000000E+00  0.00000000E+00
  0.00000000E+00  0.00000000E+00  0.00000000E+00
  0.00000000E+00  0.00000000E+00  0.00000000E+00
  0.00000000E+00  0.00000000E+00  0.00000000E+00
  0.00000000E+00  0.00000000E+00  0.00000000E+00
  0.00000000E+00  0.00000000E+00  0.00000000E+00
  0.00000000E+00  0.00000000E+00  0.00000000E+00
  0.00000000E+00  0.00000000E+00  0.00000000E+00
  0.00000000E+00  0.00000000E+00  0.00000000E+00
  0.00000000E+00  0.00000000E+00  0.00000000E+00
  0.00000000E+00  0.00000000E+00  0.00000000E+00
  0.00000000E+00  0.00000000E+00  0.00000000E+00
  0.00000000E+00  0.00000000E+00  0.00000000E+00
  0.00000000E+00  0.00000000E+00  0.00000000E+00
  0.00000000E+00  0.00000000E+00  0.00000000E+00
  0.00000000E+00  0.00000000E+00  0.00000000E+00
  0.00000000E+00  0.00000000E+00  0.00000000E+00
  0.00000000E+00  0.00000000E+00  0.00000000E+00
  0.00000000E+00  0.00000000E+00  0.00000000E+00
  0.00000000E+00  0.00000000E+00  0.00000000E+00
  0.00000000E+00  0.00000000E+00  0.00000000E+00
  0.00000000E+00  0.00000000E+00  0.00000000E+00
  0.00000000E+00  0.00000000E+00  0.00000000E+00
  0.00000000E+00  0.00000000E+00  0.00000000E+00
  0.00000000E+00  0.00000000E+00  0.00000000E+00
  0.00000000E+00  0.00000000E+00  0.00000000E+00
  0.00000000E+00  0.00000000E+00  0.00000000E+00
  0.00000000E+00  0.00000000E+00  0.00000000E+00
  0.00000000E+00  0.00000000E+00  0.00000000E+00
  0.00000000E+00  0.00000000E+00  0.00000000E+00
  0.00000000E+00  0.00000000E+00  0.00000000E+00
  0.00000000E+00  0.00000000E+00  0.00000000E+00
  0.00000000E+00  0.00000000E+00  0.00000000E+00
  0.00000000E+00  0.00000000E+00  0.00000000E+00
  0.00000000E+00  0.00000000E+00  0.00000000E+00
  0.00000000E+00  0.00000000E+00  0.00000000E+00
  0.00000000E+00  0.00000000E+00  0.00000000E+00
  0.00000000E+00  0.00000000E+00  0.00000000E+00
  0.00000000E+00  0.00000000E+00  0.00000000E+00
  0.00000000E+00  0.00000000E+00  0.00000000E+00
  0.00000000E+00  0.00000000E+00  0.00000000E+00
  0.00000000E+00  0.00000000E+00  0.00000000E+00
  0.00000000E+00  0.00000000E+00  0.00000000E+00
  0.00000000E+00  0.00000000E+00  0.00000000E+00
  0.00000000E+00  0.00000000E+00  0.00000000E+00
  0.00000000E+00  0.00000000E+00  0.00000000E+00
  0.00000000E+00  0.00000000E+00  0.00000000E+00
  0.00000000E+00  0.00000000E+00  0.00000000E+00
  0.00000000E+00  0.00000000E+00  0.00000000E+00
  0.00000000E+00  0.00000000E+00  0.00000000E+00
  0.00000000E+00  0.00000000E+00  0.00000000E+00
  0.00000000E+00  0.00000000E+00  0.00000000E+00
  0.00000000E+00  0.00000000E+00  0.00000000E+00
  0.00000000E+00  0.00000000E+00  0.00000000E+00
