supercell of 100% icsd_608626.cif, 0% i 
   1.00000000000000     
    -9.4265626669075289    0.0021030065675319    0.0010469464945395
    -4.7151025880286621    8.1667976793777708    0.0000002298756889
     0.0011181249403130    0.0006452687442057  -10.0570902604352366
   Si   Al   Ca   N 
     1    34     1    36
Direct
  0.1121431285959744  0.0939284728088126  0.2939535629717867
  0.2205282024686781  0.2051875732905444  0.0478688919457255
  0.7781540278512011  0.0944901912982985  0.7965368676076707
  0.8905624246475696  0.2047185952132651  0.5472493207285822
  0.4461639049818444  0.0923315797841227  0.2943275937908538
  0.5589223603300724  0.2049726034613286  0.0460003123620965
  0.1110128641387149  0.0944931631770629  0.7968939749050961
  0.2220569248631890  0.2025729193803869  0.5464646159578948
  0.7779128277258849  0.0918271698230200  0.2930318239382999
  0.8866073557922931  0.2066967597165288  0.0483615054095310
  0.4440950457685844  0.0947932538162419  0.7965434040842894
  0.5568798060092988  0.2038913081851277  0.5454848979062987
  0.1061482714324384  0.4272349835705640  0.2978999857942526
  0.7781536216483218  0.4273554271245601  0.7965366871742887
  0.8867021888334321  0.5397053205103362  0.5454441054865882
  0.4493305406186181  0.4253350746514499  0.2975172954055694
  0.5589219589735919  0.5361054656664024  0.0460002010774616
  0.1105389701158472  0.4268754533310215  0.7886112381899366
  0.2227611863393122  0.5386193196246296  0.5487076141958696
  0.7779124276199809  0.4302613433497555  0.2930318376100018
  0.8878837385485809  0.5363506612754492  0.0458359151159513
  0.4456956173996645  0.4271517546095680  0.7885018246603082
  0.5568793693822016  0.5392288876803875  0.5454848433989383
  0.1061486102379590  0.7666161002267700  0.2978999241987026
  0.2205280344749170  0.8742841971193016  0.0478689658429943
  0.7783603606348848  0.7608197898839677  0.7964153648988344
  0.8867025704771549  0.8735920075270087  0.5454440770405640
  0.4461637669501144  0.7615058107005410  0.2943276110097486
  0.5561291641346955  0.8719354825552728  0.0450426388519531
  0.1105393897820264  0.7625841358596119  0.7886114466048397
  0.2220568709610475  0.8753701298466297  0.5464645520572802
  0.7775908977801294  0.7612051960424466  0.2948990379438428
  0.8878839768344520  0.8757659685767862  0.0458361142645174
  0.4440948427815314  0.7611115284913268  0.7965434583503992
  0.5558360522648300  0.8720818985396050  0.5460603973769125
  0.2215732023869990  0.5392131545097527  0.0456518716605103
  0.2176798786812455  0.1957143315193690  0.3537211899553583
  0.1118101732027412  0.0940949310255093  0.1160657594494197
  0.8901707242586880  0.2049144606922937  0.8574825143929274
  0.7786298501011899  0.0952442702122198  0.6049477412777975
  0.5569801341658120  0.2021790837727764  0.3565323320125771
  0.4443096339472277  0.0944759003690834  0.1043591478250434
  0.2213639397628597  0.2055736236720520  0.8560931487677195
  0.1106536341147759  0.0946730795947772  0.6071648460295975
  0.9022266302521444  0.1988871271969614  0.3511452092857326
  0.7775855995425545  0.0942068829384581  0.1043738682508675
  0.5553254209869323  0.2060320009429120  0.8536717702985896
  0.4436339490412280  0.0945450846085407  0.6047359682531024
  0.2221405786497783  0.5389294780385683  0.3525702844548704
  0.0949802542099150  0.4115962977116254  0.1156564655285806
  0.8898121698659907  0.5382437856276781  0.8536430970053814
  0.7786294819616089  0.4261254828216750  0.6049475227990797
  0.5569796316059410  0.5408420203350417  0.3565322435495020
  0.4757698945671578  0.4121151186057546  0.1146909028272347
  0.2219233281384234  0.5390375606989224  0.8218688404834680
  0.1096605219047930  0.4243186118949609  0.5973821405580537
  0.8850619070487653  0.5411867496863536  0.3569804068620215
  0.7775851468543422  0.4282084553115268  0.1043738304350228
  0.5553249429587908  0.5386423226589869  0.8536716220330476
  0.4490445272930899  0.4254775174543468  0.5984081551444476
  0.2176797210906827  0.8866059373623258  0.3537211596025358
  0.0949805565261101  0.7934229506884733  0.1156565272389187
  0.8898126328304414  0.8719434608254133  0.8536433437549178
  0.7774261102360285  0.7612869134521461  0.6057637038714532
  0.5554143899879094  0.8722934477262569  0.3548983497830065
  0.4443094269032457  0.7612149248953273  0.1043591606272827
  0.2213637567640276  0.8730616662632116  0.8560932226702818
  0.1096607960903029  0.7660205402831792  0.5973823911385878
  0.8850622537818040  0.8737522024334226  0.3569804347041341
  0.7783210210895462  0.7608398104977141  0.1038220402269090
  0.5554791177000382  0.8722603385869760  0.8545708702590460
  0.4436337600978320  0.7618209483673226  0.6047360088250002
 
  0.00000000E+00  0.00000000E+00  0.00000000E+00
  0.00000000E+00  0.00000000E+00  0.00000000E+00
  0.00000000E+00  0.00000000E+00  0.00000000E+00
  0.00000000E+00  0.00000000E+00  0.00000000E+00
  0.00000000E+00  0.00000000E+00  0.00000000E+00
  0.00000000E+00  0.00000000E+00  0.00000000E+00
  0.00000000E+00  0.00000000E+00  0.00000000E+00
  0.00000000E+00  0.00000000E+00  0.00000000E+00
  0.00000000E+00  0.00000000E+00  0.00000000E+00
  0.00000000E+00  0.00000000E+00  0.00000000E+00
  0.00000000E+00  0.00000000E+00  0.00000000E+00
  0.00000000E+00  0.00000000E+00  0.00000000E+00
  0.00000000E+00  0.00000000E+00  0.00000000E+00
  0.00000000E+00  0.00000000E+00  0.00000000E+00
  0.00000000E+00  0.00000000E+00  0.00000000E+00
  0.00000000E+00  0.00000000E+00  0.00000000E+00
  0.00000000E+00  0.00000000E+00  0.00000000E+00
  0.00000000E+00  0.00000000E+00  0.00000000E+00
  0.00000000E+00  0.00000000E+00  0.00000000E+00
  0.00000000E+00  0.00000000E+00  0.00000000E+00
  0.00000000E+00  0.00000000E+00  0.00000000E+00
  0.00000000E+00  0.00000000E+00  0.00000000E+00
  0.00000000E+00  0.00000000E+00  0.00000000E+00
  0.00000000E+00  0.00000000E+00  0.00000000E+00
  0.00000000E+00  0.00000000E+00  0.00000000E+00
  0.00000000E+00  0.00000000E+00  0.00000000E+00
  0.00000000E+00  0.00000000E+00  0.00000000E+00
  0.00000000E+00  0.00000000E+00  0.00000000E+00
  0.00000000E+00  0.00000000E+00  0.00000000E+00
  0.00000000E+00  0.00000000E+00  0.00000000E+00
  0.00000000E+00  0.00000000E+00  0.00000000E+00
  0.00000000E+00  0.00000000E+00  0.00000000E+00
  0.00000000E+00  0.00000000E+00  0.00000000E+00
  0.00000000E+00  0.00000000E+00  0.00000000E+00
  0.00000000E+00  0.00000000E+00  0.00000000E+00
  0.00000000E+00  0.00000000E+00  0.00000000E+00
  0.00000000E+00  0.00000000E+00  0.00000000E+00
  0.00000000E+00  0.00000000E+00  0.00000000E+00
  0.00000000E+00  0.00000000E+00  0.00000000E+00
  0.00000000E+00  0.00000000E+00  0.00000000E+00
  0.00000000E+00  0.00000000E+00  0.00000000E+00
  0.00000000E+00  0.00000000E+00  0.00000000E+00
  0.00000000E+00  0.00000000E+00  0.00000000E+00
  0.00000000E+00  0.00000000E+00  0.00000000E+00
  0.00000000E+00  0.00000000E+00  0.00000000E+00
  0.00000000E+00  0.00000000E+00  0.00000000E+00
  0.00000000E+00  0.00000000E+00  0.00000000E+00
  0.00000000E+00  0.00000000E+00  0.00000000E+00
  0.00000000E+00  0.00000000E+00  0.00000000E+00
  0.00000000E+00  0.00000000E+00  0.00000000E+00
  0.00000000E+00  0.00000000E+00  0.00000000E+00
  0.00000000E+00  0.00000000E+00  0.00000000E+00
  0.00000000E+00  0.00000000E+00  0.00000000E+00
  0.00000000E+00  0.00000000E+00  0.00000000E+00
  0.00000000E+00  0.00000000E+00  0.00000000E+00
  0.00000000E+00  0.00000000E+00  0.00000000E+00
  0.00000000E+00  0.00000000E+00  0.00000000E+00
  0.00000000E+00  0.00000000E+00  0.00000000E+00
  0.00000000E+00  0.00000000E+00  0.00000000E+00
  0.00000000E+00  0.00000000E+00  0.00000000E+00
  0.00000000E+00  0.00000000E+00  0.00000000E+00
  0.00000000E+00  0.00000000E+00  0.00000000E+00
  0.00000000E+00  0.00000000E+00  0.00000000E+00
  0.00000000E+00  0.00000000E+00  0.00000000E+00
  0.00000000E+00  0.00000000E+00  0.00000000E+00
  0.00000000E+00  0.00000000E+00  0.00000000E+00
  0.00000000E+00  0.00000000E+00  0.00000000E+00
  0.00000000E+00  0.00000000E+00  0.00000000E+00
  0.00000000E+00  0.00000000E+00  0.00000000E+00
  0.00000000E+00  0.00000000E+00  0.00000000E+00
  0.00000000E+00  0.00000000E+00  0.00000000E+00
  0.00000000E+00  0.00000000E+00  0.00000000E+00
