supercell of 100% icsd_608626.cif, 0% i 
   1.00000000000000     
    -9.4303581371424432   -0.0006459436674572    0.0001776985257580
    -4.7146197867110287    8.1598797088115962    0.0036758044799830
     0.0001899311687153   -0.0044197481722876  -10.0613970570925755
   Al   Si   Ca   N 
    34     1     1    36
Direct
  0.1112674442531159  0.0946814343661515  0.2969933913019389
  0.2225204833418815  0.2034596108490874  0.0439651096746658
  0.7775074752360780  0.0939023110636583  0.7932868483326132
  0.8889505968428253  0.2057417350915287  0.5471077332501011
  0.4437221679993542  0.0952966060525924  0.2973303092137627
  0.5589856878830091  0.2019798740193863  0.0446850927418154
  0.1117956534241173  0.0941070808997893  0.7932993205021077
  0.2193625010167040  0.2048827338873238  0.5467899150504039
  0.7781360755794537  0.0942552277674196  0.2970673853057022
  0.8885132892362719  0.2038081304266015  0.0445601553774182
  0.4441390476390907  0.0945723550305715  0.7947862715370277
  0.5593996394889089  0.2051895613334338  0.5473859096450369
  0.1105597325833543  0.4264080210386112  0.2886244388244066
  0.2199847750508397  0.5411460457162889  0.0483291147128426
  0.7798023156820335  0.4270442568303068  0.7945086434541366
  0.8879648701284353  0.5363639614748621  0.5467430458223248
  0.4471568779055772  0.4276714769430896  0.2902633705399964
  0.1086324267783709  0.4252505598229632  0.7980554855339648
  0.7761920093370804  0.4285407677355764  0.2982414701733234
  0.8858771139939563  0.5419414939230975  0.0439677511610768
  0.4478209487261253  0.4241671029588829  0.7999148436985450
  0.5594400478400416  0.5362667428886354  0.5478083358938193
  0.1102231407805547  0.7625674946554355  0.2885805140319420
  0.2210836516541264  0.8731808344242964  0.0440369794786477
  0.7778439436312397  0.7613980748834521  0.7942268397994141
  0.8883152119502427  0.8756448772016583  0.5466396914005003
  0.4451705764264133  0.7590253584421376  0.2983467930826080
  0.5576161858425621  0.8718600353214541  0.0447771981048817
  0.1082987280581733  0.7658659747539431  0.7977876127819741
  0.2196769243584455  0.8754175337311025  0.5468115709157289
  0.7782964470941494  0.7610918720581736  0.2968985112627394
  0.8864766680571208  0.8740001174869363  0.0445603067259697
  0.4433417734965133  0.7632944651795981  0.7959033397647346
  0.5555654829732930  0.8723219271113365  0.5458706822182435
  0.5571642965419059  0.5390546084831911  0.0437904487333114
  0.2235226276271476  0.5379058845533251  0.5446107520342593
  0.2218013582868110  0.2063872733881169  0.3542747439876521
  0.1105692720127038  0.0946592741171912  0.1058559823072542
  0.8887647012604916  0.2055294930792257  0.8546670193857935
  0.7778427810090349  0.0945227865062108  0.6036788555461712
  0.5548413246425241  0.2073319666362465  0.3537142930315227
  0.4442742184006079  0.0942945621649685  0.1059996202584657
  0.2240774440152009  0.2019891796046238  0.8561748068109267
  0.1113795111959632  0.0941428155468031  0.6036231492354887
  0.8885510852673590  0.2066044708157051  0.3544209041388626
  0.7778525641189731  0.0949977088798732  0.1063550854527620
  0.5570164584254655  0.2020236163090559  0.8575119222510779
  0.4444901497239186  0.0950560036496739  0.6037322924057094
  0.2237381656308699  0.5377549109201212  0.3193761427039448
  0.1077512623827204  0.4254257906025458  0.0983882966733916
  0.8849409942207629  0.5411330145026838  0.8567439503788066
  0.7771150049384801  0.4286754244597901  0.6055975309932151
  0.5552381711779049  0.5383415256973052  0.3560364108382927
  0.4554719810715255  0.4321382494456998  0.0963612493432251
  0.2222650376396373  0.5387937879205111  0.8542835370296586
  0.0952926334139903  0.4127425296112932  0.6150033430474480
  0.8891914398415253  0.5380122070201949  0.3530495974498606
  0.7649419832341877  0.4340436914763828  0.1025997342134275
  0.5571634965037688  0.5405875396252213  0.8669052013931733
  0.4767733803115632  0.4128410840143317  0.6180967550015097
  0.2229426412443303  0.8711953506305790  0.3531145055697706
  0.1081613689091867  0.7662533050863587  0.0987414699633433
  0.8852911497854166  0.8737827463527097  0.8564332544832354
  0.7778239874023569  0.7611887139277727  0.6033773990721727
  0.5549350969827884  0.8717853167966183  0.3540996114719803
  0.4514024961262706  0.7478946637580108  0.1026441251308725
  0.2242431831226881  0.8734172782475937  0.8568377820088457
  0.0959960972686531  0.7915536513988783  0.6147925255799009
  0.8899249318929705  0.8716499957467789  0.3541434013547189
  0.7771110129960022  0.7617247244551919  0.1060948755721256
  0.5555997824141983  0.8720218455421147  0.8550379294560599
  0.4448969946706143  0.7601973536577660  0.6056775143772839
 
  0.00000000E+00  0.00000000E+00  0.00000000E+00
  0.00000000E+00  0.00000000E+00  0.00000000E+00
  0.00000000E+00  0.00000000E+00  0.00000000E+00
  0.00000000E+00  0.00000000E+00  0.00000000E+00
  0.00000000E+00  0.00000000E+00  0.00000000E+00
  0.00000000E+00  0.00000000E+00  0.00000000E+00
  0.00000000E+00  0.00000000E+00  0.00000000E+00
  0.00000000E+00  0.00000000E+00  0.00000000E+00
  0.00000000E+00  0.00000000E+00  0.00000000E+00
  0.00000000E+00  0.00000000E+00  0.00000000E+00
  0.00000000E+00  0.00000000E+00  0.00000000E+00
  0.00000000E+00  0.00000000E+00  0.00000000E+00
  0.00000000E+00  0.00000000E+00  0.00000000E+00
  0.00000000E+00  0.00000000E+00  0.00000000E+00
  0.00000000E+00  0.00000000E+00  0.00000000E+00
  0.00000000E+00  0.00000000E+00  0.00000000E+00
  0.00000000E+00  0.00000000E+00  0.00000000E+00
  0.00000000E+00  0.00000000E+00  0.00000000E+00
  0.00000000E+00  0.00000000E+00  0.00000000E+00
  0.00000000E+00  0.00000000E+00  0.00000000E+00
  0.00000000E+00  0.00000000E+00  0.00000000E+00
  0.00000000E+00  0.00000000E+00  0.00000000E+00
  0.00000000E+00  0.00000000E+00  0.00000000E+00
  0.00000000E+00  0.00000000E+00  0.00000000E+00
  0.00000000E+00  0.00000000E+00  0.00000000E+00
  0.00000000E+00  0.00000000E+00  0.00000000E+00
  0.00000000E+00  0.00000000E+00  0.00000000E+00
  0.00000000E+00  0.00000000E+00  0.00000000E+00
  0.00000000E+00  0.00000000E+00  0.00000000E+00
  0.00000000E+00  0.00000000E+00  0.00000000E+00
  0.00000000E+00  0.00000000E+00  0.00000000E+00
  0.00000000E+00  0.00000000E+00  0.00000000E+00
  0.00000000E+00  0.00000000E+00  0.00000000E+00
  0.00000000E+00  0.00000000E+00  0.00000000E+00
  0.00000000E+00  0.00000000E+00  0.00000000E+00
  0.00000000E+00  0.00000000E+00  0.00000000E+00
  0.00000000E+00  0.00000000E+00  0.00000000E+00
  0.00000000E+00  0.00000000E+00  0.00000000E+00
  0.00000000E+00  0.00000000E+00  0.00000000E+00
  0.00000000E+00  0.00000000E+00  0.00000000E+00
  0.00000000E+00  0.00000000E+00  0.00000000E+00
  0.00000000E+00  0.00000000E+00  0.00000000E+00
  0.00000000E+00  0.00000000E+00  0.00000000E+00
  0.00000000E+00  0.00000000E+00  0.00000000E+00
  0.00000000E+00  0.00000000E+00  0.00000000E+00
  0.00000000E+00  0.00000000E+00  0.00000000E+00
  0.00000000E+00  0.00000000E+00  0.00000000E+00
  0.00000000E+00  0.00000000E+00  0.00000000E+00
  0.00000000E+00  0.00000000E+00  0.00000000E+00
  0.00000000E+00  0.00000000E+00  0.00000000E+00
  0.00000000E+00  0.00000000E+00  0.00000000E+00
  0.00000000E+00  0.00000000E+00  0.00000000E+00
  0.00000000E+00  0.00000000E+00  0.00000000E+00
  0.00000000E+00  0.00000000E+00  0.00000000E+00
  0.00000000E+00  0.00000000E+00  0.00000000E+00
  0.00000000E+00  0.00000000E+00  0.00000000E+00
  0.00000000E+00  0.00000000E+00  0.00000000E+00
  0.00000000E+00  0.00000000E+00  0.00000000E+00
  0.00000000E+00  0.00000000E+00  0.00000000E+00
  0.00000000E+00  0.00000000E+00  0.00000000E+00
  0.00000000E+00  0.00000000E+00  0.00000000E+00
  0.00000000E+00  0.00000000E+00  0.00000000E+00
  0.00000000E+00  0.00000000E+00  0.00000000E+00
  0.00000000E+00  0.00000000E+00  0.00000000E+00
  0.00000000E+00  0.00000000E+00  0.00000000E+00
  0.00000000E+00  0.00000000E+00  0.00000000E+00
  0.00000000E+00  0.00000000E+00  0.00000000E+00
  0.00000000E+00  0.00000000E+00  0.00000000E+00
  0.00000000E+00  0.00000000E+00  0.00000000E+00
  0.00000000E+00  0.00000000E+00  0.00000000E+00
  0.00000000E+00  0.00000000E+00  0.00000000E+00
  0.00000000E+00  0.00000000E+00  0.00000000E+00
