supercell of 100% icsd_608626.cif, 0% i 
   1.00000000000000     
    -9.4241218944398089   -0.0110141172498873    0.0007593390506184
    -4.7025224214093075    8.1666599001844773    0.0002644964215514
     0.0008089125920282    0.0001446066378612  -10.0492821653964750
   Al   Ca   Si   N 
    34     1     1    36
Direct
  0.1140514449374876  0.0920242356075320  0.2951517757988711
  0.2220141212171285  0.2066222271511933  0.0457285573356216
  0.7772110360418694  0.0930416852109559  0.7951995762762678
  0.8928874081256382  0.1981723383935403  0.5490992209111738
  0.4427993424150358  0.0964156168982768  0.2952779595082191
  0.5561721392852164  0.2060111913283009  0.0459704160401557
  0.1136092239343398  0.0931728485618066  0.7958066035342455
  0.2223288797323590  0.2061395701872399  0.5456778901664521
  0.7817854706818252  0.0890850122080735  0.2956093521858634
  0.8893861967573784  0.2049577085504382  0.0386762402159562
  0.4445018110009258  0.0944623587677000  0.7957122752547434
  0.5563117347033000  0.2056311506468376  0.5457710141498566
  0.1121269555745172  0.4307976291087670  0.2961206348091068
  0.2218951292579519  0.5394587374568758  0.0454288984839479
  0.7776211837867493  0.4278053687758714  0.7964472837948193
  0.8918000103845074  0.5411728815170704  0.5481741564469615
  0.4387725184884133  0.4318969898634890  0.2953581719056615
  0.5562090969175557  0.5373457008874212  0.0403529723196172
  0.1129253869161886  0.4274383977244156  0.7950820045465363
  0.2219596862056008  0.5387568797177593  0.5444948655320019
  0.8895982771825146  0.5387859422917458  0.0389749291637500
  0.4430325036285012  0.4277774798580651  0.7947471081312614
  0.5494575826959291  0.5437600596468002  0.5492383866320409
  0.1100003012819570  0.7603016309340944  0.2965074818245768
  0.2198140177826886  0.8735056241964401  0.0473398689180087
  0.7768040012692765  0.7627651701428704  0.7952765989415980
  0.8874279594973871  0.8728466061465667  0.5444520085429119
  0.5563760735181376  0.8730536780940810  0.0477240808710917
  0.1110213995164528  0.7614480460491322  0.7952892527935944
  0.2230107302764495  0.8731339781824374  0.5455803065233624
  0.7814969752890804  0.7585024253188379  0.2951464462379079
  0.8887573086968032  0.8723000394125791  0.0457160596045796
  0.4427872831499400  0.7631963480958461  0.7955453604668321
  0.5544604005606644  0.8716890868196998  0.5468945690466924
  0.7787223147015396  0.4236391855607309  0.3000793293149400
  0.4393740592509232  0.7622478758094360  0.2962958092801671
  0.2225513260925283  0.2063354552973777  0.3541982176942824
  0.1109008995850900  0.0951319859108111  0.1038831530538644
  0.8910999307601415  0.2019769402861229  0.8483645970303400
  0.7758330792596766  0.0926185520968374  0.6067382805114789
  0.5567031955764534  0.2066740518812935  0.3538118689568961
  0.4446213475512693  0.0946402950603513  0.1055615965146828
  0.2231953905742472  0.2056190947102152  0.8553874104429795
  0.1156085075998732  0.0923063871003080  0.6067983783147426
  0.9097934122841735  0.1675392164779694  0.3657373538421496
  0.7783403017404851  0.0946621175229438  0.1036419051708961
  0.5551255846041272  0.2059707029079831  0.8552245962425076
  0.4451756368793340  0.0936738342317369  0.6034766655279498
  0.2225373345683010  0.5395690111142812  0.3544366223798789
  0.1106768435641641  0.4284782766656008  0.1038166883822811
  0.8906222560333532  0.5407144756901090  0.8483984322447498
  0.7765651079234601  0.4275289975008576  0.5995844396034684
  0.5178185379284201  0.5675396072616437  0.3611937448669522
  0.4446048034055963  0.4286817970943488  0.1044050626509616
  0.2221379322125330  0.5399734596957089  0.8549615281734475
  0.1143387324085268  0.4261370429315647  0.6064847640593456
  0.9046335684900981  0.5529512455067476  0.3644634663953639
  0.7779752037218230  0.4275899290049310  0.0766716282210780
  0.5513338532609140  0.5420899199193911  0.8504204113535181
  0.4434877687923660  0.4270683773096167  0.6048336061354149
  0.2330893669678460  0.8689312043158282  0.3506082762938973
  0.1107562830835107  0.7613844532764062  0.1059220162269341
  0.8894590324399445  0.8717184307409909  0.8552840712816305
  0.7744819654608222  0.7645004499972288  0.6057491764050909
  0.5482576652296700  0.8655971532342477  0.3509795588903728
  0.4440234729241865  0.7607899071370383  0.1155853678763563
  0.2230591608655033  0.8715442883471383  0.8575412931191551
  0.1110068809738038  0.7622375977607803  0.6029049965649662
  0.8871430150251314  0.8713060554584615  0.3539744296591323
  0.7777333314689869  0.7602197946715137  0.1041106439525947
  0.5544969094857279  0.8723449191618400  0.8575079115204503
  0.4423023965956645  0.7645932675968865  0.6073903749307163
 
  0.00000000E+00  0.00000000E+00  0.00000000E+00
  0.00000000E+00  0.00000000E+00  0.00000000E+00
  0.00000000E+00  0.00000000E+00  0.00000000E+00
  0.00000000E+00  0.00000000E+00  0.00000000E+00
  0.00000000E+00  0.00000000E+00  0.00000000E+00
  0.00000000E+00  0.00000000E+00  0.00000000E+00
  0.00000000E+00  0.00000000E+00  0.00000000E+00
  0.00000000E+00  0.00000000E+00  0.00000000E+00
  0.00000000E+00  0.00000000E+00  0.00000000E+00
  0.00000000E+00  0.00000000E+00  0.00000000E+00
  0.00000000E+00  0.00000000E+00  0.00000000E+00
  0.00000000E+00  0.00000000E+00  0.00000000E+00
  0.00000000E+00  0.00000000E+00  0.00000000E+00
  0.00000000E+00  0.00000000E+00  0.00000000E+00
  0.00000000E+00  0.00000000E+00  0.00000000E+00
  0.00000000E+00  0.00000000E+00  0.00000000E+00
  0.00000000E+00  0.00000000E+00  0.00000000E+00
  0.00000000E+00  0.00000000E+00  0.00000000E+00
  0.00000000E+00  0.00000000E+00  0.00000000E+00
  0.00000000E+00  0.00000000E+00  0.00000000E+00
  0.00000000E+00  0.00000000E+00  0.00000000E+00
  0.00000000E+00  0.00000000E+00  0.00000000E+00
  0.00000000E+00  0.00000000E+00  0.00000000E+00
  0.00000000E+00  0.00000000E+00  0.00000000E+00
  0.00000000E+00  0.00000000E+00  0.00000000E+00
  0.00000000E+00  0.00000000E+00  0.00000000E+00
  0.00000000E+00  0.00000000E+00  0.00000000E+00
  0.00000000E+00  0.00000000E+00  0.00000000E+00
  0.00000000E+00  0.00000000E+00  0.00000000E+00
  0.00000000E+00  0.00000000E+00  0.00000000E+00
  0.00000000E+00  0.00000000E+00  0.00000000E+00
  0.00000000E+00  0.00000000E+00  0.00000000E+00
  0.00000000E+00  0.00000000E+00  0.00000000E+00
  0.00000000E+00  0.00000000E+00  0.00000000E+00
  0.00000000E+00  0.00000000E+00  0.00000000E+00
  0.00000000E+00  0.00000000E+00  0.00000000E+00
  0.00000000E+00  0.00000000E+00  0.00000000E+00
  0.00000000E+00  0.00000000E+00  0.00000000E+00
  0.00000000E+00  0.00000000E+00  0.00000000E+00
  0.00000000E+00  0.00000000E+00  0.00000000E+00
  0.00000000E+00  0.00000000E+00  0.00000000E+00
  0.00000000E+00  0.00000000E+00  0.00000000E+00
  0.00000000E+00  0.00000000E+00  0.00000000E+00
  0.00000000E+00  0.00000000E+00  0.00000000E+00
  0.00000000E+00  0.00000000E+00  0.00000000E+00
  0.00000000E+00  0.00000000E+00  0.00000000E+00
  0.00000000E+00  0.00000000E+00  0.00000000E+00
  0.00000000E+00  0.00000000E+00  0.00000000E+00
  0.00000000E+00  0.00000000E+00  0.00000000E+00
  0.00000000E+00  0.00000000E+00  0.00000000E+00
  0.00000000E+00  0.00000000E+00  0.00000000E+00
  0.00000000E+00  0.00000000E+00  0.00000000E+00
  0.00000000E+00  0.00000000E+00  0.00000000E+00
  0.00000000E+00  0.00000000E+00  0.00000000E+00
  0.00000000E+00  0.00000000E+00  0.00000000E+00
  0.00000000E+00  0.00000000E+00  0.00000000E+00
  0.00000000E+00  0.00000000E+00  0.00000000E+00
  0.00000000E+00  0.00000000E+00  0.00000000E+00
  0.00000000E+00  0.00000000E+00  0.00000000E+00
  0.00000000E+00  0.00000000E+00  0.00000000E+00
  0.00000000E+00  0.00000000E+00  0.00000000E+00
  0.00000000E+00  0.00000000E+00  0.00000000E+00
  0.00000000E+00  0.00000000E+00  0.00000000E+00
  0.00000000E+00  0.00000000E+00  0.00000000E+00
  0.00000000E+00  0.00000000E+00  0.00000000E+00
  0.00000000E+00  0.00000000E+00  0.00000000E+00
  0.00000000E+00  0.00000000E+00  0.00000000E+00
  0.00000000E+00  0.00000000E+00  0.00000000E+00
  0.00000000E+00  0.00000000E+00  0.00000000E+00
  0.00000000E+00  0.00000000E+00  0.00000000E+00
  0.00000000E+00  0.00000000E+00  0.00000000E+00
  0.00000000E+00  0.00000000E+00  0.00000000E+00
