supercell of 100% icsd_608626.cif, 0% i 
   1.00000000000000     
    -9.4428729196439054   -0.0001899059151788   -0.0004948448891026
    -4.7212719949615831    8.1558327036412752    0.0002643500522241
    -0.0005297091807749   -0.0006280624714702  -10.0492821733988222
   Al   Si   Ca   N 
    34     1     1    36
Direct
  0.1135194061714557  0.0933195301058589  0.2973397813835987
  0.2197238778761985  0.2067820237825657  0.0458066502744714
  0.7838759751745883  0.0932180356690182  0.7992380986055281
  0.4439471877283125  0.0943443281629541  0.2886760372871606
  0.5557122720600489  0.2054267297808536  0.0464472946066223
  0.1103232725152523  0.0961443982874854  0.7955803380451911
  0.2192816043052233  0.2060754915509619  0.5451518449288386
  0.7771245798297883  0.0935548058487470  0.2903532607807975
  0.8905459935653539  0.2059837811870722  0.0455453123922567
  0.4404463007983850  0.0910597401605457  0.7990994415666819
  0.1113188945072636  0.4286363392980093  0.2957284492969094
  0.2204075682939717  0.5403638585512311  0.0450819484570602
  0.7788734454151296  0.4261494432049986  0.7968945168044712
  0.8905334896759811  0.5392152762138949  0.5452780891110294
  0.4437347657726463  0.4283843980788902  0.2889750285675703
  0.5565292303708134  0.5395690484774889  0.0452766602706660
  0.1110046677987029  0.4284683567290983  0.7956779981709019
  0.2212060540094640  0.5429240824755581  0.5461207409851383
  0.7769573522569573  0.4294298184142136  0.2977241091408516
  0.8888312429322198  0.5389644227868757  0.0457122185522181
  0.4415335062730392  0.4329730954568802  0.7981739386406446
  0.5518364644381109  0.5399991388123127  0.5451462314407607
  0.1114379721832393  0.7613537460758337  0.2954289322503385
  0.2223117531156404  0.8724691805580775  0.0452891824236801
  0.7770219649110999  0.7619431138435786  0.7957711041895124
  0.8945607160178923  0.8706692668449989  0.5453582252517393
  0.4445759271808782  0.7610574878170695  0.2957160437514474
  0.5561221888509280  0.8702527399915425  0.0451997327919642
  0.1113737086983306  0.7607165365763251  0.7944948598339039
  0.2233330853200357  0.8703012137584665  0.5465074612091811
  0.7771611237652465  0.7621834591303838  0.2959703857603699
  0.8903004977993518  0.8708104359177824  0.0447470692041421
  0.4459058973300216  0.7602744692898966  0.7944520160210402
  0.5515473788534209  0.8708708165888126  0.5456092536712518
  0.8939595074585327  0.2016216451645292  0.5462957970517905
  0.5546111135765841  0.2023612583524610  0.5500793724642747
  0.2224323967428177  0.2060329605519584  0.3538831517701126
  0.1102739351211000  0.0946032431960262  0.1075412323956755
  0.8910315454604500  0.2068956422190809  0.8573903210102927
  0.8155149916630435  0.0853579396299509  0.6111935058152582
  0.5553584407961694  0.2055652868984197  0.3266716477786105
  0.4422333129130323  0.0930770914034156  0.0983644110412172
  0.2177251713793922  0.2079148611470245  0.8567984736876184
  0.1002441751362468  0.1020199227537901  0.6006083539077238
  0.8893102149908856  0.2048133918385417  0.3655853868817758
  0.7819995423940469  0.0934239909215933  0.1004206818237279
  0.5567686061043347  0.2040943100084789  0.8495844075995720
  0.4235395208766093  0.0773328545658742  0.6157375641858138
  0.2226560619545808  0.5391550256060853  0.3538167554989968
  0.1101375035529060  0.4288145522595528  0.1053873460898487
  0.8881579609712134  0.5388496758199892  0.8534766933232802
  0.7850758014770634  0.4138546053605054  0.6009795474749140
  0.5556000902997269  0.5379531525932748  0.3541104523855765
  0.4427106524489020  0.4313369040426096  0.0983984739342674
  0.2189947602056392  0.5404757872090471  0.8564847227745815
  0.1107814041838751  0.4288865858819548  0.6041983570619820
  0.8887119135362624  0.5392618882761582  0.3555617341191279
  0.7788363514254257  0.4268418930709785  0.1075079207469187
  0.5588519304683999  0.5389822665154469  0.8557491309049539
  0.4286995418861466  0.4575847839445046  0.6144631689286086
  0.2225768449673140  0.8721406332715560  0.3559219681313195
  0.1111948792186652  0.7621114607630943  0.1049615879281731
  0.8898456551302942  0.8705566765498389  0.8548336465926951
  0.7766296706983979  0.7633775140658869  0.6038119720211981
  0.5549929486478362  0.8730027988998614  0.3536417848456921
  0.4438741027763200  0.7611773723579134  0.1052840065972873
  0.2223268570737247  0.8732441642633120  0.8529049130832931
  0.1107958333204095  0.7621058295665151  0.6044366825123504
  0.8887285221388908  0.8732865269101424  0.3544051903300272
  0.7782076770815465  0.7610964934452937  0.1052246052200019
  0.5575008064191209  0.8684515466987577  0.8567383974854224
  0.4461903897091233  0.7584488545483055  0.6039743789280081
 
  0.00000000E+00  0.00000000E+00  0.00000000E+00
  0.00000000E+00  0.00000000E+00  0.00000000E+00
  0.00000000E+00  0.00000000E+00  0.00000000E+00
  0.00000000E+00  0.00000000E+00  0.00000000E+00
  0.00000000E+00  0.00000000E+00  0.00000000E+00
  0.00000000E+00  0.00000000E+00  0.00000000E+00
  0.00000000E+00  0.00000000E+00  0.00000000E+00
  0.00000000E+00  0.00000000E+00  0.00000000E+00
  0.00000000E+00  0.00000000E+00  0.00000000E+00
  0.00000000E+00  0.00000000E+00  0.00000000E+00
  0.00000000E+00  0.00000000E+00  0.00000000E+00
  0.00000000E+00  0.00000000E+00  0.00000000E+00
  0.00000000E+00  0.00000000E+00  0.00000000E+00
  0.00000000E+00  0.00000000E+00  0.00000000E+00
  0.00000000E+00  0.00000000E+00  0.00000000E+00
  0.00000000E+00  0.00000000E+00  0.00000000E+00
  0.00000000E+00  0.00000000E+00  0.00000000E+00
  0.00000000E+00  0.00000000E+00  0.00000000E+00
  0.00000000E+00  0.00000000E+00  0.00000000E+00
  0.00000000E+00  0.00000000E+00  0.00000000E+00
  0.00000000E+00  0.00000000E+00  0.00000000E+00
  0.00000000E+00  0.00000000E+00  0.00000000E+00
  0.00000000E+00  0.00000000E+00  0.00000000E+00
  0.00000000E+00  0.00000000E+00  0.00000000E+00
  0.00000000E+00  0.00000000E+00  0.00000000E+00
  0.00000000E+00  0.00000000E+00  0.00000000E+00
  0.00000000E+00  0.00000000E+00  0.00000000E+00
  0.00000000E+00  0.00000000E+00  0.00000000E+00
  0.00000000E+00  0.00000000E+00  0.00000000E+00
  0.00000000E+00  0.00000000E+00  0.00000000E+00
  0.00000000E+00  0.00000000E+00  0.00000000E+00
  0.00000000E+00  0.00000000E+00  0.00000000E+00
  0.00000000E+00  0.00000000E+00  0.00000000E+00
  0.00000000E+00  0.00000000E+00  0.00000000E+00
  0.00000000E+00  0.00000000E+00  0.00000000E+00
  0.00000000E+00  0.00000000E+00  0.00000000E+00
  0.00000000E+00  0.00000000E+00  0.00000000E+00
  0.00000000E+00  0.00000000E+00  0.00000000E+00
  0.00000000E+00  0.00000000E+00  0.00000000E+00
  0.00000000E+00  0.00000000E+00  0.00000000E+00
  0.00000000E+00  0.00000000E+00  0.00000000E+00
  0.00000000E+00  0.00000000E+00  0.00000000E+00
  0.00000000E+00  0.00000000E+00  0.00000000E+00
  0.00000000E+00  0.00000000E+00  0.00000000E+00
  0.00000000E+00  0.00000000E+00  0.00000000E+00
  0.00000000E+00  0.00000000E+00  0.00000000E+00
  0.00000000E+00  0.00000000E+00  0.00000000E+00
  0.00000000E+00  0.00000000E+00  0.00000000E+00
  0.00000000E+00  0.00000000E+00  0.00000000E+00
  0.00000000E+00  0.00000000E+00  0.00000000E+00
  0.00000000E+00  0.00000000E+00  0.00000000E+00
  0.00000000E+00  0.00000000E+00  0.00000000E+00
  0.00000000E+00  0.00000000E+00  0.00000000E+00
  0.00000000E+00  0.00000000E+00  0.00000000E+00
  0.00000000E+00  0.00000000E+00  0.00000000E+00
  0.00000000E+00  0.00000000E+00  0.00000000E+00
  0.00000000E+00  0.00000000E+00  0.00000000E+00
  0.00000000E+00  0.00000000E+00  0.00000000E+00
  0.00000000E+00  0.00000000E+00  0.00000000E+00
  0.00000000E+00  0.00000000E+00  0.00000000E+00
  0.00000000E+00  0.00000000E+00  0.00000000E+00
  0.00000000E+00  0.00000000E+00  0.00000000E+00
  0.00000000E+00  0.00000000E+00  0.00000000E+00
  0.00000000E+00  0.00000000E+00  0.00000000E+00
  0.00000000E+00  0.00000000E+00  0.00000000E+00
  0.00000000E+00  0.00000000E+00  0.00000000E+00
  0.00000000E+00  0.00000000E+00  0.00000000E+00
  0.00000000E+00  0.00000000E+00  0.00000000E+00
  0.00000000E+00  0.00000000E+00  0.00000000E+00
  0.00000000E+00  0.00000000E+00  0.00000000E+00
  0.00000000E+00  0.00000000E+00  0.00000000E+00
  0.00000000E+00  0.00000000E+00  0.00000000E+00
