POSCAR                                  
   1.03262200000000     
     9.5289090229200006   -5.4716772216200003    0.0111944788900000
     4.7507337685700000   -8.2192027486299999   -4.9165786622900001
     4.7667576168199997    2.7512787515400001   -4.9198778629200000
   Sc   Al   N 
     7    17    24
Direct
  0.2557202654168904  0.4193176141053527  0.0852114012825211
  0.7264329882737357  0.4241795889838329  0.1056885525882407
  0.0868949327371595  0.2408620046359928  0.2552104800330639
  0.9068523959038828  0.6024314612418564  0.9201199813988978
  0.8076761799783512  0.6911504700561153  0.3598348664846682
  0.9991308056507364  0.3274825739072682  0.6845526958154835
  0.9862713382552499  0.8588627811970682  0.1725418553174691
  0.5730387101006116  0.2553323165060846  0.2525457914493003
  0.9198676938974799  0.0823139057363491  0.4254679388268201
  0.2574886655976911  0.9053041984504162  0.5846535760785869
  0.4202970531875394  0.0807442860378629  0.4145995127874897
  0.7553098586683831  0.9213868586552962  0.5833174607703100
  0.0862531592911182  0.7571906720793606  0.7402401861069308
  0.5704869297400066  0.7549532674784984  0.7539445975778065
  0.4120824294784668  0.5845950263128898  0.9121654906798042
  0.3272550153960481  0.6707075171820165  0.3375011426160057
  0.6562848237891430  0.5004343817678247  0.5126996238996355
  0.1792263486293919  0.4938772959149560  0.5097014379301825
  0.5047749115125555  0.3317123816840422  0.6568066293868284
  0.8272553645916858  0.1659559036212315  0.8327488145002917
  0.3509882157003261  0.1542035816553522  0.8163985838280965
  0.6606410002937082  0.0121357166381273  0.9850808241846991
  0.1747796265761821  0.9892362976725337  0.9977591026982537
  0.4944708988481565  0.8380491327825013  0.1581985454656873
  0.4552643863903967  0.2141165027366156  0.8639320121321319
  0.9442250101692125  0.1975553091391262  0.9124620687281464
  0.2906419837525434  0.0452495635394996  0.0279200568404221
  0.7444747423460285  0.0843698667065667  0.0506393872145665
  0.1208624362934003  0.9000584958309119  0.2349094925065742
  0.4494837978127748  0.7158245746088880  0.3837431140548375
  0.5916465789685077  0.9115710587162908  0.1987320040418439
  0.9602650005219004  0.7152055205812076  0.4121897435493196
  0.2821402276992941  0.5576686350706979  0.5586677652558194
  0.7536333692688544  0.5580705815030242  0.5759745644485506
  0.1319965436349264  0.3809553456528931  0.7241756178939980
  0.6052369588539719  0.3883764058878043  0.7281325509704146
  0.0193331363534170  0.4813087717626701  0.1572783030061657
  0.4892299574392922  0.4867666681263216  0.1477594112095204
  0.8458816420055300  0.3059455856435420  0.3386186853751383
  0.3666815527605465  0.2962202124404243  0.3331172190320473
  0.7017008416354784  0.1377647543458167  0.4589433597547981
  0.0280282579937676  0.9764045168703035  0.6397822244627349
  0.2206910226285999  0.1100777049294877  0.4840102242242423
  0.5488389228363317  0.9543580826609244  0.6222524688602959
  0.8587882625999370  0.8326560723804448  0.7929394144836124
  0.3590845086939467  0.8015079405114136  0.8062839055880673
  0.6767509405576746  0.6531823560837324  0.9648295426021036
  0.1876403072691630  0.6603662399685888  0.9537177720576295
 
  0.00000000E+00  0.00000000E+00  0.00000000E+00
  0.00000000E+00  0.00000000E+00  0.00000000E+00
  0.00000000E+00  0.00000000E+00  0.00000000E+00
  0.00000000E+00  0.00000000E+00  0.00000000E+00
  0.00000000E+00  0.00000000E+00  0.00000000E+00
  0.00000000E+00  0.00000000E+00  0.00000000E+00
  0.00000000E+00  0.00000000E+00  0.00000000E+00
  0.00000000E+00  0.00000000E+00  0.00000000E+00
  0.00000000E+00  0.00000000E+00  0.00000000E+00
  0.00000000E+00  0.00000000E+00  0.00000000E+00
  0.00000000E+00  0.00000000E+00  0.00000000E+00
  0.00000000E+00  0.00000000E+00  0.00000000E+00
  0.00000000E+00  0.00000000E+00  0.00000000E+00
  0.00000000E+00  0.00000000E+00  0.00000000E+00
  0.00000000E+00  0.00000000E+00  0.00000000E+00
  0.00000000E+00  0.00000000E+00  0.00000000E+00
  0.00000000E+00  0.00000000E+00  0.00000000E+00
  0.00000000E+00  0.00000000E+00  0.00000000E+00
  0.00000000E+00  0.00000000E+00  0.00000000E+00
  0.00000000E+00  0.00000000E+00  0.00000000E+00
  0.00000000E+00  0.00000000E+00  0.00000000E+00
  0.00000000E+00  0.00000000E+00  0.00000000E+00
  0.00000000E+00  0.00000000E+00  0.00000000E+00
  0.00000000E+00  0.00000000E+00  0.00000000E+00
  0.00000000E+00  0.00000000E+00  0.00000000E+00
  0.00000000E+00  0.00000000E+00  0.00000000E+00
  0.00000000E+00  0.00000000E+00  0.00000000E+00
  0.00000000E+00  0.00000000E+00  0.00000000E+00
  0.00000000E+00  0.00000000E+00  0.00000000E+00
  0.00000000E+00  0.00000000E+00  0.00000000E+00
  0.00000000E+00  0.00000000E+00  0.00000000E+00
  0.00000000E+00  0.00000000E+00  0.00000000E+00
  0.00000000E+00  0.00000000E+00  0.00000000E+00
  0.00000000E+00  0.00000000E+00  0.00000000E+00
  0.00000000E+00  0.00000000E+00  0.00000000E+00
  0.00000000E+00  0.00000000E+00  0.00000000E+00
  0.00000000E+00  0.00000000E+00  0.00000000E+00
  0.00000000E+00  0.00000000E+00  0.00000000E+00
  0.00000000E+00  0.00000000E+00  0.00000000E+00
  0.00000000E+00  0.00000000E+00  0.00000000E+00
  0.00000000E+00  0.00000000E+00  0.00000000E+00
  0.00000000E+00  0.00000000E+00  0.00000000E+00
  0.00000000E+00  0.00000000E+00  0.00000000E+00
  0.00000000E+00  0.00000000E+00  0.00000000E+00
  0.00000000E+00  0.00000000E+00  0.00000000E+00
  0.00000000E+00  0.00000000E+00  0.00000000E+00
  0.00000000E+00  0.00000000E+00  0.00000000E+00
  0.00000000E+00  0.00000000E+00  0.00000000E+00
