supercell of POSCAR                     
   1.01800000000000     
     3.1310994802600001   -5.4896946145000003   10.0244832682999991
    -9.4821132118399998   -5.5089477087900001    0.0170740616273000
     6.3359946057599998  -11.0114127993000004  -10.0652216442999993
   Al   Gd   N 
    83    12    96
Direct
  0.0916876450389594  0.5813737530730734  0.3301733203337989
  0.5011369183816470  0.3240275255886473  0.2549432437316241
  0.0876695360866577  0.0824683051625286  0.3335301894685330
  0.2570541223324909  0.5778324747366383  0.4918636506544232
  0.3320433395211140  0.3231603560492573  0.0794335968387045
  0.4182796314442285  0.0869261748071892  0.1694332155424974
  0.0084983850379317  0.8416714857937819  0.2547259018169328
  0.1685458650853349  0.3304687381388973  0.4118282685308472
  0.2485910354461680  0.0850956967939140  0.4953897592376322
  0.1639745033732183  0.8339015033860733  0.4151653433499760
  0.1435556440267831  0.6722185338656672  0.1630119898887727
  0.2448222570704743  0.3968787336618220  0.2499929040949311
  0.3354083116290667  0.1627524459303231  0.3332327404594366
  0.0110797020013322  0.6717277128620083  0.4942360723781078
  0.1673467378723146  0.1552709740626739  0.1670554858469373
  0.2545888648524226  0.9185810011529867  0.2532005738097851
  0.4150208590493563  0.4128906591976147  0.4149302813212330
  0.5004018711531799  0.1587691844890031  0.4971145160904342
  0.0815383735588000  0.9218392684782302  0.0790895730291723
  0.4238978738007120  0.9187630326780507  0.4111792267985734
  0.0886237434443728  0.5863742340860938  0.8355746848600063
  0.4987774999799868  0.3239055718634418  0.7540398912893806
  0.0853710598923101  0.0858932191513446  0.8349394272267503
  0.2512180034650058  0.5788388088504064  0.9971113478124991
  0.3312622425930698  0.3172206169575986  0.5770704588825097
  0.4169105998522085  0.0865022048263100  0.6703898737185199
  0.0063694074584930  0.8441841417718692  0.7561696424117557
  0.1664471862364820  0.3334485904957418  0.9138294321656772
  0.2482091923625731  0.0868538184664516  0.9965584822600704
  0.1616646179228667  0.8377770066151342  0.9167804527546011
  0.3351038429890636  0.6749539259578086  0.8396153801352852
  0.1549056642297728  0.6761686568493062  0.6657655357800394
  0.2492066495567542  0.4032765502176403  0.7519822320287162
  0.3334083704975086  0.1661962733098150  0.8338987185470046
  0.0016435297533306  0.6762463873369029  0.9927957572239663
  0.1666540002888581  0.1594928775523030  0.6691894154485851
  0.2520030444634145  0.9209555804447902  0.7552267417894996
  0.4116680620849280  0.4172156929579600  0.9154474683890825
  0.4982049171306215  0.1664453464780209  0.9969254732549686
  0.0842918672947377  0.9229414613566220  0.5798597013029934
  0.4190982259288774  0.9227117543096313  0.9109206204998941
  0.6046513279311654  0.5818764717158373  0.3352586658158074
  0.0011177201927666  0.3192208544837740  0.2554440835192224
  0.5879609614931383  0.0859993005807027  0.3339743485329194
  0.7550368102084875  0.5782695440120946  0.4965920772489341
  0.8309355695321230  0.3194458119030941  0.0784951621755923
  0.9182855867621171  0.0852898189604829  0.1695057452791033
  0.5178559971992129  0.8501067665701783  0.2516748034319889
  0.6697702109217971  0.3304316123171560  0.4126859617485792
  0.7492835435211589  0.0853044143900803  0.4960298649638517
  0.6640409897533104  0.8345481432495347  0.4148542485896414
  0.8421787340504423  0.6704742980357636  0.3423698501866994
  0.6295534690595233  0.6803463084619068  0.1740883442785233
  0.7547236071758761  0.3974388853735391  0.2546001532255460
  0.8368135060286548  0.1612510287501507  0.3346339041492854
  0.5088948262472996  0.6714347151848656  0.4946155584796443
  0.6679877254594615  0.1609869162283886  0.1686227015473207
  0.7562675970900159  0.9217454989950227  0.2543083532668646
  0.9145776810669730  0.4126361339565676  0.4157775817526854
  0.9997808677556037  0.1604115459513409  0.4969401311413435
  0.5845542113990447  0.9289531500223092  0.0768203927382487
  0.9216288523179585  0.9177850973466093  0.4114400537218188
  0.5873622040386977  0.5860942732983432  0.8346678622536530
  0.9991881357155208  0.3233561896040484  0.7554172088051416
  0.5853075361586804  0.0867717480442209  0.8340614151982777
  0.7465971993934915  0.5781317023641108  0.9967147071118916
  0.8317731206395607  0.3180633245761655  0.5788957700225410
  0.9171711115131274  0.0871284671044421  0.6710318118619938
  0.5065498546245095  0.8438656814399934  0.7543405039288373
  0.6660084113840057  0.3334631247645135  0.9135185902181817
  0.7485480384840670  0.0879432329609671  0.9955982035532571
  0.6601016331464322  0.8379201091342878  0.9155904724369748
  0.8340681087994923  0.6748225487765467  0.8404816686040562
  0.6570508210622847  0.6760576659225066  0.6677931722333170
  0.7482420726016059  0.4032935177879153  0.7519202654370858
  0.8336528769959699  0.1666447390542984  0.8339526660040164
  0.5031015114522788  0.6750522912960477  0.9950967254975254
  0.6664472896549682  0.1604903403116467  0.6686820658298913
  0.7521973228305043  0.9220354952211096  0.7556581386899452
  0.9112475477693494  0.4168281720330782  0.9164312565796635
  0.9988150502613564  0.1643232000478179  0.9973580404499103
  0.5853912521496696  0.9223084512694939  0.5795615823850753
  0.9175655544055701  0.9222195852834432  0.9126962307393853
  0.3829962745518003  0.5911350135666638  0.2008406636071172
  0.3344286996683010  0.8288223283894212  0.0831320454467956
  0.0806685310468609  0.4271020703275354  0.0904815562419898
  0.3973352830958561  0.5806418038868770  0.6772552005822234
  0.3342019546258896  0.8349600162350086  0.5815308368710106
  0.0825704503518025  0.4206300087953849  0.5839702567042195
  0.8858892722957492  0.5794845126099588  0.1810703518154853
  0.8247062465374384  0.8267881814556972  0.0857831009611587
  0.5764185863551035  0.4317244588545393  0.0895192196800849
  0.9000636332963339  0.5788359645120522  0.6801883470237513
  0.8347245208799805  0.8350150956913325  0.5834358624300222
  0.5776535306362121  0.4226695359274260  0.5815395476379237
  0.1916324788592476  0.5600305681447679  0.2489387646797070
  0.0171388165986315  0.6181510449037404  0.0981512650107703
  0.1285525987952809  0.3081749697070393  0.1985022283991995
  0.2137239325177447  0.0810552756568583  0.2706140497951424
  0.3955970849227199  0.5694233929578374  0.4514492578889531
  0.4494616196928902  0.3242387823507542  0.0109975173925392
  0.0408662340881492  0.0841488276912870  0.1019804915680353
  0.1320057292472754  0.8417763728395613  0.1852508026595459
  0.2964261449075138  0.3279777173275349  0.3511265599575921
  0.3781893445118953  0.0800475437639108  0.4350598080103580
  0.4769033735401464  0.8419722652659658  0.0058088464139772
  0.2916876264306723  0.8539182016127143  0.3580191507963377
  0.5300057376621226  0.6871143159550002  0.2640630275636511
  0.2582362050916629  0.6527010180647821  0.0971748335524438
  0.3769120658853851  0.3889537949943644  0.1859497034168456
  0.4631958575605140  0.1628194282362969  0.2730253552021082
  0.1371645889128814  0.6623638639717768  0.4309322494317769
  0.2207716611197128  0.4124059432813496  0.0106965248229614
  0.2918223283118522  0.1591937601473461  0.1016333385720358
  0.3876310421429210  0.9258645096934330  0.2000074535588467
  0.0425359065757718  0.4153098570616152  0.3527057382196332
  0.1276947060634086  0.1686001318944435  0.4341397410844294
  0.1983345391472113  0.9306882230888860  0.0112763958108815
  0.0492675657975781  0.9223628043109642  0.3524688329661814
  0.2166779032608019  0.5824175010199397  0.7665881303332043
  0.0330071247278312  0.6125402713750034  0.6017160547429796
  0.1290011098771657  0.3182764925293355  0.6997894989762088
  0.2116663828836494  0.0836112904416595  0.7721819875645366
  0.3787412707992388  0.5855423254520531  0.9360662004387237
  0.4481899271950383  0.3136006893357859  0.5098909287356648
  0.0407219625311797  0.0847727384098889  0.6039730939066672
  0.1309352500922998  0.8431850658567939  0.6866675400073632
  0.2946227163397594  0.3314316347496131  0.8524992963073572
  0.3764668636043780  0.0836797162763361  0.9346313483000230
  0.4791539815138108  0.8374177420710467  0.5075175432498256
  0.2915619242367455  0.8368153500984548  0.8559339170908871
  0.4695289163820675  0.6860755707658086  0.7863048600719225
  0.2621584750269861  0.6557150379625156  0.5940845375567179
  0.3725437392937323  0.3828360448849182  0.6844162748394780
  0.4609675492276040  0.1639465628289258  0.7732102555703548
  0.1327588248935214  0.6666419930656247  0.9340258679110036
  0.2233783102928513  0.4098793111327836  0.5088467705869775
  0.2895314757775722  0.1564387011472164  0.6019461061697342
  0.3834193761637934  0.9276159308455760  0.7009223022538364
  0.0413085580331796  0.4209121668256088  0.8520285814846460
  0.1267677178910986  0.1713140684376171  0.9347580146455670
  0.1971803179870335  0.9303250938835532  0.5106007807216102
  0.0474988377244188  0.9251656282219898  0.8534738168737448
  0.7360558130181118  0.5683306619285133  0.2752382355452454
  0.5096010251175471  0.6179039229643308  0.1014450103671010
  0.6318337963188512  0.3188792467757082  0.2001327270618276
  0.7143086131506990  0.0837382680275738  0.2719919189594435
  0.8864874265244396  0.5818622704047627  0.4407207248534490
  0.9502319512460389  0.3229334558092063  0.0117171949156258
  0.5410633867472967  0.0896922999200811  0.1021139244840725
  0.6388145613100420  0.8559002532508444  0.1796894994305731
  0.7987956005728094  0.3240263989910090  0.3544830465350870
  0.8784370116838005  0.0782625445576315  0.4358570699521209
  0.9708795928911940  0.8405359466718139  0.0081861795546629
  0.7944027175728223  0.8337707417593734  0.3552918034356694
  0.9724700965873936  0.6847534665101662  0.2867357245163191
  0.7428867783332649  0.6482431863504630  0.0991925291820550
  0.8771302781280141  0.3799821055464250  0.1853964260380323
  0.9627260043800518  0.1591638221708536  0.2737277722460760
  0.6383015318106970  0.6644565829752480  0.4352278800748834
  0.7201850682516948  0.4113618250164706  0.0107666955998909
  0.7910249880802382  0.1574181533704859  0.1015353939698471
  0.8869714484283548  0.9262493459402492  0.1999594167712431
  0.5459648831338555  0.4181401658615655  0.3520242244824274
  0.6282779469132151  0.1692991588269592  0.4350765538889405
  0.6993951423398173  0.9325346859206505  0.0082520751129636
  0.5512793414450314  0.9249714983930630  0.3522396990336460
  0.7174610079796864  0.5823842557929169  0.7677270969193941
  0.5356455583546307  0.6154582471331693  0.6041194649574990
  0.6281566404553161  0.3199266779038226  0.6977104886324668
  0.7118176047118681  0.0850349716902841  0.7718392399080045
  0.8769900744213572  0.5853830020380855  0.9374692722330025
  0.9495424461796134  0.3175632568977065  0.5118346819712656
  0.5413607854243025  0.0838125505720200  0.6039436788818549
  0.6328327308253634  0.8437848021610392  0.6863790105449965
  0.7943474387282166  0.3315642626909892  0.8525693622584711
  0.8766682572299942  0.0843494934354965  0.9344351011930669
  0.9780125611566959  0.8362643906595579  0.5077718020447364
  0.7909054171341978  0.8367677951598012  0.8557679085914032
  0.9699046315152842  0.6863720245338101  0.7882710817783334
  0.7662989765830659  0.6547635991622300  0.5973464165326021
  0.8727231488461129  0.3818127184237738  0.6860306226963928
  0.9615478165332405  0.1635625842932669  0.7739979043442986
  0.6314627541731994  0.6663539721818950  0.9332150467612621
  0.7244505926140974  0.4115013915062917  0.5100516461689821
  0.7900671248621691  0.1569096950060427  0.6021529159261405
  0.8841860225101144  0.9285782444274915  0.7021195730397594
  0.5413294644756732  0.4204864684232845  0.8510874877535457
  0.6260564002758642  0.1716943575504004  0.9341240107579623
  0.6990539344546534  0.9299412577993280  0.5100909101746112
  0.5475112313300841  0.9257408362319381  0.8512118499413006
 
  0.00000000E+00  0.00000000E+00  0.00000000E+00
  0.00000000E+00  0.00000000E+00  0.00000000E+00
  0.00000000E+00  0.00000000E+00  0.00000000E+00
  0.00000000E+00  0.00000000E+00  0.00000000E+00
  0.00000000E+00  0.00000000E+00  0.00000000E+00
  0.00000000E+00  0.00000000E+00  0.00000000E+00
  0.00000000E+00  0.00000000E+00  0.00000000E+00
  0.00000000E+00  0.00000000E+00  0.00000000E+00
  0.00000000E+00  0.00000000E+00  0.00000000E+00
  0.00000000E+00  0.00000000E+00  0.00000000E+00
  0.00000000E+00  0.00000000E+00  0.00000000E+00
  0.00000000E+00  0.00000000E+00  0.00000000E+00
  0.00000000E+00  0.00000000E+00  0.00000000E+00
  0.00000000E+00  0.00000000E+00  0.00000000E+00
  0.00000000E+00  0.00000000E+00  0.00000000E+00
  0.00000000E+00  0.00000000E+00  0.00000000E+00
  0.00000000E+00  0.00000000E+00  0.00000000E+00
  0.00000000E+00  0.00000000E+00  0.00000000E+00
  0.00000000E+00  0.00000000E+00  0.00000000E+00
  0.00000000E+00  0.00000000E+00  0.00000000E+00
  0.00000000E+00  0.00000000E+00  0.00000000E+00
  0.00000000E+00  0.00000000E+00  0.00000000E+00
  0.00000000E+00  0.00000000E+00  0.00000000E+00
  0.00000000E+00  0.00000000E+00  0.00000000E+00
  0.00000000E+00  0.00000000E+00  0.00000000E+00
  0.00000000E+00  0.00000000E+00  0.00000000E+00
  0.00000000E+00  0.00000000E+00  0.00000000E+00
  0.00000000E+00  0.00000000E+00  0.00000000E+00
  0.00000000E+00  0.00000000E+00  0.00000000E+00
  0.00000000E+00  0.00000000E+00  0.00000000E+00
  0.00000000E+00  0.00000000E+00  0.00000000E+00
  0.00000000E+00  0.00000000E+00  0.00000000E+00
  0.00000000E+00  0.00000000E+00  0.00000000E+00
  0.00000000E+00  0.00000000E+00  0.00000000E+00
  0.00000000E+00  0.00000000E+00  0.00000000E+00
  0.00000000E+00  0.00000000E+00  0.00000000E+00
  0.00000000E+00  0.00000000E+00  0.00000000E+00
  0.00000000E+00  0.00000000E+00  0.00000000E+00
  0.00000000E+00  0.00000000E+00  0.00000000E+00
  0.00000000E+00  0.00000000E+00  0.00000000E+00
  0.00000000E+00  0.00000000E+00  0.00000000E+00
  0.00000000E+00  0.00000000E+00  0.00000000E+00
  0.00000000E+00  0.00000000E+00  0.00000000E+00
  0.00000000E+00  0.00000000E+00  0.00000000E+00
  0.00000000E+00  0.00000000E+00  0.00000000E+00
  0.00000000E+00  0.00000000E+00  0.00000000E+00
  0.00000000E+00  0.00000000E+00  0.00000000E+00
  0.00000000E+00  0.00000000E+00  0.00000000E+00
  0.00000000E+00  0.00000000E+00  0.00000000E+00
  0.00000000E+00  0.00000000E+00  0.00000000E+00
  0.00000000E+00  0.00000000E+00  0.00000000E+00
  0.00000000E+00  0.00000000E+00  0.00000000E+00
  0.00000000E+00  0.00000000E+00  0.00000000E+00
  0.00000000E+00  0.00000000E+00  0.00000000E+00
  0.00000000E+00  0.00000000E+00  0.00000000E+00
  0.00000000E+00  0.00000000E+00  0.00000000E+00
  0.00000000E+00  0.00000000E+00  0.00000000E+00
  0.00000000E+00  0.00000000E+00  0.00000000E+00
  0.00000000E+00  0.00000000E+00  0.00000000E+00
  0.00000000E+00  0.00000000E+00  0.00000000E+00
  0.00000000E+00  0.00000000E+00  0.00000000E+00
  0.00000000E+00  0.00000000E+00  0.00000000E+00
  0.00000000E+00  0.00000000E+00  0.00000000E+00
  0.00000000E+00  0.00000000E+00  0.00000000E+00
  0.00000000E+00  0.00000000E+00  0.00000000E+00
  0.00000000E+00  0.00000000E+00  0.00000000E+00
  0.00000000E+00  0.00000000E+00  0.00000000E+00
  0.00000000E+00  0.00000000E+00  0.00000000E+00
  0.00000000E+00  0.00000000E+00  0.00000000E+00
  0.00000000E+00  0.00000000E+00  0.00000000E+00
  0.00000000E+00  0.00000000E+00  0.00000000E+00
  0.00000000E+00  0.00000000E+00  0.00000000E+00
  0.00000000E+00  0.00000000E+00  0.00000000E+00
  0.00000000E+00  0.00000000E+00  0.00000000E+00
  0.00000000E+00  0.00000000E+00  0.00000000E+00
  0.00000000E+00  0.00000000E+00  0.00000000E+00
  0.00000000E+00  0.00000000E+00  0.00000000E+00
  0.00000000E+00  0.00000000E+00  0.00000000E+00
  0.00000000E+00  0.00000000E+00  0.00000000E+00
  0.00000000E+00  0.00000000E+00  0.00000000E+00
  0.00000000E+00  0.00000000E+00  0.00000000E+00
  0.00000000E+00  0.00000000E+00  0.00000000E+00
  0.00000000E+00  0.00000000E+00  0.00000000E+00
  0.00000000E+00  0.00000000E+00  0.00000000E+00
  0.00000000E+00  0.00000000E+00  0.00000000E+00
  0.00000000E+00  0.00000000E+00  0.00000000E+00
  0.00000000E+00  0.00000000E+00  0.00000000E+00
  0.00000000E+00  0.00000000E+00  0.00000000E+00
  0.00000000E+00  0.00000000E+00  0.00000000E+00
  0.00000000E+00  0.00000000E+00  0.00000000E+00
  0.00000000E+00  0.00000000E+00  0.00000000E+00
  0.00000000E+00  0.00000000E+00  0.00000000E+00
  0.00000000E+00  0.00000000E+00  0.00000000E+00
  0.00000000E+00  0.00000000E+00  0.00000000E+00
  0.00000000E+00  0.00000000E+00  0.00000000E+00
  0.00000000E+00  0.00000000E+00  0.00000000E+00
  0.00000000E+00  0.00000000E+00  0.00000000E+00
  0.00000000E+00  0.00000000E+00  0.00000000E+00
  0.00000000E+00  0.00000000E+00  0.00000000E+00
  0.00000000E+00  0.00000000E+00  0.00000000E+00
  0.00000000E+00  0.00000000E+00  0.00000000E+00
  0.00000000E+00  0.00000000E+00  0.00000000E+00
  0.00000000E+00  0.00000000E+00  0.00000000E+00
  0.00000000E+00  0.00000000E+00  0.00000000E+00
  0.00000000E+00  0.00000000E+00  0.00000000E+00
  0.00000000E+00  0.00000000E+00  0.00000000E+00
  0.00000000E+00  0.00000000E+00  0.00000000E+00
  0.00000000E+00  0.00000000E+00  0.00000000E+00
  0.00000000E+00  0.00000000E+00  0.00000000E+00
  0.00000000E+00  0.00000000E+00  0.00000000E+00
  0.00000000E+00  0.00000000E+00  0.00000000E+00
  0.00000000E+00  0.00000000E+00  0.00000000E+00
  0.00000000E+00  0.00000000E+00  0.00000000E+00
  0.00000000E+00  0.00000000E+00  0.00000000E+00
  0.00000000E+00  0.00000000E+00  0.00000000E+00
  0.00000000E+00  0.00000000E+00  0.00000000E+00
  0.00000000E+00  0.00000000E+00  0.00000000E+00
  0.00000000E+00  0.00000000E+00  0.00000000E+00
  0.00000000E+00  0.00000000E+00  0.00000000E+00
  0.00000000E+00  0.00000000E+00  0.00000000E+00
  0.00000000E+00  0.00000000E+00  0.00000000E+00
  0.00000000E+00  0.00000000E+00  0.00000000E+00
  0.00000000E+00  0.00000000E+00  0.00000000E+00
  0.00000000E+00  0.00000000E+00  0.00000000E+00
  0.00000000E+00  0.00000000E+00  0.00000000E+00
  0.00000000E+00  0.00000000E+00  0.00000000E+00
  0.00000000E+00  0.00000000E+00  0.00000000E+00
  0.00000000E+00  0.00000000E+00  0.00000000E+00
  0.00000000E+00  0.00000000E+00  0.00000000E+00
  0.00000000E+00  0.00000000E+00  0.00000000E+00
  0.00000000E+00  0.00000000E+00  0.00000000E+00
  0.00000000E+00  0.00000000E+00  0.00000000E+00
  0.00000000E+00  0.00000000E+00  0.00000000E+00
  0.00000000E+00  0.00000000E+00  0.00000000E+00
  0.00000000E+00  0.00000000E+00  0.00000000E+00
  0.00000000E+00  0.00000000E+00  0.00000000E+00
  0.00000000E+00  0.00000000E+00  0.00000000E+00
  0.00000000E+00  0.00000000E+00  0.00000000E+00
  0.00000000E+00  0.00000000E+00  0.00000000E+00
  0.00000000E+00  0.00000000E+00  0.00000000E+00
  0.00000000E+00  0.00000000E+00  0.00000000E+00
  0.00000000E+00  0.00000000E+00  0.00000000E+00
  0.00000000E+00  0.00000000E+00  0.00000000E+00
  0.00000000E+00  0.00000000E+00  0.00000000E+00
  0.00000000E+00  0.00000000E+00  0.00000000E+00
  0.00000000E+00  0.00000000E+00  0.00000000E+00
  0.00000000E+00  0.00000000E+00  0.00000000E+00
  0.00000000E+00  0.00000000E+00  0.00000000E+00
  0.00000000E+00  0.00000000E+00  0.00000000E+00
  0.00000000E+00  0.00000000E+00  0.00000000E+00
  0.00000000E+00  0.00000000E+00  0.00000000E+00
  0.00000000E+00  0.00000000E+00  0.00000000E+00
  0.00000000E+00  0.00000000E+00  0.00000000E+00
  0.00000000E+00  0.00000000E+00  0.00000000E+00
  0.00000000E+00  0.00000000E+00  0.00000000E+00
  0.00000000E+00  0.00000000E+00  0.00000000E+00
  0.00000000E+00  0.00000000E+00  0.00000000E+00
  0.00000000E+00  0.00000000E+00  0.00000000E+00
  0.00000000E+00  0.00000000E+00  0.00000000E+00
  0.00000000E+00  0.00000000E+00  0.00000000E+00
  0.00000000E+00  0.00000000E+00  0.00000000E+00
  0.00000000E+00  0.00000000E+00  0.00000000E+00
  0.00000000E+00  0.00000000E+00  0.00000000E+00
  0.00000000E+00  0.00000000E+00  0.00000000E+00
  0.00000000E+00  0.00000000E+00  0.00000000E+00
  0.00000000E+00  0.00000000E+00  0.00000000E+00
  0.00000000E+00  0.00000000E+00  0.00000000E+00
  0.00000000E+00  0.00000000E+00  0.00000000E+00
  0.00000000E+00  0.00000000E+00  0.00000000E+00
  0.00000000E+00  0.00000000E+00  0.00000000E+00
  0.00000000E+00  0.00000000E+00  0.00000000E+00
  0.00000000E+00  0.00000000E+00  0.00000000E+00
  0.00000000E+00  0.00000000E+00  0.00000000E+00
  0.00000000E+00  0.00000000E+00  0.00000000E+00
  0.00000000E+00  0.00000000E+00  0.00000000E+00
  0.00000000E+00  0.00000000E+00  0.00000000E+00
  0.00000000E+00  0.00000000E+00  0.00000000E+00
  0.00000000E+00  0.00000000E+00  0.00000000E+00
  0.00000000E+00  0.00000000E+00  0.00000000E+00
  0.00000000E+00  0.00000000E+00  0.00000000E+00
  0.00000000E+00  0.00000000E+00  0.00000000E+00
  0.00000000E+00  0.00000000E+00  0.00000000E+00
  0.00000000E+00  0.00000000E+00  0.00000000E+00
  0.00000000E+00  0.00000000E+00  0.00000000E+00
  0.00000000E+00  0.00000000E+00  0.00000000E+00
  0.00000000E+00  0.00000000E+00  0.00000000E+00
  0.00000000E+00  0.00000000E+00  0.00000000E+00
  0.00000000E+00  0.00000000E+00  0.00000000E+00
  0.00000000E+00  0.00000000E+00  0.00000000E+00
  0.00000000E+00  0.00000000E+00  0.00000000E+00
  0.00000000E+00  0.00000000E+00  0.00000000E+00
