generated by phonopy                    
   1.00000000000000     
    10.0351470768999995   -0.0000022330999784   -0.0000001056124209
    -5.0175765436399997    8.6906901959899994    0.0000001395531216
    -0.0000001735893656    0.0000001431815548   14.9533752540999991
   Pb   P    O    Cu
    20    12    49     1
Direct
  0.0008466285439468  0.7717238774589248  0.1224986706666300
  0.9957716813443724  0.7699334152311934  0.6230106795850148
  0.0081999233835788  0.2631936542977584  0.3779203150351691
  0.0062689062704209  0.2625523266651939  0.8697239842741809
  0.2082745477710901  0.2143460751956141  0.1200397249808844
  0.2277925983949345  0.2236482625314693  0.6229913036984982
  0.7401656257693432  0.7435083871792898  0.3721071155715663
  0.7393164802611807  0.7425574406005993  0.8757159383129576
  0.7624721709567410  0.9976503371058811  0.1229108457904786
  0.7739185123018473  0.0025784434279572  0.6232471175467040
  0.2580109228203824  0.9962283858429828  0.3733072478786283
  0.2575136575113106  0.9956914731235855  0.8733917651694014
  0.6774672589064679  0.3273617736178736  0.0007351894188332
  0.6643638771035683  0.3352826946059224  0.5018025789547309
  0.3337084255452041  0.6712681990812897  0.0030974783291242
  0.3357259444125731  0.6672333755169149  0.5037388590580107
  0.3330071085747832  0.6700277461282695  0.2443727162785265
  0.3350865310205151  0.6666862373695679  0.7438737938058821
  0.6823512674745800  0.3257433597418782  0.2497338220317786
  0.6649087769640971  0.3350340505571197  0.7474678472381626
  0.6327421589722491  0.6234465050038764  0.1251547525531009
  0.6231532914224331  0.5943634385948613  0.6243687229808970
  0.3704356162452314  0.3934160461699605  0.3723839691686237
  0.3694972645328392  0.3929065853112022  0.8755271883892490
  0.3972707298730995  0.0182584691738015  0.1240518733614024
  0.4059123530838420  0.0290040497744783  0.6241579641578738
  0.6028910720069121  0.9715643611405511  0.3761050082162853
  0.6031212780963102  0.9720474094293792  0.8725523684573488
  0.9741140661596575  0.3789423305195427  0.1239650268864310
  0.9734136716484940  0.3772655565181324  0.6241333939320910
  0.0270651126612336  0.6322603860229279  0.3750858900097072
  0.0267278406938516  0.6318523392835189  0.8729637339885201
  0.5260456996214131  0.6991078667158277  0.1234402238028736
  0.5012496207351802  0.6477435654499573  0.6239059580057855
  0.4708171523806470  0.3154272866413592  0.3739124012563906
  0.4702042083024978  0.3151659662568278  0.8749225164596339
  0.3395657967430594  0.8412081778279585  0.1236877919055672
  0.3550137038716272  0.8542584850673549  0.6238265349098526
  0.6792810062247412  0.1498435799021181  0.3775326265966825
  0.6794675312606486  0.1503762457851820  0.8723941070184793
  0.1502172915158013  0.4966598576077104  0.1238508183387523
  0.1477616205866354  0.5020747145755777  0.6238916047349221
  0.8481757231255003  0.5338965424616973  0.3732714524080762
  0.8478828392934687  0.5335082084499447  0.8751912957225869
  0.7418859254372734  0.6791656163368458  0.0397038314572669
  0.7286039794667545  0.6535161823728188  0.5395251170237572
  0.2641359043593141  0.3523027322125998  0.4570695694578859
  0.2599972047255719  0.3452199455247182  0.9586257670136362
  0.3369279617434771  0.0612750233539074  0.0386500962561698
  0.3448708682466304  0.0739794601320369  0.5393950816047166
  0.6455557532801635  0.9077683304455491  0.4600440236797994
  0.6467670112396320  0.9109145943901069  0.9573479475447684
  0.9250262577467296  0.2743117783029660  0.0386166258294978
  0.9302681059970297  0.2711736856932419  0.5395023741284533
  0.0881126014188283  0.7401139264034526  0.4586137004710835
  0.0932574298029536  0.7363749072923795  0.9577443477302907
  0.2601855683517016  0.3443954901360655  0.2897271059343964
  0.2623196045754952  0.3497213231075023  0.7913494854996657
  0.7471344008998386  0.6900474358165170  0.2075034778365037
  0.7295983144664575  0.6566020155045678  0.7087024300906961
  0.6504781256820067  0.9125945286408808  0.2920935484744618
  0.6494757322901705  0.9099474861926069  0.7894511562572930
  0.3337438523753207  0.0593689893822997  0.2086320775222532
  0.3415757204621741  0.0719910876476249  0.7082505862848905
  0.0928700482091713  0.7382322484733308  0.2908532652714442
  0.0872792578910833  0.7413269093467036  0.7901427402876919
  0.9258587211211307  0.2734248811143161  0.2090709452245179
  0.9316894136619496  0.2697568795851382  0.7080653732567228
  0.5413122232114986  0.4136071394626128  0.6252599258612506
  0.4775745896092616  0.5748693053361436  0.3704210662172329
  0.4763926652935382  0.5742855350445879  0.8763502881842555
  0.5781853559870811  0.1108815892879491  0.1247357615072033
  0.5862342806440211  0.1304651624073614  0.6251383422164167
  0.4212047829113104  0.8960983747544233  0.3745476291029135
  0.4213535024286301  0.8964184325455591  0.8716345013318261
  0.8771933815772641  0.4633657566371596  0.1246394498608012
  0.8710211696953891  0.4547566742731135  0.6250853213492746
  0.0996507049473365  0.5236783527759243  0.3771328921169257
  0.0992908320489718  0.5233519834003602  0.8692310398584553
  0.9985187332049605  0.0012964298065654  0.1155261855212331
  0.9990381867771418  0.9987349893928084  0.6197646944159203
  0.5032985159893428  0.3759708882190509  0.1297512585141831
 
  0.00000000E+00  0.00000000E+00  0.00000000E+00
  0.00000000E+00  0.00000000E+00  0.00000000E+00
  0.00000000E+00  0.00000000E+00  0.00000000E+00
  0.00000000E+00  0.00000000E+00  0.00000000E+00
  0.00000000E+00  0.00000000E+00  0.00000000E+00
  0.00000000E+00  0.00000000E+00  0.00000000E+00
  0.00000000E+00  0.00000000E+00  0.00000000E+00
  0.00000000E+00  0.00000000E+00  0.00000000E+00
  0.00000000E+00  0.00000000E+00  0.00000000E+00
  0.00000000E+00  0.00000000E+00  0.00000000E+00
  0.00000000E+00  0.00000000E+00  0.00000000E+00
  0.00000000E+00  0.00000000E+00  0.00000000E+00
  0.00000000E+00  0.00000000E+00  0.00000000E+00
  0.00000000E+00  0.00000000E+00  0.00000000E+00
  0.00000000E+00  0.00000000E+00  0.00000000E+00
  0.00000000E+00  0.00000000E+00  0.00000000E+00
  0.00000000E+00  0.00000000E+00  0.00000000E+00
  0.00000000E+00  0.00000000E+00  0.00000000E+00
  0.00000000E+00  0.00000000E+00  0.00000000E+00
  0.00000000E+00  0.00000000E+00  0.00000000E+00
  0.00000000E+00  0.00000000E+00  0.00000000E+00
  0.00000000E+00  0.00000000E+00  0.00000000E+00
  0.00000000E+00  0.00000000E+00  0.00000000E+00
  0.00000000E+00  0.00000000E+00  0.00000000E+00
  0.00000000E+00  0.00000000E+00  0.00000000E+00
  0.00000000E+00  0.00000000E+00  0.00000000E+00
  0.00000000E+00  0.00000000E+00  0.00000000E+00
  0.00000000E+00  0.00000000E+00  0.00000000E+00
  0.00000000E+00  0.00000000E+00  0.00000000E+00
  0.00000000E+00  0.00000000E+00  0.00000000E+00
  0.00000000E+00  0.00000000E+00  0.00000000E+00
  0.00000000E+00  0.00000000E+00  0.00000000E+00
  0.00000000E+00  0.00000000E+00  0.00000000E+00
  0.00000000E+00  0.00000000E+00  0.00000000E+00
  0.00000000E+00  0.00000000E+00  0.00000000E+00
  0.00000000E+00  0.00000000E+00  0.00000000E+00
  0.00000000E+00  0.00000000E+00  0.00000000E+00
  0.00000000E+00  0.00000000E+00  0.00000000E+00
  0.00000000E+00  0.00000000E+00  0.00000000E+00
  0.00000000E+00  0.00000000E+00  0.00000000E+00
  0.00000000E+00  0.00000000E+00  0.00000000E+00
  0.00000000E+00  0.00000000E+00  0.00000000E+00
  0.00000000E+00  0.00000000E+00  0.00000000E+00
  0.00000000E+00  0.00000000E+00  0.00000000E+00
  0.00000000E+00  0.00000000E+00  0.00000000E+00
  0.00000000E+00  0.00000000E+00  0.00000000E+00
  0.00000000E+00  0.00000000E+00  0.00000000E+00
  0.00000000E+00  0.00000000E+00  0.00000000E+00
  0.00000000E+00  0.00000000E+00  0.00000000E+00
  0.00000000E+00  0.00000000E+00  0.00000000E+00
  0.00000000E+00  0.00000000E+00  0.00000000E+00
  0.00000000E+00  0.00000000E+00  0.00000000E+00
  0.00000000E+00  0.00000000E+00  0.00000000E+00
  0.00000000E+00  0.00000000E+00  0.00000000E+00
  0.00000000E+00  0.00000000E+00  0.00000000E+00
  0.00000000E+00  0.00000000E+00  0.00000000E+00
  0.00000000E+00  0.00000000E+00  0.00000000E+00
  0.00000000E+00  0.00000000E+00  0.00000000E+00
  0.00000000E+00  0.00000000E+00  0.00000000E+00
  0.00000000E+00  0.00000000E+00  0.00000000E+00
  0.00000000E+00  0.00000000E+00  0.00000000E+00
  0.00000000E+00  0.00000000E+00  0.00000000E+00
  0.00000000E+00  0.00000000E+00  0.00000000E+00
  0.00000000E+00  0.00000000E+00  0.00000000E+00
  0.00000000E+00  0.00000000E+00  0.00000000E+00
  0.00000000E+00  0.00000000E+00  0.00000000E+00
  0.00000000E+00  0.00000000E+00  0.00000000E+00
  0.00000000E+00  0.00000000E+00  0.00000000E+00
  0.00000000E+00  0.00000000E+00  0.00000000E+00
  0.00000000E+00  0.00000000E+00  0.00000000E+00
  0.00000000E+00  0.00000000E+00  0.00000000E+00
  0.00000000E+00  0.00000000E+00  0.00000000E+00
  0.00000000E+00  0.00000000E+00  0.00000000E+00
  0.00000000E+00  0.00000000E+00  0.00000000E+00
  0.00000000E+00  0.00000000E+00  0.00000000E+00
  0.00000000E+00  0.00000000E+00  0.00000000E+00
  0.00000000E+00  0.00000000E+00  0.00000000E+00
  0.00000000E+00  0.00000000E+00  0.00000000E+00
  0.00000000E+00  0.00000000E+00  0.00000000E+00
  0.00000000E+00  0.00000000E+00  0.00000000E+00
  0.00000000E+00  0.00000000E+00  0.00000000E+00
  0.00000000E+00  0.00000000E+00  0.00000000E+00
