POSCAR
1.00
  0.00000000  5.41860000 -5.01530000
 -4.69260000  2.70930000  5.01530000
  9.38520000  0.00000000  5.01530000
  Gd  Al   N
  10  14  24
Direct
  0.04158333  0.24983333  0.29175000
  0.45825000  0.41650000  0.54175000
  0.54158333  0.24983333  0.79175000
  0.12491667  0.08316667  0.54175000
  0.66675000  0.33350000  0.33325000
  0.75008333  0.16683333  0.58325000
  0.16675000  0.33350000  0.83325000
  0.33341667  1.00016667  0.33325000
  0.50008333  0.66683333  0.83325000
  0.83341667  1.00016667  0.83325000
  0.37491667  0.58316667  0.29175000
  0.70825000  0.91650000  0.29175000
  0.79158333  0.74983333  0.54175000
  0.87491667  0.58316667  0.79175000
  0.95825000  0.41650000  0.04175000
  0.20825000  0.91650000  0.79175000
  0.29158333  0.74983333  0.04175000
  0.62491667  0.08316667  0.04175000
  0.25008333  0.16683333  0.08325000
  0.58341667  0.50016667  0.08325000
  0.91675000  0.83350000  0.08325000
  1.00008333  0.66683333  0.33325000
  0.08341667  0.50016667  0.58325000
  0.41675000  0.83350000  0.58325000
  0.94633333  0.44033333  0.38700000
  0.27966667  0.77366667  0.38700000
  0.36300000  0.60700000  0.63700000
  0.44633333  0.44033333  0.88700000
  0.61300000  0.10700000  0.38700000
  0.69633333  0.94033333  0.63700000
  0.77966667  0.77366667  0.88700000
  0.86300000  0.60700000  0.13700000
  0.02966667  0.27366667  0.63700000
  0.11300000  0.10700000  0.88700000
  0.19633333  0.94033333  0.13700000
  0.52966667  0.27366667  0.13700000
  0.15483333  0.35733333  0.17850000
  0.48816667  0.69066667  0.17850000
  0.57150000  0.52400000  0.42850000
  0.65483333  0.35733333  0.67850000
  0.82150000  0.02400000  0.17850000
  0.90483333  0.85733333  0.42850000
  0.98816667  0.69066667  0.67850000
  0.07150000  0.52400000  0.92850000
  0.23816667  0.19066667  0.42850000
  0.32150000  0.02400000  0.67850000
  0.40483333  0.85733333  0.92850000
  0.73816667  0.19066667  0.92850000
