supercell of supercell of icsd_608626.c 
   1.00600000000000     
    18.8433725412000008    0.0042597715995000    0.0111656436851000
    -6.2786657403800001   10.8752831735999997   -0.0012954496991100
     0.0059525623905900    0.0022414031449000   10.0498800689000003
   Al   Gd   N 
    92     3    96
Direct
  0.1123667435002886  0.0851422803073874  0.2472521675279538
  0.0578594222267768  0.1707403357397723  0.9970196490001797
  0.4428164854578185  0.3350786697808203  0.7515355514541469
  0.3880547220777402  0.4159451370586353  0.4990856699937893
  0.2783208376768016  0.0863765503748297  0.2575374082334250
  0.2247407061909712  0.1777665790470735  0.9959759896135481
  0.1129965789729042  0.3344900360454162  0.7509560251719165
  0.0564692272295773  0.4169404606931124  0.4988772803234554
  0.4432563720857701  0.0823727041697069  0.2489044178647006
  0.3902585850815470  0.1729195196474933  0.9976557735065228
  0.2762084926474131  0.3359758145832430  0.7525712055367890
  0.2223309769109676  0.4167921198269013  0.4850667223810134
  0.1119429247963808  0.0849065192898593  0.7494138659730893
  0.0560673505707499  0.1671879218364509  0.4990034430865578
  0.4437224777252666  0.3341297150379390  0.2483995462307362
  0.3831470897886575  0.4148246551025352  0.9972990235123120
  0.2790548272504196  0.0896967693404704  0.7458001421489726
  0.2224218640728139  0.1687157737564178  0.5005066807080638
  0.1128811628821325  0.3343847641562121  0.2474631709330311
  0.0599076513777916  0.4167567207853722  0.9973574703252766
  0.4427579526566134  0.0813176461210077  0.7505598688010124
  0.3900696214717030  0.1684743150509007  0.5004466386843518
  0.2770773309856409  0.3347462957618035  0.2475502391267526
  0.6114507602551811  0.0833723697395357  0.2486128346346703
  0.5499355612336458  0.1606334220640520  0.9986144713566460
  0.9480364958812473  0.3358782357651222  0.7516089391983627
  0.8907456792220074  0.4171162267129915  0.5005715078377122
  0.7801419472501436  0.0867084786952930  0.2587124358062596
  0.7253544571073931  0.1687897591604184  0.9983240534058666
  0.6058606715959982  0.3295152847367646  0.7441497942450042
  0.5541346407714229  0.4173799074159632  0.5005084071543706
  0.9458483923162362  0.0843862013839001  0.2481072169446819
  0.8950009548832369  0.1743030071137497  0.9974430113785857
  0.7799157040220379  0.3318505061124171  0.7451625305410516
  0.7221199894657886  0.4165219715566266  0.5004661064976332
  0.6106079652062064  0.0824559286452029  0.7502064285096992
  0.5540152395694591  0.1637494657115539  0.5005313515850958
  0.9463814957195780  0.3347634680106424  0.2484667765446247
  0.8909856999828492  0.4147999100177913  0.9994508835551486
  0.7810550219039385  0.0888771368056283  0.7450205411609332
  0.7216318851264703  0.1660405503793854  0.5017744866115024
  0.6088942236282691  0.3316025402496052  0.2594518772553300
  0.5517178593564012  0.4160236852959827  0.9990290798071300
  0.9470118657793876  0.0855618457790541  0.7511686593059750
  0.8918155745058698  0.1692322352241646  0.5005103863390943
  0.7792343615445745  0.3327946833123860  0.2590333884848235
  0.1123657639244087  0.5832691159458250  0.2471823413651038
  0.0518961602958115  0.6611409013547558  0.9978753572183905
  0.4429976010290275  0.8310325482800920  0.7514737909607021
  0.3894077150637898  0.9160920709979621  0.5000830376932655
  0.2773955057252806  0.5810456564139415  0.2471139454152080
  0.2248601660190417  0.6597161165666847  0.9960431765066389
  0.1070795343496087  0.8300568052610657  0.7434591064734448
  0.0558354935226646  0.9190452472269044  0.4996956755287414
  0.4430714110131007  0.5822857180010388  0.2479756898413754
  0.3854988825188812  0.6624383376653853  0.9964153929610475
  0.2784978309010455  0.8286889415802463  0.7458645484546125
  0.2225856728183970  0.9169292709599475  0.5001995137348700
  0.1119454014902814  0.5827181982240219  0.7495050442467530
  0.0554445682328790  0.6640941818421027  0.4998311348527196
  0.4438687314292977  0.8317593052025885  0.2484485143147950
  0.3881051057649785  0.9114785598375903  0.9989518328564415
  0.2767874844876559  0.5790417789289819  0.7525349374166481
  0.2224475409204700  0.6647610625981102  0.5004945516277743
  0.1097720319119730  0.8319825923010526  0.2585680264858183
  0.0538754142247910  0.9174013227665583  0.9985003597418824
  0.4427145623764162  0.5814515925683352  0.7497253271000446
  0.3887215553998544  0.6667233085641158  0.4994417276128402
  0.2779982041220066  0.8307751556571716  0.2577363266607051
  0.6113255859203974  0.5837009856841817  0.2485342000823181
  0.5504288240114832  0.6615188318936376  0.9983086332264577
  0.9457504135664507  0.8353967474575370  0.7505142247296774
  0.8908105882500692  0.9183197497998918  0.5005110411035432
  0.7792593119305025  0.5859457263756340  0.2587568160220002
  0.7249995735935002  0.6689493623178109  0.9984119658972475
  0.6067099602090806  0.8298364155553841  0.7439539896633036
  0.5542680271944391  0.9169324213067256  0.5004629511560310
  0.9448125900064639  0.5833059199794306  0.2490198194490034
  0.8922892154675210  0.6720631184801960  0.9983125606521099
  0.7800685042487459  0.8326238770845862  0.7448964556778321
  0.7223869942418801  0.9169791405916001  0.5000630123194227
  0.6106831676210120  0.5832005096194237  0.7499962155211506
  0.5536338596862223  0.6637100702919696  0.5001725001249184
  0.9452972968138340  0.8342015359591812  0.2492879620390838
  0.8910755248147026  0.9167605131647605  0.9993013619445179
  0.7799562054334856  0.5879397830757114  0.7451285404908745
  0.7214432980296834  0.6661551664431684  0.5017152320260934
  0.6092756196496651  0.8316293494084235  0.2591366949843135
  0.5521691223973733  0.9144032158561117  0.9990940179325491
  0.9447341696534082  0.5825311823728399  0.7501921632982445
  0.8911280251429474  0.6686659077149031  0.5006699010404816
  0.7793247094017772  0.8329858848237421  0.2590626572877426
  0.7189301372228272  0.4145338211589404  0.9993730939113732
  0.2195929528342049  0.9153657497471031  0.9981514522562236
  0.7205880392066248  0.9165625961607660  0.9996350870516295
  0.1114744494607720  0.0834689587074990  0.4375867120514840
  0.0554754431198958  0.1655894392223374  0.1890495035899491
  0.4448380520200033  0.3382207363768330  0.9411715764081663
  0.3891750510749219  0.4175323259387653  0.6871728436278062
  0.2790629647601079  0.0855406187827583  0.4468184962329360
  0.2229471336752482  0.1657910338781576  0.1895059823136691
  0.0972677070891308  0.3219612757930577  0.9297083979869143
  0.0563143010935718  0.4188158184199935  0.6869520710155044
  0.4440820153212641  0.0828147499706660  0.4392776777094767
  0.3887751718973718  0.1668616197716943  0.1903986787015555
  0.2816036994451991  0.3304661161337705  0.9321310298116501
  0.2219030784626952  0.4166731482232819  0.6803342975341238
  0.1117169838939347  0.0821254674049712  0.9402778150410285
  0.0557426438449014  0.1648324484855976  0.6873609589634313
  0.4450330418561350  0.3338338159945522  0.4385579514875104
  0.3894740298385031  0.4170971573623845  0.1897573407224940
  0.2850960463625825  0.1036766126027473  0.9309627406429186
  0.2209794563426328  0.1669717807991660  0.6872330145844003
  0.1073682375296912  0.3302314992879900  0.4405078808872460
  0.0559976459170102  0.4175444158402186  0.1894371426097976
  0.4401734319720845  0.0782246882530728  0.9415125145202694
  0.3910051777706656  0.1688543360240047  0.6892847255587427
  0.2796240704488895  0.3309123889468211  0.4401660643193139
  0.2222653721906482  0.4167487309359856  0.2249342809518495
  0.6114244205884916  0.0836195422356525  0.4390700375928134
  0.5556744647146132  0.1671127171254554  0.1906802023843568
  0.9481985927411571  0.3391963435224241  0.9412838795846028
  0.8906058125040346  0.4171944745319465  0.6889391826979860
  0.7795305403014865  0.0863577194871112  0.4476658854118369
  0.7235171057556613  0.1675136252791063  0.1915739582187754
  0.5922258411573651  0.3185264683151061  0.9294237140295252
  0.5543486123167725  0.4182488299207847  0.6888101331008087
  0.9442119310092423  0.0826976855587915  0.4385678526789007
  0.8892701900700928  0.1670909267965897  0.1902634752461765
  0.7853385292670723  0.3264596043709531  0.9310361608508302
  0.7215069335133819  0.4161893353524562  0.6962504181363869
  0.6122686277727709  0.0842398333323970  0.9422053069360814
  0.5539880234509340  0.1629211883959201  0.6892240694412166
  0.9448448721691065  0.3341145333666731  0.4385721852756177
  0.8883519964944213  0.4163006965467204  0.1914454509293009
  0.7879656819747751  0.1047804418511902  0.9307020225904381
  0.7209239838982811  0.1655093836659844  0.6888952162110655
  0.6091190205125514  0.3316214724018707  0.4482633019767235
  0.5565536678781129  0.4166784671253367  0.1908917702676405
  0.9431201924976307  0.0801502001347885  0.9414216348434294
  0.8920062754224034  0.1693606665330805  0.6892373914631591
  0.7788170580230016  0.3325756785268439  0.4477369339008348
  0.7221133857028121  0.4164861733364020  0.2214608168946128
  0.1114899544400387  0.5837022013888884  0.4375766955388869
  0.0557185545875214  0.6674079722061492  0.1902083029452584
  0.4453126139826011  0.8348459971647131  0.9410000331524699
  0.3898053463421363  0.9168117721677689  0.6884748229439808
  0.2801378384290913  0.5888514191386420  0.4402572027980156
  0.2229589512635499  0.6684210961936969  0.1895159036191529
  0.0922368607523083  0.8182784925779956  0.9284081899949967
  0.0550383734844360  0.9183030318493763  0.6876810869046892
  0.4443445624904783  0.5830504631038096  0.4382353022757854
  0.3899516545107318  0.6676254052436406  0.1890468876652207
  0.2835584805851994  0.8235724283523354  0.9311966027780159
  0.2218698884296302  0.9165703950108295  0.6958309240102309
  0.1117806837247102  0.5853649719227150  0.9403346782858506
  0.0544521393610538  0.6633997818814379  0.6881505247436834
  0.4451236664636440  0.8342758254367979  0.4385719324259512
  0.3883764061941974  0.9160006698483372  0.1912357282279160
  0.2835305166421094  0.5947558239830499  0.9320340384618788
  0.2209663132501802  0.6643836936520415  0.6872763849236634
  0.1092169913890046  0.8316186780007158  0.4473437799236493
  0.0562516161860955  0.9161137768928498  0.1906515942238727
  0.4427347758995808  0.5802474124378421  0.9394549668416516
  0.3904317272193936  0.6673929657822910  0.6879143813470066
  0.2785946569794788  0.8325996776549687  0.4466763225304504
  0.2223585639137582  0.9167473748415915  0.2205673545614317
  0.6114219958291756  0.5835860275385372  0.4388737278153343
  0.5563295067288081  0.6677794441722114  0.1904074256770798
  0.9457845385445225  0.8364597120944168  0.9406281808263444
  0.8907752137256253  0.9183540802908112  0.6888136128419688
  0.7792053220854669  0.5859127911874396  0.4476929262204195
  0.7235006249747187  0.6675436988933683  0.1916183131953488
  0.5943821752779641  0.8200526945482807  0.9292783334662218
  0.5544883801222227  0.9178544785905771  0.6887740339200690
  0.9443027069758116  0.5829735500655460  0.4391817447664579
  0.8887893957857429  0.6666557072975436  0.1907549219945111
  0.7855419986188181  0.8263238414419902  0.9307277169600923
  0.7221376542618430  0.9170455701396634  0.6957227790320673
  0.6126931101547868  0.5846320988064093  0.9419046045357504
  0.5546636292206628  0.6637246947671329  0.6885737314540847
  0.9449334261478839  0.8338637987173598  0.4390845862497699
  0.8884368037601078  0.9160408366432975  0.1913404866436963
  0.7864275933461116  0.6028817661002108  0.9309255057656429
  0.7210757464443063  0.6658765637470694  0.6887687429190237
  0.6094003630396827  0.8318996402822805  0.4478766394707847
  0.5566717337908713  0.9168172388149927  0.1909394677204546
  0.9411628114749817  0.5791897589505552  0.9410266925284674
  0.8912345542078128  0.6686706531531144  0.6894566358653123
  0.7789409695865075  0.8324993691033526  0.4476595216471040
  0.7225908631693372  0.9170849506125691  0.2217226678236983
 
  0.00000000E+00  0.00000000E+00  0.00000000E+00
  0.00000000E+00  0.00000000E+00  0.00000000E+00
  0.00000000E+00  0.00000000E+00  0.00000000E+00
  0.00000000E+00  0.00000000E+00  0.00000000E+00
  0.00000000E+00  0.00000000E+00  0.00000000E+00
  0.00000000E+00  0.00000000E+00  0.00000000E+00
  0.00000000E+00  0.00000000E+00  0.00000000E+00
  0.00000000E+00  0.00000000E+00  0.00000000E+00
  0.00000000E+00  0.00000000E+00  0.00000000E+00
  0.00000000E+00  0.00000000E+00  0.00000000E+00
  0.00000000E+00  0.00000000E+00  0.00000000E+00
  0.00000000E+00  0.00000000E+00  0.00000000E+00
  0.00000000E+00  0.00000000E+00  0.00000000E+00
  0.00000000E+00  0.00000000E+00  0.00000000E+00
  0.00000000E+00  0.00000000E+00  0.00000000E+00
  0.00000000E+00  0.00000000E+00  0.00000000E+00
  0.00000000E+00  0.00000000E+00  0.00000000E+00
  0.00000000E+00  0.00000000E+00  0.00000000E+00
  0.00000000E+00  0.00000000E+00  0.00000000E+00
  0.00000000E+00  0.00000000E+00  0.00000000E+00
  0.00000000E+00  0.00000000E+00  0.00000000E+00
  0.00000000E+00  0.00000000E+00  0.00000000E+00
  0.00000000E+00  0.00000000E+00  0.00000000E+00
  0.00000000E+00  0.00000000E+00  0.00000000E+00
  0.00000000E+00  0.00000000E+00  0.00000000E+00
  0.00000000E+00  0.00000000E+00  0.00000000E+00
  0.00000000E+00  0.00000000E+00  0.00000000E+00
  0.00000000E+00  0.00000000E+00  0.00000000E+00
  0.00000000E+00  0.00000000E+00  0.00000000E+00
  0.00000000E+00  0.00000000E+00  0.00000000E+00
  0.00000000E+00  0.00000000E+00  0.00000000E+00
  0.00000000E+00  0.00000000E+00  0.00000000E+00
  0.00000000E+00  0.00000000E+00  0.00000000E+00
  0.00000000E+00  0.00000000E+00  0.00000000E+00
  0.00000000E+00  0.00000000E+00  0.00000000E+00
  0.00000000E+00  0.00000000E+00  0.00000000E+00
  0.00000000E+00  0.00000000E+00  0.00000000E+00
  0.00000000E+00  0.00000000E+00  0.00000000E+00
  0.00000000E+00  0.00000000E+00  0.00000000E+00
  0.00000000E+00  0.00000000E+00  0.00000000E+00
  0.00000000E+00  0.00000000E+00  0.00000000E+00
  0.00000000E+00  0.00000000E+00  0.00000000E+00
  0.00000000E+00  0.00000000E+00  0.00000000E+00
  0.00000000E+00  0.00000000E+00  0.00000000E+00
  0.00000000E+00  0.00000000E+00  0.00000000E+00
  0.00000000E+00  0.00000000E+00  0.00000000E+00
  0.00000000E+00  0.00000000E+00  0.00000000E+00
  0.00000000E+00  0.00000000E+00  0.00000000E+00
  0.00000000E+00  0.00000000E+00  0.00000000E+00
  0.00000000E+00  0.00000000E+00  0.00000000E+00
  0.00000000E+00  0.00000000E+00  0.00000000E+00
  0.00000000E+00  0.00000000E+00  0.00000000E+00
  0.00000000E+00  0.00000000E+00  0.00000000E+00
  0.00000000E+00  0.00000000E+00  0.00000000E+00
  0.00000000E+00  0.00000000E+00  0.00000000E+00
  0.00000000E+00  0.00000000E+00  0.00000000E+00
  0.00000000E+00  0.00000000E+00  0.00000000E+00
  0.00000000E+00  0.00000000E+00  0.00000000E+00
  0.00000000E+00  0.00000000E+00  0.00000000E+00
  0.00000000E+00  0.00000000E+00  0.00000000E+00
  0.00000000E+00  0.00000000E+00  0.00000000E+00
  0.00000000E+00  0.00000000E+00  0.00000000E+00
  0.00000000E+00  0.00000000E+00  0.00000000E+00
  0.00000000E+00  0.00000000E+00  0.00000000E+00
  0.00000000E+00  0.00000000E+00  0.00000000E+00
  0.00000000E+00  0.00000000E+00  0.00000000E+00
  0.00000000E+00  0.00000000E+00  0.00000000E+00
  0.00000000E+00  0.00000000E+00  0.00000000E+00
  0.00000000E+00  0.00000000E+00  0.00000000E+00
  0.00000000E+00  0.00000000E+00  0.00000000E+00
  0.00000000E+00  0.00000000E+00  0.00000000E+00
  0.00000000E+00  0.00000000E+00  0.00000000E+00
  0.00000000E+00  0.00000000E+00  0.00000000E+00
  0.00000000E+00  0.00000000E+00  0.00000000E+00
  0.00000000E+00  0.00000000E+00  0.00000000E+00
  0.00000000E+00  0.00000000E+00  0.00000000E+00
  0.00000000E+00  0.00000000E+00  0.00000000E+00
  0.00000000E+00  0.00000000E+00  0.00000000E+00
  0.00000000E+00  0.00000000E+00  0.00000000E+00
  0.00000000E+00  0.00000000E+00  0.00000000E+00
  0.00000000E+00  0.00000000E+00  0.00000000E+00
  0.00000000E+00  0.00000000E+00  0.00000000E+00
  0.00000000E+00  0.00000000E+00  0.00000000E+00
  0.00000000E+00  0.00000000E+00  0.00000000E+00
  0.00000000E+00  0.00000000E+00  0.00000000E+00
  0.00000000E+00  0.00000000E+00  0.00000000E+00
  0.00000000E+00  0.00000000E+00  0.00000000E+00
  0.00000000E+00  0.00000000E+00  0.00000000E+00
  0.00000000E+00  0.00000000E+00  0.00000000E+00
  0.00000000E+00  0.00000000E+00  0.00000000E+00
  0.00000000E+00  0.00000000E+00  0.00000000E+00
  0.00000000E+00  0.00000000E+00  0.00000000E+00
  0.00000000E+00  0.00000000E+00  0.00000000E+00
  0.00000000E+00  0.00000000E+00  0.00000000E+00
  0.00000000E+00  0.00000000E+00  0.00000000E+00
  0.00000000E+00  0.00000000E+00  0.00000000E+00
  0.00000000E+00  0.00000000E+00  0.00000000E+00
  0.00000000E+00  0.00000000E+00  0.00000000E+00
  0.00000000E+00  0.00000000E+00  0.00000000E+00
  0.00000000E+00  0.00000000E+00  0.00000000E+00
  0.00000000E+00  0.00000000E+00  0.00000000E+00
  0.00000000E+00  0.00000000E+00  0.00000000E+00
  0.00000000E+00  0.00000000E+00  0.00000000E+00
  0.00000000E+00  0.00000000E+00  0.00000000E+00
  0.00000000E+00  0.00000000E+00  0.00000000E+00
  0.00000000E+00  0.00000000E+00  0.00000000E+00
  0.00000000E+00  0.00000000E+00  0.00000000E+00
  0.00000000E+00  0.00000000E+00  0.00000000E+00
  0.00000000E+00  0.00000000E+00  0.00000000E+00
  0.00000000E+00  0.00000000E+00  0.00000000E+00
  0.00000000E+00  0.00000000E+00  0.00000000E+00
  0.00000000E+00  0.00000000E+00  0.00000000E+00
  0.00000000E+00  0.00000000E+00  0.00000000E+00
  0.00000000E+00  0.00000000E+00  0.00000000E+00
  0.00000000E+00  0.00000000E+00  0.00000000E+00
  0.00000000E+00  0.00000000E+00  0.00000000E+00
  0.00000000E+00  0.00000000E+00  0.00000000E+00
  0.00000000E+00  0.00000000E+00  0.00000000E+00
  0.00000000E+00  0.00000000E+00  0.00000000E+00
  0.00000000E+00  0.00000000E+00  0.00000000E+00
  0.00000000E+00  0.00000000E+00  0.00000000E+00
  0.00000000E+00  0.00000000E+00  0.00000000E+00
  0.00000000E+00  0.00000000E+00  0.00000000E+00
  0.00000000E+00  0.00000000E+00  0.00000000E+00
  0.00000000E+00  0.00000000E+00  0.00000000E+00
  0.00000000E+00  0.00000000E+00  0.00000000E+00
  0.00000000E+00  0.00000000E+00  0.00000000E+00
  0.00000000E+00  0.00000000E+00  0.00000000E+00
  0.00000000E+00  0.00000000E+00  0.00000000E+00
  0.00000000E+00  0.00000000E+00  0.00000000E+00
  0.00000000E+00  0.00000000E+00  0.00000000E+00
  0.00000000E+00  0.00000000E+00  0.00000000E+00
  0.00000000E+00  0.00000000E+00  0.00000000E+00
  0.00000000E+00  0.00000000E+00  0.00000000E+00
  0.00000000E+00  0.00000000E+00  0.00000000E+00
  0.00000000E+00  0.00000000E+00  0.00000000E+00
  0.00000000E+00  0.00000000E+00  0.00000000E+00
  0.00000000E+00  0.00000000E+00  0.00000000E+00
  0.00000000E+00  0.00000000E+00  0.00000000E+00
  0.00000000E+00  0.00000000E+00  0.00000000E+00
  0.00000000E+00  0.00000000E+00  0.00000000E+00
  0.00000000E+00  0.00000000E+00  0.00000000E+00
  0.00000000E+00  0.00000000E+00  0.00000000E+00
  0.00000000E+00  0.00000000E+00  0.00000000E+00
  0.00000000E+00  0.00000000E+00  0.00000000E+00
  0.00000000E+00  0.00000000E+00  0.00000000E+00
  0.00000000E+00  0.00000000E+00  0.00000000E+00
  0.00000000E+00  0.00000000E+00  0.00000000E+00
  0.00000000E+00  0.00000000E+00  0.00000000E+00
  0.00000000E+00  0.00000000E+00  0.00000000E+00
  0.00000000E+00  0.00000000E+00  0.00000000E+00
  0.00000000E+00  0.00000000E+00  0.00000000E+00
  0.00000000E+00  0.00000000E+00  0.00000000E+00
  0.00000000E+00  0.00000000E+00  0.00000000E+00
  0.00000000E+00  0.00000000E+00  0.00000000E+00
  0.00000000E+00  0.00000000E+00  0.00000000E+00
  0.00000000E+00  0.00000000E+00  0.00000000E+00
  0.00000000E+00  0.00000000E+00  0.00000000E+00
  0.00000000E+00  0.00000000E+00  0.00000000E+00
  0.00000000E+00  0.00000000E+00  0.00000000E+00
  0.00000000E+00  0.00000000E+00  0.00000000E+00
  0.00000000E+00  0.00000000E+00  0.00000000E+00
  0.00000000E+00  0.00000000E+00  0.00000000E+00
  0.00000000E+00  0.00000000E+00  0.00000000E+00
  0.00000000E+00  0.00000000E+00  0.00000000E+00
  0.00000000E+00  0.00000000E+00  0.00000000E+00
  0.00000000E+00  0.00000000E+00  0.00000000E+00
  0.00000000E+00  0.00000000E+00  0.00000000E+00
  0.00000000E+00  0.00000000E+00  0.00000000E+00
  0.00000000E+00  0.00000000E+00  0.00000000E+00
  0.00000000E+00  0.00000000E+00  0.00000000E+00
  0.00000000E+00  0.00000000E+00  0.00000000E+00
  0.00000000E+00  0.00000000E+00  0.00000000E+00
  0.00000000E+00  0.00000000E+00  0.00000000E+00
  0.00000000E+00  0.00000000E+00  0.00000000E+00
  0.00000000E+00  0.00000000E+00  0.00000000E+00
  0.00000000E+00  0.00000000E+00  0.00000000E+00
  0.00000000E+00  0.00000000E+00  0.00000000E+00
  0.00000000E+00  0.00000000E+00  0.00000000E+00
  0.00000000E+00  0.00000000E+00  0.00000000E+00
  0.00000000E+00  0.00000000E+00  0.00000000E+00
  0.00000000E+00  0.00000000E+00  0.00000000E+00
  0.00000000E+00  0.00000000E+00  0.00000000E+00
  0.00000000E+00  0.00000000E+00  0.00000000E+00
  0.00000000E+00  0.00000000E+00  0.00000000E+00
  0.00000000E+00  0.00000000E+00  0.00000000E+00
  0.00000000E+00  0.00000000E+00  0.00000000E+00
  0.00000000E+00  0.00000000E+00  0.00000000E+00
  0.00000000E+00  0.00000000E+00  0.00000000E+00
  0.00000000E+00  0.00000000E+00  0.00000000E+00
  0.00000000E+00  0.00000000E+00  0.00000000E+00
