supercell of icsd_191774.cif            
   1.00000000000000     
    10.6173191240282261   -0.0016512228797861   -0.0012406006115652
    -5.3100896105312669    9.1971914136957285   -0.0000119522746448
    -0.0013339288029424   -0.0007879099929399   11.2594470585556614
   N    In   Sc
    36    30     6
Direct
  0.2224513407171713  0.1109133834920186  0.4408545543974114
  0.1112780875904846  0.2226185669193015  0.1895565448828904
  0.8881581725820382  0.1111066045027087  0.9407241398497632
  0.7782775336611181  0.2233590862044394  0.6899018256615008
  0.5528577204738383  0.1059774742807562  0.4423210735462675
  0.4450706019650426  0.2225273938276828  0.1899172038175791
  0.2223400968144702  0.1108968495704516  0.9404734101359367
  0.1133523642565635  0.2264109559079515  0.6930407923477304
  0.8887168960338272  0.1107959077767475  0.4407388443590676
  0.7798294571367208  0.2268772908664189  0.1933792118750617
  0.5533933980745545  0.1060779587855194  0.9421153288822524
  0.4475766462204902  0.2265885219799983  0.6928666136689969
  0.2226546613588596  0.4449300261219093  0.4413411185713514
  0.1067286092839481  0.5533894678259017  0.1922319488014850
  0.8890118301066607  0.4444139747168663  0.9416033800617285
  0.7759476873748881  0.5581710879553867  0.6941190619186202
  0.5553367029065015  0.4446401530857642  0.4416249307734574
  0.4443475790157407  0.5551825857900496  0.1889586993565615
  0.2218047941620256  0.4447142566075186  0.9335628605198636
  0.1133973686018450  0.5538706470523636  0.6918816076601075
  0.8889882408580760  0.4451685604158371  0.4345784952984033
  0.7798296437721177  0.5534241313285477  0.1910096423062910
  0.5552908833900361  0.4441781141472987  0.9343127562304261
  0.4425428205157260  0.5515449993784927  0.6952838468589775
  0.2271142944603994  0.7802636989518561  0.4422972433972205
  0.1108397975124902  0.8882940236760675  0.1898366691862705
  0.8887384557957034  0.7779742662085809  0.9340651045320172
  0.7793558135862497  0.8869305954271667  0.6933031508489407
  0.5529888708871269  0.7795376755192507  0.4424262519588922
  0.4443368472981106  0.8887993592803412  0.1852347062629249
  0.2272788859884685  0.7799973069985242  0.9422276972245456
  0.1073420276240284  0.8861435069713153  0.6930839594072111
  0.8889673967647624  0.7779235644709033  0.4417590466853483
  0.7777296421320941  0.8884918987996642  0.1902665465592790
  0.5528104815268122  0.7801127576156119  0.9424222766244483
  0.4447640318331736  0.8885363950827809  0.6852235457200422
  0.2222598277845051  0.1111187011983574  0.2487990044316888
  0.1110503363379252  0.2219032143721122  0.5004029545688198
  0.8888364073425308  0.1112258304267897  0.7490450960694091
  0.7765937999286407  0.2215799082453955  0.0004747395607794
  0.5555326396324460  0.1104444013296870  0.2493714760009667
  0.4450617633454925  0.2215123797248211  0.5003094078119901
  0.2225109846533471  0.1108917427875227  0.7490123257145029
  0.1115676917433603  0.2233158131734925  0.9978699909328128
  0.8887199571725262  0.1112888735958677  0.2489100604673737
  0.7775844910225445  0.2233266363172959  0.4979478177742038
  0.5554004688791707  0.1104781251080666  0.7492201715043336
  0.4455770761249056  0.2226591812693712  0.9981304772207196
  0.2222066317938598  0.4449360532184841  0.2494784075595149
  0.1102546361095307  0.5562196532021275  0.4992894149138394
  0.8889610044691949  0.4461614585290050  0.7495973861340133
  0.7770534623536705  0.5564752933863559  0.9982398737941907
  0.5563689746773974  0.4451373087908266  0.2494495758165129
  0.4450089243507449  0.5566363505721768  0.5018730362481492
  0.1125150608982892  0.5561941872266587  0.9992910953798031
  0.7783968585643279  0.5550014290324228  0.5010877248462364
  0.4440091300286824  0.5551506232945798  0.9966920819167200
  0.2226065214322475  0.7774054075703702  0.2491849040917486
  0.1120447884522449  0.8884690949671707  0.5004312687811563
  0.7772712419597241  0.8878443459519545  0.9982378094322755
  0.5549359340226019  0.7775129700515038  0.2491966426803316
  0.2225839340196600  0.7775169156367312  0.7492528428983505
  0.1103718196145920  0.8876496219162746  0.9979878371935271
  0.8883515188037450  0.7767294206860882  0.2497370215562285
  0.7765923032874653  0.8885390235739479  0.5004480405374920
  0.5548426334539300  0.7768685763911876  0.7496250740813934
  0.2219128050819563  0.4441805532237595  0.7474435896470055
  0.8888534602759819  0.4449831093839194  0.2471027986487968
  0.5555040753062883  0.4446136410654731  0.7480416674707442
  0.8882207334253209  0.7776617030568005  0.7475164963266607
  0.4445089789348771  0.8887120611707147  0.4982056758726188
  0.4444794424341296  0.8888733430107010  0.9983521219262386
 
  0.00000000E+00  0.00000000E+00  0.00000000E+00
  0.00000000E+00  0.00000000E+00  0.00000000E+00
  0.00000000E+00  0.00000000E+00  0.00000000E+00
  0.00000000E+00  0.00000000E+00  0.00000000E+00
  0.00000000E+00  0.00000000E+00  0.00000000E+00
  0.00000000E+00  0.00000000E+00  0.00000000E+00
  0.00000000E+00  0.00000000E+00  0.00000000E+00
  0.00000000E+00  0.00000000E+00  0.00000000E+00
  0.00000000E+00  0.00000000E+00  0.00000000E+00
  0.00000000E+00  0.00000000E+00  0.00000000E+00
  0.00000000E+00  0.00000000E+00  0.00000000E+00
  0.00000000E+00  0.00000000E+00  0.00000000E+00
  0.00000000E+00  0.00000000E+00  0.00000000E+00
  0.00000000E+00  0.00000000E+00  0.00000000E+00
  0.00000000E+00  0.00000000E+00  0.00000000E+00
  0.00000000E+00  0.00000000E+00  0.00000000E+00
  0.00000000E+00  0.00000000E+00  0.00000000E+00
  0.00000000E+00  0.00000000E+00  0.00000000E+00
  0.00000000E+00  0.00000000E+00  0.00000000E+00
  0.00000000E+00  0.00000000E+00  0.00000000E+00
  0.00000000E+00  0.00000000E+00  0.00000000E+00
  0.00000000E+00  0.00000000E+00  0.00000000E+00
  0.00000000E+00  0.00000000E+00  0.00000000E+00
  0.00000000E+00  0.00000000E+00  0.00000000E+00
  0.00000000E+00  0.00000000E+00  0.00000000E+00
  0.00000000E+00  0.00000000E+00  0.00000000E+00
  0.00000000E+00  0.00000000E+00  0.00000000E+00
  0.00000000E+00  0.00000000E+00  0.00000000E+00
  0.00000000E+00  0.00000000E+00  0.00000000E+00
  0.00000000E+00  0.00000000E+00  0.00000000E+00
  0.00000000E+00  0.00000000E+00  0.00000000E+00
  0.00000000E+00  0.00000000E+00  0.00000000E+00
  0.00000000E+00  0.00000000E+00  0.00000000E+00
  0.00000000E+00  0.00000000E+00  0.00000000E+00
  0.00000000E+00  0.00000000E+00  0.00000000E+00
  0.00000000E+00  0.00000000E+00  0.00000000E+00
  0.00000000E+00  0.00000000E+00  0.00000000E+00
  0.00000000E+00  0.00000000E+00  0.00000000E+00
  0.00000000E+00  0.00000000E+00  0.00000000E+00
  0.00000000E+00  0.00000000E+00  0.00000000E+00
  0.00000000E+00  0.00000000E+00  0.00000000E+00
  0.00000000E+00  0.00000000E+00  0.00000000E+00
  0.00000000E+00  0.00000000E+00  0.00000000E+00
  0.00000000E+00  0.00000000E+00  0.00000000E+00
  0.00000000E+00  0.00000000E+00  0.00000000E+00
  0.00000000E+00  0.00000000E+00  0.00000000E+00
  0.00000000E+00  0.00000000E+00  0.00000000E+00
  0.00000000E+00  0.00000000E+00  0.00000000E+00
  0.00000000E+00  0.00000000E+00  0.00000000E+00
  0.00000000E+00  0.00000000E+00  0.00000000E+00
  0.00000000E+00  0.00000000E+00  0.00000000E+00
  0.00000000E+00  0.00000000E+00  0.00000000E+00
  0.00000000E+00  0.00000000E+00  0.00000000E+00
  0.00000000E+00  0.00000000E+00  0.00000000E+00
  0.00000000E+00  0.00000000E+00  0.00000000E+00
  0.00000000E+00  0.00000000E+00  0.00000000E+00
  0.00000000E+00  0.00000000E+00  0.00000000E+00
  0.00000000E+00  0.00000000E+00  0.00000000E+00
  0.00000000E+00  0.00000000E+00  0.00000000E+00
  0.00000000E+00  0.00000000E+00  0.00000000E+00
  0.00000000E+00  0.00000000E+00  0.00000000E+00
  0.00000000E+00  0.00000000E+00  0.00000000E+00
  0.00000000E+00  0.00000000E+00  0.00000000E+00
  0.00000000E+00  0.00000000E+00  0.00000000E+00
  0.00000000E+00  0.00000000E+00  0.00000000E+00
  0.00000000E+00  0.00000000E+00  0.00000000E+00
  0.00000000E+00  0.00000000E+00  0.00000000E+00
  0.00000000E+00  0.00000000E+00  0.00000000E+00
  0.00000000E+00  0.00000000E+00  0.00000000E+00
  0.00000000E+00  0.00000000E+00  0.00000000E+00
  0.00000000E+00  0.00000000E+00  0.00000000E+00
  0.00000000E+00  0.00000000E+00  0.00000000E+00
