generated by phonopy                    
   1.00000000000000     
    11.7777700938999992   -0.0000006592896312    0.0000118211769744
    -0.0000006477562692   11.7777479613999994   -0.0000130806483528
     0.0000177256125076   -0.0000204342245446   17.8544012557999991
   Sn   Bi   Cu   Se   O 
     1    35    36    36    36
Direct
  0.0000549023759362  0.1667809257878048  0.4300845601159793
  0.3304997032310339  0.1667872958094563  0.4292781579342275
  0.6695847566713198  0.1667746785224651  0.4292892822466143
  0.0000485715188105  0.4972366344263577  0.4292816377916537
  0.3330391219856423  0.4997812084312585  0.4282279886804403
  0.6670484138916422  0.4997727864326862  0.4282387165954020
  0.0000662826896587  0.8363332335025007  0.4292856396959337
  0.3330499891866268  0.8337892683151367  0.4282286386473473
  0.6670629174313873  0.8337822448775967  0.4282404898198493
  0.9999875390980648  0.1666905702030022  0.9293151167023197
  0.3331051509091409  0.1666909234486127  0.9291390167862730
  0.6668752720376858  0.1666829433543811  0.9291315427328968
  0.9999816897874112  0.4998018413185932  0.9291357485860559
  0.3333099799240102  0.5000094598702418  0.9290709914231954
  0.6666701429994220  0.5000010749739019  0.9290633278511820
  0.9999944814585007  0.8335755228471626  0.9291349082398881
  0.3333148404980832  0.8333677613769552  0.9290709516692104
  0.6666760465579600  0.8333643607539258  0.9290599606930741
  0.1666072618845575  0.0000811655680977  0.0715335558617483
  0.4999974228273203  0.0001928091723116  0.0710506060318892
  0.8333770285279769  0.0000683944527111  0.0715286408278288
  0.1665943430634016  0.3333103745613144  0.0715338820219173
  0.4999849907406926  0.3331761093004744  0.0710530630214876
  0.8333626123793891  0.3332972536145320  0.0715314169344836
  0.1664793493115155  0.6666911339413630  0.0710538444183442
  0.4999999570855920  0.6666852642288035  0.0711878524545284
  0.8334975559800952  0.6666874835572969  0.0710500307951420
  0.1659242870627438  0.0009275677712637  0.5706384672569484
  0.5000451857961608  0.0002922257328848  0.5700169448687191
  0.8341980257633068  0.0009218329597545  0.5706405543081701
  0.1659101936237874  0.3326508011947666  0.5706330072009251
  0.5000391579740366  0.3332680406112232  0.5700179558668879
  0.8341870633289687  0.3326374963170906  0.5706357965542779
  0.1665388751204020  0.6667857020304240  0.5700164109056303
  0.5000440742812344  0.6667811938234465  0.5701780253451361
  0.8335686597510090  0.6667792093412928  0.5700157136928112
  0.0000238552488767  0.0002287562871146  0.2516731336310656
  0.3339928142814372  0.9981297187401950  0.2495349869348829
  0.6661039398651027  0.9981084469310773  0.2495446329454509
  0.9999875690759126  0.3332280771459963  0.2516736904629795
  0.3339242769022235  0.3353296859184880  0.2495317222882676
  0.6660363129579849  0.3352823451792517  0.2495506296009964
  0.0000254739636958  0.6667290299345723  0.2502686538149277
  0.3326404309589321  0.6667317053126069  0.2499394112490165
  0.6674331435945433  0.6667126188221886  0.2499446307461213
  0.0000443920911621  0.9996500719130950  0.7500066869087121
  0.3336768337462530  0.9997787376031013  0.7499085319120837
  0.6663771410216768  0.9997561125533565  0.7498994058401891
  0.0000193042783110  0.3338696403497323  0.7500086326574120
  0.3336726012582005  0.3337404423152037  0.7499089806136610
  0.6663712472314671  0.3337282326165933  0.7498983861989643
  0.0000268759368396  0.6667542005429468  0.7503308509846462
  0.3335706082932290  0.6667508026573472  0.7499847732342388
  0.6664769730225473  0.6667383264329558  0.7499712022035538
  0.1664590329384694  0.1667945660718573  0.2516645963707234
  0.4999618245945641  0.1667520594670435  0.2502683984765426
  0.8334541934735498  0.1667460447397886  0.2516771743403723
  0.1685542152457913  0.5007299995206296  0.2495335222943780
  0.4999736941788839  0.4993508009282692  0.2499433420654427
  0.8313702069337410  0.5007017718206797  0.2495529074982628
  0.1686077782112960  0.8328423869902011  0.2495304447945372
  0.5000120991162689  0.8341514902893010  0.2499395061194747
  0.8314254556499563  0.8328061378632725  0.2495469106609391
  0.1671628263397338  0.1667173012205510  0.7500150653992392
  0.5000625664184994  0.1667022714772557  0.7503329299140518
  0.8329530798010722  0.1667002698193087  0.7500007379110443
  0.1670317310927132  0.5003637414109718  0.7499054304518253
  0.5000457851974005  0.5002509182304280  0.7499749459630465
  0.8330647692967048  0.5003454558518712  0.7498970187096106
  0.1670441373294693  0.8330579004701519  0.7499131988202592
  0.5000725369507535  0.8331476841530900  0.7499783601537970
  0.8330795027780979  0.8330529473865909  0.7498957037642029
  0.1691075127755823  0.3358865573605385  0.3361006321344604
  0.4999979255554905  0.3335267203068639  0.3369744105043537
  0.8308951338062727  0.3358580341147217  0.3361079405525658
  0.1668042234731146  0.6667823172680798  0.3369677164050273
  0.5000310763371232  0.6667590462148780  0.3362027842783490
  0.8332558608201310  0.6667598374048680  0.3369803625098555
  0.1691400843641802  0.9976762812244999  0.3360940907506986
  0.5000357958031358  0.9999844434961460  0.3369728194639094
  0.8309323007949203  0.9976523315736472  0.3361127854379617
  0.1666623632360995  0.3333668169293773  0.8373342380556323
  0.5000152748035376  0.3335168470306868  0.8376747062852772
  0.8333588360749147  0.3333539370848158  0.8373288242191066
  0.1668263424355700  0.6667088155159462  0.8376801983124622
  0.5000196061012048  0.6667011384224324  0.8378308815096673
  0.8332053072725571  0.6667020211163290  0.8376698813337100
  0.1666735657290630  0.0000616541484817  0.8373360287646676
  0.5000225553884619  0.9998922347254293  0.8376738620332915
  0.8333713577285948  0.0000536038858314  0.8373254905471654
  0.3331916220997755  0.1667222351489528  0.1629825223395187
  0.6667638029706353  0.1667020679186422  0.1629839630172185
  0.9999697164172119  0.1667207607458536  0.1637653048257448
  0.3344535460022797  0.5011959844740659  0.1610608052585434
  0.6655156369764654  0.5011720974857852  0.1610712594442845
  0.9999715576084611  0.4999360471103529  0.1629852233335143
  0.3344776020543776  0.8322504592119486  0.1610583924805482
  0.6655399341157846  0.8322405431505899  0.1610650167707988
  0.9999999134907966  0.8335092339666872  0.1629824061718494
  0.3339716561251791  0.1667611931300925  0.6634069986661473
  0.6661268403336251  0.1667491114570865  0.6633993768435431
  0.0000566406734350  0.1667624615611416  0.6632791424226099
  0.3336381697076192  0.5003563671858018  0.6630780715822482
  0.6664452792192606  0.5003443337134996  0.6630719005038443
  0.0000492356283104  0.5006804316798963  0.6634003138940159
  0.3336499645012623  0.8331600572449389  0.6630825986199582
  0.6664563372459114  0.8331493638286034  0.6630718775357209
  0.0000631456185332  0.8328361139324798  0.6634031928083104
  0.1684819391882399  0.1667811177878491  0.5017591876332190
  0.5000334593066711  0.1667737927396828  0.4995826797827547
  0.8316166079009761  0.1667707774976179  0.5017589162346354
  0.1672637345609473  0.5001433854594737  0.4996715151639677
  0.5000351296990999  0.5001128864205739  0.4997091577147472
  0.8328271264845171  0.5001384915083023  0.4996733223120842
  0.1672746701029766  0.8334120554717828  0.4996744584057211
  0.5000413796831324  0.8334347822245860  0.4997116448157328
  0.8328343495685147  0.8334131913518021  0.4996726434715413
  0.1664479571573594  0.1667011026181626  0.0002882053779274
  0.4999954248930720  0.1666948779593582  0.9997523425508277
  0.8335388001342849  0.1666940119930089  0.0002840861930622
  0.1664027300011028  0.4997167893794412  0.0001608431984650
  0.4999980545368672  0.4995255828773040  0.9995676633776895
  0.8335780843152776  0.4997101425426393  0.0001605478229152
  0.1664099470952891  0.8336813632220768  0.0001619744640067
  0.5000031309085884  0.8338632460113402  0.9995643175094457
  0.8335861479765754  0.8336782448675919  0.0001565821780289
  0.9999955369673330  0.0002435246241461  0.0002858136455188
  0.3330130316533086  0.0002844340089680  0.0001616450112323
  0.6669780594794119  0.0002796175648143  0.0001555528138368
  0.9999871081013936  0.3331500758010790  0.0002875511145959
  0.3330067789431368  0.3331106221323523  0.0001638761663258
  0.6669710050331545  0.3331023665275055  0.0001583762753299
  0.9999908380284666  0.6666967998242299  0.9997520226506396
  0.3328270182802484  0.6666962100774612  0.9995707168082930
  0.6671662722980756  0.6666931189784009  0.9995620278416268
  0.0000610798284058  0.9983406026646904  0.5017654008054748
  0.3334113062762682  0.9995622452729265  0.4996682148289295
  0.6666795096198896  0.9995563343039038  0.4996784718577629
  0.0000489466314235  0.3352149851829367  0.5017586572940473
  0.3334091897175782  0.3339980068209982  0.4996667330422468
  0.6666752284582387  0.3339886725167176  0.4996783456211915
  0.0000546460796187  0.6667761219731219  0.4995791571183901
  0.3333860942543794  0.6667770873456575  0.4997076016512167
  0.6667097658281520  0.6667702005001743  0.4997154210150043
 
  0.00000000E+00  0.00000000E+00  0.00000000E+00
  0.00000000E+00  0.00000000E+00  0.00000000E+00
  0.00000000E+00  0.00000000E+00  0.00000000E+00
  0.00000000E+00  0.00000000E+00  0.00000000E+00
  0.00000000E+00  0.00000000E+00  0.00000000E+00
  0.00000000E+00  0.00000000E+00  0.00000000E+00
  0.00000000E+00  0.00000000E+00  0.00000000E+00
  0.00000000E+00  0.00000000E+00  0.00000000E+00
  0.00000000E+00  0.00000000E+00  0.00000000E+00
  0.00000000E+00  0.00000000E+00  0.00000000E+00
  0.00000000E+00  0.00000000E+00  0.00000000E+00
  0.00000000E+00  0.00000000E+00  0.00000000E+00
  0.00000000E+00  0.00000000E+00  0.00000000E+00
  0.00000000E+00  0.00000000E+00  0.00000000E+00
  0.00000000E+00  0.00000000E+00  0.00000000E+00
  0.00000000E+00  0.00000000E+00  0.00000000E+00
  0.00000000E+00  0.00000000E+00  0.00000000E+00
  0.00000000E+00  0.00000000E+00  0.00000000E+00
  0.00000000E+00  0.00000000E+00  0.00000000E+00
  0.00000000E+00  0.00000000E+00  0.00000000E+00
  0.00000000E+00  0.00000000E+00  0.00000000E+00
  0.00000000E+00  0.00000000E+00  0.00000000E+00
  0.00000000E+00  0.00000000E+00  0.00000000E+00
  0.00000000E+00  0.00000000E+00  0.00000000E+00
  0.00000000E+00  0.00000000E+00  0.00000000E+00
  0.00000000E+00  0.00000000E+00  0.00000000E+00
  0.00000000E+00  0.00000000E+00  0.00000000E+00
  0.00000000E+00  0.00000000E+00  0.00000000E+00
  0.00000000E+00  0.00000000E+00  0.00000000E+00
  0.00000000E+00  0.00000000E+00  0.00000000E+00
  0.00000000E+00  0.00000000E+00  0.00000000E+00
  0.00000000E+00  0.00000000E+00  0.00000000E+00
  0.00000000E+00  0.00000000E+00  0.00000000E+00
  0.00000000E+00  0.00000000E+00  0.00000000E+00
  0.00000000E+00  0.00000000E+00  0.00000000E+00
  0.00000000E+00  0.00000000E+00  0.00000000E+00
  0.00000000E+00  0.00000000E+00  0.00000000E+00
  0.00000000E+00  0.00000000E+00  0.00000000E+00
  0.00000000E+00  0.00000000E+00  0.00000000E+00
  0.00000000E+00  0.00000000E+00  0.00000000E+00
  0.00000000E+00  0.00000000E+00  0.00000000E+00
  0.00000000E+00  0.00000000E+00  0.00000000E+00
  0.00000000E+00  0.00000000E+00  0.00000000E+00
  0.00000000E+00  0.00000000E+00  0.00000000E+00
  0.00000000E+00  0.00000000E+00  0.00000000E+00
  0.00000000E+00  0.00000000E+00  0.00000000E+00
  0.00000000E+00  0.00000000E+00  0.00000000E+00
  0.00000000E+00  0.00000000E+00  0.00000000E+00
  0.00000000E+00  0.00000000E+00  0.00000000E+00
  0.00000000E+00  0.00000000E+00  0.00000000E+00
  0.00000000E+00  0.00000000E+00  0.00000000E+00
  0.00000000E+00  0.00000000E+00  0.00000000E+00
  0.00000000E+00  0.00000000E+00  0.00000000E+00
  0.00000000E+00  0.00000000E+00  0.00000000E+00
  0.00000000E+00  0.00000000E+00  0.00000000E+00
  0.00000000E+00  0.00000000E+00  0.00000000E+00
  0.00000000E+00  0.00000000E+00  0.00000000E+00
  0.00000000E+00  0.00000000E+00  0.00000000E+00
  0.00000000E+00  0.00000000E+00  0.00000000E+00
  0.00000000E+00  0.00000000E+00  0.00000000E+00
  0.00000000E+00  0.00000000E+00  0.00000000E+00
  0.00000000E+00  0.00000000E+00  0.00000000E+00
  0.00000000E+00  0.00000000E+00  0.00000000E+00
  0.00000000E+00  0.00000000E+00  0.00000000E+00
  0.00000000E+00  0.00000000E+00  0.00000000E+00
  0.00000000E+00  0.00000000E+00  0.00000000E+00
  0.00000000E+00  0.00000000E+00  0.00000000E+00
  0.00000000E+00  0.00000000E+00  0.00000000E+00
  0.00000000E+00  0.00000000E+00  0.00000000E+00
  0.00000000E+00  0.00000000E+00  0.00000000E+00
  0.00000000E+00  0.00000000E+00  0.00000000E+00
  0.00000000E+00  0.00000000E+00  0.00000000E+00
  0.00000000E+00  0.00000000E+00  0.00000000E+00
  0.00000000E+00  0.00000000E+00  0.00000000E+00
  0.00000000E+00  0.00000000E+00  0.00000000E+00
  0.00000000E+00  0.00000000E+00  0.00000000E+00
  0.00000000E+00  0.00000000E+00  0.00000000E+00
  0.00000000E+00  0.00000000E+00  0.00000000E+00
  0.00000000E+00  0.00000000E+00  0.00000000E+00
  0.00000000E+00  0.00000000E+00  0.00000000E+00
  0.00000000E+00  0.00000000E+00  0.00000000E+00
  0.00000000E+00  0.00000000E+00  0.00000000E+00
  0.00000000E+00  0.00000000E+00  0.00000000E+00
  0.00000000E+00  0.00000000E+00  0.00000000E+00
  0.00000000E+00  0.00000000E+00  0.00000000E+00
  0.00000000E+00  0.00000000E+00  0.00000000E+00
  0.00000000E+00  0.00000000E+00  0.00000000E+00
  0.00000000E+00  0.00000000E+00  0.00000000E+00
  0.00000000E+00  0.00000000E+00  0.00000000E+00
  0.00000000E+00  0.00000000E+00  0.00000000E+00
  0.00000000E+00  0.00000000E+00  0.00000000E+00
  0.00000000E+00  0.00000000E+00  0.00000000E+00
  0.00000000E+00  0.00000000E+00  0.00000000E+00
  0.00000000E+00  0.00000000E+00  0.00000000E+00
  0.00000000E+00  0.00000000E+00  0.00000000E+00
  0.00000000E+00  0.00000000E+00  0.00000000E+00
  0.00000000E+00  0.00000000E+00  0.00000000E+00
  0.00000000E+00  0.00000000E+00  0.00000000E+00
  0.00000000E+00  0.00000000E+00  0.00000000E+00
  0.00000000E+00  0.00000000E+00  0.00000000E+00
  0.00000000E+00  0.00000000E+00  0.00000000E+00
  0.00000000E+00  0.00000000E+00  0.00000000E+00
  0.00000000E+00  0.00000000E+00  0.00000000E+00
  0.00000000E+00  0.00000000E+00  0.00000000E+00
  0.00000000E+00  0.00000000E+00  0.00000000E+00
  0.00000000E+00  0.00000000E+00  0.00000000E+00
  0.00000000E+00  0.00000000E+00  0.00000000E+00
  0.00000000E+00  0.00000000E+00  0.00000000E+00
  0.00000000E+00  0.00000000E+00  0.00000000E+00
  0.00000000E+00  0.00000000E+00  0.00000000E+00
  0.00000000E+00  0.00000000E+00  0.00000000E+00
  0.00000000E+00  0.00000000E+00  0.00000000E+00
  0.00000000E+00  0.00000000E+00  0.00000000E+00
  0.00000000E+00  0.00000000E+00  0.00000000E+00
  0.00000000E+00  0.00000000E+00  0.00000000E+00
  0.00000000E+00  0.00000000E+00  0.00000000E+00
  0.00000000E+00  0.00000000E+00  0.00000000E+00
  0.00000000E+00  0.00000000E+00  0.00000000E+00
  0.00000000E+00  0.00000000E+00  0.00000000E+00
  0.00000000E+00  0.00000000E+00  0.00000000E+00
  0.00000000E+00  0.00000000E+00  0.00000000E+00
  0.00000000E+00  0.00000000E+00  0.00000000E+00
  0.00000000E+00  0.00000000E+00  0.00000000E+00
  0.00000000E+00  0.00000000E+00  0.00000000E+00
  0.00000000E+00  0.00000000E+00  0.00000000E+00
  0.00000000E+00  0.00000000E+00  0.00000000E+00
  0.00000000E+00  0.00000000E+00  0.00000000E+00
  0.00000000E+00  0.00000000E+00  0.00000000E+00
  0.00000000E+00  0.00000000E+00  0.00000000E+00
  0.00000000E+00  0.00000000E+00  0.00000000E+00
  0.00000000E+00  0.00000000E+00  0.00000000E+00
  0.00000000E+00  0.00000000E+00  0.00000000E+00
  0.00000000E+00  0.00000000E+00  0.00000000E+00
  0.00000000E+00  0.00000000E+00  0.00000000E+00
  0.00000000E+00  0.00000000E+00  0.00000000E+00
  0.00000000E+00  0.00000000E+00  0.00000000E+00
  0.00000000E+00  0.00000000E+00  0.00000000E+00
  0.00000000E+00  0.00000000E+00  0.00000000E+00
  0.00000000E+00  0.00000000E+00  0.00000000E+00
  0.00000000E+00  0.00000000E+00  0.00000000E+00
  0.00000000E+00  0.00000000E+00  0.00000000E+00
  0.00000000E+00  0.00000000E+00  0.00000000E+00
  0.00000000E+00  0.00000000E+00  0.00000000E+00
  0.00000000E+00  0.00000000E+00  0.00000000E+00
