supercell of POSCAR                     
   1.01800000000000     
     3.1310994802600001   -5.4896946145000003   10.0244832682999991
    -9.4821132118399998   -5.5089477087900001    0.0170740616273000
     6.3359946057599998  -11.0114127993000004  -10.0652216442999993
   Al   Gd   N    O 
    84    12    95     1
Direct
  0.0874184438305079  0.5851266912395658  0.3351291668209555
  0.5024395651387010  0.3224353386317844  0.2573242105852955
  0.0854758940333511  0.0850816597961952  0.3343478938660880
  0.2511997597483884  0.5791923859211323  0.4946319868967493
  0.3298268647510412  0.3161387324690921  0.0754309949527254
  0.4177183177081858  0.0862436238709989  0.1703209255347886
  0.0073068869876423  0.8431636384304184  0.2548447308360338
  0.1668126728971373  0.3314181427996843  0.4136318622995176
  0.2476991961408359  0.0867823036489099  0.4961414287599055
  0.1618721580397278  0.8368408281526953  0.4160846498034090
  0.3361386851452650  0.6737857482830805  0.3397176967141959
  0.1551075243320597  0.6739298308335080  0.1663908622887789
  0.2401458400165737  0.4037723849342498  0.2564871070746477
  0.3334280969907653  0.1636486085579492  0.3341162004291789
  0.0061584107028878  0.6733702546305409  0.4946343304990819
  0.1663222422684072  0.1582616870793672  0.1693225877148876
  0.2527242457042718  0.9197280638508900  0.2555589472246922
  0.4116474267201014  0.4151802119152208  0.4159951743205497
  0.4983226329687369  0.1617007975776659  0.4969682263593356
  0.0838630492901089  0.9230437371392597  0.0798504139649836
  0.4196822442417556  0.9198890816451240  0.4116822916730598
  0.0901013164010038  0.5849797863011901  0.8346381236530362
  0.5001508734039817  0.3229535411488698  0.7553685445047904
  0.0866316844277506  0.0851875889136124  0.8343214612170442
  0.2528206312540320  0.5787224702607858  0.9948127627578600
  0.3317317200978280  0.3183548674468071  0.5787564259397087
  0.4175282311648800  0.0871208172378815  0.6709177054759365
  0.0081035017340838  0.8435208741865026  0.7550753405741872
  0.1680303577944215  0.3317834575974956  0.9121452932990621
  0.2485045932283469  0.0857791088612032  0.9960916411830141
  0.1633036637104794  0.8369499297994452  0.9162999093603261
  0.3370463622045037  0.6740691581143281  0.8399298049328365
  0.1549130601249757  0.6752113185469781  0.6661066213248859
  0.2506222945024277  0.4022296284409563  0.7525920853384775
  0.3349662288191979  0.1644170402364935  0.8341231923931147
  0.0072716383857454  0.6737035235583093  0.9941534380609980
  0.1673144337994685  0.1589677642158023  0.6694668297067636
  0.2533685674647188  0.9202908416295728  0.7557442113605077
  0.4137687469592279  0.4156336361432409  0.9155385726470016
  0.4997922703314401  0.1623665285415399  0.9973033810984901
  0.0832427963201283  0.9238681857020978  0.5797743742770010
  0.4204738792682150  0.9207973832211778  0.9117319022655650
  0.5890171482694839  0.5848528088044418  0.3335580264158580
  0.9974930561178752  0.3224586584567817  0.2551443789272057
  0.5854663504244684  0.0852500344910325  0.3340831551996573
  0.7512133832528960  0.5793524811455413  0.4941827913060521
  0.8325431740444955  0.3178746779355066  0.0778351361922134
  0.9172541118054198  0.0863987003451072  0.1705298134216662
  0.5069694715096560  0.8436213661874348  0.2543691045719569
  0.6680723141373690  0.3320289356927546  0.4129418366793871
  0.7475378777416282  0.0869771631078038  0.4958720823086011
  0.6617187564527214  0.8371004605540620  0.4158123106880609
  0.8362472165728718  0.6740915957335574  0.3400049648220502
  0.6538665697639132  0.6756308645692499  0.1661048281860928
  0.7488623283192837  0.4025079823823035  0.2520485193655020
  0.8337913801944623  0.1638433624615629  0.3339326868157926
  0.5062542025517160  0.6731659495673767  0.4941875105149336
  0.6671412383284121  0.1586842401109649  0.1685894966753665
  0.7527596312771436  0.9201327515751672  0.2555665560013978
  0.9119721129208997  0.4149497878927306  0.4154063173990608
  0.9983070323651617  0.1614202493195691  0.4970353113513468
  0.5835508496688888  0.9237794279764699  0.0793923196349695
  0.9198409077186440  0.9200353783695050  0.4116638507046630
  0.5899602469344956  0.5849871361604215  0.8340955821638829
  0.0001902071348638  0.3229745307572145  0.7554693199547771
  0.5864623856378586  0.0854758332730938  0.8342453989414125
  0.7530721546098604  0.5793779231222587  0.9935785879124737
  0.8320961052116047  0.3184737703053528  0.5783772638149642
  0.9176252080462604  0.0870411096327786  0.6709048097923116
  0.5077938062650134  0.8436226601030654  0.7549982851658186
  0.6689077309099076  0.3319761944209674  0.9115658848594563
  0.7484785942310310  0.0866629811881481  0.9956904186967890
  0.6628479757045511  0.8370836286997374  0.9158356036385484
  0.8374665080818957  0.6739944515381282  0.8397498645593444
  0.6547595411024858  0.6753114159360010  0.6656692630319725
  0.7506681636193449  0.4020649436600507  0.7518637461480182
  0.8350127425882619  0.1639218064028896  0.8337848856385506
  0.5068829599542752  0.6744630957138327  0.9936140661713466
  0.6672567267386000  0.1589440145937075  0.6692538547502735
  0.7532655976986717  0.9201462433265775  0.7556777198555906
  0.9130346263266205  0.4148395049635596  0.9151785663457659
  0.9992319898318982  0.1611692073855906  0.9968265734983888
  0.5830177158811480  0.9239178885831478  0.5796328104826571
  0.9206523908372120  0.9200298771655611  0.9116104902936968
  0.4006140229062964  0.5737461909042025  0.1800455359174933
  0.3335419901869798  0.8326787196775598  0.0842628065077591
  0.0812162724394412  0.4201941457029363  0.0847747412260347
  0.3983124391573867  0.5798060284548541  0.6788185312789636
  0.3321478440184649  0.8364701597745992  0.5835685315966259
  0.0815365496454064  0.4193564677599326  0.5854543123090536
  0.8976603016026559  0.5794439411124443  0.1788434570940183
  0.8323209383922290  0.8347584520406883  0.0833177508579439
  0.5862519616628390  0.4233293318609554  0.0841350920239421
  0.8979071710609290  0.5802656789192895  0.6786536094661955
  0.8318996330821591  0.8371024896135992  0.5833953933838671
  0.5818511753063547  0.4193071316757795  0.5849318318902021
  0.2173489664316364  0.5792696101828838  0.2670968429318208
  0.0325008829695150  0.6124708411333160  0.1005875407129864
  0.1279383669040257  0.3164994303717918  0.1996208741392849
  0.2119101716302936  0.0824392464989785  0.2720650666584206
  0.3815549842525030  0.5840262550622057  0.4369954355023609
  0.4505599353124694  0.3214286707981131  0.0128487627340448
  0.0409412141240750  0.0850265047169358  0.1035065371451012
  0.1326487155441924  0.8418682914990043  0.1858026701039961
  0.2952595440576360  0.3290190539655740  0.3526007522580059
  0.3765953094614503  0.0808108709988318  0.4349050371628209
  0.4760646889574076  0.8388112626764723  0.0076518776718899
  0.2924939304812995  0.8351873200755549  0.3562611798787785
  0.4699264084271988  0.6849581351704188  0.2848483860977922
  0.2657993441960187  0.6503804439676628  0.0972317716408142
  0.4605529747288344  0.1643607223438153  0.2730951725401596
  0.1338484398024278  0.6657564639252769  0.4331398944519407
  0.2245318820850244  0.4118549071422208  0.0097345808553158
  0.2905090880500154  0.1583680541251056  0.1025754368589773
  0.3842880433147187  0.9284778228438739  0.2014126749271483
  0.0427071133904633  0.4189160073782077  0.3518865013948798
  0.1264705539911475  0.1702683453088767  0.4347269842088224
  0.1986995367902509  0.9305312547302762  0.0112182599401578
  0.0484204777026704  0.9240132094629132  0.3523574724354859
  0.2188389086580429  0.5812901950606388  0.7668776679665186
  0.0329615007109680  0.6117434869566054  0.6007742518890851
  0.1304439094081786  0.3172423427950619  0.7005689315117536
  0.2129966172994244  0.0828533446446968  0.7723535370279606
  0.3826639130698410  0.5841472830530279  0.9373073684067919
  0.4483771441359892  0.3193059454420180  0.5106062335598409
  0.0407027419537016  0.0858423644036961  0.6036605167931981
  0.1327357266340385  0.8431122665163002  0.6857809862395285
  0.2970274655832768  0.3297252042926928  0.8530295793969529
  0.3775492209618534  0.0819540381777841  0.9355193440443372
  0.4757737073497310  0.8380061590399634  0.5077252094004834
  0.2934133586468590  0.8358073066928284  0.8564837901193201
  0.4718169594374331  0.6854806078392599  0.7868379011465692
  0.2637764162224912  0.6553085339822928  0.5951119490733987
  0.3742427905492249  0.3822859379883710  0.6855840947790455
  0.4622818011466094  0.1629532829599043  0.7740146903024012
  0.1356400018458785  0.6656690004648169  0.9335961915480055
  0.2239825684058161  0.4121431052380515  0.5095885949879388
  0.2901266722464015  0.1571623975384497  0.6020870219097674
  0.3850644389584446  0.9281780293179338  0.7019899407968353
  0.0435121353041623  0.4194954082184665  0.8523842587525223
  0.1277169431711727  0.1703110659299512  0.9348997898344606
  0.1966883269916906  0.9316761646753946  0.5101238416020522
  0.0496239696280014  0.9241004925617915  0.8527813010590890
  0.7179420702791646  0.5811624346598734  0.2665173967083518
  0.5303452399032764  0.6144120689518999  0.1005510364700086
  0.6277454108904053  0.3177060448863713  0.1988379154504329
  0.7116456949563883  0.0829637276496697  0.2717906512770085
  0.8819287139604413  0.5839133746445029  0.4371455006838474
  0.9496283686342153  0.3189574080316007  0.0103635427256563
  0.5408219074818064  0.0855384923084515  0.1034115151011505
  0.6320713564461684  0.8432358649807981  0.1856271138266337
  0.7952785187629061  0.3293813045168861  0.3519514982688534
  0.8764593351933527  0.0808476418233823  0.4349936077178853
  0.9763681982655683  0.8382515376936794  0.0078390827524686
  0.7923822949989514  0.8357348172561458  0.3563564200011271
  0.9707604582338973  0.6854180708869322  0.2866856734452483
  0.7621177577685003  0.6534185882173560  0.0948604639719335
  0.8722290274388698  0.3819680676797503  0.1850276255934560
  0.9612089788077256  0.1623243987080585  0.2737824889686564
  0.6334756561817159  0.6656877461414510  0.4322016545364278
  0.7263204765050588  0.4122633337269122  0.0079412960908698
  0.7903139247639075  0.1572235288382515  0.1016746198159098
  0.8844245739450827  0.9275711239376889  0.2015094283154255
  0.5416353553020699  0.4195421684308442  0.3522566842074966
  0.6262891222234046  0.1708739609919618  0.4342925742609296
  0.6975410140098219  0.9315262827009363  0.0102380004095650
  0.5478765613334105  0.9242200397332567  0.3520037815933463
  0.7188596585685829  0.5812261840712836  0.7664477523452717
  0.5328396502088850  0.6115685893603029  0.6003893178847264
  0.6301535383816201  0.3172481132943048  0.7001620151054482
  0.7127584635995490  0.0827049725442208  0.7721182405993261
  0.8832934484707096  0.5841717890060707  0.9369956366605621
  0.9488714953841395  0.3193308610336203  0.5102838848485973
  0.5405770837257009  0.0858941012971783  0.6035212681361202
  0.6325066360125291  0.8430679403929560  0.6856547151695764
  0.7969654468450642  0.3292093056896590  0.8518404475004004
  0.8773150162304333  0.0807656914419042  0.9348885008460002
  0.9757838043028855  0.8382275414383642  0.5078971494179854
  0.7933030595012269  0.8354172590925231  0.8563470548646848
  0.9722899675206804  0.6853543823135197  0.7868697897388230
  0.7635636614718067  0.6558524567063344  0.5945694778488360
  0.8747467895979497  0.3825514790219273  0.6851287458072051
  0.9625470546778345  0.1627989013787996  0.7739619687616752
  0.6349223054204316  0.6657118465372633  0.9328108103867336
  0.7243352894835908  0.4122909448261822  0.5092955213055532
  0.7901915560377830  0.1572715397675140  0.6019158773015718
  0.8851717721360473  0.9280494707640230  0.7021186470466532
  0.5434185198878012  0.4194825387660970  0.8523325136377764
  0.6272715364725272  0.1712060693711592  0.9346562908012643
  0.6962177574228363  0.9319969320887864  0.5098717304487224
  0.5491964936675302  0.9244544938046815  0.8525488764006397
  0.3651633813498520  0.3762852210538483  0.1879320135753844
 
  0.00000000E+00  0.00000000E+00  0.00000000E+00
  0.00000000E+00  0.00000000E+00  0.00000000E+00
  0.00000000E+00  0.00000000E+00  0.00000000E+00
  0.00000000E+00  0.00000000E+00  0.00000000E+00
  0.00000000E+00  0.00000000E+00  0.00000000E+00
  0.00000000E+00  0.00000000E+00  0.00000000E+00
  0.00000000E+00  0.00000000E+00  0.00000000E+00
  0.00000000E+00  0.00000000E+00  0.00000000E+00
  0.00000000E+00  0.00000000E+00  0.00000000E+00
  0.00000000E+00  0.00000000E+00  0.00000000E+00
  0.00000000E+00  0.00000000E+00  0.00000000E+00
  0.00000000E+00  0.00000000E+00  0.00000000E+00
  0.00000000E+00  0.00000000E+00  0.00000000E+00
  0.00000000E+00  0.00000000E+00  0.00000000E+00
  0.00000000E+00  0.00000000E+00  0.00000000E+00
  0.00000000E+00  0.00000000E+00  0.00000000E+00
  0.00000000E+00  0.00000000E+00  0.00000000E+00
  0.00000000E+00  0.00000000E+00  0.00000000E+00
  0.00000000E+00  0.00000000E+00  0.00000000E+00
  0.00000000E+00  0.00000000E+00  0.00000000E+00
  0.00000000E+00  0.00000000E+00  0.00000000E+00
  0.00000000E+00  0.00000000E+00  0.00000000E+00
  0.00000000E+00  0.00000000E+00  0.00000000E+00
  0.00000000E+00  0.00000000E+00  0.00000000E+00
  0.00000000E+00  0.00000000E+00  0.00000000E+00
  0.00000000E+00  0.00000000E+00  0.00000000E+00
  0.00000000E+00  0.00000000E+00  0.00000000E+00
  0.00000000E+00  0.00000000E+00  0.00000000E+00
  0.00000000E+00  0.00000000E+00  0.00000000E+00
  0.00000000E+00  0.00000000E+00  0.00000000E+00
  0.00000000E+00  0.00000000E+00  0.00000000E+00
  0.00000000E+00  0.00000000E+00  0.00000000E+00
  0.00000000E+00  0.00000000E+00  0.00000000E+00
  0.00000000E+00  0.00000000E+00  0.00000000E+00
  0.00000000E+00  0.00000000E+00  0.00000000E+00
  0.00000000E+00  0.00000000E+00  0.00000000E+00
  0.00000000E+00  0.00000000E+00  0.00000000E+00
  0.00000000E+00  0.00000000E+00  0.00000000E+00
  0.00000000E+00  0.00000000E+00  0.00000000E+00
  0.00000000E+00  0.00000000E+00  0.00000000E+00
  0.00000000E+00  0.00000000E+00  0.00000000E+00
  0.00000000E+00  0.00000000E+00  0.00000000E+00
  0.00000000E+00  0.00000000E+00  0.00000000E+00
  0.00000000E+00  0.00000000E+00  0.00000000E+00
  0.00000000E+00  0.00000000E+00  0.00000000E+00
  0.00000000E+00  0.00000000E+00  0.00000000E+00
  0.00000000E+00  0.00000000E+00  0.00000000E+00
  0.00000000E+00  0.00000000E+00  0.00000000E+00
  0.00000000E+00  0.00000000E+00  0.00000000E+00
  0.00000000E+00  0.00000000E+00  0.00000000E+00
  0.00000000E+00  0.00000000E+00  0.00000000E+00
  0.00000000E+00  0.00000000E+00  0.00000000E+00
  0.00000000E+00  0.00000000E+00  0.00000000E+00
  0.00000000E+00  0.00000000E+00  0.00000000E+00
  0.00000000E+00  0.00000000E+00  0.00000000E+00
  0.00000000E+00  0.00000000E+00  0.00000000E+00
  0.00000000E+00  0.00000000E+00  0.00000000E+00
  0.00000000E+00  0.00000000E+00  0.00000000E+00
  0.00000000E+00  0.00000000E+00  0.00000000E+00
  0.00000000E+00  0.00000000E+00  0.00000000E+00
  0.00000000E+00  0.00000000E+00  0.00000000E+00
  0.00000000E+00  0.00000000E+00  0.00000000E+00
  0.00000000E+00  0.00000000E+00  0.00000000E+00
  0.00000000E+00  0.00000000E+00  0.00000000E+00
  0.00000000E+00  0.00000000E+00  0.00000000E+00
  0.00000000E+00  0.00000000E+00  0.00000000E+00
  0.00000000E+00  0.00000000E+00  0.00000000E+00
  0.00000000E+00  0.00000000E+00  0.00000000E+00
  0.00000000E+00  0.00000000E+00  0.00000000E+00
  0.00000000E+00  0.00000000E+00  0.00000000E+00
  0.00000000E+00  0.00000000E+00  0.00000000E+00
  0.00000000E+00  0.00000000E+00  0.00000000E+00
  0.00000000E+00  0.00000000E+00  0.00000000E+00
  0.00000000E+00  0.00000000E+00  0.00000000E+00
  0.00000000E+00  0.00000000E+00  0.00000000E+00
  0.00000000E+00  0.00000000E+00  0.00000000E+00
  0.00000000E+00  0.00000000E+00  0.00000000E+00
  0.00000000E+00  0.00000000E+00  0.00000000E+00
  0.00000000E+00  0.00000000E+00  0.00000000E+00
  0.00000000E+00  0.00000000E+00  0.00000000E+00
  0.00000000E+00  0.00000000E+00  0.00000000E+00
  0.00000000E+00  0.00000000E+00  0.00000000E+00
  0.00000000E+00  0.00000000E+00  0.00000000E+00
  0.00000000E+00  0.00000000E+00  0.00000000E+00
  0.00000000E+00  0.00000000E+00  0.00000000E+00
  0.00000000E+00  0.00000000E+00  0.00000000E+00
  0.00000000E+00  0.00000000E+00  0.00000000E+00
  0.00000000E+00  0.00000000E+00  0.00000000E+00
  0.00000000E+00  0.00000000E+00  0.00000000E+00
  0.00000000E+00  0.00000000E+00  0.00000000E+00
  0.00000000E+00  0.00000000E+00  0.00000000E+00
  0.00000000E+00  0.00000000E+00  0.00000000E+00
  0.00000000E+00  0.00000000E+00  0.00000000E+00
  0.00000000E+00  0.00000000E+00  0.00000000E+00
  0.00000000E+00  0.00000000E+00  0.00000000E+00
  0.00000000E+00  0.00000000E+00  0.00000000E+00
  0.00000000E+00  0.00000000E+00  0.00000000E+00
  0.00000000E+00  0.00000000E+00  0.00000000E+00
  0.00000000E+00  0.00000000E+00  0.00000000E+00
  0.00000000E+00  0.00000000E+00  0.00000000E+00
  0.00000000E+00  0.00000000E+00  0.00000000E+00
  0.00000000E+00  0.00000000E+00  0.00000000E+00
  0.00000000E+00  0.00000000E+00  0.00000000E+00
  0.00000000E+00  0.00000000E+00  0.00000000E+00
  0.00000000E+00  0.00000000E+00  0.00000000E+00
  0.00000000E+00  0.00000000E+00  0.00000000E+00
  0.00000000E+00  0.00000000E+00  0.00000000E+00
  0.00000000E+00  0.00000000E+00  0.00000000E+00
  0.00000000E+00  0.00000000E+00  0.00000000E+00
  0.00000000E+00  0.00000000E+00  0.00000000E+00
  0.00000000E+00  0.00000000E+00  0.00000000E+00
  0.00000000E+00  0.00000000E+00  0.00000000E+00
  0.00000000E+00  0.00000000E+00  0.00000000E+00
  0.00000000E+00  0.00000000E+00  0.00000000E+00
  0.00000000E+00  0.00000000E+00  0.00000000E+00
  0.00000000E+00  0.00000000E+00  0.00000000E+00
  0.00000000E+00  0.00000000E+00  0.00000000E+00
  0.00000000E+00  0.00000000E+00  0.00000000E+00
  0.00000000E+00  0.00000000E+00  0.00000000E+00
  0.00000000E+00  0.00000000E+00  0.00000000E+00
  0.00000000E+00  0.00000000E+00  0.00000000E+00
  0.00000000E+00  0.00000000E+00  0.00000000E+00
  0.00000000E+00  0.00000000E+00  0.00000000E+00
  0.00000000E+00  0.00000000E+00  0.00000000E+00
  0.00000000E+00  0.00000000E+00  0.00000000E+00
  0.00000000E+00  0.00000000E+00  0.00000000E+00
  0.00000000E+00  0.00000000E+00  0.00000000E+00
  0.00000000E+00  0.00000000E+00  0.00000000E+00
  0.00000000E+00  0.00000000E+00  0.00000000E+00
  0.00000000E+00  0.00000000E+00  0.00000000E+00
  0.00000000E+00  0.00000000E+00  0.00000000E+00
  0.00000000E+00  0.00000000E+00  0.00000000E+00
  0.00000000E+00  0.00000000E+00  0.00000000E+00
  0.00000000E+00  0.00000000E+00  0.00000000E+00
  0.00000000E+00  0.00000000E+00  0.00000000E+00
  0.00000000E+00  0.00000000E+00  0.00000000E+00
  0.00000000E+00  0.00000000E+00  0.00000000E+00
  0.00000000E+00  0.00000000E+00  0.00000000E+00
  0.00000000E+00  0.00000000E+00  0.00000000E+00
  0.00000000E+00  0.00000000E+00  0.00000000E+00
  0.00000000E+00  0.00000000E+00  0.00000000E+00
  0.00000000E+00  0.00000000E+00  0.00000000E+00
  0.00000000E+00  0.00000000E+00  0.00000000E+00
  0.00000000E+00  0.00000000E+00  0.00000000E+00
  0.00000000E+00  0.00000000E+00  0.00000000E+00
  0.00000000E+00  0.00000000E+00  0.00000000E+00
  0.00000000E+00  0.00000000E+00  0.00000000E+00
  0.00000000E+00  0.00000000E+00  0.00000000E+00
  0.00000000E+00  0.00000000E+00  0.00000000E+00
  0.00000000E+00  0.00000000E+00  0.00000000E+00
  0.00000000E+00  0.00000000E+00  0.00000000E+00
  0.00000000E+00  0.00000000E+00  0.00000000E+00
  0.00000000E+00  0.00000000E+00  0.00000000E+00
  0.00000000E+00  0.00000000E+00  0.00000000E+00
  0.00000000E+00  0.00000000E+00  0.00000000E+00
  0.00000000E+00  0.00000000E+00  0.00000000E+00
  0.00000000E+00  0.00000000E+00  0.00000000E+00
  0.00000000E+00  0.00000000E+00  0.00000000E+00
  0.00000000E+00  0.00000000E+00  0.00000000E+00
  0.00000000E+00  0.00000000E+00  0.00000000E+00
  0.00000000E+00  0.00000000E+00  0.00000000E+00
  0.00000000E+00  0.00000000E+00  0.00000000E+00
  0.00000000E+00  0.00000000E+00  0.00000000E+00
  0.00000000E+00  0.00000000E+00  0.00000000E+00
  0.00000000E+00  0.00000000E+00  0.00000000E+00
  0.00000000E+00  0.00000000E+00  0.00000000E+00
  0.00000000E+00  0.00000000E+00  0.00000000E+00
  0.00000000E+00  0.00000000E+00  0.00000000E+00
  0.00000000E+00  0.00000000E+00  0.00000000E+00
  0.00000000E+00  0.00000000E+00  0.00000000E+00
  0.00000000E+00  0.00000000E+00  0.00000000E+00
  0.00000000E+00  0.00000000E+00  0.00000000E+00
  0.00000000E+00  0.00000000E+00  0.00000000E+00
  0.00000000E+00  0.00000000E+00  0.00000000E+00
  0.00000000E+00  0.00000000E+00  0.00000000E+00
  0.00000000E+00  0.00000000E+00  0.00000000E+00
  0.00000000E+00  0.00000000E+00  0.00000000E+00
  0.00000000E+00  0.00000000E+00  0.00000000E+00
  0.00000000E+00  0.00000000E+00  0.00000000E+00
  0.00000000E+00  0.00000000E+00  0.00000000E+00
  0.00000000E+00  0.00000000E+00  0.00000000E+00
  0.00000000E+00  0.00000000E+00  0.00000000E+00
  0.00000000E+00  0.00000000E+00  0.00000000E+00
  0.00000000E+00  0.00000000E+00  0.00000000E+00
  0.00000000E+00  0.00000000E+00  0.00000000E+00
  0.00000000E+00  0.00000000E+00  0.00000000E+00
  0.00000000E+00  0.00000000E+00  0.00000000E+00
  0.00000000E+00  0.00000000E+00  0.00000000E+00
  0.00000000E+00  0.00000000E+00  0.00000000E+00
  0.00000000E+00  0.00000000E+00  0.00000000E+00
  0.00000000E+00  0.00000000E+00  0.00000000E+00
  0.00000000E+00  0.00000000E+00  0.00000000E+00
