generated by phonopy                    
   1.00000000000000     
    10.0351470768999995   -0.0000022330999784   -0.0000001056124209
    -5.0175765436399997    8.6906901959899994    0.0000001395531216
    -0.0000001735893656    0.0000001431815548   14.9533752540999991
   Pb   P    O 
    20    13    49
Direct
  0.0004186041671872  0.7847268161128511  0.1100923951080333
  0.9956711552689015  0.7619433011642514  0.6231298556413165
  0.0051050160145110  0.2593377121475910  0.3791273525648364
  0.0013374455111261  0.2586135149127813  0.8756242679698971
  0.2044924668531891  0.2315084473282170  0.1186672676034348
  0.2261181467185551  0.2171310423152804  0.6264476082370933
  0.7355290266372663  0.7395497473092121  0.3686514179361993
  0.7443324065169250  0.7439764851882273  0.8755213100581045
  0.7798195895390378  0.0030610419594623  0.1097372963671148
  0.7746594604413914  0.9986606430413261  0.6252134972485521
  0.2604192222957096  0.9988543759550055  0.3711861676272576
  0.2575472711071853  0.9986768935273602  0.8752273794588064
  0.6449980981469707  0.3256412204869079  0.0132622283758010
  0.6614898003810907  0.3305244377762264  0.5048524743731164
  0.3288566693927493  0.6729778522285415  0.0002907862189332
  0.3386824639168395  0.6559220423656171  0.5039888477943393
  0.3238878800129896  0.6779417043972202  0.2417648942227757
  0.3375696416847092  0.6647216144420369  0.7444707955785717
  0.6913448027777704  0.3227586410446719  0.2550789156372275
  0.6673547418768706  0.3352878045844037  0.7527866299987238
  0.6335095770562447  0.6359531716907156  0.1242069086548341
  0.6205364380633753  0.5857788530775139  0.6252290488475793
  0.3681315714871332  0.3890318539756095  0.3761290786508980
  0.3704796128254273  0.3980883233961663  0.8751464056599758
  0.3922640693833657  0.0223281787081646  0.1225368728531961
  0.4056600275418134  0.0251622419499782  0.6249840024686719
  0.6048131457807386  0.9688328916738200  0.3835086870000310
  0.6078337741570223  0.9755928316215545  0.8674080536488020
  0.9769228622578652  0.3794780158040965  0.1234912290309040
  0.9774657139381020  0.3699177845274662  0.6269447450679309
  0.0295342176388118  0.6349492109390482  0.3725351254369755
  0.0233451477035231  0.6314209604280947  0.8733634070085330
  0.5192462620092329  0.4021314498213329  0.1528209699954317
  0.5159615758641181  0.6958588957814342  0.1164190282124693
  0.4998075093118288  0.6409902341989593  0.6255438018664137
  0.4669211709511245  0.3093931550627573  0.3817660016024860
  0.4684110640448509  0.3174004182766126  0.8759553794009207
  0.3339703309523543  0.8450640231149720  0.1196208608019305
  0.3540794883912497  0.8505841487456749  0.6250950099849035
  0.6848185313784825  0.1439382284020851  0.4006231295634066
  0.6902377949763618  0.1527315938347513  0.8602969810084815
  0.1516788134713210  0.5056323221334367  0.1208103211942628
  0.1509735417566347  0.4977141340423117  0.6268835269721080
  0.8512943021048045  0.5431657811617114  0.3653514848206854
  0.8454613680700618  0.5368161948692247  0.8775086147706403
  0.7307272535266094  0.6708873316058401  0.0355079996133512
  0.7250399505535086  0.6438386033696659  0.5402197819213228
  0.2732841268219701  0.3663356078861995  0.4644980147181244
  0.2615598723855896  0.3535707380687541  0.9583771500588156
  0.3597952815736676  0.0766472041927244  0.0310463049993643
  0.3443889021095998  0.0698827267861120  0.5399746147836169
  0.6211698476247278  0.8804594729743656  0.4656654515132175
  0.6632630892224682  0.9241827310179218  0.9516995697208586
  0.9324737233547182  0.2771245804992688  0.0375766314823807
  0.9387786952714308  0.2641913503036548  0.5426937984048550
  0.0837727138419879  0.7454696857511180  0.4547297447309830
  0.0947707031037623  0.7368790136905190  0.9582560081228451
  0.2459387671088606  0.3218499373530150  0.2997385112267139
  0.2655248009913649  0.3550755338179954  0.7905728079661216
  0.7561515083454395  0.7333154065638894  0.1985768519680491
  0.7275086574618044  0.6466657677786358  0.7094500125253660
  0.6727988101637550  0.9291511637524721  0.3011337976527599
  0.6385248980515996  0.8982279026822297  0.7849259593333358
  0.3038259847874301  0.0534097209424260  0.1980179041305590
  0.3411277258408063  0.0691102635226883  0.7088429700307302
  0.1073602067190862  0.7376455280803782  0.2880027778925154
  0.0836352366114994  0.7427612752763295  0.7914876617506437
  0.9440087229727894  0.2723447314722023  0.2065201448826386
  0.9371209602847159  0.2614612290612186  0.7100474811628104
  0.5359673631102666  0.4051984294050825  0.6265307857995452
  0.4743472518661065  0.5686806989992803  0.3629633250487103
  0.4797154672835902  0.5789358402541467  0.8760054927470478
  0.5700877937266426  0.1123336248296809  0.1376309470948911
  0.5859332358966896  0.1271134100194544  0.6259528548468083
  0.4262130847506143  0.9025736219899940  0.3666134530773419
  0.4273219405570856  0.9047276350411124  0.8743763963380999
  0.8739695862916506  0.4554988306122993  0.1294421291590453
  0.8733031839862022  0.4452932602729547  0.6276975046823523
  0.0953235058168005  0.5211168497699319  0.3803620688888643
  0.0936834206835968  0.5215172879648904  0.8688364441484993
  0.9978344420875374  0.9973234519209981  0.0661640085531303
  0.9971120597259429  0.9883965494667777  0.6244257304199365
 
  0.00000000E+00  0.00000000E+00  0.00000000E+00
  0.00000000E+00  0.00000000E+00  0.00000000E+00
  0.00000000E+00  0.00000000E+00  0.00000000E+00
  0.00000000E+00  0.00000000E+00  0.00000000E+00
  0.00000000E+00  0.00000000E+00  0.00000000E+00
  0.00000000E+00  0.00000000E+00  0.00000000E+00
  0.00000000E+00  0.00000000E+00  0.00000000E+00
  0.00000000E+00  0.00000000E+00  0.00000000E+00
  0.00000000E+00  0.00000000E+00  0.00000000E+00
  0.00000000E+00  0.00000000E+00  0.00000000E+00
  0.00000000E+00  0.00000000E+00  0.00000000E+00
  0.00000000E+00  0.00000000E+00  0.00000000E+00
  0.00000000E+00  0.00000000E+00  0.00000000E+00
  0.00000000E+00  0.00000000E+00  0.00000000E+00
  0.00000000E+00  0.00000000E+00  0.00000000E+00
  0.00000000E+00  0.00000000E+00  0.00000000E+00
  0.00000000E+00  0.00000000E+00  0.00000000E+00
  0.00000000E+00  0.00000000E+00  0.00000000E+00
  0.00000000E+00  0.00000000E+00  0.00000000E+00
  0.00000000E+00  0.00000000E+00  0.00000000E+00
  0.00000000E+00  0.00000000E+00  0.00000000E+00
  0.00000000E+00  0.00000000E+00  0.00000000E+00
  0.00000000E+00  0.00000000E+00  0.00000000E+00
  0.00000000E+00  0.00000000E+00  0.00000000E+00
  0.00000000E+00  0.00000000E+00  0.00000000E+00
  0.00000000E+00  0.00000000E+00  0.00000000E+00
  0.00000000E+00  0.00000000E+00  0.00000000E+00
  0.00000000E+00  0.00000000E+00  0.00000000E+00
  0.00000000E+00  0.00000000E+00  0.00000000E+00
  0.00000000E+00  0.00000000E+00  0.00000000E+00
  0.00000000E+00  0.00000000E+00  0.00000000E+00
  0.00000000E+00  0.00000000E+00  0.00000000E+00
  0.00000000E+00  0.00000000E+00  0.00000000E+00
  0.00000000E+00  0.00000000E+00  0.00000000E+00
  0.00000000E+00  0.00000000E+00  0.00000000E+00
  0.00000000E+00  0.00000000E+00  0.00000000E+00
  0.00000000E+00  0.00000000E+00  0.00000000E+00
  0.00000000E+00  0.00000000E+00  0.00000000E+00
  0.00000000E+00  0.00000000E+00  0.00000000E+00
  0.00000000E+00  0.00000000E+00  0.00000000E+00
  0.00000000E+00  0.00000000E+00  0.00000000E+00
  0.00000000E+00  0.00000000E+00  0.00000000E+00
  0.00000000E+00  0.00000000E+00  0.00000000E+00
  0.00000000E+00  0.00000000E+00  0.00000000E+00
  0.00000000E+00  0.00000000E+00  0.00000000E+00
  0.00000000E+00  0.00000000E+00  0.00000000E+00
  0.00000000E+00  0.00000000E+00  0.00000000E+00
  0.00000000E+00  0.00000000E+00  0.00000000E+00
  0.00000000E+00  0.00000000E+00  0.00000000E+00
  0.00000000E+00  0.00000000E+00  0.00000000E+00
  0.00000000E+00  0.00000000E+00  0.00000000E+00
  0.00000000E+00  0.00000000E+00  0.00000000E+00
  0.00000000E+00  0.00000000E+00  0.00000000E+00
  0.00000000E+00  0.00000000E+00  0.00000000E+00
  0.00000000E+00  0.00000000E+00  0.00000000E+00
  0.00000000E+00  0.00000000E+00  0.00000000E+00
  0.00000000E+00  0.00000000E+00  0.00000000E+00
  0.00000000E+00  0.00000000E+00  0.00000000E+00
  0.00000000E+00  0.00000000E+00  0.00000000E+00
  0.00000000E+00  0.00000000E+00  0.00000000E+00
  0.00000000E+00  0.00000000E+00  0.00000000E+00
  0.00000000E+00  0.00000000E+00  0.00000000E+00
  0.00000000E+00  0.00000000E+00  0.00000000E+00
  0.00000000E+00  0.00000000E+00  0.00000000E+00
  0.00000000E+00  0.00000000E+00  0.00000000E+00
  0.00000000E+00  0.00000000E+00  0.00000000E+00
  0.00000000E+00  0.00000000E+00  0.00000000E+00
  0.00000000E+00  0.00000000E+00  0.00000000E+00
  0.00000000E+00  0.00000000E+00  0.00000000E+00
  0.00000000E+00  0.00000000E+00  0.00000000E+00
  0.00000000E+00  0.00000000E+00  0.00000000E+00
  0.00000000E+00  0.00000000E+00  0.00000000E+00
  0.00000000E+00  0.00000000E+00  0.00000000E+00
  0.00000000E+00  0.00000000E+00  0.00000000E+00
  0.00000000E+00  0.00000000E+00  0.00000000E+00
  0.00000000E+00  0.00000000E+00  0.00000000E+00
  0.00000000E+00  0.00000000E+00  0.00000000E+00
  0.00000000E+00  0.00000000E+00  0.00000000E+00
  0.00000000E+00  0.00000000E+00  0.00000000E+00
  0.00000000E+00  0.00000000E+00  0.00000000E+00
  0.00000000E+00  0.00000000E+00  0.00000000E+00
  0.00000000E+00  0.00000000E+00  0.00000000E+00
