generated by phonopy                    
   1.00000000000000     
    10.0351470768999995   -0.0000022330999784   -0.0000001056124209
    -5.0175765436399997    8.6906901959899994    0.0000001395531216
    -0.0000001735893656    0.0000001431815548   14.9533752540999991
   Pb   P    O 
    20    11    51
Direct
  0.9983536459914220  0.7671232871810716  0.1282419886327375
  0.9982627701549589  0.7667479956324996  0.6200942073996529
  0.9845879523475745  0.2641083103122668  0.3737509946239257
  0.9994771221833361  0.2550732377758465  0.8739576375696814
  0.2247093372815101  0.2200479163340958  0.1161619018481730
  0.2250123293807818  0.2208939991291956  0.6314119971725702
  0.7291250733593770  0.7420495508259677  0.3745516171036840
  0.7352116131191124  0.7379622961842500  0.8742198213736287
  0.7742282959437858  0.0037929532807084  0.1203015105794023
  0.7755662732266231  0.0038429140761806  0.6281641849408786
  0.2753197984010285  0.0290819477847819  0.3729431371244658
  0.2572941055100770  0.9948340879592052  0.8737570256108285
  0.6680441883494197  0.3378893969453642  0.0030454948572256
  0.6552181608782917  0.3308788817748294  0.4946451680893276
  0.3307248879124387  0.6668307269919964  0.0066494809683775
  0.3459163307824511  0.6783115769441537  0.4971103057458848
  0.3425835099051540  0.6711958428518017  0.2518298829328600
  0.3295514940957887  0.6657014749145560  0.7414952965697310
  0.6616968575805231  0.3347358526976407  0.2528125856656587
  0.6701459388633211  0.3394930033001557  0.7450039569256859
  0.6218828940488805  0.5941211150563319  0.1235014461650152
  0.6223734838528756  0.5952458395080598  0.6256001105044291
  0.3670103973795520  0.3898988419620650  0.8739540074127206
  0.4023438641942647  0.0289104980673756  0.1208691327017988
  0.4045305742761514  0.0307737025473003  0.6279169617123159
  0.6092712900099073  0.9813567020547751  0.3742083235839715
  0.6082142946772677  0.9759133166276968  0.8741069702179587
  0.9755522552931524  0.3752837657856105  0.1205079028728164
  0.9760704001914107  0.3755259158354463  0.6264394263934605
  0.0257475713269102  0.6344077987469419  0.3745930655571925
  0.0290327126638275  0.6294632468002845  0.8746245151315009
  0.3386945810230344  0.3813258333240270  0.3708652714566867
  0.5037896240147006  0.6521910083043068  0.1243128761833034
  0.5037379706371254  0.6527380974171990  0.6243934525180421
  0.4907181257879643  0.2707361224025178  0.3714371250661799
  0.4685700254698659  0.3135998247714014  0.8740791550724794
  0.3489728719981287  0.8542575823096712  0.1185779721431430
  0.3492571667101600  0.8556546677162373  0.6295404541027878
  0.6924156468303835  0.1605768548109410  0.3751615789049367
  0.6892542800427179  0.1544550672423810  0.8743851824488189
  0.1520276525674902  0.4917709212044130  0.1211057204920252
  0.1521418675815269  0.4938538249345328  0.6261380037523239
  0.8475214338580699  0.5232773639530492  0.3752889139067292
  0.8504824273115830  0.5344967155587597  0.8751880400654244
  0.7255125255901405  0.6491591794832843  0.0377264985191417
  0.7307790669897898  0.6575511040402162  0.5419087040433084
  0.2455177042073657  0.3316879824512000  0.4480382234905065
  0.2587030963617636  0.3427094669870101  0.9576154293684453
  0.3425576944186020  0.0783129857258231  0.0366756919830067
  0.3446821902124029  0.0745733701732050  0.5424672938516935
  0.6505816442433314  0.9204777572729768  0.4599757072970405
  0.6504847581318742  0.9111897316388280  0.9581489113787143
  0.9289002077063557  0.2618173316543064  0.0385747056089514
  0.9304973231328475  0.2722896873194784  0.5405793442458275
  0.0833768827689880  0.7373514326393504  0.4593537790842745
  0.0958366044517831  0.7363647984244608  0.9584708358660734
  0.2477920066519772  0.3467479573981507  0.2926210425520495
  0.2585985583075399  0.3425341427204032  0.7903474861926512
  0.7309279379954390  0.6573805881239707  0.2069860560678265
  0.7267757847578622  0.6521269219925827  0.7111175630333975
  0.6588167111822543  0.9237111116323149  0.2904915227072280
  0.6539671993487985  0.9124352018758017  0.7909514332776766
  0.3345998490167190  0.0684120230535683  0.2043408668361621
  0.3396953378347831  0.0779685408639637  0.7105922388393751
  0.0808635932845903  0.7370239620822403  0.2896170258049082
  0.0939324806456412  0.7363032801215326  0.7906098656144422
  0.9283172018097403  0.2722871327318117  0.2065394899298738
  0.9308100612892787  0.2625732255481097  0.7086234833924863
  0.5370097830347476  0.4135093228504303  0.1253231474595253
  0.5379547534252325  0.4148473707498752  0.6249728870931648
  0.4763672155627887  0.6292504314400134  0.3753553492080783
  0.4722292052046626  0.5710998445136539  0.8737753238686849
  0.5820204053847888  0.1279029865494721  0.1222908276434183
  0.5842174114540342  0.1282069309060887  0.6301821510377366
  0.4287405593603708  0.9115463328228586  0.3717243701236796
  0.4275795158563298  0.9044112144148500  0.8729280320004023
  0.8821946431640768  0.4611660713243992  0.1140602495657745
  0.8806514406599035  0.4593214349181238  0.6324669779208065
  0.1070584775350909  0.5311816419926672  0.3738492155494626
  0.0973793062576860  0.5172073131237340  0.8739387300475556
  0.9982377566381402  0.9965301558817998  0.1124625119279372
  0.9993396886965371  0.9963580701089398  0.6335314183173395
 
  0.00000000E+00  0.00000000E+00  0.00000000E+00
  0.00000000E+00  0.00000000E+00  0.00000000E+00
  0.00000000E+00  0.00000000E+00  0.00000000E+00
  0.00000000E+00  0.00000000E+00  0.00000000E+00
  0.00000000E+00  0.00000000E+00  0.00000000E+00
  0.00000000E+00  0.00000000E+00  0.00000000E+00
  0.00000000E+00  0.00000000E+00  0.00000000E+00
  0.00000000E+00  0.00000000E+00  0.00000000E+00
  0.00000000E+00  0.00000000E+00  0.00000000E+00
  0.00000000E+00  0.00000000E+00  0.00000000E+00
  0.00000000E+00  0.00000000E+00  0.00000000E+00
  0.00000000E+00  0.00000000E+00  0.00000000E+00
  0.00000000E+00  0.00000000E+00  0.00000000E+00
  0.00000000E+00  0.00000000E+00  0.00000000E+00
  0.00000000E+00  0.00000000E+00  0.00000000E+00
  0.00000000E+00  0.00000000E+00  0.00000000E+00
  0.00000000E+00  0.00000000E+00  0.00000000E+00
  0.00000000E+00  0.00000000E+00  0.00000000E+00
  0.00000000E+00  0.00000000E+00  0.00000000E+00
  0.00000000E+00  0.00000000E+00  0.00000000E+00
  0.00000000E+00  0.00000000E+00  0.00000000E+00
  0.00000000E+00  0.00000000E+00  0.00000000E+00
  0.00000000E+00  0.00000000E+00  0.00000000E+00
  0.00000000E+00  0.00000000E+00  0.00000000E+00
  0.00000000E+00  0.00000000E+00  0.00000000E+00
  0.00000000E+00  0.00000000E+00  0.00000000E+00
  0.00000000E+00  0.00000000E+00  0.00000000E+00
  0.00000000E+00  0.00000000E+00  0.00000000E+00
  0.00000000E+00  0.00000000E+00  0.00000000E+00
  0.00000000E+00  0.00000000E+00  0.00000000E+00
  0.00000000E+00  0.00000000E+00  0.00000000E+00
  0.00000000E+00  0.00000000E+00  0.00000000E+00
  0.00000000E+00  0.00000000E+00  0.00000000E+00
  0.00000000E+00  0.00000000E+00  0.00000000E+00
  0.00000000E+00  0.00000000E+00  0.00000000E+00
  0.00000000E+00  0.00000000E+00  0.00000000E+00
  0.00000000E+00  0.00000000E+00  0.00000000E+00
  0.00000000E+00  0.00000000E+00  0.00000000E+00
  0.00000000E+00  0.00000000E+00  0.00000000E+00
  0.00000000E+00  0.00000000E+00  0.00000000E+00
  0.00000000E+00  0.00000000E+00  0.00000000E+00
  0.00000000E+00  0.00000000E+00  0.00000000E+00
  0.00000000E+00  0.00000000E+00  0.00000000E+00
  0.00000000E+00  0.00000000E+00  0.00000000E+00
  0.00000000E+00  0.00000000E+00  0.00000000E+00
  0.00000000E+00  0.00000000E+00  0.00000000E+00
  0.00000000E+00  0.00000000E+00  0.00000000E+00
  0.00000000E+00  0.00000000E+00  0.00000000E+00
  0.00000000E+00  0.00000000E+00  0.00000000E+00
  0.00000000E+00  0.00000000E+00  0.00000000E+00
  0.00000000E+00  0.00000000E+00  0.00000000E+00
  0.00000000E+00  0.00000000E+00  0.00000000E+00
  0.00000000E+00  0.00000000E+00  0.00000000E+00
  0.00000000E+00  0.00000000E+00  0.00000000E+00
  0.00000000E+00  0.00000000E+00  0.00000000E+00
  0.00000000E+00  0.00000000E+00  0.00000000E+00
  0.00000000E+00  0.00000000E+00  0.00000000E+00
  0.00000000E+00  0.00000000E+00  0.00000000E+00
  0.00000000E+00  0.00000000E+00  0.00000000E+00
  0.00000000E+00  0.00000000E+00  0.00000000E+00
  0.00000000E+00  0.00000000E+00  0.00000000E+00
  0.00000000E+00  0.00000000E+00  0.00000000E+00
  0.00000000E+00  0.00000000E+00  0.00000000E+00
  0.00000000E+00  0.00000000E+00  0.00000000E+00
  0.00000000E+00  0.00000000E+00  0.00000000E+00
  0.00000000E+00  0.00000000E+00  0.00000000E+00
  0.00000000E+00  0.00000000E+00  0.00000000E+00
  0.00000000E+00  0.00000000E+00  0.00000000E+00
  0.00000000E+00  0.00000000E+00  0.00000000E+00
  0.00000000E+00  0.00000000E+00  0.00000000E+00
  0.00000000E+00  0.00000000E+00  0.00000000E+00
  0.00000000E+00  0.00000000E+00  0.00000000E+00
  0.00000000E+00  0.00000000E+00  0.00000000E+00
  0.00000000E+00  0.00000000E+00  0.00000000E+00
  0.00000000E+00  0.00000000E+00  0.00000000E+00
  0.00000000E+00  0.00000000E+00  0.00000000E+00
  0.00000000E+00  0.00000000E+00  0.00000000E+00
  0.00000000E+00  0.00000000E+00  0.00000000E+00
  0.00000000E+00  0.00000000E+00  0.00000000E+00
  0.00000000E+00  0.00000000E+00  0.00000000E+00
  0.00000000E+00  0.00000000E+00  0.00000000E+00
  0.00000000E+00  0.00000000E+00  0.00000000E+00
