supercell of icsd_608626.cif            
  0.975047790010989     
     9.3082807403291135    0.0035325618555452   -0.0098861734665480
    -4.6510795168058605    8.0592384481565080    0.0040950051253284
    -0.0107518353765171   -0.0010868415621174    9.8684802315053499
   Al   B    N 
    30     6    36
Direct
  0.2220784733289847  0.1105591210711196  0.2510383820467439
  0.1146077612243488  0.2282967275899068  0.5048785817765733
  0.8930846720985244  0.1145162957598558  0.7502544998095999
  0.7754367712521670  0.2225995089965593  0.0050391933608793
  0.5538355890181421  0.1083657072416457  0.2477447748314887
  0.4482378964040947  0.2232340217451139  0.5041043667194458
  0.2231216217440206  0.1169177988327448  0.7489011860266004
  0.1119511084518550  0.2238811920044128  0.9947916782218087
  0.8910154907757004  0.1145700589594441  0.2500234990317338
  0.7743842055179471  0.2197614716569021  0.4916023725617151
  0.5564794565714379  0.1109756176757770  0.7490570746174043
  0.4438384804636470  0.2175566533703659  0.9945275792919546
  0.2192817542100158  0.4441951293120781  0.2481292672254227
  0.1184088668726844  0.5577726232699618  0.4974634669574414
  0.8910509074490207  0.4481075342700436  0.7473171851071214
  0.7777869046231203  0.5536178943858587  0.9911017217301250
  0.5598691591056593  0.4449137739637976  0.2478377339748334
  0.4422172094092574  0.5551616709620149  0.5090060573119288
  0.1123362840146314  0.5562994717366863  0.9978368070666903
  0.7770763106083152  0.5580339547332827  0.5036770618333719
  0.4416468485508034  0.5590907049480975  0.9864503212019073
  0.2235591954587619  0.7772738801670513  0.2470520645972769
  0.1110432272443660  0.8851689900134971  0.5048715681703158
  0.7719152843566093  0.8883372480517480  0.9937492386287872
  0.5512952991239928  0.7787020553017996  0.2482068559818131
  0.2267955486748008  0.7743631687224379  0.7490379692562144
  0.1136847389247251  0.8872645081041952  0.9923201019439603
  0.8892124649758131  0.7719012508440102  0.2478320039000295
  0.7761604095349455  0.8866873945738263  0.5041074614861145
  0.5521765038612259  0.7746049243203075  0.7475396080338115
  0.2219462971269479  0.4394930624439937  0.7565675269878795
  0.8887227250458238  0.4462574183880079  0.2514899647033815
  0.5474003511216594  0.4444330171367881  0.7589650218844710
  0.8799952325331546  0.7725481368515190  0.7562782026323305
  0.4440223237874221  0.8896098533508123  0.5022357263759361
  0.4446713761393752  0.8882245932757229  0.0008642308650693
  0.2226592688900695  0.1107575698357266  0.4496482843458836
  0.1123772704350401  0.2229824580834432  0.1889093143967528
  0.8871980706913263  0.1130466915496982  0.9436051481693681
  0.7782157370459117  0.2239793697548720  0.6865601154665342
  0.5410510567663209  0.0857515204705308  0.4451952477883125
  0.4445699917765964  0.2225499768764578  0.1895962201298218
  0.2214322954253731  0.1104685268330954  0.9398349854229835
  0.1236736048711435  0.2475903864131652  0.7004815635642316
  0.8915041469246034  0.1099884197509553  0.4450655986537555
  0.7883632996581298  0.2462067660313920  0.2032001255003522
  0.5449710145411828  0.0864443602094198  0.9467584331173953
  0.4603155277321704  0.2485265796076774  0.7013464311166473
  0.2260813992768433  0.4453494851197988  0.4387095730304154
  0.0875590462589884  0.5441054060172661  0.1970159430212988
  0.8892182993681672  0.4429417709420278  0.9375251544757432
  0.7693543110402103  0.5694925657967644  0.7026496098878212
  0.5559306481177941  0.4466603741857114  0.4410204714658974
  0.4441558676924870  0.5553565329820955  0.1835000583260893
  0.2193141749253940  0.4435038644717864  0.9222854817562691
  0.1265913982048303  0.5439526358509852  0.6962176986310880
  0.8903553994870634  0.4485846593585308  0.4255905314640458
  0.7888773371257969  0.5429441756947497  0.1912783895410968
  0.5540158253624057  0.4434485909450601  0.9231843829468787
  0.4347964324983309  0.5345125774077601  0.7081920556084711
  0.2470027757895892  0.7904560895172992  0.4468279218615336
  0.1107476888770336  0.8881311721669647  0.1883466316869331
  0.8861512670506784  0.7765827152761702  0.9236404849273896
  0.7889894015012615  0.8773756929955709  0.7016000328351666
  0.5429818895044605  0.7882770732627193  0.4505902459786242
  0.4443599523484778  0.8884705267959916  0.1690258504785547
  0.2478657395609645  0.7884692019053645  0.9461594086783052
  0.0868823907959140  0.8720511485301543  0.7016899871271320
  0.8891228196515044  0.7776118083116899  0.4395950690264101
  0.7762382929110458  0.8866540326148638  0.1900290335498909
  0.5416211435874487  0.7918292920916059  0.9423489230224433
  0.4451084647014341  0.8916495483112925  0.6688752368483151
 
  0.00000000E+00  0.00000000E+00  0.00000000E+00
  0.00000000E+00  0.00000000E+00  0.00000000E+00
  0.00000000E+00  0.00000000E+00  0.00000000E+00
  0.00000000E+00  0.00000000E+00  0.00000000E+00
  0.00000000E+00  0.00000000E+00  0.00000000E+00
  0.00000000E+00  0.00000000E+00  0.00000000E+00
  0.00000000E+00  0.00000000E+00  0.00000000E+00
  0.00000000E+00  0.00000000E+00  0.00000000E+00
  0.00000000E+00  0.00000000E+00  0.00000000E+00
  0.00000000E+00  0.00000000E+00  0.00000000E+00
  0.00000000E+00  0.00000000E+00  0.00000000E+00
  0.00000000E+00  0.00000000E+00  0.00000000E+00
  0.00000000E+00  0.00000000E+00  0.00000000E+00
  0.00000000E+00  0.00000000E+00  0.00000000E+00
  0.00000000E+00  0.00000000E+00  0.00000000E+00
  0.00000000E+00  0.00000000E+00  0.00000000E+00
  0.00000000E+00  0.00000000E+00  0.00000000E+00
  0.00000000E+00  0.00000000E+00  0.00000000E+00
  0.00000000E+00  0.00000000E+00  0.00000000E+00
  0.00000000E+00  0.00000000E+00  0.00000000E+00
  0.00000000E+00  0.00000000E+00  0.00000000E+00
  0.00000000E+00  0.00000000E+00  0.00000000E+00
  0.00000000E+00  0.00000000E+00  0.00000000E+00
  0.00000000E+00  0.00000000E+00  0.00000000E+00
  0.00000000E+00  0.00000000E+00  0.00000000E+00
  0.00000000E+00  0.00000000E+00  0.00000000E+00
  0.00000000E+00  0.00000000E+00  0.00000000E+00
  0.00000000E+00  0.00000000E+00  0.00000000E+00
  0.00000000E+00  0.00000000E+00  0.00000000E+00
  0.00000000E+00  0.00000000E+00  0.00000000E+00
  0.00000000E+00  0.00000000E+00  0.00000000E+00
  0.00000000E+00  0.00000000E+00  0.00000000E+00
  0.00000000E+00  0.00000000E+00  0.00000000E+00
  0.00000000E+00  0.00000000E+00  0.00000000E+00
  0.00000000E+00  0.00000000E+00  0.00000000E+00
  0.00000000E+00  0.00000000E+00  0.00000000E+00
  0.00000000E+00  0.00000000E+00  0.00000000E+00
  0.00000000E+00  0.00000000E+00  0.00000000E+00
  0.00000000E+00  0.00000000E+00  0.00000000E+00
  0.00000000E+00  0.00000000E+00  0.00000000E+00
  0.00000000E+00  0.00000000E+00  0.00000000E+00
  0.00000000E+00  0.00000000E+00  0.00000000E+00
  0.00000000E+00  0.00000000E+00  0.00000000E+00
  0.00000000E+00  0.00000000E+00  0.00000000E+00
  0.00000000E+00  0.00000000E+00  0.00000000E+00
  0.00000000E+00  0.00000000E+00  0.00000000E+00
  0.00000000E+00  0.00000000E+00  0.00000000E+00
  0.00000000E+00  0.00000000E+00  0.00000000E+00
  0.00000000E+00  0.00000000E+00  0.00000000E+00
  0.00000000E+00  0.00000000E+00  0.00000000E+00
  0.00000000E+00  0.00000000E+00  0.00000000E+00
  0.00000000E+00  0.00000000E+00  0.00000000E+00
  0.00000000E+00  0.00000000E+00  0.00000000E+00
  0.00000000E+00  0.00000000E+00  0.00000000E+00
  0.00000000E+00  0.00000000E+00  0.00000000E+00
  0.00000000E+00  0.00000000E+00  0.00000000E+00
  0.00000000E+00  0.00000000E+00  0.00000000E+00
  0.00000000E+00  0.00000000E+00  0.00000000E+00
  0.00000000E+00  0.00000000E+00  0.00000000E+00
  0.00000000E+00  0.00000000E+00  0.00000000E+00
  0.00000000E+00  0.00000000E+00  0.00000000E+00
  0.00000000E+00  0.00000000E+00  0.00000000E+00
  0.00000000E+00  0.00000000E+00  0.00000000E+00
  0.00000000E+00  0.00000000E+00  0.00000000E+00
  0.00000000E+00  0.00000000E+00  0.00000000E+00
  0.00000000E+00  0.00000000E+00  0.00000000E+00
  0.00000000E+00  0.00000000E+00  0.00000000E+00
  0.00000000E+00  0.00000000E+00  0.00000000E+00
  0.00000000E+00  0.00000000E+00  0.00000000E+00
  0.00000000E+00  0.00000000E+00  0.00000000E+00
  0.00000000E+00  0.00000000E+00  0.00000000E+00
  0.00000000E+00  0.00000000E+00  0.00000000E+00
