supercell of icsd_181358.cif            
   1.00000000000000     
     9.2830189907889995    0.0544215087671959   -0.0358173637910074
    -4.5944569196590654    8.0019221611758127    0.0009317069402418
    -0.0393794619394653   -0.0216365460330527    9.9759357426722577
   N    Ga   B 
    36    30     6
Direct
  0.2244405309120623  0.1137815848942481  0.4470636146842182
  0.1105690986762227  0.2227730837409965  0.1868000811663180
  0.8847786157549038  0.1112258403391877  0.9407225042508855
  0.7753444857252276  0.2265738261005481  0.6843682916779983
  0.5381171931548749  0.0811403258407211  0.4462201645172428
  0.4446342993350569  0.2230638765510804  0.1900220103713082
  0.2194470891006048  0.1096770312887614  0.9408413087381078
  0.1209399669320703  0.2515738637129559  0.7007092257311456
  0.8908099764420427  0.1106899784061142  0.4434452663287018
  0.7892894785622815  0.2502553736669810  0.2016782838862667
  0.5406880300620998  0.0800104885057706  0.9461618616597889
  0.4526213614630521  0.2505883076353825  0.7040005646041507
  0.2283512570308375  0.4458870805565098  0.4375382636282694
  0.0821842486902895  0.5421667742980958  0.1956592148567040
  0.8870534926970137  0.4400954634730425  0.9354500025477606
  0.8219312581951712  0.5989959096558408  0.6920009010268728
  0.5626268162325303  0.4499454521798540  0.4435848021558755
  0.4432948557624883  0.5546268030494872  0.1832904697781927
  0.2158407314542785  0.4429918938757638  0.9157418187513002
  0.1348660500368055  0.5423563973782208  0.6959445298398066
  0.8928750754464332  0.4486998436804370  0.4138259430309077
  0.7898603908408006  0.5400263336120190  0.1869178544522896
  0.5420571078390068  0.4376520680174139  0.9143741770126823
  0.4246108782046392  0.5223519077732703  0.7105008283118224
  0.2538658621777046  0.7934605054160428  0.4469375371438744
  0.1119552958264123  0.8882329576791506  0.1862233713092394
  0.8888662116490167  0.7759693643088070  0.9143654430499737
  0.7919243252768595  0.8730400664683486  0.6994164770902813
  0.5408525257757191  0.7902272179524275  0.4503957317163909
  0.4438886478158466  0.8885052558641746  0.1619092101964341
  0.2535531136937621  0.7905464564056572  0.9453310140467011
  0.0946857577587394  0.8824485240065627  0.7010533312425835
  0.8938676544254065  0.7832183690999344  0.4340857807586929
  0.7750690997601097  0.8863270837635540  0.1866924689692411
  0.5390242381738162  0.7927683848159219  0.9419070691659570
  0.4480503888944583  0.8909629465774316  0.6628047177695748
  0.2219321560491707  0.1110433420720796  0.2525642179769960
  0.1094348476855984  0.2247312750045012  0.9957343329397474
  0.8896568932309918  0.1127302978368476  0.7497524873786290
  0.7733841429488848  0.2221975866990960  0.4915048896074907
  0.5543714505893647  0.1073215227185571  0.2502390016957960
  0.4411820735786449  0.2130745062445811  0.9986956928920634
  0.2152546876576267  0.1141919589981200  0.7522006748854153
  0.1135552069117054  0.2289442321844035  0.5071133893677384
  0.8904274863260042  0.1151553319222813  0.2509899945530449
  0.7723537432106014  0.2204189377814458  0.0069668627463884
  0.5548932731324498  0.1106014828793320  0.7513209793292717
  0.4485903243801346  0.2244289430751536  0.5067693264288593
  0.2179163630899765  0.4445447021731965  0.2492744047013957
  0.1106673123053170  0.5568152059266964  0.9997504774749899
  0.8992438707990829  0.4544543905948402  0.7466343348025362
  0.7890913101790176  0.5644626319657888  0.5054864377738326
  0.5641665639792990  0.4467814668591430  0.2509457825637398
  0.4364122157498471  0.5600757125920097  0.9900056541370503
  0.1192217567103597  0.5588750699130998  0.4987974848259924
  0.7746124511499559  0.5529350802826087  0.9853177874695831
  0.4437551035360769  0.5554854221591654  0.5116853064092268
  0.2250262275087564  0.7768452009141740  0.2492309183085339
  0.1131034775015038  0.8847523107287572  0.9934030332105905
  0.7758498271604779  0.8863996917165267  0.5052435860281790
  0.5512679842141139  0.7797609949886706  0.2496642597602374
  0.2307522391352634  0.7756153523260565  0.7497195100909764
  0.1146469276234114  0.8877267262868926  0.5063879009860273
  0.8900320918309177  0.7707069710580683  0.2458819038101865
  0.7717220537817298  0.8857450986878845  0.9928037862429875
  0.5544988147860721  0.7710424160734703  0.7495103779094450
  0.2147480340046783  0.4379218822845132  0.7555838735894014
  0.8884473573758029  0.4453393133241761  0.2483716361763726
  0.4930903648423737  0.4143667711797647  0.7689848011910811
  0.8944244211990409  0.7748643181437984  0.7488801998362291
  0.4438622834126136  0.8875371635484441  0.9990063551584782
  0.4455692526444750  0.8892500482651187  0.5015942022738926
 
  0.00000000E+00  0.00000000E+00  0.00000000E+00
  0.00000000E+00  0.00000000E+00  0.00000000E+00
  0.00000000E+00  0.00000000E+00  0.00000000E+00
  0.00000000E+00  0.00000000E+00  0.00000000E+00
  0.00000000E+00  0.00000000E+00  0.00000000E+00
  0.00000000E+00  0.00000000E+00  0.00000000E+00
  0.00000000E+00  0.00000000E+00  0.00000000E+00
  0.00000000E+00  0.00000000E+00  0.00000000E+00
  0.00000000E+00  0.00000000E+00  0.00000000E+00
  0.00000000E+00  0.00000000E+00  0.00000000E+00
  0.00000000E+00  0.00000000E+00  0.00000000E+00
  0.00000000E+00  0.00000000E+00  0.00000000E+00
  0.00000000E+00  0.00000000E+00  0.00000000E+00
  0.00000000E+00  0.00000000E+00  0.00000000E+00
  0.00000000E+00  0.00000000E+00  0.00000000E+00
  0.00000000E+00  0.00000000E+00  0.00000000E+00
  0.00000000E+00  0.00000000E+00  0.00000000E+00
  0.00000000E+00  0.00000000E+00  0.00000000E+00
  0.00000000E+00  0.00000000E+00  0.00000000E+00
  0.00000000E+00  0.00000000E+00  0.00000000E+00
  0.00000000E+00  0.00000000E+00  0.00000000E+00
  0.00000000E+00  0.00000000E+00  0.00000000E+00
  0.00000000E+00  0.00000000E+00  0.00000000E+00
  0.00000000E+00  0.00000000E+00  0.00000000E+00
  0.00000000E+00  0.00000000E+00  0.00000000E+00
  0.00000000E+00  0.00000000E+00  0.00000000E+00
  0.00000000E+00  0.00000000E+00  0.00000000E+00
  0.00000000E+00  0.00000000E+00  0.00000000E+00
  0.00000000E+00  0.00000000E+00  0.00000000E+00
  0.00000000E+00  0.00000000E+00  0.00000000E+00
  0.00000000E+00  0.00000000E+00  0.00000000E+00
  0.00000000E+00  0.00000000E+00  0.00000000E+00
  0.00000000E+00  0.00000000E+00  0.00000000E+00
  0.00000000E+00  0.00000000E+00  0.00000000E+00
  0.00000000E+00  0.00000000E+00  0.00000000E+00
  0.00000000E+00  0.00000000E+00  0.00000000E+00
  0.00000000E+00  0.00000000E+00  0.00000000E+00
  0.00000000E+00  0.00000000E+00  0.00000000E+00
  0.00000000E+00  0.00000000E+00  0.00000000E+00
  0.00000000E+00  0.00000000E+00  0.00000000E+00
  0.00000000E+00  0.00000000E+00  0.00000000E+00
  0.00000000E+00  0.00000000E+00  0.00000000E+00
  0.00000000E+00  0.00000000E+00  0.00000000E+00
  0.00000000E+00  0.00000000E+00  0.00000000E+00
  0.00000000E+00  0.00000000E+00  0.00000000E+00
  0.00000000E+00  0.00000000E+00  0.00000000E+00
  0.00000000E+00  0.00000000E+00  0.00000000E+00
  0.00000000E+00  0.00000000E+00  0.00000000E+00
  0.00000000E+00  0.00000000E+00  0.00000000E+00
  0.00000000E+00  0.00000000E+00  0.00000000E+00
  0.00000000E+00  0.00000000E+00  0.00000000E+00
  0.00000000E+00  0.00000000E+00  0.00000000E+00
  0.00000000E+00  0.00000000E+00  0.00000000E+00
  0.00000000E+00  0.00000000E+00  0.00000000E+00
  0.00000000E+00  0.00000000E+00  0.00000000E+00
  0.00000000E+00  0.00000000E+00  0.00000000E+00
  0.00000000E+00  0.00000000E+00  0.00000000E+00
  0.00000000E+00  0.00000000E+00  0.00000000E+00
  0.00000000E+00  0.00000000E+00  0.00000000E+00
  0.00000000E+00  0.00000000E+00  0.00000000E+00
  0.00000000E+00  0.00000000E+00  0.00000000E+00
  0.00000000E+00  0.00000000E+00  0.00000000E+00
  0.00000000E+00  0.00000000E+00  0.00000000E+00
  0.00000000E+00  0.00000000E+00  0.00000000E+00
  0.00000000E+00  0.00000000E+00  0.00000000E+00
  0.00000000E+00  0.00000000E+00  0.00000000E+00
  0.00000000E+00  0.00000000E+00  0.00000000E+00
  0.00000000E+00  0.00000000E+00  0.00000000E+00
  0.00000000E+00  0.00000000E+00  0.00000000E+00
  0.00000000E+00  0.00000000E+00  0.00000000E+00
  0.00000000E+00  0.00000000E+00  0.00000000E+00
  0.00000000E+00  0.00000000E+00  0.00000000E+00
