POSCAR                                  
  0.974000000000000     
     2.5125650493500000   -7.4878607426499997   -5.0464697230400004
     5.0203119825000000    5.0320511447899996  -10.1551360375000002
    14.7725695229999996   -0.0022257611196200   -0.1462711807540000
   Tb   Al   N 
    36    12    48
Direct
  0.2441619880620749  0.8551302375558052  0.1731001326357813
  0.3587830803716727  0.0532342335340132  0.2489033393898552
  0.9741490842147513  0.9918716707830768  0.3433231401296410
  0.6263108075902082  0.9310939617039793  0.4066087264032632
  0.2401844846740389  0.8631581819551855  0.5050614549503578
  0.2417770427794323  0.3626575861291244  0.1521450702323079
  0.8717303332014481  0.3091591915852518  0.2344683733220592
  0.5027346648579751  0.2442820618990567  0.3195007879857314
  0.1160689118911549  0.1801483685108423  0.4172600552947614
  0.3941014738368764  0.0581835316856996  0.5788920155320554
  0.0074582225914170  0.0053961844306585  0.6767686275387632
  0.2700301836748977  0.8715426954552470  0.8326515785334863
  0.9914299884650504  0.5061514238524367  0.3198369109325228
  0.6172255754115739  0.4314012772907887  0.4095723643723161
  0.2479395040735639  0.3720311471188822  0.4949867601329316
  0.8698779404898147  0.3103011982648951  0.5843633103655250
  0.4944431016605648  0.2503893139511106  0.6702318092454504
  0.1152309823951967  0.1976647885625908  0.7608182823531493
  0.7436156343401237  0.1407657052100788  0.8584143129921884
  0.3742959255693492  0.0693584220608585  0.9199725064891098
  0.6159088413079701  0.9394078923395810  0.0847936732911165
  0.4974413691486319  0.7345567628333285  0.3312619319941135
  0.1171674795421893  0.6820126974295277  0.4113242946699529
  0.7493910606112024  0.6256922706941452  0.4937247120943056
  0.3677757512834319  0.5537262163125476  0.5821913208648226
  0.9959003090298211  0.5075486920104382  0.6647174505307945
  0.6169040064097260  0.4348236300587871  0.7517133768660855
  0.2573165676708697  0.3788035835823891  0.8592631007210301
  0.8825355955223273  0.3360264083861679  0.9331774860264090
  0.1033661757585520  0.1555736713825269  0.0916660319886304
  0.4945733787037625  0.7313877848969312  0.6748915789214109
  0.1311773318611884  0.6744513700845687  0.7607052273441468
  0.7499528361449208  0.6389424884867125  0.8249646527482071
  0.8720455945216372  0.8170530682696722  0.9315262943957805
  0.4983605379141025  0.7562993891867364  0.9999511109076167
  0.1289900178117662  0.6753674462140324  0.0841525842446842
  0.6888329281383037  0.1196208183935710  0.1671029189131872
  0.7227257715574424  0.1483558779717455  0.5169530589981477
  0.6439030301283708  0.9788399399992400  0.7622212873113270
  0.6907782682123198  0.6178869849228619  0.1815500614621399
  0.3498394477842055  0.5270729473517690  0.2446703791167764
  0.0326603265548329  0.9535083631712382  0.0102166556428429
  0.8576970161727999  0.8660669935365988  0.2191774038448102
  0.5416384609507503  0.2941106997376863  0.0212077635822610
  0.8386594285191578  0.8976506012084542  0.5964839100646415
  0.4328709234914285  0.5413394037404800  0.9507238800303526
  0.9614438769546823  0.5303586993987466  0.0268573547327762
  0.6142754735460443  0.4888538475094535  0.0849057132859059
  0.6392090771127314  0.9499857975582060  0.2329513856604066
  0.1184334336879473  0.1737022199925775  0.2527438653772691
  0.7638384974118040  0.1355021351687000  0.2718471337814279
  0.3799136188703969  0.0555101738335182  0.4146247778199381
  0.0017304226033517  0.9880510137060767  0.5108211265415505
  0.6732740121265692  0.9841041525605476  0.5354407464744000
  0.6077112059113503  0.4492735033455659  0.2311275998894757
  0.2574999436875629  0.3694422114669322  0.3219088133556838
  0.8554107332722722  0.2829138092092549  0.4236733297069293
  0.5114590143723490  0.2399323433844316  0.4980156924055166
  0.1293751422933482  0.1798518038356818  0.5854103883101303
  0.7455563914658470  0.1225906510728052  0.6612443523427203
  0.4233355334875739  0.0322807328254839  0.7523060603225389
  0.0093288280458950  0.9954043606681822  0.8552297913379903
  0.6312005825718714  0.9472443979611498  0.9098781730489875
  0.1705802988477245  0.6466952390775234  0.2487635847636867
  0.7323811753578156  0.6069695836646147  0.3134882673247290
  0.3764710131903328  0.5534605175531979  0.4137062697618106
  0.9923011228455678  0.4962388566298088  0.4941790654608482
  0.6282027781366324  0.4328701089728924  0.5831922956102815
  0.2490339690000951  0.3692697336453179  0.6606508614268591
  0.8753868030128515  0.3092747655306454  0.7557650769196584
  0.5050057517307920  0.2498511755536299  0.8273831724652041
  0.1433683407812438  0.1988410405951768  0.9146069128096030
  0.7157435301998376  0.1674098355370148  0.0147765605578911
  0.3573766503616937  0.0356543442778090  0.0919529735339992
  0.0059830750206302  0.9799088245818410  0.1432126459090384
  0.2393349337118451  0.8654471356655264  0.3359170215197551
  0.8777638993259131  0.8109704230268164  0.3648794261086579
  0.5083666993500415  0.7508133286474532  0.4942217085237672
  0.1355852171358123  0.6769347249809456  0.5807696320585336
  0.7342077991795151  0.6148380923406975  0.6717124402088714
  0.3737054761266947  0.5627979988986738  0.7399117771632007
  0.9858140530092783  0.5162704313253599  0.8209359025200484
  0.6419338972901087  0.4478806275822294  0.9628078222622847
  0.3586877577440148  0.3925867152213272  0.9806559990776762
  0.9762543553663718  0.3577916759969355  0.0556424816458474
  0.4895243650350878  0.2298144197600109  0.1686746216303732
  0.2477683967358359  0.8693090350362169  0.6735884220003854
  0.8175229219517206  0.8472608374621160  0.7424722551179102
  0.4760941204933218  0.7034055377859545  0.8579492723850493
  0.0772709005810270  0.6684157369443469  0.9331148749103164
  0.7458207696748076  0.6189884857218004  0.0323664759790532
  0.3942475157209273  0.5544159979505210  0.0900905772579677
  0.0074376998696621  0.4993251523515099  0.1612771396637527
  0.2471953565815497  0.8665895824736438  0.0003744460711914
  0.8892578175969987  0.8316360052649756  0.0860983825041259
  0.5214143667097630  0.7530149927047702  0.1586636250471116
 
  0.00000000E+00  0.00000000E+00  0.00000000E+00
  0.00000000E+00  0.00000000E+00  0.00000000E+00
  0.00000000E+00  0.00000000E+00  0.00000000E+00
  0.00000000E+00  0.00000000E+00  0.00000000E+00
  0.00000000E+00  0.00000000E+00  0.00000000E+00
  0.00000000E+00  0.00000000E+00  0.00000000E+00
  0.00000000E+00  0.00000000E+00  0.00000000E+00
  0.00000000E+00  0.00000000E+00  0.00000000E+00
  0.00000000E+00  0.00000000E+00  0.00000000E+00
  0.00000000E+00  0.00000000E+00  0.00000000E+00
  0.00000000E+00  0.00000000E+00  0.00000000E+00
  0.00000000E+00  0.00000000E+00  0.00000000E+00
  0.00000000E+00  0.00000000E+00  0.00000000E+00
  0.00000000E+00  0.00000000E+00  0.00000000E+00
  0.00000000E+00  0.00000000E+00  0.00000000E+00
  0.00000000E+00  0.00000000E+00  0.00000000E+00
  0.00000000E+00  0.00000000E+00  0.00000000E+00
  0.00000000E+00  0.00000000E+00  0.00000000E+00
  0.00000000E+00  0.00000000E+00  0.00000000E+00
  0.00000000E+00  0.00000000E+00  0.00000000E+00
  0.00000000E+00  0.00000000E+00  0.00000000E+00
  0.00000000E+00  0.00000000E+00  0.00000000E+00
  0.00000000E+00  0.00000000E+00  0.00000000E+00
  0.00000000E+00  0.00000000E+00  0.00000000E+00
  0.00000000E+00  0.00000000E+00  0.00000000E+00
  0.00000000E+00  0.00000000E+00  0.00000000E+00
  0.00000000E+00  0.00000000E+00  0.00000000E+00
  0.00000000E+00  0.00000000E+00  0.00000000E+00
  0.00000000E+00  0.00000000E+00  0.00000000E+00
  0.00000000E+00  0.00000000E+00  0.00000000E+00
  0.00000000E+00  0.00000000E+00  0.00000000E+00
  0.00000000E+00  0.00000000E+00  0.00000000E+00
  0.00000000E+00  0.00000000E+00  0.00000000E+00
  0.00000000E+00  0.00000000E+00  0.00000000E+00
  0.00000000E+00  0.00000000E+00  0.00000000E+00
  0.00000000E+00  0.00000000E+00  0.00000000E+00
  0.00000000E+00  0.00000000E+00  0.00000000E+00
  0.00000000E+00  0.00000000E+00  0.00000000E+00
  0.00000000E+00  0.00000000E+00  0.00000000E+00
  0.00000000E+00  0.00000000E+00  0.00000000E+00
  0.00000000E+00  0.00000000E+00  0.00000000E+00
  0.00000000E+00  0.00000000E+00  0.00000000E+00
  0.00000000E+00  0.00000000E+00  0.00000000E+00
  0.00000000E+00  0.00000000E+00  0.00000000E+00
  0.00000000E+00  0.00000000E+00  0.00000000E+00
  0.00000000E+00  0.00000000E+00  0.00000000E+00
  0.00000000E+00  0.00000000E+00  0.00000000E+00
  0.00000000E+00  0.00000000E+00  0.00000000E+00
  0.00000000E+00  0.00000000E+00  0.00000000E+00
  0.00000000E+00  0.00000000E+00  0.00000000E+00
  0.00000000E+00  0.00000000E+00  0.00000000E+00
  0.00000000E+00  0.00000000E+00  0.00000000E+00
  0.00000000E+00  0.00000000E+00  0.00000000E+00
  0.00000000E+00  0.00000000E+00  0.00000000E+00
  0.00000000E+00  0.00000000E+00  0.00000000E+00
  0.00000000E+00  0.00000000E+00  0.00000000E+00
  0.00000000E+00  0.00000000E+00  0.00000000E+00
  0.00000000E+00  0.00000000E+00  0.00000000E+00
  0.00000000E+00  0.00000000E+00  0.00000000E+00
  0.00000000E+00  0.00000000E+00  0.00000000E+00
  0.00000000E+00  0.00000000E+00  0.00000000E+00
  0.00000000E+00  0.00000000E+00  0.00000000E+00
  0.00000000E+00  0.00000000E+00  0.00000000E+00
  0.00000000E+00  0.00000000E+00  0.00000000E+00
  0.00000000E+00  0.00000000E+00  0.00000000E+00
  0.00000000E+00  0.00000000E+00  0.00000000E+00
  0.00000000E+00  0.00000000E+00  0.00000000E+00
  0.00000000E+00  0.00000000E+00  0.00000000E+00
  0.00000000E+00  0.00000000E+00  0.00000000E+00
  0.00000000E+00  0.00000000E+00  0.00000000E+00
  0.00000000E+00  0.00000000E+00  0.00000000E+00
  0.00000000E+00  0.00000000E+00  0.00000000E+00
  0.00000000E+00  0.00000000E+00  0.00000000E+00
  0.00000000E+00  0.00000000E+00  0.00000000E+00
  0.00000000E+00  0.00000000E+00  0.00000000E+00
  0.00000000E+00  0.00000000E+00  0.00000000E+00
  0.00000000E+00  0.00000000E+00  0.00000000E+00
  0.00000000E+00  0.00000000E+00  0.00000000E+00
  0.00000000E+00  0.00000000E+00  0.00000000E+00
  0.00000000E+00  0.00000000E+00  0.00000000E+00
  0.00000000E+00  0.00000000E+00  0.00000000E+00
  0.00000000E+00  0.00000000E+00  0.00000000E+00
  0.00000000E+00  0.00000000E+00  0.00000000E+00
  0.00000000E+00  0.00000000E+00  0.00000000E+00
  0.00000000E+00  0.00000000E+00  0.00000000E+00
  0.00000000E+00  0.00000000E+00  0.00000000E+00
  0.00000000E+00  0.00000000E+00  0.00000000E+00
  0.00000000E+00  0.00000000E+00  0.00000000E+00
  0.00000000E+00  0.00000000E+00  0.00000000E+00
  0.00000000E+00  0.00000000E+00  0.00000000E+00
  0.00000000E+00  0.00000000E+00  0.00000000E+00
  0.00000000E+00  0.00000000E+00  0.00000000E+00
  0.00000000E+00  0.00000000E+00  0.00000000E+00
  0.00000000E+00  0.00000000E+00  0.00000000E+00
  0.00000000E+00  0.00000000E+00  0.00000000E+00
  0.00000000E+00  0.00000000E+00  0.00000000E+00
