supercell of icsd_191774.cif            
   1.00000000000000     
    10.2704213696721194    0.1903171472466635   -0.2665049854672809
    -4.9713007717424889    8.7173251953696234    0.0601852431975999
    -0.2891074140135489   -0.0931691833900431   10.6043276004782463
   N    In   B 
    36    28     8
Direct
  0.2157705561660279  0.1034874527370917  0.4530231578808355
  0.0804528314974817  0.2183270034157232  0.2135617620793013
  0.8574906845304753  0.1250313348641754  0.9582348994099661
  0.8055919880715123  0.2389994071431403  0.6862579923089669
  0.5539732710412295  0.1112017149483506  0.4213144825851955
  0.4376872753815348  0.2112912023691820  0.1925105139854679
  0.2091479766912485  0.1025443549009495  0.9478323024808830
  0.1099013254119683  0.2183520038651068  0.6946340211290476
  0.8756420330094059  0.1069765570299523  0.3844199735540670
  0.8073211627528423  0.2156451983442338  0.1664148555453835
  0.6031732110791879  0.1385901357019179  0.9628502839144986
  0.4532614924128424  0.2146585323370331  0.7091860645165085
  0.2108916790323363  0.4474687585353578  0.4532350213583527
  0.1131625795796793  0.5997356147021620  0.2011386496653813
  0.8673143152165323  0.4017128487914974  0.9705592497999689
  0.7696465531226693  0.5780892946570404  0.7072778897762291
  0.5451211414334693  0.4412747346828709  0.4452684125855058
  0.4341140349547103  0.5752540078037711  0.1675096249129453
  0.2528854418368880  0.4561566716674932  0.9725198933111940
  0.1185845476080729  0.5895613562689235  0.7185779834537769
  0.8835665352480930  0.4520898483661995  0.4405526739817134
  0.7653736369782322  0.5658393313952601  0.1937280382881852
  0.5099089792275819  0.4646157772129342  0.9705597654724301
  0.4414083543105889  0.5704310988804409  0.6994829831520875
  0.2035108694052781  0.7722177103200281  0.3982358847835954
  0.1115515493066681  0.8552502986726793  0.1954082110951774
  0.9029119234247602  0.7404035629664207  0.8951900165864259
  0.8254574554576664  0.8596824611931027  0.7023941469794792
  0.5330262416142659  0.7484935410324809  0.3765572802931487
  0.4640465851846898  0.8541719162179291  0.1861517378023549
  0.2372610287146344  0.7747034885512818  0.9066075269963747
  0.1794710610164074  0.8676986818306105  0.6929864859653705
  0.8801244980367287  0.7885441122879087  0.4340559114931111
  0.8370046235324367  0.9738133292958366  0.1539584282509097
  0.6504151723534903  0.8422466597499678  0.9624873265304856
  0.5705975449144702  0.9230293117217769  0.6322505890755750
  0.2154565926797858  0.0945137641006397  0.2523797517802677
  0.0898053421681553  0.2124337726552170  0.4869940337135361
  0.8897971095874411  0.0933355085040191  0.7613010156227347
  0.5750094581119214  0.0953073980052466  0.2257773072056466
  0.4444734488191528  0.2151890014614040  0.5027718860061299
  0.2198806055323246  0.0875349806364270  0.7471820136914502
  0.0913962347487143  0.2127999198012986  0.0147324318396187
  0.7771736632709931  0.2195551623883247  0.4884359200984392
  0.5861259108528856  0.1065302246017410  0.7515557503580297
  0.4438737261359762  0.2200792722156493  0.9951189593466623
  0.2123114565521647  0.4586915995301268  0.2546602311865342
  0.1052443336783568  0.5680582852245806  0.5120017430440527
  0.8859204095711561  0.4540018168183124  0.7693326038405104
  0.7558172073919565  0.5582096557346077  0.9985186460462359
  0.5440820152095398  0.4471030053221696  0.2459296724372209
  0.4388663331219149  0.5615034305127864  0.5014238289908661
  0.2262592695891428  0.4505742672708308  0.7647617599222230
  0.1130630521537057  0.5615581589972578  0.0039864506156206
  0.8825490580767763  0.4433885046290413  0.2387341659285056
  0.7710596619782137  0.5663896192899500  0.5029972321720422
  0.5416271191257849  0.4429588447268316  0.7617354354901451
  0.1006571148996116  0.8744360925725800  0.5060587654158368
  0.4359176450615934  0.8781399195497599  0.4596587764847229
  0.1075135948681520  0.8704595813004445  0.9911685156617622
  0.8734321889503818  0.8025628673575724  0.2352649533156139
  0.7521061645274827  0.8910389245646257  0.4880024066321198
  0.6012106855757438  0.7862117672746081  0.7702033112602678
  0.4674808940857673  0.8796031773578719  0.9919921758481181
  0.7889880456960512  0.2257821631238670  0.0122651599926229
  0.8971754498415976  0.1251127822820521  0.2303764111698570
  0.4052524977950185  0.5085257342841345  0.0307403645979463
  0.1523883031145630  0.7476039001326740  0.2620297265000389
  0.8437946135802150  0.7374469567587596  0.7673499791458482
  0.7787100230850186  0.9702811158803684  0.0245598256430242
  0.4863823614213629  0.7349948531029042  0.2386231119765085
  0.1824282495853140  0.7504946575704423  0.7682416360193542
 
  0.00000000E+00  0.00000000E+00  0.00000000E+00
  0.00000000E+00  0.00000000E+00  0.00000000E+00
  0.00000000E+00  0.00000000E+00  0.00000000E+00
  0.00000000E+00  0.00000000E+00  0.00000000E+00
  0.00000000E+00  0.00000000E+00  0.00000000E+00
  0.00000000E+00  0.00000000E+00  0.00000000E+00
  0.00000000E+00  0.00000000E+00  0.00000000E+00
  0.00000000E+00  0.00000000E+00  0.00000000E+00
  0.00000000E+00  0.00000000E+00  0.00000000E+00
  0.00000000E+00  0.00000000E+00  0.00000000E+00
  0.00000000E+00  0.00000000E+00  0.00000000E+00
  0.00000000E+00  0.00000000E+00  0.00000000E+00
  0.00000000E+00  0.00000000E+00  0.00000000E+00
  0.00000000E+00  0.00000000E+00  0.00000000E+00
  0.00000000E+00  0.00000000E+00  0.00000000E+00
  0.00000000E+00  0.00000000E+00  0.00000000E+00
  0.00000000E+00  0.00000000E+00  0.00000000E+00
  0.00000000E+00  0.00000000E+00  0.00000000E+00
  0.00000000E+00  0.00000000E+00  0.00000000E+00
  0.00000000E+00  0.00000000E+00  0.00000000E+00
  0.00000000E+00  0.00000000E+00  0.00000000E+00
  0.00000000E+00  0.00000000E+00  0.00000000E+00
  0.00000000E+00  0.00000000E+00  0.00000000E+00
  0.00000000E+00  0.00000000E+00  0.00000000E+00
  0.00000000E+00  0.00000000E+00  0.00000000E+00
  0.00000000E+00  0.00000000E+00  0.00000000E+00
  0.00000000E+00  0.00000000E+00  0.00000000E+00
  0.00000000E+00  0.00000000E+00  0.00000000E+00
  0.00000000E+00  0.00000000E+00  0.00000000E+00
  0.00000000E+00  0.00000000E+00  0.00000000E+00
  0.00000000E+00  0.00000000E+00  0.00000000E+00
  0.00000000E+00  0.00000000E+00  0.00000000E+00
  0.00000000E+00  0.00000000E+00  0.00000000E+00
  0.00000000E+00  0.00000000E+00  0.00000000E+00
  0.00000000E+00  0.00000000E+00  0.00000000E+00
  0.00000000E+00  0.00000000E+00  0.00000000E+00
  0.00000000E+00  0.00000000E+00  0.00000000E+00
  0.00000000E+00  0.00000000E+00  0.00000000E+00
  0.00000000E+00  0.00000000E+00  0.00000000E+00
  0.00000000E+00  0.00000000E+00  0.00000000E+00
  0.00000000E+00  0.00000000E+00  0.00000000E+00
  0.00000000E+00  0.00000000E+00  0.00000000E+00
  0.00000000E+00  0.00000000E+00  0.00000000E+00
  0.00000000E+00  0.00000000E+00  0.00000000E+00
  0.00000000E+00  0.00000000E+00  0.00000000E+00
  0.00000000E+00  0.00000000E+00  0.00000000E+00
  0.00000000E+00  0.00000000E+00  0.00000000E+00
  0.00000000E+00  0.00000000E+00  0.00000000E+00
  0.00000000E+00  0.00000000E+00  0.00000000E+00
  0.00000000E+00  0.00000000E+00  0.00000000E+00
  0.00000000E+00  0.00000000E+00  0.00000000E+00
  0.00000000E+00  0.00000000E+00  0.00000000E+00
  0.00000000E+00  0.00000000E+00  0.00000000E+00
  0.00000000E+00  0.00000000E+00  0.00000000E+00
  0.00000000E+00  0.00000000E+00  0.00000000E+00
  0.00000000E+00  0.00000000E+00  0.00000000E+00
  0.00000000E+00  0.00000000E+00  0.00000000E+00
  0.00000000E+00  0.00000000E+00  0.00000000E+00
  0.00000000E+00  0.00000000E+00  0.00000000E+00
  0.00000000E+00  0.00000000E+00  0.00000000E+00
  0.00000000E+00  0.00000000E+00  0.00000000E+00
  0.00000000E+00  0.00000000E+00  0.00000000E+00
  0.00000000E+00  0.00000000E+00  0.00000000E+00
  0.00000000E+00  0.00000000E+00  0.00000000E+00
  0.00000000E+00  0.00000000E+00  0.00000000E+00
  0.00000000E+00  0.00000000E+00  0.00000000E+00
  0.00000000E+00  0.00000000E+00  0.00000000E+00
  0.00000000E+00  0.00000000E+00  0.00000000E+00
  0.00000000E+00  0.00000000E+00  0.00000000E+00
  0.00000000E+00  0.00000000E+00  0.00000000E+00
  0.00000000E+00  0.00000000E+00  0.00000000E+00
  0.00000000E+00  0.00000000E+00  0.00000000E+00
