generated by phonopy                    
   1.00000000000000     
    10.0351470768999995   -0.0000022330999784   -0.0000001056124209
    -5.0175765436399997    8.6906901959899994    0.0000001395531216
    -0.0000001735893656    0.0000001431815548   14.9533752540999991
   Pb   P    O    Cu
    20    12    49     1
Direct
  0.9979095810378809  0.7714780136256891  0.1244189937690408
  0.9980942203714065  0.7723305273360950  0.6228421267961011
  0.0064739858845115  0.2612344767140584  0.3738910334754166
  0.9979698510500725  0.2569562808174410  0.8737165556977686
  0.2245718185251775  0.2246791146723197  0.1190134746253904
  0.2254896902451407  0.2259676700637527  0.6277919933593381
  0.7404361330839180  0.7423209829222586  0.3739903199644701
  0.7376541799152108  0.7385737322857722  0.8738202563999593
  0.7724636843465333  0.9991878402756171  0.1202537974179947
  0.7723357647532723  0.9995954372852864  0.6270871855367872
  0.2733387516734851  0.0033027933669771  0.3729857406415462
  0.2558360726773756  0.9950623738097022  0.8739151888349639
  0.6591209026007618  0.3377303715174875  0.0033356201643073
  0.6850540792653632  0.3247259624660330  0.4977580985980623
  0.3341556882983880  0.6662772716867096  0.0025936301991791
  0.3259621963762598  0.6655228631827441  0.5043351765012787
  0.3253299076247771  0.6636283311320241  0.2434201292588298
  0.3340253282199797  0.6665415606599439  0.7451002006748695
  0.6848558801740765  0.3237391732332568  0.2508125341781309
  0.6589527451733304  0.3369797612318308  0.7451724895072829
  0.6210811275714789  0.5918617154867079  0.1236408541975109
  0.6215993426300486  0.5929037128879315  0.6247077929603293
  0.3647633835287607  0.4219074122974789  0.3744744398085231
  0.3674388968346562  0.3946645602210737  0.8738385529036421
  0.3969795126472633  0.0260005184727561  0.1203917159164831
  0.3977853966676790  0.0271238576457975  0.6276316155252530
  0.6202185462813503  0.9718194747668960  0.3740325052797502
  0.6055894391668346  0.9743472256309929  0.8739940189431934
  0.9742015292874129  0.3748989348822676  0.1179199145384899
  0.9738396530975209  0.3757967160306919  0.6296799838996989
  0.0274152312189528  0.6317148719425347  0.3740596367644358
  0.0230023527374499  0.6301994858792810  0.8739430558994599
  0.4985851902398011  0.6445961092340440  0.1216989130603281
  0.4989452902281997  0.6454383897366043  0.6262309369677226
  0.4694767328425371  0.3188423819562942  0.8739840270104509
  0.3480832511130600  0.8527266943718530  0.1135082128020386
  0.3485689675362593  0.8536950528203633  0.6341325307181123
  0.7088485772570792  0.1510205675211864  0.3743630576913617
  0.6863425189458354  0.1525686378328786  0.8740322443648054
  0.1502034291433176  0.4937690618722073  0.1193560378288936
  0.1497554414189111  0.4946993223077811  0.6282035586929808
  0.8488680601166081  0.5304817445406513  0.3744786332662997
  0.8442474873126429  0.5321320093948216  0.8741130689979926
  0.7186749711594587  0.6385866387339050  0.0348723970997256
  0.7357667509563086  0.6699057553897276  0.5448433410432543
  0.2565804757730561  0.3846924451695344  0.4598558868147293
  0.2608436579413080  0.3491822710207657  0.9578265822270566
  0.3543429236838094  0.0849657479500792  0.0333810049138208
  0.3123095116632371  0.0536149029480057  0.5483504270769330
  0.6653363825925283  0.9111221145621045  0.4584220800332517
  0.6482434816151397  0.9095698641294376  0.9578831484284862
  0.9310522368959084  0.2606620728042870  0.0374093247099196
  0.9242831827153850  0.2749674692513864  0.5421595963863624
  0.0904279490537334  0.7354204226483603  0.4589973281675412
  0.0875707523643072  0.7378915164543614  0.9576218202471978
  0.2569236989704820  0.3839323982134175  0.2888214047934952
  0.2605106186630053  0.3487046060196874  0.7900137284688498
  0.7359808566367363  0.6704911861456537  0.2029758814138134
  0.7201830815411938  0.6416938016294793  0.7130603225266157
  0.6672946186516171  0.9120968293830316  0.2900366636849583
  0.6492376617081348  0.9098732295550747  0.7903724033917285
  0.3095848379755424  0.0510442004060749  0.1992250147865207
  0.3542087705551467  0.0852513267942854  0.7146148081170409
  0.0893335270830065  0.7358414595183476  0.2892351910860143
  0.0870636850301878  0.7384550148348126  0.7904729178604057
  0.9253146283761637  0.2735842143354859  0.2052061692711149
  0.9309331094729245  0.2612510043132659  0.7099884758750505
  0.5422197680721581  0.4124679657471617  0.1322096947340725
  0.5427372947962965  0.4133803608441866  0.6171747025954843
  0.4713254211598255  0.6062613125473604  0.3740583261652759
  0.4739946681684231  0.5760943237121197  0.8736264667663534
  0.5758079776486298  0.1256478174066586  0.1331051586895597
  0.5769517876610806  0.1266632329936215  0.6158731193836005
  0.4398505622054429  0.9007130620113628  0.3734178997930613
  0.4244538639509727  0.9017451964658889  0.8736486711683185
  0.8802404332148370  0.4599268739172473  0.1102081609751195
  0.8795892517373360  0.4605731204780881  0.6375850558004785
  0.1000585431776102  0.5235614412053096  0.3734794645821964
  0.0938437012082645  0.5201236857196747  0.8735669006746036
  0.9968792301535530  0.9980701868170812  0.1072804804939693
  0.9973885777433651  0.9993473203833290  0.6374742274305873
  0.4794578618481822  0.2905689638479600  0.3739499224508904
 
  0.00000000E+00  0.00000000E+00  0.00000000E+00
  0.00000000E+00  0.00000000E+00  0.00000000E+00
  0.00000000E+00  0.00000000E+00  0.00000000E+00
  0.00000000E+00  0.00000000E+00  0.00000000E+00
  0.00000000E+00  0.00000000E+00  0.00000000E+00
  0.00000000E+00  0.00000000E+00  0.00000000E+00
  0.00000000E+00  0.00000000E+00  0.00000000E+00
  0.00000000E+00  0.00000000E+00  0.00000000E+00
  0.00000000E+00  0.00000000E+00  0.00000000E+00
  0.00000000E+00  0.00000000E+00  0.00000000E+00
  0.00000000E+00  0.00000000E+00  0.00000000E+00
  0.00000000E+00  0.00000000E+00  0.00000000E+00
  0.00000000E+00  0.00000000E+00  0.00000000E+00
  0.00000000E+00  0.00000000E+00  0.00000000E+00
  0.00000000E+00  0.00000000E+00  0.00000000E+00
  0.00000000E+00  0.00000000E+00  0.00000000E+00
  0.00000000E+00  0.00000000E+00  0.00000000E+00
  0.00000000E+00  0.00000000E+00  0.00000000E+00
  0.00000000E+00  0.00000000E+00  0.00000000E+00
  0.00000000E+00  0.00000000E+00  0.00000000E+00
  0.00000000E+00  0.00000000E+00  0.00000000E+00
  0.00000000E+00  0.00000000E+00  0.00000000E+00
  0.00000000E+00  0.00000000E+00  0.00000000E+00
  0.00000000E+00  0.00000000E+00  0.00000000E+00
  0.00000000E+00  0.00000000E+00  0.00000000E+00
  0.00000000E+00  0.00000000E+00  0.00000000E+00
  0.00000000E+00  0.00000000E+00  0.00000000E+00
  0.00000000E+00  0.00000000E+00  0.00000000E+00
  0.00000000E+00  0.00000000E+00  0.00000000E+00
  0.00000000E+00  0.00000000E+00  0.00000000E+00
  0.00000000E+00  0.00000000E+00  0.00000000E+00
  0.00000000E+00  0.00000000E+00  0.00000000E+00
  0.00000000E+00  0.00000000E+00  0.00000000E+00
  0.00000000E+00  0.00000000E+00  0.00000000E+00
  0.00000000E+00  0.00000000E+00  0.00000000E+00
  0.00000000E+00  0.00000000E+00  0.00000000E+00
  0.00000000E+00  0.00000000E+00  0.00000000E+00
  0.00000000E+00  0.00000000E+00  0.00000000E+00
  0.00000000E+00  0.00000000E+00  0.00000000E+00
  0.00000000E+00  0.00000000E+00  0.00000000E+00
  0.00000000E+00  0.00000000E+00  0.00000000E+00
  0.00000000E+00  0.00000000E+00  0.00000000E+00
  0.00000000E+00  0.00000000E+00  0.00000000E+00
  0.00000000E+00  0.00000000E+00  0.00000000E+00
  0.00000000E+00  0.00000000E+00  0.00000000E+00
  0.00000000E+00  0.00000000E+00  0.00000000E+00
  0.00000000E+00  0.00000000E+00  0.00000000E+00
  0.00000000E+00  0.00000000E+00  0.00000000E+00
  0.00000000E+00  0.00000000E+00  0.00000000E+00
  0.00000000E+00  0.00000000E+00  0.00000000E+00
  0.00000000E+00  0.00000000E+00  0.00000000E+00
  0.00000000E+00  0.00000000E+00  0.00000000E+00
  0.00000000E+00  0.00000000E+00  0.00000000E+00
  0.00000000E+00  0.00000000E+00  0.00000000E+00
  0.00000000E+00  0.00000000E+00  0.00000000E+00
  0.00000000E+00  0.00000000E+00  0.00000000E+00
  0.00000000E+00  0.00000000E+00  0.00000000E+00
  0.00000000E+00  0.00000000E+00  0.00000000E+00
  0.00000000E+00  0.00000000E+00  0.00000000E+00
  0.00000000E+00  0.00000000E+00  0.00000000E+00
  0.00000000E+00  0.00000000E+00  0.00000000E+00
  0.00000000E+00  0.00000000E+00  0.00000000E+00
  0.00000000E+00  0.00000000E+00  0.00000000E+00
  0.00000000E+00  0.00000000E+00  0.00000000E+00
  0.00000000E+00  0.00000000E+00  0.00000000E+00
  0.00000000E+00  0.00000000E+00  0.00000000E+00
  0.00000000E+00  0.00000000E+00  0.00000000E+00
  0.00000000E+00  0.00000000E+00  0.00000000E+00
  0.00000000E+00  0.00000000E+00  0.00000000E+00
  0.00000000E+00  0.00000000E+00  0.00000000E+00
  0.00000000E+00  0.00000000E+00  0.00000000E+00
  0.00000000E+00  0.00000000E+00  0.00000000E+00
  0.00000000E+00  0.00000000E+00  0.00000000E+00
  0.00000000E+00  0.00000000E+00  0.00000000E+00
  0.00000000E+00  0.00000000E+00  0.00000000E+00
  0.00000000E+00  0.00000000E+00  0.00000000E+00
  0.00000000E+00  0.00000000E+00  0.00000000E+00
  0.00000000E+00  0.00000000E+00  0.00000000E+00
  0.00000000E+00  0.00000000E+00  0.00000000E+00
  0.00000000E+00  0.00000000E+00  0.00000000E+00
  0.00000000E+00  0.00000000E+00  0.00000000E+00
  0.00000000E+00  0.00000000E+00  0.00000000E+00
