POSCAR                                  
   1.00398800000000     
    -3.1364805716799999    0.0041002802144600    5.0007963741800001
     1.5640192292399999    2.7181997288200002    5.0003900579899998
    -7.8567367181199996   13.6110857897000006  -10.0002683574999995
   Al   Sc   N 
    23     1    24
Direct
  0.9592199884682557  0.6272041781096718  0.5427682968038852
  0.1244635032082542  0.7916837764855558  0.7080349604118368
  0.2892311104944696  0.9571602502589727  0.8733097332209354
  0.8717830978175130  0.5386667419925288  0.9562716732126475
  0.0351372131858980  0.7025759197200188  0.1215374736322943
  0.2077269202951086  0.8833720876368858  0.2962339277556723
  0.3770909938251279  0.0440718221300784  0.4604772513593289
  0.5423014107232262  0.2089867493677033  0.6255142595157963
  0.7069641806267057  0.3737808992868494  0.7907375676967519
  0.4542126936095485  0.1244172396419714  0.0392734345605987
  0.6385396168025181  0.2820833448126194  0.2093822367355500
  0.7939917677484942  0.4625929990260502  0.3766448823111403
  0.0004599242074619  0.3333174812261106  0.6667360484560660
  0.1640968988024696  0.4975622794337156  0.8310626900771894
  0.3263314059029838  0.6624900814074905  0.9944151916145714
  0.9120249590003695  0.2396500695437211  0.0794716960458075
  0.0929031276058083  0.4231552727128474  0.2532841621689172
  0.2525688574996039  0.5856392597909093  0.4193869945688320
  0.4178705743832722  0.7507353355034780  0.5843290144478601
  0.5826148456500633  0.9153322723958865  0.7492403199586732
  0.7466006146497932  0.0802010176183501  0.9143340796127220
  0.6691856305041526  0.0088656463009755  0.3389942926025995
  0.8361192715169423  0.1701330293713781  0.5022904972429032
  0.4859611624357711  0.8264521937249043  0.1685631803842824
  0.1179512890834928  0.7876908584786548  0.5115112826534656
  0.2831710772208567  0.9515547539080842  0.6764990418889667
  0.4475024927492726  0.1164973274749173  0.8413838771045192
  0.0277284834998994  0.6971428343591839  0.9224892932578399
  0.1775385862747854  0.8580507528363981  0.0828890655122763
  0.3639072062235087  0.0549857496851445  0.2716693327124062
  0.5366920657167782  0.2063613658636569  0.4309337496876040
  0.7013620047394227  0.3694453574221370  0.5943195587680137
  0.8651286661240860  0.5333368656825428  0.7586676131781616
  0.6093938757741100  0.2847676966483803  0.0064528814249272
  0.8235814755258914  0.4126160502455818  0.1775146740879592
  0.9520030384112630  0.6258327666112748  0.3453339645011084
  0.1602358182739181  0.4922691129616936  0.6350906802794967
  0.3250510757216389  0.6573267811354171  0.8004246488140865
  0.4899711394059025  0.8240715374755538  0.9660729764319953
  0.0704561773785173  0.4026827996192921  0.0493335745345505
  0.2515393315018599  0.5862333398099082  0.2175300440571633
  0.4121726439383337  0.7434944395054899  0.3875350584876358
  0.5773896050994054  0.9095621460955101  0.5527636669435338
  0.7425398281997957  0.0744725856918507  0.7178685873943635
  0.9070763298682749  0.2394944810961093  0.8832604278422735
  0.6603522232539376  0.0004428702574799  0.1326169377744577
  0.8251734802298074  0.1631214421973155  0.3041573567614435
  0.9946823168214607  0.3284161374396959  0.4693878415049042
