generated by phonopy                    
   1.00000000000000     
    11.7777700938999992   -0.0000006592896312    0.0000118211769744
    -0.0000006477562692   11.7777479613999994   -0.0000130806483528
     0.0000177256125076   -0.0000204342245446   17.8544012557999991
   Pb   Bi   Cu   Se   O 
     1    35    36    36    36
Direct
  0.9999920232625215  0.1666168417633500  0.4212392074564804
  0.3319420282919907  0.1666148088430859  0.4300995712702473
  0.6680305745930326  0.1666130457374990  0.4300842578387645
  0.9999666061185835  0.4985752065883133  0.4300854920190034
  0.3334482925044711  0.5000801648432187  0.4287002388116434
  0.6665172383398996  0.5000970618024780  0.4286866149616699
  0.9999705762367057  0.8346717511206165  0.4300972620263295
  0.3334337699473764  0.8331286814018952  0.4287047899756118
  0.6665103094078830  0.8331478481792089  0.4286896500308472
  0.0000094585025323  0.1666647175105780  0.9290946237610882
  0.3331458603706281  0.1666519241858211  0.9289475052792824
  0.6668816528194199  0.1666726891833008  0.9289562739300621
  0.0000194454081637  0.4997980760313609  0.9289600125674227
  0.3333733321188106  0.5000123303371211  0.9289398981995873
  0.6666544785623856  0.5000313702923336  0.9289479782323298
  0.0000027683509600  0.8335279628334433  0.9289533379182089
  0.3333660139008856  0.8333009920896188  0.9289330472360930
  0.6666461071737686  0.8333055859749692  0.9289435491398876
  0.1666571887654626  0.9999983824186742  0.0712360291666272
  0.5000048546617109  0.0001115741059650  0.0708772182133899
  0.8333533371301201  0.0000227237767660  0.0712402005174368
  0.1666784672180199  0.3333013226413826  0.0712422541986371
  0.5000201849169486  0.3332116454104934  0.0708815530008664
  0.8333734748808439  0.3333327033003783  0.0712454145819734
  0.1665672872254689  0.6666603354989036  0.0708789072459126
  0.4999999530058332  0.6666672639207931  0.0710869577875002
  0.8334621378803746  0.6666768072896829  0.0708854454239969
  0.1653300833972011  0.0012626821087309  0.5701293627580597
  0.4999785455134074  0.9994183962582710  0.5707619435165725
  0.8346186100742159  0.0012679952115704  0.5701247966604726
  0.1653180205477227  0.3319653794918764  0.5701216750203102
  0.4999932677486711  0.3338164643952624  0.5707618411054369
  0.8346259725452185  0.3319631024128924  0.5701153801375227
  0.1671537560000971  0.6665982202425340  0.5707681350807121
  0.4999884541126960  0.6666170685607540  0.5709986623205765
  0.8327800263747420  0.6666201413770096  0.5707681464919716
  0.9999600996528031  0.9989895394009096  0.2509196615250602
  0.3347958332301815  0.9988690253624029  0.2492090813544365
  0.6651179770423923  0.9989444060527291  0.2491794638238147
  0.0000344727801505  0.3343430326114145  0.2509098138583852
  0.3348870944701972  0.3343373030486418  0.2491935070904105
  0.6652281753604399  0.3344799810654067  0.2491689836238606
  0.0000027638279789  0.6666716269288528  0.2503060596857480
  0.3327916664093351  0.6666240604285747  0.2497727174481241
  0.6671540814398966  0.6667024957080372  0.2497734924594184
  0.9999640470469373  0.9996121665952202  0.7497963269285535
  0.3337089986825248  0.9997123095914731  0.7501222003099315
  0.6662553364568566  0.9997448008320049  0.7501290548221817
  0.0000002892417683  0.3336134430414148  0.7498035923758124
  0.3337199897755738  0.3334762157660620  0.7501288746033552
  0.6662577076346636  0.3335143583703086  0.7501415315974711
  0.9999848280883441  0.6666228443308668  0.7507338451165211
  0.3337181870684560  0.6666111225841931  0.7501386561814485
  0.6662537629942733  0.6666301621166610  0.7501533483864407
  0.1677198466252321  0.1665681081449790  0.2509310593968834
  0.5000513646291793  0.1666121883682408  0.2503027055510358
  0.8323777753060071  0.1667051121653174  0.2508961269599652
  0.1678392108717190  0.5014304341899916  0.2491808771129840
  0.5000239423074149  0.4994455396532089  0.2497728379208581
  0.8323153100132572  0.5014800376427999  0.2491927466030930
  0.1677468186247921  0.8317475683346203  0.2491985663023044
  0.4999929830498786  0.8338143906040898  0.2497792651352029
  0.8322311793855590  0.8318700324272683  0.2491754203825565
  0.1669507977882319  0.1666312076524790  0.7497965512766811
  0.4999615419408130  0.1666498226951276  0.7507278355987808
  0.8329617411801848  0.1666602940807707  0.7498202236286033
  0.1668509731251220  0.5003628841780170  0.7501339735226793
  0.4999620054661378  0.5003705080469345  0.7501477816550874
  0.8331006530658698  0.5003949372839429  0.7501355709248401
  0.1668270796202904  0.8329032550280004  0.7501176577471682
  0.4999403228525665  0.8329052911642449  0.7501324613823357
  0.8330750115352998  0.8329046581514703  0.7501364724005342
  0.1694655944584440  0.3360508897523076  0.3356365850649752
  0.5000408933063980  0.3336151331223576  0.3367779967034963
  0.8305749526497337  0.3360928798172651  0.3356493801725904
  0.1669788714263376  0.6665953730324148  0.3367926431447898
  0.4999766678547104  0.6666247445228564  0.3360623461306389
  0.8329948030716707  0.6666672029653995  0.3367672786031264
  0.1694116551258702  0.9971477623780842  0.3356540507360606
  0.4999750083610124  0.9996313372390659  0.3367922918642492
  0.8305170875215566  0.9972330787968531  0.3356353560952954
  0.1665129542354791  0.3331511891223613  0.8373442127329511
  0.4999932733201788  0.3337625528509989  0.8380270980310058
  0.8334826051824749  0.3331807428119120  0.8373473591823597
  0.1671097136268074  0.6666424509007314  0.8380190339866758
  0.4999859303125120  0.6666479334298145  0.8381789631847454
  0.8328744573462714  0.6666507461832936  0.8380308341595537
  0.1664955301091666  0.0001166008395970  0.8373342574607747
  0.4999870652955352  0.9995255165893155  0.8380144217508345
  0.8334655548119585  0.0001299987177390  0.8373453183154353
  0.3336124554691580  0.1666119768054486  0.1623873678074474
  0.6664543174889062  0.1666883531576460  0.1623796250894429
  0.0000476631190764  0.1666554984467936  0.1639382400281164
  0.3341615813894450  0.5007348708130621  0.1612199086839681
  0.6659243775942656  0.5008148330461921  0.1612255566428331
  0.0000492347221694  0.5002436402766222  0.1623877805763598
  0.3341094478289648  0.8325175053131630  0.1612305777138587
  0.6658692874773990  0.8325713417615574  0.1612187542131736
  0.0000045090950422  0.8330827525333078  0.1623853884236723
  0.3343037112664646  0.1666106729042127  0.6639054713305299
  0.6656408866126924  0.1666315286864943  0.6639105798298814
  0.9999582301069125  0.1666223409669954  0.6627804696787578
  0.3335373702084965  0.5001674501574556  0.6634098136653108
  0.6664168295668773  0.5001914777746848  0.6634167595322324
  0.9999705162572141  0.5009531169373957  0.6639075810832935
  0.3335182958126239  0.8330412949964838  0.6633962951875247
  0.6664017325664062  0.8330624568848677  0.6634103370852387
  0.9999536567548120  0.8322797438306182  0.6639025245313661
  0.1724904398197538  0.1666223980920520  0.5026024621846972
  0.4999857460058905  0.1666182467993238  0.5005889256905718
  0.8274771827637721  0.1666078843576742  0.5025869364484379
  0.1679537783845859  0.5008650459007100  0.4996292378602902
  0.4999996099657764  0.5005429866214044  0.5001242781432396
  0.8319916242126837  0.5008856906782171  0.4996345620579064
  0.1679582821156771  0.8323416281153442  0.4996467767009989
  0.4999767944988136  0.8326930662153345  0.5001265752763473
  0.8319932239211667  0.8323745672900529  0.4996360956483201
  0.1664663398852255  0.1666487973649282  0.0001339964324458
  0.5000104296143704  0.1666588267596438  0.9996452373358977
  0.8335523189256477  0.1666720609438670  0.0001430778023490
  0.1664450922605241  0.4996557948386808  0.0000581437703389
  0.5000042526639419  0.4996720717177752  0.9996519105190558
  0.8335887011126886  0.4996755540768874  0.0000588608713272
  0.1664310001102010  0.8336500042874491  0.0000498989603841
  0.4999977449965627  0.8336465361279295  0.9996481629264125
  0.8335740189174672  0.8336581096488018  0.0000547481404638
  0.0000031457299059  0.0002003791701810  0.0001361299687161
  0.3330131869200628  0.0002249994754422  0.0000500643627532
  0.6670032341421575  0.0002384715793013  0.0000517804680982
  0.0000208766941796  0.3331166994862116  0.0001433143655731
  0.3330225727787663  0.3330699452222277  0.0000504248280109
  0.6670140625028935  0.3330966582780661  0.0000597618058578
  0.0000151817944598  0.6666601396624827  0.9996526894668847
  0.3330217677533014  0.6666569045475370  0.9996448881647169
  0.6669910939740689  0.6666634975097239  0.9996558263808595
  0.9999856501101974  0.9941240925339514  0.5026058530596131
  0.3342290102176690  0.9986284461516703  0.4996342226945387
  0.6657088492031420  0.9986304502284327  0.4996325515532689
  0.9999706683228666  0.3391161927227202  0.5025901811945914
  0.3342529031839305  0.3346136536293400  0.4996417421980013
  0.6657275199716466  0.3346080938242082  0.4996245543501487
  0.9999642768191634  0.6666183276217623  0.5005805880688783
  0.3338929987772374  0.6665988685086788  0.5001420499404077
  0.6660709777293761  0.6666294743775651  0.5001238029995108
 
  0.00000000E+00  0.00000000E+00  0.00000000E+00
  0.00000000E+00  0.00000000E+00  0.00000000E+00
  0.00000000E+00  0.00000000E+00  0.00000000E+00
  0.00000000E+00  0.00000000E+00  0.00000000E+00
  0.00000000E+00  0.00000000E+00  0.00000000E+00
  0.00000000E+00  0.00000000E+00  0.00000000E+00
  0.00000000E+00  0.00000000E+00  0.00000000E+00
  0.00000000E+00  0.00000000E+00  0.00000000E+00
  0.00000000E+00  0.00000000E+00  0.00000000E+00
  0.00000000E+00  0.00000000E+00  0.00000000E+00
  0.00000000E+00  0.00000000E+00  0.00000000E+00
  0.00000000E+00  0.00000000E+00  0.00000000E+00
  0.00000000E+00  0.00000000E+00  0.00000000E+00
  0.00000000E+00  0.00000000E+00  0.00000000E+00
  0.00000000E+00  0.00000000E+00  0.00000000E+00
  0.00000000E+00  0.00000000E+00  0.00000000E+00
  0.00000000E+00  0.00000000E+00  0.00000000E+00
  0.00000000E+00  0.00000000E+00  0.00000000E+00
  0.00000000E+00  0.00000000E+00  0.00000000E+00
  0.00000000E+00  0.00000000E+00  0.00000000E+00
  0.00000000E+00  0.00000000E+00  0.00000000E+00
  0.00000000E+00  0.00000000E+00  0.00000000E+00
  0.00000000E+00  0.00000000E+00  0.00000000E+00
  0.00000000E+00  0.00000000E+00  0.00000000E+00
  0.00000000E+00  0.00000000E+00  0.00000000E+00
  0.00000000E+00  0.00000000E+00  0.00000000E+00
  0.00000000E+00  0.00000000E+00  0.00000000E+00
  0.00000000E+00  0.00000000E+00  0.00000000E+00
  0.00000000E+00  0.00000000E+00  0.00000000E+00
  0.00000000E+00  0.00000000E+00  0.00000000E+00
  0.00000000E+00  0.00000000E+00  0.00000000E+00
  0.00000000E+00  0.00000000E+00  0.00000000E+00
  0.00000000E+00  0.00000000E+00  0.00000000E+00
  0.00000000E+00  0.00000000E+00  0.00000000E+00
  0.00000000E+00  0.00000000E+00  0.00000000E+00
  0.00000000E+00  0.00000000E+00  0.00000000E+00
  0.00000000E+00  0.00000000E+00  0.00000000E+00
  0.00000000E+00  0.00000000E+00  0.00000000E+00
  0.00000000E+00  0.00000000E+00  0.00000000E+00
  0.00000000E+00  0.00000000E+00  0.00000000E+00
  0.00000000E+00  0.00000000E+00  0.00000000E+00
  0.00000000E+00  0.00000000E+00  0.00000000E+00
  0.00000000E+00  0.00000000E+00  0.00000000E+00
  0.00000000E+00  0.00000000E+00  0.00000000E+00
  0.00000000E+00  0.00000000E+00  0.00000000E+00
  0.00000000E+00  0.00000000E+00  0.00000000E+00
  0.00000000E+00  0.00000000E+00  0.00000000E+00
  0.00000000E+00  0.00000000E+00  0.00000000E+00
  0.00000000E+00  0.00000000E+00  0.00000000E+00
  0.00000000E+00  0.00000000E+00  0.00000000E+00
  0.00000000E+00  0.00000000E+00  0.00000000E+00
  0.00000000E+00  0.00000000E+00  0.00000000E+00
  0.00000000E+00  0.00000000E+00  0.00000000E+00
  0.00000000E+00  0.00000000E+00  0.00000000E+00
  0.00000000E+00  0.00000000E+00  0.00000000E+00
  0.00000000E+00  0.00000000E+00  0.00000000E+00
  0.00000000E+00  0.00000000E+00  0.00000000E+00
  0.00000000E+00  0.00000000E+00  0.00000000E+00
  0.00000000E+00  0.00000000E+00  0.00000000E+00
  0.00000000E+00  0.00000000E+00  0.00000000E+00
  0.00000000E+00  0.00000000E+00  0.00000000E+00
  0.00000000E+00  0.00000000E+00  0.00000000E+00
  0.00000000E+00  0.00000000E+00  0.00000000E+00
  0.00000000E+00  0.00000000E+00  0.00000000E+00
  0.00000000E+00  0.00000000E+00  0.00000000E+00
  0.00000000E+00  0.00000000E+00  0.00000000E+00
  0.00000000E+00  0.00000000E+00  0.00000000E+00
  0.00000000E+00  0.00000000E+00  0.00000000E+00
  0.00000000E+00  0.00000000E+00  0.00000000E+00
  0.00000000E+00  0.00000000E+00  0.00000000E+00
  0.00000000E+00  0.00000000E+00  0.00000000E+00
  0.00000000E+00  0.00000000E+00  0.00000000E+00
  0.00000000E+00  0.00000000E+00  0.00000000E+00
  0.00000000E+00  0.00000000E+00  0.00000000E+00
  0.00000000E+00  0.00000000E+00  0.00000000E+00
  0.00000000E+00  0.00000000E+00  0.00000000E+00
  0.00000000E+00  0.00000000E+00  0.00000000E+00
  0.00000000E+00  0.00000000E+00  0.00000000E+00
  0.00000000E+00  0.00000000E+00  0.00000000E+00
  0.00000000E+00  0.00000000E+00  0.00000000E+00
  0.00000000E+00  0.00000000E+00  0.00000000E+00
  0.00000000E+00  0.00000000E+00  0.00000000E+00
  0.00000000E+00  0.00000000E+00  0.00000000E+00
  0.00000000E+00  0.00000000E+00  0.00000000E+00
  0.00000000E+00  0.00000000E+00  0.00000000E+00
  0.00000000E+00  0.00000000E+00  0.00000000E+00
  0.00000000E+00  0.00000000E+00  0.00000000E+00
  0.00000000E+00  0.00000000E+00  0.00000000E+00
  0.00000000E+00  0.00000000E+00  0.00000000E+00
  0.00000000E+00  0.00000000E+00  0.00000000E+00
  0.00000000E+00  0.00000000E+00  0.00000000E+00
  0.00000000E+00  0.00000000E+00  0.00000000E+00
  0.00000000E+00  0.00000000E+00  0.00000000E+00
  0.00000000E+00  0.00000000E+00  0.00000000E+00
  0.00000000E+00  0.00000000E+00  0.00000000E+00
  0.00000000E+00  0.00000000E+00  0.00000000E+00
  0.00000000E+00  0.00000000E+00  0.00000000E+00
  0.00000000E+00  0.00000000E+00  0.00000000E+00
  0.00000000E+00  0.00000000E+00  0.00000000E+00
  0.00000000E+00  0.00000000E+00  0.00000000E+00
  0.00000000E+00  0.00000000E+00  0.00000000E+00
  0.00000000E+00  0.00000000E+00  0.00000000E+00
  0.00000000E+00  0.00000000E+00  0.00000000E+00
  0.00000000E+00  0.00000000E+00  0.00000000E+00
  0.00000000E+00  0.00000000E+00  0.00000000E+00
  0.00000000E+00  0.00000000E+00  0.00000000E+00
  0.00000000E+00  0.00000000E+00  0.00000000E+00
  0.00000000E+00  0.00000000E+00  0.00000000E+00
  0.00000000E+00  0.00000000E+00  0.00000000E+00
  0.00000000E+00  0.00000000E+00  0.00000000E+00
  0.00000000E+00  0.00000000E+00  0.00000000E+00
  0.00000000E+00  0.00000000E+00  0.00000000E+00
  0.00000000E+00  0.00000000E+00  0.00000000E+00
  0.00000000E+00  0.00000000E+00  0.00000000E+00
  0.00000000E+00  0.00000000E+00  0.00000000E+00
  0.00000000E+00  0.00000000E+00  0.00000000E+00
  0.00000000E+00  0.00000000E+00  0.00000000E+00
  0.00000000E+00  0.00000000E+00  0.00000000E+00
  0.00000000E+00  0.00000000E+00  0.00000000E+00
  0.00000000E+00  0.00000000E+00  0.00000000E+00
  0.00000000E+00  0.00000000E+00  0.00000000E+00
  0.00000000E+00  0.00000000E+00  0.00000000E+00
  0.00000000E+00  0.00000000E+00  0.00000000E+00
  0.00000000E+00  0.00000000E+00  0.00000000E+00
  0.00000000E+00  0.00000000E+00  0.00000000E+00
  0.00000000E+00  0.00000000E+00  0.00000000E+00
  0.00000000E+00  0.00000000E+00  0.00000000E+00
  0.00000000E+00  0.00000000E+00  0.00000000E+00
  0.00000000E+00  0.00000000E+00  0.00000000E+00
  0.00000000E+00  0.00000000E+00  0.00000000E+00
  0.00000000E+00  0.00000000E+00  0.00000000E+00
  0.00000000E+00  0.00000000E+00  0.00000000E+00
  0.00000000E+00  0.00000000E+00  0.00000000E+00
  0.00000000E+00  0.00000000E+00  0.00000000E+00
  0.00000000E+00  0.00000000E+00  0.00000000E+00
  0.00000000E+00  0.00000000E+00  0.00000000E+00
  0.00000000E+00  0.00000000E+00  0.00000000E+00
  0.00000000E+00  0.00000000E+00  0.00000000E+00
  0.00000000E+00  0.00000000E+00  0.00000000E+00
  0.00000000E+00  0.00000000E+00  0.00000000E+00
  0.00000000E+00  0.00000000E+00  0.00000000E+00
  0.00000000E+00  0.00000000E+00  0.00000000E+00
  0.00000000E+00  0.00000000E+00  0.00000000E+00
  0.00000000E+00  0.00000000E+00  0.00000000E+00
