supercell of POSCAR                     
   1.01800000000000     
     3.1310994802600001   -5.4896946145000003   10.0244832682999991
    -9.4821132118399998   -5.5089477087900001    0.0170740616273000
     6.3359946057599998  -11.0114127993000004  -10.0652216442999993
   Al   Gd   N 
    84    11    96
Direct
  0.0897074149661066  0.5865691468726340  0.3339261016026711
  0.4986687803592744  0.3258158462887621  0.2538212973201084
  0.0869725163169619  0.0842885547381300  0.3334942493918689
  0.2514187130819892  0.5788315596769706  0.4939098484157682
  0.3332052041943996  0.3216042931544365  0.0784199938717904
  0.4151834665866261  0.0798931406081564  0.1684536028690857
  0.0060898656455421  0.8439464950427009  0.2561152720883086
  0.1688222122078358  0.3326076106602684  0.4106445046003628
  0.2475782741195189  0.0868344848207556  0.4950230262426061
  0.1626919923762316  0.8372608880927785  0.4147509678167580
  0.3366402714517633  0.6735049344069353  0.3387364446639936
  0.1543526398234363  0.6811801535563546  0.1621211581370048
  0.2538436064947831  0.4083806605587554  0.2500244105321059
  0.3343589521538277  0.1638996826551988  0.3316376842980020
  0.0059344349933355  0.6731998240625998  0.4944103354966956
  0.1685738182729963  0.1605155098021172  0.1691019549914969
  0.2560302514760338  0.9175943966019773  0.2496972092322807
  0.4131483227118906  0.4146538931060704  0.4143735388833036
  0.4981204208435557  0.1609584420784884  0.4959929177523605
  0.0932216941766342  0.9192234538612567  0.0824123945045159
  0.4192129662407353  0.9195318451563352  0.4094013850370146
  0.0883278782646002  0.5836113747709533  0.8338664932025068
  0.4996633048471892  0.3217717921673042  0.7555744778279063
  0.0875029287782212  0.0830889610659327  0.8359730910194685
  0.2518092074212746  0.5825478982987775  0.9933775918055119
  0.3316916899053339  0.3176969206873892  0.5776508933725495
  0.4168832665710696  0.0863107111998929  0.6708714599713801
  0.0079053179241484  0.8424104513429000  0.7564081165935406
  0.1689428833615949  0.3301138702027586  0.9127545625896971
  0.2531699309235975  0.0830983854556209  0.9993719425531822
  0.1676745734651135  0.8334785018162592  0.9196805441828673
  0.3374228354201136  0.6731225332086126  0.8399481782281839
  0.1542344693438551  0.6744653843581290  0.6654686957479186
  0.2498874314578572  0.4009318392708821  0.7517451891428806
  0.3347890935424047  0.1628243427610130  0.8346096931629603
  0.0073809322617961  0.6740257296519729  0.9944571442245973
  0.1668979849970071  0.1580144337963247  0.6694453115932362
  0.2528787924549789  0.9190152452414537  0.7560090834025601
  0.4118421807593791  0.4142690322688267  0.9154107210572136
  0.4992597161791963  0.1606006688572208  0.9974431648366178
  0.0827049864132263  0.9230705277137758  0.5796495681331493
  0.4167934829836355  0.9176135253388580  0.9161050739703143
  0.5879741411674217  0.5849377794919306  0.3335632646964442
  0.0016501772983233  0.3232687495919819  0.2546447767198430
  0.5841255226157429  0.0859657665386067  0.3328400703780829
  0.7508996077660584  0.5783758200303737  0.4947455698168994
  0.8339221380355113  0.3185978686358411  0.0787831619260757
  0.9189090711056878  0.0862314263332422  0.1710693652540627
  0.5039473510757801  0.8445929594578487  0.2525299403603185
  0.6677466366929181  0.3318486083662791  0.4119997306912140
  0.7470461932096057  0.0865812242611383  0.4956536794228512
  0.6609282430385690  0.8368897787106775  0.4156695164026871
  0.8356409552644166  0.6734105654842253  0.3407179331674399
  0.6560216774945928  0.6754429792951981  0.1653329810680191
  0.7508489533116460  0.4017882880697314  0.2523963571941863
  0.8346164019943387  0.1639756806692816  0.3335725745840961
  0.5060649377381168  0.6729628514080730  0.4936017673313913
  0.6667612248680328  0.1585353813723245  0.1693811454398784
  0.7511630887250504  0.9198266134936617  0.2560637698940411
  0.9131222850955325  0.4146164332579332  0.4151606625824371
  0.9986813391307123  0.1612021639378938  0.4964645342762353
  0.5750779178578824  0.9205641556901938  0.0816852787894149
  0.9192450080877492  0.9196366769266362  0.4121715747904062
  0.5886240661127147  0.5845269057991516  0.8354932557838879
  0.9998064065892365  0.3211371376716698  0.7557249019746664
  0.5852349717372647  0.0839338916931354  0.8353610943351768
  0.7511385676730811  0.5792747876775337  0.9956789320208088
  0.8317120271820215  0.3173533231794039  0.5785149169146564
  0.9172444618367095  0.0860420506981754  0.6718460073876145
  0.5065154007340098  0.8433643672329225  0.7559549590264538
  0.6682194610672809  0.3319275312640357  0.9132534465544921
  0.7472099032069295  0.0857450448793955  0.9972171163555075
  0.6585965323385636  0.8364388397952496  0.9190096109302601
  0.8358305129248436  0.6735120880297956  0.8409049626797298
  0.6537202749501603  0.6746136067446997  0.6661517600962767
  0.7498736956298231  0.4011183152504501  0.7527572720870523
  0.8347540617926654  0.1631604611184656  0.8353483288442405
  0.5026860932930788  0.6747989211061878  0.9958809159130055
  0.6667933872098288  0.1581246377480880  0.6698579690868627
  0.7525552455657802  0.9194363051951058  0.7575690634475194
  0.9132612066657089  0.4143334946055219  0.9163271807252755
  0.0011132962706668  0.1604231898216071  0.9984950082014095
  0.5825435962881542  0.9233182878696482  0.5795429326655395
  0.9222007048375929  0.9193441850898694  0.9130713730716948
  0.3944578265118182  0.6008573795535952  0.1702160577535139
  0.0858567893291422  0.4244522938874482  0.0846731932904135
  0.3971836044851926  0.5790807275009868  0.6780935495021581
  0.3316724884541387  0.8361913323642653  0.5823257720211217
  0.0819901101845701  0.4185471484956196  0.5843571599883504
  0.8981698795876696  0.5801777506076533  0.1798038167085139
  0.8339977010197757  0.8386264265008592  0.0839186305228310
  0.5808292942025730  0.4170588606340502  0.0859264915153943
  0.8969474959725119  0.5784235517458569  0.6783708970957960
  0.8309796040301336  0.8364883743936815  0.5844975842096645
  0.5810493661036489  0.4183542742162984  0.5847309109399248
  0.2174633480728758  0.5838906064193381  0.2667225332486325
  0.0286315896567331  0.6137924253706046  0.1008604994009374
  0.1321979135896143  0.3203460253037704  0.1998001426349703
  0.2122405177488957  0.0818215162255882  0.2712751769304020
  0.3817793391629891  0.5833765397146280  0.4370497027381717
  0.4492116335608713  0.3186293906574846  0.0094308138938359
  0.0430274440283895  0.0838844293780951  0.1043490857522897
  0.1270002892284410  0.8431741033143609  0.1887204708644887
  0.2967252239384024  0.3309708545750425  0.3503557866410603
  0.3762793028974158  0.0808140638263879  0.4341454586731288
  0.4785036409643766  0.8366607119973253  0.0068429313697251
  0.2919720363831431  0.8349168908513320  0.3553966371835457
  0.4715258002758773  0.6854647728171770  0.2875499553903538
  0.2553674365130476  0.6582043903625632  0.0900584718265733
  0.3777011036798328  0.3949544828394949  0.1830538240298978
  0.4611840053450678  0.1650780453719278  0.2720416242117736
  0.1337311385079474  0.6659104491069954  0.4334643162512606
  0.2258043849491216  0.4125068116620696  0.0072684935783016
  0.2912192769747222  0.1615520932783241  0.1025503018489289
  0.3853212819186282  0.9258576691687566  0.1997988874612489
  0.0429649251962800  0.4202378007610648  0.3520215380169276
  0.1269338151449446  0.1714372529547674  0.4341393162259664
  0.2015339695418135  0.9294688520675507  0.0107387406680317
  0.0473313612726685  0.9246491567073818  0.3538522239869835
  0.2176401625946696  0.5798960186090270  0.7654747517545744
  0.0323769469130468  0.6104193539343825  0.6006267957447946
  0.1294010277610766  0.3164670454304499  0.6996082804410975
  0.2126248445179613  0.0817821834567454  0.7720045200679877
  0.3821508150875630  0.5823951648349990  0.9358045804526753
  0.4483653371102179  0.3187279022844720  0.5099255265619220
  0.0400693236491421  0.0850430353623111  0.6037515290158879
  0.1317511180143001  0.8419412174458714  0.6856890619878229
  0.2962154101595829  0.3283163085430516  0.8512798388940652
  0.3779744178124531  0.0810378995728058  0.9349639822094602
  0.4755719900050934  0.8379826673028887  0.5070710374345495
  0.2931008930085000  0.8337014239181499  0.8551725111586634
  0.4714367929080154  0.6840337120169835  0.7856905075513438
  0.2631326503039162  0.6551664915709239  0.5945711640083928
  0.3742076932203844  0.3814092733178143  0.6847253883776290
  0.4618995504320011  0.1619346839488216  0.7736945566109625
  0.1326652423584420  0.6640035572144640  0.9307252040724023
  0.2241502531845398  0.4116336440753159  0.5086573604158815
  0.2896183781376322  0.1568332356663831  0.6016516450358225
  0.3841416598745724  0.9270554015739023  0.7010304520323487
  0.0428674493485843  0.4178837018085773  0.8516534095492858
  0.1290893592587281  0.1681466985982070  0.9357657464227529
  0.1958514013695023  0.9319240207679513  0.5098711678474928
  0.0513303510647987  0.9218267287260886  0.8539576161888860
  0.7184938733225934  0.5808317805253154  0.2671464832660817
  0.5385330153718400  0.6077982369738208  0.0991955466202725
  0.6310855500699475  0.3169196283795515  0.2013188505651300
  0.7121405654691841  0.0829049358180498  0.2725583850768558
  0.8815398230937745  0.5830210539883467  0.4380905457097981
  0.9520047370602853  0.3196568112676843  0.0114791574216468
  0.5413620052476205  0.0865122070987141  0.1036381963987125
  0.6325806677343024  0.8415332687997505  0.1868649227381241
  0.7965634734697531  0.3293484135008384  0.3528031779169183
  0.8762971683078504  0.0808214619401042  0.4352886317523570
  0.9795415267190606  0.8388424986793126  0.0088373175970986
  0.7920505011066723  0.8350486953052254  0.3572481973081878
  0.9698111177329594  0.6857579670780751  0.2886387576032661
  0.7662095295332989  0.6575549037742405  0.0954476285986203
  0.8747852764032302  0.3821766971007889  0.1859350042285612
  0.9628528382524166  0.1634942701016726  0.2740566854258404
  0.6341813962109768  0.6649178351955101  0.4330469039054137
  0.7251474838087901  0.4116951635814630  0.0100540412044694
  0.7913980886801681  0.1576394033409017  0.1025247504142968
  0.8832091705164729  0.9288946609688367  0.2035230450622478
  0.5437034663504221  0.4193487686192725  0.3526634012688561
  0.6264118984010665  0.1706566215268808  0.4344202713528205
  0.6949656125884331  0.9315892502752021  0.0125417864740101
  0.5487540418103336  0.9243684334357027  0.3519486031497223
  0.7175323192832295  0.5803501001831108  0.7665232448660504
  0.5323370181175306  0.6109900505588115  0.6001985486673149
  0.6297252086476988  0.3167756159955744  0.7000939502530912
  0.7122015292926562  0.0823358715712317  0.7728012044270542
  0.8818906855385578  0.5833096375106379  0.9373674979047308
  0.9485877030036960  0.3187716725133782  0.5106294266073093
  0.5401170109968803  0.0853977649765980  0.6034664707974429
  0.6320754134680016  0.8424688399657185  0.6861134008785541
  0.7965062124431626  0.3289948470904704  0.8528276210971981
  0.8775166406112760  0.0802977652074048  0.9362098822841816
  0.9744400438679435  0.8375918979996726  0.5088956222148866
  0.7923793640092427  0.8350275239763576  0.8581330161842686
  0.9697793996277753  0.6839546326161425  0.7859570530244184
  0.7628152989217796  0.6550839236359280  0.5952638170960256
  0.8738606540323985  0.3807074015005014  0.6856949078565222
  0.9625844873525438  0.1612661474681190  0.7749386928866429
  0.6336500355462533  0.6643473888357363  0.9334511744770566
  0.7238634523333900  0.4111682640440151  0.5098294864784876
  0.7897990559404420  0.1562535568322190  0.6023838724970005
  0.8846621663099299  0.9272739563003256  0.7033837965901242
  0.5429227377521926  0.4185537919730891  0.8517183474992720
  0.6275096018984740  0.1706019000488084  0.9347427618882946
  0.6962802500426051  0.9314785498266147  0.5104156882131861
  0.5471281712828286  0.9236428236612326  0.8530440511538515
 
  0.00000000E+00  0.00000000E+00  0.00000000E+00
  0.00000000E+00  0.00000000E+00  0.00000000E+00
  0.00000000E+00  0.00000000E+00  0.00000000E+00
  0.00000000E+00  0.00000000E+00  0.00000000E+00
  0.00000000E+00  0.00000000E+00  0.00000000E+00
  0.00000000E+00  0.00000000E+00  0.00000000E+00
  0.00000000E+00  0.00000000E+00  0.00000000E+00
  0.00000000E+00  0.00000000E+00  0.00000000E+00
  0.00000000E+00  0.00000000E+00  0.00000000E+00
  0.00000000E+00  0.00000000E+00  0.00000000E+00
  0.00000000E+00  0.00000000E+00  0.00000000E+00
  0.00000000E+00  0.00000000E+00  0.00000000E+00
  0.00000000E+00  0.00000000E+00  0.00000000E+00
  0.00000000E+00  0.00000000E+00  0.00000000E+00
  0.00000000E+00  0.00000000E+00  0.00000000E+00
  0.00000000E+00  0.00000000E+00  0.00000000E+00
  0.00000000E+00  0.00000000E+00  0.00000000E+00
  0.00000000E+00  0.00000000E+00  0.00000000E+00
  0.00000000E+00  0.00000000E+00  0.00000000E+00
  0.00000000E+00  0.00000000E+00  0.00000000E+00
  0.00000000E+00  0.00000000E+00  0.00000000E+00
  0.00000000E+00  0.00000000E+00  0.00000000E+00
  0.00000000E+00  0.00000000E+00  0.00000000E+00
  0.00000000E+00  0.00000000E+00  0.00000000E+00
  0.00000000E+00  0.00000000E+00  0.00000000E+00
  0.00000000E+00  0.00000000E+00  0.00000000E+00
  0.00000000E+00  0.00000000E+00  0.00000000E+00
  0.00000000E+00  0.00000000E+00  0.00000000E+00
  0.00000000E+00  0.00000000E+00  0.00000000E+00
  0.00000000E+00  0.00000000E+00  0.00000000E+00
  0.00000000E+00  0.00000000E+00  0.00000000E+00
  0.00000000E+00  0.00000000E+00  0.00000000E+00
  0.00000000E+00  0.00000000E+00  0.00000000E+00
  0.00000000E+00  0.00000000E+00  0.00000000E+00
  0.00000000E+00  0.00000000E+00  0.00000000E+00
  0.00000000E+00  0.00000000E+00  0.00000000E+00
  0.00000000E+00  0.00000000E+00  0.00000000E+00
  0.00000000E+00  0.00000000E+00  0.00000000E+00
  0.00000000E+00  0.00000000E+00  0.00000000E+00
  0.00000000E+00  0.00000000E+00  0.00000000E+00
  0.00000000E+00  0.00000000E+00  0.00000000E+00
  0.00000000E+00  0.00000000E+00  0.00000000E+00
  0.00000000E+00  0.00000000E+00  0.00000000E+00
  0.00000000E+00  0.00000000E+00  0.00000000E+00
  0.00000000E+00  0.00000000E+00  0.00000000E+00
  0.00000000E+00  0.00000000E+00  0.00000000E+00
  0.00000000E+00  0.00000000E+00  0.00000000E+00
  0.00000000E+00  0.00000000E+00  0.00000000E+00
  0.00000000E+00  0.00000000E+00  0.00000000E+00
  0.00000000E+00  0.00000000E+00  0.00000000E+00
  0.00000000E+00  0.00000000E+00  0.00000000E+00
  0.00000000E+00  0.00000000E+00  0.00000000E+00
  0.00000000E+00  0.00000000E+00  0.00000000E+00
  0.00000000E+00  0.00000000E+00  0.00000000E+00
  0.00000000E+00  0.00000000E+00  0.00000000E+00
  0.00000000E+00  0.00000000E+00  0.00000000E+00
  0.00000000E+00  0.00000000E+00  0.00000000E+00
  0.00000000E+00  0.00000000E+00  0.00000000E+00
  0.00000000E+00  0.00000000E+00  0.00000000E+00
  0.00000000E+00  0.00000000E+00  0.00000000E+00
  0.00000000E+00  0.00000000E+00  0.00000000E+00
  0.00000000E+00  0.00000000E+00  0.00000000E+00
  0.00000000E+00  0.00000000E+00  0.00000000E+00
  0.00000000E+00  0.00000000E+00  0.00000000E+00
  0.00000000E+00  0.00000000E+00  0.00000000E+00
  0.00000000E+00  0.00000000E+00  0.00000000E+00
  0.00000000E+00  0.00000000E+00  0.00000000E+00
  0.00000000E+00  0.00000000E+00  0.00000000E+00
  0.00000000E+00  0.00000000E+00  0.00000000E+00
  0.00000000E+00  0.00000000E+00  0.00000000E+00
  0.00000000E+00  0.00000000E+00  0.00000000E+00
  0.00000000E+00  0.00000000E+00  0.00000000E+00
  0.00000000E+00  0.00000000E+00  0.00000000E+00
  0.00000000E+00  0.00000000E+00  0.00000000E+00
  0.00000000E+00  0.00000000E+00  0.00000000E+00
  0.00000000E+00  0.00000000E+00  0.00000000E+00
  0.00000000E+00  0.00000000E+00  0.00000000E+00
  0.00000000E+00  0.00000000E+00  0.00000000E+00
  0.00000000E+00  0.00000000E+00  0.00000000E+00
  0.00000000E+00  0.00000000E+00  0.00000000E+00
  0.00000000E+00  0.00000000E+00  0.00000000E+00
  0.00000000E+00  0.00000000E+00  0.00000000E+00
  0.00000000E+00  0.00000000E+00  0.00000000E+00
  0.00000000E+00  0.00000000E+00  0.00000000E+00
  0.00000000E+00  0.00000000E+00  0.00000000E+00
  0.00000000E+00  0.00000000E+00  0.00000000E+00
  0.00000000E+00  0.00000000E+00  0.00000000E+00
  0.00000000E+00  0.00000000E+00  0.00000000E+00
  0.00000000E+00  0.00000000E+00  0.00000000E+00
  0.00000000E+00  0.00000000E+00  0.00000000E+00
  0.00000000E+00  0.00000000E+00  0.00000000E+00
  0.00000000E+00  0.00000000E+00  0.00000000E+00
  0.00000000E+00  0.00000000E+00  0.00000000E+00
  0.00000000E+00  0.00000000E+00  0.00000000E+00
  0.00000000E+00  0.00000000E+00  0.00000000E+00
  0.00000000E+00  0.00000000E+00  0.00000000E+00
  0.00000000E+00  0.00000000E+00  0.00000000E+00
  0.00000000E+00  0.00000000E+00  0.00000000E+00
  0.00000000E+00  0.00000000E+00  0.00000000E+00
  0.00000000E+00  0.00000000E+00  0.00000000E+00
  0.00000000E+00  0.00000000E+00  0.00000000E+00
  0.00000000E+00  0.00000000E+00  0.00000000E+00
  0.00000000E+00  0.00000000E+00  0.00000000E+00
  0.00000000E+00  0.00000000E+00  0.00000000E+00
  0.00000000E+00  0.00000000E+00  0.00000000E+00
  0.00000000E+00  0.00000000E+00  0.00000000E+00
  0.00000000E+00  0.00000000E+00  0.00000000E+00
  0.00000000E+00  0.00000000E+00  0.00000000E+00
  0.00000000E+00  0.00000000E+00  0.00000000E+00
  0.00000000E+00  0.00000000E+00  0.00000000E+00
  0.00000000E+00  0.00000000E+00  0.00000000E+00
  0.00000000E+00  0.00000000E+00  0.00000000E+00
  0.00000000E+00  0.00000000E+00  0.00000000E+00
  0.00000000E+00  0.00000000E+00  0.00000000E+00
  0.00000000E+00  0.00000000E+00  0.00000000E+00
  0.00000000E+00  0.00000000E+00  0.00000000E+00
  0.00000000E+00  0.00000000E+00  0.00000000E+00
  0.00000000E+00  0.00000000E+00  0.00000000E+00
  0.00000000E+00  0.00000000E+00  0.00000000E+00
  0.00000000E+00  0.00000000E+00  0.00000000E+00
  0.00000000E+00  0.00000000E+00  0.00000000E+00
  0.00000000E+00  0.00000000E+00  0.00000000E+00
  0.00000000E+00  0.00000000E+00  0.00000000E+00
  0.00000000E+00  0.00000000E+00  0.00000000E+00
  0.00000000E+00  0.00000000E+00  0.00000000E+00
  0.00000000E+00  0.00000000E+00  0.00000000E+00
  0.00000000E+00  0.00000000E+00  0.00000000E+00
  0.00000000E+00  0.00000000E+00  0.00000000E+00
  0.00000000E+00  0.00000000E+00  0.00000000E+00
  0.00000000E+00  0.00000000E+00  0.00000000E+00
  0.00000000E+00  0.00000000E+00  0.00000000E+00
  0.00000000E+00  0.00000000E+00  0.00000000E+00
  0.00000000E+00  0.00000000E+00  0.00000000E+00
  0.00000000E+00  0.00000000E+00  0.00000000E+00
  0.00000000E+00  0.00000000E+00  0.00000000E+00
  0.00000000E+00  0.00000000E+00  0.00000000E+00
  0.00000000E+00  0.00000000E+00  0.00000000E+00
  0.00000000E+00  0.00000000E+00  0.00000000E+00
  0.00000000E+00  0.00000000E+00  0.00000000E+00
  0.00000000E+00  0.00000000E+00  0.00000000E+00
  0.00000000E+00  0.00000000E+00  0.00000000E+00
  0.00000000E+00  0.00000000E+00  0.00000000E+00
  0.00000000E+00  0.00000000E+00  0.00000000E+00
  0.00000000E+00  0.00000000E+00  0.00000000E+00
  0.00000000E+00  0.00000000E+00  0.00000000E+00
  0.00000000E+00  0.00000000E+00  0.00000000E+00
  0.00000000E+00  0.00000000E+00  0.00000000E+00
  0.00000000E+00  0.00000000E+00  0.00000000E+00
  0.00000000E+00  0.00000000E+00  0.00000000E+00
  0.00000000E+00  0.00000000E+00  0.00000000E+00
  0.00000000E+00  0.00000000E+00  0.00000000E+00
  0.00000000E+00  0.00000000E+00  0.00000000E+00
  0.00000000E+00  0.00000000E+00  0.00000000E+00
  0.00000000E+00  0.00000000E+00  0.00000000E+00
  0.00000000E+00  0.00000000E+00  0.00000000E+00
  0.00000000E+00  0.00000000E+00  0.00000000E+00
  0.00000000E+00  0.00000000E+00  0.00000000E+00
  0.00000000E+00  0.00000000E+00  0.00000000E+00
  0.00000000E+00  0.00000000E+00  0.00000000E+00
  0.00000000E+00  0.00000000E+00  0.00000000E+00
  0.00000000E+00  0.00000000E+00  0.00000000E+00
  0.00000000E+00  0.00000000E+00  0.00000000E+00
  0.00000000E+00  0.00000000E+00  0.00000000E+00
  0.00000000E+00  0.00000000E+00  0.00000000E+00
  0.00000000E+00  0.00000000E+00  0.00000000E+00
  0.00000000E+00  0.00000000E+00  0.00000000E+00
  0.00000000E+00  0.00000000E+00  0.00000000E+00
  0.00000000E+00  0.00000000E+00  0.00000000E+00
  0.00000000E+00  0.00000000E+00  0.00000000E+00
  0.00000000E+00  0.00000000E+00  0.00000000E+00
  0.00000000E+00  0.00000000E+00  0.00000000E+00
  0.00000000E+00  0.00000000E+00  0.00000000E+00
  0.00000000E+00  0.00000000E+00  0.00000000E+00
  0.00000000E+00  0.00000000E+00  0.00000000E+00
  0.00000000E+00  0.00000000E+00  0.00000000E+00
  0.00000000E+00  0.00000000E+00  0.00000000E+00
  0.00000000E+00  0.00000000E+00  0.00000000E+00
  0.00000000E+00  0.00000000E+00  0.00000000E+00
  0.00000000E+00  0.00000000E+00  0.00000000E+00
  0.00000000E+00  0.00000000E+00  0.00000000E+00
  0.00000000E+00  0.00000000E+00  0.00000000E+00
  0.00000000E+00  0.00000000E+00  0.00000000E+00
  0.00000000E+00  0.00000000E+00  0.00000000E+00
  0.00000000E+00  0.00000000E+00  0.00000000E+00
  0.00000000E+00  0.00000000E+00  0.00000000E+00
  0.00000000E+00  0.00000000E+00  0.00000000E+00
  0.00000000E+00  0.00000000E+00  0.00000000E+00
  0.00000000E+00  0.00000000E+00  0.00000000E+00
  0.00000000E+00  0.00000000E+00  0.00000000E+00
  0.00000000E+00  0.00000000E+00  0.00000000E+00
  0.00000000E+00  0.00000000E+00  0.00000000E+00
