Nb   Zn   N
1.0
  -9.96120765817079 0.0153420807772974 -0.0720945913354224
  -0.001220290320008 5.880226352622604 0.0105133964244101
  2.37408206865e-05 -0.0089476107738464 5.53364090948503
 Nb  Zn  N 
4 8 12 
direct
   -0.0001402076561331   0.6693455888565057   0.9788913212428755
   -0.0003499518867379   0.3280630287999334   0.4799292020634139
   -0.5028370986639568   0.1734509190009889   0.1214525046188539
   -0.5004228781742879   0.8336343661091093   0.6233067093162987
   -0.1723378162277324   0.1605748579251285   0.9632997148940227
   -0.8364393453156842   0.1594000056648375   0.9785287821884280
   -0.8310064345802333   0.8362904690991162   0.4717844324492517
   -0.1712541771363682   0.8385977053083215   0.4647195493628464
   -0.3192774913778879   0.6565260097865164   0.9727927190175261
   -0.6755837622161771   0.6669611584351707   0.0114210360121497
   -0.3203110308233301   0.3441802423762095   0.4714580120088103
   -0.6689290559136828   0.3334730543968377   0.6015994853621329
   -0.1580235738278842   0.8342547279087500   0.0909124296276611
   -0.8423288987031038   0.8341919579871833   0.0967269200016967
   -0.0006010022435477   0.3459625294873340   0.1111010884345064
   -0.1597989127133776   0.1650409779665565   0.5906792030848614
   -0.8451445454248964   0.1606608154905761   0.5949028005879871
   -0.9998236242239502   0.6521995055031267   0.6120441680896004
   -0.3345573684724262   0.3359081453798745   0.0791742615410519
   -0.6605552704000747   0.3327009323498814   0.0059091296055155
   -0.3341143056693499   0.6644015254491987   0.5790658786386480
   -0.6624080055661611   0.6678133108586738   0.5619200592916020
   -0.4992988986518216   0.8518790483524350   0.9957301051212032
   -0.5044563421223837   0.1544889521278947   0.4894891698596036
