Nb   Zn   N
1.0
  9.919176246218225 0.0080382276041908 0.1280574689459688
  0.0125396699989441 5.872217080117246 0.0136674284016452
  3.07864423089e-05 -0.0090230004346519 5.55670304668438
 Nb  Zn  N 
4 8 12 
direct
    0.9997167749908453   0.6685779642695343   0.9792447620179588
    0.9994507040790971   0.3285175026089742   0.4797726293044324
    0.5010763762505143   0.1740473055801785   0.1064514913739502
    0.5035356581350940   0.8345300630809807   0.6104045963364776
    0.1657019398485292   0.1568525263005384   0.9704306728223661
    0.8341950157917379   0.1587797527184280   0.9782363758329288
    0.8355202670751060   0.8406977935036684   0.4787862955600619
    0.1702725414023988   0.8372753324420180   0.4625576420395817
    0.3242719344325062   0.6640511943451752   0.9800543237634436
    0.6658831446586810   0.6592520702890398   0.1127055347282589
    0.3305111839775414   0.3343823202586659   0.5689476507950975
    0.6655300316224422   0.3431739546433505   0.6112598882032750
    0.1595832375418375   0.8311801478950168   0.0912208088426211
    0.8443684632602555   0.8356066079307584   0.0964088949814250
    0.9989970712311992   0.3446423735927416   0.1117778736417651
    0.1568910321399018   0.1616201598837741   0.5896098513646119
    0.8427360538097607   0.1638364693640451   0.5957410914203739
    0.9995959721009771   0.6526103367212793   0.6123862832437055
    0.3401493110022815   0.3285502566909079   0.0081412325953517
    0.6585447640456074   0.3393453169292116   0.9906987667400170
    0.3373876811858920   0.6710333056944686   0.5659274834197573
    0.6583032325485382   0.6639546645309715   0.4913359678733853
    0.5062656229821217   0.8502018982850487   0.9789839780527604
    0.5015119838740063   0.1572805182159245   0.4757461807675800
