Nb   Zn   N                             
   1.00000000000000     
    -0.0009923158358941    0.0000026039558194    5.4644544978870000
     5.8159365754066590    0.0049173479827692    0.0010513004927048
    -0.0083834163590180    9.9156791872886245   -0.0000052478441519
   Nb   Zn   N 
     4     8    12
Direct
  0.9982124642984885  0.6714634724556761  0.0000008732431966
  0.4982123287487318  0.3285386918135452  0.0000007826843578
  0.9982121750753490  0.1714630427750383  0.4999991179442836
  0.4982120557818293  0.8285389882115707  0.4999990798024202
  0.9880873225978990  0.1626002762321462  0.1715027489029853
  0.9880873626327593  0.1626001367649414  0.8284973865101301
  0.4880873910060654  0.8374016392545356  0.8284974100128891
  0.4880871227790100  0.8374018137835483  0.1715027866053798
  0.9880872274511334  0.6626000569119186  0.3284972495626697
  0.9880874428568869  0.6626004052115898  0.6715025719152856
  0.4880873504157197  0.3374016743675611  0.3284972954429572
  0.4880873502266058  0.3374015544788890  0.6715025831732835
  0.1115556838136197  0.8316273933199051  0.1607776009403349
  0.1115562844206839  0.8316278694826795  0.8392218491001114
  0.1267536131034825  0.3427679394058973 -0.0000000019469169
  0.6115558292305184  0.1683745851040604  0.1607776585131755
  0.6115562574342007  0.1683740911199319  0.8392218212622549
  0.6267535716672432  0.6572338986826102  0.0000000092309883
  0.1115558321349480  0.3316274190547710  0.3392222843620771
  0.1115563445385244  0.3316280970565175  0.6607782969200651
  0.6115557929828958  0.6683745325294566  0.3392222550099768
  0.6115563804748301  0.6683738777248038  0.6607783062791514
  0.1267536164616037  0.8427679986817429  0.5000000054453113
  0.6267536036978465  0.1572338543957005  0.5000000259034418
 
             NaN             NaN             NaN
             NaN             NaN             NaN
             NaN             NaN             NaN
             NaN             NaN             NaN
             NaN             NaN             NaN
             NaN             NaN             NaN
             NaN             NaN             NaN
             NaN             NaN             NaN
             NaN             NaN             NaN
             NaN             NaN             NaN
             NaN             NaN             NaN
             NaN             NaN             NaN
             NaN             NaN             NaN
             NaN             NaN             NaN
             NaN             NaN             NaN
             NaN             NaN             NaN
             NaN             NaN             NaN
             NaN             NaN             NaN
             NaN             NaN             NaN
             NaN             NaN             NaN
             NaN             NaN             NaN
             NaN             NaN             NaN
             NaN             NaN             NaN
             NaN             NaN             NaN
