Nb   Zn   N                             
   1.00000000000000     
    -0.0572884209199366    0.0000080838837479    5.4823917157087099
     5.8531143443153102    0.0038305794009919    0.0035044364749988
    -0.0064972782505085    9.9506313684212770   -0.0000862926773688
   Nb   Zn   N 
     4     8    12
Direct
  0.9852271112064038  0.6722876523457639  1.0000020331560091
  0.4841566249554322  0.3301358418162799  1.0000022203914594
  0.0231512127424166  0.1710097124344298  0.4999961559896638
  0.4799341526564572  0.8179554263729528  0.4999983426997670
  0.9743279024562387  0.1620885577364506  0.1689342856065074
  0.9743278341942391  0.1620886135903468  0.8310663067393175
  0.4743155599732429  0.8379643988115425  0.8293903281571259
  0.4743152488314893  0.8379644189661620  0.1706100295286685
  0.9700962490161982  0.6657844513951170  0.3261677126286686
  0.9700958694433656  0.6657846945191357  0.6738318571536287
  0.4859343958745935  0.3367865636800181  0.3264427024781760
  0.4859356380841295  0.3367873472916746  0.6735570692436067
  0.0976413725794849  0.8349285885292493  0.1594866686056410
  0.0976423220374122  0.8349302766522873  0.8405116520344987
  0.1141011324933581  0.3460702752319905  0.9999995999964698
  0.5978436258110448  0.1685256613543990  0.1589844732231997
  0.5978447447497338  0.1685238123923330  0.8410136591238289
  0.6148692619685003  0.6570713584202574  0.9999997496128666
  0.0893185042061446  0.3369335795981379  0.3364539804052049
  0.0893195632770949  0.3369362957227361  0.6635491248581298
  0.5965472376516423  0.6682305269142101  0.3359506951133751
  0.5965479531089941  0.6682289338805842  0.6640505692203547
  0.1075445453564926  0.8324317264931469  0.5000004423922776
  0.5679828127466354  0.1505512941500126  0.5000003412571962
 
             NaN             NaN             NaN
             NaN             NaN             NaN
             NaN             NaN             NaN
             NaN             NaN             NaN
             NaN             NaN             NaN
             NaN             NaN             NaN
             NaN             NaN             NaN
             NaN             NaN             NaN
             NaN             NaN             NaN
             NaN             NaN             NaN
             NaN             NaN             NaN
             NaN             NaN             NaN
             NaN             NaN             NaN
             NaN             NaN             NaN
             NaN             NaN             NaN
             NaN             NaN             NaN
             NaN             NaN             NaN
             NaN             NaN             NaN
             NaN             NaN             NaN
             NaN             NaN             NaN
             NaN             NaN             NaN
             NaN             NaN             NaN
             NaN             NaN             NaN
             NaN             NaN             NaN
