Nb   Zn   N                             
   1.00000000000000     
    -0.0386372208617217    0.0000135638116764    5.5003289335304295
     5.8792960989780090    0.0038416272042452    0.0059575724572927
    -0.0065420241685516   10.0004568627478658   -0.0000713490590436
   Nb   Zn   N 
     4     8    12
Direct
  0.9805525017522685  0.6700440542105567 -0.0000018896804454
  0.4785356077583254  0.3285412472764683 -0.0000019236726265
  0.1264044372761469  0.1801689304403228  0.5000038915501450
  0.5007533845222417  0.8147518866751003  0.5000022922979248
  0.9691709911790533  0.1601494290915635  0.1701531754807186
  0.9691705806040347  0.1601487706622358  0.8298460366169795
  0.4682507909187077  0.8367957376177803  0.8312849559553124
  0.4682515203891510  0.8367952581703083  0.1687146534054661
  0.9786243515454632  0.6649637855009242  0.3272028277342370
  0.9786274184496264  0.6649615615066375  0.6727974450910090
  0.4826164710887159  0.3424545565631063  0.3172042860393203
  0.4826157500497025  0.3424545921346477  0.6827961441309180
  0.0927543999660853  0.8332717737121229  0.1584704228612171
  0.0927535026875133  0.8332702512872077  0.8415311074841278
  0.1104361117426562  0.3453865198199724  0.0000002648457409
  0.5931993268345928  0.1646556551671051  0.1575899355008938
  0.5931981973804614  0.1646568640349810  0.8424116285980423
  0.6103629511173668  0.6532240741730544  0.0000002534840952
  0.0826002297644811  0.3381503228611440  0.3315014262371247
  0.0826008749124874  0.3381482952855143  0.6684957506895720
  0.5948102099569923  0.6673567867153485  0.3335747706281817
  0.5948091252889661  0.6673582567329052  0.6664234153185579
  0.1115428058998006  0.8347471816900226  0.4999995592090429
  0.5063793343357936  0.1575442169703044  0.4999995698100696
 
             NaN             NaN             NaN
             NaN             NaN             NaN
             NaN             NaN             NaN
             NaN             NaN             NaN
             NaN             NaN             NaN
             NaN             NaN             NaN
             NaN             NaN             NaN
             NaN             NaN             NaN
             NaN             NaN             NaN
             NaN             NaN             NaN
             NaN             NaN             NaN
             NaN             NaN             NaN
             NaN             NaN             NaN
             NaN             NaN             NaN
             NaN             NaN             NaN
             NaN             NaN             NaN
             NaN             NaN             NaN
             NaN             NaN             NaN
             NaN             NaN             NaN
             NaN             NaN             NaN
             NaN             NaN             NaN
             NaN             NaN             NaN
             NaN             NaN             NaN
             NaN             NaN             NaN
