Nb   Zn   N                             
   1.00000000000000     
    -0.0089476107738464    0.0000237408206865    5.5336409094850296
     5.8802263526226044   -0.0012202903200080    0.0105133964244101
    -0.0153420807772974    9.9612076581707907    0.0720945913354224
   Nb   Zn   N 
     4     8    12
Direct
  0.9788913212428754  0.6693455888565057  0.0001402076561331
  0.4799292020634140  0.3280630287999334  0.0003499518867379
  0.1214525046188539  0.1734509190009889  0.5028370986639569
  0.6233067093162987  0.8336343661091095  0.5004228781742879
  0.9632997148940224  0.1605748579251285  0.1723378162277324
  0.9785287821884279  0.1594000056648375  0.8364393453156843
  0.4717844324492517  0.8362904690991162  0.8310064345802333
  0.4647195493628463  0.8385977053083217  0.1712541771363682
  0.9727927190175260  0.6565260097865165  0.3192774913778879
  0.0114210360121497  0.6669611584351708  0.6755837622161772
  0.4714580120088102  0.3441802423762095  0.3203110308233301
  0.6015994853621330  0.3334730543968377  0.6689290559136828
  0.0909124296276611  0.8342547279087501  0.1580235738278842
  0.0967269200016967  0.8341919579871833  0.8423288987031038
  0.1111010884345064  0.3459625294873340  0.0006010022435477
  0.5906792030848613  0.1650409779665565  0.1597989127133776
  0.5949028005879871  0.1606608154905761  0.8451445454248963
  0.6120441680896003  0.6521995055031268  0.9998236242239501
  0.0791742615410519  0.3359081453798745  0.3345573684724262
  0.0059091296055155  0.3327009323498814  0.6605552704000748
  0.5790658786386480  0.6644015254491988  0.3341143056693499
  0.5619200592916019  0.6678133108586738  0.6624080055661612
  0.9957301051212032  0.8518790483524351  0.4992988986518216
  0.4894891698596035  0.1544889521278947  0.5044563421223838
 
             NaN             NaN             NaN
             NaN             NaN             NaN
             NaN             NaN             NaN
             NaN             NaN             NaN
             NaN             NaN             NaN
             NaN             NaN             NaN
             NaN             NaN             NaN
             NaN             NaN             NaN
             NaN             NaN             NaN
             NaN             NaN             NaN
             NaN             NaN             NaN
             NaN             NaN             NaN
             NaN             NaN             NaN
             NaN             NaN             NaN
             NaN             NaN             NaN
             NaN             NaN             NaN
             NaN             NaN             NaN
             NaN             NaN             NaN
             NaN             NaN             NaN
             NaN             NaN             NaN
             NaN             NaN             NaN
             NaN             NaN             NaN
             NaN             NaN             NaN
             NaN             NaN             NaN
