Nb   Zn   N
1.0
  9.944948825589217 -0.0052780521520249 0.1092467183621684
  0.0047967756090811 5.87238166204496 0.0115647404168218
  2.60893612273e-05 -0.0135775920168544 5.54132828855148
 Nb  Zn  N 
4 8 12 
direct
    0.0001120899929774   0.6696618870820279   0.9793975441579348
    0.0001334916680679   0.3284500495890444   0.4800252069695187
    0.5033386496375202   0.1718729130897297   0.1187464495879950
    0.5021847471333887   0.8314751912065973   0.6178958399844476
    0.1721961021969960   0.1598964267999688   0.9623364404959609
    0.8366339339643718   0.1598955041873707   0.9790898998215055
    0.8331124445149870   0.8383090805304216   0.4771926346357288
    0.1713906035631838   0.8387034781950109   0.4633232457211213
    0.3200934657325558   0.6560449267126307   0.9691189328788212
    0.6700942393095788   0.6638066364869817   0.0772272533484610
    0.3206471112248558   0.3438382562492749   0.4697925167890242
    0.6672810521365088   0.3384148180320767   0.6110198854277848
    0.1589871591449791   0.8336544157433996   0.0901944533518585
    0.8435730648864770   0.8359990110061291   0.0971970596709863
    0.0003068631328606   0.3459477775628012   0.1116934899603640
    0.1599782622386079   0.1653218283720642   0.5901493256442198
    0.8447040652924787   0.1621851660234721   0.5965217685842326
    0.9995544441723077   0.6527850561525849   0.6122791807304612
    0.3350229461014985   0.3347215611231582   0.0771190393968461
    0.6596271990469464   0.3358619507728531   0.9987285559247860
    0.3344947354170802   0.6648210435066577   0.5773881873409508
    0.6589473942850431   0.6646373631693363   0.5159668180768210
    0.5025140786962907   0.8503255355149771   0.9885995587782713
    0.5050718545016812   0.1533699575115913   0.4858353951424187
