Nb   Zn   N
1.0
  9.973667315028724 -0.0203828616757635 0.0303670850328906
  -0.0042523686262508 5.878741483187039 0.0094620524319984
  2.13922801457e-05 -0.0081124766221762 5.52595353041859
 Nb  Zn  N 
4 8 12 
direct
    0.0001132784824251   0.6701065200905013   0.9789108380396448
    0.0001882348213023   0.3285041659554660   0.4792243857547538
    0.5017531107504041   0.1720953001328702   0.1258440331829946
    0.4999138918110290   0.8322954072758723   0.6285339346736939
    0.1720798136071779   0.1618982673045518   0.9651677435343652
    0.8327265020652794   0.1605196155781735   0.9740317106570693
    0.8304501875839452   0.8358479127527909   0.4686222930889722
    0.1710028895186240   0.8389441112097137   0.4655013823699872
    0.3190643838682025   0.6573296330050779   0.9765322000455300
    0.6785299435728309   0.6626315951474382   0.9901676545947540
    0.3195902745839079   0.3444189685719246   0.4737228780803793
    0.6742666549323949   0.3351843130900806   0.5415710429246720
    0.1579606549378737   0.8353426645854817   0.0918065759233961
    0.8423908037322168   0.8342056947668194   0.0950313894952440
    0.0005451642830767   0.3463270788100533   0.1111235944236537
    0.1587907760649809   0.1655239202362386   0.5916621617318176
    0.8435077262731404   0.1613321706792009   0.5946697832447101
   -0.0000010923639266   0.6523267970175851   0.6110696310451403
    0.3342122375392337   0.3372553298265878   0.0818613217587770
    0.6630219877029854   0.3333112002190273   0.0470104118820108
    0.3337706769230653   0.6650081002850804   0.5812030176513132
    0.6647886611853594   0.6663605454947913   0.5772285503081100
    0.4995614486624054   0.8504841277594120   0.9987435957905937
    0.5017717874532507   0.1527463948254260   0.4975985522189359
