Nb   Zn   N                             
   1.00000000000000     
    -0.0135775920168544    0.0000260893612273    5.5413282885514796
     5.8723816620449600    0.0047967756090811    0.0115647404168218
    -0.0052780521520249    9.9449488255892167    0.1092467183621684
   Nb   Zn   N 
     4     8    12
Direct
  0.9793975441579348  0.6696618870820279  0.0001120899929774
  0.4800252069695186  0.3284500495890444  0.0001334916680679
  0.1187464495879950  0.1718729130897297  0.5033386496375201
  0.6178958399844477  0.8314751912065971  0.5021847471333887
  0.9623364404959610  0.1598964267999688  0.1721961021969960
  0.9790898998215055  0.1598955041873707  0.8366339339643718
  0.4771926346357288  0.8383090805304219  0.8331124445149869
  0.4633232457211214  0.8387034781950107  0.1713906035631838
  0.9691189328788213  0.6560449267126307  0.3200934657325558
  0.0772272533484610  0.6638066364869816  0.6700942393095790
  0.4697925167890243  0.3438382562492749  0.3206471112248558
  0.6110198854277851  0.3384148180320766  0.6672810521365088
  0.0901944533518585  0.8336544157433996  0.1589871591449791
  0.0971970596709863  0.8359990110061289  0.8435730648864770
  0.1116934899603640  0.3459477775628012  0.0003068631328606
  0.5901493256442198  0.1653218283720642  0.1599782622386079
  0.5965217685842324  0.1621851660234721  0.8447040652924788
  0.6122791807304612  0.6527850561525849  0.9995544441723075
  0.0771190393968461  0.3347215611231582  0.3350229461014985
  0.9987285559247863  0.3358619507728531  0.6596271990469464
  0.5773881873409508  0.6648210435066578  0.3344947354170802
  0.5159668180768209  0.6646373631693364  0.6589473942850431
  0.9885995587782713  0.8503255355149774  0.5025140786962907
  0.4858353951424188  0.1533699575115913  0.5050718545016812
 
             NaN             NaN             NaN
             NaN             NaN             NaN
             NaN             NaN             NaN
             NaN             NaN             NaN
             NaN             NaN             NaN
             NaN             NaN             NaN
             NaN             NaN             NaN
             NaN             NaN             NaN
             NaN             NaN             NaN
             NaN             NaN             NaN
             NaN             NaN             NaN
             NaN             NaN             NaN
             NaN             NaN             NaN
             NaN             NaN             NaN
             NaN             NaN             NaN
             NaN             NaN             NaN
             NaN             NaN             NaN
             NaN             NaN             NaN
             NaN             NaN             NaN
             NaN             NaN             NaN
             NaN             NaN             NaN
             NaN             NaN             NaN
             NaN             NaN             NaN
             NaN             NaN             NaN
