Nb   Zn   N
1.0
  -9.918548546262226 0.0014880949347406 -0.1854378607913837
  0.0069565946337331 5.866502456692074 0.012265636411763
  2.76550549212e-05 -0.0120952897127759 5.54645320792912
 Nb  Zn  N 
4 8 12 
direct
   -0.9997731973366959   0.6700065059847117   0.9800891667826125
   -0.9999325963440787   0.3291788888685055   0.4801261769820298
   -0.5031568865522932   0.1702888677454684   0.1139994026014405
   -0.5036481791748966   0.8312685546179773   0.6145334750168916
   -0.1706402162372136   0.1593771659747902   0.9628844125641921
   -0.8349255192656817   0.1598955717927636   0.9803907821868896
   -0.8359645359948672   0.8406696102168787   0.4801986441964377
   -0.1714555504262041   0.8388835699453655   0.4612177174967018
   -0.3217273074720266   0.6564043448386006   0.9684497351948848
   -0.6656532410805186   0.6593305487390372   0.1164779579351975
   -0.3227357514534688   0.3419162500272642   0.4767822692258696
   -0.6657462790521165   0.3421030457819110   0.6154584013648713
   -0.1598244665391002   0.8327722042709933   0.0894927557180319
   -0.8438602773376592   0.8366938963092815   0.0980784592546320
   -0.9990800471367046   0.3456254840908041   0.1125421408443023
   -0.1597125399846942   0.1651522683702244   0.5897890688541030
   -0.8436624221273598   0.1638945706306247   0.5980929726943519
   -0.9995709718577744   0.6535426815326333   0.6124280921176581
   -0.3354556266222876   0.3329556519486119   0.0704614543573364
   -0.6581662410394975   0.3397740236453360   0.9939673213657826
   -0.3358618212445248   0.6666045385559545   0.5734955087820578
   -0.6587292406922837   0.6621758696843804   0.4941554548097353
   -0.5055912441281843   0.8484872231050241   0.9816252152663325
   -0.5051258388813338   0.1529985024098021   0.4820863404520091
