Nb   Zn   N
1.0
  10.000456862747866 -0.0065420241685516 -7.13490590436e-05
  0.0038416272042452 5.879296098978009 0.0059575724572927
  1.35638116764e-05 -0.0386372208617217 5.5003289335304295
 Nb  Zn  N 
4 8 12 
direct
   -0.0000018896804454   0.6700440542105565   0.9805525017522687
   -0.0000019236726265   0.3285412472764682   0.4785356077583254
    0.5000038915501449   0.1801689304403228   0.1264044372761469
    0.5000022922979248   0.8147518866751003   0.5007533845222417
    0.1701531754807185   0.1601494290915635   0.9691709911790531
    0.8298460366169791   0.1601487706622358   0.9691705806040345
    0.8312849559553123   0.8367957376177800   0.4682507909187076
    0.1687146534054661   0.8367952581703084   0.4682515203891510
    0.3272028277342370   0.6649637855009239   0.9786243515454632
    0.6727974450910089   0.6649615615066374   0.9786274184496262
    0.3172042860393203   0.3424545565631062   0.4826164710887159
    0.6827961441309178   0.3424545921346477   0.4826157500497024
    0.1584704228612171   0.8332717737121231   0.0927543999660853
    0.8415311074841277   0.8332702512872076   0.0927535026875133
    0.0000002648457409   0.3453865198199724   0.1104361117426562
    0.1575899355008938   0.1646556551671051   0.5931993268345928
    0.8424116285980424   0.1646568640349810   0.5931981973804614
    0.0000002534840952   0.6532240741730544   0.6103629511173668
    0.3315014262371246   0.3381503228611438   0.0826002297644811
    0.6684957506895719   0.3381482952855143   0.0826008749124874
    0.3335747706281815   0.6673567867153483   0.5948102099569921
    0.6664234153185579   0.6673582567329049   0.5948091252889661
    0.4999995592090429   0.8347471816900225   0.1115428058998006
    0.4999995698100693   0.1575442169703044   0.5063793343357937
