Nb   Zn   N
1.0
  -9.918145321432466 0.0013633782325166 -2.70104191e-07
  0.00080019030777 5.818124229019962 0.0003504044977637
  1.0382621255e-06 -0.0003322873582725 5.45932957850937
 Nb  Zn  N 
4 8 12 
direct
   -0.0000001669664176   0.6715263924097670   0.0068399019621262
   -0.0000001034114614   0.3284736186031987   0.5068398897619125
   -0.4999998782332009   0.1715264826909426   0.0068399564883132
   -0.4999998767233745   0.8284735586238127   0.5068399228132595
   -0.1715301693263470   0.1626030587071586   0.9967522102163118
   -0.8284697815863895   0.1626028866107110   0.9967520729778871
   -0.8284697838638065   0.8373971530318201   0.4967521034895864
   -0.1715301847425942   0.8373971130829921   0.4967521999350539
   -0.3284698349156823   0.6626030477985096   0.9967521111003652
   -0.6715302093113007   0.6626029395496442   0.9967521712624738
   -0.3284698183416311   0.3373970896111855   0.4967521306201718
   -0.6715302207496686   0.3373971898921295   0.4967521629782555
   -0.1607836824710766   0.8316888837825365   0.1199694466512903
   -0.8392163680298571   0.8316887923971427   0.1199694002379650
   -0.0000000428785394   0.3428058919931561   0.1351194519669486
   -0.1607836760079975   0.1683113464633327   0.6199694429525404
   -0.8392163793901142   0.1683113948965164   0.6199693596392936
   -0.0000000494747362   0.6571942557650442   0.6351194982441795
   -0.3392163412579189   0.3316888742138089   0.1199694148761471
   -0.6607836201282449   0.3316887931569132   0.1199693956950855
   -0.3392163149266015   0.6683113353609109   0.6199694079105146
   -0.6607836009006727   0.6683114223861933   0.6199694009625062
   -0.4999999509342252   0.8428058774673727   0.1351194138878333
   -0.4999999441326913   0.1571942489535357   0.6351194582797671
