Nb   Zn   N                             
   1.00000000000000     
    -0.0267637166309354    0.0000190437396049    5.5182661513521403
     5.8673925257361992    0.0041039530267701    0.0084107084395867
    -0.0060711921596159    9.9911512152484487   -0.0008596689976599
   Nb   Zn   N 
     4     8    12
Direct
  0.9791029603442256  0.6699672991168527  0.9999994046820687
  0.4786352574785579  0.3282026886608074  0.0000122418627886
  0.1325354468337992  0.1704042730347779  0.4999676979047360
  0.6313318904360825  0.8318008080944896  0.4999969518736279
  0.9675352895183187  0.1611124244147878  0.1706901429897801
  0.9673056153460482  0.1611414796820649  0.8292071179412709
  0.4671574857051899  0.8372864959915292  0.8297110122686252
  0.4672860654137332  0.8371713267417170  0.1702601918007267
  0.9822428338301985  0.6584731569310307  0.3209442803329946
  0.9819267351443423  0.6584074811649157  0.6791257408620825
  0.4796901679861596  0.3430336881338435  0.3184034188726239
  0.4788669998474836  0.3432827005500800  0.6817298109863674
  0.0931624969130274  0.8341957138104817  0.1581212122863027
  0.0930500224864726  0.8342471262265569  0.8418636350345818
  0.1104769539845824  0.3457048573725555  0.9999714158874652
  0.5935155201544393  0.1645308774782218  0.1579034994404734
  0.5933787502341996  0.1646400605772989  0.8420816422675614
  0.6106524590212237  0.6529013821953840  0.9999960299736452
  0.0836236041154775  0.3359742817172390  0.3336659316440573
  0.0837129224531759  0.3360398465056407  0.6663030824583644
  0.5832137971620216  0.6651377950462924  0.3342445197473600
  0.5831897788040122  0.6651831505705115  0.6657882061822720
  0.0050240326161553  0.8488914698003123  0.5000074860508384
  0.5025769617276992  0.1522699894025007  0.5000053262549944
 
             NaN             NaN             NaN
             NaN             NaN             NaN
             NaN             NaN             NaN
             NaN             NaN             NaN
             NaN             NaN             NaN
             NaN             NaN             NaN
             NaN             NaN             NaN
             NaN             NaN             NaN
             NaN             NaN             NaN
             NaN             NaN             NaN
             NaN             NaN             NaN
             NaN             NaN             NaN
             NaN             NaN             NaN
             NaN             NaN             NaN
             NaN             NaN             NaN
             NaN             NaN             NaN
             NaN             NaN             NaN
             NaN             NaN             NaN
             NaN             NaN             NaN
             NaN             NaN             NaN
             NaN             NaN             NaN
             NaN             NaN             NaN
             NaN             NaN             NaN
             NaN             NaN             NaN
