Nb   Zn   N
1.0
  9.911893915899023 -0.0077983849234356 -2.62679295249e-05
  0.0045739418168715 5.813233974677117 0.0021026444851165
  4.9524963602e-06 -0.0068062514546969 5.47214187695345
 Nb  Zn  N 
4 8 12 
direct
   -0.0000001713512628   0.6713752999023717   0.9852544010920796
   -0.0000000850807058   0.3286417612099452   0.4851651537095849
    0.5000001848999662   0.1712849124791604   0.9851303817555830
    0.5000000623152586   0.8285012327251050   0.4850186787457322
    0.1714368931714368   0.1626103320534996   0.9750180084740269
    0.8285630022007009   0.1626105360657470   0.9750185723712242
    0.8285485430593469   0.8373922618938465   0.4750561779350612
    0.1714513904528927   0.8373922885446498   0.4750558569317294
    0.3285150159337152   0.6625647339743649   0.9749208321123330
    0.6714849727940407   0.6625647406211306   0.9749206929057793
    0.3285333332483412   0.3373099176483746   0.4750110423006466
    0.6714666763601013   0.3373100005778509   0.4750111154353172
    0.1607658893676925   0.8316649801191589   0.0988493188181898
    0.8392344984870612   0.8316647739439766   0.0988492753047118
    0.0000001525227172   0.3428098761999999   0.1141244271205271
    0.1607579156144660   0.1685234894473536   0.5988431061024504
    0.8392423912927677   0.1685236574842038   0.5988432820705140
    0.0000001608758848   0.6573271565043642   0.6141686980907771
    0.3392438753805956   0.3316008971720730   0.0987583876672270
    0.6607558047710522   0.3316005382172720   0.0987582101251942
    0.3392142206929407   0.6684721960174936   0.5987506897605455
    0.6607855134213388   0.6684724743316576   0.5987505633634308
    0.4999998645111181   0.8427077396477854   0.1139639431178894
    0.4999998240207603   0.1571788942819134   0.6140031150002825
