Nb   Zn   N                             
   1.00000000000000     
    -0.0150921534869733    0.0000354835233905    5.5720778048172797
     5.8457098918859822    0.0037008654586721    0.0157701163864686
    -0.0061699896017754    9.9082163233996905   -0.0023737378349805
   Nb   Zn   N 
     4     8    12
Direct
  0.9769984337569846  0.6696019881346719  0.9999989353730453
  0.4769951242417628  0.3304241137578753  0.0000011479442111
  0.0961377141467701  0.1695699511976746  0.5000136538281985
  0.5961426005669180  0.8304024341267406  0.4999970338315287
  0.9715055615231267  0.1577104974445130  0.1650856971000513
  0.9714198601402808  0.1576940631519800  0.8349441205165372
  0.4714116870295071  0.8423242561043957  0.8349186735082690
  0.4715118598800945  0.8423087590092546  0.1650513238807581
  0.1018657662570190  0.6576796008819501  0.3349427116139442
  0.1016518360322518  0.6576743987984193  0.6650672047140387
  0.6017628934875181  0.3422957222993243  0.3349420065789074
  0.6016738053794585  0.3423156513573283  0.6650700052412761
  0.0908748634601549  0.8340814846070520  0.1574098622166312
  0.0907963229935175  0.8340539320500613  0.8425799063026712
  0.1097725378142684  0.3446083110159286  0.0000158646024486
  0.5908765229397216  0.1659430406779773  0.1574141312688033
  0.5907906209590436  0.1659593944700725  0.8425913561657663
  0.6097737200240265  0.6554178325940349  0.9999979170652680
  0.9823198803945554  0.3340917736492950  0.3426029883613335
  0.9822873985858414  0.3340316583516776  0.6574151497397390
  0.4823066063296165  0.6659055046881349  0.3425764259959296
  0.4822810914356482  0.6659496381408824  0.6573994964518808
  0.9633532610021126  0.8445774931787056  0.4999757802512139
  0.4633575916600034  0.1553896079829405  0.4999885919198003
 
             NaN             NaN             NaN
             NaN             NaN             NaN
             NaN             NaN             NaN
             NaN             NaN             NaN
             NaN             NaN             NaN
             NaN             NaN             NaN
             NaN             NaN             NaN
             NaN             NaN             NaN
             NaN             NaN             NaN
             NaN             NaN             NaN
             NaN             NaN             NaN
             NaN             NaN             NaN
             NaN             NaN             NaN
             NaN             NaN             NaN
             NaN             NaN             NaN
             NaN             NaN             NaN
             NaN             NaN             NaN
             NaN             NaN             NaN
             NaN             NaN             NaN
             NaN             NaN             NaN
             NaN             NaN             NaN
             NaN             NaN             NaN
             NaN             NaN             NaN
             NaN             NaN             NaN
