Nb   Zn   N                             
   1.00000000000000     
    -0.0148235093080360    0.0000347006765435    5.5695153451284600
     5.8549724733031931    0.0031657172411291    0.0154196683889981
    -0.0077156480267191    9.9097528966938597    0.0525035844846913
   Nb   Zn   N 
     4     8    12
Direct
  0.9796047086384364  0.6690873147167975  0.9998516983222806
  0.4798942962616787  0.3294789420748181  0.9997676094284713
  0.1007593748956227  0.1711149005557110  0.4997796310463632
  0.6003328273865400  0.8310433668082052  0.5006831473692231
  0.9729233305745211  0.1577106242740605  0.1642474214896369
  0.9756702683379271  0.1576430051754053  0.8343444871578242
  0.4766020360398889  0.8412647364299835  0.8353033527357212
  0.4719496528149703  0.8410000313671292  0.1665897334139421
  0.0847181360518917  0.6606181512313746  0.3332212345786920
  0.1078068201046522  0.6581366488135018  0.6653044128886759
  0.6005192094706063  0.3410295734201623  0.3341461027096877
  0.6061245186806904  0.3421008431508437  0.6651200036630602
  0.0924508390999980  0.8339704817372725  0.1575902619502165
  0.0945798131536237  0.8343882403141704  0.8431348464190292
  0.1123642309285565  0.3445996087560544  0.9993661143360389
  0.5920909847526284  0.1646507009513399  0.1569852070650697
  0.5948014806552776  0.1648697473094304  0.8424265067921135
  0.6125787445456716  0.6541969437620369  0.0001150556263270
  0.9864967496527083  0.3328082503105023  0.3417994053483268
  0.9869815180752270  0.3354525476839728  0.6574080001983998
  0.4935032935915319  0.6674247930094548  0.3428563204607286
  0.4871299674613639  0.6649388688113360  0.6581176678980298
  0.9690190114169880  0.8463624533876573  0.5015333733285889
  0.4679284631219706  0.1561090617234857  0.5003084037604282
 
             NaN             NaN             NaN
             NaN             NaN             NaN
             NaN             NaN             NaN
             NaN             NaN             NaN
             NaN             NaN             NaN
             NaN             NaN             NaN
             NaN             NaN             NaN
             NaN             NaN             NaN
             NaN             NaN             NaN
             NaN             NaN             NaN
             NaN             NaN             NaN
             NaN             NaN             NaN
             NaN             NaN             NaN
             NaN             NaN             NaN
             NaN             NaN             NaN
             NaN             NaN             NaN
             NaN             NaN             NaN
             NaN             NaN             NaN
             NaN             NaN             NaN
             NaN             NaN             NaN
             NaN             NaN             NaN
             NaN             NaN             NaN
             NaN             NaN             NaN
             NaN             NaN             NaN
