Nb   Zn   N                             
   1.00000000000000     
    -0.0160869986417644    0.0000378320639313    5.5797651838837199
     5.8426875488466417    0.0065662426223110    0.0168214603788804
    -0.0111341317812020    9.9050343361129745   -0.0000991628013798
   Nb   Zn   N 
     4     8    12
Direct
  0.9579371214799416  0.6695044057518498  0.9999999917831464
  0.4579367145301368  0.3304959990634571  1.0000000101289734
  0.0770601852846078  0.1695060897944992  0.4999999824078079
  0.5770598318914757  0.8304951325803359  0.5000000001946011
  0.9522377608187793  0.1576937676643773  0.1650072862511706
  0.9522379947976276  0.1576936584128756  0.8349926702328326
  0.4522380869206870  0.8423066611627543  0.8349928310244908
  0.4522379363981993  0.8423065434131378  0.1650071915966917
  0.0827381214535093  0.6576953180460432  0.3349907003965213
  0.0827383924668050  0.6576951845911209  0.6650092511659156
  0.5827384480344370  0.3423058749961584  0.3349906511007235
  0.5827386552015967  0.3423059757674277  0.6650093635371097
  0.0720434848850185  0.8340466055366434  0.1573772159033739
  0.0720435633140683  0.8340465199079830  0.8426227906541632
  0.0910754035632463  0.3445820890965314  1.0000000101722952
  0.5720435361064075  0.1659546486246234  0.1573770774419065
  0.5720436243406550  0.1659547498959825  0.8426228518893873
  0.5910756327861539  0.6554189285912303  0.9999999801178477
  0.9629516290764317  0.3340430701063040  0.3426220750636324
  0.9629517266543154  0.3340430267336229  0.6573780009513852
  0.4629516924399235  0.6659572732032006  0.3426218990041170
  0.4629518042706646  0.6659572880904352  0.6573781004499919
  0.9439237877546350  0.8445822600762924  0.5000000402195027
  0.4439240343461353  0.1554183299236843  0.5000000128203801
 
             NaN             NaN             NaN
             NaN             NaN             NaN
             NaN             NaN             NaN
             NaN             NaN             NaN
             NaN             NaN             NaN
             NaN             NaN             NaN
             NaN             NaN             NaN
             NaN             NaN             NaN
             NaN             NaN             NaN
             NaN             NaN             NaN
             NaN             NaN             NaN
             NaN             NaN             NaN
             NaN             NaN             NaN
             NaN             NaN             NaN
             NaN             NaN             NaN
             NaN             NaN             NaN
             NaN             NaN             NaN
             NaN             NaN             NaN
             NaN             NaN             NaN
             NaN             NaN             NaN
             NaN             NaN             NaN
             NaN             NaN             NaN
             NaN             NaN             NaN
             NaN             NaN             NaN
