Nb   Zn   N                             
   1.00000000000000     
    -0.0085707482316331    0.0000206094332988    5.5233910707297698
     5.8765948434490536   -0.0030352876439272    0.0091116044345279
    -0.0182979106663342    9.9765294609184085    0.0221734539521000
   Nb   Zn   N 
     4     8    12
Direct
  0.9790274450833238  0.6703296322951785  0.0000841334179464
  0.4792164882550312  0.3285535929001374  0.0000496701385430
  0.1277258405984606  0.1714361352365808  0.5013185038071051
  0.6295683094256086  0.8316906047566522  0.4999319967868276
  0.9655815382121617  0.1620517539957626  0.1718877797932046
  0.9724236324584029  0.1610438578985536  0.8317017942318882
  0.4684233680084565  0.8360671617628103  0.8302096968552879
  0.4657695784725740  0.8388370760164585  0.1709324442075422
  0.9770074544034972  0.6574102240682996  0.3189848341892821
  0.9871438596122578  0.6611237185407152  0.6790806262014731
  0.4746685352084614  0.3442581764131912  0.3193148157462521
  0.5199638363721758  0.3366786601540143  0.6759632486642569
  0.0920886807266552  0.8354561976203873  0.1580161104199998
  0.0947363226807949  0.8344226453867968  0.8423485465802061
  0.1111678995427753  0.3463988558453197  0.0005478474928457
  0.5920013683881340  0.1654772140102191  0.1585361853510731
  0.5947701512575085  0.1620738750449567  0.8428984680250174
  0.6110050825768591  0.6524848203104374  0.0000371352223440
  0.0823169868350940  0.3372157970157331  0.3342501357438635
  0.0618373661822101  0.3343015260402410  0.6642847156061782
  0.5818046130998060  0.6649068052630780  0.3337314608163158
  0.5796590354498479  0.6654272405437504  0.6652065154179442
  0.9995145722672398  0.8503087165871849  0.4997254233887671
  0.4994167173031876  0.1520455469137078  0.5009579098870456
 
             NaN             NaN             NaN
             NaN             NaN             NaN
             NaN             NaN             NaN
             NaN             NaN             NaN
             NaN             NaN             NaN
             NaN             NaN             NaN
             NaN             NaN             NaN
             NaN             NaN             NaN
             NaN             NaN             NaN
             NaN             NaN             NaN
             NaN             NaN             NaN
             NaN             NaN             NaN
             NaN             NaN             NaN
             NaN             NaN             NaN
             NaN             NaN             NaN
             NaN             NaN             NaN
             NaN             NaN             NaN
             NaN             NaN             NaN
             NaN             NaN             NaN
             NaN             NaN             NaN
             NaN             NaN             NaN
             NaN             NaN             NaN
             NaN             NaN             NaN
             NaN             NaN             NaN
