Nb   Zn   N
1.0
  -9.919891917237894 -0.0031394709160969 -0.1570472171387945
  0.0097314263170817 5.869383091529014 0.0126160844092335
  2.84379017681e-05 -0.0123392126816632 5.54901566761793
 Nb  Zn  N 
4 8 12 
direct
   -0.9997715557524913   0.6695042935026285   0.9796208504956700
   -0.9998200784146527   0.3288704866682499   0.4796795861809455
   -0.5026005235310940   0.1717418438363081   0.1121969632595800
   -0.5035225716163404   0.8321340635373975   0.6138124916981184
   -0.1695221031018219   0.1587701371077343   0.9652335008447581
   -0.8346918958441819   0.1596218504086168   0.9795324858893814
   -0.8356312317189640   0.8406891401036722   0.4792405751114199
   -0.1708213821571972   0.8379380942500635   0.4615528032354040
   -0.3225083551405715   0.6587055129605864   0.9719028906643600
   -0.6658810005131035   0.6596196435414134   0.1140324150053660
   -0.3252292904867725   0.3389108304970835   0.4992932146359340
   -0.6657963725738565   0.3427568652090033   0.6142790360672477
   -0.1596019750372652   0.8323540937906412   0.0899259201114540
   -0.8440423144549921   0.8364005692197169   0.0971314447402836
   -0.9990911938128840   0.3453018979451817   0.1121418431142199
   -0.1590742865956675   0.1637258748843165   0.5900617533603926
   -0.8435298896383706   0.1639547744148555   0.5968113566381574
   -0.9994792253197422   0.6530248086163533   0.6120521170063746
   -0.3367911397544813   0.3319222272684106   0.0571424195448871
   -0.6584307144467707   0.3398406593266985   0.9929980986133263
   -0.3360578824352938   0.6676969288834286   0.5719636028578046
   -0.6584642163466997   0.6631356084467811   0.4933496165439247
   -0.5055570724289463   0.8491193233001187   0.9811044673837490
   -0.5040837268647190   0.1542603080554724   0.4817708227184382
