Nb   Zn   N
1.0
  -9.950272498317435 0.0072448917288916 -0.0985385380902116
  0.0036170950905181 5.8758990063748024 0.0112142924193513
  2.53065143804e-05 -0.0126522624904604 5.53876582886267
 Nb  Zn  N 
4 8 12 
direct
   -0.0001679812993674   0.6694618294019774   0.9792016267021143
   -0.0002212237570730   0.3282631345254894   0.4800633295321166
   -0.5031440728443315   0.1724696930703685   0.1197285429030015
   -0.5015941753372681   0.8322240857156298   0.6192242766822103
   -0.1722771342260778   0.1599847023229364   0.9625213785369883
   -0.8367767353167528   0.1598083312953662   0.9789630530125251
   -0.8323011676735204   0.8376173655919699   0.4756753788632204
   -0.1714187056703934   0.8385436312962041   0.4638155285677480
   -0.3198241977100502   0.6560518520882342   0.9699709090887371
   -0.6719250004830005   0.6653271274809976   0.0549403910933787
   -0.3205627222229867   0.3439053379315011   0.4704170153892541
   -0.6676965801324077   0.3367425482968247   0.6089625063101521
   -0.1586238676808261   0.8337392283806547   0.0903515730727003
   -0.8431283245383933   0.8355660142428155   0.0972326848171333
   -0.0004354096435577   0.3459829736246275   0.1114519169719026
   -0.1599344881462943   0.1651059953036682   0.5902494346888592
   -0.8449429162805182   0.1616590045194300   0.5960672491976923
   -0.9996468648588757   0.6525350376372617   0.6123164913266910
   -0.3348531266989186   0.3349724643637541   0.0776709064956338
   -0.6599841853829418   0.3347860830202524   0.0005521563879360
   -0.3342743228993909   0.6644049253150972   0.5779651619848355
   -0.6598750566173284   0.6659214474333460   0.5315215690482989
   -0.5013892821215477   0.8508804844054287   0.9912117438590208
   -0.5050024564494026   0.1540465373563354   0.4867638578883817
