Nb   Zn   N                             
   1.00000000000000     
    -0.0018301975144710    0.0000041696495133    5.4695794172646304
     5.8137921880957064    0.0034804108601404    0.0017521964876459
    -0.0059342751184690    9.9132448298521858   -0.0000132234409837
   Nb   Zn   N 
     4     8    12
Direct
  0.9895013259257669  0.6714064223246278  0.9999987560953644
  0.4894976901449813  0.3286114083981237  0.9999988630299453
  0.9894987348716924  0.1714048352919711  0.5000011858422209
  0.4894948975068023  0.8286092629769013  0.5000009854876944
  0.9793833332352555  0.1626043041390962  0.1714731824399047
  0.9793835927685904  0.1626043580655328  0.8285265594161622
  0.4793848787459462  0.8374133562676390  0.8285261556294959
  0.4793850370790251  0.8374132694058740  0.1714736109150931
  0.9793819840456478  0.6626035908105516  0.3285261786726204
  0.9793815520389290  0.6626032776772776  0.6714740314485799
  0.4793833338070654  0.3374118451697535  0.3285262909798776
  0.4793831356697859  0.3374120476560957  0.6714738896379553
  0.1030733841764393  0.8315743136265877  0.1607712708807033
  0.1030726430648145  0.8315735727557789  0.8392296209361239
  0.1182953096670246  0.3427434041929214  1.0000000558305158
  0.6030729397706347  0.1684504282432383  0.1607712095812855
  0.6030723958080222  0.1684510941086670  0.8392295541144260
  0.6182968839103167  0.6572785163989407  1.0000000687531321
  0.1030716340654641  0.3315733629726239  0.3392290728342602
  0.1030709553944425  0.3315724802100034  0.6607701388250841
  0.6030713609038666  0.6684493606388080  0.3392286799528494
  0.6030705952747929  0.6684500198791758  0.6607706595445989
  0.1182923333941611  0.8427418790360884  0.4999999461891806
  0.6182938588994359  0.1572763550229432  0.4999999270117293
 
             NaN             NaN             NaN
             NaN             NaN             NaN
             NaN             NaN             NaN
             NaN             NaN             NaN
             NaN             NaN             NaN
             NaN             NaN             NaN
             NaN             NaN             NaN
             NaN             NaN             NaN
             NaN             NaN             NaN
             NaN             NaN             NaN
             NaN             NaN             NaN
             NaN             NaN             NaN
             NaN             NaN             NaN
             NaN             NaN             NaN
             NaN             NaN             NaN
             NaN             NaN             NaN
             NaN             NaN             NaN
             NaN             NaN             NaN
             NaN             NaN             NaN
             NaN             NaN             NaN
             NaN             NaN             NaN
             NaN             NaN             NaN
             NaN             NaN             NaN
             NaN             NaN             NaN
