Nb   Zn   N
1.0
  9.914444795729857 -0.0099391312606517 -5.1462797516e-06
  0.0058295844102939 5.814838196769488 0.0014017484901754
  3.3868026663e-06 -0.0013244153595361 5.46701695757582
 Nb  Zn  N 
4 8 12 
direct
    0.0000018518793180   0.6714334390661778   0.9938730237086054
    0.0000018158979348   0.3285743185045353   0.4938729555979711
    0.4999982186274736   0.1714331751895809   0.9938728364490208
    0.4999982879245534   0.8285745165981657   0.4938728366651127
    0.1714888453854428   0.1626014599008094   0.9837302273431979
    0.8285115437943340   0.1626020443300476   0.9837304775879936
    0.8285115008276231   0.8374057672009597   0.4837302705323158
    0.1714888514710594   0.8374062444688328   0.4837299996227611
    0.3285111435770303   0.6626014007308686   0.9837299988694289
    0.6714884435222859   0.6626020384883565   0.9837304374059418
    0.3285111549041120   0.3374061856750670   0.4837298861465484
    0.6714884833678210   0.3374057875878026   0.4837302680728640
    0.1607748643047725   0.8315993163732072   0.1073230388305044
    0.8392239357162649   0.8316006311966936   0.1073241216113476
   -0.0000000266960837   0.3427518818943820   0.1225446766157273
    0.1607748557463479   0.1684084329343822   0.6073230026774719
    0.8392239515053100   0.1684071680001722   0.6073241051725907
   -0.0000000340931938   0.6572557139084234   0.6225446786412758
    0.3392250886429715   0.3315994715419972   0.1073231073113432
    0.6607761312751702   0.3316006960283463   0.1073241170643853
    0.3392250331297856   0.6684082541546474   0.6073231031834376
    0.6607760675274920   0.6684071511483799   0.6073241035077563
    0.4999999747928112   0.8427518799468522   0.1225445891691036
    0.4999999951271983   0.1572556952036730   0.6225446015332636
