Nb   Zn   N                             
   1.00000000000000     
    -0.0126522624904604    0.0000253065143804    5.5387658288626698
     5.8758990063748024    0.0036170950905181    0.0112142924193513
    -0.0072448917288916    9.9502724983174353    0.0985385380902116
   Nb   Zn   N 
     4     8    12
Direct
  0.9792016267021145  0.6694618294019774  0.0001679812993674
  0.4800633295321166  0.3282631345254894  0.0002212237570730
  0.1197285429030015  0.1724696930703685  0.5031440728443315
  0.6192242766822104  0.8322240857156298  0.5015941753372681
  0.9625213785369884  0.1599847023229364  0.1722771342260778
  0.9789630530125251  0.1598083312953662  0.8367767353167529
  0.4756753788632205  0.8376173655919698  0.8323011676735205
  0.4638155285677480  0.8385436312962040  0.1714187056703934
  0.9699709090887372  0.6560518520882342  0.3198241977100502
  0.0549403910933787  0.6653271274809976  0.6719250004830005
  0.4704170153892541  0.3439053379315011  0.3205627222229867
  0.6089625063101523  0.3367425482968247  0.6676965801324078
  0.0903515730727003  0.8337392283806546  0.1586238676808261
  0.0972326848171333  0.8355660142428154  0.8431283245383935
  0.1114519169719026  0.3459829736246274  0.0004354096435577
  0.5902494346888592  0.1651059953036682  0.1599344881462943
  0.5960672491976925  0.1616590045194300  0.8449429162805182
  0.6123164913266911  0.6525350376372616  0.9996468648588757
  0.0776709064956338  0.3349724643637540  0.3348531266989187
  0.0005521563879360  0.3347860830202524  0.6599841853829418
  0.5779651619848356  0.6644049253150971  0.3342743228993909
  0.5315215690482989  0.6659214474333459  0.6598750566173285
  0.9912117438590209  0.8508804844054285  0.5013892821215478
  0.4867638578883818  0.1540465373563353  0.5050024564494024
 
             NaN             NaN             NaN
             NaN             NaN             NaN
             NaN             NaN             NaN
             NaN             NaN             NaN
             NaN             NaN             NaN
             NaN             NaN             NaN
             NaN             NaN             NaN
             NaN             NaN             NaN
             NaN             NaN             NaN
             NaN             NaN             NaN
             NaN             NaN             NaN
             NaN             NaN             NaN
             NaN             NaN             NaN
             NaN             NaN             NaN
             NaN             NaN             NaN
             NaN             NaN             NaN
             NaN             NaN             NaN
             NaN             NaN             NaN
             NaN             NaN             NaN
             NaN             NaN             NaN
             NaN             NaN             NaN
             NaN             NaN             NaN
             NaN             NaN             NaN
             NaN             NaN             NaN
