Nb   Zn   N
1.0
  9.955344053410055 -0.0104005613100991 0.0871016432662641
  0.0017292414630446 5.878521383538563 0.0108638444218807
  2.45236675334e-05 -0.0111061112905646 5.53620336917385
 Nb  Zn  N 
4 8 12 
direct
    0.0001639034475977   0.6693490159243024   0.9790421151603964
    0.0002943269760701   0.3281253992951181   0.4800507651480274
    0.5029983212971221   0.1730127639381058   0.1205693621586498
    0.5010208011629279   0.8329817416485916   0.6209852226544748
    0.1723295332600548   0.1601742149370786   0.9628015119163806
    0.8367649462764715   0.1596389081617433   0.9788562222041042
    0.8316084272608367   0.8369613337375916   0.4739279399134121
    0.1713822624448419   0.8384951546753243   0.4642499400363637
    0.3195525240798352   0.6561824341845504   0.9710984375555171
    0.6736778295818309   0.6664581413851621   0.0328574730739918
    0.3204616625544566   0.3440118657880691   0.4709186944732175
    0.6681693484851625   0.3350591063455777   0.6064797631857702
    0.1583021494738822   0.8339114901057995   0.0905683640761623
    0.8426834816578083   0.8349534420386047   0.0971189804743595
    0.0005387690022951   0.3459782968040996   0.1112646772921560
    0.1598981449897202   0.1649944994868325   0.5904024554035509
    0.8451106153951915   0.1611586903774864   0.5955460147144728
    0.9997413736583639   0.6523430056166567   0.6122616588093314
    0.3347019647744686   0.3353379996893527   0.0782912422242059
    0.6602731603301485   0.3337575220392930   0.0025581160522242
    0.3341681146644421   0.6642537974031157   0.5784741077986159
    0.6610264452593620   0.6669965891820505   0.5470513232276387
    0.5002919206118441   0.8514247616988925   0.9935963072979938
    0.5048399713464732   0.1544396601567666   0.4878679875695188
