Nb   Zn   N
1.0
  10.002606853474726 -0.0065389102838591 -7.45544680838e-05
  0.0038447041928637 5.879881447769778 0.007359364447175
  1.66951990641e-05 -0.033686147380826 5.51057877228569
 Nb  Zn  N 
4 8 12 
direct
   -0.0000002993315023   0.6694650659850092   0.9796061264201161
    0.0000000009377138   0.3280869946768035   0.4782915104955168
    0.4999996215416920   0.1744969288440263   0.1294529516302776
    0.5000004650831344   0.8272107920370747   0.5801095005538259
    0.1705224310786750   0.1603393214442645   0.9684537326873942
    0.8294774936310022   0.1603390071454669   0.9684533957386929
    0.8316789640140750   0.8372219528830588   0.4668542825871495
    0.1683209632285104   0.8372220915235500   0.4668544895300831
    0.3264982591508259   0.6633903357871496   0.9845376575269481
    0.6735014071185266   0.6633915341784719   0.9845359264539065
    0.3169931965205520   0.3415971338453639   0.4795293476115171
    0.6830071620711264   0.3415986987871639   0.4795314140817453
    0.1583076362170799   0.8330513031450552   0.0920254562272425
    0.8416926699822203   0.8330509619046570   0.0920250001246029
    0.0000000197319698   0.3454372566147015   0.1105915862423115
    0.1574676847404597   0.1638642319525890   0.5929223499100709
    0.8425323772586575   0.1638641381412939   0.5929223155219069
    0.0000000352778695   0.6527286719793326   0.6102274593523235
    0.3319283880671127   0.3367171123279444   0.0814047177198406
    0.6680717984372360   0.3367169034185797   0.0814045568098220
    0.3331605646860335   0.6647561576906315   0.5841182023443556
    0.6668390949422630   0.6647561620308243   0.5841180850584796
    0.5000000473728459   0.8405092631465281   0.0564129040672020
    0.5000000178575699   0.1601879888097788   0.5046379067253529
