Nb   Zn   N
1.0
  9.912139022497838 -0.0064812360674495 0.0649419696550874
  0.0039112588833753 5.8607659242135295 0.0150692203915275
  3.39178296966e-05 -0.0139445833583403 5.56695288543964
 Nb  Zn  N 
4 8 12 
direct
    0.9997609654001174   0.6687809535706590   0.9793958191930753
    0.9996410626802551   0.3291174341754666   0.4799768239289889
    0.4999707224556288   0.1720180806871348   0.1021556209118387
    0.5014311199981399   0.8319174253970920   0.6018267881654259
    0.1639157432968818   0.1576343177194259   0.9726531053116493
    0.8341890620015202   0.1576152567301254   0.9758441435145705
    0.8352703182213478   0.8408694202574449   0.4773779736573339
    0.1676981231426616   0.8400904337374895   0.4703323947077249
    0.3313413614003640   0.6627552380197130   0.0602814871168381
    0.6654657280741035   0.6580031403075995   0.1093191184311895
    0.3337271960484848   0.3391907827029859   0.5978788529087412
    0.6651927890619437   0.3422201680419394   0.6065594793766617
    0.1580970785813386   0.8336370682355553   0.0925812476450450
    0.8435563056187766   0.8344474085394971   0.0946338486878263
    0.9991425986659286   0.3446337249339316   0.1121004801992020
    0.1566609206950867   0.1638643443834290   0.5915961072582482
    0.8423926433763963   0.1644128285449913   0.5949009896530989
    0.0000234664067432   0.6537094707502401   0.6126931786505908
    0.3413310805006601   0.3316310138458178   0.9884652516496450
    0.6575561217830637   0.3359543888704504   0.9876469534064225
    0.3421990119558496   0.6689073441388220   0.5099424977565865
    0.6584615131404941   0.6641952129135571   0.4877325472479754
    0.5026672813483355   0.8474189211224950   0.9718924158515817
    0.5003077841327780   0.1569754581488251   0.4690431504833427
