Nb   Zn   N                             
   1.00000000000000     
    -0.0103326955385741    0.0000300035954620    5.5541405869955600
     5.8721931696828085    0.0123308849326850    0.0133169804041747
     0.0076279653770562    9.9193439776797820    0.1392476517221827
   Nb   Zn   N 
     4     8    12
Direct
  0.9793310854999984  0.6688921739613217  0.9997300735777073
  0.4795959388649153  0.3286847912788584  0.9995257202933169
  0.1081468142125702  0.1733696070248539  0.5015856021317734
  0.6117475843234202  0.8337723310916704  0.5035392210310402
  0.9687281238077007  0.1574552265515620  0.1671368656012608
  0.9788174706117505  0.1591588839505923  0.8343049336982338
  0.4788303224711272  0.8407619848356898  0.8355385651827396
  0.4619553495554223  0.8373416326404357  0.1703413890382627
  0.9769900260723523  0.6621525337069292  0.3236594512174611
  0.1130178826158511  0.6594473238154872  0.6658573655199710
  0.5456073112906377  0.3356418431161037  0.3287341197812583
  0.6125815196609038  0.3432082883542487  0.6655777203553067
  0.0906704358281916  0.8315333100333169  0.1595390208110628
  0.0966263147346635  0.8359530318587384  0.8442837368986985
  0.1118820461203263  0.3448781971525919  0.9990485847197622
  0.5898202371277668  0.1620759495875244  0.1576293840026984
  0.5959375062505420  0.1639501510230126  0.8430587367993578
  0.6121350584697380  0.6526801724803706  0.9995276123443211
  0.0247817712351975  0.3293854238390067  0.3392951436030525
  0.9914356128245340  0.3397854880589475  0.6586710202995908
  0.5681809419028659  0.6700173711359126  0.3368021436972078
  0.4920537696017505  0.6638724207223438  0.6583414368395678
  0.9796048021862296  0.8496070988199217  0.5059897131018503
  0.4783523504527366  0.1563746007352639  0.5022824374413855
 
             NaN             NaN             NaN
             NaN             NaN             NaN
             NaN             NaN             NaN
             NaN             NaN             NaN
             NaN             NaN             NaN
             NaN             NaN             NaN
             NaN             NaN             NaN
             NaN             NaN             NaN
             NaN             NaN             NaN
             NaN             NaN             NaN
             NaN             NaN             NaN
             NaN             NaN             NaN
             NaN             NaN             NaN
             NaN             NaN             NaN
             NaN             NaN             NaN
             NaN             NaN             NaN
             NaN             NaN             NaN
             NaN             NaN             NaN
             NaN             NaN             NaN
             NaN             NaN             NaN
             NaN             NaN             NaN
             NaN             NaN             NaN
             NaN             NaN             NaN
             NaN             NaN             NaN
