Nb   Zn   N
1.0
  10.004122246874855 -0.0065419614264062 -7.51362702021e-05
  0.0038445629221813 5.88153206761576 0.0066584684522339
  1.51295053703e-05 -0.0347652427238551 5.50545385290806
 Nb  Zn  N 
4 8 12 
direct
    0.0000000689978397   0.6696077073899699   0.9799582203511786
    0.0000001297743146   0.3282388632690105   0.4783214960093770
    0.4999999476640809   0.1771120126364948   0.1292257940441685
    0.4999999208755956   0.8220202297143693   0.5394209147146395
    0.1704312084241944   0.1602467645857809   0.9687300215944853
    0.8295686510482617   0.1602465482533567   0.9687297173351733
    0.8317532010717188   0.8371864458969882   0.4672909957676171
    0.1682467658344706   0.8371866660506609   0.4672912761333011
    0.3271697187652163   0.6641909587752827   0.9829819831089355
    0.6728301130001513   0.6641912688034670   0.9829813452811055
    0.3169002253228683   0.3416681678374613   0.4804690722250199
    0.6830998821445803   0.3416682118476773   0.4804691966654556
    0.1583317446145785   0.8330378185651065   0.0921886091104291
    0.8416682624088252   0.8330377231835570   0.0921884532967903
   -0.0000000289498389   0.3454106752102520   0.1105548102395578
    0.1574673769815134   0.1640621737122266   0.5929079256499254
    0.8425326012179152   0.1640619582094178   0.5929078906732648
   -0.0000000179385943   0.6528643313746606   0.6101944074316858
    0.3315261951293769   0.3370566221312347   0.0816774950427252
    0.6684738753255154   0.3370563939693070   0.0816774392789601
    0.3329791902668896   0.6654462077276769   0.5884498930177681
    0.6670208475905444   0.6654461955811740   0.5884498523696969
    0.5000000659062527   0.8381390533425618   0.0855652051415099
    0.5000000541393537   0.1608170102316483   0.5063888609378930
