Nb   Zn   N
1.0
  -9.918244816501032 -0.0044722988809617 -0.0967226580357729
  0.0103618330366436 5.870894887582027 0.0140178763991158
  3.15692891558e-05 -0.0073114854498301 5.5592655063732
 Nb  Zn  N 
4 8 12 
direct
   -0.9998274018026178   0.6682001729725319   0.9793538333699918
   -0.9993542862894073   0.3282310311508291   0.4802387855737414
   -0.5004807203343024   0.1746792850030006   0.1047132350019516
   -0.5034842879176448   0.8349778062200967   0.6080613197506640
   -0.1638800344871887   0.1566476130632346   0.9727700370921852
   -0.8339072477322743   0.1580222948724229   0.9769658617345387
   -0.8355371513818203   0.8404159041294473   0.4785134474362611
   -0.1701670077230476   0.8373976692723836   0.4644779032037711
   -0.3257414848864927   0.6665235774649790   0.9882069093137784
   -0.6660274218562605   0.6587678274135371   0.1117659698959838
   -0.3325165975784649   0.3334403428226058   0.5907581711517498
   -0.6654674747339465   0.3429597721457418   0.6085958415534546
   -0.1597405465680485   0.8311270152713939   0.0923625987652342
   -0.8445278098239317   0.8349909442653294   0.0957835400049776
   -0.9987681866648468   0.3443119213911471   0.1119222285313611
   -0.1561573619125362   0.1614322603007263   0.5901090425967925
   -0.8422397901406561   0.1635689226528257   0.5953386252865005
   -0.9997410603117700   0.6525325765110555   0.6129195377478741
   -0.3405039461883212   0.3287786726783353   0.9941203466270857
   -0.6581243620208188   0.3384994635722103   0.9892089345412383
   -0.3384820475519246   0.6714713803695678   0.5605916551628025
   -0.6583054762558124   0.6639175260747322   0.4897803896330805
   -0.5064431597168977   0.8510007965930815   0.9778182305563327
   -0.5005751341078410   0.1581050595634030   0.4724538311899426
