Nb   Zn   N                             
   1.00000000000000     
    -0.0090230004346519    0.0000307864423089    5.5567030466843796
     5.8722170801172462    0.0125396699989441    0.0136674284016452
     0.0080382276041908    9.9191762462182247    0.1280574689459688
   Nb   Zn   N 
     4     8    12
Direct
  0.9792447620179588  0.6685779642695343  0.9997167749908453
  0.4797726293044324  0.3285175026089742  0.9994507040790970
  0.1064514913739502  0.1740473055801785  0.5010763762505144
  0.6104045963364774  0.8345300630809809  0.5035356581350942
  0.9704306728223661  0.1568525263005384  0.1657019398485292
  0.9782363758329289  0.1587797527184280  0.8341950157917378
  0.4787862955600618  0.8406977935036682  0.8355202670751061
  0.4625576420395818  0.8372753324420180  0.1702725414023988
  0.9800543237634436  0.6640511943451755  0.3242719344325062
  0.1127055347282589  0.6592520702890399  0.6658831446586809
  0.5689476507950975  0.3343823202586658  0.3305111839775414
  0.6112598882032749  0.3431739546433505  0.6655300316224422
  0.0912208088426211  0.8311801478950169  0.1595832375418375
  0.0964088949814250  0.8356066079307584  0.8443684632602555
  0.1117778736417651  0.3446423735927416  0.9989970712311992
  0.5896098513646116  0.1616201598837741  0.1568910321399018
  0.5957410914203739  0.1638364693640451  0.8427360538097606
  0.6123862832437056  0.6526103367212795  0.9995959721009772
  0.0081412325953517  0.3285502566909080  0.3401493110022814
  0.9906987667400170  0.3393453169292116  0.6585447640456072
  0.5659274834197574  0.6710333056944688  0.3373876811858919
  0.4913359678733853  0.6639546645309717  0.6583032325485382
  0.9789839780527603  0.8502018982850489  0.5062656229821216
  0.4757461807675802  0.1572805182159245  0.5015119838740063
 
             NaN             NaN             NaN
             NaN             NaN             NaN
             NaN             NaN             NaN
             NaN             NaN             NaN
             NaN             NaN             NaN
             NaN             NaN             NaN
             NaN             NaN             NaN
             NaN             NaN             NaN
             NaN             NaN             NaN
             NaN             NaN             NaN
             NaN             NaN             NaN
             NaN             NaN             NaN
             NaN             NaN             NaN
             NaN             NaN             NaN
             NaN             NaN             NaN
             NaN             NaN             NaN
             NaN             NaN             NaN
             NaN             NaN             NaN
             NaN             NaN             NaN
             NaN             NaN             NaN
             NaN             NaN             NaN
             NaN             NaN             NaN
             NaN             NaN             NaN
             NaN             NaN             NaN
