Nb   Zn   N
1.0
  -9.944621143171474 0.0065001668202456 8.56419608623e-05
  0.0038237604174513 5.848802200582101 0.0031539884775282
  7.301036901e-06 -0.0566278552591063 5.4798292560199
 Nb  Zn  N 
4 8 12 
direct
    0.0000058212693284   0.6722206620351919   0.9852097319057742
    0.0000064681496924   0.3299914673660773   0.4842213798226739
   -0.5000062728720570   0.1704786121221111   0.0071450279008608
   -0.5000084046490703   0.8196974578578464   0.4805298506740728
   -0.1691806367883893   0.1622681749435197   0.9743697374153143
   -0.8308179121429408   0.1622665988832783   0.9743689715956233
   -0.8293521350792351   0.8379645403977645   0.4743394635934093
   -0.1706461749829669   0.8379640502299265   0.4743397826684643
   -0.3263264059029509   0.6654109529284781   0.9704631199742796
   -0.6736749115604402   0.6654103931202874   0.9704623158700492
   -0.3268634560597014   0.3364423850591882   0.4843476134407110
   -0.6731376082669296   0.3364421949630559   0.4843456629492948
   -0.1596072617119020   0.8347625913636519   0.0977096584965423
   -0.8403974698561196   0.8347578996930616   0.0977068383201169
   -1.0000007065819549   0.3458676210624734   0.1139665627423103
   -0.1590838400404603   0.1685072656835527   0.5978755309134253
   -0.8409212792423431   0.1685122505288422   0.5978722981235775
   -1.0000007267826805   0.6572183474875286   0.6147784258205056
   -0.3374290894035294   0.3356642194653948   0.0909121787874991
   -0.6625657243088036   0.3356595971865273   0.0909101763770070
   -0.3364013632942128   0.6682939188112849   0.5964476046534107
   -0.6635925941941434   0.6682996316589315   0.5964439047581973
   -0.4999990850855404   0.8348939915695001   0.1082218359958708
   -0.4999992302282920   0.1510051838816901   0.5820332026218920
