Nb   Zn   N
1.0
  -9.914001440829491 0.0043286287355778 -0.0749755834158371
  0.0051903436743463 5.8649730740369295 0.0147187723940569
  3.31349828497e-05 -0.0125746115481035 5.56439042575083
 Nb  Zn  N 
4 8 12 
direct
   -0.9997438654648672   0.6685638243782180   0.9792734321608823
   -0.9995358763790370   0.3288578862818346   0.4800416929790818
   -0.5001484469884476   0.1728029500317717   0.1031943300060334
   -0.5021145837025853   0.8328585758049513   0.6035528869925127
   -0.1637690726458994   0.1574675929855632   0.9725738348187084
   -0.8340900025011947   0.1576509800823236   0.9760221416314653
   -0.8352522937286154   0.8406211606034573   0.4778378073049623
   -0.1685895464286930   0.8392924862154357   0.4686919664501627
   -0.3296270073577016   0.6643212550738677   0.0361435633963663
   -0.6656084446511535   0.6579901142979595   0.1103123905752855
   -0.3333698765881118   0.3373990852030372   0.5956310608618579
   -0.6652660841367211   0.3423679880943277   0.6069782340322392
   -0.1586807822549375   0.8330736149096359   0.0926938011771309
   -0.8439085979362927   0.8345301150492174   0.0947770482109141
   -0.9989955950485657   0.3446185380468588   0.1119196093676138
   -0.1564305916513477   0.1631884199258487   0.5911476955824165
   -0.8423637051388906   0.1640710905377445   0.5949523808169093
   -0.9999145760135926   0.6533575634843884   0.6127870228738994
   -0.3410033481249976   0.3306305701019132   0.9902483457270108
   -0.6577186330177247   0.3364873829903141   0.9881227331481461
   -0.3412193554608360   0.6701081512977437   0.5272456729566221
   -0.6585693145700390   0.6637382062590298   0.4882600301017435
   -0.5037716937121850   0.8484136162162126   0.9743760298576394
   -0.5003087044844494   0.1575886679030559   0.4700465646844911
