Nb   Zn   N
1.0
  -9.98050609022952 0.0147945882554568 -0.0141618081389125
  -0.0009860283229153 5.87305382976925 0.0087611564370573
  1.98265864519e-05 -0.0088066433105144 5.52082861104095
 Nb  Zn  N 
4 8 12 
direct
   -0.0000371614542345   0.6705910958353940   0.9792016673054638
   -0.9998968527575540   0.3286170471056962   0.4793211004696494
   -0.5007576718659627   0.1706363020853363   0.1298012243336163
   -0.4999983938199277   0.8310517677354403   0.6305935494008332
   -0.1715522341615978   0.1621560892330102   0.9660986723265692
   -0.8306368059435425   0.1615674820062430   0.9705709256907751
   -0.8298328302238434   0.8365402467715771   0.4683125367568127
   -0.1708502372676152   0.8386098429539978   0.4662227698860740
   -0.3188866455212629   0.6574576695632603   0.9774964433981118
   -0.6797812021289643   0.6593831449449937   0.9838069704401946
   -0.3190180156199043   0.3439145020423596   0.4759903241564973
   -0.6780709158011090   0.3388868654684091   0.4984216152418345
   -0.1580721463759072   0.8354778145256265   0.0925457169065599
   -0.8422206474048869   0.8346541154232037   0.0944895144469041
   -0.0004681010698938   0.3464567280077152   0.1112179067733816
   -0.1582918130982707   0.1653301708249432   0.5925135287853882
   -0.8423113929387064   0.1631204504795483   0.5947590328931496
   -0.0000550557464869   0.6527707875909837   0.6110623734309711
   -0.3342495089060769   0.3369471179051560   0.0828063590127469
   -0.6655863218103392   0.3353525665994542   0.0757064274393743
   -0.3337278199713234   0.6646581668735114   0.5825780733333535
   -0.6656147641898720   0.6644106397177334   0.5821600272054607
   -0.4998599217123429   0.8501709067083444   0.0004278066220962
   -0.5002235382122994   0.1512383246877906   0.5007307113724420
