Nb   Zn   N                             
   1.00000000000000     
    -0.0073114854498301    0.0000315692891558    5.5592655063732002
     5.8708948875820273    0.0103618330366436    0.0140178763991158
     0.0044722988809617    9.9182448165010317    0.0967226580357729
   Nb   Zn   N 
     4     8    12
Direct
  0.9793538333699917  0.6682001729725319  0.9998274018026179
  0.4802387855737414  0.3282310311508291  0.9993542862894073
  0.1047132350019516  0.1746792850030006  0.5004807203343025
  0.6080613197506639  0.8349778062200965  0.5034842879176448
  0.9727700370921852  0.1566476130632346  0.1638800344871887
  0.9769658617345387  0.1580222948724229  0.8339072477322742
  0.4785134474362611  0.8404159041294472  0.8355371513818203
  0.4644779032037710  0.8373976692723835  0.1701670077230476
  0.9882069093137783  0.6665235774649790  0.3257414848864927
  0.1117659698959838  0.6587678274135370  0.6660274218562606
  0.5907581711517498  0.3334403428226057  0.3325165975784649
  0.6085958415534545  0.3429597721457418  0.6654674747339465
  0.0923625987652342  0.8311270152713937  0.1597405465680485
  0.0957835400049776  0.8349909442653294  0.8445278098239317
  0.1119222285313611  0.3443119213911470  0.9987681866648467
  0.5901090425967925  0.1614322603007263  0.1561573619125362
  0.5953386252865005  0.1635689226528257  0.8422397901406562
  0.6129195377478740  0.6525325765110553  0.9997410603117699
  0.9941203466270857  0.3287786726783353  0.3405039461883212
  0.9892089345412384  0.3384994635722103  0.6581243620208188
  0.5605916551628025  0.6714713803695678  0.3384820475519245
  0.4897803896330805  0.6639175260747321  0.6583054762558125
  0.9778182305563327  0.8510007965930815  0.5064431597168977
  0.4724538311899426  0.1581050595634030  0.5005751341078410
 
             NaN             NaN             NaN
             NaN             NaN             NaN
             NaN             NaN             NaN
             NaN             NaN             NaN
             NaN             NaN             NaN
             NaN             NaN             NaN
             NaN             NaN             NaN
             NaN             NaN             NaN
             NaN             NaN             NaN
             NaN             NaN             NaN
             NaN             NaN             NaN
             NaN             NaN             NaN
             NaN             NaN             NaN
             NaN             NaN             NaN
             NaN             NaN             NaN
             NaN             NaN             NaN
             NaN             NaN             NaN
             NaN             NaN             NaN
             NaN             NaN             NaN
             NaN             NaN             NaN
             NaN             NaN             NaN
             NaN             NaN             NaN
             NaN             NaN             NaN
             NaN             NaN             NaN
