Nb   Zn   N                             
   1.00000000000000     
    -0.0076222415067515    0.0000221751269927    5.5285159901074001
     5.8800100934619506   -0.0048258727067243    0.0098125004294690
    -0.0213736606385562    9.9709946256933506    0.0393708750558276
   Nb   Zn   N 
     4     8    12
Direct
  0.9788157122262005  0.6698762638735091  0.0001450167808705
  0.4793338175965542  0.3284097034451610  0.0002873712464501
  0.1242117333777591  0.1726738962865982  0.5021066451192762
  0.6273644412102275  0.8328913741759614  0.4999369308495887
  0.9647274558257111  0.1616778732503859  0.1721837402771970
  0.9755522184314949  0.1599915995838676  0.8338374985313934
  0.4689973749143156  0.8357671834333974  0.8306009454165612
  0.4653289110330732  0.8389711639760100  0.1710600248699716
  0.9759254460301837  0.6572284726200750  0.3191205225035490
  0.9933615378170120  0.6640920402983168  0.6779971806879872
  0.4729808239220521  0.3444697200169104  0.3198360730721049
  0.5631865723568189  0.3340583551942264  0.6726271749955296
  0.0915883245796015  0.8351503028824365  0.1579223072465614
  0.0953986457817452  0.8339919395993068  0.8423753365514186
  0.1110549917368318  0.3462334285037682  0.0005266663683444
  0.5913887603363264  0.1654922609406065  0.1590739299404839
  0.5945232126168748  0.1608005911812913  0.8441242931554510
  0.6112399779892524  0.6522369475292705  0.9999492917480211
  0.0813034451160041  0.3370844640377620  0.3342334701791500
  0.0318684688268531  0.3325125639750942  0.6619352616459152
  0.5806522676040478  0.6649817775728579  0.3338454472174681
  0.5746675806441823  0.6671851304889485  0.6643004815458268
  0.9980629358336696  0.8508513364567331  0.4993569182486153
  0.4953040266137494  0.1533714452976773  0.5026174697934398
 
             NaN             NaN             NaN
             NaN             NaN             NaN
             NaN             NaN             NaN
             NaN             NaN             NaN
             NaN             NaN             NaN
             NaN             NaN             NaN
             NaN             NaN             NaN
             NaN             NaN             NaN
             NaN             NaN             NaN
             NaN             NaN             NaN
             NaN             NaN             NaN
             NaN             NaN             NaN
             NaN             NaN             NaN
             NaN             NaN             NaN
             NaN             NaN             NaN
             NaN             NaN             NaN
             NaN             NaN             NaN
             NaN             NaN             NaN
             NaN             NaN             NaN
             NaN             NaN             NaN
             NaN             NaN             NaN
             NaN             NaN             NaN
             NaN             NaN             NaN
             NaN             NaN             NaN
