Nb   Zn   N
1.0
  -9.90322931568971 0.0131989826339106 -6.77095466731e-05
  0.0077836138308147 5.84172689243322 0.0171719083763509
  3.86149107782e-05 -0.0164298889227993 5.58232764357254
 Nb  Zn  N 
4 8 12 
direct
   -0.0000045430876270   0.6693236164130383   0.9513334340686157
   -0.0000046022439051   0.3305327230122045   0.4513231690201778
   -0.4999949057262187   0.1694741989221953   0.0709331485628653
   -0.4999959059663155   0.8306706812187626   0.5709238319480504
   -0.1649827980005085   0.1575003733765925   0.9456335250579428
   -0.8350180718789630   0.1575044318906365   0.9456367755732911
   -0.8350410266622960   0.8423996446238106   0.4456503686981960
   -0.1649626491572249   0.8424034778927022   0.4456508118583997
   -0.3350357761014990   0.6575973570404655   0.0766075418899064
   -0.6649622016919992   0.6576006005590357   0.0766083713786614
   -0.3350054785251616   0.3424995021228411   0.5766011025024297
   -0.6649919862161157   0.3424940562793353   0.5766046682539140
   -0.1573668346171075   0.8338734423122388   0.0655912610500451
   -0.8426311204513014   0.8338762918855022   0.0655933978186667
   -0.0000006974003099   0.3444295818364437   0.0845738472758057
   -0.1573847419502954   0.1660371505560576   0.5656002838920385
   -0.8426139172377420   0.1660331304905398   0.5656025806924063
   -0.0000010380201800   0.6554193227258976   0.5845727253661009
   -0.3426096761700705   0.3339589997102834   0.9566576880389943
   -0.6573908013989610   0.3339635892265703   0.9566555584346546
   -0.3426318129614573   0.6661302915299528   0.4566492349530050
   -0.6573706148053804   0.6661259649127941   0.4566497081595172
   -0.4999994021990589   0.8445873710987185   0.9376835876346306
   -0.4999993975613677   0.1555640464105537   0.4376908427877595
