Nb   Zn   N
1.0
  9.96755858163586 -0.020449669724625 0.051332672297824
  -0.0042666300877493 5.88048432014098 0.0101629484269396
  2.29579738396e-05 -0.0075265716531946 5.53107844979622
 Nb  Zn  N 
4 8 12 
direct
    0.0001627429156410   0.6696077816808035   0.9787692350456418
    0.0003322692204798   0.3282411778629151   0.4795654445076461
    0.5024790087843588   0.1732204939571995   0.1228158747564355
    0.5000396053752142   0.8334682077954650   0.6258477207620158
    0.1722504923465068   0.1612844430856959   0.9641581386378189
    0.8351410137229779   0.1595134313504371   0.9770756372669032
    0.8306959862598968   0.8358504092896317   0.4697729815400554
    0.1711156200147508   0.8388728475727026   0.4651715113849909
    0.3191645660080222   0.6570229610864251   0.9749214748726889
    0.6772723388516794   0.6656646650879081   0.9979646021531948
    0.3200638949652814   0.3443879533164965   0.4723229239995400
    0.6707882127351111   0.3332419066868438   0.5845812382937711
    0.1579224790498598   0.8348180097494787   0.0913659766708325
    0.8423164711697186   0.8338454933657768   0.0959150342105519
    0.0005464533076147   0.3460937302826264   0.1109961360564675
    0.1594181987408392   0.1653351287482840   0.5911220481033062
    0.8447224165729110   0.1605176786931581   0.5944267033881222
    0.9998892085803345   0.6521956273936790   0.6115597354738558
    0.3343616936184258   0.3366484473340944   0.0804942622295667
    0.6610887797070595   0.3321030660066652   0.0169670195735039
    0.3339597469800537   0.6647811854324015   0.5800263806671375
    0.6636282822260599   0.6678431677679268   0.5711510182531039
    0.4991295074335056   0.8514697476249466   0.9973094140295511
    0.5035110094048759   0.1539722734486066   0.4925381705438476
