Nb   Zn   N
1.0
  9.90975289669386 -0.0077156480267191 0.0525035844846913
  0.0031657172411291 5.854972473303193 0.0154196683889981
  3.47006765435e-05 -0.014823509308036 5.56951534512846
 Nb  Zn  N 
4 8 12 
direct
    0.9998516983222808   0.6690873147167975   0.9796047086384365
    0.9997676094284716   0.3294789420748181   0.4798942962616788
    0.4997796310463634   0.1711149005557110   0.1007593748956227
    0.5006831473692231   0.8310433668082049   0.6003328273865400
    0.1642474214896369   0.1577106242740605   0.9729233305745209
    0.8343444871578243   0.1576430051754053   0.9756702683379270
    0.8353033527357212   0.8412647364299835   0.4766020360398889
    0.1665897334139421   0.8410000313671292   0.4719496528149704
    0.3332212345786921   0.6606181512313744   0.0847181360518917
    0.6653044128886759   0.6581366488135016   0.1078068201046522
    0.3341461027096879   0.3410295734201623   0.6005192094706062
    0.6651200036630605   0.3421008431508437   0.6061245186806904
    0.1575902619502165   0.8339704817372725   0.0924508390999980
    0.8431348464190296   0.8343882403141704   0.0945798131536237
    0.9993661143360392   0.3445996087560543   0.1123642309285565
    0.1569852070650697   0.1646507009513399   0.5920909847526287
    0.8424265067921138   0.1648697473094304   0.5948014806552776
    0.0001150556263270   0.6541969437620369   0.6125787445456714
    0.3417994053483269   0.3328082503105023   0.9864967496527083
    0.6574080001983998   0.3354525476839730   0.9869815180752270
    0.3428563204607288   0.6674247930094546   0.4935032935915319
    0.6581176678980299   0.6649388688113360   0.4871299674613639
    0.5015333733285890   0.8463624533876570   0.9690190114169881
    0.5003084037604284   0.1561090617234857   0.4679284631219706
