Nb   Zn   N
1.0
  -9.963699979424904 0.0065114077217935 8.64660220165e-05
  0.0038330357769181 5.86191312809259 0.0045557804674105
  1.04324242887e-05 -0.0585833932425392 5.49007909477516
 Nb  Zn  N 
4 8 12 
direct
   -0.0000003145186087   0.6724156125587536   0.9853265354762422
   -1.0000003509698825   0.3304430694894737   0.4837711612730726
   -0.4999991219288293   0.1738665665061002   0.0763639024520050
   -0.4999994985039073   0.8119704453031357   0.4773178555255396
   -0.1686922950750164   0.1619966535829663   0.9742702236436841
   -0.8313078894891972   0.1619968918569857   0.9742702598319860
   -0.8295707818038779   0.8379359836306751   0.4740157362904384
   -0.1704292708140230   0.8379361677994646   0.4740155943379816
   -0.3259269732732249   0.6661819597731776   0.9695255664972884
   -0.6740731623237672   0.6661821265447255   0.9695257366037798
   -0.3250054220622360   0.3377058138423726   0.4887461514669643
   -0.6749946635389542   0.3377059949865798   0.4887459644536331
   -0.1592568047796682   0.8352552245251795   0.0974116514403156
   -0.8407428494711024   0.8352554817669027   0.0974117432708530
   -0.9999998669235339   0.3465627881613026   0.1145655509788189
   -0.1589259788951888   0.1684686570777587   0.5974938482896873
   -0.8410736474248834   0.1684683546522652   0.5974940339967445
   -0.9999999052467820   0.6567264375151384   0.6149516375065178
   -0.3340932505771632   0.3394551073897504   0.0839649147120215
   -0.6659073627566753   0.3394556915775061   0.0839649393291294
   -0.3351664259320482   0.6680732209499213   0.5964276230264511
   -0.6648339480453892   0.6680728198003617   0.5964278137938298
   -0.5000001203116958   0.8281625546340923   0.1057433485394133
   -0.5000000949499590   0.1497063843746166   0.5272690826844195
