Nb   Zn   N
1.0
  -9.976529460918409 0.0182979106663342 -0.0221734539521
  -0.0030352876439272 5.876594843449054 0.0091116044345279
  2.06094332988e-05 -0.0085707482316331 5.52339107072977
 Nb  Zn  N 
4 8 12 
direct
   -0.0000841334179464   0.6703296322951785   0.9790274450833240
   -0.0000496701385430   0.3285535929001374   0.4792164882550312
   -0.5013185038071050   0.1714361352365808   0.1277258405984606
   -0.4999319967868276   0.8316906047566521   0.6295683094256086
   -0.1718877797932046   0.1620517539957626   0.9655815382121617
   -0.8317017942318882   0.1610438578985536   0.9724236324584029
   -0.8302096968552879   0.8360671617628102   0.4684233680084566
   -0.1709324442075422   0.8388370760164585   0.4657695784725741
   -0.3189848341892821   0.6574102240682995   0.9770074544034971
   -0.6790806262014730   0.6611237185407152   0.9871438596122579
   -0.3193148157462520   0.3442581764131912   0.4746685352084615
   -0.6759632486642569   0.3366786601540144   0.5199638363721759
   -0.1580161104199998   0.8354561976203873   0.0920886807266552
   -0.8423485465802059   0.8344226453867968   0.0947363226807949
   -0.0005478474928457   0.3463988558453197   0.1111678995427753
   -0.1585361853510731   0.1654772140102191   0.5920013683881341
   -0.8428984680250174   0.1620738750449567   0.5947701512575085
   -0.0000371352223440   0.6524848203104375   0.6110050825768594
   -0.3342501357438635   0.3372157970157331   0.0823169868350940
   -0.6642847156061782   0.3343015260402410   0.0618373661822101
   -0.3337314608163158   0.6649068052630781   0.5818046130998060
   -0.6652065154179442   0.6654272405437502   0.5796590354498479
   -0.4997254233887671   0.8503087165871851   0.9995145722672397
   -0.5009579098870456   0.1520455469137078   0.4994167173031876
