Nb   Zn   N
1.0
  -9.905034336112974 0.011134131781202 9.91628013798e-05
  0.006566242622311 5.842687548846642 0.0168214603788804
  3.78320639313e-05 -0.0160869986417644 5.57976518388372
 Nb  Zn  N 
4 8 12 
direct
   -0.9999999917831462   0.6695044057518498   0.9579371214799417
   -1.0000000101289732   0.3304959990634571   0.4579367145301368
   -0.4999999824078079   0.1695060897944992   0.0770601852846078
   -0.5000000001946010   0.8304951325803358   0.5770598318914758
   -0.1650072862511706   0.1576937676643773   0.9522377608187792
   -0.8349926702328325   0.1576936584128756   0.9522379947976276
   -0.8349928310244907   0.8423066611627543   0.4522380869206871
   -0.1650071915966917   0.8423065434131378   0.4522379363981993
   -0.3349907003965213   0.6576953180460432   0.0827381214535093
   -0.6650092511659156   0.6576951845911210   0.0827383924668050
   -0.3349906511007235   0.3423058749961583   0.5827384480344370
   -0.6650093635371097   0.3423059757674278   0.5827386552015967
   -0.1573772159033739   0.8340466055366436   0.0720434848850185
   -0.8426227906541630   0.8340465199079831   0.0720435633140683
   -1.0000000101722952   0.3445820890965314   0.0910754035632463
   -0.1573770774419065   0.1659546486246234   0.5720435361064075
   -0.8426228518893875   0.1659547498959825   0.5720436243406550
   -0.9999999801178477   0.6554189285912303   0.5910756327861539
   -0.3426220750636324   0.3340430701063041   0.9629516290764317
   -0.6573780009513851   0.3340430267336229   0.9629517266543155
   -0.3426218990041170   0.6659572732032006   0.4629516924399235
   -0.6573781004499918   0.6659572880904353   0.4629518042706646
   -0.5000000402195026   0.8445822600762924   0.9439237877546351
   -0.5000000128203802   0.1554183299236843   0.4439240343461353
