Nb   Zn   N
1.0
  9.959835327337345 -0.0065109407282649 -8.62698886203e-05
  0.0038302567748651 5.859507305820204 0.0042053324699399
  9.6495774418e-06 -0.0580600660519303 5.48751663508635
 Nb  Zn  N 
4 8 12 
direct
    0.9999995486101338   0.6723906198156868   0.9852870871875822
    0.9999995387097823   0.3303586575867410   0.4839288346505964
    0.5000010347527448   0.1726677900255995   0.0580652191983052
    0.5000006679897336   0.8142413141556714   0.4781456459306990
    0.1687010345087785   0.1619677318477925   0.9742991669959111
    0.8312987484461831   0.1619676950554190   0.9742990955593483
    0.8294883707554760   0.8379402761674046   0.4741588167195663
    0.1705114511423740   0.8379402092899515   0.4741588259695521
    0.3260014306491134   0.6661467910384474   0.9696611872035508
    0.6739987661843649   0.6661464490517798   0.9696610449555095
    0.3255735085611446   0.3374017564407659   0.4880291680547731
    0.6744266124503338   0.3374017774728171   0.4880281199229466
    0.1593191510167416   0.8351636109210854   0.0974930378216313
    0.8406811959287586   0.8351632459755464   0.0974928468984018
    1.0000000008405456   0.3463979858619846   0.1144002246071902
    0.1589300619060770   0.1685216038145312   0.5976610201651449
    0.8410702700765190   0.1685218986001437   0.5976607557887974
    1.0000000053453038   0.6568315460458418   0.6149371647918088
    0.3347698541718659   0.3388442585440118   0.0858260498735660
    0.6652292606981113   0.3388435633795260   0.0858259666430670
    0.3353708169743849   0.6681377761457314   0.5965126817676691
    0.6646287724436186   0.6681380930957292   0.5965123178615638
    0.4999999193971704   0.8289199664917523   0.1062387468748374
    0.4999999780563513   0.1499453914752341   0.5407378499788082
