Nb   Zn   N
1.0
  9.919343977679782 0.0076279653770562 0.1392476517221827
  0.012330884932685 5.8721931696828085 0.0133169804041747
  3.0003595462e-05 -0.0103326955385741 5.55414058699556
 Nb  Zn  N 
4 8 12 
direct
    0.9997300735777076   0.6688921739613217   0.9793310854999981
    0.9995257202933173   0.3286847912788584   0.4795959388649152
    0.5015856021317737   0.1733696070248539   0.1081468142125702
    0.5035392210310404   0.8337723310916701   0.6117475843234204
    0.1671368656012608   0.1574552265515620   0.9687281238077007
    0.8343049336982341   0.1591588839505923   0.9788174706117504
    0.8355385651827401   0.8407619848356898   0.4788303224711273
    0.1703413890382627   0.8373416326404358   0.4619553495554223
    0.3236594512174611   0.6621525337069289   0.9769900260723523
    0.6658573655199713   0.6594473238154874   0.1130178826158511
    0.3287341197812584   0.3356418431161037   0.5456073112906377
    0.6655777203553070   0.3432082883542487   0.6125815196609038
    0.1595390208110628   0.8315333100333169   0.0906704358281916
    0.8442837368986988   0.8359530318587381   0.0966263147346635
    0.9990485847197623   0.3448781971525919   0.1118820461203263
    0.1576293840026985   0.1620759495875244   0.5898202371277668
    0.8430587367993584   0.1639501510230126   0.5959375062505420
    0.9995276123443216   0.6526801724803706   0.6121350584697380
    0.3392951436030527   0.3293854238390067   0.0247817712351975
    0.6586710202995910   0.3397854880589475   0.9914356128245341
    0.3368021436972080   0.6700173711359126   0.5681809419028661
    0.6583414368395680   0.6638724207223440   0.4920537696017506
    0.5059897131018507   0.8496070988199217   0.9796048021862298
    0.5022824374413858   0.1563746007352639   0.4783523504527368
