Nb   Zn   N                             
   1.00000000000000     
    -0.0322734062051600    0.0000182608927580    5.5157036916633198
     5.8742206025659573    0.0038393424093720    0.0080602604421162
    -0.0065377397414127    9.9964702871330857   -0.0000783766209549
   Nb   Zn   N 
     4     8    12
Direct
  0.9792297590183751  0.6694615814645050  0.0000012577701802
  0.4783544306577907  0.3280096372354586  0.0000007338192777
  0.1304938957305959  0.1721370313662640  0.4999983135474637
  0.6183633027183708  0.8312466538753142  0.4999982460314126
  0.9679994025060851  0.1604953570922779  0.1705533520441001
  0.9679992481758102  0.1604953200897247  0.8294466955269172
  0.4667421675783676  0.8370446497765236  0.8310336639509365
  0.4667422910325308  0.8370448463801713  0.1689665784548911
  0.9850519724060398  0.6615709615202484  0.3245413528501453
  0.9850532676523257  0.6615699382117534  0.6754586946284679
  0.4791257090912847  0.3422356284022778  0.3174504524162769
  0.4791251595412795  0.3422340166567256  0.6825497788145871
  0.0921852774019133  0.8333156526446076  0.1582865620837137
  0.0921858786020744  0.8333164281052042  0.8417123970786750
  0.1104829332183557  0.3454132094851922 -0.0000001798033333
  0.5930856178903314  0.1639675409525903  0.1575771850998167
  0.5930856067772748  0.1639669425894461  0.8424220659007154
  0.6103336707206435  0.6526858995147132 -0.0000002157604302
  0.0818191348792572  0.3363208064539823  0.3328719727306472
  0.0818186879418189  0.3363219370900932  0.6671293902992990
  0.5818967486782388  0.6652880635323338  0.3341259004233569
  0.5818962448777129  0.6652870971721625  0.6658752873362140
  0.0227802772534657  0.8444980253255294  0.5000002733306924
  0.5031701910707761  0.1560727833621779  0.5000002410415815
 
             NaN             NaN             NaN
             NaN             NaN             NaN
             NaN             NaN             NaN
             NaN             NaN             NaN
             NaN             NaN             NaN
             NaN             NaN             NaN
             NaN             NaN             NaN
             NaN             NaN             NaN
             NaN             NaN             NaN
             NaN             NaN             NaN
             NaN             NaN             NaN
             NaN             NaN             NaN
             NaN             NaN             NaN
             NaN             NaN             NaN
             NaN             NaN             NaN
             NaN             NaN             NaN
             NaN             NaN             NaN
             NaN             NaN             NaN
             NaN             NaN             NaN
             NaN             NaN             NaN
             NaN             NaN             NaN
             NaN             NaN             NaN
             NaN             NaN             NaN
             NaN             NaN             NaN
