Nb   Zn   N
1.0
  -9.915679187288625 0.008383416359018 5.2478441519e-06
  0.0049173479827692 5.815936575406659 0.0010513004927048
  2.6039558194e-06 -0.0009923158358941 5.464454497887
 Nb  Zn  N 
4 8 12 
direct
   -0.0000008732431966   0.6714634724556761   0.9982124642984886
   -0.0000007826843578   0.3285386918135452   0.4982123287487318
   -0.4999991179442836   0.1714630427750383   0.9982121750753491
   -0.4999990798024202   0.8285389882115706   0.4982120557818293
   -0.1715027489029853   0.1626002762321462   0.9880873225978990
   -0.8284973865101302   0.1626001367649414   0.9880873626327594
   -0.8284974100128893   0.8374016392545356   0.4880873910060655
   -0.1715027866053798   0.8374018137835482   0.4880871227790101
   -0.3284972495626697   0.6626000569119185   0.9880872274511335
   -0.6715025719152856   0.6626004052115898   0.9880874428568870
   -0.3284972954429572   0.3374016743675611   0.4880873504157198
   -0.6715025831732834   0.3374015544788890   0.4880873502266059
   -0.1607776009403349   0.8316273933199050   0.1115556838136197
   -0.8392218491001115   0.8316278694826793   0.1115562844206839
    0.0000000019469169   0.3427679394058972   0.1267536131034825
   -0.1607776585131755   0.1683745851040604   0.6115558292305187
   -0.8392218212622550   0.1683740911199319   0.6115562574342008
   -0.0000000092309883   0.6572338986826102   0.6267535716672432
   -0.3392222843620770   0.3316274190547710   0.1115558321349480
   -0.6607782969200651   0.3316280970565175   0.1115563445385244
   -0.3392222550099768   0.6683745325294564   0.6115557929828959
   -0.6607783062791514   0.6683738777248038   0.6115563804748301
   -0.5000000054453113   0.8427679986817428   0.1267536164616037
   -0.5000000259034418   0.1572338543957005   0.6267536036978465
