Nb   Zn   N                             
   1.00000000000000     
    -0.0123392126816632    0.0000284379017681    5.5490156676179296
     5.8693830915290137    0.0097314263170817    0.0126160844092335
     0.0031394709160969    9.9198919172378943    0.1570472171387945
   Nb   Zn   N 
     4     8    12
Direct
  0.9796208504956700  0.6695042935026285  0.9997715557524910
  0.4796795861809454  0.3288704866682499  0.9998200784146526
  0.1121969632595800  0.1717418438363080  0.5026005235310937
  0.6138124916981184  0.8321340635373974  0.5035225716163403
  0.9652335008447579  0.1587701371077343  0.1695221031018219
  0.9795324858893815  0.1596218504086168  0.8346918958441817
  0.4792405751114199  0.8406891401036722  0.8356312317189639
  0.4615528032354040  0.8379380942500634  0.1708213821571971
  0.9719028906643599  0.6587055129605863  0.3225083551405714
  0.1140324150053660  0.6596196435414133  0.6658810005131033
  0.4992932146359340  0.3389108304970836  0.3252292904867724
  0.6142790360672477  0.3427568652090032  0.6657963725738564
  0.0899259201114540  0.8323540937906411  0.1596019750372652
  0.0971314447402836  0.8364005692197168  0.8440423144549920
  0.1121418431142199  0.3453018979451816  0.9990911938128837
  0.5900617533603925  0.1637258748843165  0.1590742865956675
  0.5968113566381573  0.1639547744148555  0.8435298896383704
  0.6120521170063745  0.6530248086163533  0.9994792253197420
  0.0571424195448871  0.3319222272684106  0.3367911397544812
  0.9929980986133261  0.3398406593266986  0.6584307144467705
  0.5719636028578046  0.6676969288834286  0.3360578824352937
  0.4933496165439247  0.6631356084467811  0.6584642163466996
  0.9811044673837490  0.8491193233001186  0.5055570724289463
  0.4817708227184381  0.1542603080554724  0.5040837268647189
 
             NaN             NaN             NaN
             NaN             NaN             NaN
             NaN             NaN             NaN
             NaN             NaN             NaN
             NaN             NaN             NaN
             NaN             NaN             NaN
             NaN             NaN             NaN
             NaN             NaN             NaN
             NaN             NaN             NaN
             NaN             NaN             NaN
             NaN             NaN             NaN
             NaN             NaN             NaN
             NaN             NaN             NaN
             NaN             NaN             NaN
             NaN             NaN             NaN
             NaN             NaN             NaN
             NaN             NaN             NaN
             NaN             NaN             NaN
             NaN             NaN             NaN
             NaN             NaN             NaN
             NaN             NaN             NaN
             NaN             NaN             NaN
             NaN             NaN             NaN
             NaN             NaN             NaN
