Nb   Zn   N 
   1.00000000000000     
  -0.0000000435384068   0.0000002554152786   5.4567671188205500
   5.8197144472163895   0.0000010163102243  -0.0000000434997069
   0.0000017262964046   9.9174732062557709   0.0000004706758679
Nb   Zn   N 
4  8  12  
Direct
  0.0111214236401267  0.6714736213200823  0.0000002499253426  
  0.5111213501695389  0.3285261924573533  0.9999996333601118  
  0.0111214538880446  0.1714749813389389  0.4999998255151681  
  0.5111216541730812  0.8285253415540126  0.5000000204476223  
  0.0010656724492222  0.1624475192392367  0.1715295845517488  
  0.0010658930192378  0.1624474059545662  0.8284705965458841  
  0.5010662060076641  0.8375518390800494  0.8284707600398207  
  0.5010658462519189  0.8375523051903571  0.1715293217333524  
  0.0010664232322881  0.6624497989422693  0.3284714713296992  
  0.0010658730235775  0.6624478731665420  0.6715291170055480  
  0.5010657199860020  0.3375521556921584  0.3284707302240122  
  0.5010658717045970  0.3375508974132302  0.6715288825187358  
  0.1242005166022011  0.8316333041774158  0.1608079260005368  
  0.1242003434751808  0.8316326829447789  0.8391915521669091  
  0.1392730910916384  0.3427637023252359  0.9999998449836268  
  0.6241999922005874  0.1683667050336837  0.1608082608212698  
  0.6242004759034074  0.1683667846844941  0.8391918325180399  
  0.6392732134855166  0.6572363984801655  0.0000001204260514  
  0.1241997615947241  0.3316342046495180  0.3391918590396514  
  0.1241998223119225  0.3316331142487527  0.6608081003568813  
  0.6242000268419545  0.6683668464806019  0.3391920192477755  
  0.6242001992626882  0.6683663549716243  0.6608082039699639  
  0.1392731336548323  0.8427637540253272  0.5000002561912353  
  0.6392729936261574  0.1572360627834968  0.4999998310810696  
