Nb   Zn   N                             
   1.00000000000000     
    -0.0332106214616304    0.0000174780459111    5.5131412319745099
     5.8776616480352386    0.0038413297093875    0.0077098124446456
    -0.0065406237824839   10.0002196653064601   -0.0000750988219048
   Nb   Zn   N 
     4     8    12
Direct
  0.9794356996938524  0.6694432202229904 -0.0000001580525135
  0.4783067595490236  0.3280430059543880  0.0000001695459985
  0.1296120657901416  0.1733587227153591  0.5000008861832875
  0.5999106803368808  0.8293947314193619  0.4999998186396175
  0.9682736091682483  0.1603906881387033  0.1705365965248100
  0.9682734481850107  0.1603905536733123  0.8294632493047447
  0.4667351089366272  0.8371613821277961  0.8314714664194630
  0.4667355494145027  0.8371614302117657  0.1685285185135746
  0.9849465869597426  0.6627342821802701  0.3258059101007032
  0.9849458288303566  0.6627347571649831  0.6741937801808369
  0.4792348337002456  0.3417953190788238  0.3171410226682363
  0.4792346207482264  0.3417951402056034  0.6828587277283507
  0.0920414867333788  0.8331285452075351  0.1583010578016358
  0.0920411699212921  0.8331282672812009  0.8416991746776967
  0.1105664577374972  0.3454272116909161  0.0000000057911269
  0.5929805081285082  0.1638677214960519  0.1575011212437212
  0.5929806481032094  0.1638674242420877  0.8424989496138823
  0.6102615683044201  0.6526959841830190  0.0000000049348522
  0.0814812292665815  0.3365535121292177  0.3323039053015967
  0.0814812572678541  0.3365529631571250  0.6676956217333367
  0.5826924401771020  0.6648966746170271  0.3335678993209878
  0.5826924336952669  0.6648968710886702  0.6664322586832074
  0.0403052782049456  0.8420639159178600  0.5000000023610487
  0.5038516065678277  0.1585176841952514  0.5000000103954471
 
             NaN             NaN             NaN
             NaN             NaN             NaN
             NaN             NaN             NaN
             NaN             NaN             NaN
             NaN             NaN             NaN
             NaN             NaN             NaN
             NaN             NaN             NaN
             NaN             NaN             NaN
             NaN             NaN             NaN
             NaN             NaN             NaN
             NaN             NaN             NaN
             NaN             NaN             NaN
             NaN             NaN             NaN
             NaN             NaN             NaN
             NaN             NaN             NaN
             NaN             NaN             NaN
             NaN             NaN             NaN
             NaN             NaN             NaN
             NaN             NaN             NaN
             NaN             NaN             NaN
             NaN             NaN             NaN
             NaN             NaN             NaN
             NaN             NaN             NaN
             NaN             NaN             NaN
