Nb   Zn   N                             
   1.00000000000000     
    -0.0577088763373537    0.0000088667305948    5.4849541753975304
     5.8566127332646767    0.0038292076373683    0.0038548844724693
    -0.0065067335338778    9.9555844820811590   -0.0000856736021776
   Nb   Zn   N 
     4     8    12
Direct
  0.9852542442105540  0.6723469614248770  1.0000008375868275
  0.4840568178390615  0.3302521155047894  1.0000007683092822
  0.0402225863206625  0.1717449235601995  0.4999987950833174
  0.4791017522733817  0.8161889373891604  0.4999984670519844
  0.9743108415082378  0.1619969297524739  0.1687835189621475
  0.9743107463987484  0.1619969195976619  0.8312165564910065
  0.4742536372798455  0.8379530139041754  0.8294329076684666
  0.4742536388404228  0.8379531087844398  0.1705673020959543
  0.9698457621691252  0.6660137492833288  0.3260725457466463
  0.9698458212928657  0.6660137328886394  0.6739274245691381
  0.4871055348739234  0.3371044447639415  0.3260247126954491
  0.4871047698661517  0.3371042117083644  0.6739752398468770
  0.0975691247697719  0.8350570643913089  0.1593947495592485
  0.0975695647252416  0.8350577065828120  0.8406045179502410
  0.1142459684049964  0.3462389601747424  0.9999998240374474
  0.5977733735400523  0.1685336353927893  0.1589432485813598
  0.5977737434407796  0.1685330117811064  0.8410560912667344
  0.6149145645132155  0.6569459805855241  0.9999998642143599
  0.0876306794912309  0.3379945090034159  0.3355618226195198
  0.0876309073921065  0.3379954115946672  0.6644391862662874
  0.5965599066999525  0.6681790630313985  0.3356212463980879
  0.5965605317458590  0.6681780514013296  0.6643799207205526
  0.1068764471905021  0.8304090861015596  0.5000002435750004
  0.5542499106341606  0.1502084796964938  0.5000002083197083
 
             NaN             NaN             NaN
             NaN             NaN             NaN
             NaN             NaN             NaN
             NaN             NaN             NaN
             NaN             NaN             NaN
             NaN             NaN             NaN
             NaN             NaN             NaN
             NaN             NaN             NaN
             NaN             NaN             NaN
             NaN             NaN             NaN
             NaN             NaN             NaN
             NaN             NaN             NaN
             NaN             NaN             NaN
             NaN             NaN             NaN
             NaN             NaN             NaN
             NaN             NaN             NaN
             NaN             NaN             NaN
             NaN             NaN             NaN
             NaN             NaN             NaN
             NaN             NaN             NaN
             NaN             NaN             NaN
             NaN             NaN             NaN
             NaN             NaN             NaN
             NaN             NaN             NaN
