Nb   Zn   N
1.0
  -9.996470287133086 0.0065377397414127 7.83766209549e-05
  0.003839342409372 5.874220602565957 0.0080602604421162
  1.8260892758e-05 -0.03227340620516 5.51570369166332
 Nb  Zn  N 
4 8 12 
direct
   -0.0000012577701802   0.6694615814645049   0.9792297590183749
   -0.0000007338192777   0.3280096372354586   0.4783544306577907
   -0.4999983135474638   0.1721370313662640   0.1304938957305959
   -0.4999982460314126   0.8312466538753139   0.6183633027183708
   -0.1705533520441001   0.1604953570922779   0.9679994025060851
   -0.8294466955269173   0.1604953200897247   0.9679992481758102
   -0.8310336639509366   0.8370446497765237   0.4667421675783676
   -0.1689665784548911   0.8370448463801714   0.4667422910325309
   -0.3245413528501453   0.6615709615202483   0.9850519724060398
   -0.6754586946284680   0.6615699382117534   0.9850532676523257
   -0.3174504524162769   0.3422356284022778   0.4791257090912847
   -0.6825497788145871   0.3422340166567256   0.4791251595412794
   -0.1582865620837137   0.8333156526446076   0.0921852774019133
   -0.8417123970786751   0.8333164281052040   0.0921858786020744
    0.0000001798033333   0.3454132094851921   0.1104829332183557
   -0.1575771850998167   0.1639675409525903   0.5930856178903315
   -0.8424220659007156   0.1639669425894461   0.5930856067772748
    0.0000002157604302   0.6526858995147133   0.6103336707206435
   -0.3328719727306472   0.3363208064539823   0.0818191348792572
   -0.6671293902992991   0.3363219370900932   0.0818186879418189
   -0.3341259004233569   0.6652880635323338   0.5818967486782388
   -0.6658752873362140   0.6652870971721625   0.5818962448777129
   -0.5000002733306924   0.8444980253255292   0.0227802772534657
   -0.5000002410415815   0.1560727833621779   0.5031701910707760
