ADDGRID = .TRUE.
ISTART = 1
ICHARG = 0
ISYM = 0
LMAXMIX = 4
LVHAR = .FALSE.
LORBIT = 10
LWAVE = .TRUE.
LCHARG = .TRUE.
LVTOT = .FALSE.
LPEAD = .FALSE.
LPLANE = .TRUE.
SYSTEM = supercell of 100% icsd_608626.cif, 0% i
NPAR = 8
ALGO = Normal
EDIFF = 1e-06
EDIFFG = 1e-05
ENCUT = 340.0
PREC = Accurate
NSW = 0
IBRION = -1
ISIF = 2
ISMEAR = 0
SIGMA = 0.01
POTIM = 0.1
