generated by phonopy                    
   1.00000000000000     
    10.0351470768999995   -0.0000022330999784   -0.0000001056124209
    -5.0175765436399997    8.6906901959899994    0.0000001395531216
    -0.0000001735893656    0.0000001431815548   14.9533752540999991
   Pb   P    O 
    19    13    50
Direct
  0.0071861599490646  0.7739377445747238  0.1209838551092375
  0.9978609508783975  0.7719086857061370  0.6266234071561811
  0.0041097352988544  0.2633575963285466  0.3730629021452359
  0.0035532894122454  0.2634712817537093  0.8780845538634807
  0.2262619804947903  0.2333414720068419  0.1209518283725970
  0.2282386246047778  0.2260012904818538  0.6265737330868930
  0.7368228855979240  0.7408227202002564  0.3731356299051498
  0.7368790538281260  0.7403044630334534  0.8781632249886471
  0.7667841315900219  0.9930139394119735  0.1209686128419847
  0.7741557687124683  0.0022727284266466  0.6266071598318703
  0.2593642270475200  0.9961105378815205  0.3730892989699726
  0.2599771135697182  0.9965834551420869  0.8781159324293384
  0.6668059187458510  0.3334287093988522  0.0052471960505471
  0.6667729928847024  0.3333396389647874  0.5033096732381850
  0.3333640723236684  0.6668225406401405  0.5073887815910965
  0.3334609458010149  0.6667082536249893  0.2312144798509408
  0.3334821192360167  0.6665282433695552  0.7573732955419814
  0.6667650846169408  0.3334770469261059  0.2500837886903113
  0.6667141295318046  0.3334468358720528  0.7487012556330797
  0.3332931810372344  0.6667306699160775  0.9871437976350421
  0.6340435254851968  0.5972413925841096  0.1294772648601423
  0.6230079329933034  0.5977971496562446  0.6234375026564791
  0.3689273091205010  0.3960561004438503  0.3752252278564256
  0.3676969245119395  0.3774026813873732  0.8679932457981465
  0.4029460618333189  0.0368650440833207  0.1295064510489041
  0.4023547525552260  0.0252732063925194  0.6234500787046429
  0.6040993818281137  0.9729371907040374  0.3752028117872186
  0.6228823944523754  0.9904153445793824  0.8679501141251009
  0.9633046810346073  0.3661790633264062  0.1294574074613024
  0.9748907586148405  0.3771486527445305  0.6234170686120990
  0.0272484108937192  0.6312439615945706  0.3752287935417300
  0.0097031855901406  0.6325291944210250  0.8679612428294448
  0.5235076685160749  0.6606269988972144  0.1377077096825587
  0.4995169765626173  0.6490155373585722  0.6268334200485768
  0.4705743315292352  0.3191335443049965  0.3788743632764664
  0.4622320774853605  0.2918637026160837  0.8662757420119718
  0.3396256776406759  0.8629599248692656  0.1377650964558512
  0.3511003065170968  0.8505590603851658  0.6268064069590835
  0.6810402599639929  0.1515110197665521  0.3788479479469729
  0.7083351703495424  0.1704965813466401  0.8662878990114038
  0.1372171716456592  0.4766853089988174  0.1377191399450979
  0.1495964294813845  0.5006347858006208  0.6267859545445731
  0.8486769124073916  0.5296246214082458  0.3789199681591739
  0.8296219947641461  0.5378340339930858  0.8663694293326500
  0.7399496186467900  0.6639973568559654  0.0446447020546117
  0.7222872140030887  0.6538566212777965  0.5360615579921273
  0.2646728169110801  0.3596832003327251  0.4598579971226968
  0.2628605934108208  0.3260768406210133  0.9521540915611126
  0.3361642929121587  0.0759416801260500  0.0446631622594396
  0.3464231030367415  0.0686126492781298  0.5360591588705503
  0.6404339235148981  0.9050688204337973  0.4598554914189421
  0.6740443439731436  0.9368597389161621  0.9521660387268511
  0.9241255652369986  0.2603578437762408  0.0445791355310945
  0.9315683285753238  0.2779602625116411  0.5359939318040290
  0.0952415805586426  0.7353647306097031  0.4599059725066326
  0.0633367767788826  0.7371979566118583  0.9521897200127682
  0.2581296225484166  0.3402907722966546  0.2929084575702490
  0.2563456414317855  0.3380083869855284  0.7860646031051388
  0.7424748572623869  0.6417999008188815  0.2136224709481809
  0.7365321328247418  0.6669370922855009  0.7044107158742747
  0.6599088069089234  0.9179046919678768  0.2929041595354178
  0.6626084359452165  0.9186398196200116  0.7860801086563427
  0.3583443179838355  0.1007463047970134  0.2136407270183724
  0.3331139322732355  0.0695993005158115  0.7043976253925308
  0.0821964978968950  0.7421592270740476  0.2929647603488448
  0.0813331093583116  0.7440850546246125  0.7861037890756180
  0.8994427238181331  0.2576703355914844  0.2135769274074804
  0.9306207606820109  0.2635375316738973  0.7043380691535361
  0.5463409487321371  0.4164953685105957  0.1215983181825280
  0.5432550653766128  0.4175437124259105  0.6263762878300909
  0.4761789975858193  0.5766496475425242  0.3694715407070959
  0.4843434877873065  0.5548372348632284  0.8618419873358576
  0.5836926542006822  0.1299773112184326  0.1216467169980007
  0.5826061649259415  0.1257575071452166  0.6264533465744009
  0.4235146043404754  0.8995959561658537  0.3694373264663255
  0.4454462720355110  0.9295294996111849  0.8616602800054665
  0.8702506343086611  0.4538774488381065  0.1216240939243391
  0.8743824623770848  0.4568834492868916  0.6264654800313423
  0.1005618147432301  0.5239906499020464  0.3693405032978703
  0.0706032637969329  0.5159937398780912  0.8615643086755114
  0.0000757477545363  0.0001047967184249  0.1251596829148411
  0.0000864729303629  0.0000743172209710  0.6265343889127664
 
  0.00000000E+00  0.00000000E+00  0.00000000E+00
  0.00000000E+00  0.00000000E+00  0.00000000E+00
  0.00000000E+00  0.00000000E+00  0.00000000E+00
  0.00000000E+00  0.00000000E+00  0.00000000E+00
  0.00000000E+00  0.00000000E+00  0.00000000E+00
  0.00000000E+00  0.00000000E+00  0.00000000E+00
  0.00000000E+00  0.00000000E+00  0.00000000E+00
  0.00000000E+00  0.00000000E+00  0.00000000E+00
  0.00000000E+00  0.00000000E+00  0.00000000E+00
  0.00000000E+00  0.00000000E+00  0.00000000E+00
  0.00000000E+00  0.00000000E+00  0.00000000E+00
  0.00000000E+00  0.00000000E+00  0.00000000E+00
  0.00000000E+00  0.00000000E+00  0.00000000E+00
  0.00000000E+00  0.00000000E+00  0.00000000E+00
  0.00000000E+00  0.00000000E+00  0.00000000E+00
  0.00000000E+00  0.00000000E+00  0.00000000E+00
  0.00000000E+00  0.00000000E+00  0.00000000E+00
  0.00000000E+00  0.00000000E+00  0.00000000E+00
  0.00000000E+00  0.00000000E+00  0.00000000E+00
  0.00000000E+00  0.00000000E+00  0.00000000E+00
  0.00000000E+00  0.00000000E+00  0.00000000E+00
  0.00000000E+00  0.00000000E+00  0.00000000E+00
  0.00000000E+00  0.00000000E+00  0.00000000E+00
  0.00000000E+00  0.00000000E+00  0.00000000E+00
  0.00000000E+00  0.00000000E+00  0.00000000E+00
  0.00000000E+00  0.00000000E+00  0.00000000E+00
  0.00000000E+00  0.00000000E+00  0.00000000E+00
  0.00000000E+00  0.00000000E+00  0.00000000E+00
  0.00000000E+00  0.00000000E+00  0.00000000E+00
  0.00000000E+00  0.00000000E+00  0.00000000E+00
  0.00000000E+00  0.00000000E+00  0.00000000E+00
  0.00000000E+00  0.00000000E+00  0.00000000E+00
  0.00000000E+00  0.00000000E+00  0.00000000E+00
  0.00000000E+00  0.00000000E+00  0.00000000E+00
  0.00000000E+00  0.00000000E+00  0.00000000E+00
  0.00000000E+00  0.00000000E+00  0.00000000E+00
  0.00000000E+00  0.00000000E+00  0.00000000E+00
  0.00000000E+00  0.00000000E+00  0.00000000E+00
  0.00000000E+00  0.00000000E+00  0.00000000E+00
  0.00000000E+00  0.00000000E+00  0.00000000E+00
  0.00000000E+00  0.00000000E+00  0.00000000E+00
  0.00000000E+00  0.00000000E+00  0.00000000E+00
  0.00000000E+00  0.00000000E+00  0.00000000E+00
  0.00000000E+00  0.00000000E+00  0.00000000E+00
  0.00000000E+00  0.00000000E+00  0.00000000E+00
  0.00000000E+00  0.00000000E+00  0.00000000E+00
  0.00000000E+00  0.00000000E+00  0.00000000E+00
  0.00000000E+00  0.00000000E+00  0.00000000E+00
  0.00000000E+00  0.00000000E+00  0.00000000E+00
  0.00000000E+00  0.00000000E+00  0.00000000E+00
  0.00000000E+00  0.00000000E+00  0.00000000E+00
  0.00000000E+00  0.00000000E+00  0.00000000E+00
  0.00000000E+00  0.00000000E+00  0.00000000E+00
  0.00000000E+00  0.00000000E+00  0.00000000E+00
  0.00000000E+00  0.00000000E+00  0.00000000E+00
  0.00000000E+00  0.00000000E+00  0.00000000E+00
  0.00000000E+00  0.00000000E+00  0.00000000E+00
  0.00000000E+00  0.00000000E+00  0.00000000E+00
  0.00000000E+00  0.00000000E+00  0.00000000E+00
  0.00000000E+00  0.00000000E+00  0.00000000E+00
  0.00000000E+00  0.00000000E+00  0.00000000E+00
  0.00000000E+00  0.00000000E+00  0.00000000E+00
  0.00000000E+00  0.00000000E+00  0.00000000E+00
  0.00000000E+00  0.00000000E+00  0.00000000E+00
  0.00000000E+00  0.00000000E+00  0.00000000E+00
  0.00000000E+00  0.00000000E+00  0.00000000E+00
  0.00000000E+00  0.00000000E+00  0.00000000E+00
  0.00000000E+00  0.00000000E+00  0.00000000E+00
  0.00000000E+00  0.00000000E+00  0.00000000E+00
  0.00000000E+00  0.00000000E+00  0.00000000E+00
  0.00000000E+00  0.00000000E+00  0.00000000E+00
  0.00000000E+00  0.00000000E+00  0.00000000E+00
  0.00000000E+00  0.00000000E+00  0.00000000E+00
  0.00000000E+00  0.00000000E+00  0.00000000E+00
  0.00000000E+00  0.00000000E+00  0.00000000E+00
  0.00000000E+00  0.00000000E+00  0.00000000E+00
  0.00000000E+00  0.00000000E+00  0.00000000E+00
  0.00000000E+00  0.00000000E+00  0.00000000E+00
  0.00000000E+00  0.00000000E+00  0.00000000E+00
  0.00000000E+00  0.00000000E+00  0.00000000E+00
  0.00000000E+00  0.00000000E+00  0.00000000E+00
  0.00000000E+00  0.00000000E+00  0.00000000E+00
