supercell of POSCAR                     
   1.01800000000000     
     3.1310994802600001   -5.4896946145000003   10.0244832682999991
    -9.4821132118399998   -5.5089477087900001    0.0170740616273000
     6.3359946057599998  -11.0114127993000004  -10.0652216442999993
   Al   Gd   N 
    84    12    95
Direct
  0.0879058211936652  0.5785324470149291  0.3411866648942592
  0.5015546664076496  0.3224552618931043  0.2563384420143677
  0.0869036370479108  0.0856779820281659  0.3352326989076815
  0.2531881966198668  0.5782884849983105  0.4958262970726679
  0.3361595004342490  0.3186398170300322  0.0795840613498271
  0.4167114247586383  0.0856352901265325  0.1690877193996698
  0.0031990110263891  0.8532809592198660  0.2560906918450101
  0.1695110137138656  0.3300160421391922  0.4143799744920003
  0.2489841914346513  0.0862727360080129  0.4965994644973222
  0.1630907345107602  0.8367005379426828  0.4163868121072341
  0.3379189909116107  0.6722218492612910  0.3417815800032571
  0.1142042394232377  0.6779992435848712  0.1972342467843333
  0.2492275503632086  0.3986723067576321  0.2550104924220378
  0.3354319795746505  0.1626821533033933  0.3346692178826984
  0.0071698801698616  0.6741275304870697  0.4961633420367946
  0.1673451066681721  0.1582917114340674  0.1701946298191785
  0.2535133147147874  0.9201309208782362  0.2551349029272814
  0.4143114695629038  0.4133454787906885  0.4164182898233832
  0.4996627187729530  0.1609760082536198  0.4971148081052874
  0.0825431998540864  0.9242487697746711  0.0808397551312652
  0.4209308796754385  0.9192256609884950  0.4118863492030655
  0.0891598990031213  0.5858843332228929  0.8333641340697113
  0.5016366376248413  0.3222812367076813  0.7542418803891948
  0.0867502674136418  0.0858691727320036  0.8347622245094044
  0.2488324662214509  0.5602738497202822  0.9712725532070365
  0.3335659389104393  0.3179184460366926  0.5789611907901673
  0.4183784271208708  0.0874034091675213  0.6707860169636533
  0.0092175522148779  0.8447862490879672  0.7559480268146288
  0.1678033212335350  0.3283133622651420  0.9122501707859669
  0.2504477917323769  0.0873862186130907  0.9978165394423186
  0.1653982178071871  0.8405575576497313  0.9157606576893187
  0.3389613136698202  0.6777889129614394  0.8357860721521675
  0.1557100030408378  0.6760999365077751  0.6657917302192899
  0.2520875174174719  0.4023618087698821  0.7529161218137403
  0.3354602611042097  0.1647450047702321  0.8340039526366709
  0.0076737449421458  0.6743900167406096  0.9975644490642566
  0.1681564985296475  0.1596700244380784  0.6698764831498067
  0.2538275356116699  0.9219732801782641  0.7550588736627901
  0.4198149522776262  0.4113966912017872  0.9137127878988451
  0.5004301861565779  0.1633738426011746  0.9971358092743259
  0.0844200444157792  0.9241135317099918  0.5801944573073357
  0.4191136500784367  0.9233224058434217  0.9119036489294743
  0.5877767683207509  0.5808404204854156  0.3326715397450357
  0.9997464845217721  0.3212804790113850  0.2564508199671209
  0.5852756456296078  0.0839624888061863  0.3336025657717840
  0.7530773521330758  0.5794550586360074  0.4928606439359982
  0.8293835043490816  0.3171270447234988  0.0772849063591821
  0.9161973264859782  0.0881760504994773  0.1701214283304182
  0.5048733367892524  0.8404550813079936  0.2517432216906670
  0.6694919083893254  0.3305683493407159  0.4122238092751260
  0.7481184777470133  0.0871094693454424  0.4956986381815014
  0.6623449241943788  0.8358156794702722  0.4144330894733770
  0.8338235898284410  0.6722499799114487  0.3384663897483478
  0.6448274209514153  0.6777556776496780  0.1646023132110130
  0.7505755031633612  0.3989331832626064  0.2517615085595395
  0.8346759985075209  0.1626330708148913  0.3340747948178446
  0.5087054420346746  0.6725176780920492  0.4940580098552161
  0.6660368439104403  0.1595977620851130  0.1686894199334148
  0.7507585317616972  0.9211649808693210  0.2547259185947084
  0.9124659677627491  0.4125789253683081  0.4162747403417271
  0.9996709428337311  0.1610635746765965  0.4975510939213663
  0.5782650794046802  0.9258892816211457  0.0796314474909110
  0.9201448844183915  0.9206618853092650  0.4132057851222513
  0.5903771007843233  0.5862523741797148  0.8329757372415116
  0.0007492794602371  0.3230859414790075  0.7559118798640796
  0.5863870062286054  0.0857379853450979  0.8342686488470079
  0.7487187624148959  0.5784810554133770  0.9923658039075036
  0.8342408923229385  0.3180916429324299  0.5786364896676446
  0.9185872196197167  0.0874333749177936  0.6716542502250604
  0.5087146207516966  0.8450190130693827  0.7543016967084029
  0.6691539402662556  0.3322834382948372  0.9123965576360717
  0.7464694286945246  0.0869369065492407  0.9957414552665185
  0.6626720911709398  0.8385327514777217  0.9146734314725435
  0.8382074475535219  0.6744571430418489  0.8412555767077237
  0.6564331033889061  0.6759178732146225  0.6646104205835783
  0.7517982901693827  0.4020721193633818  0.7522581879902859
  0.8347641204132756  0.1641816293811615  0.8345474287726944
  0.5051694297235656  0.6781107302475036  0.9931996568777066
  0.6682460973143876  0.1586635635097977  0.6694601766434474
  0.7541436460565620  0.9208607830902338  0.7560972151513639
  0.9132697220172190  0.4149435830167931  0.9161588236588614
  0.9976593322843783  0.1607306174353909  0.9973505198557149
  0.5843557619728017  0.9238830129277886  0.5787726454433439
  0.9206562137820455  0.9200580977416806  0.9125603355760958
  0.3729512560855213  0.5834990341322950  0.1750444227742207
  0.3251113901359730  0.8178897005213273  0.0830689983675370
  0.0796128768566078  0.4153449046429003  0.0866538340026608
  0.4008935835951704  0.5785698770486434  0.6767026040057331
  0.3339593358903770  0.8365784599495569  0.5835417336999313
  0.0833492077542388  0.4187372306346191  0.5861671257143755
  0.8876386314655846  0.5774141706308882  0.1734391470299528
  0.8261789185009292  0.8358161013335987  0.0819018921641117
  0.5801217961909657  0.4288021841956535  0.0870403689352131
  0.8979126443735268  0.5815768707901654  0.6789905674519474
  0.8322000771301319  0.8390385406518064  0.5839566825881448
  0.5856533011401552  0.4178303508207151  0.5838939714675888
  0.2181688432624043  0.5797818442232483  0.2676626876090040
  0.0442279636724550  0.6111739093335444  0.1039092149175502
  0.1305124245687281  0.3163390877414898  0.2013780342910394
  0.2135044828586672  0.0813668487289263  0.2722513884129825
  0.3834499731102810  0.5829679933586576  0.4373098144012175
  0.4523704924116245  0.3225416345162415  0.0120003137152622
  0.0414198180353722  0.0855708067548235  0.1040725238531763
  0.1326299292119941  0.8437973372622665  0.1864990453901640
  0.2975256279265821  0.3280372158298803  0.3534563457546724
  0.3780058287852412  0.0795703215184815  0.4351032851337067
  0.4668551388008808  0.8414713287008766  0.0101502357260728
  0.2941338781393625  0.8338781929606540  0.3547484118617490
  0.4671127053054818  0.6753965443818544  0.2794730460305601
  0.3767888312890904  0.3909899049588503  0.1870435140890194
  0.4608437378032306  0.1616973236389896  0.2722298970423438
  0.1349326377745115  0.6655935554781394  0.4342612142696680
  0.2260324784806613  0.4127947408226760  0.0131917101431753
  0.2905652880866114  0.1610326799712638  0.1031108471265725
  0.3811774314792231  0.9224306710632675  0.1936598067338409
  0.0436272419317731  0.4165420997169278  0.3532112054747145
  0.1279581526934734  0.1697580149370381  0.4350472238989411
  0.2027061400187051  0.9290763063414005  0.0142676215347208
  0.0486080283731098  0.9245069441821201  0.3537582467906475
  0.2191315817383526  0.5827204021369923  0.7685483384674541
  0.0337594547444340  0.6110180143270441  0.6015148460915185
  0.1313006998728667  0.3180430334140283  0.7020844203768277
  0.2130395635563431  0.0836916969638466  0.7730554459019743
  0.3844148498033917  0.5846340814769349  0.9343965548356863
  0.4504400343624511  0.3187859812004277  0.5111081198833176
  0.0417633983116517  0.0858879852906256  0.6042769966266803
  0.1331909004029725  0.8432156541676648  0.6865021778312652
  0.2972887749948399  0.3313358635693930  0.8545161252711395
  0.3771167395833643  0.0836497417102393  0.9357974068160004
  0.4774184275920135  0.8367737283342294  0.5071678814032055
  0.2935297371264838  0.8367124721749732  0.8562206040393932
  0.4726405713016817  0.6859047096446176  0.7848137880627206
  0.2649876156551940  0.6554161542962049  0.5957433979468689
  0.3745997113088038  0.3820508124012818  0.6862272555207554
  0.4625353134273738  0.1634304963431461  0.7741210061932478
  0.1379830598776692  0.6682182214210499  0.9381205365023675
  0.2257208885090449  0.4119818748430006  0.5099098754277733
  0.2908718585219532  0.1573707966594924  0.6023097447025023
  0.3854889797127896  0.9287108912618365  0.7019321017866886
  0.0453723792591489  0.4210724214804884  0.8546047322476937
  0.1276906117334491  0.1695525342349313  0.9367370469553791
  0.1978745274682510  0.9308647868996331  0.5101438828264904
  0.0502227184302981  0.9247062551596699  0.8546129600464241
  0.7192731428868768  0.5809813750013006  0.2636796335666673
  0.5129759878762670  0.6211574757910370  0.1015431875934780
  0.6290649234513523  0.3186959592273197  0.1984354013095952
  0.7116822345799960  0.0829586119455925  0.2716467422836217
  0.8850707350211096  0.5846810806915741  0.4338435580131659
  0.9477066563099541  0.3186573624303222  0.0107088679643113
  0.5398816929402059  0.0872825008112414  0.1034601395641204
  0.6297681005775715  0.8437766677031675  0.1849693481782566
  0.7972654437576097  0.3283817087723335  0.3514508647280579
  0.8773284989682111  0.0808609896497217  0.4352010060524023
  0.9760963319246159  0.8379515222591891  0.0101212467019707
  0.7955593492336206  0.8339097153459036  0.3538123577748848
  0.9876079274393206  0.6828583914091411  0.2747777807859535
  0.7517541150751867  0.6540706783033841  0.0927108465047013
  0.8755528195570221  0.3819451301145236  0.1843859064448878
  0.9622869260070175  0.1613830220571799  0.2736951844927447
  0.6346449395378357  0.6646222775868083  0.4295796292987006
  0.7219646018853823  0.4128962795204387  0.0099702098460099
  0.7892421571092214  0.1570849559702481  0.1017777963347868
  0.8817186665738177  0.9285761499640728  0.1995887734347619
  0.5444364577814795  0.4173097696574430  0.3524635240740182
  0.6269255605690489  0.1697813652396007  0.4337142288185376
  0.6922236288084136  0.9322756479652554  0.0100006518448481
  0.5467510715817099  0.9204709183270054  0.3492430654514678
  0.7205442583002863  0.5825420203555822  0.7671224432688604
  0.5359539327599236  0.6097972542171206  0.5995528929191494
  0.6317514242959206  0.3176214703015319  0.7000397678651282
  0.7129795298296528  0.0828466245585631  0.7726874069038772
  0.8837381296136826  0.5848384957286186  0.9402124318361729
  0.9509532568033663  0.3190466433262316  0.5109187641326969
  0.5417949556256403  0.0852804823613269  0.6035289460952313
  0.6339978243150028  0.8432218759575960  0.6853443418661627
  0.7975538894809659  0.3305034157818483  0.8528328192795058
  0.8764248906573826  0.0799275569665667  0.9359547793354892
  0.9762801069669180  0.8381890054128220  0.5085845029400460
  0.7937221265213523  0.8353941177575805  0.8573569165022832
  0.9734138413610793  0.6862050539133691  0.7891662696608677
  0.7653913316202150  0.6564227507020277  0.5931299163798229
  0.8761315339841431  0.3838659552967059  0.6855907544485902
  0.9627858505912457  0.1635851166501965  0.7751774293390170
  0.6317112708729340  0.6673686619869059  0.9324914498527548
  0.7280565696487074  0.4123409386182502  0.5078265105574857
  0.7911533158936592  0.1571044567658220  0.6020983630926651
  0.8863687972692773  0.9283346074977885  0.7034518330697495
  0.5453054661220520  0.4202976150154427  0.8510117318546762
  0.6270078081128574  0.1718825230991996  0.9343647713532448
  0.6969720722517252  0.9312724093999663  0.5078396400452831
  0.5479268743258672  0.9244344114921859  0.8529880968157428
 
  0.00000000E+00  0.00000000E+00  0.00000000E+00
  0.00000000E+00  0.00000000E+00  0.00000000E+00
  0.00000000E+00  0.00000000E+00  0.00000000E+00
  0.00000000E+00  0.00000000E+00  0.00000000E+00
  0.00000000E+00  0.00000000E+00  0.00000000E+00
  0.00000000E+00  0.00000000E+00  0.00000000E+00
  0.00000000E+00  0.00000000E+00  0.00000000E+00
  0.00000000E+00  0.00000000E+00  0.00000000E+00
  0.00000000E+00  0.00000000E+00  0.00000000E+00
  0.00000000E+00  0.00000000E+00  0.00000000E+00
  0.00000000E+00  0.00000000E+00  0.00000000E+00
  0.00000000E+00  0.00000000E+00  0.00000000E+00
  0.00000000E+00  0.00000000E+00  0.00000000E+00
  0.00000000E+00  0.00000000E+00  0.00000000E+00
  0.00000000E+00  0.00000000E+00  0.00000000E+00
  0.00000000E+00  0.00000000E+00  0.00000000E+00
  0.00000000E+00  0.00000000E+00  0.00000000E+00
  0.00000000E+00  0.00000000E+00  0.00000000E+00
  0.00000000E+00  0.00000000E+00  0.00000000E+00
  0.00000000E+00  0.00000000E+00  0.00000000E+00
  0.00000000E+00  0.00000000E+00  0.00000000E+00
  0.00000000E+00  0.00000000E+00  0.00000000E+00
  0.00000000E+00  0.00000000E+00  0.00000000E+00
  0.00000000E+00  0.00000000E+00  0.00000000E+00
  0.00000000E+00  0.00000000E+00  0.00000000E+00
  0.00000000E+00  0.00000000E+00  0.00000000E+00
  0.00000000E+00  0.00000000E+00  0.00000000E+00
  0.00000000E+00  0.00000000E+00  0.00000000E+00
  0.00000000E+00  0.00000000E+00  0.00000000E+00
  0.00000000E+00  0.00000000E+00  0.00000000E+00
  0.00000000E+00  0.00000000E+00  0.00000000E+00
  0.00000000E+00  0.00000000E+00  0.00000000E+00
  0.00000000E+00  0.00000000E+00  0.00000000E+00
  0.00000000E+00  0.00000000E+00  0.00000000E+00
  0.00000000E+00  0.00000000E+00  0.00000000E+00
  0.00000000E+00  0.00000000E+00  0.00000000E+00
  0.00000000E+00  0.00000000E+00  0.00000000E+00
  0.00000000E+00  0.00000000E+00  0.00000000E+00
  0.00000000E+00  0.00000000E+00  0.00000000E+00
  0.00000000E+00  0.00000000E+00  0.00000000E+00
  0.00000000E+00  0.00000000E+00  0.00000000E+00
  0.00000000E+00  0.00000000E+00  0.00000000E+00
  0.00000000E+00  0.00000000E+00  0.00000000E+00
  0.00000000E+00  0.00000000E+00  0.00000000E+00
  0.00000000E+00  0.00000000E+00  0.00000000E+00
  0.00000000E+00  0.00000000E+00  0.00000000E+00
  0.00000000E+00  0.00000000E+00  0.00000000E+00
  0.00000000E+00  0.00000000E+00  0.00000000E+00
  0.00000000E+00  0.00000000E+00  0.00000000E+00
  0.00000000E+00  0.00000000E+00  0.00000000E+00
  0.00000000E+00  0.00000000E+00  0.00000000E+00
  0.00000000E+00  0.00000000E+00  0.00000000E+00
  0.00000000E+00  0.00000000E+00  0.00000000E+00
  0.00000000E+00  0.00000000E+00  0.00000000E+00
  0.00000000E+00  0.00000000E+00  0.00000000E+00
  0.00000000E+00  0.00000000E+00  0.00000000E+00
  0.00000000E+00  0.00000000E+00  0.00000000E+00
  0.00000000E+00  0.00000000E+00  0.00000000E+00
  0.00000000E+00  0.00000000E+00  0.00000000E+00
  0.00000000E+00  0.00000000E+00  0.00000000E+00
  0.00000000E+00  0.00000000E+00  0.00000000E+00
  0.00000000E+00  0.00000000E+00  0.00000000E+00
  0.00000000E+00  0.00000000E+00  0.00000000E+00
  0.00000000E+00  0.00000000E+00  0.00000000E+00
  0.00000000E+00  0.00000000E+00  0.00000000E+00
  0.00000000E+00  0.00000000E+00  0.00000000E+00
  0.00000000E+00  0.00000000E+00  0.00000000E+00
  0.00000000E+00  0.00000000E+00  0.00000000E+00
  0.00000000E+00  0.00000000E+00  0.00000000E+00
  0.00000000E+00  0.00000000E+00  0.00000000E+00
  0.00000000E+00  0.00000000E+00  0.00000000E+00
  0.00000000E+00  0.00000000E+00  0.00000000E+00
  0.00000000E+00  0.00000000E+00  0.00000000E+00
  0.00000000E+00  0.00000000E+00  0.00000000E+00
  0.00000000E+00  0.00000000E+00  0.00000000E+00
  0.00000000E+00  0.00000000E+00  0.00000000E+00
  0.00000000E+00  0.00000000E+00  0.00000000E+00
  0.00000000E+00  0.00000000E+00  0.00000000E+00
  0.00000000E+00  0.00000000E+00  0.00000000E+00
  0.00000000E+00  0.00000000E+00  0.00000000E+00
  0.00000000E+00  0.00000000E+00  0.00000000E+00
  0.00000000E+00  0.00000000E+00  0.00000000E+00
  0.00000000E+00  0.00000000E+00  0.00000000E+00
  0.00000000E+00  0.00000000E+00  0.00000000E+00
  0.00000000E+00  0.00000000E+00  0.00000000E+00
  0.00000000E+00  0.00000000E+00  0.00000000E+00
  0.00000000E+00  0.00000000E+00  0.00000000E+00
  0.00000000E+00  0.00000000E+00  0.00000000E+00
  0.00000000E+00  0.00000000E+00  0.00000000E+00
  0.00000000E+00  0.00000000E+00  0.00000000E+00
  0.00000000E+00  0.00000000E+00  0.00000000E+00
  0.00000000E+00  0.00000000E+00  0.00000000E+00
  0.00000000E+00  0.00000000E+00  0.00000000E+00
  0.00000000E+00  0.00000000E+00  0.00000000E+00
  0.00000000E+00  0.00000000E+00  0.00000000E+00
  0.00000000E+00  0.00000000E+00  0.00000000E+00
  0.00000000E+00  0.00000000E+00  0.00000000E+00
  0.00000000E+00  0.00000000E+00  0.00000000E+00
  0.00000000E+00  0.00000000E+00  0.00000000E+00
  0.00000000E+00  0.00000000E+00  0.00000000E+00
  0.00000000E+00  0.00000000E+00  0.00000000E+00
  0.00000000E+00  0.00000000E+00  0.00000000E+00
  0.00000000E+00  0.00000000E+00  0.00000000E+00
  0.00000000E+00  0.00000000E+00  0.00000000E+00
  0.00000000E+00  0.00000000E+00  0.00000000E+00
  0.00000000E+00  0.00000000E+00  0.00000000E+00
  0.00000000E+00  0.00000000E+00  0.00000000E+00
  0.00000000E+00  0.00000000E+00  0.00000000E+00
  0.00000000E+00  0.00000000E+00  0.00000000E+00
  0.00000000E+00  0.00000000E+00  0.00000000E+00
  0.00000000E+00  0.00000000E+00  0.00000000E+00
  0.00000000E+00  0.00000000E+00  0.00000000E+00
  0.00000000E+00  0.00000000E+00  0.00000000E+00
  0.00000000E+00  0.00000000E+00  0.00000000E+00
  0.00000000E+00  0.00000000E+00  0.00000000E+00
  0.00000000E+00  0.00000000E+00  0.00000000E+00
  0.00000000E+00  0.00000000E+00  0.00000000E+00
  0.00000000E+00  0.00000000E+00  0.00000000E+00
  0.00000000E+00  0.00000000E+00  0.00000000E+00
  0.00000000E+00  0.00000000E+00  0.00000000E+00
  0.00000000E+00  0.00000000E+00  0.00000000E+00
  0.00000000E+00  0.00000000E+00  0.00000000E+00
  0.00000000E+00  0.00000000E+00  0.00000000E+00
  0.00000000E+00  0.00000000E+00  0.00000000E+00
  0.00000000E+00  0.00000000E+00  0.00000000E+00
  0.00000000E+00  0.00000000E+00  0.00000000E+00
  0.00000000E+00  0.00000000E+00  0.00000000E+00
  0.00000000E+00  0.00000000E+00  0.00000000E+00
  0.00000000E+00  0.00000000E+00  0.00000000E+00
  0.00000000E+00  0.00000000E+00  0.00000000E+00
  0.00000000E+00  0.00000000E+00  0.00000000E+00
  0.00000000E+00  0.00000000E+00  0.00000000E+00
  0.00000000E+00  0.00000000E+00  0.00000000E+00
  0.00000000E+00  0.00000000E+00  0.00000000E+00
  0.00000000E+00  0.00000000E+00  0.00000000E+00
  0.00000000E+00  0.00000000E+00  0.00000000E+00
  0.00000000E+00  0.00000000E+00  0.00000000E+00
  0.00000000E+00  0.00000000E+00  0.00000000E+00
  0.00000000E+00  0.00000000E+00  0.00000000E+00
  0.00000000E+00  0.00000000E+00  0.00000000E+00
  0.00000000E+00  0.00000000E+00  0.00000000E+00
  0.00000000E+00  0.00000000E+00  0.00000000E+00
  0.00000000E+00  0.00000000E+00  0.00000000E+00
  0.00000000E+00  0.00000000E+00  0.00000000E+00
  0.00000000E+00  0.00000000E+00  0.00000000E+00
  0.00000000E+00  0.00000000E+00  0.00000000E+00
  0.00000000E+00  0.00000000E+00  0.00000000E+00
  0.00000000E+00  0.00000000E+00  0.00000000E+00
  0.00000000E+00  0.00000000E+00  0.00000000E+00
  0.00000000E+00  0.00000000E+00  0.00000000E+00
  0.00000000E+00  0.00000000E+00  0.00000000E+00
  0.00000000E+00  0.00000000E+00  0.00000000E+00
  0.00000000E+00  0.00000000E+00  0.00000000E+00
  0.00000000E+00  0.00000000E+00  0.00000000E+00
  0.00000000E+00  0.00000000E+00  0.00000000E+00
  0.00000000E+00  0.00000000E+00  0.00000000E+00
  0.00000000E+00  0.00000000E+00  0.00000000E+00
  0.00000000E+00  0.00000000E+00  0.00000000E+00
  0.00000000E+00  0.00000000E+00  0.00000000E+00
  0.00000000E+00  0.00000000E+00  0.00000000E+00
  0.00000000E+00  0.00000000E+00  0.00000000E+00
  0.00000000E+00  0.00000000E+00  0.00000000E+00
  0.00000000E+00  0.00000000E+00  0.00000000E+00
  0.00000000E+00  0.00000000E+00  0.00000000E+00
  0.00000000E+00  0.00000000E+00  0.00000000E+00
  0.00000000E+00  0.00000000E+00  0.00000000E+00
  0.00000000E+00  0.00000000E+00  0.00000000E+00
  0.00000000E+00  0.00000000E+00  0.00000000E+00
  0.00000000E+00  0.00000000E+00  0.00000000E+00
  0.00000000E+00  0.00000000E+00  0.00000000E+00
  0.00000000E+00  0.00000000E+00  0.00000000E+00
  0.00000000E+00  0.00000000E+00  0.00000000E+00
  0.00000000E+00  0.00000000E+00  0.00000000E+00
  0.00000000E+00  0.00000000E+00  0.00000000E+00
  0.00000000E+00  0.00000000E+00  0.00000000E+00
  0.00000000E+00  0.00000000E+00  0.00000000E+00
  0.00000000E+00  0.00000000E+00  0.00000000E+00
  0.00000000E+00  0.00000000E+00  0.00000000E+00
  0.00000000E+00  0.00000000E+00  0.00000000E+00
  0.00000000E+00  0.00000000E+00  0.00000000E+00
  0.00000000E+00  0.00000000E+00  0.00000000E+00
  0.00000000E+00  0.00000000E+00  0.00000000E+00
  0.00000000E+00  0.00000000E+00  0.00000000E+00
  0.00000000E+00  0.00000000E+00  0.00000000E+00
  0.00000000E+00  0.00000000E+00  0.00000000E+00
  0.00000000E+00  0.00000000E+00  0.00000000E+00
  0.00000000E+00  0.00000000E+00  0.00000000E+00
  0.00000000E+00  0.00000000E+00  0.00000000E+00
  0.00000000E+00  0.00000000E+00  0.00000000E+00
  0.00000000E+00  0.00000000E+00  0.00000000E+00
  0.00000000E+00  0.00000000E+00  0.00000000E+00
