supercell of icsd_181358.cif            
   1.00000000000000     
    10.3944802431630379   -0.2428941931986696    0.0239835096535604
    -5.3971866483547801    9.2717932002683234    0.0400587342042601
     0.0310283068699524    0.0623956007903780   10.5995980759588981
   N    Ga   La
    36    26    10
Direct
  0.2354617283732807  0.0980272151513972  0.4170939347132716
  0.1106559441486681  0.1731470127670818  0.1534203346036804
  0.8711295357595290  0.0713580258909445  0.9475001909532779
  0.7784400812078687  0.2192052110364102  0.7199086189861390
  0.5291362219243041  0.0958439213715820  0.4350407998761057
  0.4473680962145039  0.2246998682436612  0.1830401736755221
  0.2304311038474154  0.0862534163695088  0.9424483528372036
  0.1042168135197130  0.1942592964862087  0.7739336531667504
  0.8997549349557161  0.0794545175140584  0.4109710743649728
  0.7678167853981464  0.2566843760936663  0.2260882659176104
  0.5304355720729106  0.1151281923084397  0.9317085755108607
  0.4420710963724872  0.2177240149104236  0.6828027045050931
  0.1833395955362391  0.4337101640038981  0.4512872770009153
  0.0935605919412623  0.5876073428654109  0.1932695026012254
  0.9345328845320751  0.4699333736124274  0.9258665030367865
  0.7602093621182462  0.5227038089960487  0.6988813841053840
  0.5731463485756478  0.4121075595778123  0.4358219573491908
  0.4476122594007705  0.5233418110220995  0.2111818163390140
  0.2487018013978712  0.5052236184888201  0.9914464044532139
  0.0807791483402411  0.5436837194184392  0.6704768053734824
  0.9045872234524097  0.4867097805606946  0.4348744670725608
  0.7729264901791169  0.5608779047497734  0.1923532334195244
  0.5078629992364725  0.4119834968436464  0.9299820880746452
  0.4539193337478764  0.5384116157537235  0.6928950056984320
  0.2220131853743368  0.7837982728968029  0.4458325920241677
  0.1058259857676163  0.8844078197833554  0.1968574624171850
  0.9275997815125123  0.8224770038908531  0.9165134429395749
  0.8118661639590243  0.9310554054917120  0.6710388402141803
  0.5650775771254359  0.8064582221767509  0.4533599942215432
  0.4269275380150432  0.9230806016220541  0.1864859132257521
  0.2174037042858430  0.7920432293898401  0.9564257789779660
  0.1145170299903739  0.9424064930726246  0.6568511337557510
  0.8785767133335298  0.7687355776540272  0.4450672452634308
  0.8082331927599284  0.8726150579447278  0.1841831315047244
  0.5879285877718203  0.7411305703081155  0.9754670113727286
  0.4515620775201867  0.9174722314298620  0.6838094624860389
  0.2341785140718571  0.1015119414871464  0.2357916691377753
  0.0864814965197667  0.1482410180074965  0.9702861596148438
  0.8771706685102458  0.1106526973592423  0.7666538054185494
  0.5454921631657257  0.1265359588017745  0.2541586360443659
  0.4350816602626253  0.2223797027835346  0.9992417954899011
  0.2433245663036914  0.1142416783810205  0.7608287978733870
  0.9339703377586801  0.0566657886581723  0.2456643604822304
  0.5521545147182820  0.1153925277210917  0.7462310991408714
  0.4460422334855849  0.2077741528315542  0.4937820358095095
  0.1244379608537898  0.5912192938415401  0.0135704929557079
  0.8833139167780715  0.4365660915274887  0.7425149045790320
  0.7792098524210616  0.5485830934370099  0.5110542727601484
  0.5630060128360697  0.4304518444651251  0.2514926432436937
  0.4482729577043116  0.5371561168322856  0.0178179436883994
  0.1061210454121166  0.5633048717021580  0.4901620127733324
  0.8822544718756049  0.4738548292567870  0.2542732385575377
  0.5416644883135646  0.4252719909502645  0.7408286761056644
  0.2122109907125846  0.7884153648862124  0.2560581939990101
  0.1118825352082524  0.8881689988923398  0.0113992467814370
  0.9348554943001304  0.8731089076339131  0.7452997034675590
  0.7788180015520183  0.8860198508376982  0.4886364912523575
  0.4048561605975181  0.9364983217098057  0.0138372597338048
  0.1105767242882294  0.8922335028929496  0.4786259340958310
  0.8849781426894126  0.7581805157034864  0.2576222185400923
  0.7943586534219520  0.8738401084246163  0.0035087776483635
  0.4468542665934478  0.9006632767863039  0.4990174043516191
  0.7923267645307561  0.2301277166585223  0.4629007903152953
  0.1147418384314349  0.1944439099075197  0.5289987982065227
  0.7852882796071796  0.2284921458357161  0.0070714268249077
  0.1779483949911622  0.4150180557348406  0.2179344107338324
  0.2098779181155592  0.4473271608635869  0.7792460987337506
  0.7761387633268271  0.5660367102731811  0.9603549951173278
  0.4494812297271906  0.5478110731515002  0.4720407201549719
  0.5507019719497919  0.7855155392360089  0.2121280953326448
  0.1928040513438560  0.7822054223323818  0.7324761792299412
  0.5634954679531958  0.7823300704988085  0.7583055797679492
 
  0.00000000E+00  0.00000000E+00  0.00000000E+00
  0.00000000E+00  0.00000000E+00  0.00000000E+00
  0.00000000E+00  0.00000000E+00  0.00000000E+00
  0.00000000E+00  0.00000000E+00  0.00000000E+00
  0.00000000E+00  0.00000000E+00  0.00000000E+00
  0.00000000E+00  0.00000000E+00  0.00000000E+00
  0.00000000E+00  0.00000000E+00  0.00000000E+00
  0.00000000E+00  0.00000000E+00  0.00000000E+00
  0.00000000E+00  0.00000000E+00  0.00000000E+00
  0.00000000E+00  0.00000000E+00  0.00000000E+00
  0.00000000E+00  0.00000000E+00  0.00000000E+00
  0.00000000E+00  0.00000000E+00  0.00000000E+00
  0.00000000E+00  0.00000000E+00  0.00000000E+00
  0.00000000E+00  0.00000000E+00  0.00000000E+00
  0.00000000E+00  0.00000000E+00  0.00000000E+00
  0.00000000E+00  0.00000000E+00  0.00000000E+00
  0.00000000E+00  0.00000000E+00  0.00000000E+00
  0.00000000E+00  0.00000000E+00  0.00000000E+00
  0.00000000E+00  0.00000000E+00  0.00000000E+00
  0.00000000E+00  0.00000000E+00  0.00000000E+00
  0.00000000E+00  0.00000000E+00  0.00000000E+00
  0.00000000E+00  0.00000000E+00  0.00000000E+00
  0.00000000E+00  0.00000000E+00  0.00000000E+00
  0.00000000E+00  0.00000000E+00  0.00000000E+00
  0.00000000E+00  0.00000000E+00  0.00000000E+00
  0.00000000E+00  0.00000000E+00  0.00000000E+00
  0.00000000E+00  0.00000000E+00  0.00000000E+00
  0.00000000E+00  0.00000000E+00  0.00000000E+00
  0.00000000E+00  0.00000000E+00  0.00000000E+00
  0.00000000E+00  0.00000000E+00  0.00000000E+00
  0.00000000E+00  0.00000000E+00  0.00000000E+00
  0.00000000E+00  0.00000000E+00  0.00000000E+00
  0.00000000E+00  0.00000000E+00  0.00000000E+00
  0.00000000E+00  0.00000000E+00  0.00000000E+00
  0.00000000E+00  0.00000000E+00  0.00000000E+00
  0.00000000E+00  0.00000000E+00  0.00000000E+00
  0.00000000E+00  0.00000000E+00  0.00000000E+00
  0.00000000E+00  0.00000000E+00  0.00000000E+00
  0.00000000E+00  0.00000000E+00  0.00000000E+00
  0.00000000E+00  0.00000000E+00  0.00000000E+00
  0.00000000E+00  0.00000000E+00  0.00000000E+00
  0.00000000E+00  0.00000000E+00  0.00000000E+00
  0.00000000E+00  0.00000000E+00  0.00000000E+00
  0.00000000E+00  0.00000000E+00  0.00000000E+00
  0.00000000E+00  0.00000000E+00  0.00000000E+00
  0.00000000E+00  0.00000000E+00  0.00000000E+00
  0.00000000E+00  0.00000000E+00  0.00000000E+00
  0.00000000E+00  0.00000000E+00  0.00000000E+00
  0.00000000E+00  0.00000000E+00  0.00000000E+00
  0.00000000E+00  0.00000000E+00  0.00000000E+00
  0.00000000E+00  0.00000000E+00  0.00000000E+00
  0.00000000E+00  0.00000000E+00  0.00000000E+00
  0.00000000E+00  0.00000000E+00  0.00000000E+00
  0.00000000E+00  0.00000000E+00  0.00000000E+00
  0.00000000E+00  0.00000000E+00  0.00000000E+00
  0.00000000E+00  0.00000000E+00  0.00000000E+00
  0.00000000E+00  0.00000000E+00  0.00000000E+00
  0.00000000E+00  0.00000000E+00  0.00000000E+00
  0.00000000E+00  0.00000000E+00  0.00000000E+00
  0.00000000E+00  0.00000000E+00  0.00000000E+00
  0.00000000E+00  0.00000000E+00  0.00000000E+00
  0.00000000E+00  0.00000000E+00  0.00000000E+00
  0.00000000E+00  0.00000000E+00  0.00000000E+00
  0.00000000E+00  0.00000000E+00  0.00000000E+00
  0.00000000E+00  0.00000000E+00  0.00000000E+00
  0.00000000E+00  0.00000000E+00  0.00000000E+00
  0.00000000E+00  0.00000000E+00  0.00000000E+00
  0.00000000E+00  0.00000000E+00  0.00000000E+00
  0.00000000E+00  0.00000000E+00  0.00000000E+00
  0.00000000E+00  0.00000000E+00  0.00000000E+00
  0.00000000E+00  0.00000000E+00  0.00000000E+00
  0.00000000E+00  0.00000000E+00  0.00000000E+00
