supercell of icsd_181358.cif            
   1.00000000000000     
    10.3398991531474653    0.0798926733958672   -0.0256129421502610
    -5.1015024965391289    9.0709574813142524   -0.0078548265969439
    -0.0250090098413130   -0.0267411548703221   10.8643594065756179
   N    Ga   La
    36    24    12
Direct
  0.2183454902341211  0.0899450025326018  0.4209264916373527
  0.1514074362477942  0.2476725158159709  0.1870284224812551
  0.9022503273748868  0.1249171366406543  0.9796655140927939
  0.7257329093294800  0.1676918378526366  0.6895685696633080
  0.5582306813628222  0.0579443295628437  0.4205968701918721
  0.4471638591390601  0.2231390943113709  0.2017638481410629
  0.2209850386617589  0.1189712267769849  0.9425402384930592
  0.1612878131604205  0.2473075056182950  0.6954179619169309
  0.8765877527026760  0.0790118120093268  0.4900881816199529
  0.7625015121922090  0.2475734567452221  0.2110760671239120
  0.5098236205328135  0.0922121699968059  0.9295825964980295
  0.4302171576698726  0.1887352099612869  0.6860770204977982
  0.2573363643034838  0.5039530212902363  0.4187511211016215
  0.0922371365092260  0.5188938181973626  0.1680580511915650
  0.8993207211165597  0.4903929986039373  0.9180399915745454
  0.7580570491315299  0.5252908856251963  0.6458254238976906
  0.5784959744492824  0.4861662255338075  0.4235968243225940
  0.4408144081691816  0.5419097858222202  0.1914317130902958
  0.1726571495174554  0.4274444533782287  0.9164357111917809
  0.1497193571475677  0.5847633932611416  0.6728303425294229
  0.9280710507189767  0.4876092458079313  0.4341693700782514
  0.7935835681442711  0.5708081421910975  0.2019563719440498
  0.5820696306537485  0.4222886150500571  0.9725104051752851
  0.4319524860721060  0.5659546709605223  0.6893214066335744
  0.2351307358231622  0.7945870534565103  0.4496918767822820
  0.0974273723740211  0.9177285636440189  0.1802715268886317
  0.8981452456003893  0.7707446802137028  0.9624729889441781
  0.7503402308596350  0.8496867607284173  0.7090458246574229
  0.5610733373459453  0.7818433027024412  0.4892378193176867
  0.4552868460734061  0.9220990655539225  0.1633906232767472
  0.2087033720536979  0.7801062216239529  0.9415843943436641
  0.1427023709169646  0.9098050195758063  0.6840554121305331
  0.9036198887858902  0.7866640610879045  0.4496864223863923
  0.7776785473032675  0.8772735645618255  0.2193281146288086
  0.5117337764455385  0.7773236526859790  0.9219396804092952
  0.4354158251998399  0.8849055816968132  0.6935500513535757
  0.2278751821851515  0.1167049175790424  0.2415375725660596
  0.1123404786111664  0.2293196527878720  0.0033551337907696
  0.7236229419636118  0.1180577067993411  0.5226775122881762
  0.5556186009024060  0.1111639296507434  0.2406503344982838
  0.4351288675198930  0.2113242683700136  0.0123429957533432
  0.2378102588154221  0.1121220636160274  0.7555926747434825
  0.5237085251642455  0.0848302280259858  0.7522556365429836
  0.2316951647390226  0.4529350988717198  0.2407100398056841
  0.0947072837442917  0.5528117514442812  0.9844107925343124
  0.7938715824504428  0.5709717224972692  0.4754209006434706
  0.5639189590426810  0.4567689501520036  0.2424034092979852
  0.2280603853029461  0.4588808326805136  0.7426481232999009
  0.1379636565344100  0.5884071690141326  0.4904522846431618
  0.8930370559418961  0.4518210028670211  0.2593539216134388
  0.7955436984115707  0.5655906118471421  0.0198542823091401
  0.4558179440136740  0.5726376087173648  0.5062022025444080
  0.1067018795101831  0.8993870594395190  0.0018584999198765
  0.7737783627678283  0.8651896581254945  0.5225903105045049
  0.4243119992466049  0.8918688064449256  0.9854166532038846
  0.2332766661662120  0.7854925779046837  0.7489121196405719
  0.1263195014691760  0.8989013360701463  0.5012661283642643
  0.8932630050336527  0.7877474410028427  0.2604040939082068
  0.5370297152766383  0.7742229097378015  0.7414672157233611
  0.4324508996997594  0.8749008020280087  0.5160559716426576
  0.9055677283247121  0.0982463404791005  0.7531140113027774
  0.1340753906974967  0.2476009722938670  0.4881209631158399
  0.8986356755098299  0.1271878363949952  0.2537599510384823
  0.7579530520058526  0.2474868198090547  0.9948656007582883
  0.4717161974774413  0.2258775778594497  0.4737464109453668
  0.8984590684585854  0.4259165441064923  0.7000389275576566
  0.4216771183999484  0.5337013776073363  0.9857166064768492
  0.5462418180707189  0.4266901666635121  0.7526849264326216
  0.2067223477309312  0.7749280914662009  0.2304258158286956
  0.9047369066921576  0.7462665705323346  0.7504048456563552
  0.5371720054648392  0.7777230502818711  0.2769820865178048
  0.7530840333315467  0.8729524657548851  0.0047877943800216
 
  0.00000000E+00  0.00000000E+00  0.00000000E+00
  0.00000000E+00  0.00000000E+00  0.00000000E+00
  0.00000000E+00  0.00000000E+00  0.00000000E+00
  0.00000000E+00  0.00000000E+00  0.00000000E+00
  0.00000000E+00  0.00000000E+00  0.00000000E+00
  0.00000000E+00  0.00000000E+00  0.00000000E+00
  0.00000000E+00  0.00000000E+00  0.00000000E+00
  0.00000000E+00  0.00000000E+00  0.00000000E+00
  0.00000000E+00  0.00000000E+00  0.00000000E+00
  0.00000000E+00  0.00000000E+00  0.00000000E+00
  0.00000000E+00  0.00000000E+00  0.00000000E+00
  0.00000000E+00  0.00000000E+00  0.00000000E+00
  0.00000000E+00  0.00000000E+00  0.00000000E+00
  0.00000000E+00  0.00000000E+00  0.00000000E+00
  0.00000000E+00  0.00000000E+00  0.00000000E+00
  0.00000000E+00  0.00000000E+00  0.00000000E+00
  0.00000000E+00  0.00000000E+00  0.00000000E+00
  0.00000000E+00  0.00000000E+00  0.00000000E+00
  0.00000000E+00  0.00000000E+00  0.00000000E+00
  0.00000000E+00  0.00000000E+00  0.00000000E+00
  0.00000000E+00  0.00000000E+00  0.00000000E+00
  0.00000000E+00  0.00000000E+00  0.00000000E+00
  0.00000000E+00  0.00000000E+00  0.00000000E+00
  0.00000000E+00  0.00000000E+00  0.00000000E+00
  0.00000000E+00  0.00000000E+00  0.00000000E+00
  0.00000000E+00  0.00000000E+00  0.00000000E+00
  0.00000000E+00  0.00000000E+00  0.00000000E+00
  0.00000000E+00  0.00000000E+00  0.00000000E+00
  0.00000000E+00  0.00000000E+00  0.00000000E+00
  0.00000000E+00  0.00000000E+00  0.00000000E+00
  0.00000000E+00  0.00000000E+00  0.00000000E+00
  0.00000000E+00  0.00000000E+00  0.00000000E+00
  0.00000000E+00  0.00000000E+00  0.00000000E+00
  0.00000000E+00  0.00000000E+00  0.00000000E+00
  0.00000000E+00  0.00000000E+00  0.00000000E+00
  0.00000000E+00  0.00000000E+00  0.00000000E+00
  0.00000000E+00  0.00000000E+00  0.00000000E+00
  0.00000000E+00  0.00000000E+00  0.00000000E+00
  0.00000000E+00  0.00000000E+00  0.00000000E+00
  0.00000000E+00  0.00000000E+00  0.00000000E+00
  0.00000000E+00  0.00000000E+00  0.00000000E+00
  0.00000000E+00  0.00000000E+00  0.00000000E+00
  0.00000000E+00  0.00000000E+00  0.00000000E+00
  0.00000000E+00  0.00000000E+00  0.00000000E+00
  0.00000000E+00  0.00000000E+00  0.00000000E+00
  0.00000000E+00  0.00000000E+00  0.00000000E+00
  0.00000000E+00  0.00000000E+00  0.00000000E+00
  0.00000000E+00  0.00000000E+00  0.00000000E+00
  0.00000000E+00  0.00000000E+00  0.00000000E+00
  0.00000000E+00  0.00000000E+00  0.00000000E+00
  0.00000000E+00  0.00000000E+00  0.00000000E+00
  0.00000000E+00  0.00000000E+00  0.00000000E+00
  0.00000000E+00  0.00000000E+00  0.00000000E+00
  0.00000000E+00  0.00000000E+00  0.00000000E+00
  0.00000000E+00  0.00000000E+00  0.00000000E+00
  0.00000000E+00  0.00000000E+00  0.00000000E+00
  0.00000000E+00  0.00000000E+00  0.00000000E+00
  0.00000000E+00  0.00000000E+00  0.00000000E+00
  0.00000000E+00  0.00000000E+00  0.00000000E+00
  0.00000000E+00  0.00000000E+00  0.00000000E+00
  0.00000000E+00  0.00000000E+00  0.00000000E+00
  0.00000000E+00  0.00000000E+00  0.00000000E+00
  0.00000000E+00  0.00000000E+00  0.00000000E+00
  0.00000000E+00  0.00000000E+00  0.00000000E+00
  0.00000000E+00  0.00000000E+00  0.00000000E+00
  0.00000000E+00  0.00000000E+00  0.00000000E+00
  0.00000000E+00  0.00000000E+00  0.00000000E+00
  0.00000000E+00  0.00000000E+00  0.00000000E+00
  0.00000000E+00  0.00000000E+00  0.00000000E+00
  0.00000000E+00  0.00000000E+00  0.00000000E+00
  0.00000000E+00  0.00000000E+00  0.00000000E+00
  0.00000000E+00  0.00000000E+00  0.00000000E+00
