Al   B    N                             
   1.00000000000000     
    -9.1752121943615208    0.0015305573182722   -0.0057013382190857
    -4.5730204849668734    7.9990249010799834   -0.0013983751088730
    -0.0197457475861891    0.1025919130171177   -9.9348230586165229
   Al   B    N 
    31     5    36
Direct
  0.1103218116696212  0.0963112739710894  0.3996215610896101
  0.2154529825158420  0.2045570797712983  0.1494163798116901
  0.8880762254935206  0.1901597584784085  0.6477927537860637
  0.4440787673087243  0.0880194714722222  0.3896390511970012
  0.5576130960886303  0.2064566665530023  0.1455896974693260
  0.0979511408279521  0.0911256816346864  0.9044016226733689
  0.2246542875223199  0.2007529244163564  0.6516555272864437
  0.7861365011638952  0.0926541478482648  0.3472766117274944
  0.4508774271683578  0.0901420471678946  0.9068183163491668
  0.5669962363693060  0.1931679547662668  0.6051311106384958
  0.1088933115274315  0.4277427553311384  0.3974213139689340
  0.2193689324143051  0.5412809597499972  0.1500911823380804
  0.7791740465052612  0.4094325603187698  0.9028658914395393
  0.8923129705825801  0.5355208820717081  0.6550175048155893
  0.4415369563955096  0.4335958995221318  0.3981040198174810
  0.5600997227968350  0.5381909492855641  0.1497290569588046
  0.1071965653386542  0.4242400617122399  0.8988705628728084
  0.2153924303535035  0.5397721704784146  0.6492467970115996
  0.7800271712948827  0.4272248200628752  0.3962425078869671
  0.8811797402583537  0.5414956767989025  0.1394708802426194
  0.4458824229988210  0.4251166964085513  0.8988754841141997
  0.5593033580098563  0.5364869852180760  0.6526296333176589
  0.1072931323313853  0.7626355784471244  0.3945535282998947
  0.2191453131702801  0.8790592636080206  0.1514936631955663
  0.4482886544244593  0.7621525402892289  0.3964197295011189
  0.0971286872983157  0.7657483562951199  0.9003583603586449
  0.2206623579933407  0.8716757400756450  0.6506964055128961
  0.7786872942880478  0.7624501870618019  0.3880117679530386
  0.8843739534464845  0.8834037429088184  0.1300576622312946
  0.4528174752211385  0.7612837690378811  0.9053704184887934
  0.5734174711208979  0.8693954508237525  0.6556229888800544
  0.7657461697223198  0.0891983018947045  0.8696783092295775
  0.8870936900750834  0.2105974710557632  0.1585132038119923
  0.7374519287504597  0.8255436259811120  0.9296406517083824
  0.8903637883113191  0.8700697476788974  0.5953722162976050
  0.5504208856541908  0.8744831948122496  0.1502556298531559
  0.2214485533971597  0.2064669965653465  0.3384316685903244
  0.0829326464072366  0.1081946058865100  0.0964432526418832
  0.8695846377365228  0.1777250573307185  0.8406341688613352
  0.7992298657463976  0.0566964271343338  0.5799636594691933
  0.5516550964748674  0.2090379933890034  0.3517722457749315
  0.4527903217791263  0.0726617353370642  0.1003047512143027
  0.2272724948782994  0.1945403820962852  0.8445132975443101
  0.1103146755621012  0.0928103057068341  0.5907618097391136
  0.8972432922111864  0.2138954549357379  0.3248620908639239
  0.7872521296966966  0.1155547868934619  0.1377299918669266
  0.5781582952982802  0.1927728830640589  0.8575032283982864
  0.4459518273268017  0.0847172760791111  0.5846225669819418
  0.2205497777746857  0.5408756199090803  0.3408005226310777
  0.1098666555329757  0.4290254909128066  0.0892964627655743
  0.8916043199173984  0.5160351467225013  0.8397805394791504
  0.7804941849755949  0.4189878541551977  0.5880449066244253
  0.5557748645126779  0.5409422687292533  0.3392954983885446
  0.4411662193528016  0.4312147210907824  0.0905592213605502
  0.2173950749098665  0.5401818758900774  0.8385982842635400
  0.1127476149195203  0.4225996974889412  0.5879442800811034
  0.8866896603636008  0.5423070488365909  0.3330106437215576
  0.7884042043098418  0.4029373580258664  0.0960679961714632
  0.5551357275817423  0.5400472752391323  0.8435803070640233
  0.4437685683234349  0.4285104629441108  0.5906483782759580
  0.2227817234377483  0.8731058877899898  0.3431556388215284
  0.1151574300722089  0.7610177176984223  0.0890246619219255
  0.8488833906287354  0.9010118789800643  0.8917478650990205
  0.7965863966984941  0.7698165178276284  0.5854283048969933
  0.5578941919785976  0.8704425847235981  0.3159441371983434
  0.4540688050887383  0.7762150937401273  0.0977158859256448
  0.2232619233889466  0.8687568617544983  0.8422094186571343
  0.0845442612083360  0.7728301455916409  0.5918629500810795
  0.8937029021163880  0.8635139461171448  0.3251530287774145
  0.7440627304721303  0.7821607738641347  0.0812118603525533
  0.5817000551879659  0.8653548276083143  0.8489634213453741
  0.4519819531250988  0.7615025776886668  0.5919493431265295
 
  0.00000000E+00  0.00000000E+00  0.00000000E+00
  0.00000000E+00  0.00000000E+00  0.00000000E+00
  0.00000000E+00  0.00000000E+00  0.00000000E+00
  0.00000000E+00  0.00000000E+00  0.00000000E+00
  0.00000000E+00  0.00000000E+00  0.00000000E+00
  0.00000000E+00  0.00000000E+00  0.00000000E+00
  0.00000000E+00  0.00000000E+00  0.00000000E+00
  0.00000000E+00  0.00000000E+00  0.00000000E+00
  0.00000000E+00  0.00000000E+00  0.00000000E+00
  0.00000000E+00  0.00000000E+00  0.00000000E+00
  0.00000000E+00  0.00000000E+00  0.00000000E+00
  0.00000000E+00  0.00000000E+00  0.00000000E+00
  0.00000000E+00  0.00000000E+00  0.00000000E+00
  0.00000000E+00  0.00000000E+00  0.00000000E+00
  0.00000000E+00  0.00000000E+00  0.00000000E+00
  0.00000000E+00  0.00000000E+00  0.00000000E+00
  0.00000000E+00  0.00000000E+00  0.00000000E+00
  0.00000000E+00  0.00000000E+00  0.00000000E+00
  0.00000000E+00  0.00000000E+00  0.00000000E+00
  0.00000000E+00  0.00000000E+00  0.00000000E+00
  0.00000000E+00  0.00000000E+00  0.00000000E+00
  0.00000000E+00  0.00000000E+00  0.00000000E+00
  0.00000000E+00  0.00000000E+00  0.00000000E+00
  0.00000000E+00  0.00000000E+00  0.00000000E+00
  0.00000000E+00  0.00000000E+00  0.00000000E+00
  0.00000000E+00  0.00000000E+00  0.00000000E+00
  0.00000000E+00  0.00000000E+00  0.00000000E+00
  0.00000000E+00  0.00000000E+00  0.00000000E+00
  0.00000000E+00  0.00000000E+00  0.00000000E+00
  0.00000000E+00  0.00000000E+00  0.00000000E+00
  0.00000000E+00  0.00000000E+00  0.00000000E+00
  0.00000000E+00  0.00000000E+00  0.00000000E+00
  0.00000000E+00  0.00000000E+00  0.00000000E+00
  0.00000000E+00  0.00000000E+00  0.00000000E+00
  0.00000000E+00  0.00000000E+00  0.00000000E+00
  0.00000000E+00  0.00000000E+00  0.00000000E+00
  0.00000000E+00  0.00000000E+00  0.00000000E+00
  0.00000000E+00  0.00000000E+00  0.00000000E+00
  0.00000000E+00  0.00000000E+00  0.00000000E+00
  0.00000000E+00  0.00000000E+00  0.00000000E+00
  0.00000000E+00  0.00000000E+00  0.00000000E+00
  0.00000000E+00  0.00000000E+00  0.00000000E+00
  0.00000000E+00  0.00000000E+00  0.00000000E+00
  0.00000000E+00  0.00000000E+00  0.00000000E+00
  0.00000000E+00  0.00000000E+00  0.00000000E+00
  0.00000000E+00  0.00000000E+00  0.00000000E+00
  0.00000000E+00  0.00000000E+00  0.00000000E+00
  0.00000000E+00  0.00000000E+00  0.00000000E+00
  0.00000000E+00  0.00000000E+00  0.00000000E+00
  0.00000000E+00  0.00000000E+00  0.00000000E+00
  0.00000000E+00  0.00000000E+00  0.00000000E+00
  0.00000000E+00  0.00000000E+00  0.00000000E+00
  0.00000000E+00  0.00000000E+00  0.00000000E+00
  0.00000000E+00  0.00000000E+00  0.00000000E+00
  0.00000000E+00  0.00000000E+00  0.00000000E+00
  0.00000000E+00  0.00000000E+00  0.00000000E+00
  0.00000000E+00  0.00000000E+00  0.00000000E+00
  0.00000000E+00  0.00000000E+00  0.00000000E+00
  0.00000000E+00  0.00000000E+00  0.00000000E+00
  0.00000000E+00  0.00000000E+00  0.00000000E+00
  0.00000000E+00  0.00000000E+00  0.00000000E+00
  0.00000000E+00  0.00000000E+00  0.00000000E+00
  0.00000000E+00  0.00000000E+00  0.00000000E+00
  0.00000000E+00  0.00000000E+00  0.00000000E+00
  0.00000000E+00  0.00000000E+00  0.00000000E+00
  0.00000000E+00  0.00000000E+00  0.00000000E+00
  0.00000000E+00  0.00000000E+00  0.00000000E+00
  0.00000000E+00  0.00000000E+00  0.00000000E+00
  0.00000000E+00  0.00000000E+00  0.00000000E+00
  0.00000000E+00  0.00000000E+00  0.00000000E+00
  0.00000000E+00  0.00000000E+00  0.00000000E+00
  0.00000000E+00  0.00000000E+00  0.00000000E+00
