Al   B    N                             
   1.00000000000000     
    -9.2100656215903740    0.0266831301255802   -0.0391451944995492
    -4.5829448216691508    7.9652707526623523   -0.0074077490158960
    -0.0695536520592623   -0.0045168664302872   -9.8930535797152110
   Al   B    N 
    31     5    36
Direct
  0.1119142251293752  0.0877485283980661  0.3878939959243368
  0.2223212452604102  0.2048748633512716  0.0637073941085262
  0.8860333685395076  0.1979340621535286  0.5980324485261903
  0.4487821603700795  0.0889037637970205  0.3061918176284379
  0.5700647957054912  0.2009302471646350  0.0556001841337448
  0.0901484501462662  0.0947404512595682  0.8758215081185412
  0.2293150337312895  0.2077971519171271  0.5651136221332465
  0.7818339254453832  0.0929553126737588  0.3239593192811085
  0.4541212431836144  0.0871718444353462  0.8190016061189453
  0.5601697859699399  0.1978701523633433  0.5646750147646102
  0.1101589616586622  0.4287739164798268  0.3123902344020664
  0.2212397854502868  0.5392458528868715  0.0603554747056947
  0.7758748271398375  0.4270166737376684  0.8090384965653783
  0.8874666066894505  0.5484589040547547  0.5682448895884207
  0.4445956295843061  0.4268242979582055  0.3125344731568234
  0.5630474935863248  0.5340984591774003  0.0638940661724874
  0.1073167457175330  0.4295423395445326  0.8119426960714264
  0.2170584930114359  0.5453662977172158  0.5630854446354476
  0.7835846634847528  0.4213052900930592  0.3199141355435202
  0.8835575064067740  0.5439257253206620  0.0590982360004659
  0.4517426838348655  0.4223405246848486  0.8103476502227807
  0.5557494069191975  0.5421186754116860  0.5595119101801771
  0.1016542124258635  0.7627426507471995  0.3194910619571729
  0.2154122693109102  0.8811199677021193  0.1190405848987339
  0.4539952859846252  0.7632831280942725  0.3065074076767260
  0.0921158489079872  0.7608754344883479  0.8147149973010102
  0.2187199182887980  0.8744543361933026  0.6385280132513529
  0.7743773123565347  0.7667897723552031  0.3156016062145426
  0.8784045529235769  0.8826595493701532  0.0554422675673436
  0.4571371727711266  0.7572830222697533  0.8263535753227274
  0.5612394418374862  0.8725558089944485  0.5704369710086468
  0.7741895293350680  0.0839307196945001  0.7973994542708951
  0.8881185914292899  0.2057628222765118  0.1027297572131047
  0.7746343421772721  0.7744794209075110  0.8130699819309939
  0.8828985890583425  0.8728271011310156  0.5764021382256885
  0.5673505866137489  0.8679754045408714  0.0557875557877736
  0.2270738125986327  0.2064209437616640  0.3670815135056174
  0.0743933845207820  0.1119998324985190  0.0769862531382515
  0.8720657952852235  0.1874877094154996  0.8178507239966137
  0.7828154382696937  0.0622618508432069  0.6317780793830678
  0.5552768988200611  0.2031085931447834  0.3714092311036481
  0.4613060271734000  0.0696280671053842  0.1089122119874659
  0.2210111805354842  0.2037341388379943  0.8717900497952655
  0.1190943489816405  0.0883472822213989  0.5811486286461189
  0.8810477572675666  0.2072940510808223  0.3878272110906238
  0.7941110498460731  0.1081401141742475  0.1251280581049912
  0.5824602783782993  0.1909700340530804  0.8620879797285426
  0.4451786634981616  0.0937579672293509  0.6291202490859149
  0.2217488366647515  0.5398850353164661  0.3725717084779490
  0.1080141190794919  0.4291623353336220  0.1210334371955639
  0.8765444664484789  0.5643153476714673  0.8663629514540574
  0.7752956885117896  0.4356333347794674  0.6197259402110191
  0.5548764582947996  0.5417520436784642  0.3664006960592374
  0.4445691909402498  0.4256715247431515  0.1202089032095230
  0.2243468864669040  0.5353039262328778  0.8700393031160729
  0.1107811821953248  0.4290895051135735  0.6223832359495916
  0.8869956160056347  0.5433359244432978  0.3731237186213434
  0.7947468592451159  0.3982688201636577  0.1197559759010218
  0.5586521818637991  0.5337163455139446  0.8764977608978057
  0.4453687532190429  0.4280822791087218  0.6190973717479835
  0.2218708940641179  0.8754914857945337  0.3163236818317117
  0.0981248795941241  0.7612266281199851  0.1198765406637463
  0.8609963978470887  0.8845095989849270  0.8638666353776827
  0.7859625309838449  0.7740992458872356  0.6414408522752666
  0.5557509238353546  0.8734125022876711  0.3801587016805144
  0.4644871340379808  0.7725002698276455  0.1076118682877905
  0.2197438450558664  0.8678340168153440  0.8395203592746796
  0.0815767701038723  0.7733151933640485  0.6197749345087189
  0.8838459309476292  0.8725529098864087  0.3993845591858189
  0.7544371336434210  0.7767352371725522  0.1198757960396009
  0.5829752397594916  0.8602745446851614  0.8839595772106534
  0.4523250148865188  0.7584171376317386  0.6301712220925424
 
  0.00000000E+00  0.00000000E+00  0.00000000E+00
  0.00000000E+00  0.00000000E+00  0.00000000E+00
  0.00000000E+00  0.00000000E+00  0.00000000E+00
  0.00000000E+00  0.00000000E+00  0.00000000E+00
  0.00000000E+00  0.00000000E+00  0.00000000E+00
  0.00000000E+00  0.00000000E+00  0.00000000E+00
  0.00000000E+00  0.00000000E+00  0.00000000E+00
  0.00000000E+00  0.00000000E+00  0.00000000E+00
  0.00000000E+00  0.00000000E+00  0.00000000E+00
  0.00000000E+00  0.00000000E+00  0.00000000E+00
  0.00000000E+00  0.00000000E+00  0.00000000E+00
  0.00000000E+00  0.00000000E+00  0.00000000E+00
  0.00000000E+00  0.00000000E+00  0.00000000E+00
  0.00000000E+00  0.00000000E+00  0.00000000E+00
  0.00000000E+00  0.00000000E+00  0.00000000E+00
  0.00000000E+00  0.00000000E+00  0.00000000E+00
  0.00000000E+00  0.00000000E+00  0.00000000E+00
  0.00000000E+00  0.00000000E+00  0.00000000E+00
  0.00000000E+00  0.00000000E+00  0.00000000E+00
  0.00000000E+00  0.00000000E+00  0.00000000E+00
  0.00000000E+00  0.00000000E+00  0.00000000E+00
  0.00000000E+00  0.00000000E+00  0.00000000E+00
  0.00000000E+00  0.00000000E+00  0.00000000E+00
  0.00000000E+00  0.00000000E+00  0.00000000E+00
  0.00000000E+00  0.00000000E+00  0.00000000E+00
  0.00000000E+00  0.00000000E+00  0.00000000E+00
  0.00000000E+00  0.00000000E+00  0.00000000E+00
  0.00000000E+00  0.00000000E+00  0.00000000E+00
  0.00000000E+00  0.00000000E+00  0.00000000E+00
  0.00000000E+00  0.00000000E+00  0.00000000E+00
  0.00000000E+00  0.00000000E+00  0.00000000E+00
  0.00000000E+00  0.00000000E+00  0.00000000E+00
  0.00000000E+00  0.00000000E+00  0.00000000E+00
  0.00000000E+00  0.00000000E+00  0.00000000E+00
  0.00000000E+00  0.00000000E+00  0.00000000E+00
  0.00000000E+00  0.00000000E+00  0.00000000E+00
  0.00000000E+00  0.00000000E+00  0.00000000E+00
  0.00000000E+00  0.00000000E+00  0.00000000E+00
  0.00000000E+00  0.00000000E+00  0.00000000E+00
  0.00000000E+00  0.00000000E+00  0.00000000E+00
  0.00000000E+00  0.00000000E+00  0.00000000E+00
  0.00000000E+00  0.00000000E+00  0.00000000E+00
  0.00000000E+00  0.00000000E+00  0.00000000E+00
  0.00000000E+00  0.00000000E+00  0.00000000E+00
  0.00000000E+00  0.00000000E+00  0.00000000E+00
  0.00000000E+00  0.00000000E+00  0.00000000E+00
  0.00000000E+00  0.00000000E+00  0.00000000E+00
  0.00000000E+00  0.00000000E+00  0.00000000E+00
  0.00000000E+00  0.00000000E+00  0.00000000E+00
  0.00000000E+00  0.00000000E+00  0.00000000E+00
  0.00000000E+00  0.00000000E+00  0.00000000E+00
  0.00000000E+00  0.00000000E+00  0.00000000E+00
  0.00000000E+00  0.00000000E+00  0.00000000E+00
  0.00000000E+00  0.00000000E+00  0.00000000E+00
  0.00000000E+00  0.00000000E+00  0.00000000E+00
  0.00000000E+00  0.00000000E+00  0.00000000E+00
  0.00000000E+00  0.00000000E+00  0.00000000E+00
  0.00000000E+00  0.00000000E+00  0.00000000E+00
  0.00000000E+00  0.00000000E+00  0.00000000E+00
  0.00000000E+00  0.00000000E+00  0.00000000E+00
  0.00000000E+00  0.00000000E+00  0.00000000E+00
  0.00000000E+00  0.00000000E+00  0.00000000E+00
  0.00000000E+00  0.00000000E+00  0.00000000E+00
  0.00000000E+00  0.00000000E+00  0.00000000E+00
  0.00000000E+00  0.00000000E+00  0.00000000E+00
  0.00000000E+00  0.00000000E+00  0.00000000E+00
  0.00000000E+00  0.00000000E+00  0.00000000E+00
  0.00000000E+00  0.00000000E+00  0.00000000E+00
  0.00000000E+00  0.00000000E+00  0.00000000E+00
  0.00000000E+00  0.00000000E+00  0.00000000E+00
  0.00000000E+00  0.00000000E+00  0.00000000E+00
  0.00000000E+00  0.00000000E+00  0.00000000E+00
