Al   B    N                             
   1.00000000000000     
    -9.1712063420771326    0.0094872685512831   -0.0241202290896189
    -4.5648757762051622    7.9298855052953190   -0.0148283555861304
    -0.0671684067522895   -0.0766697141824033  -10.1887490702364030
   Al   B    N 
    31     5    36
Direct
  0.1154058341827664  0.0932966580024939  0.3970618361766114
  0.2119789761396760  0.2060029683703348  0.1322440524185922
  0.8875085295066967  0.1998519158780496  0.6146078024000161
  0.4547608752241743  0.0819586114008715  0.3138738015882154
  0.5731093687657065  0.1920748296889130  0.0565626120147087
  0.0973798930066110  0.0952133434460549  0.8836931220450523
  0.2136651503370857  0.2130595203343049  0.6451584895943867
  0.7811259340134313  0.1048646293967437  0.3148334108782933
  0.4613314864658022  0.0841325196884668  0.8142233465599560
  0.5626630311515228  0.1949509601582733  0.5664338608811263
  0.1112991013600890  0.4244995088410306  0.3895322398328673
  0.2200468015158421  0.5392057370416623  0.1387913385516626
  0.7799985577247384  0.4209368997071934  0.8807583803660606
  0.8884344081083526  0.5541297614919856  0.6427949867382097
  0.4450710625314400  0.4270669616739013  0.3599070493579148
  0.5622828234890278  0.5342094825458972  0.1335431032387930
  0.1032850980418161  0.4379868602157373  0.8925765813102160
  0.2152223801934596  0.5445846098502116  0.6372807400086344
  0.7766008647973237  0.4311730443263997  0.4004945073217812
  0.8800221742954051  0.5377545396797032  0.1415834318080087
  0.4489876478685062  0.4202227936455287  0.8511651298238405
  0.5555621249386817  0.5439400294238794  0.6460984083758277
  0.1019748187167551  0.7692810668920842  0.3883948674394517
  0.2167734560672017  0.8779871161154418  0.1378855811605177
  0.4392418357238270  0.7580165136472559  0.3920493607271140
  0.0985286398703522  0.7660862195549427  0.8891396970660423
  0.2150624395516800  0.8747238305682430  0.6462311803386527
  0.7830614396503606  0.7618479299018688  0.3797341075733343
  0.8831376499088250  0.8700110454407834  0.1276714087641295
  0.4544328808895344  0.7646818233707506  0.8884978634213709
  0.5564713706990574  0.8758902522180634  0.5842817962888702
  0.7757934135939450  0.0760928613708813  0.8026853724970522
  0.8870550069739807  0.2052694859772188  0.0937417066748480
  0.7726357034571691  0.7750798400857093  0.8467847542420017
  0.8874040661651605  0.8698939037996851  0.6089915837996571
  0.5605737928075598  0.8670523280408347  0.1010453104018580
  0.2189788430751776  0.2054899375008290  0.3201410554347106
  0.0788585327445261  0.1081827506009176  0.0772803159043960
  0.8768842066905762  0.1898249190653729  0.8183110397412747
  0.7845901231893890  0.0605619684870717  0.6397652715678461
  0.5601871869455692  0.1968804562190343  0.3771279533963821
  0.4643058057079514  0.0621842727297732  0.1181246682476242
  0.2139320878149888  0.2099436259670213  0.8362754084987642
  0.1206861769281957  0.0909132650795286  0.5834624753725421
  0.8851418718840520  0.2018738273551506  0.3938429934726457
  0.7929252636064064  0.1139564980127972  0.1229026686477752
  0.5876171356692055  0.1840728436268435  0.8675815010024621
  0.4430385960614345  0.1000331701533383  0.6296617343291331
  0.2172489505867361  0.5429890327120077  0.3294612115359641
  0.1049827527649896  0.4320375043407267  0.0780436020070354
  0.8761585356204336  0.5707887813965655  0.8330086163477119
  0.7758300180487581  0.4424621013352024  0.5883269845862316
  0.5613506233150503  0.5384278854015676  0.3224028668252430
  0.4448615178025364  0.4225848768834624  0.0912410745987629
  0.2173286640715659  0.5420017192688178  0.8247388884542488
  0.1092841131446889  0.4296063396479042  0.5766581650746545
  0.8898344450622702  0.5344070969096890  0.3285782073335923
  0.7935779660140199  0.3971927296551669  0.0739560187125790
  0.5570409336767028  0.5415118049029246  0.8332857436151926
  0.4474545417868825  0.4261155047866652  0.6018582911763986
  0.2207362340059689  0.8732661488758566  0.3251359756347441
  0.1112406493537819  0.7601379791096647  0.0751563726581210
  0.8638338663682532  0.8761401343164081  0.8484288478300641
  0.7994499042296823  0.7746571427151423  0.5746770004671049
  0.5525639588422706  0.8750814638990079  0.3888718562272970
  0.4555615450691093  0.7768552615338606  0.0804783588843421
  0.2244822347265156  0.8694286577763748  0.8328965732450442
  0.0799947133376904  0.7803346808826177  0.5819676244955971
  0.8904220714250854  0.8713931297213904  0.3166997688356616
  0.7429377943525424  0.7718207804681754  0.1079159022217269
  0.5888995089486428  0.8522813640336722  0.8293577452102241
  0.4339693995282943  0.7580129389585792  0.5803520448755251
 
  0.00000000E+00  0.00000000E+00  0.00000000E+00
  0.00000000E+00  0.00000000E+00  0.00000000E+00
  0.00000000E+00  0.00000000E+00  0.00000000E+00
  0.00000000E+00  0.00000000E+00  0.00000000E+00
  0.00000000E+00  0.00000000E+00  0.00000000E+00
  0.00000000E+00  0.00000000E+00  0.00000000E+00
  0.00000000E+00  0.00000000E+00  0.00000000E+00
  0.00000000E+00  0.00000000E+00  0.00000000E+00
  0.00000000E+00  0.00000000E+00  0.00000000E+00
  0.00000000E+00  0.00000000E+00  0.00000000E+00
  0.00000000E+00  0.00000000E+00  0.00000000E+00
  0.00000000E+00  0.00000000E+00  0.00000000E+00
  0.00000000E+00  0.00000000E+00  0.00000000E+00
  0.00000000E+00  0.00000000E+00  0.00000000E+00
  0.00000000E+00  0.00000000E+00  0.00000000E+00
  0.00000000E+00  0.00000000E+00  0.00000000E+00
  0.00000000E+00  0.00000000E+00  0.00000000E+00
  0.00000000E+00  0.00000000E+00  0.00000000E+00
  0.00000000E+00  0.00000000E+00  0.00000000E+00
  0.00000000E+00  0.00000000E+00  0.00000000E+00
  0.00000000E+00  0.00000000E+00  0.00000000E+00
  0.00000000E+00  0.00000000E+00  0.00000000E+00
  0.00000000E+00  0.00000000E+00  0.00000000E+00
  0.00000000E+00  0.00000000E+00  0.00000000E+00
  0.00000000E+00  0.00000000E+00  0.00000000E+00
  0.00000000E+00  0.00000000E+00  0.00000000E+00
  0.00000000E+00  0.00000000E+00  0.00000000E+00
  0.00000000E+00  0.00000000E+00  0.00000000E+00
  0.00000000E+00  0.00000000E+00  0.00000000E+00
  0.00000000E+00  0.00000000E+00  0.00000000E+00
  0.00000000E+00  0.00000000E+00  0.00000000E+00
  0.00000000E+00  0.00000000E+00  0.00000000E+00
  0.00000000E+00  0.00000000E+00  0.00000000E+00
  0.00000000E+00  0.00000000E+00  0.00000000E+00
  0.00000000E+00  0.00000000E+00  0.00000000E+00
  0.00000000E+00  0.00000000E+00  0.00000000E+00
  0.00000000E+00  0.00000000E+00  0.00000000E+00
  0.00000000E+00  0.00000000E+00  0.00000000E+00
  0.00000000E+00  0.00000000E+00  0.00000000E+00
  0.00000000E+00  0.00000000E+00  0.00000000E+00
  0.00000000E+00  0.00000000E+00  0.00000000E+00
  0.00000000E+00  0.00000000E+00  0.00000000E+00
  0.00000000E+00  0.00000000E+00  0.00000000E+00
  0.00000000E+00  0.00000000E+00  0.00000000E+00
  0.00000000E+00  0.00000000E+00  0.00000000E+00
  0.00000000E+00  0.00000000E+00  0.00000000E+00
  0.00000000E+00  0.00000000E+00  0.00000000E+00
  0.00000000E+00  0.00000000E+00  0.00000000E+00
  0.00000000E+00  0.00000000E+00  0.00000000E+00
  0.00000000E+00  0.00000000E+00  0.00000000E+00
  0.00000000E+00  0.00000000E+00  0.00000000E+00
  0.00000000E+00  0.00000000E+00  0.00000000E+00
  0.00000000E+00  0.00000000E+00  0.00000000E+00
  0.00000000E+00  0.00000000E+00  0.00000000E+00
  0.00000000E+00  0.00000000E+00  0.00000000E+00
  0.00000000E+00  0.00000000E+00  0.00000000E+00
  0.00000000E+00  0.00000000E+00  0.00000000E+00
  0.00000000E+00  0.00000000E+00  0.00000000E+00
  0.00000000E+00  0.00000000E+00  0.00000000E+00
  0.00000000E+00  0.00000000E+00  0.00000000E+00
  0.00000000E+00  0.00000000E+00  0.00000000E+00
  0.00000000E+00  0.00000000E+00  0.00000000E+00
  0.00000000E+00  0.00000000E+00  0.00000000E+00
  0.00000000E+00  0.00000000E+00  0.00000000E+00
  0.00000000E+00  0.00000000E+00  0.00000000E+00
  0.00000000E+00  0.00000000E+00  0.00000000E+00
  0.00000000E+00  0.00000000E+00  0.00000000E+00
  0.00000000E+00  0.00000000E+00  0.00000000E+00
  0.00000000E+00  0.00000000E+00  0.00000000E+00
  0.00000000E+00  0.00000000E+00  0.00000000E+00
  0.00000000E+00  0.00000000E+00  0.00000000E+00
  0.00000000E+00  0.00000000E+00  0.00000000E+00
