supercell of icsd_191774.cif            
   1.00000000000000     
    10.8731685307109984   -0.0096588236015657    0.0033387564016705
    -5.4449468334080455    9.4360369248229290    0.0068128638498867
     0.0035463216680122    0.0105860861725983   11.4932416180501455
   N    In   La
    36    30     6
Direct
  0.2228079534935219  0.1102923185825802  0.4347456800696250
  0.1102915500161004  0.2219173679952320  0.1919434014933614
  0.8902944433879227  0.1100736138889218  0.9381190304734730
  0.7817518570665882  0.2261686572720265  0.6934953474026528
  0.5665929273759858  0.1261631857939776  0.4380041372536141
  0.4447923037929726  0.2216278577745854  0.1939535314795933
  0.2236215741603687  0.1110123279032607  0.9402422613660519
  0.1011693478164091  0.1977057726730536  0.6837182011007670
  0.8874005918926287  0.1131848451730093  0.4364050504293502
  0.7685381178226862  0.2025657190750607  0.1807801621096488
  0.5638929633171159  0.1321452547528210  0.9358740079691259
  0.4377165171613768  0.2049637729197684  0.6801416055154590
  0.2191976502696278  0.4422144696443837  0.4456222639380911
  0.1288906069947444  0.5636097431437932  0.1872664580703969
  0.8892102238285133  0.4470194694751299  0.9464222889918688
  0.7837018554099870  0.5511446521555570  0.6838497842130238
  0.5555828198545214  0.4429114518093868  0.4409769629262712
  0.4430500139133713  0.5549223880024954  0.1972824955292509
  0.2242453298712235  0.4433831086662039  0.9484838855379394
  0.1045569307774201  0.5648431262288156  0.6878768291882977
  0.8881120201424508  0.4423454510995342  0.4463224610170897
  0.7707805820187303  0.5653869585572693  0.1938121017424805
  0.5547216819292373  0.4445295659859312  0.9568804402673834
  0.4527200394642961  0.5716260792892456  0.6793782566270465
  0.2073580114036560  0.7694294205661336  0.4356765285206308
  0.1107535909181294  0.8893679168083821  0.1930141796494595
  0.8901215922628083  0.7801013205131611  0.9502551134139878
  0.7661523033016948  0.9002403498301348  0.6807848887587511
  0.5625915725363200  0.7719895416441105  0.4341369924716147
  0.4445944486819897  0.8894959229614159  0.2037781960663594
  0.2040410684925575  0.7703762357578583  0.9396955312606821
  0.1277573982405542  0.8944415000852786  0.6805199540989548
  0.8887270350357994  0.7796285161470706  0.4441941529142355
  0.7786876285507134  0.8901687576307253  0.1922780618285884
  0.5658091834457082  0.7669652581133377  0.9410348422756201
  0.4443274840912537  0.8884789788275853  0.7163597814916969
  0.2220247429587516  0.1110138184556178  0.2474893486621141
  0.1074741317799521  0.2141963853343753  0.4943394234767808
  0.8851891275036721  0.1094103191646241  0.7475811227221314
  0.7796788808532042  0.2225023892406455  0.9933884998661782
  0.5566017500390501  0.1108031275419137  0.2500871972294192
  0.4438621353749923  0.2214466209930706  0.4926166427716439
  0.2240950355981610  0.1039468558150318  0.7471151249052497
  0.1112953584157594  0.2209863349333361  0.0020337980602605
  0.8866592930437989  0.1079666992390784  0.2473466051290174
  0.7817981773231324  0.2262632888377070  0.5033156946931214
  0.5582898669400009  0.1144229878250584  0.7489697445380585
  0.4451247880074760  0.2252744188325622  0.0054732750537951
  0.2240012806135567  0.4442641267160070  0.2517267180061040
  0.1049402691205685  0.5553956273159528  0.4994203664431609
  0.8887905835625602  0.4464714242239438  0.7511557709412315
  0.7766841825183661  0.5607646478937625  0.0057521553023463
  0.5528952147330415  0.4449936090062820  0.2499455149369467
  0.4482027799805977  0.5566093557345297  0.4921396386399337
  0.1125272836800661  0.5549945481542338  0.9997464143035941
  0.7788464913740611  0.5540295743272949  0.4966503114876133
  0.4445996766343612  0.5526007896689720  0.0091639262508281
  0.2222366487351621  0.7781617976800845  0.2488300981579599
  0.1119477248855816  0.8900542249755432  0.4931836576350221
  0.7817731565234709  0.8893813081352491  0.0041727923430273
  0.5574723746892971  0.7769720564657945  0.2485666866151348
  0.2181061610113133  0.7784587358615411  0.7515725691987640
  0.1076911746424614  0.8887355819490281  0.0043405751481558
  0.8879804214233502  0.7819128715700998  0.2517699697438047
  0.7775707084196029  0.8918800204723070  0.4935403686432380
  0.5581764974438954  0.7790093030853100  0.7516836016143955
  0.2160906473040782  0.4394554691724224  0.7408369181200385
  0.8882177545764520  0.4410080531668683  0.2414223843347472
  0.5520335689760500  0.4378322898586759  0.7497285193024510
  0.8923027116312525  0.7874145043973115  0.7425618462778729
  0.4442560486509066  0.8882399696885557  0.5013349244768648
  0.4460021322930956  0.8906859875199729  0.9914729275065213
 
  0.00000000E+00  0.00000000E+00  0.00000000E+00
  0.00000000E+00  0.00000000E+00  0.00000000E+00
  0.00000000E+00  0.00000000E+00  0.00000000E+00
  0.00000000E+00  0.00000000E+00  0.00000000E+00
  0.00000000E+00  0.00000000E+00  0.00000000E+00
  0.00000000E+00  0.00000000E+00  0.00000000E+00
  0.00000000E+00  0.00000000E+00  0.00000000E+00
  0.00000000E+00  0.00000000E+00  0.00000000E+00
  0.00000000E+00  0.00000000E+00  0.00000000E+00
  0.00000000E+00  0.00000000E+00  0.00000000E+00
  0.00000000E+00  0.00000000E+00  0.00000000E+00
  0.00000000E+00  0.00000000E+00  0.00000000E+00
  0.00000000E+00  0.00000000E+00  0.00000000E+00
  0.00000000E+00  0.00000000E+00  0.00000000E+00
  0.00000000E+00  0.00000000E+00  0.00000000E+00
  0.00000000E+00  0.00000000E+00  0.00000000E+00
  0.00000000E+00  0.00000000E+00  0.00000000E+00
  0.00000000E+00  0.00000000E+00  0.00000000E+00
  0.00000000E+00  0.00000000E+00  0.00000000E+00
  0.00000000E+00  0.00000000E+00  0.00000000E+00
  0.00000000E+00  0.00000000E+00  0.00000000E+00
  0.00000000E+00  0.00000000E+00  0.00000000E+00
  0.00000000E+00  0.00000000E+00  0.00000000E+00
  0.00000000E+00  0.00000000E+00  0.00000000E+00
  0.00000000E+00  0.00000000E+00  0.00000000E+00
  0.00000000E+00  0.00000000E+00  0.00000000E+00
  0.00000000E+00  0.00000000E+00  0.00000000E+00
  0.00000000E+00  0.00000000E+00  0.00000000E+00
  0.00000000E+00  0.00000000E+00  0.00000000E+00
  0.00000000E+00  0.00000000E+00  0.00000000E+00
  0.00000000E+00  0.00000000E+00  0.00000000E+00
  0.00000000E+00  0.00000000E+00  0.00000000E+00
  0.00000000E+00  0.00000000E+00  0.00000000E+00
  0.00000000E+00  0.00000000E+00  0.00000000E+00
  0.00000000E+00  0.00000000E+00  0.00000000E+00
  0.00000000E+00  0.00000000E+00  0.00000000E+00
  0.00000000E+00  0.00000000E+00  0.00000000E+00
  0.00000000E+00  0.00000000E+00  0.00000000E+00
  0.00000000E+00  0.00000000E+00  0.00000000E+00
  0.00000000E+00  0.00000000E+00  0.00000000E+00
  0.00000000E+00  0.00000000E+00  0.00000000E+00
  0.00000000E+00  0.00000000E+00  0.00000000E+00
  0.00000000E+00  0.00000000E+00  0.00000000E+00
  0.00000000E+00  0.00000000E+00  0.00000000E+00
  0.00000000E+00  0.00000000E+00  0.00000000E+00
  0.00000000E+00  0.00000000E+00  0.00000000E+00
  0.00000000E+00  0.00000000E+00  0.00000000E+00
  0.00000000E+00  0.00000000E+00  0.00000000E+00
  0.00000000E+00  0.00000000E+00  0.00000000E+00
  0.00000000E+00  0.00000000E+00  0.00000000E+00
  0.00000000E+00  0.00000000E+00  0.00000000E+00
  0.00000000E+00  0.00000000E+00  0.00000000E+00
  0.00000000E+00  0.00000000E+00  0.00000000E+00
  0.00000000E+00  0.00000000E+00  0.00000000E+00
  0.00000000E+00  0.00000000E+00  0.00000000E+00
  0.00000000E+00  0.00000000E+00  0.00000000E+00
  0.00000000E+00  0.00000000E+00  0.00000000E+00
  0.00000000E+00  0.00000000E+00  0.00000000E+00
  0.00000000E+00  0.00000000E+00  0.00000000E+00
  0.00000000E+00  0.00000000E+00  0.00000000E+00
  0.00000000E+00  0.00000000E+00  0.00000000E+00
  0.00000000E+00  0.00000000E+00  0.00000000E+00
  0.00000000E+00  0.00000000E+00  0.00000000E+00
  0.00000000E+00  0.00000000E+00  0.00000000E+00
  0.00000000E+00  0.00000000E+00  0.00000000E+00
  0.00000000E+00  0.00000000E+00  0.00000000E+00
  0.00000000E+00  0.00000000E+00  0.00000000E+00
  0.00000000E+00  0.00000000E+00  0.00000000E+00
  0.00000000E+00  0.00000000E+00  0.00000000E+00
  0.00000000E+00  0.00000000E+00  0.00000000E+00
  0.00000000E+00  0.00000000E+00  0.00000000E+00
  0.00000000E+00  0.00000000E+00  0.00000000E+00
