supercell of icsd_181358.cif            
   1.00000000000000     
     9.1533531542113256    0.0340828677881520    0.0586585378905545
    -4.5467079093502321    8.0469526278839627    0.0670554768024995
     0.0627081103404455    0.1218012443704762    9.8870642115279779
   N    Ga   B 
    36    28     8
Direct
  0.2075109931956050  0.0738837030725108  0.4544605323128721
  0.1073441950546794  0.2194290576929063  0.2007848738950528
  0.8939702033513797  0.1098798350508616  0.9453069658017270
  0.7891265227617907  0.2370141099079035  0.7049200870087233
  0.5544789816169171  0.1122054641315344  0.4397911543674979
  0.4416633307120819  0.2243605558439370  0.1858772949819780
  0.2327384813109248  0.1273608357745744  0.9150911663286223
  0.1413246640619263  0.2195596839461444  0.7036091754798051
  0.8779306118955361  0.0752337306485913  0.4621707399709223
  0.7787806872853764  0.2205765145557663  0.1917239330919003
  0.5404955458089020  0.0782895426883101  0.9504814512590016
  0.4301276034723784  0.2322435127138007  0.7096348132756845
  0.2138112223309250  0.4356614087700592  0.4502273178430301
  0.1072238475006912  0.5565565853261418  0.1873184745888636
  0.8862433556166138  0.4385747560898210  0.9158475463948150
  0.7459914536319729  0.4943605841092378  0.7074523004268229
  0.5563568391052627  0.4425406197773682  0.4369279505535673
  0.4545482565144354  0.5809959192949776  0.1888902765227201
  0.2256035442261251  0.4474611396020833  0.9410525252862669
  0.0786783259866084  0.5358644557926979  0.7008266112570070
  0.8801509293213385  0.4395924649224483  0.4393256075381586
  0.7813958667594747  0.5647728828437479  0.1710138770802985
  0.5569023062883787  0.4486512389512001  0.9150481350249180
  0.4758119973392141  0.5520851190044809  0.6928769277413309
  0.1905265525331998  0.7873044811399339  0.4468811510103805
  0.1020075733334309  0.8916065437129035  0.1773849248653718
  0.9029310721070800  0.7978367691855368  0.8976271541467824
  0.8174229150153423  0.8935328759499725  0.6765929436914959
  0.5140583732045272  0.7630633824606363  0.3948341870446370
  0.4499124817617997  0.8734784902487505  0.1673672531910242
  0.2535527793147878  0.7955506811044586  0.9424327833471224
  0.0769817088987210  0.8587684214057631  0.6700407658772036
  0.9001308442567151  0.8016239293361878  0.4584464956505983
  0.7410547125679230  0.8688800076882757  0.1961448844427878
  0.5469129142613198  0.7969779107787431  0.9367734348819425
  0.4453888089512077  0.8835085551841289  0.6786997914894997
  0.2181212065382852  0.1018286090878107  0.2591965790754429
  0.1148210625933785  0.2257178937263973  0.0069227633029882
  0.9065762247136249  0.1193172684287589  0.7556202282956406
  0.7741526732608506  0.2166147712815985  0.5099037146700169
  0.5501352762230312  0.0995054757082769  0.2435484108637809
  0.4497736712274261  0.2237043979885769  0.9933353982357076
  0.1173785667910749  0.2110855940661409  0.5094321566684243
  0.8736728920534205  0.0920339743123222  0.2610121408093917
  0.7738306699098771  0.2175144877834967  0.9983289718674939
  0.5477813570965324  0.1048582249287691  0.7562339405993797
  0.4376225358320056  0.2186392975050140  0.5110778183621747
  0.2246117818151632  0.4503251057772388  0.2545890841751159
  0.1125508421810935  0.5618575849056811  0.9934732015977872
  0.7735623373948570  0.5543580356625384  0.5220487364766413
  0.5581776943714516  0.4519280283940788  0.2448061085377589
  0.4493816589976873  0.5677544030106958  0.9959350168633350
  0.2324544293777819  0.4516004815720578  0.7487599957057256
  0.0983507512530650  0.5558033311612078  0.5063315111387112
  0.8818898258203234  0.4439926312633986  0.2480059798909835
  0.7850807219022187  0.5668363744090854  0.9691503221809086
  0.4523915489209642  0.5652390553163471  0.4929814283476972
  0.2195208743498895  0.7792235335530364  0.2455272219434406
  0.1218235552814164  0.8998867725894399  0.9841847847605507
  0.2121218336682773  0.7734356394610629  0.7461875775087350
  0.8779253922312051  0.7775196662773141  0.2576778092259815
  0.7697988279416990  0.8864381479216235  0.0019730964775704
  0.5707102181721311  0.7801180465881430  0.7436797969082392
  0.4322191543781102  0.8833142605384836  0.4867375521266837
  0.2601129334388688  0.1760262275295403  0.7697184537245505
  0.8688506600088317  0.4289237790080733  0.7561981827549360
  0.5686000883219009  0.4460057690913644  0.7564193811262641
  0.9312153206351184  0.8357725356421426  0.7455037664829263
  0.8479429884402805  0.9152791815772048  0.5244095633330090
  0.5388970521880552  0.7696164675948438  0.2422923997218902
  0.4476070361005569  0.8865499774940275  0.9991671194172937
  0.1012458352150034  0.8820892001377842  0.5097442791524358
 
  0.00000000E+00  0.00000000E+00  0.00000000E+00
  0.00000000E+00  0.00000000E+00  0.00000000E+00
  0.00000000E+00  0.00000000E+00  0.00000000E+00
  0.00000000E+00  0.00000000E+00  0.00000000E+00
  0.00000000E+00  0.00000000E+00  0.00000000E+00
  0.00000000E+00  0.00000000E+00  0.00000000E+00
  0.00000000E+00  0.00000000E+00  0.00000000E+00
  0.00000000E+00  0.00000000E+00  0.00000000E+00
  0.00000000E+00  0.00000000E+00  0.00000000E+00
  0.00000000E+00  0.00000000E+00  0.00000000E+00
  0.00000000E+00  0.00000000E+00  0.00000000E+00
  0.00000000E+00  0.00000000E+00  0.00000000E+00
  0.00000000E+00  0.00000000E+00  0.00000000E+00
  0.00000000E+00  0.00000000E+00  0.00000000E+00
  0.00000000E+00  0.00000000E+00  0.00000000E+00
  0.00000000E+00  0.00000000E+00  0.00000000E+00
  0.00000000E+00  0.00000000E+00  0.00000000E+00
  0.00000000E+00  0.00000000E+00  0.00000000E+00
  0.00000000E+00  0.00000000E+00  0.00000000E+00
  0.00000000E+00  0.00000000E+00  0.00000000E+00
  0.00000000E+00  0.00000000E+00  0.00000000E+00
  0.00000000E+00  0.00000000E+00  0.00000000E+00
  0.00000000E+00  0.00000000E+00  0.00000000E+00
  0.00000000E+00  0.00000000E+00  0.00000000E+00
  0.00000000E+00  0.00000000E+00  0.00000000E+00
  0.00000000E+00  0.00000000E+00  0.00000000E+00
  0.00000000E+00  0.00000000E+00  0.00000000E+00
  0.00000000E+00  0.00000000E+00  0.00000000E+00
  0.00000000E+00  0.00000000E+00  0.00000000E+00
  0.00000000E+00  0.00000000E+00  0.00000000E+00
  0.00000000E+00  0.00000000E+00  0.00000000E+00
  0.00000000E+00  0.00000000E+00  0.00000000E+00
  0.00000000E+00  0.00000000E+00  0.00000000E+00
  0.00000000E+00  0.00000000E+00  0.00000000E+00
  0.00000000E+00  0.00000000E+00  0.00000000E+00
  0.00000000E+00  0.00000000E+00  0.00000000E+00
  0.00000000E+00  0.00000000E+00  0.00000000E+00
  0.00000000E+00  0.00000000E+00  0.00000000E+00
  0.00000000E+00  0.00000000E+00  0.00000000E+00
  0.00000000E+00  0.00000000E+00  0.00000000E+00
  0.00000000E+00  0.00000000E+00  0.00000000E+00
  0.00000000E+00  0.00000000E+00  0.00000000E+00
  0.00000000E+00  0.00000000E+00  0.00000000E+00
  0.00000000E+00  0.00000000E+00  0.00000000E+00
  0.00000000E+00  0.00000000E+00  0.00000000E+00
  0.00000000E+00  0.00000000E+00  0.00000000E+00
  0.00000000E+00  0.00000000E+00  0.00000000E+00
  0.00000000E+00  0.00000000E+00  0.00000000E+00
  0.00000000E+00  0.00000000E+00  0.00000000E+00
  0.00000000E+00  0.00000000E+00  0.00000000E+00
  0.00000000E+00  0.00000000E+00  0.00000000E+00
  0.00000000E+00  0.00000000E+00  0.00000000E+00
  0.00000000E+00  0.00000000E+00  0.00000000E+00
  0.00000000E+00  0.00000000E+00  0.00000000E+00
  0.00000000E+00  0.00000000E+00  0.00000000E+00
  0.00000000E+00  0.00000000E+00  0.00000000E+00
  0.00000000E+00  0.00000000E+00  0.00000000E+00
  0.00000000E+00  0.00000000E+00  0.00000000E+00
  0.00000000E+00  0.00000000E+00  0.00000000E+00
  0.00000000E+00  0.00000000E+00  0.00000000E+00
  0.00000000E+00  0.00000000E+00  0.00000000E+00
  0.00000000E+00  0.00000000E+00  0.00000000E+00
  0.00000000E+00  0.00000000E+00  0.00000000E+00
  0.00000000E+00  0.00000000E+00  0.00000000E+00
  0.00000000E+00  0.00000000E+00  0.00000000E+00
  0.00000000E+00  0.00000000E+00  0.00000000E+00
  0.00000000E+00  0.00000000E+00  0.00000000E+00
  0.00000000E+00  0.00000000E+00  0.00000000E+00
  0.00000000E+00  0.00000000E+00  0.00000000E+00
  0.00000000E+00  0.00000000E+00  0.00000000E+00
  0.00000000E+00  0.00000000E+00  0.00000000E+00
  0.00000000E+00  0.00000000E+00  0.00000000E+00
