Al   Gd   N                             
   1.00000000000000     
    -9.4932312411498927    0.0000006419678204    0.0000003128746016
    -4.7466149600363048    8.2420498981377719   -0.0046041081056730
    -0.0000003513546233    0.0126564032639875  -10.1433262570117257
   Al   Gd   N 
    34     2    36
Direct
  0.1109604448712176  0.0947457889796937  0.3180181755551459
  0.2218570031630236  0.2011647979630382  0.0704770966552317
  0.7782962488970995  0.0938968106339431  0.8196612384601778
  0.8906381613703829  0.2024572977466050  0.5684042632201951
  0.4453968135229900  0.0939293502269436  0.3184993488079755
  0.5593021259400075  0.1980624036853627  0.0694849510567010
  0.1111924505510871  0.0942817607702437  0.8197960941587326
  0.2235712030592936  0.2024573064083484  0.5684042662583551
  0.7773405037334982  0.0939293454831400  0.3184993450456517
  0.8936448727217297  0.2011647984095788  0.0704770999829023
  0.4444735891132154  0.0938968129218907  0.8196612359625135
  0.5582245237950971  0.2002176145982375  0.5679309871009082
  0.1089758382354589  0.4241653204982470  0.3246439724292998
  0.7815146675398381  0.4246064523122683  0.8095405488261136
  0.8882546052391618  0.5401574836221243  0.5671846871552546
  0.4474012915294452  0.4218640957798030  0.3308005748398202
  0.1105455551118339  0.4246064726434469  0.8095405516582517
  0.2196474539635247  0.5400115948739952  0.5677701759031137
  0.7835255345166203  0.4241653137358270  0.3246439725690209
  0.8920404444486749  0.5325857743597453  0.0709887038472843
  0.4462629820781956  0.4241407057113946  0.8008447950046005
  0.5570076428533923  0.5400115906093106  0.5677701789838139
  0.1065978531841196  0.7695565999466467  0.3249830146879376
  0.2160385621941145  0.8845895549076275  0.0711591873677335
  0.7784883728552501  0.7596899183950896  0.8202824771943895
  0.8861170874552471  0.8736608758813063  0.5684867455037477
  0.4405122284317073  0.7695565977360630  0.3249830154425908
  0.5534456392225309  0.8781048898211523  0.0700292445597910
  0.1100059530269490  0.7635785148327798  0.8096878865249693
  0.2204277075993915  0.8758112736379715  0.5678770752727544
  0.7778314476329271  0.7610037693758542  0.3193089953949482
  0.8851161585234451  0.8781048957285691  0.0700292394551312
  0.4430822167345951  0.7635785052328572  0.8096878879778231
  0.5568887093939594  0.8736608755024662  0.5684867488991614
  0.2167001576262706  0.5416119131067916  0.0688516451194658
  0.5583545985885294  0.5416119239694765  0.0688516422031782
  0.2245436992911891  0.2019136909735906  0.3799622317150764
  0.1097229394964430  0.0972207987785154  0.1284943093438500
  0.8884305838027444  0.2059852540532177  0.8784796354198363
  0.7783810906157669  0.0936367507363727  0.6303422810539061
  0.5589170821189171  0.1988325083377518  0.3818639629974356
  0.4446626511835419  0.0949716754251781  0.1274663426908376
  0.2222508199223157  0.2059852685168337  0.8784796338726935
  0.1110310324400317  0.0946046001040628  0.6306123494583176
  0.8902092988044572  0.2019136781408335  0.3799622276088002
  0.7770323400726298  0.0949716714151947  0.1274663405605736
  0.5547649316850141  0.2071367917907310  0.8769527841644660
  0.4446488160155724  0.0936367550503476  0.6303422786540196
  0.2184960738468362  0.5417533995040671  0.3750492839406974
  0.1009102139080227  0.4109090105937412  0.1392417014839609
  0.8902194790333127  0.5362277320832263  0.8780276699267162
  0.7817554470867165  0.4249727172284992  0.6216313987365254
  0.5564172199892710  0.5417534026734430  0.3750492861037102
  0.4590106314343956  0.3986454180420722  0.1481936047487622
  0.2233698994782998  0.5375927161639709  0.8464710171260066
  0.1099385198531380  0.4249727244585344  0.6216314004426877
  0.8875340644464416  0.5415985558694629  0.3805798456404119
  0.8048474472625244  0.4109090117704213  0.1392416961447864
  0.5557040725391573  0.5375927041342834  0.8464710122112464
  0.4462113629422220  0.4242439559515816  0.6135037771235190
  0.2200444666389672  0.8765777440716320  0.3820704700137156
  0.0949675748422081  0.7944622465968649  0.1395774269015959
  0.8906606686372172  0.8705238811293015  0.8786350280627104
  0.7781595164382935  0.7603476363245889  0.6302824519731303
  0.5578142821519307  0.8739548247402524  0.3800992812438082
  0.4272368574928223  0.7944622484129980  0.1395774289376348
  0.2232323432006851  0.8702020085276416  0.8778087202066800
  0.1088905990990128  0.7647433382153324  0.6218823571755010
  0.8848975670073429  0.8739548215504840  0.3800992773046232
  0.7790896604780073  0.7584873556719813  0.1269981451006430
  0.5554821289132121  0.8705238884030280  0.8786350294613641
  0.4430327410877979  0.7647433327913689  0.6218823608914263
 
  0.00000000E+00  0.00000000E+00  0.00000000E+00
  0.00000000E+00  0.00000000E+00  0.00000000E+00
  0.00000000E+00  0.00000000E+00  0.00000000E+00
  0.00000000E+00  0.00000000E+00  0.00000000E+00
  0.00000000E+00  0.00000000E+00  0.00000000E+00
  0.00000000E+00  0.00000000E+00  0.00000000E+00
  0.00000000E+00  0.00000000E+00  0.00000000E+00
  0.00000000E+00  0.00000000E+00  0.00000000E+00
  0.00000000E+00  0.00000000E+00  0.00000000E+00
  0.00000000E+00  0.00000000E+00  0.00000000E+00
  0.00000000E+00  0.00000000E+00  0.00000000E+00
  0.00000000E+00  0.00000000E+00  0.00000000E+00
  0.00000000E+00  0.00000000E+00  0.00000000E+00
  0.00000000E+00  0.00000000E+00  0.00000000E+00
  0.00000000E+00  0.00000000E+00  0.00000000E+00
  0.00000000E+00  0.00000000E+00  0.00000000E+00
  0.00000000E+00  0.00000000E+00  0.00000000E+00
  0.00000000E+00  0.00000000E+00  0.00000000E+00
  0.00000000E+00  0.00000000E+00  0.00000000E+00
  0.00000000E+00  0.00000000E+00  0.00000000E+00
  0.00000000E+00  0.00000000E+00  0.00000000E+00
  0.00000000E+00  0.00000000E+00  0.00000000E+00
  0.00000000E+00  0.00000000E+00  0.00000000E+00
  0.00000000E+00  0.00000000E+00  0.00000000E+00
  0.00000000E+00  0.00000000E+00  0.00000000E+00
  0.00000000E+00  0.00000000E+00  0.00000000E+00
  0.00000000E+00  0.00000000E+00  0.00000000E+00
  0.00000000E+00  0.00000000E+00  0.00000000E+00
  0.00000000E+00  0.00000000E+00  0.00000000E+00
  0.00000000E+00  0.00000000E+00  0.00000000E+00
  0.00000000E+00  0.00000000E+00  0.00000000E+00
  0.00000000E+00  0.00000000E+00  0.00000000E+00
  0.00000000E+00  0.00000000E+00  0.00000000E+00
  0.00000000E+00  0.00000000E+00  0.00000000E+00
  0.00000000E+00  0.00000000E+00  0.00000000E+00
  0.00000000E+00  0.00000000E+00  0.00000000E+00
  0.00000000E+00  0.00000000E+00  0.00000000E+00
  0.00000000E+00  0.00000000E+00  0.00000000E+00
  0.00000000E+00  0.00000000E+00  0.00000000E+00
  0.00000000E+00  0.00000000E+00  0.00000000E+00
  0.00000000E+00  0.00000000E+00  0.00000000E+00
  0.00000000E+00  0.00000000E+00  0.00000000E+00
  0.00000000E+00  0.00000000E+00  0.00000000E+00
  0.00000000E+00  0.00000000E+00  0.00000000E+00
  0.00000000E+00  0.00000000E+00  0.00000000E+00
  0.00000000E+00  0.00000000E+00  0.00000000E+00
  0.00000000E+00  0.00000000E+00  0.00000000E+00
  0.00000000E+00  0.00000000E+00  0.00000000E+00
  0.00000000E+00  0.00000000E+00  0.00000000E+00
  0.00000000E+00  0.00000000E+00  0.00000000E+00
  0.00000000E+00  0.00000000E+00  0.00000000E+00
  0.00000000E+00  0.00000000E+00  0.00000000E+00
  0.00000000E+00  0.00000000E+00  0.00000000E+00
  0.00000000E+00  0.00000000E+00  0.00000000E+00
  0.00000000E+00  0.00000000E+00  0.00000000E+00
  0.00000000E+00  0.00000000E+00  0.00000000E+00
  0.00000000E+00  0.00000000E+00  0.00000000E+00
  0.00000000E+00  0.00000000E+00  0.00000000E+00
  0.00000000E+00  0.00000000E+00  0.00000000E+00
  0.00000000E+00  0.00000000E+00  0.00000000E+00
  0.00000000E+00  0.00000000E+00  0.00000000E+00
  0.00000000E+00  0.00000000E+00  0.00000000E+00
  0.00000000E+00  0.00000000E+00  0.00000000E+00
  0.00000000E+00  0.00000000E+00  0.00000000E+00
  0.00000000E+00  0.00000000E+00  0.00000000E+00
  0.00000000E+00  0.00000000E+00  0.00000000E+00
  0.00000000E+00  0.00000000E+00  0.00000000E+00
  0.00000000E+00  0.00000000E+00  0.00000000E+00
  0.00000000E+00  0.00000000E+00  0.00000000E+00
  0.00000000E+00  0.00000000E+00  0.00000000E+00
  0.00000000E+00  0.00000000E+00  0.00000000E+00
  0.00000000E+00  0.00000000E+00  0.00000000E+00
