generated by phonopy                    
   1.00000000000000     
    11.7777700938999992   -0.0000006592896312    0.0000118211769744
    -0.0000006477562692   11.7777479613999994   -0.0000130806483528
     0.0000177256125076   -0.0000204342245446   17.8544012557999991
   Bi   Sr   Cu   Se   O 
    36     1    35    36    36
Direct
  0.9995759945060598  0.1647015165414558  0.4363181745978935
  0.3337358668158501  0.1612561870507392  0.4312703724465692
  0.6624983960292639  0.1610848903887359  0.4350302369673855
  0.0005733190850989  0.4969279913281852  0.4311900730683149
  0.3342586317308900  0.4963390995089441  0.4315829649669070
  0.6668912113788963  0.4963811154688145  0.4315790218681670
  0.0023502169417569  0.8271476011460450  0.4331933817701668
  0.3347778031704323  0.8276512626365147  0.4328837360630757
  0.6634529881856679  0.8279212253932897  0.4332583259949061
  0.9999745975497731  0.1709755383177765  0.9261524554890315
  0.3358981263725980  0.1700873271825714  0.9254973852182857
  0.6668788458265382  0.1706347680721123  0.9265901643617269
  0.0000393156115663  0.5058521372554665  0.9240998342765963
  0.3361970309047422  0.5052336555167898  0.9249462010118634
  0.6662357192768411  0.5043975738658020  0.9263040606931483
  0.0011645628132655  0.8372101670510617  0.9269440403327565
  0.3345355040695210  0.8359515453568704  0.9267390362155439
  0.6671847563302080  0.8353366695317561  0.9269656464988429
  0.1694852044878701  0.0055237128899250  0.0660534583789243
  0.5009114542195192  0.0019709592274424  0.0685963287609042
  0.8323077661969194  0.0033095307869431  0.0666158743174350
  0.1677893555068124  0.3416966213654007  0.0631352169260140
  0.4998001757460031  0.3369740628647904  0.0677699982233761
  0.8329741990388300  0.3407062306679194  0.0670444399942554
  0.1675856381269227  0.6697781491859942  0.0679716357873232
  0.5002495981966817  0.6697085759247727  0.0692859369714043
  0.8348740825973451  0.6692205617889471  0.0681676612239386
  0.1675714771704762  0.9951929940293169  0.5739051444556793
  0.4988364526718101  0.9948901786210769  0.5756129012780207
  0.8331161623615060  0.9941667789736357  0.5738414834096659
  0.1682128905186602  0.3301242613125055  0.5736974255408214
  0.4990612304918969  0.3303122086828054  0.5737580821759849
  0.8320456385617803  0.3304089132539545  0.5739270167926662
  0.1675379618768034  0.6609453054104151  0.5741051320910486
  0.5000733206820200  0.6607565620523701  0.5747057598659140
  0.8330144894017621  0.6622580843676786  0.5733238240526859
  0.0051953077356544  0.0304825576975105  0.2543374245375176
  0.3347606827397698  0.9980993036405934  0.2487911578190207
  0.6525575295708137  0.9917319666211313  0.2458531639584791
  0.9925567886852562  0.3426227936100332  0.2485403329721763
  0.3465329762013525  0.3423936821824540  0.2506222221454095
  0.6601240115211766  0.3434075384363027  0.2489974812618172
  0.0006164757379494  0.6627878211484415  0.2537896353180500
  0.3362912221265830  0.6647478476207098  0.2502202494484038
  0.6652070837031232  0.6652901268592615  0.2504302506895968
  0.0004558925208755  0.9985677535679613  0.7499955088344166
  0.3333906067606307  0.9979943170576391  0.7505459729076378
  0.6684179256703970  0.9984395808845790  0.7501386075323708
  0.0006029560202805  0.3304433743216606  0.7500863688934771
  0.3336436930295008  0.3304629788336015  0.7507485364931199
  0.6679124986661051  0.3305874027044879  0.7499467733625238
  0.0002608764789258  0.6654718345861781  0.7494961955003703
  0.3339252569275786  0.6646535522701669  0.7499316729776311
  0.6679667593910352  0.6645910007453679  0.7496325496821541
  0.1708065094881022  0.2347073595220337  0.2228828484928584
  0.5051975824588553  0.1650464009769337  0.2519614939062649
  0.7700084591747824  0.1639364767733156  0.2734279938487845
  0.1678623328712092  0.4921285363567378  0.2496167607393431
  0.5013452749057876  0.5018807624505541  0.2497237743128480
  0.8320974863527013  0.5007181525563809  0.2487091712471283
  0.1767198723125460  0.8197787956312013  0.2509871857020940
  0.4981173232056548  0.8290093081928376  0.2502669638684267
  0.8266680440967846  0.8202237896423625  0.2493491297566877
  0.1660187762746048  0.1678487978927592  0.7501595812426487
  0.5006113907780545  0.1671056933519921  0.7494686805924502
  0.8340427726238318  0.1674295604985119  0.7498188327924851
  0.1660498558430064  0.5010701219963138  0.7507229553582064
  0.5010448495928159  0.5009226923435648  0.7501151477846335
  0.8338158826525088  0.5014076598810604  0.7506712683829235
  0.1662663831480913  0.8360289192689550  0.7500375486662207
  0.5003440309216103  0.8350796137552763  0.7493825542382524
  0.8344802285536375  0.8357938622402514  0.7500440162529571
  0.1660386122869824  0.3282138501012142  0.3399023472114351
  0.5017820746959742  0.3315831168028751  0.3395235768960276
  0.8346324643797942  0.3310826476320869  0.3357819525037087
  0.1687388075760055  0.6591162496254981  0.3390684672166557
  0.5008726759830324  0.6637846351609937  0.3386319761859014
  0.8322943964615277  0.6617131337994664  0.3394304493148468
  0.1887000583335023  0.9843719643512472  0.3481072824923217
  0.4988514387049250  0.9962274291816300  0.3397627906227143
  0.8120501749726330  0.9873867036767479  0.3426634944576961
  0.1672541677877533  0.3346348812475313  0.8369286847557689
  0.5013979526396994  0.3341858269044522  0.8360376154354654
  0.8338161686564476  0.3344364425733204  0.8367781353188448
  0.1674230193008910  0.6696958777814075  0.8359302904719641
  0.5010997150430327  0.6687969025373661  0.8360304631520208
  0.8336684789955910  0.6695709845552997  0.8363470573950451
  0.1669407773230418  0.0018009941132533  0.8371260087282408
  0.5012020130836987  0.0008135905759445  0.8364108822055201
  0.8343944380541473  0.0018251379512506  0.8373056633567586
  0.3381768794921314  0.1657259462881484  0.1642046695107879
  0.6665987519625816  0.1681301089021261  0.1592658112389955
  0.0027487054453346  0.1961130437302998  0.1442956653673804
  0.3342434453513476  0.5018739508567407  0.1615555979599250
  0.6667566368505504  0.5023241669676395  0.1607095020194080
  0.0013865272969866  0.5056746127778098  0.1605497793609203
  0.3350704085615703  0.8326539147904484  0.1611735200351347
  0.6657012282927255  0.8312347361050598  0.1605776598233035
  0.0016314738452152  0.8272972826315339  0.1648381933751679
  0.3327689746574052  0.1644253827631346  0.6636533098209441
  0.6675485212320140  0.1644865669607043  0.6632056695837534
  0.0003176322720506  0.1642320579089542  0.6628498001479102
  0.3332692777718549  0.4967703408937041  0.6643853857368995
  0.6676973721024950  0.4972600074457603  0.6637197297402011
  0.9999418243111791  0.4972516569971361  0.6637170870797462
  0.3329199812312638  0.8308077944228458  0.6636554746593006
  0.6678720769493935  0.8309786755807451  0.6637407019342803
  0.0003279438091397  0.8315490046038860  0.6629380968245755
  0.1665940647986943  0.1632911655882126  0.5021611973375286
  0.4988040746327513  0.1634128632999392  0.5041150656664612
  0.8332017722085112  0.1628266589874485  0.5023785550824655
  0.1654843065849221  0.4955858497444652  0.5015664246949640
  0.5005971457534386  0.4961566567764990  0.5020619964244801
  0.8344633556570784  0.4959985119560031  0.5019271215793069
  0.1670767543889369  0.8274977110321586  0.5035631822829671
  0.5005772579506100  0.8284858159903266  0.5058713559450894
  0.8333668062498916  0.8291311376473942  0.5022050764059003
  0.1696010864471305  0.1701957560321503  0.9961664510228871
  0.5010316397571088  0.1677510649487317  0.9984599431305838
  0.8331107808840770  0.1698857325156169  0.9978293513435403
  0.1681677080416151  0.5073183670036840  0.9941262445656136
  0.5007093179015740  0.5036309215717054  0.9977604892826193
  0.8333871800946540  0.5059024144608060  0.9959190971097200
  0.1675016575629158  0.8369163403854358  0.9984285007937217
  0.5007835294360561  0.8362971574173699  0.9979462810859303
  0.8343801392294026  0.8366940420678901  0.9984639365074628
  0.0009759913121812  0.0030890347986698  0.9981106235593984
  0.3343388778510814  0.0024451486886790  0.9978438926008408
  0.6677716326569367  0.0020536564720999  0.9985549866255283
  0.0001348266309833  0.3406973743262469  0.9940045064616641
  0.3375222018893353  0.3367137641141937  0.9949044140326038
  0.6651531450336563  0.3365480962873093  0.9965592953795905
  0.0006202243885838  0.6702755490248933  0.9979906010668529
  0.3349325885517445  0.6699078524187172  0.9975061660825446
  0.6669423025094758  0.6698184743982054  0.9980284112560724
  0.0005472155320589  0.9954704984153793  0.5025220110913509
  0.3349017454499403  0.9958219332257983  0.5035278511939296
  0.6648515583286851  0.9958389578534366  0.5040491046687663
  0.0000382032896411  0.3288130020738294  0.5020662503518736
  0.3331071719850556  0.3306221217060710  0.5024112838073123
  0.6666658347121199  0.3305480357694037  0.5028589666595593
  0.0005444684695348  0.6622513976770037  0.5019962035786349
  0.3334975072574835  0.6589658342435456  0.5044207908114871
  0.6667045468081980  0.6605395758052808  0.5035267335332350
 
  0.00000000E+00  0.00000000E+00  0.00000000E+00
  0.00000000E+00  0.00000000E+00  0.00000000E+00
  0.00000000E+00  0.00000000E+00  0.00000000E+00
  0.00000000E+00  0.00000000E+00  0.00000000E+00
  0.00000000E+00  0.00000000E+00  0.00000000E+00
  0.00000000E+00  0.00000000E+00  0.00000000E+00
  0.00000000E+00  0.00000000E+00  0.00000000E+00
  0.00000000E+00  0.00000000E+00  0.00000000E+00
  0.00000000E+00  0.00000000E+00  0.00000000E+00
  0.00000000E+00  0.00000000E+00  0.00000000E+00
  0.00000000E+00  0.00000000E+00  0.00000000E+00
  0.00000000E+00  0.00000000E+00  0.00000000E+00
  0.00000000E+00  0.00000000E+00  0.00000000E+00
  0.00000000E+00  0.00000000E+00  0.00000000E+00
  0.00000000E+00  0.00000000E+00  0.00000000E+00
  0.00000000E+00  0.00000000E+00  0.00000000E+00
  0.00000000E+00  0.00000000E+00  0.00000000E+00
  0.00000000E+00  0.00000000E+00  0.00000000E+00
  0.00000000E+00  0.00000000E+00  0.00000000E+00
  0.00000000E+00  0.00000000E+00  0.00000000E+00
  0.00000000E+00  0.00000000E+00  0.00000000E+00
  0.00000000E+00  0.00000000E+00  0.00000000E+00
  0.00000000E+00  0.00000000E+00  0.00000000E+00
  0.00000000E+00  0.00000000E+00  0.00000000E+00
  0.00000000E+00  0.00000000E+00  0.00000000E+00
  0.00000000E+00  0.00000000E+00  0.00000000E+00
  0.00000000E+00  0.00000000E+00  0.00000000E+00
  0.00000000E+00  0.00000000E+00  0.00000000E+00
  0.00000000E+00  0.00000000E+00  0.00000000E+00
  0.00000000E+00  0.00000000E+00  0.00000000E+00
  0.00000000E+00  0.00000000E+00  0.00000000E+00
  0.00000000E+00  0.00000000E+00  0.00000000E+00
  0.00000000E+00  0.00000000E+00  0.00000000E+00
  0.00000000E+00  0.00000000E+00  0.00000000E+00
  0.00000000E+00  0.00000000E+00  0.00000000E+00
  0.00000000E+00  0.00000000E+00  0.00000000E+00
  0.00000000E+00  0.00000000E+00  0.00000000E+00
  0.00000000E+00  0.00000000E+00  0.00000000E+00
  0.00000000E+00  0.00000000E+00  0.00000000E+00
  0.00000000E+00  0.00000000E+00  0.00000000E+00
  0.00000000E+00  0.00000000E+00  0.00000000E+00
  0.00000000E+00  0.00000000E+00  0.00000000E+00
  0.00000000E+00  0.00000000E+00  0.00000000E+00
  0.00000000E+00  0.00000000E+00  0.00000000E+00
  0.00000000E+00  0.00000000E+00  0.00000000E+00
  0.00000000E+00  0.00000000E+00  0.00000000E+00
  0.00000000E+00  0.00000000E+00  0.00000000E+00
  0.00000000E+00  0.00000000E+00  0.00000000E+00
  0.00000000E+00  0.00000000E+00  0.00000000E+00
  0.00000000E+00  0.00000000E+00  0.00000000E+00
  0.00000000E+00  0.00000000E+00  0.00000000E+00
  0.00000000E+00  0.00000000E+00  0.00000000E+00
  0.00000000E+00  0.00000000E+00  0.00000000E+00
  0.00000000E+00  0.00000000E+00  0.00000000E+00
  0.00000000E+00  0.00000000E+00  0.00000000E+00
  0.00000000E+00  0.00000000E+00  0.00000000E+00
  0.00000000E+00  0.00000000E+00  0.00000000E+00
  0.00000000E+00  0.00000000E+00  0.00000000E+00
  0.00000000E+00  0.00000000E+00  0.00000000E+00
  0.00000000E+00  0.00000000E+00  0.00000000E+00
  0.00000000E+00  0.00000000E+00  0.00000000E+00
  0.00000000E+00  0.00000000E+00  0.00000000E+00
  0.00000000E+00  0.00000000E+00  0.00000000E+00
  0.00000000E+00  0.00000000E+00  0.00000000E+00
  0.00000000E+00  0.00000000E+00  0.00000000E+00
  0.00000000E+00  0.00000000E+00  0.00000000E+00
  0.00000000E+00  0.00000000E+00  0.00000000E+00
  0.00000000E+00  0.00000000E+00  0.00000000E+00
  0.00000000E+00  0.00000000E+00  0.00000000E+00
  0.00000000E+00  0.00000000E+00  0.00000000E+00
  0.00000000E+00  0.00000000E+00  0.00000000E+00
  0.00000000E+00  0.00000000E+00  0.00000000E+00
  0.00000000E+00  0.00000000E+00  0.00000000E+00
  0.00000000E+00  0.00000000E+00  0.00000000E+00
  0.00000000E+00  0.00000000E+00  0.00000000E+00
  0.00000000E+00  0.00000000E+00  0.00000000E+00
  0.00000000E+00  0.00000000E+00  0.00000000E+00
  0.00000000E+00  0.00000000E+00  0.00000000E+00
  0.00000000E+00  0.00000000E+00  0.00000000E+00
  0.00000000E+00  0.00000000E+00  0.00000000E+00
  0.00000000E+00  0.00000000E+00  0.00000000E+00
  0.00000000E+00  0.00000000E+00  0.00000000E+00
  0.00000000E+00  0.00000000E+00  0.00000000E+00
  0.00000000E+00  0.00000000E+00  0.00000000E+00
  0.00000000E+00  0.00000000E+00  0.00000000E+00
  0.00000000E+00  0.00000000E+00  0.00000000E+00
  0.00000000E+00  0.00000000E+00  0.00000000E+00
  0.00000000E+00  0.00000000E+00  0.00000000E+00
  0.00000000E+00  0.00000000E+00  0.00000000E+00
  0.00000000E+00  0.00000000E+00  0.00000000E+00
  0.00000000E+00  0.00000000E+00  0.00000000E+00
  0.00000000E+00  0.00000000E+00  0.00000000E+00
  0.00000000E+00  0.00000000E+00  0.00000000E+00
  0.00000000E+00  0.00000000E+00  0.00000000E+00
  0.00000000E+00  0.00000000E+00  0.00000000E+00
  0.00000000E+00  0.00000000E+00  0.00000000E+00
  0.00000000E+00  0.00000000E+00  0.00000000E+00
  0.00000000E+00  0.00000000E+00  0.00000000E+00
  0.00000000E+00  0.00000000E+00  0.00000000E+00
  0.00000000E+00  0.00000000E+00  0.00000000E+00
  0.00000000E+00  0.00000000E+00  0.00000000E+00
  0.00000000E+00  0.00000000E+00  0.00000000E+00
  0.00000000E+00  0.00000000E+00  0.00000000E+00
  0.00000000E+00  0.00000000E+00  0.00000000E+00
  0.00000000E+00  0.00000000E+00  0.00000000E+00
  0.00000000E+00  0.00000000E+00  0.00000000E+00
  0.00000000E+00  0.00000000E+00  0.00000000E+00
  0.00000000E+00  0.00000000E+00  0.00000000E+00
  0.00000000E+00  0.00000000E+00  0.00000000E+00
  0.00000000E+00  0.00000000E+00  0.00000000E+00
  0.00000000E+00  0.00000000E+00  0.00000000E+00
  0.00000000E+00  0.00000000E+00  0.00000000E+00
  0.00000000E+00  0.00000000E+00  0.00000000E+00
  0.00000000E+00  0.00000000E+00  0.00000000E+00
  0.00000000E+00  0.00000000E+00  0.00000000E+00
  0.00000000E+00  0.00000000E+00  0.00000000E+00
  0.00000000E+00  0.00000000E+00  0.00000000E+00
  0.00000000E+00  0.00000000E+00  0.00000000E+00
  0.00000000E+00  0.00000000E+00  0.00000000E+00
  0.00000000E+00  0.00000000E+00  0.00000000E+00
  0.00000000E+00  0.00000000E+00  0.00000000E+00
  0.00000000E+00  0.00000000E+00  0.00000000E+00
  0.00000000E+00  0.00000000E+00  0.00000000E+00
  0.00000000E+00  0.00000000E+00  0.00000000E+00
  0.00000000E+00  0.00000000E+00  0.00000000E+00
  0.00000000E+00  0.00000000E+00  0.00000000E+00
  0.00000000E+00  0.00000000E+00  0.00000000E+00
  0.00000000E+00  0.00000000E+00  0.00000000E+00
  0.00000000E+00  0.00000000E+00  0.00000000E+00
  0.00000000E+00  0.00000000E+00  0.00000000E+00
  0.00000000E+00  0.00000000E+00  0.00000000E+00
  0.00000000E+00  0.00000000E+00  0.00000000E+00
  0.00000000E+00  0.00000000E+00  0.00000000E+00
  0.00000000E+00  0.00000000E+00  0.00000000E+00
  0.00000000E+00  0.00000000E+00  0.00000000E+00
  0.00000000E+00  0.00000000E+00  0.00000000E+00
  0.00000000E+00  0.00000000E+00  0.00000000E+00
  0.00000000E+00  0.00000000E+00  0.00000000E+00
  0.00000000E+00  0.00000000E+00  0.00000000E+00
  0.00000000E+00  0.00000000E+00  0.00000000E+00
  0.00000000E+00  0.00000000E+00  0.00000000E+00
  0.00000000E+00  0.00000000E+00  0.00000000E+00
  0.00000000E+00  0.00000000E+00  0.00000000E+00
  0.00000000E+00  0.00000000E+00  0.00000000E+00
