supercell of icsd_608626.cif            
   1.09562387392819     
     9.1181143861588776   -0.0420307102411994   -0.0671571348350203
    -4.5944651119419282    8.0378140721133828    0.0532380545542624
    -0.0706042992361662    0.0230930588224886    9.7247686958380370
   Al   La   N 
    26    10    36
Direct
  0.2073883587959529  0.0911187347449740  0.1631450553381413
  0.1093743097626572  0.2505817969899411  0.5116434477683640
  0.8802304599530970  0.1211751079502434  0.7389392791891467
  0.7702689742947939  0.2215794176183223  0.9845303677537061
  0.5497150182948261  0.1089264725427839  0.2479816740865459
  0.4693218178736061  0.2588439846649493  0.5088393139449110
  0.0970832666151011  0.2103769825963724  0.9892696370491478
  0.8734352829553842  0.0991013232794771  0.2510609026282893
  0.7946659020918005  0.2510008604936331  0.5040863769846169
  0.5776201888366330  0.1267581726406561  0.7505941533631812
  0.4554817253559662  0.2220161582875093  0.9938622104411010
  0.1081025903819253  0.5565647481108584  0.5224337402089319
  0.8764048442693380  0.4338292308658325  0.7449573196683019
  0.7766600598358409  0.5501879174935027  0.9810028228630827
  0.4383762492254348  0.5423827930780689  0.5229243854064265
  0.2155871280318920  0.4349895011073386  0.7408152698745170
  0.7782697322157119  0.5537213419069147  0.5203889518035538
  0.5678226071562946  0.4466829205809262  0.7487719851091086
  0.4473886449185613  0.5396286066311760  0.9800552307081674
  0.2230195213465009  0.7702316218378158  0.2730009546470029
  0.8858200963512175  0.7703810167712390  0.7442061696970228
  0.5539623155843714  0.7720171943849934  0.2642543400392441
  0.1003846194342728  0.8650625420271680  0.0086623112466100
  0.8741719532271546  0.7720377308646533  0.2522708049729232
  0.7440420325365054  0.8158105650127752  0.5093262872219455
  0.5594420974094305  0.7667685015849486  0.7485430846252683
  0.2314526026692221  0.1367522118404594  0.7487455213763496
  0.2168520056217034  0.4211844610389690  0.2688909066010794
  0.5524572289246024  0.4472902146185831  0.2484637177063576
  0.1146959374602829  0.5399167313554614  0.9900350168144456
  0.8673090822331488  0.4273804645327033  0.2593014325049552
  0.1137207751302896  0.9290788171545472  0.4585554463968577
  0.7946459508802164  0.8841371939401128  0.0027206478984922
  0.4850171402876029  0.9209858123126011  0.4925322949596946
  0.2239407006806147  0.7912927411174593  0.7395952701713711
  0.4747279927849277  0.8978642353653115  0.0154985844960507
  0.2578505868385221  0.1920842390979374  0.4754378636510381
  0.0716436029323617  0.1762000783639621  0.1654962585443585
  0.8926232162880154  0.1376955543867169  0.9170433168204184
  0.7767212578859741  0.2229203126499613  0.6813577679366958
  0.5934934143191057  0.1852119843643720  0.4157223582039080
  0.4290653007879186  0.1860630264044616  0.1682306231852593
  0.2024108273262897  0.0882818222341513  0.9812256105795782
  0.0796222190919949  0.2331905877680356  0.6819393011382076
  0.9153172892712504  0.1777960900713893  0.4177104801104718
  0.7454340649386708  0.1711460461791674  0.1618883352946270
  0.5645932166317920  0.1382965329571846  0.9234888557098344
  0.4920840443416452  0.2423912880748702  0.6832868538340975
  0.2251796534520025  0.4632412857641341  0.4858429598378038
  0.1197262966490413  0.5736434924500102  0.2135872300711554
  0.8560770703686913  0.4254063482917942  0.9300111256897878
  0.7810479752570032  0.5589122416763672  0.6991553965623254
  0.5672158805680851  0.4632628256872167  0.4725325632904429
  0.4531142190325212  0.5937061282024203  0.1597678929291177
  0.2388090287660063  0.4031856459348617  0.9217800399851086
  0.0940740195920995  0.5296301633573108  0.7114547140069831
  0.8955588456870913  0.4621121510729722  0.4817551070412449
  0.7908158012302593  0.5934317810291176  0.1572150505262755
  0.5541432081510607  0.4327108192810059  0.9383064100081739
  0.4421364394880172  0.5445450102780924  0.6988910641040320
  0.2161820236042260  0.7618418661962494  0.4591201789107870
  0.0990552056198197  0.8785129729589940  0.2034594647224424
  0.9076574216626057  0.7530120341569315  0.9201992563127419
  0.7690566573307791  0.8708312858192997  0.6824577220462658
  0.5503843495165839  0.7366475879816505  0.4406619847132376
  0.4433186115261094  0.8887105309161498  0.2487866405118666
  0.2263465038217305  0.7965523054983450  0.9604312545429607
  0.0779110487124655  0.8962049392204037  0.6762058916614677
  0.8513752947962772  0.7406223202309334  0.4293542751211987
  0.7691034608900225  0.8857295946333963  0.2272724022434005
  0.5491691281992459  0.7363389816028771  0.9181972666568896
  0.4928236019977703  0.9122719978639466  0.7188215679308954
 
  0.00000000E+00  0.00000000E+00  0.00000000E+00
  0.00000000E+00  0.00000000E+00  0.00000000E+00
  0.00000000E+00  0.00000000E+00  0.00000000E+00
  0.00000000E+00  0.00000000E+00  0.00000000E+00
  0.00000000E+00  0.00000000E+00  0.00000000E+00
  0.00000000E+00  0.00000000E+00  0.00000000E+00
  0.00000000E+00  0.00000000E+00  0.00000000E+00
  0.00000000E+00  0.00000000E+00  0.00000000E+00
  0.00000000E+00  0.00000000E+00  0.00000000E+00
  0.00000000E+00  0.00000000E+00  0.00000000E+00
  0.00000000E+00  0.00000000E+00  0.00000000E+00
  0.00000000E+00  0.00000000E+00  0.00000000E+00
  0.00000000E+00  0.00000000E+00  0.00000000E+00
  0.00000000E+00  0.00000000E+00  0.00000000E+00
  0.00000000E+00  0.00000000E+00  0.00000000E+00
  0.00000000E+00  0.00000000E+00  0.00000000E+00
  0.00000000E+00  0.00000000E+00  0.00000000E+00
  0.00000000E+00  0.00000000E+00  0.00000000E+00
  0.00000000E+00  0.00000000E+00  0.00000000E+00
  0.00000000E+00  0.00000000E+00  0.00000000E+00
  0.00000000E+00  0.00000000E+00  0.00000000E+00
  0.00000000E+00  0.00000000E+00  0.00000000E+00
  0.00000000E+00  0.00000000E+00  0.00000000E+00
  0.00000000E+00  0.00000000E+00  0.00000000E+00
  0.00000000E+00  0.00000000E+00  0.00000000E+00
  0.00000000E+00  0.00000000E+00  0.00000000E+00
  0.00000000E+00  0.00000000E+00  0.00000000E+00
  0.00000000E+00  0.00000000E+00  0.00000000E+00
  0.00000000E+00  0.00000000E+00  0.00000000E+00
  0.00000000E+00  0.00000000E+00  0.00000000E+00
  0.00000000E+00  0.00000000E+00  0.00000000E+00
  0.00000000E+00  0.00000000E+00  0.00000000E+00
  0.00000000E+00  0.00000000E+00  0.00000000E+00
  0.00000000E+00  0.00000000E+00  0.00000000E+00
  0.00000000E+00  0.00000000E+00  0.00000000E+00
  0.00000000E+00  0.00000000E+00  0.00000000E+00
  0.00000000E+00  0.00000000E+00  0.00000000E+00
  0.00000000E+00  0.00000000E+00  0.00000000E+00
  0.00000000E+00  0.00000000E+00  0.00000000E+00
  0.00000000E+00  0.00000000E+00  0.00000000E+00
  0.00000000E+00  0.00000000E+00  0.00000000E+00
  0.00000000E+00  0.00000000E+00  0.00000000E+00
  0.00000000E+00  0.00000000E+00  0.00000000E+00
  0.00000000E+00  0.00000000E+00  0.00000000E+00
  0.00000000E+00  0.00000000E+00  0.00000000E+00
  0.00000000E+00  0.00000000E+00  0.00000000E+00
  0.00000000E+00  0.00000000E+00  0.00000000E+00
  0.00000000E+00  0.00000000E+00  0.00000000E+00
  0.00000000E+00  0.00000000E+00  0.00000000E+00
  0.00000000E+00  0.00000000E+00  0.00000000E+00
  0.00000000E+00  0.00000000E+00  0.00000000E+00
  0.00000000E+00  0.00000000E+00  0.00000000E+00
  0.00000000E+00  0.00000000E+00  0.00000000E+00
  0.00000000E+00  0.00000000E+00  0.00000000E+00
  0.00000000E+00  0.00000000E+00  0.00000000E+00
  0.00000000E+00  0.00000000E+00  0.00000000E+00
  0.00000000E+00  0.00000000E+00  0.00000000E+00
  0.00000000E+00  0.00000000E+00  0.00000000E+00
  0.00000000E+00  0.00000000E+00  0.00000000E+00
  0.00000000E+00  0.00000000E+00  0.00000000E+00
  0.00000000E+00  0.00000000E+00  0.00000000E+00
  0.00000000E+00  0.00000000E+00  0.00000000E+00
  0.00000000E+00  0.00000000E+00  0.00000000E+00
  0.00000000E+00  0.00000000E+00  0.00000000E+00
  0.00000000E+00  0.00000000E+00  0.00000000E+00
  0.00000000E+00  0.00000000E+00  0.00000000E+00
  0.00000000E+00  0.00000000E+00  0.00000000E+00
  0.00000000E+00  0.00000000E+00  0.00000000E+00
  0.00000000E+00  0.00000000E+00  0.00000000E+00
  0.00000000E+00  0.00000000E+00  0.00000000E+00
  0.00000000E+00  0.00000000E+00  0.00000000E+00
  0.00000000E+00  0.00000000E+00  0.00000000E+00
