supercell of icsd_191774.cif            
   1.00000000000000     
    11.0590471964425312   -0.0005009039560973   -0.0135555352314363
    -5.5299280231220003    9.5898153931911416   -0.0146997631642152
    -0.0144230526738468   -0.0269646826207228   11.5183945592770236
   N    In   La
    36    26    10
Direct
  0.2374264965755515  0.1415024211937066  0.4326086377887961
  0.0966608326350311  0.2046378037882945  0.1893795056953493
  0.8964863511149090  0.1283747827934718  0.9317949657208260
  0.7780162907887913  0.2225198313910965  0.6890127637660584
  0.5725085747358207  0.1433338786907115  0.4348063063190963
  0.4375186548396854  0.2055296652138026  0.1831699917238296
  0.2162991960960028  0.1036827392894111  0.9586091478816954
  0.0999102721995655  0.2261211301028752  0.6827931950201176
  0.8846728435912752  0.1080579801406714  0.4423000828556667
  0.7670828784142287  0.2006893631373075  0.1820113054005716
  0.5587091674821423  0.1219939584379688  0.9339566790963190
  0.4605006238881373  0.2307887090492429  0.6884033994122447
  0.2228346892881916  0.4490325516053915  0.4583050297777902
  0.1152134589229448  0.5646781600273840  0.1896305730276850
  0.8704530814811875  0.4345483258910718  0.9379593823700887
  0.7781612760965402  0.5570976166753567  0.6953699690065562
  0.5579498019622164  0.4498794899166256  0.4504981925755018
  0.4512209484269718  0.5717627040569937  0.1783953050613860
  0.2306095311550322  0.4275180443458879  0.9365542779918599
  0.1021633174503904  0.5417343304524422  0.7082521637225128
  0.8905116353381359  0.4475030056351486  0.4575759067356913
  0.7853411182546992  0.5687430394675346  0.1790359688229088
  0.5543438595219214  0.4405444329326187  0.9418966448033643
  0.4440343214969218  0.5530762301843666  0.6958390191173365
  0.2131772002055641  0.7615728873688639  0.4537829337496220
  0.1078355734294973  0.8850893155435386  0.2079247312635957
  0.8997023752021960  0.7683659542678924  0.9361664416954767
  0.7802873647198894  0.8891163008318230  0.6961652934611990
  0.5627784970525624  0.7628228719744783  0.4427490978882744
  0.4438769632833015  0.8869585801865298  0.2286238822316733
  0.2250432212121538  0.7926387413585800  0.9435166637076122
  0.0975246599464796  0.8919649652635400  0.6805125111004244
  0.8644412493331473  0.7619255455505751  0.4353329959221170
  0.7749059055487706  0.8869527506347339  0.1954634147287990
  0.5456240509879891  0.7630320728082509  0.9318869326590189
  0.4666672095026740  0.9019297942348032  0.6905834089750016
  0.2218010359156750  0.1108583768612874  0.2404029399183116
  0.1092499534555103  0.2277205365026802  0.4968848232087240
  0.8879913055955342  0.1169193964350086  0.7427315259082761
  0.7744671326357420  0.2215195376066816  0.9923993497900341
  0.5562445950905399  0.1134404308800327  0.2498350396504492
  0.4532585758795449  0.2363222810106933  0.4994781408843707
  0.1083568280713436  0.2172445302864716  0.0007459968363932
  0.8806067232288868  0.1002758299323929  0.2512833377796895
  0.7821177111182251  0.2283460435989255  0.5023566857230364
  0.5649829570221243  0.1185934923526233  0.7462756734715157
  0.4436344291642413  0.2200321437034276  0.9957999855233624
  0.1060678933239103  0.5482198397272739  0.5137316041754474
  0.8789928856732843  0.4372291515100315  0.7470374160049857
  0.7765887220985661  0.5538826365508527  0.9907154363518913
  0.4458977764150234  0.5520880587823598  0.5084882950660727
  0.2213984124540005  0.4381064870442088  0.7451745277347328
  0.7735063492622629  0.5537810366232279  0.5071166332127248
  0.5603646647796836  0.4466969918296968  0.7498177087491555
  0.4461569714697333  0.5518313038881573  0.9889468139919941
  0.2178534477536473  0.7705583850752049  0.2588643988333956
  0.8909235364394874  0.7760079006326279  0.7468086160304281
  0.5613817131118424  0.7748908411754840  0.2548676527951130
  0.1108400300069263  0.8853944040547788  0.0104243380433005
  0.8801778170096668  0.7751401160868170  0.2472606868765581
  0.7760007547967689  0.8835475297035345  0.5026997368666457
  0.5574021212722542  0.7771016874889227  0.7452258027543692
  0.2236492746941110  0.1200678339485179  0.7507919739700455
  0.2241446768922941  0.4438041145659852  0.2513627904415046
  0.5555868198366198  0.4456257968165787  0.2428119174667458
  0.1108985289593747  0.5521510732684831  0.9810305850530199
  0.8847862530757453  0.4401622580896287  0.2492272596104215
  0.1021580096174972  0.8958876943791481  0.4751157749033084
  0.7841560329296442  0.8899472246219489  0.9876684580234141
  0.4593759568949380  0.8985783505765355  0.4801801062507423
  0.2269940429295971  0.7866642252702434  0.7367063369309719
  0.4514925689453122  0.8956424846764435  0.0126649100927665
 
  0.00000000E+00  0.00000000E+00  0.00000000E+00
  0.00000000E+00  0.00000000E+00  0.00000000E+00
  0.00000000E+00  0.00000000E+00  0.00000000E+00
  0.00000000E+00  0.00000000E+00  0.00000000E+00
  0.00000000E+00  0.00000000E+00  0.00000000E+00
  0.00000000E+00  0.00000000E+00  0.00000000E+00
  0.00000000E+00  0.00000000E+00  0.00000000E+00
  0.00000000E+00  0.00000000E+00  0.00000000E+00
  0.00000000E+00  0.00000000E+00  0.00000000E+00
  0.00000000E+00  0.00000000E+00  0.00000000E+00
  0.00000000E+00  0.00000000E+00  0.00000000E+00
  0.00000000E+00  0.00000000E+00  0.00000000E+00
  0.00000000E+00  0.00000000E+00  0.00000000E+00
  0.00000000E+00  0.00000000E+00  0.00000000E+00
  0.00000000E+00  0.00000000E+00  0.00000000E+00
  0.00000000E+00  0.00000000E+00  0.00000000E+00
  0.00000000E+00  0.00000000E+00  0.00000000E+00
  0.00000000E+00  0.00000000E+00  0.00000000E+00
  0.00000000E+00  0.00000000E+00  0.00000000E+00
  0.00000000E+00  0.00000000E+00  0.00000000E+00
  0.00000000E+00  0.00000000E+00  0.00000000E+00
  0.00000000E+00  0.00000000E+00  0.00000000E+00
  0.00000000E+00  0.00000000E+00  0.00000000E+00
  0.00000000E+00  0.00000000E+00  0.00000000E+00
  0.00000000E+00  0.00000000E+00  0.00000000E+00
  0.00000000E+00  0.00000000E+00  0.00000000E+00
  0.00000000E+00  0.00000000E+00  0.00000000E+00
  0.00000000E+00  0.00000000E+00  0.00000000E+00
  0.00000000E+00  0.00000000E+00  0.00000000E+00
  0.00000000E+00  0.00000000E+00  0.00000000E+00
  0.00000000E+00  0.00000000E+00  0.00000000E+00
  0.00000000E+00  0.00000000E+00  0.00000000E+00
  0.00000000E+00  0.00000000E+00  0.00000000E+00
  0.00000000E+00  0.00000000E+00  0.00000000E+00
  0.00000000E+00  0.00000000E+00  0.00000000E+00
  0.00000000E+00  0.00000000E+00  0.00000000E+00
  0.00000000E+00  0.00000000E+00  0.00000000E+00
  0.00000000E+00  0.00000000E+00  0.00000000E+00
  0.00000000E+00  0.00000000E+00  0.00000000E+00
  0.00000000E+00  0.00000000E+00  0.00000000E+00
  0.00000000E+00  0.00000000E+00  0.00000000E+00
  0.00000000E+00  0.00000000E+00  0.00000000E+00
  0.00000000E+00  0.00000000E+00  0.00000000E+00
  0.00000000E+00  0.00000000E+00  0.00000000E+00
  0.00000000E+00  0.00000000E+00  0.00000000E+00
  0.00000000E+00  0.00000000E+00  0.00000000E+00
  0.00000000E+00  0.00000000E+00  0.00000000E+00
  0.00000000E+00  0.00000000E+00  0.00000000E+00
  0.00000000E+00  0.00000000E+00  0.00000000E+00
  0.00000000E+00  0.00000000E+00  0.00000000E+00
  0.00000000E+00  0.00000000E+00  0.00000000E+00
  0.00000000E+00  0.00000000E+00  0.00000000E+00
  0.00000000E+00  0.00000000E+00  0.00000000E+00
  0.00000000E+00  0.00000000E+00  0.00000000E+00
  0.00000000E+00  0.00000000E+00  0.00000000E+00
  0.00000000E+00  0.00000000E+00  0.00000000E+00
  0.00000000E+00  0.00000000E+00  0.00000000E+00
  0.00000000E+00  0.00000000E+00  0.00000000E+00
  0.00000000E+00  0.00000000E+00  0.00000000E+00
  0.00000000E+00  0.00000000E+00  0.00000000E+00
  0.00000000E+00  0.00000000E+00  0.00000000E+00
  0.00000000E+00  0.00000000E+00  0.00000000E+00
  0.00000000E+00  0.00000000E+00  0.00000000E+00
  0.00000000E+00  0.00000000E+00  0.00000000E+00
  0.00000000E+00  0.00000000E+00  0.00000000E+00
  0.00000000E+00  0.00000000E+00  0.00000000E+00
  0.00000000E+00  0.00000000E+00  0.00000000E+00
  0.00000000E+00  0.00000000E+00  0.00000000E+00
  0.00000000E+00  0.00000000E+00  0.00000000E+00
  0.00000000E+00  0.00000000E+00  0.00000000E+00
  0.00000000E+00  0.00000000E+00  0.00000000E+00
  0.00000000E+00  0.00000000E+00  0.00000000E+00
