generated by phonopy                    
   1.00000000000000     
    11.7777700938999992   -0.0000006592896312    0.0000118211769744
    -0.0000006477562692   11.7777479613999994   -0.0000130806483528
     0.0000177256125076   -0.0000204342245446   17.8544012557999991
   Bi   Ge   Cu   Se   O 
    36     1    35    36    36
Direct
  0.9999586256630550  0.1688356810342526  0.4322474450457960
  0.3351699004585811  0.1672334148549623  0.4310881130304338
  0.6647378525110739  0.1672449644495870  0.4310895666760288
  0.9999547775937216  0.4999828686083916  0.4304401877340496
  0.3337973464025623  0.4999760794525443  0.4304821589110688
  0.6661118628165141  0.4999879390676583  0.4304831508379081
  0.9999508023402583  0.8311290017612976  0.4322502804401083
  0.3351660106216841  0.8327139802902721  0.4310906275979534
  0.6647387200135029  0.8327299428897064  0.4310903887550523
  0.9999710633907952  0.1668565624599267  0.9279628463787901
  0.3336858233421651  0.1673903962563728  0.9275416741376219
  0.6662570075275696  0.1674047706097781  0.9275406536339261
  0.9999744601626119  0.4999883911525203  0.9267969558625637
  0.3341401322758841  0.4999759240683304  0.9270524474522119
  0.6658011363435321  0.4999912013788617  0.9270519232272534
  0.9999743284580092  0.8331195148967865  0.9279593352513942
  0.3336898625574278  0.8325700890288132  0.9275390564524173
  0.6662564817503664  0.8325757722196201  0.9275374962994505
  0.1688264425548240  0.9999791432742455  0.0678727290111425
  0.4999728343659626  0.9999828551597147  0.0696769613568620
  0.8311163622154965  0.9999936359555406  0.0678690837070022
  0.1672294460976360  0.3351952148058430  0.0690326107933075
  0.4999744646513875  0.3338237765129648  0.0696390840290704
  0.8327148954261645  0.3352152912582369  0.0690298587112039
  0.1672319654876731  0.6647643807510519  0.0690295689203140
  0.4999663573531450  0.6661403647291095  0.0696360053699436
  0.8327128150269871  0.6647767719354647  0.0690270298707816
  0.1668205307731583  0.9999786924330039  0.5721607974797180
  0.4999488066400204  0.9999808707374953  0.5733199344238074
  0.8330820375047594  0.9999846504958185  0.5721605619387162
  0.1673639788449464  0.3336981467452347  0.5725763664178345
  0.4999532023305733  0.3341515645932418  0.5730685664931201
  0.8325401346446526  0.3336995063315342  0.5725781904781329
  0.1673607780880459  0.6662599340132829  0.5725809732155724
  0.4999526947067849  0.6658164054127340  0.5730703890257658
  0.8325393615956145  0.6662693834964628  0.5725804189266697
  0.9999643214000926  0.9999757488515115  0.2500443338610623
  0.3386055896086830  0.9999739887360164  0.2467561225782973
  0.6613415963961273  0.9999937533936674  0.2467635649270719
  0.9999777629912003  0.3386228985220967  0.2533478238352700
  0.3347592412682658  0.3347699613332509  0.2500737937992596
  0.6651798725767151  0.3347645274059659  0.2500486945981493
  0.9999578498248738  0.6613705417581031  0.2533615540152496
  0.3347420565453589  0.6651472207823801  0.2500651020316482
  0.6651502532304718  0.6652267911984069  0.2500624605463315
  0.9999616185842441  0.9999913716097240  0.7500606404776278
  0.3328231279439251  0.9999803265639216  0.7503233326478309
  0.6671150826142167  0.9999940091892654  0.7503239642042701
  0.9999753451822571  0.3328330527777723  0.7497991138025313
  0.3328625833982457  0.3328643890348673  0.7500635502583535
  0.6670812418708607  0.3328800217932084  0.7500627676527998
  0.9999571168460619  0.6671302309691427  0.7497986141027511
  0.3328558670633299  0.6670757182493929  0.7500629754542345
  0.6670760258398332  0.6671043306714566  0.7500594317989240
  0.1729567524069608  0.1728879760156516  0.2500501084242615
  0.4999604975166179  0.1675613645211627  0.2498325755831914
  0.8270119948412713  0.1729998813896216  0.2500701561329421
  0.1675631947648952  0.4999848415760226  0.2502996141562264
  0.4999673381964200  0.4999762543196766  0.2500611850237817
  0.8323755959855390  0.4999907598486928  0.2503016512763026
  0.1729110693668900  0.8270061515586136  0.2500504940124344
  0.4999599616822152  0.8323760938569293  0.2498235738575687
  0.8269853445448803  0.8270682390579722  0.2500711000756439
  0.1661370688993458  0.1661603018894269  0.7500587226074131
  0.4999563021982496  0.1660780537331163  0.7497615021388100
  0.8337755895849597  0.1661815407720084  0.7500580783907509
  0.1660418238075394  0.4999755866375182  0.7503583313679201
  0.4999570860222349  0.4999769825581026  0.7500624757974208
  0.8338602340513148  0.4999864482523719  0.7503620671061668
  0.1661357718075536  0.8337916948036082  0.7500628321365497
  0.4999450564740187  0.8338934417524015  0.7497656747342560
  0.8337730798408529  0.8338135218780991  0.7500643007635617
  0.1677711464582217  0.3339753309136100  0.3385145084933612
  0.4999842816017690  0.3333689448623147  0.3377903397051654
  0.8321682482941313  0.3340250559543492  0.3385367001631820
  0.1677572396019684  0.6659701020318565  0.3385325750612935
  0.4999511450633989  0.6665901584981810  0.3377944387521126
  0.8321468081343397  0.6659837162218523  0.3385223160135524
  0.1788610248975644  0.9999694623011024  0.3388372149815950
  0.4999611470155116  0.9999736240546895  0.3374678503487303
  0.8210704761681882  0.0000072414503620  0.3388444389641165
  0.1665309348947090  0.3329458816216189  0.8369975027341070
  0.4999678694477225  0.3329626295738279  0.8366690551361344
  0.8334051715921973  0.3329559974969030  0.8369983788234023
  0.1665259915260080  0.6670108675983499  0.8369955286839641
  0.4999630073177030  0.6670011371178148  0.8366657849992620
  0.8333976802850032  0.6670210212185950  0.8369986736100614
  0.1664102373812071  0.9999822909428957  0.8373654779949220
  0.4999676886756816  0.9999879032647812  0.8371269562521135
  0.8335223149832203  0.9999958914580915  0.8373697695247202
  0.3340047241338411  0.1677955983064265  0.1615892052291485
  0.6659678560708642  0.1677844522669574  0.1615951019981168
  0.9999665656005448  0.1788925520230151  0.1612764014461447
  0.3333569306392903  0.4999747609931120  0.1623293814908493
  0.6665831078299860  0.4999886394870359  0.1623369406103805
  0.9999684846735235  0.5000001626460673  0.1626526979781175
  0.3339754098822354  0.8321639389214681  0.1615985256640400
  0.6659489792378466  0.8321834539517710  0.1615910414376174
  0.9999568139569490  0.8210687970378530  0.1612645404771840
  0.3329225284072166  0.1665462265116133  0.6631249031616377
  0.6669870672227987  0.1665521370006502  0.6631249870150597
  0.9999545098717277  0.1664305281947662  0.6627503810608886
  0.3329331414515835  0.4999766638853487  0.6634571741068385
  0.6669732815031040  0.4999859257935455  0.6634571022943518
  0.9999489667615720  0.4999810291199012  0.6629973453427738
  0.3329182149095544  0.8334140527808103  0.6631260608478371
  0.6669828522614907  0.8334251026403550  0.6631303787193872
  0.9999523911199333  0.8335401648207181  0.6627552224510609
  0.1665751957794086  0.1667983082279179  0.5008296820016298
  0.4999530317034413  0.1670834239052041  0.5021218584518010
  0.8333397946854220  0.1668005449454668  0.5008293310494096
  0.1661307960479803  0.4999784167778998  0.5011177853425934
  0.4999520810065903  0.4999842643310330  0.5014570545334678
  0.8337822502234999  0.4999879013847703  0.5011207953365258
  0.1665671413240091  0.8331633941774825  0.5008334413269466
  0.4999526778677605  0.8328794269717434  0.5021217985765034
  0.8333358866728560  0.8331674144043077  0.5008311295237178
  0.1667862187557105  0.1666003999939250  0.9992915699983840
  0.4999714766104759  0.1661550339239852  0.9990004242968595
  0.8331517303664384  0.1666077065175671  0.9992905279047193
  0.1670740384113145  0.4999808259153724  0.9979982448355216
  0.4999642126430928  0.4999826026402303  0.9986667061636680
  0.8328669290701285  0.4999907057121149  0.9979931301262823
  0.1667901449950548  0.8333709471896640  0.9992896204109414
  0.4999657204568067  0.8338151329766390  0.9989999900913631
  0.8331507713346937  0.8333690406336771  0.9992854056270772
  0.9999711953627468  0.9999862040713765  0.9995100877075203
  0.3329584840151085  0.9999858216755086  0.9990762232057762
  0.6669819509874912  0.9999866647236075  0.9990738973887687
  0.9999693306154072  0.3341626489107981  0.9984901254078409
  0.3339551146958541  0.3335671109091791  0.9983702121211877
  0.6659857337048436  0.3335771404826744  0.9983691152782299
  0.9999746074192259  0.6658130769644828  0.9984864049714091
  0.3339538428683255  0.6663952983157984  0.9983646744648169
  0.6659774918691710  0.6663992446247988  0.9983664132899435
  0.9999549744587739  0.9999832165675073  0.5006124808358408
  0.3341251808859909  0.9999769605886684  0.5016307020391366
  0.6657770571818276  0.9999874253509589  0.5016319128298221
  0.9999591262943710  0.3329736378510617  0.5010438842903326
  0.3335429482205043  0.3339656212284154  0.5017485823082879
  0.6663646243755110  0.3339662780219825  0.5017536887081633
  0.9999513005751908  0.6669924752173202  0.5010458571337608
  0.3335399158619623  0.6659954499688396  0.5017535224832201
  0.6663650831104633  0.6660045818678526  0.5017538353146307
 
  0.00000000E+00  0.00000000E+00  0.00000000E+00
  0.00000000E+00  0.00000000E+00  0.00000000E+00
  0.00000000E+00  0.00000000E+00  0.00000000E+00
  0.00000000E+00  0.00000000E+00  0.00000000E+00
  0.00000000E+00  0.00000000E+00  0.00000000E+00
  0.00000000E+00  0.00000000E+00  0.00000000E+00
  0.00000000E+00  0.00000000E+00  0.00000000E+00
  0.00000000E+00  0.00000000E+00  0.00000000E+00
  0.00000000E+00  0.00000000E+00  0.00000000E+00
  0.00000000E+00  0.00000000E+00  0.00000000E+00
  0.00000000E+00  0.00000000E+00  0.00000000E+00
  0.00000000E+00  0.00000000E+00  0.00000000E+00
  0.00000000E+00  0.00000000E+00  0.00000000E+00
  0.00000000E+00  0.00000000E+00  0.00000000E+00
  0.00000000E+00  0.00000000E+00  0.00000000E+00
  0.00000000E+00  0.00000000E+00  0.00000000E+00
  0.00000000E+00  0.00000000E+00  0.00000000E+00
  0.00000000E+00  0.00000000E+00  0.00000000E+00
  0.00000000E+00  0.00000000E+00  0.00000000E+00
  0.00000000E+00  0.00000000E+00  0.00000000E+00
  0.00000000E+00  0.00000000E+00  0.00000000E+00
  0.00000000E+00  0.00000000E+00  0.00000000E+00
  0.00000000E+00  0.00000000E+00  0.00000000E+00
  0.00000000E+00  0.00000000E+00  0.00000000E+00
  0.00000000E+00  0.00000000E+00  0.00000000E+00
  0.00000000E+00  0.00000000E+00  0.00000000E+00
  0.00000000E+00  0.00000000E+00  0.00000000E+00
  0.00000000E+00  0.00000000E+00  0.00000000E+00
  0.00000000E+00  0.00000000E+00  0.00000000E+00
  0.00000000E+00  0.00000000E+00  0.00000000E+00
  0.00000000E+00  0.00000000E+00  0.00000000E+00
  0.00000000E+00  0.00000000E+00  0.00000000E+00
  0.00000000E+00  0.00000000E+00  0.00000000E+00
  0.00000000E+00  0.00000000E+00  0.00000000E+00
  0.00000000E+00  0.00000000E+00  0.00000000E+00
  0.00000000E+00  0.00000000E+00  0.00000000E+00
  0.00000000E+00  0.00000000E+00  0.00000000E+00
  0.00000000E+00  0.00000000E+00  0.00000000E+00
  0.00000000E+00  0.00000000E+00  0.00000000E+00
  0.00000000E+00  0.00000000E+00  0.00000000E+00
  0.00000000E+00  0.00000000E+00  0.00000000E+00
  0.00000000E+00  0.00000000E+00  0.00000000E+00
  0.00000000E+00  0.00000000E+00  0.00000000E+00
  0.00000000E+00  0.00000000E+00  0.00000000E+00
  0.00000000E+00  0.00000000E+00  0.00000000E+00
  0.00000000E+00  0.00000000E+00  0.00000000E+00
  0.00000000E+00  0.00000000E+00  0.00000000E+00
  0.00000000E+00  0.00000000E+00  0.00000000E+00
  0.00000000E+00  0.00000000E+00  0.00000000E+00
  0.00000000E+00  0.00000000E+00  0.00000000E+00
  0.00000000E+00  0.00000000E+00  0.00000000E+00
  0.00000000E+00  0.00000000E+00  0.00000000E+00
  0.00000000E+00  0.00000000E+00  0.00000000E+00
  0.00000000E+00  0.00000000E+00  0.00000000E+00
  0.00000000E+00  0.00000000E+00  0.00000000E+00
  0.00000000E+00  0.00000000E+00  0.00000000E+00
  0.00000000E+00  0.00000000E+00  0.00000000E+00
  0.00000000E+00  0.00000000E+00  0.00000000E+00
  0.00000000E+00  0.00000000E+00  0.00000000E+00
  0.00000000E+00  0.00000000E+00  0.00000000E+00
  0.00000000E+00  0.00000000E+00  0.00000000E+00
  0.00000000E+00  0.00000000E+00  0.00000000E+00
  0.00000000E+00  0.00000000E+00  0.00000000E+00
  0.00000000E+00  0.00000000E+00  0.00000000E+00
  0.00000000E+00  0.00000000E+00  0.00000000E+00
  0.00000000E+00  0.00000000E+00  0.00000000E+00
  0.00000000E+00  0.00000000E+00  0.00000000E+00
  0.00000000E+00  0.00000000E+00  0.00000000E+00
  0.00000000E+00  0.00000000E+00  0.00000000E+00
  0.00000000E+00  0.00000000E+00  0.00000000E+00
  0.00000000E+00  0.00000000E+00  0.00000000E+00
  0.00000000E+00  0.00000000E+00  0.00000000E+00
  0.00000000E+00  0.00000000E+00  0.00000000E+00
  0.00000000E+00  0.00000000E+00  0.00000000E+00
  0.00000000E+00  0.00000000E+00  0.00000000E+00
  0.00000000E+00  0.00000000E+00  0.00000000E+00
  0.00000000E+00  0.00000000E+00  0.00000000E+00
  0.00000000E+00  0.00000000E+00  0.00000000E+00
  0.00000000E+00  0.00000000E+00  0.00000000E+00
  0.00000000E+00  0.00000000E+00  0.00000000E+00
  0.00000000E+00  0.00000000E+00  0.00000000E+00
  0.00000000E+00  0.00000000E+00  0.00000000E+00
  0.00000000E+00  0.00000000E+00  0.00000000E+00
  0.00000000E+00  0.00000000E+00  0.00000000E+00
  0.00000000E+00  0.00000000E+00  0.00000000E+00
  0.00000000E+00  0.00000000E+00  0.00000000E+00
  0.00000000E+00  0.00000000E+00  0.00000000E+00
  0.00000000E+00  0.00000000E+00  0.00000000E+00
  0.00000000E+00  0.00000000E+00  0.00000000E+00
  0.00000000E+00  0.00000000E+00  0.00000000E+00
  0.00000000E+00  0.00000000E+00  0.00000000E+00
  0.00000000E+00  0.00000000E+00  0.00000000E+00
  0.00000000E+00  0.00000000E+00  0.00000000E+00
  0.00000000E+00  0.00000000E+00  0.00000000E+00
  0.00000000E+00  0.00000000E+00  0.00000000E+00
  0.00000000E+00  0.00000000E+00  0.00000000E+00
  0.00000000E+00  0.00000000E+00  0.00000000E+00
  0.00000000E+00  0.00000000E+00  0.00000000E+00
  0.00000000E+00  0.00000000E+00  0.00000000E+00
  0.00000000E+00  0.00000000E+00  0.00000000E+00
  0.00000000E+00  0.00000000E+00  0.00000000E+00
  0.00000000E+00  0.00000000E+00  0.00000000E+00
  0.00000000E+00  0.00000000E+00  0.00000000E+00
  0.00000000E+00  0.00000000E+00  0.00000000E+00
  0.00000000E+00  0.00000000E+00  0.00000000E+00
  0.00000000E+00  0.00000000E+00  0.00000000E+00
  0.00000000E+00  0.00000000E+00  0.00000000E+00
  0.00000000E+00  0.00000000E+00  0.00000000E+00
  0.00000000E+00  0.00000000E+00  0.00000000E+00
  0.00000000E+00  0.00000000E+00  0.00000000E+00
  0.00000000E+00  0.00000000E+00  0.00000000E+00
  0.00000000E+00  0.00000000E+00  0.00000000E+00
  0.00000000E+00  0.00000000E+00  0.00000000E+00
  0.00000000E+00  0.00000000E+00  0.00000000E+00
  0.00000000E+00  0.00000000E+00  0.00000000E+00
  0.00000000E+00  0.00000000E+00  0.00000000E+00
  0.00000000E+00  0.00000000E+00  0.00000000E+00
  0.00000000E+00  0.00000000E+00  0.00000000E+00
  0.00000000E+00  0.00000000E+00  0.00000000E+00
  0.00000000E+00  0.00000000E+00  0.00000000E+00
  0.00000000E+00  0.00000000E+00  0.00000000E+00
  0.00000000E+00  0.00000000E+00  0.00000000E+00
  0.00000000E+00  0.00000000E+00  0.00000000E+00
  0.00000000E+00  0.00000000E+00  0.00000000E+00
  0.00000000E+00  0.00000000E+00  0.00000000E+00
  0.00000000E+00  0.00000000E+00  0.00000000E+00
  0.00000000E+00  0.00000000E+00  0.00000000E+00
  0.00000000E+00  0.00000000E+00  0.00000000E+00
  0.00000000E+00  0.00000000E+00  0.00000000E+00
  0.00000000E+00  0.00000000E+00  0.00000000E+00
  0.00000000E+00  0.00000000E+00  0.00000000E+00
  0.00000000E+00  0.00000000E+00  0.00000000E+00
  0.00000000E+00  0.00000000E+00  0.00000000E+00
  0.00000000E+00  0.00000000E+00  0.00000000E+00
  0.00000000E+00  0.00000000E+00  0.00000000E+00
  0.00000000E+00  0.00000000E+00  0.00000000E+00
  0.00000000E+00  0.00000000E+00  0.00000000E+00
  0.00000000E+00  0.00000000E+00  0.00000000E+00
  0.00000000E+00  0.00000000E+00  0.00000000E+00
  0.00000000E+00  0.00000000E+00  0.00000000E+00
  0.00000000E+00  0.00000000E+00  0.00000000E+00
  0.00000000E+00  0.00000000E+00  0.00000000E+00
  0.00000000E+00  0.00000000E+00  0.00000000E+00
  0.00000000E+00  0.00000000E+00  0.00000000E+00
