supercell of supercell of icsd_608626.c 
   1.00600000000000     
    18.8433725412000008    0.0042597715995000    0.0111656436851000
    -6.2786657403800001   10.8752831735999997   -0.0012954496991100
     0.0059525623905900    0.0022414031449000   10.0498800689000003
   Al   Gd   N    O 
    92     4    95     1
Direct
  0.1117701641406086  0.0835670174202221  0.2490388164806134
  0.0510229276464997  0.1613397182336200  0.9999278187993283
  0.4448498015346942  0.3343372005790357  0.7495446717066940
  0.3905331248183401  0.4173847620373294  0.4999816633030960
  0.2789842623106580  0.0851255306228680  0.2569773823823880
  0.2243118986800354  0.1681804686055770  0.9998750158801073
  0.1069781471677373  0.3300485569866325  0.7469297583081271
  0.0525451845676557  0.4203433906604417  0.5021041669811623
  0.4441821910411221  0.0835319224511935  0.2494980507633713
  0.3917824472941618  0.1721784774014168  0.9989818371368955
  0.2795580634634263  0.3309364683463656  0.7440107186764209
  0.2264644949006609  0.4197768057659559  0.5015105286682626
  0.1116331849643686  0.0836323828697161  0.7501372707930685
  0.0525189059200102  0.1583820832863978  0.5021688751263866
  0.4443614313537978  0.3332551507553916  0.2496587107091628
  0.3897996023826025  0.4144237712087602  0.9999051361745757
  0.2802147901384373  0.0885352574844731  0.7445765852473087
  0.2219394976967024  0.1655953295515431  0.5016476163972570
  0.1084682556657270  0.3311570322289157  0.2521627531448161
  0.0525825363658967  0.4159241436114485  0.0007570704676780
  0.4440393102566702  0.0826363481145265  0.7488284710583173
  0.3905916320873217  0.1682450593088021  0.4999449154551598
  0.2785883965257980  0.3318244173912603  0.2586641493944768
  0.6111242408659834  0.0835957506577998  0.2491432679985337
  0.5509849994255305  0.1609733041524137  0.9995656551612981
  0.9442845668315272  0.3338272042922839  0.7503800907770994
  0.8892644340775036  0.4170376950287604  0.4996143416113199
  0.7780294936901058  0.0847274236249476  0.2565497380548223
  0.7235863439647261  0.1679795065744472  0.0001623168632463
  0.6063653922038839  0.3294981861858588  0.7426067768084152
  0.5549540389092869  0.4173816619743320  0.4994189946878933
  0.9432314252812333  0.0828415963221687  0.2492609305568010
  0.8912707983439958  0.1721298526586352  0.9992353934083553
  0.7793145650005329  0.3309259319373652  0.7440605504133089
  0.7221265318987093  0.4165479381925650  0.4999555886166291
  0.6109736302972948  0.0833038755588902  0.7490849423464212
  0.5547333336205327  0.1646797492092702  0.4994932945990627
  0.9434361528596753  0.3327523630236655  0.2496831361063627
  0.8892875803343827  0.4143154492712924  0.0005724853436959
  0.7794833077152745  0.0884805406454774  0.7444621072229012
  0.7211435972954803  0.1659420894703700  0.5001951561375151
  0.6096603578889344  0.3320186599924710  0.2570047442376051
  0.5523295288577685  0.4156480973264181  0.0004836449193135
  0.9435307640767974  0.0825552133646354  0.7496666776095893
  0.8894146833108181  0.1675032902551621  0.5006606168096610
  0.7779323248969447  0.3325922347173318  0.2566758901259263
  0.1108132402703887  0.5837274328026965  0.2495132682262238
  0.0502111106654226  0.6609575607609131  0.9998690600781401
  0.4455832150511654  0.8351552635240154  0.7492255371380523
  0.3905724132485844  0.9178107524153987  0.4990070139661782
  0.2789319544343698  0.5861358192304067  0.2592358738174170
  0.2220158771765739  0.6659763787572359  0.0026139451396503
  0.1069152519602383  0.8300118175728386  0.7431844454941228
  0.0554402198678758  0.9175838068356015  0.4997131381713871
  0.4436883838970473  0.5827897540884308  0.2494661561496798
  0.3935022069252270  0.6743549180660224  0.9990527617037301
  0.2802345001350872  0.8311511159182388  0.7399245770486473
  0.2225807627535730  0.9170648231547887  0.5003353707945806
  0.1110150127858631  0.5834132082865437  0.7497778572159035
  0.0545103032755279  0.6649832925086656  0.5004046055398774
  0.4447826619849877  0.8337361051720436  0.2497236867258223
  0.3922189800601288  0.9160184933173809  0.0011829341847829
  0.2800542575280360  0.5892578004633151  0.7410653057127874
  0.2213794118729027  0.6667585894036634  0.5008699323480883
  0.1098771138980013  0.8321565325308740  0.2578155588034434
  0.0545314546619053  0.9179100115886882  0.0004151514995883
  0.4437076641182998  0.5822907075671111  0.7490685129588854
  0.3913285125234722  0.6693260933543357  0.5001440657859320
  0.2788734471409811  0.8334381838449048  0.2585849521987953
  0.6102182680550712  0.5827834389795896  0.2498641241288908
  0.5501334335829995  0.6607475573789401  0.9998064796476243
  0.9459412964705223  0.8354056380032944  0.7493202440895743
  0.8901098204008733  0.9169891609675389  0.4989024771104056
  0.7788724191530321  0.5849689951229777  0.2579404785419541
  0.7208779041140829  0.6658939633816416  0.0040039033366241
  0.6064305509582866  0.8296738572353561  0.7426802931746579
  0.5552539227640665  0.9179401672281031  0.4991708967978141
  0.9438150910165035  0.5827699042497372  0.2497025369389831
  0.8945844909601917  0.6755918329544599  0.9998460232691571
  0.7800132730724485  0.8306038038587928  0.7382383249860851
  0.7219258828871062  0.9167198993061589  0.5000865384576798
  0.6106997834575978  0.5829799410973351  0.7483083727114987
  0.5544864068691524  0.6645992947575508  0.4997451594832043
  0.9450205009045405  0.8339036833352580  0.2499911092148679
  0.8923499983522163  0.9157766104469331  0.0012022581284015
  0.7804523756703148  0.5901502624481196  0.7382747204768449
  0.7208402287077362  0.6656513015819172  0.4986190179281209
  0.6095486733963327  0.8319909386301134  0.2571956944504024
  0.5541215663337979  0.9177784700557936  0.0002575237286777
  0.9436049187626949  0.5821925952169735  0.7491325283069585
  0.8909731336964768  0.6687919707456871  0.4991910970156539
  0.7783904000924977  0.8331189157639400  0.2583462625156940
  0.2218965345651824  0.4188011301165204  0.9985603305052848
  0.7208644917825069  0.4206394062874423  0.9908461369154367
  0.2210972355398653  0.9120940485417037  0.9932742015190357
  0.7210975084511446  0.9116336459164174  0.9915163971497947
  0.1116006135288430  0.0851920938981294  0.4389935977993602
  0.0553459695809764  0.1671349341833164  0.1923977692910483
  0.4456427702232233  0.3366039343140415  0.9398413609455361
  0.3898225628595640  0.4173473868595750  0.6881627904562819
  0.2787960373587737  0.0852636170653582  0.4462611633869145
  0.2230246804115481  0.1675242307654159  0.1916252103883522
  0.0944556322764569  0.3200725245039564  0.9327918495978977
  0.0553447584629794  0.4172110221855263  0.6879141380517879
  0.4442878488116122  0.0832506485409255  0.4389735963747299
  0.3886521428468654  0.1668012733444257  0.1902858315630880
  0.2847197938977857  0.3258682167147668  0.9305365655435835
  0.2210389784760167  0.4161984173755044  0.6945222014592431
  0.1121951465042486  0.0851826003762355  0.9422106841850777
  0.0550068126425458  0.1654038897089762  0.6882612704391846
  0.4446360056813674  0.3337668050798968  0.4389255749312468
  0.3876888515798100  0.4159543482019998  0.1910904662670632
  0.2856604615250191  0.1021350281088544  0.9314961750793174
  0.2209628640755099  0.1655609949666115  0.6884549345239463
  0.0557948920481124  0.4160776330120299  0.1929233148094980
  0.4406755750067859  0.0790725109274604  0.9402675875710997
  0.3909338690132174  0.1685994286759680  0.6889128335675920
  0.2780131024349473  0.3321495882502177  0.4471774972312090
  0.2205294065438324  0.4155171399849280  0.2225400584873825
  0.6110635421318591  0.0834861647366338  0.4386085674435449
  0.5553917256297183  0.1669303771922301  0.1901800410791736
  0.9458806029623830  0.3368969131436046  0.9404806104881160
  0.8900935775757262  0.4171665477093853  0.6881565347713661
  0.7786333727514574  0.0850351838533143  0.4459890219283764
  0.7227667453711177  0.1671676316588062  0.1914230996576975
  0.5930954511005240  0.3187816468773050  0.9304109918529591
  0.5548598279999268  0.4181190451166472  0.6883422859329258
  0.9448347292975825  0.0845330208012101  0.4391699995188674
  0.8884772126920311  0.1666984134660865  0.1906161228936014
  0.7844639507868365  0.3258278759892335  0.9313078421592564
  0.7221963409281926  0.4175456634535664  0.6980537625130907
  0.6120274922165549  0.0844369798827103  0.9413168372948562
  0.5544670390896869  0.1637408798940854  0.6886270825478320
  0.9450987324744631  0.3332102649489883  0.4392938495111594
  0.8883036068924000  0.4161324606636612  0.1914642693657029
  0.7854342205247775  0.1021816750682660  0.9315419699031864
  0.7208279088861573  0.1656824181231116  0.6877408407606609
  0.6098333362501762  0.3323087525709525  0.4464420999772614
  0.5558741352170102  0.4165089568066946  0.1907291043745190
  0.9409008795306164  0.0793641314164617  0.9409664599747387
  0.8907436627844660  0.1684354887096902  0.6893396934455751
  0.7783946704151816  0.3326882904393713  0.4457681094940753
  0.7221184339234696  0.4170859072382456  0.2132702200810002
  0.1111166490704747  0.5822650731036134  0.4391039416673834
  0.0554055827969648  0.6668571808448078  0.1906835552161681
  0.4471557275478517  0.8377306415228034  0.9396690056165298
  0.3906099095509745  0.9175725211486352  0.6873304641202296
  0.2784033853601713  0.5853031387183734  0.4476380335095058
  0.2225469659164148  0.6667470390350232  0.1924308778660517
  0.0933490969911546  0.8191673929555421  0.9305014852159204
  0.0558070392660497  0.9192582433489918  0.6881103694971742
  0.4438662273785070  0.5829424746706451  0.4391039203198730
  0.3878676971323003  0.6661531297126260  0.1901431402927685
  0.2877615484945721  0.8209443135682264  0.9281499466101977
  0.2221854039589246  0.9161677648427968  0.6978571281569828
  0.1114906358878471  0.5836318469150896  0.9423719926733440
  0.0543618579647642  0.6632633341332195  0.6894180320407628
  0.4448100790694696  0.8337256336511132  0.4386184256770989
  0.3882592625398402  0.9160638159349119  0.1912060159197040
  0.2872931233091904  0.6082296191514445  0.9285613297674900
  0.2202950271388389  0.6651330329184759  0.6874463954989949
  0.1099451189610292  0.8320706614527751  0.4470736929144152
  0.0565384848924353  0.9170766636834458  0.1912900208666812
  0.4402882752250648  0.5790800548210626  0.9404354081536468
  0.3909800467295454  0.6688560930957834  0.6886791752655128
  0.2785635376509248  0.8325444623841207  0.4468478454089464
  0.2221259025518876  0.9163633574142622  0.2153397678964666
  0.6106550713164296  0.5832326475919984  0.4386513159906116
  0.5550315728383950  0.6666660573345879  0.1902210419950663
  0.9478843222282975  0.8387448084527662  0.9397371232888929
  0.8910321110653783  0.9181684356677593  0.6871884867475089
  0.7791211888296132  0.5855738579258443  0.4465791857096946
  0.7225235583912877  0.6670439055000230  0.1926748517343739
  0.5932440722497745  0.8190922230592506  0.9304196447359629
  0.5552926316593343  0.9183564836368774  0.6878604865038582
  0.9445029095710211  0.5829764657446361  0.4392961603764292
  0.8888476459623789  0.6672310790452869  0.1902969596616231
  0.7879512473824022  0.8194695073915312  0.9270757256194671
  0.7221130429608777  0.9160899685219306  0.6980583925497825
  0.6115462391515081  0.5838691209826337  0.9414742573927484
  0.5541114492789063  0.6634527335408080  0.6890043708466038
  0.9454395749067714  0.8346260820189855  0.4387777573616560
  0.8883630454083473  0.9161797330656540  0.1913082000422293
  0.7889676498509814  0.6137732737440373  0.9273870413271297
  0.7203150359699748  0.6653331053694629  0.6856431775245113
  0.6096603054898466  0.8319101443872157  0.4465129329804611
  0.5560395153204709  0.9164705671623494  0.1907797810931626
  0.9402148790963309  0.5790518260090920  0.9405984582622864
  0.8917927211449239  0.6697567481792817  0.6880699742401788
  0.7787356975814674  0.8331807870347987  0.4465797219869145
  0.7219800493759081  0.9162051002436087  0.2137253245864059
  0.1085367030252016  0.3313569593615426  0.4457337100157162
 
  0.00000000E+00  0.00000000E+00  0.00000000E+00
  0.00000000E+00  0.00000000E+00  0.00000000E+00
  0.00000000E+00  0.00000000E+00  0.00000000E+00
  0.00000000E+00  0.00000000E+00  0.00000000E+00
  0.00000000E+00  0.00000000E+00  0.00000000E+00
  0.00000000E+00  0.00000000E+00  0.00000000E+00
  0.00000000E+00  0.00000000E+00  0.00000000E+00
  0.00000000E+00  0.00000000E+00  0.00000000E+00
  0.00000000E+00  0.00000000E+00  0.00000000E+00
  0.00000000E+00  0.00000000E+00  0.00000000E+00
  0.00000000E+00  0.00000000E+00  0.00000000E+00
  0.00000000E+00  0.00000000E+00  0.00000000E+00
  0.00000000E+00  0.00000000E+00  0.00000000E+00
  0.00000000E+00  0.00000000E+00  0.00000000E+00
  0.00000000E+00  0.00000000E+00  0.00000000E+00
  0.00000000E+00  0.00000000E+00  0.00000000E+00
  0.00000000E+00  0.00000000E+00  0.00000000E+00
  0.00000000E+00  0.00000000E+00  0.00000000E+00
  0.00000000E+00  0.00000000E+00  0.00000000E+00
  0.00000000E+00  0.00000000E+00  0.00000000E+00
  0.00000000E+00  0.00000000E+00  0.00000000E+00
  0.00000000E+00  0.00000000E+00  0.00000000E+00
  0.00000000E+00  0.00000000E+00  0.00000000E+00
  0.00000000E+00  0.00000000E+00  0.00000000E+00
  0.00000000E+00  0.00000000E+00  0.00000000E+00
  0.00000000E+00  0.00000000E+00  0.00000000E+00
  0.00000000E+00  0.00000000E+00  0.00000000E+00
  0.00000000E+00  0.00000000E+00  0.00000000E+00
  0.00000000E+00  0.00000000E+00  0.00000000E+00
  0.00000000E+00  0.00000000E+00  0.00000000E+00
  0.00000000E+00  0.00000000E+00  0.00000000E+00
  0.00000000E+00  0.00000000E+00  0.00000000E+00
  0.00000000E+00  0.00000000E+00  0.00000000E+00
  0.00000000E+00  0.00000000E+00  0.00000000E+00
  0.00000000E+00  0.00000000E+00  0.00000000E+00
  0.00000000E+00  0.00000000E+00  0.00000000E+00
  0.00000000E+00  0.00000000E+00  0.00000000E+00
  0.00000000E+00  0.00000000E+00  0.00000000E+00
  0.00000000E+00  0.00000000E+00  0.00000000E+00
  0.00000000E+00  0.00000000E+00  0.00000000E+00
  0.00000000E+00  0.00000000E+00  0.00000000E+00
  0.00000000E+00  0.00000000E+00  0.00000000E+00
  0.00000000E+00  0.00000000E+00  0.00000000E+00
  0.00000000E+00  0.00000000E+00  0.00000000E+00
  0.00000000E+00  0.00000000E+00  0.00000000E+00
  0.00000000E+00  0.00000000E+00  0.00000000E+00
  0.00000000E+00  0.00000000E+00  0.00000000E+00
  0.00000000E+00  0.00000000E+00  0.00000000E+00
  0.00000000E+00  0.00000000E+00  0.00000000E+00
  0.00000000E+00  0.00000000E+00  0.00000000E+00
  0.00000000E+00  0.00000000E+00  0.00000000E+00
  0.00000000E+00  0.00000000E+00  0.00000000E+00
  0.00000000E+00  0.00000000E+00  0.00000000E+00
  0.00000000E+00  0.00000000E+00  0.00000000E+00
  0.00000000E+00  0.00000000E+00  0.00000000E+00
  0.00000000E+00  0.00000000E+00  0.00000000E+00
  0.00000000E+00  0.00000000E+00  0.00000000E+00
  0.00000000E+00  0.00000000E+00  0.00000000E+00
  0.00000000E+00  0.00000000E+00  0.00000000E+00
  0.00000000E+00  0.00000000E+00  0.00000000E+00
  0.00000000E+00  0.00000000E+00  0.00000000E+00
  0.00000000E+00  0.00000000E+00  0.00000000E+00
  0.00000000E+00  0.00000000E+00  0.00000000E+00
  0.00000000E+00  0.00000000E+00  0.00000000E+00
  0.00000000E+00  0.00000000E+00  0.00000000E+00
  0.00000000E+00  0.00000000E+00  0.00000000E+00
  0.00000000E+00  0.00000000E+00  0.00000000E+00
  0.00000000E+00  0.00000000E+00  0.00000000E+00
  0.00000000E+00  0.00000000E+00  0.00000000E+00
  0.00000000E+00  0.00000000E+00  0.00000000E+00
  0.00000000E+00  0.00000000E+00  0.00000000E+00
  0.00000000E+00  0.00000000E+00  0.00000000E+00
  0.00000000E+00  0.00000000E+00  0.00000000E+00
  0.00000000E+00  0.00000000E+00  0.00000000E+00
  0.00000000E+00  0.00000000E+00  0.00000000E+00
  0.00000000E+00  0.00000000E+00  0.00000000E+00
  0.00000000E+00  0.00000000E+00  0.00000000E+00
  0.00000000E+00  0.00000000E+00  0.00000000E+00
  0.00000000E+00  0.00000000E+00  0.00000000E+00
  0.00000000E+00  0.00000000E+00  0.00000000E+00
  0.00000000E+00  0.00000000E+00  0.00000000E+00
  0.00000000E+00  0.00000000E+00  0.00000000E+00
  0.00000000E+00  0.00000000E+00  0.00000000E+00
  0.00000000E+00  0.00000000E+00  0.00000000E+00
  0.00000000E+00  0.00000000E+00  0.00000000E+00
  0.00000000E+00  0.00000000E+00  0.00000000E+00
  0.00000000E+00  0.00000000E+00  0.00000000E+00
  0.00000000E+00  0.00000000E+00  0.00000000E+00
  0.00000000E+00  0.00000000E+00  0.00000000E+00
  0.00000000E+00  0.00000000E+00  0.00000000E+00
  0.00000000E+00  0.00000000E+00  0.00000000E+00
  0.00000000E+00  0.00000000E+00  0.00000000E+00
  0.00000000E+00  0.00000000E+00  0.00000000E+00
  0.00000000E+00  0.00000000E+00  0.00000000E+00
  0.00000000E+00  0.00000000E+00  0.00000000E+00
  0.00000000E+00  0.00000000E+00  0.00000000E+00
  0.00000000E+00  0.00000000E+00  0.00000000E+00
  0.00000000E+00  0.00000000E+00  0.00000000E+00
  0.00000000E+00  0.00000000E+00  0.00000000E+00
  0.00000000E+00  0.00000000E+00  0.00000000E+00
  0.00000000E+00  0.00000000E+00  0.00000000E+00
  0.00000000E+00  0.00000000E+00  0.00000000E+00
  0.00000000E+00  0.00000000E+00  0.00000000E+00
  0.00000000E+00  0.00000000E+00  0.00000000E+00
  0.00000000E+00  0.00000000E+00  0.00000000E+00
  0.00000000E+00  0.00000000E+00  0.00000000E+00
  0.00000000E+00  0.00000000E+00  0.00000000E+00
  0.00000000E+00  0.00000000E+00  0.00000000E+00
  0.00000000E+00  0.00000000E+00  0.00000000E+00
  0.00000000E+00  0.00000000E+00  0.00000000E+00
  0.00000000E+00  0.00000000E+00  0.00000000E+00
  0.00000000E+00  0.00000000E+00  0.00000000E+00
  0.00000000E+00  0.00000000E+00  0.00000000E+00
  0.00000000E+00  0.00000000E+00  0.00000000E+00
  0.00000000E+00  0.00000000E+00  0.00000000E+00
  0.00000000E+00  0.00000000E+00  0.00000000E+00
  0.00000000E+00  0.00000000E+00  0.00000000E+00
  0.00000000E+00  0.00000000E+00  0.00000000E+00
  0.00000000E+00  0.00000000E+00  0.00000000E+00
  0.00000000E+00  0.00000000E+00  0.00000000E+00
  0.00000000E+00  0.00000000E+00  0.00000000E+00
  0.00000000E+00  0.00000000E+00  0.00000000E+00
  0.00000000E+00  0.00000000E+00  0.00000000E+00
  0.00000000E+00  0.00000000E+00  0.00000000E+00
  0.00000000E+00  0.00000000E+00  0.00000000E+00
  0.00000000E+00  0.00000000E+00  0.00000000E+00
  0.00000000E+00  0.00000000E+00  0.00000000E+00
  0.00000000E+00  0.00000000E+00  0.00000000E+00
  0.00000000E+00  0.00000000E+00  0.00000000E+00
  0.00000000E+00  0.00000000E+00  0.00000000E+00
  0.00000000E+00  0.00000000E+00  0.00000000E+00
  0.00000000E+00  0.00000000E+00  0.00000000E+00
  0.00000000E+00  0.00000000E+00  0.00000000E+00
  0.00000000E+00  0.00000000E+00  0.00000000E+00
  0.00000000E+00  0.00000000E+00  0.00000000E+00
  0.00000000E+00  0.00000000E+00  0.00000000E+00
  0.00000000E+00  0.00000000E+00  0.00000000E+00
  0.00000000E+00  0.00000000E+00  0.00000000E+00
  0.00000000E+00  0.00000000E+00  0.00000000E+00
  0.00000000E+00  0.00000000E+00  0.00000000E+00
  0.00000000E+00  0.00000000E+00  0.00000000E+00
  0.00000000E+00  0.00000000E+00  0.00000000E+00
  0.00000000E+00  0.00000000E+00  0.00000000E+00
  0.00000000E+00  0.00000000E+00  0.00000000E+00
  0.00000000E+00  0.00000000E+00  0.00000000E+00
  0.00000000E+00  0.00000000E+00  0.00000000E+00
  0.00000000E+00  0.00000000E+00  0.00000000E+00
  0.00000000E+00  0.00000000E+00  0.00000000E+00
  0.00000000E+00  0.00000000E+00  0.00000000E+00
  0.00000000E+00  0.00000000E+00  0.00000000E+00
  0.00000000E+00  0.00000000E+00  0.00000000E+00
  0.00000000E+00  0.00000000E+00  0.00000000E+00
  0.00000000E+00  0.00000000E+00  0.00000000E+00
  0.00000000E+00  0.00000000E+00  0.00000000E+00
  0.00000000E+00  0.00000000E+00  0.00000000E+00
  0.00000000E+00  0.00000000E+00  0.00000000E+00
  0.00000000E+00  0.00000000E+00  0.00000000E+00
  0.00000000E+00  0.00000000E+00  0.00000000E+00
  0.00000000E+00  0.00000000E+00  0.00000000E+00
  0.00000000E+00  0.00000000E+00  0.00000000E+00
  0.00000000E+00  0.00000000E+00  0.00000000E+00
  0.00000000E+00  0.00000000E+00  0.00000000E+00
  0.00000000E+00  0.00000000E+00  0.00000000E+00
  0.00000000E+00  0.00000000E+00  0.00000000E+00
  0.00000000E+00  0.00000000E+00  0.00000000E+00
  0.00000000E+00  0.00000000E+00  0.00000000E+00
  0.00000000E+00  0.00000000E+00  0.00000000E+00
  0.00000000E+00  0.00000000E+00  0.00000000E+00
  0.00000000E+00  0.00000000E+00  0.00000000E+00
  0.00000000E+00  0.00000000E+00  0.00000000E+00
  0.00000000E+00  0.00000000E+00  0.00000000E+00
  0.00000000E+00  0.00000000E+00  0.00000000E+00
  0.00000000E+00  0.00000000E+00  0.00000000E+00
  0.00000000E+00  0.00000000E+00  0.00000000E+00
  0.00000000E+00  0.00000000E+00  0.00000000E+00
  0.00000000E+00  0.00000000E+00  0.00000000E+00
  0.00000000E+00  0.00000000E+00  0.00000000E+00
  0.00000000E+00  0.00000000E+00  0.00000000E+00
  0.00000000E+00  0.00000000E+00  0.00000000E+00
  0.00000000E+00  0.00000000E+00  0.00000000E+00
  0.00000000E+00  0.00000000E+00  0.00000000E+00
  0.00000000E+00  0.00000000E+00  0.00000000E+00
  0.00000000E+00  0.00000000E+00  0.00000000E+00
  0.00000000E+00  0.00000000E+00  0.00000000E+00
  0.00000000E+00  0.00000000E+00  0.00000000E+00
  0.00000000E+00  0.00000000E+00  0.00000000E+00
  0.00000000E+00  0.00000000E+00  0.00000000E+00
  0.00000000E+00  0.00000000E+00  0.00000000E+00
  0.00000000E+00  0.00000000E+00  0.00000000E+00
  0.00000000E+00  0.00000000E+00  0.00000000E+00
  0.00000000E+00  0.00000000E+00  0.00000000E+00
  0.00000000E+00  0.00000000E+00  0.00000000E+00
