generated by phonopy                    
   1.00000000000000     
    11.7777700938999992   -0.0000006592896312    0.0000118211769744
    -0.0000006477562692   11.7777479613999994   -0.0000130806483528
     0.0000177256125076   -0.0000204342245446   17.8544012557999991
   Bi   Tl   Cu   Se   O 
    36     1    35    36    36
Direct
  0.9998649087740930  0.1675723374120608  0.4319408168398908
  0.3353907796922400  0.1657746621769931  0.4316622313533571
  0.6644088294230457  0.1658353905033607  0.4316460004638571
  0.9999182873046450  0.5001161335546911  0.4301267917416638
  0.3339902280703484  0.5001176911136653  0.4311884656122231
  0.6657285005498821  0.5001587512221661  0.4312516557626083
  0.9997852153392799  0.8327612329571323  0.4319484882158875
  0.3354116716724604  0.8344747555751866  0.4316264376146179
  0.6644499032314144  0.8345975853918830  0.4316540406757809
  0.0000591036127773  0.1669033582472821  0.9273681161687861
  0.3337080146129523  0.1670822512203145  0.9277795761534904
  0.6663232868430597  0.1670779868659409  0.9277842277115624
  0.0000278456883080  0.4998006399773800  0.9248764133824281
  0.3340944916851001  0.4998435216434771  0.9266542820778625
  0.6659637785556356  0.4998314653100309  0.9266838098748238
  0.9999987281899081  0.8327899541442392  0.9273079720141340
  0.3337714692472602  0.8326489514511550  0.9277311488347451
  0.6662742484128898  0.8326703387797849  0.9277594234790385
  0.1674276522739788  0.9997651855070160  0.0681795613056408
  0.4999831159163932  0.9999103944993450  0.0699913543041859
  0.8326238936149650  0.9998361886996889  0.0681678047235934
  0.1657351338851498  0.3353838802788260  0.0685011435096143
  0.5000371234730210  0.3339629840674334  0.0689349262369134
  0.8344412292294905  0.3353260417725679  0.0684874743415662
  0.1656022189153248  0.6644047193336675  0.0684374633317759
  0.4999868507718617  0.6657043798851916  0.0688510114011436
  0.8343855274495695  0.6643917826488135  0.0684682868497077
  0.1669253822972436  0.0001385034207715  0.5727499599198964
  0.4998543787470240  0.0001700371669600  0.5752437558681009
  0.8328119879606817  0.0001969081668420  0.5727993149988677
  0.1671147114540830  0.3338645980319086  0.5723535943062785
  0.4998690159271462  0.3342400942613040  0.5734689102203632
  0.8326757048500326  0.3339048839757197  0.5723755327042070
  0.1670858549893453  0.6664731447125334  0.5723209457157168
  0.4998806234266624  0.6660957774369862  0.5734355694373647
  0.8326742602689876  0.6664117797797360  0.5723649223034784
  0.9993952806611190  0.9993119723956738  0.2500493668264951
  0.3358599658702985  0.9998174121760002  0.2474491640411927
  0.6643165486715930  0.0000557966437498  0.2475459363928607
  0.0001134664647822  0.3358834432930777  0.2526913515332510
  0.3356017705400589  0.3355659199816401  0.2500416242381220
  0.6642396576000777  0.3356721125887745  0.2500799046724467
  0.9998227608749559  0.6643756158629017  0.2525506431165638
  0.3355813497610356  0.6642022356760862  0.2500611757588800
  0.6641088493629539  0.6641913005239957  0.2500368429877469
  0.9999792444051963  0.0000726222488368  0.7500540335649930
  0.3326172787377857  0.0000657298976492  0.7503524482427366
  0.6673184649321087  0.0000675837020196  0.7503442505374593
  0.9999802904603428  0.3327131135676282  0.7497540651324499
  0.3332574708836802  0.3333518554581616  0.7500459950555509
  0.6667241693521788  0.3333382029749572  0.7500592682955869
  0.9999688365434025  0.6674162332883498  0.7497772323186780
  0.3332295853400424  0.6668363674263134  0.7500684267784337
  0.6667344948628866  0.6668433738276889  0.7500636163508929
  0.1764825423714882  0.1752178891494296  0.2505797744870648
  0.4999617858146337  0.1671047479051779  0.2497994082723736
  0.8250284597784443  0.1772056594990588  0.2493201333413708
  0.1670107099497997  0.5001344803995806  0.2503042768959318
  0.4999308374529576  0.5000118357980909  0.2500548148499604
  0.8329233818851876  0.5000437285461530  0.2503250205023519
  0.1760926662460278  0.8240237544409013  0.2500377235789841
  0.5000152897919605  0.8330091838918250  0.2497822622293668
  0.8231285672456821  0.8242768343686535  0.2504250010466080
  0.1659551039088001  0.1659550204875657  0.7500519852833634
  0.4999123721469303  0.1661521252148148  0.7496713391679748
  0.8338939887131929  0.1659705691689766  0.7500504505987351
  0.1661290632899082  0.4999476879781142  0.7504432305476669
  0.4999067745675063  0.4999376634850137  0.7500613016318667
  0.8337750264816108  0.4999327399292213  0.7504431258520867
  0.1659475923112623  0.8338859232429741  0.7500609514087841
  0.4999192444560947  0.8337920917505670  0.7496773150355125
  0.8338618299715250  0.8338871911662196  0.7500591830666039
  0.1672042655869461  0.3338349202343380  0.3384606510994530
  0.4999169249055981  0.3334109891301225  0.3377704799392305
  0.8326870750691242  0.3338259981087219  0.3385555478461768
  0.1670628277991142  0.6664253308202461  0.3384462683744616
  0.4998847609108310  0.6667547523976509  0.3377491330290994
  0.8327331098628292  0.6664057708699787  0.3384466464684479
  0.1898248519200223  0.0003428320454759  0.3466922222519031
  0.4998979489364075  0.0000568013168873  0.3379997189338084
  0.8096143399456821  0.0004559957993209  0.3470715998376122
  0.1668936474035547  0.3323592569122411  0.8365915001389297
  0.4999903141673272  0.3326663164166064  0.8363552031889867
  0.8330847017656069  0.3323594361069837  0.8366033188164010
  0.1668803512399251  0.6674661734201237  0.8366206422170634
  0.4999971041500544  0.6672064743005990  0.8363326275455520
  0.8330782849961622  0.6674676370047905  0.8366225560247571
  0.1662639273462645  0.9999299992900816  0.8372693644669056
  0.4999846832873658  0.9999752610639376  0.8366867584698099
  0.8336906800146267  0.9999328935113070  0.8372592616467003
  0.3336936135571449  0.1671723548778772  0.1616200849536398
  0.6663220581340923  0.1671271684740745  0.1617227141862045
  0.0003084594709932  0.1898080897774932  0.1534952134806886
  0.3333122978763257  0.4999148463549616  0.1623468029822206
  0.6666532406435337  0.4999312515955410  0.1623590629818707
  0.9999557310987512  0.4999097628686400  0.1621151972498680
  0.3337151539036114  0.8326774027070130  0.1616009987480638
  0.6662931234695790  0.8327777239491994  0.1616043542047478
  0.0001968132642105  0.8095819817339347  0.1529782684139676
  0.3323533913070094  0.1669838314585448  0.6635094254916964
  0.6674582118638810  0.1669886744692590  0.6635042354552851
  0.9999201172928380  0.1663633378392078  0.6628381012029649
  0.3326488033942212  0.5001141853783082  0.6637594129415447
  0.6671877202096823  0.5001001954851318  0.6637881898482618
  0.9999513968145664  0.5000925097604707  0.6634259655380532
  0.3323472740565947  0.8331796503043094  0.6635071219060293
  0.6674512124417404  0.8331809275885718  0.6634921792990980
  0.9999102428678626  0.8337867090012310  0.6628534592589261
  0.1666372259996507  0.1671785820395542  0.5015771625967886
  0.4998274184560358  0.1671796763004991  0.5045517575136600
  0.8331432902205549  0.1672381763308621  0.5016120469840999
  0.1648288943555229  0.5001548174455124  0.5009647142370497
  0.4998513712582664  0.5001511517674828  0.5013393898992149
  0.8350117617962667  0.5001455609489511  0.5009503677301694
  0.1665901869456405  0.8331170798664544  0.5015221567270416
  0.4998294383492592  0.8330716109242218  0.5044559779149509
  0.8331583496799340  0.8330601433160894  0.5016128478956716
  0.1670478773684962  0.1666117796755984  0.9985755141423880
  0.5000143636466348  0.1648242350862859  0.9991517020220755
  0.8329933620533367  0.1665953467332386  0.9985645138908126
  0.1670550939238780  0.4997903442368923  0.9955751752690318
  0.5000231400046573  0.4998301762712671  0.9987777420675101
  0.8329534295197476  0.4997891743098961  0.9956522462254753
  0.1671080765439257  0.8331246125731369  0.9984732906361913
  0.5000208395737857  0.8350138306336206  0.9991658898866689
  0.8329274761047287  0.8331631512292788  0.9985173943042156
  0.0000262728743650  0.9998656309705822  0.9986011139986175
  0.3323552431364831  0.9998944918098047  0.9995619853157294
  0.6676917543606748  0.9999140270683498  0.9995784021660654
  0.0000163941843141  0.3353153168851861  0.9964231557215655
  0.3360274586951491  0.3331100288891378  0.9972873170284302
  0.6640575032643738  0.3330967407575187  0.9973107975399031
  0.9999822691716957  0.6643257202262589  0.9962847993622503
  0.3361210275278950  0.6666486076784253  0.9971900127002158
  0.6639630247372637  0.6666500644762863  0.9972274405497146
  0.9998671820156204  0.0001561124711813  0.5015134674700974
  0.3353504135424501  0.0001004681883643  0.5037150516181939
  0.6643531170707391  0.0001338332562781  0.5038076634700914
  0.9999159658034458  0.3324909337458806  0.5005605885757163
  0.3331232086814495  0.3361665496057640  0.5028502304948930
  0.6666544180328984  0.3362505152326136  0.5029153764082892
  0.9998924889190306  0.6678240197687302  0.5005359586081397
  0.3331183488390437  0.6641905606930649  0.5028042348081385
  0.6666655129906758  0.6641034997231472  0.5028786698897605
 
  0.00000000E+00  0.00000000E+00  0.00000000E+00
  0.00000000E+00  0.00000000E+00  0.00000000E+00
  0.00000000E+00  0.00000000E+00  0.00000000E+00
  0.00000000E+00  0.00000000E+00  0.00000000E+00
  0.00000000E+00  0.00000000E+00  0.00000000E+00
  0.00000000E+00  0.00000000E+00  0.00000000E+00
  0.00000000E+00  0.00000000E+00  0.00000000E+00
  0.00000000E+00  0.00000000E+00  0.00000000E+00
  0.00000000E+00  0.00000000E+00  0.00000000E+00
  0.00000000E+00  0.00000000E+00  0.00000000E+00
  0.00000000E+00  0.00000000E+00  0.00000000E+00
  0.00000000E+00  0.00000000E+00  0.00000000E+00
  0.00000000E+00  0.00000000E+00  0.00000000E+00
  0.00000000E+00  0.00000000E+00  0.00000000E+00
  0.00000000E+00  0.00000000E+00  0.00000000E+00
  0.00000000E+00  0.00000000E+00  0.00000000E+00
  0.00000000E+00  0.00000000E+00  0.00000000E+00
  0.00000000E+00  0.00000000E+00  0.00000000E+00
  0.00000000E+00  0.00000000E+00  0.00000000E+00
  0.00000000E+00  0.00000000E+00  0.00000000E+00
  0.00000000E+00  0.00000000E+00  0.00000000E+00
  0.00000000E+00  0.00000000E+00  0.00000000E+00
  0.00000000E+00  0.00000000E+00  0.00000000E+00
  0.00000000E+00  0.00000000E+00  0.00000000E+00
  0.00000000E+00  0.00000000E+00  0.00000000E+00
  0.00000000E+00  0.00000000E+00  0.00000000E+00
  0.00000000E+00  0.00000000E+00  0.00000000E+00
  0.00000000E+00  0.00000000E+00  0.00000000E+00
  0.00000000E+00  0.00000000E+00  0.00000000E+00
  0.00000000E+00  0.00000000E+00  0.00000000E+00
  0.00000000E+00  0.00000000E+00  0.00000000E+00
  0.00000000E+00  0.00000000E+00  0.00000000E+00
  0.00000000E+00  0.00000000E+00  0.00000000E+00
  0.00000000E+00  0.00000000E+00  0.00000000E+00
  0.00000000E+00  0.00000000E+00  0.00000000E+00
  0.00000000E+00  0.00000000E+00  0.00000000E+00
  0.00000000E+00  0.00000000E+00  0.00000000E+00
  0.00000000E+00  0.00000000E+00  0.00000000E+00
  0.00000000E+00  0.00000000E+00  0.00000000E+00
  0.00000000E+00  0.00000000E+00  0.00000000E+00
  0.00000000E+00  0.00000000E+00  0.00000000E+00
  0.00000000E+00  0.00000000E+00  0.00000000E+00
  0.00000000E+00  0.00000000E+00  0.00000000E+00
  0.00000000E+00  0.00000000E+00  0.00000000E+00
  0.00000000E+00  0.00000000E+00  0.00000000E+00
  0.00000000E+00  0.00000000E+00  0.00000000E+00
  0.00000000E+00  0.00000000E+00  0.00000000E+00
  0.00000000E+00  0.00000000E+00  0.00000000E+00
  0.00000000E+00  0.00000000E+00  0.00000000E+00
  0.00000000E+00  0.00000000E+00  0.00000000E+00
  0.00000000E+00  0.00000000E+00  0.00000000E+00
  0.00000000E+00  0.00000000E+00  0.00000000E+00
  0.00000000E+00  0.00000000E+00  0.00000000E+00
  0.00000000E+00  0.00000000E+00  0.00000000E+00
  0.00000000E+00  0.00000000E+00  0.00000000E+00
  0.00000000E+00  0.00000000E+00  0.00000000E+00
  0.00000000E+00  0.00000000E+00  0.00000000E+00
  0.00000000E+00  0.00000000E+00  0.00000000E+00
  0.00000000E+00  0.00000000E+00  0.00000000E+00
  0.00000000E+00  0.00000000E+00  0.00000000E+00
  0.00000000E+00  0.00000000E+00  0.00000000E+00
  0.00000000E+00  0.00000000E+00  0.00000000E+00
  0.00000000E+00  0.00000000E+00  0.00000000E+00
  0.00000000E+00  0.00000000E+00  0.00000000E+00
  0.00000000E+00  0.00000000E+00  0.00000000E+00
  0.00000000E+00  0.00000000E+00  0.00000000E+00
  0.00000000E+00  0.00000000E+00  0.00000000E+00
  0.00000000E+00  0.00000000E+00  0.00000000E+00
  0.00000000E+00  0.00000000E+00  0.00000000E+00
  0.00000000E+00  0.00000000E+00  0.00000000E+00
  0.00000000E+00  0.00000000E+00  0.00000000E+00
  0.00000000E+00  0.00000000E+00  0.00000000E+00
  0.00000000E+00  0.00000000E+00  0.00000000E+00
  0.00000000E+00  0.00000000E+00  0.00000000E+00
  0.00000000E+00  0.00000000E+00  0.00000000E+00
  0.00000000E+00  0.00000000E+00  0.00000000E+00
  0.00000000E+00  0.00000000E+00  0.00000000E+00
  0.00000000E+00  0.00000000E+00  0.00000000E+00
  0.00000000E+00  0.00000000E+00  0.00000000E+00
  0.00000000E+00  0.00000000E+00  0.00000000E+00
  0.00000000E+00  0.00000000E+00  0.00000000E+00
  0.00000000E+00  0.00000000E+00  0.00000000E+00
  0.00000000E+00  0.00000000E+00  0.00000000E+00
  0.00000000E+00  0.00000000E+00  0.00000000E+00
  0.00000000E+00  0.00000000E+00  0.00000000E+00
  0.00000000E+00  0.00000000E+00  0.00000000E+00
  0.00000000E+00  0.00000000E+00  0.00000000E+00
  0.00000000E+00  0.00000000E+00  0.00000000E+00
  0.00000000E+00  0.00000000E+00  0.00000000E+00
  0.00000000E+00  0.00000000E+00  0.00000000E+00
  0.00000000E+00  0.00000000E+00  0.00000000E+00
  0.00000000E+00  0.00000000E+00  0.00000000E+00
  0.00000000E+00  0.00000000E+00  0.00000000E+00
  0.00000000E+00  0.00000000E+00  0.00000000E+00
  0.00000000E+00  0.00000000E+00  0.00000000E+00
  0.00000000E+00  0.00000000E+00  0.00000000E+00
  0.00000000E+00  0.00000000E+00  0.00000000E+00
  0.00000000E+00  0.00000000E+00  0.00000000E+00
  0.00000000E+00  0.00000000E+00  0.00000000E+00
  0.00000000E+00  0.00000000E+00  0.00000000E+00
  0.00000000E+00  0.00000000E+00  0.00000000E+00
  0.00000000E+00  0.00000000E+00  0.00000000E+00
  0.00000000E+00  0.00000000E+00  0.00000000E+00
  0.00000000E+00  0.00000000E+00  0.00000000E+00
  0.00000000E+00  0.00000000E+00  0.00000000E+00
  0.00000000E+00  0.00000000E+00  0.00000000E+00
  0.00000000E+00  0.00000000E+00  0.00000000E+00
  0.00000000E+00  0.00000000E+00  0.00000000E+00
  0.00000000E+00  0.00000000E+00  0.00000000E+00
  0.00000000E+00  0.00000000E+00  0.00000000E+00
  0.00000000E+00  0.00000000E+00  0.00000000E+00
  0.00000000E+00  0.00000000E+00  0.00000000E+00
  0.00000000E+00  0.00000000E+00  0.00000000E+00
  0.00000000E+00  0.00000000E+00  0.00000000E+00
  0.00000000E+00  0.00000000E+00  0.00000000E+00
  0.00000000E+00  0.00000000E+00  0.00000000E+00
  0.00000000E+00  0.00000000E+00  0.00000000E+00
  0.00000000E+00  0.00000000E+00  0.00000000E+00
  0.00000000E+00  0.00000000E+00  0.00000000E+00
  0.00000000E+00  0.00000000E+00  0.00000000E+00
  0.00000000E+00  0.00000000E+00  0.00000000E+00
  0.00000000E+00  0.00000000E+00  0.00000000E+00
  0.00000000E+00  0.00000000E+00  0.00000000E+00
  0.00000000E+00  0.00000000E+00  0.00000000E+00
  0.00000000E+00  0.00000000E+00  0.00000000E+00
  0.00000000E+00  0.00000000E+00  0.00000000E+00
  0.00000000E+00  0.00000000E+00  0.00000000E+00
  0.00000000E+00  0.00000000E+00  0.00000000E+00
  0.00000000E+00  0.00000000E+00  0.00000000E+00
  0.00000000E+00  0.00000000E+00  0.00000000E+00
  0.00000000E+00  0.00000000E+00  0.00000000E+00
  0.00000000E+00  0.00000000E+00  0.00000000E+00
  0.00000000E+00  0.00000000E+00  0.00000000E+00
  0.00000000E+00  0.00000000E+00  0.00000000E+00
  0.00000000E+00  0.00000000E+00  0.00000000E+00
  0.00000000E+00  0.00000000E+00  0.00000000E+00
  0.00000000E+00  0.00000000E+00  0.00000000E+00
  0.00000000E+00  0.00000000E+00  0.00000000E+00
  0.00000000E+00  0.00000000E+00  0.00000000E+00
  0.00000000E+00  0.00000000E+00  0.00000000E+00
  0.00000000E+00  0.00000000E+00  0.00000000E+00
  0.00000000E+00  0.00000000E+00  0.00000000E+00
  0.00000000E+00  0.00000000E+00  0.00000000E+00
  0.00000000E+00  0.00000000E+00  0.00000000E+00
