generated by phonopy                    
   1.00000000000000     
    11.7777700938999992   -0.0000006592896312    0.0000118211769744
    -0.0000006477562692   11.7777479613999994   -0.0000130806483528
     0.0000177256125076   -0.0000204342245446   17.8544012557999991
   Bi   Sc   Cu   Se   O 
    36     1    35    36    36
Direct
  0.0000285314802255  0.1705217973963045  0.4332894030626093
  0.3357441487210338  0.1688219667722493  0.4318001639673597
  0.6643192121093406  0.1688213833636496  0.4317980713696343
  0.0000290451944096  0.4999939749439974  0.4316513223928808
  0.3339016440594449  0.4999912737221450  0.4309081032221442
  0.6661574413067726  0.4999986927394175  0.4309091947952695
  0.0000306307868030  0.8294690794212798  0.4332871379898435
  0.3357434591725550  0.8311671489492909  0.4317954471237258
  0.6643175500554861  0.8311711955534449  0.4317981024655637
  0.0000623359899947  0.1667942594477694  0.9279305856064823
  0.3338520559384506  0.1676794689288741  0.9263488322591087
  0.6662705525406807  0.1676811317559412  0.9263482351358547
  0.0000575064152386  0.4999936263844305  0.9268763710592935
  0.3346577965276438  0.4999957548339964  0.9258840521881240
  0.6654563778543690  0.4999933090693744  0.9258837996492133
  0.0000581143328233  0.8331925757397585  0.9279313983811335
  0.3338487762769873  0.8323057082088567  0.9263505284034181
  0.6662672752403083  0.8323064143991132  0.9263484170651779
  0.1705834797188146  0.9999931185081792  0.0665693271993533
  0.5000577128923211  0.9999938960422128  0.0682078142450138
  0.8295306568505154  0.9999939504830309  0.0665674899248287
  0.1688843349554858  0.3357084764128260  0.0680562585797304
  0.5000569396270862  0.3338699495069690  0.0689502747716304
  0.8312337770735354  0.3357077704533395  0.0680552810808663
  0.1688761632291289  0.6642804181628534  0.0680583730798006
  0.5000537447229902  0.6661190805268404  0.0689524039466534
  0.8312274596348459  0.6642802904289553  0.0680574447260724
  0.1668278930825622  0.9999953759787346  0.5719240184291863
  0.5000265751181914  0.9999941048887990  0.5729752795651777
  0.8332250615185899  0.9999928223982479  0.5719262672005172
  0.1677115347158988  0.3337851844817195  0.5735118070426921
  0.5000308699061264  0.3345938800720276  0.5739728153713060
  0.8323405257767789  0.3337833304488811  0.5735109471645856
  0.1677120124594254  0.6662053773151158  0.5735084210282366
  0.5000252659875599  0.6653946295637709  0.5739705905811974
  0.8323415986488882  0.6662060529944824  0.5735096255881871
  0.0000416318574921  0.0000009434703259  0.2499256001894281
  0.3452770910760208  0.9999988128816923  0.2443833306382004
  0.6548406655012329  0.0000024304162523  0.2443920434141873
  0.0000344972529689  0.3451926708080961  0.2554642417175756
  0.3361386473541330  0.3360924550032820  0.2499327422055373
  0.6639560811020431  0.3360971027611015  0.2499303094876879
  0.0000415557678792  0.6547833545010988  0.2554661443077606
  0.3361288341124080  0.6638975574810502  0.2499318812516194
  0.6639537459084934  0.6639054461646481  0.2499298236505183
  0.0000445234445436  0.9999873994266011  0.7499341497936882
  0.3325878754531431  0.9999857041698093  0.7503401120631992
  0.6675029818219542  0.9999877020566856  0.7503395723948714
  0.0000450783968802  0.3325284267271300  0.7495211517349460
  0.3323778273610714  0.3323180224608535  0.7499265444588588
  0.6677115243751501  0.3323173717738399  0.7499279837729915
  0.0000433643787474  0.6674541443464221  0.7495209484983718
  0.3323728364046374  0.6676643471690369  0.7499278291520355
  0.6677100278004744  0.6676644344669924  0.7499284352165674
  0.1782964289790669  0.1782131934227706  0.2499297219600507
  0.5000643410494874  0.1687643094117561  0.2501396351694041
  0.8218533845618268  0.1782472864646039  0.2499216398326851
  0.1687987091159826  0.4999851800164095  0.2497148071216841
  0.5000500534043510  0.4999956931183789  0.2499278937222158
  0.8312917777327016  0.5000034564354223  0.2497196483190507
  0.1782719619546285  0.8217764666228646  0.2499320970351349
  0.5000593088967449  0.8312332127318882  0.2501409270624180
  0.8218097503063859  0.8217887959640890  0.2499395338422303
  0.1659799130392940  0.1659285699041888  0.7499298872882605
  0.5000305068462296  0.1657865976078057  0.7493782133395754
  0.8340861153945482  0.1659288704526745  0.7499302086041411
  0.1658335269073916  0.4999886521694421  0.7504814080518827
  0.5000271618083403  0.4999893779106444  0.7499310893927316
  0.8342215311372172  0.4999881348242639  0.7504811463321985
  0.1659747527696638  0.8340493376518339  0.7499280530397741
  0.5000309340027869  0.8341880870981413  0.7493751915455533
  0.8340827823526666  0.8340436819084971  0.7499290720767604
  0.1688220228889179  0.3354933242379516  0.3393488044023414
  0.5000421928557017  0.3338291010435910  0.3382495231795843
  0.8312515507931764  0.3355026576202960  0.3393564005522762
  0.1688269336996768  0.6644889763828630  0.3393488238051745
  0.5000428911274355  0.6661703950365094  0.3382479463807968
  0.8312531733898467  0.6644926765446542  0.3393497358694688
  0.1768208655487769  0.9999993443944675  0.3327842212475502
  0.5000458821465372  0.0000008631755577  0.3377598464771410
  0.8232706902128655  0.0000030056803766  0.3327946740746128
  0.1661978193659408  0.3329547285207468  0.8369407773746715
  0.5000464393508466  0.3328319119589196  0.8362592408308771
  0.8338983872297661  0.3329552239632818  0.8369401422049094
  0.1661947081103037  0.6670281225559620  0.8369413951420128
  0.5000451677563120  0.6671526228665101  0.8362593343540610
  0.8338967039676319  0.6670280459065054  0.8369405757616946
  0.1663177538103184  0.9999887953743922  0.8374120684776614
  0.5000484379252441  0.9999891769241600  0.8369580037391060
  0.8337765926752638  0.9999902097187956  0.8374118676150033
  0.3355630161657857  0.1687907124944061  0.1605065847191511
  0.6645590801856542  0.1687888482058213  0.1605080618763282
  0.0000595286932281  0.1767720912893509  0.1670578175960244
  0.3338755866259362  0.4999961316919084  0.1616104076042220
  0.6662261234990936  0.4999956722648875  0.1616104369356961
  0.0000462578537892  0.4999914709266093  0.1620963204277572
  0.3355550643713272  0.8312035670527038  0.1605113467462473
  0.6645510622864137  0.8312096039243855  0.1605055697684392
  0.0000471693106121  0.8232190683760479  0.1670681648765679
  0.3329993519820746  0.1661357683819276  0.6629160369283937
  0.6670676606367039  0.1661368609114220  0.6629161758832183
  0.0000340517772059  0.1662569871260544  0.6624502971746296
  0.3328740775703665  0.4999933698887489  0.6635980244961743
  0.6671862218125142  0.4999935766082899  0.6635986136211969
  0.0000305388385371  0.4999923893083817  0.6629043065371505
  0.3329974602855472  0.8338458370917579  0.6629131646319593
  0.6670663588701728  0.8338457560574071  0.6629141639298979
  0.0000324693098932  0.8337253833603029  0.6624485565827030
  0.1666025911134170  0.1669214216287003  0.5006809987746834
  0.5000339241634961  0.1674486485028766  0.5018163761179082
  0.8334577325164148  0.1669192034335936  0.5006831744622247
  0.1668619497964841  0.4999928565303406  0.5018613402082437
  0.5000334265176960  0.4999944747498546  0.5024925257307942
  0.8331990173971988  0.4999946721962232  0.5018631165076428
  0.1666040251319245  0.8330686445580255  0.5006789823851747
  0.5000313589388909  0.8325415317256812  0.5018139643041408
  0.8334596116050008  0.8330679532737193  0.5006805094305307
  0.1669816225815879  0.1665668950759596  0.9991760756958001
  0.5000548008751267  0.1668276413025751  0.9979964882376180
  0.8331316872427408  0.1665658204626368  0.9991733783496812
  0.1675058512813337  0.4999944844384530  0.9980377057253023
  0.5000540917674030  0.4999948471841051  0.9973633201000922
  0.8326012894939652  0.4999942839926774  0.9980373490361529
  0.1669787005499543  0.8334213734370692  0.9991770008335692
  0.5000545497702973  0.8331597055144471  0.9979983362115874
  0.8331286255840524  0.8334213163135260  0.9991753334383660
  0.0000562135333695  0.9999937048373937  0.0000577685351146
  0.3335002596442322  0.9999929327363120  0.9979728551792064
  0.6666112757358817  0.9999939598891388  0.9979700330033765
  0.0000561475748881  0.3336585099242058  0.9990953764889383
  0.3331399737311216  0.3339496275800329  0.9977977628646002
  0.6669724805661090  0.3339497026938361  0.9977973164716119
  0.0000532708689178  0.6663291549227068  0.9990967969277236
  0.3331361198172686  0.6660388550729479  0.9978008984981912
  0.6669703207866817  0.6660372042936089  0.9977991191828011
  0.0000292067507175  0.9999940638815374  0.4997990505628636
  0.3336950078654439  0.9999946732741876  0.5007563948671034
  0.6663682730025542  0.9999950919516465  0.5007577973928932
  0.0000294642977750  0.3334389234825395  0.5018886721725266
  0.3339848978303550  0.3330788394433455  0.5020596761424656
  0.6660774749654905  0.3330792311652147  0.5020593090342444
  0.0000305433845895  0.6665509417834414  0.5018859202529882
  0.3339836041877220  0.6669115580955562  0.5020562851778720
  0.6660773682871834  0.6669125587248885  0.5020585261576045
 
  0.00000000E+00  0.00000000E+00  0.00000000E+00
  0.00000000E+00  0.00000000E+00  0.00000000E+00
  0.00000000E+00  0.00000000E+00  0.00000000E+00
  0.00000000E+00  0.00000000E+00  0.00000000E+00
  0.00000000E+00  0.00000000E+00  0.00000000E+00
  0.00000000E+00  0.00000000E+00  0.00000000E+00
  0.00000000E+00  0.00000000E+00  0.00000000E+00
  0.00000000E+00  0.00000000E+00  0.00000000E+00
  0.00000000E+00  0.00000000E+00  0.00000000E+00
  0.00000000E+00  0.00000000E+00  0.00000000E+00
  0.00000000E+00  0.00000000E+00  0.00000000E+00
  0.00000000E+00  0.00000000E+00  0.00000000E+00
  0.00000000E+00  0.00000000E+00  0.00000000E+00
  0.00000000E+00  0.00000000E+00  0.00000000E+00
  0.00000000E+00  0.00000000E+00  0.00000000E+00
  0.00000000E+00  0.00000000E+00  0.00000000E+00
  0.00000000E+00  0.00000000E+00  0.00000000E+00
  0.00000000E+00  0.00000000E+00  0.00000000E+00
  0.00000000E+00  0.00000000E+00  0.00000000E+00
  0.00000000E+00  0.00000000E+00  0.00000000E+00
  0.00000000E+00  0.00000000E+00  0.00000000E+00
  0.00000000E+00  0.00000000E+00  0.00000000E+00
  0.00000000E+00  0.00000000E+00  0.00000000E+00
  0.00000000E+00  0.00000000E+00  0.00000000E+00
  0.00000000E+00  0.00000000E+00  0.00000000E+00
  0.00000000E+00  0.00000000E+00  0.00000000E+00
  0.00000000E+00  0.00000000E+00  0.00000000E+00
  0.00000000E+00  0.00000000E+00  0.00000000E+00
  0.00000000E+00  0.00000000E+00  0.00000000E+00
  0.00000000E+00  0.00000000E+00  0.00000000E+00
  0.00000000E+00  0.00000000E+00  0.00000000E+00
  0.00000000E+00  0.00000000E+00  0.00000000E+00
  0.00000000E+00  0.00000000E+00  0.00000000E+00
  0.00000000E+00  0.00000000E+00  0.00000000E+00
  0.00000000E+00  0.00000000E+00  0.00000000E+00
  0.00000000E+00  0.00000000E+00  0.00000000E+00
  0.00000000E+00  0.00000000E+00  0.00000000E+00
  0.00000000E+00  0.00000000E+00  0.00000000E+00
  0.00000000E+00  0.00000000E+00  0.00000000E+00
  0.00000000E+00  0.00000000E+00  0.00000000E+00
  0.00000000E+00  0.00000000E+00  0.00000000E+00
  0.00000000E+00  0.00000000E+00  0.00000000E+00
  0.00000000E+00  0.00000000E+00  0.00000000E+00
  0.00000000E+00  0.00000000E+00  0.00000000E+00
  0.00000000E+00  0.00000000E+00  0.00000000E+00
  0.00000000E+00  0.00000000E+00  0.00000000E+00
  0.00000000E+00  0.00000000E+00  0.00000000E+00
  0.00000000E+00  0.00000000E+00  0.00000000E+00
  0.00000000E+00  0.00000000E+00  0.00000000E+00
  0.00000000E+00  0.00000000E+00  0.00000000E+00
  0.00000000E+00  0.00000000E+00  0.00000000E+00
  0.00000000E+00  0.00000000E+00  0.00000000E+00
  0.00000000E+00  0.00000000E+00  0.00000000E+00
  0.00000000E+00  0.00000000E+00  0.00000000E+00
  0.00000000E+00  0.00000000E+00  0.00000000E+00
  0.00000000E+00  0.00000000E+00  0.00000000E+00
  0.00000000E+00  0.00000000E+00  0.00000000E+00
  0.00000000E+00  0.00000000E+00  0.00000000E+00
  0.00000000E+00  0.00000000E+00  0.00000000E+00
  0.00000000E+00  0.00000000E+00  0.00000000E+00
  0.00000000E+00  0.00000000E+00  0.00000000E+00
  0.00000000E+00  0.00000000E+00  0.00000000E+00
  0.00000000E+00  0.00000000E+00  0.00000000E+00
  0.00000000E+00  0.00000000E+00  0.00000000E+00
  0.00000000E+00  0.00000000E+00  0.00000000E+00
  0.00000000E+00  0.00000000E+00  0.00000000E+00
  0.00000000E+00  0.00000000E+00  0.00000000E+00
  0.00000000E+00  0.00000000E+00  0.00000000E+00
  0.00000000E+00  0.00000000E+00  0.00000000E+00
  0.00000000E+00  0.00000000E+00  0.00000000E+00
  0.00000000E+00  0.00000000E+00  0.00000000E+00
  0.00000000E+00  0.00000000E+00  0.00000000E+00
  0.00000000E+00  0.00000000E+00  0.00000000E+00
  0.00000000E+00  0.00000000E+00  0.00000000E+00
  0.00000000E+00  0.00000000E+00  0.00000000E+00
  0.00000000E+00  0.00000000E+00  0.00000000E+00
  0.00000000E+00  0.00000000E+00  0.00000000E+00
  0.00000000E+00  0.00000000E+00  0.00000000E+00
  0.00000000E+00  0.00000000E+00  0.00000000E+00
  0.00000000E+00  0.00000000E+00  0.00000000E+00
  0.00000000E+00  0.00000000E+00  0.00000000E+00
  0.00000000E+00  0.00000000E+00  0.00000000E+00
  0.00000000E+00  0.00000000E+00  0.00000000E+00
  0.00000000E+00  0.00000000E+00  0.00000000E+00
  0.00000000E+00  0.00000000E+00  0.00000000E+00
  0.00000000E+00  0.00000000E+00  0.00000000E+00
  0.00000000E+00  0.00000000E+00  0.00000000E+00
  0.00000000E+00  0.00000000E+00  0.00000000E+00
  0.00000000E+00  0.00000000E+00  0.00000000E+00
  0.00000000E+00  0.00000000E+00  0.00000000E+00
  0.00000000E+00  0.00000000E+00  0.00000000E+00
  0.00000000E+00  0.00000000E+00  0.00000000E+00
  0.00000000E+00  0.00000000E+00  0.00000000E+00
  0.00000000E+00  0.00000000E+00  0.00000000E+00
  0.00000000E+00  0.00000000E+00  0.00000000E+00
  0.00000000E+00  0.00000000E+00  0.00000000E+00
  0.00000000E+00  0.00000000E+00  0.00000000E+00
  0.00000000E+00  0.00000000E+00  0.00000000E+00
  0.00000000E+00  0.00000000E+00  0.00000000E+00
  0.00000000E+00  0.00000000E+00  0.00000000E+00
  0.00000000E+00  0.00000000E+00  0.00000000E+00
  0.00000000E+00  0.00000000E+00  0.00000000E+00
  0.00000000E+00  0.00000000E+00  0.00000000E+00
  0.00000000E+00  0.00000000E+00  0.00000000E+00
  0.00000000E+00  0.00000000E+00  0.00000000E+00
  0.00000000E+00  0.00000000E+00  0.00000000E+00
  0.00000000E+00  0.00000000E+00  0.00000000E+00
  0.00000000E+00  0.00000000E+00  0.00000000E+00
  0.00000000E+00  0.00000000E+00  0.00000000E+00
  0.00000000E+00  0.00000000E+00  0.00000000E+00
  0.00000000E+00  0.00000000E+00  0.00000000E+00
  0.00000000E+00  0.00000000E+00  0.00000000E+00
  0.00000000E+00  0.00000000E+00  0.00000000E+00
  0.00000000E+00  0.00000000E+00  0.00000000E+00
  0.00000000E+00  0.00000000E+00  0.00000000E+00
  0.00000000E+00  0.00000000E+00  0.00000000E+00
  0.00000000E+00  0.00000000E+00  0.00000000E+00
  0.00000000E+00  0.00000000E+00  0.00000000E+00
  0.00000000E+00  0.00000000E+00  0.00000000E+00
  0.00000000E+00  0.00000000E+00  0.00000000E+00
  0.00000000E+00  0.00000000E+00  0.00000000E+00
  0.00000000E+00  0.00000000E+00  0.00000000E+00
  0.00000000E+00  0.00000000E+00  0.00000000E+00
  0.00000000E+00  0.00000000E+00  0.00000000E+00
  0.00000000E+00  0.00000000E+00  0.00000000E+00
  0.00000000E+00  0.00000000E+00  0.00000000E+00
  0.00000000E+00  0.00000000E+00  0.00000000E+00
  0.00000000E+00  0.00000000E+00  0.00000000E+00
  0.00000000E+00  0.00000000E+00  0.00000000E+00
  0.00000000E+00  0.00000000E+00  0.00000000E+00
  0.00000000E+00  0.00000000E+00  0.00000000E+00
  0.00000000E+00  0.00000000E+00  0.00000000E+00
  0.00000000E+00  0.00000000E+00  0.00000000E+00
  0.00000000E+00  0.00000000E+00  0.00000000E+00
  0.00000000E+00  0.00000000E+00  0.00000000E+00
  0.00000000E+00  0.00000000E+00  0.00000000E+00
  0.00000000E+00  0.00000000E+00  0.00000000E+00
  0.00000000E+00  0.00000000E+00  0.00000000E+00
  0.00000000E+00  0.00000000E+00  0.00000000E+00
  0.00000000E+00  0.00000000E+00  0.00000000E+00
  0.00000000E+00  0.00000000E+00  0.00000000E+00
  0.00000000E+00  0.00000000E+00  0.00000000E+00
  0.00000000E+00  0.00000000E+00  0.00000000E+00
  0.00000000E+00  0.00000000E+00  0.00000000E+00
