supercell of icsd_181358.cif            
   1.00000000000000     
    10.1226812752993975   -0.0355491897282950    0.0246769257804394
    -5.0921220192014705    8.7656927103598736   -0.0333524701078258
     0.0263867466958846   -0.0258643525358629   10.5662986362027809
   N    Ga   Y 
    36    26    10
Direct
  0.2363608721752115  0.0955541297178613  0.4258371173554352
  0.1050155445869052  0.1917037315654042  0.1887039237660559
  0.9019056702829928  0.1008752677966740  0.9387911883286080
  0.7755769447030119  0.2199788478429667  0.7135542063075704
  0.5342018801795163  0.0972278083887801  0.4319782138486659
  0.4465550209766036  0.2218135002541430  0.1837655196605965
  0.2221840038001659  0.1050394868728262  0.9408187914053272
  0.1080909894953734  0.2109997022408265  0.7089431590821960
  0.8812820204749841  0.0881073024208874  0.4284953405001346
  0.7805534068589282  0.2221610839218329  0.2132199055524069
  0.5278099527982434  0.0987711048506057  0.9335015159451601
  0.4400886843018696  0.2199785795294886  0.6864459290798237
  0.2062288356990649  0.4493775263215340  0.4403096979973284
  0.0939893111620265  0.5756477884904569  0.1893129732512477
  0.9140026626360367  0.4575440781136493  0.9294091431803153
  0.7751684380258439  0.5573521166262765  0.6961691964180829
  0.5714349621300983  0.4209362187209962  0.4372962922729329
  0.4613231539823701  0.5423042797379196  0.2017786688201895
  0.2200924860219615  0.4446401118921557  0.9865639556173136
  0.0886061961566895  0.5460779602120240  0.6760400302864298
  0.9002874557860281  0.4712267194495752  0.4370076171033048
  0.7771855550596456  0.5560156941662981  0.1976537962472236
  0.5267330656976981  0.4257665048406380  0.9330198863294399
  0.4516598559389635  0.5496116534303610  0.6957049167541882
  0.2213780288055673  0.7792492251165797  0.4425304471734250
  0.1078370792970063  0.8861282338529719  0.1896553382430426
  0.9086084402185151  0.8030154035235597  0.9261290746658304
  0.7998561497088090  0.9034127743088831  0.6809460617020591
  0.5651716491913845  0.7992788807376741  0.4464720004528360
  0.4255914445656899  0.9039841360742216  0.1873338412927339
  0.2201600981744036  0.7781544713590165  0.9494006831097224
  0.1008920950480245  0.9094011848239560  0.6725814007613877
  0.8851770085412838  0.7746834192907031  0.4397976651343569
  0.8090435793357358  0.8950655943330688  0.1825872964637441
  0.5586899562537795  0.7796291229203831  0.9779104264423566
  0.4553767888587075  0.9118549686860007  0.6782512055336554
  0.2266528219695871  0.1012302473918965  0.2441960845118984
  0.1110916214326423  0.2053749947944681  0.0042290993423535
  0.8948510220087229  0.1084498041661277  0.7542123759774739
  0.5455103754559758  0.1123732037371994  0.2502005398523863
  0.4338233557477267  0.2154380279513362  0.9978673138285501
  0.2205064600773525  0.1107793133157173  0.7532850330726362
  0.8946131091186800  0.1008344364394844  0.2487106200317655
  0.5496033752266030  0.1146388671141239  0.7484866484066046
  0.4433743276314104  0.2093268826954287  0.4972052554769917
  0.1099379512916911  0.5688061993071045  0.0090330274670336
  0.8871273199333629  0.4452178015393500  0.7453127734417180
  0.7827878265257340  0.5578326587448785  0.5011643374409900
  0.5641749049705993  0.4330065134122023  0.2521449635443247
  0.4455955955746163  0.5464508606221585  0.0132793871621288
  0.1081156640181504  0.5615743994390670  0.4928233939819719
  0.8874548799613251  0.4571396496098927  0.2548904213152596
  0.5473385844840521  0.4361647680419836  0.7461078085937487
  0.2147339347939408  0.7853713005969212  0.2520063291743497
  0.1134101008450088  0.8917018513085253  0.0034358071910461
  0.8959883057436144  0.7923862394039034  0.7404085869029871
  0.7801618632964420  0.8873876409682637  0.4965550253840263
  0.4296700981933483  0.8934462575058646  0.0062306407970638
  0.1101150132401898  0.8884465282891298  0.4902425268279700
  0.8930941967466097  0.7755966220309602  0.2526822140720100
  0.7983636789482560  0.8946571861840411  0.0022841751958040
  0.4437477024114145  0.8933189269009389  0.4939875635448416
  0.7762207518446331  0.2235083160498021  0.4883817338718472
  0.1141920898748552  0.2095923632280687  0.4982671023622984
  0.7756523120761685  0.2171725737520376  0.9931274622763482
  0.2085614069606194  0.4392593344478897  0.2254963560071559
  0.2149354804369352  0.4454987902565506  0.7685695420437995
  0.7762309742844238  0.5616125919203441  0.9852482623637826
  0.4524898699012709  0.5535346928309082  0.4835379771611485
  0.5650307589446442  0.7932179580656467  0.2284119044862081
  0.2137663823016354  0.7868828296926580  0.7369995044467430
  0.5669565967986259  0.7902007558139417  0.7570617763576735
 
  0.00000000E+00  0.00000000E+00  0.00000000E+00
  0.00000000E+00  0.00000000E+00  0.00000000E+00
  0.00000000E+00  0.00000000E+00  0.00000000E+00
  0.00000000E+00  0.00000000E+00  0.00000000E+00
  0.00000000E+00  0.00000000E+00  0.00000000E+00
  0.00000000E+00  0.00000000E+00  0.00000000E+00
  0.00000000E+00  0.00000000E+00  0.00000000E+00
  0.00000000E+00  0.00000000E+00  0.00000000E+00
  0.00000000E+00  0.00000000E+00  0.00000000E+00
  0.00000000E+00  0.00000000E+00  0.00000000E+00
  0.00000000E+00  0.00000000E+00  0.00000000E+00
  0.00000000E+00  0.00000000E+00  0.00000000E+00
  0.00000000E+00  0.00000000E+00  0.00000000E+00
  0.00000000E+00  0.00000000E+00  0.00000000E+00
  0.00000000E+00  0.00000000E+00  0.00000000E+00
  0.00000000E+00  0.00000000E+00  0.00000000E+00
  0.00000000E+00  0.00000000E+00  0.00000000E+00
  0.00000000E+00  0.00000000E+00  0.00000000E+00
  0.00000000E+00  0.00000000E+00  0.00000000E+00
  0.00000000E+00  0.00000000E+00  0.00000000E+00
  0.00000000E+00  0.00000000E+00  0.00000000E+00
  0.00000000E+00  0.00000000E+00  0.00000000E+00
  0.00000000E+00  0.00000000E+00  0.00000000E+00
  0.00000000E+00  0.00000000E+00  0.00000000E+00
  0.00000000E+00  0.00000000E+00  0.00000000E+00
  0.00000000E+00  0.00000000E+00  0.00000000E+00
  0.00000000E+00  0.00000000E+00  0.00000000E+00
  0.00000000E+00  0.00000000E+00  0.00000000E+00
  0.00000000E+00  0.00000000E+00  0.00000000E+00
  0.00000000E+00  0.00000000E+00  0.00000000E+00
  0.00000000E+00  0.00000000E+00  0.00000000E+00
  0.00000000E+00  0.00000000E+00  0.00000000E+00
  0.00000000E+00  0.00000000E+00  0.00000000E+00
  0.00000000E+00  0.00000000E+00  0.00000000E+00
  0.00000000E+00  0.00000000E+00  0.00000000E+00
  0.00000000E+00  0.00000000E+00  0.00000000E+00
  0.00000000E+00  0.00000000E+00  0.00000000E+00
  0.00000000E+00  0.00000000E+00  0.00000000E+00
  0.00000000E+00  0.00000000E+00  0.00000000E+00
  0.00000000E+00  0.00000000E+00  0.00000000E+00
  0.00000000E+00  0.00000000E+00  0.00000000E+00
  0.00000000E+00  0.00000000E+00  0.00000000E+00
  0.00000000E+00  0.00000000E+00  0.00000000E+00
  0.00000000E+00  0.00000000E+00  0.00000000E+00
  0.00000000E+00  0.00000000E+00  0.00000000E+00
  0.00000000E+00  0.00000000E+00  0.00000000E+00
  0.00000000E+00  0.00000000E+00  0.00000000E+00
  0.00000000E+00  0.00000000E+00  0.00000000E+00
  0.00000000E+00  0.00000000E+00  0.00000000E+00
  0.00000000E+00  0.00000000E+00  0.00000000E+00
  0.00000000E+00  0.00000000E+00  0.00000000E+00
  0.00000000E+00  0.00000000E+00  0.00000000E+00
  0.00000000E+00  0.00000000E+00  0.00000000E+00
  0.00000000E+00  0.00000000E+00  0.00000000E+00
  0.00000000E+00  0.00000000E+00  0.00000000E+00
  0.00000000E+00  0.00000000E+00  0.00000000E+00
  0.00000000E+00  0.00000000E+00  0.00000000E+00
  0.00000000E+00  0.00000000E+00  0.00000000E+00
  0.00000000E+00  0.00000000E+00  0.00000000E+00
  0.00000000E+00  0.00000000E+00  0.00000000E+00
  0.00000000E+00  0.00000000E+00  0.00000000E+00
  0.00000000E+00  0.00000000E+00  0.00000000E+00
  0.00000000E+00  0.00000000E+00  0.00000000E+00
  0.00000000E+00  0.00000000E+00  0.00000000E+00
  0.00000000E+00  0.00000000E+00  0.00000000E+00
  0.00000000E+00  0.00000000E+00  0.00000000E+00
  0.00000000E+00  0.00000000E+00  0.00000000E+00
  0.00000000E+00  0.00000000E+00  0.00000000E+00
  0.00000000E+00  0.00000000E+00  0.00000000E+00
  0.00000000E+00  0.00000000E+00  0.00000000E+00
  0.00000000E+00  0.00000000E+00  0.00000000E+00
  0.00000000E+00  0.00000000E+00  0.00000000E+00
