S    Al   Li
1.0
  -6.595829560899288 -0.0415762671895122 2.640857985e-07
  0.0410481745173179 -8.038339116144229 -0.1857293781798328
  0.0275760400166252 1.619617995e-07 6.24548494685
 S  Al  Li 
8 4 4 
direct
   -0.0681652007093217   0.8752423981176144  -0.8550450270829257
   -0.6000547040354430   0.1147928142552247  -0.8931913377104859
   -0.0953074959844891   0.3505323082480299  -0.8785373582519701
   -0.9510891363980472   0.1027212771510391  -0.3476175223470762
   -0.5733763120835057   0.5987630409176878  -0.8753590677150800
   -0.4051782856822440   0.8465389475614856  -0.3813887560303708
   -0.9046119467695884   0.6362425617320856  -0.3829894273946897
   -0.4380971800179036   0.3788571624169755  -0.4319975430693763
   -0.9353695282658706   0.1132429033857523  -0.9817052190315368
   -0.0778553050142501   0.8638918029178264  -0.4917260780010418
   -0.4328852940923926   0.3495831261828135  -0.7993007980480918
   -0.5829139024440659   0.6251299243629118  -0.5121534453768828
   -0.4140659226516591   0.8569462361600584  -0.9880464186289633
   -0.9259055454835706   0.6094855723848349  -0.9912382381870191
   -0.5924165976436613   0.1060057786480682  -0.4183700560109599
   -0.0695758512269397   0.3718480435843220  -0.4814970589297635
