S    Al   Li
1.0
  -6.5876326748452465 -0.0077607349174064 2.640857938e-07
  -0.0097612157300328 -7.994866667024731 -0.1067454750870875
  -0.0085997836706042 1.619618002e-07 6.24548494685
 S  Al  Li 
8 4 4 
direct
   -0.0680335687521015   0.8755377223393270  -0.8501089359384780
   -0.6017644110478879   0.1144605965285178  -0.8780766850914744
   -0.0898433580069918   0.3512226245320854  -0.8735043993917555
   -0.9446609312616928   0.1015499446799730  -0.3475798165078723
   -0.5743305977029531   0.6055527090296308  -0.8639189109253623
   -0.4086131074355903   0.8490569565468253  -0.3790866312048348
   -0.9066401775048785   0.6325601563655907  -0.3780502597637821
   -0.4392673258681808   0.3733700755685012  -0.4161865154909690
   -0.9336499240132641   0.1119132718633273  -0.9842233306066844
   -0.0789766607786981   0.8628669084329826  -0.4851968997769761
   -0.4300067472238365   0.3541122619406523  -0.8329653099486617
   -0.5789352577050931   0.6178296894950865  -0.4963120402743921
   -0.4114645592150475   0.8605621275798494  -0.9895234244488458
   -0.9235599493540210   0.6125257068313043  -0.9892466258510142
   -0.5955780616807711   0.1063477887451422  -0.4743169353640799
   -0.0815435709519572   0.3703553575479324  -0.4718666312312408
