S    Al   Li
1.0
  -6.600917873757697 0.0074187558309464 2.640858031e-07
  0.0080877090817756 -8.059454233009355 -0.1711520152388711
  -0.0576006467327548 1.619617989e-07 6.24548494685
 S  Al  Li 
8 4 4 
direct
   -0.0650330772424779   0.8755853707999385  -0.8586526903567291
   -0.5948115769048453   0.1201858414903056  -0.9315147972770400
   -0.0922481878653496   0.3514933995253529  -0.8810906249074950
   -0.9525227956505270   0.1009810377759558  -0.3533405189689071
   -0.5694089488486164   0.5988353591543935  -0.8813148471801379
   -0.4072703291183416   0.8435574153774487  -0.3874009587962608
   -0.9073672367099459   0.6364232789773262  -0.3864953330406143
   -0.4492309558746163   0.3745861294862658  -0.4429791622171766
   -0.9366877078294475   0.1143721136495641  -0.9876860948256785
   -0.0789304473106383   0.8631074695258167  -0.4955401914268037
   -0.4315145802659135   0.3485865436940261  -0.8082345687771375
   -0.5856359727712356   0.6239323146927868  -0.5184569282416779
   -0.4090921145375774   0.8555439629858733  -0.9912643117613813
   -0.9204582128260388   0.6114269316437912  -0.9933193862679818
   -0.5845678582562035   0.1092214009888524  -0.3393079359165331
   -0.0820882064911680   0.3719853282590528  -0.4535650018549670
