100% icsd_608360.cif, 0% icsd_608360.cif
1.0
  -6.54848711457 -8.86871e-10 2.640858447e-07
  6.6929928e-09 -7.92298339309 -1.873288422e-07
  -2.425590253e-07 1.619617933e-07 6.24548494685
 S  Al  Li 
8 4 4 
direct
   -0.0676284521625306   0.8739295016820350  -0.9981084876823303
   -0.5999198309927963   0.1264924916105770  -0.9730256076479904
   -0.0999198290132171   0.3485075284442658  -0.9730255894517016
   -0.9407048440670495   0.1010705927208519  -0.4981084766085999
   -0.5676284740940432   0.6010705214494294  -0.9981085084835329
   -0.4084133006444831   0.8485075299795285  -0.4730256356423014
   -0.9084133011123117   0.6264924800971130  -0.4730256600208662
   -0.4407048712773474   0.3739294238381916  -0.4981084588030670
   -0.9308466629294045   0.1135434521811760  -0.8623925451253954
   -0.0774864507698894   0.8614565745257963  -0.3623925344735923
   -0.4308466600139909   0.3614565781094258  -0.8623925138902990
   -0.5774864494582560   0.6135434495796731  -0.3623925692564285
   -0.4187691859645923   0.8650879453713003  -0.8664733689292917
   -0.9187692213167509   0.6099120003439610  -0.8664734103973616
   -0.5895645429460857   0.1099119706681506  -0.3664733741755342
   -0.0895645899041071   0.3650879593984868  -0.3664733344919497
