S    Al   Li
1.0
  -6.611518107887386 -0.0085707385285221 2.640858239e-07
  -0.0098464834026297 -8.061698543798624 0.1180261321345944
  -0.0824087062548259 1.619617961e-07 6.24548494685
 S  Al  Li 
8 4 4 
direct
   -0.0617673836692153   0.8716973021173872  -0.8869642174354938
   -0.6012916231037260   0.1336512683062858  -0.9470127041187348
   -0.1019897082404155   0.3410833326370228  -0.9486396546660900
   -0.9406335563095047   0.1003852167726519  -0.4545977875056034
   -0.5607723544615540   0.5976100828153336  -0.9773156050755550
   -0.4104794798797382   0.8547328175720856  -0.4145299661959347
   -0.9139386932554381   0.6217034398688891  -0.4030255084278486
   -0.4418103119317562   0.3769125049469357  -0.4768657434673618
   -0.9235120502485910   0.1220839839612539  -0.8174533767894572
   -0.0803404670295931   0.8497243564226321  -0.5229290284127958
   -0.4303738930059464   0.3612128456448586  -0.8402803585257561
   -0.5739539983151195   0.6134333461633033  -0.3447751014482129
   -0.4080523876720782   0.8735848193931602  -0.9943586067736772
   -0.9250965651041427   0.6070801097891262  -0.9939886504656850
   -0.5936091936823576   0.1177284945304705  -0.3435784391226619
   -0.0992465425937610   0.3571999770853324  -0.3438486033857040
