0% icsd_608360.cif, 100% icsd_608360.cif
1.0
  -6.54848711457 -8.868704e-10 2.640857869e-07
  6.6929934e-09 -7.92298339309 -1.873288478e-07
  -2.425589647e-07 1.619618011e-07 6.24548494685
 S  Al  Li 
8 4 4 
direct
   -0.0676536447768186   0.8739074890334138  -0.8406619766109884
   -0.5999450236070700   0.1264704789619557  -0.8657448566453070
   -0.0999450216274909   0.3484855157956446  -0.8657448384490180
   -0.9407300366813304   0.1010485800722307  -0.3406619655372651
   -0.5676536667083241   0.6010485088008082  -0.8406619974121980
   -0.4084384932587568   0.8484855173309144  -0.3657448846396250
   -0.9084384937265854   0.6264704674484917  -0.3657449090181827
   -0.4407300638916283   0.3739074111895775  -0.3406619477317321
   -0.9308718555436856   0.1135214395325548  -0.9763779191679092
   -0.0775116433841703   0.8614345618771821  -0.4763779085161062
   -0.4308718526282718   0.3614345654608115  -0.9763778879328131
   -0.5775116420725368   0.6135214369310518  -0.4763779432989423
   -0.4187943785788661   0.8650659327226863  -0.9722970953640129
   -0.9187944139310249   0.6098899876953469  -0.9722971368320827
   -0.5895897355603594   0.1098899580195365  -0.4722971006102554
   -0.0895897825183880   0.3650659467498726  -0.4722970609266711
