S    Al   Li
1.0
  -6.578688707289738 -0.0241425200571599 2.640857961e-07
  0.0270759434207776 -8.035724614237118 -0.2632814739232895
  0.0065466803147016 1.619617999e-07 6.24548494685
 S  Al  Li 
8 4 4 
direct
   -0.0676224787994691   0.8752468548804088  -0.8527779783554422
   -0.5990303940425906   0.1129866662091035  -0.8795095801191398
   -0.0916462692763018   0.3502619259601316  -0.8730264329347406
   -0.9468656887923727   0.1027324909754390  -0.3442698677931940
   -0.5710167649328811   0.5979175243215428  -0.8737260892812025
   -0.4086598205434339   0.8508880525001892  -0.3805697077743124
   -0.9066473963975190   0.6376628411416554  -0.3810883709734409
   -0.4413449906470858   0.3795005214847444  -0.4277703465764230
   -0.9326817222203266   0.1121291624884224  -0.9787964078940992
   -0.0794592969833660   0.8650234444486391  -0.4889266807479741
   -0.4297602640974305   0.3507701573922006  -0.7949025289997251
   -0.5833164827034316   0.6260069627940186  -0.5098475763915892
   -0.4137465397554698   0.8570451807881625  -0.9884705597094786
   -0.9243557135165656   0.6088941442737705  -0.9892886137105307
   -0.6000902919705700   0.1016583333226780  -0.4731303859542301
   -0.0706240938240879   0.3710996350457128  -0.4740622246008808
