S    Al   Li
1.0
  -6.628347886226169 0.0106373705125729 2.640858123e-07
  0.0129612361437649 -8.05055597895641 -0.0375919231052283
  -0.1130187977468926 1.619617977e-07 6.24548494685
 S  Al  Li 
8 4 4 
direct
   -0.0696295595242990   0.8692082226400567  -0.8754548904747169
   -0.5925975848694953   0.1253967389968282  -0.9400677468057288
   -0.1019437158045743   0.3530437754342993  -0.9355141820245180
   -0.9430889703819777   0.1031303947966559  -0.4220124373743748
   -0.5663259095017383   0.6010661484103852  -0.8838112601600687
   -0.4073498853851044   0.8425643377506487  -0.3942227595471647
   -0.9094135640103533   0.6316874878144199  -0.3959630317385300
   -0.4466153376527728   0.3723848884029646  -0.4483157586529212
   -0.9274501098102215   0.1201805865127335  -0.8806776354083952
   -0.0787348299011736   0.8610874473612961  -0.5070301142088479
   -0.4273964097018326   0.3515444223229543  -0.8094317634510573
   -0.5860472040779801   0.6234951888921481  -0.5200882438125461
   -0.4103286071385880   0.8576645085392247  -0.0019478515646499
   -0.9086548985314991   0.6155433563261136  -0.0026471019723300
   -0.5933397931770275   0.1060648099210613  -0.3467217974950290
   -0.0979518290343262   0.3657615839049396  -0.3462567771256167
