S    Al   Li
1.0
  -6.583051856538399 0.0079075143153715 2.640858401e-07
  0.0100474060035634 -7.986607707714114 0.0954638783969321
  -0.0055562877272852 1.619617939e-07 6.24548494685
 S  Al  Li 
8 4 4 
direct
   -0.0683445569256363   0.8747173620592685  -0.9576559855630944
   -0.6015694059535052   0.1322760419634053  -0.9607280463746610
   -0.0993732706869546   0.3494299816013250  -0.9594788389922594
   -0.9342951745531597   0.1049982818084936  -0.4809447434235691
   -0.5641783764598033   0.6017885981073676  -0.9910749448283760
   -0.4183380202463217   0.8508156475018298  -0.4688152821312098
   -0.9060889846909795   0.6150421090586026  -0.4649890006146770
   -0.4405096623085892   0.3755759509003429  -0.4889015990439780
   -0.9321355058543807   0.1133812191794440  -0.8491983184141657
   -0.0785376022398091   0.8546723593349572  -0.4486281594972084
   -0.4291776446604625   0.3626899195034031  -0.8543837711336062
   -0.5746349484394661   0.6115208826429687  -0.3533760957559882
   -0.4228114151548613   0.8703256768112727  -0.8682275501300891
   -0.9151574077062306   0.6093578047873794  -0.8657360159454746
   -0.5849285146015676   0.1127240674398284  -0.3490573400746888
   -0.0967877180212552   0.3605079953269771  -0.3489676598934213
