S    Al   Li
1.0
  -6.583084653818987 -0.0076754042071463 2.640857915e-07
  -0.0096921261770437 -7.987410900555656 -0.0988786876577943
  -0.0066170509301687 1.619618005e-07 6.24548494685
 S  Al  Li 
8 4 4 
direct
   -0.0677605570630022   0.8755493973581934  -0.8498821049791648
   -0.6021821817190351   0.1147358345983614  -0.8742215869975768
   -0.0897343294631552   0.3508201887559129  -0.8700785577705512
   -0.9442534745011435   0.1018892694152678  -0.3477437623978476
   -0.5741128534711361   0.6049972322798496  -0.8583414911342953
   -0.4090970119336644   0.8495779999579591  -0.3794356298203823
   -0.9068605515017307   0.6323953238708838  -0.3780781340608405
   -0.4400884460074527   0.3747382329969350  -0.3837528200782550
   -0.9337037194213125   0.1114422194344407  -0.9854587023975480
   -0.0792295000453311   0.8627563345135194  -0.4843804672468597
   -0.4296958222871982   0.3544529922789713  -0.8850786403177663
   -0.5763670296887362   0.6136125710636253  -0.4899534475633366
   -0.4113358764892751   0.8602650129226771  -0.9899863372780684
   -0.9234149451428747   0.6126998805301425  -0.9897922286116185
   -0.5933863350203934   0.1094262074388208  -0.4734870470139980
   -0.0856455747475182   0.3704652006111669  -0.4704923941482992
