S    Al   Li                            
   1.00000000000000     
     0.0719420970824793   -0.0000001619617986   -6.2454849468500004
     6.6096670121828325   -0.0073312122732607   -0.0000002640858054
     0.0083313687852160   -8.0668683368262606   -0.1403370817386707
   S    Al   Li
     8     4     4
Direct
  0.8604370710804220  0.0658019319401492  0.8762326994296694
  0.9336045765483759  0.5949891175449850  0.1210528271261486
  0.9037172996588524  0.0952658044511334  0.3532671042659315
  0.3572751398263116  0.9493909438928413  0.0982077402272935
  0.8829242454470169  0.5683325110186421  0.5996764163412992
  0.3887197582602138  0.4067195104806318  0.8420643717536929
  0.3886217078535832  0.9064876818945782  0.6359668694264057
  0.4475943947652355  0.4494856970389697  0.3728583992443158
  0.9907572892226213  0.9359682792755125  0.1141569812069357
  0.4974992556070070  0.0787992833517641  0.8620771455829607
  0.8126191462580301  0.4294904247114502  0.3490285790010564
  0.5204003791064477  0.5850155130651784  0.6231724800820162
  0.9927861206333677  0.4091676808750135  0.8566267860034447
  0.9937124804246295  0.9175637086936896  0.6144391055911671
  0.3417001222227553  0.5837539664654153  0.1077272170907886
  0.3977943649016450  0.0906361538029949  0.3732691756536280
 
             NaN             NaN             NaN
             NaN             NaN             NaN
             NaN             NaN             NaN
             NaN             NaN             NaN
             NaN             NaN             NaN
             NaN             NaN             NaN
             NaN             NaN             NaN
             NaN             NaN             NaN
             NaN             NaN             NaN
             NaN             NaN             NaN
             NaN             NaN             NaN
             NaN             NaN             NaN
             NaN             NaN             NaN
             NaN             NaN             NaN
             NaN             NaN             NaN
             NaN             NaN             NaN
