S    Al   Li
1.0
  -6.574475870922756 0.0075764762245237 2.640858424e-07
  0.0096996573705705 -7.973504492034523 0.08392526897967
  -0.0019674860941599 1.619617936e-07 6.24548494685
 S  Al  Li 
8 4 4 
direct
   -0.0678198399375244   0.8748803318326746  -0.9870134669291598
   -0.6013970933890180   0.1314898089555689  -0.9617719026906906
   -0.0995484321072734   0.3491372822184367  -0.9604461446072002
   -0.9361382039825268   0.1026138232961031  -0.4873866448392971
   -0.5645432732344807   0.6019878257981564  -0.9914492460598616
   -0.4152049848830305   0.8500239831175092  -0.4707934796168090
   -0.9071489374746751   0.6179711997875678  -0.4673589386721970
   -0.4405894526300357   0.3753408780883992  -0.4891124665725782
   -0.9327778313955177   0.1120194331538521  -0.8536014573580891
   -0.0780463570394586   0.8563902648121359  -0.3975426112009237
   -0.4295833193457593   0.3628531076106637  -0.8540613208544087
   -0.5758263690580478   0.6122332784645836  -0.3545584557103977
   -0.4208837874773343   0.8696645774189184  -0.8682738941728662
   -0.9162327939586902   0.6104116763422063  -0.8656670252194053
   -0.5855709911455417   0.1121717334864061  -0.3506086516412996
   -0.0955565414440614   0.3606346936436768  -0.3505176456712767
