S    Al   Li
1.0
  -6.582250408674385 0.005873366421339 2.640858355e-07
  0.006194428100823 -8.029945878793939 0.1972249928913744
  -0.0063685295444096 1.619617945e-07 6.24548494685
 S  Al  Li 
8 4 4 
direct
   -0.0669224713351567   0.8774865686895338  -0.9106077863810725
   -0.6017640435231640   0.1361617981657983  -0.9584864133206417
   -0.0996060721286753   0.3494700145306824  -0.9589995117308758
   -0.9374103592441225   0.0998044131482091  -0.4659791588337439
   -0.5613159531295657   0.6018555810955414  -0.9940494722050905
   -0.4163232236883118   0.8508876924512259  -0.4643363293294959
   -0.9092624601506333   0.6145105862949830  -0.4579077952994974
   -0.4409719325238906   0.3757556912520362  -0.4870193582324371
   -0.9252637512206893   0.1252046252111211  -0.8298283298926513
   -0.0784353306418484   0.8516050803509546  -0.5435874902696632
   -0.4288481951918256   0.3644011527749020  -0.8508525168924850
   -0.5756810976993763   0.6129336742164074  -0.3594327755247309
   -0.4374527048567560   0.8706032246198211  -0.8636213198476186
   -0.9075271075921182   0.6000898745487296  -0.8637787170810958
   -0.5846821953473385   0.1100341087184625  -0.3504483493847548
   -0.0954013102295657   0.3590198119584408  -0.3512280275906177
