S    Al   Li
1.0
  -6.63062517624655 0.0121654721776205 2.6408581e-07
  0.0147956874076391 -8.05210142190974 -0.0440268095366123
  -0.1095252532595805 1.61961798e-07 6.24548494685
 S  Al  Li 
8 4 4 
direct
   -0.0690246610010019   0.8707968975299386  -0.8699603268644495
   -0.5912232244855410   0.1246928520113335  -0.9371039492644513
   -0.1018109563224011   0.3551139030865846  -0.9312698269006725
   -0.9449675258820899   0.0998953659301572  -0.3884513016385734
   -0.5663810703441321   0.6011440654713415  -0.8837246788959492
   -0.4073810160080995   0.8425182182038071  -0.3941072798565869
   -0.9094229130151312   0.6314699060395919  -0.3959480718767994
   -0.4467502294349771   0.3725914575213243  -0.4478960668543479
   -0.9291978995796495   0.1179071963558605  -0.9316688900334652
   -0.0776388279219609   0.8626648306887247  -0.5026304092575105
   -0.4278906613306578   0.3518327133617370  -0.8089766474463749
   -0.5861477602741789   0.6234739216833133  -0.5198945475566809
   -0.4099994729458746   0.8575459377043925  -0.0019666732224559
   -0.9087176888594898   0.6159350274493699  -0.0026006564028631
   -0.5920793103080275   0.1059521832107379  -0.3471014708496443
   -0.0982349907897414   0.3662894217785276  -0.3468625548956666
