S    Al   Li
1.0
  -6.5995884122779405 -0.0073841407811833 2.640858285e-07
  -0.0077067486300083 -8.061411812148984 0.1821167899208769
  -0.0528261673768561 1.619617955e-07 6.24548494685
 S  Al  Li 
8 4 4 
direct
   -0.0590666941953032   0.8746598310920211  -0.8958230906192096
   -0.6010818925805962   0.1367255209320100  -0.9522066381836450
   -0.1012327225863647   0.3436009189482435  -0.9512156414774572
   -0.9388409260206475   0.0985009999476624  -0.4573796136155654
   -0.5560008541096667   0.6011490066659577  -0.9853335587350531
   -0.4161516270188370   0.8515323325597042  -0.4576641007241158
   -0.9136126826229660   0.6198867872064134  -0.4073942835481383
   -0.4431699183396928   0.3757176068511694  -0.4799023479369474
   -0.9227436758133810   0.1239077145042962  -0.8202318648329584
   -0.0769154297517833   0.8484153935551750  -0.5305452489370491
   -0.4295151401819417   0.3632596033362434  -0.8430052709510524
   -0.5716557249898618   0.6143472368850377  -0.3510210579157363
   -0.4261156695457796   0.8722418309909730  -0.8861567541390045
   -0.9241721324981090   0.6093117875985852  -0.9997796971904492
   -0.5876008101478515   0.1114745956018313  -0.3453627792502655
   -0.0989923081001045   0.3550927313514350  -0.3471414037598998
