S    Al   Li
1.0
  -6.5746419736179735 -0.0074020498778105 2.640857892e-07
  -0.0094182732702783 -7.974433706432718 -0.0870726173555863
  -0.002898121248108 1.619618008e-07 6.24548494685
 S  Al  Li 
8 4 4 
direct
   -0.0676897383254200   0.8753199664454097  -0.8496686887960014
   -0.6011742776844049   0.1176010670623369  -0.8716324075176082
   -0.0928083779390479   0.3500411611431956  -0.8678855948864926
   -0.9438879777570112   0.1020793038705197  -0.3473443899560875
   -0.5723246610613971   0.6026785837970100  -0.8516398133916759
   -0.4089348385275926   0.8493067739578920  -0.3784966925322180
   -0.9070369836989746   0.6316390069974993  -0.3770578152667240
   -0.4406215887915712   0.3749471302365321  -0.3529768474961504
   -0.9325543874816512   0.1121269831574237  -0.9843114839406268
   -0.0788529502173203   0.8629150751133629  -0.4846637003001825
   -0.4301882445553428   0.3561774770406300  -0.9384005103659457
   -0.5756280699407615   0.6120985597110746  -0.4853070487080466
   -0.4125474048475530   0.8603953291231941  -0.9885629492852884
   -0.9227806238520589   0.6121611769919477  -0.9883663475499044
   -0.5922791054448621   0.1105213588168543  -0.4735107537280078
   -0.0875589783779968   0.3698149445618311  -0.4703383080954627
