S    Al   Li
1.0
  -6.606512822371439 -0.0068139561930054 2.640858262e-07
  -0.0073159886962649 -8.07010385985505 0.1594794247180957
  -0.0641435003827078 1.619617958e-07 6.24548494685
 S  Al  Li 
8 4 4 
direct
   -0.0587806920015529   0.8728756301319615  -0.8911043325379953
   -0.6020187173845580   0.1364480737434253  -0.9502540951970876
   -0.1018862537689938   0.3420068919472427  -0.9501197247775668
   -0.9397990399839273   0.0991696676537037  -0.4557713111817923
   -0.5590260350836366   0.5986045706607014  -0.9811894604562496
   -0.4133044940004775   0.8532399273395737  -0.4357156059314832
   -0.9134216390404680   0.6205902184053033  -0.4052134888235935
   -0.4424324538527906   0.3765289802061220  -0.4780992062141562
   -0.9234062349669275   0.1230605319822616  -0.8183327029749118
   -0.0788832836248065   0.8487416129502962  -0.5260340740379075
   -0.4296730752166261   0.3622774484648427  -0.8410196793768107
   -0.5722652436138856   0.6141195478304756  -0.3475370383133731
   -0.4178318853787949   0.8738439433408758  -0.9405367356385284
   -0.9252600433527352   0.6078609981721951  -0.9978376861206825
   -0.5900782079550893   0.1144800936740816  -0.3453247844397218
   -0.0988009092776172   0.3559757615237037  -0.3460734257946866
