supercell of 100% icsd_608626.cif, 0% i 
   1.00000000000000     
    -9.3995401338954938    0.0020917594458724   -0.0049162519443424
    -4.7015795429969431    8.1475525708627803   -0.0034378173717702
    -0.0052537452207143    0.0012042981418704  -10.0376455505511704
   Al   Si   Mg   N 
    30     3     3    36
Direct
  0.1128742341679896  0.0946339252080506  0.2952624211227928
  0.2204374975886481  0.2057575153419009  0.0453668224763604
  0.8892856337621495  0.2080486677612186  0.5491370135491422
  0.4468087074013738  0.0920934739029704  0.2956663886140589
  0.5583578234876541  0.2043220702291109  0.0452124622699586
  0.1132633670183338  0.0920878087016277  0.7924654104303528
  0.2222982636290070  0.2068428972352976  0.5465010432687194
  0.7757990109569874  0.0950226703924244  0.2962532439091916
  0.8894684298246105  0.2039294132460583  0.0481741940046945
  0.4429976903334421  0.0962113582736137  0.7950971345723872
  0.5524750746718325  0.2071544319138710  0.5482664828560004
  0.1134017509651457  0.4270261722420514  0.2939584402466764
  0.2229501444400483  0.5364769878367852  0.0454194662334544
  0.7735137933686431  0.4307308758027801  0.7920569695383861
  0.8895598975235899  0.5378595918596929  0.5484943451762163
  0.4426524427075762  0.4246577932355819  0.2935083033562762
  0.1098279807171210  0.4267878803110960  0.7926595576528825
  0.8891398271273658  0.5365496188996417  0.0467654656863559
  0.4473493602710690  0.4297362279334607  0.7907888038861302
  0.5559278933033482  0.5383721938999670  0.5482067726945132
  0.1121218295435114  0.7596194132567007  0.2941501682578220
  0.2218464992244265  0.8750308008516043  0.0444918757212847
  0.7790393654911654  0.7592251993452237  0.7955968367686737
  0.8914117304756815  0.8690105717639582  0.5487470807614727
  0.4460147698723702  0.7654614125380519  0.2941995890022469
  0.1126613628940873  0.7630755461363776  0.7927297164982434
  0.2219564155955140  0.8711329241104551  0.5457618355320335
  0.7737602393929066  0.7638635397377485  0.2957454734299603
  0.8879151144986750  0.8759110614171917  0.0455233944494395
  0.4433444649887548  0.7573458831449926  0.7933189436926256
  0.7775236912241326  0.0946491090184693  0.7938055615630120
  0.7796858566089284  0.4269495181191019  0.2948176816789356
  0.5528237924806163  0.8741363572038878  0.0447381583849875
  0.5550722802382069  0.5383353229050272  0.0484136486741278
  0.2214615904845871  0.5395451835193796  0.5480216808812770
  0.5553553379776943  0.8728489413194183  0.5466314710139173
  0.2236743234057883  0.2049692301871175  0.3521789156590032
  0.1095756176727463  0.0951823284513296  0.1048182555731643
  0.8822466113066838  0.1998977581711756  0.8524298331321276
  0.7782936171567911  0.0944519586237078  0.6151669960049801
  0.5573298825695332  0.2031234121673933  0.3563519638468264
  0.4514919291207917  0.0841182942757825  0.0982378117938012
  0.2212433852166242  0.2048423624276907  0.8569659767136457
  0.1108335960735118  0.0945336537405836  0.6026525403708618
  0.8824650274573926  0.2168127494715222  0.3547201478921380
  0.7784240593792049  0.0944725505064099  0.1070737362016700
  0.5701370298900343  0.1979217001140157  0.8528020929482878
  0.4375559860760134  0.1076068409583328  0.6109082029198802
  0.2209531646466800  0.5399890787568182  0.3430682740606699
  0.1091461583002697  0.4277582037996979  0.1033847958783767
  0.8872148830614179  0.5373338713715583  0.8585477319894395
  0.7785048820105089  0.4276789677506301  0.6034152850047150
  0.5683922584440140  0.5330077888043192  0.3473330390157088
  0.4389027080580377  0.4166776286516765  0.1062153031847899
  0.2218001629669075  0.5385920757104969  0.8526041233560377
  0.1027523477263799  0.4200438684792616  0.6071719613230684
  0.8822877342891289  0.5342547669636986  0.3508753594697609
  0.7927404051318945  0.4187892169023613  0.1196716585913649
  0.5571208747882039  0.5383675836167114  0.8473231981499296
  0.4596560394436295  0.4199232971923550  0.6050710924200686
  0.2222690376253311  0.8721094031443215  0.3522449889326111
  0.1097450796909314  0.7625296921786102  0.1012685857875510
  0.8811734766263157  0.8866709234403274  0.8537114432237800
  0.7913989786591387  0.7537038462451164  0.6104779649140966
  0.5564698459999704  0.8731712942237309  0.3442731679829620
  0.4431044413851737  0.7815141740713472  0.1034014639096412
  0.2219574596256280  0.8738520779135044  0.8562191367215775
  0.1032635107060145  0.7772287235248427  0.6085620002462875
  0.8882431361204439  0.8729400262827767  0.3547823342290997
  0.7662923775260921  0.7676592593473899  0.0990140639559627
  0.5554869620182288  0.8726239643566984  0.8646457230439992
  0.4374698455673283  0.7552050695619315  0.6064569736974335
 
  0.00000000E+00  0.00000000E+00  0.00000000E+00
  0.00000000E+00  0.00000000E+00  0.00000000E+00
  0.00000000E+00  0.00000000E+00  0.00000000E+00
  0.00000000E+00  0.00000000E+00  0.00000000E+00
  0.00000000E+00  0.00000000E+00  0.00000000E+00
  0.00000000E+00  0.00000000E+00  0.00000000E+00
  0.00000000E+00  0.00000000E+00  0.00000000E+00
  0.00000000E+00  0.00000000E+00  0.00000000E+00
  0.00000000E+00  0.00000000E+00  0.00000000E+00
  0.00000000E+00  0.00000000E+00  0.00000000E+00
  0.00000000E+00  0.00000000E+00  0.00000000E+00
  0.00000000E+00  0.00000000E+00  0.00000000E+00
  0.00000000E+00  0.00000000E+00  0.00000000E+00
  0.00000000E+00  0.00000000E+00  0.00000000E+00
  0.00000000E+00  0.00000000E+00  0.00000000E+00
  0.00000000E+00  0.00000000E+00  0.00000000E+00
  0.00000000E+00  0.00000000E+00  0.00000000E+00
  0.00000000E+00  0.00000000E+00  0.00000000E+00
  0.00000000E+00  0.00000000E+00  0.00000000E+00
  0.00000000E+00  0.00000000E+00  0.00000000E+00
  0.00000000E+00  0.00000000E+00  0.00000000E+00
  0.00000000E+00  0.00000000E+00  0.00000000E+00
  0.00000000E+00  0.00000000E+00  0.00000000E+00
  0.00000000E+00  0.00000000E+00  0.00000000E+00
  0.00000000E+00  0.00000000E+00  0.00000000E+00
  0.00000000E+00  0.00000000E+00  0.00000000E+00
  0.00000000E+00  0.00000000E+00  0.00000000E+00
  0.00000000E+00  0.00000000E+00  0.00000000E+00
  0.00000000E+00  0.00000000E+00  0.00000000E+00
  0.00000000E+00  0.00000000E+00  0.00000000E+00
  0.00000000E+00  0.00000000E+00  0.00000000E+00
  0.00000000E+00  0.00000000E+00  0.00000000E+00
  0.00000000E+00  0.00000000E+00  0.00000000E+00
  0.00000000E+00  0.00000000E+00  0.00000000E+00
  0.00000000E+00  0.00000000E+00  0.00000000E+00
  0.00000000E+00  0.00000000E+00  0.00000000E+00
  0.00000000E+00  0.00000000E+00  0.00000000E+00
  0.00000000E+00  0.00000000E+00  0.00000000E+00
  0.00000000E+00  0.00000000E+00  0.00000000E+00
  0.00000000E+00  0.00000000E+00  0.00000000E+00
  0.00000000E+00  0.00000000E+00  0.00000000E+00
  0.00000000E+00  0.00000000E+00  0.00000000E+00
  0.00000000E+00  0.00000000E+00  0.00000000E+00
  0.00000000E+00  0.00000000E+00  0.00000000E+00
  0.00000000E+00  0.00000000E+00  0.00000000E+00
  0.00000000E+00  0.00000000E+00  0.00000000E+00
  0.00000000E+00  0.00000000E+00  0.00000000E+00
  0.00000000E+00  0.00000000E+00  0.00000000E+00
  0.00000000E+00  0.00000000E+00  0.00000000E+00
  0.00000000E+00  0.00000000E+00  0.00000000E+00
  0.00000000E+00  0.00000000E+00  0.00000000E+00
  0.00000000E+00  0.00000000E+00  0.00000000E+00
  0.00000000E+00  0.00000000E+00  0.00000000E+00
  0.00000000E+00  0.00000000E+00  0.00000000E+00
  0.00000000E+00  0.00000000E+00  0.00000000E+00
  0.00000000E+00  0.00000000E+00  0.00000000E+00
  0.00000000E+00  0.00000000E+00  0.00000000E+00
  0.00000000E+00  0.00000000E+00  0.00000000E+00
  0.00000000E+00  0.00000000E+00  0.00000000E+00
  0.00000000E+00  0.00000000E+00  0.00000000E+00
  0.00000000E+00  0.00000000E+00  0.00000000E+00
  0.00000000E+00  0.00000000E+00  0.00000000E+00
  0.00000000E+00  0.00000000E+00  0.00000000E+00
  0.00000000E+00  0.00000000E+00  0.00000000E+00
  0.00000000E+00  0.00000000E+00  0.00000000E+00
  0.00000000E+00  0.00000000E+00  0.00000000E+00
  0.00000000E+00  0.00000000E+00  0.00000000E+00
  0.00000000E+00  0.00000000E+00  0.00000000E+00
  0.00000000E+00  0.00000000E+00  0.00000000E+00
  0.00000000E+00  0.00000000E+00  0.00000000E+00
  0.00000000E+00  0.00000000E+00  0.00000000E+00
  0.00000000E+00  0.00000000E+00  0.00000000E+00
