supercell of POSCAR                     
   1.01800000000000     
     3.1310994802600001   -5.4896946145000003   10.0244832682999991
    -9.4821132118399998   -5.5089477087900001    0.0170740616273000
     6.3359946057599998  -11.0114127993000004  -10.0652216442999993
   Al   Gd   N    O 
    84    12    95     1
Direct
  0.0884631534169316  0.5854665731797724  0.3348595532037848
  0.5006532367416412  0.3228704984647095  0.2548030032122668
  0.0848830662156246  0.0845468124126043  0.3340989244256392
  0.2510104164428171  0.5794068523662901  0.4943050294984346
  0.3319506071474549  0.3184733287229236  0.0786495129834108
  0.4172614459271102  0.0871251289959432  0.1703746821714276
  0.0070073665617514  0.8431688035224099  0.2549013113619907
  0.1607742047801892  0.3320770042663952  0.4143435199326078
  0.2475652234335399  0.0864337908327926  0.4965121126835825
  0.1617771158856982  0.8367494177000907  0.4162438774273909
  0.3368760236706549  0.6738559525446988  0.3396987344405744
  0.1549446083346453  0.6746603419756170  0.1656027340503883
  0.2484925568120175  0.4050924250689008  0.2506457041163586
  0.3352958310601224  0.1567343339858880  0.3333199709406287
  0.0060623626387581  0.6733923353119309  0.4946935623974653
  0.1671585657050514  0.1586796273173192  0.1691349805712150
  0.2525456122287792  0.9189579554816234  0.2555534534427082
  0.4156599287290277  0.4183475972396451  0.4171072559484017
  0.4991754758834688  0.1611887985891300  0.4968265614989065
  0.0834438866645044  0.9237269801429804  0.0795852810123279
  0.4201232343164989  0.9187851757137508  0.4119437737648965
  0.0897922041566872  0.5850469151234989  0.8347191398732932
  0.5000057850769224  0.3227405221622206  0.7554346234355691
  0.0864400203548215  0.0853169335761663  0.8343818654886164
  0.2520588712687086  0.5788844705119587  0.9948756270971657
  0.3317168465919593  0.3178666724248558  0.5780961242678018
  0.4174323260516459  0.0870290067935713  0.6710811527017100
  0.0078098356770582  0.8434817703125574  0.7551376231230265
  0.1683666865840792  0.3322567977158428  0.9124003768168762
  0.2481055992102057  0.0869881594672108  0.9958884147141731
  0.1626740022729010  0.8369340501492033  0.9161640336968375
  0.3370444561692025  0.6738720227272097  0.8402992197620662
  0.1546890620054739  0.6749097035728795  0.6662457086140492
  0.2504349126006744  0.4020441099475747  0.7523890358254448
  0.3347462610312277  0.1642358921241964  0.8341546443226378
  0.0071068698749457  0.6729696964938441  0.9942378124136653
  0.1671792856253802  0.1590158011350908  0.6695416853036633
  0.2532031562878814  0.9202766911735623  0.7559639190501528
  0.4131146511723145  0.4151440921851162  0.9154936327621854
  0.4988996407010902  0.1620732647663559  0.9968941843201549
  0.0831125551772658  0.9236052947700983  0.5799240685308291
  0.4204698824802264  0.9202000873697216  0.9117342715182204
  0.5892961359767099  0.5857530385628991  0.3341263191351729
  0.9986339099439405  0.3223419359315400  0.2553139210833422
  0.5863927593760394  0.0851114680302842  0.3345485007685127
  0.7514528379017378  0.5791888516724555  0.4946229337975794
  0.8322898361362974  0.3182329027898660  0.0778746481370618
  0.9170816013880838  0.0868784288036295  0.1706731866473561
  0.5074456389160105  0.8438627357751542  0.2548264521455437
  0.6680231433844028  0.3319042611211955  0.4123509403025665
  0.7478627055297196  0.0869334204178287  0.4961465295684917
  0.6622453506542172  0.8370490170318590  0.4160589166287281
  0.8363664450000527  0.6736760118013336  0.3399296606538229
  0.6551756014433465  0.6754743515652066  0.1655860558592792
  0.7502740453600936  0.4023290387186478  0.2519018070348764
  0.8340098309951998  0.1639665691524357  0.3340470235178969
  0.5070993288682004  0.6734670563311340  0.4948510364649792
  0.6673341492230591  0.1589533506026868  0.1690346058712180
  0.7527789990951348  0.9201078238865463  0.2555934164924238
  0.9112947043691122  0.4153589369714510  0.4157830581465518
  0.9982229262478981  0.1611932530434714  0.4973359562085591
  0.5833513438977960  0.9239755999437236  0.0795319968134294
  0.9198371857781567  0.9197583724940088  0.4117388256474612
  0.5897120228593380  0.5851419522462606  0.8344797539529694
  0.0001175150072186  0.3228502992054558  0.7555603223232836
  0.5862804614952850  0.0854039491966816  0.8343576064761180
  0.7523526666002169  0.5793693735693708  0.9942255577200996
  0.8326358582519902  0.3185725788844067  0.5784411062163812
  0.9175750277067536  0.0869985301590006  0.6711068109620228
  0.5075977082069727  0.8435493311103315  0.7551331997770063
  0.6685328787234468  0.3323057339651143  0.9118527949011153
  0.7479311608753889  0.0871485590567644  0.9956992722242006
  0.6624880913591369  0.8370658565461326  0.9159713946934929
  0.8372281773721681  0.6739496458710050  0.8401478904418909
  0.6547197740527011  0.6749542043021535  0.6659479624367819
  0.7506012560707447  0.4021624111920303  0.7521295852985190
  0.8348450961849849  0.1640581282882678  0.8339909367080978
  0.5069636787316654  0.6734529284301374  0.9940940615671252
  0.6675490591129716  0.1590447076767703  0.6694580381530528
  0.7531452402229064  0.9201430687907362  0.7558611040020153
  0.9131007584967747  0.4150167684937713  0.9152000240775493
  0.9989918556363691  0.1614273432911446  0.9966262402775854
  0.5830726451664319  0.9239040386638422  0.5799831483417108
  0.9206095520800801  0.9198989701868072  0.9116167350170272
  0.3999692074914591  0.5791218380358742  0.1782946228629427
  0.3325798434640888  0.8363057136158645  0.0835301676621825
  0.0819375168246452  0.4178117414439626  0.0850730421439749
  0.3982475700004642  0.5794707930604162  0.6790163672978835
  0.3314930633031210  0.8357615010199311  0.5839323509943029
  0.0827401686867404  0.4200621798114099  0.5856934844252208
  0.8984374922213334  0.5798192380947853  0.1781724718703614
  0.8322503230772043  0.8369020444403930  0.0830217154852306
  0.5836190150491305  0.4195210355108756  0.0841395978552200
  0.8976961517429345  0.5801651531207881  0.6788897787565915
  0.8318307134888130  0.8367977106266693  0.5835234494863215
  0.5820348849686212  0.4181400790354459  0.5850604377855362
  0.2184908909695054  0.5790556448666422  0.2680562196346656
  0.0338280640753723  0.6100875598582434  0.1003604334967960
  0.1306115039395195  0.3166341428994031  0.2023363238807363
  0.2120539160784247  0.0826784764034230  0.2724560559058631
  0.3816375894022244  0.5836211724412976  0.4370356453687734
  0.4490869799785528  0.3199198834615160  0.0112056566848295
  0.0408068202628087  0.0858875921991000  0.1038258885094194
  0.1321814219166697  0.8422581596600480  0.1859338679166669
  0.3763519447966175  0.0809981850812065  0.4350043718464320
  0.4761303208621186  0.8380736766675270  0.0079523038233162
  0.2924732168039483  0.8349796801005098  0.3564827713151075
  0.4709541826718677  0.6856281907153203  0.2864660953574116
  0.2647663658805399  0.6547463381316305  0.0958551843069628
  0.3720437567279404  0.3812944845576354  0.1876761456922296
  0.4609690565683806  0.1638250944567190  0.2745908377681872
  0.1338677097739875  0.6657284836442301  0.4331521759994246
  0.2243403203493983  0.4120420077799452  0.0097372826997955
  0.2900536309444703  0.1576426865969083  0.1022531478401163
  0.3844149777340959  0.9287957244647274  0.2022331338077237
  0.0426392909502127  0.4193419357912376  0.3519152876781675
  0.1273797644347283  0.1706074770089216  0.4339677964456143
  0.1972271537405419  0.9318470477201046  0.0104416550438913
  0.0485175722406623  0.9238364723809696  0.3524603768000603
  0.2186981196618518  0.5810958038132270  0.7667096223478111
  0.0327024340737125  0.6115480299225879  0.6008179801614091
  0.1302075208392424  0.3173534114023298  0.7002597916477384
  0.2127765752487960  0.0828423204630937  0.7721877095930978
  0.3824287444269032  0.5838445468399556  0.9375146081100283
  0.4473387286224906  0.3189875621021585  0.5086013250846548
  0.0408459021455982  0.0857459205830935  0.6035564047145741
  0.1327935841186445  0.8427789528109599  0.6857178282080838
  0.2966843457684618  0.3296581351613170  0.8524627499496802
  0.3771707941074922  0.0810693263946973  0.9352759371362112
  0.4754211821969321  0.8378623051365466  0.5082853686553008
  0.2931671013682617  0.8354879470778442  0.8565136308318486
  0.4716351283724549  0.6853817428402706  0.7868525654246596
  0.2634041793533370  0.6538990484134217  0.5950354833118467
  0.3742525215396455  0.3819490559192360  0.6846694086824527
  0.4620970701744156  0.1628941621400699  0.7739542420856722
  0.1351429334432197  0.6657331801329605  0.9332921051839165
  0.2245830545526246  0.4113868731782659  0.5070599490985188
  0.2900198897798418  0.1573344525012246  0.6017799692316714
  0.3848376222207079  0.9280421022627792  0.7018644617545107
  0.0433934797988798  0.4196343458350142  0.8521590472665252
  0.1272751169833271  0.1709620627893642  0.9346575062888292
  0.1966552280055325  0.9316916986267145  0.5101823778838508
  0.0492951420910757  0.9242251284309191  0.8525855845818455
  0.7178551051171667  0.5809491657616022  0.2666178508138159
  0.5337097877505812  0.6113192927602711  0.1002804996593412
  0.6297223025149279  0.3174451788451620  0.2000186833506135
  0.7119406143466307  0.0828101574895257  0.2720935481721583
  0.8819008683996188  0.5839238505625559  0.4372321153675855
  0.9492472884781478  0.3191166606652303  0.0103140295925073
  0.5405625318309006  0.0859689624283533  0.1038092291292187
  0.6320671826221727  0.8429843117541438  0.1857433284846408
  0.7957715380962114  0.3296128357462820  0.3521196112688898
  0.8768534490081024  0.0808613927457600  0.4350827412469442
  0.9764564531620223  0.8377594573930907  0.0079351623978070
  0.7925461757495995  0.8353289274770219  0.3563272192941511
  0.9710300680360362  0.6850207248503040  0.2866562844400278
  0.7641528982566186  0.6555920712508296  0.0948868951209434
  0.8740397979194867  0.3822408887393252  0.1850871214207004
  0.9614431171900861  0.1625713587376723  0.2739801014686236
  0.6339470952453325  0.6656287598537034  0.4328852885058012
  0.7252630492633898  0.4122962308711067  0.0087209397770067
  0.7901128715315195  0.1574767999730327  0.1019102573637483
  0.8845209934154568  0.9280241533679501  0.2018987210188428
  0.5407286379905685  0.4192757116210757  0.3519086138070762
  0.6267957087980420  0.1709580486336151  0.4345408119147152
  0.6966793964637361  0.9322243624458366  0.0100743861205927
  0.5483288775716559  0.9243001688859991  0.3526084047789197
  0.7186584406452425  0.5812326941095449  0.7665767709154920
  0.5331045687153306  0.6102202974505531  0.6005082461733906
  0.6301511422781729  0.3173692575109968  0.7002036919180767
  0.7126608536769652  0.0827416271856407  0.7721379860701276
  0.8827418409718177  0.5838770320014532  0.9372172654596298
  0.9502401126021951  0.3197922132933044  0.5104084320957725
  0.5405212883929593  0.0863403097055908  0.6034445633788579
  0.6323158217670937  0.8428248036076269  0.6857069287728166
  0.7967447725107988  0.3294624541256894  0.8520654103144381
  0.8771210391105413  0.0806652784350561  0.9351011435036582
  0.9758405042489997  0.8381254628385335  0.5079404662479448
  0.7931358001965165  0.8354045447204683  0.8564614124097929
  0.9719687008555411  0.6853538317033454  0.7869088906749369
  0.7634569374152633  0.6556104732224171  0.5948712534956684
  0.8747425744814663  0.3825287893806575  0.6851392238671536
  0.9623482349371173  0.1628503241395265  0.7739814001938683
  0.6348280092366423  0.6658474643002634  0.9329725795071511
  0.7244428697189562  0.4119218111983827  0.5090828977514050
  0.7904778190634403  0.1575468164014993  0.6019119995869744
  0.8849751529156578  0.9279909862227598  0.7020179461662437
  0.5430816385409898  0.4196963971118066  0.8520139486076559
  0.6270019180078421  0.1713698043874672  0.9345786820118960
  0.6962169187897160  0.9320669111871425  0.5100975568776320
  0.5490116063237949  0.9243510302948863  0.8525174393034973
  0.2939367657563920  0.3291766182714539  0.3522536513768557
 
  0.00000000E+00  0.00000000E+00  0.00000000E+00
  0.00000000E+00  0.00000000E+00  0.00000000E+00
  0.00000000E+00  0.00000000E+00  0.00000000E+00
  0.00000000E+00  0.00000000E+00  0.00000000E+00
  0.00000000E+00  0.00000000E+00  0.00000000E+00
  0.00000000E+00  0.00000000E+00  0.00000000E+00
  0.00000000E+00  0.00000000E+00  0.00000000E+00
  0.00000000E+00  0.00000000E+00  0.00000000E+00
  0.00000000E+00  0.00000000E+00  0.00000000E+00
  0.00000000E+00  0.00000000E+00  0.00000000E+00
  0.00000000E+00  0.00000000E+00  0.00000000E+00
  0.00000000E+00  0.00000000E+00  0.00000000E+00
  0.00000000E+00  0.00000000E+00  0.00000000E+00
  0.00000000E+00  0.00000000E+00  0.00000000E+00
  0.00000000E+00  0.00000000E+00  0.00000000E+00
  0.00000000E+00  0.00000000E+00  0.00000000E+00
  0.00000000E+00  0.00000000E+00  0.00000000E+00
  0.00000000E+00  0.00000000E+00  0.00000000E+00
  0.00000000E+00  0.00000000E+00  0.00000000E+00
  0.00000000E+00  0.00000000E+00  0.00000000E+00
  0.00000000E+00  0.00000000E+00  0.00000000E+00
  0.00000000E+00  0.00000000E+00  0.00000000E+00
  0.00000000E+00  0.00000000E+00  0.00000000E+00
  0.00000000E+00  0.00000000E+00  0.00000000E+00
  0.00000000E+00  0.00000000E+00  0.00000000E+00
  0.00000000E+00  0.00000000E+00  0.00000000E+00
  0.00000000E+00  0.00000000E+00  0.00000000E+00
  0.00000000E+00  0.00000000E+00  0.00000000E+00
  0.00000000E+00  0.00000000E+00  0.00000000E+00
  0.00000000E+00  0.00000000E+00  0.00000000E+00
  0.00000000E+00  0.00000000E+00  0.00000000E+00
  0.00000000E+00  0.00000000E+00  0.00000000E+00
  0.00000000E+00  0.00000000E+00  0.00000000E+00
  0.00000000E+00  0.00000000E+00  0.00000000E+00
  0.00000000E+00  0.00000000E+00  0.00000000E+00
  0.00000000E+00  0.00000000E+00  0.00000000E+00
  0.00000000E+00  0.00000000E+00  0.00000000E+00
  0.00000000E+00  0.00000000E+00  0.00000000E+00
  0.00000000E+00  0.00000000E+00  0.00000000E+00
  0.00000000E+00  0.00000000E+00  0.00000000E+00
  0.00000000E+00  0.00000000E+00  0.00000000E+00
  0.00000000E+00  0.00000000E+00  0.00000000E+00
  0.00000000E+00  0.00000000E+00  0.00000000E+00
  0.00000000E+00  0.00000000E+00  0.00000000E+00
  0.00000000E+00  0.00000000E+00  0.00000000E+00
  0.00000000E+00  0.00000000E+00  0.00000000E+00
  0.00000000E+00  0.00000000E+00  0.00000000E+00
  0.00000000E+00  0.00000000E+00  0.00000000E+00
  0.00000000E+00  0.00000000E+00  0.00000000E+00
  0.00000000E+00  0.00000000E+00  0.00000000E+00
  0.00000000E+00  0.00000000E+00  0.00000000E+00
  0.00000000E+00  0.00000000E+00  0.00000000E+00
  0.00000000E+00  0.00000000E+00  0.00000000E+00
  0.00000000E+00  0.00000000E+00  0.00000000E+00
  0.00000000E+00  0.00000000E+00  0.00000000E+00
  0.00000000E+00  0.00000000E+00  0.00000000E+00
  0.00000000E+00  0.00000000E+00  0.00000000E+00
  0.00000000E+00  0.00000000E+00  0.00000000E+00
  0.00000000E+00  0.00000000E+00  0.00000000E+00
  0.00000000E+00  0.00000000E+00  0.00000000E+00
  0.00000000E+00  0.00000000E+00  0.00000000E+00
  0.00000000E+00  0.00000000E+00  0.00000000E+00
  0.00000000E+00  0.00000000E+00  0.00000000E+00
  0.00000000E+00  0.00000000E+00  0.00000000E+00
  0.00000000E+00  0.00000000E+00  0.00000000E+00
  0.00000000E+00  0.00000000E+00  0.00000000E+00
  0.00000000E+00  0.00000000E+00  0.00000000E+00
  0.00000000E+00  0.00000000E+00  0.00000000E+00
  0.00000000E+00  0.00000000E+00  0.00000000E+00
  0.00000000E+00  0.00000000E+00  0.00000000E+00
  0.00000000E+00  0.00000000E+00  0.00000000E+00
  0.00000000E+00  0.00000000E+00  0.00000000E+00
  0.00000000E+00  0.00000000E+00  0.00000000E+00
  0.00000000E+00  0.00000000E+00  0.00000000E+00
  0.00000000E+00  0.00000000E+00  0.00000000E+00
  0.00000000E+00  0.00000000E+00  0.00000000E+00
  0.00000000E+00  0.00000000E+00  0.00000000E+00
  0.00000000E+00  0.00000000E+00  0.00000000E+00
  0.00000000E+00  0.00000000E+00  0.00000000E+00
  0.00000000E+00  0.00000000E+00  0.00000000E+00
  0.00000000E+00  0.00000000E+00  0.00000000E+00
  0.00000000E+00  0.00000000E+00  0.00000000E+00
  0.00000000E+00  0.00000000E+00  0.00000000E+00
  0.00000000E+00  0.00000000E+00  0.00000000E+00
  0.00000000E+00  0.00000000E+00  0.00000000E+00
  0.00000000E+00  0.00000000E+00  0.00000000E+00
  0.00000000E+00  0.00000000E+00  0.00000000E+00
  0.00000000E+00  0.00000000E+00  0.00000000E+00
  0.00000000E+00  0.00000000E+00  0.00000000E+00
  0.00000000E+00  0.00000000E+00  0.00000000E+00
  0.00000000E+00  0.00000000E+00  0.00000000E+00
  0.00000000E+00  0.00000000E+00  0.00000000E+00
  0.00000000E+00  0.00000000E+00  0.00000000E+00
  0.00000000E+00  0.00000000E+00  0.00000000E+00
  0.00000000E+00  0.00000000E+00  0.00000000E+00
  0.00000000E+00  0.00000000E+00  0.00000000E+00
  0.00000000E+00  0.00000000E+00  0.00000000E+00
  0.00000000E+00  0.00000000E+00  0.00000000E+00
  0.00000000E+00  0.00000000E+00  0.00000000E+00
  0.00000000E+00  0.00000000E+00  0.00000000E+00
  0.00000000E+00  0.00000000E+00  0.00000000E+00
  0.00000000E+00  0.00000000E+00  0.00000000E+00
  0.00000000E+00  0.00000000E+00  0.00000000E+00
  0.00000000E+00  0.00000000E+00  0.00000000E+00
  0.00000000E+00  0.00000000E+00  0.00000000E+00
  0.00000000E+00  0.00000000E+00  0.00000000E+00
  0.00000000E+00  0.00000000E+00  0.00000000E+00
  0.00000000E+00  0.00000000E+00  0.00000000E+00
  0.00000000E+00  0.00000000E+00  0.00000000E+00
  0.00000000E+00  0.00000000E+00  0.00000000E+00
  0.00000000E+00  0.00000000E+00  0.00000000E+00
  0.00000000E+00  0.00000000E+00  0.00000000E+00
  0.00000000E+00  0.00000000E+00  0.00000000E+00
  0.00000000E+00  0.00000000E+00  0.00000000E+00
  0.00000000E+00  0.00000000E+00  0.00000000E+00
  0.00000000E+00  0.00000000E+00  0.00000000E+00
  0.00000000E+00  0.00000000E+00  0.00000000E+00
  0.00000000E+00  0.00000000E+00  0.00000000E+00
  0.00000000E+00  0.00000000E+00  0.00000000E+00
  0.00000000E+00  0.00000000E+00  0.00000000E+00
  0.00000000E+00  0.00000000E+00  0.00000000E+00
  0.00000000E+00  0.00000000E+00  0.00000000E+00
  0.00000000E+00  0.00000000E+00  0.00000000E+00
  0.00000000E+00  0.00000000E+00  0.00000000E+00
  0.00000000E+00  0.00000000E+00  0.00000000E+00
  0.00000000E+00  0.00000000E+00  0.00000000E+00
  0.00000000E+00  0.00000000E+00  0.00000000E+00
  0.00000000E+00  0.00000000E+00  0.00000000E+00
  0.00000000E+00  0.00000000E+00  0.00000000E+00
  0.00000000E+00  0.00000000E+00  0.00000000E+00
  0.00000000E+00  0.00000000E+00  0.00000000E+00
  0.00000000E+00  0.00000000E+00  0.00000000E+00
  0.00000000E+00  0.00000000E+00  0.00000000E+00
  0.00000000E+00  0.00000000E+00  0.00000000E+00
  0.00000000E+00  0.00000000E+00  0.00000000E+00
  0.00000000E+00  0.00000000E+00  0.00000000E+00
  0.00000000E+00  0.00000000E+00  0.00000000E+00
  0.00000000E+00  0.00000000E+00  0.00000000E+00
  0.00000000E+00  0.00000000E+00  0.00000000E+00
  0.00000000E+00  0.00000000E+00  0.00000000E+00
  0.00000000E+00  0.00000000E+00  0.00000000E+00
  0.00000000E+00  0.00000000E+00  0.00000000E+00
  0.00000000E+00  0.00000000E+00  0.00000000E+00
  0.00000000E+00  0.00000000E+00  0.00000000E+00
  0.00000000E+00  0.00000000E+00  0.00000000E+00
  0.00000000E+00  0.00000000E+00  0.00000000E+00
  0.00000000E+00  0.00000000E+00  0.00000000E+00
  0.00000000E+00  0.00000000E+00  0.00000000E+00
  0.00000000E+00  0.00000000E+00  0.00000000E+00
  0.00000000E+00  0.00000000E+00  0.00000000E+00
  0.00000000E+00  0.00000000E+00  0.00000000E+00
  0.00000000E+00  0.00000000E+00  0.00000000E+00
  0.00000000E+00  0.00000000E+00  0.00000000E+00
  0.00000000E+00  0.00000000E+00  0.00000000E+00
  0.00000000E+00  0.00000000E+00  0.00000000E+00
  0.00000000E+00  0.00000000E+00  0.00000000E+00
  0.00000000E+00  0.00000000E+00  0.00000000E+00
  0.00000000E+00  0.00000000E+00  0.00000000E+00
  0.00000000E+00  0.00000000E+00  0.00000000E+00
  0.00000000E+00  0.00000000E+00  0.00000000E+00
  0.00000000E+00  0.00000000E+00  0.00000000E+00
  0.00000000E+00  0.00000000E+00  0.00000000E+00
  0.00000000E+00  0.00000000E+00  0.00000000E+00
  0.00000000E+00  0.00000000E+00  0.00000000E+00
  0.00000000E+00  0.00000000E+00  0.00000000E+00
  0.00000000E+00  0.00000000E+00  0.00000000E+00
  0.00000000E+00  0.00000000E+00  0.00000000E+00
  0.00000000E+00  0.00000000E+00  0.00000000E+00
  0.00000000E+00  0.00000000E+00  0.00000000E+00
  0.00000000E+00  0.00000000E+00  0.00000000E+00
  0.00000000E+00  0.00000000E+00  0.00000000E+00
  0.00000000E+00  0.00000000E+00  0.00000000E+00
  0.00000000E+00  0.00000000E+00  0.00000000E+00
  0.00000000E+00  0.00000000E+00  0.00000000E+00
  0.00000000E+00  0.00000000E+00  0.00000000E+00
  0.00000000E+00  0.00000000E+00  0.00000000E+00
  0.00000000E+00  0.00000000E+00  0.00000000E+00
  0.00000000E+00  0.00000000E+00  0.00000000E+00
  0.00000000E+00  0.00000000E+00  0.00000000E+00
  0.00000000E+00  0.00000000E+00  0.00000000E+00
  0.00000000E+00  0.00000000E+00  0.00000000E+00
  0.00000000E+00  0.00000000E+00  0.00000000E+00
  0.00000000E+00  0.00000000E+00  0.00000000E+00
  0.00000000E+00  0.00000000E+00  0.00000000E+00
  0.00000000E+00  0.00000000E+00  0.00000000E+00
  0.00000000E+00  0.00000000E+00  0.00000000E+00
  0.00000000E+00  0.00000000E+00  0.00000000E+00
  0.00000000E+00  0.00000000E+00  0.00000000E+00
  0.00000000E+00  0.00000000E+00  0.00000000E+00
  0.00000000E+00  0.00000000E+00  0.00000000E+00
  0.00000000E+00  0.00000000E+00  0.00000000E+00
  0.00000000E+00  0.00000000E+00  0.00000000E+00
