Al   B    N                             
   1.00000000000000     
    -9.2927732219992070   -0.0543247276271195   -0.0234024404336462
    -4.5994528157761732    7.9270741171306920    0.0108566364692520
    -0.0519509772209663   -0.0201389696453660   -9.9113436199700367
   Al   B    N 
    31     5    36
Direct
  0.0983420030126538  0.0984412381811595  0.3229381990326416
  0.2331516423959812  0.2032736913297910  0.0646158808342108
  0.7877217817085054  0.0952985814615488  0.8023649350552020
  0.4427674633469110  0.0995514056946334  0.3431769836354164
  0.1179218646587614  0.0973549889633603  0.8035534200877734
  0.8869942693181585  0.2037189597777171  0.0637186773787235
  0.4444093279661843  0.0918328361695941  0.7958984463997538
  0.1068073995581287  0.4292420215000661  0.3099578625945938
  0.2287850285691349  0.5300784016137214  0.0590393745420172
  0.7807505218624868  0.4177082648874091  0.8026664681803837
  0.8898252262684494  0.5278053146425421  0.5549553220447976
  0.4441594182396287  0.4300367608358471  0.3116131456988214
  0.5576172548911629  0.5307305351164331  0.0593040958060200
  0.1149225478681046  0.4188029498262580  0.8058855676924495
  0.2255241105588013  0.5262801210866570  0.5573134900616239
  0.7708368466495372  0.4285031072844561  0.3096914460916480
  0.8892072798297477  0.5365844065569334  0.0564916515164455
  0.4420935474972296  0.4319025486886687  0.8079882604739197
  0.5522177381640816  0.5335679638695581  0.5564370750674286
  0.1051431826646976  0.7677593856289633  0.3081516064784040
  0.2212858955005217  0.8753082716825205  0.0596883569894615
  0.7800261450898063  0.7611144555933578  0.8076907927367074
  0.8837670741865082  0.8854152482852982  0.5515096569292837
  0.4403955977263294  0.7662817796426893  0.3071714200680375
  0.5553194718884882  0.8825612463478691  0.0614308065835445
  0.1104776553022262  0.7625295159872252  0.8075439672004592
  0.2279181009499425  0.8769098917375402  0.5601949509760331
  0.7727180051289082  0.7689920289805485  0.3065965469121537
  0.8847685208348182  0.8782939129436116  0.0621863540941092
  0.4474028767280203  0.7607220695292654  0.8113311073469944
  0.5628979265098479  0.8743848104081238  0.5609113832617325
  0.8217693874375342  0.2290883291886985  0.5346908740888097
  0.5587625812416803  0.2002641508410221  0.1567983032971298
  0.1758491636785990  0.2250950291670293  0.5480933270039472
  0.7747216623456268  0.0936476463080993  0.3060386820100760
  0.5543552254940280  0.2086490959264609  0.6416283395716746
  0.2081870456920782  0.2126922321055744  0.3927594021159422
  0.1089879100573725  0.0986907154469563  0.1290698147961464
  0.8972262691887281  0.2005128785318107  0.8718604573497259
  0.7737296355795991  0.1172957536969363  0.6076415278994673
  0.5783215711227427  0.1961937305962635  0.3197791005391508
  0.4531336681912563  0.1061884297208451  0.1332095384709646
  0.2313893636271800  0.2012027149550661  0.8737384822214054
  0.1453714990875596  0.1011646992342321  0.6149024251449049
  0.8621162084432896  0.2008538332512515  0.3814646613953698
  0.7671441477781684  0.1011011598079605  0.1391537339380733
  0.5620014047499211  0.2039156915039797  0.8085786554107202
  0.4797451813240556  0.0997999265319791  0.6035835049198113
  0.2191067011839039  0.5400841500080418  0.3671138373339673
  0.1093500699728693  0.4274947177375665  0.1199094153314277
  0.8903337331773358  0.5335056830304126  0.8618654677081352
  0.7823220924667780  0.3978194045883754  0.6028331333377039
  0.5502757825347970  0.5440806704199588  0.3673399786834182
  0.4550197847028201  0.4046202826406287  0.1181173474725128
  0.2211897690222813  0.5373384262566816  0.8654156201570729
  0.1164211940535580  0.4014929351793413  0.6108580326154964
  0.8846184661679004  0.5411508799052314  0.3658665332236453
  0.7768196480133795  0.4271956784285749  0.1201140579999631
  0.5597299966121341  0.5351591178653834  0.8670400098135289
  0.4504393591692804  0.4097131028508230  0.6125704388986222
  0.2201521885016433  0.8733236611954140  0.3701008821783844
  0.1116603428728595  0.7597636620703838  0.1167272591050406
  0.8887699684479173  0.8758228795405287  0.8685950408655430
  0.7881643003754277  0.7537262784700545  0.6156064305293185
  0.5551883620702824  0.8697241310358876  0.3713622547022908
  0.4441466688579894  0.7621993563661320  0.1156051912256046
  0.2232570499451043  0.8733147964112575  0.8667718010690848
  0.1106238515578468  0.7619254293889597  0.6147380904600652
  0.8736216068537175  0.8997582651251363  0.3590425305773692
  0.7774509333294546  0.7611372634083367  0.1158835995768186
  0.5577517476334819  0.8740186540105270  0.8682387065077251
  0.4520658310055481  0.7564032280474393  0.6201965884832319
 
  0.00000000E+00  0.00000000E+00  0.00000000E+00
  0.00000000E+00  0.00000000E+00  0.00000000E+00
  0.00000000E+00  0.00000000E+00  0.00000000E+00
  0.00000000E+00  0.00000000E+00  0.00000000E+00
  0.00000000E+00  0.00000000E+00  0.00000000E+00
  0.00000000E+00  0.00000000E+00  0.00000000E+00
  0.00000000E+00  0.00000000E+00  0.00000000E+00
  0.00000000E+00  0.00000000E+00  0.00000000E+00
  0.00000000E+00  0.00000000E+00  0.00000000E+00
  0.00000000E+00  0.00000000E+00  0.00000000E+00
  0.00000000E+00  0.00000000E+00  0.00000000E+00
  0.00000000E+00  0.00000000E+00  0.00000000E+00
  0.00000000E+00  0.00000000E+00  0.00000000E+00
  0.00000000E+00  0.00000000E+00  0.00000000E+00
  0.00000000E+00  0.00000000E+00  0.00000000E+00
  0.00000000E+00  0.00000000E+00  0.00000000E+00
  0.00000000E+00  0.00000000E+00  0.00000000E+00
  0.00000000E+00  0.00000000E+00  0.00000000E+00
  0.00000000E+00  0.00000000E+00  0.00000000E+00
  0.00000000E+00  0.00000000E+00  0.00000000E+00
  0.00000000E+00  0.00000000E+00  0.00000000E+00
  0.00000000E+00  0.00000000E+00  0.00000000E+00
  0.00000000E+00  0.00000000E+00  0.00000000E+00
  0.00000000E+00  0.00000000E+00  0.00000000E+00
  0.00000000E+00  0.00000000E+00  0.00000000E+00
  0.00000000E+00  0.00000000E+00  0.00000000E+00
  0.00000000E+00  0.00000000E+00  0.00000000E+00
  0.00000000E+00  0.00000000E+00  0.00000000E+00
  0.00000000E+00  0.00000000E+00  0.00000000E+00
  0.00000000E+00  0.00000000E+00  0.00000000E+00
  0.00000000E+00  0.00000000E+00  0.00000000E+00
  0.00000000E+00  0.00000000E+00  0.00000000E+00
  0.00000000E+00  0.00000000E+00  0.00000000E+00
  0.00000000E+00  0.00000000E+00  0.00000000E+00
  0.00000000E+00  0.00000000E+00  0.00000000E+00
  0.00000000E+00  0.00000000E+00  0.00000000E+00
  0.00000000E+00  0.00000000E+00  0.00000000E+00
  0.00000000E+00  0.00000000E+00  0.00000000E+00
  0.00000000E+00  0.00000000E+00  0.00000000E+00
  0.00000000E+00  0.00000000E+00  0.00000000E+00
  0.00000000E+00  0.00000000E+00  0.00000000E+00
  0.00000000E+00  0.00000000E+00  0.00000000E+00
  0.00000000E+00  0.00000000E+00  0.00000000E+00
  0.00000000E+00  0.00000000E+00  0.00000000E+00
  0.00000000E+00  0.00000000E+00  0.00000000E+00
  0.00000000E+00  0.00000000E+00  0.00000000E+00
  0.00000000E+00  0.00000000E+00  0.00000000E+00
  0.00000000E+00  0.00000000E+00  0.00000000E+00
  0.00000000E+00  0.00000000E+00  0.00000000E+00
  0.00000000E+00  0.00000000E+00  0.00000000E+00
  0.00000000E+00  0.00000000E+00  0.00000000E+00
  0.00000000E+00  0.00000000E+00  0.00000000E+00
  0.00000000E+00  0.00000000E+00  0.00000000E+00
  0.00000000E+00  0.00000000E+00  0.00000000E+00
  0.00000000E+00  0.00000000E+00  0.00000000E+00
  0.00000000E+00  0.00000000E+00  0.00000000E+00
  0.00000000E+00  0.00000000E+00  0.00000000E+00
  0.00000000E+00  0.00000000E+00  0.00000000E+00
  0.00000000E+00  0.00000000E+00  0.00000000E+00
  0.00000000E+00  0.00000000E+00  0.00000000E+00
  0.00000000E+00  0.00000000E+00  0.00000000E+00
  0.00000000E+00  0.00000000E+00  0.00000000E+00
  0.00000000E+00  0.00000000E+00  0.00000000E+00
  0.00000000E+00  0.00000000E+00  0.00000000E+00
  0.00000000E+00  0.00000000E+00  0.00000000E+00
  0.00000000E+00  0.00000000E+00  0.00000000E+00
  0.00000000E+00  0.00000000E+00  0.00000000E+00
  0.00000000E+00  0.00000000E+00  0.00000000E+00
  0.00000000E+00  0.00000000E+00  0.00000000E+00
  0.00000000E+00  0.00000000E+00  0.00000000E+00
  0.00000000E+00  0.00000000E+00  0.00000000E+00
  0.00000000E+00  0.00000000E+00  0.00000000E+00
