Al   B    N                             
   1.00000000000000     
    -9.3515750550948411   -0.0725667406664704    0.0141068497352037
    -4.5931769763776344    7.9341615625875166    0.0196543498847209
     0.0478470035658551    0.0512068246641160  -10.0677181834768152
   Al   B    N 
    31     5    36
Direct
  0.1194047982460731  0.0913902190206031  0.3253352486465744
  0.2178833976236021  0.2098667748742926  0.0709369107636064
  0.7630932099012782  0.1045700824132609  0.8725200555714281
  0.4552730662022952  0.1021746430711445  0.3943590783187929
  0.1142203066629150  0.0976518767787269  0.8003349101686155
  0.8723958941420946  0.2009977047587341  0.1428858143395715
  0.4471043848749758  0.0951173578457016  0.8850215194961777
  0.1158550515176273  0.4266680588833793  0.3256320519016072
  0.2168723332254174  0.5376828172942822  0.0719482325973146
  0.7776012214788679  0.4232000392988979  0.8853429435794666
  0.8834661236597938  0.5303681859023257  0.6355960896551522
  0.4518359111387085  0.4140902831713973  0.3805786045011601
  0.5545845208633366  0.5318670951494937  0.1370026390226613
  0.1183969202391637  0.4176681386872261  0.8153387385846500
  0.2189470226229204  0.5309823750682838  0.5680099786911583
  0.7772951576845202  0.4171606784306476  0.3923982225440739
  0.8805083695883269  0.5392177665531648  0.1420020125696411
  0.4467624637270475  0.4219901593277058  0.8874402178863434
  0.5520048201755543  0.5296549986469046  0.6401590229203578
  0.1076693884096684  0.7683273303484981  0.3185004024346014
  0.2134910510502550  0.8803532540734054  0.0687272485235937
  0.7743532238013771  0.7542827091746744  0.8853253996930874
  0.8983762875641048  0.8746416187208581  0.5816418310244913
  0.4550323695239484  0.7552220838051085  0.3862907076344797
  0.5541626651545997  0.8822451219474274  0.1400428352866356
  0.1099600512103223  0.7617039075529348  0.8175694325962013
  0.2265717380142931  0.8770214236714153  0.5681227009203127
  0.7741472385973793  0.7697530288075853  0.3896326154073080
  0.8841588895367707  0.8791615840963587  0.0673809007214814
  0.4451985185600336  0.7612611787911163  0.8868470569295965
  0.5610449743876416  0.8783220908373437  0.6382497789848998
  0.8378156279448490  0.2328973475703364  0.6421426243081569
  0.5313861973090397  0.2171004726319055  0.1418105231357387
  0.1723872307680310  0.2275609698893746  0.5552536463646121
  0.8473323754292892  0.0776027885179857  0.4183032854657398
  0.5052979424335433  0.2274103481863037  0.6477899509542837
  0.2104076457065744  0.2133385093740685  0.4058022617823482
  0.1118259699039044  0.0975102552168963  0.1365524813828642
  0.8723988001376526  0.2113592448319395  0.7931939891869746
  0.8309366186810649  0.1029093065580611  0.5643453888773848
  0.5268158339340090  0.2178923166367852  0.2907645357900321
  0.4565601281796532  0.1080528806717993  0.0761290020482903
  0.2140287959124336  0.2052573765114829  0.8845823202742764
  0.1586125046585920  0.0961644256820051  0.6211796326246883
  0.8819468311546643  0.1905774672405443  0.3341968386503495
  0.7502502113110694  0.1131695862837461  0.0661169759865885
  0.5420123533916552  0.2120568615481986  0.7997380162336967
  0.4979947351824521  0.0955345650721569  0.5779917839807922
  0.2148197767124600  0.5478946533518538  0.3813748716758738
  0.1128255434853926  0.4257598265473064  0.1369123273449659
  0.8860561683625647  0.5346542431218211  0.8249548236287225
  0.7795661991416409  0.4052243022324120  0.5828147052564177
  0.5583515549187084  0.5326610953197459  0.3272140130732666
  0.4536084043636350  0.4055484959450766  0.0782132022153164
  0.2148014095616375  0.5398610161888158  0.8791835803011594
  0.1199346057775799  0.3999759722165166  0.6204817270600032
  0.8801489050462337  0.5410625827521542  0.3346360740163163
  0.7781172525534359  0.4216772473879686  0.0756323940993298
  0.5527989898019925  0.5374183819808707  0.8283194400498743
  0.4549148944639896  0.3979727157026787  0.5818684029719705
  0.2239062897468429  0.8711433460013467  0.3787698689429462
  0.1054412400376279  0.7651348264181692  0.1292406177660723
  0.8887532284414519  0.8715484004204939  0.8662044798178101
  0.7841948313980396  0.7531990055374465  0.5802972409262566
  0.5537678173994678  0.8786796866426840  0.3288943576985943
  0.4469160094628606  0.7604404413681678  0.0793820555759623
  0.2115096218393475  0.8815901353994136  0.8765368515910268
  0.1224862066836891  0.7544190853754245  0.6310787502644573
  0.8882073337649388  0.8985711452184901  0.3827319339581550
  0.7729609157221518  0.7579175073455104  0.0781624995262149
  0.5540186830050615  0.8729979482021477  0.8263260389812217
  0.4608151980596844  0.7507322340336984  0.5777168565815245
 
  0.00000000E+00  0.00000000E+00  0.00000000E+00
  0.00000000E+00  0.00000000E+00  0.00000000E+00
  0.00000000E+00  0.00000000E+00  0.00000000E+00
  0.00000000E+00  0.00000000E+00  0.00000000E+00
  0.00000000E+00  0.00000000E+00  0.00000000E+00
  0.00000000E+00  0.00000000E+00  0.00000000E+00
  0.00000000E+00  0.00000000E+00  0.00000000E+00
  0.00000000E+00  0.00000000E+00  0.00000000E+00
  0.00000000E+00  0.00000000E+00  0.00000000E+00
  0.00000000E+00  0.00000000E+00  0.00000000E+00
  0.00000000E+00  0.00000000E+00  0.00000000E+00
  0.00000000E+00  0.00000000E+00  0.00000000E+00
  0.00000000E+00  0.00000000E+00  0.00000000E+00
  0.00000000E+00  0.00000000E+00  0.00000000E+00
  0.00000000E+00  0.00000000E+00  0.00000000E+00
  0.00000000E+00  0.00000000E+00  0.00000000E+00
  0.00000000E+00  0.00000000E+00  0.00000000E+00
  0.00000000E+00  0.00000000E+00  0.00000000E+00
  0.00000000E+00  0.00000000E+00  0.00000000E+00
  0.00000000E+00  0.00000000E+00  0.00000000E+00
  0.00000000E+00  0.00000000E+00  0.00000000E+00
  0.00000000E+00  0.00000000E+00  0.00000000E+00
  0.00000000E+00  0.00000000E+00  0.00000000E+00
  0.00000000E+00  0.00000000E+00  0.00000000E+00
  0.00000000E+00  0.00000000E+00  0.00000000E+00
  0.00000000E+00  0.00000000E+00  0.00000000E+00
  0.00000000E+00  0.00000000E+00  0.00000000E+00
  0.00000000E+00  0.00000000E+00  0.00000000E+00
  0.00000000E+00  0.00000000E+00  0.00000000E+00
  0.00000000E+00  0.00000000E+00  0.00000000E+00
  0.00000000E+00  0.00000000E+00  0.00000000E+00
  0.00000000E+00  0.00000000E+00  0.00000000E+00
  0.00000000E+00  0.00000000E+00  0.00000000E+00
  0.00000000E+00  0.00000000E+00  0.00000000E+00
  0.00000000E+00  0.00000000E+00  0.00000000E+00
  0.00000000E+00  0.00000000E+00  0.00000000E+00
  0.00000000E+00  0.00000000E+00  0.00000000E+00
  0.00000000E+00  0.00000000E+00  0.00000000E+00
  0.00000000E+00  0.00000000E+00  0.00000000E+00
  0.00000000E+00  0.00000000E+00  0.00000000E+00
  0.00000000E+00  0.00000000E+00  0.00000000E+00
  0.00000000E+00  0.00000000E+00  0.00000000E+00
  0.00000000E+00  0.00000000E+00  0.00000000E+00
  0.00000000E+00  0.00000000E+00  0.00000000E+00
  0.00000000E+00  0.00000000E+00  0.00000000E+00
  0.00000000E+00  0.00000000E+00  0.00000000E+00
  0.00000000E+00  0.00000000E+00  0.00000000E+00
  0.00000000E+00  0.00000000E+00  0.00000000E+00
  0.00000000E+00  0.00000000E+00  0.00000000E+00
  0.00000000E+00  0.00000000E+00  0.00000000E+00
  0.00000000E+00  0.00000000E+00  0.00000000E+00
  0.00000000E+00  0.00000000E+00  0.00000000E+00
  0.00000000E+00  0.00000000E+00  0.00000000E+00
  0.00000000E+00  0.00000000E+00  0.00000000E+00
  0.00000000E+00  0.00000000E+00  0.00000000E+00
  0.00000000E+00  0.00000000E+00  0.00000000E+00
  0.00000000E+00  0.00000000E+00  0.00000000E+00
  0.00000000E+00  0.00000000E+00  0.00000000E+00
  0.00000000E+00  0.00000000E+00  0.00000000E+00
  0.00000000E+00  0.00000000E+00  0.00000000E+00
  0.00000000E+00  0.00000000E+00  0.00000000E+00
  0.00000000E+00  0.00000000E+00  0.00000000E+00
  0.00000000E+00  0.00000000E+00  0.00000000E+00
  0.00000000E+00  0.00000000E+00  0.00000000E+00
  0.00000000E+00  0.00000000E+00  0.00000000E+00
  0.00000000E+00  0.00000000E+00  0.00000000E+00
  0.00000000E+00  0.00000000E+00  0.00000000E+00
  0.00000000E+00  0.00000000E+00  0.00000000E+00
  0.00000000E+00  0.00000000E+00  0.00000000E+00
  0.00000000E+00  0.00000000E+00  0.00000000E+00
  0.00000000E+00  0.00000000E+00  0.00000000E+00
  0.00000000E+00  0.00000000E+00  0.00000000E+00
