Al   B    N                             
   1.00000000000000     
    -9.2932400243054794   -0.0454015996034029   -0.0471849165912036
    -4.6124608961505533    7.9309586552718772    0.0037680304021961
    -0.0685060465747132   -0.0380623650370400   -9.7668938960051239
   Al   B    N 
    31     5    36
Direct
  0.0979574809507895  0.0981678021110781  0.3193466983798601
  0.2278997522856514  0.2048013318536732  0.0576163247369408
  0.7751373949149141  0.1007463907769548  0.8044443482391870
  0.4458340482499921  0.1010459337033467  0.3186964895411180
  0.1181149502038608  0.0972800796662696  0.7973382700525775
  0.8832848282031946  0.2042587921627614  0.0604857692552159
  0.4559693171216708  0.0971442935523754  0.8027029830430479
  0.1081166949438739  0.4294133476170217  0.3051172172097907
  0.2256596420415704  0.5333150181843536  0.0527183679531262
  0.7823995600811173  0.4165779401516190  0.7986372193669737
  0.8913151229784191  0.5276618446873442  0.5507868201720640
  0.4508983466974286  0.4173629570575557  0.3050610734537358
  0.5563342033689125  0.5331609984724182  0.0529721432162447
  0.1168519593630251  0.4170098955923578  0.7996396286299543
  0.2291732407340277  0.5243643262737407  0.5533355427859732
  0.7709563333863656  0.4286659492130269  0.3050881665891723
  0.8885752289032141  0.5374651655341864  0.0515749649676707
  0.4508461363856853  0.4158046250844265  0.8060608608751210
  0.5532844028001520  0.5324090631400082  0.5527187961720941
  0.1051671239030370  0.7669877758154513  0.3043863571380285
  0.2193017612286710  0.8766113540045737  0.0546198415818253
  0.7808020680726173  0.7601659524161661  0.8024331567816319
  0.8844692148565372  0.8854945967402088  0.5497756909441875
  0.4404038363044620  0.7647298485733032  0.3035765490716500
  0.5550911233012954  0.8806257224061085  0.0556260072504813
  0.1108206163984278  0.7621125131175006  0.8030641232929980
  0.2284773252963817  0.8760589883068377  0.5549845554748600
  0.7725976089513154  0.7689079037137176  0.3037499134776525
  0.8799444340141136  0.8826445207539138  0.0598923055898126
  0.4475404741174671  0.7602009316319922  0.8053678598935861
  0.5613579922226251  0.8787491459256174  0.5569432063224369
  0.8260854228198795  0.2300648233106983  0.5325328268117673
  0.5521104821666043  0.2093584998280278  0.0619132571366308
  0.1762599230701127  0.2248008543319315  0.5394125675043426
  0.7625528884906245  0.0989767312164673  0.3091391384686233
  0.5633099656386591  0.2022878013861487  0.5510625995078442
  0.2132681246829833  0.2102523491904975  0.3833065225071763
  0.1060700826477259  0.0999725615220086  0.1237486786626576
  0.8969036446552536  0.1987309377119573  0.8663170777176745
  0.7703174151070797  0.1217570404400377  0.6051750511450393
  0.5774224692333334  0.1950730961104270  0.3804948145086513
  0.4531753545500763  0.1117319947197402  0.1191490278765883
  0.2332471268813094  0.1996789389997247  0.8662449519064097
  0.1436098266930301  0.1021038255521773  0.6058528767812632
  0.8615888870816306  0.2016428384252009  0.3770469713767639
  0.7508503388157237  0.1105699810351553  0.1359355798285904
  0.5634170447899010  0.2022863857904795  0.8943703363159869
  0.4963509549600786  0.0969917850282087  0.6142270977865039
  0.2227111012955945  0.5378453861535348  0.3605092375658856
  0.1084521246889238  0.4286749107158840  0.1132883364439223
  0.8917633113912373  0.5325386703327126  0.8553796689581930
  0.7846347553035642  0.3986975010439338  0.5984051604818816
  0.5495756602765809  0.5412407535552077  0.3605634780933755
  0.4540684290576991  0.4046755199864691  0.1097993961833623
  0.2241422143684630  0.5349093790217623  0.8567543882936732
  0.1188802282397248  0.3997305652198264  0.6030799424124424
  0.8850613472813080  0.5405551563017426  0.3599127026031255
  0.7753275042475565  0.4287675049618116  0.1136386996196350
  0.5593759006009407  0.5332850071672155  0.8584222420592624
  0.4579360223591564  0.3993638008077625  0.6076161996623597
  0.2195450120111815  0.8729455062676550  0.3636988538094386
  0.1084294181072849  0.7621574386480532  0.1105611041825654
  0.8876762720784441  0.8764212170357268  0.8628146293298045
  0.7888827939826513  0.7529089679989198  0.6085825128453948
  0.5517934902926029  0.8747253937848427  0.3635321771279649
  0.4423886210656107  0.7632305003937958  0.1097615692772322
  0.2231268990580588  0.8734553829360294  0.8600334558600764
  0.1119337325840419  0.7607611550570681  0.6085214770293703
  0.8719521990523944  0.9011626975923122  0.3545909943288450
  0.7761421036653786  0.7617226860594286  0.1111067232855802
  0.5585083434420000  0.8721093174445045  0.8621402502654050
  0.4526580007339689  0.7568865106397169  0.6124637938146904
 
  0.00000000E+00  0.00000000E+00  0.00000000E+00
  0.00000000E+00  0.00000000E+00  0.00000000E+00
  0.00000000E+00  0.00000000E+00  0.00000000E+00
  0.00000000E+00  0.00000000E+00  0.00000000E+00
  0.00000000E+00  0.00000000E+00  0.00000000E+00
  0.00000000E+00  0.00000000E+00  0.00000000E+00
  0.00000000E+00  0.00000000E+00  0.00000000E+00
  0.00000000E+00  0.00000000E+00  0.00000000E+00
  0.00000000E+00  0.00000000E+00  0.00000000E+00
  0.00000000E+00  0.00000000E+00  0.00000000E+00
  0.00000000E+00  0.00000000E+00  0.00000000E+00
  0.00000000E+00  0.00000000E+00  0.00000000E+00
  0.00000000E+00  0.00000000E+00  0.00000000E+00
  0.00000000E+00  0.00000000E+00  0.00000000E+00
  0.00000000E+00  0.00000000E+00  0.00000000E+00
  0.00000000E+00  0.00000000E+00  0.00000000E+00
  0.00000000E+00  0.00000000E+00  0.00000000E+00
  0.00000000E+00  0.00000000E+00  0.00000000E+00
  0.00000000E+00  0.00000000E+00  0.00000000E+00
  0.00000000E+00  0.00000000E+00  0.00000000E+00
  0.00000000E+00  0.00000000E+00  0.00000000E+00
  0.00000000E+00  0.00000000E+00  0.00000000E+00
  0.00000000E+00  0.00000000E+00  0.00000000E+00
  0.00000000E+00  0.00000000E+00  0.00000000E+00
  0.00000000E+00  0.00000000E+00  0.00000000E+00
  0.00000000E+00  0.00000000E+00  0.00000000E+00
  0.00000000E+00  0.00000000E+00  0.00000000E+00
  0.00000000E+00  0.00000000E+00  0.00000000E+00
  0.00000000E+00  0.00000000E+00  0.00000000E+00
  0.00000000E+00  0.00000000E+00  0.00000000E+00
  0.00000000E+00  0.00000000E+00  0.00000000E+00
  0.00000000E+00  0.00000000E+00  0.00000000E+00
  0.00000000E+00  0.00000000E+00  0.00000000E+00
  0.00000000E+00  0.00000000E+00  0.00000000E+00
  0.00000000E+00  0.00000000E+00  0.00000000E+00
  0.00000000E+00  0.00000000E+00  0.00000000E+00
  0.00000000E+00  0.00000000E+00  0.00000000E+00
  0.00000000E+00  0.00000000E+00  0.00000000E+00
  0.00000000E+00  0.00000000E+00  0.00000000E+00
  0.00000000E+00  0.00000000E+00  0.00000000E+00
  0.00000000E+00  0.00000000E+00  0.00000000E+00
  0.00000000E+00  0.00000000E+00  0.00000000E+00
  0.00000000E+00  0.00000000E+00  0.00000000E+00
  0.00000000E+00  0.00000000E+00  0.00000000E+00
  0.00000000E+00  0.00000000E+00  0.00000000E+00
  0.00000000E+00  0.00000000E+00  0.00000000E+00
  0.00000000E+00  0.00000000E+00  0.00000000E+00
  0.00000000E+00  0.00000000E+00  0.00000000E+00
  0.00000000E+00  0.00000000E+00  0.00000000E+00
  0.00000000E+00  0.00000000E+00  0.00000000E+00
  0.00000000E+00  0.00000000E+00  0.00000000E+00
  0.00000000E+00  0.00000000E+00  0.00000000E+00
  0.00000000E+00  0.00000000E+00  0.00000000E+00
  0.00000000E+00  0.00000000E+00  0.00000000E+00
  0.00000000E+00  0.00000000E+00  0.00000000E+00
  0.00000000E+00  0.00000000E+00  0.00000000E+00
  0.00000000E+00  0.00000000E+00  0.00000000E+00
  0.00000000E+00  0.00000000E+00  0.00000000E+00
  0.00000000E+00  0.00000000E+00  0.00000000E+00
  0.00000000E+00  0.00000000E+00  0.00000000E+00
  0.00000000E+00  0.00000000E+00  0.00000000E+00
  0.00000000E+00  0.00000000E+00  0.00000000E+00
  0.00000000E+00  0.00000000E+00  0.00000000E+00
  0.00000000E+00  0.00000000E+00  0.00000000E+00
  0.00000000E+00  0.00000000E+00  0.00000000E+00
  0.00000000E+00  0.00000000E+00  0.00000000E+00
  0.00000000E+00  0.00000000E+00  0.00000000E+00
  0.00000000E+00  0.00000000E+00  0.00000000E+00
  0.00000000E+00  0.00000000E+00  0.00000000E+00
  0.00000000E+00  0.00000000E+00  0.00000000E+00
  0.00000000E+00  0.00000000E+00  0.00000000E+00
  0.00000000E+00  0.00000000E+00  0.00000000E+00
