Al   Sc   N                             
   1.00000000000000     
   -10.2673371789684147    0.0079328893012853   -0.0075462080630393
    -5.1430262072007515    8.9106847767840165   -0.0067965860719454
     0.0002544971388831    0.0050680872371448   -9.0851042040052992
   Al   Sc   N 
    23    13    35
Direct
  0.1106268032906073  0.0900924565718668  0.3333358979351644
  0.2219691960322123  0.2055728786818349  0.1173944655757140
  0.7748506016095789  0.0953263557740911  0.8296340926247012
  0.8904176390635783  0.2049830649203699  0.5901736570766403
  0.5552912631016369  0.2165517559130592  0.0756091179681846
  0.2250627793391544  0.2021850995572407  0.5733279013391765
  0.8813860525184083  0.2094498237244977  0.0811329503823046
  0.5486148440851863  0.2190620434531141  0.5949779345132598
  0.2322008199609229  0.5348988181422598  0.0808081394866846
  0.4391869337240522  0.4365909371245351  0.3317794610792220
  0.5505679591555648  0.5399901116488692  0.0903081431605699
  0.2300871772043109  0.5391579641104869  0.5851323746572632
  0.8871409971708459  0.5389141509311983  0.0831613642231872
  0.4426743688026988  0.4376546431194157  0.8322876883960788
  0.5488284278048212  0.5384564717178861  0.5760860296688577
  0.1175747672105700  0.7571939848647560  0.3332628250598475
  0.7741823725648160  0.7657500216503053  0.8375871470726963
  0.8895037991543759  0.8719274840111879  0.5991896595030184
  0.4432098089494190  0.7581221082423610  0.3341643486895620
  0.5599742257105547  0.8594537707064873  0.0786853630492885
  0.1129216816808949  0.7556373217102248  0.8355549496778067
  0.4483262795560208  0.7512848093942850  0.8320982701730770
  0.5527856742664312  0.8685573601048517  0.5904655519295048
  0.4522728831269944  0.0903722480727680  0.3464585906643762
  0.1126718758336835  0.0991482204179661  0.8520384125792191
  0.7757438643896535  0.0994092295280780  0.3545314318494093
  0.4461204183608416  0.0919389975246290  0.8483981146214958
  0.1201370858525195  0.4315645645737689  0.3461049265118348
  0.7633800470788117  0.4305030225974420  0.8476949566583727
  0.8905374840094993  0.5379544187694449  0.6042048727687046
  0.1254872683357746  0.4206797805436295  0.8503258979015484
  0.7740057745551354  0.4248332314706573  0.3448229985199731
  0.2291673812166550  0.8650056986920518  0.0959273190520449
  0.2225987535807903  0.8695612897997620  0.5964044945734344
  0.7748438011997365  0.7618724419192588  0.3493529049398703
  0.8871040316308694  0.8742460917992361  0.0922418214491216
  0.2180761105708839  0.1933814367632891  0.3491491629279366
  0.1002093431096966  0.1108814029143304  0.1073418394601120
  0.8814687178271541  0.1952381592559078  0.8648427270141639
  0.7770396892888556  0.0953272571536417  0.6135204245460173
  0.5401408131116199  0.2330456165219630  0.3823451706781853
  0.4488790009656114  0.0927594773060534  0.1002614530695496
  0.1071339857790718  0.1126918335486877  0.6147035470298619
  0.9088170147092072  0.1942893716212239  0.3735371011221957
  0.7647254027240891  0.1147241563672381  0.1125544336302227
  0.5584444213411714  0.2196242823378753  0.8584847044483652
  0.4413247942576746  0.0935492204745785  0.6076343182582136
  0.2333378813675608  0.5521460021454345  0.3726921638186766
  0.1163989951629034  0.4251706917943423  0.1011490513460487
  0.8872665435088578  0.5501917930339246  0.8566710377073079
  0.7635924298573045  0.4205012092245468  0.6052257317273160
  0.5348926118001600  0.5491149898569887  0.3635166420610574
  0.4443274411480971  0.4263561039514414  0.1194659715274682
  0.2327716961626152  0.5444715041296959  0.8695395263116055
  0.1379977531595173  0.4131474326943945  0.6051215182345757
  0.8928508825648294  0.5348996423833015  0.3648983353560808
  0.7771382434222787  0.4275196503155030  0.1014120947596098
  0.5336126107832939  0.5490234093386022  0.8798050457381663
  0.4422830391227279  0.4357822396654640  0.6235907689261708
  0.2218331985403097  0.8727263482576149  0.3521653281172235
  0.1209897237567148  0.7406201000679076  0.1159193070322715
  0.8853818244815201  0.8754378198930155  0.8518255436998743
  0.7665772705760787  0.7800708764179589  0.6147183748952258
  0.5434483727032173  0.8619103477834287  0.3761367188961557
  0.4624134853239426  0.7507871069229495  0.1215045052396917
  0.2290825662213152  0.8598099941100301  0.8533814259679744
  0.1030722480060362  0.7497410697153200  0.6230042141448848
  0.9080174090375763  0.8641390202318107  0.3644061088289305
  0.7715313700095763  0.7521104792299056  0.1042192090229577
  0.5596562485114873  0.8544646103879856  0.8642567997779622
  0.4618054601480281  0.7468420479423656  0.6204271154913883
 
  0.00000000E+00  0.00000000E+00  0.00000000E+00
  0.00000000E+00  0.00000000E+00  0.00000000E+00
  0.00000000E+00  0.00000000E+00  0.00000000E+00
  0.00000000E+00  0.00000000E+00  0.00000000E+00
  0.00000000E+00  0.00000000E+00  0.00000000E+00
  0.00000000E+00  0.00000000E+00  0.00000000E+00
  0.00000000E+00  0.00000000E+00  0.00000000E+00
  0.00000000E+00  0.00000000E+00  0.00000000E+00
  0.00000000E+00  0.00000000E+00  0.00000000E+00
  0.00000000E+00  0.00000000E+00  0.00000000E+00
  0.00000000E+00  0.00000000E+00  0.00000000E+00
  0.00000000E+00  0.00000000E+00  0.00000000E+00
  0.00000000E+00  0.00000000E+00  0.00000000E+00
  0.00000000E+00  0.00000000E+00  0.00000000E+00
  0.00000000E+00  0.00000000E+00  0.00000000E+00
  0.00000000E+00  0.00000000E+00  0.00000000E+00
  0.00000000E+00  0.00000000E+00  0.00000000E+00
  0.00000000E+00  0.00000000E+00  0.00000000E+00
  0.00000000E+00  0.00000000E+00  0.00000000E+00
  0.00000000E+00  0.00000000E+00  0.00000000E+00
  0.00000000E+00  0.00000000E+00  0.00000000E+00
  0.00000000E+00  0.00000000E+00  0.00000000E+00
  0.00000000E+00  0.00000000E+00  0.00000000E+00
  0.00000000E+00  0.00000000E+00  0.00000000E+00
  0.00000000E+00  0.00000000E+00  0.00000000E+00
  0.00000000E+00  0.00000000E+00  0.00000000E+00
  0.00000000E+00  0.00000000E+00  0.00000000E+00
  0.00000000E+00  0.00000000E+00  0.00000000E+00
  0.00000000E+00  0.00000000E+00  0.00000000E+00
  0.00000000E+00  0.00000000E+00  0.00000000E+00
  0.00000000E+00  0.00000000E+00  0.00000000E+00
  0.00000000E+00  0.00000000E+00  0.00000000E+00
  0.00000000E+00  0.00000000E+00  0.00000000E+00
  0.00000000E+00  0.00000000E+00  0.00000000E+00
  0.00000000E+00  0.00000000E+00  0.00000000E+00
  0.00000000E+00  0.00000000E+00  0.00000000E+00
  0.00000000E+00  0.00000000E+00  0.00000000E+00
  0.00000000E+00  0.00000000E+00  0.00000000E+00
  0.00000000E+00  0.00000000E+00  0.00000000E+00
  0.00000000E+00  0.00000000E+00  0.00000000E+00
  0.00000000E+00  0.00000000E+00  0.00000000E+00
  0.00000000E+00  0.00000000E+00  0.00000000E+00
  0.00000000E+00  0.00000000E+00  0.00000000E+00
  0.00000000E+00  0.00000000E+00  0.00000000E+00
  0.00000000E+00  0.00000000E+00  0.00000000E+00
  0.00000000E+00  0.00000000E+00  0.00000000E+00
  0.00000000E+00  0.00000000E+00  0.00000000E+00
  0.00000000E+00  0.00000000E+00  0.00000000E+00
  0.00000000E+00  0.00000000E+00  0.00000000E+00
  0.00000000E+00  0.00000000E+00  0.00000000E+00
  0.00000000E+00  0.00000000E+00  0.00000000E+00
  0.00000000E+00  0.00000000E+00  0.00000000E+00
  0.00000000E+00  0.00000000E+00  0.00000000E+00
  0.00000000E+00  0.00000000E+00  0.00000000E+00
  0.00000000E+00  0.00000000E+00  0.00000000E+00
  0.00000000E+00  0.00000000E+00  0.00000000E+00
  0.00000000E+00  0.00000000E+00  0.00000000E+00
  0.00000000E+00  0.00000000E+00  0.00000000E+00
  0.00000000E+00  0.00000000E+00  0.00000000E+00
  0.00000000E+00  0.00000000E+00  0.00000000E+00
  0.00000000E+00  0.00000000E+00  0.00000000E+00
  0.00000000E+00  0.00000000E+00  0.00000000E+00
  0.00000000E+00  0.00000000E+00  0.00000000E+00
  0.00000000E+00  0.00000000E+00  0.00000000E+00
  0.00000000E+00  0.00000000E+00  0.00000000E+00
  0.00000000E+00  0.00000000E+00  0.00000000E+00
  0.00000000E+00  0.00000000E+00  0.00000000E+00
  0.00000000E+00  0.00000000E+00  0.00000000E+00
  0.00000000E+00  0.00000000E+00  0.00000000E+00
  0.00000000E+00  0.00000000E+00  0.00000000E+00
  0.00000000E+00  0.00000000E+00  0.00000000E+00
