Al   Sc   N                             
   1.00000000000000     
    -9.9268609288428244    0.0065223436923410   -0.0095895221502520
    -4.9674843028155538    8.6238899679041676   -0.0067869738243492
    -0.0139125072578259    0.0006612262873021  -10.0255510545887194
   Al   Sc   N 
    23    13    35
Direct
  0.1114978478634328  0.0949580254577356  0.3139504438855667
  0.2220654761198091  0.2063603687569753  0.0673628386291938
  0.7760050820763240  0.0939316847714409  0.8091222543685745
  0.8904713331052747  0.2067610948570859  0.5703048205720904
  0.5573312172768254  0.2170970930902669  0.0648253410240329
  0.2261622574997588  0.2040552655599086  0.5655704546360241
  0.8811277482257296  0.2085336959207353  0.0667955988105362
  0.5469472630865937  0.2155307910533892  0.5740189524385215
  0.2308929695244473  0.5375921389006137  0.0659133194449240
  0.4387644614210728  0.4378957337620903  0.3217227792723847
  0.5511763209200282  0.5394347710358787  0.0686120526859355
  0.2294525208799527  0.5365983491268480  0.5703577400566573
  0.8845091075295173  0.5421927103703794  0.0546135205624978
  0.4421363105167586  0.4370819986104877  0.8174940116462110
  0.5512058096669747  0.5370165322889662  0.5680578015578632
  0.1180510696196535  0.7557810870982635  0.3212811874874291
  0.7733936247254647  0.7688183282572112  0.8116196087087104
  0.8905261232575725  0.8712133052287925  0.5737542793850068
  0.4448231039965762  0.7568367056721641  0.3198464249232345
  0.5630206025657216  0.8559213354973210  0.0630741433133934
  0.1111979754177028  0.7590155507952829  0.8155214270552520
  0.4465723267890667  0.7528424099413584  0.8170161435901235
  0.5519255911890895  0.8726791803540834  0.5730724150113460
  0.4454322011493161  0.0919252574346601  0.3192270398748676
  0.1123451582166410  0.0938009286628301  0.8336955843760094
  0.7769843085846233  0.0985024465794595  0.3398454840549476
  0.4526633693538500  0.0895567836211129  0.8358111397797785
  0.1186054290228853  0.4286840086878172  0.3177549138859987
  0.7646070660230748  0.4263281891511994  0.8324867955577062
  0.8922408207321197  0.5347492182329674  0.5901995276898973
  0.1243526246342128  0.4259047511357750  0.8353061580182199
  0.7735438045179137  0.4272908017042738  0.3190448912125206
  0.2289603717507589  0.8639903549230823  0.0842164297979053
  0.2226636314180510  0.8724875806311942  0.5706237619083865
  0.7766607484986565  0.7583832394999916  0.3309840764900258
  0.8847879665854208  0.8752281361572258  0.0706419541527552
  0.2161264939878720  0.1957726529008994  0.3742895409624936
  0.1000607849400197  0.1141776771699838  0.1160996337451721
  0.8820920243783945  0.1884090729655270  0.8794493931054888
  0.7767191328729268  0.0959158323570719  0.6144821188955945
  0.5369066007404939  0.2312173730142320  0.3853948370824085
  0.4481513636067262  0.0915174558445955  0.0956070555322697
  0.1048643705884089  0.1137863343473811  0.6252219654683415
  0.9101626983545401  0.1976140615927235  0.3814812121738100
  0.7654539679682202  0.1149681895361923  0.1273400768055026
  0.5623206224289703  0.2211010166016223  0.8725245109903881
  0.4433626561568218  0.0937589627012514  0.6188456870954724
  0.2315777398069088  0.5498123863224009  0.3815908006980067
  0.1131836626517639  0.4271300758567804  0.0932333766986417
  0.8837874177808303  0.5547239713146439  0.8582026156074534
  0.7638129596386989  0.4172934627267324  0.6179920100957546
  0.5360047566178636  0.5492722474349776  0.3785532955539210
  0.4435724436720960  0.4286621679021749  0.1280388290391627
  0.2324341351794033  0.5507593033122546  0.8783244367732692
  0.1398323254554654  0.4129987245019109  0.6213041279294558
  0.8945842768153440  0.5312282739595986  0.3815167093676948
  0.7770213325882551  0.4288991736988663  0.0964688895573360
  0.5311051243828260  0.5507154441391151  0.8821087328537232
  0.4429677136895833  0.4318878225086706  0.6289499957623548
  0.2220480695976761  0.8744044540578173  0.3488451326122330
  0.1172103902259281  0.7392674924832363  0.1322520082480878
  0.8845567415245057  0.8756797856607719  0.8582420470075931
  0.7654444358863515  0.7824377568893794  0.6205474475831707
  0.5420904141744671  0.8638318167786068  0.3848301310585214
  0.4671489279371457  0.7467902626530361  0.1306122722753145
  0.2293730086234760  0.8570181832436887  0.8640247843143456
  0.1045215575461569  0.7501085554499909  0.6273497392845044
  0.9100124841197825  0.8611792015668485  0.3813503402871063
  0.7729993573230871  0.7492194503026894  0.1168597958190745
  0.5630867866827955  0.8503449606089646  0.8739512011643811
  0.4616588678961904  0.7492884935299102  0.6285491338752536
 
  0.00000000E+00  0.00000000E+00  0.00000000E+00
  0.00000000E+00  0.00000000E+00  0.00000000E+00
  0.00000000E+00  0.00000000E+00  0.00000000E+00
  0.00000000E+00  0.00000000E+00  0.00000000E+00
  0.00000000E+00  0.00000000E+00  0.00000000E+00
  0.00000000E+00  0.00000000E+00  0.00000000E+00
  0.00000000E+00  0.00000000E+00  0.00000000E+00
  0.00000000E+00  0.00000000E+00  0.00000000E+00
  0.00000000E+00  0.00000000E+00  0.00000000E+00
  0.00000000E+00  0.00000000E+00  0.00000000E+00
  0.00000000E+00  0.00000000E+00  0.00000000E+00
  0.00000000E+00  0.00000000E+00  0.00000000E+00
  0.00000000E+00  0.00000000E+00  0.00000000E+00
  0.00000000E+00  0.00000000E+00  0.00000000E+00
  0.00000000E+00  0.00000000E+00  0.00000000E+00
  0.00000000E+00  0.00000000E+00  0.00000000E+00
  0.00000000E+00  0.00000000E+00  0.00000000E+00
  0.00000000E+00  0.00000000E+00  0.00000000E+00
  0.00000000E+00  0.00000000E+00  0.00000000E+00
  0.00000000E+00  0.00000000E+00  0.00000000E+00
  0.00000000E+00  0.00000000E+00  0.00000000E+00
  0.00000000E+00  0.00000000E+00  0.00000000E+00
  0.00000000E+00  0.00000000E+00  0.00000000E+00
  0.00000000E+00  0.00000000E+00  0.00000000E+00
  0.00000000E+00  0.00000000E+00  0.00000000E+00
  0.00000000E+00  0.00000000E+00  0.00000000E+00
  0.00000000E+00  0.00000000E+00  0.00000000E+00
  0.00000000E+00  0.00000000E+00  0.00000000E+00
  0.00000000E+00  0.00000000E+00  0.00000000E+00
  0.00000000E+00  0.00000000E+00  0.00000000E+00
  0.00000000E+00  0.00000000E+00  0.00000000E+00
  0.00000000E+00  0.00000000E+00  0.00000000E+00
  0.00000000E+00  0.00000000E+00  0.00000000E+00
  0.00000000E+00  0.00000000E+00  0.00000000E+00
  0.00000000E+00  0.00000000E+00  0.00000000E+00
  0.00000000E+00  0.00000000E+00  0.00000000E+00
  0.00000000E+00  0.00000000E+00  0.00000000E+00
  0.00000000E+00  0.00000000E+00  0.00000000E+00
  0.00000000E+00  0.00000000E+00  0.00000000E+00
  0.00000000E+00  0.00000000E+00  0.00000000E+00
  0.00000000E+00  0.00000000E+00  0.00000000E+00
  0.00000000E+00  0.00000000E+00  0.00000000E+00
  0.00000000E+00  0.00000000E+00  0.00000000E+00
  0.00000000E+00  0.00000000E+00  0.00000000E+00
  0.00000000E+00  0.00000000E+00  0.00000000E+00
  0.00000000E+00  0.00000000E+00  0.00000000E+00
  0.00000000E+00  0.00000000E+00  0.00000000E+00
  0.00000000E+00  0.00000000E+00  0.00000000E+00
  0.00000000E+00  0.00000000E+00  0.00000000E+00
  0.00000000E+00  0.00000000E+00  0.00000000E+00
  0.00000000E+00  0.00000000E+00  0.00000000E+00
  0.00000000E+00  0.00000000E+00  0.00000000E+00
  0.00000000E+00  0.00000000E+00  0.00000000E+00
  0.00000000E+00  0.00000000E+00  0.00000000E+00
  0.00000000E+00  0.00000000E+00  0.00000000E+00
  0.00000000E+00  0.00000000E+00  0.00000000E+00
  0.00000000E+00  0.00000000E+00  0.00000000E+00
  0.00000000E+00  0.00000000E+00  0.00000000E+00
  0.00000000E+00  0.00000000E+00  0.00000000E+00
  0.00000000E+00  0.00000000E+00  0.00000000E+00
  0.00000000E+00  0.00000000E+00  0.00000000E+00
  0.00000000E+00  0.00000000E+00  0.00000000E+00
  0.00000000E+00  0.00000000E+00  0.00000000E+00
  0.00000000E+00  0.00000000E+00  0.00000000E+00
  0.00000000E+00  0.00000000E+00  0.00000000E+00
  0.00000000E+00  0.00000000E+00  0.00000000E+00
  0.00000000E+00  0.00000000E+00  0.00000000E+00
  0.00000000E+00  0.00000000E+00  0.00000000E+00
  0.00000000E+00  0.00000000E+00  0.00000000E+00
  0.00000000E+00  0.00000000E+00  0.00000000E+00
  0.00000000E+00  0.00000000E+00  0.00000000E+00
