Al   Sc   N                             
   1.00000000000000     
    -9.9522800134132492    0.0105776623180558   -0.0037149941495154
    -4.9907948311210308    8.6455010883091550   -0.0068146090361883
     0.0005864621290818    0.0073800760981016   -9.9662387203872491
   Al   Sc   N 
    23    13    35
Direct
  0.1109471396593307  0.0942877232284687  0.3885288196500483
  0.2222575985246067  0.2027436017466755  0.1316990724879901
  0.7704484888260907  0.1031671801328287  0.8802501239969942
  0.8788743564392689  0.2057579873964954  0.6312440444231342
  0.5487007641525992  0.2188741117305426  0.1257255869886009
  0.2249847494208836  0.2078350490132763  0.6265584567982785
  0.8919182468390972  0.2089450180852452  0.1272878491844693
  0.5578765797612490  0.2128362526608285  0.6311492264007299
  0.2316823053771415  0.5400072795204238  0.1305120987621962
  0.4385833882940418  0.4398240814150043  0.3785670622401867
  0.5484401106385377  0.5417420376308755  0.1290759992197366
  0.2285217405049238  0.5356347625936877  0.6288698060573168
  0.8871480023961240  0.5363857413611797  0.1347567539261121
  0.4430823884032193  0.4349567837573716  0.8783241657039511
  0.5530596403522736  0.5355362227622393  0.6294660568094557
  0.1112284154720697  0.7584039189489360  0.3841479056042729
  0.7741846394546812  0.7570763288978668  0.8821988485425081
  0.8823755459024056  0.8758095439580913  0.6399917637316719
  0.4465374163581544  0.7561027187571909  0.3816020485281655
  0.5522836083356140  0.8649685859567597  0.1223507516928848
  0.1216219055693912  0.7535880970366335  0.8727452633938597
  0.4455336623244079  0.7526417050309249  0.8768780123577073
  0.5610366990523445  0.8647572693009025  0.6346148454234921
  0.4456691745015959  0.0906404760141726  0.3753856836505349
  0.1124674696923336  0.0927300939340086  0.8573303209742136
  0.7810410320422960  0.0925989131530116  0.3683418123894810
  0.4522282924299788  0.0903138635864167  0.8627931579940906
  0.1248333657337568  0.4243577958524298  0.3632817798399373
  0.7688725957889844  0.4311111705364183  0.8772786508569865
  0.8879706613397076  0.5415412371775474  0.6159310706497649
  0.1181464575476454  0.4294504291925634  0.8784926127240595
  0.7685523644214953  0.4237808097406912  0.3653082876259859
  0.2246831092884989  0.8732205999156832  0.1327403142368340
  0.2269444664098828  0.8631088294093274  0.6081687276834913
  0.7743437592158813  0.7689754417287489  0.3660054961902119
  0.8917478459441170  0.8707219843475897  0.1008789589277654
  0.2175812948863509  0.1884553215095934  0.3216658468450788
  0.1047263242372765  0.1130501866268361  0.0680434046094831
  0.8793242524606910  0.1974278555235642  0.8199833136265724
  0.7773834666709263  0.0914085806037193  0.5844066387940856
  0.5406525347334039  0.2309923666414306  0.3172457662792922
  0.4444644717111501  0.0951253863601664  0.0811566479288146
  0.1005819734764728  0.1151328618691920  0.5869550603207969
  0.9126552453117185  0.1900587322350873  0.3168287035899411
  0.7654204302341512  0.1194207501305016  0.0740091203986424
  0.5591693907260193  0.2216316551809498  0.8222816720531583
  0.4464592091703850  0.0919414142565529  0.6013072169704401
  0.2320556772873630  0.5553144468630649  0.3197383135516247
  0.1158053970724495  0.4274459204047503  0.0981826891012645
  0.8876752085420350  0.5500203777845698  0.8280396421561278
  0.7665634183764851  0.4169977587992051  0.5841222594165174
  0.5300959760620714  0.5534231998383419  0.3173817873881717
  0.4433605704961181  0.4308505938389473  0.0691799984613226
  0.2333914508630599  0.5433368751156067  0.8183791787147641
  0.1344040753505666  0.4166417593367342  0.5843445347008114
  0.8899039686198762  0.5371503773618471  0.3301406114619496
  0.7744189169878268  0.4291243621956369  0.0970200287723486
  0.5367784831729523  0.5467831010304565  0.8191290078132738
  0.4439280765613844  0.4296614232810683  0.5712358484791054
  0.2213888738452710  0.8726048306081324  0.3597726261443199
  0.1296726568842175  0.7412914215470892  0.0609624671402926
  0.8840978700938678  0.8745717407187996  0.8408313871724431
  0.7668761134471964  0.7850602258325381  0.5795517552709910
  0.5408623155095356  0.8630062842972421  0.3111787702652293
  0.4569605038459912  0.7505952794217023  0.0665143838553419
  0.2320037777115829  0.8562420544893001  0.8247571154031945
  0.0951768299261957  0.7489816023240010  0.5771028480069873
  0.9117343493961627  0.8629752125242405  0.3111604195686724
  0.7687273638344010  0.7485179415122047  0.0767387151540930
  0.5628829409397866  0.8507454931453466  0.8254654575634248
  0.4719817794603074  0.7459784265352027  0.5709808322858265
 
  0.00000000E+00  0.00000000E+00  0.00000000E+00
  0.00000000E+00  0.00000000E+00  0.00000000E+00
  0.00000000E+00  0.00000000E+00  0.00000000E+00
  0.00000000E+00  0.00000000E+00  0.00000000E+00
  0.00000000E+00  0.00000000E+00  0.00000000E+00
  0.00000000E+00  0.00000000E+00  0.00000000E+00
  0.00000000E+00  0.00000000E+00  0.00000000E+00
  0.00000000E+00  0.00000000E+00  0.00000000E+00
  0.00000000E+00  0.00000000E+00  0.00000000E+00
  0.00000000E+00  0.00000000E+00  0.00000000E+00
  0.00000000E+00  0.00000000E+00  0.00000000E+00
  0.00000000E+00  0.00000000E+00  0.00000000E+00
  0.00000000E+00  0.00000000E+00  0.00000000E+00
  0.00000000E+00  0.00000000E+00  0.00000000E+00
  0.00000000E+00  0.00000000E+00  0.00000000E+00
  0.00000000E+00  0.00000000E+00  0.00000000E+00
  0.00000000E+00  0.00000000E+00  0.00000000E+00
  0.00000000E+00  0.00000000E+00  0.00000000E+00
  0.00000000E+00  0.00000000E+00  0.00000000E+00
  0.00000000E+00  0.00000000E+00  0.00000000E+00
  0.00000000E+00  0.00000000E+00  0.00000000E+00
  0.00000000E+00  0.00000000E+00  0.00000000E+00
  0.00000000E+00  0.00000000E+00  0.00000000E+00
  0.00000000E+00  0.00000000E+00  0.00000000E+00
  0.00000000E+00  0.00000000E+00  0.00000000E+00
  0.00000000E+00  0.00000000E+00  0.00000000E+00
  0.00000000E+00  0.00000000E+00  0.00000000E+00
  0.00000000E+00  0.00000000E+00  0.00000000E+00
  0.00000000E+00  0.00000000E+00  0.00000000E+00
  0.00000000E+00  0.00000000E+00  0.00000000E+00
  0.00000000E+00  0.00000000E+00  0.00000000E+00
  0.00000000E+00  0.00000000E+00  0.00000000E+00
  0.00000000E+00  0.00000000E+00  0.00000000E+00
  0.00000000E+00  0.00000000E+00  0.00000000E+00
  0.00000000E+00  0.00000000E+00  0.00000000E+00
  0.00000000E+00  0.00000000E+00  0.00000000E+00
  0.00000000E+00  0.00000000E+00  0.00000000E+00
  0.00000000E+00  0.00000000E+00  0.00000000E+00
  0.00000000E+00  0.00000000E+00  0.00000000E+00
  0.00000000E+00  0.00000000E+00  0.00000000E+00
  0.00000000E+00  0.00000000E+00  0.00000000E+00
  0.00000000E+00  0.00000000E+00  0.00000000E+00
  0.00000000E+00  0.00000000E+00  0.00000000E+00
  0.00000000E+00  0.00000000E+00  0.00000000E+00
  0.00000000E+00  0.00000000E+00  0.00000000E+00
  0.00000000E+00  0.00000000E+00  0.00000000E+00
  0.00000000E+00  0.00000000E+00  0.00000000E+00
  0.00000000E+00  0.00000000E+00  0.00000000E+00
  0.00000000E+00  0.00000000E+00  0.00000000E+00
  0.00000000E+00  0.00000000E+00  0.00000000E+00
  0.00000000E+00  0.00000000E+00  0.00000000E+00
  0.00000000E+00  0.00000000E+00  0.00000000E+00
  0.00000000E+00  0.00000000E+00  0.00000000E+00
  0.00000000E+00  0.00000000E+00  0.00000000E+00
  0.00000000E+00  0.00000000E+00  0.00000000E+00
  0.00000000E+00  0.00000000E+00  0.00000000E+00
  0.00000000E+00  0.00000000E+00  0.00000000E+00
  0.00000000E+00  0.00000000E+00  0.00000000E+00
  0.00000000E+00  0.00000000E+00  0.00000000E+00
  0.00000000E+00  0.00000000E+00  0.00000000E+00
  0.00000000E+00  0.00000000E+00  0.00000000E+00
  0.00000000E+00  0.00000000E+00  0.00000000E+00
  0.00000000E+00  0.00000000E+00  0.00000000E+00
  0.00000000E+00  0.00000000E+00  0.00000000E+00
  0.00000000E+00  0.00000000E+00  0.00000000E+00
  0.00000000E+00  0.00000000E+00  0.00000000E+00
  0.00000000E+00  0.00000000E+00  0.00000000E+00
  0.00000000E+00  0.00000000E+00  0.00000000E+00
  0.00000000E+00  0.00000000E+00  0.00000000E+00
  0.00000000E+00  0.00000000E+00  0.00000000E+00
  0.00000000E+00  0.00000000E+00  0.00000000E+00
