Al   Sc   N                             
   1.00000000000000     
   -10.2156634846167709    0.0096079122119066   -0.0051197725844741
    -5.1184120610544497    8.8737935410372426   -0.0068080006159659
     0.0130725076641734    0.0088446722233724   -9.2286084243060600
   Al   Sc   N 
    23    13    35
Direct
  0.1103101847110111  0.0895829285121934  0.3742044037278873
  0.2208729726138685  0.2042711171560825  0.1284476979814073
  0.7691794528154290  0.1020176243481785  0.8707155856430973
  0.8808445714852695  0.2038110966733626  0.6256541524681651
  0.5495137408818422  0.2211930253837195  0.1207841162472434
  0.2260054182143989  0.2038276443497864  0.5850897580788725
  0.8907868670271526  0.2086919849872402  0.1167797327841384
  0.5558400191741768  0.2135419351256544  0.6206800074505381
  0.2323132531187042  0.5393175517523758  0.1216290094635468
  0.4386702789251302  0.4403135616531273  0.3743306723068613
  0.5492896996914283  0.5404882644623612  0.1232429224562495
  0.2302461738411807  0.5352455700192067  0.6230511240848244
  0.8879981051614578  0.5358420283628931  0.1089384178505099
  0.4436996213055195  0.4340939771638901  0.8718308511953055
  0.5506138463600720  0.5373841981991632  0.6217411734209506
  0.1125812955783303  0.7592942654464849  0.3788734000764933
  0.7738486161590359  0.7603058277329708  0.8702274984546463
  0.8818680911685348  0.8767549630911873  0.6312983150350888
  0.4448008180330874  0.7564407948396763  0.3737786297632226
  0.5541776025664333  0.8613053606696468  0.1126724397107068
  0.1197734107329538  0.7526097705507127  0.8610658757566796
  0.4478947136403448  0.7521903018619653  0.8700910839840361
  0.5585599210939733  0.8674483234542407  0.6283021453530750
  0.4512366256599520  0.0882634462763789  0.3554220765762039
  0.1137397666868836  0.0989311687727437  0.8515007646172492
  0.7802098983756096  0.0940379229231993  0.3574276174139399
  0.4471335391309665  0.0947899695928811  0.8573607292767349
  0.1212119146585309  0.4305206952393235  0.3537921449035153
  0.7670996541648663  0.4299254364691407  0.8601774806689022
  0.8879098956367670  0.5418671676711568  0.6065946403996350
  0.1231313932559530  0.4229240478252834  0.8592656367877751
  0.7704009408676384  0.4242005483390017  0.3568652579681313
  0.2259515806995580  0.8691744399463559  0.1094835324132006
  0.2269974668160302  0.8651187243693883  0.6075031966760989
  0.7742244818079271  0.7666031274373708  0.3543018439567760
  0.8934025791993676  0.8699467291878591  0.0953208277373179
  0.2172847743629163  0.1924684614259959  0.3483598811754973
  0.1061402265365246  0.1121649637398221  0.0840783848015079
  0.8823372799056912  0.1948484867867393  0.8347492490934059
  0.7762662113436889  0.0929721934551253  0.5934622178846212
  0.5415593238797598  0.2327732653835000  0.3301619016078874
  0.4432683226674996  0.0969294588430856  0.0957462162060310
  0.1011381962535083  0.1114640931957283  0.5943644783454189
  0.9092073003401495  0.1929015891441281  0.3271424185213263
  0.7650902555444006  0.1164096520841866  0.0853527223758661
  0.5574578813775943  0.2213310073889119  0.8300720806764588
  0.4463259216456876  0.0913792757202643  0.6005027906088287
  0.2320491007059786  0.5551567506020021  0.3299070841991423
  0.1179766088469023  0.4244348048367286  0.1019661231389577
  0.8879016354652265  0.5491031103600932  0.8467089663819536
  0.7665359919286558  0.4178522315469380  0.5984470772416444
  0.5330361032934974  0.5511195995994456  0.3292253455170098
  0.4440636229038120  0.4311891916122548  0.0779435855607105
  0.2349925214275288  0.5419268018745456  0.8284964541903861
  0.1343185945273646  0.4158649700177506  0.5986967122734370
  0.8905339874066200  0.5365536976888947  0.3484587173073166
  0.7743566788990037  0.4285092037129559  0.0996162802050478
  0.5349241761690777  0.5477350763737832  0.8277922778383626
  0.4434126278373611  0.4305703486578949  0.5806103757438805
  0.2216176264199845  0.8711085225016575  0.3548145672478640
  0.1252543849477377  0.7399671759772133  0.0672932647653468
  0.8827183289855185  0.8761089654661234  0.8440472592513402
  0.7668472607516392  0.7824186414953189  0.5929300184613737
  0.5423821934610302  0.8605745532279840  0.3200527589669662
  0.4599814862636222  0.7470365948998676  0.0758364142128087
  0.2306530335971715  0.8609089144405360  0.8426189884290451
  0.0986175703897487  0.7509761531532178  0.5923045459450051
  0.9103191971273290  0.8630742150515189  0.3266234820666014
  0.7702001663231428  0.7512821421757181  0.0871215943924000
  0.5600334641648104  0.8557703291013894  0.8383443202408856
  0.4668532662859874  0.7492393955052350  0.5818000426512810
 
  0.00000000E+00  0.00000000E+00  0.00000000E+00
  0.00000000E+00  0.00000000E+00  0.00000000E+00
  0.00000000E+00  0.00000000E+00  0.00000000E+00
  0.00000000E+00  0.00000000E+00  0.00000000E+00
  0.00000000E+00  0.00000000E+00  0.00000000E+00
  0.00000000E+00  0.00000000E+00  0.00000000E+00
  0.00000000E+00  0.00000000E+00  0.00000000E+00
  0.00000000E+00  0.00000000E+00  0.00000000E+00
  0.00000000E+00  0.00000000E+00  0.00000000E+00
  0.00000000E+00  0.00000000E+00  0.00000000E+00
  0.00000000E+00  0.00000000E+00  0.00000000E+00
  0.00000000E+00  0.00000000E+00  0.00000000E+00
  0.00000000E+00  0.00000000E+00  0.00000000E+00
  0.00000000E+00  0.00000000E+00  0.00000000E+00
  0.00000000E+00  0.00000000E+00  0.00000000E+00
  0.00000000E+00  0.00000000E+00  0.00000000E+00
  0.00000000E+00  0.00000000E+00  0.00000000E+00
  0.00000000E+00  0.00000000E+00  0.00000000E+00
  0.00000000E+00  0.00000000E+00  0.00000000E+00
  0.00000000E+00  0.00000000E+00  0.00000000E+00
  0.00000000E+00  0.00000000E+00  0.00000000E+00
  0.00000000E+00  0.00000000E+00  0.00000000E+00
  0.00000000E+00  0.00000000E+00  0.00000000E+00
  0.00000000E+00  0.00000000E+00  0.00000000E+00
  0.00000000E+00  0.00000000E+00  0.00000000E+00
  0.00000000E+00  0.00000000E+00  0.00000000E+00
  0.00000000E+00  0.00000000E+00  0.00000000E+00
  0.00000000E+00  0.00000000E+00  0.00000000E+00
  0.00000000E+00  0.00000000E+00  0.00000000E+00
  0.00000000E+00  0.00000000E+00  0.00000000E+00
  0.00000000E+00  0.00000000E+00  0.00000000E+00
  0.00000000E+00  0.00000000E+00  0.00000000E+00
  0.00000000E+00  0.00000000E+00  0.00000000E+00
  0.00000000E+00  0.00000000E+00  0.00000000E+00
  0.00000000E+00  0.00000000E+00  0.00000000E+00
  0.00000000E+00  0.00000000E+00  0.00000000E+00
  0.00000000E+00  0.00000000E+00  0.00000000E+00
  0.00000000E+00  0.00000000E+00  0.00000000E+00
  0.00000000E+00  0.00000000E+00  0.00000000E+00
  0.00000000E+00  0.00000000E+00  0.00000000E+00
  0.00000000E+00  0.00000000E+00  0.00000000E+00
  0.00000000E+00  0.00000000E+00  0.00000000E+00
  0.00000000E+00  0.00000000E+00  0.00000000E+00
  0.00000000E+00  0.00000000E+00  0.00000000E+00
  0.00000000E+00  0.00000000E+00  0.00000000E+00
  0.00000000E+00  0.00000000E+00  0.00000000E+00
  0.00000000E+00  0.00000000E+00  0.00000000E+00
  0.00000000E+00  0.00000000E+00  0.00000000E+00
  0.00000000E+00  0.00000000E+00  0.00000000E+00
  0.00000000E+00  0.00000000E+00  0.00000000E+00
  0.00000000E+00  0.00000000E+00  0.00000000E+00
  0.00000000E+00  0.00000000E+00  0.00000000E+00
  0.00000000E+00  0.00000000E+00  0.00000000E+00
  0.00000000E+00  0.00000000E+00  0.00000000E+00
  0.00000000E+00  0.00000000E+00  0.00000000E+00
  0.00000000E+00  0.00000000E+00  0.00000000E+00
  0.00000000E+00  0.00000000E+00  0.00000000E+00
  0.00000000E+00  0.00000000E+00  0.00000000E+00
  0.00000000E+00  0.00000000E+00  0.00000000E+00
  0.00000000E+00  0.00000000E+00  0.00000000E+00
  0.00000000E+00  0.00000000E+00  0.00000000E+00
  0.00000000E+00  0.00000000E+00  0.00000000E+00
  0.00000000E+00  0.00000000E+00  0.00000000E+00
  0.00000000E+00  0.00000000E+00  0.00000000E+00
  0.00000000E+00  0.00000000E+00  0.00000000E+00
  0.00000000E+00  0.00000000E+00  0.00000000E+00
  0.00000000E+00  0.00000000E+00  0.00000000E+00
  0.00000000E+00  0.00000000E+00  0.00000000E+00
  0.00000000E+00  0.00000000E+00  0.00000000E+00
  0.00000000E+00  0.00000000E+00  0.00000000E+00
  0.00000000E+00  0.00000000E+00  0.00000000E+00
