Al   Sc   N                             
   1.00000000000000     
   -10.3358112654132910    0.0082855257035213   -0.0070353795412361
    -5.1777766332249051    8.9734122308192870   -0.0067989891338445
    -0.0028537961351625    0.0218148398707728   -8.8866868995132275
   Al   Sc   N 
    23    13    35
Direct
  0.1109104816650870  0.0907287934310759  0.3443939617900185
  0.2214866229011179  0.2055604669352178  0.1208333126674717
  0.7743896936650501  0.0964851597526533  0.8384009215580051
  0.8883884207200623  0.2047170905411235  0.5960364114725678
  0.5536264064281795  0.2174204137603866  0.0786630154370158
  0.2250058159476467  0.2020614323168815  0.5761158334810048
  0.8838800274563283  0.2091988660828079  0.0880469629292762
  0.5506322909200563  0.2184869838671872  0.5992005400835865
  0.2326983551385027  0.5345884375907275  0.0838599439716958
  0.4394035770660736  0.4364872600479117  0.3358354198420344
  0.5503264089622704  0.5389360104957035  0.0927736615988621
  0.2295352664182317  0.5392356200928177  0.5894629373702784
  0.8878115289258801  0.5379178349871339  0.0925969442373429
  0.4428015196237567  0.4369252175705824  0.8341849759603406
  0.5494278798269860  0.5389670661826429  0.5810687274407229
  0.1168122142429482  0.7572856900112725  0.3375132876301592
  0.7744772881769464  0.7632951905769474  0.8514086563828442
  0.8885221645391752  0.8724420830183490  0.6084174691805302
  0.4425775206200200  0.7575290581108050  0.3401631022001652
  0.5576795323944452  0.8614284146814981  0.0967349433840354
  0.1140579950538552  0.7548288161920809  0.8407503945696533
  0.4478168379692420  0.7521725290647865  0.8436059260315716
  0.5545018142478781  0.8683580502585215  0.6085912618652785
  0.4521127370393145  0.0908976475719427  0.3500716122094474
  0.1128050923998245  0.0995306272203038  0.8511436893541529
  0.7757800478664407  0.0986396750271439  0.3549787549021488
  0.4450167854621014  0.0926679936848700  0.8514643065266796
  0.1207117112193856  0.4312143111865012  0.3476603681490005
  0.7651081756939249  0.4302167867640136  0.8499710232983375
  0.8899948604052170  0.5392322204772668  0.6047986236686427
  0.1247880530255401  0.4205759825838342  0.8518929775258641
  0.7731098625852439  0.4251376543231871  0.3467360252782896
  0.2271941683257950  0.8673458440574890  0.0986324510719783
  0.2237439205800484  0.8673188567270245  0.5989068454578614
  0.7750888679223351  0.7636190581140667  0.3521020775631030
  0.8887091688170514  0.8735999474094100  0.0938041547357642
  0.2184469034656829  0.1939068328604634  0.3494294145661598
  0.1016605492547171  0.1113578820743584  0.1057255605844105
  0.8830877929603389  0.1958500249414996  0.8584171798784936
  0.7768840576055567  0.0950690537523471  0.6133689252116525
  0.5415395618447150  0.2320276849132270  0.3780584604849651
  0.4462586967515918  0.0968718243059143  0.0997265641504512
  0.1064818824860012  0.1107007939364806  0.6052956868521235
  0.9065435391010865  0.1948631736382112  0.3648664842801352
  0.7649424548142534  0.1141474017022688  0.1026949988286461
  0.5570685757516713  0.2198471626066691  0.8531997222424792
  0.4416926315556466  0.0913189381493851  0.6057841922504110
  0.2328671486828711  0.5517148861674599  0.3681268037027792
  0.1183837963504999  0.4237932143767935  0.1011345760711180
  0.8883029373920266  0.5484633820959459  0.8565295960362604
  0.7648226973394756  0.4209547098947226  0.6028005577502356
  0.5353178890523438  0.5488406212176997  0.3583998587765933
  0.4445274179522229  0.4265243013923978  0.1153105629364646
  0.2331191409995625  0.5432323095470295  0.8644439460178219
  0.1367137193058454  0.4133116571528177  0.6037155601365356
  0.8923546092907841  0.5361186731830259  0.3540404072599586
  0.7765596407601336  0.4270468121250346  0.1009762743516518
  0.5356342057237882  0.5471364866158481  0.8721811298816746
  0.4422945333414816  0.4357642213360222  0.6182536484088672
  0.2216999832071593  0.8721064343113270  0.3518689921288356
  0.1215050124556072  0.7408349001803245  0.1089450549505315
  0.8858222713931454  0.8746457888180217  0.8476290768535080
  0.7669505071597200  0.7790924248842330  0.6107331735416892
  0.5446607613244296  0.8622006188611024  0.3501087504243614
  0.4593871556172289  0.7498917510737897  0.1092992316551786
  0.2285509243069441  0.8607963507653693  0.8516779765094782
  0.1028449518281320  0.7498645705552178  0.6191871440763990
  0.9075494599025689  0.8650796820163649  0.3580203822516239
  0.7716942083633498  0.7530174069986870  0.0947786292999950
  0.5587769159638327  0.8563856198080870  0.8564992041536925
  0.4621140889173887  0.7485686889890886  0.6120432811990995
 
  0.00000000E+00  0.00000000E+00  0.00000000E+00
  0.00000000E+00  0.00000000E+00  0.00000000E+00
  0.00000000E+00  0.00000000E+00  0.00000000E+00
  0.00000000E+00  0.00000000E+00  0.00000000E+00
  0.00000000E+00  0.00000000E+00  0.00000000E+00
  0.00000000E+00  0.00000000E+00  0.00000000E+00
  0.00000000E+00  0.00000000E+00  0.00000000E+00
  0.00000000E+00  0.00000000E+00  0.00000000E+00
  0.00000000E+00  0.00000000E+00  0.00000000E+00
  0.00000000E+00  0.00000000E+00  0.00000000E+00
  0.00000000E+00  0.00000000E+00  0.00000000E+00
  0.00000000E+00  0.00000000E+00  0.00000000E+00
  0.00000000E+00  0.00000000E+00  0.00000000E+00
  0.00000000E+00  0.00000000E+00  0.00000000E+00
  0.00000000E+00  0.00000000E+00  0.00000000E+00
  0.00000000E+00  0.00000000E+00  0.00000000E+00
  0.00000000E+00  0.00000000E+00  0.00000000E+00
  0.00000000E+00  0.00000000E+00  0.00000000E+00
  0.00000000E+00  0.00000000E+00  0.00000000E+00
  0.00000000E+00  0.00000000E+00  0.00000000E+00
  0.00000000E+00  0.00000000E+00  0.00000000E+00
  0.00000000E+00  0.00000000E+00  0.00000000E+00
  0.00000000E+00  0.00000000E+00  0.00000000E+00
  0.00000000E+00  0.00000000E+00  0.00000000E+00
  0.00000000E+00  0.00000000E+00  0.00000000E+00
  0.00000000E+00  0.00000000E+00  0.00000000E+00
  0.00000000E+00  0.00000000E+00  0.00000000E+00
  0.00000000E+00  0.00000000E+00  0.00000000E+00
  0.00000000E+00  0.00000000E+00  0.00000000E+00
  0.00000000E+00  0.00000000E+00  0.00000000E+00
  0.00000000E+00  0.00000000E+00  0.00000000E+00
  0.00000000E+00  0.00000000E+00  0.00000000E+00
  0.00000000E+00  0.00000000E+00  0.00000000E+00
  0.00000000E+00  0.00000000E+00  0.00000000E+00
  0.00000000E+00  0.00000000E+00  0.00000000E+00
  0.00000000E+00  0.00000000E+00  0.00000000E+00
  0.00000000E+00  0.00000000E+00  0.00000000E+00
  0.00000000E+00  0.00000000E+00  0.00000000E+00
  0.00000000E+00  0.00000000E+00  0.00000000E+00
  0.00000000E+00  0.00000000E+00  0.00000000E+00
  0.00000000E+00  0.00000000E+00  0.00000000E+00
  0.00000000E+00  0.00000000E+00  0.00000000E+00
  0.00000000E+00  0.00000000E+00  0.00000000E+00
  0.00000000E+00  0.00000000E+00  0.00000000E+00
  0.00000000E+00  0.00000000E+00  0.00000000E+00
  0.00000000E+00  0.00000000E+00  0.00000000E+00
  0.00000000E+00  0.00000000E+00  0.00000000E+00
  0.00000000E+00  0.00000000E+00  0.00000000E+00
  0.00000000E+00  0.00000000E+00  0.00000000E+00
  0.00000000E+00  0.00000000E+00  0.00000000E+00
  0.00000000E+00  0.00000000E+00  0.00000000E+00
  0.00000000E+00  0.00000000E+00  0.00000000E+00
  0.00000000E+00  0.00000000E+00  0.00000000E+00
  0.00000000E+00  0.00000000E+00  0.00000000E+00
  0.00000000E+00  0.00000000E+00  0.00000000E+00
  0.00000000E+00  0.00000000E+00  0.00000000E+00
  0.00000000E+00  0.00000000E+00  0.00000000E+00
  0.00000000E+00  0.00000000E+00  0.00000000E+00
  0.00000000E+00  0.00000000E+00  0.00000000E+00
  0.00000000E+00  0.00000000E+00  0.00000000E+00
  0.00000000E+00  0.00000000E+00  0.00000000E+00
  0.00000000E+00  0.00000000E+00  0.00000000E+00
  0.00000000E+00  0.00000000E+00  0.00000000E+00
  0.00000000E+00  0.00000000E+00  0.00000000E+00
  0.00000000E+00  0.00000000E+00  0.00000000E+00
  0.00000000E+00  0.00000000E+00  0.00000000E+00
  0.00000000E+00  0.00000000E+00  0.00000000E+00
  0.00000000E+00  0.00000000E+00  0.00000000E+00
  0.00000000E+00  0.00000000E+00  0.00000000E+00
  0.00000000E+00  0.00000000E+00  0.00000000E+00
  0.00000000E+00  0.00000000E+00  0.00000000E+00
