Al   Sc   N                             
   1.00000000000000     
    -9.9298722721200061    0.0117237306253230   -0.0020548014536550
    -4.9755578629231039    8.6244494867912866   -0.0068224189873603
    -0.0022302536376738    0.0075443332444134  -10.0291747008288539
   Al   Sc   N 
    23    13    35
Direct
  0.1106787778990892  0.0946761376228338  0.4122009028364673
  0.2224731762755567  0.2026567580244389  0.1556742095457722
  0.7709375787169961  0.1027988206594017  0.9037139373334355
  0.8791836655268241  0.2059728778655057  0.6552573606384726
  0.5487839405421440  0.2184842554418012  0.1493724939490875
  0.2244036330410566  0.2081455420743268  0.6511404678138177
  0.8914846491657471  0.2088484103620587  0.1516642924956457
  0.5577918069552936  0.2128592813846311  0.6556404294816787
  0.2315144514194074  0.5400957063653493  0.1545142708670966
  0.4385127016883814  0.4396740196598330  0.4022688343426921
  0.5482611903660626  0.5418816475469654  0.1531372924399932
  0.2283737323690360  0.5354657655053572  0.6528176680045945
  0.8866357506640057  0.5369935624580293  0.1584190486217452
  0.4429856716798497  0.4350159027983835  0.9022292326363157
  0.5532236767895782  0.5354368852071261  0.6533367054962866
  0.1111155494945066  0.7583196135352424  0.4083224442008770
  0.7743041795149850  0.7571616673122037  0.9060108808163037
  0.8827216371345372  0.8754868905420565  0.6640835978939279
  0.4465734364592322  0.7562897360521887  0.4056713552985656
  0.5521801524255139  0.8654090548090281  0.1462591752069144
  0.1213964506027807  0.7538037666392299  0.8968919742972687
  0.4452282449904530  0.7526790724185943  0.9008881804064401
  0.5609425335777374  0.8646343521268847  0.6589757153663882
  0.4452479632329442  0.0909004792292052  0.4007837704997002
  0.1126220552062378  0.0922357713596256  0.8827644070887430
  0.7808337135772376  0.0927003932533239  0.3938434217947844
  0.4522483137255122  0.0901933348775472  0.8867192698263366
  0.1241744348808496  0.4246386820014791  0.3872670698658638
  0.7686345248445221  0.4308761299277606  0.9027655731435829
  0.8882286919951952  0.5408965017100797  0.6416961358947262
  0.1182125356733223  0.4294892710381362  0.9041463030058736
  0.7684649880492387  0.4241655096220995  0.3893859480360220
  0.2247341987040912  0.8729365674400853  0.1584116248407170
  0.2267044490252346  0.8635034410396543  0.6318901043842331
  0.7741449069812063  0.7689041647383377  0.3915266351332178
  0.8913590619823921  0.8709557479006520  0.1257723177983650
  0.2177136598351979  0.1883984533855738  0.3442405436065386
  0.1046304294719889  0.1125559666761973  0.0920504586843620
  0.8796735814758776  0.1975842924914346  0.8427856988497808
  0.7774194360626794  0.0913750722610445  0.6083716065758864
  0.5407862228622520  0.2305146250044459  0.3399537553967065
  0.4442544522035092  0.0952280208013576  0.1035432149159945
  0.1002465803094452  0.1156354351998132  0.6091320039664581
  0.9122493582986024  0.1900521867452625  0.3398718321086420
  0.7653774964741515  0.1194784250725505  0.0961569886659532
  0.5593173372977915  0.2216147632190015  0.8454729183157284
  0.4462332672380001  0.0920224710467252  0.6252729046611947
  0.2319154143465312  0.5553977287156115  0.3425858210944028
  0.1155895035405621  0.4276485855906813  0.1217160894338960
  0.8879106846863749  0.5493472164064457  0.8521559622161945
  0.7665737627688642  0.4170229539340866  0.6065449114460435
  0.5298211466394136  0.5536928025821339  0.3403384488236867
  0.4432270722269251  0.4308675961893869  0.0922338322512246
  0.2331678899782119  0.5432323826225485  0.8413888445048130
  0.1341780309858009  0.4166939124961146  0.6065879253366120
  0.8893962213107542  0.5377600229929342  0.3516294839596341
  0.7741351208552558  0.4291748553493946  0.1205754792605376
  0.5369496911324987  0.5466724143336066  0.8420106077527194
  0.4439089236173430  0.4295017114563606  0.5941765347278078
  0.2212898920862543  0.8726873848138439  0.3838529540457074
  0.1295457853289577  0.7416030370031805  0.0841063246283582
  0.8845552228161111  0.8742654086068171  0.8636356200607338
  0.7670756763589495  0.7844987627369733  0.6036214116071150
  0.5408223637183198  0.8634456015277578  0.3341366634167642
  0.4565329642488933  0.7509480748562893  0.0895786251930986
  0.2320016001854626  0.8560452012715700  0.8470705410575974
  0.0951601805782545  0.7487594405056370  0.5999244525865493
  0.9113362693484177  0.8631115365747135  0.3348227705657507
  0.7683555818156762  0.7488840829546106  0.0989220373935993
  0.5629302655415245  0.8504744958549253  0.8484678217909618
  0.4721638549675617  0.7459761212572644  0.5938599677835867
 
  0.00000000E+00  0.00000000E+00  0.00000000E+00
  0.00000000E+00  0.00000000E+00  0.00000000E+00
  0.00000000E+00  0.00000000E+00  0.00000000E+00
  0.00000000E+00  0.00000000E+00  0.00000000E+00
  0.00000000E+00  0.00000000E+00  0.00000000E+00
  0.00000000E+00  0.00000000E+00  0.00000000E+00
  0.00000000E+00  0.00000000E+00  0.00000000E+00
  0.00000000E+00  0.00000000E+00  0.00000000E+00
  0.00000000E+00  0.00000000E+00  0.00000000E+00
  0.00000000E+00  0.00000000E+00  0.00000000E+00
  0.00000000E+00  0.00000000E+00  0.00000000E+00
  0.00000000E+00  0.00000000E+00  0.00000000E+00
  0.00000000E+00  0.00000000E+00  0.00000000E+00
  0.00000000E+00  0.00000000E+00  0.00000000E+00
  0.00000000E+00  0.00000000E+00  0.00000000E+00
  0.00000000E+00  0.00000000E+00  0.00000000E+00
  0.00000000E+00  0.00000000E+00  0.00000000E+00
  0.00000000E+00  0.00000000E+00  0.00000000E+00
  0.00000000E+00  0.00000000E+00  0.00000000E+00
  0.00000000E+00  0.00000000E+00  0.00000000E+00
  0.00000000E+00  0.00000000E+00  0.00000000E+00
  0.00000000E+00  0.00000000E+00  0.00000000E+00
  0.00000000E+00  0.00000000E+00  0.00000000E+00
  0.00000000E+00  0.00000000E+00  0.00000000E+00
  0.00000000E+00  0.00000000E+00  0.00000000E+00
  0.00000000E+00  0.00000000E+00  0.00000000E+00
  0.00000000E+00  0.00000000E+00  0.00000000E+00
  0.00000000E+00  0.00000000E+00  0.00000000E+00
  0.00000000E+00  0.00000000E+00  0.00000000E+00
  0.00000000E+00  0.00000000E+00  0.00000000E+00
  0.00000000E+00  0.00000000E+00  0.00000000E+00
  0.00000000E+00  0.00000000E+00  0.00000000E+00
  0.00000000E+00  0.00000000E+00  0.00000000E+00
  0.00000000E+00  0.00000000E+00  0.00000000E+00
  0.00000000E+00  0.00000000E+00  0.00000000E+00
  0.00000000E+00  0.00000000E+00  0.00000000E+00
  0.00000000E+00  0.00000000E+00  0.00000000E+00
  0.00000000E+00  0.00000000E+00  0.00000000E+00
  0.00000000E+00  0.00000000E+00  0.00000000E+00
  0.00000000E+00  0.00000000E+00  0.00000000E+00
  0.00000000E+00  0.00000000E+00  0.00000000E+00
  0.00000000E+00  0.00000000E+00  0.00000000E+00
  0.00000000E+00  0.00000000E+00  0.00000000E+00
  0.00000000E+00  0.00000000E+00  0.00000000E+00
  0.00000000E+00  0.00000000E+00  0.00000000E+00
  0.00000000E+00  0.00000000E+00  0.00000000E+00
  0.00000000E+00  0.00000000E+00  0.00000000E+00
  0.00000000E+00  0.00000000E+00  0.00000000E+00
  0.00000000E+00  0.00000000E+00  0.00000000E+00
  0.00000000E+00  0.00000000E+00  0.00000000E+00
  0.00000000E+00  0.00000000E+00  0.00000000E+00
  0.00000000E+00  0.00000000E+00  0.00000000E+00
  0.00000000E+00  0.00000000E+00  0.00000000E+00
  0.00000000E+00  0.00000000E+00  0.00000000E+00
  0.00000000E+00  0.00000000E+00  0.00000000E+00
  0.00000000E+00  0.00000000E+00  0.00000000E+00
  0.00000000E+00  0.00000000E+00  0.00000000E+00
  0.00000000E+00  0.00000000E+00  0.00000000E+00
  0.00000000E+00  0.00000000E+00  0.00000000E+00
  0.00000000E+00  0.00000000E+00  0.00000000E+00
  0.00000000E+00  0.00000000E+00  0.00000000E+00
  0.00000000E+00  0.00000000E+00  0.00000000E+00
  0.00000000E+00  0.00000000E+00  0.00000000E+00
  0.00000000E+00  0.00000000E+00  0.00000000E+00
  0.00000000E+00  0.00000000E+00  0.00000000E+00
  0.00000000E+00  0.00000000E+00  0.00000000E+00
  0.00000000E+00  0.00000000E+00  0.00000000E+00
  0.00000000E+00  0.00000000E+00  0.00000000E+00
  0.00000000E+00  0.00000000E+00  0.00000000E+00
  0.00000000E+00  0.00000000E+00  0.00000000E+00
  0.00000000E+00  0.00000000E+00  0.00000000E+00
