Al   Sc   N                             
   1.00000000000000     
    -9.9268423926355247    0.0059052299884279   -0.0104834720634076
    -4.9679852395429265    8.6235645758884694   -0.0067827684660258
    -0.0130069157526107    0.0011977932421442  -10.0256031609940965
   Al   Sc   N 
    23    13    35
Direct
  0.1115471114363871  0.0949487556431095  0.3007734839186256
  0.2221151006079083  0.2063506706393810  0.0541824051295521
  0.7760545471064759  0.0939233405244480  0.7959401588083637
  0.8905204131909983  0.2067522658396470  0.5571273311414231
  0.5573802295906205  0.2170887675294964  0.0516395644782861
  0.2262109047387639  0.2040497710228451  0.5523846477713263
  0.8811771119895297  0.2085274492258193  0.0536144662181997
  0.5469981240249524  0.2155226573503839  0.5608345568302582
  0.2309434347771955  0.5375855368498321  0.0527296079069117
  0.4388126323144164  0.4378886091393426  0.3085440403763826
  0.5512264638437046  0.5394274456755994  0.0554397887260407
  0.2295023209904414  0.5365885788448068  0.5571813868416768
  0.8845567392004625  0.5421842015120220  0.0414373854809966
  0.4421858046599070  0.4370747605192022  0.8043182812555614
  0.5512545279346952  0.5370089306644985  0.5548816840620390
  0.1181025538215792  0.7557724850294321  0.3081035806406049
  0.7734430057116128  0.7688103745776615  0.7984443418302831
  0.8905732435026721  0.8712058431803698  0.5605659310354696
  0.4448701566832227  0.7568301516176703  0.3066723635962774
  0.5630673475289498  0.8559162564014713  0.0498924868806156
  0.1112447140547204  0.7590094717867402  0.8023349700197002
  0.4466224274622803  0.7528348685438075  0.8038373812315527
  0.5519777053416206  0.8726709737873932  0.5598875526878757
  0.4454813272639555  0.0919185159058173  0.3060450313726761
  0.1123934973320786  0.0937955066972265  0.8205136856957438
  0.7770336962661730  0.0984950656824424  0.3266565851853116
  0.4527101123963106  0.0895503598395209  0.8226256473550180
  0.1186547584818385  0.4286784658368106  0.3045667544350010
  0.7646544960590163  0.4263241935329134  0.8193012494925185
  0.8922914444036536  0.5347434780567113  0.5770135874899225
  0.1243977047002147  0.4258984935916104  0.8221290981075740
  0.7735928588965706  0.4272821000494247  0.3058697809035493
  0.2290110500710441  0.8639821079358825  0.0710310661346583
  0.2227141079982005  0.8724796427521824  0.5574482941347867
  0.7767085499954547  0.7583769546067956  0.3177930053485909
  0.8848407922794692  0.8752198808988254  0.0574600336678373
  0.2161750703550709  0.1957679590298795  0.3611072346174353
  0.1001097413667082  0.1141681703668098  0.1029224020634203
  0.8821394410824936  0.1884048144915980  0.8662695135435428
  0.7767687995018662  0.0959070472149506  0.6013022226488687
  0.5369583023044413  0.2312092671592509  0.3722137338838678
  0.4482001259378379  0.0915104566632152  0.0824271599827782
  0.1049142080174761  0.1137798246373052  0.6120422544822119
  0.9102120196303574  0.1976052751270245  0.3683060916429994
  0.7655033020397752  0.1149601778504277  0.1141557044728572
  0.5623694147701954  0.2210924700386769  0.8593432379559900
  0.4434118313510851  0.0937515609762016  0.6056619862202766
  0.2316269973459626  0.5498026813377450  0.3684159317574824
  0.1132336549231283  0.4271221879750868  0.0800505435193273
  0.8838339970085016  0.5547169088092190  0.8450298334563016
  0.7638638270584082  0.4172869264185053  0.6048107079035603
  0.5360531038596719  0.5492646748066008  0.3653782396666045
  0.4436212506361557  0.4286535251576495  0.1148602205146503
  0.2324818191440059  0.5507542087204413  0.8651435443930779
  0.1398807919294214  0.4129900430153342  0.6081295356954470
  0.8946355504917207  0.5312212177276976  0.3683312298470014
  0.7770703331575959  0.4288910056650153  0.0832965116466085
  0.5311544387866221  0.5507087518174032  0.8689368505931725
  0.4430180364775040  0.4318790222123781  0.6157746104376969
  0.2220972446157390  0.8743969166388013  0.3356733276515058
  0.1172634194834856  0.7392583020120327  0.1190758904240710
  0.8846075943579592  0.8756724049313505  0.8450640090174417
  0.7654942105713332  0.7824304445866872  0.6073723215148092
  0.5421414027338471  0.8638246332173054  0.3716491272010813
  0.4671971473600465  0.7467843899840716  0.1174384824217043
  0.2294209138661145  0.8570119803277407  0.8508414298630029
  0.1045681603963047  0.7501016680710961  0.6141667890214890
  0.9100598310216483  0.8611715519515997  0.3681657730687107
  0.7730478862810273  0.7492144549450046  0.1036755700715588
  0.5631337856310381  0.8503399113139878  0.8607728964595154
  0.4617105218972739  0.7492805316119657  0.6153717655751763
 
  0.00000000E+00  0.00000000E+00  0.00000000E+00
  0.00000000E+00  0.00000000E+00  0.00000000E+00
  0.00000000E+00  0.00000000E+00  0.00000000E+00
  0.00000000E+00  0.00000000E+00  0.00000000E+00
  0.00000000E+00  0.00000000E+00  0.00000000E+00
  0.00000000E+00  0.00000000E+00  0.00000000E+00
  0.00000000E+00  0.00000000E+00  0.00000000E+00
  0.00000000E+00  0.00000000E+00  0.00000000E+00
  0.00000000E+00  0.00000000E+00  0.00000000E+00
  0.00000000E+00  0.00000000E+00  0.00000000E+00
  0.00000000E+00  0.00000000E+00  0.00000000E+00
  0.00000000E+00  0.00000000E+00  0.00000000E+00
  0.00000000E+00  0.00000000E+00  0.00000000E+00
  0.00000000E+00  0.00000000E+00  0.00000000E+00
  0.00000000E+00  0.00000000E+00  0.00000000E+00
  0.00000000E+00  0.00000000E+00  0.00000000E+00
  0.00000000E+00  0.00000000E+00  0.00000000E+00
  0.00000000E+00  0.00000000E+00  0.00000000E+00
  0.00000000E+00  0.00000000E+00  0.00000000E+00
  0.00000000E+00  0.00000000E+00  0.00000000E+00
  0.00000000E+00  0.00000000E+00  0.00000000E+00
  0.00000000E+00  0.00000000E+00  0.00000000E+00
  0.00000000E+00  0.00000000E+00  0.00000000E+00
  0.00000000E+00  0.00000000E+00  0.00000000E+00
  0.00000000E+00  0.00000000E+00  0.00000000E+00
  0.00000000E+00  0.00000000E+00  0.00000000E+00
  0.00000000E+00  0.00000000E+00  0.00000000E+00
  0.00000000E+00  0.00000000E+00  0.00000000E+00
  0.00000000E+00  0.00000000E+00  0.00000000E+00
  0.00000000E+00  0.00000000E+00  0.00000000E+00
  0.00000000E+00  0.00000000E+00  0.00000000E+00
  0.00000000E+00  0.00000000E+00  0.00000000E+00
  0.00000000E+00  0.00000000E+00  0.00000000E+00
  0.00000000E+00  0.00000000E+00  0.00000000E+00
  0.00000000E+00  0.00000000E+00  0.00000000E+00
  0.00000000E+00  0.00000000E+00  0.00000000E+00
  0.00000000E+00  0.00000000E+00  0.00000000E+00
  0.00000000E+00  0.00000000E+00  0.00000000E+00
  0.00000000E+00  0.00000000E+00  0.00000000E+00
  0.00000000E+00  0.00000000E+00  0.00000000E+00
  0.00000000E+00  0.00000000E+00  0.00000000E+00
  0.00000000E+00  0.00000000E+00  0.00000000E+00
  0.00000000E+00  0.00000000E+00  0.00000000E+00
  0.00000000E+00  0.00000000E+00  0.00000000E+00
  0.00000000E+00  0.00000000E+00  0.00000000E+00
  0.00000000E+00  0.00000000E+00  0.00000000E+00
  0.00000000E+00  0.00000000E+00  0.00000000E+00
  0.00000000E+00  0.00000000E+00  0.00000000E+00
  0.00000000E+00  0.00000000E+00  0.00000000E+00
  0.00000000E+00  0.00000000E+00  0.00000000E+00
  0.00000000E+00  0.00000000E+00  0.00000000E+00
  0.00000000E+00  0.00000000E+00  0.00000000E+00
  0.00000000E+00  0.00000000E+00  0.00000000E+00
  0.00000000E+00  0.00000000E+00  0.00000000E+00
  0.00000000E+00  0.00000000E+00  0.00000000E+00
  0.00000000E+00  0.00000000E+00  0.00000000E+00
  0.00000000E+00  0.00000000E+00  0.00000000E+00
  0.00000000E+00  0.00000000E+00  0.00000000E+00
  0.00000000E+00  0.00000000E+00  0.00000000E+00
  0.00000000E+00  0.00000000E+00  0.00000000E+00
  0.00000000E+00  0.00000000E+00  0.00000000E+00
  0.00000000E+00  0.00000000E+00  0.00000000E+00
  0.00000000E+00  0.00000000E+00  0.00000000E+00
  0.00000000E+00  0.00000000E+00  0.00000000E+00
  0.00000000E+00  0.00000000E+00  0.00000000E+00
  0.00000000E+00  0.00000000E+00  0.00000000E+00
  0.00000000E+00  0.00000000E+00  0.00000000E+00
  0.00000000E+00  0.00000000E+00  0.00000000E+00
  0.00000000E+00  0.00000000E+00  0.00000000E+00
  0.00000000E+00  0.00000000E+00  0.00000000E+00
  0.00000000E+00  0.00000000E+00  0.00000000E+00
