Al   Sc   N                             
   1.00000000000000     
    -9.9268349237426605    0.0058170708878689   -0.0106111791938584
    -4.9680642073456021    8.6235135663875795   -0.0067821677005511
    -0.0128777824991591    0.0012707013109181  -10.0256154104704009
   Al   Sc   N 
    23    13    35
Direct
  0.1115531589405876  0.0949490146929719  0.2990108692673203
  0.2221209159752888  0.2063500878335205  0.0524184134947774
  0.7760605908018761  0.0939228032628421  0.7941759790088767
  0.8905260337210734  0.2067528371741005  0.5553636541125258
  0.5573868776994289  0.2170884220908604  0.0498794781941996
  0.2262177809476853  0.2040485765299778  0.5506229959255151
  0.8811845383418984  0.2085249888986098  0.0518477773451878
  0.5470040732573622  0.2155211851012453  0.5590705710425254
  0.2309499824186148  0.5375844795860800  0.0509650974003648
  0.4388193443789916  0.4378876128698224  0.3067814793384684
  0.5512313520413343  0.5394268440047867  0.0536716100957833
  0.2295082575940413  0.5365880179397564  0.5554180922721059
  0.8845638970711960  0.5421841580222946  0.0396722369738072
  0.4421928884798021  0.4370731812161566  0.8025500448118947
  0.5512627456422550  0.5370073387969114  0.5531142151494990
  0.1181085238626309  0.7557716466431117  0.3063416825598537
  0.7734491488119701  0.7688095513281041  0.7966796404843279
  0.8905800265473047  0.8712049813766924  0.5588066395045317
  0.4448773070415086  0.7568289160233093  0.3049067171919830
  0.5630743143448242  0.8559146059028677  0.0481316812124533
  0.1112517588426627  0.7590085734162741  0.8005728313413769
  0.4466285508776622  0.7528341593772012  0.8020710312857346
  0.5519828981396131  0.8726707369764597  0.5581258703639662
  0.4454873117794023  0.0919174157190952  0.3042799872166384
  0.1124011676673078  0.0937935576096720  0.8187463760201084
  0.7770412658135442  0.0984937331115106  0.3248961340693768
  0.4527182831442431  0.0895488726260254  0.8208637896065767
  0.1186616761806434  0.4286776500629799  0.3028027778229756
  0.7646613895412031  0.4263229290345478  0.8175397805399598
  0.8922971633353498  0.5347416898428605  0.5752495886463507
  0.1244050835940982  0.4258975097401603  0.8203628668932978
  0.7736001158187662  0.4272810149678463  0.3040987617136039
  0.2290163627670196  0.8639816839916463  0.0692678931099380
  0.2227204089822834  0.8724782067256385  0.5556813945813559
  0.7767156579313976  0.7583756694400208  0.3160347977957798
  0.8848467409518506  0.8752184405881778  0.0556977414013815
  0.2161814918889178  0.1957674363248216  0.3593451647731030
  0.1001155965626879  0.1141683769590287  0.1011594828605737
  0.8821477891557024  0.1884019679956879  0.8645034470382313
  0.7767744896083997  0.0959066797046262  0.5995380547281854
  0.5369643860182123  0.2312076328818478  0.3704495992234556
  0.4482065536803290  0.0915094285565843  0.0806637913631789
  0.1049208016218444  0.1137780930210681  0.6102763691016335
  0.9102177001269425  0.1976061375260656  0.3665422770242444
  0.7655107474023950  0.1149595326562931  0.1123939785934311
  0.5623763746811363  0.2210923169208385  0.8575810819403671
  0.4434183049649931  0.0937507463590563  0.6038998968123153
  0.2316337251747385  0.5498022210784725  0.3666527740795829
  0.1132401461597112  0.4271214786533761  0.0782863158420213
  0.8838414372004877  0.5547166084778254  0.8432644959568876
  0.7638696931770141  0.4172860224991624  0.6030491608770774
  0.5360613970031949  0.5492630769419407  0.3636118208852110
  0.4436273609679304  0.4286534364808361  0.1130968441310003
  0.2324894028343891  0.5507524764685883  0.8633786596360835
  0.1398870684101823  0.4129893804238094  0.6063647884400751
  0.8946417117195153  0.5312189925279469  0.3665686957502174
  0.7770766858334710  0.4288899823536099  0.0815268191772205
  0.5311597817660356  0.5507080476080972  0.8671693619200269
  0.4430250275849730  0.4318777640476057  0.6140071785069594
  0.2221038337729553  0.8743960368737049  0.3339081196440219
  0.1172690542453338  0.7392570214216292  0.1173130579824146
  0.8846133729819741  0.8756717019302656  0.8433006093635740
  0.7655001188634074  0.7824293613041178  0.6056077324696432
  0.5421468474558822  0.8638240441200296  0.3698864446599615
  0.4672033627580703  0.7467826314930335  0.1156731093698014
  0.2294278642808081  0.8570108038985254  0.8490785769449190
  0.1045752099019595  0.7501006187345354  0.6124044164882605
  0.9100672679056672  0.8611706120817075  0.3664058652186668
  0.7730544902574152  0.7492125438434485  0.1019158547651955
  0.5631408563744884  0.8503378494252942  0.8590104044116416
  0.4617164269554834  0.7492794553037143  0.6136057846838341
 
  0.00000000E+00  0.00000000E+00  0.00000000E+00
  0.00000000E+00  0.00000000E+00  0.00000000E+00
  0.00000000E+00  0.00000000E+00  0.00000000E+00
  0.00000000E+00  0.00000000E+00  0.00000000E+00
  0.00000000E+00  0.00000000E+00  0.00000000E+00
  0.00000000E+00  0.00000000E+00  0.00000000E+00
  0.00000000E+00  0.00000000E+00  0.00000000E+00
  0.00000000E+00  0.00000000E+00  0.00000000E+00
  0.00000000E+00  0.00000000E+00  0.00000000E+00
  0.00000000E+00  0.00000000E+00  0.00000000E+00
  0.00000000E+00  0.00000000E+00  0.00000000E+00
  0.00000000E+00  0.00000000E+00  0.00000000E+00
  0.00000000E+00  0.00000000E+00  0.00000000E+00
  0.00000000E+00  0.00000000E+00  0.00000000E+00
  0.00000000E+00  0.00000000E+00  0.00000000E+00
  0.00000000E+00  0.00000000E+00  0.00000000E+00
  0.00000000E+00  0.00000000E+00  0.00000000E+00
  0.00000000E+00  0.00000000E+00  0.00000000E+00
  0.00000000E+00  0.00000000E+00  0.00000000E+00
  0.00000000E+00  0.00000000E+00  0.00000000E+00
  0.00000000E+00  0.00000000E+00  0.00000000E+00
  0.00000000E+00  0.00000000E+00  0.00000000E+00
  0.00000000E+00  0.00000000E+00  0.00000000E+00
  0.00000000E+00  0.00000000E+00  0.00000000E+00
  0.00000000E+00  0.00000000E+00  0.00000000E+00
  0.00000000E+00  0.00000000E+00  0.00000000E+00
  0.00000000E+00  0.00000000E+00  0.00000000E+00
  0.00000000E+00  0.00000000E+00  0.00000000E+00
  0.00000000E+00  0.00000000E+00  0.00000000E+00
  0.00000000E+00  0.00000000E+00  0.00000000E+00
  0.00000000E+00  0.00000000E+00  0.00000000E+00
  0.00000000E+00  0.00000000E+00  0.00000000E+00
  0.00000000E+00  0.00000000E+00  0.00000000E+00
  0.00000000E+00  0.00000000E+00  0.00000000E+00
  0.00000000E+00  0.00000000E+00  0.00000000E+00
  0.00000000E+00  0.00000000E+00  0.00000000E+00
  0.00000000E+00  0.00000000E+00  0.00000000E+00
  0.00000000E+00  0.00000000E+00  0.00000000E+00
  0.00000000E+00  0.00000000E+00  0.00000000E+00
  0.00000000E+00  0.00000000E+00  0.00000000E+00
  0.00000000E+00  0.00000000E+00  0.00000000E+00
  0.00000000E+00  0.00000000E+00  0.00000000E+00
  0.00000000E+00  0.00000000E+00  0.00000000E+00
  0.00000000E+00  0.00000000E+00  0.00000000E+00
  0.00000000E+00  0.00000000E+00  0.00000000E+00
  0.00000000E+00  0.00000000E+00  0.00000000E+00
  0.00000000E+00  0.00000000E+00  0.00000000E+00
  0.00000000E+00  0.00000000E+00  0.00000000E+00
  0.00000000E+00  0.00000000E+00  0.00000000E+00
  0.00000000E+00  0.00000000E+00  0.00000000E+00
  0.00000000E+00  0.00000000E+00  0.00000000E+00
  0.00000000E+00  0.00000000E+00  0.00000000E+00
  0.00000000E+00  0.00000000E+00  0.00000000E+00
  0.00000000E+00  0.00000000E+00  0.00000000E+00
  0.00000000E+00  0.00000000E+00  0.00000000E+00
  0.00000000E+00  0.00000000E+00  0.00000000E+00
  0.00000000E+00  0.00000000E+00  0.00000000E+00
  0.00000000E+00  0.00000000E+00  0.00000000E+00
  0.00000000E+00  0.00000000E+00  0.00000000E+00
  0.00000000E+00  0.00000000E+00  0.00000000E+00
  0.00000000E+00  0.00000000E+00  0.00000000E+00
  0.00000000E+00  0.00000000E+00  0.00000000E+00
  0.00000000E+00  0.00000000E+00  0.00000000E+00
  0.00000000E+00  0.00000000E+00  0.00000000E+00
  0.00000000E+00  0.00000000E+00  0.00000000E+00
  0.00000000E+00  0.00000000E+00  0.00000000E+00
  0.00000000E+00  0.00000000E+00  0.00000000E+00
  0.00000000E+00  0.00000000E+00  0.00000000E+00
  0.00000000E+00  0.00000000E+00  0.00000000E+00
  0.00000000E+00  0.00000000E+00  0.00000000E+00
  0.00000000E+00  0.00000000E+00  0.00000000E+00
