Al   Sc   N                             
   1.00000000000000     
    -9.9298909797628632    0.0110184578208509   -0.0030764584972614
    -4.9761888190656993    8.6241149163655173   -0.0068176128635622
    -0.0011981595569929    0.0081482948557750  -10.0291234337187660
   Al   Sc   N 
    23    13    35
Direct
  0.1107333270153319  0.0946677863121508  0.3976958327030928
  0.2225264969648890  0.2026489739367818  0.1411660531025518
  0.7709907499204149  0.1027920491532086  0.8892098330093319
  0.8792354300617120  0.2059665067664511  0.6407527972911069
  0.5488383539044008  0.2184764835969517  0.1348659393226939
  0.2244587728322642  0.2081371743210312  0.6366339780005674
  0.8915399273936941  0.2088391169670700  0.1371601709498549
  0.5578453360103381  0.2128508703362115  0.6411361275632430
  0.2315686805743198  0.5400878579391275  0.1400115770972974
  0.4385666941044093  0.4396653956288219  0.3877703628297766
  0.5483132663492469  0.5418745440933748  0.1386369894357742
  0.2284267723913658  0.5354580022523763  0.6383178429277478
  0.8866907781916495  0.5369855398687378  0.1439149845170817
  0.4430399244765724  0.4350073816171331  0.8877288540873636
  0.5532785839757466  0.5354280817988837  0.6388363926039489
  0.1111695741790228  0.7583109238684145  0.3938148499273098
  0.7743577529182133  0.7571531041286121  0.8915005976068002
  0.8827758624638520  0.8754783767598724  0.6495750625690349
  0.4466275044471075  0.7562808997151933  0.3911665343476542
  0.5522346169310239  0.8653994874571893  0.1317553569879024
  0.1214513290884724  0.7537954900097645  0.8823888363477081
  0.4452823112118480  0.7526710337206879  0.8863819382069167
  0.5609958538708852  0.8646268385896434  0.6444671042896033
  0.4453024956087219  0.0908923541024009  0.3862753327344777
  0.1126755363879113  0.0922275601020885  0.8682523516536520
  0.7808881231495661  0.0926914518925841  0.3793391575818390
  0.4523020589584164  0.0901843926244084  0.8722149852779495
  0.1242305788496196  0.4246291106134024  0.3727611630374028
  0.7686893573886948  0.4308686812181577  0.8882651350404913
  0.8882809744299891  0.5408882042274357  0.6271840999086180
  0.1182647758146302  0.4294806611160595  0.8896386723903404
  0.7685191676458700  0.4241560511526998  0.3748766209666243
  0.2247873215818288  0.8729313686727593  0.1439046205530943
  0.2267580384211456  0.8634941328358323  0.6173815569582359
  0.7741998589561518  0.7688966649395752  0.3770167285379813
  0.8914124155320806  0.8709479110871001  0.1112621839347199
  0.2177674894183497  0.1883896000093657  0.3297339297418844
  0.1046836372887512  0.1125497492685810  0.0775406010784963
  0.8797254024335572  0.1975785458322292  0.8282815896451865
  0.7774730665995051  0.0913672916462218  0.5938677752857302
  0.5408408305594321  0.2305073368113426  0.3254494092706111
  0.4443095118711113  0.0952191074927953  0.0890396846348196
  0.1003004520527213  0.1156273536821075  0.5946280756135778
  0.9123047875151187  0.1900416684711672  0.3253676594293893
  0.7654316639143346  0.1194710980524789  0.0816521698150225
  0.5593702678921133  0.2216064873742098  0.8309701087358476
  0.4462874090209752  0.0920147118746542  0.6107655904639486
  0.2319705778015688  0.5553882244690627  0.3280831061274370
  0.1156433537992427  0.4276410624998874  0.1072100499461328
  0.8879633721271603  0.5493390160303520  0.8376466730055796
  0.7666262469936811  0.4170145001291417  0.5920370188865149
  0.5298738683549615  0.5536842452349049  0.3258377104484680
  0.4432811353317376  0.4308599308735026  0.0777322891349002
  0.2332217688872333  0.5432241989285913  0.8268889771412162
  0.1342322720700153  0.4166858792556951  0.5920842325018683
  0.8894517357097769  0.5377511789456833  0.3371269493281446
  0.7741888156545755  0.4291669648117562  0.1060759287518636
  0.5370050281070959  0.5466627976615825  0.8275102643494847
  0.4439623068884870  0.4294938396491190  0.5796774527182293
  0.2213440129461688  0.8726792106637902  0.3693473584580147
  0.1296005710368959  0.7415955324074233  0.0696036817070436
  0.8846093280293559  0.8742573947446388  0.8491297596289797
  0.7671290031300941  0.7844917281993062  0.5891128338147240
  0.5408766305566459  0.8634361347694934  0.3196327803716557
  0.4565869711452279  0.7509397568331622  0.0750743246091830
  0.2320557505111651  0.8560358474815288  0.8325640856936474
  0.0952140795759604  0.7487500707969303  0.5854184143975019
  0.9113907841404227  0.8631039922008270  0.3203143314505965
  0.7684095850226740  0.7488747891021674  0.0844151594507707
  0.5629835036871498  0.8504665847357415  0.8339606879214685
  0.4722173807130901  0.7459670023510938  0.5793561455683616
 
  0.00000000E+00  0.00000000E+00  0.00000000E+00
  0.00000000E+00  0.00000000E+00  0.00000000E+00
  0.00000000E+00  0.00000000E+00  0.00000000E+00
  0.00000000E+00  0.00000000E+00  0.00000000E+00
  0.00000000E+00  0.00000000E+00  0.00000000E+00
  0.00000000E+00  0.00000000E+00  0.00000000E+00
  0.00000000E+00  0.00000000E+00  0.00000000E+00
  0.00000000E+00  0.00000000E+00  0.00000000E+00
  0.00000000E+00  0.00000000E+00  0.00000000E+00
  0.00000000E+00  0.00000000E+00  0.00000000E+00
  0.00000000E+00  0.00000000E+00  0.00000000E+00
  0.00000000E+00  0.00000000E+00  0.00000000E+00
  0.00000000E+00  0.00000000E+00  0.00000000E+00
  0.00000000E+00  0.00000000E+00  0.00000000E+00
  0.00000000E+00  0.00000000E+00  0.00000000E+00
  0.00000000E+00  0.00000000E+00  0.00000000E+00
  0.00000000E+00  0.00000000E+00  0.00000000E+00
  0.00000000E+00  0.00000000E+00  0.00000000E+00
  0.00000000E+00  0.00000000E+00  0.00000000E+00
  0.00000000E+00  0.00000000E+00  0.00000000E+00
  0.00000000E+00  0.00000000E+00  0.00000000E+00
  0.00000000E+00  0.00000000E+00  0.00000000E+00
  0.00000000E+00  0.00000000E+00  0.00000000E+00
  0.00000000E+00  0.00000000E+00  0.00000000E+00
  0.00000000E+00  0.00000000E+00  0.00000000E+00
  0.00000000E+00  0.00000000E+00  0.00000000E+00
  0.00000000E+00  0.00000000E+00  0.00000000E+00
  0.00000000E+00  0.00000000E+00  0.00000000E+00
  0.00000000E+00  0.00000000E+00  0.00000000E+00
  0.00000000E+00  0.00000000E+00  0.00000000E+00
  0.00000000E+00  0.00000000E+00  0.00000000E+00
  0.00000000E+00  0.00000000E+00  0.00000000E+00
  0.00000000E+00  0.00000000E+00  0.00000000E+00
  0.00000000E+00  0.00000000E+00  0.00000000E+00
  0.00000000E+00  0.00000000E+00  0.00000000E+00
  0.00000000E+00  0.00000000E+00  0.00000000E+00
  0.00000000E+00  0.00000000E+00  0.00000000E+00
  0.00000000E+00  0.00000000E+00  0.00000000E+00
  0.00000000E+00  0.00000000E+00  0.00000000E+00
  0.00000000E+00  0.00000000E+00  0.00000000E+00
  0.00000000E+00  0.00000000E+00  0.00000000E+00
  0.00000000E+00  0.00000000E+00  0.00000000E+00
  0.00000000E+00  0.00000000E+00  0.00000000E+00
  0.00000000E+00  0.00000000E+00  0.00000000E+00
  0.00000000E+00  0.00000000E+00  0.00000000E+00
  0.00000000E+00  0.00000000E+00  0.00000000E+00
  0.00000000E+00  0.00000000E+00  0.00000000E+00
  0.00000000E+00  0.00000000E+00  0.00000000E+00
  0.00000000E+00  0.00000000E+00  0.00000000E+00
  0.00000000E+00  0.00000000E+00  0.00000000E+00
  0.00000000E+00  0.00000000E+00  0.00000000E+00
  0.00000000E+00  0.00000000E+00  0.00000000E+00
  0.00000000E+00  0.00000000E+00  0.00000000E+00
  0.00000000E+00  0.00000000E+00  0.00000000E+00
  0.00000000E+00  0.00000000E+00  0.00000000E+00
  0.00000000E+00  0.00000000E+00  0.00000000E+00
  0.00000000E+00  0.00000000E+00  0.00000000E+00
  0.00000000E+00  0.00000000E+00  0.00000000E+00
  0.00000000E+00  0.00000000E+00  0.00000000E+00
  0.00000000E+00  0.00000000E+00  0.00000000E+00
  0.00000000E+00  0.00000000E+00  0.00000000E+00
  0.00000000E+00  0.00000000E+00  0.00000000E+00
  0.00000000E+00  0.00000000E+00  0.00000000E+00
  0.00000000E+00  0.00000000E+00  0.00000000E+00
  0.00000000E+00  0.00000000E+00  0.00000000E+00
  0.00000000E+00  0.00000000E+00  0.00000000E+00
  0.00000000E+00  0.00000000E+00  0.00000000E+00
  0.00000000E+00  0.00000000E+00  0.00000000E+00
  0.00000000E+00  0.00000000E+00  0.00000000E+00
  0.00000000E+00  0.00000000E+00  0.00000000E+00
  0.00000000E+00  0.00000000E+00  0.00000000E+00
