Al   Sc   N                             
   1.00000000000000     
   -10.2450802059850012    0.0078447302007262   -0.0076739151934901
    -5.1323505940097638    8.8916471097072289   -0.0067959853064706
     0.0005130844335512    0.0031775033435240   -9.1479778088035708
   Al   Sc   N 
    23    13    35
Direct
  0.1105667895639542  0.0899931494407795  0.3303890757188981
  0.2221076223076892  0.2057524854544539  0.1160616337013565
  0.7750370050361468  0.0948531367811256  0.8271891321880105
  0.8910039936583729  0.2050189374374867  0.5886729454591446
  0.5557096796657888  0.2164185480222471  0.0749783407652487
  0.2250649786291987  0.2021874133899075  0.5726489079671353
  0.8807312516972843  0.2094848445853827  0.0798769378314930
  0.5481051175364371  0.2191428389986925  0.5935024430775329
  0.2319921022885154  0.5350939972321740  0.0799892166945924
  0.4391385943460620  0.4367481202887618  0.3307998566788868
  0.5507523988289407  0.5399672254611190  0.0891150969142771
  0.2302163369284997  0.5390921678052933  0.5838984050810936
  0.8868778892068718  0.5393313595583251  0.0801175808004828
  0.4425959802046435  0.4376623440630141  0.8315727089365481
  0.5487835224385336  0.5383379588350010  0.5753526293777966
  0.1178141060395888  0.7571485609941604  0.3323613820562201
  0.7742377103440958  0.7664951351572782  0.8343935482356883
  0.8898960657653063  0.8717335354053048  0.5954447285355187
  0.4432305744190828  0.7581440740634662  0.3332441961430135
  0.5605875558705051  0.8588927575916756  0.0772145591913542
  0.1123380617357626  0.7559701587164511  0.8339803552149974
  0.4483230490642285  0.7511809092578048  0.8308696392147468
  0.5525374789567081  0.8688134608278162  0.5892654199214533
  0.4522155109380037  0.0902277161859999  0.3454624258389671
  0.1125484757321331  0.0990131459894315  0.8523345629390775
  0.7756959452796721  0.0997223213875742  0.3543135281593521
  0.4464236107839383  0.0918715937358741  0.8481462627980747
  0.1198847597491337  0.4316720431464205  0.3454744383193713
  0.7631685347616610  0.4302216258465776  0.8468904610021397
  0.8907403314953655  0.5375337349170124  0.6041516328621483
  0.1257540019437684  0.4207332654222427  0.8497232542782100
  0.7741927074514976  0.4249100484565957  0.3441082312896526
  0.2294766218552695  0.8643686774789927  0.0951910701205421
  0.2223908832640547  0.8702169719959159  0.5957763749489615
  0.7747916320338462  0.7612780418058733  0.3488431327556256
  0.8866222186781982  0.8744178360237669  0.0917989294387098
  0.2178976020651007  0.1933063971006348  0.3494973005516968
  0.0999811234860957  0.1107961132669502  0.1076708699797919
  0.8810061356014600  0.1948215907218795  0.8666445842363117
  0.7771612823915888  0.0952860690572237  0.6134088701510620
  0.5396914287636392  0.2333651244208355  0.3833142359267967
  0.4492412279736655  0.0923112644380950  0.1004008692272578
  0.1071380058541678  0.1133282305295111  0.6173598173336217
  0.9095271187660998  0.1941749362729865  0.3752278048484641
  0.7646100550666262  0.1149517127966604  0.1154463745061847
  0.5589186431735058  0.2195327701684349  0.8600774597155407
  0.4414067749477937  0.0937089175669357  0.6082724470727001
  0.2334369285694606  0.5522384512246106  0.3739211339066060
  0.1157485093077781  0.4256424371082943  0.1011515046281062
  0.8869792899573952  0.5507258005695661  0.8565776309379842
  0.7634283121035850  0.4201591903544823  0.6060709435569080
  0.5348264108121299  0.5492031717086618  0.3650421208108412
  0.4442745835458766  0.4264465355531257  0.1205351345102414
  0.2326281436772746  0.5449668640499610  0.8709346633512425
  0.1384633292110138  0.4130282800322789  0.6057642269154471
  0.8929830721739549  0.5345359155945886  0.3683851816928581
  0.7772684131560084  0.4277025540156885  0.1014514193371738
  0.5332762096624961  0.5492130248645211  0.8808527431981688
  0.4422535526513229  0.4356533237614002  0.6248406811717828
  0.2218493926703999  0.8729357866910661  0.3523138941337152
  0.1207360519862988  0.7405284347475174  0.1180603942828213
  0.8852177013567726  0.8756091988937342  0.8536039350123019
  0.7664873220850623  0.7805026838911147  0.6152214974878945
  0.5431648342169382  0.8618764281880189  0.3780646140725281
  0.4629392303430109  0.7505680352743198  0.1228991620000954
  0.2290412078978292  0.8595397876360806  0.8538955186486348
  0.1030648263952045  0.7497326799668897  0.6238733479764775
  0.9081635873182776  0.8639103545487998  0.3664129119579655
  0.7716639354724677  0.7516390078092883  0.1067962720873865
  0.5601267164274972  0.8540105670949387  0.8652889987855019
  0.4618396841561747  0.7467975937182203  0.6216594474661932
 
  0.00000000E+00  0.00000000E+00  0.00000000E+00
  0.00000000E+00  0.00000000E+00  0.00000000E+00
  0.00000000E+00  0.00000000E+00  0.00000000E+00
  0.00000000E+00  0.00000000E+00  0.00000000E+00
  0.00000000E+00  0.00000000E+00  0.00000000E+00
  0.00000000E+00  0.00000000E+00  0.00000000E+00
  0.00000000E+00  0.00000000E+00  0.00000000E+00
  0.00000000E+00  0.00000000E+00  0.00000000E+00
  0.00000000E+00  0.00000000E+00  0.00000000E+00
  0.00000000E+00  0.00000000E+00  0.00000000E+00
  0.00000000E+00  0.00000000E+00  0.00000000E+00
  0.00000000E+00  0.00000000E+00  0.00000000E+00
  0.00000000E+00  0.00000000E+00  0.00000000E+00
  0.00000000E+00  0.00000000E+00  0.00000000E+00
  0.00000000E+00  0.00000000E+00  0.00000000E+00
  0.00000000E+00  0.00000000E+00  0.00000000E+00
  0.00000000E+00  0.00000000E+00  0.00000000E+00
  0.00000000E+00  0.00000000E+00  0.00000000E+00
  0.00000000E+00  0.00000000E+00  0.00000000E+00
  0.00000000E+00  0.00000000E+00  0.00000000E+00
  0.00000000E+00  0.00000000E+00  0.00000000E+00
  0.00000000E+00  0.00000000E+00  0.00000000E+00
  0.00000000E+00  0.00000000E+00  0.00000000E+00
  0.00000000E+00  0.00000000E+00  0.00000000E+00
  0.00000000E+00  0.00000000E+00  0.00000000E+00
  0.00000000E+00  0.00000000E+00  0.00000000E+00
  0.00000000E+00  0.00000000E+00  0.00000000E+00
  0.00000000E+00  0.00000000E+00  0.00000000E+00
  0.00000000E+00  0.00000000E+00  0.00000000E+00
  0.00000000E+00  0.00000000E+00  0.00000000E+00
  0.00000000E+00  0.00000000E+00  0.00000000E+00
  0.00000000E+00  0.00000000E+00  0.00000000E+00
  0.00000000E+00  0.00000000E+00  0.00000000E+00
  0.00000000E+00  0.00000000E+00  0.00000000E+00
  0.00000000E+00  0.00000000E+00  0.00000000E+00
  0.00000000E+00  0.00000000E+00  0.00000000E+00
  0.00000000E+00  0.00000000E+00  0.00000000E+00
  0.00000000E+00  0.00000000E+00  0.00000000E+00
  0.00000000E+00  0.00000000E+00  0.00000000E+00
  0.00000000E+00  0.00000000E+00  0.00000000E+00
  0.00000000E+00  0.00000000E+00  0.00000000E+00
  0.00000000E+00  0.00000000E+00  0.00000000E+00
  0.00000000E+00  0.00000000E+00  0.00000000E+00
  0.00000000E+00  0.00000000E+00  0.00000000E+00
  0.00000000E+00  0.00000000E+00  0.00000000E+00
  0.00000000E+00  0.00000000E+00  0.00000000E+00
  0.00000000E+00  0.00000000E+00  0.00000000E+00
  0.00000000E+00  0.00000000E+00  0.00000000E+00
  0.00000000E+00  0.00000000E+00  0.00000000E+00
  0.00000000E+00  0.00000000E+00  0.00000000E+00
  0.00000000E+00  0.00000000E+00  0.00000000E+00
  0.00000000E+00  0.00000000E+00  0.00000000E+00
  0.00000000E+00  0.00000000E+00  0.00000000E+00
  0.00000000E+00  0.00000000E+00  0.00000000E+00
  0.00000000E+00  0.00000000E+00  0.00000000E+00
  0.00000000E+00  0.00000000E+00  0.00000000E+00
  0.00000000E+00  0.00000000E+00  0.00000000E+00
  0.00000000E+00  0.00000000E+00  0.00000000E+00
  0.00000000E+00  0.00000000E+00  0.00000000E+00
  0.00000000E+00  0.00000000E+00  0.00000000E+00
  0.00000000E+00  0.00000000E+00  0.00000000E+00
  0.00000000E+00  0.00000000E+00  0.00000000E+00
  0.00000000E+00  0.00000000E+00  0.00000000E+00
  0.00000000E+00  0.00000000E+00  0.00000000E+00
  0.00000000E+00  0.00000000E+00  0.00000000E+00
  0.00000000E+00  0.00000000E+00  0.00000000E+00
  0.00000000E+00  0.00000000E+00  0.00000000E+00
  0.00000000E+00  0.00000000E+00  0.00000000E+00
  0.00000000E+00  0.00000000E+00  0.00000000E+00
  0.00000000E+00  0.00000000E+00  0.00000000E+00
  0.00000000E+00  0.00000000E+00  0.00000000E+00
