Al   Sc   N                             
   1.00000000000000     
   -10.0527790909999322    0.0102250259158197   -0.0042258226713185
    -5.0430878506205836    8.7363090460723658   -0.0068122059742893
     0.0066728501459316    0.0061291296664556   -9.6888972617319169
   Al   Sc   N 
    23    13    35
Direct
  0.1110649818759271  0.0922057864399903  0.3864102212917686
  0.2208252174487342  0.2033850475846037  0.1317227437429054
  0.7690962078486550  0.1035759102571276  0.8795789070739346
  0.8782206265000099  0.2046553750047835  0.6297249336892392
  0.5485203228890043  0.2204831270365659  0.1249083659491177
  0.2265808853425497  0.2060737358601585  0.6162830093007443
  0.8925574395769758  0.2091308586759553  0.1241616009885931
  0.5576976490188983  0.2126853595687379  0.6274715287286128
  0.2320047590998229  0.5395441844058837  0.1284337688130748
  0.4386215853461977  0.4404237186701891  0.3777871318844959
  0.5489939468086362  0.5411116260937874  0.1271770988348706
  0.2290968466933734  0.5360047790761371  0.6270286426946114
  0.8880817601297863  0.5348244459719567  0.1320897288631855
  0.4432046773812317  0.4347055650455829  0.8765472719219360
  0.5519444539743859  0.5361801989262531  0.6277107880392805
  0.1116070428027527  0.7591289845869369  0.3821332624425935
  0.7737357596615624  0.7572588111056504  0.8805451522109067
  0.8812299840260351  0.8767201618058991  0.6378962970432411
  0.4455186982176755  0.7560807265809828  0.3793075433301780
  0.5526781072207285  0.8632359903385378  0.1205876710708935
  0.1214735057185052  0.7527201769784853  0.8696417494506434
  0.4469730343354215  0.7524051521711357  0.8749149934627383
  0.5608158272918118  0.8656318729961825  0.6317053123536738
  0.4474781929241018  0.0900297893844879  0.3664633544518452
  0.1123160647876205  0.0953568667652505  0.8526722079354272
  0.7811049193236528  0.0927283195803312  0.3620343700611173
  0.4508005983899537  0.0915893060042166  0.8613637361977879
  0.1250497163278865  0.4255024126598812  0.3607656869670350
  0.7689837640016748  0.4312523211327459  0.8695093637920124
  0.8870725370174810  0.5431649387232156  0.6096876754927507
  0.1187322578874657  0.4280468693571180  0.8699882459060433
  0.7686817204101857  0.4230014547588823  0.3630769376317460
  0.2248821072037686  0.8726519343788937  0.1223979754802897
  0.2274229537499650  0.8625476248694994  0.6086472098338973
  0.7743709171637576  0.7688889206415794  0.3598855989764473
  0.8928532410810490  0.8698774524257544  0.0975836738950946
  0.2166429607209324  0.1898737830326453  0.3297023576384603
  0.1049609558810687  0.1141874111110397  0.0702467986560507
  0.8793668203638276  0.1961646933027126  0.8245598081727863
  0.7768622664155060  0.0916288416689568  0.5850592292939112
  0.5406255236501210  0.2328150644909428  0.3213816716082079
  0.4442327170440166  0.0953450688813504  0.0876751122560435
  0.1010517867850211  0.1130724891891361  0.5911923445354645
  0.9125824382430352  0.1906978195055800  0.3200615399434952
  0.7653821309215658  0.1185847202865986  0.0796866648658678
  0.5585472464060928  0.2214348508650801  0.8247848103230950
  0.4471330750063842  0.0916345045026432  0.5998507176650989
  0.2322784100431221  0.5553894661300873  0.3234777722662159
  0.1164221810774393  0.4263769081900080  0.0997363350114711
  0.8870176377195520  0.5513504267440226  0.8297723722043457
  0.7663499117319859  0.4170935048160089  0.5901071793698307
  0.5310309726071196  0.5526231866082441  0.3209909777903519
  0.4434989984986757  0.4310599760705145  0.0718886177165814
  0.2341120958046687  0.5432161771437762  0.8213246325025025
  0.1342562429701459  0.4168935730318708  0.5903334408567460
  0.8904500089871163  0.5360479911046596  0.3375580975912200
  0.7748266357434517  0.4287637052766371  0.0977961045774904
  0.5358555490298542  0.5472817998437449  0.8223234914994535
  0.4438057559065740  0.4300540941646958  0.5744618568190774
  0.2214422154006712  0.8722437070140288  0.3572368219127640
  0.1286314131630277  0.7399652316177878  0.0630937699128324
  0.8825545507911414  0.8754279161620460  0.8432983515786319
  0.7664729569270392  0.7856356753410338  0.5806105526805752
  0.5410400194750196  0.8616054033885945  0.3145559169577865
  0.4588164203698710  0.7488693122258780  0.0693441332973208
  0.2315228754772889  0.8579001596659452  0.8324107431505041
  0.0957399995046444  0.7501554050647243  0.5817937235787554
  0.9121040376912006  0.8626906407249635  0.3140211889799858
  0.7695996009899133  0.7482359934109795  0.0822507720549552
  0.5622639701280860  0.8524813760070913  0.8289910770047086
  0.4702210397085480  0.7467886931996262  0.5746714734174603
 
  0.00000000E+00  0.00000000E+00  0.00000000E+00
  0.00000000E+00  0.00000000E+00  0.00000000E+00
  0.00000000E+00  0.00000000E+00  0.00000000E+00
  0.00000000E+00  0.00000000E+00  0.00000000E+00
  0.00000000E+00  0.00000000E+00  0.00000000E+00
  0.00000000E+00  0.00000000E+00  0.00000000E+00
  0.00000000E+00  0.00000000E+00  0.00000000E+00
  0.00000000E+00  0.00000000E+00  0.00000000E+00
  0.00000000E+00  0.00000000E+00  0.00000000E+00
  0.00000000E+00  0.00000000E+00  0.00000000E+00
  0.00000000E+00  0.00000000E+00  0.00000000E+00
  0.00000000E+00  0.00000000E+00  0.00000000E+00
  0.00000000E+00  0.00000000E+00  0.00000000E+00
  0.00000000E+00  0.00000000E+00  0.00000000E+00
  0.00000000E+00  0.00000000E+00  0.00000000E+00
  0.00000000E+00  0.00000000E+00  0.00000000E+00
  0.00000000E+00  0.00000000E+00  0.00000000E+00
  0.00000000E+00  0.00000000E+00  0.00000000E+00
  0.00000000E+00  0.00000000E+00  0.00000000E+00
  0.00000000E+00  0.00000000E+00  0.00000000E+00
  0.00000000E+00  0.00000000E+00  0.00000000E+00
  0.00000000E+00  0.00000000E+00  0.00000000E+00
  0.00000000E+00  0.00000000E+00  0.00000000E+00
  0.00000000E+00  0.00000000E+00  0.00000000E+00
  0.00000000E+00  0.00000000E+00  0.00000000E+00
  0.00000000E+00  0.00000000E+00  0.00000000E+00
  0.00000000E+00  0.00000000E+00  0.00000000E+00
  0.00000000E+00  0.00000000E+00  0.00000000E+00
  0.00000000E+00  0.00000000E+00  0.00000000E+00
  0.00000000E+00  0.00000000E+00  0.00000000E+00
  0.00000000E+00  0.00000000E+00  0.00000000E+00
  0.00000000E+00  0.00000000E+00  0.00000000E+00
  0.00000000E+00  0.00000000E+00  0.00000000E+00
  0.00000000E+00  0.00000000E+00  0.00000000E+00
  0.00000000E+00  0.00000000E+00  0.00000000E+00
  0.00000000E+00  0.00000000E+00  0.00000000E+00
  0.00000000E+00  0.00000000E+00  0.00000000E+00
  0.00000000E+00  0.00000000E+00  0.00000000E+00
  0.00000000E+00  0.00000000E+00  0.00000000E+00
  0.00000000E+00  0.00000000E+00  0.00000000E+00
  0.00000000E+00  0.00000000E+00  0.00000000E+00
  0.00000000E+00  0.00000000E+00  0.00000000E+00
  0.00000000E+00  0.00000000E+00  0.00000000E+00
  0.00000000E+00  0.00000000E+00  0.00000000E+00
  0.00000000E+00  0.00000000E+00  0.00000000E+00
  0.00000000E+00  0.00000000E+00  0.00000000E+00
  0.00000000E+00  0.00000000E+00  0.00000000E+00
  0.00000000E+00  0.00000000E+00  0.00000000E+00
  0.00000000E+00  0.00000000E+00  0.00000000E+00
  0.00000000E+00  0.00000000E+00  0.00000000E+00
  0.00000000E+00  0.00000000E+00  0.00000000E+00
  0.00000000E+00  0.00000000E+00  0.00000000E+00
  0.00000000E+00  0.00000000E+00  0.00000000E+00
  0.00000000E+00  0.00000000E+00  0.00000000E+00
  0.00000000E+00  0.00000000E+00  0.00000000E+00
  0.00000000E+00  0.00000000E+00  0.00000000E+00
  0.00000000E+00  0.00000000E+00  0.00000000E+00
  0.00000000E+00  0.00000000E+00  0.00000000E+00
  0.00000000E+00  0.00000000E+00  0.00000000E+00
  0.00000000E+00  0.00000000E+00  0.00000000E+00
  0.00000000E+00  0.00000000E+00  0.00000000E+00
  0.00000000E+00  0.00000000E+00  0.00000000E+00
  0.00000000E+00  0.00000000E+00  0.00000000E+00
  0.00000000E+00  0.00000000E+00  0.00000000E+00
  0.00000000E+00  0.00000000E+00  0.00000000E+00
  0.00000000E+00  0.00000000E+00  0.00000000E+00
  0.00000000E+00  0.00000000E+00  0.00000000E+00
  0.00000000E+00  0.00000000E+00  0.00000000E+00
  0.00000000E+00  0.00000000E+00  0.00000000E+00
  0.00000000E+00  0.00000000E+00  0.00000000E+00
  0.00000000E+00  0.00000000E+00  0.00000000E+00
