Al   Sc   N                             
   1.00000000000000     
   -10.3652736863616877    0.0088144803068754   -0.0062691367585313
    -5.1872332891273691    9.0062417768490111   -0.0068025937266930
     0.0024306184329170    0.0183218762026870   -8.7977739064629183
   Al   Sc   N 
    23    13    35
Direct
  0.1110571389396284  0.0911315167930482  0.3528876900412214
  0.2217631621550638  0.2054496895225597  0.1225245005109059
  0.7727528770516372  0.0979387640918645  0.8485600520649328
  0.8858835380416963  0.2044925210982953  0.6121023816760314
  0.5521141739707005  0.2185336275250407  0.0960560886079023
  0.2246579125411969  0.2024136214425099  0.5780994215146364
  0.8870527210147117  0.2085442970034919  0.1045778386588196
  0.5525688954412615  0.2154013504309447  0.6043744037575038
  0.2331611739545920  0.5350583474239556  0.0905027734067687
  0.4393406343947390  0.4388369024208103  0.3620352020840301
  0.5497541980104614  0.5393891531096031  0.1134257943806745
  0.2276712296589025  0.5389647687236305  0.6002962307407103
  0.8869378261978511  0.5385069419831012  0.0977418736745648
  0.4439277648638935  0.4338932056007252  0.8505886789593191
  0.5506912255833640  0.5391652849148443  0.6122657237373090
  0.1161966117983084  0.7578392838288721  0.3440695302682997
  0.7748542271978991  0.7627048347627223  0.8549839956815504
  0.8873917872422723  0.8731217551443180  0.6116801652884192
  0.4443387925708606  0.7569183782286686  0.3646466001201460
  0.5569919968007682  0.8596817107921666  0.1025317927907210
  0.1143754087528634  0.7554558407225187  0.8455412191947858
  0.4475396083129652  0.7529779536063188  0.8614216609477978
  0.5552603001030079  0.8685485057269418  0.6212166911829442
  0.4517434566301830  0.0887767784758466  0.3504593134726335
  0.1132438357414003  0.0995208235153626  0.8518667289572406
  0.7776760373725935  0.0970493131218859  0.3556652206974888
  0.4450701070904373  0.0949159683478698  0.8532797659581632
  0.1204085037520812  0.4312747726875088  0.3487333964821886
  0.7671982892259663  0.4292176222093715  0.8559048045962854
  0.8894121774525772  0.5398091023366760  0.6054114464776461
  0.1237201565111405  0.4206797534240891  0.8532542795950633
  0.7713738651630209  0.4255265217847182  0.3522731124239158
  0.2286976621198917  0.8675135743357174  0.1022014568067888
  0.2231473963302122  0.8671983858641994  0.6017434905891292
  0.7734912965766370  0.7646208416272771  0.3521164840041351
  0.8898705514391949  0.8725475825981661  0.0939115893319169
  0.2185201724922905  0.1942208690826064  0.3499861888553042
  0.1052420600446879  0.1104849938592594  0.1014553227921695
  0.8842703166795829  0.1956179861023202  0.8480782146847474
  0.7763163588313802  0.0948572745864027  0.6096787379190189
  0.5427044631619395  0.2305056248925865  0.3587097957811025
  0.4435939934217217  0.0990279951878463  0.0984123418852789
  0.1036871824739833  0.1106873727316398  0.5979031213825579
  0.9059233838428966  0.1950965015253061  0.3441764185005027
  0.7659131606528149  0.1133769305871226  0.0935387180166742
  0.5570513147905842  0.2189694880537729  0.8446409048943764
  0.4430283010163762  0.0905631672398854  0.6029735283744841
  0.2318040228933000  0.5516288233454958  0.3594864584529205
  0.1194690918784360  0.4231244352674111  0.1009482503337296
  0.8880688955313474  0.5483982452590652  0.8565440400162458
  0.7672559847778970  0.4194905162690148  0.6020587898849428
  0.5351778437326615  0.5497380045043485  0.3417965839126325
  0.4453605598528014  0.4292548919007260  0.0937450690429316
  0.2321614249017614  0.5431921945501657  0.8538118991405739
  0.1348200844690624  0.4137124258333671  0.6029427750310461
  0.8912199432472718  0.5369910199992347  0.3493223386695945
  0.7744794988501411  0.4279733156524088  0.1013598699909295
  0.5371437583787753  0.5475271493855161  0.8404806504080469
  0.4426383232626350  0.4327205780173458  0.6020493464386618
  0.2223390450984866  0.8715206006603040  0.3520978353779682
  0.1220214613562121  0.7418622776799140  0.1000607556715494
  0.8858059566252408  0.8745686566996795  0.8449722050790029
  0.7664217259174251  0.7791940090427900  0.6077688680864171
  0.5439886559056362  0.8612783702085807  0.3307624210999762
  0.4602648383518968  0.7471218288494583  0.0865051939995851
  0.2288476618106685  0.8616468186277544  0.8496695170324671
  0.1020262439160504  0.7509512374057863  0.6134380267571018
  0.9070086632717604  0.8646846529973686  0.3533389679110002
  0.7713393244305493  0.7536520460595142  0.0908677078356490
  0.5586037460243674  0.8576533274234990  0.8489342746127093
  0.4621397308647701  0.7514864523355058  0.5926269474030619
 
  0.00000000E+00  0.00000000E+00  0.00000000E+00
  0.00000000E+00  0.00000000E+00  0.00000000E+00
  0.00000000E+00  0.00000000E+00  0.00000000E+00
  0.00000000E+00  0.00000000E+00  0.00000000E+00
  0.00000000E+00  0.00000000E+00  0.00000000E+00
  0.00000000E+00  0.00000000E+00  0.00000000E+00
  0.00000000E+00  0.00000000E+00  0.00000000E+00
  0.00000000E+00  0.00000000E+00  0.00000000E+00
  0.00000000E+00  0.00000000E+00  0.00000000E+00
  0.00000000E+00  0.00000000E+00  0.00000000E+00
  0.00000000E+00  0.00000000E+00  0.00000000E+00
  0.00000000E+00  0.00000000E+00  0.00000000E+00
  0.00000000E+00  0.00000000E+00  0.00000000E+00
  0.00000000E+00  0.00000000E+00  0.00000000E+00
  0.00000000E+00  0.00000000E+00  0.00000000E+00
  0.00000000E+00  0.00000000E+00  0.00000000E+00
  0.00000000E+00  0.00000000E+00  0.00000000E+00
  0.00000000E+00  0.00000000E+00  0.00000000E+00
  0.00000000E+00  0.00000000E+00  0.00000000E+00
  0.00000000E+00  0.00000000E+00  0.00000000E+00
  0.00000000E+00  0.00000000E+00  0.00000000E+00
  0.00000000E+00  0.00000000E+00  0.00000000E+00
  0.00000000E+00  0.00000000E+00  0.00000000E+00
  0.00000000E+00  0.00000000E+00  0.00000000E+00
  0.00000000E+00  0.00000000E+00  0.00000000E+00
  0.00000000E+00  0.00000000E+00  0.00000000E+00
  0.00000000E+00  0.00000000E+00  0.00000000E+00
  0.00000000E+00  0.00000000E+00  0.00000000E+00
  0.00000000E+00  0.00000000E+00  0.00000000E+00
  0.00000000E+00  0.00000000E+00  0.00000000E+00
  0.00000000E+00  0.00000000E+00  0.00000000E+00
  0.00000000E+00  0.00000000E+00  0.00000000E+00
  0.00000000E+00  0.00000000E+00  0.00000000E+00
  0.00000000E+00  0.00000000E+00  0.00000000E+00
  0.00000000E+00  0.00000000E+00  0.00000000E+00
  0.00000000E+00  0.00000000E+00  0.00000000E+00
  0.00000000E+00  0.00000000E+00  0.00000000E+00
  0.00000000E+00  0.00000000E+00  0.00000000E+00
  0.00000000E+00  0.00000000E+00  0.00000000E+00
  0.00000000E+00  0.00000000E+00  0.00000000E+00
  0.00000000E+00  0.00000000E+00  0.00000000E+00
  0.00000000E+00  0.00000000E+00  0.00000000E+00
  0.00000000E+00  0.00000000E+00  0.00000000E+00
  0.00000000E+00  0.00000000E+00  0.00000000E+00
  0.00000000E+00  0.00000000E+00  0.00000000E+00
  0.00000000E+00  0.00000000E+00  0.00000000E+00
  0.00000000E+00  0.00000000E+00  0.00000000E+00
  0.00000000E+00  0.00000000E+00  0.00000000E+00
  0.00000000E+00  0.00000000E+00  0.00000000E+00
  0.00000000E+00  0.00000000E+00  0.00000000E+00
  0.00000000E+00  0.00000000E+00  0.00000000E+00
  0.00000000E+00  0.00000000E+00  0.00000000E+00
  0.00000000E+00  0.00000000E+00  0.00000000E+00
  0.00000000E+00  0.00000000E+00  0.00000000E+00
  0.00000000E+00  0.00000000E+00  0.00000000E+00
  0.00000000E+00  0.00000000E+00  0.00000000E+00
  0.00000000E+00  0.00000000E+00  0.00000000E+00
  0.00000000E+00  0.00000000E+00  0.00000000E+00
  0.00000000E+00  0.00000000E+00  0.00000000E+00
  0.00000000E+00  0.00000000E+00  0.00000000E+00
  0.00000000E+00  0.00000000E+00  0.00000000E+00
  0.00000000E+00  0.00000000E+00  0.00000000E+00
  0.00000000E+00  0.00000000E+00  0.00000000E+00
  0.00000000E+00  0.00000000E+00  0.00000000E+00
  0.00000000E+00  0.00000000E+00  0.00000000E+00
  0.00000000E+00  0.00000000E+00  0.00000000E+00
  0.00000000E+00  0.00000000E+00  0.00000000E+00
  0.00000000E+00  0.00000000E+00  0.00000000E+00
  0.00000000E+00  0.00000000E+00  0.00000000E+00
  0.00000000E+00  0.00000000E+00  0.00000000E+00
  0.00000000E+00  0.00000000E+00  0.00000000E+00
