Al   Sc   N                             
   1.00000000000000     
    -9.9268219042208372    0.0057289117873098   -0.0107388863243092
    -4.9681434232710675    8.6234603185685703   -0.0067815669350763
    -0.0127504042202316    0.0013505544813376  -10.0256452016524076
   Al   Sc   N 
    23    13    35
Direct
  0.1115598521772156  0.0949493296339838  0.2972733491365602
  0.2221270697349738  0.2063504920374157  0.0506833326225049
  0.7760675234039525  0.0939225674573763  0.7924446821923823
  0.8905323288729861  0.2067523283849297  0.5536262308440314
  0.5573932559520571  0.2170872979664864  0.0481474393464865
  0.2262242875967004  0.2040466508096515  0.5488923115281352
  0.8811910925579198  0.2085237614706656  0.0501173251989613
  0.5470104219222236  0.2155206657410318  0.5573407685371947
  0.2309555568495227  0.5375826218173785  0.0492349971099344
  0.4388268085887219  0.4378860429358866  0.3050459135877546
  0.5512379852568188  0.5394257018327906  0.0519335042192850
  0.2295145324064833  0.5365881115159326  0.5536801433624987
  0.8845706784034419  0.5421840658279677  0.0379349627544414
  0.4421985218573496  0.4370725167361229  0.8008160745434338
  0.5512686659593840  0.5370068641784442  0.5513804555369148
  0.1181130098865495  0.7557714978577934  0.3046035051892986
  0.7734554628933594  0.7688085983230408  0.7949412917327123
  0.8905881734290162  0.8712040356474731  0.5570776056382698
  0.4448855304431518  0.7568275098924602  0.3031682432094271
  0.5630820706998492  0.8559133350809702  0.0463956858261980
  0.1112611550947378  0.7590063179064401  0.7988430265145325
  0.4466336972404505  0.7528338754900474  0.8003382853304473
  0.5519877165375746  0.8726701145438724  0.5563944964517447
  0.4454936045338727  0.0919163654327591  0.3025468118472219
  0.1124078510633311  0.0937907908162146  0.8170127076899121
  0.7770472821930809  0.0984918047775665  0.3231651245544285
  0.4527251704689306  0.0895481037934616  0.8191309056332230
  0.1186666545678605  0.4286754722538078  0.3010721660786828
  0.7646693350193203  0.4263194101433214  0.8158073936548575
  0.8923025066382166  0.5347399460016433  0.5735183330253406
  0.1244130414622120  0.4258967957968451  0.8186268657904563
  0.7736053689283153  0.4272819829619436  0.3023626930683463
  0.2290222335994656  0.8639817599663928  0.0675373750418444
  0.2227266252089990  0.8724767255111558  0.5539411727571348
  0.7767225888410678  0.7583754670244005  0.3143034781585285
  0.8848509199250785  0.8752183909211340  0.0539603565776545
  0.2161884937833491  0.1957649903550447  0.3576142591301377
  0.1001224279781496  0.1141689448193404  0.0994252638316695
  0.8821554165227354  0.1883991575299007  0.8627739674204875
  0.7767813010933367  0.0959065617743207  0.5978065479603600
  0.5369699006960929  0.2312069126879095  0.3687190906578479
  0.4482130125152537  0.0915084491042464  0.0789299082170061
  0.1049267514156185  0.1137752419826228  0.6085424860498705
  0.9102237901197441  0.1976061060298164  0.3648055650795214
  0.7655168419354581  0.1149579593208401  0.1106629684050020
  0.5623831656827392  0.2210917817472620  0.8558487610544034
  0.4434246006240627  0.0937498281624727  0.6021692839398227
  0.2316396756302908  0.5498021704715299  0.3649154563623043
  0.1132456516962961  0.4271208087620266  0.0765548978890891
  0.8838485350247254  0.5547154397343874  0.8415277650117119
  0.7638756175872174  0.4172839143322022  0.6013172719322455
  0.5360673393372508  0.5492629184467717  0.3618779774864151
  0.4436347528017492  0.4286526098847716  0.1113625610129603
  0.2324967103443925  0.5507502898794669  0.8616487036826683
  0.1398936104207706  0.4129892294936752  0.6046295868458031
  0.8946462995690823  0.5312185225633357  0.3648376535758615
  0.7770830533805224  0.4288898081671420  0.0797911321796789
  0.5311668597314281  0.5507064873473766  0.8654331133206909
  0.4430300838902355  0.4318777913051903  0.6122736397734485
  0.2221104731069801  0.8743949193106815  0.3321678285252503
  0.1172723715781103  0.7392574935126177  0.1155767536188250
  0.8846195398512364  0.8756701365184156  0.8415641533237022
  0.7655063065888328  0.7824283718918892  0.6038719786118278
  0.5421523722442387  0.8638232339189997  0.3681545720473522
  0.4672115864211293  0.7467807426526463  0.1139363097188024
  0.2294350366335252  0.8570093879419431  0.8473506060296359
  0.1045844655869317  0.7500987962450409  0.6106739171351308
  0.9100754108331870  0.8611692102903987  0.3646766033816604
  0.7730613348544040  0.7492112193725760  0.1001828564023697
  0.5631482897915276  0.8503365320204068  0.8572749739478951
  0.4617205709258627  0.7492794434748120  0.6118732281617625
 
  0.00000000E+00  0.00000000E+00  0.00000000E+00
  0.00000000E+00  0.00000000E+00  0.00000000E+00
  0.00000000E+00  0.00000000E+00  0.00000000E+00
  0.00000000E+00  0.00000000E+00  0.00000000E+00
  0.00000000E+00  0.00000000E+00  0.00000000E+00
  0.00000000E+00  0.00000000E+00  0.00000000E+00
  0.00000000E+00  0.00000000E+00  0.00000000E+00
  0.00000000E+00  0.00000000E+00  0.00000000E+00
  0.00000000E+00  0.00000000E+00  0.00000000E+00
  0.00000000E+00  0.00000000E+00  0.00000000E+00
  0.00000000E+00  0.00000000E+00  0.00000000E+00
  0.00000000E+00  0.00000000E+00  0.00000000E+00
  0.00000000E+00  0.00000000E+00  0.00000000E+00
  0.00000000E+00  0.00000000E+00  0.00000000E+00
  0.00000000E+00  0.00000000E+00  0.00000000E+00
  0.00000000E+00  0.00000000E+00  0.00000000E+00
  0.00000000E+00  0.00000000E+00  0.00000000E+00
  0.00000000E+00  0.00000000E+00  0.00000000E+00
  0.00000000E+00  0.00000000E+00  0.00000000E+00
  0.00000000E+00  0.00000000E+00  0.00000000E+00
  0.00000000E+00  0.00000000E+00  0.00000000E+00
  0.00000000E+00  0.00000000E+00  0.00000000E+00
  0.00000000E+00  0.00000000E+00  0.00000000E+00
  0.00000000E+00  0.00000000E+00  0.00000000E+00
  0.00000000E+00  0.00000000E+00  0.00000000E+00
  0.00000000E+00  0.00000000E+00  0.00000000E+00
  0.00000000E+00  0.00000000E+00  0.00000000E+00
  0.00000000E+00  0.00000000E+00  0.00000000E+00
  0.00000000E+00  0.00000000E+00  0.00000000E+00
  0.00000000E+00  0.00000000E+00  0.00000000E+00
  0.00000000E+00  0.00000000E+00  0.00000000E+00
  0.00000000E+00  0.00000000E+00  0.00000000E+00
  0.00000000E+00  0.00000000E+00  0.00000000E+00
  0.00000000E+00  0.00000000E+00  0.00000000E+00
  0.00000000E+00  0.00000000E+00  0.00000000E+00
  0.00000000E+00  0.00000000E+00  0.00000000E+00
  0.00000000E+00  0.00000000E+00  0.00000000E+00
  0.00000000E+00  0.00000000E+00  0.00000000E+00
  0.00000000E+00  0.00000000E+00  0.00000000E+00
  0.00000000E+00  0.00000000E+00  0.00000000E+00
  0.00000000E+00  0.00000000E+00  0.00000000E+00
  0.00000000E+00  0.00000000E+00  0.00000000E+00
  0.00000000E+00  0.00000000E+00  0.00000000E+00
  0.00000000E+00  0.00000000E+00  0.00000000E+00
  0.00000000E+00  0.00000000E+00  0.00000000E+00
  0.00000000E+00  0.00000000E+00  0.00000000E+00
  0.00000000E+00  0.00000000E+00  0.00000000E+00
  0.00000000E+00  0.00000000E+00  0.00000000E+00
  0.00000000E+00  0.00000000E+00  0.00000000E+00
  0.00000000E+00  0.00000000E+00  0.00000000E+00
  0.00000000E+00  0.00000000E+00  0.00000000E+00
  0.00000000E+00  0.00000000E+00  0.00000000E+00
  0.00000000E+00  0.00000000E+00  0.00000000E+00
  0.00000000E+00  0.00000000E+00  0.00000000E+00
  0.00000000E+00  0.00000000E+00  0.00000000E+00
  0.00000000E+00  0.00000000E+00  0.00000000E+00
  0.00000000E+00  0.00000000E+00  0.00000000E+00
  0.00000000E+00  0.00000000E+00  0.00000000E+00
  0.00000000E+00  0.00000000E+00  0.00000000E+00
  0.00000000E+00  0.00000000E+00  0.00000000E+00
  0.00000000E+00  0.00000000E+00  0.00000000E+00
  0.00000000E+00  0.00000000E+00  0.00000000E+00
  0.00000000E+00  0.00000000E+00  0.00000000E+00
  0.00000000E+00  0.00000000E+00  0.00000000E+00
  0.00000000E+00  0.00000000E+00  0.00000000E+00
  0.00000000E+00  0.00000000E+00  0.00000000E+00
  0.00000000E+00  0.00000000E+00  0.00000000E+00
  0.00000000E+00  0.00000000E+00  0.00000000E+00
  0.00000000E+00  0.00000000E+00  0.00000000E+00
  0.00000000E+00  0.00000000E+00  0.00000000E+00
  0.00000000E+00  0.00000000E+00  0.00000000E+00
