Al   Sc   N                             
   1.00000000000000     
   -10.1011051615469203    0.0100487077147017   -0.0044812369322201
    -5.0661516136252631    8.7775225854792538   -0.0068110044433397
     0.0096182251011957    0.0060315464038487   -9.5540437947002239
   Al   Sc   N 
    23    13    35
Direct
  0.1106850716015657  0.0909768898712500  0.3842164851269203
  0.2205209809906918  0.2036461382970529  0.1318890975745148
  0.7688764328471223  0.1033693235145137  0.8781942291146336
  0.8784543038301038  0.2042325463775256  0.6289586985922924
  0.5486684909053707  0.2209982298611948  0.1239837430683863
  0.2267307132809364  0.2051740861983475  0.6059042905122993
  0.8924055806775684  0.2090615171231178  0.1223291925310690
  0.5573909170334161  0.2127366091920848  0.6257029837526247
  0.2321634825700869  0.5394434039106173  0.1269112211410146
  0.4387051587244173  0.4405309665341619  0.3770718533672550
  0.5491493449269385  0.5408945620981740  0.1261455646360901
  0.2294372970062355  0.5358979821736582  0.6259476825604935
  0.8881475319857017  0.5346869402376129  0.1288705694249614
  0.4433076523414243  0.4345643248103244  0.8753781270108121
  0.5515069907091927  0.5364986546342507  0.6264046116832205
  0.1118403120392344  0.7594282294555157  0.3812963780754615
  0.7737063304506151  0.7576951238120628  0.8788473730327340
  0.8810113226944480  0.8769494953112869  0.6366214607213152
  0.4451305976839066  0.7561944038409223  0.3779621703858425
  0.5529955907338291  0.8625481817440246  0.1189698366914413
  0.1211094885293420  0.7524638558838319  0.8674670819259731
  0.4475350431052263  0.7523074770555880  0.8737005669667752
  0.5604625745375813  0.8661109182432583  0.6305556036517146
  0.4489412482066228  0.0894807056577349  0.3623437389722142
  0.1127745581025152  0.0967610032835680  0.8516333489136230
  0.7809626934401521  0.0929993659631450  0.3599809896372150
  0.4494835669208399  0.0926214884195318  0.8601406560309712
  0.1241938716141888  0.4271811122001452  0.3588081199467226
  0.7687325074181146  0.4310793612328041  0.8663438705917841
  0.8869810954453712  0.5433151669483109  0.6081400891421538
  0.1197165659783153  0.4265895803972839  0.8661710035375094
  0.7689420085813339  0.4230439799850032  0.3615505730690671
  0.2251581514795049  0.8718033021255991  0.1176323508098704
  0.2274951778856789  0.8628026402415117  0.6087755265371868
  0.7743031071473254  0.7685791731672040  0.3578350504007517
  0.8932307281877954  0.8696637821231334  0.0966245409328153
  0.2166315199045030  0.1907236491727602  0.3363000097812829
  0.1053461495084420  0.1140548246899655  0.0732893302454514
  0.8800822332060960  0.1956260985051657  0.8272925653351066
  0.7766173387022874  0.0918748091918573  0.5865293984659488
  0.5409052623674171  0.2332450036914366  0.3235094319866718
  0.4438675089254431  0.0956867227055085  0.0908043894145507
  0.1008999671685231  0.1121875367570340  0.5923507103150030
  0.9118984717013348  0.1912126869124364  0.3217422133594354
  0.7653445391712310  0.1180095158092627  0.0817762360355445
  0.5582675463051956  0.2213433869741763  0.8262441181094076
  0.4473014362570638  0.0914900210168028  0.5995639152510392
  0.2323748633195351  0.5555602576956105  0.3252944966307822
  0.1169038441989017  0.4256938768507226  0.1009212756393865
  0.8871285187141922  0.5511254850099050  0.8326066648180159
  0.7663688963343915  0.4172233968101793  0.5928011318218083
  0.5315520225207209  0.5522561289018029  0.3230584764680842
  0.4436000465388830  0.4311937854454300  0.0733742743324228
  0.2344402710457132  0.5428472672317639  0.8230071891719390
  0.1340010761418853  0.4170140546331496  0.5928310954490286
  0.8903586725136421  0.5360852458600149  0.3399394659984196
  0.7747774621506949  0.4286087996949206  0.0983772361851649
  0.5355383548621830  0.5474543888491112  0.8238516858196192
  0.4437655104530407  0.4301473889653380  0.5761010515219311
  0.2215027267542666  0.8719174426188374  0.3562583618835191
  0.1277734425188157  0.7396325012550236  0.0640525929086166
  0.8821913024147889  0.8757165341327493  0.8439010295191522
  0.7665248752516192  0.7851277305208484  0.5826478070594874
  0.5413552293309252  0.8610841657576884  0.3161291563753039
  0.4594514226108828  0.7481684734264888  0.0709379079304071
  0.2312443627202185  0.8588931743889106  0.8360655558316878
  0.0963081400849219  0.7506070869710726  0.5846136443885328
  0.9118690047195273  0.8627042358565262  0.3166435768135685
  0.7698666533059537  0.7486990986613549  0.0841432355646319
  0.5617855553947990  0.8534538041441877  0.8312185721374306
  0.4692930164473594  0.7474002753109801  0.5766069320361282
 
  0.00000000E+00  0.00000000E+00  0.00000000E+00
  0.00000000E+00  0.00000000E+00  0.00000000E+00
  0.00000000E+00  0.00000000E+00  0.00000000E+00
  0.00000000E+00  0.00000000E+00  0.00000000E+00
  0.00000000E+00  0.00000000E+00  0.00000000E+00
  0.00000000E+00  0.00000000E+00  0.00000000E+00
  0.00000000E+00  0.00000000E+00  0.00000000E+00
  0.00000000E+00  0.00000000E+00  0.00000000E+00
  0.00000000E+00  0.00000000E+00  0.00000000E+00
  0.00000000E+00  0.00000000E+00  0.00000000E+00
  0.00000000E+00  0.00000000E+00  0.00000000E+00
  0.00000000E+00  0.00000000E+00  0.00000000E+00
  0.00000000E+00  0.00000000E+00  0.00000000E+00
  0.00000000E+00  0.00000000E+00  0.00000000E+00
  0.00000000E+00  0.00000000E+00  0.00000000E+00
  0.00000000E+00  0.00000000E+00  0.00000000E+00
  0.00000000E+00  0.00000000E+00  0.00000000E+00
  0.00000000E+00  0.00000000E+00  0.00000000E+00
  0.00000000E+00  0.00000000E+00  0.00000000E+00
  0.00000000E+00  0.00000000E+00  0.00000000E+00
  0.00000000E+00  0.00000000E+00  0.00000000E+00
  0.00000000E+00  0.00000000E+00  0.00000000E+00
  0.00000000E+00  0.00000000E+00  0.00000000E+00
  0.00000000E+00  0.00000000E+00  0.00000000E+00
  0.00000000E+00  0.00000000E+00  0.00000000E+00
  0.00000000E+00  0.00000000E+00  0.00000000E+00
  0.00000000E+00  0.00000000E+00  0.00000000E+00
  0.00000000E+00  0.00000000E+00  0.00000000E+00
  0.00000000E+00  0.00000000E+00  0.00000000E+00
  0.00000000E+00  0.00000000E+00  0.00000000E+00
  0.00000000E+00  0.00000000E+00  0.00000000E+00
  0.00000000E+00  0.00000000E+00  0.00000000E+00
  0.00000000E+00  0.00000000E+00  0.00000000E+00
  0.00000000E+00  0.00000000E+00  0.00000000E+00
  0.00000000E+00  0.00000000E+00  0.00000000E+00
  0.00000000E+00  0.00000000E+00  0.00000000E+00
  0.00000000E+00  0.00000000E+00  0.00000000E+00
  0.00000000E+00  0.00000000E+00  0.00000000E+00
  0.00000000E+00  0.00000000E+00  0.00000000E+00
  0.00000000E+00  0.00000000E+00  0.00000000E+00
  0.00000000E+00  0.00000000E+00  0.00000000E+00
  0.00000000E+00  0.00000000E+00  0.00000000E+00
  0.00000000E+00  0.00000000E+00  0.00000000E+00
  0.00000000E+00  0.00000000E+00  0.00000000E+00
  0.00000000E+00  0.00000000E+00  0.00000000E+00
  0.00000000E+00  0.00000000E+00  0.00000000E+00
  0.00000000E+00  0.00000000E+00  0.00000000E+00
  0.00000000E+00  0.00000000E+00  0.00000000E+00
  0.00000000E+00  0.00000000E+00  0.00000000E+00
  0.00000000E+00  0.00000000E+00  0.00000000E+00
  0.00000000E+00  0.00000000E+00  0.00000000E+00
  0.00000000E+00  0.00000000E+00  0.00000000E+00
  0.00000000E+00  0.00000000E+00  0.00000000E+00
  0.00000000E+00  0.00000000E+00  0.00000000E+00
  0.00000000E+00  0.00000000E+00  0.00000000E+00
  0.00000000E+00  0.00000000E+00  0.00000000E+00
  0.00000000E+00  0.00000000E+00  0.00000000E+00
  0.00000000E+00  0.00000000E+00  0.00000000E+00
  0.00000000E+00  0.00000000E+00  0.00000000E+00
  0.00000000E+00  0.00000000E+00  0.00000000E+00
  0.00000000E+00  0.00000000E+00  0.00000000E+00
  0.00000000E+00  0.00000000E+00  0.00000000E+00
  0.00000000E+00  0.00000000E+00  0.00000000E+00
  0.00000000E+00  0.00000000E+00  0.00000000E+00
  0.00000000E+00  0.00000000E+00  0.00000000E+00
  0.00000000E+00  0.00000000E+00  0.00000000E+00
  0.00000000E+00  0.00000000E+00  0.00000000E+00
  0.00000000E+00  0.00000000E+00  0.00000000E+00
  0.00000000E+00  0.00000000E+00  0.00000000E+00
  0.00000000E+00  0.00000000E+00  0.00000000E+00
  0.00000000E+00  0.00000000E+00  0.00000000E+00
