Al   Sc   N                             
   1.00000000000000     
   -10.0766391840995588    0.0072276164968131   -0.0085678651066457
    -5.0529751753103920    8.7508037803798935   -0.0067917799481473
    -0.0011075508940279   -0.0046277648562081   -9.6195602719160433
   Al   Sc   N 
    23    13    35
Direct
  0.1115442512723988  0.0913967521691887  0.3190441993539608
  0.2229419738594132  0.2071188144303662  0.0905634897234791
  0.7754842393792245  0.0930571054306171  0.8170273703311253
  0.8929878124580668  0.2055620372292353  0.5803009482992110
  0.5573291867120744  0.2167794308355369  0.0723023039346558
  0.2253721321690207  0.2026633200325278  0.5695920807921908
  0.8785623525744697  0.2094778541388749  0.0747754218273187
  0.5458609121176252  0.2182266384227631  0.5837022916406482
  0.2310079426534770  0.5365000472753891  0.0747097167604451
  0.4387745041736579  0.4383361440019158  0.3270225445734170
  0.5515693535994757  0.5392946771822693  0.0795378593191884
  0.2301709247038701  0.5383552630895281  0.5776746446104681
  0.8854039713870918  0.5413523297895395  0.0656810822786085
  0.4421687730468733  0.4371088721005947  0.8263158483657378
  0.5495580116523442  0.5377050487932280  0.5734156356114113
  0.1190440763773140  0.7567201457857777  0.3281040303444485
  0.7739564602588445  0.7696722500787700  0.8207704935078368
  0.8910947122514727  0.8710422981054080  0.5794093507866620
  0.4433591139793975  0.7574639904118357  0.3278341704623102
  0.5634392165149578  0.8555725105005152  0.0720725671255877
  0.1095036238220217  0.7580442284878970  0.8254478526356905
  0.4482344366802025  0.7515919194971801  0.8250639635852082
  0.5514674500822494  0.8713707789838452  0.5813193121509670
  0.4489390204464172  0.0909172849799234  0.3345201854226190
  0.1113144004024775  0.0968828151210062  0.8502008450807779
  0.7757695261121285  0.1006148522636749  0.3513956778003617
  0.4501665078679764  0.0901717836265021  0.8451836979563652
  0.1192084411825149  0.4301702763541186  0.3363974506578273
  0.7634241902823504  0.4275073253897475  0.8411698227727413
  0.8917637279675787  0.5355519087556644  0.6024075051708166
  0.1263968813530383  0.4227000469393616  0.8435159920662869
  0.7746235230950944  0.4259365042247012  0.3357333694254407
  0.2302452269093820  0.8619492817827847  0.0903300519086727
  0.2218189954573404  0.8732616074523065  0.5887675141058111
  0.7754339989278094  0.7580618094658220  0.3440904182050843
  0.8844507079353647  0.8750974604159509  0.0869718249628590
  0.2164753701368198  0.1934017533686472  0.3654992586378683
  0.1001827028182021  0.1115335204762076  0.1114073938000431
  0.8791865525939926  0.1913150506603714  0.8778841104029738
  0.7775591028003674  0.0950592798408820  0.6146342792205246
  0.5368446996880323  0.2341803554253872  0.3875667789233077
  0.4496120682306568  0.0911322897201430  0.1013120740843263
  0.1060123944726925  0.1161626088429770  0.6305398892065668
  0.9125737536099052  0.1945334629879127  0.3826995347087703
  0.7642686899599624  0.1161533116190370  0.1292871532035633
  0.5611361107089010  0.2198184268191383  0.8712241810482908
  0.4426024243512501  0.0939461437646258  0.6161118261299734
  0.2330663714452967  0.5521085506331502  0.3815451172233040
  0.1132425481812618  0.4275596898633580  0.1008653999389537
  0.8854116073736051  0.5533934648043441  0.8573677571402314
  0.7632677323691226  0.4178624328793958  0.6145219681330047
  0.5349639564146500  0.5496870794895585  0.3764404851147916
  0.4438716985085165  0.4280146136215421  0.1277333499259043
  0.2320097481005661  0.5485008637420492  0.8787571838927946
  0.1405871547570712  0.4127657109452585  0.6150577874919705
  0.8941111261498946  0.5320583068515461  0.3845525731807342
  0.7775143136386546  0.4286121260593774  0.1017697928865573
  0.5317158169163463  0.5499987333711118  0.8847308745970111
  0.4424083240889303  0.4338576386119328  0.6310859365183319
  0.2218785186023595  0.8741178388294202  0.3539755061018468
  0.1193012233887600  0.7397030198827679  0.1299631111240203
  0.8839732349111173  0.8761519955064188  0.8635351300846636
  0.7657509496098669  0.7830693393149275  0.6191166663514309
  0.5416217167452970  0.8624417281976378  0.3853012309932851
  0.4655669065901620  0.7479119668489105  0.1304540452368599
  0.2289232400006895  0.8576847753456605  0.8594413452733960
  0.1025678860508066  0.7503186314863086  0.6287988798535835
  0.9090753689344524  0.8625234370957884  0.3757092685144201
  0.7727671381602406  0.7485105337975213  0.1195972813341513
  0.5630313274472485  0.8511336041131230  0.8740937321210467
  0.4625214131699806  0.7479416765909335  0.6291299127949443
 
  0.00000000E+00  0.00000000E+00  0.00000000E+00
  0.00000000E+00  0.00000000E+00  0.00000000E+00
  0.00000000E+00  0.00000000E+00  0.00000000E+00
  0.00000000E+00  0.00000000E+00  0.00000000E+00
  0.00000000E+00  0.00000000E+00  0.00000000E+00
  0.00000000E+00  0.00000000E+00  0.00000000E+00
  0.00000000E+00  0.00000000E+00  0.00000000E+00
  0.00000000E+00  0.00000000E+00  0.00000000E+00
  0.00000000E+00  0.00000000E+00  0.00000000E+00
  0.00000000E+00  0.00000000E+00  0.00000000E+00
  0.00000000E+00  0.00000000E+00  0.00000000E+00
  0.00000000E+00  0.00000000E+00  0.00000000E+00
  0.00000000E+00  0.00000000E+00  0.00000000E+00
  0.00000000E+00  0.00000000E+00  0.00000000E+00
  0.00000000E+00  0.00000000E+00  0.00000000E+00
  0.00000000E+00  0.00000000E+00  0.00000000E+00
  0.00000000E+00  0.00000000E+00  0.00000000E+00
  0.00000000E+00  0.00000000E+00  0.00000000E+00
  0.00000000E+00  0.00000000E+00  0.00000000E+00
  0.00000000E+00  0.00000000E+00  0.00000000E+00
  0.00000000E+00  0.00000000E+00  0.00000000E+00
  0.00000000E+00  0.00000000E+00  0.00000000E+00
  0.00000000E+00  0.00000000E+00  0.00000000E+00
  0.00000000E+00  0.00000000E+00  0.00000000E+00
  0.00000000E+00  0.00000000E+00  0.00000000E+00
  0.00000000E+00  0.00000000E+00  0.00000000E+00
  0.00000000E+00  0.00000000E+00  0.00000000E+00
  0.00000000E+00  0.00000000E+00  0.00000000E+00
  0.00000000E+00  0.00000000E+00  0.00000000E+00
  0.00000000E+00  0.00000000E+00  0.00000000E+00
  0.00000000E+00  0.00000000E+00  0.00000000E+00
  0.00000000E+00  0.00000000E+00  0.00000000E+00
  0.00000000E+00  0.00000000E+00  0.00000000E+00
  0.00000000E+00  0.00000000E+00  0.00000000E+00
  0.00000000E+00  0.00000000E+00  0.00000000E+00
  0.00000000E+00  0.00000000E+00  0.00000000E+00
  0.00000000E+00  0.00000000E+00  0.00000000E+00
  0.00000000E+00  0.00000000E+00  0.00000000E+00
  0.00000000E+00  0.00000000E+00  0.00000000E+00
  0.00000000E+00  0.00000000E+00  0.00000000E+00
  0.00000000E+00  0.00000000E+00  0.00000000E+00
  0.00000000E+00  0.00000000E+00  0.00000000E+00
  0.00000000E+00  0.00000000E+00  0.00000000E+00
  0.00000000E+00  0.00000000E+00  0.00000000E+00
  0.00000000E+00  0.00000000E+00  0.00000000E+00
  0.00000000E+00  0.00000000E+00  0.00000000E+00
  0.00000000E+00  0.00000000E+00  0.00000000E+00
  0.00000000E+00  0.00000000E+00  0.00000000E+00
  0.00000000E+00  0.00000000E+00  0.00000000E+00
  0.00000000E+00  0.00000000E+00  0.00000000E+00
  0.00000000E+00  0.00000000E+00  0.00000000E+00
  0.00000000E+00  0.00000000E+00  0.00000000E+00
  0.00000000E+00  0.00000000E+00  0.00000000E+00
  0.00000000E+00  0.00000000E+00  0.00000000E+00
  0.00000000E+00  0.00000000E+00  0.00000000E+00
  0.00000000E+00  0.00000000E+00  0.00000000E+00
  0.00000000E+00  0.00000000E+00  0.00000000E+00
  0.00000000E+00  0.00000000E+00  0.00000000E+00
  0.00000000E+00  0.00000000E+00  0.00000000E+00
  0.00000000E+00  0.00000000E+00  0.00000000E+00
  0.00000000E+00  0.00000000E+00  0.00000000E+00
  0.00000000E+00  0.00000000E+00  0.00000000E+00
  0.00000000E+00  0.00000000E+00  0.00000000E+00
  0.00000000E+00  0.00000000E+00  0.00000000E+00
  0.00000000E+00  0.00000000E+00  0.00000000E+00
  0.00000000E+00  0.00000000E+00  0.00000000E+00
  0.00000000E+00  0.00000000E+00  0.00000000E+00
  0.00000000E+00  0.00000000E+00  0.00000000E+00
  0.00000000E+00  0.00000000E+00  0.00000000E+00
  0.00000000E+00  0.00000000E+00  0.00000000E+00
  0.00000000E+00  0.00000000E+00  0.00000000E+00
