Al   Sc   N                             
   1.00000000000000     
    -9.9298835632303319    0.0113710942230869   -0.0025656299754582
    -4.9758772117042618    8.6242838212433259   -0.0068200159254612
    -0.0017103061174805    0.0078457138561585  -10.0291417654399524
   Al   Sc   N 
    23    13    35
Direct
  0.1107049736321244  0.0946721230993504  0.4051801638001891
  0.2224986266495534  0.2026531648634418  0.1486517141414367
  0.7709631334634253  0.1027955400301153  0.8966938338891595
  0.8792080424363888  0.2059700905163169  0.6482372677402992
  0.5488103675723934  0.2184807450934230  0.1423498331767803
  0.2244307352853454  0.2081414053066482  0.6441174602135717
  0.8915118918657541  0.2088436584676643  0.1446426168912112
  0.5578175305048276  0.2128549514509857  0.6486202954375031
  0.2315408118900564  0.5400916938523821  0.1474952457823235
  0.4385390937378659  0.4396696052065323  0.3952516595214988
  0.5482859234593107  0.5418785708835046  0.1461184903853905
  0.2283989293661932  0.5354622865318461  0.6457990136646501
  0.8866626611618642  0.5369894222689382  0.1513967859878349
  0.4430115293188948  0.4350119113940494  0.8952105696048562
  0.5532503171855794  0.5354322441808179  0.6463183632375120
  0.1111414171314280  0.7583155679308504  0.4012986770273983
  0.7743297781469636  0.7571575918677453  0.8989861240079051
  0.8827478351781295  0.8754826509597180  0.6570597964137690
  0.4465994676686833  0.7562851365978887  0.3986510751622490
  0.5522064691919795  0.8654040370828682  0.1392395572002769
  0.1214231485079154  0.7537996895044685  0.8898727396466484
  0.4452544289058196  0.7526754640553150  0.8938648482246023
  0.5609681828151523  0.8646312248080861  0.6519508344029035
  0.4452747629491753  0.0908969497479077  0.3937594476990895
  0.1126481503140724  0.0922318363854373  0.8757380579655702
  0.7808602385569827  0.0926961054844782  0.3868223616483135
  0.4522741584289847  0.0901885368189426  0.8796991223021422
  0.1242013633059500  0.4246340419079431  0.3802453309137164
  0.7686610934782863  0.4308730247433985  0.8957465390792052
  0.8882534197202929  0.5408927412888076  0.6346695900193495
  0.1182376434063599  0.4294849317076554  0.8971229120616329
  0.7684912842377329  0.4241606992371700  0.3823611564244587
  0.2247601729166462  0.8729348099403680  0.1513884845498339
  0.2267297712236598  0.8634986704223024  0.6248660346792434
  0.7741719298400369  0.7689003769813212  0.3845010826160689
  0.8913847063141560  0.8709519998770361  0.1187473468095845
  0.2177394004881208  0.1883941882126337  0.3372185782200177
  0.1046563954271846  0.1125534658883893  0.0850252582419913
  0.8796981586119799  0.1975818744876392  0.8357653294556044
  0.7774451956876476  0.0913713798341362  0.6013512023124150
  0.5408131650073003  0.2305114488352942  0.3329321304889206
  0.4442812628937745  0.0952233294730931  0.0965236663973030
  0.1002723898926661  0.1156315274623196  0.6021118364500708
  0.9122766318328743  0.1900467280591158  0.3328500787787760
  0.7654038694793854  0.1194747958610449  0.0891359877760962
  0.5593424479572775  0.2216104390329150  0.8384533599552668
  0.4462596578447204  0.0920188977365584  0.6182490732028967
  0.2319422625486851  0.5553926685726722  0.3355661708229007
  0.1156157185218802  0.4276448710355041  0.1146936248764803
  0.8879359217285128  0.5493435968845830  0.8451306761408688
  0.7665988891673265  0.4170186139027265  0.5995213977290916
  0.5298463028219658  0.5536888010311571  0.3333192359904089
  0.4432529697360650  0.4308642219721008  0.0852142796556521
  0.2331935278082256  0.5432286874243530  0.8343700288235851
  0.1342041323671168  0.4166900741842809  0.5995667773557969
  0.8894231594694162  0.5377555029874515  0.3446083656058789
  0.7741609226082034  0.4291710250337388  0.1135566921989550
  0.5369765117543395  0.5466674421981068  0.8349917152258683
  0.4439346187925679  0.4294977083027263  0.5871587736730888
  0.2213160292346004  0.8726835365738239  0.3768311580569730
  0.1295726402847208  0.7415993688873073  0.0770869524644908
  0.8845814085390700  0.8742613732180473  0.8566139573711880
  0.7671014065538699  0.7844956028189500  0.5965965102388253
  0.5408483957705812  0.8634405774144369  0.3271165044615572
  0.4565593520452964  0.7509441147789673  0.0825565071417671
  0.2320274713260631  0.8560404798634025  0.8400476462693476
  0.0951858821484564  0.7487548509255788  0.5929016008925814
  0.9113624718026543  0.8631082804641395  0.3277985050974266
  0.7683814473620387  0.7488795634786385  0.0918992786025754
  0.5629559517237581  0.8504708886508183  0.8414437380140996
  0.4721892885103856  0.7459715229557702  0.5868396107785472
 
  0.00000000E+00  0.00000000E+00  0.00000000E+00
  0.00000000E+00  0.00000000E+00  0.00000000E+00
  0.00000000E+00  0.00000000E+00  0.00000000E+00
  0.00000000E+00  0.00000000E+00  0.00000000E+00
  0.00000000E+00  0.00000000E+00  0.00000000E+00
  0.00000000E+00  0.00000000E+00  0.00000000E+00
  0.00000000E+00  0.00000000E+00  0.00000000E+00
  0.00000000E+00  0.00000000E+00  0.00000000E+00
  0.00000000E+00  0.00000000E+00  0.00000000E+00
  0.00000000E+00  0.00000000E+00  0.00000000E+00
  0.00000000E+00  0.00000000E+00  0.00000000E+00
  0.00000000E+00  0.00000000E+00  0.00000000E+00
  0.00000000E+00  0.00000000E+00  0.00000000E+00
  0.00000000E+00  0.00000000E+00  0.00000000E+00
  0.00000000E+00  0.00000000E+00  0.00000000E+00
  0.00000000E+00  0.00000000E+00  0.00000000E+00
  0.00000000E+00  0.00000000E+00  0.00000000E+00
  0.00000000E+00  0.00000000E+00  0.00000000E+00
  0.00000000E+00  0.00000000E+00  0.00000000E+00
  0.00000000E+00  0.00000000E+00  0.00000000E+00
  0.00000000E+00  0.00000000E+00  0.00000000E+00
  0.00000000E+00  0.00000000E+00  0.00000000E+00
  0.00000000E+00  0.00000000E+00  0.00000000E+00
  0.00000000E+00  0.00000000E+00  0.00000000E+00
  0.00000000E+00  0.00000000E+00  0.00000000E+00
  0.00000000E+00  0.00000000E+00  0.00000000E+00
  0.00000000E+00  0.00000000E+00  0.00000000E+00
  0.00000000E+00  0.00000000E+00  0.00000000E+00
  0.00000000E+00  0.00000000E+00  0.00000000E+00
  0.00000000E+00  0.00000000E+00  0.00000000E+00
  0.00000000E+00  0.00000000E+00  0.00000000E+00
  0.00000000E+00  0.00000000E+00  0.00000000E+00
  0.00000000E+00  0.00000000E+00  0.00000000E+00
  0.00000000E+00  0.00000000E+00  0.00000000E+00
  0.00000000E+00  0.00000000E+00  0.00000000E+00
  0.00000000E+00  0.00000000E+00  0.00000000E+00
  0.00000000E+00  0.00000000E+00  0.00000000E+00
  0.00000000E+00  0.00000000E+00  0.00000000E+00
  0.00000000E+00  0.00000000E+00  0.00000000E+00
  0.00000000E+00  0.00000000E+00  0.00000000E+00
  0.00000000E+00  0.00000000E+00  0.00000000E+00
  0.00000000E+00  0.00000000E+00  0.00000000E+00
  0.00000000E+00  0.00000000E+00  0.00000000E+00
  0.00000000E+00  0.00000000E+00  0.00000000E+00
  0.00000000E+00  0.00000000E+00  0.00000000E+00
  0.00000000E+00  0.00000000E+00  0.00000000E+00
  0.00000000E+00  0.00000000E+00  0.00000000E+00
  0.00000000E+00  0.00000000E+00  0.00000000E+00
  0.00000000E+00  0.00000000E+00  0.00000000E+00
  0.00000000E+00  0.00000000E+00  0.00000000E+00
  0.00000000E+00  0.00000000E+00  0.00000000E+00
  0.00000000E+00  0.00000000E+00  0.00000000E+00
  0.00000000E+00  0.00000000E+00  0.00000000E+00
  0.00000000E+00  0.00000000E+00  0.00000000E+00
  0.00000000E+00  0.00000000E+00  0.00000000E+00
  0.00000000E+00  0.00000000E+00  0.00000000E+00
  0.00000000E+00  0.00000000E+00  0.00000000E+00
  0.00000000E+00  0.00000000E+00  0.00000000E+00
  0.00000000E+00  0.00000000E+00  0.00000000E+00
  0.00000000E+00  0.00000000E+00  0.00000000E+00
  0.00000000E+00  0.00000000E+00  0.00000000E+00
  0.00000000E+00  0.00000000E+00  0.00000000E+00
  0.00000000E+00  0.00000000E+00  0.00000000E+00
  0.00000000E+00  0.00000000E+00  0.00000000E+00
  0.00000000E+00  0.00000000E+00  0.00000000E+00
  0.00000000E+00  0.00000000E+00  0.00000000E+00
  0.00000000E+00  0.00000000E+00  0.00000000E+00
  0.00000000E+00  0.00000000E+00  0.00000000E+00
  0.00000000E+00  0.00000000E+00  0.00000000E+00
  0.00000000E+00  0.00000000E+00  0.00000000E+00
  0.00000000E+00  0.00000000E+00  0.00000000E+00
