Al   Sc   N                             
   1.00000000000000     
   -10.2221267537493912    0.0077565711001672   -0.0078016223239409
    -5.1214662875885253    8.8722200220834431   -0.0067953845409959
     0.0005599229465171    0.0016687901811139   -9.2126735948850449
   Al   Sc   N 
    23    13    35
Direct
  0.1105360835329279  0.0899313793009924  0.3277730125972127
  0.2222323116685700  0.2059566602662883  0.1144399631078556
  0.7752122790597014  0.0943845343957221  0.8249908966545547
  0.8915398542244333  0.2050510320685319  0.5872506036824205
  0.5560836644789759  0.2163380501122845  0.0744350042418560
  0.2250830937791832  0.2021972750811116  0.5719981628563744
  0.8801348329028045  0.2095149288506661  0.0788044039051243
  0.5476387246858465  0.2191718122427488  0.5919918652368921
  0.2317838374570940  0.5353020914376359  0.0791840853110770
  0.4390918711436385  0.4369602073313814  0.3299315297010494
  0.5509370730023377  0.5398920506712344  0.0877703178758011
  0.2303186020766006  0.5390188747123332  0.5827545075740161
  0.8866065819605637  0.5397490010209793  0.0772877309859226
  0.4425182155418881  0.4376184884493668  0.8308310349892878
  0.5487764535305075  0.5382417404653381  0.5747933724916123
  0.1180648105238902  0.7571009245196052  0.3315584593153886
  0.7742671453177792  0.7672258412138433  0.8314959625919371
  0.8902634661558793  0.8715448453744727  0.5918094790935129
  0.4432264437219828  0.7581098568063496  0.3323037548073771
  0.5611742023516584  0.8583405986116759  0.0760912434223684
  0.1117219400390042  0.7563198935777535  0.8324779973610887
  0.4483361045035110  0.7511404549151166  0.8298221309345024
  0.5523106034124439  0.8691101217725077  0.5880560579683589
  0.4520926573782944  0.0901431686570504  0.3443461528640555
  0.1124107117234132  0.0988550418076599  0.8525414598351375
  0.7756509131454408  0.1000320234558103  0.3540548958348424
  0.4467815650933176  0.0917527732994259  0.8479154904878499
  0.1196465128175745  0.4317537932447024  0.3447392880297215
  0.7630443986933884  0.4298677078980901  0.8460556117830649
  0.8909332408337676  0.5371414380345669  0.6041234046940289
  0.1260055727692446  0.4208072652416845  0.8490629112492769
  0.7743354221990941  0.4250222255512668  0.3432998349775076
  0.2297085280319422  0.8637840813987410  0.0944241467155891
  0.2222353014421117  0.8708166222395661  0.5951144158443640
  0.7747855163324218  0.7606732490518340  0.3483253678672256
  0.8861690754845029  0.8745667954545056  0.0913656096900652
  0.2177024992868866  0.1932675391315826  0.3501106660760769
  0.0998115245999500  0.1107348405254527  0.1079798138210535
  0.8805787918023000  0.1943535801923559  0.8683882367440177
  0.7772999305602966  0.0951985063342562  0.6133221112763962
  0.5392487779251169  0.2336743428090458  0.3841647667400920
  0.4495223675847271  0.0919648780541564  0.1005801843390586
  0.1071005431779213  0.1139313365429757  0.6198160806551698
  0.9101984382208101  0.1940963362254706  0.3766968957628194
  0.7644917235111706  0.1151946190439688  0.1181503335773186
  0.5593726359858806  0.2194541559928425  0.8617053050790844
  0.4415269503361188  0.0938042222494175  0.6089719608793445
  0.2335110467473527  0.5523234867713001  0.3751252304915624
  0.1151477952251057  0.4260918483772329  0.1011576667332790
  0.8867029185981394  0.5512510324704039  0.8564797885469133
  0.7633165369624137  0.4197885606012122  0.6070042356377741
  0.5347718390837173  0.5493056462684294  0.3666664329511988
  0.4442184067723787  0.4265954744006137  0.1215884397897184
  0.2324818790993106  0.5454840183222700  0.8722467231794937
  0.1389082968632849  0.4129138590796586  0.6065251277253125
  0.8931140973732710  0.5341667232541738  0.3716598336444363
  0.7773655161597546  0.4278812690388349  0.1014811998227501
  0.5329799632377998  0.5493587097886348  0.8816831525081312
  0.4422359272633685  0.4354769210406104  0.6259939775168917
  0.2218641498857323  0.8731336557643843  0.3524966586598239
  0.1204928722364897  0.7404166330889623  0.1201172657045930
  0.8850329490861952  0.8757535978729223  0.8555015907159955
  0.7663973766950036  0.7809715028846256  0.6156429426538850
  0.5428838720073941  0.8618465085756455  0.3795878265511377
  0.4634061887042620  0.7502641109169232  0.1241227358250043
  0.2289800602685261  0.8592730549543077  0.8544453124886999
  0.1029925609756575  0.7497682964474919  0.6246671911685198
  0.9083108591787692  0.8636967287257136  0.3681608821381630
  0.7718163918719725  0.7511246097952125  0.1093046470755183
  0.5606315220301354  0.8535666896209904  0.8664488091280234
  0.4619189234375796  0.7468352315675730  0.6228762777691585
 
  0.00000000E+00  0.00000000E+00  0.00000000E+00
  0.00000000E+00  0.00000000E+00  0.00000000E+00
  0.00000000E+00  0.00000000E+00  0.00000000E+00
  0.00000000E+00  0.00000000E+00  0.00000000E+00
  0.00000000E+00  0.00000000E+00  0.00000000E+00
  0.00000000E+00  0.00000000E+00  0.00000000E+00
  0.00000000E+00  0.00000000E+00  0.00000000E+00
  0.00000000E+00  0.00000000E+00  0.00000000E+00
  0.00000000E+00  0.00000000E+00  0.00000000E+00
  0.00000000E+00  0.00000000E+00  0.00000000E+00
  0.00000000E+00  0.00000000E+00  0.00000000E+00
  0.00000000E+00  0.00000000E+00  0.00000000E+00
  0.00000000E+00  0.00000000E+00  0.00000000E+00
  0.00000000E+00  0.00000000E+00  0.00000000E+00
  0.00000000E+00  0.00000000E+00  0.00000000E+00
  0.00000000E+00  0.00000000E+00  0.00000000E+00
  0.00000000E+00  0.00000000E+00  0.00000000E+00
  0.00000000E+00  0.00000000E+00  0.00000000E+00
  0.00000000E+00  0.00000000E+00  0.00000000E+00
  0.00000000E+00  0.00000000E+00  0.00000000E+00
  0.00000000E+00  0.00000000E+00  0.00000000E+00
  0.00000000E+00  0.00000000E+00  0.00000000E+00
  0.00000000E+00  0.00000000E+00  0.00000000E+00
  0.00000000E+00  0.00000000E+00  0.00000000E+00
  0.00000000E+00  0.00000000E+00  0.00000000E+00
  0.00000000E+00  0.00000000E+00  0.00000000E+00
  0.00000000E+00  0.00000000E+00  0.00000000E+00
  0.00000000E+00  0.00000000E+00  0.00000000E+00
  0.00000000E+00  0.00000000E+00  0.00000000E+00
  0.00000000E+00  0.00000000E+00  0.00000000E+00
  0.00000000E+00  0.00000000E+00  0.00000000E+00
  0.00000000E+00  0.00000000E+00  0.00000000E+00
  0.00000000E+00  0.00000000E+00  0.00000000E+00
  0.00000000E+00  0.00000000E+00  0.00000000E+00
  0.00000000E+00  0.00000000E+00  0.00000000E+00
  0.00000000E+00  0.00000000E+00  0.00000000E+00
  0.00000000E+00  0.00000000E+00  0.00000000E+00
  0.00000000E+00  0.00000000E+00  0.00000000E+00
  0.00000000E+00  0.00000000E+00  0.00000000E+00
  0.00000000E+00  0.00000000E+00  0.00000000E+00
  0.00000000E+00  0.00000000E+00  0.00000000E+00
  0.00000000E+00  0.00000000E+00  0.00000000E+00
  0.00000000E+00  0.00000000E+00  0.00000000E+00
  0.00000000E+00  0.00000000E+00  0.00000000E+00
  0.00000000E+00  0.00000000E+00  0.00000000E+00
  0.00000000E+00  0.00000000E+00  0.00000000E+00
  0.00000000E+00  0.00000000E+00  0.00000000E+00
  0.00000000E+00  0.00000000E+00  0.00000000E+00
  0.00000000E+00  0.00000000E+00  0.00000000E+00
  0.00000000E+00  0.00000000E+00  0.00000000E+00
  0.00000000E+00  0.00000000E+00  0.00000000E+00
  0.00000000E+00  0.00000000E+00  0.00000000E+00
  0.00000000E+00  0.00000000E+00  0.00000000E+00
  0.00000000E+00  0.00000000E+00  0.00000000E+00
  0.00000000E+00  0.00000000E+00  0.00000000E+00
  0.00000000E+00  0.00000000E+00  0.00000000E+00
  0.00000000E+00  0.00000000E+00  0.00000000E+00
  0.00000000E+00  0.00000000E+00  0.00000000E+00
  0.00000000E+00  0.00000000E+00  0.00000000E+00
  0.00000000E+00  0.00000000E+00  0.00000000E+00
  0.00000000E+00  0.00000000E+00  0.00000000E+00
  0.00000000E+00  0.00000000E+00  0.00000000E+00
  0.00000000E+00  0.00000000E+00  0.00000000E+00
  0.00000000E+00  0.00000000E+00  0.00000000E+00
  0.00000000E+00  0.00000000E+00  0.00000000E+00
  0.00000000E+00  0.00000000E+00  0.00000000E+00
  0.00000000E+00  0.00000000E+00  0.00000000E+00
  0.00000000E+00  0.00000000E+00  0.00000000E+00
  0.00000000E+00  0.00000000E+00  0.00000000E+00
  0.00000000E+00  0.00000000E+00  0.00000000E+00
  0.00000000E+00  0.00000000E+00  0.00000000E+00
