Al   Sc   N                             
   1.00000000000000     
    -9.9268422506564029    0.0064341845917820   -0.0097172292807028
    -4.9675292623657059    8.6238357233065202   -0.0067863730588744
    -0.0137835589862620    0.0007510606963969  -10.0255904580425454
   Al   Sc   N 
    23    13    35
Direct
  0.1115060147490254  0.0949558834187343  0.3119409891091891
  0.2220741936362174  0.2063587129783997  0.0653558108143599
  0.7760136206068040  0.0939303390251567  0.8071172748572906
  0.8904796148663223  0.2067587081717761  0.5682961221192642
  0.5573383291127953  0.2170945715176202  0.0628157226282084
  0.2261688917920637  0.2040547433339199  0.5635632410333642
  0.8811345323579545  0.2085341303180286  0.0647936443345003
  0.5469560828286504  0.2155302600916400  0.5720143385321563
  0.2309003279823543  0.5375906415344360  0.0639090409831340
  0.4387723426569963  0.4378943711515504  0.3197143804733500
  0.5511857715994708  0.5394329634401487  0.0666084811556331
  0.2294609013403672  0.5365965193100308  0.5683491541750882
  0.8845157850869185  0.5421908478919235  0.0526061465220806
  0.4421427698970177  0.4370815763549842  0.8154927539400703
  0.5512113246297048  0.5370163750713672  0.5660560458811688
  0.1180583231810672  0.7557802270072003  0.3192712193619514
  0.7734013084707811  0.7688171036753531  0.8096121518589356
  0.8905337717223603  0.8712119957036819  0.5717446440694118
  0.4448303108746146  0.7568357410513542  0.3178395422549727
  0.5630275567062739  0.8559218168640612  0.0610632736141881
  0.1112063228949935  0.7590137826082568  0.8135147029737553
  0.4465795525155372  0.7528415727972373  0.8150136510848469
  0.5519343860883481  0.8726768347959251  0.5710643927758170
  0.4454398818031962  0.0919245337767052  0.3172220534035475
  0.1123511544054665  0.0938003017282512  0.8316909200680982
  0.7769912275888089  0.0985006043569996  0.3378344669443152
  0.4526688411845754  0.0895567220441436  0.8338008914223920
  0.1186121112755956  0.4286825194211730  0.3157454892057387
  0.7646145155771080  0.4263265054704490  0.8304764216767779
  0.8922488864275451  0.5347492915841769  0.5881914592338049
  0.1243589568530012  0.4259046902188217  0.8332996892878271
  0.7735493828818960  0.4272910413900775  0.3170433915739466
  0.2289689097453476  0.8639887267199384  0.0822084181925860
  0.2226718514897996  0.8724863619485461  0.5686164272336072
  0.7766680157215617  0.7583827265260723  0.3289694283930302
  0.8847962748025822  0.8752271452858409  0.0686299330095395
  0.2161335419410548  0.1957714544626228  0.3722842370271380
  0.1000688578146978  0.1141761251105322  0.1140930364585486
  0.8820981238891505  0.1884094083732819  0.8774486236620902
  0.7767278908830875  0.0959141976434097  0.6124775070776920
  0.5369150861025958  0.2312171435836419  0.3833914143088251
  0.4481589685012182  0.0915162349121843  0.0936017521306454
  0.1048713630358478  0.1137853374436304  0.6232182457808477
  0.9101711126456706  0.1976114848385109  0.3794746223972965
  0.7654604633367441  0.1149661814014209  0.1253326358250106
  0.5623280631698719  0.2210989162158654  0.8705177148700542
  0.4433701216351906  0.0937575918732989  0.6168382993095349
  0.2315850703035025  0.5498106988462510  0.3795835059240531
  0.1131906750421905  0.4271287742489136  0.0912269119780618
  0.8837937829029485  0.5547223066274398  0.8561970796175160
  0.7638213021420484  0.4172917518996471  0.6159840220985089
  0.5360095819491093  0.5492727026680626  0.3765516431956613
  0.4435807798440052  0.4286598508348334  0.1260323088202426
  0.2324412557795412  0.5507588190105821  0.8763223071180448
  0.1398401916961376  0.4129973869344923  0.6193000089947702
  0.8945921707866660  0.5312282616608144  0.3795098899305316
  0.7770287176249226  0.4288983717815853  0.0944686192350588
  0.5311141240946711  0.5507137455054405  0.8801072113291610
  0.4429743207828736  0.4318869865321844  0.6269490379209515
  0.2220557286819229  0.8744031122724323  0.3468386631266043
  0.1172174703942872  0.7392666668183594  0.1302452638550307
  0.8845654469496509  0.8756782641566758  0.8562347005572803
  0.7654522538812856  0.7824369829507205  0.6185426849613194
  0.5420992334040520  0.8638296569048833  0.3828240664372302
  0.4671574271894912  0.7467893108755419  0.1286066409271953
  0.2293802085841179  0.8570174587093575  0.8620208037407835
  0.1045295403729227  0.7501069291813067  0.6253441069606325
  0.9100198413244840  0.8611775432666846  0.3793427654043242
  0.7730069764323275  0.7492191968475694  0.1148488246720589
  0.5630937201636144  0.8503457223770070  0.8719437396670671
  0.4616659782399637  0.7492879296259787  0.6265474676184866
 
  0.00000000E+00  0.00000000E+00  0.00000000E+00
  0.00000000E+00  0.00000000E+00  0.00000000E+00
  0.00000000E+00  0.00000000E+00  0.00000000E+00
  0.00000000E+00  0.00000000E+00  0.00000000E+00
  0.00000000E+00  0.00000000E+00  0.00000000E+00
  0.00000000E+00  0.00000000E+00  0.00000000E+00
  0.00000000E+00  0.00000000E+00  0.00000000E+00
  0.00000000E+00  0.00000000E+00  0.00000000E+00
  0.00000000E+00  0.00000000E+00  0.00000000E+00
  0.00000000E+00  0.00000000E+00  0.00000000E+00
  0.00000000E+00  0.00000000E+00  0.00000000E+00
  0.00000000E+00  0.00000000E+00  0.00000000E+00
  0.00000000E+00  0.00000000E+00  0.00000000E+00
  0.00000000E+00  0.00000000E+00  0.00000000E+00
  0.00000000E+00  0.00000000E+00  0.00000000E+00
  0.00000000E+00  0.00000000E+00  0.00000000E+00
  0.00000000E+00  0.00000000E+00  0.00000000E+00
  0.00000000E+00  0.00000000E+00  0.00000000E+00
  0.00000000E+00  0.00000000E+00  0.00000000E+00
  0.00000000E+00  0.00000000E+00  0.00000000E+00
  0.00000000E+00  0.00000000E+00  0.00000000E+00
  0.00000000E+00  0.00000000E+00  0.00000000E+00
  0.00000000E+00  0.00000000E+00  0.00000000E+00
  0.00000000E+00  0.00000000E+00  0.00000000E+00
  0.00000000E+00  0.00000000E+00  0.00000000E+00
  0.00000000E+00  0.00000000E+00  0.00000000E+00
  0.00000000E+00  0.00000000E+00  0.00000000E+00
  0.00000000E+00  0.00000000E+00  0.00000000E+00
  0.00000000E+00  0.00000000E+00  0.00000000E+00
  0.00000000E+00  0.00000000E+00  0.00000000E+00
  0.00000000E+00  0.00000000E+00  0.00000000E+00
  0.00000000E+00  0.00000000E+00  0.00000000E+00
  0.00000000E+00  0.00000000E+00  0.00000000E+00
  0.00000000E+00  0.00000000E+00  0.00000000E+00
  0.00000000E+00  0.00000000E+00  0.00000000E+00
  0.00000000E+00  0.00000000E+00  0.00000000E+00
  0.00000000E+00  0.00000000E+00  0.00000000E+00
  0.00000000E+00  0.00000000E+00  0.00000000E+00
  0.00000000E+00  0.00000000E+00  0.00000000E+00
  0.00000000E+00  0.00000000E+00  0.00000000E+00
  0.00000000E+00  0.00000000E+00  0.00000000E+00
  0.00000000E+00  0.00000000E+00  0.00000000E+00
  0.00000000E+00  0.00000000E+00  0.00000000E+00
  0.00000000E+00  0.00000000E+00  0.00000000E+00
  0.00000000E+00  0.00000000E+00  0.00000000E+00
  0.00000000E+00  0.00000000E+00  0.00000000E+00
  0.00000000E+00  0.00000000E+00  0.00000000E+00
  0.00000000E+00  0.00000000E+00  0.00000000E+00
  0.00000000E+00  0.00000000E+00  0.00000000E+00
  0.00000000E+00  0.00000000E+00  0.00000000E+00
  0.00000000E+00  0.00000000E+00  0.00000000E+00
  0.00000000E+00  0.00000000E+00  0.00000000E+00
  0.00000000E+00  0.00000000E+00  0.00000000E+00
  0.00000000E+00  0.00000000E+00  0.00000000E+00
  0.00000000E+00  0.00000000E+00  0.00000000E+00
  0.00000000E+00  0.00000000E+00  0.00000000E+00
  0.00000000E+00  0.00000000E+00  0.00000000E+00
  0.00000000E+00  0.00000000E+00  0.00000000E+00
  0.00000000E+00  0.00000000E+00  0.00000000E+00
  0.00000000E+00  0.00000000E+00  0.00000000E+00
  0.00000000E+00  0.00000000E+00  0.00000000E+00
  0.00000000E+00  0.00000000E+00  0.00000000E+00
  0.00000000E+00  0.00000000E+00  0.00000000E+00
  0.00000000E+00  0.00000000E+00  0.00000000E+00
  0.00000000E+00  0.00000000E+00  0.00000000E+00
  0.00000000E+00  0.00000000E+00  0.00000000E+00
  0.00000000E+00  0.00000000E+00  0.00000000E+00
  0.00000000E+00  0.00000000E+00  0.00000000E+00
  0.00000000E+00  0.00000000E+00  0.00000000E+00
  0.00000000E+00  0.00000000E+00  0.00000000E+00
  0.00000000E+00  0.00000000E+00  0.00000000E+00
