Al   Sc   N                             
   1.00000000000000     
   -10.3433612227301772    0.0090789576085525   -0.0058860153671789
    -5.1770644422982208    8.9852825911452801   -0.0068043960231173
     0.0091075867872603    0.0118167639147572   -8.8637028835099301
   Al   Sc   N 
    23    13    35
Direct
  0.1110406897056393  0.0906593572488319  0.3545641639408501
  0.2217088297889518  0.2051967903245782  0.1236372568820912
  0.7713514408567121  0.0991681180638153  0.8532594698813725
  0.8852946432840767  0.2044566012284150  0.6152356764617011
  0.5510745580342373  0.2199625845695863  0.1118457887809967
  0.2248299043474589  0.2027381037163067  0.5789013846033058
  0.8872623900598384  0.2085201839273410  0.1066465917722823
  0.5532602031492218  0.2149939630095332  0.6116846248158652
  0.2329000932990155  0.5371218669597013  0.1094076560497541
  0.4386946904339624  0.4397207078201646  0.3703206033227531
  0.5494457479392523  0.5395495375447652  0.1167210818272437
  0.2291695526456650  0.5365967190812881  0.6168255553731683
  0.8870142527240787  0.5381570315235678  0.0980869453300315
  0.4443333656645905  0.4333022623593266  0.8624951443910476
  0.5504189369657979  0.5387608204463916  0.6148821896327448
  0.1148802753648823  0.7582606179590243  0.3652346323556372
  0.7748672983776217  0.7624358770902759  0.8566446939558503
  0.8859011224926405  0.8740488965772357  0.6164847799420130
  0.4445109195667101  0.7565730043789856  0.3662926473529353
  0.5564421457626949  0.8598735754663167  0.1035036942452834
  0.1162334178192808  0.7544913968530906  0.8540732091620384
  0.4476688996799112  0.7526331073995962  0.8632785448733742
  0.5558012229969052  0.8685216450490785  0.6230125773448236
  0.4515206241012422  0.0880671253155896  0.3515307303392490
  0.1134939836862827  0.0996655907170734  0.8525553617509658
  0.7785567895026375  0.0962507908508954  0.3562575897788420
  0.4459330920530888  0.0956986690210044  0.8549683158304404
  0.1202457620871229  0.4311773512856334  0.3505350720653908
  0.7666897660870902  0.4294318654970297  0.8564129540534182
  0.8892720002198828  0.5398282234240241  0.6057966528483192
  0.1239450631658414  0.4212093025474388  0.8560938933540214
  0.7712436178778148  0.4253509765685735  0.3528227859379456
  0.2276929343123300  0.8666689330118089  0.1038335101253836
  0.2246974444747067  0.8679676904970037  0.6036934882301495
  0.7734445848479439  0.7646971573674222  0.3519479428374552
  0.8911166653611033  0.8717323754088184  0.0942750050617036
  0.2183294595716276  0.1939282287673905  0.3502969625445616
  0.1056051599549690  0.1101068719678509  0.0999171927467870
  0.8841345650688694  0.1955435389323412  0.8455942612885323
  0.7762510556265383  0.0947529346802654  0.6061421364653157
  0.5421944584271472  0.2314622085118216  0.3439741965050800
  0.4433082944410600  0.0985018343947388  0.0983321268558157
  0.1031979313176379  0.1112655111168124  0.5976481930494018
  0.9061598907987616  0.1948459747838882  0.3404644131031702
  0.7653259349902939  0.1139382416382375  0.0906500766379565
  0.5569027289328616  0.2199581294323778  0.8367701801103067
  0.4440104955490227  0.0910620297431990  0.6021246315995583
  0.2322722144065494  0.5521754507911680  0.3389432112018937
  0.1189451554798779  0.4231892056298463  0.1013805625334356
  0.8880690847984312  0.5482505402862046  0.8556118257436154
  0.7670251746127335  0.4191695587516762  0.6015137012118856
  0.5346432056786981  0.5496724023097457  0.3383340805868116
  0.4452495425104743  0.4300519403569680  0.0844567214888556
  0.2333792829554682  0.5423397227676290  0.8404184356831266
  0.1349842187364487  0.4142537010179055  0.6020488098987755
  0.8910527600771800  0.5368711758624301  0.3500491412758535
  0.7741294485195809  0.4282332460063714  0.1009784793577211
  0.5362105564073261  0.5474930418264847  0.8356053878336382
  0.4425030871283369  0.4320862669597361  0.5913254356633004
  0.2220466198894542  0.8709530001717454  0.3527107412944801
  0.1217836783876507  0.7420877781229578  0.0815783516105526
  0.8857332009487493  0.8747959885817380  0.8428197820697108
  0.7665955504085247  0.7794171307977180  0.6058031906494321
  0.5436625216202771  0.8608896729038094  0.3280761032744905
  0.4601356268683574  0.7467076626005635  0.0839908844644768
  0.2294989501011457  0.8620531943528391  0.8478127899995229
  0.1024890437758970  0.7503245359877440  0.6012194964648288
  0.9070990592593304  0.8644040530364379  0.3465674490234747
  0.7711775215105519  0.7533044170845855  0.0899303734556867
  0.5586873313439682  0.8576513024336379  0.8473171048410748
  0.4632439939768958  0.7511700643095978  0.5899248250505380
 
  0.00000000E+00  0.00000000E+00  0.00000000E+00
  0.00000000E+00  0.00000000E+00  0.00000000E+00
  0.00000000E+00  0.00000000E+00  0.00000000E+00
  0.00000000E+00  0.00000000E+00  0.00000000E+00
  0.00000000E+00  0.00000000E+00  0.00000000E+00
  0.00000000E+00  0.00000000E+00  0.00000000E+00
  0.00000000E+00  0.00000000E+00  0.00000000E+00
  0.00000000E+00  0.00000000E+00  0.00000000E+00
  0.00000000E+00  0.00000000E+00  0.00000000E+00
  0.00000000E+00  0.00000000E+00  0.00000000E+00
  0.00000000E+00  0.00000000E+00  0.00000000E+00
  0.00000000E+00  0.00000000E+00  0.00000000E+00
  0.00000000E+00  0.00000000E+00  0.00000000E+00
  0.00000000E+00  0.00000000E+00  0.00000000E+00
  0.00000000E+00  0.00000000E+00  0.00000000E+00
  0.00000000E+00  0.00000000E+00  0.00000000E+00
  0.00000000E+00  0.00000000E+00  0.00000000E+00
  0.00000000E+00  0.00000000E+00  0.00000000E+00
  0.00000000E+00  0.00000000E+00  0.00000000E+00
  0.00000000E+00  0.00000000E+00  0.00000000E+00
  0.00000000E+00  0.00000000E+00  0.00000000E+00
  0.00000000E+00  0.00000000E+00  0.00000000E+00
  0.00000000E+00  0.00000000E+00  0.00000000E+00
  0.00000000E+00  0.00000000E+00  0.00000000E+00
  0.00000000E+00  0.00000000E+00  0.00000000E+00
  0.00000000E+00  0.00000000E+00  0.00000000E+00
  0.00000000E+00  0.00000000E+00  0.00000000E+00
  0.00000000E+00  0.00000000E+00  0.00000000E+00
  0.00000000E+00  0.00000000E+00  0.00000000E+00
  0.00000000E+00  0.00000000E+00  0.00000000E+00
  0.00000000E+00  0.00000000E+00  0.00000000E+00
  0.00000000E+00  0.00000000E+00  0.00000000E+00
  0.00000000E+00  0.00000000E+00  0.00000000E+00
  0.00000000E+00  0.00000000E+00  0.00000000E+00
  0.00000000E+00  0.00000000E+00  0.00000000E+00
  0.00000000E+00  0.00000000E+00  0.00000000E+00
  0.00000000E+00  0.00000000E+00  0.00000000E+00
  0.00000000E+00  0.00000000E+00  0.00000000E+00
  0.00000000E+00  0.00000000E+00  0.00000000E+00
  0.00000000E+00  0.00000000E+00  0.00000000E+00
  0.00000000E+00  0.00000000E+00  0.00000000E+00
  0.00000000E+00  0.00000000E+00  0.00000000E+00
  0.00000000E+00  0.00000000E+00  0.00000000E+00
  0.00000000E+00  0.00000000E+00  0.00000000E+00
  0.00000000E+00  0.00000000E+00  0.00000000E+00
  0.00000000E+00  0.00000000E+00  0.00000000E+00
  0.00000000E+00  0.00000000E+00  0.00000000E+00
  0.00000000E+00  0.00000000E+00  0.00000000E+00
  0.00000000E+00  0.00000000E+00  0.00000000E+00
  0.00000000E+00  0.00000000E+00  0.00000000E+00
  0.00000000E+00  0.00000000E+00  0.00000000E+00
  0.00000000E+00  0.00000000E+00  0.00000000E+00
  0.00000000E+00  0.00000000E+00  0.00000000E+00
  0.00000000E+00  0.00000000E+00  0.00000000E+00
  0.00000000E+00  0.00000000E+00  0.00000000E+00
  0.00000000E+00  0.00000000E+00  0.00000000E+00
  0.00000000E+00  0.00000000E+00  0.00000000E+00
  0.00000000E+00  0.00000000E+00  0.00000000E+00
  0.00000000E+00  0.00000000E+00  0.00000000E+00
  0.00000000E+00  0.00000000E+00  0.00000000E+00
  0.00000000E+00  0.00000000E+00  0.00000000E+00
  0.00000000E+00  0.00000000E+00  0.00000000E+00
  0.00000000E+00  0.00000000E+00  0.00000000E+00
  0.00000000E+00  0.00000000E+00  0.00000000E+00
  0.00000000E+00  0.00000000E+00  0.00000000E+00
  0.00000000E+00  0.00000000E+00  0.00000000E+00
  0.00000000E+00  0.00000000E+00  0.00000000E+00
  0.00000000E+00  0.00000000E+00  0.00000000E+00
  0.00000000E+00  0.00000000E+00  0.00000000E+00
  0.00000000E+00  0.00000000E+00  0.00000000E+00
  0.00000000E+00  0.00000000E+00  0.00000000E+00
