Al   Sc   N                             
   1.00000000000000     
    -9.9298853725953009    0.0112829351225279   -0.0026933371059090
    -4.9759545685272810    8.6242393367707582   -0.0068194151599864
    -0.0015801956696633    0.0079243797427977  -10.0291402657988833
   Al   Sc   N 
    23    13    35
Direct
  0.1107119202040110  0.0946706247067866  0.4033497251457234
  0.2225058375041016  0.2026516955761650  0.1468225079334786
  0.7709699340446932  0.1027943138108114  0.8948630774814390
  0.8792165701274470  0.2059673518950405  0.6464055649996396
  0.5488163547201381  0.2184795233263941  0.1405230614331074
  0.2244366429363964  0.2081404291965114  0.6422891479314998
  0.8915171964367659  0.2088439058756677  0.1428141511507164
  0.5578245702435822  0.2128545384811957  0.6467886612695182
  0.2315469270138735  0.5400912094264214  0.1456626882514342
  0.4385449926710976  0.4396696404752944  0.3934183483302576
  0.5482946454440167  0.5418760256190751  0.1442869442164394
  0.2284068132813530  0.5354606188592470  0.6439671024251865
  0.8866683439278376  0.5369883320837729  0.1495698473247913
  0.4430187809919843  0.4350106415280806  0.8933790503949837
  0.5532559943971265  0.5354323965178196  0.6444862416323005
  0.1111483571383474  0.7583147073572292  0.3994732065998718
  0.7743372455254587  0.7571561940068250  0.8971609476010514
  0.8827539052866911  0.8754822891995602  0.6552340245588866
  0.4466062239433271  0.7562848103176236  0.3968202220182278
  0.5522130535903145  0.8654040442801545  0.1374076434968430
  0.1214289671759161  0.7537986243978594  0.8880402478366207
  0.4452611917148914  0.7526735998218328  0.8920395378765988
  0.5609753997936409  0.8646288293086073  0.6501267565151139
  0.4452805574464591  0.0908949321706345  0.3919317471645485
  0.1126549124703615  0.0922311012433710  0.8739131014208326
  0.7808661634472500  0.0926953290986532  0.3849921029325785
  0.4522808633533657  0.0901889128099569  0.8778675288207793
  0.1242079786718193  0.4246333720332842  0.3784147170578578
  0.7686681551918255  0.4308706899697867  0.8939126742917836
  0.8882621152510524  0.5408913960261827  0.6328445658496236
  0.1182452748745035  0.4294836793007093  0.8952942408646365
  0.7684978195698449  0.4241604006540243  0.3805368734962613
  0.2247658785293964  0.8729321369089007  0.1495596172472986
  0.2267376780614754  0.8634984686947575  0.6230402923361780
  0.7741775146885246  0.7688995234700542  0.3826769251806823
  0.8913919154809875  0.8709507168273660  0.1169220904510198
  0.2177464363008283  0.1883931692560381  0.3353893748151933
  0.1046626462471849  0.1125513305965953  0.0831996158342818
  0.8797065440407081  0.1975785180732004  0.8339342043030484
  0.7774521309140638  0.0913699128478243  0.5995200527710622
  0.5408181781059369  0.2305099301379059  0.3311043665801563
  0.4442872579305686  0.0952232440629146  0.0946922640858503
  0.1002797657892671  0.1156301816919338  0.6002812575288488
  0.9122817400088579  0.1900474600147390  0.3310220240243353
  0.7654099721336678  0.1194737314024223  0.0873069194216214
  0.5593501248998720  0.2216100115867405  0.8366214615233716
  0.4462662605638101  0.0920170254972348  0.6164223500655481
  0.2319478847673508  0.5553932685153598  0.3337348924589136
  0.1156220372687500  0.4276437206703747  0.1128653598537213
  0.8879436939394196  0.5493424674411571  0.8433049747152950
  0.7666066209384823  0.4170182098798279  0.5976958670277241
  0.5298546756124836  0.5536871966810466  0.3314883550727359
  0.4432600317190847  0.4308625142506912  0.0833836204143665
  0.2332008907708172  0.5432269788907931  0.8325383643453037
  0.1342114829981256  0.4166886790830517  0.5977370566823623
  0.8894288197126414  0.5377549092984424  0.3427808756780308
  0.7741681457476730  0.4291699172367913  0.1117241492981194
  0.5369824167861452  0.5466675560389689  0.8331605802578110
  0.4439416109804739  0.4294972188131467  0.5853259566005704
  0.2213226463725491  0.8726822028227872  0.3750018698272513
  0.1295779572485287  0.7415982943747039  0.0752548648409572
  0.8845872857397552  0.8742608151775286  0.8547854197352649
  0.7671082144993875  0.7844940346829787  0.5947719036374011
  0.5408554594109773  0.8634403742092687  0.3252855722774157
  0.4565657775199270  0.7509426934424894  0.0807295067940146
  0.2320345483496808  0.8560403748390399  0.8382213670642926
  0.0951930286931955  0.7487548910924389  0.5910753692285553
  0.9113689400075913  0.8631064231415380  0.3259731123725302
  0.7683888785903008  0.7488786332504631  0.0900721922380612
  0.5629627706603131  0.8504694900572858  0.8396190388379594
  0.4721965613323889  0.7459714474438357  0.5850095473215831
 
  0.00000000E+00  0.00000000E+00  0.00000000E+00
  0.00000000E+00  0.00000000E+00  0.00000000E+00
  0.00000000E+00  0.00000000E+00  0.00000000E+00
  0.00000000E+00  0.00000000E+00  0.00000000E+00
  0.00000000E+00  0.00000000E+00  0.00000000E+00
  0.00000000E+00  0.00000000E+00  0.00000000E+00
  0.00000000E+00  0.00000000E+00  0.00000000E+00
  0.00000000E+00  0.00000000E+00  0.00000000E+00
  0.00000000E+00  0.00000000E+00  0.00000000E+00
  0.00000000E+00  0.00000000E+00  0.00000000E+00
  0.00000000E+00  0.00000000E+00  0.00000000E+00
  0.00000000E+00  0.00000000E+00  0.00000000E+00
  0.00000000E+00  0.00000000E+00  0.00000000E+00
  0.00000000E+00  0.00000000E+00  0.00000000E+00
  0.00000000E+00  0.00000000E+00  0.00000000E+00
  0.00000000E+00  0.00000000E+00  0.00000000E+00
  0.00000000E+00  0.00000000E+00  0.00000000E+00
  0.00000000E+00  0.00000000E+00  0.00000000E+00
  0.00000000E+00  0.00000000E+00  0.00000000E+00
  0.00000000E+00  0.00000000E+00  0.00000000E+00
  0.00000000E+00  0.00000000E+00  0.00000000E+00
  0.00000000E+00  0.00000000E+00  0.00000000E+00
  0.00000000E+00  0.00000000E+00  0.00000000E+00
  0.00000000E+00  0.00000000E+00  0.00000000E+00
  0.00000000E+00  0.00000000E+00  0.00000000E+00
  0.00000000E+00  0.00000000E+00  0.00000000E+00
  0.00000000E+00  0.00000000E+00  0.00000000E+00
  0.00000000E+00  0.00000000E+00  0.00000000E+00
  0.00000000E+00  0.00000000E+00  0.00000000E+00
  0.00000000E+00  0.00000000E+00  0.00000000E+00
  0.00000000E+00  0.00000000E+00  0.00000000E+00
  0.00000000E+00  0.00000000E+00  0.00000000E+00
  0.00000000E+00  0.00000000E+00  0.00000000E+00
  0.00000000E+00  0.00000000E+00  0.00000000E+00
  0.00000000E+00  0.00000000E+00  0.00000000E+00
  0.00000000E+00  0.00000000E+00  0.00000000E+00
  0.00000000E+00  0.00000000E+00  0.00000000E+00
  0.00000000E+00  0.00000000E+00  0.00000000E+00
  0.00000000E+00  0.00000000E+00  0.00000000E+00
  0.00000000E+00  0.00000000E+00  0.00000000E+00
  0.00000000E+00  0.00000000E+00  0.00000000E+00
  0.00000000E+00  0.00000000E+00  0.00000000E+00
  0.00000000E+00  0.00000000E+00  0.00000000E+00
  0.00000000E+00  0.00000000E+00  0.00000000E+00
  0.00000000E+00  0.00000000E+00  0.00000000E+00
  0.00000000E+00  0.00000000E+00  0.00000000E+00
  0.00000000E+00  0.00000000E+00  0.00000000E+00
  0.00000000E+00  0.00000000E+00  0.00000000E+00
  0.00000000E+00  0.00000000E+00  0.00000000E+00
  0.00000000E+00  0.00000000E+00  0.00000000E+00
  0.00000000E+00  0.00000000E+00  0.00000000E+00
  0.00000000E+00  0.00000000E+00  0.00000000E+00
  0.00000000E+00  0.00000000E+00  0.00000000E+00
  0.00000000E+00  0.00000000E+00  0.00000000E+00
  0.00000000E+00  0.00000000E+00  0.00000000E+00
  0.00000000E+00  0.00000000E+00  0.00000000E+00
  0.00000000E+00  0.00000000E+00  0.00000000E+00
  0.00000000E+00  0.00000000E+00  0.00000000E+00
  0.00000000E+00  0.00000000E+00  0.00000000E+00
  0.00000000E+00  0.00000000E+00  0.00000000E+00
  0.00000000E+00  0.00000000E+00  0.00000000E+00
  0.00000000E+00  0.00000000E+00  0.00000000E+00
  0.00000000E+00  0.00000000E+00  0.00000000E+00
  0.00000000E+00  0.00000000E+00  0.00000000E+00
  0.00000000E+00  0.00000000E+00  0.00000000E+00
  0.00000000E+00  0.00000000E+00  0.00000000E+00
  0.00000000E+00  0.00000000E+00  0.00000000E+00
  0.00000000E+00  0.00000000E+00  0.00000000E+00
  0.00000000E+00  0.00000000E+00  0.00000000E+00
  0.00000000E+00  0.00000000E+00  0.00000000E+00
  0.00000000E+00  0.00000000E+00  0.00000000E+00
