Al   Sc   N                             
   1.00000000000000     
   -10.3494203031396861    0.0084618439046394   -0.0067799652803345
    -5.1845780738084288    8.9891030829301659   -0.0068001906647940
     0.0005937675330767    0.0301192277278037   -8.8448498041322576
   Al   Sc   N 
    23    13    35
Direct
  0.1111271021716433  0.0908986696491638  0.3495281478109007
  0.2215852636508018  0.2056175080052398  0.1218130074301129
  0.7741325510971748  0.0967741957192132  0.8419423082215118
  0.8871404471294753  0.2045967214966353  0.6021956330139489
  0.5530938345229899  0.2177401375767545  0.0798825128675205
  0.2249675104474278  0.2021169902332289  0.5771248349897107
  0.8854944319960651  0.2089270517432240  0.0957270571353419
  0.5510471461505375  0.2179167442831442  0.5994497914551786
  0.2328005534287101  0.5347271999927870  0.0847113562591204
  0.4394806407049714  0.4367560051701318  0.3373084305593324
  0.5505927216808431  0.5386852210613995  0.0954662042001715
  0.2291541024068451  0.5392031464140956  0.5904182283156487
  0.8877233541292568  0.5381132980644026  0.0946732557816716
  0.4426747162228466  0.4362539655315203  0.8346316094638127
  0.5500485016769687  0.5385269807923976  0.5870394872523050
  0.1166256417590006  0.7573230925264909  0.3388891660924997
  0.7749120905797326  0.7627260071044404  0.8544722037521666
  0.8881597176936751  0.8725390732568101  0.6099153224203775
  0.4430185034081759  0.7578866850693373  0.3549470898432574
  0.5572468600527785  0.8609655754718659  0.1036839482000076
  0.1142413044331150  0.7547245201779234  0.8424807855035326
  0.4472287873771492  0.7527886175221568  0.8573181303161803
  0.5550895523213555  0.8681049611165577  0.6196931100283578
  0.4521815024764990  0.0903353164790488  0.3506346683475599
  0.1128411328149710  0.0995448775813585  0.8514222102637916
  0.7758603639740471  0.0982806710926667  0.3551413314626402
  0.4444472780071536  0.0935912853230789  0.8523550875240957
  0.1206078834140030  0.4312080105271079  0.3478755912866376
  0.7662933414365156  0.4295146833273193  0.8515941356920322
  0.8898472379997813  0.5395764717852103  0.6049513808946756
  0.1245422370646097  0.4206531081187634  0.8521538473926924
  0.7724435548534601  0.4256354104238866  0.3480859561535397
  0.2274496013132037  0.8679479507937771  0.1012166684265878
  0.2235498208560358  0.8667658603068276  0.6009211032507267
  0.7743455920114570  0.7643272570264159  0.3527548585993543
  0.8891528403896345  0.8732801724035895  0.0940910786166498
  0.2186344595286229  0.1940633921092569  0.3497615768698452
  0.1032936936918034  0.1111797681610867  0.1038562370046705
  0.8837447993046439  0.1956700436386001  0.8538473767974892
  0.7766482899583451  0.0948501953995944  0.6126036217740278
  0.5417588139330434  0.2315567195319090  0.3755506545250142
  0.4450358488207158  0.0987247394444637  0.0988815677767576
  0.1052705298344350  0.1104809657813348  0.6013708524301222
  0.9058791609644743  0.1950952271722173  0.3559499806825528
  0.7651986791262360  0.1139434322619906  0.0989477755316486
  0.5566823393200906  0.2198574443214483  0.8516372554340492
  0.4421711291894255  0.0901928461406811  0.6049863854394744
  0.2326169207737365  0.5516237131354842  0.3665919758958509
  0.1187546022922774  0.4235232181734929  0.1011071243867505
  0.8884640707356368  0.5483141992895355  0.8562970627140842
  0.7657783860837171  0.4204371800043916  0.6021816293570481
  0.5355264287330925  0.5489194787701379  0.3548317041918665
  0.4447142289192172  0.4269495343045406  0.1131757711346353
  0.2330943365406952  0.5430401118850412  0.8629798899315801
  0.1362143316838811  0.4134594522277197  0.6033932106055744
  0.8919480681970953  0.5367727713287778  0.3518853330439029
  0.7762260887378076  0.4273099899090553  0.1008487932705506
  0.5366659732882013  0.5463026751616553  0.8648017581140337
  0.4420499264138655  0.4351140267618376  0.6158850621005385
  0.2217714929460683  0.8719523937335723  0.3523596938068891
  0.1217952773238409  0.7411261605151722  0.1069895084069401
  0.8858504057447121  0.8744084768675293  0.8467570023706159
  0.7666317537528897  0.7791616903283511  0.6089139452500092
  0.5445503186714973  0.8622689610996304  0.3356220790698288
  0.4590597728116776  0.7493349201250084  0.0966328311040456
  0.2284333785569217  0.8610918461004573  0.8511077678993502
  0.1025704934224763  0.7497786565894557  0.6181450130039536
  0.9073292434300697  0.8650992647024154  0.3564518247207857
  0.7716673442317017  0.7532993007221833  0.0922824095731443
  0.5587496260556506  0.8567365301668062  0.8510746161128608
  0.4620658004894125  0.7501866071883185  0.5998740612141233
 
  0.00000000E+00  0.00000000E+00  0.00000000E+00
  0.00000000E+00  0.00000000E+00  0.00000000E+00
  0.00000000E+00  0.00000000E+00  0.00000000E+00
  0.00000000E+00  0.00000000E+00  0.00000000E+00
  0.00000000E+00  0.00000000E+00  0.00000000E+00
  0.00000000E+00  0.00000000E+00  0.00000000E+00
  0.00000000E+00  0.00000000E+00  0.00000000E+00
  0.00000000E+00  0.00000000E+00  0.00000000E+00
  0.00000000E+00  0.00000000E+00  0.00000000E+00
  0.00000000E+00  0.00000000E+00  0.00000000E+00
  0.00000000E+00  0.00000000E+00  0.00000000E+00
  0.00000000E+00  0.00000000E+00  0.00000000E+00
  0.00000000E+00  0.00000000E+00  0.00000000E+00
  0.00000000E+00  0.00000000E+00  0.00000000E+00
  0.00000000E+00  0.00000000E+00  0.00000000E+00
  0.00000000E+00  0.00000000E+00  0.00000000E+00
  0.00000000E+00  0.00000000E+00  0.00000000E+00
  0.00000000E+00  0.00000000E+00  0.00000000E+00
  0.00000000E+00  0.00000000E+00  0.00000000E+00
  0.00000000E+00  0.00000000E+00  0.00000000E+00
  0.00000000E+00  0.00000000E+00  0.00000000E+00
  0.00000000E+00  0.00000000E+00  0.00000000E+00
  0.00000000E+00  0.00000000E+00  0.00000000E+00
  0.00000000E+00  0.00000000E+00  0.00000000E+00
  0.00000000E+00  0.00000000E+00  0.00000000E+00
  0.00000000E+00  0.00000000E+00  0.00000000E+00
  0.00000000E+00  0.00000000E+00  0.00000000E+00
  0.00000000E+00  0.00000000E+00  0.00000000E+00
  0.00000000E+00  0.00000000E+00  0.00000000E+00
  0.00000000E+00  0.00000000E+00  0.00000000E+00
  0.00000000E+00  0.00000000E+00  0.00000000E+00
  0.00000000E+00  0.00000000E+00  0.00000000E+00
  0.00000000E+00  0.00000000E+00  0.00000000E+00
  0.00000000E+00  0.00000000E+00  0.00000000E+00
  0.00000000E+00  0.00000000E+00  0.00000000E+00
  0.00000000E+00  0.00000000E+00  0.00000000E+00
  0.00000000E+00  0.00000000E+00  0.00000000E+00
  0.00000000E+00  0.00000000E+00  0.00000000E+00
  0.00000000E+00  0.00000000E+00  0.00000000E+00
  0.00000000E+00  0.00000000E+00  0.00000000E+00
  0.00000000E+00  0.00000000E+00  0.00000000E+00
  0.00000000E+00  0.00000000E+00  0.00000000E+00
  0.00000000E+00  0.00000000E+00  0.00000000E+00
  0.00000000E+00  0.00000000E+00  0.00000000E+00
  0.00000000E+00  0.00000000E+00  0.00000000E+00
  0.00000000E+00  0.00000000E+00  0.00000000E+00
  0.00000000E+00  0.00000000E+00  0.00000000E+00
  0.00000000E+00  0.00000000E+00  0.00000000E+00
  0.00000000E+00  0.00000000E+00  0.00000000E+00
  0.00000000E+00  0.00000000E+00  0.00000000E+00
  0.00000000E+00  0.00000000E+00  0.00000000E+00
  0.00000000E+00  0.00000000E+00  0.00000000E+00
  0.00000000E+00  0.00000000E+00  0.00000000E+00
  0.00000000E+00  0.00000000E+00  0.00000000E+00
  0.00000000E+00  0.00000000E+00  0.00000000E+00
  0.00000000E+00  0.00000000E+00  0.00000000E+00
  0.00000000E+00  0.00000000E+00  0.00000000E+00
  0.00000000E+00  0.00000000E+00  0.00000000E+00
  0.00000000E+00  0.00000000E+00  0.00000000E+00
  0.00000000E+00  0.00000000E+00  0.00000000E+00
  0.00000000E+00  0.00000000E+00  0.00000000E+00
  0.00000000E+00  0.00000000E+00  0.00000000E+00
  0.00000000E+00  0.00000000E+00  0.00000000E+00
  0.00000000E+00  0.00000000E+00  0.00000000E+00
  0.00000000E+00  0.00000000E+00  0.00000000E+00
  0.00000000E+00  0.00000000E+00  0.00000000E+00
  0.00000000E+00  0.00000000E+00  0.00000000E+00
  0.00000000E+00  0.00000000E+00  0.00000000E+00
  0.00000000E+00  0.00000000E+00  0.00000000E+00
  0.00000000E+00  0.00000000E+00  0.00000000E+00
  0.00000000E+00  0.00000000E+00  0.00000000E+00
