Al   Sc   N                             
   1.00000000000000     
    -9.9268377871959146    0.0055525935861918   -0.0109943005852108
    -4.9682963128536173    8.6233852833360451   -0.0067803654041268
    -0.0124847061235069    0.0015051793510034  -10.0256083327807453
   Al   Sc   N 
    23    13    35
Direct
  0.1115733110288488  0.0949448480209796  0.2938401306863128
  0.2221416842456563  0.2063469382699878  0.0472525880843477
  0.7760805549429648  0.0939197351233432  0.7890125484886141
  0.8905468518145980  0.2067479169027351  0.5501947178668658
  0.5574052197087696  0.2170841483233588  0.0447094009173767
  0.2262361818076073  0.2040454456274645  0.5454566776986169
  0.8812016753102299  0.2085245295581899  0.0466891297098044
  0.5470239786019704  0.2155196566977793  0.5539077877154170
  0.2309684020005704  0.5375811190298592  0.0458034220946857
  0.4388391237764822  0.4378844727802402  0.3016119742141967
  0.5512535510915484  0.5394228472596723  0.0485093965712124
  0.2295284975354761  0.5365852635435360  0.5502484334242794
  0.8845825706713555  0.5421798762728685  0.0345056847817276
  0.4422103719031441  0.4370714785302567  0.7973908386572930
  0.5512789003203622  0.5370059475622284  0.5479539312435335
  0.1181271303698850  0.7557695190269200  0.3011701737997257
  0.7734689078001082  0.7688067160048462  0.7915121386841406
  0.8905997287666807  0.8712022035588447  0.5536367048498931
  0.4448966728886745  0.7568259967750421  0.2997400478570000
  0.5630937669869809  0.8559123332494920  0.0429601284697938
  0.1112716795289330  0.7590047188959872  0.7954076587040220
  0.4466475484687606  0.7528311589962726  0.7969102219404860
  0.5520034693951317  0.8726663486781874  0.5529583630895303
  0.4455073853211431  0.0919144769713256  0.2991166337966931
  0.1124175356009474  0.0937915763183241  0.8135866883244773
  0.7770585916220085  0.0984912056425458  0.3197265811594576
  0.4527350520703308  0.0895464609615217  0.8156949440962507
  0.1186802615827389  0.4286734205532241  0.2976381780926118
  0.7646806941054436  0.4263183397322834  0.8123707876927924
  0.8923175013195959  0.5347399351634365  0.5700856746733365
  0.1244248892198598  0.4258945987412091  0.8151986805297113
  0.7736175625430377  0.4272800223651814  0.2989423894629937
  0.2290371260255668  0.8639775885409904  0.0641021191009017
  0.2227396864599243  0.8724762896870430  0.5505165620032031
  0.7767350684040721  0.7583723778003701  0.3108621149487476
  0.8848656615619177  0.8752161783086692  0.0505271494178245
  0.2162005752125253  0.1957626897667026  0.3541784529520626
  0.1001360661730004  0.1141644391149725  0.0959908803799365
  0.8821639074507246  0.1884011053456121  0.8593437798041208
  0.7767951499696863  0.0959035832514274  0.5943731860245123
  0.5369832439963318  0.2312065155300402  0.3652857721582450
  0.4482263092731245  0.0915059329861876  0.0754979899317263
  0.1049391580331474  0.1137761124218954  0.6051146947859891
  0.9102383822029907  0.1976005571477799  0.3613731552259054
  0.7655276798930757  0.1149560346448553  0.1072260440865236
  0.5623944541539032  0.2210882137327772  0.8524128387880481
  0.4434378711672409  0.0937472200336131  0.5987319788326602
  0.2316525895291548  0.5497995521968093  0.3614825227891174
  0.1132589349120465  0.4271180596826269  0.0731219431436827
  0.8838600987979461  0.5547122432584430  0.8380974172146409
  0.7638895709839630  0.4172823798380207  0.5978795518629028
  0.5360771225519088  0.5492619895494926  0.3584494217572924
  0.4436478287837105  0.4286491584957233  0.1079293231083938
  0.2325076080251662  0.5507500991631531  0.8582170897838282
  0.1399079677536719  0.4129863056377232  0.6011994083053480
  0.8946610768817180  0.5312183721471158  0.3614046755792657
  0.7770962424079926  0.4288877215897671  0.0763688334922250
  0.5311812139089369  0.5507040559193896  0.8620069090386764
  0.4430426978813742  0.4318762124964479  0.6088466786722293
  0.2221230846178202  0.8743929401163157  0.3287399040853884
  0.1172871886557374  0.7392555256532205  0.1121437622285839
  0.8846332702661925  0.8756682689827073  0.8381326261559252
  0.7655202449374627  0.7824268658746831  0.6004413187966335
  0.5421676422545119  0.8638195994168214  0.3647193679771377
  0.4672241128889496  0.7467800690185413  0.1105065030920329
  0.2294468056899319  0.8570077036574162  0.8439141720936050
  0.1045951649009496  0.7500974026241138  0.6072379448048721
  0.9100858351713583  0.8611679068801976  0.3612357524795513
  0.7730740585251823  0.7492097156024258  0.0967440635036354
  0.5631601083943778  0.8503360488482272  0.8538410860968213
  0.4617352570509041  0.7492773293096278  0.6084439437157698
 
  0.00000000E+00  0.00000000E+00  0.00000000E+00
  0.00000000E+00  0.00000000E+00  0.00000000E+00
  0.00000000E+00  0.00000000E+00  0.00000000E+00
  0.00000000E+00  0.00000000E+00  0.00000000E+00
  0.00000000E+00  0.00000000E+00  0.00000000E+00
  0.00000000E+00  0.00000000E+00  0.00000000E+00
  0.00000000E+00  0.00000000E+00  0.00000000E+00
  0.00000000E+00  0.00000000E+00  0.00000000E+00
  0.00000000E+00  0.00000000E+00  0.00000000E+00
  0.00000000E+00  0.00000000E+00  0.00000000E+00
  0.00000000E+00  0.00000000E+00  0.00000000E+00
  0.00000000E+00  0.00000000E+00  0.00000000E+00
  0.00000000E+00  0.00000000E+00  0.00000000E+00
  0.00000000E+00  0.00000000E+00  0.00000000E+00
  0.00000000E+00  0.00000000E+00  0.00000000E+00
  0.00000000E+00  0.00000000E+00  0.00000000E+00
  0.00000000E+00  0.00000000E+00  0.00000000E+00
  0.00000000E+00  0.00000000E+00  0.00000000E+00
  0.00000000E+00  0.00000000E+00  0.00000000E+00
  0.00000000E+00  0.00000000E+00  0.00000000E+00
  0.00000000E+00  0.00000000E+00  0.00000000E+00
  0.00000000E+00  0.00000000E+00  0.00000000E+00
  0.00000000E+00  0.00000000E+00  0.00000000E+00
  0.00000000E+00  0.00000000E+00  0.00000000E+00
  0.00000000E+00  0.00000000E+00  0.00000000E+00
  0.00000000E+00  0.00000000E+00  0.00000000E+00
  0.00000000E+00  0.00000000E+00  0.00000000E+00
  0.00000000E+00  0.00000000E+00  0.00000000E+00
  0.00000000E+00  0.00000000E+00  0.00000000E+00
  0.00000000E+00  0.00000000E+00  0.00000000E+00
  0.00000000E+00  0.00000000E+00  0.00000000E+00
  0.00000000E+00  0.00000000E+00  0.00000000E+00
  0.00000000E+00  0.00000000E+00  0.00000000E+00
  0.00000000E+00  0.00000000E+00  0.00000000E+00
  0.00000000E+00  0.00000000E+00  0.00000000E+00
  0.00000000E+00  0.00000000E+00  0.00000000E+00
  0.00000000E+00  0.00000000E+00  0.00000000E+00
  0.00000000E+00  0.00000000E+00  0.00000000E+00
  0.00000000E+00  0.00000000E+00  0.00000000E+00
  0.00000000E+00  0.00000000E+00  0.00000000E+00
  0.00000000E+00  0.00000000E+00  0.00000000E+00
  0.00000000E+00  0.00000000E+00  0.00000000E+00
  0.00000000E+00  0.00000000E+00  0.00000000E+00
  0.00000000E+00  0.00000000E+00  0.00000000E+00
  0.00000000E+00  0.00000000E+00  0.00000000E+00
  0.00000000E+00  0.00000000E+00  0.00000000E+00
  0.00000000E+00  0.00000000E+00  0.00000000E+00
  0.00000000E+00  0.00000000E+00  0.00000000E+00
  0.00000000E+00  0.00000000E+00  0.00000000E+00
  0.00000000E+00  0.00000000E+00  0.00000000E+00
  0.00000000E+00  0.00000000E+00  0.00000000E+00
  0.00000000E+00  0.00000000E+00  0.00000000E+00
  0.00000000E+00  0.00000000E+00  0.00000000E+00
  0.00000000E+00  0.00000000E+00  0.00000000E+00
  0.00000000E+00  0.00000000E+00  0.00000000E+00
  0.00000000E+00  0.00000000E+00  0.00000000E+00
  0.00000000E+00  0.00000000E+00  0.00000000E+00
  0.00000000E+00  0.00000000E+00  0.00000000E+00
  0.00000000E+00  0.00000000E+00  0.00000000E+00
  0.00000000E+00  0.00000000E+00  0.00000000E+00
  0.00000000E+00  0.00000000E+00  0.00000000E+00
  0.00000000E+00  0.00000000E+00  0.00000000E+00
  0.00000000E+00  0.00000000E+00  0.00000000E+00
  0.00000000E+00  0.00000000E+00  0.00000000E+00
  0.00000000E+00  0.00000000E+00  0.00000000E+00
  0.00000000E+00  0.00000000E+00  0.00000000E+00
  0.00000000E+00  0.00000000E+00  0.00000000E+00
  0.00000000E+00  0.00000000E+00  0.00000000E+00
  0.00000000E+00  0.00000000E+00  0.00000000E+00
  0.00000000E+00  0.00000000E+00  0.00000000E+00
  0.00000000E+00  0.00000000E+00  0.00000000E+00
