Al   Sc   N                             
   1.00000000000000     
   -10.3039454484854804    0.0092552758096705   -0.0056306011062773
    -5.1589375246956628    8.9498713260830414   -0.0068055975540669
     0.0119283250211270    0.0113207783375465   -8.9773434934396938
   Al   Sc   N 
    23    13    35
Direct
  0.1109360009627238  0.0900255708802291  0.3595025836601238
  0.2215318414470246  0.2049624430922563  0.1250048583024537
  0.7704411001561482  0.1001309660255956  0.8589766646243717
  0.8840569571894363  0.2042497212171881  0.6197456430083079
  0.5505424127330940  0.2205025745652094  0.1164311683833361
  0.2250601201307987  0.2031103110353385  0.5797544879355954
  0.8881486769410358  0.2085666959240839  0.1104287159374238
  0.5539148924620036  0.2147377381338416  0.6150841559772715
  0.2324765742182962  0.5384626055527022  0.1151071048484553
  0.4384409716734865  0.4400858660025690  0.3716889987563974
  0.5494302240865849  0.5398864555220229  0.1195268655426744
  0.2301074887767882  0.5355014132147318  0.6203904920755932
  0.8873105151600171  0.5375393612914579  0.0988416022984921
  0.4441895143802057  0.4334739398980645  0.8669347601397135
  0.5503014318119384  0.5382527459780988  0.6170973418068044
  0.1139014160634559  0.7584745506582280  0.3737633903564515
  0.7746264588863099  0.7619548603536614  0.8602629369611563
  0.8843165570746478  0.8751500230312317  0.6223654840940114
  0.4446203445913284  0.7565514497237160  0.3690353830417763
  0.5557581077227454  0.8602476893193725  0.1060764112273134
  0.1177277759932949  0.7535884857164703  0.8565270033645902
  0.4477219214182497  0.7523615536503954  0.8658869807281633
  0.5565788933142599  0.8683361446712823  0.6254245887492047
  0.4515302766149460  0.0878893041678239  0.3524676085263536
  0.1137447024005311  0.0995651361101437  0.8528053349369387
  0.7791941425555393  0.0953625092084494  0.3567908522804117
  0.4462462609257614  0.0957683942766465  0.8558718168369595
  0.1202508800127973  0.4312796181490697  0.3514012263702213
  0.7664312641997455  0.4295823051964121  0.8573532301388269
  0.8890032950133460  0.5401931475148487  0.6060384418661897
  0.1240939303645874  0.4215872092095481  0.8571398376292834
  0.7711631014701297  0.4250835046258459  0.3539082522500294
  0.2270066601421732  0.8667467145585519  0.1055021241622640
  0.2256912779216051  0.8677724818253196  0.6051817070869205
  0.7737272453582875  0.7650918347125852  0.3523986206508098
  0.8922041663730766  0.8709380659567643  0.0945909912095644
  0.2180056081249688  0.1936069610140265  0.3501865905944541
  0.1060927649455152  0.1101893683915733  0.0959033846758715
  0.8837976757298023  0.1953200999670415  0.8420533141392639
  0.7762865545393112  0.0942385120135469  0.6023326402312748
  0.5419686232973078  0.2318928732263856  0.3382785755429083
  0.4432787475369793  0.0980930258790238  0.0977044124230844
  0.1023719449060465  0.1116184225520982  0.5966821829395315
  0.9067489633716264  0.1943621732088019  0.3350530075949010
  0.7650259555940480  0.1147168954933306  0.0883369223900132
  0.5568454895486568  0.2207917687626804  0.8336819784873555
  0.4447748368171247  0.0911802317053159  0.6016269584130072
  0.2319654633819752  0.5536798895681443  0.3340878006129131
  0.1184928290956790  0.4237220260929035  0.1016414435369342
  0.8881062420477122  0.5482692072123143  0.8539900420756510
  0.7668008089394931  0.4186770689559864  0.6008740333917686
  0.5341830336291551  0.5501028841809443  0.3351989974490905
  0.4447765187884869  0.4305760285890017  0.0821248155195633
  0.2343855234050096  0.5417889700668042  0.8352045231901783
  0.1349624544439862  0.4147002558085404  0.6012642632146523
  0.8909441962314943  0.5367767717491532  0.3512341511959463
  0.7741048630451743  0.4284976341677549  0.1005509435393463
  0.5354657823891245  0.5475768518474098  0.8323064360931909
  0.4427069553387639  0.4315524209218751  0.5863610388200868
  0.2218086370929342  0.8706621212187358  0.3535453091281795
  0.1227569204219989  0.7411837616522945  0.0735554151857798
  0.8847648471593104  0.8753249162221621  0.8428835455865098
  0.7667394188665000  0.7801803521942148  0.6025777295341257
  0.5432605896098863  0.8606662445245021  0.3246636428569971
  0.4600505882363279  0.7465909919192626  0.0809721432503494
  0.2299758932175919  0.8619488588608775  0.8462271623820072
  0.1014816232761433  0.7504153887779808  0.5976594792743271
  0.9082301266304640  0.8638164714524237  0.3392568413832322
  0.7709476197007419  0.7527261755230299  0.0889995767514620
  0.5589536931105457  0.8572374967316563  0.8448051603694964
  0.4645045398701910  0.7507028655817010  0.5869613252114405
 
  0.00000000E+00  0.00000000E+00  0.00000000E+00
  0.00000000E+00  0.00000000E+00  0.00000000E+00
  0.00000000E+00  0.00000000E+00  0.00000000E+00
  0.00000000E+00  0.00000000E+00  0.00000000E+00
  0.00000000E+00  0.00000000E+00  0.00000000E+00
  0.00000000E+00  0.00000000E+00  0.00000000E+00
  0.00000000E+00  0.00000000E+00  0.00000000E+00
  0.00000000E+00  0.00000000E+00  0.00000000E+00
  0.00000000E+00  0.00000000E+00  0.00000000E+00
  0.00000000E+00  0.00000000E+00  0.00000000E+00
  0.00000000E+00  0.00000000E+00  0.00000000E+00
  0.00000000E+00  0.00000000E+00  0.00000000E+00
  0.00000000E+00  0.00000000E+00  0.00000000E+00
  0.00000000E+00  0.00000000E+00  0.00000000E+00
  0.00000000E+00  0.00000000E+00  0.00000000E+00
  0.00000000E+00  0.00000000E+00  0.00000000E+00
  0.00000000E+00  0.00000000E+00  0.00000000E+00
  0.00000000E+00  0.00000000E+00  0.00000000E+00
  0.00000000E+00  0.00000000E+00  0.00000000E+00
  0.00000000E+00  0.00000000E+00  0.00000000E+00
  0.00000000E+00  0.00000000E+00  0.00000000E+00
  0.00000000E+00  0.00000000E+00  0.00000000E+00
  0.00000000E+00  0.00000000E+00  0.00000000E+00
  0.00000000E+00  0.00000000E+00  0.00000000E+00
  0.00000000E+00  0.00000000E+00  0.00000000E+00
  0.00000000E+00  0.00000000E+00  0.00000000E+00
  0.00000000E+00  0.00000000E+00  0.00000000E+00
  0.00000000E+00  0.00000000E+00  0.00000000E+00
  0.00000000E+00  0.00000000E+00  0.00000000E+00
  0.00000000E+00  0.00000000E+00  0.00000000E+00
  0.00000000E+00  0.00000000E+00  0.00000000E+00
  0.00000000E+00  0.00000000E+00  0.00000000E+00
  0.00000000E+00  0.00000000E+00  0.00000000E+00
  0.00000000E+00  0.00000000E+00  0.00000000E+00
  0.00000000E+00  0.00000000E+00  0.00000000E+00
  0.00000000E+00  0.00000000E+00  0.00000000E+00
  0.00000000E+00  0.00000000E+00  0.00000000E+00
  0.00000000E+00  0.00000000E+00  0.00000000E+00
  0.00000000E+00  0.00000000E+00  0.00000000E+00
  0.00000000E+00  0.00000000E+00  0.00000000E+00
  0.00000000E+00  0.00000000E+00  0.00000000E+00
  0.00000000E+00  0.00000000E+00  0.00000000E+00
  0.00000000E+00  0.00000000E+00  0.00000000E+00
  0.00000000E+00  0.00000000E+00  0.00000000E+00
  0.00000000E+00  0.00000000E+00  0.00000000E+00
  0.00000000E+00  0.00000000E+00  0.00000000E+00
  0.00000000E+00  0.00000000E+00  0.00000000E+00
  0.00000000E+00  0.00000000E+00  0.00000000E+00
  0.00000000E+00  0.00000000E+00  0.00000000E+00
  0.00000000E+00  0.00000000E+00  0.00000000E+00
  0.00000000E+00  0.00000000E+00  0.00000000E+00
  0.00000000E+00  0.00000000E+00  0.00000000E+00
  0.00000000E+00  0.00000000E+00  0.00000000E+00
  0.00000000E+00  0.00000000E+00  0.00000000E+00
  0.00000000E+00  0.00000000E+00  0.00000000E+00
  0.00000000E+00  0.00000000E+00  0.00000000E+00
  0.00000000E+00  0.00000000E+00  0.00000000E+00
  0.00000000E+00  0.00000000E+00  0.00000000E+00
  0.00000000E+00  0.00000000E+00  0.00000000E+00
  0.00000000E+00  0.00000000E+00  0.00000000E+00
  0.00000000E+00  0.00000000E+00  0.00000000E+00
  0.00000000E+00  0.00000000E+00  0.00000000E+00
  0.00000000E+00  0.00000000E+00  0.00000000E+00
  0.00000000E+00  0.00000000E+00  0.00000000E+00
  0.00000000E+00  0.00000000E+00  0.00000000E+00
  0.00000000E+00  0.00000000E+00  0.00000000E+00
  0.00000000E+00  0.00000000E+00  0.00000000E+00
  0.00000000E+00  0.00000000E+00  0.00000000E+00
  0.00000000E+00  0.00000000E+00  0.00000000E+00
  0.00000000E+00  0.00000000E+00  0.00000000E+00
  0.00000000E+00  0.00000000E+00  0.00000000E+00
