Al   Sc   N                             
   1.00000000000000     
   -10.1984772170205762    0.0076684119996082   -0.0079293294543917
    -5.1103760772177811    8.8523761849247364   -0.0067947837755211
     0.0004434369100838    0.0003879562864714   -9.2791635832707762
   Al   Sc   N 
    23    13    35
Direct
  0.1105437878285827  0.0899186558313829  0.3254931646459553
  0.2223459256913145  0.2061752660871790  0.1123836440131782
  0.7753550626729648  0.0939585177620899  0.8230647337111705
  0.8920128143529666  0.2050856635083420  0.5859003839864130
  0.5564075472285595  0.2163110070660679  0.0739701792639025
  0.2251138028565052  0.2022214152479478  0.5713552709726386
  0.8796098413530231  0.2095398315670849  0.0778679310988295
  0.5472150490115339  0.2191481393723080  0.5904607822678045
  0.2315877273340945  0.5355103337798894  0.0783838180205905
  0.4390460560587215  0.4372155172200038  0.3291736240169740
  0.5511094090155453  0.5397890531513383  0.0863249582845214
  0.2303872867906023  0.5389410872499667  0.5816999614762679
  0.8863390180227029  0.5401439183735590  0.0747245598640589
  0.4424432741215369  0.4375373976321342  0.8300705263717703
  0.5488084742559565  0.5381582065647237  0.5743751853789760
  0.1183175802097267  0.7570517617589729  0.3308205682594476
  0.7742656790944054  0.7679060555201431  0.8289183182286166
  0.8905773554630017  0.8713785788233324  0.5885329129367491
  0.4432162643396538  0.7580308447317563  0.3313741852722885
  0.5617221070458172  0.8577969879006844  0.0751861113284917
  0.1111226508658021  0.7566679806011649  0.8310669938518913
  0.4483617979234822  0.7511497521910186  0.8288836914818916
  0.5521040277856528  0.8694385306588543  0.5868138800899345
  0.4518995983539398  0.0901078767187826  0.3430793102839758
  0.1122659923955496  0.0986647171716868  0.8526216101974597
  0.7756221895773194  0.1003039523211484  0.3537493453734939
  0.4471929718411474  0.0915885185179519  0.8476585785358068
  0.1194365902369583  0.4317959694435558  0.3438645083006193
  0.7629925406976099  0.4294708951781629  0.8452012999404843
  0.8911100281111075  0.5367867222304810  0.6040783529860860
  0.1262264993075988  0.4209152297703511  0.8483294571978348
  0.7744373349235261  0.4251569477487536  0.3423737304464183
  0.2298891168682218  0.8632587937896261  0.0936349723274930
  0.2221188329258581  0.8713559408950573  0.5943855029610319
  0.7748134221682434  0.7600932109536132  0.3477808515642309
  0.8857547562271577  0.8746918490178359  0.0909225766871700
  0.2174943408105179  0.1932609920020667  0.3510979824608071
  0.0996982303302971  0.1107038524896637  0.1083115134849280
  0.8801988176740352  0.1938520993536272  0.8700809963004232
  0.7774352257561645  0.0950919979323217  0.6132980178436043
  0.5388154721898744  0.2339577083691111  0.3849070390458280
  0.4497346618259144  0.0916853144904266  0.1007849540786836
  0.1070294863936638  0.1144883777670600  0.6220701642394246
  0.9108142249460442  0.1940558965924097  0.3779997464591247
  0.7643815375735628  0.1154404220075875  0.1206301579060138
  0.5597880662750967  0.2194045363297406  0.8633687147382361
  0.4416744778112971  0.0938629338709234  0.6097612077124879
  0.2335563638188347  0.5524012625846169  0.3763116472115087
  0.1146106472806139  0.4265080985020049  0.1011685201787458
  0.8864441719083800  0.5517459081599014  0.8564042271429457
  0.7632479642389427  0.4194073708507915  0.6080385397859729
  0.5347340164368646  0.5494147227129815  0.3683667412675007
  0.4441589846052665  0.4267947253432993  0.1226389149503788
  0.2323419142743646  0.5460069287519502  0.8734835661322649
  0.1393181619061608  0.4128140618510727  0.6074271596766749
  0.8932434045307645  0.5337965468798984  0.3746536637317419
  0.7774325906872264  0.4280475539431805  0.1015102682985116
  0.5327121201152210  0.5494797026276785  0.8823565694261504
  0.4422330092299163  0.4352571351728116  0.6270614668857704
  0.2218783032136571  0.8733169739163316  0.3527144373558997
  0.1202748828859939  0.7402863946723670  0.1220576643226181
  0.8848302985292236  0.8758748778817065  0.8573761890719709
  0.7663017942505306  0.7814491933181600  0.6160444634364168
  0.5426077574313481  0.8618322493124566  0.3808558605490262
  0.4638358807661831  0.7498983548033422  0.1252562007620455
  0.2289179491446092  0.8590090710825891  0.8550462498198925
  0.1028719105486715  0.7498406528659487  0.6254162904887295
  0.9084548482226609  0.8634927979298084  0.3696178009442335
  0.7719782914377191  0.7505905123363377  0.1116611616444061
  0.5611405428221801  0.8531302778814336  0.8677115648980944
  0.4620309837781420  0.7469347441705096  0.6240744965372471
 
  0.00000000E+00  0.00000000E+00  0.00000000E+00
  0.00000000E+00  0.00000000E+00  0.00000000E+00
  0.00000000E+00  0.00000000E+00  0.00000000E+00
  0.00000000E+00  0.00000000E+00  0.00000000E+00
  0.00000000E+00  0.00000000E+00  0.00000000E+00
  0.00000000E+00  0.00000000E+00  0.00000000E+00
  0.00000000E+00  0.00000000E+00  0.00000000E+00
  0.00000000E+00  0.00000000E+00  0.00000000E+00
  0.00000000E+00  0.00000000E+00  0.00000000E+00
  0.00000000E+00  0.00000000E+00  0.00000000E+00
  0.00000000E+00  0.00000000E+00  0.00000000E+00
  0.00000000E+00  0.00000000E+00  0.00000000E+00
  0.00000000E+00  0.00000000E+00  0.00000000E+00
  0.00000000E+00  0.00000000E+00  0.00000000E+00
  0.00000000E+00  0.00000000E+00  0.00000000E+00
  0.00000000E+00  0.00000000E+00  0.00000000E+00
  0.00000000E+00  0.00000000E+00  0.00000000E+00
  0.00000000E+00  0.00000000E+00  0.00000000E+00
  0.00000000E+00  0.00000000E+00  0.00000000E+00
  0.00000000E+00  0.00000000E+00  0.00000000E+00
  0.00000000E+00  0.00000000E+00  0.00000000E+00
  0.00000000E+00  0.00000000E+00  0.00000000E+00
  0.00000000E+00  0.00000000E+00  0.00000000E+00
  0.00000000E+00  0.00000000E+00  0.00000000E+00
  0.00000000E+00  0.00000000E+00  0.00000000E+00
  0.00000000E+00  0.00000000E+00  0.00000000E+00
  0.00000000E+00  0.00000000E+00  0.00000000E+00
  0.00000000E+00  0.00000000E+00  0.00000000E+00
  0.00000000E+00  0.00000000E+00  0.00000000E+00
  0.00000000E+00  0.00000000E+00  0.00000000E+00
  0.00000000E+00  0.00000000E+00  0.00000000E+00
  0.00000000E+00  0.00000000E+00  0.00000000E+00
  0.00000000E+00  0.00000000E+00  0.00000000E+00
  0.00000000E+00  0.00000000E+00  0.00000000E+00
  0.00000000E+00  0.00000000E+00  0.00000000E+00
  0.00000000E+00  0.00000000E+00  0.00000000E+00
  0.00000000E+00  0.00000000E+00  0.00000000E+00
  0.00000000E+00  0.00000000E+00  0.00000000E+00
  0.00000000E+00  0.00000000E+00  0.00000000E+00
  0.00000000E+00  0.00000000E+00  0.00000000E+00
  0.00000000E+00  0.00000000E+00  0.00000000E+00
  0.00000000E+00  0.00000000E+00  0.00000000E+00
  0.00000000E+00  0.00000000E+00  0.00000000E+00
  0.00000000E+00  0.00000000E+00  0.00000000E+00
  0.00000000E+00  0.00000000E+00  0.00000000E+00
  0.00000000E+00  0.00000000E+00  0.00000000E+00
  0.00000000E+00  0.00000000E+00  0.00000000E+00
  0.00000000E+00  0.00000000E+00  0.00000000E+00
  0.00000000E+00  0.00000000E+00  0.00000000E+00
  0.00000000E+00  0.00000000E+00  0.00000000E+00
  0.00000000E+00  0.00000000E+00  0.00000000E+00
  0.00000000E+00  0.00000000E+00  0.00000000E+00
  0.00000000E+00  0.00000000E+00  0.00000000E+00
  0.00000000E+00  0.00000000E+00  0.00000000E+00
  0.00000000E+00  0.00000000E+00  0.00000000E+00
  0.00000000E+00  0.00000000E+00  0.00000000E+00
  0.00000000E+00  0.00000000E+00  0.00000000E+00
  0.00000000E+00  0.00000000E+00  0.00000000E+00
  0.00000000E+00  0.00000000E+00  0.00000000E+00
  0.00000000E+00  0.00000000E+00  0.00000000E+00
  0.00000000E+00  0.00000000E+00  0.00000000E+00
  0.00000000E+00  0.00000000E+00  0.00000000E+00
  0.00000000E+00  0.00000000E+00  0.00000000E+00
  0.00000000E+00  0.00000000E+00  0.00000000E+00
  0.00000000E+00  0.00000000E+00  0.00000000E+00
  0.00000000E+00  0.00000000E+00  0.00000000E+00
  0.00000000E+00  0.00000000E+00  0.00000000E+00
  0.00000000E+00  0.00000000E+00  0.00000000E+00
  0.00000000E+00  0.00000000E+00  0.00000000E+00
  0.00000000E+00  0.00000000E+00  0.00000000E+00
  0.00000000E+00  0.00000000E+00  0.00000000E+00
