Al   Sc   N                             
   1.00000000000000     
   -10.0268702008354094    0.0070512982956951   -0.0088232793675472
    -5.0280443586258086    8.7086417369002440   -0.0067905784171978
    -0.0028509256740726   -0.0053883418084645   -9.7572872634527315
   Al   Sc   N 
    23    13    35
Direct
  0.1119672055136576  0.0925253392113632  0.3183475224723935
  0.2229412987774211  0.2071443927008190  0.0815286138761948
  0.7754439405179383  0.0932191268987310  0.8156763625197740
  0.8925680683571215  0.2059827106754994  0.5785155297398816
  0.5574452653799895  0.2170237423865515  0.0715812621673493
  0.2256244121643931  0.2030838597700679  0.5703448512080840
  0.8789894469260133  0.2092553570634692  0.0739163999709262
  0.5457580458416089  0.2175181071277521  0.5817856630489686
  0.2309204572462846  0.5369098302541957  0.0734186681458411
  0.4386754289936121  0.4384040066077830  0.3267454283554940
  0.5515536863058230  0.5392300387519100  0.0773747720290530
  0.2299065006283740  0.5379546256279824  0.5765874239277693
  0.8852092334151394  0.5415737476414932  0.0631973979487199
  0.4420933814190988  0.4371006577856420  0.8249260952978403
  0.5500536985402817  0.5374840503206073  0.5732352404879677
  0.1189053479673277  0.7564992082502542  0.3274081768440595
  0.7737886320051217  0.7696131441273621  0.8189844622748268
  0.8909525835266194  0.8710753144290564  0.5783298661698666
  0.4436772095887065  0.7572473308468517  0.3268825635814565
  0.5636302399105091  0.8551381790905381  0.0708644624504657
  0.1096600256087612  0.7584465626194401  0.8236358578452752
  0.4478853866743933  0.7518730465080097  0.8238141755122115
  0.5514574126546066  0.8720678470759324  0.5798712683273877
  0.4473429467108119  0.0913764973464097  0.3305873691671408
  0.1111194415993140  0.0958818159014641  0.8476561251781973
  0.7759438294564589  0.1002394118591852  0.3498783742918832
  0.4514676602028871  0.0895717425327334  0.8439165385155505
  0.1192322457196724  0.4291168555781510  0.3320806513045440
  0.7637511272159827  0.4269173640942370  0.8398295048497602
  0.8919735291827138  0.5351946727282808  0.6008135122269564
  0.1260121511989780  0.4238646124260796  0.8419114019129452
  0.7745291005848642  0.4263448250272859  0.3321250528686051
  0.2300874852430255  0.8621554211639406  0.0895758177971899
  0.2218304721329361  0.8736079494969644  0.5851685799662221
  0.7758739619306212  0.7577515797816403  0.3418998425132145
  0.8842721761615095  0.8752357558750390  0.0839786604911552
  0.2162673917977074  0.1937189602980283  0.3720631913380146
  0.1005317816880549  0.1122802393706053  0.1136817955371612
  0.8793680838610101  0.1903498897865177  0.8806136401373621
  0.7773182849542053  0.0953418544142650  0.6158601944133792
  0.5362621053785404  0.2335104102000258  0.3885409064311673
  0.4491519420443808  0.0912024061601500  0.1010062881397928
  0.1053925640141955  0.1161066574605911  0.6321624047137391
  0.9124181000347136  0.1952306003455746  0.3841145465206282
  0.7644706079711341  0.1160675401882116  0.1312647542129852
  0.5614658657575049  0.2202814247478599  0.8737539432923498
  0.4429665023418679  0.0938996727977610  0.6193701778871130
  0.2325346034171432  0.5515111753821671  0.3833180683332174
  0.1132325743466964  0.4274435371079335  0.1002539415315837
  0.8849839337571410  0.5537768069498270  0.8586859133534546
  0.7633385732977800  0.4175518017146089  0.6175321173114838
  0.5352696810721085  0.5495577214271421  0.3791426782672573
  0.4437758894694710  0.4283838747870448  0.1296775384064262
  0.2320789444124927  0.5494535868987072  0.8805559050558216
  0.1406813116130294  0.4129355969167250  0.6191514217717611
  0.8945438705424920  0.5314828842495132  0.3864302106732325
  0.7774841441867935  0.4287430617640737  0.1018684052741463
  0.5314391304008907  0.5502319064859407  0.8856271817017429
  0.4425268312812918  0.4332875174043309  0.6322144235206650
  0.2218882029301028  0.8743488501721757  0.3543453567140986
  0.1187389158531360  0.7395907932395076  0.1326509474588491
  0.8838803022619359  0.8761111279530311  0.8642924072744194
  0.7655886152122662  0.7831790481849694  0.6210568630479187
  0.5415476722301307  0.8629811584808493  0.3868672816400007
  0.4661572752965526  0.7473211901106467  0.1324621209388965
  0.2290865799493673  0.8572199354104697  0.8621750637711330
  0.1029070321773631  0.7504278805615670  0.6300417375196616
  0.9093200233975693  0.8621258685496329  0.3788774488397877
  0.7730218895282377  0.7482307096334040  0.1211439490831694
  0.5633825521053808  0.8504423428174519  0.8761656291375459
  0.4624289736487341  0.7484426140737810  0.6307149941182928
 
  0.00000000E+00  0.00000000E+00  0.00000000E+00
  0.00000000E+00  0.00000000E+00  0.00000000E+00
  0.00000000E+00  0.00000000E+00  0.00000000E+00
  0.00000000E+00  0.00000000E+00  0.00000000E+00
  0.00000000E+00  0.00000000E+00  0.00000000E+00
  0.00000000E+00  0.00000000E+00  0.00000000E+00
  0.00000000E+00  0.00000000E+00  0.00000000E+00
  0.00000000E+00  0.00000000E+00  0.00000000E+00
  0.00000000E+00  0.00000000E+00  0.00000000E+00
  0.00000000E+00  0.00000000E+00  0.00000000E+00
  0.00000000E+00  0.00000000E+00  0.00000000E+00
  0.00000000E+00  0.00000000E+00  0.00000000E+00
  0.00000000E+00  0.00000000E+00  0.00000000E+00
  0.00000000E+00  0.00000000E+00  0.00000000E+00
  0.00000000E+00  0.00000000E+00  0.00000000E+00
  0.00000000E+00  0.00000000E+00  0.00000000E+00
  0.00000000E+00  0.00000000E+00  0.00000000E+00
  0.00000000E+00  0.00000000E+00  0.00000000E+00
  0.00000000E+00  0.00000000E+00  0.00000000E+00
  0.00000000E+00  0.00000000E+00  0.00000000E+00
  0.00000000E+00  0.00000000E+00  0.00000000E+00
  0.00000000E+00  0.00000000E+00  0.00000000E+00
  0.00000000E+00  0.00000000E+00  0.00000000E+00
  0.00000000E+00  0.00000000E+00  0.00000000E+00
  0.00000000E+00  0.00000000E+00  0.00000000E+00
  0.00000000E+00  0.00000000E+00  0.00000000E+00
  0.00000000E+00  0.00000000E+00  0.00000000E+00
  0.00000000E+00  0.00000000E+00  0.00000000E+00
  0.00000000E+00  0.00000000E+00  0.00000000E+00
  0.00000000E+00  0.00000000E+00  0.00000000E+00
  0.00000000E+00  0.00000000E+00  0.00000000E+00
  0.00000000E+00  0.00000000E+00  0.00000000E+00
  0.00000000E+00  0.00000000E+00  0.00000000E+00
  0.00000000E+00  0.00000000E+00  0.00000000E+00
  0.00000000E+00  0.00000000E+00  0.00000000E+00
  0.00000000E+00  0.00000000E+00  0.00000000E+00
  0.00000000E+00  0.00000000E+00  0.00000000E+00
  0.00000000E+00  0.00000000E+00  0.00000000E+00
  0.00000000E+00  0.00000000E+00  0.00000000E+00
  0.00000000E+00  0.00000000E+00  0.00000000E+00
  0.00000000E+00  0.00000000E+00  0.00000000E+00
  0.00000000E+00  0.00000000E+00  0.00000000E+00
  0.00000000E+00  0.00000000E+00  0.00000000E+00
  0.00000000E+00  0.00000000E+00  0.00000000E+00
  0.00000000E+00  0.00000000E+00  0.00000000E+00
  0.00000000E+00  0.00000000E+00  0.00000000E+00
  0.00000000E+00  0.00000000E+00  0.00000000E+00
  0.00000000E+00  0.00000000E+00  0.00000000E+00
  0.00000000E+00  0.00000000E+00  0.00000000E+00
  0.00000000E+00  0.00000000E+00  0.00000000E+00
  0.00000000E+00  0.00000000E+00  0.00000000E+00
  0.00000000E+00  0.00000000E+00  0.00000000E+00
  0.00000000E+00  0.00000000E+00  0.00000000E+00
  0.00000000E+00  0.00000000E+00  0.00000000E+00
  0.00000000E+00  0.00000000E+00  0.00000000E+00
  0.00000000E+00  0.00000000E+00  0.00000000E+00
  0.00000000E+00  0.00000000E+00  0.00000000E+00
  0.00000000E+00  0.00000000E+00  0.00000000E+00
  0.00000000E+00  0.00000000E+00  0.00000000E+00
  0.00000000E+00  0.00000000E+00  0.00000000E+00
  0.00000000E+00  0.00000000E+00  0.00000000E+00
  0.00000000E+00  0.00000000E+00  0.00000000E+00
  0.00000000E+00  0.00000000E+00  0.00000000E+00
  0.00000000E+00  0.00000000E+00  0.00000000E+00
  0.00000000E+00  0.00000000E+00  0.00000000E+00
  0.00000000E+00  0.00000000E+00  0.00000000E+00
  0.00000000E+00  0.00000000E+00  0.00000000E+00
  0.00000000E+00  0.00000000E+00  0.00000000E+00
  0.00000000E+00  0.00000000E+00  0.00000000E+00
  0.00000000E+00  0.00000000E+00  0.00000000E+00
  0.00000000E+00  0.00000000E+00  0.00000000E+00
