Al   Sc   N                             
   1.00000000000000     
   -10.1009480048492719    0.0073157755973722   -0.0084401579761949
    -5.0646650762480920    8.7711355784380984   -0.0067923807136221
    -0.0006421720497008   -0.0038378004808031   -9.5518320150090261
   Al   Sc   N 
    23    13    35
Direct
  0.1112413970940764  0.0908785804457253  0.3197246395856794
  0.2228482105783911  0.2069946355856516  0.0960187725639585
  0.7755092227722997  0.0930734591850921  0.8178641018615664
  0.8930102098912940  0.2054062780855404  0.5812743914566951
  0.5572241287262685  0.2166444919762682  0.0726190041807655
  0.2252941760030680  0.2025127431744309  0.5694644194408056
  0.8785303838547165  0.2095317255625488  0.0752249004191796
  0.5460198962413401  0.2185087721984544  0.5848342286960246
  0.2310724787176639  0.5363026533361506  0.0753801282122808
  0.4388343780643709  0.4382076414254854  0.3272618376731771
  0.5515366237504580  0.5393621427132871  0.0807234630287752
  0.2302788234090229  0.5385130666740423  0.5783265852054100
  0.8855279030572447  0.5412086881865363  0.0670854318321332
  0.4422109983808227  0.4371535738226697  0.8270365336715173
  0.5493471302354180  0.5378060940768847  0.5735337030397218
  0.1190118142185099  0.7568120371281282  0.3285175287979598
  0.7740329798492951  0.7695598125930729  0.8218853635420231
  0.8911085014154594  0.8710532639158046  0.5803849172486792
  0.4432731860628749  0.7575704508096379  0.3283744989204962
  0.5632454078978455  0.8559085676894753  0.0726345562965065
  0.1095919769975069  0.7578232681979742  0.8264138466342672
  0.4483280782821168  0.7514788238866501  0.8257414040350213
  0.5515308434497825  0.8709789293218506  0.5822179662170370
  0.4497963606878628  0.0906446025436907  0.3364477399660473
  0.1115240567303886  0.0973587776839011  0.8510998660231905
  0.7757112994259145  0.1007010818082250  0.3519951469828015
  0.4494612808042575  0.0905146534702723  0.8458200322540534
  0.1191511843354291  0.4307671990090398  0.3383148539821903
  0.7632825843735773  0.4278533629050045  0.8418999397189282
  0.8916534814250028  0.5357451930290082  0.6029942256536174
  0.1265122168519923  0.4221419211001987  0.8445112199611700
  0.7746185133620216  0.4257658394027146  0.3373171975606439
  0.2302535964915791  0.8620001509785240  0.0908202878354842
  0.2218526043555471  0.8729802255308385  0.5902270693775193
  0.7752471784439194  0.7583302273058976  0.3449995298347019
  0.8846076561281251  0.8750295694628676  0.0881128326881111
  0.2166424169471526  0.1933522203075384  0.3616865140833596
  0.0999623441981541  0.1112091573666660  0.1105506730130941
  0.8792649287456911  0.1917962432441129  0.8764232678712389
  0.7776214031896416  0.0949728659553841  0.6141739864380753
  0.5372097983651400  0.2343536937630688  0.3871039468070805
  0.4498034568229912  0.0911281150600374  0.1013649765759581
  0.1063154455304627  0.1160142553914838  0.6292498676310032
  0.9124356181717985  0.1943235765320992  0.3819526011609256
  0.7642206772757163  0.1161118410193041  0.1280239944040176
  0.5609452872269642  0.2196436971348206  0.8698231783031858
  0.4424015086495459  0.0939535944641747  0.6145204408426537
  0.2332780733761410  0.5523141176417212  0.3806221376286842
  0.1133255959138566  0.4275324347114662  0.1010488947756230
  0.8856107610173609  0.5531617266095381  0.8569356742667011
  0.7632404023106858  0.4180867856709867  0.6131032045058618
  0.5348593752362518  0.5496969108703169  0.3749927315170112
  0.4439211575512658  0.4277916653126184  0.1267545302311746
  0.2320126971317009  0.5480141673477164  0.8778084869546348
  0.1404509404969190  0.4127020582461256  0.6131213087211478
  0.8938843637159266  0.5323859451796977  0.3832327625541012
  0.7775162318574331  0.4285294711005463  0.1017024693107160
  0.5318705947192868  0.5498939790829880  0.8842988263607907
  0.4423574096017404  0.4341422516675948  0.6304498554605829
  0.2218856351762781  0.8739679954753328  0.3537465316111650
  0.1195203496236914  0.7397842949313187  0.1285717245287969
  0.8840858937112657  0.8761406160041929  0.8628160836125147
  0.7658514101508800  0.7828971857748357  0.6183110921167483
  0.5417412136973212  0.8622080651102664  0.3845376607578928
  0.4652647676284118  0.7482653658501022  0.1294496390697049
  0.2288664586597662  0.8579512041648627  0.8583214841042945
  0.1025135933865471  0.7502382182091907  0.6281702442314767
  0.9089599346187143  0.8627136028288405  0.3743716383518674
  0.7726238007975255  0.7487844197573850  0.1185300905193927
  0.5627645151934857  0.8515118313708854  0.8729367172233680
  0.4624849413303238  0.7477032974679290  0.6282748717859192
 
  0.00000000E+00  0.00000000E+00  0.00000000E+00
  0.00000000E+00  0.00000000E+00  0.00000000E+00
  0.00000000E+00  0.00000000E+00  0.00000000E+00
  0.00000000E+00  0.00000000E+00  0.00000000E+00
  0.00000000E+00  0.00000000E+00  0.00000000E+00
  0.00000000E+00  0.00000000E+00  0.00000000E+00
  0.00000000E+00  0.00000000E+00  0.00000000E+00
  0.00000000E+00  0.00000000E+00  0.00000000E+00
  0.00000000E+00  0.00000000E+00  0.00000000E+00
  0.00000000E+00  0.00000000E+00  0.00000000E+00
  0.00000000E+00  0.00000000E+00  0.00000000E+00
  0.00000000E+00  0.00000000E+00  0.00000000E+00
  0.00000000E+00  0.00000000E+00  0.00000000E+00
  0.00000000E+00  0.00000000E+00  0.00000000E+00
  0.00000000E+00  0.00000000E+00  0.00000000E+00
  0.00000000E+00  0.00000000E+00  0.00000000E+00
  0.00000000E+00  0.00000000E+00  0.00000000E+00
  0.00000000E+00  0.00000000E+00  0.00000000E+00
  0.00000000E+00  0.00000000E+00  0.00000000E+00
  0.00000000E+00  0.00000000E+00  0.00000000E+00
  0.00000000E+00  0.00000000E+00  0.00000000E+00
  0.00000000E+00  0.00000000E+00  0.00000000E+00
  0.00000000E+00  0.00000000E+00  0.00000000E+00
  0.00000000E+00  0.00000000E+00  0.00000000E+00
  0.00000000E+00  0.00000000E+00  0.00000000E+00
  0.00000000E+00  0.00000000E+00  0.00000000E+00
  0.00000000E+00  0.00000000E+00  0.00000000E+00
  0.00000000E+00  0.00000000E+00  0.00000000E+00
  0.00000000E+00  0.00000000E+00  0.00000000E+00
  0.00000000E+00  0.00000000E+00  0.00000000E+00
  0.00000000E+00  0.00000000E+00  0.00000000E+00
  0.00000000E+00  0.00000000E+00  0.00000000E+00
  0.00000000E+00  0.00000000E+00  0.00000000E+00
  0.00000000E+00  0.00000000E+00  0.00000000E+00
  0.00000000E+00  0.00000000E+00  0.00000000E+00
  0.00000000E+00  0.00000000E+00  0.00000000E+00
  0.00000000E+00  0.00000000E+00  0.00000000E+00
  0.00000000E+00  0.00000000E+00  0.00000000E+00
  0.00000000E+00  0.00000000E+00  0.00000000E+00
  0.00000000E+00  0.00000000E+00  0.00000000E+00
  0.00000000E+00  0.00000000E+00  0.00000000E+00
  0.00000000E+00  0.00000000E+00  0.00000000E+00
  0.00000000E+00  0.00000000E+00  0.00000000E+00
  0.00000000E+00  0.00000000E+00  0.00000000E+00
  0.00000000E+00  0.00000000E+00  0.00000000E+00
  0.00000000E+00  0.00000000E+00  0.00000000E+00
  0.00000000E+00  0.00000000E+00  0.00000000E+00
  0.00000000E+00  0.00000000E+00  0.00000000E+00
  0.00000000E+00  0.00000000E+00  0.00000000E+00
  0.00000000E+00  0.00000000E+00  0.00000000E+00
  0.00000000E+00  0.00000000E+00  0.00000000E+00
  0.00000000E+00  0.00000000E+00  0.00000000E+00
  0.00000000E+00  0.00000000E+00  0.00000000E+00
  0.00000000E+00  0.00000000E+00  0.00000000E+00
  0.00000000E+00  0.00000000E+00  0.00000000E+00
  0.00000000E+00  0.00000000E+00  0.00000000E+00
  0.00000000E+00  0.00000000E+00  0.00000000E+00
  0.00000000E+00  0.00000000E+00  0.00000000E+00
  0.00000000E+00  0.00000000E+00  0.00000000E+00
  0.00000000E+00  0.00000000E+00  0.00000000E+00
  0.00000000E+00  0.00000000E+00  0.00000000E+00
  0.00000000E+00  0.00000000E+00  0.00000000E+00
  0.00000000E+00  0.00000000E+00  0.00000000E+00
  0.00000000E+00  0.00000000E+00  0.00000000E+00
  0.00000000E+00  0.00000000E+00  0.00000000E+00
  0.00000000E+00  0.00000000E+00  0.00000000E+00
  0.00000000E+00  0.00000000E+00  0.00000000E+00
  0.00000000E+00  0.00000000E+00  0.00000000E+00
  0.00000000E+00  0.00000000E+00  0.00000000E+00
  0.00000000E+00  0.00000000E+00  0.00000000E+00
  0.00000000E+00  0.00000000E+00  0.00000000E+00
