Al   Sc   N                             
   1.00000000000000     
   -10.3434808588385856    0.0083736848040804   -0.0069076724107853
    -5.1817292198681093    8.9820800147526008   -0.0067995898993192
    -0.0017346964985723    0.0267039466347289   -8.8633085160891856
   Al   Sc   N 
    23    13    35
Direct
  0.1109970983402349  0.0908480944324808  0.3466005381989135
  0.2215118769138371  0.2056269500777503  0.1213356710587803
  0.7742994410524418  0.0966231869498628  0.8399128861861271
  0.8879297539223288  0.2046466594713579  0.5979302658644059
  0.5533257232201336  0.2175934099698864  0.0792512272578136
  0.2250126911270272  0.2020339691077879  0.5766393312984235
  0.8845097057247315  0.2090901841599972  0.0906548744826026
  0.5509034330673828  0.2182467410747577  0.5994527801907594
  0.2327480710861849  0.5346355455413203  0.0843000201228605
  0.4394393585169496  0.4365653071061359  0.3364856460292174
  0.5504453686289850  0.5386679523719096  0.0935949461346510
  0.2293783472141513  0.5392258687666995  0.5899714442568609
  0.8878121120543767  0.5379714494313248  0.0936695945358892
  0.4427607265783848  0.4366231002914134  0.8343249724866411
  0.5497144017579245  0.5388324780004154  0.5831942439288511
  0.1166959771466693  0.7572901138144488  0.3382602385403075
  0.7747911177558606  0.7629160747586354  0.8535241308423309
  0.8883650009633470  0.8725024256643721  0.6092162981575129
  0.4426343410596658  0.7577131067512966  0.3461882357443145
  0.5574189022679903  0.8612811654974237  0.1018132084507926
  0.1141315935185148  0.7547643797143948  0.8415775341952028
  0.4474152738883816  0.7524674466700958  0.8502783624092274
  0.5549418634289367  0.8682033669861298  0.6162847934296138
  0.4521629900320363  0.0906298850710883  0.3505920414516694
  0.1127937371687580  0.0995636057517189  0.8512059272667116
  0.7757767107166060  0.0984912874517150  0.3549985915645806
  0.4446611358633987  0.0932285757770330  0.8522373548833926
  0.1206888459351134  0.4312006443394267  0.3477934790797406
  0.7656590591103196  0.4298847678314957  0.8505047303600293
  0.8899225207334354  0.5394048553951549  0.6048666830406120
  0.1246751295748822  0.4206069542603998  0.8520388215186543
  0.7728715842143501  0.4253349016245664  0.3471684215002426
  0.2271057855940199  0.8676873034956287  0.0997774808417660
  0.2238170995196782  0.8670164514710805  0.5998221326850910
  0.7747334047498384  0.7640086356544629  0.3526548489127066
  0.8889259849249527  0.8734531258216194  0.0940047943801048
  0.2185517456545583  0.1939819562319798  0.3496339748541430
  0.1022543498587680  0.1113725797679734  0.1051321374153389
  0.8833889791349065  0.1957792458245748  0.8568594103119196
  0.7768205309350762  0.0949803874362871  0.6131062398689480
  0.5416449319848340  0.2318073579996138  0.3769977802778399
  0.4455734565658318  0.0980305927991836  0.0993195326893002
  0.1060738861870689  0.1105218463219657  0.6036192030182974
  0.9062010048355873  0.1949716190018123  0.3618382819531831
  0.7650039295441715  0.1140595237829771  0.1010498660369095
  0.5568921441879695  0.2198686653590585  0.8523746902966565
  0.4419712696270039  0.0905797092211102  0.6054570138931012
  0.2327623349759165  0.5516559583976743  0.3673683060286166
  0.1185629140536406  0.4236656029096793  0.1011265388592548
  0.8884189954476085  0.5483176693897818  0.8563619666433340
  0.7652415473824519  0.4207741041310058  0.6024510876741331
  0.5354611548361063  0.5488182334685163  0.3568757414609678
  0.4445983401985529  0.4266736892520413  0.1143791017279270
  0.2331347104906030  0.5431191357054601  0.8636931455739685
  0.1365172472773608  0.4133385605823676  0.6035590626027769
  0.8921639886447039  0.5364600032155806  0.3528466315535610
  0.7764575184843139  0.4270885948928296  0.1008707718067683
  0.5361956553314471  0.5465713097581570  0.8691724016294842
  0.4422123230933295  0.4355405286343981  0.6171220571649414
  0.2216931109201781  0.8720544900345928  0.3520239200171815
  0.1216007045804872  0.7409293844218396  0.1079745304785646
  0.8858477477887945  0.8745213505596325  0.8471576905054334
  0.7668100671936813  0.7791259895955065  0.6096410374388981
  0.5447444833581443  0.8623135531398631  0.3405888741903169
  0.4589725274659671  0.7495432839727414  0.1032169085555310
  0.2283949391174218  0.8609754239756882  0.8514057643944781
  0.1027386146288904  0.7498281966775764  0.6186115047652478
  0.9074288519513516  0.8651284791301990  0.3572046492897982
  0.7717477702222340  0.7531196730031979  0.0931997860022520
  0.5587907014068563  0.8566138595541233  0.8532200311366722
  0.4621450911604086  0.7493888473549219  0.6065064972569090
 
  0.00000000E+00  0.00000000E+00  0.00000000E+00
  0.00000000E+00  0.00000000E+00  0.00000000E+00
  0.00000000E+00  0.00000000E+00  0.00000000E+00
  0.00000000E+00  0.00000000E+00  0.00000000E+00
  0.00000000E+00  0.00000000E+00  0.00000000E+00
  0.00000000E+00  0.00000000E+00  0.00000000E+00
  0.00000000E+00  0.00000000E+00  0.00000000E+00
  0.00000000E+00  0.00000000E+00  0.00000000E+00
  0.00000000E+00  0.00000000E+00  0.00000000E+00
  0.00000000E+00  0.00000000E+00  0.00000000E+00
  0.00000000E+00  0.00000000E+00  0.00000000E+00
  0.00000000E+00  0.00000000E+00  0.00000000E+00
  0.00000000E+00  0.00000000E+00  0.00000000E+00
  0.00000000E+00  0.00000000E+00  0.00000000E+00
  0.00000000E+00  0.00000000E+00  0.00000000E+00
  0.00000000E+00  0.00000000E+00  0.00000000E+00
  0.00000000E+00  0.00000000E+00  0.00000000E+00
  0.00000000E+00  0.00000000E+00  0.00000000E+00
  0.00000000E+00  0.00000000E+00  0.00000000E+00
  0.00000000E+00  0.00000000E+00  0.00000000E+00
  0.00000000E+00  0.00000000E+00  0.00000000E+00
  0.00000000E+00  0.00000000E+00  0.00000000E+00
  0.00000000E+00  0.00000000E+00  0.00000000E+00
  0.00000000E+00  0.00000000E+00  0.00000000E+00
  0.00000000E+00  0.00000000E+00  0.00000000E+00
  0.00000000E+00  0.00000000E+00  0.00000000E+00
  0.00000000E+00  0.00000000E+00  0.00000000E+00
  0.00000000E+00  0.00000000E+00  0.00000000E+00
  0.00000000E+00  0.00000000E+00  0.00000000E+00
  0.00000000E+00  0.00000000E+00  0.00000000E+00
  0.00000000E+00  0.00000000E+00  0.00000000E+00
  0.00000000E+00  0.00000000E+00  0.00000000E+00
  0.00000000E+00  0.00000000E+00  0.00000000E+00
  0.00000000E+00  0.00000000E+00  0.00000000E+00
  0.00000000E+00  0.00000000E+00  0.00000000E+00
  0.00000000E+00  0.00000000E+00  0.00000000E+00
  0.00000000E+00  0.00000000E+00  0.00000000E+00
  0.00000000E+00  0.00000000E+00  0.00000000E+00
  0.00000000E+00  0.00000000E+00  0.00000000E+00
  0.00000000E+00  0.00000000E+00  0.00000000E+00
  0.00000000E+00  0.00000000E+00  0.00000000E+00
  0.00000000E+00  0.00000000E+00  0.00000000E+00
  0.00000000E+00  0.00000000E+00  0.00000000E+00
  0.00000000E+00  0.00000000E+00  0.00000000E+00
  0.00000000E+00  0.00000000E+00  0.00000000E+00
  0.00000000E+00  0.00000000E+00  0.00000000E+00
  0.00000000E+00  0.00000000E+00  0.00000000E+00
  0.00000000E+00  0.00000000E+00  0.00000000E+00
  0.00000000E+00  0.00000000E+00  0.00000000E+00
  0.00000000E+00  0.00000000E+00  0.00000000E+00
  0.00000000E+00  0.00000000E+00  0.00000000E+00
  0.00000000E+00  0.00000000E+00  0.00000000E+00
  0.00000000E+00  0.00000000E+00  0.00000000E+00
  0.00000000E+00  0.00000000E+00  0.00000000E+00
  0.00000000E+00  0.00000000E+00  0.00000000E+00
  0.00000000E+00  0.00000000E+00  0.00000000E+00
  0.00000000E+00  0.00000000E+00  0.00000000E+00
  0.00000000E+00  0.00000000E+00  0.00000000E+00
  0.00000000E+00  0.00000000E+00  0.00000000E+00
  0.00000000E+00  0.00000000E+00  0.00000000E+00
  0.00000000E+00  0.00000000E+00  0.00000000E+00
  0.00000000E+00  0.00000000E+00  0.00000000E+00
  0.00000000E+00  0.00000000E+00  0.00000000E+00
  0.00000000E+00  0.00000000E+00  0.00000000E+00
  0.00000000E+00  0.00000000E+00  0.00000000E+00
  0.00000000E+00  0.00000000E+00  0.00000000E+00
  0.00000000E+00  0.00000000E+00  0.00000000E+00
  0.00000000E+00  0.00000000E+00  0.00000000E+00
  0.00000000E+00  0.00000000E+00  0.00000000E+00
  0.00000000E+00  0.00000000E+00  0.00000000E+00
  0.00000000E+00  0.00000000E+00  0.00000000E+00
