Al   Sc   N                             
   1.00000000000000     
    -9.9293373374146796    0.0119000488264410   -0.0017993871927534
    -4.9750007379000296    8.6239292415296802   -0.0068236205183098
    -0.0025592663350177    0.0073661149823268  -10.0322595293774004
   Al   Sc   N 
    23    13    35
Direct
  0.1107115130936336  0.0947125884232065  0.4156170155740924
  0.2224297659648258  0.2027271653419263  0.1590840734385353
  0.7710592769769278  0.1027074648046451  0.9071519285285206
  0.8792705047554605  0.2059111146583135  0.6587076191030548
  0.5488472493430763  0.2184799610474926  0.1528128708441443
  0.2244471532783336  0.2081636517742851  0.6546096793982130
  0.8915047113754682  0.2088278271361688  0.1550960463348545
  0.5579008462436121  0.2128592756005432  0.6590972030107309
  0.2315058042039340  0.5400462841858484  0.1579616413916085
  0.4385131686885018  0.4396875454396252  0.4057076859449253
  0.5482382431439561  0.5419079167996088  0.1565669415398148
  0.2283771450378467  0.5354209192567012  0.6562610936842290
  0.8864883624685831  0.5370340985517288  0.1618352691438147
  0.4430031321551127  0.4350130400893875  0.9056497021527790
  0.5532168383522418  0.5354673843580215  0.6567519092280989
  0.1111235199721889  0.7582799733970589  0.4117571006545475
  0.7742270364750823  0.7571833702539621  0.9094359424547207
  0.8827635075345910  0.8754200379378432  0.6675014875016387
  0.4464945494512804  0.7563700007246439  0.4090755469244911
  0.5520708937488621  0.8655203930487190  0.1497094109680077
  0.1213742566875169  0.7537449964330634  0.9003722817570221
  0.4452110747587952  0.7526927082283876  0.9043278694865720
  0.5609310906017129  0.8646850277211229  0.6624032155570063
  0.4452103877737059  0.0910400847385091  0.4042397072107207
  0.1127144988423225  0.0921953108261633  0.8862226566658151
  0.7809463006171029  0.0926007486737959  0.3973118706227226
  0.4522961234476526  0.0902533901589067  0.8901622318041404
  0.1239882327265533  0.4247422937889951  0.3907358180051190
  0.7685961563240582  0.4308215726406672  0.9062205615370758
  0.8881688164989541  0.5408776199262064  0.6452054220327597
  0.1181190307093658  0.4295211125179748  0.9076165844956421
  0.7683888451513070  0.4241242819390862  0.3928534017302994
  0.2246797666348570  0.8729330448908854  0.1618481660981317
  0.2266997911576283  0.8634962528678329  0.6353531124297120
  0.7740110894680754  0.7689212451856378  0.3950077896997612
  0.8913292699574669  0.8708799702672323  0.1292692855514801
  0.2176798181659336  0.1885024324251887  0.3476029776581768
  0.1046403073190234  0.1125596438385941  0.0954465956522199
  0.8797818785690694  0.1975120471387370  0.8461885019989310
  0.7775133390625939  0.0913190494827916  0.6117805933535720
  0.5409247243249098  0.2305274603948320  0.3433487055619793
  0.4442107372896444  0.0953156882472754  0.1069247656218479
  0.1003186142259764  0.1156392229198531  0.6125166776704702
  0.9122914662465291  0.1900108829128371  0.3432481356400956
  0.7654509289791989  0.1193925982659536  0.0995355162743863
  0.5594464507369921  0.2216022988530355  0.8488749698197111
  0.4462774745986167  0.0920911938414051  0.6286858135291453
  0.2319133582516955  0.5553366949652627  0.3459973409963339
  0.1154582974553335  0.4277208994898416  0.1251011742125456
  0.8878154563560656  0.5493536170490998  0.8555824015132600
  0.7665720159476308  0.4169620651384705  0.6099497348452587
  0.5297649322604343  0.5537623312226643  0.3437259715858758
  0.4432317611825880  0.4308589160523582  0.0956244652961544
  0.2331675214597695  0.5431660006104835  0.8447889463304890
  0.1341092571642619  0.4167244856834955  0.6099740828472306
  0.8892144800686879  0.5377915631457668  0.3549619151892855
  0.7740859373403453  0.4291490417088966  0.1239544678823208
  0.5369426977478682  0.5466971579410682  0.8453711362996614
  0.4439211437181001  0.4294990565772707  0.5975769746555315
  0.2212311317135160  0.8727132375699043  0.3872440417783807
  0.1295031998903582  0.7415651836568529  0.0875379285205042
  0.8845749223988975  0.8741986376103128  0.8670049624776723
  0.7670599048864872  0.7844770403372294  0.6070403827741231
  0.5406761469753150  0.8636081976378378  0.3375361022700645
  0.4564832091969677  0.7509943080550556  0.0929726747110564
  0.2319706848835068  0.8559993242140536  0.8504923593156875
  0.0952020992047693  0.7487118079429678  0.6033099200622019
  0.9113314604298139  0.8629859113914904  0.3382639871497020
  0.7682237496651751  0.7489220701576258  0.1022876608550405
  0.5628582044028860  0.8505332873528602  0.8518351136592344
  0.4721575055840646  0.7460209581996153  0.5972165857105836
 
  0.00000000E+00  0.00000000E+00  0.00000000E+00
  0.00000000E+00  0.00000000E+00  0.00000000E+00
  0.00000000E+00  0.00000000E+00  0.00000000E+00
  0.00000000E+00  0.00000000E+00  0.00000000E+00
  0.00000000E+00  0.00000000E+00  0.00000000E+00
  0.00000000E+00  0.00000000E+00  0.00000000E+00
  0.00000000E+00  0.00000000E+00  0.00000000E+00
  0.00000000E+00  0.00000000E+00  0.00000000E+00
  0.00000000E+00  0.00000000E+00  0.00000000E+00
  0.00000000E+00  0.00000000E+00  0.00000000E+00
  0.00000000E+00  0.00000000E+00  0.00000000E+00
  0.00000000E+00  0.00000000E+00  0.00000000E+00
  0.00000000E+00  0.00000000E+00  0.00000000E+00
  0.00000000E+00  0.00000000E+00  0.00000000E+00
  0.00000000E+00  0.00000000E+00  0.00000000E+00
  0.00000000E+00  0.00000000E+00  0.00000000E+00
  0.00000000E+00  0.00000000E+00  0.00000000E+00
  0.00000000E+00  0.00000000E+00  0.00000000E+00
  0.00000000E+00  0.00000000E+00  0.00000000E+00
  0.00000000E+00  0.00000000E+00  0.00000000E+00
  0.00000000E+00  0.00000000E+00  0.00000000E+00
  0.00000000E+00  0.00000000E+00  0.00000000E+00
  0.00000000E+00  0.00000000E+00  0.00000000E+00
  0.00000000E+00  0.00000000E+00  0.00000000E+00
  0.00000000E+00  0.00000000E+00  0.00000000E+00
  0.00000000E+00  0.00000000E+00  0.00000000E+00
  0.00000000E+00  0.00000000E+00  0.00000000E+00
  0.00000000E+00  0.00000000E+00  0.00000000E+00
  0.00000000E+00  0.00000000E+00  0.00000000E+00
  0.00000000E+00  0.00000000E+00  0.00000000E+00
  0.00000000E+00  0.00000000E+00  0.00000000E+00
  0.00000000E+00  0.00000000E+00  0.00000000E+00
  0.00000000E+00  0.00000000E+00  0.00000000E+00
  0.00000000E+00  0.00000000E+00  0.00000000E+00
  0.00000000E+00  0.00000000E+00  0.00000000E+00
  0.00000000E+00  0.00000000E+00  0.00000000E+00
  0.00000000E+00  0.00000000E+00  0.00000000E+00
  0.00000000E+00  0.00000000E+00  0.00000000E+00
  0.00000000E+00  0.00000000E+00  0.00000000E+00
  0.00000000E+00  0.00000000E+00  0.00000000E+00
  0.00000000E+00  0.00000000E+00  0.00000000E+00
  0.00000000E+00  0.00000000E+00  0.00000000E+00
  0.00000000E+00  0.00000000E+00  0.00000000E+00
  0.00000000E+00  0.00000000E+00  0.00000000E+00
  0.00000000E+00  0.00000000E+00  0.00000000E+00
  0.00000000E+00  0.00000000E+00  0.00000000E+00
  0.00000000E+00  0.00000000E+00  0.00000000E+00
  0.00000000E+00  0.00000000E+00  0.00000000E+00
  0.00000000E+00  0.00000000E+00  0.00000000E+00
  0.00000000E+00  0.00000000E+00  0.00000000E+00
  0.00000000E+00  0.00000000E+00  0.00000000E+00
  0.00000000E+00  0.00000000E+00  0.00000000E+00
  0.00000000E+00  0.00000000E+00  0.00000000E+00
  0.00000000E+00  0.00000000E+00  0.00000000E+00
  0.00000000E+00  0.00000000E+00  0.00000000E+00
  0.00000000E+00  0.00000000E+00  0.00000000E+00
  0.00000000E+00  0.00000000E+00  0.00000000E+00
  0.00000000E+00  0.00000000E+00  0.00000000E+00
  0.00000000E+00  0.00000000E+00  0.00000000E+00
  0.00000000E+00  0.00000000E+00  0.00000000E+00
  0.00000000E+00  0.00000000E+00  0.00000000E+00
  0.00000000E+00  0.00000000E+00  0.00000000E+00
  0.00000000E+00  0.00000000E+00  0.00000000E+00
  0.00000000E+00  0.00000000E+00  0.00000000E+00
  0.00000000E+00  0.00000000E+00  0.00000000E+00
  0.00000000E+00  0.00000000E+00  0.00000000E+00
  0.00000000E+00  0.00000000E+00  0.00000000E+00
  0.00000000E+00  0.00000000E+00  0.00000000E+00
  0.00000000E+00  0.00000000E+00  0.00000000E+00
  0.00000000E+00  0.00000000E+00  0.00000000E+00
  0.00000000E+00  0.00000000E+00  0.00000000E+00
