Al   Sc   N                             
   1.00000000000000     
   -10.1742382717780462    0.0075802528990492   -0.0080570365848425
    -5.0990650949157379    8.8321515516139169   -0.0067941830100463
     0.0002355263650470   -0.0007671987498404   -9.3470797522769029
   Al   Sc   N 
    23    13    35
Direct
  0.1106056160441753  0.0899787496485658  0.3235492522848276
  0.2224595148554940  0.2063976329681694  0.1096706810253565
  0.7754541830968691  0.0936043935325586  0.8214123192581297
  0.8924074530935044  0.2051324335259039  0.5846233170740973
  0.5566794469259122  0.2163367535968135  0.0735742752365454
  0.2251555666885210  0.2022607419738591  0.5707166719951076
  0.8791722548264360  0.2095575508456733  0.0770462885943672
  0.5468389206157056  0.2190684180122631  0.5889387369282417
  0.2314153879997320  0.5357129728993826  0.0775899455279614
  0.4389978370098859  0.4374954131783966  0.3285296986694846
  0.5512614499163675  0.5396722206769482  0.0848401881650744
  0.2304174911667758  0.5388576512201126  0.5807322365836356
  0.8860906056805220  0.5404951971431728  0.0724389038121700
  0.4423750817511447  0.4374331399346829  0.8292993971276204
  0.5488849215651896  0.5380767798385335  0.5740683426001709
  0.1185571262292555  0.7570014723017167  0.3301423709555422
  0.7742349303895750  0.7685001661044879  0.8266809440266485
  0.8908178751558609  0.8712459340793401  0.5857414084617645
  0.4432054248366057  0.7579237805077597  0.3304933033228394
  0.5622149181557958  0.8572693438814909  0.0744300255601402
  0.1105805473547932  0.7570000847942211  0.8297590682540275
  0.4483857011407650  0.7512002905079882  0.8280205301874304
  0.5519190207865776  0.8697969484067158  0.5855659587641640
  0.4516065714765887  0.0901316973891610  0.3416429273229227
  0.1121125086127819  0.0984317138037767  0.8525391805115774
  0.7756159436672476  0.1005181361993479  0.3533920076292532
  0.4476601855414799  0.0913823672021437  0.8473382560403238
  0.1192653455689126  0.4317642812422662  0.3428094694198336
  0.7630023542133273  0.4290525786963357  0.8443394777932340
  0.8912682706627919  0.5364717466012294  0.6039708785281164
  0.1264030766416795  0.4210757300862298  0.8475014672755208
  0.7745086256486786  0.4253047294670509  0.3413104085467680
  0.2300327514431544  0.8628030905174811  0.0928423241390206
  0.2220289744790449  0.8718387292651144  0.5935572994637610
  0.7748761589561113  0.7595515916734996  0.3471901879520729
  0.8853874370889514  0.8747958223843426  0.0904221698063168
  0.2172783599151487  0.1932775501482382  0.3526279276865907
  0.0996474444522164  0.1107157216400836  0.1087079200870207
  0.8798753821953653  0.1933324245105936  0.8717317163382958
  0.7775458537082116  0.0949974427248250  0.6133628398121189
  0.5383941685376215  0.2341923937285841  0.3855539004188131
  0.4498786929226100  0.0914593535987080  0.1009957861649369
  0.1069241338948217  0.1149881278839615  0.6241321745719546
  0.9113591344502652  0.1940549020417066  0.3791664359996787
  0.7642906904330786  0.1156716376225333  0.1228645727552475
  0.5601538130460924  0.2193951131822303  0.8650506079210487
  0.4418411095017518  0.0939011201169038  0.6106788788001865
  0.2335655824880902  0.5524617169412807  0.3774727494294936
  0.1141483347845025  0.4268788159035779  0.1011793039980944
  0.8862087128127811  0.5521905479464877  0.8563839699837814
  0.7632141245934321  0.4190312547386625  0.6091797647763642
  0.5347190042430512  0.5495206073886720  0.3701016358260460
  0.4440971386079866  0.4270318139947236  0.1236899370166569
  0.2322181417518792  0.5465239587748130  0.8746536635336355
  0.1396842991207023  0.4127356272156533  0.6085069233324063
  0.8933735874306876  0.5334319007217516  0.3773282902868402
  0.7774751630946355  0.4281962746593351  0.1015435682878163
  0.5324670249534407  0.5495883764334053  0.8829199120544402
  0.4422454478060871  0.4350011889728691  0.6280440705995360
  0.2218896895899363  0.8734877641647785  0.3529625211397374
  0.1200803694807249  0.7401460132426934  0.1238697443320618
  0.8846201041028721  0.8759745923081610  0.8591081768994329
  0.7661953607518299  0.7819058270551196  0.6164806927133739
  0.5423440893332341  0.8618480800017565  0.3819426214124348
  0.4642361349852067  0.7494913484744288  0.1263423199733182
  0.2288675298547105  0.8587467241174522  0.8557163865725528
  0.1027317487006769  0.7499370285533615  0.6261395734783477
  0.9085924647492618  0.8632939446353873  0.3708600452288380
  0.7721444947457741  0.7500627599516392  0.1137957093566158
  0.5616257922806227  0.8527042340226103  0.8690391367146262
  0.4621611471978682  0.7470829034584909  0.6252352990865901
 
  0.00000000E+00  0.00000000E+00  0.00000000E+00
  0.00000000E+00  0.00000000E+00  0.00000000E+00
  0.00000000E+00  0.00000000E+00  0.00000000E+00
  0.00000000E+00  0.00000000E+00  0.00000000E+00
  0.00000000E+00  0.00000000E+00  0.00000000E+00
  0.00000000E+00  0.00000000E+00  0.00000000E+00
  0.00000000E+00  0.00000000E+00  0.00000000E+00
  0.00000000E+00  0.00000000E+00  0.00000000E+00
  0.00000000E+00  0.00000000E+00  0.00000000E+00
  0.00000000E+00  0.00000000E+00  0.00000000E+00
  0.00000000E+00  0.00000000E+00  0.00000000E+00
  0.00000000E+00  0.00000000E+00  0.00000000E+00
  0.00000000E+00  0.00000000E+00  0.00000000E+00
  0.00000000E+00  0.00000000E+00  0.00000000E+00
  0.00000000E+00  0.00000000E+00  0.00000000E+00
  0.00000000E+00  0.00000000E+00  0.00000000E+00
  0.00000000E+00  0.00000000E+00  0.00000000E+00
  0.00000000E+00  0.00000000E+00  0.00000000E+00
  0.00000000E+00  0.00000000E+00  0.00000000E+00
  0.00000000E+00  0.00000000E+00  0.00000000E+00
  0.00000000E+00  0.00000000E+00  0.00000000E+00
  0.00000000E+00  0.00000000E+00  0.00000000E+00
  0.00000000E+00  0.00000000E+00  0.00000000E+00
  0.00000000E+00  0.00000000E+00  0.00000000E+00
  0.00000000E+00  0.00000000E+00  0.00000000E+00
  0.00000000E+00  0.00000000E+00  0.00000000E+00
  0.00000000E+00  0.00000000E+00  0.00000000E+00
  0.00000000E+00  0.00000000E+00  0.00000000E+00
  0.00000000E+00  0.00000000E+00  0.00000000E+00
  0.00000000E+00  0.00000000E+00  0.00000000E+00
  0.00000000E+00  0.00000000E+00  0.00000000E+00
  0.00000000E+00  0.00000000E+00  0.00000000E+00
  0.00000000E+00  0.00000000E+00  0.00000000E+00
  0.00000000E+00  0.00000000E+00  0.00000000E+00
  0.00000000E+00  0.00000000E+00  0.00000000E+00
  0.00000000E+00  0.00000000E+00  0.00000000E+00
  0.00000000E+00  0.00000000E+00  0.00000000E+00
  0.00000000E+00  0.00000000E+00  0.00000000E+00
  0.00000000E+00  0.00000000E+00  0.00000000E+00
  0.00000000E+00  0.00000000E+00  0.00000000E+00
  0.00000000E+00  0.00000000E+00  0.00000000E+00
  0.00000000E+00  0.00000000E+00  0.00000000E+00
  0.00000000E+00  0.00000000E+00  0.00000000E+00
  0.00000000E+00  0.00000000E+00  0.00000000E+00
  0.00000000E+00  0.00000000E+00  0.00000000E+00
  0.00000000E+00  0.00000000E+00  0.00000000E+00
  0.00000000E+00  0.00000000E+00  0.00000000E+00
  0.00000000E+00  0.00000000E+00  0.00000000E+00
  0.00000000E+00  0.00000000E+00  0.00000000E+00
  0.00000000E+00  0.00000000E+00  0.00000000E+00
  0.00000000E+00  0.00000000E+00  0.00000000E+00
  0.00000000E+00  0.00000000E+00  0.00000000E+00
  0.00000000E+00  0.00000000E+00  0.00000000E+00
  0.00000000E+00  0.00000000E+00  0.00000000E+00
  0.00000000E+00  0.00000000E+00  0.00000000E+00
  0.00000000E+00  0.00000000E+00  0.00000000E+00
  0.00000000E+00  0.00000000E+00  0.00000000E+00
  0.00000000E+00  0.00000000E+00  0.00000000E+00
  0.00000000E+00  0.00000000E+00  0.00000000E+00
  0.00000000E+00  0.00000000E+00  0.00000000E+00
  0.00000000E+00  0.00000000E+00  0.00000000E+00
  0.00000000E+00  0.00000000E+00  0.00000000E+00
  0.00000000E+00  0.00000000E+00  0.00000000E+00
  0.00000000E+00  0.00000000E+00  0.00000000E+00
  0.00000000E+00  0.00000000E+00  0.00000000E+00
  0.00000000E+00  0.00000000E+00  0.00000000E+00
  0.00000000E+00  0.00000000E+00  0.00000000E+00
  0.00000000E+00  0.00000000E+00  0.00000000E+00
  0.00000000E+00  0.00000000E+00  0.00000000E+00
  0.00000000E+00  0.00000000E+00  0.00000000E+00
  0.00000000E+00  0.00000000E+00  0.00000000E+00
