Al   Sc   N                             
   1.00000000000000     
   -10.2888188468611954    0.0080210484018443   -0.0074185009325885
    -5.1535783031520701    8.9294321943311150   -0.0067971868374202
    -0.0003293897044598    0.0076884949508701   -9.0239483729422290
   Al   Sc   N 
    23    13    35
Direct
  0.1107049035266598  0.0902274201444939  0.3365396872561490
  0.2218130057142957  0.2054426215879417  0.1185199574391405
  0.7746789125899554  0.0957583036508822  0.8322444593515002
  0.8898059870509982  0.2049364714731112  0.5917537841343901
  0.5548386231316869  0.2167378419239938  0.0763488610548251
  0.2250682497623799  0.2021829724442412  0.5740602582600829
  0.8820799282986300  0.2094069236310503  0.0826376134679592
  0.5491628842310448  0.2189376218818069  0.5964015844776895
  0.2323899585415603  0.5347346666653294  0.0816646568772867
  0.4392406588155211  0.4364953440577182  0.3328797810714548
  0.5504041815890730  0.5399224417834745  0.0912952599925347
  0.2299396570315793  0.5392090833704160  0.5864430346011176
  0.8873807009446679  0.5385257840128617  0.0862673537096228
  0.4427461872609157  0.4375789102759384  0.8329709535463650
  0.5489116555042060  0.5386080343055895  0.5770470958159208
  0.1173476100089275  0.7572363925350132  0.3343167641824749
  0.7741154722831922  0.7650300752552397  0.8410459012214559
  0.8891291592555604  0.8721056541447041  0.6026765854455363
  0.4431422587103668  0.7580238078299928  0.3350619372358921
  0.5593443667258597  0.8600295467157864  0.0807984236708634
  0.1134205455390287  0.7553391998789607  0.8371579324710581
  0.4483414401069226  0.7514616265863410  0.8336589948870099
  0.5530688762903253  0.8683607793397101  0.5918589498261113
  0.4522660629095583  0.0905764098312503  0.3473801782100239
  0.1127686924092259  0.0992656013635980  0.8517010494948707
  0.7757837256237465  0.0991200370642105  0.3547143096075089
  0.4458711544005425  0.0919609168548376  0.8487490643893025
  0.1203757588012948  0.4314462137163062  0.3466532934988749
  0.7636913202285456  0.4306700518614690  0.8484488672827055
  0.8903339668585701  0.5383900254614389  0.6043120583788948
  0.1252334421046442  0.4206384412187774  0.8508734904639823
  0.7737786014316086  0.4248151219805720  0.3454578150756689
  0.2287464532118832  0.8656794716418759  0.0966285267850253
  0.2228723420919891  0.8688680000751248  0.5970265338825413
  0.7749546055668830  0.7624198243346498  0.3498818517235804
  0.8875973080603998  0.8740602373231354  0.0926891386432942
  0.2182249023846978  0.1934964570473525  0.3490039137475520
  0.1005031348059404  0.1109880425056744  0.1069555869337790
  0.8819473613191064  0.1955758408592629  0.8629913389514670
  0.7769523545109536  0.0953086569172754  0.6136054534830961
  0.5405878545722729  0.2327333797891242  0.3812508544777984
  0.4484069524735403  0.0933789300191847  0.1001716119584870
  0.1070730351064455  0.1120476208021088  0.6119030303620292
  0.9080984151302047  0.1944359809239486  0.3715553145063311
  0.7648271761770147  0.1145197887608873  0.1095645559492766
  0.5579773561755985  0.2197097640041719  0.8569257645120061
  0.4412924765580470  0.0932796296348712  0.6070433724578592
  0.2332168539071802  0.5520397359088705  0.3714210642335445
  0.1170683102217680  0.4246973036627750  0.1011463466287381
  0.8875573403702006  0.5496700244532775  0.8567383045405350
  0.7638221375367138  0.4207865327673872  0.6044569933188413
  0.5349724037575498  0.5490402284319913  0.3620954621152777
  0.4443781665685336  0.4263287946881675  0.1183618501167700
  0.2329000585514081  0.5440209313178386  0.8680681469227238
  0.1375392196510106  0.4132543455650222  0.6045880106664683
  0.8927243429644207  0.5352440512863481  0.3613535719591567
  0.7769786910490950  0.4273435432883801  0.1013483904402008
  0.5340129697905382  0.5487526080124141  0.8784451804155040
  0.4423179779315305  0.4358602812059473  0.6222282341658740
  0.2218110923510963  0.8725154470732477  0.3520444479596136
  0.1212198891182794  0.7406944332876577  0.1137567326843723
  0.8855283520793833  0.8752360885145478  0.8502945924207523
  0.7666762533124896  0.7796951442756992  0.6140610408423015
  0.5437399529787115  0.8619450093025591  0.3734385839751369
  0.4617920102309583  0.7508797683790718  0.1197725550701279
  0.2290750114844329  0.8600835651702710  0.8528924960043156
  0.1030255711072030  0.7497866179496668  0.6220223697808933
  0.9078757909339714  0.8643923744768784  0.3623148973637811
  0.7714448968595917  0.7525119243246365  0.1016589375030534
  0.5592519500970283  0.8549415490995713  0.8633128147762861
  0.4618248201920849  0.7470031057601290  0.6191340352435546
 
  0.00000000E+00  0.00000000E+00  0.00000000E+00
  0.00000000E+00  0.00000000E+00  0.00000000E+00
  0.00000000E+00  0.00000000E+00  0.00000000E+00
  0.00000000E+00  0.00000000E+00  0.00000000E+00
  0.00000000E+00  0.00000000E+00  0.00000000E+00
  0.00000000E+00  0.00000000E+00  0.00000000E+00
  0.00000000E+00  0.00000000E+00  0.00000000E+00
  0.00000000E+00  0.00000000E+00  0.00000000E+00
  0.00000000E+00  0.00000000E+00  0.00000000E+00
  0.00000000E+00  0.00000000E+00  0.00000000E+00
  0.00000000E+00  0.00000000E+00  0.00000000E+00
  0.00000000E+00  0.00000000E+00  0.00000000E+00
  0.00000000E+00  0.00000000E+00  0.00000000E+00
  0.00000000E+00  0.00000000E+00  0.00000000E+00
  0.00000000E+00  0.00000000E+00  0.00000000E+00
  0.00000000E+00  0.00000000E+00  0.00000000E+00
  0.00000000E+00  0.00000000E+00  0.00000000E+00
  0.00000000E+00  0.00000000E+00  0.00000000E+00
  0.00000000E+00  0.00000000E+00  0.00000000E+00
  0.00000000E+00  0.00000000E+00  0.00000000E+00
  0.00000000E+00  0.00000000E+00  0.00000000E+00
  0.00000000E+00  0.00000000E+00  0.00000000E+00
  0.00000000E+00  0.00000000E+00  0.00000000E+00
  0.00000000E+00  0.00000000E+00  0.00000000E+00
  0.00000000E+00  0.00000000E+00  0.00000000E+00
  0.00000000E+00  0.00000000E+00  0.00000000E+00
  0.00000000E+00  0.00000000E+00  0.00000000E+00
  0.00000000E+00  0.00000000E+00  0.00000000E+00
  0.00000000E+00  0.00000000E+00  0.00000000E+00
  0.00000000E+00  0.00000000E+00  0.00000000E+00
  0.00000000E+00  0.00000000E+00  0.00000000E+00
  0.00000000E+00  0.00000000E+00  0.00000000E+00
  0.00000000E+00  0.00000000E+00  0.00000000E+00
  0.00000000E+00  0.00000000E+00  0.00000000E+00
  0.00000000E+00  0.00000000E+00  0.00000000E+00
  0.00000000E+00  0.00000000E+00  0.00000000E+00
  0.00000000E+00  0.00000000E+00  0.00000000E+00
  0.00000000E+00  0.00000000E+00  0.00000000E+00
  0.00000000E+00  0.00000000E+00  0.00000000E+00
  0.00000000E+00  0.00000000E+00  0.00000000E+00
  0.00000000E+00  0.00000000E+00  0.00000000E+00
  0.00000000E+00  0.00000000E+00  0.00000000E+00
  0.00000000E+00  0.00000000E+00  0.00000000E+00
  0.00000000E+00  0.00000000E+00  0.00000000E+00
  0.00000000E+00  0.00000000E+00  0.00000000E+00
  0.00000000E+00  0.00000000E+00  0.00000000E+00
  0.00000000E+00  0.00000000E+00  0.00000000E+00
  0.00000000E+00  0.00000000E+00  0.00000000E+00
  0.00000000E+00  0.00000000E+00  0.00000000E+00
  0.00000000E+00  0.00000000E+00  0.00000000E+00
  0.00000000E+00  0.00000000E+00  0.00000000E+00
  0.00000000E+00  0.00000000E+00  0.00000000E+00
  0.00000000E+00  0.00000000E+00  0.00000000E+00
  0.00000000E+00  0.00000000E+00  0.00000000E+00
  0.00000000E+00  0.00000000E+00  0.00000000E+00
  0.00000000E+00  0.00000000E+00  0.00000000E+00
  0.00000000E+00  0.00000000E+00  0.00000000E+00
  0.00000000E+00  0.00000000E+00  0.00000000E+00
  0.00000000E+00  0.00000000E+00  0.00000000E+00
  0.00000000E+00  0.00000000E+00  0.00000000E+00
  0.00000000E+00  0.00000000E+00  0.00000000E+00
  0.00000000E+00  0.00000000E+00  0.00000000E+00
  0.00000000E+00  0.00000000E+00  0.00000000E+00
  0.00000000E+00  0.00000000E+00  0.00000000E+00
  0.00000000E+00  0.00000000E+00  0.00000000E+00
  0.00000000E+00  0.00000000E+00  0.00000000E+00
  0.00000000E+00  0.00000000E+00  0.00000000E+00
  0.00000000E+00  0.00000000E+00  0.00000000E+00
  0.00000000E+00  0.00000000E+00  0.00000000E+00
  0.00000000E+00  0.00000000E+00  0.00000000E+00
  0.00000000E+00  0.00000000E+00  0.00000000E+00
