Al   Sc   N                             
   1.00000000000000     
   -10.0772292383291386    0.0101368668152607   -0.0043535298017693
    -5.0548779762079077    8.7573031036707540   -0.0068116052088145
     0.0082012292213027    0.0060473883187731   -9.6209015043258344
   Al   Sc   N 
    23    13    35
Direct
  0.1109027847514881  0.0915844634418974  0.3854044423869638
  0.2206229954221257  0.2035189521123186  0.1318873281574469
  0.7689615906437339  0.1034943522208565  0.8789745538374945
  0.8782858464942151  0.2044289103560146  0.6293520439375868
  0.5485782385751961  0.2207700888065958  0.1244792232782856
  0.2267069391946706  0.2056113995967550  0.6114748251276723
  0.8925154844585848  0.2091062132578401  0.1232696770442843
  0.5575636912140425  0.2126966554936160  0.6265807093547480
  0.2320846975294515  0.5394806690821383  0.1277131853047848
  0.4386656781802998  0.4404936080634414  0.3774530609321900
  0.5490825801631161  0.5409939213491270  0.1266672776419426
  0.2292646848329838  0.5359765513165655  0.6264892096365173
  0.8881345465163477  0.5347086221471713  0.1306693054475048
  0.4432545534710997  0.4346349612093192  0.8759764525337417
  0.5517132747579296  0.5363406402410149  0.6270889991214190
  0.1117263660337926  0.7592956133456354  0.3817004953978582
  0.7737121282618773  0.7574441482536116  0.8797784059262810
  0.8810884529548915  0.8768529310144402  0.6372870459185833
  0.4453045049211894  0.7561370329740669  0.3786471407248158
  0.5528276334313560  0.8628756693474955  0.1198440484518812
  0.1213059928145128  0.7525704973864364  0.8685949463767528
  0.4472855354122416  0.7523519010130499  0.8743203580419916
  0.5606622873304445  0.8658696553544019  0.6310969158796667
  0.4481807801109312  0.0897803207011023  0.3643198934060266
  0.1125180789953859  0.0960727110612112  0.8520718842780539
  0.7810464367051608  0.0928485291472825  0.3609199725174861
  0.4501618793185855  0.0920897900667796  0.8607828423174197
  0.1246784340099580  0.4262896910815002  0.3598203550458905
  0.7688841214156525  0.4311818553844304  0.8678536891980357
  0.8869917241998948  0.5432944812378153  0.6087978307615032
  0.1191802444944869  0.4273559627751098  0.8680245721291158
  0.7687958588825410  0.4229880972119133  0.3623400959143055
  0.2250164670288655  0.8722486635542737  0.1199113231638762
  0.2274743754645243  0.8626301726529633  0.6087415301631012
  0.7743382869650546  0.7687610960779239  0.3587874593013538
  0.8930575007039394  0.8697491035008937  0.0970644848696764
  0.2165950751252339  0.1903045877804104  0.3328218071976892
  0.1051398067713194  0.1141773227788931  0.0716332831143802
  0.8796946051700658  0.1958776180199280  0.8258996146379118
  0.7767352850230154  0.0917386966408813  0.5857086842694059
  0.5407591845727779  0.2330770833112155  0.3224309088270445
  0.4440544431452622  0.0955045758416233  0.0892881196979900
  0.1009885213016730  0.1126029980757295  0.5918137479359729
  0.9122831255505162  0.1909389957508623  0.3208927266740673
  0.7653686398752271  0.1183019290105207  0.0807890370496409
  0.5584095208071176  0.2213793405811160  0.8255010805320211
  0.4472504755424254  0.0915552294464987  0.5996478277538060
  0.2323373324455389  0.5554780634044434  0.3243917750047274
  0.1166520868314720  0.4260378807004983  0.1003307556475050
  0.8870475980801018  0.5512979682225563  0.8310249714177900
  0.7663503137522412  0.4171504169233842  0.5914944350009748
  0.5312903489679286  0.5524417632900054  0.3220049871030852
  0.4435450771323914  0.4311305518747091  0.0726126587422158
  0.2342804039167774  0.5430444449508229  0.8221391486597369
  0.1341180238882558  0.4169857858569657  0.5916077225467760
  0.8904103248298227  0.5360379575234830  0.3388277513299442
  0.7748194919923392  0.4286801480257267  0.0980797165570308
  0.5356880839798421  0.5473739045013559  0.8230901441472298
  0.4437875847522861  0.4301034902839902  0.5752798249163220
  0.2214724593698278  0.8720880311995458  0.3567039637607152
  0.1282142763305245  0.7397616154053424  0.0635715476625620
  0.8823409338768684  0.8755783787309142  0.8436411497931573
  0.7664867104820345  0.7854338322583914  0.5815078741379409
  0.5411858961450093  0.8613256706254191  0.3153572845977877
  0.4591730063397748  0.7484958762127789  0.0701202341960823
  0.2313808365230372  0.8584014737193968  0.8343076622101506
  0.0960048999074985  0.7504019422575041  0.5831751984357254
  0.9120147639653453  0.8626856811635193  0.3152488231379280
  0.7697458706488263  0.7484218131992932  0.0832653358823663
  0.5620411484714367  0.8529713130516257  0.8300619683589261
  0.4697529010909349  0.7470850635782469  0.5756363519669492
 
  0.00000000E+00  0.00000000E+00  0.00000000E+00
  0.00000000E+00  0.00000000E+00  0.00000000E+00
  0.00000000E+00  0.00000000E+00  0.00000000E+00
  0.00000000E+00  0.00000000E+00  0.00000000E+00
  0.00000000E+00  0.00000000E+00  0.00000000E+00
  0.00000000E+00  0.00000000E+00  0.00000000E+00
  0.00000000E+00  0.00000000E+00  0.00000000E+00
  0.00000000E+00  0.00000000E+00  0.00000000E+00
  0.00000000E+00  0.00000000E+00  0.00000000E+00
  0.00000000E+00  0.00000000E+00  0.00000000E+00
  0.00000000E+00  0.00000000E+00  0.00000000E+00
  0.00000000E+00  0.00000000E+00  0.00000000E+00
  0.00000000E+00  0.00000000E+00  0.00000000E+00
  0.00000000E+00  0.00000000E+00  0.00000000E+00
  0.00000000E+00  0.00000000E+00  0.00000000E+00
  0.00000000E+00  0.00000000E+00  0.00000000E+00
  0.00000000E+00  0.00000000E+00  0.00000000E+00
  0.00000000E+00  0.00000000E+00  0.00000000E+00
  0.00000000E+00  0.00000000E+00  0.00000000E+00
  0.00000000E+00  0.00000000E+00  0.00000000E+00
  0.00000000E+00  0.00000000E+00  0.00000000E+00
  0.00000000E+00  0.00000000E+00  0.00000000E+00
  0.00000000E+00  0.00000000E+00  0.00000000E+00
  0.00000000E+00  0.00000000E+00  0.00000000E+00
  0.00000000E+00  0.00000000E+00  0.00000000E+00
  0.00000000E+00  0.00000000E+00  0.00000000E+00
  0.00000000E+00  0.00000000E+00  0.00000000E+00
  0.00000000E+00  0.00000000E+00  0.00000000E+00
  0.00000000E+00  0.00000000E+00  0.00000000E+00
  0.00000000E+00  0.00000000E+00  0.00000000E+00
  0.00000000E+00  0.00000000E+00  0.00000000E+00
  0.00000000E+00  0.00000000E+00  0.00000000E+00
  0.00000000E+00  0.00000000E+00  0.00000000E+00
  0.00000000E+00  0.00000000E+00  0.00000000E+00
  0.00000000E+00  0.00000000E+00  0.00000000E+00
  0.00000000E+00  0.00000000E+00  0.00000000E+00
  0.00000000E+00  0.00000000E+00  0.00000000E+00
  0.00000000E+00  0.00000000E+00  0.00000000E+00
  0.00000000E+00  0.00000000E+00  0.00000000E+00
  0.00000000E+00  0.00000000E+00  0.00000000E+00
  0.00000000E+00  0.00000000E+00  0.00000000E+00
  0.00000000E+00  0.00000000E+00  0.00000000E+00
  0.00000000E+00  0.00000000E+00  0.00000000E+00
  0.00000000E+00  0.00000000E+00  0.00000000E+00
  0.00000000E+00  0.00000000E+00  0.00000000E+00
  0.00000000E+00  0.00000000E+00  0.00000000E+00
  0.00000000E+00  0.00000000E+00  0.00000000E+00
  0.00000000E+00  0.00000000E+00  0.00000000E+00
  0.00000000E+00  0.00000000E+00  0.00000000E+00
  0.00000000E+00  0.00000000E+00  0.00000000E+00
  0.00000000E+00  0.00000000E+00  0.00000000E+00
  0.00000000E+00  0.00000000E+00  0.00000000E+00
  0.00000000E+00  0.00000000E+00  0.00000000E+00
  0.00000000E+00  0.00000000E+00  0.00000000E+00
  0.00000000E+00  0.00000000E+00  0.00000000E+00
  0.00000000E+00  0.00000000E+00  0.00000000E+00
  0.00000000E+00  0.00000000E+00  0.00000000E+00
  0.00000000E+00  0.00000000E+00  0.00000000E+00
  0.00000000E+00  0.00000000E+00  0.00000000E+00
  0.00000000E+00  0.00000000E+00  0.00000000E+00
  0.00000000E+00  0.00000000E+00  0.00000000E+00
  0.00000000E+00  0.00000000E+00  0.00000000E+00
  0.00000000E+00  0.00000000E+00  0.00000000E+00
  0.00000000E+00  0.00000000E+00  0.00000000E+00
  0.00000000E+00  0.00000000E+00  0.00000000E+00
  0.00000000E+00  0.00000000E+00  0.00000000E+00
  0.00000000E+00  0.00000000E+00  0.00000000E+00
  0.00000000E+00  0.00000000E+00  0.00000000E+00
  0.00000000E+00  0.00000000E+00  0.00000000E+00
  0.00000000E+00  0.00000000E+00  0.00000000E+00
  0.00000000E+00  0.00000000E+00  0.00000000E+00
