Al   Sc   N                             
   1.00000000000000     
    -9.9298837462860625    0.0118118897258820   -0.0019270943232042
    -4.9754880727167752    8.6245061615880907   -0.0068230197528350
    -0.0023642023664127    0.0074680241001598  -10.0291393362415224
   Al   Sc   N 
    23    13    35
Direct
  0.1106728173896627  0.0946770219563504  0.4139143498097368
  0.2224662617212232  0.2026581261630227  0.1573855904792083
  0.7709306743967019  0.1028007218914766  0.9054284594488351
  0.8791755280551783  0.2059755259844565  0.6569717671476809
  0.5487782471107394  0.2184853665168305  0.1510846211421750
  0.2243980817519002  0.2081465492213681  0.6528523337278074
  0.8914797369942562  0.2088481724411153  0.1533778634550842
  0.5577849807052004  0.2128600842139221  0.6573551039736145
  0.2315085152154452  0.5400965526780368  0.1562301841576357
  0.4385067861034173  0.4396742194940941  0.4039875199176706
  0.5482532525427857  0.5418836390322568  0.1548544221811810
  0.2283665494111631  0.5354672212297800  0.6545348191677149
  0.8866304329135914  0.5369946017056009  0.1601320376828852
  0.4429792880523280  0.4350167595873202  0.9039463588999510
  0.5532181327830727  0.5354371914035099  0.6550538831640296
  0.1111092643255134  0.7583201096894143  0.4100332255944465
  0.7742973576176624  0.7571626433545831  0.9077198627643384
  0.8827157115848436  0.8754875162314235  0.6657938119699054
  0.4465674984619312  0.7562899373429772  0.4073855584323525
  0.5521741746827118  0.8654090374156382  0.1479741989399344
  0.1213910520035881  0.7538046731737680  0.8986073636312994
  0.4452219614609803  0.7526804872269039  0.9025997926025511
  0.5609356181697081  0.8646363327342357  0.6606855209167577
  0.4452419927499633  0.0909018921303044  0.4024946128834017
  0.1126154583895982  0.0922365617998793  0.8844721679759857
  0.7808280512152947  0.0927006890036850  0.3955573179199803
  0.4522414618591313  0.0901936190615658  0.8884340885722963
  0.1241691920392682  0.4246387907383493  0.3889799445467403
  0.7686285705516482  0.4308782471400150  0.9044829480437571
  0.8882205418158549  0.5408977329044049  0.6434033574888076
  0.1182043701367874  0.4294902947229957  0.9058574860698343
  0.7684591589170253  0.4241653477180449  0.3910947754511014
  0.2247277835337371  0.8729397493983555  0.1601236821805543
  0.2266976320611960  0.8635034828345169  0.6336000406179565
  0.7741395356773637  0.7689055464369332  0.3932346666334965
  0.8913524764137790  0.8709568859914683  0.1274811302263714
  0.2177070198432460  0.1883991600402339  0.3459531129486564
  0.1046240162350642  0.1125581126468234  0.0937598551035421
  0.8796651756651386  0.1975876457719821  0.8445002444002441
  0.7774127879677479  0.0913764450878602  0.6100867014872549
  0.5407809659713010  0.2305160589024595  0.3416678107633615
  0.4442489757180468  0.0952283044548778  0.1052585723243737
  0.1002399743419531  0.1156365077439006  0.6108467426686843
  0.9122445567765141  0.1900510413678305  0.3415855215426618
  0.7653715561158663  0.1194797543367088  0.0978708835704154
  0.5593100445352448  0.2216155209637378  0.8471887144329386
  0.4462270401163835  0.0920240534124375  0.6269844495131238
  0.2319102856936297  0.5553972811675081  0.3443014668624329
  0.1155831659028692  0.4276500270280010  0.1234283930850637
  0.8879028087700860  0.5493487010108922  0.8538649675933954
  0.7665661406208670  0.4170235296525533  0.6082555050010399
  0.5298138283559766  0.5536935588129879  0.3420552414845375
  0.4432208073187311  0.4308690456476540  0.0939502558375196
  0.2331614230450043  0.5432336164606610  0.8431060047799477
  0.1341716609576409  0.4166951997316275  0.6083020219165647
  0.8893910229442668  0.5377606327666342  0.3533441923241369
  0.7741285272912108  0.4291759478661206  0.1222931979138124
  0.5369442816717580  0.5466723212125757  0.8437275496041110
  0.4439020991013010  0.4295027808572058  0.5958949785753447
  0.2212839912011120  0.8726882269609746  0.3855662124740391
  0.1295406621171509  0.7416041401030924  0.0858219504858084
  0.8845493131216386  0.8742663160002735  0.8653486904566350
  0.7670687151392315  0.7845010560689119  0.6053311074286896
  0.5408160411959884  0.8634457210371309  0.3358515495688010
  0.4565269414257642  0.7509489379903940  0.0912920526314949
  0.2319954478707587  0.8560450925167231  0.8487819831112873
  0.0951536350756257  0.7487594482337911  0.6016367033336394
  0.9113306059610551  0.8631131438751751  0.3365331065019674
  0.7683491576249324  0.7488844295875978  0.1006339539460441
  0.5629234800075764  0.8504759311951702  0.8501788979469111
  0.4721571625099372  0.7459763327688691  0.5955747528183224
 
  0.00000000E+00  0.00000000E+00  0.00000000E+00
  0.00000000E+00  0.00000000E+00  0.00000000E+00
  0.00000000E+00  0.00000000E+00  0.00000000E+00
  0.00000000E+00  0.00000000E+00  0.00000000E+00
  0.00000000E+00  0.00000000E+00  0.00000000E+00
  0.00000000E+00  0.00000000E+00  0.00000000E+00
  0.00000000E+00  0.00000000E+00  0.00000000E+00
  0.00000000E+00  0.00000000E+00  0.00000000E+00
  0.00000000E+00  0.00000000E+00  0.00000000E+00
  0.00000000E+00  0.00000000E+00  0.00000000E+00
  0.00000000E+00  0.00000000E+00  0.00000000E+00
  0.00000000E+00  0.00000000E+00  0.00000000E+00
  0.00000000E+00  0.00000000E+00  0.00000000E+00
  0.00000000E+00  0.00000000E+00  0.00000000E+00
  0.00000000E+00  0.00000000E+00  0.00000000E+00
  0.00000000E+00  0.00000000E+00  0.00000000E+00
  0.00000000E+00  0.00000000E+00  0.00000000E+00
  0.00000000E+00  0.00000000E+00  0.00000000E+00
  0.00000000E+00  0.00000000E+00  0.00000000E+00
  0.00000000E+00  0.00000000E+00  0.00000000E+00
  0.00000000E+00  0.00000000E+00  0.00000000E+00
  0.00000000E+00  0.00000000E+00  0.00000000E+00
  0.00000000E+00  0.00000000E+00  0.00000000E+00
  0.00000000E+00  0.00000000E+00  0.00000000E+00
  0.00000000E+00  0.00000000E+00  0.00000000E+00
  0.00000000E+00  0.00000000E+00  0.00000000E+00
  0.00000000E+00  0.00000000E+00  0.00000000E+00
  0.00000000E+00  0.00000000E+00  0.00000000E+00
  0.00000000E+00  0.00000000E+00  0.00000000E+00
  0.00000000E+00  0.00000000E+00  0.00000000E+00
  0.00000000E+00  0.00000000E+00  0.00000000E+00
  0.00000000E+00  0.00000000E+00  0.00000000E+00
  0.00000000E+00  0.00000000E+00  0.00000000E+00
  0.00000000E+00  0.00000000E+00  0.00000000E+00
  0.00000000E+00  0.00000000E+00  0.00000000E+00
  0.00000000E+00  0.00000000E+00  0.00000000E+00
  0.00000000E+00  0.00000000E+00  0.00000000E+00
  0.00000000E+00  0.00000000E+00  0.00000000E+00
  0.00000000E+00  0.00000000E+00  0.00000000E+00
  0.00000000E+00  0.00000000E+00  0.00000000E+00
  0.00000000E+00  0.00000000E+00  0.00000000E+00
  0.00000000E+00  0.00000000E+00  0.00000000E+00
  0.00000000E+00  0.00000000E+00  0.00000000E+00
  0.00000000E+00  0.00000000E+00  0.00000000E+00
  0.00000000E+00  0.00000000E+00  0.00000000E+00
  0.00000000E+00  0.00000000E+00  0.00000000E+00
  0.00000000E+00  0.00000000E+00  0.00000000E+00
  0.00000000E+00  0.00000000E+00  0.00000000E+00
  0.00000000E+00  0.00000000E+00  0.00000000E+00
  0.00000000E+00  0.00000000E+00  0.00000000E+00
  0.00000000E+00  0.00000000E+00  0.00000000E+00
  0.00000000E+00  0.00000000E+00  0.00000000E+00
  0.00000000E+00  0.00000000E+00  0.00000000E+00
  0.00000000E+00  0.00000000E+00  0.00000000E+00
  0.00000000E+00  0.00000000E+00  0.00000000E+00
  0.00000000E+00  0.00000000E+00  0.00000000E+00
  0.00000000E+00  0.00000000E+00  0.00000000E+00
  0.00000000E+00  0.00000000E+00  0.00000000E+00
  0.00000000E+00  0.00000000E+00  0.00000000E+00
  0.00000000E+00  0.00000000E+00  0.00000000E+00
  0.00000000E+00  0.00000000E+00  0.00000000E+00
  0.00000000E+00  0.00000000E+00  0.00000000E+00
  0.00000000E+00  0.00000000E+00  0.00000000E+00
  0.00000000E+00  0.00000000E+00  0.00000000E+00
  0.00000000E+00  0.00000000E+00  0.00000000E+00
  0.00000000E+00  0.00000000E+00  0.00000000E+00
  0.00000000E+00  0.00000000E+00  0.00000000E+00
  0.00000000E+00  0.00000000E+00  0.00000000E+00
  0.00000000E+00  0.00000000E+00  0.00000000E+00
  0.00000000E+00  0.00000000E+00  0.00000000E+00
  0.00000000E+00  0.00000000E+00  0.00000000E+00
