Al   Sc   N                             
   1.00000000000000     
    -9.9757105381739724    0.0068749800945771   -0.0090786936284488
    -5.0001425209650394    8.6648432854107416   -0.0067893768862482
    -0.0066151015031176   -0.0041178923476980   -9.8963585264091254
   Al   Sc   N 
    23    13    35
Direct
  0.1119414005627490  0.0936969606382476  0.3184586710212542
  0.2226253251745831  0.2068475022431642  0.0758483569194510
  0.7755491821122220  0.0935618621913576  0.8147639551446133
  0.8916386376443768  0.2064754636534403  0.5769513698318320
  0.5574325919974825  0.2171659085432225  0.0707945934315575
  0.2259284575450025  0.2036034438639334  0.5708764452706276
  0.8798814912877830  0.2088855475493716  0.0730040195232391
  0.5460497557433186  0.2166097418817401  0.5803314401326389
  0.2308651266858703  0.5373190348677213  0.0722230152785102
  0.4386595037049403  0.4382337238131839  0.3267409800305430
  0.5514117614087084  0.5392772430156114  0.0754703791115574
  0.2296270763308357  0.5374079472871927  0.5758721179003814
  0.8849775399711746  0.5418036653916687  0.0611847203716067
  0.4420495949980392  0.4371361299159631  0.8236933843722696
  0.5506203693274614  0.5372473265264830  0.5731894453934814
  0.1185163266897007  0.7562177415084932  0.3268862336676577
  0.7736094438077927  0.7692536821496319  0.8177086542077490
  0.8907045921121863  0.8711595979530884  0.5782911041489101
  0.4441981514924223  0.7570126230774861  0.3260148695285352
  0.5635181255608046  0.8551662330632936  0.0695715123576477
  0.1102441608672606  0.7587980047418483  0.8220291841055811
  0.4472938108051068  0.7522830224641694  0.8228171367488599
  0.5516105049941018  0.8725447261787522  0.5789031057987799
  0.4461982599801289  0.0916477874920076  0.3270165016392141
  0.1114572367961344  0.0948874594853208  0.8438596265218195
  0.7762940824858262  0.0995556483337410  0.3478004076448258
  0.4523349712942704  0.0892955542575535  0.8426439627282747
  0.1190146203855988  0.4286253996133809  0.3274601336649496
  0.7641407064151764  0.4265035875952137  0.8387078348642376
  0.8921420900632384  0.5348950777658033  0.5985354531997089
  0.1254159416677325  0.4248952494902198  0.8409517535789561
  0.7742134865032426  0.4268217096100670  0.3280991151407733
  0.2296681951783626  0.8628186331918641  0.0892147859982586
  0.2220420531829390  0.8734622393765008  0.5806941882753947
  0.7763413686968974  0.7578156577292177  0.3392041167772959
  0.8843308655648769  0.8753288485693318  0.0801009394736383
  0.2162020509993070  0.1944913547516478  0.3766091826744571
  0.1005127179237917  0.1131175022265438  0.1170710866565088
  0.8802927837474712  0.1893333350166984  0.8829593464292387
  0.7769719547287934  0.0956927754794634  0.6175845104547548
  0.5361498095960044  0.2324727347750368  0.3896159191109518
  0.4487037858878224  0.0912861921637713  0.1007345526820558
  0.1049491208862889  0.1154067382003774  0.6321556357300935
  0.9115736293273073  0.1963198289383641  0.3855177972700332
  0.7648468053182640  0.1156949422781182  0.1324299025618174
  0.5617981019534071  0.2207755555279860  0.8759575816952179
  0.4432097011172615  0.0938363019425026  0.6222309569470852
  0.2319862071435708  0.5507437927083885  0.3850948479002980
  0.1132650994136313  0.4272688572922547  0.0994431875862105
  0.8845031540687742  0.5541327201625350  0.8607401011212517
  0.7634725711822199  0.4174005248583939  0.6206428586541648
  0.5356837804693271  0.5493399137552686  0.3816298630843136
  0.4436690409005379  0.4286204269026115  0.1315862658281191
  0.2322043065632116  0.5502725073274348  0.8822145017524008
  0.1404676587239067  0.4130585839443341  0.6231208829264645
  0.8947477471273118  0.5311534453735831  0.3872446201618445
  0.7773586132328845  0.4288266109729051  0.1018333846816901
  0.5311979860675748  0.5504916826059514  0.8865528486182228
  0.4426904285269089  0.4326649648617362  0.6332508227208749
  0.2219450393550702  0.8744337065965482  0.3544766086917477
  0.1179846196199961  0.7395038195364734  0.1352251490616325
  0.8840349580507407  0.8759631387178146  0.8642106522853794
  0.7654829081123466  0.7829599127667990  0.6234069518874819
  0.5417295526723791  0.8634679033365984  0.3885259536219365
  0.4667133103244794  0.7469256120615313  0.1343735859853226
  0.2292442033322217  0.8569824938121542  0.8655810274778233
  0.1035710276162902  0.7504157243970369  0.6313262888621338
  0.9096069153079398  0.8616837906951247  0.3826846441497054
  0.7731607251270702  0.7484173890957422  0.1219566945998238
  0.5634205468043021  0.8500512705517025  0.8779015289207948
  0.4620961697607839  0.7489333397302502  0.6322554225385772
 
  0.00000000E+00  0.00000000E+00  0.00000000E+00
  0.00000000E+00  0.00000000E+00  0.00000000E+00
  0.00000000E+00  0.00000000E+00  0.00000000E+00
  0.00000000E+00  0.00000000E+00  0.00000000E+00
  0.00000000E+00  0.00000000E+00  0.00000000E+00
  0.00000000E+00  0.00000000E+00  0.00000000E+00
  0.00000000E+00  0.00000000E+00  0.00000000E+00
  0.00000000E+00  0.00000000E+00  0.00000000E+00
  0.00000000E+00  0.00000000E+00  0.00000000E+00
  0.00000000E+00  0.00000000E+00  0.00000000E+00
  0.00000000E+00  0.00000000E+00  0.00000000E+00
  0.00000000E+00  0.00000000E+00  0.00000000E+00
  0.00000000E+00  0.00000000E+00  0.00000000E+00
  0.00000000E+00  0.00000000E+00  0.00000000E+00
  0.00000000E+00  0.00000000E+00  0.00000000E+00
  0.00000000E+00  0.00000000E+00  0.00000000E+00
  0.00000000E+00  0.00000000E+00  0.00000000E+00
  0.00000000E+00  0.00000000E+00  0.00000000E+00
  0.00000000E+00  0.00000000E+00  0.00000000E+00
  0.00000000E+00  0.00000000E+00  0.00000000E+00
  0.00000000E+00  0.00000000E+00  0.00000000E+00
  0.00000000E+00  0.00000000E+00  0.00000000E+00
  0.00000000E+00  0.00000000E+00  0.00000000E+00
  0.00000000E+00  0.00000000E+00  0.00000000E+00
  0.00000000E+00  0.00000000E+00  0.00000000E+00
  0.00000000E+00  0.00000000E+00  0.00000000E+00
  0.00000000E+00  0.00000000E+00  0.00000000E+00
  0.00000000E+00  0.00000000E+00  0.00000000E+00
  0.00000000E+00  0.00000000E+00  0.00000000E+00
  0.00000000E+00  0.00000000E+00  0.00000000E+00
  0.00000000E+00  0.00000000E+00  0.00000000E+00
  0.00000000E+00  0.00000000E+00  0.00000000E+00
  0.00000000E+00  0.00000000E+00  0.00000000E+00
  0.00000000E+00  0.00000000E+00  0.00000000E+00
  0.00000000E+00  0.00000000E+00  0.00000000E+00
  0.00000000E+00  0.00000000E+00  0.00000000E+00
  0.00000000E+00  0.00000000E+00  0.00000000E+00
  0.00000000E+00  0.00000000E+00  0.00000000E+00
  0.00000000E+00  0.00000000E+00  0.00000000E+00
  0.00000000E+00  0.00000000E+00  0.00000000E+00
  0.00000000E+00  0.00000000E+00  0.00000000E+00
  0.00000000E+00  0.00000000E+00  0.00000000E+00
  0.00000000E+00  0.00000000E+00  0.00000000E+00
  0.00000000E+00  0.00000000E+00  0.00000000E+00
  0.00000000E+00  0.00000000E+00  0.00000000E+00
  0.00000000E+00  0.00000000E+00  0.00000000E+00
  0.00000000E+00  0.00000000E+00  0.00000000E+00
  0.00000000E+00  0.00000000E+00  0.00000000E+00
  0.00000000E+00  0.00000000E+00  0.00000000E+00
  0.00000000E+00  0.00000000E+00  0.00000000E+00
  0.00000000E+00  0.00000000E+00  0.00000000E+00
  0.00000000E+00  0.00000000E+00  0.00000000E+00
  0.00000000E+00  0.00000000E+00  0.00000000E+00
  0.00000000E+00  0.00000000E+00  0.00000000E+00
  0.00000000E+00  0.00000000E+00  0.00000000E+00
  0.00000000E+00  0.00000000E+00  0.00000000E+00
  0.00000000E+00  0.00000000E+00  0.00000000E+00
  0.00000000E+00  0.00000000E+00  0.00000000E+00
  0.00000000E+00  0.00000000E+00  0.00000000E+00
  0.00000000E+00  0.00000000E+00  0.00000000E+00
  0.00000000E+00  0.00000000E+00  0.00000000E+00
  0.00000000E+00  0.00000000E+00  0.00000000E+00
  0.00000000E+00  0.00000000E+00  0.00000000E+00
  0.00000000E+00  0.00000000E+00  0.00000000E+00
  0.00000000E+00  0.00000000E+00  0.00000000E+00
  0.00000000E+00  0.00000000E+00  0.00000000E+00
  0.00000000E+00  0.00000000E+00  0.00000000E+00
  0.00000000E+00  0.00000000E+00  0.00000000E+00
  0.00000000E+00  0.00000000E+00  0.00000000E+00
  0.00000000E+00  0.00000000E+00  0.00000000E+00
  0.00000000E+00  0.00000000E+00  0.00000000E+00
