Al   Sc   N                             
   1.00000000000000     
    -9.9298767677310220    0.0115474124242050   -0.0023102157145566
    -4.9757100533817633    8.6243703179867524   -0.0068212174564107
    -0.0019960499156820    0.0077006609171180  -10.0291549091467314
   Al   Sc   N 
    23    13    35
Direct
  0.1106937786334612  0.0946731960838747  0.4087262055459959
  0.2224864028382285  0.2026548274141646  0.1521967084798916
  0.7709506255272558  0.1027979642870775  0.9002417717803084
  0.8791973519224783  0.2059714009699007  0.6517824868118183
  0.5487972122980764  0.2184815155526607  0.1459053134524666
  0.2244162061859143  0.2081437518326936  0.6476696171344400
  0.8914966550718901  0.2088463139932841  0.1482006895500874
  0.5578038817293631  0.2128587714558279  0.6521679296486838
  0.2315259480318659  0.5400958099711062  0.1510434955921340
  0.4385237084624976  0.4396729372364589  0.3988059936091801
  0.5482741105514251  0.5418789523070302  0.1496755371325165
  0.2283874862951549  0.5354627461053383  0.6493555317088067
  0.8866478930597239  0.5369931978954980  0.1549555836937699
  0.4430003457502920  0.4350127077284682  0.8987676010554964
  0.5532362678903766  0.5354364466838106  0.6498723370638473
  0.1111289770173514  0.7583160877425641  0.4048574474919633
  0.7743183589304721  0.7571589916697548  0.9025366302223219
  0.8827345042378454  0.8754852105748014  0.6606135534657511
  0.4465875333393186  0.7562880580283391  0.4021985201251610
  0.5521942632425194  0.8654074069663835  0.1427866270123701
  0.1214081774035378  0.7538029973643603  0.8934192682547248
  0.4452403257902020  0.7526763702606942  0.8974262751970699
  0.5609544847198364  0.8646312253159394  0.6555112255706348
  0.4452593341419870  0.0908974689347701  0.3973147282276557
  0.1126339541615167  0.0922336341922687  0.8792925882105251
  0.7808456300583515  0.0926972129316610  0.3903774135115938
  0.4522610809951857  0.0901930625252021  0.8832469318428622
  0.1241900426839067  0.4246348576205676  0.3837940815406924
  0.7686490825619714  0.4308725234326616  0.8992994815290558
  0.8882424755787355  0.5408926638750202  0.6382235671131511
  0.1182230123632237  0.4294870741413206  0.9006749662085269
  0.7684776682611556  0.4241633443208386  0.3859172930121773
  0.2247435356461480  0.8729359352834223  0.1549427514465265
  0.2267192270785401  0.8635022381483779  0.6284189333786330
  0.7741568379087838  0.7689036017752713  0.3880611045420395
  0.8913708828068962  0.8709540098022046  0.1223036445317405
  0.2177272787828315  0.1883955390982024  0.3407640793049751
  0.1046403390159654  0.1125550613406148  0.0885793423384129
  0.8796866343801142  0.1975830639815541  0.8393114767838057
  0.7774320744633556  0.0913730010448290  0.6049025916422153
  0.5407978073046422  0.2305126193875182  0.3364884330497375
  0.4442682499333941  0.0952266298817008  0.1000707383209587
  0.1002605314014602  0.1156338007376689  0.6056583467854821
  0.9122615275773001  0.1900489245727144  0.3364065301033818
  0.7653902717140824  0.1194772271804183  0.0926869676331989
  0.5593303492996426  0.2216141586519953  0.8420018933012869
  0.4462460993327753  0.0920198229565017  0.6218049472669236
  0.2319282809496244  0.5553964885932317  0.3391162172925846
  0.1156007798534233  0.4276482371281176  0.1182457841915436
  0.8879224926709526  0.5493445426728485  0.8486832626331804
  0.7665848468890104  0.4170218696703643  0.6030750825751738
  0.5298343727706012  0.5536891711321275  0.3368747599776043
  0.4432408775527747  0.4308653689349669  0.0887703089501599
  0.2331821637978635  0.5432286419024450  0.8379255060175765
  0.1341931571254449  0.4166916297241769  0.6031177159670449
  0.8894096821635742  0.5377589254297206  0.3481662403990669
  0.7741481234501038  0.4291731675309123  0.1171118248212508
  0.5369634734892941  0.5466703247369153  0.8385467024949378
  0.4439207135688079  0.4295017947120527  0.5907117887314399
  0.2213033294043782  0.8726843893496152  0.3803832421792279
  0.1295567228700563  0.7416028120599236  0.0806347284638775
  0.8845679418953765  0.8742641751518292  0.8601643641574057
  0.7670875163282673  0.7844970967486518  0.6001559079998131
  0.5408372047085095  0.8634438449728847  0.3306649355651388
  0.4565445338506180  0.7509455088466837  0.0861158453881856
  0.2320161341833042  0.8560426710897815  0.8436009196648868
  0.0951746399719937  0.7487565836227645  0.5964597601220802
  0.9113499176071969  0.8631087669941806  0.3313560041803498
  0.7683697631770912  0.7488806413755071  0.0954501307867588
  0.5629414146468861  0.8504724788478839  0.8450030239689710
  0.4721774956976361  0.7459743662466636  0.5903892493254475
 
  0.00000000E+00  0.00000000E+00  0.00000000E+00
  0.00000000E+00  0.00000000E+00  0.00000000E+00
  0.00000000E+00  0.00000000E+00  0.00000000E+00
  0.00000000E+00  0.00000000E+00  0.00000000E+00
  0.00000000E+00  0.00000000E+00  0.00000000E+00
  0.00000000E+00  0.00000000E+00  0.00000000E+00
  0.00000000E+00  0.00000000E+00  0.00000000E+00
  0.00000000E+00  0.00000000E+00  0.00000000E+00
  0.00000000E+00  0.00000000E+00  0.00000000E+00
  0.00000000E+00  0.00000000E+00  0.00000000E+00
  0.00000000E+00  0.00000000E+00  0.00000000E+00
  0.00000000E+00  0.00000000E+00  0.00000000E+00
  0.00000000E+00  0.00000000E+00  0.00000000E+00
  0.00000000E+00  0.00000000E+00  0.00000000E+00
  0.00000000E+00  0.00000000E+00  0.00000000E+00
  0.00000000E+00  0.00000000E+00  0.00000000E+00
  0.00000000E+00  0.00000000E+00  0.00000000E+00
  0.00000000E+00  0.00000000E+00  0.00000000E+00
  0.00000000E+00  0.00000000E+00  0.00000000E+00
  0.00000000E+00  0.00000000E+00  0.00000000E+00
  0.00000000E+00  0.00000000E+00  0.00000000E+00
  0.00000000E+00  0.00000000E+00  0.00000000E+00
  0.00000000E+00  0.00000000E+00  0.00000000E+00
  0.00000000E+00  0.00000000E+00  0.00000000E+00
  0.00000000E+00  0.00000000E+00  0.00000000E+00
  0.00000000E+00  0.00000000E+00  0.00000000E+00
  0.00000000E+00  0.00000000E+00  0.00000000E+00
  0.00000000E+00  0.00000000E+00  0.00000000E+00
  0.00000000E+00  0.00000000E+00  0.00000000E+00
  0.00000000E+00  0.00000000E+00  0.00000000E+00
  0.00000000E+00  0.00000000E+00  0.00000000E+00
  0.00000000E+00  0.00000000E+00  0.00000000E+00
  0.00000000E+00  0.00000000E+00  0.00000000E+00
  0.00000000E+00  0.00000000E+00  0.00000000E+00
  0.00000000E+00  0.00000000E+00  0.00000000E+00
  0.00000000E+00  0.00000000E+00  0.00000000E+00
  0.00000000E+00  0.00000000E+00  0.00000000E+00
  0.00000000E+00  0.00000000E+00  0.00000000E+00
  0.00000000E+00  0.00000000E+00  0.00000000E+00
  0.00000000E+00  0.00000000E+00  0.00000000E+00
  0.00000000E+00  0.00000000E+00  0.00000000E+00
  0.00000000E+00  0.00000000E+00  0.00000000E+00
  0.00000000E+00  0.00000000E+00  0.00000000E+00
  0.00000000E+00  0.00000000E+00  0.00000000E+00
  0.00000000E+00  0.00000000E+00  0.00000000E+00
  0.00000000E+00  0.00000000E+00  0.00000000E+00
  0.00000000E+00  0.00000000E+00  0.00000000E+00
  0.00000000E+00  0.00000000E+00  0.00000000E+00
  0.00000000E+00  0.00000000E+00  0.00000000E+00
  0.00000000E+00  0.00000000E+00  0.00000000E+00
  0.00000000E+00  0.00000000E+00  0.00000000E+00
  0.00000000E+00  0.00000000E+00  0.00000000E+00
  0.00000000E+00  0.00000000E+00  0.00000000E+00
  0.00000000E+00  0.00000000E+00  0.00000000E+00
  0.00000000E+00  0.00000000E+00  0.00000000E+00
  0.00000000E+00  0.00000000E+00  0.00000000E+00
  0.00000000E+00  0.00000000E+00  0.00000000E+00
  0.00000000E+00  0.00000000E+00  0.00000000E+00
  0.00000000E+00  0.00000000E+00  0.00000000E+00
  0.00000000E+00  0.00000000E+00  0.00000000E+00
  0.00000000E+00  0.00000000E+00  0.00000000E+00
  0.00000000E+00  0.00000000E+00  0.00000000E+00
  0.00000000E+00  0.00000000E+00  0.00000000E+00
  0.00000000E+00  0.00000000E+00  0.00000000E+00
  0.00000000E+00  0.00000000E+00  0.00000000E+00
  0.00000000E+00  0.00000000E+00  0.00000000E+00
  0.00000000E+00  0.00000000E+00  0.00000000E+00
  0.00000000E+00  0.00000000E+00  0.00000000E+00
  0.00000000E+00  0.00000000E+00  0.00000000E+00
  0.00000000E+00  0.00000000E+00  0.00000000E+00
  0.00000000E+00  0.00000000E+00  0.00000000E+00
