supercell of icsd_191774.cif            
   1.00000000000000     
    10.8197585997439951   -0.0041995179477086   -0.0012063099356531
    -5.4135056303724074    9.3753941704119743    0.0055806269006012
    -0.0013196891431580    0.0062852154053072   11.3948301512062091
   N    In   La
    36    32     4
Direct
  0.2237845816145594  0.1118912799001066  0.4546954043494793
  0.1208436233614094  0.2245145268832260  0.1995193216065942
  0.8702562385014474  0.1030946515416957  0.9403656915268996
  0.7779739429491244  0.2248668796253952  0.6927139060703453
  0.5587801330521174  0.1105093055957624  0.4375442122419742
  0.4413934646329167  0.2200401448482765  0.1926617416080347
  0.2306620436538154  0.1014266288304526  0.9395961598015816
  0.1054427120667398  0.2314548453010872  0.7004875364574730
  0.8870628290211897  0.1103660744909973  0.4593495494739983
  0.7684988546090992  0.2317467309988857  0.1853636345830196
  0.5531470201370965  0.1106743536529251  0.9390449704198787
  0.4695567638631672  0.2352163918292050  0.6839587881550813
  0.2055698880141676  0.4379511421119986  0.4385813457016923
  0.1086325929608805  0.5551086170661108  0.1900313187756524
  0.8902573705130337  0.4462732393285052  0.9382511527963331
  0.7773712852068613  0.5548097383153419  0.6907180616268889
  0.5674226855555844  0.4386202333769091  0.4315693684655173
  0.4426630419325548  0.5545535401684560  0.1968006135589917
  0.2317722451737865  0.4660963253825869  0.9404006707587982
  0.1112825232795061  0.5558313329669673  0.6886836837828696
  0.8887367637576205  0.4443439019224158  0.4402887031849829
  0.7794177586138105  0.5560605592108345  0.1870253217695250
  0.5546142260700861  0.4436550572040332  0.9462704777671576
  0.4472914256760205  0.5553939630207267  0.6990516570781367
  0.2254942003264802  0.7767098290950543  0.4376744183145860
  0.1104166101295263  0.8890563218300187  0.1959810093714154
  0.8914929731862458  0.7785344113554089  0.9397334243010533
  0.7767447954794804  0.8853851036729736  0.6950860001723456
  0.5668946214221364  0.7984738542119985  0.4345111364371448
  0.4440773397989588  0.8902752893846824  0.1873468794706596
  0.2216718122238959  0.7792973257098197  0.9404246045992579
  0.0996180155475486  0.8636985761977058  0.6816695378531819
  0.8852387062380700  0.7760288912882274  0.4385283078218549
  0.7693437708379633  0.8710016390325492  0.1831836481661497
  0.5534649476464963  0.7783644395565972  0.9421773304748911
  0.4442433132810564  0.8892317239392895  0.6906644668052877
  0.2247139992885110  0.1117200595733152  0.2576690301329307
  0.1063834098450087  0.2248089205984556  0.5054455166979537
  0.8811653948770228  0.1095844762032954  0.7474764380390724
  0.7714203246760505  0.2245383913284371  0.9959129423143267
  0.5523224534306266  0.1115750371916278  0.2474923598252090
  0.4563867089802258  0.2251466668842284  0.4949147379652103
  0.7769406333162650  0.2246800195871899  0.5038857722123140
  0.5599869626365646  0.1122540172013657  0.7496457143258226
  0.4451546959159387  0.2191095284667881  0.0021471051151920
  0.2188214935885426  0.4439521716917341  0.2490190902966845
  0.1071309151372404  0.5556048851467992  0.4986156500186070
  0.8904855217871344  0.4462305394888375  0.7483323530969983
  0.7797848073022209  0.5565233094900890  0.9980892478192231
  0.5588921101674416  0.4426382326315874  0.2428450789950745
  0.2250601743211149  0.4540286343006485  0.7513420267870856
  0.1110189987956929  0.5613493626275599  0.9995728350489586
  0.8865834230694958  0.4470032100808936  0.2490409999538983
  0.7804693363606674  0.5542631056212173  0.4997601888793923
  0.5608568186522689  0.4469248460327577  0.7545680378850861
  0.4475121448117392  0.5607123355179056  0.0017955375621241
  0.2231919820276929  0.7771034468884537  0.2477987011125364
  0.1069456149220542  0.8793901245984657  0.4933128561095828
  0.8873975355143955  0.7723004004274898  0.7492556061535254
  0.7730122707834113  0.8825596479708793  0.9944048723306977
  0.5542784638216460  0.7789750880629995  0.2445265174436813
  0.4468817288323308  0.8935633669528045  0.4986478066447333
  0.2209485313084656  0.7726152441336325  0.7492253923233747
  0.1126036577022731  0.8873701079559098  0.0032461071416208
  0.8852860452363487  0.7725054173691106  0.2475345073548354
  0.7793893010094806  0.8893885786522659  0.5051317741183965
  0.5543321366466003  0.7774306127858921  0.7531867459739345
  0.4433925247404460  0.8899922947424770  0.9969684545932225
  0.2278997341201574  0.1049928082219367  0.7305871011016265
  0.1141758070946395  0.2246352973709875  0.9902894135936862
  0.8807559183921541  0.1066615963935007  0.2516617924828211
  0.4472833005537282  0.5573113489612425  0.4904976332018691
 
  0.00000000E+00  0.00000000E+00  0.00000000E+00
  0.00000000E+00  0.00000000E+00  0.00000000E+00
  0.00000000E+00  0.00000000E+00  0.00000000E+00
  0.00000000E+00  0.00000000E+00  0.00000000E+00
  0.00000000E+00  0.00000000E+00  0.00000000E+00
  0.00000000E+00  0.00000000E+00  0.00000000E+00
  0.00000000E+00  0.00000000E+00  0.00000000E+00
  0.00000000E+00  0.00000000E+00  0.00000000E+00
  0.00000000E+00  0.00000000E+00  0.00000000E+00
  0.00000000E+00  0.00000000E+00  0.00000000E+00
  0.00000000E+00  0.00000000E+00  0.00000000E+00
  0.00000000E+00  0.00000000E+00  0.00000000E+00
  0.00000000E+00  0.00000000E+00  0.00000000E+00
  0.00000000E+00  0.00000000E+00  0.00000000E+00
  0.00000000E+00  0.00000000E+00  0.00000000E+00
  0.00000000E+00  0.00000000E+00  0.00000000E+00
  0.00000000E+00  0.00000000E+00  0.00000000E+00
  0.00000000E+00  0.00000000E+00  0.00000000E+00
  0.00000000E+00  0.00000000E+00  0.00000000E+00
  0.00000000E+00  0.00000000E+00  0.00000000E+00
  0.00000000E+00  0.00000000E+00  0.00000000E+00
  0.00000000E+00  0.00000000E+00  0.00000000E+00
  0.00000000E+00  0.00000000E+00  0.00000000E+00
  0.00000000E+00  0.00000000E+00  0.00000000E+00
  0.00000000E+00  0.00000000E+00  0.00000000E+00
  0.00000000E+00  0.00000000E+00  0.00000000E+00
  0.00000000E+00  0.00000000E+00  0.00000000E+00
  0.00000000E+00  0.00000000E+00  0.00000000E+00
  0.00000000E+00  0.00000000E+00  0.00000000E+00
  0.00000000E+00  0.00000000E+00  0.00000000E+00
  0.00000000E+00  0.00000000E+00  0.00000000E+00
  0.00000000E+00  0.00000000E+00  0.00000000E+00
  0.00000000E+00  0.00000000E+00  0.00000000E+00
  0.00000000E+00  0.00000000E+00  0.00000000E+00
  0.00000000E+00  0.00000000E+00  0.00000000E+00
  0.00000000E+00  0.00000000E+00  0.00000000E+00
  0.00000000E+00  0.00000000E+00  0.00000000E+00
  0.00000000E+00  0.00000000E+00  0.00000000E+00
  0.00000000E+00  0.00000000E+00  0.00000000E+00
  0.00000000E+00  0.00000000E+00  0.00000000E+00
  0.00000000E+00  0.00000000E+00  0.00000000E+00
  0.00000000E+00  0.00000000E+00  0.00000000E+00
  0.00000000E+00  0.00000000E+00  0.00000000E+00
  0.00000000E+00  0.00000000E+00  0.00000000E+00
  0.00000000E+00  0.00000000E+00  0.00000000E+00
  0.00000000E+00  0.00000000E+00  0.00000000E+00
  0.00000000E+00  0.00000000E+00  0.00000000E+00
  0.00000000E+00  0.00000000E+00  0.00000000E+00
  0.00000000E+00  0.00000000E+00  0.00000000E+00
  0.00000000E+00  0.00000000E+00  0.00000000E+00
  0.00000000E+00  0.00000000E+00  0.00000000E+00
  0.00000000E+00  0.00000000E+00  0.00000000E+00
  0.00000000E+00  0.00000000E+00  0.00000000E+00
  0.00000000E+00  0.00000000E+00  0.00000000E+00
  0.00000000E+00  0.00000000E+00  0.00000000E+00
  0.00000000E+00  0.00000000E+00  0.00000000E+00
  0.00000000E+00  0.00000000E+00  0.00000000E+00
  0.00000000E+00  0.00000000E+00  0.00000000E+00
  0.00000000E+00  0.00000000E+00  0.00000000E+00
  0.00000000E+00  0.00000000E+00  0.00000000E+00
  0.00000000E+00  0.00000000E+00  0.00000000E+00
  0.00000000E+00  0.00000000E+00  0.00000000E+00
  0.00000000E+00  0.00000000E+00  0.00000000E+00
  0.00000000E+00  0.00000000E+00  0.00000000E+00
  0.00000000E+00  0.00000000E+00  0.00000000E+00
  0.00000000E+00  0.00000000E+00  0.00000000E+00
  0.00000000E+00  0.00000000E+00  0.00000000E+00
  0.00000000E+00  0.00000000E+00  0.00000000E+00
  0.00000000E+00  0.00000000E+00  0.00000000E+00
  0.00000000E+00  0.00000000E+00  0.00000000E+00
  0.00000000E+00  0.00000000E+00  0.00000000E+00
  0.00000000E+00  0.00000000E+00  0.00000000E+00
