supercell of 100% icsd_608626.cif, 0% i 
   1.00000000000000     
    -9.5565639881113320   -0.0186377569295825   -0.0874013591277542
    -4.7621862708576677    8.2652902978148290    0.0071315829296635
    -0.0932164703364262   -0.0626890836689042  -10.1637702292979970
   Al   Sr   Si   N 
    30     3     3    36
Direct
  0.1089031938748661  0.0985946863351685  0.2983947586460474
  0.2108761574473803  0.2121044359937514  0.0308658665886838
  0.7891241413115040  0.0875425205322031  0.7853314596051604
  0.8931411372390130  0.2070714298514957  0.5450780096948478
  0.1053096138732528  0.0960737489192951  0.7943557163308341
  0.2174080810106815  0.2072805808893250  0.5470086291514278
  0.7938671025625368  0.0849023665251778  0.3186911026937906
  0.8976635135306807  0.2011694141242302  0.0589361198808263
  0.4330244014629940  0.0913640410012206  0.8146175840603789
  0.1009346905891277  0.4326826659559302  0.2982135137233684
  0.2133989415337041  0.5478199240669213  0.0366593140929865
  0.7784739124515525  0.4281944412297918  0.7977852096111491
  0.8882812078583484  0.5361054024173413  0.5421582926626414
  0.5506367268075110  0.5539614576730187  0.0408953104660696
  0.1010414927361083  0.4333349722721351  0.7915914285783288
  0.2125978014850887  0.5427095455943558  0.5450121736428315
  0.7798643292262497  0.4295681709197581  0.2988870309094125
  0.8859000430992623  0.5417675712631720  0.0492691381465917
  0.4307124453109594  0.4403526561769624  0.7882455375176818
  0.5631915965250087  0.5352435247173659  0.5474300758610937
  0.1091003785169775  0.7604956813899904  0.2954435051878121
  0.2272604759097163  0.8714214099834123  0.0523766008294970
  0.7784856643446076  0.7582983753720356  0.7959390944755995
  0.8923102011487671  0.8682424029380371  0.5436837585221781
  0.4513366458096257  0.7560528514549389  0.3039337000658975
  0.5556930397747664  0.8648767848657002  0.0322144306156105
  0.1072136914337420  0.7633918444000827  0.7970629963901814
  0.2176846280756592  0.8750183806979663  0.5448326564724013
  0.7820653282950616  0.7552854124580008  0.3037759655206855
  0.8928228744250148  0.8728289762566419  0.0582936831726784
  0.4556089276538486  0.0870848044181400  0.2737328408828432
  0.5861649088713321  0.2053958912349430  0.0131905995849451
  0.4524037808489467  0.4123228363666058  0.2966251012233769
  0.5670812032015817  0.1944201012546571  0.5779913544273185
  0.4446637967949201  0.7605690140324555  0.7907271112198018
  0.5588825433740539  0.8702541934948584  0.5496337179777342
  0.1934474267979667  0.2225425743009950  0.3648806222256553
  0.1167812412289280  0.0951582793685901  0.1062337954079240
  0.8822160337671008  0.2047543228330753  0.8632043333224146
  0.7934717043006643  0.0864896025183555  0.6050210974429007
  0.5975596827891678  0.1699223551462339  0.4095204940220825
  0.4308831585339732  0.0845437287014761  0.0277138406179347
  0.2016755230719767  0.2161148808573685  0.8427329034629949
  0.1098748361216195  0.0919162296037541  0.6076344436496584
  0.8919625028446561  0.2099526715421192  0.3599756984005893
  0.8175444339448248  0.0758640745641586  0.1355472709989627
  0.5542596871106937  0.2058783005533655  0.7808908749082804
  0.4477556749339939  0.0777475461053001  0.6067938626783587
  0.1837444810645579  0.5573736777206975  0.3651295670670223
  0.1078953339803377  0.4305454542680707  0.1026728962321783
  0.8829476700552092  0.5427645507020884  0.8582245142731537
  0.7805151889374713  0.4253855185612068  0.6105795678950727
  0.5736342412014181  0.5517968763549987  0.3686851509983455
  0.4235867145440224  0.4680903865797816  0.0655681785720503
  0.2089507406661681  0.5450006979667705  0.8460982161586585
  0.1044192568914752  0.4310026599879535  0.6064804809554616
  0.8858202960827768  0.5391953466237993  0.3548889929865311
  0.7731056933392892  0.4299308699454727  0.1044655151264848
  0.5480470881369044  0.5558981878465801  0.8417940180547703
  0.4405803648248821  0.4301373870309178  0.5971078631307734
  0.2241693704580356  0.8717312049591612  0.3559192807084770
  0.1112104336946302  0.7632490356723949  0.1037853831559090
  0.8822451359841423  0.8766053255253397  0.8613210819760369
  0.7676780982732083  0.7662311181728043  0.6063077014059672
  0.5722092775470387  0.8417686532915667  0.3821251179738496
  0.4468150468399585  0.7678757188963559  0.1123306046729979
  0.2367298783375205  0.8655150444202633  0.8530468719788118
  0.1096307756951305  0.7642660158260739  0.6096660126743743
  0.8940596587491711  0.8633490750005635  0.3596204821987072
  0.7700302927867000  0.7675373759895336  0.1091331205849713
  0.5550360249408826  0.8516965545067521  0.8426100928895792
  0.4463784131090662  0.7683661809790649  0.6134066627592603
 
  0.00000000E+00  0.00000000E+00  0.00000000E+00
  0.00000000E+00  0.00000000E+00  0.00000000E+00
  0.00000000E+00  0.00000000E+00  0.00000000E+00
  0.00000000E+00  0.00000000E+00  0.00000000E+00
  0.00000000E+00  0.00000000E+00  0.00000000E+00
  0.00000000E+00  0.00000000E+00  0.00000000E+00
  0.00000000E+00  0.00000000E+00  0.00000000E+00
  0.00000000E+00  0.00000000E+00  0.00000000E+00
  0.00000000E+00  0.00000000E+00  0.00000000E+00
  0.00000000E+00  0.00000000E+00  0.00000000E+00
  0.00000000E+00  0.00000000E+00  0.00000000E+00
  0.00000000E+00  0.00000000E+00  0.00000000E+00
  0.00000000E+00  0.00000000E+00  0.00000000E+00
  0.00000000E+00  0.00000000E+00  0.00000000E+00
  0.00000000E+00  0.00000000E+00  0.00000000E+00
  0.00000000E+00  0.00000000E+00  0.00000000E+00
  0.00000000E+00  0.00000000E+00  0.00000000E+00
  0.00000000E+00  0.00000000E+00  0.00000000E+00
  0.00000000E+00  0.00000000E+00  0.00000000E+00
  0.00000000E+00  0.00000000E+00  0.00000000E+00
  0.00000000E+00  0.00000000E+00  0.00000000E+00
  0.00000000E+00  0.00000000E+00  0.00000000E+00
  0.00000000E+00  0.00000000E+00  0.00000000E+00
  0.00000000E+00  0.00000000E+00  0.00000000E+00
  0.00000000E+00  0.00000000E+00  0.00000000E+00
  0.00000000E+00  0.00000000E+00  0.00000000E+00
  0.00000000E+00  0.00000000E+00  0.00000000E+00
  0.00000000E+00  0.00000000E+00  0.00000000E+00
  0.00000000E+00  0.00000000E+00  0.00000000E+00
  0.00000000E+00  0.00000000E+00  0.00000000E+00
  0.00000000E+00  0.00000000E+00  0.00000000E+00
  0.00000000E+00  0.00000000E+00  0.00000000E+00
  0.00000000E+00  0.00000000E+00  0.00000000E+00
  0.00000000E+00  0.00000000E+00  0.00000000E+00
  0.00000000E+00  0.00000000E+00  0.00000000E+00
  0.00000000E+00  0.00000000E+00  0.00000000E+00
  0.00000000E+00  0.00000000E+00  0.00000000E+00
  0.00000000E+00  0.00000000E+00  0.00000000E+00
  0.00000000E+00  0.00000000E+00  0.00000000E+00
  0.00000000E+00  0.00000000E+00  0.00000000E+00
  0.00000000E+00  0.00000000E+00  0.00000000E+00
  0.00000000E+00  0.00000000E+00  0.00000000E+00
  0.00000000E+00  0.00000000E+00  0.00000000E+00
  0.00000000E+00  0.00000000E+00  0.00000000E+00
  0.00000000E+00  0.00000000E+00  0.00000000E+00
  0.00000000E+00  0.00000000E+00  0.00000000E+00
  0.00000000E+00  0.00000000E+00  0.00000000E+00
  0.00000000E+00  0.00000000E+00  0.00000000E+00
  0.00000000E+00  0.00000000E+00  0.00000000E+00
  0.00000000E+00  0.00000000E+00  0.00000000E+00
  0.00000000E+00  0.00000000E+00  0.00000000E+00
  0.00000000E+00  0.00000000E+00  0.00000000E+00
  0.00000000E+00  0.00000000E+00  0.00000000E+00
  0.00000000E+00  0.00000000E+00  0.00000000E+00
  0.00000000E+00  0.00000000E+00  0.00000000E+00
  0.00000000E+00  0.00000000E+00  0.00000000E+00
  0.00000000E+00  0.00000000E+00  0.00000000E+00
  0.00000000E+00  0.00000000E+00  0.00000000E+00
  0.00000000E+00  0.00000000E+00  0.00000000E+00
  0.00000000E+00  0.00000000E+00  0.00000000E+00
  0.00000000E+00  0.00000000E+00  0.00000000E+00
  0.00000000E+00  0.00000000E+00  0.00000000E+00
  0.00000000E+00  0.00000000E+00  0.00000000E+00
  0.00000000E+00  0.00000000E+00  0.00000000E+00
  0.00000000E+00  0.00000000E+00  0.00000000E+00
  0.00000000E+00  0.00000000E+00  0.00000000E+00
  0.00000000E+00  0.00000000E+00  0.00000000E+00
  0.00000000E+00  0.00000000E+00  0.00000000E+00
  0.00000000E+00  0.00000000E+00  0.00000000E+00
  0.00000000E+00  0.00000000E+00  0.00000000E+00
  0.00000000E+00  0.00000000E+00  0.00000000E+00
  0.00000000E+00  0.00000000E+00  0.00000000E+00
