supercell of 100% icsd_608626.cif, 0% i 
   1.00000000000000     
    -9.5733535835434687    0.0038504541601833   -0.0249142494576170
    -4.7899941013027707    8.3184304525297961   -0.0191699714441837
    -0.0266856850506189    0.0082567053108672  -10.1729357820979391
   Al   Si   Sr   N 
    30     3     3    36
Direct
  0.1121403960150076  0.0954821387307874  0.2955154192404095
  0.2203241735649542  0.2037645289052534  0.0464911733740436
  0.8897669912093775  0.2073229490072777  0.5509506818339887
  0.4467504366334936  0.0937209759596058  0.2873558146891142
  0.5607845059610526  0.1977656992978396  0.0440714855728217
  0.1138869967142924  0.0918347315702661  0.7906807830777467
  0.2168393268851219  0.2086268473184418  0.5482338018926640
  0.7760674182936214  0.0948896034140674  0.2977382367532400
  0.8964256553141752  0.1988789283427224  0.0496890912550612
  0.4380746713941193  0.1054083458824095  0.8008350571967284
  0.5553999103357583  0.2079910162052272  0.5485979400712111
  0.1129200599914739  0.4259548011376708  0.2866577263212022
  0.2205434074902826  0.5331288208897718  0.0447168106174800
  0.7753449904744230  0.4300955797408577  0.7852297849445122
  0.8917751212621141  0.5320593532898954  0.5505341324875772
  0.4400079580384997  0.4181513843158129  0.2912034593431514
  0.1053149038379217  0.4212050792329549  0.7996739119660603
  0.8938908942777459  0.5326147386199551  0.0481035804307552
  0.4539215229645848  0.4245708897159233  0.7866839318130658
  0.5584412769166889  0.5346631777814821  0.5471499037147041
  0.1110774086207655  0.7616889900579906  0.2873164493760143
  0.2181713950451041  0.8819850773533631  0.0433592387628750
  0.7883515280140401  0.7543725111537469  0.8028294940814575
  0.8927262574824226  0.8750040268893713  0.5519929633440057
  0.4418337383947843  0.7722572820966462  0.2904032159604739
  0.1076239046858092  0.7727989485919693  0.7989545077787241
  0.2145758059637686  0.8780428738195951  0.5443655025089598
  0.7759712245460832  0.7628438265841737  0.2891157432903952
  0.8872776072794508  0.8781868352868614  0.0461085172319002
  0.4369312148822502  0.7555374025805364  0.7893536160642185
  0.7776390548141876  0.0946743570512538  0.7944655727274039
  0.7876294418861107  0.4222562207258207  0.2993743017338559
  0.5499991218362936  0.8790619194015150  0.0419671120736211
  0.5598771992226546  0.5349341494259505  0.0542930229350489
  0.2116814171763508  0.5453064725262635  0.5575888746971387
  0.5609134381892957  0.8752667259058029  0.5534021766743180
  0.2246266835006452  0.2054299024190911  0.3504738062681341
  0.1103069889486790  0.0941770091595302  0.1067736652994924
  0.8820599978878434  0.1998972848183129  0.8513944555694550
  0.7752347961172319  0.0947812767912168  0.6165803073890430
  0.5579617175280802  0.1991570089852317  0.3571355257967426
  0.4529842406960753  0.0843893753673939  0.0925329594461246
  0.2195731967767642  0.2020179852059485  0.8619527835352798
  0.1120855077046983  0.0946411421699409  0.6011693622623469
  0.8834154316316756  0.2142208309968296  0.3589449626918295
  0.7794176291667085  0.0952558110563544  0.1088146280930431
  0.5733535444363582  0.1978619082557387  0.8550592764623062
  0.4195662172815560  0.1417033287779361  0.6211715328822791
  0.2170876445428860  0.5424287488689998  0.3240494930592632
  0.1092624226944565  0.4256668031369273  0.0989000724659803
  0.8834519628879036  0.5348280860023991  0.8635823676718033
  0.7774908679645165  0.4282839505513536  0.5978740136787337
  0.5700441679660386  0.5322693572819830  0.3396550276820562
  0.4272181616434665  0.3975105122377229  0.1095119539668588
  0.2211389332627647  0.5388490214162829  0.8475909718430330
  0.0858848957483431  0.4016788138368881  0.6218919297200713
  0.8837830818210008  0.5356700796765708  0.3533089002987921
  0.8249080352161329  0.4009018236438635  0.1308945795480554
  0.5587346922031600  0.5381819948307935  0.8280099925891236
  0.4839491470697226  0.4071292870072583  0.6064784174716422
  0.2198381044219104  0.8731927411353340  0.3511385203740645
  0.1100218322259892  0.7637514485485184  0.0961069945815751
  0.8786337865373994  0.8910303214715043  0.8586443545560698
  0.8296879052597816  0.7344919679272053  0.6219704172742198
  0.5582826346229126  0.8746827780977355  0.3247580766770852
  0.4281493306382345  0.8077082740422341  0.1045707305555510
  0.2219244012769579  0.8766072205171156  0.8582895910775434
  0.0864716419710660  0.8136082674673659  0.6219349117399773
  0.8883589959248184  0.8723278013427063  0.3547345017511532
  0.7672120039256640  0.7661670827607026  0.0943107607156293
  0.5560147307275187  0.8731489154672687  0.8592688698008857
  0.4209642921569596  0.7440046299186918  0.6055182493687283
 
  0.00000000E+00  0.00000000E+00  0.00000000E+00
  0.00000000E+00  0.00000000E+00  0.00000000E+00
  0.00000000E+00  0.00000000E+00  0.00000000E+00
  0.00000000E+00  0.00000000E+00  0.00000000E+00
  0.00000000E+00  0.00000000E+00  0.00000000E+00
  0.00000000E+00  0.00000000E+00  0.00000000E+00
  0.00000000E+00  0.00000000E+00  0.00000000E+00
  0.00000000E+00  0.00000000E+00  0.00000000E+00
  0.00000000E+00  0.00000000E+00  0.00000000E+00
  0.00000000E+00  0.00000000E+00  0.00000000E+00
  0.00000000E+00  0.00000000E+00  0.00000000E+00
  0.00000000E+00  0.00000000E+00  0.00000000E+00
  0.00000000E+00  0.00000000E+00  0.00000000E+00
  0.00000000E+00  0.00000000E+00  0.00000000E+00
  0.00000000E+00  0.00000000E+00  0.00000000E+00
  0.00000000E+00  0.00000000E+00  0.00000000E+00
  0.00000000E+00  0.00000000E+00  0.00000000E+00
  0.00000000E+00  0.00000000E+00  0.00000000E+00
  0.00000000E+00  0.00000000E+00  0.00000000E+00
  0.00000000E+00  0.00000000E+00  0.00000000E+00
  0.00000000E+00  0.00000000E+00  0.00000000E+00
  0.00000000E+00  0.00000000E+00  0.00000000E+00
  0.00000000E+00  0.00000000E+00  0.00000000E+00
  0.00000000E+00  0.00000000E+00  0.00000000E+00
  0.00000000E+00  0.00000000E+00  0.00000000E+00
  0.00000000E+00  0.00000000E+00  0.00000000E+00
  0.00000000E+00  0.00000000E+00  0.00000000E+00
  0.00000000E+00  0.00000000E+00  0.00000000E+00
  0.00000000E+00  0.00000000E+00  0.00000000E+00
  0.00000000E+00  0.00000000E+00  0.00000000E+00
  0.00000000E+00  0.00000000E+00  0.00000000E+00
  0.00000000E+00  0.00000000E+00  0.00000000E+00
  0.00000000E+00  0.00000000E+00  0.00000000E+00
  0.00000000E+00  0.00000000E+00  0.00000000E+00
  0.00000000E+00  0.00000000E+00  0.00000000E+00
  0.00000000E+00  0.00000000E+00  0.00000000E+00
  0.00000000E+00  0.00000000E+00  0.00000000E+00
  0.00000000E+00  0.00000000E+00  0.00000000E+00
  0.00000000E+00  0.00000000E+00  0.00000000E+00
  0.00000000E+00  0.00000000E+00  0.00000000E+00
  0.00000000E+00  0.00000000E+00  0.00000000E+00
  0.00000000E+00  0.00000000E+00  0.00000000E+00
  0.00000000E+00  0.00000000E+00  0.00000000E+00
  0.00000000E+00  0.00000000E+00  0.00000000E+00
  0.00000000E+00  0.00000000E+00  0.00000000E+00
  0.00000000E+00  0.00000000E+00  0.00000000E+00
  0.00000000E+00  0.00000000E+00  0.00000000E+00
  0.00000000E+00  0.00000000E+00  0.00000000E+00
  0.00000000E+00  0.00000000E+00  0.00000000E+00
  0.00000000E+00  0.00000000E+00  0.00000000E+00
  0.00000000E+00  0.00000000E+00  0.00000000E+00
  0.00000000E+00  0.00000000E+00  0.00000000E+00
  0.00000000E+00  0.00000000E+00  0.00000000E+00
  0.00000000E+00  0.00000000E+00  0.00000000E+00
  0.00000000E+00  0.00000000E+00  0.00000000E+00
  0.00000000E+00  0.00000000E+00  0.00000000E+00
  0.00000000E+00  0.00000000E+00  0.00000000E+00
  0.00000000E+00  0.00000000E+00  0.00000000E+00
  0.00000000E+00  0.00000000E+00  0.00000000E+00
  0.00000000E+00  0.00000000E+00  0.00000000E+00
  0.00000000E+00  0.00000000E+00  0.00000000E+00
  0.00000000E+00  0.00000000E+00  0.00000000E+00
  0.00000000E+00  0.00000000E+00  0.00000000E+00
  0.00000000E+00  0.00000000E+00  0.00000000E+00
  0.00000000E+00  0.00000000E+00  0.00000000E+00
  0.00000000E+00  0.00000000E+00  0.00000000E+00
  0.00000000E+00  0.00000000E+00  0.00000000E+00
  0.00000000E+00  0.00000000E+00  0.00000000E+00
  0.00000000E+00  0.00000000E+00  0.00000000E+00
  0.00000000E+00  0.00000000E+00  0.00000000E+00
  0.00000000E+00  0.00000000E+00  0.00000000E+00
  0.00000000E+00  0.00000000E+00  0.00000000E+00
