supercell of 100% icsd_608626.cif, 0% i 
   1.00000000000000     
    -9.6850390566859570    0.0327259045281247    0.0254915389972056
    -4.8712982456440441    8.2307952337539803    0.0292949981324674
     0.0272405778369062   -0.0203630772053287  -10.1297432783456447
   Al   Sr   Si   N 
    30     3     3    36
Direct
  0.1163970043244973  0.0971906603511812  0.2948763918058503
  0.2236646101455264  0.2072407943453314  0.0439926785073439
  0.8929334393709212  0.2062853801413169  0.5321576059277504
  0.4400573333979452  0.0980162365584718  0.2971987777478233
  0.5502225665787535  0.2062961195132686  0.0488037660399172
  0.1193380612715345  0.1014581336268776  0.7991376840408151
  0.2185125256424598  0.2073143398011794  0.5484112190473454
  0.7764053573768450  0.1034387430135979  0.2985589099727193
  0.8913893710904475  0.2097636249425676  0.0509543709404241
  0.5590744385140809  0.2051883767051592  0.5313912674395098
  0.1088013010782589  0.4308859466456454  0.2974465101469761
  0.2264317006477370  0.5336926058760199  0.0464648516148500
  0.7834062118045608  0.4267480494249369  0.7980116942141393
  0.8814430986259154  0.5314176988164405  0.5530917120839973
  0.4436132499231107  0.4296204572237912  0.2909702238781051
  0.5553166899226838  0.5370837282166008  0.0454552332794975
  0.1100990348205997  0.4284869820970911  0.7973886817901885
  0.2371396731224280  0.5299051899098828  0.5391404517987297
  0.7771926886821348  0.4335514787408101  0.2947015814426592
  0.8853473877862186  0.5386982691988038  0.0437661577208956
  0.4347252211065182  0.4237279763134936  0.7973474063227997
  0.5564704339466786  0.5325535574048956  0.5491766710802821
  0.1229915823829160  0.7614750497665241  0.2828829172962202
  0.7645065490889706  0.7589942663434570  0.8103977098875745
  0.4459045350888360  0.7606139044791362  0.2999640068591205
  0.5477689486596091  0.8774221833042262  0.0452000768039582
  0.2291306650555569  0.8725863100063052  0.5378985863266266
  0.7728224075748358  0.7572616468133475  0.2873520081595089
  0.8736565512111767  0.8783484650233007  0.0737304309881281
  0.4458314159918686  0.7632393763791967  0.7972497829823268
  0.7755027467796083  0.1015132488565769  0.7872365609686227
  0.9017121535266668  0.8342652661984005  0.5219298824185827
  0.1019875120663869  0.7749649393256632  0.8097959836883746
  0.4394620951672934  0.0949686520917439  0.8004337583001018
  0.2319775005869218  0.8782019676237880  0.0480724252065201
  0.5535243963558401  0.8645493435853311  0.5547052344446968
  0.2232200136641396  0.2074089546496651  0.3592522672773839
  0.1227414850728437  0.0863257675140829  0.1067686935354644
  0.9176477145231914  0.2220418261869952  0.8705537849459972
  0.7741550688332879  0.1099295862777794  0.5469727438914234
  0.5459944416492206  0.2089460723847552  0.3449075985194980
  0.4404421325310395  0.0945683860814839  0.1097902626477634
  0.2344009392327351  0.2016851415468466  0.8487766794750442
  0.1130434926079431  0.0942496726486795  0.6054289503230876
  0.8977598812666159  0.2117475598388410  0.3430606276950670
  0.7688545733563004  0.1136679006003689  0.1021593446669087
  0.5154332250352383  0.2094376420373010  0.8627838220759401
  0.4507973594748691  0.0801472975518465  0.6138905469078111
  0.2233012209436183  0.5376933338411476  0.3458216714183919
  0.1062929384010758  0.4298680715900360  0.1072245980789788
  0.8886939556170503  0.5356464250768269  0.8551506096269677
  0.7778694992067088  0.4200433382618129  0.6067043555146441
  0.5556406088634986  0.5383727256116444  0.3571850830229977
  0.4452990154281053  0.4305110344976129  0.1042704173653632
  0.2325269290142060  0.5070856947279125  0.8661838080091471
  0.1089172533203211  0.4325331300813602  0.6042088822202913
  0.8872777715196918  0.5435695550452948  0.3619181125861530
  0.7737764179977376  0.4342682218645493  0.1069849187905447
  0.5543314288783989  0.5360477163555899  0.8525948722056356
  0.4517909600174761  0.4154977056725428  0.6062418563499676
  0.2269086658837693  0.8767429105486073  0.3489201741466204
  0.1339640512613727  0.7673957770889217  0.0919820991449711
  0.8517730444833091  0.8602749596568131  0.8937850949527899
  0.7412918203144301  0.7446570932107761  0.6238836543153425
  0.5560965845182935  0.8740089116001499  0.3735796843887229
  0.4375283906219067  0.7670789423704605  0.1079817996952315
  0.2482089806601948  0.8960181424471543  0.8794515694434466
  0.1627142800028025  0.7379792006866737  0.5835199405062355
  0.8930182853719586  0.8674300901303056  0.2868076000573296
  0.7575977979101509  0.7543739320307026  0.1073806642500585
  0.5390415463945217  0.8875095998935407  0.8552983766007429
  0.4468877674056415  0.7682687117266127  0.6032816241749330
 
  0.00000000E+00  0.00000000E+00  0.00000000E+00
  0.00000000E+00  0.00000000E+00  0.00000000E+00
  0.00000000E+00  0.00000000E+00  0.00000000E+00
  0.00000000E+00  0.00000000E+00  0.00000000E+00
  0.00000000E+00  0.00000000E+00  0.00000000E+00
  0.00000000E+00  0.00000000E+00  0.00000000E+00
  0.00000000E+00  0.00000000E+00  0.00000000E+00
  0.00000000E+00  0.00000000E+00  0.00000000E+00
  0.00000000E+00  0.00000000E+00  0.00000000E+00
  0.00000000E+00  0.00000000E+00  0.00000000E+00
  0.00000000E+00  0.00000000E+00  0.00000000E+00
  0.00000000E+00  0.00000000E+00  0.00000000E+00
  0.00000000E+00  0.00000000E+00  0.00000000E+00
  0.00000000E+00  0.00000000E+00  0.00000000E+00
  0.00000000E+00  0.00000000E+00  0.00000000E+00
  0.00000000E+00  0.00000000E+00  0.00000000E+00
  0.00000000E+00  0.00000000E+00  0.00000000E+00
  0.00000000E+00  0.00000000E+00  0.00000000E+00
  0.00000000E+00  0.00000000E+00  0.00000000E+00
  0.00000000E+00  0.00000000E+00  0.00000000E+00
  0.00000000E+00  0.00000000E+00  0.00000000E+00
  0.00000000E+00  0.00000000E+00  0.00000000E+00
  0.00000000E+00  0.00000000E+00  0.00000000E+00
  0.00000000E+00  0.00000000E+00  0.00000000E+00
  0.00000000E+00  0.00000000E+00  0.00000000E+00
  0.00000000E+00  0.00000000E+00  0.00000000E+00
  0.00000000E+00  0.00000000E+00  0.00000000E+00
  0.00000000E+00  0.00000000E+00  0.00000000E+00
  0.00000000E+00  0.00000000E+00  0.00000000E+00
  0.00000000E+00  0.00000000E+00  0.00000000E+00
  0.00000000E+00  0.00000000E+00  0.00000000E+00
  0.00000000E+00  0.00000000E+00  0.00000000E+00
  0.00000000E+00  0.00000000E+00  0.00000000E+00
  0.00000000E+00  0.00000000E+00  0.00000000E+00
  0.00000000E+00  0.00000000E+00  0.00000000E+00
  0.00000000E+00  0.00000000E+00  0.00000000E+00
  0.00000000E+00  0.00000000E+00  0.00000000E+00
  0.00000000E+00  0.00000000E+00  0.00000000E+00
  0.00000000E+00  0.00000000E+00  0.00000000E+00
  0.00000000E+00  0.00000000E+00  0.00000000E+00
  0.00000000E+00  0.00000000E+00  0.00000000E+00
  0.00000000E+00  0.00000000E+00  0.00000000E+00
  0.00000000E+00  0.00000000E+00  0.00000000E+00
  0.00000000E+00  0.00000000E+00  0.00000000E+00
  0.00000000E+00  0.00000000E+00  0.00000000E+00
  0.00000000E+00  0.00000000E+00  0.00000000E+00
  0.00000000E+00  0.00000000E+00  0.00000000E+00
  0.00000000E+00  0.00000000E+00  0.00000000E+00
  0.00000000E+00  0.00000000E+00  0.00000000E+00
  0.00000000E+00  0.00000000E+00  0.00000000E+00
  0.00000000E+00  0.00000000E+00  0.00000000E+00
  0.00000000E+00  0.00000000E+00  0.00000000E+00
  0.00000000E+00  0.00000000E+00  0.00000000E+00
  0.00000000E+00  0.00000000E+00  0.00000000E+00
  0.00000000E+00  0.00000000E+00  0.00000000E+00
  0.00000000E+00  0.00000000E+00  0.00000000E+00
  0.00000000E+00  0.00000000E+00  0.00000000E+00
  0.00000000E+00  0.00000000E+00  0.00000000E+00
  0.00000000E+00  0.00000000E+00  0.00000000E+00
  0.00000000E+00  0.00000000E+00  0.00000000E+00
  0.00000000E+00  0.00000000E+00  0.00000000E+00
  0.00000000E+00  0.00000000E+00  0.00000000E+00
  0.00000000E+00  0.00000000E+00  0.00000000E+00
  0.00000000E+00  0.00000000E+00  0.00000000E+00
  0.00000000E+00  0.00000000E+00  0.00000000E+00
  0.00000000E+00  0.00000000E+00  0.00000000E+00
  0.00000000E+00  0.00000000E+00  0.00000000E+00
  0.00000000E+00  0.00000000E+00  0.00000000E+00
  0.00000000E+00  0.00000000E+00  0.00000000E+00
  0.00000000E+00  0.00000000E+00  0.00000000E+00
  0.00000000E+00  0.00000000E+00  0.00000000E+00
  0.00000000E+00  0.00000000E+00  0.00000000E+00
