supercell of POSCAR                     
   1.03600000000000     
     9.6051007291200001   -5.6678653607799996   -9.9907275475200006
     9.5551777488200003    5.5783510108199996    9.9928581731800001
    -1.5573508785200001   -8.3719044994900003    4.9655686364999996
   Al   Gd   N 
    71    24    96
Direct
  0.2972672061133750  0.2908201455674657  0.5432964451880622
  0.1435703782086080  0.2450047261685526  0.3129038388449956
  0.3100058273254191  0.4122711028989272  0.3177097429893010
  0.1401938427909641  0.4992354102670333  0.7842832364321524
  0.2908583738522026  0.1672779087543432  0.7831377896085527
  0.4749405614008424  0.4464352503651554  0.5284995593518147
  0.1432929235010363  0.1202500919851133  0.5384639494282482
  0.4772280458819296  0.0743904291861668  0.3041294930874727
  0.2778957988356510  0.1112310850751896  0.3393323342535126
  0.1151254338373207  0.0712020701175717  0.1027150648198827
  0.1099449850654821  0.1924670412195439  0.8163626640786177
  0.2711233720256843  0.3493189069986045  0.8161899979245746
  0.1088949389208054  0.3250459163746982  0.5897927097885898
  0.2738900244101430  0.4844510204362749  0.5881684515732672
  0.4494468446310549  0.2780357534703413  0.3421160916185357
  0.1145911377122175  0.4450767110880491  0.3414279820242712
  0.4440632984532513  0.4062258955498237  0.1180932673419619
  0.8022283851570648  0.2876196646292541  0.5338984759774519
  0.6430367193690429  0.2424255354334832  0.3065650782732874
  0.8085147313963077  0.4075513399976387  0.3052378718697852
  0.9616190808010288  0.3235631751984016  0.7869611128823593
  0.6497998469676816  0.4997899997109414  0.7720682597783863
  0.7931090500272688  0.1655411533295492  0.7735622375215172
  0.9696985411510184  0.4461681235867943  0.5291575792973404
  0.6408783294701692  0.1196720139631751  0.5371795274969529
  0.9788182629248183  0.0714430153598542  0.2956713682528616
  0.7758749775700551  0.1078664677209531  0.3345238265408383
  0.6137791676687030  0.0700572903991343  0.1012999313550154
  0.6160825770227376  0.2004185733689923  0.8174975051116462
  0.7768841752238060  0.3569767239467367  0.8073150783233203
  0.6162928452219205  0.3266803446562179  0.5843772411589114
  0.7731331101790744  0.4856618073347505  0.5700988352984027
  0.9479418013463743  0.2787021620328076  0.3334115882795814
  0.6112906997812644  0.4448062389879013  0.3364886471634705
  0.9486877083741376  0.4027529727098837  0.1027908901435524
  0.3030003036107445  0.7885975395158553  0.5380716042519182
  0.1459321460693772  0.7431528340244000  0.3101773141442905
  0.3086369421682562  0.9092246582134251  0.3098031796317073
  0.4612405951607954  0.8251887900747761  0.7869903800379632
  0.1405912124404765  0.9983484311833948  0.7840244128610010
  0.2906614598184376  0.6690317154683640  0.7822820301832039
  0.4692566099295874  0.9505780646545432  0.5330037347617349
  0.1445689549965294  0.6194749477709109  0.5377763348340068
  0.4779470454914900  0.5769949838282855  0.3038196702141178
  0.2798051853265662  0.6084443987258652  0.3400149824576886
  0.1182183928533505  0.5693586271561344  0.1050051547162738
  0.1131298135758740  0.6980303546296653  0.8157368337233777
  0.2748114877285204  0.8591090568487445  0.8132221899198200
  0.1133150514616545  0.8252158015958528  0.5880029783447398
  0.2728383885651695  0.9882910134759157  0.5776842370173227
  0.4498407163515097  0.7784262820312193  0.3381190649856052
  0.1128754806576708  0.9457685124414823  0.3405213945992571
  0.4480331062418657  0.9016966149243473  0.1064114187482019
  0.8009311267029418  0.7882144864256659  0.5365451739544156
  0.6422194913828818  0.7433658174033013  0.3067079552622971
  0.8084395357978025  0.9084281020654501  0.3102005132403107
  0.9624330119756053  0.8254255858643589  0.7873333105631630
  0.6424285622464510  0.9983001353384253  0.7845778998054769
  0.7980648707979654  0.6662743007361058  0.7762026830047475
  0.9692770162360773  0.9462504335835291  0.5343832512974274
  0.6445893903689708  0.6200775888000578  0.5337936059547346
  0.9798605422672892  0.5709993400481537  0.2950425964624941
  0.7762949198712406  0.6088763070044152  0.3304761195594281
  0.6131133445175578  0.5688306686357052  0.1001555968632033
  0.6129282826560569  0.6900407650028981  0.8125532935541528
  0.7720282287594955  0.8533142025719869  0.8110178135723700
  0.6102317472656651  0.8232183494138425  0.5867232235131468
  0.7700160083204537  0.9843059628557569  0.5759254632123216
  0.9497747009430881  0.7805549049729237  0.3336797286284323
  0.6114117999976401  0.9450812587972877  0.3387132922803175
  0.9505348776555991  0.9076946105478072  0.1031781112985115
  0.4824323956274768  0.2015604486568634  0.0356463239705889
  0.1320152834238826  0.3602703610069256  0.0312327735392586
  0.3101080791616297  0.0263903358936091  0.0414188597699763
  0.2861300007235954  0.2415297625914903  0.0878424256048049
  0.4502507773338351  0.0213038606048244  0.8204463034578353
  0.4403062565110432  0.1724061420876808  0.5974207236614717
  0.9786162158012814  0.1880579508879734  0.0385969613720931
  0.6409200696180264  0.3694823886283558  0.0291834843182883
  0.8086615589499715  0.0194027641075252  0.0405520798503076
  0.7822299956607139  0.2303806451590305  0.0748017510918899
  0.9455978040794619  0.0191625056462073  0.8276691911796306
  0.9428446319193498  0.1524798208680949  0.5713578264412007
  0.4803375588385279  0.6816382863275692  0.0203825249255587
  0.1400073978924112  0.8649342888980911  0.0325892185266312
  0.3081360254592198  0.5138522744777205  0.0300046851719316
  0.2877306941576592  0.7273643060115944  0.0780844789342865
  0.4654909333213766  0.4448436666267668  0.8084312202279946
  0.4436136747168646  0.6459772120088161  0.5944477520149576
  0.9853325296084350  0.6956311674033699  0.0386239253688672
  0.6312527152264025  0.8610118692935558  0.0302176392371578
  0.8106054451715252  0.5237356963502720  0.0374043520372709
  0.7864635772926718  0.7354814405566543  0.0799180769002916
  0.9487990847056338  0.5192394237018121  0.8148820296151840
  0.9441783326890487  0.6565241438582703  0.5668507373531426
  0.2316154113897113  0.3690693315517990  0.6292557489706496
  0.0735724311538704  0.3253999632915665  0.4003669330967554
  0.2415595575212990  0.4917132966959556  0.4015932255128618
  0.4282342564976602  0.2931525651951929  0.1662288786811814
  0.0700240544727464  0.4558397049692360  0.1532716885942307
  0.2363890881079556  0.1072808837305885  0.1575574451560442
  0.3739880933535034  0.3958669725611301  0.9499827342073246
  0.0909430236639963  0.0799990794523495  0.8998356321349732
  0.2252638549238597  0.2409420964780011  0.8759580254106041
  0.3974088604530337  0.0234495848671799  0.6106747391113174
  0.0881857857783146  0.2031057109392478  0.6311730765066628
  0.4056325086319248  0.1563102851285194  0.3702995348738938
  0.2178174719762964  0.1920399766282870  0.4347641858044966
  0.0635424231778714  0.1475691928448484  0.2119446357737118
  0.2159142579187474  0.3249306365611631  0.2165775319516712
  0.3667748553652430  0.1179692570177906  0.9040054953697592
  0.0357655570647353  0.2633528395470321  0.8832852577954569
  0.1995834706970854  0.4317743412696302  0.8868387599689811
  0.3513624562265818  0.2527271204984629  0.6913242297537394
  0.0363288387483252  0.4070821828812541  0.6813663986744203
  0.2098791144719598  0.0678531877815232  0.6710952413224760
  0.3829926740757514  0.3518787851206895  0.4375985321443991
  0.0483742890414192  0.0258508144239897  0.4400858154118623
  0.3907472948442674  0.4810296339365863  0.2241361669499113
  0.7426028557411257  0.3688152295175158  0.6210602854556697
  0.5775262620802124  0.3242030205377517  0.3952842231386740
  0.7394878384041590  0.4899984493219165  0.3847894728487020
  0.9258536768674617  0.2902864720358522  0.1535323547225858
  0.5678630750522586  0.4557477467399380  0.1499967494224705
  0.7339935220923905  0.1019846533609723  0.1555141774981976
  0.9020420820217510  0.3939582253069105  0.9067107849956670
  0.5955587785409691  0.0834109768325462  0.9007218472948821
  0.7354099572693826  0.2469799004062025  0.8609340083598553
  0.8942564301587197  0.0143188821800209  0.6120747771155450
  0.5907961845845193  0.2053628364968318  0.6309832493707788
  0.9038643012100778  0.1547164968940677  0.3538053487276827
  0.7186199966316096  0.1899703938716897  0.4327527758698011
  0.5588263104792759  0.1450798910357065  0.2066011468543962
  0.7173144970836347  0.3182339175634610  0.2072885575845049
  0.8566613546275832  0.1187365131260165  0.9057355774551823
  0.5509835384803310  0.2731320763734715  0.8960172333878020
  0.7169098210325373  0.4399062505608882  0.8823605869903730
  0.8670410605754242  0.2452825158038152  0.6765194190079455
  0.5602558303910783  0.4150076308979962  0.6598849182473572
  0.7103592130006149  0.0669866569743505  0.6674222950500379
  0.8822299287299415  0.3525619539728453  0.4291519187209047
  0.5500402867915994  0.0248124520112754  0.4372652376890898
  0.8913137333577481  0.4743647094138836  0.2071331668780800
  0.2391979560844675  0.8698432456098359  0.6261873935961759
  0.0761637689714050  0.8246938573971434  0.3994167446002379
  0.2395527162764992  0.9910988991584802  0.3913134364717124
  0.4326061182700229  0.7874026036573127  0.1542365752094170
  0.0729955859835414  0.9565863784868327  0.1536784651814784
  0.2370972597360534  0.6003596671427545  0.1615721960163228
  0.4004528690617590  0.8937150723847225  0.9082993848076697
  0.0915255540519126  0.5854583999192684  0.9015769331826675
  0.2294475783215546  0.7502374762024573  0.8675933379561798
  0.3997527929116416  0.5041667680103430  0.6322427628154870
  0.0899439120504084  0.7037977310155057  0.6303512190112386
  0.4069777819832012  0.6581302361639700  0.3748372242325004
  0.2200262938223645  0.6915525146008576  0.4360233907110072
  0.0632369600225857  0.6454482443815266  0.2086459660114386
  0.2179993789703119  0.8192445188099029  0.2104189745466556
  0.3481440354916145  0.6293239418440422  0.9255804988735150
  0.0416856008833193  0.7712642918714323  0.8856238109271786
  0.2118737499603682  0.9397004626900554  0.8908628513260481
  0.3652547464552782  0.7456516264652748  0.6823217802321366
  0.0399141403069478  0.9055150834927232  0.6819198211331283
  0.2118052923508884  0.5698723222681963  0.6730922486894642
  0.3829791177793780  0.8546993310927533  0.4334575490752997
  0.0497194594156625  0.5263465346947243  0.4383702354247845
  0.3911162522412113  0.9752478625287964  0.2104134018846651
  0.7363676040134024  0.8664508436405427  0.6249719929500515
  0.5765466162707398  0.8249276699187362  0.3984110111410146
  0.7390520973417836  0.9887764782482975  0.3898505578919824
  0.9299078732380721  0.7940654109222649  0.1546183352892143
  0.5698381188577955  0.9555815727389998  0.1502917396697541
  0.7337574587446056  0.6038404723483950  0.1502563849761955
  0.8968254956671018  0.8885630190036053  0.9057307612683232
  0.5858243537046235  0.5745111411224357  0.8947311846103361
  0.7315371537702191  0.7406436207414089  0.8643710537427225
  0.8968332189819321  0.5180908281161862  0.6038078549638186
  0.5901069316919063  0.7018996416848111  0.6281370492218343
  0.9043236725453454  0.6552178404707192  0.3487776078688185
  0.7199445031824254  0.6913529128683180  0.4299566953607155
  0.5601859032589189  0.6458600837421855  0.2067906894663452
  0.7164177404263015  0.8198155827269176  0.2068308460699839
  0.8682670370467278  0.6195828724855375  0.9064418436401240
  0.5391155805481489  0.7643460385779122  0.8761071399261979
  0.7080372100833827  0.9323091082714541  0.8888499572860553
  0.8678158751952978  0.7463403984700108  0.6783326395190130
  0.5385591448549363  0.9069895395254051  0.6819136904419025
  0.7183059737317805  0.5722551917223129  0.6643778683727461
  0.8823978457395469  0.8515570957814660  0.4327315152915006
  0.5507827359602260  0.5283733896413452  0.4360817708178857
  0.8908067793873329  0.9732731547422944  0.2136709769780936
 
  0.00000000E+00  0.00000000E+00  0.00000000E+00
  0.00000000E+00  0.00000000E+00  0.00000000E+00
  0.00000000E+00  0.00000000E+00  0.00000000E+00
  0.00000000E+00  0.00000000E+00  0.00000000E+00
  0.00000000E+00  0.00000000E+00  0.00000000E+00
  0.00000000E+00  0.00000000E+00  0.00000000E+00
  0.00000000E+00  0.00000000E+00  0.00000000E+00
  0.00000000E+00  0.00000000E+00  0.00000000E+00
  0.00000000E+00  0.00000000E+00  0.00000000E+00
  0.00000000E+00  0.00000000E+00  0.00000000E+00
  0.00000000E+00  0.00000000E+00  0.00000000E+00
  0.00000000E+00  0.00000000E+00  0.00000000E+00
  0.00000000E+00  0.00000000E+00  0.00000000E+00
  0.00000000E+00  0.00000000E+00  0.00000000E+00
  0.00000000E+00  0.00000000E+00  0.00000000E+00
  0.00000000E+00  0.00000000E+00  0.00000000E+00
  0.00000000E+00  0.00000000E+00  0.00000000E+00
  0.00000000E+00  0.00000000E+00  0.00000000E+00
  0.00000000E+00  0.00000000E+00  0.00000000E+00
  0.00000000E+00  0.00000000E+00  0.00000000E+00
  0.00000000E+00  0.00000000E+00  0.00000000E+00
  0.00000000E+00  0.00000000E+00  0.00000000E+00
  0.00000000E+00  0.00000000E+00  0.00000000E+00
  0.00000000E+00  0.00000000E+00  0.00000000E+00
  0.00000000E+00  0.00000000E+00  0.00000000E+00
  0.00000000E+00  0.00000000E+00  0.00000000E+00
  0.00000000E+00  0.00000000E+00  0.00000000E+00
  0.00000000E+00  0.00000000E+00  0.00000000E+00
  0.00000000E+00  0.00000000E+00  0.00000000E+00
  0.00000000E+00  0.00000000E+00  0.00000000E+00
  0.00000000E+00  0.00000000E+00  0.00000000E+00
  0.00000000E+00  0.00000000E+00  0.00000000E+00
  0.00000000E+00  0.00000000E+00  0.00000000E+00
  0.00000000E+00  0.00000000E+00  0.00000000E+00
  0.00000000E+00  0.00000000E+00  0.00000000E+00
  0.00000000E+00  0.00000000E+00  0.00000000E+00
  0.00000000E+00  0.00000000E+00  0.00000000E+00
  0.00000000E+00  0.00000000E+00  0.00000000E+00
  0.00000000E+00  0.00000000E+00  0.00000000E+00
  0.00000000E+00  0.00000000E+00  0.00000000E+00
  0.00000000E+00  0.00000000E+00  0.00000000E+00
  0.00000000E+00  0.00000000E+00  0.00000000E+00
  0.00000000E+00  0.00000000E+00  0.00000000E+00
  0.00000000E+00  0.00000000E+00  0.00000000E+00
  0.00000000E+00  0.00000000E+00  0.00000000E+00
  0.00000000E+00  0.00000000E+00  0.00000000E+00
  0.00000000E+00  0.00000000E+00  0.00000000E+00
  0.00000000E+00  0.00000000E+00  0.00000000E+00
  0.00000000E+00  0.00000000E+00  0.00000000E+00
  0.00000000E+00  0.00000000E+00  0.00000000E+00
  0.00000000E+00  0.00000000E+00  0.00000000E+00
  0.00000000E+00  0.00000000E+00  0.00000000E+00
  0.00000000E+00  0.00000000E+00  0.00000000E+00
  0.00000000E+00  0.00000000E+00  0.00000000E+00
  0.00000000E+00  0.00000000E+00  0.00000000E+00
  0.00000000E+00  0.00000000E+00  0.00000000E+00
  0.00000000E+00  0.00000000E+00  0.00000000E+00
  0.00000000E+00  0.00000000E+00  0.00000000E+00
  0.00000000E+00  0.00000000E+00  0.00000000E+00
  0.00000000E+00  0.00000000E+00  0.00000000E+00
  0.00000000E+00  0.00000000E+00  0.00000000E+00
  0.00000000E+00  0.00000000E+00  0.00000000E+00
  0.00000000E+00  0.00000000E+00  0.00000000E+00
  0.00000000E+00  0.00000000E+00  0.00000000E+00
  0.00000000E+00  0.00000000E+00  0.00000000E+00
  0.00000000E+00  0.00000000E+00  0.00000000E+00
  0.00000000E+00  0.00000000E+00  0.00000000E+00
  0.00000000E+00  0.00000000E+00  0.00000000E+00
  0.00000000E+00  0.00000000E+00  0.00000000E+00
  0.00000000E+00  0.00000000E+00  0.00000000E+00
  0.00000000E+00  0.00000000E+00  0.00000000E+00
  0.00000000E+00  0.00000000E+00  0.00000000E+00
  0.00000000E+00  0.00000000E+00  0.00000000E+00
  0.00000000E+00  0.00000000E+00  0.00000000E+00
  0.00000000E+00  0.00000000E+00  0.00000000E+00
  0.00000000E+00  0.00000000E+00  0.00000000E+00
  0.00000000E+00  0.00000000E+00  0.00000000E+00
  0.00000000E+00  0.00000000E+00  0.00000000E+00
  0.00000000E+00  0.00000000E+00  0.00000000E+00
  0.00000000E+00  0.00000000E+00  0.00000000E+00
  0.00000000E+00  0.00000000E+00  0.00000000E+00
  0.00000000E+00  0.00000000E+00  0.00000000E+00
  0.00000000E+00  0.00000000E+00  0.00000000E+00
  0.00000000E+00  0.00000000E+00  0.00000000E+00
  0.00000000E+00  0.00000000E+00  0.00000000E+00
  0.00000000E+00  0.00000000E+00  0.00000000E+00
  0.00000000E+00  0.00000000E+00  0.00000000E+00
  0.00000000E+00  0.00000000E+00  0.00000000E+00
  0.00000000E+00  0.00000000E+00  0.00000000E+00
  0.00000000E+00  0.00000000E+00  0.00000000E+00
  0.00000000E+00  0.00000000E+00  0.00000000E+00
  0.00000000E+00  0.00000000E+00  0.00000000E+00
  0.00000000E+00  0.00000000E+00  0.00000000E+00
  0.00000000E+00  0.00000000E+00  0.00000000E+00
  0.00000000E+00  0.00000000E+00  0.00000000E+00
  0.00000000E+00  0.00000000E+00  0.00000000E+00
  0.00000000E+00  0.00000000E+00  0.00000000E+00
  0.00000000E+00  0.00000000E+00  0.00000000E+00
  0.00000000E+00  0.00000000E+00  0.00000000E+00
  0.00000000E+00  0.00000000E+00  0.00000000E+00
  0.00000000E+00  0.00000000E+00  0.00000000E+00
  0.00000000E+00  0.00000000E+00  0.00000000E+00
  0.00000000E+00  0.00000000E+00  0.00000000E+00
  0.00000000E+00  0.00000000E+00  0.00000000E+00
  0.00000000E+00  0.00000000E+00  0.00000000E+00
  0.00000000E+00  0.00000000E+00  0.00000000E+00
  0.00000000E+00  0.00000000E+00  0.00000000E+00
  0.00000000E+00  0.00000000E+00  0.00000000E+00
  0.00000000E+00  0.00000000E+00  0.00000000E+00
  0.00000000E+00  0.00000000E+00  0.00000000E+00
  0.00000000E+00  0.00000000E+00  0.00000000E+00
  0.00000000E+00  0.00000000E+00  0.00000000E+00
  0.00000000E+00  0.00000000E+00  0.00000000E+00
  0.00000000E+00  0.00000000E+00  0.00000000E+00
  0.00000000E+00  0.00000000E+00  0.00000000E+00
  0.00000000E+00  0.00000000E+00  0.00000000E+00
  0.00000000E+00  0.00000000E+00  0.00000000E+00
  0.00000000E+00  0.00000000E+00  0.00000000E+00
  0.00000000E+00  0.00000000E+00  0.00000000E+00
  0.00000000E+00  0.00000000E+00  0.00000000E+00
  0.00000000E+00  0.00000000E+00  0.00000000E+00
  0.00000000E+00  0.00000000E+00  0.00000000E+00
  0.00000000E+00  0.00000000E+00  0.00000000E+00
  0.00000000E+00  0.00000000E+00  0.00000000E+00
  0.00000000E+00  0.00000000E+00  0.00000000E+00
  0.00000000E+00  0.00000000E+00  0.00000000E+00
  0.00000000E+00  0.00000000E+00  0.00000000E+00
  0.00000000E+00  0.00000000E+00  0.00000000E+00
  0.00000000E+00  0.00000000E+00  0.00000000E+00
  0.00000000E+00  0.00000000E+00  0.00000000E+00
  0.00000000E+00  0.00000000E+00  0.00000000E+00
  0.00000000E+00  0.00000000E+00  0.00000000E+00
  0.00000000E+00  0.00000000E+00  0.00000000E+00
  0.00000000E+00  0.00000000E+00  0.00000000E+00
  0.00000000E+00  0.00000000E+00  0.00000000E+00
  0.00000000E+00  0.00000000E+00  0.00000000E+00
  0.00000000E+00  0.00000000E+00  0.00000000E+00
  0.00000000E+00  0.00000000E+00  0.00000000E+00
  0.00000000E+00  0.00000000E+00  0.00000000E+00
  0.00000000E+00  0.00000000E+00  0.00000000E+00
  0.00000000E+00  0.00000000E+00  0.00000000E+00
  0.00000000E+00  0.00000000E+00  0.00000000E+00
  0.00000000E+00  0.00000000E+00  0.00000000E+00
  0.00000000E+00  0.00000000E+00  0.00000000E+00
  0.00000000E+00  0.00000000E+00  0.00000000E+00
  0.00000000E+00  0.00000000E+00  0.00000000E+00
  0.00000000E+00  0.00000000E+00  0.00000000E+00
  0.00000000E+00  0.00000000E+00  0.00000000E+00
  0.00000000E+00  0.00000000E+00  0.00000000E+00
  0.00000000E+00  0.00000000E+00  0.00000000E+00
  0.00000000E+00  0.00000000E+00  0.00000000E+00
  0.00000000E+00  0.00000000E+00  0.00000000E+00
  0.00000000E+00  0.00000000E+00  0.00000000E+00
  0.00000000E+00  0.00000000E+00  0.00000000E+00
  0.00000000E+00  0.00000000E+00  0.00000000E+00
  0.00000000E+00  0.00000000E+00  0.00000000E+00
  0.00000000E+00  0.00000000E+00  0.00000000E+00
  0.00000000E+00  0.00000000E+00  0.00000000E+00
  0.00000000E+00  0.00000000E+00  0.00000000E+00
  0.00000000E+00  0.00000000E+00  0.00000000E+00
  0.00000000E+00  0.00000000E+00  0.00000000E+00
  0.00000000E+00  0.00000000E+00  0.00000000E+00
  0.00000000E+00  0.00000000E+00  0.00000000E+00
  0.00000000E+00  0.00000000E+00  0.00000000E+00
  0.00000000E+00  0.00000000E+00  0.00000000E+00
  0.00000000E+00  0.00000000E+00  0.00000000E+00
  0.00000000E+00  0.00000000E+00  0.00000000E+00
  0.00000000E+00  0.00000000E+00  0.00000000E+00
  0.00000000E+00  0.00000000E+00  0.00000000E+00
  0.00000000E+00  0.00000000E+00  0.00000000E+00
  0.00000000E+00  0.00000000E+00  0.00000000E+00
  0.00000000E+00  0.00000000E+00  0.00000000E+00
  0.00000000E+00  0.00000000E+00  0.00000000E+00
  0.00000000E+00  0.00000000E+00  0.00000000E+00
  0.00000000E+00  0.00000000E+00  0.00000000E+00
  0.00000000E+00  0.00000000E+00  0.00000000E+00
  0.00000000E+00  0.00000000E+00  0.00000000E+00
  0.00000000E+00  0.00000000E+00  0.00000000E+00
  0.00000000E+00  0.00000000E+00  0.00000000E+00
  0.00000000E+00  0.00000000E+00  0.00000000E+00
  0.00000000E+00  0.00000000E+00  0.00000000E+00
  0.00000000E+00  0.00000000E+00  0.00000000E+00
  0.00000000E+00  0.00000000E+00  0.00000000E+00
  0.00000000E+00  0.00000000E+00  0.00000000E+00
  0.00000000E+00  0.00000000E+00  0.00000000E+00
  0.00000000E+00  0.00000000E+00  0.00000000E+00
  0.00000000E+00  0.00000000E+00  0.00000000E+00
  0.00000000E+00  0.00000000E+00  0.00000000E+00
  0.00000000E+00  0.00000000E+00  0.00000000E+00
  0.00000000E+00  0.00000000E+00  0.00000000E+00
  0.00000000E+00  0.00000000E+00  0.00000000E+00
