supercell of 100% icsd_608626.cif, 0% i 
   1.00000000000000     
    -9.7874573147677708    0.0083177571957476   -0.0255652267644068
    -4.9009777389203295    8.3875924668507498   -0.0097330054371967
    -0.0271663813041084   -0.0037298417450449  -10.3746527508390880
   Al   Ti   Sr   N 
    28     4     4    36
Direct
  0.1144429482274347  0.0921335813633277  0.3036779834277539
  0.7678942938466378  0.0933468052401096  0.8039698835857720
  0.4520778525544742  0.0887998439065427  0.2930627557068490
  0.2277122394011286  0.2105386694510614  0.5306602475414124
  0.7692580104127842  0.0915021508109319  0.2975219583988746
  0.8870006252225480  0.2004924163338799  0.0550429231134828
  0.4456104608769564  0.0996888998381067  0.8015346224168951
  0.5461864820615787  0.2104551385047699  0.5501230141683493
  0.1170614290567897  0.4285387760426715  0.2926927333390950
  0.2241694103094218  0.5410505736291213  0.0459828431370966
  0.4451923652020966  0.4251578860519061  0.2975932158429160
  0.5497835607442596  0.5425240058883105  0.0482791009108823
  0.1239655728525904  0.4333422842014016  0.8078282067758025
  0.2269199410214142  0.5371392689724317  0.5366247622609137
  0.7711857989341908  0.4340804437092203  0.2914572213251958
  0.8945450671306787  0.5421921333672088  0.0501178555781649
  0.4391114736700601  0.4318345527681302  0.7973138915690541
  0.5378813511659004  0.5418846799002779  0.5389050978793577
  0.1106512604840759  0.7579966492021057  0.2993104582126591
  0.2260408793376172  0.8706597464889754  0.0585694320306303
  0.7854724133342543  0.7611997248310090  0.8097083814945236
  0.8940732148822619  0.8666955114424510  0.5332312422864547
  0.4485457649302518  0.7601424509050290  0.2862400818508561
  0.5613865670458296  0.8608077720556153  0.0417186189874243
  0.2249056485096759  0.8598296439993618  0.5218266401804570
  0.7728240474394781  0.7650306140884169  0.2853730754633972
  0.8846466682495731  0.8723257991730762  0.0508715995321722
  0.4346999236071198  0.7576791713277089  0.8078701793952945
  0.2252783540268553  0.2052190877913915  0.0589587999217898
  0.8839081277528038  0.2030271556534871  0.5262110990025732
  0.5616512029364458  0.2057143684272660  0.0420921566157233
  0.9018186170468852  0.5356004461600108  0.5396664058603520
  0.1135021433767207  0.1065901636202682  0.7829132451235523
  0.7742219029601145  0.4350196579189287  0.8005967262945646
  0.1044689998754080  0.7752122092466252  0.7912751977721015
  0.5577741344558547  0.8637039645858664  0.5611031712363399
  0.2295121881289006  0.2065124195252750  0.3432861196916193
  0.1055453722535162  0.0970843907205818  0.1162691192329106
  0.8713666397174080  0.1810133078931173  0.8814059299770491
  0.7744852151143320  0.0885761567111416  0.6028865516301423
  0.5530908484329373  0.2038590210248401  0.3592674506925917
  0.4575076653593300  0.0864331878973772  0.1040054583610512
  0.2428750685207461  0.2248106808840475  0.8810287518747231
  0.1119190045635392  0.0947131443478355  0.5442244645868328
  0.8801547202447821  0.2062833567831035  0.3389040205366172
  0.7752498118682354  0.0925483729723666  0.1172597519214094
  0.5516916761479891  0.2104852793870720  0.8517258719770950
  0.4184426964487784  0.1337094007939612  0.6197474167016424
  0.2274491679233606  0.5309195173066215  0.3501239008271853
  0.1123544199749276  0.4336031561051215  0.1115678183342865
  0.9190399625816994  0.5543449165256860  0.8719817726229877
  0.7714891603281089  0.4317870331641842  0.5643595039503069
  0.5505692343003901  0.5406007284702952  0.3511347679589676
  0.4455938237449502  0.4263116519962225  0.1123850472666348
  0.2424475437083444  0.5135627079685392  0.8679791569570767
  0.1195806935761539  0.4221050613782609  0.6050439349926577
  0.8931347611399545  0.5403809454303428  0.3461915910490276
  0.7771800584512150  0.4313262771723316  0.1034267645928040
  0.5186748110627235  0.5507364244984885  0.8714336916563283
  0.4433021953667975  0.4267474191244105  0.6036462941009475
  0.2295654921862464  0.8660604397696900  0.3377678892479281
  0.1080098854742104  0.7605654558551151  0.1081452159318133
  0.8408388159881355  0.8979141264574722  0.8766504634384233
  0.8295544039209091  0.7356202045758309  0.6212556234824973
  0.5561953122515533  0.8703816907848534  0.3292935753772426
  0.4508832803750309  0.7572518136384119  0.1068181167122901
  0.2488795309294147  0.8771668461045863  0.8880396642301349
  0.1098505303626212  0.7601618631189382  0.5536680868166641
  0.8806772729818491  0.8726614474207608  0.3481645031045559
  0.7779543905898336  0.7591010935658815  0.1042965575892723
  0.5583794623874638  0.8654056009291793  0.8463014416063857
  0.4106861306514489  0.7420986128010725  0.6203888827310635
 
  0.00000000E+00  0.00000000E+00  0.00000000E+00
  0.00000000E+00  0.00000000E+00  0.00000000E+00
  0.00000000E+00  0.00000000E+00  0.00000000E+00
  0.00000000E+00  0.00000000E+00  0.00000000E+00
  0.00000000E+00  0.00000000E+00  0.00000000E+00
  0.00000000E+00  0.00000000E+00  0.00000000E+00
  0.00000000E+00  0.00000000E+00  0.00000000E+00
  0.00000000E+00  0.00000000E+00  0.00000000E+00
  0.00000000E+00  0.00000000E+00  0.00000000E+00
  0.00000000E+00  0.00000000E+00  0.00000000E+00
  0.00000000E+00  0.00000000E+00  0.00000000E+00
  0.00000000E+00  0.00000000E+00  0.00000000E+00
  0.00000000E+00  0.00000000E+00  0.00000000E+00
  0.00000000E+00  0.00000000E+00  0.00000000E+00
  0.00000000E+00  0.00000000E+00  0.00000000E+00
  0.00000000E+00  0.00000000E+00  0.00000000E+00
  0.00000000E+00  0.00000000E+00  0.00000000E+00
  0.00000000E+00  0.00000000E+00  0.00000000E+00
  0.00000000E+00  0.00000000E+00  0.00000000E+00
  0.00000000E+00  0.00000000E+00  0.00000000E+00
  0.00000000E+00  0.00000000E+00  0.00000000E+00
  0.00000000E+00  0.00000000E+00  0.00000000E+00
  0.00000000E+00  0.00000000E+00  0.00000000E+00
  0.00000000E+00  0.00000000E+00  0.00000000E+00
  0.00000000E+00  0.00000000E+00  0.00000000E+00
  0.00000000E+00  0.00000000E+00  0.00000000E+00
  0.00000000E+00  0.00000000E+00  0.00000000E+00
  0.00000000E+00  0.00000000E+00  0.00000000E+00
  0.00000000E+00  0.00000000E+00  0.00000000E+00
  0.00000000E+00  0.00000000E+00  0.00000000E+00
  0.00000000E+00  0.00000000E+00  0.00000000E+00
  0.00000000E+00  0.00000000E+00  0.00000000E+00
  0.00000000E+00  0.00000000E+00  0.00000000E+00
  0.00000000E+00  0.00000000E+00  0.00000000E+00
  0.00000000E+00  0.00000000E+00  0.00000000E+00
  0.00000000E+00  0.00000000E+00  0.00000000E+00
  0.00000000E+00  0.00000000E+00  0.00000000E+00
  0.00000000E+00  0.00000000E+00  0.00000000E+00
  0.00000000E+00  0.00000000E+00  0.00000000E+00
  0.00000000E+00  0.00000000E+00  0.00000000E+00
  0.00000000E+00  0.00000000E+00  0.00000000E+00
  0.00000000E+00  0.00000000E+00  0.00000000E+00
  0.00000000E+00  0.00000000E+00  0.00000000E+00
  0.00000000E+00  0.00000000E+00  0.00000000E+00
  0.00000000E+00  0.00000000E+00  0.00000000E+00
  0.00000000E+00  0.00000000E+00  0.00000000E+00
  0.00000000E+00  0.00000000E+00  0.00000000E+00
  0.00000000E+00  0.00000000E+00  0.00000000E+00
  0.00000000E+00  0.00000000E+00  0.00000000E+00
  0.00000000E+00  0.00000000E+00  0.00000000E+00
  0.00000000E+00  0.00000000E+00  0.00000000E+00
  0.00000000E+00  0.00000000E+00  0.00000000E+00
  0.00000000E+00  0.00000000E+00  0.00000000E+00
  0.00000000E+00  0.00000000E+00  0.00000000E+00
  0.00000000E+00  0.00000000E+00  0.00000000E+00
  0.00000000E+00  0.00000000E+00  0.00000000E+00
  0.00000000E+00  0.00000000E+00  0.00000000E+00
  0.00000000E+00  0.00000000E+00  0.00000000E+00
  0.00000000E+00  0.00000000E+00  0.00000000E+00
  0.00000000E+00  0.00000000E+00  0.00000000E+00
  0.00000000E+00  0.00000000E+00  0.00000000E+00
  0.00000000E+00  0.00000000E+00  0.00000000E+00
  0.00000000E+00  0.00000000E+00  0.00000000E+00
  0.00000000E+00  0.00000000E+00  0.00000000E+00
  0.00000000E+00  0.00000000E+00  0.00000000E+00
  0.00000000E+00  0.00000000E+00  0.00000000E+00
  0.00000000E+00  0.00000000E+00  0.00000000E+00
  0.00000000E+00  0.00000000E+00  0.00000000E+00
  0.00000000E+00  0.00000000E+00  0.00000000E+00
  0.00000000E+00  0.00000000E+00  0.00000000E+00
  0.00000000E+00  0.00000000E+00  0.00000000E+00
  0.00000000E+00  0.00000000E+00  0.00000000E+00
