supercell of 100% icsd_608626.cif, 0% i 
   1.00000000000000     
    -9.7888798559472932   -0.0060066151153570   -0.0205257694396034
    -4.8893885386491709    8.4519856991307307   -0.0203462221324576
    -0.0214322824743180    0.0122441244698547  -10.2642249324381698
   Al   Ti   Sr   N 
    28     4     4    36
Direct
  0.0978520307430202  0.0957472143304372  0.2963456384548309
  0.2207955958397534  0.2077132779707327  0.0487277018599386
  0.7815098528639268  0.0925863861519431  0.7964178166725091
  0.8841975892279592  0.2045144051886822  0.5458737474533066
  0.4501520507647072  0.0850164275624863  0.2868080060645966
  0.5585327692277815  0.2018023918476928  0.0507507850033946
  0.1037973084380539  0.1011752185919690  0.7981381727446291
  0.7756360404241320  0.0978215027472729  0.2978939239333798
  0.8897766415705419  0.2044917134289932  0.0362461524244111
  0.4476722572799616  0.1005580060070415  0.8052296374777725
  0.5593584891690213  0.1957262392007522  0.5407730525709056
  0.1193844152837187  0.4358859974461282  0.2979981363665800
  0.2201433504660670  0.5453009965570317  0.0519756666647950
  0.7906748485902568  0.4190488548544522  0.8041165431704158
  0.4495646141781293  0.4066030856180305  0.2933468612860111
  0.5619317794489902  0.5299126555411107  0.0312230968990832
  0.1179891422494137  0.4315289369213247  0.8022109054413846
  0.8936253150823319  0.5405486109521433  0.0341386163504112
  0.5630314882362626  0.5052258970486250  0.5485415308337096
  0.0920431848842327  0.7760055460750124  0.2945238106791948
  0.2132808243146300  0.8796066519249450  0.0384355582353990
  0.7884970176407151  0.7698819159575763  0.8047152332210885
  0.8811825567139238  0.8810534038117055  0.5412172087366685
  0.5617716079877226  0.8730424149509020  0.0443871931723265
  0.0972452332450828  0.7759719951688382  0.7995519357789931
  0.1910767167462382  0.8830534015755944  0.5403162299597568
  0.7813531929091795  0.7736350262961409  0.2902296113448912
  0.8898281224656017  0.8758252770946271  0.0472702053704310
  0.2226220936596803  0.2137055433513737  0.5497837473274529
  0.9058026591026547  0.5465239291412658  0.5615691816820743
  0.2490969450261602  0.5672190789035199  0.5443961188374331
  0.4467339609826553  0.4163531343036695  0.8047984609978371
  0.7908981799783277  0.4389721957145980  0.2926942585429018
  0.4298177626501385  0.7370490043427296  0.2903502343298427
  0.4409984100240507  0.7642653829161219  0.8001548761981141
  0.5436190724420626  0.8494003255710112  0.5496261942785452
  0.2204113496472146  0.2089001398195904  0.3533632404633096
  0.1080058433392637  0.0997609581817755  0.1061469700418556
  0.8905996658958699  0.2024019362117855  0.8478931031072818
  0.7727926128848210  0.0955737660333114  0.6070012268500591
  0.5522920156281330  0.1920896145724456  0.3522350307087052
  0.4404090083850747  0.0989662154172990  0.1001465804980697
  0.2212087805710183  0.2100808717453830  0.8569432100446051
  0.1096278876946712  0.0981943386701474  0.6084399699458487
  0.8955021783542634  0.1818148427689650  0.3661588260586299
  0.7780240967601557  0.0975423626987606  0.1057512309947484
  0.5640613922073712  0.1982961045133891  0.8629210557729436
  0.4302371530575257  0.1198872947250464  0.6168128662258212
  0.2280704687050985  0.5447252500472999  0.3510032537986802
  0.1108489829863615  0.4306047250152432  0.1072323869985752
  0.8975395764764258  0.5408069336933892  0.8455220142922286
  0.7809517956873364  0.4291482503868238  0.6073383884032637
  0.5606745904362356  0.4779707049054736  0.3764517606464537
  0.4443585923409543  0.4265328386980372  0.1019370583647827
  0.2146673816137508  0.5513091912632362  0.8605611678192346
  0.1330752949068597  0.4352684080853564  0.6127775644817675
  0.9204955464890148  0.5713653012916353  0.3782525563042256
  0.7827365739515244  0.4283721620044361  0.0601421455072924
  0.5789679963165426  0.4926600208635605  0.8492849379117828
  0.4579592270525836  0.3990419714257598  0.6158664909328522
  0.1728054053658568  0.8962665838331390  0.3616085666637474
  0.1098512023987297  0.7643354158866060  0.1079461425440016
  0.8895901754586149  0.8791576501165252  0.8616080516147164
  0.8058972576957117  0.7578256055478008  0.6206312024457716
  0.5703067345301704  0.8746777630575195  0.3266001066919060
  0.4451631522996990  0.7574896756980536  0.0531937783906713
  0.1768710694495113  0.8994197801970643  0.8608008647717895
  0.0874871975457197  0.7781021649429434  0.6104163970711340
  0.8799474536458689  0.8818723732874929  0.3536929465019796
  0.7881048640635981  0.7554238313712247  0.1003535231495718
  0.5811391644032682  0.8947427318621237  0.8593211690548657
  0.3878251918980880  0.7066001760948737  0.5728681645617613
 
  0.00000000E+00  0.00000000E+00  0.00000000E+00
  0.00000000E+00  0.00000000E+00  0.00000000E+00
  0.00000000E+00  0.00000000E+00  0.00000000E+00
  0.00000000E+00  0.00000000E+00  0.00000000E+00
  0.00000000E+00  0.00000000E+00  0.00000000E+00
  0.00000000E+00  0.00000000E+00  0.00000000E+00
  0.00000000E+00  0.00000000E+00  0.00000000E+00
  0.00000000E+00  0.00000000E+00  0.00000000E+00
  0.00000000E+00  0.00000000E+00  0.00000000E+00
  0.00000000E+00  0.00000000E+00  0.00000000E+00
  0.00000000E+00  0.00000000E+00  0.00000000E+00
  0.00000000E+00  0.00000000E+00  0.00000000E+00
  0.00000000E+00  0.00000000E+00  0.00000000E+00
  0.00000000E+00  0.00000000E+00  0.00000000E+00
  0.00000000E+00  0.00000000E+00  0.00000000E+00
  0.00000000E+00  0.00000000E+00  0.00000000E+00
  0.00000000E+00  0.00000000E+00  0.00000000E+00
  0.00000000E+00  0.00000000E+00  0.00000000E+00
  0.00000000E+00  0.00000000E+00  0.00000000E+00
  0.00000000E+00  0.00000000E+00  0.00000000E+00
  0.00000000E+00  0.00000000E+00  0.00000000E+00
  0.00000000E+00  0.00000000E+00  0.00000000E+00
  0.00000000E+00  0.00000000E+00  0.00000000E+00
  0.00000000E+00  0.00000000E+00  0.00000000E+00
  0.00000000E+00  0.00000000E+00  0.00000000E+00
  0.00000000E+00  0.00000000E+00  0.00000000E+00
  0.00000000E+00  0.00000000E+00  0.00000000E+00
  0.00000000E+00  0.00000000E+00  0.00000000E+00
  0.00000000E+00  0.00000000E+00  0.00000000E+00
  0.00000000E+00  0.00000000E+00  0.00000000E+00
  0.00000000E+00  0.00000000E+00  0.00000000E+00
  0.00000000E+00  0.00000000E+00  0.00000000E+00
  0.00000000E+00  0.00000000E+00  0.00000000E+00
  0.00000000E+00  0.00000000E+00  0.00000000E+00
  0.00000000E+00  0.00000000E+00  0.00000000E+00
  0.00000000E+00  0.00000000E+00  0.00000000E+00
  0.00000000E+00  0.00000000E+00  0.00000000E+00
  0.00000000E+00  0.00000000E+00  0.00000000E+00
  0.00000000E+00  0.00000000E+00  0.00000000E+00
  0.00000000E+00  0.00000000E+00  0.00000000E+00
  0.00000000E+00  0.00000000E+00  0.00000000E+00
  0.00000000E+00  0.00000000E+00  0.00000000E+00
  0.00000000E+00  0.00000000E+00  0.00000000E+00
  0.00000000E+00  0.00000000E+00  0.00000000E+00
  0.00000000E+00  0.00000000E+00  0.00000000E+00
  0.00000000E+00  0.00000000E+00  0.00000000E+00
  0.00000000E+00  0.00000000E+00  0.00000000E+00
  0.00000000E+00  0.00000000E+00  0.00000000E+00
  0.00000000E+00  0.00000000E+00  0.00000000E+00
  0.00000000E+00  0.00000000E+00  0.00000000E+00
  0.00000000E+00  0.00000000E+00  0.00000000E+00
  0.00000000E+00  0.00000000E+00  0.00000000E+00
  0.00000000E+00  0.00000000E+00  0.00000000E+00
  0.00000000E+00  0.00000000E+00  0.00000000E+00
  0.00000000E+00  0.00000000E+00  0.00000000E+00
  0.00000000E+00  0.00000000E+00  0.00000000E+00
  0.00000000E+00  0.00000000E+00  0.00000000E+00
  0.00000000E+00  0.00000000E+00  0.00000000E+00
  0.00000000E+00  0.00000000E+00  0.00000000E+00
  0.00000000E+00  0.00000000E+00  0.00000000E+00
  0.00000000E+00  0.00000000E+00  0.00000000E+00
  0.00000000E+00  0.00000000E+00  0.00000000E+00
  0.00000000E+00  0.00000000E+00  0.00000000E+00
  0.00000000E+00  0.00000000E+00  0.00000000E+00
  0.00000000E+00  0.00000000E+00  0.00000000E+00
  0.00000000E+00  0.00000000E+00  0.00000000E+00
  0.00000000E+00  0.00000000E+00  0.00000000E+00
  0.00000000E+00  0.00000000E+00  0.00000000E+00
  0.00000000E+00  0.00000000E+00  0.00000000E+00
  0.00000000E+00  0.00000000E+00  0.00000000E+00
  0.00000000E+00  0.00000000E+00  0.00000000E+00
  0.00000000E+00  0.00000000E+00  0.00000000E+00
