supercell of 100% icsd_608626.cif, 0% i 
   1.00000000000000     
    -9.7271468002819557    0.0147036867676956   -0.0201407499105455
    -4.8762530236422608    8.4813011132515843   -0.0331381587276456
    -0.0214691494388624    0.0284888968117300  -10.3218435522370218
   Al   Sr   Ti   N 
    28     4     4    36
Direct
  0.1060237182825432  0.0971505532142416  0.2892195282880508
  0.2174324365996441  0.2083645927695343  0.0511581868907385
  0.7728966217914177  0.1150896020438665  0.8071135789448789
  0.8883122804650014  0.2147755895205279  0.5515086423988436
  0.4410307122054888  0.1019200164627634  0.2972230377659315
  0.5568703180771379  0.2148621556864114  0.0489942214860903
  0.1044263702887491  0.1104210018728011  0.8029441147839549
  0.2179349793740428  0.2079443405351000  0.5365173395910148
  0.7748127452099638  0.1103905495538413  0.2943542386540869
  0.8880777166461442  0.2116480081834879  0.0431267964007063
  0.5562668902498089  0.2075757153744675  0.5387179329631948
  0.1090750267142298  0.4216194638697246  0.2892930719974771
  0.2310899037519079  0.5214982536620525  0.0458994232776746
  0.7802042731346575  0.4257482672648791  0.8012134461044269
  0.8908459788844212  0.5265293433376854  0.5322148482433704
  0.4494579428230381  0.4247635885871830  0.2936963866978886
  0.5580571701349939  0.5337343404768475  0.0426672559391434
  0.1100677742332223  0.4144036873771313  0.8095964484576186
  0.7804033350106394  0.4212148906189555  0.2931490571801021
  0.8886008929963793  0.5338615809865033  0.0478669831072054
  0.4506515760985863  0.4259704643203150  0.8028768025706654
  0.5675681356614177  0.5380369021383302  0.5539956554197047
  0.1184238802785629  0.7545697585474684  0.2778463992742886
  0.2258446368851210  0.8809771956673345  0.0397283795260108
  0.5584907895490829  0.8689395951405388  0.0607422905696708
  0.7795447952300734  0.7501142429005725  0.3052349180058513
  0.4567088807318100  0.7567392150887002  0.8084270969365193
  0.5526975806715484  0.8747998300806614  0.5239151786606442
  0.4469699915580350  0.0923248841903188  0.8005072205477362
  0.7774165727347864  0.7608217023123913  0.7751564873952503
  0.1013068866139264  0.7601163117345564  0.8149990558186531
  0.2263699789432891  0.8719974458924753  0.5636133543946897
  0.2222984262241212  0.5253761591686441  0.5396294346013590
  0.8784970017928018  0.8792994537841778  0.5158184961250427
  0.4419920517993532  0.7555850948227061  0.2905179809714937
  0.8763819766490570  0.8840879776378543  0.0705247722417681
  0.2164762747446574  0.2055966318144371  0.3481291374844204
  0.1063380216842376  0.0964876148595479  0.1058273086209596
  0.8884870811665806  0.2098240391675716  0.8572626631996130
  0.7761301252504538  0.0974553284780058  0.6074177158059371
  0.5586518211201650  0.2095044419529941  0.3524439982321113
  0.4457640393612650  0.0996462636883635  0.1076935472280240
  0.1907751561189599  0.2179287623188628  0.8755218234678850
  0.0923078886967375  0.1372731798279645  0.6171873952729285
  0.8904489568736551  0.2057286008165491  0.3607136752142068
  0.7716765402239574  0.1163586488144190  0.1153531239569290
  0.5746492209437477  0.2308581548086224  0.8711963404714425
  0.4447046354052802  0.0945319241412079  0.5605983915209762
  0.2230158414870687  0.5340205736781201  0.3452717822166633
  0.1098808571689744  0.4277283376020264  0.1089701465796651
  0.9003665013814910  0.5113686487130948  0.8670934464213857
  0.7803493593168938  0.4282362750628081  0.6078185438057986
  0.5598986234650170  0.5313145875694900  0.3605397257622087
  0.4450769488163004  0.4311009457412354  0.1108237413593756
  0.2452156687178260  0.4897652946388931  0.8642824543139085
  0.1067720454394632  0.4246070841482066  0.6029976059150997
  0.8932967998362784  0.5246181758979702  0.3480210532358683
  0.7751496542274268  0.4269986282113649  0.1074739078618592
  0.5545443186343491  0.5382170973542557  0.8562236756766382
  0.4494170858090740  0.4286642675116497  0.6060082392275703
  0.2175510472508506  0.8719401071167354  0.3263278675874943
  0.1215790882077599  0.7526354012128778  0.0897324113769287
  0.8473360249379667  0.9244749580671510  0.8974897262583568
  0.7779336697343169  0.7576853029836954  0.5317144076170663
  0.5480134377803196  0.8755382349868270  0.3369954927262029
  0.4427479862801107  0.7526455800423832  0.1063565738232128
  0.2383159917492890  0.8939315803795509  0.8535127898225738
  0.0796289263051619  0.7370439009700789  0.5802202869011381
  0.8921975092886711  0.8772450920230028  0.3235611481318230
  0.7780968462876316  0.7495834851327317  0.1185695035090930
  0.5561933528070853  0.8420562268348633  0.8912455790725105
  0.4979624051860085  0.7441148486074312  0.6193967080903491
 
  0.00000000E+00  0.00000000E+00  0.00000000E+00
  0.00000000E+00  0.00000000E+00  0.00000000E+00
  0.00000000E+00  0.00000000E+00  0.00000000E+00
  0.00000000E+00  0.00000000E+00  0.00000000E+00
  0.00000000E+00  0.00000000E+00  0.00000000E+00
  0.00000000E+00  0.00000000E+00  0.00000000E+00
  0.00000000E+00  0.00000000E+00  0.00000000E+00
  0.00000000E+00  0.00000000E+00  0.00000000E+00
  0.00000000E+00  0.00000000E+00  0.00000000E+00
  0.00000000E+00  0.00000000E+00  0.00000000E+00
  0.00000000E+00  0.00000000E+00  0.00000000E+00
  0.00000000E+00  0.00000000E+00  0.00000000E+00
  0.00000000E+00  0.00000000E+00  0.00000000E+00
  0.00000000E+00  0.00000000E+00  0.00000000E+00
  0.00000000E+00  0.00000000E+00  0.00000000E+00
  0.00000000E+00  0.00000000E+00  0.00000000E+00
  0.00000000E+00  0.00000000E+00  0.00000000E+00
  0.00000000E+00  0.00000000E+00  0.00000000E+00
  0.00000000E+00  0.00000000E+00  0.00000000E+00
  0.00000000E+00  0.00000000E+00  0.00000000E+00
  0.00000000E+00  0.00000000E+00  0.00000000E+00
  0.00000000E+00  0.00000000E+00  0.00000000E+00
  0.00000000E+00  0.00000000E+00  0.00000000E+00
  0.00000000E+00  0.00000000E+00  0.00000000E+00
  0.00000000E+00  0.00000000E+00  0.00000000E+00
  0.00000000E+00  0.00000000E+00  0.00000000E+00
  0.00000000E+00  0.00000000E+00  0.00000000E+00
  0.00000000E+00  0.00000000E+00  0.00000000E+00
  0.00000000E+00  0.00000000E+00  0.00000000E+00
  0.00000000E+00  0.00000000E+00  0.00000000E+00
  0.00000000E+00  0.00000000E+00  0.00000000E+00
  0.00000000E+00  0.00000000E+00  0.00000000E+00
  0.00000000E+00  0.00000000E+00  0.00000000E+00
  0.00000000E+00  0.00000000E+00  0.00000000E+00
  0.00000000E+00  0.00000000E+00  0.00000000E+00
  0.00000000E+00  0.00000000E+00  0.00000000E+00
  0.00000000E+00  0.00000000E+00  0.00000000E+00
  0.00000000E+00  0.00000000E+00  0.00000000E+00
  0.00000000E+00  0.00000000E+00  0.00000000E+00
  0.00000000E+00  0.00000000E+00  0.00000000E+00
  0.00000000E+00  0.00000000E+00  0.00000000E+00
  0.00000000E+00  0.00000000E+00  0.00000000E+00
  0.00000000E+00  0.00000000E+00  0.00000000E+00
  0.00000000E+00  0.00000000E+00  0.00000000E+00
  0.00000000E+00  0.00000000E+00  0.00000000E+00
  0.00000000E+00  0.00000000E+00  0.00000000E+00
  0.00000000E+00  0.00000000E+00  0.00000000E+00
  0.00000000E+00  0.00000000E+00  0.00000000E+00
  0.00000000E+00  0.00000000E+00  0.00000000E+00
  0.00000000E+00  0.00000000E+00  0.00000000E+00
  0.00000000E+00  0.00000000E+00  0.00000000E+00
  0.00000000E+00  0.00000000E+00  0.00000000E+00
  0.00000000E+00  0.00000000E+00  0.00000000E+00
  0.00000000E+00  0.00000000E+00  0.00000000E+00
  0.00000000E+00  0.00000000E+00  0.00000000E+00
  0.00000000E+00  0.00000000E+00  0.00000000E+00
  0.00000000E+00  0.00000000E+00  0.00000000E+00
  0.00000000E+00  0.00000000E+00  0.00000000E+00
  0.00000000E+00  0.00000000E+00  0.00000000E+00
  0.00000000E+00  0.00000000E+00  0.00000000E+00
  0.00000000E+00  0.00000000E+00  0.00000000E+00
  0.00000000E+00  0.00000000E+00  0.00000000E+00
  0.00000000E+00  0.00000000E+00  0.00000000E+00
  0.00000000E+00  0.00000000E+00  0.00000000E+00
  0.00000000E+00  0.00000000E+00  0.00000000E+00
  0.00000000E+00  0.00000000E+00  0.00000000E+00
  0.00000000E+00  0.00000000E+00  0.00000000E+00
  0.00000000E+00  0.00000000E+00  0.00000000E+00
  0.00000000E+00  0.00000000E+00  0.00000000E+00
  0.00000000E+00  0.00000000E+00  0.00000000E+00
  0.00000000E+00  0.00000000E+00  0.00000000E+00
  0.00000000E+00  0.00000000E+00  0.00000000E+00
