supercell of POSCAR                     
   1.01800000000000     
     3.1310994802600001   -5.4896946145000003   10.0244832682999991
    -9.4821132118399998   -5.5089477087900001    0.0170740616273000
     6.3359946057599998  -11.0114127993000004  -10.0652216442999993
   Al   Gd   N    O 
    84    12    95     1
Direct
  0.0879086141561771  0.5845527667795238  0.3349700527168054
  0.4992635716076350  0.3218819492590725  0.2543022141894866
  0.0856065435919575  0.0855178390779301  0.3341714731912830
  0.2519550819716656  0.5777925017411363  0.4950415695937167
  0.3319517394312044  0.3180407210148033  0.0776555825751615
  0.4166030805448599  0.0863535482366942  0.1703331349914734
  0.0070089470265700  0.8436387224840018  0.2547778930355094
  0.1675877083569119  0.3318324179615644  0.4119015466231915
  0.2473763739137027  0.0877585561525223  0.4960975649319508
  0.1614659909626326  0.8381933785424849  0.4163800893799561
  0.3275253940169591  0.6733241302910358  0.3441173996521911
  0.1545619919526402  0.6755938920277771  0.1660369756112203
  0.2499759716551466  0.4007257816701113  0.2518013182629772
  0.3339719633515301  0.1637784166070233  0.3340111516326871
  0.0070892562719393  0.6736619617219546  0.4940443933494976
  0.1665746982287217  0.1589627623104306  0.1691402281668744
  0.2518293489468704  0.9203643838643814  0.2554486204690178
  0.4120675192106091  0.4142395321279793  0.4152376722875672
  0.4983373007758161  0.1615458859740357  0.4970757967401198
  0.0831816804692878  0.9243334745615215  0.0797527306359385
  0.4195559798225119  0.9208083741260182  0.4127957316558053
  0.0899726914540793  0.5845883718531510  0.8349650295216975
  0.5003403116595067  0.3221098694134383  0.7555997013492473
  0.0860050057920674  0.0853271289057034  0.8343148848172532
  0.2526673570553513  0.5772634365744054  0.9945700163280335
  0.3322204198926926  0.3179426434280899  0.5783950139783585
  0.4171590227437960  0.0872939927797489  0.6711221110355154
  0.0075320683160527  0.8438373290309755  0.7549269488629164
  0.1680490547347731  0.3315596064626334  0.9118178330098914
  0.2476715382404677  0.0872001433075127  0.9957531049881894
  0.1622569042886113  0.8369691038863181  0.9157279002618424
  0.3373310082717467  0.6740483965173709  0.8409414508753343
  0.1545360449389932  0.6757033998956103  0.6673369042023367
  0.2500669898145844  0.4012329558772834  0.7521876867105490
  0.3345866517552096  0.1639746910986446  0.8341086706772174
  0.0073952119563998  0.6730454959180960  0.9939764261727717
  0.1669311339266955  0.1589676984100450  0.6694748669607691
  0.2530253333349748  0.9207049494653958  0.7561838762777384
  0.4132113051505826  0.4143879731022082  0.9150944727954737
  0.4987493527152509  0.1612913439541046  0.9967437408173794
  0.0830129573551943  0.9244598271333757  0.5802356400363564
  0.4203299451857490  0.9203358588495405  0.9116319133154676
  0.5934661320592483  0.5823863533372844  0.3365498452194942
  0.9993733833473968  0.3223947589638811  0.2550186826784113
  0.5855882844135536  0.0854902637560286  0.3343783718197599
  0.7520503914411378  0.5789057072602546  0.4941306352114623
  0.8314949006804895  0.3179387236098705  0.0780811430610484
  0.9167888135144580  0.0870734451440498  0.1706965612881035
  0.5088408242951346  0.8489392702597556  0.2544736693664262
  0.6677507326290879  0.3319064922282919  0.4118916250214255
  0.7473899552337713  0.0877030373185121  0.4959881903000607
  0.6630753036774450  0.8379960261675663  0.4164563624603161
  0.8373161717121249  0.6747024213754642  0.3401478277693144
  0.6554153534077756  0.6756130835007497  0.1651254116873062
  0.7498264122621734  0.4006993192753043  0.2512690506192570
  0.8340344069561922  0.1639916091581171  0.3339021173576100
  0.5066804416048569  0.6743221358141867  0.4951549451929651
  0.6666013048936321  0.1586387299417567  0.1689935425652038
  0.7533430488426518  0.9205276261949180  0.2559620515820171
  0.9123948009212697  0.4146551048852984  0.4149296056382781
  0.9982578138247362  0.1614013217442292  0.4967579099133275
  0.5826456941368576  0.9238686146608757  0.0793871673386377
  0.9200883872161825  0.9205802919217163  0.4116946657855891
  0.5898990063026233  0.5846883066152841  0.8351113393846674
  0.0000120071264647  0.3222690647178297  0.7553789091044507
  0.5862647584205121  0.0853075278305937  0.8344693363354523
  0.7524174158008492  0.5782288440908729  0.9941463523755658
  0.8319050728341963  0.3181728448962247  0.5781520489180068
  0.9170444842484287  0.0872922084074688  0.6709761785337918
  0.5075834598368658  0.8441454233777250  0.7552780168005455
  0.6681079706026338  0.3319022295088558  0.9123026906396419
  0.7476740738078647  0.0870216185098798  0.9959073241250067
  0.6624286194423235  0.8369139706121445  0.9161216485807131
  0.8376240853843342  0.6740216598150894  0.8404195853396956
  0.6545622039985304  0.6762658347939308  0.6671581019510739
  0.7502084472479922  0.4014822304946435  0.7522212294206341
  0.8344557074487113  0.1640121182354974  0.8341280872933012
  0.5067985390935803  0.6734092128134677  0.9948481783257392
  0.6669949396310813  0.1590415802191671  0.6695241751703946
  0.7529961172411888  0.9205947058288686  0.7560391384671661
  0.9130585401179019  0.4144460676254056  0.9150085031103430
  0.9983572993167940  0.1612313241362884  0.9966429628526541
  0.5827291920432174  0.9244929396943391  0.5804936740812963
  0.9203098947894475  0.9201613041525931  0.9113739868050530
  0.3972939498701749  0.5803475784595946  0.1819445636819381
  0.3310845716690238  0.8345917442260955  0.0820663138210662
  0.0816710161895315  0.4183517936426071  0.0838877187776674
  0.3975024824317330  0.5787126473530222  0.6802789522472281
  0.3306258245231746  0.8362588817956436  0.5841937547015874
  0.0815734796597809  0.4183677691881158  0.5845017140308428
  0.8981221852431744  0.5793925059151235  0.1781180473389412
  0.8327739884345746  0.8365813995945288  0.0825340443504032
  0.5809760370793953  0.4203457982851475  0.0845365642481681
  0.8971604059373632  0.5792389204064321  0.6792401410780755
  0.8314901490446402  0.8368857999637385  0.5832551325726953
  0.5819197423353302  0.4189209571028414  0.5848975756845007
  0.2204151470137816  0.5826684882203850  0.2675753193712112
  0.0337856938685235  0.6112786965053161  0.1006742750943488
  0.1294946485238171  0.3178081231313783  0.1998259087078722
  0.2122305843547068  0.0825271620801189  0.2719827791602896
  0.3829037464976750  0.5842788063239794  0.4370944973419384
  0.4492008656802611  0.3191245374774638  0.0104325653037876
  0.0402690115480127  0.0856343411692677  0.1036835597325023
  0.1322147932600686  0.8424634933846491  0.1857248683162140
  0.2960844535520550  0.3295765602644067  0.3519426384814324
  0.3764357451911238  0.0810148510033812  0.4351380448059672
  0.4758574186608513  0.8377689922193525  0.0080198339446582
  0.2933164949413509  0.8355540532584129  0.3562050207713057
  0.2648735321067406  0.6514186208357629  0.0963977250832642
  0.3741647148778213  0.3844134243456878  0.1844250736694875
  0.4611469439697231  0.1622074104246991  0.2735436435782646
  0.1360016190652900  0.6658608963180299  0.4326600288820543
  0.2244188699784289  0.4112103978653110  0.0088399084339770
  0.2899106961918108  0.1572427113361030  0.1022115980294416
  0.3840048518074326  0.9249385744647967  0.2015045092178269
  0.0427780752191040  0.4198070940320093  0.3516223937265508
  0.1264985271392263  0.1711286279424797  0.4343709621303731
  0.1964753993419208  0.9318135566023003  0.0101686370220335
  0.0485774608951388  0.9240879980825483  0.3522729934256716
  0.2194367452858472  0.5813493505321716  0.7666288857656340
  0.0337146137187148  0.6114825049305850  0.6004761623143935
  0.1297637665437676  0.3175945563509401  0.6998327606041741
  0.2124361788549720  0.0829138580710804  0.7722124792412899
  0.3831093774660062  0.5835289706195326  0.9378596786966327
  0.4489231315090194  0.3196799460197681  0.5101544671348535
  0.0402908280229752  0.0860066112350353  0.6035586399544073
  0.1327395571169774  0.8429867118934027  0.6857698253896984
  0.2965163075120998  0.3295009556177888  0.8521600208293307
  0.3767378940509829  0.0806612801367521  0.9352260658255318
  0.4751378730505635  0.8381460980471829  0.5087264784857979
  0.2931256093163981  0.8352562552319114  0.8565662513929979
  0.4723057515988245  0.6853569523344802  0.7871447943660854
  0.2630803681427309  0.6536514060002645  0.5954058896355718
  0.3746911015578291  0.3819333921686194  0.6852125135989269
  0.4620515025893823  0.1626437333427404  0.7741019972238448
  0.1356937245448435  0.6653236217292147  0.9335251963848847
  0.2248549134453341  0.4118540272766538  0.5089169259219020
  0.2899028015070471  0.1575254400760215  0.6020549386338132
  0.3845979594973841  0.9279661577639544  0.7019144310379488
  0.0432175417336893  0.4195837353468761  0.8517545391950634
  0.1266880790713145  0.1708392107125576  0.9345807810665860
  0.1964749767673837  0.9323407959843166  0.5102967756587304
  0.0488892177994416  0.9240432276482267  0.8523553061182341
  0.7158135707097344  0.5824109547276564  0.2665595270301679
  0.5305779068299401  0.6132974514886911  0.1028270472839736
  0.6290123874466858  0.3173105750670970  0.1993930283561980
  0.7116358778808802  0.0824211148938474  0.2721669058330249
  0.8823423047196641  0.5842401676051523  0.4369991047907718
  0.9483286317088329  0.3189382719470757  0.0102513384166301
  0.5400522608634049  0.0849023814910765  0.1037908938690961
  0.6309074141763844  0.8416804940764564  0.1870261722417013
  0.7954799808408524  0.3299403606131150  0.3518162801187756
  0.8762820779264047  0.0807982257572206  0.4350149103428791
  0.9769680166770627  0.8376304410166000  0.0076418972826460
  0.7928309519614274  0.8355116718040776  0.3565431632218079
  0.9713179746501552  0.6848623323487359  0.2864547940456674
  0.7633920241365999  0.6551456902635380  0.0947360611583292
  0.8736618925851189  0.3825569359691414  0.1852037649846423
  0.9614432784356453  0.1627393333084299  0.2738236184820195
  0.6332635337704673  0.6665676378340848  0.4325932877785093
  0.7240778747839798  0.4121445334013032  0.0093883718654553
  0.7896649685360586  0.1572149179171305  0.1020996701046997
  0.8840364193738921  0.9274609332708863  0.2015256026530992
  0.5413071234027740  0.4214315211861503  0.3506314787967568
  0.6260635844580946  0.1713406719322919  0.4342158939769831
  0.6965464992940511  0.9316224224509853  0.0105894949793708
  0.5478735569861541  0.9229211101668611  0.3530116367310114
  0.7192425360265844  0.5816212870722879  0.7664278787784937
  0.5332370894534364  0.6116520877560845  0.6010367300900015
  0.6299309484762006  0.3176189911944292  0.6999657920685962
  0.7124861845072843  0.0828424891605124  0.7721908105884054
  0.8829748029007618  0.5836275874354939  0.9373851640094628
  0.9483719085064450  0.3193821715555671  0.5099774041167109
  0.5402876388217734  0.0862194896672221  0.6036893577253082
  0.6323410573818578  0.8432264256017206  0.6860048988060825
  0.7962966377455061  0.3296310845778692  0.8522329774339283
  0.8766492441430387  0.0803267366497948  0.9351459520889023
  0.9764284095527316  0.8378746898914713  0.5079051065460192
  0.7930669508031372  0.8350563532171407  0.8564922869958451
  0.9724562178307394  0.6849594359263378  0.7865966615959721
  0.7624406127497920  0.6549513852745363  0.5945819508718770
  0.8745143800393720  0.3824206360813704  0.6850061300283201
  0.9618518637186924  0.1627153341445577  0.7739517365607185
  0.6346398026723392  0.6654041713935612  0.9336943835987199
  0.7241168505233304  0.4125323709168356  0.5085952135180847
  0.7897124326775540  0.1576822229965060  0.6019153555277796
  0.8844896363317574  0.9277203607196469  0.7015762272294452
  0.5432086559151372  0.4197141919665910  0.8518155472933842
  0.6268893431203892  0.1709103424900391  0.9346743143663616
  0.6959034551968202  0.9324977471063747  0.5103807887097602
  0.5489828532809327  0.9241617149150301  0.8527494683616226
  0.4722564922688832  0.6875184803618168  0.2907393621042189
 
  0.00000000E+00  0.00000000E+00  0.00000000E+00
  0.00000000E+00  0.00000000E+00  0.00000000E+00
  0.00000000E+00  0.00000000E+00  0.00000000E+00
  0.00000000E+00  0.00000000E+00  0.00000000E+00
  0.00000000E+00  0.00000000E+00  0.00000000E+00
  0.00000000E+00  0.00000000E+00  0.00000000E+00
  0.00000000E+00  0.00000000E+00  0.00000000E+00
  0.00000000E+00  0.00000000E+00  0.00000000E+00
  0.00000000E+00  0.00000000E+00  0.00000000E+00
  0.00000000E+00  0.00000000E+00  0.00000000E+00
  0.00000000E+00  0.00000000E+00  0.00000000E+00
  0.00000000E+00  0.00000000E+00  0.00000000E+00
  0.00000000E+00  0.00000000E+00  0.00000000E+00
  0.00000000E+00  0.00000000E+00  0.00000000E+00
  0.00000000E+00  0.00000000E+00  0.00000000E+00
  0.00000000E+00  0.00000000E+00  0.00000000E+00
  0.00000000E+00  0.00000000E+00  0.00000000E+00
  0.00000000E+00  0.00000000E+00  0.00000000E+00
  0.00000000E+00  0.00000000E+00  0.00000000E+00
  0.00000000E+00  0.00000000E+00  0.00000000E+00
  0.00000000E+00  0.00000000E+00  0.00000000E+00
  0.00000000E+00  0.00000000E+00  0.00000000E+00
  0.00000000E+00  0.00000000E+00  0.00000000E+00
  0.00000000E+00  0.00000000E+00  0.00000000E+00
  0.00000000E+00  0.00000000E+00  0.00000000E+00
  0.00000000E+00  0.00000000E+00  0.00000000E+00
  0.00000000E+00  0.00000000E+00  0.00000000E+00
  0.00000000E+00  0.00000000E+00  0.00000000E+00
  0.00000000E+00  0.00000000E+00  0.00000000E+00
  0.00000000E+00  0.00000000E+00  0.00000000E+00
  0.00000000E+00  0.00000000E+00  0.00000000E+00
  0.00000000E+00  0.00000000E+00  0.00000000E+00
  0.00000000E+00  0.00000000E+00  0.00000000E+00
  0.00000000E+00  0.00000000E+00  0.00000000E+00
  0.00000000E+00  0.00000000E+00  0.00000000E+00
  0.00000000E+00  0.00000000E+00  0.00000000E+00
  0.00000000E+00  0.00000000E+00  0.00000000E+00
  0.00000000E+00  0.00000000E+00  0.00000000E+00
  0.00000000E+00  0.00000000E+00  0.00000000E+00
  0.00000000E+00  0.00000000E+00  0.00000000E+00
  0.00000000E+00  0.00000000E+00  0.00000000E+00
  0.00000000E+00  0.00000000E+00  0.00000000E+00
  0.00000000E+00  0.00000000E+00  0.00000000E+00
  0.00000000E+00  0.00000000E+00  0.00000000E+00
  0.00000000E+00  0.00000000E+00  0.00000000E+00
  0.00000000E+00  0.00000000E+00  0.00000000E+00
  0.00000000E+00  0.00000000E+00  0.00000000E+00
  0.00000000E+00  0.00000000E+00  0.00000000E+00
  0.00000000E+00  0.00000000E+00  0.00000000E+00
  0.00000000E+00  0.00000000E+00  0.00000000E+00
  0.00000000E+00  0.00000000E+00  0.00000000E+00
  0.00000000E+00  0.00000000E+00  0.00000000E+00
  0.00000000E+00  0.00000000E+00  0.00000000E+00
  0.00000000E+00  0.00000000E+00  0.00000000E+00
  0.00000000E+00  0.00000000E+00  0.00000000E+00
  0.00000000E+00  0.00000000E+00  0.00000000E+00
  0.00000000E+00  0.00000000E+00  0.00000000E+00
  0.00000000E+00  0.00000000E+00  0.00000000E+00
  0.00000000E+00  0.00000000E+00  0.00000000E+00
  0.00000000E+00  0.00000000E+00  0.00000000E+00
  0.00000000E+00  0.00000000E+00  0.00000000E+00
  0.00000000E+00  0.00000000E+00  0.00000000E+00
  0.00000000E+00  0.00000000E+00  0.00000000E+00
  0.00000000E+00  0.00000000E+00  0.00000000E+00
  0.00000000E+00  0.00000000E+00  0.00000000E+00
  0.00000000E+00  0.00000000E+00  0.00000000E+00
  0.00000000E+00  0.00000000E+00  0.00000000E+00
  0.00000000E+00  0.00000000E+00  0.00000000E+00
  0.00000000E+00  0.00000000E+00  0.00000000E+00
  0.00000000E+00  0.00000000E+00  0.00000000E+00
  0.00000000E+00  0.00000000E+00  0.00000000E+00
  0.00000000E+00  0.00000000E+00  0.00000000E+00
  0.00000000E+00  0.00000000E+00  0.00000000E+00
  0.00000000E+00  0.00000000E+00  0.00000000E+00
  0.00000000E+00  0.00000000E+00  0.00000000E+00
  0.00000000E+00  0.00000000E+00  0.00000000E+00
  0.00000000E+00  0.00000000E+00  0.00000000E+00
  0.00000000E+00  0.00000000E+00  0.00000000E+00
  0.00000000E+00  0.00000000E+00  0.00000000E+00
  0.00000000E+00  0.00000000E+00  0.00000000E+00
  0.00000000E+00  0.00000000E+00  0.00000000E+00
  0.00000000E+00  0.00000000E+00  0.00000000E+00
  0.00000000E+00  0.00000000E+00  0.00000000E+00
  0.00000000E+00  0.00000000E+00  0.00000000E+00
  0.00000000E+00  0.00000000E+00  0.00000000E+00
  0.00000000E+00  0.00000000E+00  0.00000000E+00
  0.00000000E+00  0.00000000E+00  0.00000000E+00
  0.00000000E+00  0.00000000E+00  0.00000000E+00
  0.00000000E+00  0.00000000E+00  0.00000000E+00
  0.00000000E+00  0.00000000E+00  0.00000000E+00
  0.00000000E+00  0.00000000E+00  0.00000000E+00
  0.00000000E+00  0.00000000E+00  0.00000000E+00
  0.00000000E+00  0.00000000E+00  0.00000000E+00
  0.00000000E+00  0.00000000E+00  0.00000000E+00
  0.00000000E+00  0.00000000E+00  0.00000000E+00
  0.00000000E+00  0.00000000E+00  0.00000000E+00
  0.00000000E+00  0.00000000E+00  0.00000000E+00
  0.00000000E+00  0.00000000E+00  0.00000000E+00
  0.00000000E+00  0.00000000E+00  0.00000000E+00
  0.00000000E+00  0.00000000E+00  0.00000000E+00
  0.00000000E+00  0.00000000E+00  0.00000000E+00
  0.00000000E+00  0.00000000E+00  0.00000000E+00
  0.00000000E+00  0.00000000E+00  0.00000000E+00
  0.00000000E+00  0.00000000E+00  0.00000000E+00
  0.00000000E+00  0.00000000E+00  0.00000000E+00
  0.00000000E+00  0.00000000E+00  0.00000000E+00
  0.00000000E+00  0.00000000E+00  0.00000000E+00
  0.00000000E+00  0.00000000E+00  0.00000000E+00
  0.00000000E+00  0.00000000E+00  0.00000000E+00
  0.00000000E+00  0.00000000E+00  0.00000000E+00
  0.00000000E+00  0.00000000E+00  0.00000000E+00
  0.00000000E+00  0.00000000E+00  0.00000000E+00
  0.00000000E+00  0.00000000E+00  0.00000000E+00
  0.00000000E+00  0.00000000E+00  0.00000000E+00
  0.00000000E+00  0.00000000E+00  0.00000000E+00
  0.00000000E+00  0.00000000E+00  0.00000000E+00
  0.00000000E+00  0.00000000E+00  0.00000000E+00
  0.00000000E+00  0.00000000E+00  0.00000000E+00
  0.00000000E+00  0.00000000E+00  0.00000000E+00
  0.00000000E+00  0.00000000E+00  0.00000000E+00
  0.00000000E+00  0.00000000E+00  0.00000000E+00
  0.00000000E+00  0.00000000E+00  0.00000000E+00
  0.00000000E+00  0.00000000E+00  0.00000000E+00
  0.00000000E+00  0.00000000E+00  0.00000000E+00
  0.00000000E+00  0.00000000E+00  0.00000000E+00
  0.00000000E+00  0.00000000E+00  0.00000000E+00
  0.00000000E+00  0.00000000E+00  0.00000000E+00
  0.00000000E+00  0.00000000E+00  0.00000000E+00
  0.00000000E+00  0.00000000E+00  0.00000000E+00
  0.00000000E+00  0.00000000E+00  0.00000000E+00
  0.00000000E+00  0.00000000E+00  0.00000000E+00
  0.00000000E+00  0.00000000E+00  0.00000000E+00
  0.00000000E+00  0.00000000E+00  0.00000000E+00
  0.00000000E+00  0.00000000E+00  0.00000000E+00
  0.00000000E+00  0.00000000E+00  0.00000000E+00
  0.00000000E+00  0.00000000E+00  0.00000000E+00
  0.00000000E+00  0.00000000E+00  0.00000000E+00
  0.00000000E+00  0.00000000E+00  0.00000000E+00
  0.00000000E+00  0.00000000E+00  0.00000000E+00
  0.00000000E+00  0.00000000E+00  0.00000000E+00
  0.00000000E+00  0.00000000E+00  0.00000000E+00
  0.00000000E+00  0.00000000E+00  0.00000000E+00
  0.00000000E+00  0.00000000E+00  0.00000000E+00
  0.00000000E+00  0.00000000E+00  0.00000000E+00
  0.00000000E+00  0.00000000E+00  0.00000000E+00
  0.00000000E+00  0.00000000E+00  0.00000000E+00
  0.00000000E+00  0.00000000E+00  0.00000000E+00
  0.00000000E+00  0.00000000E+00  0.00000000E+00
  0.00000000E+00  0.00000000E+00  0.00000000E+00
  0.00000000E+00  0.00000000E+00  0.00000000E+00
  0.00000000E+00  0.00000000E+00  0.00000000E+00
  0.00000000E+00  0.00000000E+00  0.00000000E+00
  0.00000000E+00  0.00000000E+00  0.00000000E+00
  0.00000000E+00  0.00000000E+00  0.00000000E+00
  0.00000000E+00  0.00000000E+00  0.00000000E+00
  0.00000000E+00  0.00000000E+00  0.00000000E+00
  0.00000000E+00  0.00000000E+00  0.00000000E+00
  0.00000000E+00  0.00000000E+00  0.00000000E+00
  0.00000000E+00  0.00000000E+00  0.00000000E+00
  0.00000000E+00  0.00000000E+00  0.00000000E+00
  0.00000000E+00  0.00000000E+00  0.00000000E+00
  0.00000000E+00  0.00000000E+00  0.00000000E+00
  0.00000000E+00  0.00000000E+00  0.00000000E+00
  0.00000000E+00  0.00000000E+00  0.00000000E+00
  0.00000000E+00  0.00000000E+00  0.00000000E+00
  0.00000000E+00  0.00000000E+00  0.00000000E+00
  0.00000000E+00  0.00000000E+00  0.00000000E+00
  0.00000000E+00  0.00000000E+00  0.00000000E+00
  0.00000000E+00  0.00000000E+00  0.00000000E+00
  0.00000000E+00  0.00000000E+00  0.00000000E+00
  0.00000000E+00  0.00000000E+00  0.00000000E+00
  0.00000000E+00  0.00000000E+00  0.00000000E+00
  0.00000000E+00  0.00000000E+00  0.00000000E+00
  0.00000000E+00  0.00000000E+00  0.00000000E+00
  0.00000000E+00  0.00000000E+00  0.00000000E+00
  0.00000000E+00  0.00000000E+00  0.00000000E+00
  0.00000000E+00  0.00000000E+00  0.00000000E+00
  0.00000000E+00  0.00000000E+00  0.00000000E+00
  0.00000000E+00  0.00000000E+00  0.00000000E+00
  0.00000000E+00  0.00000000E+00  0.00000000E+00
  0.00000000E+00  0.00000000E+00  0.00000000E+00
  0.00000000E+00  0.00000000E+00  0.00000000E+00
  0.00000000E+00  0.00000000E+00  0.00000000E+00
  0.00000000E+00  0.00000000E+00  0.00000000E+00
  0.00000000E+00  0.00000000E+00  0.00000000E+00
  0.00000000E+00  0.00000000E+00  0.00000000E+00
  0.00000000E+00  0.00000000E+00  0.00000000E+00
  0.00000000E+00  0.00000000E+00  0.00000000E+00
  0.00000000E+00  0.00000000E+00  0.00000000E+00
  0.00000000E+00  0.00000000E+00  0.00000000E+00
  0.00000000E+00  0.00000000E+00  0.00000000E+00
  0.00000000E+00  0.00000000E+00  0.00000000E+00
