supercell of POSCAR                     
   1.01800000000000     
     3.1310994802600001   -5.4896946145000003   10.0244832682999991
    -9.4821132118399998   -5.5089477087900001    0.0170740616273000
     6.3359946057599998  -11.0114127993000004  -10.0652216442999993
   Al   Gd   N    O 
    84    12    95     1
Direct
  0.0892501044640994  0.5833031866835796  0.3344651536155254
  0.4999546970258422  0.3251132818700242  0.2551352830948090
  0.0871296523034744  0.0845719535040601  0.3338163889391979
  0.2522804146108797  0.5790328973351677  0.4936955963944030
  0.3314056169474924  0.3191267619387830  0.0787450496423290
  0.4184573118643655  0.0899426951055844  0.1700773429193063
  0.0077357731089052  0.8431763166995765  0.2544128445128280
  0.1683955750164472  0.3316752500377831  0.4121494752205166
  0.2483501934530636  0.0866743318765231  0.4957595327251596
  0.1630095653547201  0.8366662974886125  0.4155771122658791
  0.3375845184350652  0.6753648008778512  0.3377922544883063
  0.1586177628845178  0.6746650069451974  0.1696363336051974
  0.2503721298187216  0.4009498211880427  0.2521503752239767
  0.3350330842403295  0.1635983526608840  0.3335623610190908
  0.0071016326032094  0.6732257946204214  0.4940691891385569
  0.1677221932069628  0.1580759733535189  0.1693964819587848
  0.2559098248032470  0.9170398813503056  0.2542134717592077
  0.4130290144305206  0.4151709360406599  0.4150751277798364
  0.4990493209370612  0.1619720744546242  0.4968841184898309
  0.0826772211641540  0.9236167413880807  0.0796469692571691
  0.4208926271634397  0.9203889887617649  0.4116308215521514
  0.0884117054015334  0.5846960796665073  0.8338760349667851
  0.4993919989684130  0.3229939295011022  0.7550477897518277
  0.0858439529238098  0.0849069571088350  0.8344184885069552
  0.2482971541528158  0.5726837939063998  0.9887050490076277
  0.3320219903856554  0.3184944999806660  0.5781798165088290
  0.4173472776073126  0.0869882730385001  0.6706143946937857
  0.0074980006304202  0.8432953697257020  0.7552512340152120
  0.1670583338744578  0.3301190207734379  0.9121025795975584
  0.2484093397857805  0.0854021018660944  0.9969441866412296
  0.1629487998050934  0.8371616993208590  0.9166049550994941
  0.3362353085230012  0.6743804960473199  0.8392778898342073
  0.1547643756100356  0.6750843692035247  0.6657495860055178
  0.2495266943988099  0.4019516578538642  0.7522235348952080
  0.3341181392996759  0.1639454460828986  0.8340127167717100
  0.0060460045767599  0.6729880875585295  0.9953414740966977
  0.1671255104707541  0.1588544175566327  0.6691230273914641
  0.2528901731535242  0.9200194587565207  0.7555390584545592
  0.4131006566494122  0.4145281999087445  0.9148182186417202
  0.4985179010673022  0.1630524294300670  0.9970580965292513
  0.0835924393951402  0.9236915631167406  0.5795667148095731
  0.4187501765431207  0.9206927190276133  0.9130835255956029
  0.5920450389760532  0.5836615411002626  0.3349051670486247
  0.9999603083355453  0.3225681412370349  0.2556753587046146
  0.5863635765213928  0.0861757583467835  0.3340962047528748
  0.7526562966360331  0.5790071321123023  0.4947741967887183
  0.8304745858562370  0.3188981987618789  0.0784799529361777
  0.9176732284077431  0.0871543653419735  0.1708012516995154
  0.5076028953272598  0.8441006844261736  0.2547200472003297
  0.6685318826171383  0.3319219344511595  0.4124755262891853
  0.7482938227240723  0.0866199431364976  0.4960100913730088
  0.6626932676305159  0.8367510315644608  0.4159201226004043
  0.8375187686828838  0.6736558741267018  0.3397038927948657
  0.6539610357003838  0.6765302389045971  0.1664599905071356
  0.7509536982079510  0.4026362595289257  0.2521828293191035
  0.8348998566944275  0.1640566793958129  0.3340491593756525
  0.5068157478632003  0.6731559365440134  0.4935064801056441
  0.6674939393492210  0.1601633776902815  0.1692002038092326
  0.7532203657329788  0.9206903935342794  0.2558352477782293
  0.9128646531365447  0.4146581840913868  0.4155766881336405
  0.9991494909809475  0.1615145835721279  0.4968361725052262
  0.5812553849895181  0.9250897846591783  0.0802000821227082
  0.9206667535610080  0.9199574498297451  0.4114784070038056
  0.5889946100258356  0.5850394516985418  0.8341261282151464
  0.9992839153875508  0.3227647664525435  0.7552267578570593
  0.5854096805692635  0.0853301897659975  0.8344765072567171
  0.7503511028826111  0.5789454908203240  0.9946554415661026
  0.8321335382242907  0.3181432654239842  0.5785262929916755
  0.9174500016503231  0.0868181789578273  0.6708851606998891
  0.5070117503971900  0.8436720802797808  0.7552269083620615
  0.6671357759835814  0.3325636783303096  0.9129680860004044
  0.7469691408383952  0.0871907650187467  0.9961499347579235
  0.6620332715044768  0.8375118580661081  0.9158504420879581
  0.8362567985806635  0.6735700708909178  0.8403351737829468
  0.6545223874485444  0.6751375728295983  0.6660531344535556
  0.7494536768475797  0.4019229938484301  0.7524373134898994
  0.8338478161080545  0.1640322323548844  0.8342891858914712
  0.5056938284232899  0.6757500621302128  0.9939128013727156
  0.6670639157286544  0.1587544080959731  0.6692650592912628
  0.7528433797340313  0.9200282240242004  0.7557281469885595
  0.9122071983105897  0.4148251612223959  0.9153444304868614
  0.9978934533697270  0.1613879124474877  0.9970672331069039
  0.5836417035244850  0.9237289805558575  0.5796560049455834
  0.9197916107013100  0.9197593404013773  0.9118989349480984
  0.3975517372998567  0.5851802316094563  0.1810850578481435
  0.3308393094970938  0.8282050262881313  0.0883739853432033
  0.0805284070723502  0.4178125722371675  0.0856808779695299
  0.3982936402830006  0.5794572867299976  0.6785404236717412
  0.3328934492815065  0.8357455929916426  0.5831964032534600
  0.0825594319696989  0.4197897437245715  0.5848049913966591
  0.8986463275383443  0.5806400720653357  0.1779742736541507
  0.8304203224931470  0.8371880746115252  0.0835641936991109
  0.5787757801844364  0.4233527359396163  0.0864218855470114
  0.8983485733132852  0.5791479610376840  0.6791376671931459
  0.8329125884812569  0.8358610006346865  0.5835662698512252
  0.5825285038072323  0.4198859273113200  0.5848432572090019
  0.2171452721122407  0.5766231518349088  0.2665758479239670
  0.0372136522142270  0.6121718294276874  0.1017403636848684
  0.1297901966649633  0.3158159987632416  0.2004925180902077
  0.2134838017601908  0.0806157779408778  0.2717238636198687
  0.3821873468028301  0.5844707920080197  0.4361394279382012
  0.4485323773098031  0.3208164836268992  0.0106863996696731
  0.0407613730997483  0.0856061933533923  0.1034246202372060
  0.1321963882678503  0.8426129164067859  0.1840000666599693
  0.2966350942736113  0.3285623737150019  0.3524019409654215
  0.3774233898407147  0.0809452261220116  0.4350161264935934
  0.4723708842436096  0.8394998235995033  0.0097396055400765
  0.2938415625946362  0.8360058220614235  0.3565607606348209
  0.4763819060020680  0.6850013543720692  0.2882334077003321
  0.3730221722873921  0.3841717405884637  0.1854282273897923
  0.4627686829262601  0.1647072292633922  0.2738020575589104
  0.1346297429607830  0.6655169822042026  0.4325300838632700
  0.2223387637498533  0.4100584460608445  0.0090118838039359
  0.2901785806677211  0.1584052845097190  0.1018493353535064
  0.3876127147762389  0.9323373570484890  0.2002687471042250
  0.0425779798737125  0.4186032097778423  0.3526064719720097
  0.1272298543945567  0.1702643121633614  0.4343861263004243
  0.1990832603161650  0.9290319052174922  0.0123194213129381
  0.0491830261059434  0.9236426120474448  0.3520870087617354
  0.2178352286004639  0.5811654876995718  0.7667435934617259
  0.0324687577401619  0.6119614485780289  0.6005223280745753
  0.1293331471210664  0.3169376280408613  0.7000679886207024
  0.2120909087027982  0.0825078360206462  0.7721298081586809
  0.3811510889937963  0.5841721976582264  0.9371850957250629
  0.4492966902693922  0.3196887696715081  0.5107066574141825
  0.0407026072370158  0.0854194141697207  0.6035868010194534
  0.1320985509589718  0.8428142606124069  0.6858019599160627
  0.2956350697125174  0.3291547163641084  0.8523755777130333
  0.3764428981911792  0.0817840237083658  0.9352645643766664
  0.4766519111999372  0.8380827832719220  0.5076168256054174
  0.2924874638049957  0.8357700055207502  0.8564612267848801
  0.4709272680752292  0.6854590757996348  0.7866793478398222
  0.2635247959268980  0.6547382324783797  0.5946697717068545
  0.3731527573467588  0.3821097756955822  0.6853589775640145
  0.4615143627585283  0.1628591007220379  0.7738449163257357
  0.1334743500324365  0.6659086553248201  0.9329639540465351
  0.2245817801058081  0.4120901728027064  0.5089229543854543
  0.2901662798655167  0.1572545950597686  0.6018357109463892
  0.3844947281936228  0.9280825001359929  0.7016974543767134
  0.0424083564598234  0.4190922590056516  0.8522841965487800
  0.1265324748788714  0.1690409185816577  0.9350456675442373
  0.1972588563429198  0.9314016730818651  0.5101044594448325
  0.0489104026906588  0.9238444047745560  0.8531010174004336
  0.7199948957071385  0.5809338411173712  0.2666218657351322
  0.5292889597272890  0.6177614203648147  0.1006248652884096
  0.6304478049516788  0.3184447470369278  0.1998096658598243
  0.7127988698898449  0.0833572539030456  0.2720919038174827
  0.8827843077504198  0.5838761641526489  0.4372441650956986
  0.9474030698308127  0.3190669704230658  0.0103509605760621
  0.5414613275654645  0.0881368387457329  0.1032585259353809
  0.6329808503930892  0.8443611142480094  0.1857712757210663
  0.7965646158691939  0.3292038117177896  0.3523010944857248
  0.8772430432769625  0.0806565881625829  0.4351055000855339
  0.9751995367346993  0.8377670259127612  0.0081295463926097
  0.7933528098630944  0.8354165535529248  0.3562927190161034
  0.9722242975577799  0.6849585237389277  0.2863564194037309
  0.7624935797338352  0.6553612434921661  0.0950493874924021
  0.8748820807116928  0.3828501508198698  0.1852167191072240
  0.9623200165205716  0.1623904287993767  0.2740073177198639
  0.6358500096477684  0.6655699887531341  0.4334882162190610
  0.7218217333953660  0.4125564513720192  0.0101974629562989
  0.7904167043570567  0.1573047037133151  0.1020854695676618
  0.8848594553826032  0.9282237857258906  0.2018869737942950
  0.5438613554458414  0.4192507882600793  0.3527451410648865
  0.6274344721930305  0.1707361855696519  0.4348541954813854
  0.6948391846082060  0.9322499023316695  0.0101764976133509
  0.5493685179964700  0.9249034306111312  0.3523931942092489
  0.7180632300832670  0.5810655178644168  0.7670027064441456
  0.5325362779961225  0.6121901390861808  0.6001769504561807
  0.6294309542929923  0.3169157796723781  0.7000121436355755
  0.7119397799559621  0.0824451642783544  0.7723408593300789
  0.8815686814281847  0.5836806218148212  0.9380316657364247
  0.9493232309105863  0.3191253986804767  0.5108778549152788
  0.5407021785141097  0.0855731548151581  0.6035104542505607
  0.6320648807522318  0.8429844917063960  0.6859808420583988
  0.7952777334428731  0.3293685060964009  0.8527073681240012
  0.8761009947176035  0.0803608572071894  0.9352665347918645
  0.9763734819206320  0.8380151655716617  0.5076750174260027
  0.7924663293075298  0.8354239859894292  0.8565795435092909
  0.9707323544149773  0.6854864855642973  0.7870803677650429
  0.7639166996348976  0.6549199487698445  0.5955537683617393
  0.8732044858039600  0.3817921051944282  0.6855825735239875
  0.9615631977751988  0.1626191998469722  0.7742143367554135
  0.6332721398750394  0.6664452252752611  0.9328913338006757
  0.7250423073683692  0.4120723235268073  0.5093034663482499
  0.7902806369428319  0.1569327303380561  0.6021286711843388
  0.8847616655313928  0.9279433842160785  0.7022034229722180
  0.5424381355163348  0.4197090164177624  0.8519451510025604
  0.6262753319009278  0.1712299132377808  0.9345158964991356
  0.6974533260148448  0.9314096103387541  0.5103186867310399
  0.5475288200104202  0.9242179554487180  0.8530976194163600
  0.2566586438382856  0.6413191512330059  0.0881592751684082
 
  0.00000000E+00  0.00000000E+00  0.00000000E+00
  0.00000000E+00  0.00000000E+00  0.00000000E+00
  0.00000000E+00  0.00000000E+00  0.00000000E+00
  0.00000000E+00  0.00000000E+00  0.00000000E+00
  0.00000000E+00  0.00000000E+00  0.00000000E+00
  0.00000000E+00  0.00000000E+00  0.00000000E+00
  0.00000000E+00  0.00000000E+00  0.00000000E+00
  0.00000000E+00  0.00000000E+00  0.00000000E+00
  0.00000000E+00  0.00000000E+00  0.00000000E+00
  0.00000000E+00  0.00000000E+00  0.00000000E+00
  0.00000000E+00  0.00000000E+00  0.00000000E+00
  0.00000000E+00  0.00000000E+00  0.00000000E+00
  0.00000000E+00  0.00000000E+00  0.00000000E+00
  0.00000000E+00  0.00000000E+00  0.00000000E+00
  0.00000000E+00  0.00000000E+00  0.00000000E+00
  0.00000000E+00  0.00000000E+00  0.00000000E+00
  0.00000000E+00  0.00000000E+00  0.00000000E+00
  0.00000000E+00  0.00000000E+00  0.00000000E+00
  0.00000000E+00  0.00000000E+00  0.00000000E+00
  0.00000000E+00  0.00000000E+00  0.00000000E+00
  0.00000000E+00  0.00000000E+00  0.00000000E+00
  0.00000000E+00  0.00000000E+00  0.00000000E+00
  0.00000000E+00  0.00000000E+00  0.00000000E+00
  0.00000000E+00  0.00000000E+00  0.00000000E+00
  0.00000000E+00  0.00000000E+00  0.00000000E+00
  0.00000000E+00  0.00000000E+00  0.00000000E+00
  0.00000000E+00  0.00000000E+00  0.00000000E+00
  0.00000000E+00  0.00000000E+00  0.00000000E+00
  0.00000000E+00  0.00000000E+00  0.00000000E+00
  0.00000000E+00  0.00000000E+00  0.00000000E+00
  0.00000000E+00  0.00000000E+00  0.00000000E+00
  0.00000000E+00  0.00000000E+00  0.00000000E+00
  0.00000000E+00  0.00000000E+00  0.00000000E+00
  0.00000000E+00  0.00000000E+00  0.00000000E+00
  0.00000000E+00  0.00000000E+00  0.00000000E+00
  0.00000000E+00  0.00000000E+00  0.00000000E+00
  0.00000000E+00  0.00000000E+00  0.00000000E+00
  0.00000000E+00  0.00000000E+00  0.00000000E+00
  0.00000000E+00  0.00000000E+00  0.00000000E+00
  0.00000000E+00  0.00000000E+00  0.00000000E+00
  0.00000000E+00  0.00000000E+00  0.00000000E+00
  0.00000000E+00  0.00000000E+00  0.00000000E+00
  0.00000000E+00  0.00000000E+00  0.00000000E+00
  0.00000000E+00  0.00000000E+00  0.00000000E+00
  0.00000000E+00  0.00000000E+00  0.00000000E+00
  0.00000000E+00  0.00000000E+00  0.00000000E+00
  0.00000000E+00  0.00000000E+00  0.00000000E+00
  0.00000000E+00  0.00000000E+00  0.00000000E+00
  0.00000000E+00  0.00000000E+00  0.00000000E+00
  0.00000000E+00  0.00000000E+00  0.00000000E+00
  0.00000000E+00  0.00000000E+00  0.00000000E+00
  0.00000000E+00  0.00000000E+00  0.00000000E+00
  0.00000000E+00  0.00000000E+00  0.00000000E+00
  0.00000000E+00  0.00000000E+00  0.00000000E+00
  0.00000000E+00  0.00000000E+00  0.00000000E+00
  0.00000000E+00  0.00000000E+00  0.00000000E+00
  0.00000000E+00  0.00000000E+00  0.00000000E+00
  0.00000000E+00  0.00000000E+00  0.00000000E+00
  0.00000000E+00  0.00000000E+00  0.00000000E+00
  0.00000000E+00  0.00000000E+00  0.00000000E+00
  0.00000000E+00  0.00000000E+00  0.00000000E+00
  0.00000000E+00  0.00000000E+00  0.00000000E+00
  0.00000000E+00  0.00000000E+00  0.00000000E+00
  0.00000000E+00  0.00000000E+00  0.00000000E+00
  0.00000000E+00  0.00000000E+00  0.00000000E+00
  0.00000000E+00  0.00000000E+00  0.00000000E+00
  0.00000000E+00  0.00000000E+00  0.00000000E+00
  0.00000000E+00  0.00000000E+00  0.00000000E+00
  0.00000000E+00  0.00000000E+00  0.00000000E+00
  0.00000000E+00  0.00000000E+00  0.00000000E+00
  0.00000000E+00  0.00000000E+00  0.00000000E+00
  0.00000000E+00  0.00000000E+00  0.00000000E+00
  0.00000000E+00  0.00000000E+00  0.00000000E+00
  0.00000000E+00  0.00000000E+00  0.00000000E+00
  0.00000000E+00  0.00000000E+00  0.00000000E+00
  0.00000000E+00  0.00000000E+00  0.00000000E+00
  0.00000000E+00  0.00000000E+00  0.00000000E+00
  0.00000000E+00  0.00000000E+00  0.00000000E+00
  0.00000000E+00  0.00000000E+00  0.00000000E+00
  0.00000000E+00  0.00000000E+00  0.00000000E+00
  0.00000000E+00  0.00000000E+00  0.00000000E+00
  0.00000000E+00  0.00000000E+00  0.00000000E+00
  0.00000000E+00  0.00000000E+00  0.00000000E+00
  0.00000000E+00  0.00000000E+00  0.00000000E+00
  0.00000000E+00  0.00000000E+00  0.00000000E+00
  0.00000000E+00  0.00000000E+00  0.00000000E+00
  0.00000000E+00  0.00000000E+00  0.00000000E+00
  0.00000000E+00  0.00000000E+00  0.00000000E+00
  0.00000000E+00  0.00000000E+00  0.00000000E+00
  0.00000000E+00  0.00000000E+00  0.00000000E+00
  0.00000000E+00  0.00000000E+00  0.00000000E+00
  0.00000000E+00  0.00000000E+00  0.00000000E+00
  0.00000000E+00  0.00000000E+00  0.00000000E+00
  0.00000000E+00  0.00000000E+00  0.00000000E+00
  0.00000000E+00  0.00000000E+00  0.00000000E+00
  0.00000000E+00  0.00000000E+00  0.00000000E+00
  0.00000000E+00  0.00000000E+00  0.00000000E+00
  0.00000000E+00  0.00000000E+00  0.00000000E+00
  0.00000000E+00  0.00000000E+00  0.00000000E+00
  0.00000000E+00  0.00000000E+00  0.00000000E+00
  0.00000000E+00  0.00000000E+00  0.00000000E+00
  0.00000000E+00  0.00000000E+00  0.00000000E+00
  0.00000000E+00  0.00000000E+00  0.00000000E+00
  0.00000000E+00  0.00000000E+00  0.00000000E+00
  0.00000000E+00  0.00000000E+00  0.00000000E+00
  0.00000000E+00  0.00000000E+00  0.00000000E+00
  0.00000000E+00  0.00000000E+00  0.00000000E+00
  0.00000000E+00  0.00000000E+00  0.00000000E+00
  0.00000000E+00  0.00000000E+00  0.00000000E+00
  0.00000000E+00  0.00000000E+00  0.00000000E+00
  0.00000000E+00  0.00000000E+00  0.00000000E+00
  0.00000000E+00  0.00000000E+00  0.00000000E+00
  0.00000000E+00  0.00000000E+00  0.00000000E+00
  0.00000000E+00  0.00000000E+00  0.00000000E+00
  0.00000000E+00  0.00000000E+00  0.00000000E+00
  0.00000000E+00  0.00000000E+00  0.00000000E+00
  0.00000000E+00  0.00000000E+00  0.00000000E+00
  0.00000000E+00  0.00000000E+00  0.00000000E+00
  0.00000000E+00  0.00000000E+00  0.00000000E+00
  0.00000000E+00  0.00000000E+00  0.00000000E+00
  0.00000000E+00  0.00000000E+00  0.00000000E+00
  0.00000000E+00  0.00000000E+00  0.00000000E+00
  0.00000000E+00  0.00000000E+00  0.00000000E+00
  0.00000000E+00  0.00000000E+00  0.00000000E+00
  0.00000000E+00  0.00000000E+00  0.00000000E+00
  0.00000000E+00  0.00000000E+00  0.00000000E+00
  0.00000000E+00  0.00000000E+00  0.00000000E+00
  0.00000000E+00  0.00000000E+00  0.00000000E+00
  0.00000000E+00  0.00000000E+00  0.00000000E+00
  0.00000000E+00  0.00000000E+00  0.00000000E+00
  0.00000000E+00  0.00000000E+00  0.00000000E+00
  0.00000000E+00  0.00000000E+00  0.00000000E+00
  0.00000000E+00  0.00000000E+00  0.00000000E+00
  0.00000000E+00  0.00000000E+00  0.00000000E+00
  0.00000000E+00  0.00000000E+00  0.00000000E+00
  0.00000000E+00  0.00000000E+00  0.00000000E+00
  0.00000000E+00  0.00000000E+00  0.00000000E+00
  0.00000000E+00  0.00000000E+00  0.00000000E+00
  0.00000000E+00  0.00000000E+00  0.00000000E+00
  0.00000000E+00  0.00000000E+00  0.00000000E+00
  0.00000000E+00  0.00000000E+00  0.00000000E+00
  0.00000000E+00  0.00000000E+00  0.00000000E+00
  0.00000000E+00  0.00000000E+00  0.00000000E+00
  0.00000000E+00  0.00000000E+00  0.00000000E+00
  0.00000000E+00  0.00000000E+00  0.00000000E+00
  0.00000000E+00  0.00000000E+00  0.00000000E+00
  0.00000000E+00  0.00000000E+00  0.00000000E+00
  0.00000000E+00  0.00000000E+00  0.00000000E+00
  0.00000000E+00  0.00000000E+00  0.00000000E+00
  0.00000000E+00  0.00000000E+00  0.00000000E+00
  0.00000000E+00  0.00000000E+00  0.00000000E+00
  0.00000000E+00  0.00000000E+00  0.00000000E+00
  0.00000000E+00  0.00000000E+00  0.00000000E+00
  0.00000000E+00  0.00000000E+00  0.00000000E+00
  0.00000000E+00  0.00000000E+00  0.00000000E+00
  0.00000000E+00  0.00000000E+00  0.00000000E+00
  0.00000000E+00  0.00000000E+00  0.00000000E+00
  0.00000000E+00  0.00000000E+00  0.00000000E+00
  0.00000000E+00  0.00000000E+00  0.00000000E+00
  0.00000000E+00  0.00000000E+00  0.00000000E+00
  0.00000000E+00  0.00000000E+00  0.00000000E+00
  0.00000000E+00  0.00000000E+00  0.00000000E+00
  0.00000000E+00  0.00000000E+00  0.00000000E+00
  0.00000000E+00  0.00000000E+00  0.00000000E+00
  0.00000000E+00  0.00000000E+00  0.00000000E+00
  0.00000000E+00  0.00000000E+00  0.00000000E+00
  0.00000000E+00  0.00000000E+00  0.00000000E+00
  0.00000000E+00  0.00000000E+00  0.00000000E+00
  0.00000000E+00  0.00000000E+00  0.00000000E+00
  0.00000000E+00  0.00000000E+00  0.00000000E+00
  0.00000000E+00  0.00000000E+00  0.00000000E+00
  0.00000000E+00  0.00000000E+00  0.00000000E+00
  0.00000000E+00  0.00000000E+00  0.00000000E+00
  0.00000000E+00  0.00000000E+00  0.00000000E+00
  0.00000000E+00  0.00000000E+00  0.00000000E+00
  0.00000000E+00  0.00000000E+00  0.00000000E+00
  0.00000000E+00  0.00000000E+00  0.00000000E+00
  0.00000000E+00  0.00000000E+00  0.00000000E+00
  0.00000000E+00  0.00000000E+00  0.00000000E+00
  0.00000000E+00  0.00000000E+00  0.00000000E+00
  0.00000000E+00  0.00000000E+00  0.00000000E+00
  0.00000000E+00  0.00000000E+00  0.00000000E+00
  0.00000000E+00  0.00000000E+00  0.00000000E+00
  0.00000000E+00  0.00000000E+00  0.00000000E+00
  0.00000000E+00  0.00000000E+00  0.00000000E+00
  0.00000000E+00  0.00000000E+00  0.00000000E+00
  0.00000000E+00  0.00000000E+00  0.00000000E+00
  0.00000000E+00  0.00000000E+00  0.00000000E+00
  0.00000000E+00  0.00000000E+00  0.00000000E+00
  0.00000000E+00  0.00000000E+00  0.00000000E+00
  0.00000000E+00  0.00000000E+00  0.00000000E+00
  0.00000000E+00  0.00000000E+00  0.00000000E+00
