supercell of icsd_181358.cif            
   1.00000000000000     
     9.6955447397529326    0.0029025064446255   -0.0056977264682964
    -4.8452587540721197    8.3922171438562945   -0.0000000977045743
    -0.0062715548749571   -0.0036210315103689   10.4120141470952596
   N    Ga   La
    36    34     2
Direct
  0.2395832324096503  0.1520365171730589  0.4256644943834473
  0.0915877331324708  0.1896959799389535  0.1753891366160474
  0.8844411169374595  0.1096489662968807  0.9355845889731143
  0.7765359470004825  0.2216013816753417  0.6863950641388286
  0.5522539071554746  0.1094605896307499  0.4381316739834276
  0.4478344681549444  0.2247431751662390  0.1867001283170922
  0.2258712164748502  0.1124039957272984  0.9440229847195241
  0.1091190899704984  0.2174585108197817  0.6977505972961779
  0.8901318803481004  0.1110505942777067  0.4397870804083865
  0.7787454577964681  0.2227060672264116  0.1895829545758829
  0.5560259931387037  0.1113465130204645  0.9370508642131057
  0.4427850390736907  0.2210674182326215  0.6874045012171663
  0.2228085694868014  0.4447371085235048  0.4769689494177598
  0.0915880974457082  0.5685573631223022  0.1753896880373844
  0.8844408277203897  0.4414588852671102  0.9355843759548463
  0.7782698554701781  0.5568791314739059  0.6882387317992169
  0.5555576990469149  0.4461952251332377  0.4387810475901475
  0.4793276639628914  0.5729969400366954  0.1780808891172327
  0.2229778962327487  0.4448225432776240  0.9438075653108413
  0.1091193304971156  0.5583273871647165  0.6977500374347301
  0.8901323149320888  0.4457486367189247  0.4397873286393263
  0.7764933680891914  0.5524923362654519  0.1864491453914567
  0.5572324942775779  0.4428525323622168  0.9358219654663742
  0.4484726406415760  0.5575695792518900  0.6961829052928934
  0.2395842391210223  0.7542138855011018  0.4256642666133459
  0.1111429339708891  0.8889043592611898  0.1969201192988805
  0.8863079016598974  0.7764876920996286  0.9458204780506705
  0.7782698019753624  0.8880573651517452  0.6882388792411902
  0.5555578534802521  0.7760294594794033  0.4387813727678207
  0.4478349032053757  0.8897580886345864  0.1866999736299988
  0.2258706652916587  0.7801336890687907  0.9440232902514083
  0.1100148996241401  0.8883409338980215  0.7159275120459014
  0.8553456156494121  0.7610062042393082  0.4276807432613694
  0.7764931359968301  0.8906674178617848  0.1864495843968896
  0.5572325890904466  0.7810472875178220  0.9358222369875620
  0.4427849685181897  0.8883844393779299  0.6874050192051584
  0.2245097695650315  0.1141609565087691  0.2412882987875307
  0.1057682518079801  0.2159999644206465  0.9934839157735524
  0.8853610793013118  0.1090734636054833  0.7494194566343353
  0.7766872100067346  0.2216770180284371  0.4984517718531549
  0.5558261471353774  0.1112466963575471  0.2488751487036467
  0.4477436896456837  0.2238175168685288  0.9992947885139216
  0.2240189338194796  0.1112619725616710  0.7586354533229098
  0.1110359554837572  0.2249304014202522  0.5103106378126228
  0.8848644053146728  0.1050524155618291  0.2490091912448165
  0.7770846577981274  0.2218752740747334  0.9993083462230885
  0.5549095802134048  0.1107885884022295  0.7480158290857801
  0.4480939590504533  0.2299161896906554  0.4978724619469048
  0.1057675564107257  0.5564339618643359  0.9934843982433108
  0.8853618075659639  0.4429551334180530  0.7494190409450070
  0.7720226430413817  0.5523857631278233  0.4992651703458364
  0.5624276201987399  0.4471056692828128  0.2493607256277812
  0.4528392588349988  0.5597531148979584  0.9939688474418773
  0.2228541392101988  0.4447609258770200  0.7498937549558633
  0.1110373359564178  0.5527725411075863  0.5103102055096116
  0.8848647034726511  0.4464792281784753  0.2490096513047675
  0.7763471835949147  0.5527487751260622  0.0000620849465349
  0.5570139762007500  0.4434232145310730  0.7498452059030356
  0.4482338861711455  0.5574502078730319  0.5091923156426645
  0.2245107459299760  0.7770152103830128  0.2412880033372815
  0.1113944114282504  0.8890302579155858  0.0016704514255750
  0.8865860413445148  0.7766265929639005  0.7578424569855855
  0.7720226303497526  0.8863030974630348  0.4992651920481563
  0.5624267560640419  0.7819883369382126  0.2493611206150419
  0.4477427995633150  0.8905922648349573  0.9992946894177379
  0.2240183772233308  0.7794238699742735  0.7586358127182393
  0.8795507197996244  0.7731086961337823  0.2427362047030854
  0.7763470796615124  0.8902651083656039  0.0000626751018302
  0.5570140118646094  0.7802578896392873  0.7498456036174446
  0.4480940519822880  0.8848443139432547  0.4978731740017253
  0.2232213922910660  0.4449436722749596  0.2521251330224601
  0.1146218857183499  0.8906434965107195  0.4904826081927212
 
  0.00000000E+00  0.00000000E+00  0.00000000E+00
  0.00000000E+00  0.00000000E+00  0.00000000E+00
  0.00000000E+00  0.00000000E+00  0.00000000E+00
  0.00000000E+00  0.00000000E+00  0.00000000E+00
  0.00000000E+00  0.00000000E+00  0.00000000E+00
  0.00000000E+00  0.00000000E+00  0.00000000E+00
  0.00000000E+00  0.00000000E+00  0.00000000E+00
  0.00000000E+00  0.00000000E+00  0.00000000E+00
  0.00000000E+00  0.00000000E+00  0.00000000E+00
  0.00000000E+00  0.00000000E+00  0.00000000E+00
  0.00000000E+00  0.00000000E+00  0.00000000E+00
  0.00000000E+00  0.00000000E+00  0.00000000E+00
  0.00000000E+00  0.00000000E+00  0.00000000E+00
  0.00000000E+00  0.00000000E+00  0.00000000E+00
  0.00000000E+00  0.00000000E+00  0.00000000E+00
  0.00000000E+00  0.00000000E+00  0.00000000E+00
  0.00000000E+00  0.00000000E+00  0.00000000E+00
  0.00000000E+00  0.00000000E+00  0.00000000E+00
  0.00000000E+00  0.00000000E+00  0.00000000E+00
  0.00000000E+00  0.00000000E+00  0.00000000E+00
  0.00000000E+00  0.00000000E+00  0.00000000E+00
  0.00000000E+00  0.00000000E+00  0.00000000E+00
  0.00000000E+00  0.00000000E+00  0.00000000E+00
  0.00000000E+00  0.00000000E+00  0.00000000E+00
  0.00000000E+00  0.00000000E+00  0.00000000E+00
  0.00000000E+00  0.00000000E+00  0.00000000E+00
  0.00000000E+00  0.00000000E+00  0.00000000E+00
  0.00000000E+00  0.00000000E+00  0.00000000E+00
  0.00000000E+00  0.00000000E+00  0.00000000E+00
  0.00000000E+00  0.00000000E+00  0.00000000E+00
  0.00000000E+00  0.00000000E+00  0.00000000E+00
  0.00000000E+00  0.00000000E+00  0.00000000E+00
  0.00000000E+00  0.00000000E+00  0.00000000E+00
  0.00000000E+00  0.00000000E+00  0.00000000E+00
  0.00000000E+00  0.00000000E+00  0.00000000E+00
  0.00000000E+00  0.00000000E+00  0.00000000E+00
  0.00000000E+00  0.00000000E+00  0.00000000E+00
  0.00000000E+00  0.00000000E+00  0.00000000E+00
  0.00000000E+00  0.00000000E+00  0.00000000E+00
  0.00000000E+00  0.00000000E+00  0.00000000E+00
  0.00000000E+00  0.00000000E+00  0.00000000E+00
  0.00000000E+00  0.00000000E+00  0.00000000E+00
  0.00000000E+00  0.00000000E+00  0.00000000E+00
  0.00000000E+00  0.00000000E+00  0.00000000E+00
  0.00000000E+00  0.00000000E+00  0.00000000E+00
  0.00000000E+00  0.00000000E+00  0.00000000E+00
  0.00000000E+00  0.00000000E+00  0.00000000E+00
  0.00000000E+00  0.00000000E+00  0.00000000E+00
  0.00000000E+00  0.00000000E+00  0.00000000E+00
  0.00000000E+00  0.00000000E+00  0.00000000E+00
  0.00000000E+00  0.00000000E+00  0.00000000E+00
  0.00000000E+00  0.00000000E+00  0.00000000E+00
  0.00000000E+00  0.00000000E+00  0.00000000E+00
  0.00000000E+00  0.00000000E+00  0.00000000E+00
  0.00000000E+00  0.00000000E+00  0.00000000E+00
  0.00000000E+00  0.00000000E+00  0.00000000E+00
  0.00000000E+00  0.00000000E+00  0.00000000E+00
  0.00000000E+00  0.00000000E+00  0.00000000E+00
  0.00000000E+00  0.00000000E+00  0.00000000E+00
  0.00000000E+00  0.00000000E+00  0.00000000E+00
  0.00000000E+00  0.00000000E+00  0.00000000E+00
  0.00000000E+00  0.00000000E+00  0.00000000E+00
  0.00000000E+00  0.00000000E+00  0.00000000E+00
  0.00000000E+00  0.00000000E+00  0.00000000E+00
  0.00000000E+00  0.00000000E+00  0.00000000E+00
  0.00000000E+00  0.00000000E+00  0.00000000E+00
  0.00000000E+00  0.00000000E+00  0.00000000E+00
  0.00000000E+00  0.00000000E+00  0.00000000E+00
  0.00000000E+00  0.00000000E+00  0.00000000E+00
  0.00000000E+00  0.00000000E+00  0.00000000E+00
  0.00000000E+00  0.00000000E+00  0.00000000E+00
  0.00000000E+00  0.00000000E+00  0.00000000E+00
