supercell of icsd_191774.cif            
   1.00000000000000     
    11.0128078296003018    0.0008388369088355   -0.0042085065759011
    -5.5056828527166584    9.5023043644876850    0.0037375692830112
    -0.0047181925481562    0.0021235868023232   11.2976004024766805
   N    In   Y 
    36    22    14
Direct
  0.2131336513508728  0.1090924861914786  0.4466452062225699
  0.1126901273709464  0.2231342721406406  0.1936707003326390
  0.8901614326129490  0.1095309644671829  0.9455714927077139
  0.7826736165303956  0.2296152045229789  0.6852937661258949
  0.5586760085216724  0.1083429480846476  0.4490635073038618
  0.4407596130283338  0.2192679350048934  0.2026755066104258
  0.2171507732895464  0.1151098494594649  0.9401054212808404
  0.1116899111423990  0.2326248692968136  0.6847016602588951
  0.8887077754851092  0.1099897977244453  0.4403747994122256
  0.7891461604087553  0.2284528717521042  0.1922042949218294
  0.5615694591579938  0.1131740201761886  0.9485358353074744
  0.4494120373784583  0.2294537152109868  0.6941822637799362
  0.2249169516752687  0.4455630385509792  0.4373272960593368
  0.1123640638913059  0.5580101136775681  0.1918656877144329
  0.8970211250225972  0.4367848321193648  0.9400029044424301
  0.7752287919520811  0.5480980898561754  0.7031203989524712
  0.5543283177214207  0.4518431207444280  0.4408465240965782
  0.4365853326854108  0.5616530762294758  0.1868661295104559
  0.2222648030099990  0.4433975518864628  0.9407161459327114
  0.1057577705730353  0.5425676433004938  0.6849903621935454
  0.8935952683860080  0.4401511944336249  0.4382736022099465
  0.7830518234465984  0.5554424774323508  0.1942026782070556
  0.5527234873109919  0.4478226679211019  0.9475521563290741
  0.4429988069857131  0.5543572889058410  0.6919035614814533
  0.2212893532219482  0.7767386027843202  0.4496992786041005
  0.1177315325454700  0.8917346684433767  0.1981065129248094
  0.8866890658931936  0.7805412647619008  0.9481203206462396
  0.7692410629965067  0.8895556514764849  0.6865613029123026
  0.5536384206444254  0.7756697806589585  0.4409208009522629
  0.4380191594033249  0.8821213573638431  0.1940881416186997
  0.2175518682905704  0.7685396905238093  0.9357994921203243
  0.1085977404386824  0.8903611544056389  0.6935902018081137
  0.8869122669173777  0.7789693330589742  0.4504431875914037
  0.7704237486619547  0.8932559491915839  0.1938350551318351
  0.5618288203540160  0.7728325881331060  0.9374058054081686
  0.4492130910250651  0.8857655978879464  0.6936563192930123
  0.2205564717564314  0.1114054504829767  0.2519587511655175
  0.1085711808973500  0.2259002264930103  0.4938094303469569
  0.7836978283650922  0.2209305058203057  0.0004105671407686
  0.1099937152317523  0.2234758728550190  0.0003412569180838
  0.8918435804913969  0.1145926006659508  0.2465726722453425
  0.7827120999510484  0.2221855999255382  0.4950174807324359
  0.2210396138971831  0.4470718554902646  0.2455002724146311
  0.1108236825340825  0.5483973870257586  0.4944183258983088
  0.8923513982000131  0.4407252344565293  0.7479588319171810
  0.4425499125446350  0.5562380641694986  0.4986973990795960
  0.2222841681544026  0.4448754885624524  0.7470047493311114
  0.1133735031490133  0.5525307181024459  0.9981863920411911
  0.8945698993745310  0.4462898739195751  0.2462337265576124
  0.5531973961956282  0.4456954833780173  0.7512180629146243
  0.4419968832523864  0.5565101161444304  0.9949170373940746
  0.2227928256305489  0.7769174983125566  0.2533076180070140
  0.1076879171050678  0.8890020828303307  0.4988205872323093
  0.7765333862585138  0.8892882793213275  0.0005161182341311
  0.5498643816117266  0.7774114315572902  0.2487808651086922
  0.4472216388594603  0.8863335907226642  0.4995974838166077
  0.7740653425010748  0.8895667547553927  0.4958847401231310
  0.5556916472011011  0.7740764814518002  0.7455760433128589
  0.8897688631425424  0.1156595432197989  0.7443167888994964
  0.5612394516109376  0.1088261718370163  0.2475017575540690
  0.4430857558427590  0.2240866344726982  0.4929539895611796
  0.2219546561481280  0.1200968709248258  0.7406618718582294
  0.5618842840539244  0.1155244259862300  0.7437534752233645
  0.4398979776367753  0.2218835742692420  0.9995016324265507
  0.7818318770382717  0.5515186207390173  0.9916476873466422
  0.5527723038514480  0.4516876168076607  0.2428753488366269
  0.7785405350886663  0.5506417690835761  0.5004490587985586
  0.8820932004533191  0.7784015377789970  0.7463313823324214
  0.2184271536583609  0.7689843045039950  0.7357506979519428
  0.1132647772368713  0.8900149121609218  0.9973142936056689
  0.8902655850751984  0.7837494104625762  0.2489892152984083
  0.4438118666699964  0.8799383435305970  0.9941060679695966
 
  0.00000000E+00  0.00000000E+00  0.00000000E+00
  0.00000000E+00  0.00000000E+00  0.00000000E+00
  0.00000000E+00  0.00000000E+00  0.00000000E+00
  0.00000000E+00  0.00000000E+00  0.00000000E+00
  0.00000000E+00  0.00000000E+00  0.00000000E+00
  0.00000000E+00  0.00000000E+00  0.00000000E+00
  0.00000000E+00  0.00000000E+00  0.00000000E+00
  0.00000000E+00  0.00000000E+00  0.00000000E+00
  0.00000000E+00  0.00000000E+00  0.00000000E+00
  0.00000000E+00  0.00000000E+00  0.00000000E+00
  0.00000000E+00  0.00000000E+00  0.00000000E+00
  0.00000000E+00  0.00000000E+00  0.00000000E+00
  0.00000000E+00  0.00000000E+00  0.00000000E+00
  0.00000000E+00  0.00000000E+00  0.00000000E+00
  0.00000000E+00  0.00000000E+00  0.00000000E+00
  0.00000000E+00  0.00000000E+00  0.00000000E+00
  0.00000000E+00  0.00000000E+00  0.00000000E+00
  0.00000000E+00  0.00000000E+00  0.00000000E+00
  0.00000000E+00  0.00000000E+00  0.00000000E+00
  0.00000000E+00  0.00000000E+00  0.00000000E+00
  0.00000000E+00  0.00000000E+00  0.00000000E+00
  0.00000000E+00  0.00000000E+00  0.00000000E+00
  0.00000000E+00  0.00000000E+00  0.00000000E+00
  0.00000000E+00  0.00000000E+00  0.00000000E+00
  0.00000000E+00  0.00000000E+00  0.00000000E+00
  0.00000000E+00  0.00000000E+00  0.00000000E+00
  0.00000000E+00  0.00000000E+00  0.00000000E+00
  0.00000000E+00  0.00000000E+00  0.00000000E+00
  0.00000000E+00  0.00000000E+00  0.00000000E+00
  0.00000000E+00  0.00000000E+00  0.00000000E+00
  0.00000000E+00  0.00000000E+00  0.00000000E+00
  0.00000000E+00  0.00000000E+00  0.00000000E+00
  0.00000000E+00  0.00000000E+00  0.00000000E+00
  0.00000000E+00  0.00000000E+00  0.00000000E+00
  0.00000000E+00  0.00000000E+00  0.00000000E+00
  0.00000000E+00  0.00000000E+00  0.00000000E+00
  0.00000000E+00  0.00000000E+00  0.00000000E+00
  0.00000000E+00  0.00000000E+00  0.00000000E+00
  0.00000000E+00  0.00000000E+00  0.00000000E+00
  0.00000000E+00  0.00000000E+00  0.00000000E+00
  0.00000000E+00  0.00000000E+00  0.00000000E+00
  0.00000000E+00  0.00000000E+00  0.00000000E+00
  0.00000000E+00  0.00000000E+00  0.00000000E+00
  0.00000000E+00  0.00000000E+00  0.00000000E+00
  0.00000000E+00  0.00000000E+00  0.00000000E+00
  0.00000000E+00  0.00000000E+00  0.00000000E+00
  0.00000000E+00  0.00000000E+00  0.00000000E+00
  0.00000000E+00  0.00000000E+00  0.00000000E+00
  0.00000000E+00  0.00000000E+00  0.00000000E+00
  0.00000000E+00  0.00000000E+00  0.00000000E+00
  0.00000000E+00  0.00000000E+00  0.00000000E+00
  0.00000000E+00  0.00000000E+00  0.00000000E+00
  0.00000000E+00  0.00000000E+00  0.00000000E+00
  0.00000000E+00  0.00000000E+00  0.00000000E+00
  0.00000000E+00  0.00000000E+00  0.00000000E+00
  0.00000000E+00  0.00000000E+00  0.00000000E+00
  0.00000000E+00  0.00000000E+00  0.00000000E+00
  0.00000000E+00  0.00000000E+00  0.00000000E+00
  0.00000000E+00  0.00000000E+00  0.00000000E+00
  0.00000000E+00  0.00000000E+00  0.00000000E+00
  0.00000000E+00  0.00000000E+00  0.00000000E+00
  0.00000000E+00  0.00000000E+00  0.00000000E+00
  0.00000000E+00  0.00000000E+00  0.00000000E+00
  0.00000000E+00  0.00000000E+00  0.00000000E+00
  0.00000000E+00  0.00000000E+00  0.00000000E+00
  0.00000000E+00  0.00000000E+00  0.00000000E+00
  0.00000000E+00  0.00000000E+00  0.00000000E+00
  0.00000000E+00  0.00000000E+00  0.00000000E+00
  0.00000000E+00  0.00000000E+00  0.00000000E+00
  0.00000000E+00  0.00000000E+00  0.00000000E+00
  0.00000000E+00  0.00000000E+00  0.00000000E+00
  0.00000000E+00  0.00000000E+00  0.00000000E+00
