supercell of icsd_608626.cif            
   1.12951035736429     
     9.6803914307295589   -0.1146381081077195   -0.0052557304784099
    -4.9477499545557588    7.8999642048976444   -0.0190633270964030
    -0.0071737218878965   -0.0264078851556886    9.4036291161558978
   Al   La   N 
    22    14    36
Direct
  0.1931787717821436  0.0970441205137362  0.2699264163395583
  0.1084811081385482  0.2499403670104030  0.4775275863675432
  0.8127393158589769  0.2079526042017719  0.0114152835028349
  0.0062705898239699  0.0366560825851039  0.0225857953668509
  0.8793688033311469  0.0999221040371125  0.2499746175917181
  0.8075430093896685  0.2330631631201641  0.4812725867990224
  0.2455528401378118  0.5228680178786220  0.2448647464443638
  0.1296174085459683  0.5426873638403080  0.4904026430091051
  0.9321493868695185  0.4542461639597093  0.7454842538280602
  0.4492681278499546  0.5699805843891426  0.4941619141789957
  0.2360420740840468  0.4719899205844911  0.7326561244866738
  0.1161198650577902  0.5225334874398868  0.9813594240253138
  0.9283031497560046  0.4458740137782797  0.2407002877447866
  0.5079140315972666  0.4588575149113581  0.7622401008940898
  0.4291076240835210  0.5614846913504365  0.9801782535596999
  0.2593653744751307  0.8203017779861099  0.3230190257413952
  0.0751857269616423  0.9267641993810543  0.4740181972453215
  0.7333167053615028  0.8689646937251112  0.0119171397428985
  0.5321892896123543  0.7914391513035426  0.2614865727714601
  0.4802934444164748  0.8875838119526591  0.5111043228224261
  0.7675690622843021  0.8966040696036970  0.5025646047259826
  0.5641306006807980  0.7805595156346286  0.7382442400009595
  0.9051088167596788  0.1523530092112537  0.7410856408754043
  0.5925337815931471  0.1358291933681812  0.2354301266080228
  0.4263990039525467  0.2136949926803098  0.4790903057000691
  0.2236484812538961  0.1487439054524415  0.7341017925908062
  0.5929788898594168  0.1497397267923546  0.7409915499417110
  0.3914335967587732  0.1844797127492370  0.9980452678785028
  0.7620834066852638  0.4923855851309611  0.9661369519244616
  0.5445858659262655  0.4733980089612260  0.2262470566085213
  0.7944548276674794  0.5422549170994841  0.5167857068628123
  0.9048870213822795  0.8188857221945440  0.7690478992934402
  0.2210318575151646  0.7842485316365355  0.7066886459317629
  0.0796591856766327  0.7864760991002910  0.0735688981844973
  0.8604619741137256  0.7945419774446592  0.2479755808271449
  0.4319511532150031  0.8474830991870306  0.9959722534931572
  0.1844575386283438  0.1353657439334270  0.4394362793863067
  0.0329747675066514  0.0780809127722719  0.1923637196038541
  0.8663419862682034  0.0705774304544349  0.9587435465225127
  0.8097804279481551  0.2817523474710200  0.6492043276989818
  0.5897964380979985  0.1026995206376711  0.4615515552602432
  0.3913026027936013  0.2126155783316008  0.2160340073126861
  0.1510374267048249  0.0328949441198461  0.9385860338515215
  0.1340535696025356  0.2781427873328894  0.6529434811468704
  0.8908566285728341  0.1168691792882086  0.4371939020575084
  0.8414095452896220  0.2409116773061868  0.1862165154045243
  0.6018303429830922  0.1419518192191305  0.9837463967457722
  0.4790038545357120  0.2842664690836401  0.6988135445632011
  0.2351057920727371  0.4596456042754582  0.4140395405086750
  0.1135846748019702  0.5497868740652336  0.1652156149515989
  0.9212727781664398  0.3893059398742480  0.9155918927122002
  0.8510956832896710  0.5754620061479088  0.7454722806452097
  0.5474966240981516  0.4746761050258286  0.4387877340591544
  0.4222160315720487  0.5995213620955653  0.1633279494843265
  0.2502918336406168  0.4894021881675030  0.9082132342835294
  0.1122179346616576  0.5295500610802080  0.6679644637891613
  0.9340596717584404  0.4407983207902930  0.4184198940300163
  0.8150767844506461  0.5330015830423847  0.1890794778869704
  0.5099173886114698  0.4465422319850063  0.9378405906179452
  0.4435931947447429  0.5689497170351245  0.6767826675179123
  0.2719616760477024  0.7555270370463276  0.4749524467152995
  0.1386728956061987  0.8900686315813928  0.3063631424152149
  0.8616960812395007  0.7987996847134085  0.0068496178656900
  0.7538042294613234  0.8925168127107952  0.6761021947204711
  0.5621355514506661  0.7800786683043270  0.4387954121231559
  0.4170283463920512  0.8746092819619591  0.2235026206553599
  0.1862164084641122  0.7301026621704452  0.9342237497103199
  0.1243825504946443  0.9229953916608977  0.6377535250732365
  0.8713029583819605  0.8016999856998197  0.4693400222400612
  0.7123394752529606  0.9028297404031278  0.1876710572350362
  0.5681527929071208  0.7573469696922857  0.9150333822181835
  0.4786093410438639  0.8888228303243935  0.6935723650779764
 
  0.00000000E+00  0.00000000E+00  0.00000000E+00
  0.00000000E+00  0.00000000E+00  0.00000000E+00
  0.00000000E+00  0.00000000E+00  0.00000000E+00
  0.00000000E+00  0.00000000E+00  0.00000000E+00
  0.00000000E+00  0.00000000E+00  0.00000000E+00
  0.00000000E+00  0.00000000E+00  0.00000000E+00
  0.00000000E+00  0.00000000E+00  0.00000000E+00
  0.00000000E+00  0.00000000E+00  0.00000000E+00
  0.00000000E+00  0.00000000E+00  0.00000000E+00
  0.00000000E+00  0.00000000E+00  0.00000000E+00
  0.00000000E+00  0.00000000E+00  0.00000000E+00
  0.00000000E+00  0.00000000E+00  0.00000000E+00
  0.00000000E+00  0.00000000E+00  0.00000000E+00
  0.00000000E+00  0.00000000E+00  0.00000000E+00
  0.00000000E+00  0.00000000E+00  0.00000000E+00
  0.00000000E+00  0.00000000E+00  0.00000000E+00
  0.00000000E+00  0.00000000E+00  0.00000000E+00
  0.00000000E+00  0.00000000E+00  0.00000000E+00
  0.00000000E+00  0.00000000E+00  0.00000000E+00
  0.00000000E+00  0.00000000E+00  0.00000000E+00
  0.00000000E+00  0.00000000E+00  0.00000000E+00
  0.00000000E+00  0.00000000E+00  0.00000000E+00
  0.00000000E+00  0.00000000E+00  0.00000000E+00
  0.00000000E+00  0.00000000E+00  0.00000000E+00
  0.00000000E+00  0.00000000E+00  0.00000000E+00
  0.00000000E+00  0.00000000E+00  0.00000000E+00
  0.00000000E+00  0.00000000E+00  0.00000000E+00
  0.00000000E+00  0.00000000E+00  0.00000000E+00
  0.00000000E+00  0.00000000E+00  0.00000000E+00
  0.00000000E+00  0.00000000E+00  0.00000000E+00
  0.00000000E+00  0.00000000E+00  0.00000000E+00
  0.00000000E+00  0.00000000E+00  0.00000000E+00
  0.00000000E+00  0.00000000E+00  0.00000000E+00
  0.00000000E+00  0.00000000E+00  0.00000000E+00
  0.00000000E+00  0.00000000E+00  0.00000000E+00
  0.00000000E+00  0.00000000E+00  0.00000000E+00
  0.00000000E+00  0.00000000E+00  0.00000000E+00
  0.00000000E+00  0.00000000E+00  0.00000000E+00
  0.00000000E+00  0.00000000E+00  0.00000000E+00
  0.00000000E+00  0.00000000E+00  0.00000000E+00
  0.00000000E+00  0.00000000E+00  0.00000000E+00
  0.00000000E+00  0.00000000E+00  0.00000000E+00
  0.00000000E+00  0.00000000E+00  0.00000000E+00
  0.00000000E+00  0.00000000E+00  0.00000000E+00
  0.00000000E+00  0.00000000E+00  0.00000000E+00
  0.00000000E+00  0.00000000E+00  0.00000000E+00
  0.00000000E+00  0.00000000E+00  0.00000000E+00
  0.00000000E+00  0.00000000E+00  0.00000000E+00
  0.00000000E+00  0.00000000E+00  0.00000000E+00
  0.00000000E+00  0.00000000E+00  0.00000000E+00
  0.00000000E+00  0.00000000E+00  0.00000000E+00
  0.00000000E+00  0.00000000E+00  0.00000000E+00
  0.00000000E+00  0.00000000E+00  0.00000000E+00
  0.00000000E+00  0.00000000E+00  0.00000000E+00
  0.00000000E+00  0.00000000E+00  0.00000000E+00
  0.00000000E+00  0.00000000E+00  0.00000000E+00
  0.00000000E+00  0.00000000E+00  0.00000000E+00
  0.00000000E+00  0.00000000E+00  0.00000000E+00
  0.00000000E+00  0.00000000E+00  0.00000000E+00
  0.00000000E+00  0.00000000E+00  0.00000000E+00
  0.00000000E+00  0.00000000E+00  0.00000000E+00
  0.00000000E+00  0.00000000E+00  0.00000000E+00
  0.00000000E+00  0.00000000E+00  0.00000000E+00
  0.00000000E+00  0.00000000E+00  0.00000000E+00
  0.00000000E+00  0.00000000E+00  0.00000000E+00
  0.00000000E+00  0.00000000E+00  0.00000000E+00
  0.00000000E+00  0.00000000E+00  0.00000000E+00
  0.00000000E+00  0.00000000E+00  0.00000000E+00
  0.00000000E+00  0.00000000E+00  0.00000000E+00
  0.00000000E+00  0.00000000E+00  0.00000000E+00
  0.00000000E+00  0.00000000E+00  0.00000000E+00
  0.00000000E+00  0.00000000E+00  0.00000000E+00
