generated by phonopy                    
   1.00000000000000     
    10.0351470768999995   -0.0000022330999784   -0.0000001056124209
    -5.0175765436399997    8.6906901959899994    0.0000001395531216
    -0.0000001735893656    0.0000001431815548   14.9533752540999991
   Pb   P    O 
    20    13    49
Direct
  0.9959777853837011  0.7368774702324927  0.1280156111483066
  0.9987224685856120  0.7732624650335325  0.6262984572502646
  0.0023650558807944  0.2612308831154806  0.3812529499308184
  0.9989709185016906  0.2615344252107548  0.8693693587390428
  0.2631451233032749  0.2586160021130439  0.1277030451129662
  0.2265938385447015  0.2251046554424434  0.6260174578964524
  0.7387594223181040  0.7406381542201004  0.3816812792143622
  0.7382466490719324  0.7374112011222564  0.8696689665480264
  0.7412658502888334  0.0040964786752724  0.1277263685618877
  0.7747676613005794  0.0012291244765166  0.6258373354087539
  0.2591909220550264  0.9974689493803481  0.3817350483848614
  0.2623028188535841  0.0008957392449673  0.8697346774776094
  0.6672567476907858  0.3334176657467509  0.9965747871308395
  0.6670052457741420  0.3332327104597326  0.5047261983710953
  0.3326894736945505  0.6663584795649129  0.0020544462019529
  0.3326806846834955  0.6661874399568148  0.5058624373370790
  0.3340398911676843  0.6666615207027391  0.2475904771713644
  0.3339381380907156  0.6668676567039000  0.7451851376225989
  0.6661558623600357  0.3328921792136228  0.2553664163716576
  0.6664024339443273  0.3331791223154141  0.7469436324510141
  0.6249516039125780  0.5998019743406218  0.1248984771558668
  0.6252212588473398  0.5967817919138625  0.6245605407796546
  0.3708548985207756  0.3960406071672296  0.3720528137663948
  0.3719175394302141  0.3968064157236952  0.8792896644448120
  0.4002474380735421  0.0250501836016639  0.1250901185220243
  0.4030179874608280  0.0281080915558078  0.6247371961109351
  0.6041070164849884  0.9747124117454575  0.3718259659956686
  0.6027638273019349  0.9745480946629002  0.8790881797420198
  0.9749954549994300  0.3748899466895139  0.1250034903745956
  0.9717727700306256  0.3746313268871972  0.6246454201560994
  0.0251941094519736  0.6289540378621581  0.3719743924165329
  0.0251570565802339  0.6279900868839050  0.8792647075938049
  0.9998574987622888  0.9997976704814633  0.9977728590322315
  0.5147590767441201  0.6678176342613256  0.1249935786447480
  0.5037873800173145  0.6501607163557068  0.6243309828831869
  0.4736578429627443  0.3204635434598373  0.3724264029011977
  0.4778514831422740  0.3243640365956253  0.8788409303498881
  0.3321578137985384  0.8468514906375759  0.1250874727556095
  0.3496326023174561  0.8532891586240083  0.6245688121658048
  0.6796158182561669  0.1530956436407322  0.3719923401795100
  0.6752384355961709  0.1529224399372850  0.8785345814396806
  0.1531971822741198  0.4850711549616946  0.1248958344984104
  0.1465716029045510  0.4961265853390842  0.6245133079209282
  0.8468070949364872  0.5261746278131980  0.3723542646634996
  0.8468405166221658  0.5218144878698610  0.8788465922216488
  0.7219569893920976  0.6368660851969707  0.0372795110353934
  0.7318550324428514  0.6573916951312029  0.5397617551511260
  0.2553957557737263  0.3388998176182128  0.4524050006063902
  0.2829359682111203  0.3711134632668873  0.9692616595335863
  0.3623192754413935  0.0848250613238193  0.0376993826415344
  0.3422951346823098  0.0740418270364813  0.5399578663509317
  0.6622941266922595  0.9170439509979573  0.4519628704260725
  0.6292725678616833  0.9115459935156096  0.9689245593703646
  0.9147149951464399  0.2780295228329805  0.0373335495586744
  0.9257183179582924  0.2681924006601406  0.5397782287023318
  0.0835627498374265  0.7442706732840918  0.4524247432979180
  0.0884214010752373  0.7167182302266610  0.9693177897449843
  0.2723415750580642  0.3609267903690281  0.2847101885253025
  0.2506451829475296  0.3288768115548351  0.8019967160025843
  0.7394252380281827  0.6611508268914363  0.2057183903774700
  0.7343283920004424  0.6614087160782987  0.7082396693951338
  0.6382966606657519  0.9108700422474101  0.2843490740319652
  0.6699269704916588  0.9208044949629226  0.8015724968004250
  0.3396653187582501  0.0782454390409200  0.2062522411653660
  0.3384515033218420  0.0726303837160742  0.7084332887388314
  0.0887642298727016  0.7277284060626386  0.2847440922433506
  0.0781813755297520  0.7494738718176777  0.8021402725768709
  0.9223362508880868  0.2602413594326904  0.2057436953789420
  0.9274004051645619  0.2653189631949431  0.7082305724408826
  0.5271123720872311  0.4177226690917877  0.1331989865847376
  0.5453364097712381  0.4166339594226329  0.6258377996542777
  0.4750556369844858  0.5774016537615054  0.3794925506504754
  0.4725235370552809  0.5773228771033985  0.8645690888624813
  0.5824347394341558  0.1094794313248286  0.1328604161695210
  0.5831574575619385  0.1283447729546694  0.6259208505762928
  0.4228766056186686  0.8975861446342392  0.3798618789916262
  0.4221213548566496  0.8946588277633012  0.8648534897034565
  0.8906492127066770  0.4726027670029183  0.1336278765060968
  0.8715045200129268  0.4545003786484187  0.6260737229849980
  0.1022215038876411  0.5246360128616558  0.3793596645422994
  0.1052677749998594  0.5276048855037487  0.8643797011375582
  0.0000063134387176  0.9997739011833104  0.6231392756749443
 
  0.00000000E+00  0.00000000E+00  0.00000000E+00
  0.00000000E+00  0.00000000E+00  0.00000000E+00
  0.00000000E+00  0.00000000E+00  0.00000000E+00
  0.00000000E+00  0.00000000E+00  0.00000000E+00
  0.00000000E+00  0.00000000E+00  0.00000000E+00
  0.00000000E+00  0.00000000E+00  0.00000000E+00
  0.00000000E+00  0.00000000E+00  0.00000000E+00
  0.00000000E+00  0.00000000E+00  0.00000000E+00
  0.00000000E+00  0.00000000E+00  0.00000000E+00
  0.00000000E+00  0.00000000E+00  0.00000000E+00
  0.00000000E+00  0.00000000E+00  0.00000000E+00
  0.00000000E+00  0.00000000E+00  0.00000000E+00
  0.00000000E+00  0.00000000E+00  0.00000000E+00
  0.00000000E+00  0.00000000E+00  0.00000000E+00
  0.00000000E+00  0.00000000E+00  0.00000000E+00
  0.00000000E+00  0.00000000E+00  0.00000000E+00
  0.00000000E+00  0.00000000E+00  0.00000000E+00
  0.00000000E+00  0.00000000E+00  0.00000000E+00
  0.00000000E+00  0.00000000E+00  0.00000000E+00
  0.00000000E+00  0.00000000E+00  0.00000000E+00
  0.00000000E+00  0.00000000E+00  0.00000000E+00
  0.00000000E+00  0.00000000E+00  0.00000000E+00
  0.00000000E+00  0.00000000E+00  0.00000000E+00
  0.00000000E+00  0.00000000E+00  0.00000000E+00
  0.00000000E+00  0.00000000E+00  0.00000000E+00
  0.00000000E+00  0.00000000E+00  0.00000000E+00
  0.00000000E+00  0.00000000E+00  0.00000000E+00
  0.00000000E+00  0.00000000E+00  0.00000000E+00
  0.00000000E+00  0.00000000E+00  0.00000000E+00
  0.00000000E+00  0.00000000E+00  0.00000000E+00
  0.00000000E+00  0.00000000E+00  0.00000000E+00
  0.00000000E+00  0.00000000E+00  0.00000000E+00
  0.00000000E+00  0.00000000E+00  0.00000000E+00
  0.00000000E+00  0.00000000E+00  0.00000000E+00
  0.00000000E+00  0.00000000E+00  0.00000000E+00
  0.00000000E+00  0.00000000E+00  0.00000000E+00
  0.00000000E+00  0.00000000E+00  0.00000000E+00
  0.00000000E+00  0.00000000E+00  0.00000000E+00
  0.00000000E+00  0.00000000E+00  0.00000000E+00
  0.00000000E+00  0.00000000E+00  0.00000000E+00
  0.00000000E+00  0.00000000E+00  0.00000000E+00
  0.00000000E+00  0.00000000E+00  0.00000000E+00
  0.00000000E+00  0.00000000E+00  0.00000000E+00
  0.00000000E+00  0.00000000E+00  0.00000000E+00
  0.00000000E+00  0.00000000E+00  0.00000000E+00
  0.00000000E+00  0.00000000E+00  0.00000000E+00
  0.00000000E+00  0.00000000E+00  0.00000000E+00
  0.00000000E+00  0.00000000E+00  0.00000000E+00
  0.00000000E+00  0.00000000E+00  0.00000000E+00
  0.00000000E+00  0.00000000E+00  0.00000000E+00
  0.00000000E+00  0.00000000E+00  0.00000000E+00
  0.00000000E+00  0.00000000E+00  0.00000000E+00
  0.00000000E+00  0.00000000E+00  0.00000000E+00
  0.00000000E+00  0.00000000E+00  0.00000000E+00
  0.00000000E+00  0.00000000E+00  0.00000000E+00
  0.00000000E+00  0.00000000E+00  0.00000000E+00
  0.00000000E+00  0.00000000E+00  0.00000000E+00
  0.00000000E+00  0.00000000E+00  0.00000000E+00
  0.00000000E+00  0.00000000E+00  0.00000000E+00
  0.00000000E+00  0.00000000E+00  0.00000000E+00
  0.00000000E+00  0.00000000E+00  0.00000000E+00
  0.00000000E+00  0.00000000E+00  0.00000000E+00
  0.00000000E+00  0.00000000E+00  0.00000000E+00
  0.00000000E+00  0.00000000E+00  0.00000000E+00
  0.00000000E+00  0.00000000E+00  0.00000000E+00
  0.00000000E+00  0.00000000E+00  0.00000000E+00
  0.00000000E+00  0.00000000E+00  0.00000000E+00
  0.00000000E+00  0.00000000E+00  0.00000000E+00
  0.00000000E+00  0.00000000E+00  0.00000000E+00
  0.00000000E+00  0.00000000E+00  0.00000000E+00
  0.00000000E+00  0.00000000E+00  0.00000000E+00
  0.00000000E+00  0.00000000E+00  0.00000000E+00
  0.00000000E+00  0.00000000E+00  0.00000000E+00
  0.00000000E+00  0.00000000E+00  0.00000000E+00
  0.00000000E+00  0.00000000E+00  0.00000000E+00
  0.00000000E+00  0.00000000E+00  0.00000000E+00
  0.00000000E+00  0.00000000E+00  0.00000000E+00
  0.00000000E+00  0.00000000E+00  0.00000000E+00
  0.00000000E+00  0.00000000E+00  0.00000000E+00
  0.00000000E+00  0.00000000E+00  0.00000000E+00
  0.00000000E+00  0.00000000E+00  0.00000000E+00
  0.00000000E+00  0.00000000E+00  0.00000000E+00
