Al   Hf   Mg   N                        
   1.00000000000000     
    -9.7579471403893727   -0.0046841937512592   -0.0079589645933674
    -4.8756277223518287    8.4383606349849902   -0.0031282130914344
    -0.0095675511670674   -0.0033655374444318  -10.1376803798618393
   Al   Hf   Mg   N 
    26     5     5    36
Direct
  0.1023316851373890  0.1021552315065108  0.3963653347457863
  0.2124474330318011  0.2093811864578853  0.1406962738462199
  0.7767198190132611  0.1003379197336504  0.8993369512219652
  0.8964881127686447  0.2067075954330704  0.6454440970721169
  0.5617133569840620  0.1981579813246049  0.1364720058551245
  0.1089793334249262  0.1025129726398157  0.8955733821339961
  0.2134459800399167  0.2079590333581086  0.6473650347875860
  0.7913993101626865  0.0941285321044428  0.3939195246378483
  0.0973118464006886  0.4266264495049967  0.3954911289841339
  0.2154164761667734  0.5330956895975194  0.1377775484945753
  0.7791179075426459  0.4291941980079660  0.8963426396825210
  0.8882325581808928  0.5395740835356758  0.6468169510963698
  0.1057295304809344  0.4226750333983707  0.8939162459565473
  0.2192209017443436  0.5323764511548039  0.6476210622776023
  0.7885368961267960  0.4245632959738650  0.3986393952283470
  0.8892045688615546  0.5352705857517713  0.1430220094101047
  0.4496293016203969  0.4269701375692399  0.9084118126211481
  0.2293164029298068  0.8810923985302710  0.1416715524751503
  0.7729535343010351  0.7573225564461125  0.8945781917876986
  0.8819963716354634  0.8704655540080322  0.6486662420178717
  0.4502284733790557  0.7604877898663240  0.3982782813904712
  0.5574664433088981  0.8652048899246501  0.1398544495582259
  0.2295412596781035  0.8805213432481053  0.6454928496378327
  0.8786656337928148  0.8770155997779450  0.1415395865535222
  0.4508902828764172  0.7600718785186409  0.8970838408401044
  0.5580798160608978  0.8638628315862796  0.6502321073626488
  0.4413034688094406  0.0876151767276180  0.3716406095493979
  0.5567381642854478  0.2049133776559722  0.6462438338552552
  0.4476853662778455  0.4317138219157499  0.3711200305499787
  0.1065921286633321  0.7670648206397557  0.3937199149673478
  0.1118527923211895  0.7631689619475251  0.8869754186516690
  0.8898970669895363  0.2080213626381116  0.1421432415355210
  0.4382637162537190  0.0910525507488097  0.9044232930032350
  0.5647785922320108  0.5444025889026408  0.1319048202910816
  0.5585386189578896  0.5443775450214740  0.6468368372497243
  0.7793058409695055  0.7520993339886790  0.3928283560257219
  0.1999238411120310  0.2151340861961438  0.3328795507208173
  0.1236881532612526  0.0891899159981384  0.0805729484274717
  0.8898860761432604  0.2028794607451183  0.8360651358565844
  0.7947777027317107  0.0847456624243914  0.5851684126095209
  0.5801222391705937  0.1930522468346101  0.3358437996981928
  0.4415802025814582  0.0955402587681314  0.1198667108650893
  0.2071906271164719  0.2138053746647206  0.8322867425446252
  0.1126521720075113  0.0937573503226082  0.5858239457346602
  0.8898064428827354  0.2062246893659408  0.3486473476111465
  0.7723698158940022  0.0869673094517639  0.0825582843347023
  0.5593556062897829  0.2141612119966411  0.8484624584283822
  0.4363969502608903  0.0879876637125466  0.5868542214987503
  0.2043794448968801  0.5347798950326408  0.3279182872220334
  0.1098158978197604  0.4272350439529413  0.0820817555366636
  0.8911331880616588  0.5405494636735771  0.8351308533071657
  0.7952554606206426  0.4199026858514514  0.5880934454063785
  0.5689950628111176  0.5465520348852284  0.3465676997165024
  0.4363150048431618  0.4207907072421653  0.1024741413824382
  0.2314372509464242  0.5212584854439581  0.8379173800713955
  0.1104359114192448  0.4282231410698746  0.5853653332479284
  0.8953868434778652  0.5248218922762343  0.3308253356295868
  0.7912619564922883  0.4321532392722394  0.0768517309335392
  0.5520521800323580  0.5386652601221369  0.8543408782380325
  0.4270001890846546  0.4353001912599888  0.5780993608716769
  0.2292093049814830  0.8809908830870328  0.3347240613928153
  0.1118747282654992  0.7618113125052638  0.0962597414545998
  0.8723813407354767  0.8817254766056922  0.8370655022830856
  0.7773275156468604  0.7614514213894924  0.5973940639813117
  0.5545011755364800  0.8567622589816780  0.3268553586675766
  0.4362490946637064  0.7777528782955306  0.0811789511894858
  0.2300946035376925  0.8820975524452920  0.8331077723008826
  0.1103725073345076  0.7608198872209859  0.6067594904781964
  0.8814346775283063  0.8863722128091620  0.3297689020800854
  0.7794794983260492  0.7598178663740848  0.0862153788298786
  0.5621732621200825  0.8590999010223028  0.8363238364619673
  0.4370760727378267  0.7767927954790466  0.5832109155746774
 
             NaN             NaN             NaN
             NaN             NaN             NaN
             NaN             NaN             NaN
             NaN             NaN             NaN
             NaN             NaN             NaN
             NaN             NaN             NaN
             NaN             NaN             NaN
             NaN             NaN             NaN
             NaN             NaN             NaN
             NaN             NaN             NaN
             NaN             NaN             NaN
             NaN             NaN             NaN
             NaN             NaN             NaN
             NaN             NaN             NaN
             NaN             NaN             NaN
             NaN             NaN             NaN
             NaN             NaN             NaN
             NaN             NaN             NaN
             NaN             NaN             NaN
             NaN             NaN             NaN
             NaN             NaN             NaN
             NaN             NaN             NaN
             NaN             NaN             NaN
             NaN             NaN             NaN
             NaN             NaN             NaN
             NaN             NaN             NaN
             NaN             NaN             NaN
             NaN             NaN             NaN
             NaN             NaN             NaN
             NaN             NaN             NaN
             NaN             NaN             NaN
             NaN             NaN             NaN
             NaN             NaN             NaN
             NaN             NaN             NaN
             NaN             NaN             NaN
             NaN             NaN             NaN
             NaN             NaN             NaN
             NaN             NaN             NaN
             NaN             NaN             NaN
             NaN             NaN             NaN
             NaN             NaN             NaN
             NaN             NaN             NaN
             NaN             NaN             NaN
             NaN             NaN             NaN
             NaN             NaN             NaN
             NaN             NaN             NaN
             NaN             NaN             NaN
             NaN             NaN             NaN
             NaN             NaN             NaN
             NaN             NaN             NaN
             NaN             NaN             NaN
             NaN             NaN             NaN
             NaN             NaN             NaN
             NaN             NaN             NaN
             NaN             NaN             NaN
             NaN             NaN             NaN
             NaN             NaN             NaN
             NaN             NaN             NaN
             NaN             NaN             NaN
             NaN             NaN             NaN
             NaN             NaN             NaN
             NaN             NaN             NaN
             NaN             NaN             NaN
             NaN             NaN             NaN
             NaN             NaN             NaN
             NaN             NaN             NaN
             NaN             NaN             NaN
             NaN             NaN             NaN
             NaN             NaN             NaN
             NaN             NaN             NaN
             NaN             NaN             NaN
             NaN             NaN             NaN
