Al   Hf   Mg   N                        
   1.00000000000000     
    -9.8803089578863066   -0.0062977542390659   -0.0076385716531953
    -4.9483266032971462    8.5463336581682192   -0.0038025452468859
    -0.0195063885588510    0.0227714655599189   -9.9343790461567050
   Al   Hf   Mg   N 
    26     5     5    36
Direct
  0.1067450647820820  0.0997411966102758  0.3780233791818530
  0.2126206922340058  0.2106606603834984  0.1284121957291601
  0.7882448047188301  0.0980666018724941  0.8264114642975005
  0.8882534485902301  0.2099439141493815  0.5714137872438594
  0.5614987503391059  0.1952571527260993  0.0694294453284478
  0.1116997833770141  0.1010929198176152  0.8856053020579616
  0.2091400826176123  0.2079455311980234  0.6360090707581638
  0.7864062954624341  0.0932240502261332  0.3169417728775010
  0.1013275234564127  0.4243783906216883  0.3863307562315830
  0.2163326097807082  0.5312960610901610  0.1246720119924432
  0.7834075151541062  0.4206632009446113  0.8234631320877335
  0.8909073914277572  0.5373133453144435  0.6265407649375089
  0.1049151183128685  0.4229483122373825  0.8819791697620439
  0.2185410839805094  0.5317462264441457  0.6357733461024351
  0.7854058272482384  0.4243756734984887  0.3133807631770213
  0.8937933500592218  0.5396508723920738  0.1344517587457633
  0.4479012403847765  0.4300455662009754  0.8914108955069664
  0.2323939895445336  0.8800710490391224  0.1286889834861979
  0.7745636798412808  0.7584824442381539  0.8413146846104298
  0.8813170911426654  0.8779194830873961  0.5788727732729351
  0.4491907570451816  0.7614162677708247  0.3852988907687854
  0.5597093376629095  0.8638818702323250  0.1286030934966815
  0.2272751372787396  0.8846695782569819  0.6321547499390970
  0.8752041720744901  0.8751296960644163  0.0728688827100298
  0.4512718279136734  0.7610170565678503  0.8838160161046290
  0.5501367794178331  0.8690981453303480  0.6349492329384551
  0.4409731667884119  0.0909199962114354  0.3561345887293337
  0.5513098255111462  0.2070024849027777  0.6179244675856200
  0.4522304273965866  0.4253785963494574  0.3528631272538766
  0.1175879273727878  0.7607165400985569  0.3771911477731943
  0.1159269188510001  0.7615576676452647  0.8667380689367465
  0.8877652830100183  0.2061034806505746  0.0788709902557537
  0.4331643207231903  0.0871240157572099  0.8836735542115686
  0.5621163518305384  0.5449604481859558  0.1024772920891524
  0.5510531236651647  0.5475940800607563  0.6239962549923644
  0.7795486824030791  0.7563780259418482  0.3594723741927747
  0.1997676631174191  0.2163532218715972  0.3221365005444073
  0.1294972709509485  0.0869700052514192  0.0753145207663237
  0.8920556962096029  0.2037086794367171  0.8669658544325752
  0.7966960989791152  0.0871584872590487  0.6333927624049940
  0.5837035966529974  0.1887242719571596  0.3886407133796639
  0.4438739449512888  0.0966076019102195  0.1083903288272460
  0.2043689460100313  0.2150245493101269  0.8239220535895251
  0.1127184886427706  0.0942649285636725  0.5720534672985382
  0.8833720265478465  0.2074359014771012  0.3717079972826879
  0.7694025286343611  0.0848569348137119  0.1280173372848818
  0.5629184396951171  0.2094232946100121  0.8556580376715892
  0.4287722875565221  0.0892476129389953  0.5797406138615137
  0.2084950378722030  0.5283766539709203  0.3178021043726201
  0.1099084790404762  0.4272449271495801  0.0726245366806682
  0.8946093106971710  0.5396162927101754  0.8263637217166597
  0.7910853540344644  0.4172444318020322  0.6261460169480791
  0.5624731342681042  0.5490688066206949  0.3401305524511044
  0.4379840059482968  0.4174096886324108  0.0932693293083207
  0.2325597161295377  0.5191661850215231  0.8294595180259331
  0.1123041818784075  0.4262934562496929  0.5777529976835524
  0.8986195668394483  0.5271401180138293  0.3367412826144761
  0.7913759912557072  0.4293727340136835  0.1229623698698025
  0.5523775863100516  0.5395411039391468  0.8485661763081108
  0.4209203051859808  0.4418009820011307  0.5687656976428804
  0.2297829837280418  0.8828238024543742  0.3231709170483944
  0.1151858025223040  0.7600179944792609  0.0867472856957849
  0.8733158041456947  0.8825713712561273  0.8735696967928441
  0.7760657251361961  0.7656077033533643  0.6091432751772663
  0.5504632159084423  0.8612198240827764  0.3211592088261410
  0.4378110661055802  0.7789877566346394  0.0709019181613128
  0.2306964211982779  0.8841999172775332  0.8235094733164431
  0.1133022042672383  0.7593959964518335  0.6002536559966007
  0.8848443148310773  0.8892028058812764  0.3832792110559624
  0.7791506471875917  0.7576496862276494  0.0971955788142902
  0.5585384673580608  0.8601782361231547  0.8245285401143131
  0.4335686149639423  0.7792211650426862  0.5730003971193259
 
             NaN             NaN             NaN
             NaN             NaN             NaN
             NaN             NaN             NaN
             NaN             NaN             NaN
             NaN             NaN             NaN
             NaN             NaN             NaN
             NaN             NaN             NaN
             NaN             NaN             NaN
             NaN             NaN             NaN
             NaN             NaN             NaN
             NaN             NaN             NaN
             NaN             NaN             NaN
             NaN             NaN             NaN
             NaN             NaN             NaN
             NaN             NaN             NaN
             NaN             NaN             NaN
             NaN             NaN             NaN
             NaN             NaN             NaN
             NaN             NaN             NaN
             NaN             NaN             NaN
             NaN             NaN             NaN
             NaN             NaN             NaN
             NaN             NaN             NaN
             NaN             NaN             NaN
             NaN             NaN             NaN
             NaN             NaN             NaN
             NaN             NaN             NaN
             NaN             NaN             NaN
             NaN             NaN             NaN
             NaN             NaN             NaN
             NaN             NaN             NaN
             NaN             NaN             NaN
             NaN             NaN             NaN
             NaN             NaN             NaN
             NaN             NaN             NaN
             NaN             NaN             NaN
             NaN             NaN             NaN
             NaN             NaN             NaN
             NaN             NaN             NaN
             NaN             NaN             NaN
             NaN             NaN             NaN
             NaN             NaN             NaN
             NaN             NaN             NaN
             NaN             NaN             NaN
             NaN             NaN             NaN
             NaN             NaN             NaN
             NaN             NaN             NaN
             NaN             NaN             NaN
             NaN             NaN             NaN
             NaN             NaN             NaN
             NaN             NaN             NaN
             NaN             NaN             NaN
             NaN             NaN             NaN
             NaN             NaN             NaN
             NaN             NaN             NaN
             NaN             NaN             NaN
             NaN             NaN             NaN
             NaN             NaN             NaN
             NaN             NaN             NaN
             NaN             NaN             NaN
             NaN             NaN             NaN
             NaN             NaN             NaN
             NaN             NaN             NaN
             NaN             NaN             NaN
             NaN             NaN             NaN
             NaN             NaN             NaN
             NaN             NaN             NaN
             NaN             NaN             NaN
             NaN             NaN             NaN
             NaN             NaN             NaN
             NaN             NaN             NaN
             NaN             NaN             NaN
