Al   Hf   Mg   N                        
   1.00000000000000     
    -9.8749095460982765   -0.0062843356647701   -0.0076875647443898
    -4.9477094119528138    8.5405902786734416   -0.0041369813567013
    -0.0217661859483515    0.0238608424802944   -9.9441268121944102
   Al   Hf   Mg   N 
    26     5     5    36
Direct
  0.1067951128294025  0.0998669035787211  0.3780844453201294
  0.2126517243289984  0.2107502381858189  0.1286070048513180
  0.7883019457536486  0.0978603318320677  0.8258747760254427
  0.8881392119157666  0.2106663599938736  0.5714231617602225
  0.5612807519777094  0.1952859773887049  0.0692404748156044
  0.1116845970178505  0.1011697003655381  0.8854581320419810
  0.2089000635268839  0.2082204155797459  0.6355816513814501
  0.7864809360207513  0.0933134926123393  0.3171628101037481
  0.1004527410810071  0.4251868393883290  0.3859289142243648
  0.2164386730456206  0.5311953230170028  0.1248818853505626
  0.7830712973096263  0.4205391723214658  0.8241352438989236
  0.8896825967957950  0.5400682199236984  0.6309410187508566
  0.1052802901683894  0.4227832790794563  0.8820569568031135
  0.2182712703569252  0.5317557976834540  0.6354697064180460
  0.7855289626274239  0.4247416918472953  0.3117597760014248
  0.8937093120165887  0.5396218331582430  0.1338224428943041
  0.4476646599094442  0.4299716077034935  0.8911677516450571
  0.2321819051836236  0.8802166532287441  0.1287425254229252
  0.7728399957814105  0.7565307886256754  0.8662009682040530
  0.8811243464419589  0.8773804480399514  0.5794929633800859
  0.4499106184779775  0.7614752034963200  0.3850707495193278
  0.5589342298502737  0.8641196035387326  0.1279891570065014
  0.2277865999284870  0.8847979245293170  0.6318832254417622
  0.8768021883193108  0.8759313823242194  0.0732489332168916
  0.4507570636527355  0.7612310220964099  0.8833747177913737
  0.5535478618817207  0.8669998225555895  0.6360625899977623
  0.4415895405526933  0.0900310746447986  0.3564401226634062
  0.5512217305604387  0.2068652698150259  0.6178780986425995
  0.4523761775011231  0.4254143980387798  0.3530935174247544
  0.1177530883335209  0.7607961094816856  0.3774754197350083
  0.1158750237166762  0.7616154059367173  0.8659277403488903
  0.8876548413121810  0.2059471473471069  0.0784384484202522
  0.4330875381625562  0.0870915756117465  0.8831157667993815
  0.5614098466145193  0.5450248533766192  0.1019727615050955
  0.5514075933834157  0.5476367078286251  0.6238734143031825
  0.7783143584966518  0.7545091232000284  0.3732320719615923
  0.2000253546294688  0.2164691426354692  0.3222763432357572
  0.1294281066872408  0.0871488204052489  0.0751316755039570
  0.8920350389385351  0.2034522684226211  0.8669125384591356
  0.7966716380829332  0.0872569743616643  0.6329468268355956
  0.5835153409838358  0.1885957233560777  0.3885182703768091
  0.4437848724092361  0.0965190980647855  0.1080948993494474
  0.2042159679937257  0.2151460242144231  0.8234126820854735
  0.1126480227071892  0.0943646281760825  0.5717907952280578
  0.8832024457620297  0.2082244182113473  0.3715326634192900
  0.7691299904165494  0.0848632999399171  0.1284493031547954
  0.5629051426499677  0.2093172202950480  0.8555384608912856
  0.4291775192269535  0.0886298285897762  0.5797307302268249
  0.2087746071411234  0.5283822590972059  0.3177608981737179
  0.1100787176556906  0.4272785420136595  0.0722988718228257
  0.8940658607361763  0.5407247176850816  0.8276524316964876
  0.7916074563186356  0.4177600948469643  0.6269612702588873
  0.5629357430651027  0.5489984157586703  0.3399330032205065
  0.4378856158273323  0.4173867115971194  0.0929678066500272
  0.2324953893533582  0.5189567496731008  0.8290212615763629
  0.1107964689478711  0.4272991957106527  0.5774557577917206
  0.8990834405695917  0.5285376531780489  0.3310829247812478
  0.7907486248979956  0.4296048085131863  0.1212806302348412
  0.5519362768010939  0.5396824138723775  0.8484216156163521
  0.4209202230041764  0.4418736816494410  0.5686038603748351
  0.2302152797674386  0.8829241202850034  0.3230533165320638
  0.1149370946933672  0.7599885275169784  0.0866905174098074
  0.8738906358000215  0.8829962717971596  0.8733470367858344
  0.7753371884345105  0.7643729812055740  0.5987048719344065
  0.5527031471775680  0.8598747144119752  0.3189531400426829
  0.4373484433372041  0.7790374675764650  0.0703772510713794
  0.2307337175811094  0.8844341471314598  0.8231068503245650
  0.1133136804069716  0.7595254195321580  0.6003257108746521
  0.8852151234739838  0.8889653771788225  0.3819632893394133
  0.7773630911250454  0.7570393870753690  0.0820164358149764
  0.5601590009737935  0.8591215997212790  0.8249576356847735
  0.4342713437494983  0.7795333298325235  0.5727609176044370
 
             NaN             NaN             NaN
             NaN             NaN             NaN
             NaN             NaN             NaN
             NaN             NaN             NaN
             NaN             NaN             NaN
             NaN             NaN             NaN
             NaN             NaN             NaN
             NaN             NaN             NaN
             NaN             NaN             NaN
             NaN             NaN             NaN
             NaN             NaN             NaN
             NaN             NaN             NaN
             NaN             NaN             NaN
             NaN             NaN             NaN
             NaN             NaN             NaN
             NaN             NaN             NaN
             NaN             NaN             NaN
             NaN             NaN             NaN
             NaN             NaN             NaN
             NaN             NaN             NaN
             NaN             NaN             NaN
             NaN             NaN             NaN
             NaN             NaN             NaN
             NaN             NaN             NaN
             NaN             NaN             NaN
             NaN             NaN             NaN
             NaN             NaN             NaN
             NaN             NaN             NaN
             NaN             NaN             NaN
             NaN             NaN             NaN
             NaN             NaN             NaN
             NaN             NaN             NaN
             NaN             NaN             NaN
             NaN             NaN             NaN
             NaN             NaN             NaN
             NaN             NaN             NaN
             NaN             NaN             NaN
             NaN             NaN             NaN
             NaN             NaN             NaN
             NaN             NaN             NaN
             NaN             NaN             NaN
             NaN             NaN             NaN
             NaN             NaN             NaN
             NaN             NaN             NaN
             NaN             NaN             NaN
             NaN             NaN             NaN
             NaN             NaN             NaN
             NaN             NaN             NaN
             NaN             NaN             NaN
             NaN             NaN             NaN
             NaN             NaN             NaN
             NaN             NaN             NaN
             NaN             NaN             NaN
             NaN             NaN             NaN
             NaN             NaN             NaN
             NaN             NaN             NaN
             NaN             NaN             NaN
             NaN             NaN             NaN
             NaN             NaN             NaN
             NaN             NaN             NaN
             NaN             NaN             NaN
             NaN             NaN             NaN
             NaN             NaN             NaN
             NaN             NaN             NaN
             NaN             NaN             NaN
             NaN             NaN             NaN
             NaN             NaN             NaN
             NaN             NaN             NaN
             NaN             NaN             NaN
             NaN             NaN             NaN
             NaN             NaN             NaN
             NaN             NaN             NaN
