Al   Hf   Mg   N                        
   1.00000000000000     
    -9.8190626720956669   -0.0053061909675696   -0.0080091916269420
    -4.9259871906063495    8.4921980268011907   -0.0046633202346801
    -0.0250766006809821   -0.0318764244125691  -10.0140125349217044
   Al   Hf   Mg   N 
    26     5     5    36
Direct
  0.0997978015772859  0.1027424377572647  0.3930326470320899
  0.2145475808636461  0.2099416517955701  0.1402690733761962
  0.7822461019307186  0.0989948608878450  0.8703795181768016
  0.8974633206429768  0.2072758315445145  0.6487031606735291
  0.5536745422831205  0.2005595173859175  0.0784985513544540
  0.1126578519694895  0.1021877550237731  0.8950770316820361
  0.2122610779212854  0.2082885730384334  0.6442532814908202
  0.7825622382948070  0.0990727764818103  0.3158067706225662
  0.0974576296335874  0.4267454485902629  0.3941683587414498
  0.2150142097917659  0.5332762509978878  0.1375134957843962
  0.7789453041663744  0.4328644223406434  0.8949486548159892
  0.8887923767345203  0.5389657870140141  0.6440797893301479
  0.1054827730754818  0.4229732660171572  0.8925632894927372
  0.2181508647124078  0.5330090862549108  0.6454719549509128
  0.7883778328907758  0.4219814719300317  0.3963587989137455
  0.8888185586113416  0.5363253259920748  0.1440135654590449
  0.4456810672972155  0.4340418497949783  0.9023306622608833
  0.2302052165741688  0.8808197263570131  0.1412768258552078
  0.7737196381803761  0.7533212916260760  0.8943532539979254
  0.8815689924819806  0.8695520082539960  0.6541915544518897
  0.4497025820838639  0.7599033188622061  0.3959659140680920
  0.5576287854583230  0.8645687331659841  0.1381736177034419
  0.2292348720922881  0.8824172988787938  0.6429351799544752
  0.8825950655521936  0.8682138341263025  0.1327002855812142
  0.4511549735413080  0.7592886946939799  0.8952177856684842
  0.5581438350232327  0.8628823517355523  0.6479160135928369
  0.4427843151640966  0.0872458856476604  0.3707311151841756
  0.5567690696246952  0.2052535493914836  0.6333126491212036
  0.4484298283801062  0.4291162281775678  0.3697502333206817
  0.1032692576561909  0.7693222435581459  0.3934987331107441
  0.1162337606361665  0.7613857750882866  0.8836811020613101
  0.8955726773301705  0.2143736498440633  0.1274355758186418
  0.4332762527750277  0.0849563348605424  0.8927244736574300
  0.5635578031078886  0.5451345849285176  0.1315018848065248
  0.5584851765338742  0.5449026354518814  0.6418471194333405
  0.7788176981824856  0.7530061465765265  0.3914553029215704
  0.2007635283014816  0.2149452948326382  0.3337267292992326
  0.1292664362810794  0.0879750514658656  0.0809879634554931
  0.8947359664333692  0.2080149718571708  0.8448767048046139
  0.7961903991113836  0.0861951013982491  0.6383400768651751
  0.5826372883882501  0.1901072107019811  0.3883001839113864
  0.4432419628451664  0.0954179060801612  0.1170894379613283
  0.2055253232843386  0.2154998801524655  0.8309731812332851
  0.1108200418213541  0.0950058134008397  0.5845101288426928
  0.8894276255155008  0.2056728166755956  0.3407844175823790
  0.7707217630047467  0.0902133194680562  0.1051103635911682
  0.5568531751689894  0.2125975532236620  0.8654679410182701
  0.4344061468437319  0.0854037825644824  0.5904687301957939
  0.2035109832759906  0.5358999663962701  0.3294336003990035
  0.1097774776548361  0.4274580580864341  0.0827577288019088
  0.8921391883583251  0.5397846964616785  0.8340822613938842
  0.7966722209727448  0.4182832601094114  0.5881188532204471
  0.5684860968258212  0.5449914637536132  0.3470737789965947
  0.4351756136121435  0.4222280407934907  0.1018070166101596
  0.2310105676844069  0.5206781994850316  0.8376554747259454
  0.1106312882320311  0.4281804549080170  0.5852512427226595
  0.8948069744272384  0.5243691237291829  0.3328284532355324
  0.7878420781786645  0.4391506005821129  0.0767625618180923
  0.5522266390202331  0.5393170624395111  0.8519383671050892
  0.4237806922955145  0.4422346652560814  0.5804952100546393
  0.2278423644460530  0.8806034728597261  0.3351433703056884
  0.1145161397891586  0.7602375609521120  0.0947921251745652
  0.8765140934782705  0.8738658297285385  0.8494588408074316
  0.7781812333767295  0.7617563838825224  0.5986122851235188
  0.5539860699079981  0.8567089915531064  0.3268007896070460
  0.4364044146187302  0.7773417954691003  0.0812937963262045
  0.2311046287728251  0.8839730386037997  0.8325953510630389
  0.1081253648456520  0.7620638483881035  0.6097403255883214
  0.8820530191637633  0.8815183998304386  0.3243794350056714
  0.7782275810271106  0.7576574410610262  0.0860794063331323
  0.5642713311730010  0.8548674864927454  0.8359680632372473
  0.4368479290627304  0.7770260315565729  0.5825244125495884
 
             NaN             NaN             NaN
             NaN             NaN             NaN
             NaN             NaN             NaN
             NaN             NaN             NaN
             NaN             NaN             NaN
             NaN             NaN             NaN
             NaN             NaN             NaN
             NaN             NaN             NaN
             NaN             NaN             NaN
             NaN             NaN             NaN
             NaN             NaN             NaN
             NaN             NaN             NaN
             NaN             NaN             NaN
             NaN             NaN             NaN
             NaN             NaN             NaN
             NaN             NaN             NaN
             NaN             NaN             NaN
             NaN             NaN             NaN
             NaN             NaN             NaN
             NaN             NaN             NaN
             NaN             NaN             NaN
             NaN             NaN             NaN
             NaN             NaN             NaN
             NaN             NaN             NaN
             NaN             NaN             NaN
             NaN             NaN             NaN
             NaN             NaN             NaN
             NaN             NaN             NaN
             NaN             NaN             NaN
             NaN             NaN             NaN
             NaN             NaN             NaN
             NaN             NaN             NaN
             NaN             NaN             NaN
             NaN             NaN             NaN
             NaN             NaN             NaN
             NaN             NaN             NaN
             NaN             NaN             NaN
             NaN             NaN             NaN
             NaN             NaN             NaN
             NaN             NaN             NaN
             NaN             NaN             NaN
             NaN             NaN             NaN
             NaN             NaN             NaN
             NaN             NaN             NaN
             NaN             NaN             NaN
             NaN             NaN             NaN
             NaN             NaN             NaN
             NaN             NaN             NaN
             NaN             NaN             NaN
             NaN             NaN             NaN
             NaN             NaN             NaN
             NaN             NaN             NaN
             NaN             NaN             NaN
             NaN             NaN             NaN
             NaN             NaN             NaN
             NaN             NaN             NaN
             NaN             NaN             NaN
             NaN             NaN             NaN
             NaN             NaN             NaN
             NaN             NaN             NaN
             NaN             NaN             NaN
             NaN             NaN             NaN
             NaN             NaN             NaN
             NaN             NaN             NaN
             NaN             NaN             NaN
             NaN             NaN             NaN
             NaN             NaN             NaN
             NaN             NaN             NaN
             NaN             NaN             NaN
             NaN             NaN             NaN
             NaN             NaN             NaN
             NaN             NaN             NaN
