Al   Hf   Mg   N 
   1.00000000000000     
  -9.8021443344760399  -0.0063809268085256  -0.0314511685793466
  -4.8707557353807003   8.4673362148967293  -0.0335031232385070
  -0.0045989948238753  -0.0219511586345668 -10.1463126002562998
Al   Hf   Mg   N 
26  5  5  36  
Direct
  0.1034258468865232  0.1003037323426028  0.3202450901401050  
  0.2116157607035376  0.2107347968712432  0.0731037766040927  
  0.7864708045984017  0.0987896377564113  0.8266695544113389  
  0.8959197550247140  0.2064270679148947  0.5726605691053521  
  0.5600539777768390  0.2036202774045321  0.0649028368433875  
  0.1046839439743295  0.1059009355901708  0.8201162061975040  
  0.2092607780063744  0.2096975968216626  0.5720386139358951  
  0.7851757556771304  0.0962533826947833  0.3194645939373757  
  0.0960280449486888  0.4284770572391778  0.3202728317661965  
  0.2249907195501066  0.5258391999917720  0.0692650708634943  
  0.7850113911900038  0.4226909769507117  0.8206141377354896  
  0.8915765789508256  0.5339044154747228  0.5737741956922022  
  0.1074465800294533  0.4213490177067882  0.8231987427329628  
  0.2127657749716931  0.5369510498031502  0.5784770154374783  
  0.7860939967900578  0.4299832096297536  0.3206888332140494  
  0.8867921877485685  0.5415895961333703  0.0706328967369316  
  0.4466942809172210  0.4302090090782329  0.8243085988274785  
  0.2257454729498249  0.8850378397713925  0.0671589324401651  
  0.7793175643094514  0.7548120408391199  0.8217460220724320  
  0.8893242125522960  0.8704886581594806  0.5730554590170200  
  0.4498386297048285  0.7613233973595399  0.3970738632691280  
  0.5567081457297576  0.8626107795930551  0.1307018114561203  
  0.2181536488107412  0.8822693661303518  0.5763620617563703  
  0.8703179238902692  0.8791178333350302  0.0690982695802660  
  0.4551209587374387  0.7591986003536135  0.8832670495805814  
  0.5498708974601385  0.8689046657291328  0.6394398011322835  
  0.4379390960407719  0.0961695484468095  0.3394930009618875  
  0.5600267151667992  0.1979854173154507  0.6036632779461897  
  0.4502760627344102  0.4300608759910816  0.3293993449654593  
  0.1061129950576785  0.7664450592554459  0.3166473532351546  
  0.1105652956230117  0.7618657993570537  0.8339990428270099  
  0.8918490436574658  0.2077778838851430  0.0759474838287062  
  0.4402432638634366  0.0886060612415562  0.8726532158458227  
  0.5682056203036225  0.5325897011401182  0.0739876023006332  
  0.5625461607976305  0.5409575821638910  0.6042864157272589  
  0.7820208935397304  0.7518166130652588  0.3274813761128925  
  0.1975802470880410  0.2172984241019904  0.3816418346714201  
  0.1261020692666506  0.0872709394553297  0.1372603396030385  
  0.8918255255374845  0.2050650977192703  0.8725296004370193  
  0.8036000524170746  0.0812454708330677  0.6367226287653054  
  0.5783259916714982  0.1986796036870615  0.3917612454500627  
  0.4418877126464267  0.1005089731416859  0.1143289652175028  
  0.2022353919198494  0.2151181994232232  0.8860406419406175  
  0.1107129991643134  0.0960250128525431  0.6299259395549228  
  0.8888227119279435  0.2054576773176322  0.3796923103951997  
  0.7677063285062786  0.0891538322342313  0.1331104961944334  
  0.5655021040871162  0.2102570163946851  0.8651030918228884  
  0.4337418673577531  0.0845664331660103  0.5811959349120457  
  0.2108369552709632  0.5327450592580192  0.3868809802511208  
  0.1093243204962988  0.4308151715561124  0.1320476550177219  
  0.8913765442186730  0.5393687440954835  0.8787583708497948  
  0.8000565238289354  0.4155232450350255  0.6342261208854794  
  0.5678950885611016  0.5425762269835843  0.3746374995749946  
  0.4389965809970988  0.4178616677929696  0.1250478598788689  
  0.2302817093405594  0.5201150203798619  0.8816606291108542  
  0.1108341399709190  0.4256398246734250  0.6340822731779383  
  0.8964437943196444  0.5259754540807933  0.3893324278248471  
  0.7917113999294827  0.4341144130058296  0.1377281565088495  
  0.5586041874715377  0.5364889417399326  0.8558412742923380  
  0.4230179013890023  0.4366479575559055  0.6318672266455110  
  0.2192298794012331  0.8827055431222774  0.3822106406396344  
  0.1108976027983530  0.7620831252622864  0.1050312311603463  
  0.8715682084466181  0.8818833099268986  0.8802268640720996  
  0.7849629447887239  0.7580709705090456  0.6261149155190111  
  0.5440733633490851  0.8624125785862233  0.3212731860425890  
  0.4424452860341290  0.7728588934007092  0.0708814495792254  
  0.2229674847422842  0.8871162971013646  0.8730844571645804  
  0.1111391473976084  0.7599477622478688  0.6233666522360579  
  0.8824328858080221  0.8876491398961832  0.3858855144330917  
  0.7801401996340473  0.7593617006052185  0.1166548574405937  
  0.5607279573960327  0.8598893812991051  0.8251605310558361  
  0.4361183631171173  0.7771254303895461  0.5831055826234106  
