Al   Sc   N                             
   1.00000000000000     
    -9.7332627554872335    0.0052883887677492    0.0056344269647001
    -4.8696441489833830    8.4559636685058717    0.0035430577297016
     0.0079728856372935   -0.0005721414768288  -10.0983212491374044
   Al   Sc   N 
    28     8    36
Direct
  0.1060703827324829  0.1019245762915517  0.3908595671277126
  0.2267942891894847  0.2025988121896773  0.1487164963184924
  0.7790512082013237  0.0983781740906124  0.8942634206215558
  0.8863577257958681  0.2083147523018596  0.6452013000983001
  0.4413917789344879  0.0947116213294237  0.3961339632770162
  0.5597244923294298  0.1958185633979639  0.1423154349336997
  0.1069848812120853  0.0948491132224092  0.8995662048940432
  0.2214969943853262  0.2014496725757269  0.6432845871918360
  0.7804234324931087  0.0948208844089606  0.3965386134064701
  0.8846918333400851  0.2028499641302375  0.1461139328353340
  0.4413927691634001  0.0961616017363482  0.8952082164367638
  0.5585179809370970  0.2029191481081369  0.6476550688311633
  0.1099753117144715  0.4220274835084936  0.4005233405664441
  0.2197505591921214  0.5412348958979294  0.1476799351365159
  0.7761777367717357  0.4146154488708689  0.8936703336849021
  0.8833215143375739  0.5345099969270990  0.6468943137159755
  0.5575949414931429  0.5389134207184867  0.1466242102937230
  0.7816410195634163  0.4229302456744648  0.3997283746529803
  0.4497247695572284  0.4237832384484008  0.9020988379554424
  0.5663041742075947  0.5279271688200282  0.6450006753173554
  0.1047997853399920  0.7697243928572632  0.3896739295245197
  0.2217257915293871  0.8742603469681001  0.1511909443186568
  0.8857333791636677  0.8806383144976166  0.6477880999741004
  0.4477555341633632  0.7610026351915238  0.3949991492124809
  0.5466439076616894  0.8800765243420656  0.1510894489875909
  0.1107459507553017  0.7692459551252995  0.9023985185702159
  0.8878358990872925  0.8816466587337644  0.1464024789319325
  0.5550648460003131  0.8763246915927141  0.6436222468208754
  0.4514186851149091  0.4222331446658742  0.3777319516726223
  0.1188960692801828  0.4214439484414143  0.8849552463222992
  0.2255053609387758  0.5423464373544462  0.6361073340789076
  0.8889240364155242  0.5319878871047479  0.1416426318985344
  0.7756949938799735  0.7691561432594440  0.8876149391802386
  0.2171869872458956  0.8811219826452259  0.6347716929725067
  0.7786152634634007  0.7647456926955982  0.3916568121688755
  0.4436434121221993  0.7570271867913121  0.8902328407588413
  0.2233376672419851  0.2063142117398442  0.3391391708728264
  0.1091153910405751  0.0966950671059266  0.0935782649086860
  0.8910998870452858  0.2020957991394994  0.8360267649592785
  0.7758857776913786  0.0965263619570038  0.5886575377673324
  0.5683370233640375  0.1792443730302224  0.3309058282249424
  0.4420956612608506  0.0940133862990820  0.0859778074563877
  0.2296689452435885  0.1834231528564274  0.8321904888963303
  0.0968401421248615  0.1172373950355876  0.5780314948812233
  0.8847995940474931  0.2074443705688793  0.3365857272843087
  0.7775658609333505  0.0951420951617550  0.0836836112949300
  0.5532564730433549  0.2054456917317893  0.8416725308422173
  0.4431209627368986  0.0970666453173550  0.5863436639120323
  0.2014228072298465  0.5491958627942211  0.3419937448005257
  0.1309272981727077  0.4166064103143086  0.0930458347309582
  0.8769235017342822  0.5278609866786965  0.8391942260761738
  0.7791049500369240  0.4238628733032286  0.5886034250022405
  0.5701738043560667  0.5480855517596126  0.3340667989590216
  0.4453048057273250  0.4262548183360764  0.1014173301776466
  0.2340336260785847  0.5534248055125062  0.8471281988879795
  0.1037040457192262  0.4197005930043929  0.5958478562737213
  0.8976599080122725  0.5201803096197324  0.3496383285764963
  0.7675520716544639  0.4138959330841416  0.0817071272902865
  0.5656913722187085  0.5150916669990480  0.8342857087846696
  0.4668512323004279  0.4141648749841451  0.5859474844542945
  0.2231571486154849  0.8742538935731332  0.3453146534347766
  0.1104891689220935  0.7633531000318570  0.0939616146653535
  0.8993950519472236  0.8849336908942647  0.8360380885917422
  0.7792873403592324  0.7621507369097671  0.6080797201997044
  0.5352195665754209  0.8841244113547901  0.3391422336652923
  0.4433540577894135  0.7614454643068953  0.1005756486340417
  0.2044069396166250  0.8842285120731930  0.8445597657573529
  0.0888144542676699  0.7752144905105212  0.5753060659151998
  0.8958684190094459  0.8875898529388095  0.3321471900346253
  0.7675398300904916  0.7797452045810331  0.1049528712149268
  0.5431089202285335  0.8916686428546967  0.8292735386970307
  0.4653757944057944  0.7476722708436725  0.5886432522276266
 
  0.00000000E+00  0.00000000E+00  0.00000000E+00
  0.00000000E+00  0.00000000E+00  0.00000000E+00
  0.00000000E+00  0.00000000E+00  0.00000000E+00
  0.00000000E+00  0.00000000E+00  0.00000000E+00
  0.00000000E+00  0.00000000E+00  0.00000000E+00
  0.00000000E+00  0.00000000E+00  0.00000000E+00
  0.00000000E+00  0.00000000E+00  0.00000000E+00
  0.00000000E+00  0.00000000E+00  0.00000000E+00
  0.00000000E+00  0.00000000E+00  0.00000000E+00
  0.00000000E+00  0.00000000E+00  0.00000000E+00
  0.00000000E+00  0.00000000E+00  0.00000000E+00
  0.00000000E+00  0.00000000E+00  0.00000000E+00
  0.00000000E+00  0.00000000E+00  0.00000000E+00
  0.00000000E+00  0.00000000E+00  0.00000000E+00
  0.00000000E+00  0.00000000E+00  0.00000000E+00
  0.00000000E+00  0.00000000E+00  0.00000000E+00
  0.00000000E+00  0.00000000E+00  0.00000000E+00
  0.00000000E+00  0.00000000E+00  0.00000000E+00
  0.00000000E+00  0.00000000E+00  0.00000000E+00
  0.00000000E+00  0.00000000E+00  0.00000000E+00
  0.00000000E+00  0.00000000E+00  0.00000000E+00
  0.00000000E+00  0.00000000E+00  0.00000000E+00
  0.00000000E+00  0.00000000E+00  0.00000000E+00
  0.00000000E+00  0.00000000E+00  0.00000000E+00
  0.00000000E+00  0.00000000E+00  0.00000000E+00
  0.00000000E+00  0.00000000E+00  0.00000000E+00
  0.00000000E+00  0.00000000E+00  0.00000000E+00
  0.00000000E+00  0.00000000E+00  0.00000000E+00
  0.00000000E+00  0.00000000E+00  0.00000000E+00
  0.00000000E+00  0.00000000E+00  0.00000000E+00
  0.00000000E+00  0.00000000E+00  0.00000000E+00
  0.00000000E+00  0.00000000E+00  0.00000000E+00
  0.00000000E+00  0.00000000E+00  0.00000000E+00
  0.00000000E+00  0.00000000E+00  0.00000000E+00
  0.00000000E+00  0.00000000E+00  0.00000000E+00
  0.00000000E+00  0.00000000E+00  0.00000000E+00
  0.00000000E+00  0.00000000E+00  0.00000000E+00
  0.00000000E+00  0.00000000E+00  0.00000000E+00
  0.00000000E+00  0.00000000E+00  0.00000000E+00
  0.00000000E+00  0.00000000E+00  0.00000000E+00
  0.00000000E+00  0.00000000E+00  0.00000000E+00
  0.00000000E+00  0.00000000E+00  0.00000000E+00
  0.00000000E+00  0.00000000E+00  0.00000000E+00
  0.00000000E+00  0.00000000E+00  0.00000000E+00
  0.00000000E+00  0.00000000E+00  0.00000000E+00
  0.00000000E+00  0.00000000E+00  0.00000000E+00
  0.00000000E+00  0.00000000E+00  0.00000000E+00
  0.00000000E+00  0.00000000E+00  0.00000000E+00
  0.00000000E+00  0.00000000E+00  0.00000000E+00
  0.00000000E+00  0.00000000E+00  0.00000000E+00
  0.00000000E+00  0.00000000E+00  0.00000000E+00
  0.00000000E+00  0.00000000E+00  0.00000000E+00
  0.00000000E+00  0.00000000E+00  0.00000000E+00
  0.00000000E+00  0.00000000E+00  0.00000000E+00
  0.00000000E+00  0.00000000E+00  0.00000000E+00
  0.00000000E+00  0.00000000E+00  0.00000000E+00
  0.00000000E+00  0.00000000E+00  0.00000000E+00
  0.00000000E+00  0.00000000E+00  0.00000000E+00
  0.00000000E+00  0.00000000E+00  0.00000000E+00
  0.00000000E+00  0.00000000E+00  0.00000000E+00
  0.00000000E+00  0.00000000E+00  0.00000000E+00
  0.00000000E+00  0.00000000E+00  0.00000000E+00
  0.00000000E+00  0.00000000E+00  0.00000000E+00
  0.00000000E+00  0.00000000E+00  0.00000000E+00
  0.00000000E+00  0.00000000E+00  0.00000000E+00
  0.00000000E+00  0.00000000E+00  0.00000000E+00
  0.00000000E+00  0.00000000E+00  0.00000000E+00
  0.00000000E+00  0.00000000E+00  0.00000000E+00
  0.00000000E+00  0.00000000E+00  0.00000000E+00
  0.00000000E+00  0.00000000E+00  0.00000000E+00
  0.00000000E+00  0.00000000E+00  0.00000000E+00
  0.00000000E+00  0.00000000E+00  0.00000000E+00
