Al   Sc   N                             
   1.00000000000000     
   -10.2215215379572868    0.0055306540823091    0.0018069327419229
    -5.1066682605170595    8.9066103227517637    0.0021630758479166
     0.0071603069779385   -0.0034931675912912   -8.6397991147167836
   Al   Sc   N 
    28     8    36
Direct
  0.1062381230552703  0.1007379688253565  0.3515526136203349
  0.2278091006460059  0.2006021094741115  0.1128073738427986
  0.7786696743549726  0.0987737797656223  0.8583618988706974
  0.8874858580714147  0.2067268057564746  0.6076385154759620
  0.4421513838174960  0.0949693047478135  0.3594486451757390
  0.5581717030569706  0.1987328134260480  0.1026417423225752
  0.1059793273377849  0.0971924058828790  0.8686331033514492
  0.2208159846418880  0.2030197585061302  0.6010628806992031
  0.7785211021479981  0.0956370216118856  0.3610222096882012
  0.8849572373586128  0.2021254315849248  0.1129492632286997
  0.4412095993259584  0.0967838091917130  0.8570996672021778
  0.5587586589874860  0.2005645833425760  0.6124328213038339
  0.1134296412660305  0.4227222465831630  0.3531057377744062
  0.2239058224025143  0.5418686007255431  0.1029947048309623
  0.7789846351615992  0.4148161995619617  0.8567255568552028
  0.8878835631651825  0.5296837037000870  0.6013684185324095
  0.5589316311068870  0.5327231043268768  0.1050744778812600
  0.7799511034643416  0.4206967884497743  0.3597399885717323
  0.4514879779049608  0.4220638569005715  0.8569630092611149
  0.5654967592468836  0.5317582893328350  0.6059136524582129
  0.1063735242597232  0.7686860670333218  0.3470161696666665
  0.2199001967282186  0.8760049525207236  0.1084487182238476
  0.8850684598390117  0.8827452989843820  0.6095257373546232
  0.4469194605792168  0.7598455327255564  0.3500234642812643
  0.5486715627327783  0.8809318761908358  0.1102897213857617
  0.1084665935438309  0.7705482815112958  0.8658517109034989
  0.8867817359625789  0.8829063024049191  0.1067675379883610
  0.5517842059666549  0.8769007806774809  0.6035613191185263
  0.4509207041145302  0.4212711073132169  0.3496359291431901
  0.1177506213824131  0.4192692571182661  0.8532622607500500
  0.2202700106784476  0.5454825886292483  0.6021753628882465
  0.8867574295450638  0.5325073582205491  0.1057061004110551
  0.7773568757265608  0.7667122535248723  0.8515340222481740
  0.2181912419133170  0.8813337959845597  0.5985809607749104
  0.7770276806892511  0.7665361780302931  0.3557043350287117
  0.4463969919947246  0.7562984176267733  0.8561606296957507
  0.2245396840104235  0.2045182258672327  0.3477305145025866
  0.1071231583965115  0.0991558879045229  0.1054690042292137
  0.8916224098264038  0.2022929042521326  0.8454842730701131
  0.7752575974723968  0.0979023117476316  0.6003945088548051
  0.5660076806467060  0.1844613220841893  0.3443165977404732
  0.4428798961426992  0.0952042931703261  0.0973153822320825
  0.2285713036750465  0.1860752085380213  0.8476046215416844
  0.0990332907800280  0.1138600447537144  0.5864977543908338
  0.8849985280428001  0.2047888866644598  0.3468764330043683
  0.7758104752143211  0.0973093433938033  0.0924046679850434
  0.5545902856564169  0.2029608040602966  0.8504163168276833
  0.4418121363899914  0.0976300237499146  0.5970575515049887
  0.2072322630264765  0.5495886532647063  0.3429019520441230
  0.1284117659938389  0.4172683789889859  0.1074896522405666
  0.8799288067941404  0.5275845637539547  0.8454061359195819
  0.7786583606900948  0.4216587804613425  0.5967283324873662
  0.5659929423166545  0.5441830333620317  0.3458972348855553
  0.4470259159767309  0.4231677457518472  0.0946484740856377
  0.2300268175834574  0.5520239133430991  0.8598983602986578
  0.1076397821336101  0.4188881219473188  0.5954328916316172
  0.8955363716580962  0.5219959376411936  0.3590597837136897
  0.7716920221474197  0.4127487809806567  0.0990469544242885
  0.5672492904644102  0.5186755519318424  0.8516207302521082
  0.4625802212962427  0.4165256896338363  0.6057096629544390
  0.2225694832198357  0.8744363638896502  0.3408458311401361
  0.1087458730402204  0.7647696370435000  0.1020415154433536
  0.8959748231816462  0.8853454152294944  0.8504115118108473
  0.7777223233144497  0.7647828079581700  0.6015908854878376
  0.5367432572105386  0.8835433710781970  0.3510164643043012
  0.4468498637054239  0.7587648952191586  0.1091206463699876
  0.2069295980897223  0.8848265869546950  0.8609235440272869
  0.0925624905693851  0.7755565556610762  0.5943809166805707
  0.8945960581295083  0.8868012959443945  0.3439976051783447
  0.7691559665957399  0.7778841102185012  0.1033799091953043
  0.5451687198092685  0.8897013720876785  0.8452718645375086
  0.4614493499854646  0.7488987218816874  0.5950842022000202
 
  0.00000000E+00  0.00000000E+00  0.00000000E+00
  0.00000000E+00  0.00000000E+00  0.00000000E+00
  0.00000000E+00  0.00000000E+00  0.00000000E+00
  0.00000000E+00  0.00000000E+00  0.00000000E+00
  0.00000000E+00  0.00000000E+00  0.00000000E+00
  0.00000000E+00  0.00000000E+00  0.00000000E+00
  0.00000000E+00  0.00000000E+00  0.00000000E+00
  0.00000000E+00  0.00000000E+00  0.00000000E+00
  0.00000000E+00  0.00000000E+00  0.00000000E+00
  0.00000000E+00  0.00000000E+00  0.00000000E+00
  0.00000000E+00  0.00000000E+00  0.00000000E+00
  0.00000000E+00  0.00000000E+00  0.00000000E+00
  0.00000000E+00  0.00000000E+00  0.00000000E+00
  0.00000000E+00  0.00000000E+00  0.00000000E+00
  0.00000000E+00  0.00000000E+00  0.00000000E+00
  0.00000000E+00  0.00000000E+00  0.00000000E+00
  0.00000000E+00  0.00000000E+00  0.00000000E+00
  0.00000000E+00  0.00000000E+00  0.00000000E+00
  0.00000000E+00  0.00000000E+00  0.00000000E+00
  0.00000000E+00  0.00000000E+00  0.00000000E+00
  0.00000000E+00  0.00000000E+00  0.00000000E+00
  0.00000000E+00  0.00000000E+00  0.00000000E+00
  0.00000000E+00  0.00000000E+00  0.00000000E+00
  0.00000000E+00  0.00000000E+00  0.00000000E+00
  0.00000000E+00  0.00000000E+00  0.00000000E+00
  0.00000000E+00  0.00000000E+00  0.00000000E+00
  0.00000000E+00  0.00000000E+00  0.00000000E+00
  0.00000000E+00  0.00000000E+00  0.00000000E+00
  0.00000000E+00  0.00000000E+00  0.00000000E+00
  0.00000000E+00  0.00000000E+00  0.00000000E+00
  0.00000000E+00  0.00000000E+00  0.00000000E+00
  0.00000000E+00  0.00000000E+00  0.00000000E+00
  0.00000000E+00  0.00000000E+00  0.00000000E+00
  0.00000000E+00  0.00000000E+00  0.00000000E+00
  0.00000000E+00  0.00000000E+00  0.00000000E+00
  0.00000000E+00  0.00000000E+00  0.00000000E+00
  0.00000000E+00  0.00000000E+00  0.00000000E+00
  0.00000000E+00  0.00000000E+00  0.00000000E+00
  0.00000000E+00  0.00000000E+00  0.00000000E+00
  0.00000000E+00  0.00000000E+00  0.00000000E+00
  0.00000000E+00  0.00000000E+00  0.00000000E+00
  0.00000000E+00  0.00000000E+00  0.00000000E+00
  0.00000000E+00  0.00000000E+00  0.00000000E+00
  0.00000000E+00  0.00000000E+00  0.00000000E+00
  0.00000000E+00  0.00000000E+00  0.00000000E+00
  0.00000000E+00  0.00000000E+00  0.00000000E+00
  0.00000000E+00  0.00000000E+00  0.00000000E+00
  0.00000000E+00  0.00000000E+00  0.00000000E+00
  0.00000000E+00  0.00000000E+00  0.00000000E+00
  0.00000000E+00  0.00000000E+00  0.00000000E+00
  0.00000000E+00  0.00000000E+00  0.00000000E+00
  0.00000000E+00  0.00000000E+00  0.00000000E+00
  0.00000000E+00  0.00000000E+00  0.00000000E+00
  0.00000000E+00  0.00000000E+00  0.00000000E+00
  0.00000000E+00  0.00000000E+00  0.00000000E+00
  0.00000000E+00  0.00000000E+00  0.00000000E+00
  0.00000000E+00  0.00000000E+00  0.00000000E+00
  0.00000000E+00  0.00000000E+00  0.00000000E+00
  0.00000000E+00  0.00000000E+00  0.00000000E+00
  0.00000000E+00  0.00000000E+00  0.00000000E+00
  0.00000000E+00  0.00000000E+00  0.00000000E+00
  0.00000000E+00  0.00000000E+00  0.00000000E+00
  0.00000000E+00  0.00000000E+00  0.00000000E+00
  0.00000000E+00  0.00000000E+00  0.00000000E+00
  0.00000000E+00  0.00000000E+00  0.00000000E+00
  0.00000000E+00  0.00000000E+00  0.00000000E+00
  0.00000000E+00  0.00000000E+00  0.00000000E+00
  0.00000000E+00  0.00000000E+00  0.00000000E+00
  0.00000000E+00  0.00000000E+00  0.00000000E+00
  0.00000000E+00  0.00000000E+00  0.00000000E+00
  0.00000000E+00  0.00000000E+00  0.00000000E+00
  0.00000000E+00  0.00000000E+00  0.00000000E+00
