Al   Sc   N                             
   1.00000000000000     
    -9.7357100715429237    0.0053368418306612    0.0048689281201447
    -4.8702983959945234    8.4581676068710046    0.0032670613533446
     0.0087138504206462   -0.0004491976103766  -10.0915112058584562
   Al   Sc   N 
    28     8    36
Direct
  0.1060769613171857  0.1019514958856433  0.3795632276905181
  0.2268535581912303  0.2026013380068576  0.1374215968301371
  0.7790908638106941  0.0983533562599490  0.8829972368538677
  0.8863897082377576  0.2083098358352302  0.6339640690639285
  0.4414222080563945  0.0946747645981816  0.3849000318711617
  0.5598213012911160  0.1956919311175866  0.1310672319854334
  0.1070126458213139  0.0948311094009995  0.8883504370435347
  0.2215340730439763  0.2013935285061379  0.6320688724769923
  0.7804551492768610  0.0947547693710149  0.3853610572938138
  0.8847212990672730  0.2027856878092180  0.1349145022776881
  0.4414094684072509  0.0961577338519319  0.8839872528409245
  0.5585433268472499  0.2029117953320778  0.6364091815793103
  0.1099842360708720  0.4219756032652882  0.3893335520845653
  0.2197867124961093  0.5411951192086732  0.1364434239338905
  0.7762123657722597  0.4145396300050663  0.8824778113415661
  0.8832866592786743  0.5345426352341320  0.6357264820931903
  0.5576580839762357  0.5389519615424234  0.1353527146328304
  0.7817098376953169  0.4229023440259922  0.3884343991599479
  0.4497615643672788  0.4237690984494691  0.8909064040897903
  0.5663864845575475  0.5278058188097461  0.6337515837122680
  0.1048014039093559  0.7697014821415209  0.3784274845657905
  0.2218179334715913  0.8742012825240977  0.1399460157339334
  0.8857305253467302  0.8805904061109402  0.6365415048537386
  0.4478112142849184  0.7609368700444037  0.3838730893279987
  0.5466219843109954  0.8800250726410681  0.1398310551501325
  0.1108148374499223  0.7692235564498944  0.8910878725388329
  0.8879059111704137  0.8816196146648068  0.1351480776057983
  0.5551153616953570  0.8763211783171059  0.6323502279017035
  0.4515469332062949  0.4221358279702940  0.3662551740190452
  0.1190098748031758  0.4214745138261193  0.8734104836701420
  0.2256535141395943  0.5423253472893563  0.6246091163589185
  0.8891030102158339  0.5318426597561796  0.1301195847193739
  0.7756779583232785  0.7691949650354957  0.8764164835894945
  0.2171241471505141  0.8811744359279743  0.6233648473219944
  0.7786562450200591  0.7646330451271908  0.3801481858931481
  0.4436374736133999  0.7570080265704817  0.8787133584071540
  0.2233795805200174  0.2063169948681747  0.3279603563719604
  0.1091569186149428  0.0966549954317202  0.0824675299417734
  0.8911489829606154  0.2020677589214728  0.8248724145908852
  0.7759163308088333  0.0964926184420136  0.5775521894134954
  0.5684326871931873  0.1791077708427551  0.3197457133566246
  0.4421546822919211  0.0939505559688740  0.0748305681108192
  0.2297104370053091  0.1833752328244174  0.8210676616503534
  0.0968225508339202  0.1173044693770606  0.5668312504633874
  0.8848020045895950  0.2073897165704253  0.3254535412791313
  0.7776211905797155  0.0950863472646049  0.0725032672137615
  0.5532629491187748  0.2054544389435335  0.8305337607926759
  0.4431252505183281  0.0970662761788148  0.5751918910838683
  0.2014699168976790  0.5491356336141706  0.3309410170196045
  0.1311128227632850  0.4165373191132034  0.0816741822475322
  0.8769119340158795  0.5278833346943301  0.8282181891917233
  0.7791662151708181  0.4238557063198201  0.5774339838760554
  0.5702332983245242  0.5481174359626380  0.3229114236246460
  0.4453681616014933  0.4262163413285691  0.0903820733791747
  0.2341893437629281  0.5534559042880360  0.8358005121176504
  0.1037063796964475  0.4197078078751346  0.5848652000916914
  0.8977907779791607  0.5200338378415523  0.3382889033093761
  0.7675973510926184  0.4137986462000214  0.0705996950279157
  0.5657857986708521  0.5149773162971130  0.8231478348755630
  0.4670071851218154  0.4140607278136983  0.5746180645921442
  0.2232206773502270  0.8742030926649349  0.3342264030020132
  0.1105652741958139  0.7632983661434523  0.0827959981493720
  0.8994178710065555  0.8848941398896173  0.8249076738475978
  0.7792977979471374  0.7621084475144713  0.5968107799022135
  0.5351802751325394  0.8840910352776774  0.3280158934560902
  0.4433772224602137  0.7614173226325320  0.0892411576223893
  0.2043682831992086  0.8842857277138734  0.8332889271943031
  0.0887810307085886  0.7752237035309122  0.5641563488633139
  0.8959126755641478  0.8875613415249930  0.3209930898163691
  0.7675732073057944  0.7797012726176220  0.0939293146657363
  0.5431643279252611  0.8916917332485497  0.8181194910240279
  0.4653906555374050  0.7476158370894765  0.5776552907967201
 
  0.00000000E+00  0.00000000E+00  0.00000000E+00
  0.00000000E+00  0.00000000E+00  0.00000000E+00
  0.00000000E+00  0.00000000E+00  0.00000000E+00
  0.00000000E+00  0.00000000E+00  0.00000000E+00
  0.00000000E+00  0.00000000E+00  0.00000000E+00
  0.00000000E+00  0.00000000E+00  0.00000000E+00
  0.00000000E+00  0.00000000E+00  0.00000000E+00
  0.00000000E+00  0.00000000E+00  0.00000000E+00
  0.00000000E+00  0.00000000E+00  0.00000000E+00
  0.00000000E+00  0.00000000E+00  0.00000000E+00
  0.00000000E+00  0.00000000E+00  0.00000000E+00
  0.00000000E+00  0.00000000E+00  0.00000000E+00
  0.00000000E+00  0.00000000E+00  0.00000000E+00
  0.00000000E+00  0.00000000E+00  0.00000000E+00
  0.00000000E+00  0.00000000E+00  0.00000000E+00
  0.00000000E+00  0.00000000E+00  0.00000000E+00
  0.00000000E+00  0.00000000E+00  0.00000000E+00
  0.00000000E+00  0.00000000E+00  0.00000000E+00
  0.00000000E+00  0.00000000E+00  0.00000000E+00
  0.00000000E+00  0.00000000E+00  0.00000000E+00
  0.00000000E+00  0.00000000E+00  0.00000000E+00
  0.00000000E+00  0.00000000E+00  0.00000000E+00
  0.00000000E+00  0.00000000E+00  0.00000000E+00
  0.00000000E+00  0.00000000E+00  0.00000000E+00
  0.00000000E+00  0.00000000E+00  0.00000000E+00
  0.00000000E+00  0.00000000E+00  0.00000000E+00
  0.00000000E+00  0.00000000E+00  0.00000000E+00
  0.00000000E+00  0.00000000E+00  0.00000000E+00
  0.00000000E+00  0.00000000E+00  0.00000000E+00
  0.00000000E+00  0.00000000E+00  0.00000000E+00
  0.00000000E+00  0.00000000E+00  0.00000000E+00
  0.00000000E+00  0.00000000E+00  0.00000000E+00
  0.00000000E+00  0.00000000E+00  0.00000000E+00
  0.00000000E+00  0.00000000E+00  0.00000000E+00
  0.00000000E+00  0.00000000E+00  0.00000000E+00
  0.00000000E+00  0.00000000E+00  0.00000000E+00
  0.00000000E+00  0.00000000E+00  0.00000000E+00
  0.00000000E+00  0.00000000E+00  0.00000000E+00
  0.00000000E+00  0.00000000E+00  0.00000000E+00
  0.00000000E+00  0.00000000E+00  0.00000000E+00
  0.00000000E+00  0.00000000E+00  0.00000000E+00
  0.00000000E+00  0.00000000E+00  0.00000000E+00
  0.00000000E+00  0.00000000E+00  0.00000000E+00
  0.00000000E+00  0.00000000E+00  0.00000000E+00
  0.00000000E+00  0.00000000E+00  0.00000000E+00
  0.00000000E+00  0.00000000E+00  0.00000000E+00
  0.00000000E+00  0.00000000E+00  0.00000000E+00
  0.00000000E+00  0.00000000E+00  0.00000000E+00
  0.00000000E+00  0.00000000E+00  0.00000000E+00
  0.00000000E+00  0.00000000E+00  0.00000000E+00
  0.00000000E+00  0.00000000E+00  0.00000000E+00
  0.00000000E+00  0.00000000E+00  0.00000000E+00
  0.00000000E+00  0.00000000E+00  0.00000000E+00
  0.00000000E+00  0.00000000E+00  0.00000000E+00
  0.00000000E+00  0.00000000E+00  0.00000000E+00
  0.00000000E+00  0.00000000E+00  0.00000000E+00
  0.00000000E+00  0.00000000E+00  0.00000000E+00
  0.00000000E+00  0.00000000E+00  0.00000000E+00
  0.00000000E+00  0.00000000E+00  0.00000000E+00
  0.00000000E+00  0.00000000E+00  0.00000000E+00
  0.00000000E+00  0.00000000E+00  0.00000000E+00
  0.00000000E+00  0.00000000E+00  0.00000000E+00
  0.00000000E+00  0.00000000E+00  0.00000000E+00
  0.00000000E+00  0.00000000E+00  0.00000000E+00
  0.00000000E+00  0.00000000E+00  0.00000000E+00
  0.00000000E+00  0.00000000E+00  0.00000000E+00
  0.00000000E+00  0.00000000E+00  0.00000000E+00
  0.00000000E+00  0.00000000E+00  0.00000000E+00
  0.00000000E+00  0.00000000E+00  0.00000000E+00
  0.00000000E+00  0.00000000E+00  0.00000000E+00
  0.00000000E+00  0.00000000E+00  0.00000000E+00
  0.00000000E+00  0.00000000E+00  0.00000000E+00
