Al   Sc   N                             
   1.00000000000000     
   -10.2305183767356258   -0.0151496776176250   -0.0069563814769216
    -5.0769634947233877    8.8648860834993481   -0.0004787845667391
    -0.0007004373725951   -0.0064380506516959   -8.6935708715915379
   Al   Sc   N 
    28     8    36
Direct
  0.1124257281229788  0.0927710680925884  0.3453876435727068
  0.2288808938592553  0.2016954000072317  0.1063099897877464
  0.4486199103019857  0.0896396416234069  0.3419792676439428
  0.5544377542404106  0.2055195262025649  0.1026637363318272
  0.7758969624105418  0.0913047457634875  0.3456981435831352
  0.8816820170866961  0.2098489249133237  0.1089674270333845
  0.4479408335303390  0.0945298334772104  0.8491870336917557
  0.5595999191032277  0.2000069518866141  0.5858462614983537
  0.1075497554177716  0.4278400833067835  0.3485952888876582
  0.7705129599708016  0.4373551072370745  0.8416343402057009
  0.8800580073415247  0.5492917218410724  0.5965763840125504
  0.4525590495622254  0.4250016888774297  0.3465741183480020
  0.5576276169866787  0.5360011844840145  0.0948808071244116
  0.1084795680261124  0.4294545852776324  0.8508374116724369
  0.7722025682602478  0.4334167369729798  0.3472579910013138
  0.4510559599174613  0.4248131952047132  0.8431708910649434
  0.5591494467811344  0.5419045535912517  0.5905973558887112
  0.1053545784312249  0.7653115203128564  0.3456821457878405
  0.2250204205407300  0.8685245304259723  0.1048290445983895
  0.7758037338977459  0.7620692061298087  0.8421565754851841
  0.8813443796048688  0.8708594319593317  0.5879696411482911
  0.4494408740346572  0.7594876744758920  0.3375892330699202
  0.5539831524257437  0.8759646918120225  0.0929353822016736
  0.1081066431051596  0.7583708695595917  0.8538542285668385
  0.7716821783323624  0.7666184291094069  0.3453663781800245
  0.8849797182778047  0.8746461561511794  0.1029078132207530
  0.4518130288153728  0.7551637487640832  0.8511162894548292
  0.5609225761079770  0.8693476423841346  0.5942814528820364
  0.7723131936208887  0.0909789817633495  0.8554816278649113
  0.8804091213535585  0.2122323505803436  0.5967370692629785
  0.1118391527113900  0.0941481193162801  0.8621976723659230
  0.2293296864565235  0.2061041562083687  0.5996456528346101
  0.2286183600129803  0.5370176980578876  0.1030502670643472
  0.2233332594296940  0.5387491296445432  0.6007243871015717
  0.8828360847848131  0.5430441378937658  0.1020251204209899
  0.2300001720132911  0.8628304938290867  0.6003988840184888
  0.2257052432646134  0.2041456973401452  0.3467873967616555
  0.1119095540069779  0.0930531118916491  0.1136906710271219
  0.8760644222384357  0.2255011124433466  0.8614065748437483
  0.7699046126065596  0.0836303934510809  0.5978986654776435
  0.5548227207510834  0.2039966753448752  0.3549440848430052
  0.4461892343080152  0.0917930211937303  0.1122360875649306
  0.2322793395702547  0.2124202973059752  0.8617978272442599
  0.1116797913836933  0.0927101403590385  0.5997200005085190
  0.8869830113202966  0.2066153204784840  0.3455683549422872
  0.7758658320401821  0.0935318389638624  0.1141123585117683
  0.5387671334860542  0.2146808150029855  0.8691362096543500
  0.4652383204024062  0.0831590096897799  0.6105270501481002
  0.2245715806899824  0.5378249936095045  0.3537170046843698
  0.1166200554628389  0.4128784767150862  0.1082399619068468
  0.8844211869058753  0.5431045783344572  0.8500136797705196
  0.7680699197857663  0.4481459094386651  0.6047249858311901
  0.5535159144160176  0.5431248878809640  0.3607121226216066
  0.4633927294085467  0.4187657283842583  0.1164172532746406
  0.2259674068610096  0.5374427756017113  0.8535623496192954
  0.0906076208035316  0.4381727191196561  0.6057032498378163
  0.8852988967227660  0.5440677253200050  0.3606637809972923
  0.7676905068707214  0.4235479945090290  0.1165191065039721
  0.5560984735136927  0.5382409187861583  0.8640302743243211
  0.4682267574183783  0.4154760460537545  0.6073127583956079
  0.2274777942170587  0.8680980554123821  0.3452472419727854
  0.1002161482522439  0.7770928727172546  0.1119066245516009
  0.8961250347270990  0.8534370435764771  0.8663863310183828
  0.7743453859688643  0.7644206439970915  0.6075590570467284
  0.5535664874766439  0.8722983885902806  0.3612710983076184
  0.4489369535415975  0.7587175357157676  0.1079705297057814
  0.2330371769974349  0.8514440544079562  0.8650490884581217
  0.0896323788793651  0.7707682797352788  0.6042963792040368
  0.8862822686144085  0.8718219866999419  0.3551885847678378
  0.7649509321569425  0.7805202432062330  0.1152815378262559
  0.5562165916018245  0.8736203140797798  0.8632249400684699
  0.4650234461410534  0.7521627561815407  0.6165573498235375
 
  0.00000000E+00  0.00000000E+00  0.00000000E+00
  0.00000000E+00  0.00000000E+00  0.00000000E+00
  0.00000000E+00  0.00000000E+00  0.00000000E+00
  0.00000000E+00  0.00000000E+00  0.00000000E+00
  0.00000000E+00  0.00000000E+00  0.00000000E+00
  0.00000000E+00  0.00000000E+00  0.00000000E+00
  0.00000000E+00  0.00000000E+00  0.00000000E+00
  0.00000000E+00  0.00000000E+00  0.00000000E+00
  0.00000000E+00  0.00000000E+00  0.00000000E+00
  0.00000000E+00  0.00000000E+00  0.00000000E+00
  0.00000000E+00  0.00000000E+00  0.00000000E+00
  0.00000000E+00  0.00000000E+00  0.00000000E+00
  0.00000000E+00  0.00000000E+00  0.00000000E+00
  0.00000000E+00  0.00000000E+00  0.00000000E+00
  0.00000000E+00  0.00000000E+00  0.00000000E+00
  0.00000000E+00  0.00000000E+00  0.00000000E+00
  0.00000000E+00  0.00000000E+00  0.00000000E+00
  0.00000000E+00  0.00000000E+00  0.00000000E+00
  0.00000000E+00  0.00000000E+00  0.00000000E+00
  0.00000000E+00  0.00000000E+00  0.00000000E+00
  0.00000000E+00  0.00000000E+00  0.00000000E+00
  0.00000000E+00  0.00000000E+00  0.00000000E+00
  0.00000000E+00  0.00000000E+00  0.00000000E+00
  0.00000000E+00  0.00000000E+00  0.00000000E+00
  0.00000000E+00  0.00000000E+00  0.00000000E+00
  0.00000000E+00  0.00000000E+00  0.00000000E+00
  0.00000000E+00  0.00000000E+00  0.00000000E+00
  0.00000000E+00  0.00000000E+00  0.00000000E+00
  0.00000000E+00  0.00000000E+00  0.00000000E+00
  0.00000000E+00  0.00000000E+00  0.00000000E+00
  0.00000000E+00  0.00000000E+00  0.00000000E+00
  0.00000000E+00  0.00000000E+00  0.00000000E+00
  0.00000000E+00  0.00000000E+00  0.00000000E+00
  0.00000000E+00  0.00000000E+00  0.00000000E+00
  0.00000000E+00  0.00000000E+00  0.00000000E+00
  0.00000000E+00  0.00000000E+00  0.00000000E+00
  0.00000000E+00  0.00000000E+00  0.00000000E+00
  0.00000000E+00  0.00000000E+00  0.00000000E+00
  0.00000000E+00  0.00000000E+00  0.00000000E+00
  0.00000000E+00  0.00000000E+00  0.00000000E+00
  0.00000000E+00  0.00000000E+00  0.00000000E+00
  0.00000000E+00  0.00000000E+00  0.00000000E+00
  0.00000000E+00  0.00000000E+00  0.00000000E+00
  0.00000000E+00  0.00000000E+00  0.00000000E+00
  0.00000000E+00  0.00000000E+00  0.00000000E+00
  0.00000000E+00  0.00000000E+00  0.00000000E+00
  0.00000000E+00  0.00000000E+00  0.00000000E+00
  0.00000000E+00  0.00000000E+00  0.00000000E+00
  0.00000000E+00  0.00000000E+00  0.00000000E+00
  0.00000000E+00  0.00000000E+00  0.00000000E+00
  0.00000000E+00  0.00000000E+00  0.00000000E+00
  0.00000000E+00  0.00000000E+00  0.00000000E+00
  0.00000000E+00  0.00000000E+00  0.00000000E+00
  0.00000000E+00  0.00000000E+00  0.00000000E+00
  0.00000000E+00  0.00000000E+00  0.00000000E+00
  0.00000000E+00  0.00000000E+00  0.00000000E+00
  0.00000000E+00  0.00000000E+00  0.00000000E+00
  0.00000000E+00  0.00000000E+00  0.00000000E+00
  0.00000000E+00  0.00000000E+00  0.00000000E+00
  0.00000000E+00  0.00000000E+00  0.00000000E+00
  0.00000000E+00  0.00000000E+00  0.00000000E+00
  0.00000000E+00  0.00000000E+00  0.00000000E+00
  0.00000000E+00  0.00000000E+00  0.00000000E+00
  0.00000000E+00  0.00000000E+00  0.00000000E+00
  0.00000000E+00  0.00000000E+00  0.00000000E+00
  0.00000000E+00  0.00000000E+00  0.00000000E+00
  0.00000000E+00  0.00000000E+00  0.00000000E+00
  0.00000000E+00  0.00000000E+00  0.00000000E+00
  0.00000000E+00  0.00000000E+00  0.00000000E+00
  0.00000000E+00  0.00000000E+00  0.00000000E+00
  0.00000000E+00  0.00000000E+00  0.00000000E+00
  0.00000000E+00  0.00000000E+00  0.00000000E+00
