generated by phonopy                    
   1.00000000000000     
    10.0351470768999995   -0.0000022330999784   -0.0000001056124209
    -5.0175765436399997    8.6906901959899994    0.0000001395531216
    -0.0000001735893656    0.0000001431815548   14.9533752540999991
   Pb   O    P 
    19    51    12
Direct
  0.0060228774995821  0.7734333106718623  0.1188069225239374
  0.9975264148884264  0.7714735636155723  0.6256058725031934
  0.0029758920017571  0.2633598079409794  0.3731425362488991
  0.0054026079950589  0.2704738903344577  0.8800881560294656
  0.2252329118987575  0.2333863129068945  0.1182013064340453
  0.2286878293058479  0.2268149113471623  0.6258148730301087
  0.7354964338325019  0.7399579575354167  0.3725390514632352
  0.7290163596519790  0.7372624507655061  0.8803227529123632
  0.7652894831423680  0.9919883480535461  0.1181235833571179
  0.7736994061398903  0.0028128863423973  0.6250896585999683
  0.2589258941259658  0.9956075280008534  0.3733190751411257
  0.2628188552258024  0.9968712845711494  0.8791196579831819
  0.6667949987133497  0.3338595049809783  0.0041956138286707
  0.6660933658606112  0.3333766505797229  0.5022057972547884
  0.3330104736117931  0.6659356558710954  0.5055831957863930
  0.3315864044750896  0.6666602218106661  0.2238242985091290
  0.3341416310540595  0.6693476696364371  0.7563150392696798
  0.6637892923173609  0.3289436680647384  0.2492064471594730
  0.6687110258335025  0.3361237080232442  0.7480303074930035
  0.3582240065642779  0.6702655740823715  0.9997773623441830
  0.5188678150502355  0.6603908025139660  0.1284135230108774
  0.5009501883375194  0.6492428146688027  0.6248462805194350
  0.4677206626256734  0.3164947468751294  0.3779578764218883
  0.4711277715961444  0.3131500016385971  0.8686133693816771
  0.3351573616959556  0.8575981810495463  0.1282522808056328
  0.3509974883628857  0.8524301549972222  0.6252613249791636
  0.6817035398383453  0.1508282584833367  0.3777265191593386
  0.6945897527662979  0.1626388943493069  0.8667983442156384
  0.1352054005602596  0.4733188315395935  0.1371359260100249
  0.1485370722740313  0.4998412958470979  0.6252249734729318
  0.8475129521269267  0.5307343772314042  0.3762709313984516
  0.8443909337744770  0.5307196689525782  0.8702582540580437
  0.7361825134714053  0.6551125344402067  0.0410414091082671
  0.7275852488137247  0.6562611897369166  0.5378462263835360
  0.2618523004058630  0.3557462680435037  0.4600652297289756
  0.2521082442496123  0.3177620049457914  0.9524853230952530
  0.3431887895390133  0.0818195305504474  0.0413699711977955
  0.3446712807722605  0.0714333044090338  0.5372716429547140
  0.6440745192947972  0.9064324567248363  0.4595014735120841
  0.6804669396313514  0.9358000334501426  0.9508629584578401
  0.9182600781620636  0.2617242761589509  0.0440192320037411
  0.9293148657066439  0.2739013036929236  0.5374146210984634
  0.0911785391152122  0.7371716574370026  0.4591148737194146
  0.0726641466445628  0.7472171617305463  0.9536694943128055
  0.2571852544466324  0.3420639181124230  0.2928367260121192
  0.2595424893970630  0.3480815386365350  0.7870845463604894
  0.7373783443910114  0.6492290937202867  0.2106995911056089
  0.7315077632712530  0.6586318261102377  0.7067307694037126
  0.6561112506892997  0.9146383595552550  0.2923723928882183
  0.6540013606454593  0.9123463463372943  0.7858191395223812
  0.3514329779077983  0.0898608803435366  0.2109731887251201
  0.3385731897023518  0.0730196611055192  0.7058749796795070
  0.0846699950643384  0.7419194807342464  0.2919666513061117
  0.0892078532590617  0.7427310565840912  0.7877246691722704
  0.8975748221825697  0.2550997176112233  0.2132188271331046
  0.9280384141637867  0.2676160390268620  0.7061181035035773
  0.5425753554663615  0.4150834070930145  0.1233489966900052
  0.5416475917371528  0.4157630501168867  0.6233166828777144
  0.4752193965093170  0.5752766967401399  0.3721277324513466
  0.4681481358895709  0.5657288272387078  0.8754417255608899
  0.5826714428083619  0.1256698798786644  0.1230326252303939
  0.5838702185638880  0.1270588072897283  0.6245719852886680
  0.4234040890168700  0.8995058676812775  0.3720937541141325
  0.4374884725482957  0.9132288200827077  0.8685560298486052
  0.8692456208987949  0.4548866511382741  0.1248761596921000
  0.8741337514263350  0.4582435632305177  0.6240485098430995
  0.0992892639570115  0.5241191151881495  0.3716509266132348
  0.0990623193512903  0.5315824165185532  0.8724399543728012
  0.9994666083779506  0.9998987668473305  0.1149974156457247
  0.9998361294959253  0.9999277075104516  0.6232083253989487
  0.6298113803602448  0.5960327018706693  0.1263884361553949
  0.6229444652934077  0.5963650238051130  0.6231979783170587
  0.3670262561503392  0.3946599954749601  0.3754232104866020
  0.3646916381669598  0.3851867328336667  0.8716438739984795
  0.4016221337427197  0.0330582027590793  0.1262449385277122
  0.4033461277243759  0.0272435377261004  0.6233766382819255
  0.6039605486743440  0.9720352136799733  0.3750862502495025
  0.6167415199392892  0.9834223497472365  0.8691937803878815
  0.9610268076393780  0.3656915484428680  0.1300920556465357
  0.9738052814890921  0.3773357806619515  0.6232619242199675
  0.0262887968307055  0.6317773210324802  0.3744894838200281
  0.0229448582584766  0.6358842100726960  0.8719804333918120
 
  0.00000000E+00  0.00000000E+00  0.00000000E+00
  0.00000000E+00  0.00000000E+00  0.00000000E+00
  0.00000000E+00  0.00000000E+00  0.00000000E+00
  0.00000000E+00  0.00000000E+00  0.00000000E+00
  0.00000000E+00  0.00000000E+00  0.00000000E+00
  0.00000000E+00  0.00000000E+00  0.00000000E+00
  0.00000000E+00  0.00000000E+00  0.00000000E+00
  0.00000000E+00  0.00000000E+00  0.00000000E+00
  0.00000000E+00  0.00000000E+00  0.00000000E+00
  0.00000000E+00  0.00000000E+00  0.00000000E+00
  0.00000000E+00  0.00000000E+00  0.00000000E+00
  0.00000000E+00  0.00000000E+00  0.00000000E+00
  0.00000000E+00  0.00000000E+00  0.00000000E+00
  0.00000000E+00  0.00000000E+00  0.00000000E+00
  0.00000000E+00  0.00000000E+00  0.00000000E+00
  0.00000000E+00  0.00000000E+00  0.00000000E+00
  0.00000000E+00  0.00000000E+00  0.00000000E+00
  0.00000000E+00  0.00000000E+00  0.00000000E+00
  0.00000000E+00  0.00000000E+00  0.00000000E+00
  0.00000000E+00  0.00000000E+00  0.00000000E+00
  0.00000000E+00  0.00000000E+00  0.00000000E+00
  0.00000000E+00  0.00000000E+00  0.00000000E+00
  0.00000000E+00  0.00000000E+00  0.00000000E+00
  0.00000000E+00  0.00000000E+00  0.00000000E+00
  0.00000000E+00  0.00000000E+00  0.00000000E+00
  0.00000000E+00  0.00000000E+00  0.00000000E+00
  0.00000000E+00  0.00000000E+00  0.00000000E+00
  0.00000000E+00  0.00000000E+00  0.00000000E+00
  0.00000000E+00  0.00000000E+00  0.00000000E+00
  0.00000000E+00  0.00000000E+00  0.00000000E+00
  0.00000000E+00  0.00000000E+00  0.00000000E+00
  0.00000000E+00  0.00000000E+00  0.00000000E+00
  0.00000000E+00  0.00000000E+00  0.00000000E+00
  0.00000000E+00  0.00000000E+00  0.00000000E+00
  0.00000000E+00  0.00000000E+00  0.00000000E+00
  0.00000000E+00  0.00000000E+00  0.00000000E+00
  0.00000000E+00  0.00000000E+00  0.00000000E+00
  0.00000000E+00  0.00000000E+00  0.00000000E+00
  0.00000000E+00  0.00000000E+00  0.00000000E+00
  0.00000000E+00  0.00000000E+00  0.00000000E+00
  0.00000000E+00  0.00000000E+00  0.00000000E+00
  0.00000000E+00  0.00000000E+00  0.00000000E+00
  0.00000000E+00  0.00000000E+00  0.00000000E+00
  0.00000000E+00  0.00000000E+00  0.00000000E+00
  0.00000000E+00  0.00000000E+00  0.00000000E+00
  0.00000000E+00  0.00000000E+00  0.00000000E+00
  0.00000000E+00  0.00000000E+00  0.00000000E+00
  0.00000000E+00  0.00000000E+00  0.00000000E+00
  0.00000000E+00  0.00000000E+00  0.00000000E+00
  0.00000000E+00  0.00000000E+00  0.00000000E+00
  0.00000000E+00  0.00000000E+00  0.00000000E+00
  0.00000000E+00  0.00000000E+00  0.00000000E+00
  0.00000000E+00  0.00000000E+00  0.00000000E+00
  0.00000000E+00  0.00000000E+00  0.00000000E+00
  0.00000000E+00  0.00000000E+00  0.00000000E+00
  0.00000000E+00  0.00000000E+00  0.00000000E+00
  0.00000000E+00  0.00000000E+00  0.00000000E+00
  0.00000000E+00  0.00000000E+00  0.00000000E+00
  0.00000000E+00  0.00000000E+00  0.00000000E+00
  0.00000000E+00  0.00000000E+00  0.00000000E+00
  0.00000000E+00  0.00000000E+00  0.00000000E+00
  0.00000000E+00  0.00000000E+00  0.00000000E+00
  0.00000000E+00  0.00000000E+00  0.00000000E+00
  0.00000000E+00  0.00000000E+00  0.00000000E+00
  0.00000000E+00  0.00000000E+00  0.00000000E+00
  0.00000000E+00  0.00000000E+00  0.00000000E+00
  0.00000000E+00  0.00000000E+00  0.00000000E+00
  0.00000000E+00  0.00000000E+00  0.00000000E+00
  0.00000000E+00  0.00000000E+00  0.00000000E+00
  0.00000000E+00  0.00000000E+00  0.00000000E+00
  0.00000000E+00  0.00000000E+00  0.00000000E+00
  0.00000000E+00  0.00000000E+00  0.00000000E+00
  0.00000000E+00  0.00000000E+00  0.00000000E+00
  0.00000000E+00  0.00000000E+00  0.00000000E+00
  0.00000000E+00  0.00000000E+00  0.00000000E+00
  0.00000000E+00  0.00000000E+00  0.00000000E+00
  0.00000000E+00  0.00000000E+00  0.00000000E+00
  0.00000000E+00  0.00000000E+00  0.00000000E+00
  0.00000000E+00  0.00000000E+00  0.00000000E+00
  0.00000000E+00  0.00000000E+00  0.00000000E+00
  0.00000000E+00  0.00000000E+00  0.00000000E+00
  0.00000000E+00  0.00000000E+00  0.00000000E+00
