supercell of icsd_181358.cif            
   1.00000000000000     
     9.9715876437209641    0.0102614949967884   -0.0030276178915748
    -4.9769037300943779    8.6196526774141624   -0.0000216125333848
    -0.0033453186305125   -0.0019090900013048   10.6239221458097273
   N    Ga   Sc
    36    26    10
Direct
  0.2165830545347731  0.0986619291186841  0.4303002846069930
  0.0990236375059865  0.2047643074038703  0.1861630897942135
  0.9006375586788877  0.1135839660325288  0.9325912234256037
  0.7775944265232653  0.2226646643085104  0.6952790124769095
  0.5608472883998346  0.1054197155947065  0.4462490790184148
  0.4359152164277731  0.2284431848219270  0.1868325893943279
  0.2213811623955877  0.1097354364983119  0.9413163298308760
  0.1146113432222151  0.2244346310761358  0.6997997939395262
  0.8759794015486690  0.1067008017434929  0.4390744070289685
  0.7907346691172989  0.2271923855716125  0.1893196204305525
  0.5414860504457195  0.1042949511891464  0.9407531835564171
  0.4438675001716703  0.2232870328226610  0.7011978636642340
  0.2225510271535853  0.4448394625230776  0.4314743213699970
  0.0958352178783741  0.5510556429806215  0.1832917762872412
  0.8949741240785940  0.4599029010923914  0.9343458522075494
  0.7681536413521428  0.5387046705247442  0.6831637383810616
  0.5666581407015272  0.4500991510036769  0.4293564905796856
  0.4639233589247098  0.5671071852922296  0.1849746881301328
  0.2226872803838873  0.4437758967715766  0.9518229301471237
  0.1136790789138189  0.5559654933906870  0.7031316451815854
  0.8756330373951400  0.4350527227243433  0.4367666365810337
  0.7803229448811919  0.5567771352181126  0.1893143305179521
  0.5590532384116358  0.4458252789781483  0.9424636705385652
  0.4434199466802937  0.5531718507946479  0.7013032437837623
  0.2308705688095785  0.7892497310145643  0.4431395719825844
  0.1003626198814729  0.8926199805995410  0.1842982698952866
  0.8941569426298628  0.7717037063638514  0.9376719361110943
  0.7694231023650104  0.8950252664258613  0.6868218826457735
  0.5596844836216377  0.7908072652757880  0.4368507269271262
  0.4528580360730956  0.8823131011152725  0.1806683646344283
  0.2217649903343073  0.7799233542688953  0.9424409178954463
  0.1282813715146673  0.8984734294438326  0.6873234776004082
  0.8900248356227252  0.7770649427390168  0.4470431265225940
  0.7793832804625112  0.8881662300579194  0.2014828245815607
  0.5439910207093561  0.7727864754068889  0.9346528389023163
  0.4439446119605748  0.8886843324362559  0.6920551618001980
  0.2151347165922246  0.1070352335736189  0.2450421663366527
  0.1107258170692660  0.2170040462227476  0.9989749273035073
  0.8908192102890666  0.1130652577275271  0.7487780557350234
  0.7737327516019690  0.2187209940148520  0.5036668584952082
  0.4396067990096242  0.2225587251087902  0.9994886102311256
  0.2256732818318810  0.1131484444779005  0.7555716012692812
  0.8865705566505966  0.1079993816474598  0.2524774455553143
  0.5513529052335429  0.1090862026912873  0.7530258695132517
  0.1083618007631983  0.5591759670120382  0.9967005541326159
  0.8885866762926113  0.4453941392564431  0.7499948575275681
  0.7752808996176981  0.5502818360609325  0.4963664913975592
  0.5611644885623122  0.4496414647701030  0.2443189101634999
  0.4487541223822262  0.5580863731715908  0.9982562409551647
  0.2234401163959845  0.4440863016977161  0.7614351257075285
  0.8850963852326856  0.4422532215730541  0.2495867061094614
  0.7817961582361050  0.5585218846755282  0.0015940085920505
  0.5553136249966215  0.4418360129262098  0.7557531375127269
  0.1089936131775460  0.8886514249877990  0.9988482130176592
  0.7735292585091216  0.8919208707223234  0.4982779927189398
  0.5615997440112537  0.7806461983850923  0.2505064213765138
  0.4407222663265955  0.8845287623198175  0.9964673317006572
  0.2264431661314106  0.7808430792593981  0.7536320035681499
  0.1161539046994875  0.8905323325377310  0.5000856944998020
  0.8877567701860656  0.7779217821978861  0.2547602847218968
  0.5513018803238410  0.7778229814439470  0.7506517735602500
  0.4476820997217459  0.8921129198441804  0.5040842642535708
  0.5591727812595764  0.1122886874261226  0.2462293153045678
  0.1069539343371773  0.2172059199450871  0.4982864533652531
  0.7817104269951400  0.2268007369810476  0.9907704935670552
  0.4457003595318767  0.2211994453724060  0.5001475351194244
  0.2232313161081620  0.4423042435391196  0.2322444068291531
  0.1083768602914716  0.5563709676494071  0.5017899482244985
  0.4495973304283396  0.5604971007499628  0.4989610964295821
  0.2217404599794932  0.7810269246361443  0.2431244447310519
  0.8902168831040953  0.7759196389285492  0.7383528057108109
  0.7774084244085984  0.8852322838426332  0.0010130543921321
 
  0.00000000E+00  0.00000000E+00  0.00000000E+00
  0.00000000E+00  0.00000000E+00  0.00000000E+00
  0.00000000E+00  0.00000000E+00  0.00000000E+00
  0.00000000E+00  0.00000000E+00  0.00000000E+00
  0.00000000E+00  0.00000000E+00  0.00000000E+00
  0.00000000E+00  0.00000000E+00  0.00000000E+00
  0.00000000E+00  0.00000000E+00  0.00000000E+00
  0.00000000E+00  0.00000000E+00  0.00000000E+00
  0.00000000E+00  0.00000000E+00  0.00000000E+00
  0.00000000E+00  0.00000000E+00  0.00000000E+00
  0.00000000E+00  0.00000000E+00  0.00000000E+00
  0.00000000E+00  0.00000000E+00  0.00000000E+00
  0.00000000E+00  0.00000000E+00  0.00000000E+00
  0.00000000E+00  0.00000000E+00  0.00000000E+00
  0.00000000E+00  0.00000000E+00  0.00000000E+00
  0.00000000E+00  0.00000000E+00  0.00000000E+00
  0.00000000E+00  0.00000000E+00  0.00000000E+00
  0.00000000E+00  0.00000000E+00  0.00000000E+00
  0.00000000E+00  0.00000000E+00  0.00000000E+00
  0.00000000E+00  0.00000000E+00  0.00000000E+00
  0.00000000E+00  0.00000000E+00  0.00000000E+00
  0.00000000E+00  0.00000000E+00  0.00000000E+00
  0.00000000E+00  0.00000000E+00  0.00000000E+00
  0.00000000E+00  0.00000000E+00  0.00000000E+00
  0.00000000E+00  0.00000000E+00  0.00000000E+00
  0.00000000E+00  0.00000000E+00  0.00000000E+00
  0.00000000E+00  0.00000000E+00  0.00000000E+00
  0.00000000E+00  0.00000000E+00  0.00000000E+00
  0.00000000E+00  0.00000000E+00  0.00000000E+00
  0.00000000E+00  0.00000000E+00  0.00000000E+00
  0.00000000E+00  0.00000000E+00  0.00000000E+00
  0.00000000E+00  0.00000000E+00  0.00000000E+00
  0.00000000E+00  0.00000000E+00  0.00000000E+00
  0.00000000E+00  0.00000000E+00  0.00000000E+00
  0.00000000E+00  0.00000000E+00  0.00000000E+00
  0.00000000E+00  0.00000000E+00  0.00000000E+00
  0.00000000E+00  0.00000000E+00  0.00000000E+00
  0.00000000E+00  0.00000000E+00  0.00000000E+00
  0.00000000E+00  0.00000000E+00  0.00000000E+00
  0.00000000E+00  0.00000000E+00  0.00000000E+00
  0.00000000E+00  0.00000000E+00  0.00000000E+00
  0.00000000E+00  0.00000000E+00  0.00000000E+00
  0.00000000E+00  0.00000000E+00  0.00000000E+00
  0.00000000E+00  0.00000000E+00  0.00000000E+00
  0.00000000E+00  0.00000000E+00  0.00000000E+00
  0.00000000E+00  0.00000000E+00  0.00000000E+00
  0.00000000E+00  0.00000000E+00  0.00000000E+00
  0.00000000E+00  0.00000000E+00  0.00000000E+00
  0.00000000E+00  0.00000000E+00  0.00000000E+00
  0.00000000E+00  0.00000000E+00  0.00000000E+00
  0.00000000E+00  0.00000000E+00  0.00000000E+00
  0.00000000E+00  0.00000000E+00  0.00000000E+00
  0.00000000E+00  0.00000000E+00  0.00000000E+00
  0.00000000E+00  0.00000000E+00  0.00000000E+00
  0.00000000E+00  0.00000000E+00  0.00000000E+00
  0.00000000E+00  0.00000000E+00  0.00000000E+00
  0.00000000E+00  0.00000000E+00  0.00000000E+00
  0.00000000E+00  0.00000000E+00  0.00000000E+00
  0.00000000E+00  0.00000000E+00  0.00000000E+00
  0.00000000E+00  0.00000000E+00  0.00000000E+00
  0.00000000E+00  0.00000000E+00  0.00000000E+00
  0.00000000E+00  0.00000000E+00  0.00000000E+00
  0.00000000E+00  0.00000000E+00  0.00000000E+00
  0.00000000E+00  0.00000000E+00  0.00000000E+00
  0.00000000E+00  0.00000000E+00  0.00000000E+00
  0.00000000E+00  0.00000000E+00  0.00000000E+00
  0.00000000E+00  0.00000000E+00  0.00000000E+00
  0.00000000E+00  0.00000000E+00  0.00000000E+00
  0.00000000E+00  0.00000000E+00  0.00000000E+00
  0.00000000E+00  0.00000000E+00  0.00000000E+00
  0.00000000E+00  0.00000000E+00  0.00000000E+00
  0.00000000E+00  0.00000000E+00  0.00000000E+00
