supercell of 100% icsd_608626.cif, 0% i 
   1.00000000000000     
    -9.7536424740711567   -0.0538521393095838   -0.0166668249298802
    -4.8302273594776821    8.3764162949432848   -0.0111627391884462
    -0.0175896481637724    0.0032168516749746  -10.1221319741816593
   Al   Ca   Zr   N 
    30     3     3    36
Direct
  0.1050808882806891  0.1012987687314038  0.2983832854154755
  0.2126677892804878  0.2089713997380613  0.0367900594947699
  0.7911576676709373  0.0875566850129346  0.7955396887130277
  0.8953347399440617  0.2042876674994289  0.5441066683952229
  0.1005541112675559  0.1005965977087868  0.7950252746069566
  0.2058896850078042  0.2132349560621591  0.5485734604175647
  0.7943083820630292  0.0857172211690056  0.2998018279667534
  0.8985434607686855  0.2016960239006238  0.0518264409570151
  0.4357747398578766  0.0996157519348557  0.8239614246632954
  0.0982983045106636  0.4346625643220321  0.2987090737107039
  0.2191234863447562  0.5426195808965915  0.0434871629340563
  0.7849169881255591  0.4212029513763937  0.7970372063128863
  0.8956495012732120  0.5330891635333472  0.5427235217224862
  0.5596788694136308  0.5339257774285286  0.0488814866824754
  0.1058459313663533  0.4303592610374025  0.7955600849464020
  0.2070434044046650  0.5487197879265509  0.5480124511534044
  0.7801241823865510  0.4294590113965455  0.2986075187961248
  0.8906717189985827  0.5365551511222790  0.0477113891128269
  0.4370815855754273  0.4319283473316915  0.7985952284238067
  0.5585245703015076  0.5390065268192643  0.5426487098730135
  0.1062191729709099  0.7601211722184829  0.2957951245937664
  0.2122957907098311  0.8778157414548815  0.0556325741096941
  0.7930100711748125  0.7541619160348390  0.7987521251495409
  0.9025735310872491  0.8656857379669205  0.5430894617499575
  0.4487348817232686  0.7570089345670112  0.2880215500207939
  0.5640484630924831  0.8674584046121012  0.0405524283174401
  0.1026565510585442  0.7641931356864688  0.7970872328951657
  0.2133078989683028  0.8745010077623192  0.5413930376636600
  0.7842317201337110  0.7569429371941112  0.2925331109520073
  0.8986187264144334  0.8683900971671150  0.0503298373308922
  0.4317706459749857  0.1041858476890596  0.2773672968648597
  0.5754085653027445  0.2039369916526184  0.0375556418976757
  0.4375343238120806  0.4342740304211858  0.3041677908945459
  0.5590155388997360  0.2046394654739672  0.5706587130121363
  0.4370414987558320  0.7593882629734381  0.8147609866142318
  0.5607595481759517  0.8651901408789087  0.5471643119220104
  0.1878472202970514  0.2252761439619277  0.3648354568970618
  0.1141067403178369  0.0972653705947764  0.1081247021984026
  0.8882699303611901  0.2061779340800669  0.8587913800286628
  0.8091528663085157  0.0778584354010619  0.6096598523680115
  0.5911149883414240  0.1810129771286384  0.3690752087566764
  0.4313762808705874  0.0843139058095730  0.0466033850851488
  0.2068098954883766  0.2123956476250939  0.8480438480067676
  0.1088068091541743  0.0918174944899022  0.6058232237210177
  0.8902775332320729  0.2075874999584784  0.3568348255552607
  0.8207911366621161  0.0733006032297396  0.1154391072470133
  0.5605683537882697  0.2046835125639959  0.8095097723418263
  0.4178026243577477  0.0976892832001255  0.6144236245850081
  0.1839004900860743  0.5563260121402323  0.3653326491510356
  0.1100920284473048  0.4278102645039894  0.1033751523784545
  0.8888220778835105  0.5371155622240096  0.8566152933404894
  0.7786218272287755  0.4269328178585923  0.6060047190114091
  0.5723706305915215  0.5540314476867607  0.3605051308071907
  0.4277460527685193  0.4560738010113496  0.0839582154915277
  0.2154452371319806  0.5429097604034254  0.8500232176368172
  0.1063947352834376  0.4300908457681203  0.6086544934199551
  0.8845692525715876  0.5420249808257438  0.3535168248796623
  0.7792858593637817  0.4261102820159977  0.1056616315165186
  0.5700592432314480  0.5173275402339996  0.8553556994870348
  0.4273803916302512  0.4549344324670201  0.6027474373202466
  0.2242387022196723  0.8713478195537618  0.3491696175534287
  0.1123486883486535  0.7576829949694712  0.1061770232510142
  0.8898008047594885  0.8713789043019915  0.8588990978653044
  0.8017528501469400  0.7502625388666218  0.6088673016457875
  0.5678393783102678  0.8517480204775794  0.3433000974620271
  0.4457671646490340  0.7614681976436941  0.0879724799657211
  0.1952572037812672  0.8863487191242712  0.8635974343721813
  0.1111086123140339  0.7642359893457495  0.6081511068864955
  0.8921525179683272  0.8682015604084086  0.3556939778616481
  0.7811039814897001  0.7602394446180014  0.1009869239406811
  0.5739345000099547  0.8678434737576737  0.8423031885668593
  0.4295864555081224  0.7557787630489017  0.6051237111109131
 
  0.00000000E+00  0.00000000E+00  0.00000000E+00
  0.00000000E+00  0.00000000E+00  0.00000000E+00
  0.00000000E+00  0.00000000E+00  0.00000000E+00
  0.00000000E+00  0.00000000E+00  0.00000000E+00
  0.00000000E+00  0.00000000E+00  0.00000000E+00
  0.00000000E+00  0.00000000E+00  0.00000000E+00
  0.00000000E+00  0.00000000E+00  0.00000000E+00
  0.00000000E+00  0.00000000E+00  0.00000000E+00
  0.00000000E+00  0.00000000E+00  0.00000000E+00
  0.00000000E+00  0.00000000E+00  0.00000000E+00
  0.00000000E+00  0.00000000E+00  0.00000000E+00
  0.00000000E+00  0.00000000E+00  0.00000000E+00
  0.00000000E+00  0.00000000E+00  0.00000000E+00
  0.00000000E+00  0.00000000E+00  0.00000000E+00
  0.00000000E+00  0.00000000E+00  0.00000000E+00
  0.00000000E+00  0.00000000E+00  0.00000000E+00
  0.00000000E+00  0.00000000E+00  0.00000000E+00
  0.00000000E+00  0.00000000E+00  0.00000000E+00
  0.00000000E+00  0.00000000E+00  0.00000000E+00
  0.00000000E+00  0.00000000E+00  0.00000000E+00
  0.00000000E+00  0.00000000E+00  0.00000000E+00
  0.00000000E+00  0.00000000E+00  0.00000000E+00
  0.00000000E+00  0.00000000E+00  0.00000000E+00
  0.00000000E+00  0.00000000E+00  0.00000000E+00
  0.00000000E+00  0.00000000E+00  0.00000000E+00
  0.00000000E+00  0.00000000E+00  0.00000000E+00
  0.00000000E+00  0.00000000E+00  0.00000000E+00
  0.00000000E+00  0.00000000E+00  0.00000000E+00
  0.00000000E+00  0.00000000E+00  0.00000000E+00
  0.00000000E+00  0.00000000E+00  0.00000000E+00
  0.00000000E+00  0.00000000E+00  0.00000000E+00
  0.00000000E+00  0.00000000E+00  0.00000000E+00
  0.00000000E+00  0.00000000E+00  0.00000000E+00
  0.00000000E+00  0.00000000E+00  0.00000000E+00
  0.00000000E+00  0.00000000E+00  0.00000000E+00
  0.00000000E+00  0.00000000E+00  0.00000000E+00
  0.00000000E+00  0.00000000E+00  0.00000000E+00
  0.00000000E+00  0.00000000E+00  0.00000000E+00
  0.00000000E+00  0.00000000E+00  0.00000000E+00
  0.00000000E+00  0.00000000E+00  0.00000000E+00
  0.00000000E+00  0.00000000E+00  0.00000000E+00
  0.00000000E+00  0.00000000E+00  0.00000000E+00
  0.00000000E+00  0.00000000E+00  0.00000000E+00
  0.00000000E+00  0.00000000E+00  0.00000000E+00
  0.00000000E+00  0.00000000E+00  0.00000000E+00
  0.00000000E+00  0.00000000E+00  0.00000000E+00
  0.00000000E+00  0.00000000E+00  0.00000000E+00
  0.00000000E+00  0.00000000E+00  0.00000000E+00
  0.00000000E+00  0.00000000E+00  0.00000000E+00
  0.00000000E+00  0.00000000E+00  0.00000000E+00
  0.00000000E+00  0.00000000E+00  0.00000000E+00
  0.00000000E+00  0.00000000E+00  0.00000000E+00
  0.00000000E+00  0.00000000E+00  0.00000000E+00
  0.00000000E+00  0.00000000E+00  0.00000000E+00
  0.00000000E+00  0.00000000E+00  0.00000000E+00
  0.00000000E+00  0.00000000E+00  0.00000000E+00
  0.00000000E+00  0.00000000E+00  0.00000000E+00
  0.00000000E+00  0.00000000E+00  0.00000000E+00
  0.00000000E+00  0.00000000E+00  0.00000000E+00
  0.00000000E+00  0.00000000E+00  0.00000000E+00
  0.00000000E+00  0.00000000E+00  0.00000000E+00
  0.00000000E+00  0.00000000E+00  0.00000000E+00
  0.00000000E+00  0.00000000E+00  0.00000000E+00
  0.00000000E+00  0.00000000E+00  0.00000000E+00
  0.00000000E+00  0.00000000E+00  0.00000000E+00
  0.00000000E+00  0.00000000E+00  0.00000000E+00
  0.00000000E+00  0.00000000E+00  0.00000000E+00
  0.00000000E+00  0.00000000E+00  0.00000000E+00
  0.00000000E+00  0.00000000E+00  0.00000000E+00
  0.00000000E+00  0.00000000E+00  0.00000000E+00
  0.00000000E+00  0.00000000E+00  0.00000000E+00
  0.00000000E+00  0.00000000E+00  0.00000000E+00
