supercell of 100% icsd_608626.cif, 0% i 
   1.00000000000000     
    -9.7240285480150241   -0.0172391310647391   -0.0173377311841077
    -4.8471107028948142    8.4079113078118795   -0.0086184971732559
    -0.0183322406471432    0.0000461233720802  -10.1730585693397177
   Al   Zr   Ca   N 
    30     3     3    36
Direct
  0.1166864418568849  0.0879563282265465  0.2953470386758497
  0.2152186504444558  0.2099780338887527  0.0465900402014654
  0.8966093280680170  0.1956520947593035  0.5470107413703005
  0.4391532965973965  0.1010272447765743  0.2960550991022828
  0.5449387156092556  0.2124192480111802  0.0507909539706901
  0.1181506093902343  0.0938247414896409  0.7938812766476531
  0.2160867626499652  0.2096521055578435  0.5475654537743821
  0.7772359229586598  0.0888858619992163  0.2947900749748626
  0.8983808490949698  0.2037766753396824  0.0488036275432719
  0.4326098758439585  0.1049526682314621  0.7912332206287971
  0.5519307107400522  0.2093950969183922  0.5412240476294770
  0.1171396411433179  0.4295144146930951  0.2896346771762595
  0.2213275727358450  0.5371384605956635  0.0457624302997388
  0.7795822223623716  0.4331054289637564  0.7838747432254820
  0.8995966287448667  0.5368983069069131  0.5521481654694398
  0.4329303787139125  0.4288941301400158  0.2924929682227031
  0.1096047099783206  0.4226343091995659  0.7986855554442300
  0.9018860586673227  0.5301715910858036  0.0441646847847039
  0.4454810349288536  0.4290871170935660  0.7907816847456388
  0.5488029934702610  0.5379430990760312  0.5544248702864536
  0.1134775039027858  0.7600824221461622  0.2919089175161531
  0.2128797100254047  0.8782259569223712  0.0442724603351508
  0.7882574855400719  0.7505583040417889  0.7940499468004276
  0.8939432309369550  0.8712523505976222  0.5432116065616697
  0.4313555356050855  0.7681803811859922  0.2977961568832441
  0.1127261795996333  0.7636469382938884  0.7977457867144864
  0.2135440363161649  0.8775859934813184  0.5476552393904086
  0.7878484708477771  0.7608617981139645  0.2952345601004538
  0.8986365032190946  0.8650316788329846  0.0513752290760578
  0.4389242043259998  0.7579099115008319  0.7870047054102187
  0.7765309807944902  0.0929307149114038  0.8010984978394973
  0.7821605875390105  0.4268820436527534  0.3176134693219268
  0.5554814627145745  0.8743977015210760  0.0575809411131800
  0.5598748919353582  0.5321943653850312  0.0463111647659034
  0.2176403034544236  0.5435744884692610  0.5581011014205544
  0.5582408161475243  0.8715897987258145  0.5486721316913190
  0.2187614232151702  0.2074246092322767  0.3531940543463179
  0.1112743418105495  0.0934519788352048  0.1056189193753667
  0.8975577851154171  0.2153835727456723  0.8549028225209838
  0.7737535394604080  0.0931821104262909  0.5934914278949108
  0.5562311516805920  0.2045160752931281  0.3505657751650872
  0.4292178508579596  0.1140210289231405  0.1076124784578809
  0.2216208265235835  0.2031153291109504  0.8596605933811361
  0.1124464221897483  0.0948294744656906  0.6049234110780759
  0.9007288014590102  0.1806468595344484  0.3583082220471567
  0.7765963606578410  0.0948083444183467  0.0977864082028432
  0.5380571078859262  0.2131853403410560  0.8626393434875936
  0.4256511548900690  0.1283241784302689  0.6078791222530526
  0.2177590225902861  0.5429231749859653  0.3344575675827244
  0.1128593920741565  0.4261712610478412  0.0993772206123893
  0.8873406949800682  0.5367262141684819  0.8565110973557921
  0.7801835778926360  0.4267076387925002  0.5850939858669264
  0.5341915264592387  0.5485863774256359  0.3534202611757919
  0.4281465526513912  0.4162566863959185  0.1092900607080551
  0.2226216422355876  0.5395920759721733  0.8484013537355111
  0.0958291229375092  0.4082680008644317  0.6185923465321324
  0.9041160787583564  0.5492418450129293  0.3618190038643050
  0.8143506195401145  0.4105135992979285  0.1147864571231239
  0.5616484904336474  0.5371539597509525  0.8267238499190626
  0.4759678353938952  0.4070192256590701  0.6098823480176776
  0.2172758144012974  0.8745534336100675  0.3564915290249999
  0.1126464041741571  0.7622277093064369  0.1015221666228641
  0.8964406004829328  0.8551573616996180  0.8653889788078715
  0.8141143739925241  0.7449025238887259  0.6118187498478491
  0.5596963003513622  0.8712953309846796  0.3166002259989114
  0.4158360060984876  0.7829798532367889  0.1127875788179722
  0.2213333291133281  0.8754361191844211  0.8569259596328038
  0.0883283903595355  0.8029202177744708  0.6177970911526600
  0.8909863483919338  0.8726626437743903  0.3509607864074837
  0.8033565016237105  0.7448746927266683  0.1076485226542587
  0.5560953349007676  0.8730335611808684  0.8381822821623004
  0.4221049675135262  0.7500957867673250  0.6040447290517008
 
  0.00000000E+00  0.00000000E+00  0.00000000E+00
  0.00000000E+00  0.00000000E+00  0.00000000E+00
  0.00000000E+00  0.00000000E+00  0.00000000E+00
  0.00000000E+00  0.00000000E+00  0.00000000E+00
  0.00000000E+00  0.00000000E+00  0.00000000E+00
  0.00000000E+00  0.00000000E+00  0.00000000E+00
  0.00000000E+00  0.00000000E+00  0.00000000E+00
  0.00000000E+00  0.00000000E+00  0.00000000E+00
  0.00000000E+00  0.00000000E+00  0.00000000E+00
  0.00000000E+00  0.00000000E+00  0.00000000E+00
  0.00000000E+00  0.00000000E+00  0.00000000E+00
  0.00000000E+00  0.00000000E+00  0.00000000E+00
  0.00000000E+00  0.00000000E+00  0.00000000E+00
  0.00000000E+00  0.00000000E+00  0.00000000E+00
  0.00000000E+00  0.00000000E+00  0.00000000E+00
  0.00000000E+00  0.00000000E+00  0.00000000E+00
  0.00000000E+00  0.00000000E+00  0.00000000E+00
  0.00000000E+00  0.00000000E+00  0.00000000E+00
  0.00000000E+00  0.00000000E+00  0.00000000E+00
  0.00000000E+00  0.00000000E+00  0.00000000E+00
  0.00000000E+00  0.00000000E+00  0.00000000E+00
  0.00000000E+00  0.00000000E+00  0.00000000E+00
  0.00000000E+00  0.00000000E+00  0.00000000E+00
  0.00000000E+00  0.00000000E+00  0.00000000E+00
  0.00000000E+00  0.00000000E+00  0.00000000E+00
  0.00000000E+00  0.00000000E+00  0.00000000E+00
  0.00000000E+00  0.00000000E+00  0.00000000E+00
  0.00000000E+00  0.00000000E+00  0.00000000E+00
  0.00000000E+00  0.00000000E+00  0.00000000E+00
  0.00000000E+00  0.00000000E+00  0.00000000E+00
  0.00000000E+00  0.00000000E+00  0.00000000E+00
  0.00000000E+00  0.00000000E+00  0.00000000E+00
  0.00000000E+00  0.00000000E+00  0.00000000E+00
  0.00000000E+00  0.00000000E+00  0.00000000E+00
  0.00000000E+00  0.00000000E+00  0.00000000E+00
  0.00000000E+00  0.00000000E+00  0.00000000E+00
  0.00000000E+00  0.00000000E+00  0.00000000E+00
  0.00000000E+00  0.00000000E+00  0.00000000E+00
  0.00000000E+00  0.00000000E+00  0.00000000E+00
  0.00000000E+00  0.00000000E+00  0.00000000E+00
  0.00000000E+00  0.00000000E+00  0.00000000E+00
  0.00000000E+00  0.00000000E+00  0.00000000E+00
  0.00000000E+00  0.00000000E+00  0.00000000E+00
  0.00000000E+00  0.00000000E+00  0.00000000E+00
  0.00000000E+00  0.00000000E+00  0.00000000E+00
  0.00000000E+00  0.00000000E+00  0.00000000E+00
  0.00000000E+00  0.00000000E+00  0.00000000E+00
  0.00000000E+00  0.00000000E+00  0.00000000E+00
  0.00000000E+00  0.00000000E+00  0.00000000E+00
  0.00000000E+00  0.00000000E+00  0.00000000E+00
  0.00000000E+00  0.00000000E+00  0.00000000E+00
  0.00000000E+00  0.00000000E+00  0.00000000E+00
  0.00000000E+00  0.00000000E+00  0.00000000E+00
  0.00000000E+00  0.00000000E+00  0.00000000E+00
  0.00000000E+00  0.00000000E+00  0.00000000E+00
  0.00000000E+00  0.00000000E+00  0.00000000E+00
  0.00000000E+00  0.00000000E+00  0.00000000E+00
  0.00000000E+00  0.00000000E+00  0.00000000E+00
  0.00000000E+00  0.00000000E+00  0.00000000E+00
  0.00000000E+00  0.00000000E+00  0.00000000E+00
  0.00000000E+00  0.00000000E+00  0.00000000E+00
  0.00000000E+00  0.00000000E+00  0.00000000E+00
  0.00000000E+00  0.00000000E+00  0.00000000E+00
  0.00000000E+00  0.00000000E+00  0.00000000E+00
  0.00000000E+00  0.00000000E+00  0.00000000E+00
  0.00000000E+00  0.00000000E+00  0.00000000E+00
  0.00000000E+00  0.00000000E+00  0.00000000E+00
  0.00000000E+00  0.00000000E+00  0.00000000E+00
  0.00000000E+00  0.00000000E+00  0.00000000E+00
  0.00000000E+00  0.00000000E+00  0.00000000E+00
  0.00000000E+00  0.00000000E+00  0.00000000E+00
  0.00000000E+00  0.00000000E+00  0.00000000E+00
