supercell of icsd_191774.cif            
   1.00000000000000     
    10.6855902842793586    0.0008820877513774    0.0007094058396685
    -5.3420313221189604    9.2526709036007091   -0.0000018537220265
     0.0007720970033254    0.0004435007789526   11.3535659160145315
   N    In   Y 
    36    34     2
Direct
  0.2222375975303095  0.1115216470239062  0.4426553774913700
  0.1071452275168809  0.2138158463012942  0.1886321739458410
  0.8879589016231080  0.1102930562029414  0.9396007586228379
  0.7774508137395060  0.2220589867753873  0.6897967959166493
  0.5558360412995071  0.1112520279104245  0.4391281527274487
  0.4440198717553727  0.2224358397456214  0.1908703252442550
  0.2268664235628179  0.1186442976715298  0.9375970208243771
  0.1103716059701227  0.2225287225298942  0.6913456058818923
  0.8890254331971406  0.1113666153956459  0.4400331952534771
  0.7783185660158836  0.2224937492480379  0.1899206044642341
  0.5550751910831124  0.1108706175993248  0.9406757415539317
  0.4457210957895654  0.2226233414812953  0.6888999230766331
  0.2225302834707463  0.4445981339577045  0.4430268133082294
  0.1071463028506230  0.5599960276889746  0.1886307172472428
  0.8879590129321357  0.4443339619970743  0.9396009206750620
  0.7772988259806510  0.5546432410507549  0.6890205458854481
  0.5553458661857604  0.4447338951145952  0.4402162016858000
  0.4527416958958099  0.5597036140678924  0.1877722582853920
  0.2223790773825840  0.4445216405246342  0.9437586692268383
  0.1103724463656022  0.5545092574543489  0.6913456517506376
  0.8890264735255968  0.4443270824866943  0.4400344374996621
  0.7779818647587220  0.5560023020204952  0.1903680457804739
  0.5560352689986274  0.4439057586479507  0.9391847142716117
  0.4446691156381064  0.5556681603789499  0.6922283689589932
  0.2222377872239534  0.7773830545352993  0.4426535313777720
  0.1111269674768209  0.8888966427974481  0.1940894349368634
  0.8807149139454324  0.7736919328798564  0.9384217828432710
  0.7772990460893254  0.8893225543389534  0.6890194417402640
  0.5553453126545378  0.7772778025368794  0.4402151363278577
  0.4440210340770321  0.8882502358209194  0.1908707248982680
  0.2268672678129207  0.7748891994554938  0.9375977771370003
  0.1108001662959381  0.8887331246214600  0.6934202339062168
  0.8886047875623859  0.7776364848128168  0.4416483060311549
  0.7779817882313296  0.8886460108335683  0.1903667360786798
  0.5560341513923532  0.7787948061917547  0.9391842935670880
  0.4457204889275772  0.8897637168410029  0.6888976850206205
  0.2214990861394099  0.1092293587922413  0.2518559483147698
  0.1106089462643567  0.2225526400008420  0.5012531301658072
  0.8880087851343887  0.1107333633753527  0.7492167132109202
  0.7777379485890705  0.2222027335998789  0.9991699791009836
  0.5557557272818272  0.1112109394210137  0.2486564297150267
  0.4453674668115113  0.2225369032342996  0.4987884365431299
  0.2243585124224765  0.1141252141909490  0.7476220686926993
  0.1101877749489404  0.2208570963902829  0.9979375522383478
  0.8875851607998868  0.1090393580287667  0.2491615591253975
  0.7775947011395132  0.2221306795041826  0.4990469046661090
  0.5555761700729178  0.1111202577759371  0.7496303890092548
  0.4456782927577194  0.2243242675641639  0.9997264421881411
  0.1106106647331302  0.5547240683301879  0.5012531130408817
  0.8880101122723829  0.4439434568412466  0.7492170648531555
  0.7756015546897999  0.5542788164620163  0.9995769106896404
  0.5576174057814640  0.4455232739032056  0.2495131994938760
  0.4445169127736861  0.5555918038299055  0.5016038774705009
  0.2221988683309917  0.4444321348364113  0.7511167985938272
  0.1101888767713319  0.5559965817239529  0.9979351721257714
  0.8875878072608074  0.4452148468852783  0.2491628205495289
  0.7775019209340570  0.5549570312459409  0.4990803842330820
  0.5559264322428774  0.4439626597825921  0.7491457339824734
  0.4479758489954904  0.5573205091028299  0.9974282979759650
  0.2214995906733748  0.7789357181233498  0.2518544847820507
  0.1108440878333568  0.8887554503681017  0.5009735734320842
  0.8853954529732988  0.7760311185826083  0.7479978052371550
  0.7755999402220368  0.8879908688742546  0.9995754057610853
  0.5576179492316840  0.7787598374156630  0.2495125839454317
  0.4453684182000899  0.8894979039176647  0.4987851092585984
  0.2243588151118772  0.7768996219557849  0.7476225713356754
  0.8887975316645225  0.7777317452108790  0.2511689400939048
  0.7775011343304499  0.8892130652466861  0.4990785625307268
  0.5559267660272909  0.7786318498641478  0.7491449048607208
  0.4456798812125271  0.8880205596328281  0.9997272027943964
  0.2224179095883230  0.4445420507633315  0.2448757297877009
  0.1110308310252748  0.8888488262823913  0.9956560967577772
 
  0.00000000E+00  0.00000000E+00  0.00000000E+00
  0.00000000E+00  0.00000000E+00  0.00000000E+00
  0.00000000E+00  0.00000000E+00  0.00000000E+00
  0.00000000E+00  0.00000000E+00  0.00000000E+00
  0.00000000E+00  0.00000000E+00  0.00000000E+00
  0.00000000E+00  0.00000000E+00  0.00000000E+00
  0.00000000E+00  0.00000000E+00  0.00000000E+00
  0.00000000E+00  0.00000000E+00  0.00000000E+00
  0.00000000E+00  0.00000000E+00  0.00000000E+00
  0.00000000E+00  0.00000000E+00  0.00000000E+00
  0.00000000E+00  0.00000000E+00  0.00000000E+00
  0.00000000E+00  0.00000000E+00  0.00000000E+00
  0.00000000E+00  0.00000000E+00  0.00000000E+00
  0.00000000E+00  0.00000000E+00  0.00000000E+00
  0.00000000E+00  0.00000000E+00  0.00000000E+00
  0.00000000E+00  0.00000000E+00  0.00000000E+00
  0.00000000E+00  0.00000000E+00  0.00000000E+00
  0.00000000E+00  0.00000000E+00  0.00000000E+00
  0.00000000E+00  0.00000000E+00  0.00000000E+00
  0.00000000E+00  0.00000000E+00  0.00000000E+00
  0.00000000E+00  0.00000000E+00  0.00000000E+00
  0.00000000E+00  0.00000000E+00  0.00000000E+00
  0.00000000E+00  0.00000000E+00  0.00000000E+00
  0.00000000E+00  0.00000000E+00  0.00000000E+00
  0.00000000E+00  0.00000000E+00  0.00000000E+00
  0.00000000E+00  0.00000000E+00  0.00000000E+00
  0.00000000E+00  0.00000000E+00  0.00000000E+00
  0.00000000E+00  0.00000000E+00  0.00000000E+00
  0.00000000E+00  0.00000000E+00  0.00000000E+00
  0.00000000E+00  0.00000000E+00  0.00000000E+00
  0.00000000E+00  0.00000000E+00  0.00000000E+00
  0.00000000E+00  0.00000000E+00  0.00000000E+00
  0.00000000E+00  0.00000000E+00  0.00000000E+00
  0.00000000E+00  0.00000000E+00  0.00000000E+00
  0.00000000E+00  0.00000000E+00  0.00000000E+00
  0.00000000E+00  0.00000000E+00  0.00000000E+00
  0.00000000E+00  0.00000000E+00  0.00000000E+00
  0.00000000E+00  0.00000000E+00  0.00000000E+00
  0.00000000E+00  0.00000000E+00  0.00000000E+00
  0.00000000E+00  0.00000000E+00  0.00000000E+00
  0.00000000E+00  0.00000000E+00  0.00000000E+00
  0.00000000E+00  0.00000000E+00  0.00000000E+00
  0.00000000E+00  0.00000000E+00  0.00000000E+00
  0.00000000E+00  0.00000000E+00  0.00000000E+00
  0.00000000E+00  0.00000000E+00  0.00000000E+00
  0.00000000E+00  0.00000000E+00  0.00000000E+00
  0.00000000E+00  0.00000000E+00  0.00000000E+00
  0.00000000E+00  0.00000000E+00  0.00000000E+00
  0.00000000E+00  0.00000000E+00  0.00000000E+00
  0.00000000E+00  0.00000000E+00  0.00000000E+00
  0.00000000E+00  0.00000000E+00  0.00000000E+00
  0.00000000E+00  0.00000000E+00  0.00000000E+00
  0.00000000E+00  0.00000000E+00  0.00000000E+00
  0.00000000E+00  0.00000000E+00  0.00000000E+00
  0.00000000E+00  0.00000000E+00  0.00000000E+00
  0.00000000E+00  0.00000000E+00  0.00000000E+00
  0.00000000E+00  0.00000000E+00  0.00000000E+00
  0.00000000E+00  0.00000000E+00  0.00000000E+00
  0.00000000E+00  0.00000000E+00  0.00000000E+00
  0.00000000E+00  0.00000000E+00  0.00000000E+00
  0.00000000E+00  0.00000000E+00  0.00000000E+00
  0.00000000E+00  0.00000000E+00  0.00000000E+00
  0.00000000E+00  0.00000000E+00  0.00000000E+00
  0.00000000E+00  0.00000000E+00  0.00000000E+00
  0.00000000E+00  0.00000000E+00  0.00000000E+00
  0.00000000E+00  0.00000000E+00  0.00000000E+00
  0.00000000E+00  0.00000000E+00  0.00000000E+00
  0.00000000E+00  0.00000000E+00  0.00000000E+00
  0.00000000E+00  0.00000000E+00  0.00000000E+00
  0.00000000E+00  0.00000000E+00  0.00000000E+00
  0.00000000E+00  0.00000000E+00  0.00000000E+00
  0.00000000E+00  0.00000000E+00  0.00000000E+00
