supercell of icsd_181358.cif            
   1.00000000000000     
    10.0400038386026722   -0.0039435171297423   -0.0014031205444283
    -5.0234199997321900    8.7086997728395392   -0.0070971171087593
    -0.0016164690534957   -0.0098215201627880   10.6028239408759735
   N    Sc   Ga
    36    12    24
Direct
  0.2370079060100139  0.1216694161825984  0.4384278586573984
  0.1025636935889409  0.2321189534287669  0.1883351238672333
  0.8889834882046443  0.1113517548188412  0.9441520154362451
  0.7791961459778278  0.2210291030135494  0.7019397035914565
  0.5520457042449607  0.1245986739418754  0.4325111204354712
  0.4594016509034304  0.2317050980009370  0.1840385954656725
  0.2090762000579645  0.1051696749148974  0.9465987361067221
  0.1084426373212111  0.2192484272385045  0.6999462951637696
  0.8880183612211567  0.1115925556134130  0.4301801740359892
  0.7689129851612506  0.2109326915282423  0.1863058638330699
  0.5617090560264870  0.0997154533565165  0.9388095477459331
  0.4449019364044986  0.2211135056804423  0.6986659920199116
  0.2281427134488041  0.4580673179559795  0.4354418107596558
  0.1249086218198983  0.5624038685053208  0.1887712303467595
  0.8741255761852571  0.4366844640145828  0.9426020633042143
  0.7793741977363240  0.5573483961806787  0.6922170333469779
  0.5569410336033300  0.4440701050221847  0.4413274682531920
  0.4439817315571020  0.5517169940459539  0.1900772118624872
  0.2328557111171676  0.4365276425131555  0.9373362775399983
  0.1056451921292663  0.5409941913358836  0.6959110480104300
  0.8951059558356818  0.4569124657694417  0.4446728608702841
  0.7608066279498331  0.5447030236832333  0.1804543334532696
  0.5628256028680170  0.4630085474160879  0.9308043268577890
  0.4365477622096492  0.5407773588490272  0.6823439097236772
  0.2132817636772728  0.7637893034381449  0.4398238314239080
  0.1188760627842456  0.8820377116601179  0.1892618638059602
  0.8890768162084939  0.7782251967065434  0.9483064985788872
  0.7885292919625257  0.8943913017511136  0.7001305457899392
  0.5505711342497435  0.7613981489082988  0.4328037299452703
  0.4447199677232163  0.8900778079950413  0.1988582181262331
  0.2327143592868737  0.7925709983045977  0.9441935918381006
  0.1035528932902068  0.8959990209702440  0.6965654607313851
  0.8808672632473957  0.7627383165109620  0.4351880377051458
  0.7689821883301349  0.8960467588335490  0.1877232275637439
  0.5516469297378563  0.7759136517947240  0.9534732047863557
  0.4548952418243388  0.9009837459640266  0.6836110632466159
  0.2282222921770654  0.1177233887110773  0.2389407214738100
  0.7775869959221140  0.2269900083191772  0.5010570422171483
  0.4514554046833865  0.2271270645714623  0.9851568797670893
  0.1156386762843695  0.2290576681213992  0.4980163851948731
  0.1153860029205234  0.5553252346610762  0.9907275311629675
  0.8892385633068400  0.4446973558421163  0.2437729671999236
  0.7772173989351074  0.8844649405509131  0.4973578511447911
  0.2245808224049242  0.7829931392238620  0.7452469026702033
  0.1090856177200763  0.8892462221428659  0.4950960787217440
  0.8823526703106879  0.7733079071142726  0.2366590536728026
  0.5551655072448582  0.7740534011852631  0.7527320310458379
  0.4459675250559556  0.8901555162676047  0.4834747927468044
  0.1076810219072755  0.2220320974419181  0.0006441095517289
  0.8914971179914062  0.1119749056825725  0.7577803639292284
  0.5557262174113049  0.1153858949226887  0.2468727352660451
  0.2156750112376997  0.1105086665154502  0.7560079480682589
  0.8829974318380280  0.1122252783469122  0.2445639661642289
  0.7741787897289285  0.2152834731086273  0.9991583419726311
  0.5599024715420740  0.1098808043510573  0.7521985914596456
  0.4474811622667261  0.2277346987134976  0.5030106571079926
  0.2254891584024890  0.4510821474392372  0.2489241531213224
  0.8836246978604336  0.4395785308015121  0.7535940775958991
  0.7773625139020837  0.5549890984141257  0.5024309908453333
  0.5542295232021885  0.4427954721622811  0.2511687603086941
  0.4475617109114722  0.5551983503596460  0.0025957196356217
  0.2231021133894586  0.4356607921124365  0.7511211631607324
  0.1104802614689291  0.5533926590209504  0.5023853175674162
  0.7716313501518002  0.5547414016445700  0.9958726840487913
  0.5564531203777037  0.4467713202488710  0.7458466700639903
  0.4429287535499213  0.5507503841750037  0.4954036835598004
  0.2239169798998333  0.7733567060216586  0.2497999556994372
  0.1126466401922244  0.8885110415109665  0.0011101936705273
  0.8897493060162063  0.7801601868692600  0.7576116234612300
  0.5522756826632786  0.7733596017514941  0.2459954880736888
  0.4474629395316612  0.8902734949577749  0.0081691859696846
  0.7748141436859655  0.8915795008689216  0.0016855084509828
 
  0.00000000E+00  0.00000000E+00  0.00000000E+00
  0.00000000E+00  0.00000000E+00  0.00000000E+00
  0.00000000E+00  0.00000000E+00  0.00000000E+00
  0.00000000E+00  0.00000000E+00  0.00000000E+00
  0.00000000E+00  0.00000000E+00  0.00000000E+00
  0.00000000E+00  0.00000000E+00  0.00000000E+00
  0.00000000E+00  0.00000000E+00  0.00000000E+00
  0.00000000E+00  0.00000000E+00  0.00000000E+00
  0.00000000E+00  0.00000000E+00  0.00000000E+00
  0.00000000E+00  0.00000000E+00  0.00000000E+00
  0.00000000E+00  0.00000000E+00  0.00000000E+00
  0.00000000E+00  0.00000000E+00  0.00000000E+00
  0.00000000E+00  0.00000000E+00  0.00000000E+00
  0.00000000E+00  0.00000000E+00  0.00000000E+00
  0.00000000E+00  0.00000000E+00  0.00000000E+00
  0.00000000E+00  0.00000000E+00  0.00000000E+00
  0.00000000E+00  0.00000000E+00  0.00000000E+00
  0.00000000E+00  0.00000000E+00  0.00000000E+00
  0.00000000E+00  0.00000000E+00  0.00000000E+00
  0.00000000E+00  0.00000000E+00  0.00000000E+00
  0.00000000E+00  0.00000000E+00  0.00000000E+00
  0.00000000E+00  0.00000000E+00  0.00000000E+00
  0.00000000E+00  0.00000000E+00  0.00000000E+00
  0.00000000E+00  0.00000000E+00  0.00000000E+00
  0.00000000E+00  0.00000000E+00  0.00000000E+00
  0.00000000E+00  0.00000000E+00  0.00000000E+00
  0.00000000E+00  0.00000000E+00  0.00000000E+00
  0.00000000E+00  0.00000000E+00  0.00000000E+00
  0.00000000E+00  0.00000000E+00  0.00000000E+00
  0.00000000E+00  0.00000000E+00  0.00000000E+00
  0.00000000E+00  0.00000000E+00  0.00000000E+00
  0.00000000E+00  0.00000000E+00  0.00000000E+00
  0.00000000E+00  0.00000000E+00  0.00000000E+00
  0.00000000E+00  0.00000000E+00  0.00000000E+00
  0.00000000E+00  0.00000000E+00  0.00000000E+00
  0.00000000E+00  0.00000000E+00  0.00000000E+00
  0.00000000E+00  0.00000000E+00  0.00000000E+00
  0.00000000E+00  0.00000000E+00  0.00000000E+00
  0.00000000E+00  0.00000000E+00  0.00000000E+00
  0.00000000E+00  0.00000000E+00  0.00000000E+00
  0.00000000E+00  0.00000000E+00  0.00000000E+00
  0.00000000E+00  0.00000000E+00  0.00000000E+00
  0.00000000E+00  0.00000000E+00  0.00000000E+00
  0.00000000E+00  0.00000000E+00  0.00000000E+00
  0.00000000E+00  0.00000000E+00  0.00000000E+00
  0.00000000E+00  0.00000000E+00  0.00000000E+00
  0.00000000E+00  0.00000000E+00  0.00000000E+00
  0.00000000E+00  0.00000000E+00  0.00000000E+00
  0.00000000E+00  0.00000000E+00  0.00000000E+00
  0.00000000E+00  0.00000000E+00  0.00000000E+00
  0.00000000E+00  0.00000000E+00  0.00000000E+00
  0.00000000E+00  0.00000000E+00  0.00000000E+00
  0.00000000E+00  0.00000000E+00  0.00000000E+00
  0.00000000E+00  0.00000000E+00  0.00000000E+00
  0.00000000E+00  0.00000000E+00  0.00000000E+00
  0.00000000E+00  0.00000000E+00  0.00000000E+00
  0.00000000E+00  0.00000000E+00  0.00000000E+00
  0.00000000E+00  0.00000000E+00  0.00000000E+00
  0.00000000E+00  0.00000000E+00  0.00000000E+00
  0.00000000E+00  0.00000000E+00  0.00000000E+00
  0.00000000E+00  0.00000000E+00  0.00000000E+00
  0.00000000E+00  0.00000000E+00  0.00000000E+00
  0.00000000E+00  0.00000000E+00  0.00000000E+00
  0.00000000E+00  0.00000000E+00  0.00000000E+00
  0.00000000E+00  0.00000000E+00  0.00000000E+00
  0.00000000E+00  0.00000000E+00  0.00000000E+00
  0.00000000E+00  0.00000000E+00  0.00000000E+00
  0.00000000E+00  0.00000000E+00  0.00000000E+00
  0.00000000E+00  0.00000000E+00  0.00000000E+00
  0.00000000E+00  0.00000000E+00  0.00000000E+00
  0.00000000E+00  0.00000000E+00  0.00000000E+00
  0.00000000E+00  0.00000000E+00  0.00000000E+00
