supercell of POSCAR                     
   1.01189200000000     
     3.1482772356600002   -5.4762754812200001    9.9674464565599994
    -9.4511209497999999   -5.4731922780100000    0.0032121685426600
     6.3112884282600001  -10.9581161277000003   -9.9749049577999997
   Al   Sc   N 
    83    12    96
Direct
  0.0894173782886440  0.5865082797572327  0.3362729980401085
  0.0028373515391564  0.3271926929819458  0.2537732653875651
  0.0854015149430722  0.0841749897391750  0.3331681310130818
  0.3287917218727827  0.3250305993731857  0.0805412675322330
  0.4171565789465319  0.0865406230839767  0.1691278927861077
  0.0065384418732748  0.8394061495685392  0.2531618128779769
  0.1686915389656463  0.3318490867232100  0.4149137798600933
  0.2484031104846096  0.0870001772980800  0.4973688191687913
  0.1630061904128084  0.8355513404738772  0.4161248744990615
  0.3292609219230940  0.6709739110523643  0.3405668825243424
  0.1576327190726872  0.6697754447367501  0.1670571831818535
  0.2526853093744066  0.4086818109369261  0.2513805437175165
  0.3349291058772366  0.1650354594114489  0.3337599600856436
  0.0111066127125170  0.6729781542055377  0.4950535754159233
  0.1674577637559267  0.1615967618811851  0.1682119394135810
  0.2536373796188727  0.9190017473710270  0.2539443968656059
  0.4077268856815408  0.4124342523204305  0.4208150880728709
  0.5012128939316369  0.1619343058436016  0.4984129981019052
  0.0801066905213261  0.9210383094379111  0.0814068063618336
  0.4195781327976107  0.9179416560666880  0.4143478454872564
  0.0860419470596199  0.5842455490609737  0.8343521517970842
  0.0012298845827985  0.3276939948402600  0.7516395296233114
  0.0837211371719420  0.0844253322323567  0.8336424261692983
  0.2463817146053202  0.5802812117042748  0.9973934498191142
  0.3330324187536746  0.3197841129330570  0.5816291846146981
  0.4184685160876782  0.0839658505422491  0.6699060954603837
  0.0038767100501218  0.8407087154894555  0.7530732167213969
  0.1648844045953766  0.3333386815669215  0.9145634383491483
  0.2465421113336816  0.0859615635222255  0.9969554186217806
  0.1616576962838465  0.8346594038104911  0.9158683756532255
  0.3339142750915514  0.6691284744996580  0.8359844059277393
  0.1619208792064910  0.6748702252453569  0.6669952681269820
  0.2502227749351107  0.4090633349195940  0.7511038528321592
  0.3325964744254861  0.1657515304194490  0.8335295123046222
  0.9993457615394732  0.6698162748441874  0.9980003235271084
  0.1680255389602365  0.1634899388609696  0.6676085644818954
  0.2517918235979124  0.9190387105461753  0.7529776631554839
  0.4122433743031593  0.4159478523891380  0.9154526943695274
  0.4966788501357016  0.1633053963325821  0.9979382055211516
  0.0819509842045534  0.9226783025813958  0.5811798649595730
  0.4159868651172687  0.9171003764431305  0.9137870794134884
  0.5450969207633207  0.5828263509690075  0.3560397215769555
  0.5025728641427705  0.3261892427861355  0.2545772169080465
  0.5862305694243659  0.0839018137611518  0.3343461160747694
  0.7532734148062303  0.5816168254944003  0.4961716832798118
  0.8295019069202141  0.3233229576759982  0.0797001794167400
  0.9170977513618368  0.0868777039745225  0.1692807233177334
  0.5064725446764058  0.8398983844238188  0.2526838064362522
  0.6689997840804907  0.3329786785800479  0.4138118518326337
  0.7503522247528522  0.0861861981338379  0.4975747737433238
  0.6667216042248256  0.8347566929418875  0.4158794486303989
  0.8382717029406663  0.6688973904359727  0.3353115199419605
  0.6619560495714722  0.6694484343833338  0.1671997156815976
  0.7535705066237171  0.4105219220457528  0.2509279834531242
  0.8355400197549088  0.1663305240599584  0.3339057958145730
  0.5040155330475997  0.6724790612105096  0.5010199826118722
  0.6672770478215284  0.1614060421376990  0.1686245312365884
  0.7539311107882725  0.9185114661072262  0.2538792789323452
  0.9169135325304936  0.4173187701793637  0.4156075265893762
  0.0013909073261473  0.1660276224673467  0.4976082166040001
  0.5798143314266753  0.9203597177384069  0.0814639226909790
  0.9203469890487241  0.9188823675391831  0.4139544508296709
  0.5852501771147303  0.5835043854920059  0.8334489259070210
  0.4998559715167161  0.3267457908623612  0.7535065887295360
  0.5832789965759986  0.0833216092086744  0.8341782476716659
  0.7471029317508666  0.5803468490399482  0.9959713935874035
  0.8353437018465399  0.3263124686788501  0.5800677442483178
  0.9177692533768109  0.0871161047204012  0.6688445613023362
  0.5031788590528237  0.8371833493971366  0.7526719605507637
  0.6648836437511889  0.3329077582204860  0.9145441789883009
  0.7457895552494591  0.0856750267219653  0.9969206753872584
  0.6616639284092827  0.8338715231403739  0.9158649150643754
  0.8344077008938058  0.6696021764702422  0.8364685236015106
  0.6618602898139088  0.6699571989761921  0.6669204210381423
  0.7507435169595453  0.4089740452625747  0.7511622323642371
  0.8327893086755438  0.1658985651899272  0.8335509354915089
  0.5002449159442648  0.6695034453071997  0.9975191362699292
  0.6679538773362523  0.1623268259903980  0.6683788566855924
  0.7511405946537977  0.9187415425725831  0.7536772364643483
  0.9126046947929822  0.4153413698717401  0.9146458350951647
  0.9970150282559729  0.1629814997598231  0.9974015426016791
  0.5830901478516850  0.9204064455383829  0.5815945150396402
  0.9161373493183902  0.9178551564747437  0.9140244795933086
  0.4033492763479742  0.5837019521307312  0.1743499356685945
  0.3255289988055949  0.8375520995180707  0.0847369872983705
  0.0736642976202404  0.4157407445485219  0.0865041915967950
  0.4023270909474235  0.5816303714405393  0.6702292868095228
  0.3272877230807651  0.8372001132787190  0.5830752168568267
  0.0930322016443910  0.4239687146187023  0.5796424905757291
  0.8973197100340826  0.5824359801209695  0.1749028181061121
  0.8262759721687374  0.8394433095325340  0.0839772046357723
  0.5762897192764527  0.4155813478552020  0.0863667494090308
  0.9088369021414806  0.5814669306953348  0.6721147385483661
  0.8305020842055839  0.8365745657516825  0.5841430307819522
  0.5819089880480206  0.4161574459991968  0.5846529044168776
  0.2187225581074657  0.5808431608999740  0.2660869890595023
  0.0371665469974616  0.5984835848802419  0.1017875129965518
  0.1329133172415027  0.3228966228488517  0.1948223501917568
  0.2133514853097012  0.0827476401213332  0.2701126723183123
  0.4131982926899482  0.5817649083606113  0.4230214963443544
  0.4491142192304878  0.3237128713088993  0.0127322528073464
  0.0417026913467993  0.0861261002660072  0.1027647749593115
  0.1332689089572838  0.8399550420430018  0.1846684859048153
  0.2958501196615373  0.3294312137154023  0.3510504822054941
  0.3787825498357051  0.0817546818983885  0.4352867008288399
  0.4652020607877034  0.8354180615021889  0.0139497952523655
  0.2944721829729460  0.8370791005466600  0.3548735528338867
  0.4643465820655450  0.6823541889996463  0.2770465657738228
  0.2744319928467860  0.6609147154811836  0.0974017881400826
  0.3795608242074024  0.3951622193949120  0.1849172982653826
  0.4631635377769499  0.1633345181726540  0.2717186497695607
  0.1257688562137602  0.6768001585162793  0.4277088536073776
  0.2134516179602599  0.4135520629868950  0.0150657395002938
  0.2915656303378000  0.1603855499257492  0.1017330098972522
  0.3843989560546959  0.9248928980439075  0.1953804788508862
  0.0456328151390579  0.4186603017198109  0.3516382009962413
  0.1269385981094047  0.1669412485777144  0.4327390184114464
  0.1979474395586891  0.9273384671097418  0.0122607695126646
  0.0466817479975461  0.9234740176841996  0.3510851774099137
  0.2146084754812350  0.5808322827890251  0.7697773782802102
  0.0408256082664167  0.6038504687393953  0.6019194250484219
  0.1302974486653454  0.3251491049490340  0.6938216287733496
  0.2109714042075623  0.0834605830843529  0.7715304288198723
  0.3769948570193691  0.5828059495617239  0.9371789855246462
  0.4561073492186765  0.3204973660307786  0.5157703882625242
  0.0423843857180870  0.0873811308263086  0.6034519462075210
  0.1282773823592080  0.8432933355918948  0.6871838170398945
  0.2934049986398506  0.3312748332201210  0.8531098864700652
  0.3754913040991141  0.0809161453043714  0.9351696055523178
  0.4698960069315845  0.8374164005770837  0.5139570769416224
  0.2913947754460651  0.8332017303646353  0.8547295207631933
  0.4669923036632966  0.6760607448375637  0.7801936632773021
  0.2807886546808973  0.6717155908356247  0.6076607188286545
  0.3761698237356015  0.3930204061559763  0.6870621448034555
  0.4615823834106934  0.1642711524658367  0.7730359322728120
  0.1277537329482357  0.6664141431852784  0.9349103424353800
  0.2229791345245360  0.3925050981014095  0.5141280555412635
  0.2946059341252578  0.1554162354061788  0.6042229101450403
  0.3837162110231773  0.9245004666368928  0.6974422082182627
  0.0421760017488708  0.4184006822232291  0.8521193520935810
  0.1254090908837142  0.1694578642004032  0.9349197564349510
  0.1983151268193666  0.9297341950902975  0.5121241709779127
  0.0446261166662012  0.9213183662512705  0.8533421366938398
  0.7368495804410031  0.5814291330094008  0.2576260812004705
  0.5392492051968532  0.5987849219677344  0.1019484940142092
  0.6326427872478391  0.3228537799351585  0.1952207828105799
  0.7134860255824123  0.0826770844322979  0.2710169358048660
  0.8825228135575287  0.5841512910226498  0.4363341489770960
  0.9490027316396734  0.3227898816029011  0.0114063531498871
  0.5417399375541763  0.0857179828037715  0.1029897955357910
  0.6331117376169431  0.8396341575265041  0.1849886277051738
  0.7978353209724318  0.3318045680599440  0.3520066317439543
  0.8784206365665810  0.0830425447217422  0.4353705646802126
  0.9659624097327750  0.8363792755758368  0.0136453009288928
  0.7958990855492445  0.8341324446265901  0.3541517751722196
  0.9711784352563839  0.6785667082461018  0.2762505288615600
  0.7748727953651411  0.6644471575176425  0.0934196265349669
  0.8811721011347515  0.3919933859969547  0.1829558840770886
  0.9627674331974703  0.1650381362528535  0.2712979026472553
  0.6353611344906511  0.6696668188013533  0.4371028711483831
  0.7145873865220551  0.4133233880434659  0.0145755062341166
  0.7909599811134242  0.1593031115753618  0.1016497998042283
  0.8844569508317619  0.9248630959205073  0.1955861015304308
  0.5440018628223626  0.4106189535602169  0.3535199581272437
  0.6293623730043194  0.1684841027692840  0.4350886529074600
  0.6969411282406668  0.9272810962274889  0.0118062065325759
  0.5487488670054788  0.9205762650845344  0.3526406964057074
  0.7162491142063701  0.5813869614721696  0.7681615893369340
  0.5427897185733244  0.5976956819738248  0.6028505402746660
  0.6304012993891419  0.3230917317516742  0.6958831781951602
  0.7110515878878090  0.0825673204226121  0.7716327619025094
  0.8775828024744072  0.5822344382791300  0.9360451936303775
  0.9559716272916177  0.3269941700566221  0.5136923394745878
  0.5443512300125519  0.0842664435295717  0.6041733405889715
  0.6315961069868692  0.8380376210905283  0.6862580845872372
  0.7930787697631629  0.3311798795133356  0.8527142750613805
  0.8749305429339813  0.0811364142626729  0.9350608573067305
  0.9676539618198419  0.8386710683414620  0.5142159597899578
  0.7917912690501367  0.8332198892746874  0.8548735314280123
  0.9668741614165270  0.6785710787464438  0.7802284935084813
  0.7784413623831981  0.6600531075542406  0.5987226604463700
  0.8755222141132677  0.3956711989871664  0.6865657535209024
  0.9610782633162600  0.1654598523654656  0.7723561178540237
  0.6278677087691378  0.6654188030185182  0.9337313742134867
  0.7201430936876321  0.4141233720006241  0.5136576577049681
  0.7929936375601940  0.1624310678719141  0.6025070861046800
  0.8818999974430213  0.9256311525650602  0.6966167719143854
  0.5424455905557295  0.4181311739898632  0.8529395930995918
  0.6249708770699698  0.1693936970277790  0.9350598741188918
  0.7020136119562608  0.9273175208874704  0.5131852397893795
  0.5450704115112259  0.9196405640779801  0.8527823836079165
 
  0.00000000E+00  0.00000000E+00  0.00000000E+00
  0.00000000E+00  0.00000000E+00  0.00000000E+00
  0.00000000E+00  0.00000000E+00  0.00000000E+00
  0.00000000E+00  0.00000000E+00  0.00000000E+00
  0.00000000E+00  0.00000000E+00  0.00000000E+00
  0.00000000E+00  0.00000000E+00  0.00000000E+00
  0.00000000E+00  0.00000000E+00  0.00000000E+00
  0.00000000E+00  0.00000000E+00  0.00000000E+00
  0.00000000E+00  0.00000000E+00  0.00000000E+00
  0.00000000E+00  0.00000000E+00  0.00000000E+00
  0.00000000E+00  0.00000000E+00  0.00000000E+00
  0.00000000E+00  0.00000000E+00  0.00000000E+00
  0.00000000E+00  0.00000000E+00  0.00000000E+00
  0.00000000E+00  0.00000000E+00  0.00000000E+00
  0.00000000E+00  0.00000000E+00  0.00000000E+00
  0.00000000E+00  0.00000000E+00  0.00000000E+00
  0.00000000E+00  0.00000000E+00  0.00000000E+00
  0.00000000E+00  0.00000000E+00  0.00000000E+00
  0.00000000E+00  0.00000000E+00  0.00000000E+00
  0.00000000E+00  0.00000000E+00  0.00000000E+00
  0.00000000E+00  0.00000000E+00  0.00000000E+00
  0.00000000E+00  0.00000000E+00  0.00000000E+00
  0.00000000E+00  0.00000000E+00  0.00000000E+00
  0.00000000E+00  0.00000000E+00  0.00000000E+00
  0.00000000E+00  0.00000000E+00  0.00000000E+00
  0.00000000E+00  0.00000000E+00  0.00000000E+00
  0.00000000E+00  0.00000000E+00  0.00000000E+00
  0.00000000E+00  0.00000000E+00  0.00000000E+00
  0.00000000E+00  0.00000000E+00  0.00000000E+00
  0.00000000E+00  0.00000000E+00  0.00000000E+00
  0.00000000E+00  0.00000000E+00  0.00000000E+00
  0.00000000E+00  0.00000000E+00  0.00000000E+00
  0.00000000E+00  0.00000000E+00  0.00000000E+00
  0.00000000E+00  0.00000000E+00  0.00000000E+00
  0.00000000E+00  0.00000000E+00  0.00000000E+00
  0.00000000E+00  0.00000000E+00  0.00000000E+00
  0.00000000E+00  0.00000000E+00  0.00000000E+00
  0.00000000E+00  0.00000000E+00  0.00000000E+00
  0.00000000E+00  0.00000000E+00  0.00000000E+00
  0.00000000E+00  0.00000000E+00  0.00000000E+00
  0.00000000E+00  0.00000000E+00  0.00000000E+00
  0.00000000E+00  0.00000000E+00  0.00000000E+00
  0.00000000E+00  0.00000000E+00  0.00000000E+00
  0.00000000E+00  0.00000000E+00  0.00000000E+00
  0.00000000E+00  0.00000000E+00  0.00000000E+00
  0.00000000E+00  0.00000000E+00  0.00000000E+00
  0.00000000E+00  0.00000000E+00  0.00000000E+00
  0.00000000E+00  0.00000000E+00  0.00000000E+00
  0.00000000E+00  0.00000000E+00  0.00000000E+00
  0.00000000E+00  0.00000000E+00  0.00000000E+00
  0.00000000E+00  0.00000000E+00  0.00000000E+00
  0.00000000E+00  0.00000000E+00  0.00000000E+00
  0.00000000E+00  0.00000000E+00  0.00000000E+00
  0.00000000E+00  0.00000000E+00  0.00000000E+00
  0.00000000E+00  0.00000000E+00  0.00000000E+00
  0.00000000E+00  0.00000000E+00  0.00000000E+00
  0.00000000E+00  0.00000000E+00  0.00000000E+00
  0.00000000E+00  0.00000000E+00  0.00000000E+00
  0.00000000E+00  0.00000000E+00  0.00000000E+00
  0.00000000E+00  0.00000000E+00  0.00000000E+00
  0.00000000E+00  0.00000000E+00  0.00000000E+00
  0.00000000E+00  0.00000000E+00  0.00000000E+00
  0.00000000E+00  0.00000000E+00  0.00000000E+00
  0.00000000E+00  0.00000000E+00  0.00000000E+00
  0.00000000E+00  0.00000000E+00  0.00000000E+00
  0.00000000E+00  0.00000000E+00  0.00000000E+00
  0.00000000E+00  0.00000000E+00  0.00000000E+00
  0.00000000E+00  0.00000000E+00  0.00000000E+00
  0.00000000E+00  0.00000000E+00  0.00000000E+00
  0.00000000E+00  0.00000000E+00  0.00000000E+00
  0.00000000E+00  0.00000000E+00  0.00000000E+00
  0.00000000E+00  0.00000000E+00  0.00000000E+00
  0.00000000E+00  0.00000000E+00  0.00000000E+00
  0.00000000E+00  0.00000000E+00  0.00000000E+00
  0.00000000E+00  0.00000000E+00  0.00000000E+00
  0.00000000E+00  0.00000000E+00  0.00000000E+00
  0.00000000E+00  0.00000000E+00  0.00000000E+00
  0.00000000E+00  0.00000000E+00  0.00000000E+00
  0.00000000E+00  0.00000000E+00  0.00000000E+00
  0.00000000E+00  0.00000000E+00  0.00000000E+00
  0.00000000E+00  0.00000000E+00  0.00000000E+00
  0.00000000E+00  0.00000000E+00  0.00000000E+00
  0.00000000E+00  0.00000000E+00  0.00000000E+00
  0.00000000E+00  0.00000000E+00  0.00000000E+00
  0.00000000E+00  0.00000000E+00  0.00000000E+00
  0.00000000E+00  0.00000000E+00  0.00000000E+00
  0.00000000E+00  0.00000000E+00  0.00000000E+00
  0.00000000E+00  0.00000000E+00  0.00000000E+00
  0.00000000E+00  0.00000000E+00  0.00000000E+00
  0.00000000E+00  0.00000000E+00  0.00000000E+00
  0.00000000E+00  0.00000000E+00  0.00000000E+00
  0.00000000E+00  0.00000000E+00  0.00000000E+00
  0.00000000E+00  0.00000000E+00  0.00000000E+00
  0.00000000E+00  0.00000000E+00  0.00000000E+00
  0.00000000E+00  0.00000000E+00  0.00000000E+00
  0.00000000E+00  0.00000000E+00  0.00000000E+00
  0.00000000E+00  0.00000000E+00  0.00000000E+00
  0.00000000E+00  0.00000000E+00  0.00000000E+00
  0.00000000E+00  0.00000000E+00  0.00000000E+00
  0.00000000E+00  0.00000000E+00  0.00000000E+00
  0.00000000E+00  0.00000000E+00  0.00000000E+00
  0.00000000E+00  0.00000000E+00  0.00000000E+00
  0.00000000E+00  0.00000000E+00  0.00000000E+00
  0.00000000E+00  0.00000000E+00  0.00000000E+00
  0.00000000E+00  0.00000000E+00  0.00000000E+00
  0.00000000E+00  0.00000000E+00  0.00000000E+00
  0.00000000E+00  0.00000000E+00  0.00000000E+00
  0.00000000E+00  0.00000000E+00  0.00000000E+00
  0.00000000E+00  0.00000000E+00  0.00000000E+00
  0.00000000E+00  0.00000000E+00  0.00000000E+00
  0.00000000E+00  0.00000000E+00  0.00000000E+00
  0.00000000E+00  0.00000000E+00  0.00000000E+00
  0.00000000E+00  0.00000000E+00  0.00000000E+00
  0.00000000E+00  0.00000000E+00  0.00000000E+00
  0.00000000E+00  0.00000000E+00  0.00000000E+00
  0.00000000E+00  0.00000000E+00  0.00000000E+00
  0.00000000E+00  0.00000000E+00  0.00000000E+00
  0.00000000E+00  0.00000000E+00  0.00000000E+00
  0.00000000E+00  0.00000000E+00  0.00000000E+00
  0.00000000E+00  0.00000000E+00  0.00000000E+00
  0.00000000E+00  0.00000000E+00  0.00000000E+00
  0.00000000E+00  0.00000000E+00  0.00000000E+00
  0.00000000E+00  0.00000000E+00  0.00000000E+00
  0.00000000E+00  0.00000000E+00  0.00000000E+00
  0.00000000E+00  0.00000000E+00  0.00000000E+00
  0.00000000E+00  0.00000000E+00  0.00000000E+00
  0.00000000E+00  0.00000000E+00  0.00000000E+00
  0.00000000E+00  0.00000000E+00  0.00000000E+00
  0.00000000E+00  0.00000000E+00  0.00000000E+00
  0.00000000E+00  0.00000000E+00  0.00000000E+00
  0.00000000E+00  0.00000000E+00  0.00000000E+00
  0.00000000E+00  0.00000000E+00  0.00000000E+00
  0.00000000E+00  0.00000000E+00  0.00000000E+00
  0.00000000E+00  0.00000000E+00  0.00000000E+00
  0.00000000E+00  0.00000000E+00  0.00000000E+00
  0.00000000E+00  0.00000000E+00  0.00000000E+00
  0.00000000E+00  0.00000000E+00  0.00000000E+00
  0.00000000E+00  0.00000000E+00  0.00000000E+00
  0.00000000E+00  0.00000000E+00  0.00000000E+00
  0.00000000E+00  0.00000000E+00  0.00000000E+00
  0.00000000E+00  0.00000000E+00  0.00000000E+00
  0.00000000E+00  0.00000000E+00  0.00000000E+00
  0.00000000E+00  0.00000000E+00  0.00000000E+00
  0.00000000E+00  0.00000000E+00  0.00000000E+00
  0.00000000E+00  0.00000000E+00  0.00000000E+00
  0.00000000E+00  0.00000000E+00  0.00000000E+00
  0.00000000E+00  0.00000000E+00  0.00000000E+00
  0.00000000E+00  0.00000000E+00  0.00000000E+00
  0.00000000E+00  0.00000000E+00  0.00000000E+00
  0.00000000E+00  0.00000000E+00  0.00000000E+00
  0.00000000E+00  0.00000000E+00  0.00000000E+00
  0.00000000E+00  0.00000000E+00  0.00000000E+00
  0.00000000E+00  0.00000000E+00  0.00000000E+00
  0.00000000E+00  0.00000000E+00  0.00000000E+00
  0.00000000E+00  0.00000000E+00  0.00000000E+00
  0.00000000E+00  0.00000000E+00  0.00000000E+00
  0.00000000E+00  0.00000000E+00  0.00000000E+00
  0.00000000E+00  0.00000000E+00  0.00000000E+00
  0.00000000E+00  0.00000000E+00  0.00000000E+00
  0.00000000E+00  0.00000000E+00  0.00000000E+00
  0.00000000E+00  0.00000000E+00  0.00000000E+00
  0.00000000E+00  0.00000000E+00  0.00000000E+00
  0.00000000E+00  0.00000000E+00  0.00000000E+00
  0.00000000E+00  0.00000000E+00  0.00000000E+00
  0.00000000E+00  0.00000000E+00  0.00000000E+00
  0.00000000E+00  0.00000000E+00  0.00000000E+00
  0.00000000E+00  0.00000000E+00  0.00000000E+00
  0.00000000E+00  0.00000000E+00  0.00000000E+00
  0.00000000E+00  0.00000000E+00  0.00000000E+00
  0.00000000E+00  0.00000000E+00  0.00000000E+00
  0.00000000E+00  0.00000000E+00  0.00000000E+00
  0.00000000E+00  0.00000000E+00  0.00000000E+00
  0.00000000E+00  0.00000000E+00  0.00000000E+00
  0.00000000E+00  0.00000000E+00  0.00000000E+00
  0.00000000E+00  0.00000000E+00  0.00000000E+00
  0.00000000E+00  0.00000000E+00  0.00000000E+00
  0.00000000E+00  0.00000000E+00  0.00000000E+00
  0.00000000E+00  0.00000000E+00  0.00000000E+00
  0.00000000E+00  0.00000000E+00  0.00000000E+00
  0.00000000E+00  0.00000000E+00  0.00000000E+00
  0.00000000E+00  0.00000000E+00  0.00000000E+00
  0.00000000E+00  0.00000000E+00  0.00000000E+00
  0.00000000E+00  0.00000000E+00  0.00000000E+00
  0.00000000E+00  0.00000000E+00  0.00000000E+00
  0.00000000E+00  0.00000000E+00  0.00000000E+00
  0.00000000E+00  0.00000000E+00  0.00000000E+00
  0.00000000E+00  0.00000000E+00  0.00000000E+00
  0.00000000E+00  0.00000000E+00  0.00000000E+00
  0.00000000E+00  0.00000000E+00  0.00000000E+00
  0.00000000E+00  0.00000000E+00  0.00000000E+00
  0.00000000E+00  0.00000000E+00  0.00000000E+00
