supercell of POSCAR                     
   1.01189200000000     
     3.1482772356600002   -5.4762754812200001    9.9674464565599994
    -9.4511209497999999   -5.4731922780100000    0.0032121685426600
     6.3112884282600001  -10.9581161277000003   -9.9749049577999997
   Al   Sc   N 
    83    12    96
Direct
  0.0921594750654151  0.5857650604306244  0.3364587951204854
  0.0838074302009701  0.0886818271768277  0.3320152228408233
  0.2511297027114665  0.5804142627444335  0.4970840397499785
  0.3101245175359395  0.3247155840288798  0.0908652166404309
  0.4193429141287695  0.0851717610275458  0.1696688323747466
  0.0076664006742959  0.8414157656085521  0.2536344166534974
  0.1687429838560064  0.3361721499833124  0.4132266176479931
  0.2487546775266125  0.0879111294659509  0.4968972639988323
  0.1668187560955587  0.8378192432737848  0.4165037679188472
  0.3394464979153611  0.6713178777996376  0.3378377296070383
  0.1613430570717185  0.6711263592554673  0.1665167016912861
  0.2586790533870129  0.4107584225879961  0.2513213931775979
  0.3353214723354654  0.1668059356192515  0.3332620320237325
  0.0048985063657412  0.6703927975140402  0.4956300970069876
  0.1692436619951820  0.1586068206887958  0.1683164744182193
  0.2544863045607713  0.9196959178100172  0.2546723970146374
  0.4173841356515382  0.4158200878348168  0.4161611763097781
  0.5004911601867690  0.1635766924750328  0.4976889669006752
  0.0802661149234041  0.9206343445899563  0.0809641830652552
  0.4203012169018834  0.9193215408422617  0.4142171614184633
  0.0856166978153681  0.5829865964194312  0.8341396668419421
  0.9995316539309655  0.3265290616881984  0.7524753667399935
  0.0828349904491930  0.0839486608665254  0.8340195190535269
  0.2441968294717043  0.5783464957476951  0.9983524472864005
  0.3331549861183376  0.3238663945054299  0.5814186792987357
  0.4164072700597004  0.0857171207082033  0.6693796534773995
  0.0037107253718531  0.8388093787844753  0.7524838509908562
  0.1629021399901802  0.3338336742040440  0.9162837081162749
  0.2466801020613900  0.0845562295076263  0.9968198064103078
  0.1610781366745044  0.8334940422489154  0.9156964725103975
  0.3336809779459173  0.6687966752154537  0.8378803904061982
  0.1603156604606042  0.6703296004539752  0.6661636602719838
  0.2492352602610737  0.4078682853084956  0.7511756219551700
  0.3311853795101172  0.1655193188613140  0.8340741355500398
  0.0006695495493503  0.6679125954058804  0.9984057384911083
  0.1663095728940149  0.1619278851407913  0.6678924677111340
  0.2507700685632201  0.9183541932161390  0.7536850565698217
  0.4091244137724530  0.4138229336623596  0.9183217926439795
  0.4927714462156700  0.1647965895354773  0.9997834550685525
  0.0819033053536131  0.9215194183834683  0.5810121882535313
  0.4159240402930990  0.9171314689333769  0.9142093262806696
  0.5931786967244363  0.5835623323852275  0.3337702604881372
  0.5078955749164749  0.3273370278414163  0.2552950774576601
  0.5877349031379424  0.0849990495717989  0.3339591106985011
  0.7516185902453572  0.5804745314852511  0.4969266018237377
  0.8242923418056520  0.3245801559939210  0.0774072665435028
  0.9192648038288098  0.0883943611530924  0.1703004376666613
  0.5088298383084506  0.8399799301858266  0.2538843587578654
  0.6727507065761600  0.3337181593921841  0.4132493099045362
  0.7496934522427310  0.0864710299977105  0.4967495631575787
  0.6663155668243448  0.8355036493621952  0.4159275150435633
  0.8398213883451149  0.6711430308895245  0.3376552335766476
  0.6624829695345795  0.6708785974599749  0.1660655383482634
  0.7636591133075257  0.4051948172119779  0.2464630713189280
  0.8416157837017764  0.1675405107266030  0.3306726537526856
  0.5042947052281264  0.6702556405185192  0.4970860270428616
  0.6695041506139887  0.1603050835382547  0.1686404333239011
  0.7558036802496062  0.9196144542359903  0.2533042115640711
  0.9222314616673160  0.4163301639551378  0.4121848536149670
  0.9995266752886494  0.1640427646690839  0.4967834542650493
  0.5807644956309659  0.9205979921573260  0.0814950047818144
  0.9210674838074837  0.9202200544484782  0.4130945259369483
  0.5848191480615057  0.5825389902021243  0.8348914194586357
  0.4990188817075349  0.3261072124418334  0.7543253829048169
  0.5819150233844965  0.0833828674591643  0.8349053193219120
  0.7456126377923837  0.5777675975242644  0.9984061664914989
  0.8313664626853807  0.3238366754226760  0.5799114932740252
  0.9163931951742939  0.0861531250812888  0.6688581279642705
  0.5036000258906554  0.8385965070253718  0.7531412601730878
  0.6619407374888411  0.3324354334912272  0.9141912589723091
  0.7448476635795345  0.0855318700927512  0.9969941986369051
  0.6615240469062158  0.8334347102635462  0.9159647619057623
  0.8339086296665243  0.6682770740635817  0.8375583761756360
  0.6602300604632347  0.6704783973127633  0.6669186429236902
  0.7496224395190652  0.4079105204075475  0.7511672426261811
  0.8315832277307820  0.1651646840628871  0.8339805681567185
  0.4997726049788085  0.6694293931150739  0.9979562128544970
  0.6661744714617086  0.1611148928003345  0.6687743904076058
  0.7508555814513684  0.9181353286384493  0.7537773383212709
  0.9118740916467658  0.4141411255641714  0.9151115136853036
  0.9960436524211076  0.1619116569610739  0.9975951757419779
  0.5820138372035828  0.9208521558328471  0.5815522998199967
  0.9162055066168264  0.9167324471728122  0.9135601595536897
  0.4059137471188237  0.5873699064332101  0.1743711963038237
  0.3260886447799862  0.8406079246353642  0.0847767773881145
  0.0635549492970569  0.4103343005889997  0.0946652116525968
  0.4045092389078135  0.5811837498545387  0.6736936798724216
  0.3289307934205397  0.8376955458850404  0.5836761940976984
  0.0804658565309566  0.4152779059627036  0.5808654395040520
  0.9041585494275992  0.5850456322603392  0.1753012070714846
  0.8274969083841057  0.8388654896321270  0.0827333413336078
  0.5692246990314516  0.4125460262580702  0.0885938811631419
  0.9055752419934677  0.5809556242447158  0.6725100521388043
  0.8295167907077428  0.8373830864053602  0.5830991673478607
  0.5804437069893709  0.4156103786944954  0.5850244576016124
  0.2237678026828078  0.5848426939527727  0.2670216376949881
  0.0405245612699829  0.6008062063016126  0.1028961843976006
  0.1730971353865414  0.3226656613676084  0.1759834707853258
  0.2148964058845522  0.0823960310560778  0.2721538951263511
  0.3820999330305881  0.5833808931411895  0.4375387216429232
  0.4408554407577014  0.3225648941977397  0.0154570760217183
  0.0424220767914889  0.0845995876596035  0.1017617753877218
  0.1346312403825749  0.8406874389193888  0.1853177019242622
  0.2996597729378578  0.3324624126723990  0.3528995941328219
  0.3786341329186911  0.0822064591315197  0.4357218665822558
  0.4655860010816966  0.8357590291965167  0.0138419052127006
  0.2969190678283482  0.8348540134581839  0.3555703522859659
  0.4733870660994981  0.6787476455772605  0.2818433529715634
  0.2769525086195870  0.6633366767714719  0.0966016390246622
  0.3923497323532388  0.4018846249198589  0.1863248307422012
  0.4641936990683462  0.1650561469306027  0.2726649487220030
  0.1362615008517309  0.6723952489243032  0.4364616680781950
  0.2064290963715862  0.4159284012074664  0.0141304415719716
  0.2950919633856159  0.1496916019363397  0.1012997319909985
  0.3864319039167938  0.9226228003469856  0.1976723641848750
  0.0562670724378478  0.4336864557006876  0.3674296287094307
  0.1290553312874820  0.1712824146734562  0.4355882797244846
  0.1973626641101092  0.9255417508500940  0.0109059797061235
  0.0508123346139371  0.9214115296149430  0.3537992835334123
  0.2161720426095357  0.5813202248933678  0.7669865987040936
  0.0405202234171185  0.5979062384067575  0.6010670762868955
  0.1289860433394097  0.3236821954837126  0.6935851649341416
  0.2100709614138410  0.0822161081190487  0.7706463162394641
  0.3763237083299913  0.5825230390581808  0.9374484190953964
  0.4536458856218530  0.3232282979186252  0.5141066230514824
  0.0417035225128828  0.0851994449414804  0.6034538415988138
  0.1304859692195492  0.8384371895084186  0.6854639992550986
  0.2913273778158398  0.3308205449266737  0.8524260053952588
  0.3748270925233044  0.0798870018080819  0.9339495654381551
  0.4687555349716206  0.8357577003423984  0.5140101183933226
  0.2914528529638361  0.8326983687969616  0.8541726973228947
  0.4664998991244431  0.6771109922831826  0.7800878132466309
  0.2775437682514763  0.6615098192949134  0.5985426704886692
  0.3766101484444420  0.3948946802355309  0.6866708109123110
  0.4597600685240764  0.1637729605462752  0.7722861456648218
  0.1278111793745396  0.6657897849957095  0.9334488103192058
  0.2237130851883506  0.4135718417088796  0.5165959088359457
  0.2922295704089208  0.1606710269462113  0.6030243426402819
  0.3821563681548810  0.9236859798690773  0.6962557586717040
  0.0408691674728843  0.4181656765708226  0.8506406486489126
  0.1249964442755882  0.1683868386949641  0.9344249160539349
  0.2014122075130658  0.9292838157951735  0.5139857688722529
  0.0447104442870341  0.9200505235989240  0.8517119412482899
  0.7223788308133052  0.5833280213200212  0.2668611934955933
  0.5406496240343586  0.6000199211214294  0.1019742185952239
  0.6360357537671391  0.3210216430603765  0.1965282275679172
  0.7134646049747744  0.0820341583827968  0.2714635460913613
  0.8800910779052771  0.5848786934741668  0.4377167248013123
  0.9455537195145212  0.3198044698990046  0.0095373384248774
  0.5432263272817366  0.0847589669577431  0.1034699165299529
  0.6333801388774916  0.8396797765624697  0.1856191232015902
  0.7995562446026980  0.3329198196001073  0.3515320265801876
  0.8778620189200126  0.0818170470728532  0.4360789557249163
  0.9670351032832514  0.8348390253349152  0.0123685845966932
  0.7956838439404805  0.8349224659336656  0.3550541823348894
  0.9733842277054521  0.6805659555143038  0.2826440628154856
  0.7762486268435964  0.6637866015301199  0.0957268383013812
  0.8727357758952365  0.4061935531855525  0.1717225084924650
  0.9617597416524220  0.1515810751864564  0.2713105648628371
  0.6328322284392769  0.6668143557203905  0.4350163232906539
  0.7068721026462441  0.4127651656674445  0.0125206673611657
  0.7909753534512234  0.1580401866766081  0.1007392100995759
  0.8847432820334475  0.9202279205195154  0.1942178556622594
  0.5482584605026233  0.4193129464693968  0.3544098166171352
  0.6287720236336867  0.1704966489222670  0.4353867064241612
  0.6969293821684062  0.9264131271005027  0.0112124349143770
  0.5491009872777894  0.9215872023978804  0.3537986658379495
  0.7154044986375183  0.5808264565495733  0.7674371960520787
  0.5398728634916878  0.5983363336573007  0.6021411579133371
  0.6289445447005235  0.3223761071973357  0.6956214424252423
  0.7097394398994012  0.0815920715996867  0.7714867296610564
  0.8768466332751927  0.5812256443905923  0.9369685505704837
  0.9502220130658117  0.3226033368234411  0.5133075024277431
  0.5417135580026908  0.0846795296197342  0.6036699501332734
  0.6302681282514584  0.8383999645669675  0.6859297785790446
  0.7915400216086397  0.3305760772524877  0.8519454828356103
  0.8741453611009433  0.0791832180901366  0.9341186734858837
  0.9687721398563838  0.8362750246383186  0.5136703439340309
  0.7915279460393378  0.8320245569956697  0.8541258736508794
  0.9664770995411160  0.6769981083266927  0.7793524833527030
  0.7766239864708169  0.6611654666687343  0.5984580302241582
  0.8750767747720403  0.3951030458936486  0.6855480985244995
  0.9599417735832532  0.1643751575611532  0.7719249160223782
  0.6279336877977855  0.6654800557932603  0.9340197073583738
  0.7179736352897024  0.4141307562106533  0.5148100313924715
  0.7907227966027293  0.1604387012354422  0.6030047605087958
  0.8818233089497127  0.9239030590679462  0.6958412580807050
  0.5392959916625415  0.4179665338128231  0.8523268794505015
  0.6225154669297268  0.1689802332302222  0.9350520644452303
  0.7002834529534283  0.9274791997139360  0.5133459963036486
  0.5445734381519074  0.9193833232633182  0.8524962164891008
 
  0.00000000E+00  0.00000000E+00  0.00000000E+00
  0.00000000E+00  0.00000000E+00  0.00000000E+00
  0.00000000E+00  0.00000000E+00  0.00000000E+00
  0.00000000E+00  0.00000000E+00  0.00000000E+00
  0.00000000E+00  0.00000000E+00  0.00000000E+00
  0.00000000E+00  0.00000000E+00  0.00000000E+00
  0.00000000E+00  0.00000000E+00  0.00000000E+00
  0.00000000E+00  0.00000000E+00  0.00000000E+00
  0.00000000E+00  0.00000000E+00  0.00000000E+00
  0.00000000E+00  0.00000000E+00  0.00000000E+00
  0.00000000E+00  0.00000000E+00  0.00000000E+00
  0.00000000E+00  0.00000000E+00  0.00000000E+00
  0.00000000E+00  0.00000000E+00  0.00000000E+00
  0.00000000E+00  0.00000000E+00  0.00000000E+00
  0.00000000E+00  0.00000000E+00  0.00000000E+00
  0.00000000E+00  0.00000000E+00  0.00000000E+00
  0.00000000E+00  0.00000000E+00  0.00000000E+00
  0.00000000E+00  0.00000000E+00  0.00000000E+00
  0.00000000E+00  0.00000000E+00  0.00000000E+00
  0.00000000E+00  0.00000000E+00  0.00000000E+00
  0.00000000E+00  0.00000000E+00  0.00000000E+00
  0.00000000E+00  0.00000000E+00  0.00000000E+00
  0.00000000E+00  0.00000000E+00  0.00000000E+00
  0.00000000E+00  0.00000000E+00  0.00000000E+00
  0.00000000E+00  0.00000000E+00  0.00000000E+00
  0.00000000E+00  0.00000000E+00  0.00000000E+00
  0.00000000E+00  0.00000000E+00  0.00000000E+00
  0.00000000E+00  0.00000000E+00  0.00000000E+00
  0.00000000E+00  0.00000000E+00  0.00000000E+00
  0.00000000E+00  0.00000000E+00  0.00000000E+00
  0.00000000E+00  0.00000000E+00  0.00000000E+00
  0.00000000E+00  0.00000000E+00  0.00000000E+00
  0.00000000E+00  0.00000000E+00  0.00000000E+00
  0.00000000E+00  0.00000000E+00  0.00000000E+00
  0.00000000E+00  0.00000000E+00  0.00000000E+00
  0.00000000E+00  0.00000000E+00  0.00000000E+00
  0.00000000E+00  0.00000000E+00  0.00000000E+00
  0.00000000E+00  0.00000000E+00  0.00000000E+00
  0.00000000E+00  0.00000000E+00  0.00000000E+00
  0.00000000E+00  0.00000000E+00  0.00000000E+00
  0.00000000E+00  0.00000000E+00  0.00000000E+00
  0.00000000E+00  0.00000000E+00  0.00000000E+00
  0.00000000E+00  0.00000000E+00  0.00000000E+00
  0.00000000E+00  0.00000000E+00  0.00000000E+00
  0.00000000E+00  0.00000000E+00  0.00000000E+00
  0.00000000E+00  0.00000000E+00  0.00000000E+00
  0.00000000E+00  0.00000000E+00  0.00000000E+00
  0.00000000E+00  0.00000000E+00  0.00000000E+00
  0.00000000E+00  0.00000000E+00  0.00000000E+00
  0.00000000E+00  0.00000000E+00  0.00000000E+00
  0.00000000E+00  0.00000000E+00  0.00000000E+00
  0.00000000E+00  0.00000000E+00  0.00000000E+00
  0.00000000E+00  0.00000000E+00  0.00000000E+00
  0.00000000E+00  0.00000000E+00  0.00000000E+00
  0.00000000E+00  0.00000000E+00  0.00000000E+00
  0.00000000E+00  0.00000000E+00  0.00000000E+00
  0.00000000E+00  0.00000000E+00  0.00000000E+00
  0.00000000E+00  0.00000000E+00  0.00000000E+00
  0.00000000E+00  0.00000000E+00  0.00000000E+00
  0.00000000E+00  0.00000000E+00  0.00000000E+00
  0.00000000E+00  0.00000000E+00  0.00000000E+00
  0.00000000E+00  0.00000000E+00  0.00000000E+00
  0.00000000E+00  0.00000000E+00  0.00000000E+00
  0.00000000E+00  0.00000000E+00  0.00000000E+00
  0.00000000E+00  0.00000000E+00  0.00000000E+00
  0.00000000E+00  0.00000000E+00  0.00000000E+00
  0.00000000E+00  0.00000000E+00  0.00000000E+00
  0.00000000E+00  0.00000000E+00  0.00000000E+00
  0.00000000E+00  0.00000000E+00  0.00000000E+00
  0.00000000E+00  0.00000000E+00  0.00000000E+00
  0.00000000E+00  0.00000000E+00  0.00000000E+00
  0.00000000E+00  0.00000000E+00  0.00000000E+00
  0.00000000E+00  0.00000000E+00  0.00000000E+00
  0.00000000E+00  0.00000000E+00  0.00000000E+00
  0.00000000E+00  0.00000000E+00  0.00000000E+00
  0.00000000E+00  0.00000000E+00  0.00000000E+00
  0.00000000E+00  0.00000000E+00  0.00000000E+00
  0.00000000E+00  0.00000000E+00  0.00000000E+00
  0.00000000E+00  0.00000000E+00  0.00000000E+00
  0.00000000E+00  0.00000000E+00  0.00000000E+00
  0.00000000E+00  0.00000000E+00  0.00000000E+00
  0.00000000E+00  0.00000000E+00  0.00000000E+00
  0.00000000E+00  0.00000000E+00  0.00000000E+00
  0.00000000E+00  0.00000000E+00  0.00000000E+00
  0.00000000E+00  0.00000000E+00  0.00000000E+00
  0.00000000E+00  0.00000000E+00  0.00000000E+00
  0.00000000E+00  0.00000000E+00  0.00000000E+00
  0.00000000E+00  0.00000000E+00  0.00000000E+00
  0.00000000E+00  0.00000000E+00  0.00000000E+00
  0.00000000E+00  0.00000000E+00  0.00000000E+00
  0.00000000E+00  0.00000000E+00  0.00000000E+00
  0.00000000E+00  0.00000000E+00  0.00000000E+00
  0.00000000E+00  0.00000000E+00  0.00000000E+00
  0.00000000E+00  0.00000000E+00  0.00000000E+00
  0.00000000E+00  0.00000000E+00  0.00000000E+00
  0.00000000E+00  0.00000000E+00  0.00000000E+00
  0.00000000E+00  0.00000000E+00  0.00000000E+00
  0.00000000E+00  0.00000000E+00  0.00000000E+00
  0.00000000E+00  0.00000000E+00  0.00000000E+00
  0.00000000E+00  0.00000000E+00  0.00000000E+00
  0.00000000E+00  0.00000000E+00  0.00000000E+00
  0.00000000E+00  0.00000000E+00  0.00000000E+00
  0.00000000E+00  0.00000000E+00  0.00000000E+00
  0.00000000E+00  0.00000000E+00  0.00000000E+00
  0.00000000E+00  0.00000000E+00  0.00000000E+00
  0.00000000E+00  0.00000000E+00  0.00000000E+00
  0.00000000E+00  0.00000000E+00  0.00000000E+00
  0.00000000E+00  0.00000000E+00  0.00000000E+00
  0.00000000E+00  0.00000000E+00  0.00000000E+00
  0.00000000E+00  0.00000000E+00  0.00000000E+00
  0.00000000E+00  0.00000000E+00  0.00000000E+00
  0.00000000E+00  0.00000000E+00  0.00000000E+00
  0.00000000E+00  0.00000000E+00  0.00000000E+00
  0.00000000E+00  0.00000000E+00  0.00000000E+00
  0.00000000E+00  0.00000000E+00  0.00000000E+00
  0.00000000E+00  0.00000000E+00  0.00000000E+00
  0.00000000E+00  0.00000000E+00  0.00000000E+00
  0.00000000E+00  0.00000000E+00  0.00000000E+00
  0.00000000E+00  0.00000000E+00  0.00000000E+00
  0.00000000E+00  0.00000000E+00  0.00000000E+00
  0.00000000E+00  0.00000000E+00  0.00000000E+00
  0.00000000E+00  0.00000000E+00  0.00000000E+00
  0.00000000E+00  0.00000000E+00  0.00000000E+00
  0.00000000E+00  0.00000000E+00  0.00000000E+00
  0.00000000E+00  0.00000000E+00  0.00000000E+00
  0.00000000E+00  0.00000000E+00  0.00000000E+00
  0.00000000E+00  0.00000000E+00  0.00000000E+00
  0.00000000E+00  0.00000000E+00  0.00000000E+00
  0.00000000E+00  0.00000000E+00  0.00000000E+00
  0.00000000E+00  0.00000000E+00  0.00000000E+00
  0.00000000E+00  0.00000000E+00  0.00000000E+00
  0.00000000E+00  0.00000000E+00  0.00000000E+00
  0.00000000E+00  0.00000000E+00  0.00000000E+00
  0.00000000E+00  0.00000000E+00  0.00000000E+00
  0.00000000E+00  0.00000000E+00  0.00000000E+00
  0.00000000E+00  0.00000000E+00  0.00000000E+00
  0.00000000E+00  0.00000000E+00  0.00000000E+00
  0.00000000E+00  0.00000000E+00  0.00000000E+00
  0.00000000E+00  0.00000000E+00  0.00000000E+00
  0.00000000E+00  0.00000000E+00  0.00000000E+00
  0.00000000E+00  0.00000000E+00  0.00000000E+00
  0.00000000E+00  0.00000000E+00  0.00000000E+00
  0.00000000E+00  0.00000000E+00  0.00000000E+00
  0.00000000E+00  0.00000000E+00  0.00000000E+00
  0.00000000E+00  0.00000000E+00  0.00000000E+00
  0.00000000E+00  0.00000000E+00  0.00000000E+00
  0.00000000E+00  0.00000000E+00  0.00000000E+00
  0.00000000E+00  0.00000000E+00  0.00000000E+00
  0.00000000E+00  0.00000000E+00  0.00000000E+00
  0.00000000E+00  0.00000000E+00  0.00000000E+00
  0.00000000E+00  0.00000000E+00  0.00000000E+00
  0.00000000E+00  0.00000000E+00  0.00000000E+00
  0.00000000E+00  0.00000000E+00  0.00000000E+00
  0.00000000E+00  0.00000000E+00  0.00000000E+00
  0.00000000E+00  0.00000000E+00  0.00000000E+00
  0.00000000E+00  0.00000000E+00  0.00000000E+00
  0.00000000E+00  0.00000000E+00  0.00000000E+00
  0.00000000E+00  0.00000000E+00  0.00000000E+00
  0.00000000E+00  0.00000000E+00  0.00000000E+00
  0.00000000E+00  0.00000000E+00  0.00000000E+00
  0.00000000E+00  0.00000000E+00  0.00000000E+00
  0.00000000E+00  0.00000000E+00  0.00000000E+00
  0.00000000E+00  0.00000000E+00  0.00000000E+00
  0.00000000E+00  0.00000000E+00  0.00000000E+00
  0.00000000E+00  0.00000000E+00  0.00000000E+00
  0.00000000E+00  0.00000000E+00  0.00000000E+00
  0.00000000E+00  0.00000000E+00  0.00000000E+00
  0.00000000E+00  0.00000000E+00  0.00000000E+00
  0.00000000E+00  0.00000000E+00  0.00000000E+00
  0.00000000E+00  0.00000000E+00  0.00000000E+00
  0.00000000E+00  0.00000000E+00  0.00000000E+00
  0.00000000E+00  0.00000000E+00  0.00000000E+00
  0.00000000E+00  0.00000000E+00  0.00000000E+00
  0.00000000E+00  0.00000000E+00  0.00000000E+00
  0.00000000E+00  0.00000000E+00  0.00000000E+00
  0.00000000E+00  0.00000000E+00  0.00000000E+00
  0.00000000E+00  0.00000000E+00  0.00000000E+00
  0.00000000E+00  0.00000000E+00  0.00000000E+00
  0.00000000E+00  0.00000000E+00  0.00000000E+00
  0.00000000E+00  0.00000000E+00  0.00000000E+00
  0.00000000E+00  0.00000000E+00  0.00000000E+00
  0.00000000E+00  0.00000000E+00  0.00000000E+00
  0.00000000E+00  0.00000000E+00  0.00000000E+00
  0.00000000E+00  0.00000000E+00  0.00000000E+00
  0.00000000E+00  0.00000000E+00  0.00000000E+00
  0.00000000E+00  0.00000000E+00  0.00000000E+00
  0.00000000E+00  0.00000000E+00  0.00000000E+00
  0.00000000E+00  0.00000000E+00  0.00000000E+00
  0.00000000E+00  0.00000000E+00  0.00000000E+00
  0.00000000E+00  0.00000000E+00  0.00000000E+00
  0.00000000E+00  0.00000000E+00  0.00000000E+00
