supercell of POSCAR                     
   1.01189200000000     
     3.1482772356600002   -5.4762754812200001    9.9674464565599994
    -9.4511209497999999   -5.4731922780100000    0.0032121685426600
     6.3112884282600001  -10.9581161277000003   -9.9749049577999997
   Al   Sc   N 
    83    12    96
Direct
  0.0029232831625592  0.3263087415233912  0.2554545976310223
  0.0850753493144580  0.0859167446656670  0.3345315075804436
  0.2469222218336071  0.5826733018671888  0.4949804306168701
  0.3309052149478404  0.3234985177780771  0.0800193873558754
  0.4181598742576114  0.0866228369052351  0.1699719638878037
  0.0049723047988124  0.8424057811846311  0.2525155381256070
  0.1647145582094396  0.3351156160208646  0.4121694267992737
  0.2484600039893365  0.0867018384929494  0.4976204525103824
  0.1637180416329187  0.8337335473005467  0.4157639458847981
  0.3340970178107838  0.6690605860333108  0.3360368404976413
  0.1641625314980999  0.6703828246572670  0.1678474318294931
  0.2524717857942562  0.4123726402523928  0.2510464419664089
  0.3340269054708997  0.1667630215980651  0.3340925261667920
  0.0065060939417947  0.6707457708363336  0.4934108300215385
  0.1678462874056521  0.1621444545780690  0.1686941993261897
  0.2535029442728387  0.9191308473146549  0.2541549032575574
  0.4132957626118952  0.4166587708423606  0.4153085201598117
  0.4984421037011657  0.1633180226121027  0.4978916641360982
  0.0809686104982390  0.9209319164526590  0.0817684965537495
  0.4176193460339235  0.9179032643109295  0.4138225896706871
  0.0865867046663737  0.5838047063819047  0.8336541340607440
  0.0000102685609988  0.3266976399198711  0.7529931019679807
  0.0834148226452953  0.0835517743145360  0.8339366206605590
  0.2486366494667536  0.5811499451568380  0.9965265565256942
  0.3301305474090412  0.3248614367100444  0.5797372605188471
  0.4159124501867666  0.0854441758312845  0.6689742653429533
  0.0044880740144180  0.8389605430293443  0.7525544907336510
  0.1660742213280670  0.3332939587760535  0.9141721954987503
  0.2466480527984274  0.0859605730455897  0.9970553843808716
  0.1625534691858164  0.8343883522789852  0.9159330619299269
  0.3350152394388957  0.6695669956106229  0.8371518563809275
  0.1601629059630625  0.6692488633828404  0.6656360254772622
  0.2503930137099104  0.4081943934274861  0.7504920401493607
  0.3326016016025974  0.1648510283444793  0.8337460330989757
  0.0022135309266460  0.6693726854910693  0.9982938233553966
  0.1662239363041422  0.1616712684938904  0.6678326453095664
  0.2514232075394176  0.9178816618941070  0.7529293167365836
  0.4132002770282739  0.4152526236258964  0.9151967507591010
  0.4979744729812836  0.1624453630121394  0.9980502197142442
  0.0807669231940267  0.9209958690391531  0.5798905681919138
  0.4172512401615478  0.9173317875692035  0.9141554645940246
  0.5892384409239000  0.5845041806101534  0.3345498298681235
  0.5023960791519357  0.3266678876735796  0.2540455654960141
  0.5856705379527227  0.0844987878366368  0.3346616601080825
  0.7513320327225017  0.5806457841316757  0.4964233676835264
  0.8293121099103118  0.3255633361207870  0.0810241641621730
  0.9174448386978540  0.0890024245407020  0.1682376656313309
  0.5079339937372680  0.8396706205214670  0.2538894361246733
  0.6672030890957856  0.3336007569046799  0.4144058814929821
  0.7483041088195890  0.0861203615161585  0.4971259335282170
  0.6635642045678551  0.8353531330270201  0.4165911852679898
  0.8387203807552766  0.6719715222829024  0.3355838763029411
  0.6613899833960204  0.6683377691020169  0.1679269766644680
  0.7533691316524269  0.4085047107897068  0.2516626697448103
  0.8354771358311055  0.1671743711900575  0.3334069995064226
  0.5020116503298553  0.6694905460804961  0.4968340892340493
  0.6682159403153278  0.1616386054810377  0.1689291746121881
  0.7552805555777695  0.9193176683091764  0.2544846188315049
  0.9183688078790908  0.4159896526032725  0.4129976142350600
  0.9993659091382696  0.1649802357861603  0.4970619571986248
  0.5823814891917110  0.9201606099329638  0.0822110295270448
  0.9186021067069561  0.9184318679630437  0.4136051237449436
  0.5868965809434883  0.5838960523946000  0.8350978684841692
  0.5001322183278845  0.3255929577669932  0.7536960417813319
  0.5838441955424614  0.0831772825265631  0.8343427625657185
  0.7480838338427986  0.5790698861553594  0.9986848350560180
  0.8303517829312668  0.3243937309779454  0.5804807981488693
  0.9165659328466589  0.0859806778561278  0.6688709813575286
  0.5041881409139393  0.8390787322704725  0.7529036779433937
  0.6654440465671527  0.3323352440473357  0.9154722190868867
  0.7476335017982478  0.0847872842459410  0.9979239149782586
  0.6629362048088012  0.8338703764503990  0.9172262911188511
  0.8349179539987475  0.6694332519171411  0.8376541284250791
  0.6600997741172350  0.6705111422330603  0.6665547782199184
  0.7501950111964817  0.4083052260985127  0.7516114017633697
  0.8327332936432086  0.1652276128792494  0.8340667674975819
  0.5009172078863386  0.6694405803688994  0.9992195288977257
  0.6663767736649930  0.1610199040817264  0.6684999695032445
  0.7516249347671078  0.9181040270148699  0.7539680519207579
  0.9131169255123623  0.4156019567720932  0.9156820278155777
  0.9976272052834432  0.1636984973326037  0.9978456813345886
  0.5800143447580339  0.9206341094156301  0.5815710528708706
  0.9167830298575410  0.9169078296475206  0.9150410055276410
  0.3979135107223897  0.5840586976711037  0.1774639409737304
  0.3277924915362505  0.8409353069142256  0.0841701931359111
  0.0781478526479802  0.4150389662862608  0.0859288243652117
  0.4063672686804480  0.5806410964975655  0.6744991814907877
  0.3251088493969192  0.8342868697737487  0.5824020545711548
  0.0789786723357793  0.4164788204144330  0.5828439810728057
  0.9103098887698380  0.5821289494913700  0.1768851705933656
  0.8283884111577606  0.8344278263349381  0.0881553074247350
  0.5740493952706842  0.4161576529965885  0.0877929875627714
  0.9046296153648186  0.5817774212131184  0.6728661504340394
  0.8279001771213146  0.8373055198936754  0.5835069787011804
  0.5783499955686580  0.4153501520860559  0.5848874762313159
  0.2469932889668556  0.5823136940481390  0.2531287847581964
  0.0440195437062911  0.5980054759888134  0.1011418230656247
  0.1334444997603512  0.3232125273246425  0.1944736886145009
  0.2132041069677868  0.0833981064178673  0.2711417589399900
  0.3804773057424242  0.5831540842902498  0.4371065576596180
  0.4503744090090507  0.3224396464617101  0.0112696341418044
  0.0428682967156533  0.0867157827814964  0.1021984752927239
  0.1340367263528748  0.8410559840973377  0.1847348110947991
  0.2966051148793980  0.3318971556089423  0.3518060615904020
  0.3775257147603597  0.0817710577260300  0.4356406889420512
  0.4679404575408483  0.8364485981071113  0.0134818015950842
  0.2947839552168929  0.8349643957518254  0.3542804355322104
  0.4739140943752602  0.6805201793153941  0.2816277252822417
  0.2779449672972589  0.6664762851853610  0.0927466322039976
  0.3828790555828903  0.3921649584981282  0.1826685632221370
  0.4628909873431866  0.1643775433002546  0.2728480784667724
  0.1372360595445130  0.6782402407751817  0.4443457138575653
  0.2165509592097763  0.4134643469638561  0.0137018065400270
  0.2923244932330462  0.1590747453638102  0.1017251564407005
  0.3858159372654058  0.9247300946547341  0.1967684872626876
  0.0398048375243150  0.3985921826713081  0.3542456925459803
  0.1291347261388793  0.1685828367223863  0.4363394776495966
  0.1978331952201984  0.9277672206875494  0.0113183626498312
  0.0475415578189669  0.9234108143058677  0.3529350422170410
  0.2169082763544807  0.5810533034502967  0.7677558211128428
  0.0384664997196182  0.5979877320638849  0.6022377235345502
  0.1296995277544752  0.3233797939071508  0.6947226766803780
  0.2109318443093073  0.0819381919560982  0.7709794595333364
  0.3791504190300827  0.5821978097157654  0.9360572531700555
  0.4512318849592702  0.3235058052841140  0.5131315408139514
  0.0413049339038096  0.0855538588901865  0.6036298303138992
  0.1308899677619095  0.8381748983929427  0.6853187105419210
  0.2942016285351841  0.3309138321169556  0.8518355321393827
  0.3759335252633775  0.0807265052723309  0.9349467115746748
  0.4668911810771519  0.8353692843586202  0.5140842643693020
  0.2925886772870214  0.8333378429288985  0.8543477655319762
  0.4682819274744148  0.6778523025451690  0.7808319175683209
  0.2792944427766955  0.6569665964067468  0.6009412051554150
  0.3770630734379452  0.3939236771663062  0.6859168816868362
  0.4609960201118710  0.1632609184169596  0.7725027092053196
  0.1291386842098561  0.6658764668019828  0.9331268891535558
  0.2181339432127629  0.4136008426387434  0.5140284136555735
  0.2919234243591049  0.1613720474125557  0.6032060401395185
  0.3823464968866617  0.9229113692764130  0.6952594386096891
  0.0428202807453175  0.4183848799307128  0.8519647744331778
  0.1259096821457533  0.1698287004974759  0.9342766148923403
  0.2000903042134681  0.9301935896919957  0.5135019672307237
  0.0451625271758829  0.9200262456506820  0.8525805441356411
  0.7166369042803353  0.5794535700807444  0.2681752253104577
  0.5388147113172508  0.5990972883683199  0.1029457955040414
  0.6326085207051264  0.3223480490395119  0.1958918298120054
  0.7123714277546966  0.0830742018322539  0.2716354543150601
  0.8797125178984331  0.5836565325404308  0.4365880105525761
  0.9497491870746941  0.3237666425021999  0.0123450123324247
  0.5427059143545065  0.0853518661793586  0.1032111059167420
  0.6346345520894232  0.8392540834061535  0.1855550365713370
  0.7935827435647482  0.3311856961848960  0.3531495424993309
  0.8770085328547381  0.0825155562187021  0.4353894777766172
  0.9664974966615318  0.8351215805048753  0.0143640290826426
  0.7917530079034236  0.8361588411615060  0.3564611952187065
  0.9515587778725418  0.6935659212936400  0.2699877187667710
  0.7772920387076354  0.6573227835751183  0.0982415924381002
  0.8782905299814274  0.3926825636331728  0.1853843254547911
  0.9621146024714449  0.1626518474497871  0.2705957539738435
  0.6312632449360365  0.6663557063326309  0.4357529906990578
  0.7135557692025998  0.4127661073823745  0.0148967657066237
  0.7910892210329266  0.1614072541764031  0.1012459207327723
  0.8836598819515302  0.9308551055260494  0.1949347396819263
  0.5438003061584169  0.4187562193900831  0.3530606164497598
  0.6268655950454374  0.1698861758054875  0.4358906556097040
  0.7008636922787446  0.9254809623392646  0.0133903592728473
  0.5471137285827012  0.9220053318677657  0.3537733759257264
  0.7165918997658167  0.5815525349928450  0.7678169530163572
  0.5401032544956834  0.5980496991469479  0.6021623301293886
  0.6300268414557451  0.3224646296350357  0.6956797427827581
  0.7111094025666844  0.0820032354149234  0.7714703979876631
  0.8784364324842144  0.5823548417344497  0.9370671681506622
  0.9496867754866116  0.3238300121457556  0.5144903489016599
  0.5412553790084189  0.0852569024740717  0.6038899295435129
  0.6307825524942174  0.8387293908686217  0.6861467728584358
  0.7938064685377100  0.3310263513720670  0.8529095955285442
  0.8762167240006491  0.0808336696594552  0.9350828167756760
  0.9652583846557619  0.8375536437279223  0.5141224787253122
  0.7923258562079880  0.8330152461202616  0.8549498171013639
  0.9670677140059283  0.6774732140053246  0.7799093884092372
  0.7759227650530605  0.6607410102855056  0.5982774983860040
  0.8754669644827189  0.3950920645042899  0.6864319108376051
  0.9607354336418865  0.1643879204541818  0.7722793210061667
  0.6296779579443452  0.6654171448696218  0.9350441744629592
  0.7161196598751118  0.4139507942951539  0.5151241411056802
  0.7907970114879674  0.1603509580600431  0.6029817151570427
  0.8823809956389255  0.9239576401025360  0.6964156476836294
  0.5432239401383043  0.4179333154142313  0.8520962152512439
  0.6262379321074505  0.1680068372371011  0.9348667538526954
  0.6984545555087678  0.9278784204212869  0.5138400763113680
  0.5460223053538016  0.9198474795218345  0.8528802483847997
 
  0.00000000E+00  0.00000000E+00  0.00000000E+00
  0.00000000E+00  0.00000000E+00  0.00000000E+00
  0.00000000E+00  0.00000000E+00  0.00000000E+00
  0.00000000E+00  0.00000000E+00  0.00000000E+00
  0.00000000E+00  0.00000000E+00  0.00000000E+00
  0.00000000E+00  0.00000000E+00  0.00000000E+00
  0.00000000E+00  0.00000000E+00  0.00000000E+00
  0.00000000E+00  0.00000000E+00  0.00000000E+00
  0.00000000E+00  0.00000000E+00  0.00000000E+00
  0.00000000E+00  0.00000000E+00  0.00000000E+00
  0.00000000E+00  0.00000000E+00  0.00000000E+00
  0.00000000E+00  0.00000000E+00  0.00000000E+00
  0.00000000E+00  0.00000000E+00  0.00000000E+00
  0.00000000E+00  0.00000000E+00  0.00000000E+00
  0.00000000E+00  0.00000000E+00  0.00000000E+00
  0.00000000E+00  0.00000000E+00  0.00000000E+00
  0.00000000E+00  0.00000000E+00  0.00000000E+00
  0.00000000E+00  0.00000000E+00  0.00000000E+00
  0.00000000E+00  0.00000000E+00  0.00000000E+00
  0.00000000E+00  0.00000000E+00  0.00000000E+00
  0.00000000E+00  0.00000000E+00  0.00000000E+00
  0.00000000E+00  0.00000000E+00  0.00000000E+00
  0.00000000E+00  0.00000000E+00  0.00000000E+00
  0.00000000E+00  0.00000000E+00  0.00000000E+00
  0.00000000E+00  0.00000000E+00  0.00000000E+00
  0.00000000E+00  0.00000000E+00  0.00000000E+00
  0.00000000E+00  0.00000000E+00  0.00000000E+00
  0.00000000E+00  0.00000000E+00  0.00000000E+00
  0.00000000E+00  0.00000000E+00  0.00000000E+00
  0.00000000E+00  0.00000000E+00  0.00000000E+00
  0.00000000E+00  0.00000000E+00  0.00000000E+00
  0.00000000E+00  0.00000000E+00  0.00000000E+00
  0.00000000E+00  0.00000000E+00  0.00000000E+00
  0.00000000E+00  0.00000000E+00  0.00000000E+00
  0.00000000E+00  0.00000000E+00  0.00000000E+00
  0.00000000E+00  0.00000000E+00  0.00000000E+00
  0.00000000E+00  0.00000000E+00  0.00000000E+00
  0.00000000E+00  0.00000000E+00  0.00000000E+00
  0.00000000E+00  0.00000000E+00  0.00000000E+00
  0.00000000E+00  0.00000000E+00  0.00000000E+00
  0.00000000E+00  0.00000000E+00  0.00000000E+00
  0.00000000E+00  0.00000000E+00  0.00000000E+00
  0.00000000E+00  0.00000000E+00  0.00000000E+00
  0.00000000E+00  0.00000000E+00  0.00000000E+00
  0.00000000E+00  0.00000000E+00  0.00000000E+00
  0.00000000E+00  0.00000000E+00  0.00000000E+00
  0.00000000E+00  0.00000000E+00  0.00000000E+00
  0.00000000E+00  0.00000000E+00  0.00000000E+00
  0.00000000E+00  0.00000000E+00  0.00000000E+00
  0.00000000E+00  0.00000000E+00  0.00000000E+00
  0.00000000E+00  0.00000000E+00  0.00000000E+00
  0.00000000E+00  0.00000000E+00  0.00000000E+00
  0.00000000E+00  0.00000000E+00  0.00000000E+00
  0.00000000E+00  0.00000000E+00  0.00000000E+00
  0.00000000E+00  0.00000000E+00  0.00000000E+00
  0.00000000E+00  0.00000000E+00  0.00000000E+00
  0.00000000E+00  0.00000000E+00  0.00000000E+00
  0.00000000E+00  0.00000000E+00  0.00000000E+00
  0.00000000E+00  0.00000000E+00  0.00000000E+00
  0.00000000E+00  0.00000000E+00  0.00000000E+00
  0.00000000E+00  0.00000000E+00  0.00000000E+00
  0.00000000E+00  0.00000000E+00  0.00000000E+00
  0.00000000E+00  0.00000000E+00  0.00000000E+00
  0.00000000E+00  0.00000000E+00  0.00000000E+00
  0.00000000E+00  0.00000000E+00  0.00000000E+00
  0.00000000E+00  0.00000000E+00  0.00000000E+00
  0.00000000E+00  0.00000000E+00  0.00000000E+00
  0.00000000E+00  0.00000000E+00  0.00000000E+00
  0.00000000E+00  0.00000000E+00  0.00000000E+00
  0.00000000E+00  0.00000000E+00  0.00000000E+00
  0.00000000E+00  0.00000000E+00  0.00000000E+00
  0.00000000E+00  0.00000000E+00  0.00000000E+00
  0.00000000E+00  0.00000000E+00  0.00000000E+00
  0.00000000E+00  0.00000000E+00  0.00000000E+00
  0.00000000E+00  0.00000000E+00  0.00000000E+00
  0.00000000E+00  0.00000000E+00  0.00000000E+00
  0.00000000E+00  0.00000000E+00  0.00000000E+00
  0.00000000E+00  0.00000000E+00  0.00000000E+00
  0.00000000E+00  0.00000000E+00  0.00000000E+00
  0.00000000E+00  0.00000000E+00  0.00000000E+00
  0.00000000E+00  0.00000000E+00  0.00000000E+00
  0.00000000E+00  0.00000000E+00  0.00000000E+00
  0.00000000E+00  0.00000000E+00  0.00000000E+00
  0.00000000E+00  0.00000000E+00  0.00000000E+00
  0.00000000E+00  0.00000000E+00  0.00000000E+00
  0.00000000E+00  0.00000000E+00  0.00000000E+00
  0.00000000E+00  0.00000000E+00  0.00000000E+00
  0.00000000E+00  0.00000000E+00  0.00000000E+00
  0.00000000E+00  0.00000000E+00  0.00000000E+00
  0.00000000E+00  0.00000000E+00  0.00000000E+00
  0.00000000E+00  0.00000000E+00  0.00000000E+00
  0.00000000E+00  0.00000000E+00  0.00000000E+00
  0.00000000E+00  0.00000000E+00  0.00000000E+00
  0.00000000E+00  0.00000000E+00  0.00000000E+00
  0.00000000E+00  0.00000000E+00  0.00000000E+00
  0.00000000E+00  0.00000000E+00  0.00000000E+00
  0.00000000E+00  0.00000000E+00  0.00000000E+00
  0.00000000E+00  0.00000000E+00  0.00000000E+00
  0.00000000E+00  0.00000000E+00  0.00000000E+00
  0.00000000E+00  0.00000000E+00  0.00000000E+00
  0.00000000E+00  0.00000000E+00  0.00000000E+00
  0.00000000E+00  0.00000000E+00  0.00000000E+00
  0.00000000E+00  0.00000000E+00  0.00000000E+00
  0.00000000E+00  0.00000000E+00  0.00000000E+00
  0.00000000E+00  0.00000000E+00  0.00000000E+00
  0.00000000E+00  0.00000000E+00  0.00000000E+00
  0.00000000E+00  0.00000000E+00  0.00000000E+00
  0.00000000E+00  0.00000000E+00  0.00000000E+00
  0.00000000E+00  0.00000000E+00  0.00000000E+00
  0.00000000E+00  0.00000000E+00  0.00000000E+00
  0.00000000E+00  0.00000000E+00  0.00000000E+00
  0.00000000E+00  0.00000000E+00  0.00000000E+00
  0.00000000E+00  0.00000000E+00  0.00000000E+00
  0.00000000E+00  0.00000000E+00  0.00000000E+00
  0.00000000E+00  0.00000000E+00  0.00000000E+00
  0.00000000E+00  0.00000000E+00  0.00000000E+00
  0.00000000E+00  0.00000000E+00  0.00000000E+00
  0.00000000E+00  0.00000000E+00  0.00000000E+00
  0.00000000E+00  0.00000000E+00  0.00000000E+00
  0.00000000E+00  0.00000000E+00  0.00000000E+00
  0.00000000E+00  0.00000000E+00  0.00000000E+00
  0.00000000E+00  0.00000000E+00  0.00000000E+00
  0.00000000E+00  0.00000000E+00  0.00000000E+00
  0.00000000E+00  0.00000000E+00  0.00000000E+00
  0.00000000E+00  0.00000000E+00  0.00000000E+00
  0.00000000E+00  0.00000000E+00  0.00000000E+00
  0.00000000E+00  0.00000000E+00  0.00000000E+00
  0.00000000E+00  0.00000000E+00  0.00000000E+00
  0.00000000E+00  0.00000000E+00  0.00000000E+00
  0.00000000E+00  0.00000000E+00  0.00000000E+00
  0.00000000E+00  0.00000000E+00  0.00000000E+00
  0.00000000E+00  0.00000000E+00  0.00000000E+00
  0.00000000E+00  0.00000000E+00  0.00000000E+00
  0.00000000E+00  0.00000000E+00  0.00000000E+00
  0.00000000E+00  0.00000000E+00  0.00000000E+00
  0.00000000E+00  0.00000000E+00  0.00000000E+00
  0.00000000E+00  0.00000000E+00  0.00000000E+00
  0.00000000E+00  0.00000000E+00  0.00000000E+00
  0.00000000E+00  0.00000000E+00  0.00000000E+00
  0.00000000E+00  0.00000000E+00  0.00000000E+00
  0.00000000E+00  0.00000000E+00  0.00000000E+00
  0.00000000E+00  0.00000000E+00  0.00000000E+00
  0.00000000E+00  0.00000000E+00  0.00000000E+00
  0.00000000E+00  0.00000000E+00  0.00000000E+00
  0.00000000E+00  0.00000000E+00  0.00000000E+00
  0.00000000E+00  0.00000000E+00  0.00000000E+00
  0.00000000E+00  0.00000000E+00  0.00000000E+00
  0.00000000E+00  0.00000000E+00  0.00000000E+00
  0.00000000E+00  0.00000000E+00  0.00000000E+00
  0.00000000E+00  0.00000000E+00  0.00000000E+00
  0.00000000E+00  0.00000000E+00  0.00000000E+00
  0.00000000E+00  0.00000000E+00  0.00000000E+00
  0.00000000E+00  0.00000000E+00  0.00000000E+00
  0.00000000E+00  0.00000000E+00  0.00000000E+00
  0.00000000E+00  0.00000000E+00  0.00000000E+00
  0.00000000E+00  0.00000000E+00  0.00000000E+00
  0.00000000E+00  0.00000000E+00  0.00000000E+00
  0.00000000E+00  0.00000000E+00  0.00000000E+00
  0.00000000E+00  0.00000000E+00  0.00000000E+00
  0.00000000E+00  0.00000000E+00  0.00000000E+00
  0.00000000E+00  0.00000000E+00  0.00000000E+00
  0.00000000E+00  0.00000000E+00  0.00000000E+00
  0.00000000E+00  0.00000000E+00  0.00000000E+00
  0.00000000E+00  0.00000000E+00  0.00000000E+00
  0.00000000E+00  0.00000000E+00  0.00000000E+00
  0.00000000E+00  0.00000000E+00  0.00000000E+00
  0.00000000E+00  0.00000000E+00  0.00000000E+00
  0.00000000E+00  0.00000000E+00  0.00000000E+00
  0.00000000E+00  0.00000000E+00  0.00000000E+00
  0.00000000E+00  0.00000000E+00  0.00000000E+00
  0.00000000E+00  0.00000000E+00  0.00000000E+00
  0.00000000E+00  0.00000000E+00  0.00000000E+00
  0.00000000E+00  0.00000000E+00  0.00000000E+00
  0.00000000E+00  0.00000000E+00  0.00000000E+00
  0.00000000E+00  0.00000000E+00  0.00000000E+00
  0.00000000E+00  0.00000000E+00  0.00000000E+00
  0.00000000E+00  0.00000000E+00  0.00000000E+00
  0.00000000E+00  0.00000000E+00  0.00000000E+00
  0.00000000E+00  0.00000000E+00  0.00000000E+00
  0.00000000E+00  0.00000000E+00  0.00000000E+00
  0.00000000E+00  0.00000000E+00  0.00000000E+00
  0.00000000E+00  0.00000000E+00  0.00000000E+00
  0.00000000E+00  0.00000000E+00  0.00000000E+00
  0.00000000E+00  0.00000000E+00  0.00000000E+00
  0.00000000E+00  0.00000000E+00  0.00000000E+00
  0.00000000E+00  0.00000000E+00  0.00000000E+00
  0.00000000E+00  0.00000000E+00  0.00000000E+00
  0.00000000E+00  0.00000000E+00  0.00000000E+00
  0.00000000E+00  0.00000000E+00  0.00000000E+00
  0.00000000E+00  0.00000000E+00  0.00000000E+00
  0.00000000E+00  0.00000000E+00  0.00000000E+00
