supercell of POSCAR                     
   1.01189200000000     
     3.1482772356600002   -5.4762754812200001    9.9674464565599994
    -9.4511209497999999   -5.4731922780100000    0.0032121685426600
     6.3112884282600001  -10.9581161277000003   -9.9749049577999997
   Al   Sc   N 
    83    12    96
Direct
  0.0918967051190904  0.5827392674073337  0.3331473396879616
  0.0036346177822466  0.3265483832445710  0.2543629485484544
  0.0904483473353750  0.0844023499140860  0.3320275035852447
  0.2519693891186918  0.5805010964528066  0.4966583999838292
  0.3295851008656498  0.3233851268714858  0.0803407406729235
  0.4154364601509215  0.0859474933277014  0.1706350757434762
  0.0090548790042604  0.8408445342455408  0.2530716003144917
  0.1736500238851590  0.3329166137291608  0.4123304217779591
  0.2518076413140591  0.0858334550839146  0.4947918492857610
  0.1649379860203126  0.8357525038047271  0.4154827433143353
  0.3377870092514854  0.6696854750942833  0.3377490610292710
  0.1604926143423953  0.6702676177195102  0.1648852406476422
  0.2541711608183519  0.4063431899813921  0.2516172073467402
  0.0042618898171369  0.6700328292654518  0.4968046476505563
  0.1662113139818402  0.1592862856220378  0.1693117399441064
  0.2530252349126343  0.9204729503698843  0.2538965851672756
  0.4146820902942849  0.4159550348525443  0.4147488321684918
  0.4976619098556228  0.1613784402825758  0.4977408228166524
  0.0795583961253996  0.9224223992287435  0.0824882570760721
  0.4204216518573531  0.9185345334432498  0.4147558543689982
  0.0869448232026500  0.5844654383654344  0.8337242243982104
  0.0001332178488411  0.3269225071652357  0.7540372332735217
  0.0831452040384377  0.0842433107635401  0.8343000970795416
  0.2479827735913673  0.5797838333256990  0.9965711201386540
  0.3311047742568221  0.3240330495459105  0.5799651039065168
  0.4172178859699329  0.0873022310922806  0.6679841846667287
  0.0042930612550336  0.8400753307561857  0.7533623994017447
  0.1655138263324147  0.3331375016639413  0.9142443044895856
  0.2457152930325179  0.0866937024556194  0.9972829537916041
  0.1620701837437224  0.8354845219928606  0.9160751458565883
  0.3350300896439578  0.6702626408033723  0.8366182864437448
  0.1615494193623945  0.6728104558262018  0.6653210063579564
  0.2511150195247751  0.4089481326540962  0.7504698024798344
  0.3321104720213910  0.1654071968810626  0.8332399469873835
  0.0010352875370998  0.6701291370325890  0.9973567929950136
  0.1667960665176338  0.1618648290868663  0.6682868055305917
  0.2515808994159343  0.9189006149457910  0.7527066906033184
  0.4128561876289609  0.4152796566888810  0.9151870231455419
  0.4961799379488596  0.1622591660789325  0.9973267610046079
  0.0806313322905936  0.9212060032533671  0.5814268767132660
  0.4161265377688679  0.9180043103584055  0.9137955131292017
  0.5904107212071636  0.5833407413661931  0.3343117047071189
  0.5012431684755825  0.3258312158784520  0.2543235183683663
  0.5858143114075602  0.0836505876530040  0.3348043334217436
  0.7514651378820147  0.5795100659645698  0.4972089944069822
  0.8267659332077670  0.3226135835147943  0.0823323717030746
  0.9149046266249385  0.0879654591963686  0.1705005329498803
  0.5068136061701196  0.8399586169752808  0.2532920674679247
  0.6678838517608199  0.3324076320339913  0.4140279770087218
  0.7488011428472916  0.0868839907815087  0.4976658977541035
  0.6647040154914379  0.8344056607352215  0.4165367409170031
  0.8390153269740281  0.6705276740475199  0.3376928334278517
  0.6606871735838169  0.6711029157606561  0.1667746920359221
  0.7544342260591463  0.4097466204455245  0.2511059747238065
  0.8364175400185516  0.1653091441233556  0.3347723636867102
  0.5058693627656368  0.6680313854120641  0.4978341528558090
  0.6516181718528529  0.1614585392914378  0.1767662254485103
  0.7550735131386404  0.9187705175019474  0.2548710848814864
  0.9163401206213990  0.4152729527012866  0.4151124261046277
  0.0015725350280462  0.1633002695326127  0.4971493290240758
  0.5797581392021343  0.9208559841840724  0.0808744798293120
  0.9192925822945881  0.9183380038429974  0.4146548785431321
  0.5866874542683291  0.5842299320821596  0.8340628006291553
  0.5003418286518837  0.3269981691036676  0.7536108315639041
  0.5833496949987307  0.0844512653422669  0.8341880129170534
  0.7480019796824777  0.5804221283638995  0.9974842303304499
  0.8316774143635115  0.3239359777544166  0.5802564908909247
  0.9170111746777678  0.0867950669291133  0.6695656740036426
  0.5045085404060643  0.8401270751877306  0.7520872522759916
  0.6654881710401170  0.3332510351884963  0.9148390039733698
  0.7444803859440015  0.0870585730026647  0.0000347142919210
  0.6621759272501606  0.8349661305684748  0.9160091591568147
  0.8348742432755216  0.6702455635610463  0.8373187990514097
  0.6609051793695784  0.6704723823941094  0.6666493012500680
  0.7511058080523725  0.4090641909683512  0.7513828866203056
  0.8321125507514253  0.1655556987569113  0.8349117780165756
  0.5005467164889694  0.6700720431945584  0.9975427741804452
  0.6680317071626547  0.1616879270527463  0.6697138095404185
  0.7514909433607713  0.9189983207415153  0.7540908789654921
  0.9123712480860959  0.4159153299645979  0.9162336722755029
  0.9951264394092263  0.1633123222105084  0.9978604597475567
  0.5816606566960587  0.9224316882094215  0.5808568713305604
  0.9157095788529119  0.9184377987976262  0.9149622774131316
  0.4029998216859880  0.5834166951092143  0.1745243539152170
  0.3259449807851311  0.8389566820441843  0.0842473588568353
  0.0761376706869612  0.4132509921908607  0.0855708623860352
  0.4048905599357369  0.5837232581133662  0.6720494006429689
  0.3311199202763220  0.8432111811494423  0.5794428688889610
  0.0794795540824467  0.4149701038869082  0.5846244927321322
  0.9055843547368738  0.5835753576496217  0.1739743278101145
  0.8268690092097160  0.8391010725503136  0.0849485159617061
  0.5754955725350825  0.4160899679452328  0.0854983227513060
  0.9059953452114584  0.5824398123713195  0.6731869912475830
  0.8279992073153579  0.8380424181654860  0.5844571248157067
  0.5795185144027215  0.4131688081077556  0.5849100938205893
  0.2199850958275107  0.5855082591427916  0.2639052073513213
  0.0394472360978995  0.5969183705100818  0.1005443399895682
  0.1318178228085642  0.3237912312371449  0.1944315506304335
  0.1982451914936050  0.0711190542867897  0.2616085693054657
  0.3834354369029285  0.5857660535823612  0.4386795110286670
  0.4491297498269731  0.3229382844241329  0.0115136330437977
  0.0374960369700972  0.0866985342481001  0.1008515210886429
  0.1320076980082519  0.8355684856339067  0.1831124799635049
  0.2937516789761929  0.3549508400402459  0.3542283498099295
  0.3855273141478932  0.0656407878120646  0.4525302609825275
  0.4655951667322142  0.8350788368793900  0.0128040465012589
  0.2951526653150793  0.8325391771769617  0.3550731279101882
  0.4717759616316073  0.6771703990228986  0.2803489705185385
  0.2768732741350988  0.6610621899292397  0.0955437801121022
  0.3797364948229784  0.3963446172013576  0.1832967425328746
  0.4924688974607321  0.1625771876953692  0.2574316378184491
  0.1324351589724770  0.6655649752426385  0.4341247780398803
  0.2150689576612237  0.4135028883160956  0.0137208832408504
  0.2902520892700835  0.1604514685163920  0.1009764540668030
  0.3846832395980613  0.9210424177622301  0.1955852353007117
  0.0441322497038428  0.4193041615177080  0.3524736731465907
  0.1283950273621812  0.1704027627277824  0.4350941254136842
  0.1971587724885495  0.9278446997794987  0.0119936894261627
  0.0463831254341898  0.9198642874027172  0.3539908320578888
  0.2171498276971064  0.5824319488389946  0.7665728745479612
  0.0410198776855282  0.5985324627753243  0.6019764427206411
  0.1297332380527507  0.3234600381312092  0.6961159387133620
  0.2102353224969349  0.0822048335405015  0.7713323068051992
  0.3783121740258792  0.5825949452093653  0.9359396018021044
  0.4521318330065540  0.3238544846217977  0.5137846028943542
  0.0414160370052912  0.0856943147503486  0.6042455492453058
  0.1297988682184581  0.8394277304369950  0.6864301584277186
  0.2937296411332824  0.3317207029588261  0.8518728153538788
  0.3741480129292540  0.0809872577377249  0.9339361029142736
  0.4738924535296363  0.8303084472014675  0.5143896781666442
  0.2918375395500945  0.8335267452462105  0.8540102938419452
  0.4679421722712291  0.6781140714656217  0.7795458132559148
  0.2779506925598341  0.6656790145746996  0.5970051903542810
  0.3775146977921295  0.3968148694812399  0.6858527029171526
  0.4605876579884338  0.1649216962988476  0.7723423497640383
  0.1293870748132946  0.6663743973689762  0.9336885465924141
  0.2174676064937557  0.4149478392543600  0.5167007601753184
  0.2905273324124309  0.1621061526415346  0.6039089073193509
  0.3826004848343985  0.9245011038879127  0.6952460679429109
  0.0425112900036595  0.4195013610559570  0.8525285090414130
  0.1243689396908039  0.1702652663605662  0.9344463111986485
  0.1957477496339095  0.9271860556407887  0.5128529878628640
  0.0444379258956644  0.9209656923937146  0.8531850261794318
  0.7214357387619401  0.5835387133724339  0.2672148758490422
  0.5391816099165396  0.6000957610665409  0.1020309586257682
  0.6343550722554880  0.3314101775160481  0.1940169954119284
  0.7184063009845332  0.0799509874149322  0.2745056621982798
  0.8814737268985198  0.5826214010735526  0.4375169198672140
  0.9471473829767874  0.3233196148409903  0.0127386481257972
  0.5387918416311308  0.0824686879799827  0.0988550854632635
  0.6337841835204614  0.8397185582168021  0.1851819966653352
  0.7966000948313763  0.3320001513026654  0.3527273349791926
  0.8783698431913720  0.0814379739115125  0.4370512632552845
  0.9659221365140027  0.8353646670422705  0.0136804701694260
  0.7951712801277324  0.8327497656603597  0.3557354609639063
  0.9713362976092483  0.6778348387987734  0.2801766628301863
  0.7767141810033493  0.6613718510826772  0.0973279459986571
  0.8806450661122938  0.3967888872475029  0.1850899969792650
  0.9622225572525309  0.1659965171490825  0.2731318346365796
  0.6340966734855655  0.6647510588824375  0.4347110446213662
  0.7147963922876315  0.4143730242956281  0.0142194359133896
  0.7860139224704312  0.1602246745784655  0.1050759743349161
  0.8854624165188199  0.9231881053648081  0.1963576838232513
  0.5470053406918893  0.4194002958408234  0.3528576477978689
  0.6285674281982949  0.1700013625773167  0.4362988282903260
  0.6983746984105181  0.9261715999893312  0.0119944269066536
  0.5490849055298455  0.9188622430224314  0.3530268372914946
  0.7175231541086475  0.5820489213165772  0.7676805558349997
  0.5421078739387468  0.5956175355104847  0.6029401810210189
  0.6311169011694631  0.3231639696313593  0.6965359631781922
  0.7116051553098401  0.0824066778307895  0.7723597735524592
  0.8780374951955423  0.5832989473245220  0.9366527494643009
  0.9514692283102448  0.3233361888222888  0.5132303339962903
  0.5457715053447956  0.0862160546803707  0.6066762166399258
  0.6320846222685290  0.8385991348324211  0.6859629035542412
  0.7940701743245739  0.3320066719062282  0.8526138154256770
  0.8734880240823557  0.0812619982819882  0.9356648386715705
  0.9665479446036400  0.8345034703993548  0.5148324303144634
  0.7921272551578653  0.8333591716899207  0.8547063448161936
  0.9674237831936381  0.6781097907792883  0.7800651682419755
  0.7774327531438487  0.6607304818675317  0.5981777878212711
  0.8770973545919603  0.3959975683489176  0.6858308305044503
  0.9602551536210981  0.1649861435335538  0.7729823851198034
  0.6292639702895215  0.6660773679851602  0.9341923089765771
  0.7183476178430226  0.4134056614524368  0.5146999135704888
  0.7923060874295942  0.1611758510609391  0.6035943222900144
  0.8825617488206632  0.9247817496496822  0.6968252397864205
  0.5430212640705463  0.4191406874391106  0.8522312259895912
  0.6251356539379387  0.1700020128698512  0.9344165928316102
  0.7009536504627221  0.9277477543053223  0.5131654487327140
  0.5451026412149105  0.9206041863473118  0.8523270940774665
 
  0.00000000E+00  0.00000000E+00  0.00000000E+00
  0.00000000E+00  0.00000000E+00  0.00000000E+00
  0.00000000E+00  0.00000000E+00  0.00000000E+00
  0.00000000E+00  0.00000000E+00  0.00000000E+00
  0.00000000E+00  0.00000000E+00  0.00000000E+00
  0.00000000E+00  0.00000000E+00  0.00000000E+00
  0.00000000E+00  0.00000000E+00  0.00000000E+00
  0.00000000E+00  0.00000000E+00  0.00000000E+00
  0.00000000E+00  0.00000000E+00  0.00000000E+00
  0.00000000E+00  0.00000000E+00  0.00000000E+00
  0.00000000E+00  0.00000000E+00  0.00000000E+00
  0.00000000E+00  0.00000000E+00  0.00000000E+00
  0.00000000E+00  0.00000000E+00  0.00000000E+00
  0.00000000E+00  0.00000000E+00  0.00000000E+00
  0.00000000E+00  0.00000000E+00  0.00000000E+00
  0.00000000E+00  0.00000000E+00  0.00000000E+00
  0.00000000E+00  0.00000000E+00  0.00000000E+00
  0.00000000E+00  0.00000000E+00  0.00000000E+00
  0.00000000E+00  0.00000000E+00  0.00000000E+00
  0.00000000E+00  0.00000000E+00  0.00000000E+00
  0.00000000E+00  0.00000000E+00  0.00000000E+00
  0.00000000E+00  0.00000000E+00  0.00000000E+00
  0.00000000E+00  0.00000000E+00  0.00000000E+00
  0.00000000E+00  0.00000000E+00  0.00000000E+00
  0.00000000E+00  0.00000000E+00  0.00000000E+00
  0.00000000E+00  0.00000000E+00  0.00000000E+00
  0.00000000E+00  0.00000000E+00  0.00000000E+00
  0.00000000E+00  0.00000000E+00  0.00000000E+00
  0.00000000E+00  0.00000000E+00  0.00000000E+00
  0.00000000E+00  0.00000000E+00  0.00000000E+00
  0.00000000E+00  0.00000000E+00  0.00000000E+00
  0.00000000E+00  0.00000000E+00  0.00000000E+00
  0.00000000E+00  0.00000000E+00  0.00000000E+00
  0.00000000E+00  0.00000000E+00  0.00000000E+00
  0.00000000E+00  0.00000000E+00  0.00000000E+00
  0.00000000E+00  0.00000000E+00  0.00000000E+00
  0.00000000E+00  0.00000000E+00  0.00000000E+00
  0.00000000E+00  0.00000000E+00  0.00000000E+00
  0.00000000E+00  0.00000000E+00  0.00000000E+00
  0.00000000E+00  0.00000000E+00  0.00000000E+00
  0.00000000E+00  0.00000000E+00  0.00000000E+00
  0.00000000E+00  0.00000000E+00  0.00000000E+00
  0.00000000E+00  0.00000000E+00  0.00000000E+00
  0.00000000E+00  0.00000000E+00  0.00000000E+00
  0.00000000E+00  0.00000000E+00  0.00000000E+00
  0.00000000E+00  0.00000000E+00  0.00000000E+00
  0.00000000E+00  0.00000000E+00  0.00000000E+00
  0.00000000E+00  0.00000000E+00  0.00000000E+00
  0.00000000E+00  0.00000000E+00  0.00000000E+00
  0.00000000E+00  0.00000000E+00  0.00000000E+00
  0.00000000E+00  0.00000000E+00  0.00000000E+00
  0.00000000E+00  0.00000000E+00  0.00000000E+00
  0.00000000E+00  0.00000000E+00  0.00000000E+00
  0.00000000E+00  0.00000000E+00  0.00000000E+00
  0.00000000E+00  0.00000000E+00  0.00000000E+00
  0.00000000E+00  0.00000000E+00  0.00000000E+00
  0.00000000E+00  0.00000000E+00  0.00000000E+00
  0.00000000E+00  0.00000000E+00  0.00000000E+00
  0.00000000E+00  0.00000000E+00  0.00000000E+00
  0.00000000E+00  0.00000000E+00  0.00000000E+00
  0.00000000E+00  0.00000000E+00  0.00000000E+00
  0.00000000E+00  0.00000000E+00  0.00000000E+00
  0.00000000E+00  0.00000000E+00  0.00000000E+00
  0.00000000E+00  0.00000000E+00  0.00000000E+00
  0.00000000E+00  0.00000000E+00  0.00000000E+00
  0.00000000E+00  0.00000000E+00  0.00000000E+00
  0.00000000E+00  0.00000000E+00  0.00000000E+00
  0.00000000E+00  0.00000000E+00  0.00000000E+00
  0.00000000E+00  0.00000000E+00  0.00000000E+00
  0.00000000E+00  0.00000000E+00  0.00000000E+00
  0.00000000E+00  0.00000000E+00  0.00000000E+00
  0.00000000E+00  0.00000000E+00  0.00000000E+00
  0.00000000E+00  0.00000000E+00  0.00000000E+00
  0.00000000E+00  0.00000000E+00  0.00000000E+00
  0.00000000E+00  0.00000000E+00  0.00000000E+00
  0.00000000E+00  0.00000000E+00  0.00000000E+00
  0.00000000E+00  0.00000000E+00  0.00000000E+00
  0.00000000E+00  0.00000000E+00  0.00000000E+00
  0.00000000E+00  0.00000000E+00  0.00000000E+00
  0.00000000E+00  0.00000000E+00  0.00000000E+00
  0.00000000E+00  0.00000000E+00  0.00000000E+00
  0.00000000E+00  0.00000000E+00  0.00000000E+00
  0.00000000E+00  0.00000000E+00  0.00000000E+00
  0.00000000E+00  0.00000000E+00  0.00000000E+00
  0.00000000E+00  0.00000000E+00  0.00000000E+00
  0.00000000E+00  0.00000000E+00  0.00000000E+00
  0.00000000E+00  0.00000000E+00  0.00000000E+00
  0.00000000E+00  0.00000000E+00  0.00000000E+00
  0.00000000E+00  0.00000000E+00  0.00000000E+00
  0.00000000E+00  0.00000000E+00  0.00000000E+00
  0.00000000E+00  0.00000000E+00  0.00000000E+00
  0.00000000E+00  0.00000000E+00  0.00000000E+00
  0.00000000E+00  0.00000000E+00  0.00000000E+00
  0.00000000E+00  0.00000000E+00  0.00000000E+00
  0.00000000E+00  0.00000000E+00  0.00000000E+00
  0.00000000E+00  0.00000000E+00  0.00000000E+00
  0.00000000E+00  0.00000000E+00  0.00000000E+00
  0.00000000E+00  0.00000000E+00  0.00000000E+00
  0.00000000E+00  0.00000000E+00  0.00000000E+00
  0.00000000E+00  0.00000000E+00  0.00000000E+00
  0.00000000E+00  0.00000000E+00  0.00000000E+00
  0.00000000E+00  0.00000000E+00  0.00000000E+00
  0.00000000E+00  0.00000000E+00  0.00000000E+00
  0.00000000E+00  0.00000000E+00  0.00000000E+00
  0.00000000E+00  0.00000000E+00  0.00000000E+00
  0.00000000E+00  0.00000000E+00  0.00000000E+00
  0.00000000E+00  0.00000000E+00  0.00000000E+00
  0.00000000E+00  0.00000000E+00  0.00000000E+00
  0.00000000E+00  0.00000000E+00  0.00000000E+00
  0.00000000E+00  0.00000000E+00  0.00000000E+00
  0.00000000E+00  0.00000000E+00  0.00000000E+00
  0.00000000E+00  0.00000000E+00  0.00000000E+00
  0.00000000E+00  0.00000000E+00  0.00000000E+00
  0.00000000E+00  0.00000000E+00  0.00000000E+00
  0.00000000E+00  0.00000000E+00  0.00000000E+00
  0.00000000E+00  0.00000000E+00  0.00000000E+00
  0.00000000E+00  0.00000000E+00  0.00000000E+00
  0.00000000E+00  0.00000000E+00  0.00000000E+00
  0.00000000E+00  0.00000000E+00  0.00000000E+00
  0.00000000E+00  0.00000000E+00  0.00000000E+00
  0.00000000E+00  0.00000000E+00  0.00000000E+00
  0.00000000E+00  0.00000000E+00  0.00000000E+00
  0.00000000E+00  0.00000000E+00  0.00000000E+00
  0.00000000E+00  0.00000000E+00  0.00000000E+00
  0.00000000E+00  0.00000000E+00  0.00000000E+00
  0.00000000E+00  0.00000000E+00  0.00000000E+00
  0.00000000E+00  0.00000000E+00  0.00000000E+00
  0.00000000E+00  0.00000000E+00  0.00000000E+00
  0.00000000E+00  0.00000000E+00  0.00000000E+00
  0.00000000E+00  0.00000000E+00  0.00000000E+00
  0.00000000E+00  0.00000000E+00  0.00000000E+00
  0.00000000E+00  0.00000000E+00  0.00000000E+00
  0.00000000E+00  0.00000000E+00  0.00000000E+00
  0.00000000E+00  0.00000000E+00  0.00000000E+00
  0.00000000E+00  0.00000000E+00  0.00000000E+00
  0.00000000E+00  0.00000000E+00  0.00000000E+00
  0.00000000E+00  0.00000000E+00  0.00000000E+00
  0.00000000E+00  0.00000000E+00  0.00000000E+00
  0.00000000E+00  0.00000000E+00  0.00000000E+00
  0.00000000E+00  0.00000000E+00  0.00000000E+00
  0.00000000E+00  0.00000000E+00  0.00000000E+00
  0.00000000E+00  0.00000000E+00  0.00000000E+00
  0.00000000E+00  0.00000000E+00  0.00000000E+00
  0.00000000E+00  0.00000000E+00  0.00000000E+00
  0.00000000E+00  0.00000000E+00  0.00000000E+00
  0.00000000E+00  0.00000000E+00  0.00000000E+00
  0.00000000E+00  0.00000000E+00  0.00000000E+00
  0.00000000E+00  0.00000000E+00  0.00000000E+00
  0.00000000E+00  0.00000000E+00  0.00000000E+00
  0.00000000E+00  0.00000000E+00  0.00000000E+00
  0.00000000E+00  0.00000000E+00  0.00000000E+00
  0.00000000E+00  0.00000000E+00  0.00000000E+00
  0.00000000E+00  0.00000000E+00  0.00000000E+00
  0.00000000E+00  0.00000000E+00  0.00000000E+00
  0.00000000E+00  0.00000000E+00  0.00000000E+00
  0.00000000E+00  0.00000000E+00  0.00000000E+00
  0.00000000E+00  0.00000000E+00  0.00000000E+00
  0.00000000E+00  0.00000000E+00  0.00000000E+00
  0.00000000E+00  0.00000000E+00  0.00000000E+00
  0.00000000E+00  0.00000000E+00  0.00000000E+00
  0.00000000E+00  0.00000000E+00  0.00000000E+00
  0.00000000E+00  0.00000000E+00  0.00000000E+00
  0.00000000E+00  0.00000000E+00  0.00000000E+00
  0.00000000E+00  0.00000000E+00  0.00000000E+00
  0.00000000E+00  0.00000000E+00  0.00000000E+00
  0.00000000E+00  0.00000000E+00  0.00000000E+00
  0.00000000E+00  0.00000000E+00  0.00000000E+00
  0.00000000E+00  0.00000000E+00  0.00000000E+00
  0.00000000E+00  0.00000000E+00  0.00000000E+00
  0.00000000E+00  0.00000000E+00  0.00000000E+00
  0.00000000E+00  0.00000000E+00  0.00000000E+00
  0.00000000E+00  0.00000000E+00  0.00000000E+00
  0.00000000E+00  0.00000000E+00  0.00000000E+00
  0.00000000E+00  0.00000000E+00  0.00000000E+00
  0.00000000E+00  0.00000000E+00  0.00000000E+00
  0.00000000E+00  0.00000000E+00  0.00000000E+00
  0.00000000E+00  0.00000000E+00  0.00000000E+00
  0.00000000E+00  0.00000000E+00  0.00000000E+00
  0.00000000E+00  0.00000000E+00  0.00000000E+00
  0.00000000E+00  0.00000000E+00  0.00000000E+00
  0.00000000E+00  0.00000000E+00  0.00000000E+00
  0.00000000E+00  0.00000000E+00  0.00000000E+00
  0.00000000E+00  0.00000000E+00  0.00000000E+00
  0.00000000E+00  0.00000000E+00  0.00000000E+00
  0.00000000E+00  0.00000000E+00  0.00000000E+00
  0.00000000E+00  0.00000000E+00  0.00000000E+00
  0.00000000E+00  0.00000000E+00  0.00000000E+00
  0.00000000E+00  0.00000000E+00  0.00000000E+00
  0.00000000E+00  0.00000000E+00  0.00000000E+00
  0.00000000E+00  0.00000000E+00  0.00000000E+00
  0.00000000E+00  0.00000000E+00  0.00000000E+00
