supercell of POSCAR                     
   1.01189200000000     
     3.1482772356600002   -5.4762754812200001    9.9674464565599994
    -9.4511209497999999   -5.4731922780100000    0.0032121685426600
     6.3112884282600001  -10.9581161277000003   -9.9749049577999997
   Al   Sc   N 
    84    12    95
Direct
  0.0897154871988661  0.5857190022413548  0.3346832947320095
  0.0053635129974623  0.3270815935973559  0.2518912660406443
  0.0862111040899904  0.0835262552152471  0.3358796163451530
  0.2513540417618927  0.5806219398698005  0.4974533664687470
  0.2823804478118035  0.3237058679544873  0.1065724344269725
  0.4158830695845879  0.0860893175008641  0.1716897872541310
  0.0066572347942326  0.8407365456405529  0.2533034280833917
  0.1690767939368598  0.3325951164348950  0.4154285392216508
  0.2493999520855894  0.0860095508900400  0.4977433038785435
  0.1650155100172981  0.8351473053043108  0.4167071057556626
  0.3387849405387655  0.6713457229199875  0.3388718643447817
  0.1597765646164646  0.6720621794992709  0.1670052913780751
  0.2530967625855212  0.4137806531315036  0.2566002323874841
  0.3357211656697245  0.1653342673100155  0.3351117409024553
  0.0044772952797842  0.6702098358271300  0.4973713498699013
  0.1625833821060070  0.1514967968353460  0.1707216678698629
  0.2537047591251849  0.9177886835667763  0.2553635577317976
  0.4170575604067039  0.4162934212939220  0.4166315548028976
  0.5003871091863701  0.1635852842966870  0.4981529408772332
  0.0791102780668140  0.9198988561177543  0.0809771402950616
  0.4197868695777416  0.9185250349582290  0.4149968944172215
  0.0867298742362479  0.5842248177124318  0.8344831119478044
  0.0007495565043598  0.3265673403062905  0.7532531233006665
  0.0836933476208586  0.0842986242266051  0.8339535452176108
  0.2456688828283902  0.5802753188377991  0.9992099093924125
  0.3319808022842992  0.3242492568564543  0.5801965549203487
  0.4173595470578633  0.0859193830932696  0.6683571302171956
  0.0052961332969872  0.8397819480752133  0.7527900003883587
  0.1645238211805662  0.3327960492229849  0.9159908669622610
  0.2448121757192609  0.0860462125278261  0.9980666980178228
  0.1606179730866941  0.8350111110325287  0.9163638006114496
  0.3326687378168174  0.6748047209649641  0.8350077099680107
  0.1611827442385234  0.6714829106929940  0.6659731897708951
  0.2485132315620078  0.4086837071529459  0.7484414212071826
  0.3336699387725304  0.1652106565184113  0.8329162852099685
  0.9991456382749533  0.6713628178062407  0.9969640243339413
  0.1674339314983513  0.1611607763256089  0.6680593550175402
  0.2512059603113954  0.9200308149508771  0.7529166310945072
  0.4046878545321491  0.4389867530491145  0.8905476993969259
  0.5095541825532592  0.1204863785725081  0.9943634382210078
  0.0824796177038962  0.9210554421295001  0.5812865223938743
  0.4145039997037827  0.9131971557613312  0.9130615627742884
  0.5908381424016795  0.5841661497610176  0.3345991063045872
  0.5040682313640517  0.3266431325600720  0.2556505832422289
  0.5866656799911780  0.0841334399468678  0.3351612747668256
  0.7523389839213479  0.5806863216141451  0.4967136624612323
  0.8255589915815804  0.3239739997174951  0.0794354124698131
  0.9162844343757115  0.0855219801227136  0.1693368834513791
  0.5062771867801956  0.8398109715056421  0.2547552943163254
  0.6702629457989389  0.3330494799337558  0.4138681988649111
  0.7496836352750194  0.0863184915702391  0.4969591406085598
  0.6653626525732506  0.8352751996741290  0.4166719442407967
  0.8385370108183281  0.6711671133598429  0.3381207812779792
  0.6605467124891433  0.6687012540580852  0.1671322917279525
  0.7550588286511726  0.4095565537256860  0.2498099755173797
  0.8368203246867338  0.1658094551480502  0.3335282384687730
  0.5047811025685291  0.6703911745464026  0.4973057527124993
  0.6689425190436395  0.1614371007080990  0.1694869290954486
  0.7536268858988251  0.9182463599916986  0.2547401014686130
  0.9167296154662381  0.4156687501548504  0.4141815343311208
  0.9999930963547214  0.1629891536175663  0.4979487474882021
  0.5809804083290615  0.9148109842865253  0.0849807665428770
  0.9195143697682866  0.9179428284709132  0.4143160920422062
  0.5906606004776194  0.5888633611101213  0.8327256485853027
  0.5017005111795925  0.3246600555546451  0.7502663495661324
  0.5840372046444173  0.0834514394118813  0.8307412592092476
  0.7459604752909286  0.5800343782305717  0.9977461313480163
  0.8328607010287215  0.3244083153190189  0.5794596195888886
  0.9178941786869785  0.0862655514956856  0.6689972665024229
  0.5052228747461385  0.8403618788079612  0.7524467582885279
  0.6665031282686797  0.3342413995338092  0.9136604270245883
  0.7505361289858428  0.0861485892645391  0.9978016779332251
  0.6626177631472672  0.8360743099494528  0.9159003814382345
  0.8356937426946800  0.6704296681716997  0.8372785445521345
  0.6618799116341876  0.6717588318854979  0.6654445936489353
  0.7520734900019548  0.4090641102201502  0.7496848135599805
  0.8334106966655597  0.1656382182618543  0.8328193989830694
  0.5025108664020621  0.6705234300856731  0.9979900344037276
  0.6684851415703292  0.1614384929191246  0.6672750602130506
  0.7527626395476048  0.9183892281919483  0.7532921820226761
  0.9122924829852650  0.4159404123752424  0.9132684514383698
  0.9962934449969794  0.1630756667887781  0.9972268041558081
  0.5827979872906752  0.9213023559410800  0.5813485642926466
  0.9167257046679325  0.9179758806262797  0.9130268564084645
  0.4040580107568346  0.5849320489019902  0.1751587486809925
  0.3245157214857386  0.8390003691839141  0.0855164088421674
  0.0627536895770504  0.4201499536279201  0.0838009127330395
  0.4066561747531381  0.5826218193261212  0.6726843420892408
  0.3296994958813428  0.8380350694527721  0.5839078257275929
  0.0792629070897846  0.4154007617028199  0.5844550833034106
  0.9024800487308866  0.5870685721047479  0.1749599263704269
  0.8259727976098645  0.8393323295451651  0.0834816777154543
  0.5666647715933877  0.4104413452551654  0.0855124453193028
  0.9062134458696676  0.5831731508393645  0.6731942635070851
  0.8300598543568256  0.8385122157593372  0.5836297689103347
  0.5818750923082945  0.4160064027388941  0.5837268232579476
  0.2209656586952917  0.5836607908220159  0.2671153708879288
  0.0376126031087054  0.6026767663485941  0.1024443898268359
  0.1443693389098755  0.3239215837988141  0.1871358845265547
  0.2136240330998120  0.0817677040843421  0.2728018965918650
  0.3818939344874934  0.5829217641762128  0.4372603192742588
  0.0396524707066703  0.0846788084719989  0.1024732931265859
  0.1332515560498919  0.8405470716372960  0.1852386412144469
  0.2979712076403800  0.3315174004345707  0.3532799610664696
  0.3786132232949626  0.0817466846745418  0.4357919963819654
  0.4654003683834986  0.8356279789666274  0.0150010901636222
  0.2954240942567097  0.8337547184174738  0.3555035774182258
  0.4713143420810795  0.6776871524689199  0.2803942189096205
  0.2765602065319399  0.6610579120300812  0.0982196613516138
  0.3825547207896776  0.3961161738006140  0.1851377992321162
  0.4638425012237235  0.1652244421703699  0.2724634905359054
  0.1330824813868006  0.6661024862839255  0.4346248174042628
  0.2136641246134658  0.4122044631129782  0.0175810455216237
  0.2897953720139412  0.1565309686634251  0.1039411447293190
  0.3847172201159523  0.9238657496080336  0.1968368265988190
  0.0487098556340726  0.4182454068555757  0.3494334910938406
  0.1286906317478369  0.1698410645861657  0.4353484978120292
  0.1977020508473686  0.9274020322355057  0.0124771926287579
  0.0481173569664222  0.9207277521951198  0.3528907850973795
  0.2181577933413763  0.5812156422065584  0.7681984856669644
  0.0413680134247016  0.5981305429594244  0.6019346481829402
  0.1302569320441265  0.3224099300308438  0.6952276031503786
  0.2118933401159566  0.0836394197947641  0.7720083411436960
  0.3767668511916327  0.5850333189157411  0.9379207440032218
  0.4529273790795116  0.3240422873918263  0.5134936444745435
  0.0428815621052436  0.0853461546104839  0.6034206134817950
  0.1319087561953793  0.8390857737542419  0.6858588932267509
  0.2942859894643419  0.3318728248799658  0.8539351660372390
  0.3749443486609536  0.0814512970210188  0.9360790071129585
  0.4694421216210074  0.8355274827187245  0.5139911743516024
  0.2902935839969984  0.8346493849132983  0.8547385586232892
  0.4674160076152205  0.6782556715800112  0.7809473116703316
  0.2780991072573187  0.6611803733021731  0.5981868550468903
  0.3769608667186048  0.3957316200053427  0.6865577343549631
  0.4612513119832684  0.1649645346507427  0.7722962740550230
  0.1290815378974841  0.6654454066268727  0.9352248192527384
  0.2184018456395762  0.4140784289742641  0.5145189316507981
  0.2925577746060242  0.1610806104619300  0.6027265076629504
  0.3831574930043828  0.9246495570959254  0.6967118657773241
  0.0438949184964983  0.4185189236133269  0.8528300645537641
  0.1259533292007546  0.1700424259221833  0.9355443419914593
  0.2009940224154434  0.9273502924635721  0.5130152604796621
  0.0454952750766324  0.9211119801647385  0.8527399924649188
  0.7218634826525872  0.5814584687920927  0.2661937952249431
  0.5402270854345872  0.5923376571664534  0.1014235160016383
  0.6322619770273192  0.3258859067758593  0.1925567612943198
  0.7137717827106940  0.0832090575532547  0.2709465557999593
  0.8827251196395451  0.5824402771772554  0.4362998096892241
  0.9439921065114945  0.3223906756285828  0.0102679263734231
  0.5410335913310149  0.0859012816607816  0.1051124127468910
  0.6322057501560892  0.8371599505105820  0.1867085421236681
  0.7980649640770352  0.3316900193653893  0.3502085610819279
  0.8787976051651043  0.0816649561262253  0.4344779801339698
  0.9650558271089125  0.8364915497752037  0.0131081915406881
  0.7949191575271470  0.8338262996813270  0.3549490374583897
  0.9712856253145077  0.6790111724857724  0.2803925806268026
  0.7746081127991786  0.6625275064677751  0.0968103042995878
  0.8838435036856467  0.3966542728291742  0.1818507991233673
  0.9663085777233960  0.1657124580528802  0.2705155457397268
  0.6333722180723100  0.6661528034865114  0.4342233531881377
  0.7059572650057220  0.4126278844672697  0.0161013582062921
  0.7907793489757040  0.1602918217156386  0.1024301875823710
  0.8835960111174401  0.9234724468553708  0.1957573479590167
  0.5467471572406382  0.4190285386478152  0.3522284325293725
  0.6288286562558199  0.1704639918425457  0.4349034253853361
  0.6945100912055295  0.9302964998579384  0.0129667495792702
  0.5484137677483929  0.9212269870039975  0.3533358184176834
  0.7180200413019548  0.5823083095884627  0.7669595930139650
  0.5415841113322486  0.5980566571020702  0.6017971278407543
  0.6315826282615262  0.3232588099681450  0.6947368893313097
  0.7117324217275538  0.0826448178641499  0.7710458653168644
  0.8766803829459633  0.5814709361716623  0.9374824155907859
  0.9529352710436356  0.3238254909839853  0.5114578902353770
  0.5429955714954886  0.0855569348317147  0.6035347714246768
  0.6316151750155186  0.8391238715618528  0.6861005426684414
  0.7925129895380749  0.3318010635074486  0.8518866884907723
  0.8752408996984400  0.0812367699841516  0.9345312422256455
  0.9693610669359316  0.8355283517540428  0.5135232650982289
  0.7918211392724857  0.8336407724132116  0.8550498874950563
  0.9684446576820989  0.6780137190848876  0.7807393923956951
  0.7782579106707885  0.6616458932156775  0.5973094972764059
  0.8782198875315288  0.3960488060148748  0.6851151867324106
  0.9614345629259802  0.1649887751991841  0.7724405499399865
  0.6287903810572359  0.6671060309794399  0.9345746831357857
  0.7198061429220104  0.4140200539209360  0.5132008149387275
  0.7932756489222967  0.1611195040679689  0.6020348978668650
  0.8835568997495358  0.9244069305922835  0.6963649145456898
  0.5434214832922137  0.4199574463268334  0.8517410018516998
  0.6245670591531720  0.1712603687815104  0.9354303495386915
  0.7010878470098163  0.9277937485580665  0.5128902019885615
  0.5443244646482412  0.9217645454277488  0.8536662333674059
 
  0.00000000E+00  0.00000000E+00  0.00000000E+00
  0.00000000E+00  0.00000000E+00  0.00000000E+00
  0.00000000E+00  0.00000000E+00  0.00000000E+00
  0.00000000E+00  0.00000000E+00  0.00000000E+00
  0.00000000E+00  0.00000000E+00  0.00000000E+00
  0.00000000E+00  0.00000000E+00  0.00000000E+00
  0.00000000E+00  0.00000000E+00  0.00000000E+00
  0.00000000E+00  0.00000000E+00  0.00000000E+00
  0.00000000E+00  0.00000000E+00  0.00000000E+00
  0.00000000E+00  0.00000000E+00  0.00000000E+00
  0.00000000E+00  0.00000000E+00  0.00000000E+00
  0.00000000E+00  0.00000000E+00  0.00000000E+00
  0.00000000E+00  0.00000000E+00  0.00000000E+00
  0.00000000E+00  0.00000000E+00  0.00000000E+00
  0.00000000E+00  0.00000000E+00  0.00000000E+00
  0.00000000E+00  0.00000000E+00  0.00000000E+00
  0.00000000E+00  0.00000000E+00  0.00000000E+00
  0.00000000E+00  0.00000000E+00  0.00000000E+00
  0.00000000E+00  0.00000000E+00  0.00000000E+00
  0.00000000E+00  0.00000000E+00  0.00000000E+00
  0.00000000E+00  0.00000000E+00  0.00000000E+00
  0.00000000E+00  0.00000000E+00  0.00000000E+00
  0.00000000E+00  0.00000000E+00  0.00000000E+00
  0.00000000E+00  0.00000000E+00  0.00000000E+00
  0.00000000E+00  0.00000000E+00  0.00000000E+00
  0.00000000E+00  0.00000000E+00  0.00000000E+00
  0.00000000E+00  0.00000000E+00  0.00000000E+00
  0.00000000E+00  0.00000000E+00  0.00000000E+00
  0.00000000E+00  0.00000000E+00  0.00000000E+00
  0.00000000E+00  0.00000000E+00  0.00000000E+00
  0.00000000E+00  0.00000000E+00  0.00000000E+00
  0.00000000E+00  0.00000000E+00  0.00000000E+00
  0.00000000E+00  0.00000000E+00  0.00000000E+00
  0.00000000E+00  0.00000000E+00  0.00000000E+00
  0.00000000E+00  0.00000000E+00  0.00000000E+00
  0.00000000E+00  0.00000000E+00  0.00000000E+00
  0.00000000E+00  0.00000000E+00  0.00000000E+00
  0.00000000E+00  0.00000000E+00  0.00000000E+00
  0.00000000E+00  0.00000000E+00  0.00000000E+00
  0.00000000E+00  0.00000000E+00  0.00000000E+00
  0.00000000E+00  0.00000000E+00  0.00000000E+00
  0.00000000E+00  0.00000000E+00  0.00000000E+00
  0.00000000E+00  0.00000000E+00  0.00000000E+00
  0.00000000E+00  0.00000000E+00  0.00000000E+00
  0.00000000E+00  0.00000000E+00  0.00000000E+00
  0.00000000E+00  0.00000000E+00  0.00000000E+00
  0.00000000E+00  0.00000000E+00  0.00000000E+00
  0.00000000E+00  0.00000000E+00  0.00000000E+00
  0.00000000E+00  0.00000000E+00  0.00000000E+00
  0.00000000E+00  0.00000000E+00  0.00000000E+00
  0.00000000E+00  0.00000000E+00  0.00000000E+00
  0.00000000E+00  0.00000000E+00  0.00000000E+00
  0.00000000E+00  0.00000000E+00  0.00000000E+00
  0.00000000E+00  0.00000000E+00  0.00000000E+00
  0.00000000E+00  0.00000000E+00  0.00000000E+00
  0.00000000E+00  0.00000000E+00  0.00000000E+00
  0.00000000E+00  0.00000000E+00  0.00000000E+00
  0.00000000E+00  0.00000000E+00  0.00000000E+00
  0.00000000E+00  0.00000000E+00  0.00000000E+00
  0.00000000E+00  0.00000000E+00  0.00000000E+00
  0.00000000E+00  0.00000000E+00  0.00000000E+00
  0.00000000E+00  0.00000000E+00  0.00000000E+00
  0.00000000E+00  0.00000000E+00  0.00000000E+00
  0.00000000E+00  0.00000000E+00  0.00000000E+00
  0.00000000E+00  0.00000000E+00  0.00000000E+00
  0.00000000E+00  0.00000000E+00  0.00000000E+00
  0.00000000E+00  0.00000000E+00  0.00000000E+00
  0.00000000E+00  0.00000000E+00  0.00000000E+00
  0.00000000E+00  0.00000000E+00  0.00000000E+00
  0.00000000E+00  0.00000000E+00  0.00000000E+00
  0.00000000E+00  0.00000000E+00  0.00000000E+00
  0.00000000E+00  0.00000000E+00  0.00000000E+00
  0.00000000E+00  0.00000000E+00  0.00000000E+00
  0.00000000E+00  0.00000000E+00  0.00000000E+00
  0.00000000E+00  0.00000000E+00  0.00000000E+00
  0.00000000E+00  0.00000000E+00  0.00000000E+00
  0.00000000E+00  0.00000000E+00  0.00000000E+00
  0.00000000E+00  0.00000000E+00  0.00000000E+00
  0.00000000E+00  0.00000000E+00  0.00000000E+00
  0.00000000E+00  0.00000000E+00  0.00000000E+00
  0.00000000E+00  0.00000000E+00  0.00000000E+00
  0.00000000E+00  0.00000000E+00  0.00000000E+00
  0.00000000E+00  0.00000000E+00  0.00000000E+00
  0.00000000E+00  0.00000000E+00  0.00000000E+00
  0.00000000E+00  0.00000000E+00  0.00000000E+00
  0.00000000E+00  0.00000000E+00  0.00000000E+00
  0.00000000E+00  0.00000000E+00  0.00000000E+00
  0.00000000E+00  0.00000000E+00  0.00000000E+00
  0.00000000E+00  0.00000000E+00  0.00000000E+00
  0.00000000E+00  0.00000000E+00  0.00000000E+00
  0.00000000E+00  0.00000000E+00  0.00000000E+00
  0.00000000E+00  0.00000000E+00  0.00000000E+00
  0.00000000E+00  0.00000000E+00  0.00000000E+00
  0.00000000E+00  0.00000000E+00  0.00000000E+00
  0.00000000E+00  0.00000000E+00  0.00000000E+00
  0.00000000E+00  0.00000000E+00  0.00000000E+00
  0.00000000E+00  0.00000000E+00  0.00000000E+00
  0.00000000E+00  0.00000000E+00  0.00000000E+00
  0.00000000E+00  0.00000000E+00  0.00000000E+00
  0.00000000E+00  0.00000000E+00  0.00000000E+00
  0.00000000E+00  0.00000000E+00  0.00000000E+00
  0.00000000E+00  0.00000000E+00  0.00000000E+00
  0.00000000E+00  0.00000000E+00  0.00000000E+00
  0.00000000E+00  0.00000000E+00  0.00000000E+00
  0.00000000E+00  0.00000000E+00  0.00000000E+00
  0.00000000E+00  0.00000000E+00  0.00000000E+00
  0.00000000E+00  0.00000000E+00  0.00000000E+00
  0.00000000E+00  0.00000000E+00  0.00000000E+00
  0.00000000E+00  0.00000000E+00  0.00000000E+00
  0.00000000E+00  0.00000000E+00  0.00000000E+00
  0.00000000E+00  0.00000000E+00  0.00000000E+00
  0.00000000E+00  0.00000000E+00  0.00000000E+00
  0.00000000E+00  0.00000000E+00  0.00000000E+00
  0.00000000E+00  0.00000000E+00  0.00000000E+00
  0.00000000E+00  0.00000000E+00  0.00000000E+00
  0.00000000E+00  0.00000000E+00  0.00000000E+00
  0.00000000E+00  0.00000000E+00  0.00000000E+00
  0.00000000E+00  0.00000000E+00  0.00000000E+00
  0.00000000E+00  0.00000000E+00  0.00000000E+00
  0.00000000E+00  0.00000000E+00  0.00000000E+00
  0.00000000E+00  0.00000000E+00  0.00000000E+00
  0.00000000E+00  0.00000000E+00  0.00000000E+00
  0.00000000E+00  0.00000000E+00  0.00000000E+00
  0.00000000E+00  0.00000000E+00  0.00000000E+00
  0.00000000E+00  0.00000000E+00  0.00000000E+00
  0.00000000E+00  0.00000000E+00  0.00000000E+00
  0.00000000E+00  0.00000000E+00  0.00000000E+00
  0.00000000E+00  0.00000000E+00  0.00000000E+00
  0.00000000E+00  0.00000000E+00  0.00000000E+00
  0.00000000E+00  0.00000000E+00  0.00000000E+00
  0.00000000E+00  0.00000000E+00  0.00000000E+00
  0.00000000E+00  0.00000000E+00  0.00000000E+00
  0.00000000E+00  0.00000000E+00  0.00000000E+00
  0.00000000E+00  0.00000000E+00  0.00000000E+00
  0.00000000E+00  0.00000000E+00  0.00000000E+00
  0.00000000E+00  0.00000000E+00  0.00000000E+00
  0.00000000E+00  0.00000000E+00  0.00000000E+00
  0.00000000E+00  0.00000000E+00  0.00000000E+00
  0.00000000E+00  0.00000000E+00  0.00000000E+00
  0.00000000E+00  0.00000000E+00  0.00000000E+00
  0.00000000E+00  0.00000000E+00  0.00000000E+00
  0.00000000E+00  0.00000000E+00  0.00000000E+00
  0.00000000E+00  0.00000000E+00  0.00000000E+00
  0.00000000E+00  0.00000000E+00  0.00000000E+00
  0.00000000E+00  0.00000000E+00  0.00000000E+00
  0.00000000E+00  0.00000000E+00  0.00000000E+00
  0.00000000E+00  0.00000000E+00  0.00000000E+00
  0.00000000E+00  0.00000000E+00  0.00000000E+00
  0.00000000E+00  0.00000000E+00  0.00000000E+00
  0.00000000E+00  0.00000000E+00  0.00000000E+00
  0.00000000E+00  0.00000000E+00  0.00000000E+00
  0.00000000E+00  0.00000000E+00  0.00000000E+00
  0.00000000E+00  0.00000000E+00  0.00000000E+00
  0.00000000E+00  0.00000000E+00  0.00000000E+00
  0.00000000E+00  0.00000000E+00  0.00000000E+00
  0.00000000E+00  0.00000000E+00  0.00000000E+00
  0.00000000E+00  0.00000000E+00  0.00000000E+00
  0.00000000E+00  0.00000000E+00  0.00000000E+00
  0.00000000E+00  0.00000000E+00  0.00000000E+00
  0.00000000E+00  0.00000000E+00  0.00000000E+00
  0.00000000E+00  0.00000000E+00  0.00000000E+00
  0.00000000E+00  0.00000000E+00  0.00000000E+00
  0.00000000E+00  0.00000000E+00  0.00000000E+00
  0.00000000E+00  0.00000000E+00  0.00000000E+00
  0.00000000E+00  0.00000000E+00  0.00000000E+00
  0.00000000E+00  0.00000000E+00  0.00000000E+00
  0.00000000E+00  0.00000000E+00  0.00000000E+00
  0.00000000E+00  0.00000000E+00  0.00000000E+00
  0.00000000E+00  0.00000000E+00  0.00000000E+00
  0.00000000E+00  0.00000000E+00  0.00000000E+00
  0.00000000E+00  0.00000000E+00  0.00000000E+00
  0.00000000E+00  0.00000000E+00  0.00000000E+00
  0.00000000E+00  0.00000000E+00  0.00000000E+00
  0.00000000E+00  0.00000000E+00  0.00000000E+00
  0.00000000E+00  0.00000000E+00  0.00000000E+00
  0.00000000E+00  0.00000000E+00  0.00000000E+00
  0.00000000E+00  0.00000000E+00  0.00000000E+00
  0.00000000E+00  0.00000000E+00  0.00000000E+00
  0.00000000E+00  0.00000000E+00  0.00000000E+00
  0.00000000E+00  0.00000000E+00  0.00000000E+00
  0.00000000E+00  0.00000000E+00  0.00000000E+00
  0.00000000E+00  0.00000000E+00  0.00000000E+00
  0.00000000E+00  0.00000000E+00  0.00000000E+00
  0.00000000E+00  0.00000000E+00  0.00000000E+00
  0.00000000E+00  0.00000000E+00  0.00000000E+00
  0.00000000E+00  0.00000000E+00  0.00000000E+00
  0.00000000E+00  0.00000000E+00  0.00000000E+00
  0.00000000E+00  0.00000000E+00  0.00000000E+00
  0.00000000E+00  0.00000000E+00  0.00000000E+00
  0.00000000E+00  0.00000000E+00  0.00000000E+00
  0.00000000E+00  0.00000000E+00  0.00000000E+00
