supercell of POSCAR                     
   1.01189200000000     
     3.1482772356600002   -5.4762754812200001    9.9674464565599994
    -9.4511209497999999   -5.4731922780100000    0.0032121685426600
     6.3112884282600001  -10.9581161277000003   -9.9749049577999997
   Al   Sc   N 
    84    12    95
Direct
  0.0885346061848651  0.5828628802851199  0.3338681425179217
  0.9982627767656282  0.3314680812319182  0.2521290371225291
  0.0919781118794774  0.1214711043376582  0.3296177150243480
  0.2501248867148291  0.5769481179527247  0.4994314494068419
  0.3316545500258954  0.3245461019615163  0.0795015847696519
  0.4178019744824368  0.0864167933557027  0.1681003776148984
  0.9997583880767849  0.8238857131496502  0.2334740122777390
  0.1670576104549895  0.3382805229012646  0.4161642226174109
  0.2469667336875716  0.0865962113660856  0.4969087724858099
  0.1859758599377415  0.8137183086172399  0.4284513507913559
  0.3376932905260688  0.6659265840722242  0.3352332444526311
  0.1636267805675544  0.6675776896679793  0.1654647242831331
  0.2516633562965183  0.4073744249223097  0.2505487212705120
  0.3362300442386399  0.1663376871933551  0.3343231156453044
  0.9974252652156963  0.6693164629877941  0.4987108702808882
  0.1674867730130885  0.1618301251404972  0.1652387515972862
  0.2533024533167492  0.9180241295262164  0.2528072701962998
  0.4139245028046261  0.4150302465140783  0.4152507125062215
  0.4965103933771999  0.1638893160068733  0.4979376365589161
  0.0826216043193782  0.9227988882727303  0.0784285416756703
  0.4178474563967711  0.9195512890361286  0.4136695705770492
  0.0901943325891637  0.5846842105673389  0.8341632057263126
  0.0031916476657017  0.3265315458157119  0.7545660097213798
  0.0864195038391102  0.0843991641539645  0.8345353133772804
  0.2511334653741883  0.5804155925637460  0.9961423374954066
  0.3304805540868045  0.3231282110353462  0.5813018063043671
  0.4196107985964019  0.0867271383649779  0.6695914427962748
  0.0083089330070933  0.8404601198527075  0.7545400093164147
  0.1687090667217959  0.3334758337487287  0.9141573942074288
  0.2496926351291506  0.0862745498099500  0.9961766534081917
  0.1660348719254827  0.8345908718697572  0.9157913379410161
  0.3387563882110243  0.6707985439931008  0.8368251066555175
  0.1608541389370828  0.6724551720229641  0.6661656208914906
  0.2530804369305955  0.4083069749823451  0.7510910953792092
  0.3352411882469823  0.1659711727285185  0.8335368465509418
  0.0033405001359554  0.6704849539247135  0.9976296876112869
  0.1680033413276405  0.1609110141856789  0.6690424422124011
  0.2541475148850552  0.9195319434081881  0.7543998523950108
  0.4158104848544966  0.4159867382001678  0.9149652060216198
  0.4993951226798004  0.1636662302976291  0.9971700672144550
  0.0772369066538161  0.9212460126948372  0.5818587213576620
  0.4199683791868409  0.9182426144025442  0.9129658129683449
  0.5873492870704240  0.5825552778971357  0.3332490094673659
  0.5005688104950750  0.3265095255728312  0.2525505617704553
  0.5835553209735025  0.0842895918856499  0.3334962935093628
  0.7473528419549282  0.5784454745879515  0.4976204018110337
  0.8310743740630997  0.3237889448681059  0.0790940490800836
  0.9178071061119795  0.0877907091426096  0.1680494752704789
  0.5050226590874232  0.8395741442904097  0.2510966891434734
  0.6650201912438618  0.3336770715568136  0.4141025523591608
  0.7432084210897045  0.0939145182331913  0.4996101423462918
  0.6532289082332738  0.8293041884313581  0.4145612691164828
  0.8331004428240760  0.6699302174789921  0.3383350318546974
  0.6606155361843449  0.6713607646722366  0.1655525985834601
  0.7496022673367264  0.4079183601632224  0.2507680290455667
  0.8304096574931847  0.1664156378201653  0.3340384729797492
  0.5002645419379874  0.6680402324096235  0.4980988162160713
  0.6668087583454820  0.1613773448058140  0.1677218963420017
  0.7501340696902616  0.9191089766607163  0.2542070234145299
  0.9119260079454250  0.4157952400088050  0.4158813261092078
  0.9957882593694549  0.1638716683423880  0.4991576430096174
  0.5815543513291388  0.9218380776713246  0.0800529230705607
  0.8663032243183295  0.9176160463246248  0.4370191078498280
  0.5902945392139074  0.5837962604441742  0.8341193936645723
  0.5025326053608694  0.3274228471715972  0.7540252288292848
  0.5860158881343480  0.0850427926813708  0.8343370927820999
  0.7509396988353529  0.5806688646265386  0.9966220922626405
  0.8299655760096059  0.3254111680111293  0.5810213099092039
  0.9183183217126469  0.0876102304298243  0.6704819022196986
  0.5090857997234792  0.8399311922550936  0.7525941326304775
  0.6686314155444890  0.3335445947663516  0.9138116829237219
  0.7486144721250056  0.0868026103207811  0.9963787241113238
  0.6647502809670272  0.8348015254130345  0.9156136177618706
  0.8381500293627795  0.6706745042299005  0.8378309714002583
  0.6598828829045686  0.6676435965831047  0.6674777684480659
  0.7532918407992213  0.4081050387727316  0.7513945868682583
  0.8355576702013892  0.1662294527871566  0.8342396349430814
  0.5041599741881271  0.6698443211236977  0.9961510664199693
  0.6680913473970804  0.1622884213589160  0.6698332589057543
  0.7547361056584094  0.9206673148118085  0.7562337768496832
  0.9160421965502294  0.4164903087135841  0.9153377405889458
  0.9995408510090442  0.1640735683577219  0.9969376543228421
  0.5846607659684224  0.9213066885320913  0.5800513768693563
  0.9195395068117520  0.9185228188116952  0.9142738929684100
  0.4069373931338305  0.5812597680972686  0.1717040864957724
  0.3308229256888851  0.8376575334476115  0.0822984449489468
  0.0793488571049679  0.4161152823855687  0.0848101483731512
  0.4032275736955739  0.5833807525108057  0.6742636073007660
  0.3302060582735535  0.8427620467579402  0.5863664123313015
  0.0760189137828036  0.4151167070896591  0.5870292058030913
  0.9021070943278531  0.5810052074323764  0.1739430956565116
  0.8261896707197209  0.8400794205097384  0.0826318108422441
  0.5798778652341454  0.4147841510422978  0.0838172923257190
  0.9053551793347197  0.5811766131516833  0.6755433949617142
  0.8234919051109557  0.8333295875303932  0.5940489268005251
  0.5766546789640827  0.4147251272199597  0.5859323754201000
  0.2173121310073824  0.5810690395088187  0.2672808165450249
  0.0389625814098480  0.5997047638316531  0.1040475492893194
  0.1297244469779528  0.3212393227618975  0.1962343633353285
  0.2103403456843509  0.0807031162422192  0.2716364555389177
  0.3773443973681907  0.5825750361651245  0.4364604533328418
  0.4516486521887018  0.3237419071800005  0.0124994360040063
  0.0424205981047834  0.0850249295558783  0.1032586774227724
  0.1331005256404794  0.8386172410769390  0.1856555328927882
  0.2934705082530868  0.3307941746498031  0.3526511202873053
  0.3748090424533785  0.0806878048655975  0.4349806183197202
  0.4693586370596705  0.8354856900387517  0.0126250766431184
  0.2913360444516897  0.8314977945635604  0.3539945715142068
  0.4690200149896313  0.6777454113588774  0.2789283800641300
  0.2781765023334444  0.6613217168860572  0.0972315534344972
  0.3767003360872394  0.3951586952683783  0.1852641660018861
  0.4609140576366855  0.1641290288324626  0.2716735176370051
  0.1278268969895322  0.6612418410755723  0.4358841798463189
  0.2175021551063239  0.4143388638631009  0.0145402434165547
  0.2924173002342840  0.1604733139438892  0.1021090305248364
  0.3822471459419319  0.9242531241149408  0.1958460956543675
  0.0425394556581651  0.4193942700967241  0.3521456383696417
  0.1253370251461163  0.1721147215150296  0.4360887085307539
  0.2015128271562503  0.9272126347362715  0.0125930342131468
  0.2210413500396911  0.5828761725307672  0.7656807212319521
  0.0399146581010399  0.5994765820823247  0.6022549053830488
  0.1327800866806683  0.3225469018297886  0.6954103145437500
  0.2135432963386208  0.0825825657745938  0.7712469839635787
  0.3811830556210509  0.5832409152503075  0.9362639745709131
  0.4492698802931301  0.3233550490981898  0.5124023526959505
  0.0421461002943744  0.0858947501602643  0.6026209564322542
  0.1333928819767038  0.8409518801490918  0.6845532407926740
  0.2970077352712011  0.3318368878940277  0.8522345804446303
  0.3784585045957130  0.0811594186239901  0.9347089169076597
  0.4697184512336960  0.8368392596823782  0.5126401897479553
  0.2953365600270388  0.8335229191586606  0.8543589686311535
  0.4721972015880951  0.6784632481452846  0.7791125472719713
  0.2774553409530753  0.6665036764868546  0.5957630298305290
  0.3792412133918930  0.3955364583631962  0.6847833278623199
  0.4635716693601637  0.1649916100207207  0.7717241331608520
  0.1320621808535023  0.6664788540944642  0.9348667220148172
  0.2156879558067786  0.4132318913330479  0.5164176887466425
  0.2924463471493866  0.1578689585093827  0.6018277254650428
  0.3865351166101405  0.9247137367951552  0.6969474174273174
  0.0461844381678702  0.4196841569543679  0.8523157749833956
  0.1284069670276722  0.1701007122552198  0.9352017117522777
  0.1944153874736543  0.9265447166783431  0.5094377640865773
  0.0490182964451193  0.9209591415319878  0.8539719973818620
  0.7189221421185579  0.5820377758460182  0.2665238603998716
  0.5415041232729223  0.5980357895476942  0.1009828759345126
  0.6303135393747539  0.3225302015911353  0.1947846348529652
  0.7114139484714315  0.0822861711527523  0.2712316016487009
  0.8774784783103868  0.5830550313948919  0.4367734874879474
  0.9525386936675986  0.3240776507059806  0.0131337805287046
  0.5422579053414935  0.0853631922645448  0.1029432880011285
  0.6322588425114191  0.8398385200383842  0.1847037660148345
  0.7938797087938667  0.3317561456203535  0.3521966193100496
  0.8735542443243247  0.0843901019238800  0.4356568392540083
  0.9677823340781515  0.8361313432571080  0.0149574831463184
  0.7852832437851802  0.8311153374743654  0.3538658950319729
  0.9690060353573529  0.6814148235984305  0.2828202004296045
  0.7780812846445286  0.6629007588206335  0.0976039677993228
  0.8755599715411151  0.3953896023520542  0.1847173455263160
  0.9592280190168125  0.1662674425559416  0.2722661784083442
  0.6277090208675631  0.6628811412001099  0.4344934425799138
  0.7184224113403985  0.4141220096987155  0.0139919321668032
  0.7924822317842484  0.1597230683406536  0.1025868818670475
  0.8850869081480965  0.9255644665717213  0.1993835312722041
  0.5426787310373129  0.4183943823947089  0.3514225669550228
  0.6238317099122526  0.1699950404434531  0.4342961131309551
  0.6995593562132072  0.9281972774837470  0.0118764469141155
  0.5431791268028121  0.9208139420772739  0.3514439924830626
  0.7207727139166948  0.5816280050653191  0.7673443607534551
  0.5383672709620555  0.5982700987038214  0.6022576625217795
  0.6323806022688032  0.3236235044234590  0.6953981176127471
  0.7134889859407139  0.0835145556350270  0.7717558224771608
  0.8815715631447176  0.5834654020064107  0.9373986440204192
  0.9498120633631544  0.3240220294975131  0.5125313110686491
  0.5448395592481958  0.0845507708173656  0.6017838842785750
  0.6378463294404852  0.8395869241668734  0.6829453335028504
  0.7974548565901998  0.3319286759879105  0.8525534040534595
  0.8781363272555609  0.0815383562334944  0.9355048934227170
  0.9609780460829214  0.8357017288413928  0.5150254400261360
  0.7952700472357535  0.8337078553218191  0.8555381721593989
  0.9710478147338293  0.6788160107999914  0.7801799155447497
  0.7759910969581654  0.6563128611570548  0.5983444976614578
  0.8801204915346332  0.3946583082309303  0.6853148540491674
  0.9637860358366908  0.1648726493511958  0.7728214840942371
  0.6327294814851498  0.6662645320601115  0.9341321411240386
  0.7150570263910723  0.4123129010100612  0.5142618738444398
  0.7921678890174988  0.1612009359950974  0.6034138899728063
  0.8864806758352799  0.9261307335262927  0.6990536771043239
  0.5457823302248741  0.4192309816919391  0.8522118420885505
  0.6279937922729957  0.1705164273263833  0.9349687905274280
  0.7104948053928979  0.9256084875387103  0.5071997151173164
  0.5491166154714122  0.9209593243486864  0.8518912556128129
 
  0.00000000E+00  0.00000000E+00  0.00000000E+00
  0.00000000E+00  0.00000000E+00  0.00000000E+00
  0.00000000E+00  0.00000000E+00  0.00000000E+00
  0.00000000E+00  0.00000000E+00  0.00000000E+00
  0.00000000E+00  0.00000000E+00  0.00000000E+00
  0.00000000E+00  0.00000000E+00  0.00000000E+00
  0.00000000E+00  0.00000000E+00  0.00000000E+00
  0.00000000E+00  0.00000000E+00  0.00000000E+00
  0.00000000E+00  0.00000000E+00  0.00000000E+00
  0.00000000E+00  0.00000000E+00  0.00000000E+00
  0.00000000E+00  0.00000000E+00  0.00000000E+00
  0.00000000E+00  0.00000000E+00  0.00000000E+00
  0.00000000E+00  0.00000000E+00  0.00000000E+00
  0.00000000E+00  0.00000000E+00  0.00000000E+00
  0.00000000E+00  0.00000000E+00  0.00000000E+00
  0.00000000E+00  0.00000000E+00  0.00000000E+00
  0.00000000E+00  0.00000000E+00  0.00000000E+00
  0.00000000E+00  0.00000000E+00  0.00000000E+00
  0.00000000E+00  0.00000000E+00  0.00000000E+00
  0.00000000E+00  0.00000000E+00  0.00000000E+00
  0.00000000E+00  0.00000000E+00  0.00000000E+00
  0.00000000E+00  0.00000000E+00  0.00000000E+00
  0.00000000E+00  0.00000000E+00  0.00000000E+00
  0.00000000E+00  0.00000000E+00  0.00000000E+00
  0.00000000E+00  0.00000000E+00  0.00000000E+00
  0.00000000E+00  0.00000000E+00  0.00000000E+00
  0.00000000E+00  0.00000000E+00  0.00000000E+00
  0.00000000E+00  0.00000000E+00  0.00000000E+00
  0.00000000E+00  0.00000000E+00  0.00000000E+00
  0.00000000E+00  0.00000000E+00  0.00000000E+00
  0.00000000E+00  0.00000000E+00  0.00000000E+00
  0.00000000E+00  0.00000000E+00  0.00000000E+00
  0.00000000E+00  0.00000000E+00  0.00000000E+00
  0.00000000E+00  0.00000000E+00  0.00000000E+00
  0.00000000E+00  0.00000000E+00  0.00000000E+00
  0.00000000E+00  0.00000000E+00  0.00000000E+00
  0.00000000E+00  0.00000000E+00  0.00000000E+00
  0.00000000E+00  0.00000000E+00  0.00000000E+00
  0.00000000E+00  0.00000000E+00  0.00000000E+00
  0.00000000E+00  0.00000000E+00  0.00000000E+00
  0.00000000E+00  0.00000000E+00  0.00000000E+00
  0.00000000E+00  0.00000000E+00  0.00000000E+00
  0.00000000E+00  0.00000000E+00  0.00000000E+00
  0.00000000E+00  0.00000000E+00  0.00000000E+00
  0.00000000E+00  0.00000000E+00  0.00000000E+00
  0.00000000E+00  0.00000000E+00  0.00000000E+00
  0.00000000E+00  0.00000000E+00  0.00000000E+00
  0.00000000E+00  0.00000000E+00  0.00000000E+00
  0.00000000E+00  0.00000000E+00  0.00000000E+00
  0.00000000E+00  0.00000000E+00  0.00000000E+00
  0.00000000E+00  0.00000000E+00  0.00000000E+00
  0.00000000E+00  0.00000000E+00  0.00000000E+00
  0.00000000E+00  0.00000000E+00  0.00000000E+00
  0.00000000E+00  0.00000000E+00  0.00000000E+00
  0.00000000E+00  0.00000000E+00  0.00000000E+00
  0.00000000E+00  0.00000000E+00  0.00000000E+00
  0.00000000E+00  0.00000000E+00  0.00000000E+00
  0.00000000E+00  0.00000000E+00  0.00000000E+00
  0.00000000E+00  0.00000000E+00  0.00000000E+00
  0.00000000E+00  0.00000000E+00  0.00000000E+00
  0.00000000E+00  0.00000000E+00  0.00000000E+00
  0.00000000E+00  0.00000000E+00  0.00000000E+00
  0.00000000E+00  0.00000000E+00  0.00000000E+00
  0.00000000E+00  0.00000000E+00  0.00000000E+00
  0.00000000E+00  0.00000000E+00  0.00000000E+00
  0.00000000E+00  0.00000000E+00  0.00000000E+00
  0.00000000E+00  0.00000000E+00  0.00000000E+00
  0.00000000E+00  0.00000000E+00  0.00000000E+00
  0.00000000E+00  0.00000000E+00  0.00000000E+00
  0.00000000E+00  0.00000000E+00  0.00000000E+00
  0.00000000E+00  0.00000000E+00  0.00000000E+00
  0.00000000E+00  0.00000000E+00  0.00000000E+00
  0.00000000E+00  0.00000000E+00  0.00000000E+00
  0.00000000E+00  0.00000000E+00  0.00000000E+00
  0.00000000E+00  0.00000000E+00  0.00000000E+00
  0.00000000E+00  0.00000000E+00  0.00000000E+00
  0.00000000E+00  0.00000000E+00  0.00000000E+00
  0.00000000E+00  0.00000000E+00  0.00000000E+00
  0.00000000E+00  0.00000000E+00  0.00000000E+00
  0.00000000E+00  0.00000000E+00  0.00000000E+00
  0.00000000E+00  0.00000000E+00  0.00000000E+00
  0.00000000E+00  0.00000000E+00  0.00000000E+00
  0.00000000E+00  0.00000000E+00  0.00000000E+00
  0.00000000E+00  0.00000000E+00  0.00000000E+00
  0.00000000E+00  0.00000000E+00  0.00000000E+00
  0.00000000E+00  0.00000000E+00  0.00000000E+00
  0.00000000E+00  0.00000000E+00  0.00000000E+00
  0.00000000E+00  0.00000000E+00  0.00000000E+00
  0.00000000E+00  0.00000000E+00  0.00000000E+00
  0.00000000E+00  0.00000000E+00  0.00000000E+00
  0.00000000E+00  0.00000000E+00  0.00000000E+00
  0.00000000E+00  0.00000000E+00  0.00000000E+00
  0.00000000E+00  0.00000000E+00  0.00000000E+00
  0.00000000E+00  0.00000000E+00  0.00000000E+00
  0.00000000E+00  0.00000000E+00  0.00000000E+00
  0.00000000E+00  0.00000000E+00  0.00000000E+00
  0.00000000E+00  0.00000000E+00  0.00000000E+00
  0.00000000E+00  0.00000000E+00  0.00000000E+00
  0.00000000E+00  0.00000000E+00  0.00000000E+00
  0.00000000E+00  0.00000000E+00  0.00000000E+00
  0.00000000E+00  0.00000000E+00  0.00000000E+00
  0.00000000E+00  0.00000000E+00  0.00000000E+00
  0.00000000E+00  0.00000000E+00  0.00000000E+00
  0.00000000E+00  0.00000000E+00  0.00000000E+00
  0.00000000E+00  0.00000000E+00  0.00000000E+00
  0.00000000E+00  0.00000000E+00  0.00000000E+00
  0.00000000E+00  0.00000000E+00  0.00000000E+00
  0.00000000E+00  0.00000000E+00  0.00000000E+00
  0.00000000E+00  0.00000000E+00  0.00000000E+00
  0.00000000E+00  0.00000000E+00  0.00000000E+00
  0.00000000E+00  0.00000000E+00  0.00000000E+00
  0.00000000E+00  0.00000000E+00  0.00000000E+00
  0.00000000E+00  0.00000000E+00  0.00000000E+00
  0.00000000E+00  0.00000000E+00  0.00000000E+00
  0.00000000E+00  0.00000000E+00  0.00000000E+00
  0.00000000E+00  0.00000000E+00  0.00000000E+00
  0.00000000E+00  0.00000000E+00  0.00000000E+00
  0.00000000E+00  0.00000000E+00  0.00000000E+00
  0.00000000E+00  0.00000000E+00  0.00000000E+00
  0.00000000E+00  0.00000000E+00  0.00000000E+00
  0.00000000E+00  0.00000000E+00  0.00000000E+00
  0.00000000E+00  0.00000000E+00  0.00000000E+00
  0.00000000E+00  0.00000000E+00  0.00000000E+00
  0.00000000E+00  0.00000000E+00  0.00000000E+00
  0.00000000E+00  0.00000000E+00  0.00000000E+00
  0.00000000E+00  0.00000000E+00  0.00000000E+00
  0.00000000E+00  0.00000000E+00  0.00000000E+00
  0.00000000E+00  0.00000000E+00  0.00000000E+00
  0.00000000E+00  0.00000000E+00  0.00000000E+00
  0.00000000E+00  0.00000000E+00  0.00000000E+00
  0.00000000E+00  0.00000000E+00  0.00000000E+00
  0.00000000E+00  0.00000000E+00  0.00000000E+00
  0.00000000E+00  0.00000000E+00  0.00000000E+00
  0.00000000E+00  0.00000000E+00  0.00000000E+00
  0.00000000E+00  0.00000000E+00  0.00000000E+00
  0.00000000E+00  0.00000000E+00  0.00000000E+00
  0.00000000E+00  0.00000000E+00  0.00000000E+00
  0.00000000E+00  0.00000000E+00  0.00000000E+00
  0.00000000E+00  0.00000000E+00  0.00000000E+00
  0.00000000E+00  0.00000000E+00  0.00000000E+00
  0.00000000E+00  0.00000000E+00  0.00000000E+00
  0.00000000E+00  0.00000000E+00  0.00000000E+00
  0.00000000E+00  0.00000000E+00  0.00000000E+00
  0.00000000E+00  0.00000000E+00  0.00000000E+00
  0.00000000E+00  0.00000000E+00  0.00000000E+00
  0.00000000E+00  0.00000000E+00  0.00000000E+00
  0.00000000E+00  0.00000000E+00  0.00000000E+00
  0.00000000E+00  0.00000000E+00  0.00000000E+00
  0.00000000E+00  0.00000000E+00  0.00000000E+00
  0.00000000E+00  0.00000000E+00  0.00000000E+00
  0.00000000E+00  0.00000000E+00  0.00000000E+00
  0.00000000E+00  0.00000000E+00  0.00000000E+00
  0.00000000E+00  0.00000000E+00  0.00000000E+00
  0.00000000E+00  0.00000000E+00  0.00000000E+00
  0.00000000E+00  0.00000000E+00  0.00000000E+00
  0.00000000E+00  0.00000000E+00  0.00000000E+00
  0.00000000E+00  0.00000000E+00  0.00000000E+00
  0.00000000E+00  0.00000000E+00  0.00000000E+00
  0.00000000E+00  0.00000000E+00  0.00000000E+00
  0.00000000E+00  0.00000000E+00  0.00000000E+00
  0.00000000E+00  0.00000000E+00  0.00000000E+00
  0.00000000E+00  0.00000000E+00  0.00000000E+00
  0.00000000E+00  0.00000000E+00  0.00000000E+00
  0.00000000E+00  0.00000000E+00  0.00000000E+00
  0.00000000E+00  0.00000000E+00  0.00000000E+00
  0.00000000E+00  0.00000000E+00  0.00000000E+00
  0.00000000E+00  0.00000000E+00  0.00000000E+00
  0.00000000E+00  0.00000000E+00  0.00000000E+00
  0.00000000E+00  0.00000000E+00  0.00000000E+00
  0.00000000E+00  0.00000000E+00  0.00000000E+00
  0.00000000E+00  0.00000000E+00  0.00000000E+00
  0.00000000E+00  0.00000000E+00  0.00000000E+00
  0.00000000E+00  0.00000000E+00  0.00000000E+00
  0.00000000E+00  0.00000000E+00  0.00000000E+00
  0.00000000E+00  0.00000000E+00  0.00000000E+00
  0.00000000E+00  0.00000000E+00  0.00000000E+00
  0.00000000E+00  0.00000000E+00  0.00000000E+00
  0.00000000E+00  0.00000000E+00  0.00000000E+00
  0.00000000E+00  0.00000000E+00  0.00000000E+00
  0.00000000E+00  0.00000000E+00  0.00000000E+00
  0.00000000E+00  0.00000000E+00  0.00000000E+00
  0.00000000E+00  0.00000000E+00  0.00000000E+00
  0.00000000E+00  0.00000000E+00  0.00000000E+00
  0.00000000E+00  0.00000000E+00  0.00000000E+00
  0.00000000E+00  0.00000000E+00  0.00000000E+00
  0.00000000E+00  0.00000000E+00  0.00000000E+00
  0.00000000E+00  0.00000000E+00  0.00000000E+00
  0.00000000E+00  0.00000000E+00  0.00000000E+00
  0.00000000E+00  0.00000000E+00  0.00000000E+00
  0.00000000E+00  0.00000000E+00  0.00000000E+00
  0.00000000E+00  0.00000000E+00  0.00000000E+00
