supercell of POSCAR                     
   1.01189200000000     
     3.1482772356600002   -5.4762754812200001    9.9674464565599994
    -9.4511209497999999   -5.4731922780100000    0.0032121685426600
     6.3112884282600001  -10.9581161277000003   -9.9749049577999997
   Al   Sc   N 
    83    12    96
Direct
  0.0902623991868339  0.5829604532191510  0.3331117342402763
  0.0034033863744440  0.3274404331788077  0.2526702212464542
  0.0885541363841327  0.0849807491205112  0.3314275982941055
  0.2493059702000195  0.5810455349643036  0.4965196767036346
  0.3327598686415527  0.3224814071993265  0.0803425269529541
  0.4151659285244591  0.0868847345205026  0.1693744591639330
  0.0068243719860064  0.8399387957104025  0.2526953179131155
  0.1671287614058841  0.3332051899505970  0.4132551250326415
  0.2474922060382241  0.0870394595013408  0.4954274473630846
  0.1644933850701094  0.8363605735573785  0.4144566851176990
  0.3379311828432279  0.6708372607357731  0.3376893776631107
  0.1618203768576763  0.6696813164554101  0.1658034777559791
  0.2525534948899661  0.4092299644960704  0.2506298169002505
  0.3329750590370324  0.1642397849382533  0.3336399474405169
  0.0024307953572844  0.6703356001472329  0.4964691540328445
  0.2524203923280552  0.9223334447067373  0.2543905742390891
  0.4146730490657831  0.4158560359705774  0.4156747076545173
  0.4992380573787827  0.1638031707203282  0.4988216500343441
  0.0812533791451600  0.9224278486613500  0.0800421721964142
  0.4169506570592105  0.9196535712797385  0.4138589073728767
  0.0880993432172730  0.5828855205860393  0.8334723398739001
  0.0004946715360390  0.3264784168940125  0.7536116953366303
  0.0836614307704764  0.0845011471176491  0.8339974835836585
  0.2500237463240538  0.5795903967364424  0.9971028790222860
  0.3303905365890785  0.3242486642319307  0.5799163318196037
  0.4164944598637348  0.0867262143265606  0.6690757393016611
  0.0047342082956376  0.8398137355364810  0.7527245922232453
  0.1673854696079786  0.3319985946857003  0.9145092806619601
  0.2471813763975916  0.0866439446874097  0.9976513675102581
  0.1626823805138073  0.8343800561186114  0.9160092006711693
  0.3357212309529274  0.6704375866046561  0.8372702934233800
  0.1598801631325060  0.6711216233689115  0.6658057912146518
  0.2514006699271647  0.4080013398842652  0.7505635003511912
  0.3332257238597194  0.1650377132935219  0.8330625523753525
  0.0036426584096176  0.6664837139313491  0.9959132663978636
  0.1662243818119293  0.1613444200553360  0.6676979546734003
  0.2516559232659148  0.9190472660802698  0.7537314715684786
  0.4145540013056248  0.4168842462790110  0.9154922381884347
  0.4873401574896192  0.1622385856355066  0.0042150035360748
  0.0806932466288757  0.9214254314087427  0.5807069568475853
  0.4174873893639415  0.9177253424062073  0.9139861181250382
  0.5890257024346610  0.5841023525520797  0.3343822297039765
  0.5009282799067165  0.3263192575785965  0.2541887120140345
  0.5845021127916254  0.0847614812008501  0.3345399207369226
  0.7491850331127381  0.5809099980039676  0.4971423049310104
  0.8307593920133414  0.3230301432954050  0.0807914280538427
  0.9211916549201504  0.0860798939708900  0.1675136407754607
  0.5059989845398007  0.8398640962301016  0.2534795549751934
  0.6673350986870972  0.3331208329610860  0.4145667151068864
  0.7476685703683543  0.0862856692903691  0.4972840523998059
  0.6633458317269216  0.8349541891909595  0.4162887530615436
  0.8372592751027739  0.6697394906420300  0.3364200898441680
  0.6637175714673731  0.6715804072245106  0.1666366645149040
  0.7519398769025898  0.4080314073073552  0.2513820029288851
  0.8354990051426938  0.1654002950388644  0.3332797766672115
  0.5019271454979233  0.6706021410141432  0.4975753699330809
  0.6679165213242086  0.1607113286636803  0.1696326942767499
  0.7529994203982682  0.9187243144421444  0.2546218173256634
  0.9143389610803396  0.4159134589187445  0.4158424742629308
  0.9979508162278847  0.1636112967500196  0.4973843514849108
  0.5835560059309088  0.9204114243389512  0.0826166236091126
  0.9180383363769806  0.9180027101104500  0.4136309862242697
  0.5878894131995125  0.5842899731734832  0.8344934208219428
  0.5006919766291986  0.3269595906739298  0.7536057905301732
  0.5824831763237484  0.0848310105226560  0.8363674007301611
  0.7505183231494570  0.5809968876054015  0.9978869379723960
  0.8295401081642666  0.3241996587158411  0.5809163246004942
  0.9162633059040246  0.0863629207203616  0.6691635209481888
  0.5050993947104701  0.8400185364067241  0.7531890995373161
  0.6643155431441841  0.3316756676430614  0.9161893933015861
  0.7459638052118009  0.0866515695600611  0.9982569337406701
  0.6643665236117826  0.8348413125105978  0.9167842135489863
  0.8360899853843051  0.6697555611644290  0.8372768702237892
  0.6598875642530189  0.6713475817699646  0.6667798736752175
  0.7504266220727516  0.4086297128315550  0.7516831058807725
  0.8310639869339198  0.1653382583624250  0.8330703971784530
  0.5027001379211953  0.6706526436898557  0.9979795390234614
  0.6658586251406504  0.1613896008237532  0.6689530434583801
  0.7511107835964097  0.9192610358235740  0.7542434049908309
  0.9129561363534862  0.4136997651680190  0.9159399100885466
  0.9946485676507564  0.1593752426217492  0.9972364011572310
  0.5805571558487230  0.9214603887246682  0.5815385440310337
  0.9173282832938767  0.9178309049901898  0.9140963159042101
  0.4056869306545963  0.5839599607633161  0.1739369678961609
  0.3277742112800865  0.8408255323069724  0.0846827671043826
  0.0816934270652467  0.4079768143570561  0.0853832611287615
  0.4035202286037531  0.5831335581283810  0.6736575995433327
  0.3273844377671224  0.8392917056089644  0.5832578573779301
  0.0782139223353724  0.4150343251330924  0.5840525400080949
  0.9101616848137013  0.5796157371724746  0.1720652788344452
  0.8347431612505574  0.8413178332717948  0.0841486621276957
  0.5799566466315795  0.4157617375799845  0.0867926583918219
  0.9042304218567097  0.5822010403922846  0.6733192093701419
  0.8274732092312007  0.8382954973519929  0.5839687870862988
  0.5778453991644454  0.4164404774486314  0.5853949533235152
  0.2226753340102690  0.5859576290659163  0.2684497855709935
  0.0430263306729657  0.5959261738960819  0.0992097498447109
  0.1261710277630712  0.3489436989904249  0.1985231291778575
  0.2193591464551758  0.0741417169672474  0.2846967794672892
  0.3805762265642940  0.5828605940524341  0.4379867444614263
  0.4554584013945657  0.3296517458228649  0.0116910357362983
  0.0215907831881523  0.0710371562246124  0.0914902088689686
  0.1325820979781227  0.8377528882434646  0.1849012650279036
  0.2970805811789177  0.3328233259639362  0.3532998317100891
  0.3800239542097188  0.0824137810126615  0.4385164282745322
  0.4682782644723389  0.8362284046134647  0.0138370542058794
  0.2955482293056590  0.8314237322911708  0.3561589918479555
  0.4709993369035175  0.6777581579270162  0.2810396696321789
  0.2787412548450803  0.6620528282841889  0.0965940619329970
  0.3805288577794599  0.3974565052783134  0.1853370215062995
  0.4629688521895119  0.1648707787699308  0.2734392543415609
  0.1306780255931628  0.6666526483523896  0.4343193375874606
  0.2202184048974232  0.4133085340120530  0.0125875667929662
  0.3175858203377757  0.1590693093051456  0.0893261325172574
  0.3848238222523648  0.9227626151287396  0.1970458699454198
  0.0432391830504670  0.4199723729047449  0.3553512238761982
  0.1253545800409057  0.1716530083722603  0.4364185742886662
  0.2000478304380806  0.9259580134973575  0.0109673944054762
  0.0451505032834305  0.9199018757479394  0.3532914337428394
  0.2185163185227239  0.5815666535309987  0.7658114355258263
  0.0394037006132990  0.5980822184429258  0.6015143283799276
  0.1302925668634529  0.3233123310154014  0.6946377797876480
  0.2106936093397209  0.0827022868914398  0.7699400827514253
  0.3803948015566192  0.5843596601684098  0.9361329646983449
  0.4515491682034565  0.3242520472301109  0.5136965346379938
  0.0407914090620807  0.0853075583561349  0.6032733052666117
  0.1311036563423897  0.8391706160873085  0.6850124543049887
  0.2957363030838991  0.3316718858198442  0.8514257753131957
  0.3756073833700952  0.0791287222314665  0.9309201685213111
  0.4674646395077247  0.8359823579777341  0.5142056824132055
  0.2928546817168467  0.8330421447190517  0.8536774840035548
  0.4688196404202642  0.6779834422833986  0.7796675334497962
  0.2762391248274483  0.6623270003695936  0.5972047566550884
  0.3775908200749569  0.3958968705143491  0.6848028329622267
  0.4613704617985093  0.1650253401803923  0.7713050408028792
  0.1322254835253531  0.6644030036425548  0.9324876195635525
  0.2172018031365468  0.4144227957833095  0.5145400628825527
  0.2910578136061517  0.1607502771873328  0.6022163628251107
  0.3829785465391637  0.9242538062310715  0.6959720787796115
  0.0437005871216840  0.4182037027161698  0.8516299372461305
  0.1253066970799352  0.1695158586603824  0.9334403690051829
  0.1986484814457512  0.9280484047116815  0.5123452288408359
  0.0461669345201443  0.9206397882176631  0.8517124413232438
  0.7184521723363417  0.5818429166097232  0.2679638544008185
  0.5421853263423841  0.5997864291404795  0.1023126818318616
  0.6309797769235033  0.3224349613128723  0.1971309676262507
  0.7124391732652384  0.0822247972034091  0.2731539767651938
  0.8788744879726309  0.5835219811049157  0.4373430676696088
  0.9484152932211813  0.3212841253267840  0.0114712621272446
  0.5467768818422982  0.0820603364496293  0.1060919749796057
  0.6327601951185784  0.8381561554895924  0.1869523453631459
  0.7953451831823699  0.3316309649478910  0.3534810573189091
  0.8761585427806793  0.0810284707453164  0.4360123749260083
  0.9693975254100806  0.8297091180685925  0.0099969455272912
  0.7930638254977467  0.8324220964566607  0.3559531805363889
  0.9700089748939149  0.6764877392816331  0.2795886649780286
  0.7805872656347290  0.6630123899614802  0.0979753030185435
  0.8743885947960095  0.3951627523915704  0.1857643432923766
  0.9620475464312719  0.1651577374844919  0.2723428959150880
  0.6304131673179896  0.6662353934002212  0.4353331249348500
  0.7170202591050270  0.4149266809831715  0.0144573502992529
  0.7895205476762257  0.1615778377924784  0.1031141442259340
  0.8829034860231033  0.9233063274320301  0.1988459374133456
  0.5449752175417828  0.4192139795822811  0.3534618892884609
  0.6271840642392377  0.1703005547501135  0.4361454223609584
  0.7014845401095897  0.9253033358947320  0.0131691611464220
  0.5468861963152634  0.9209362154729774  0.3537454971370266
  0.7178990442832145  0.5822030770015729  0.7666734152390760
  0.5392259447190781  0.5992463320270716  0.6025233075336374
  0.6305188475854138  0.3235206892851892  0.6949261051092535
  0.7092623194116356  0.0824784944100472  0.7708942719645293
  0.8791463982556067  0.5812265420603424  0.9354627113904428
  0.9491225900474873  0.3235201255519016  0.5138957443075682
  0.5419681955889359  0.0855670743529018  0.6040528470862085
  0.6312111619132352  0.8393003150802372  0.6854731201436053
  0.7929504058176704  0.3311265853820800  0.8521966349042742
  0.8716396841055243  0.0802332722588304  0.9313710449914154
  0.9667392433026407  0.8355121813332786  0.5142503944629127
  0.7928956633338160  0.8325663585272522  0.8537597084055477
  0.9688845649543794  0.6774571161359688  0.7792483071512848
  0.7760718148726724  0.6615084999096794  0.5979035527146976
  0.8766627510250729  0.3956805508824885  0.6857487970757532
  0.9603597988849515  0.1647207601409804  0.7714612831878611
  0.6312384179740675  0.6660193132153012  0.9344533524283065
  0.7162683611382263  0.4144145948352573  0.5150330745951308
  0.7906227382232132  0.1605030228945594  0.6028754493144390
  0.8822711680047490  0.9242269496216835  0.6961263408206122
  0.5439420005784328  0.4195239763921137  0.8511332923160495
  0.6226646384977030  0.1691223794360610  0.9368614308568652
  0.6988085525890071  0.9275086455839840  0.5131862950041395
  0.5470077386919030  0.9196054575417421  0.8527770820173117
 
  0.00000000E+00  0.00000000E+00  0.00000000E+00
  0.00000000E+00  0.00000000E+00  0.00000000E+00
  0.00000000E+00  0.00000000E+00  0.00000000E+00
  0.00000000E+00  0.00000000E+00  0.00000000E+00
  0.00000000E+00  0.00000000E+00  0.00000000E+00
  0.00000000E+00  0.00000000E+00  0.00000000E+00
  0.00000000E+00  0.00000000E+00  0.00000000E+00
  0.00000000E+00  0.00000000E+00  0.00000000E+00
  0.00000000E+00  0.00000000E+00  0.00000000E+00
  0.00000000E+00  0.00000000E+00  0.00000000E+00
  0.00000000E+00  0.00000000E+00  0.00000000E+00
  0.00000000E+00  0.00000000E+00  0.00000000E+00
  0.00000000E+00  0.00000000E+00  0.00000000E+00
  0.00000000E+00  0.00000000E+00  0.00000000E+00
  0.00000000E+00  0.00000000E+00  0.00000000E+00
  0.00000000E+00  0.00000000E+00  0.00000000E+00
  0.00000000E+00  0.00000000E+00  0.00000000E+00
  0.00000000E+00  0.00000000E+00  0.00000000E+00
  0.00000000E+00  0.00000000E+00  0.00000000E+00
  0.00000000E+00  0.00000000E+00  0.00000000E+00
  0.00000000E+00  0.00000000E+00  0.00000000E+00
  0.00000000E+00  0.00000000E+00  0.00000000E+00
  0.00000000E+00  0.00000000E+00  0.00000000E+00
  0.00000000E+00  0.00000000E+00  0.00000000E+00
  0.00000000E+00  0.00000000E+00  0.00000000E+00
  0.00000000E+00  0.00000000E+00  0.00000000E+00
  0.00000000E+00  0.00000000E+00  0.00000000E+00
  0.00000000E+00  0.00000000E+00  0.00000000E+00
  0.00000000E+00  0.00000000E+00  0.00000000E+00
  0.00000000E+00  0.00000000E+00  0.00000000E+00
  0.00000000E+00  0.00000000E+00  0.00000000E+00
  0.00000000E+00  0.00000000E+00  0.00000000E+00
  0.00000000E+00  0.00000000E+00  0.00000000E+00
  0.00000000E+00  0.00000000E+00  0.00000000E+00
  0.00000000E+00  0.00000000E+00  0.00000000E+00
  0.00000000E+00  0.00000000E+00  0.00000000E+00
  0.00000000E+00  0.00000000E+00  0.00000000E+00
  0.00000000E+00  0.00000000E+00  0.00000000E+00
  0.00000000E+00  0.00000000E+00  0.00000000E+00
  0.00000000E+00  0.00000000E+00  0.00000000E+00
  0.00000000E+00  0.00000000E+00  0.00000000E+00
  0.00000000E+00  0.00000000E+00  0.00000000E+00
  0.00000000E+00  0.00000000E+00  0.00000000E+00
  0.00000000E+00  0.00000000E+00  0.00000000E+00
  0.00000000E+00  0.00000000E+00  0.00000000E+00
  0.00000000E+00  0.00000000E+00  0.00000000E+00
  0.00000000E+00  0.00000000E+00  0.00000000E+00
  0.00000000E+00  0.00000000E+00  0.00000000E+00
  0.00000000E+00  0.00000000E+00  0.00000000E+00
  0.00000000E+00  0.00000000E+00  0.00000000E+00
  0.00000000E+00  0.00000000E+00  0.00000000E+00
  0.00000000E+00  0.00000000E+00  0.00000000E+00
  0.00000000E+00  0.00000000E+00  0.00000000E+00
  0.00000000E+00  0.00000000E+00  0.00000000E+00
  0.00000000E+00  0.00000000E+00  0.00000000E+00
  0.00000000E+00  0.00000000E+00  0.00000000E+00
  0.00000000E+00  0.00000000E+00  0.00000000E+00
  0.00000000E+00  0.00000000E+00  0.00000000E+00
  0.00000000E+00  0.00000000E+00  0.00000000E+00
  0.00000000E+00  0.00000000E+00  0.00000000E+00
  0.00000000E+00  0.00000000E+00  0.00000000E+00
  0.00000000E+00  0.00000000E+00  0.00000000E+00
  0.00000000E+00  0.00000000E+00  0.00000000E+00
  0.00000000E+00  0.00000000E+00  0.00000000E+00
  0.00000000E+00  0.00000000E+00  0.00000000E+00
  0.00000000E+00  0.00000000E+00  0.00000000E+00
  0.00000000E+00  0.00000000E+00  0.00000000E+00
  0.00000000E+00  0.00000000E+00  0.00000000E+00
  0.00000000E+00  0.00000000E+00  0.00000000E+00
  0.00000000E+00  0.00000000E+00  0.00000000E+00
  0.00000000E+00  0.00000000E+00  0.00000000E+00
  0.00000000E+00  0.00000000E+00  0.00000000E+00
  0.00000000E+00  0.00000000E+00  0.00000000E+00
  0.00000000E+00  0.00000000E+00  0.00000000E+00
  0.00000000E+00  0.00000000E+00  0.00000000E+00
  0.00000000E+00  0.00000000E+00  0.00000000E+00
  0.00000000E+00  0.00000000E+00  0.00000000E+00
  0.00000000E+00  0.00000000E+00  0.00000000E+00
  0.00000000E+00  0.00000000E+00  0.00000000E+00
  0.00000000E+00  0.00000000E+00  0.00000000E+00
  0.00000000E+00  0.00000000E+00  0.00000000E+00
  0.00000000E+00  0.00000000E+00  0.00000000E+00
  0.00000000E+00  0.00000000E+00  0.00000000E+00
  0.00000000E+00  0.00000000E+00  0.00000000E+00
  0.00000000E+00  0.00000000E+00  0.00000000E+00
  0.00000000E+00  0.00000000E+00  0.00000000E+00
  0.00000000E+00  0.00000000E+00  0.00000000E+00
  0.00000000E+00  0.00000000E+00  0.00000000E+00
  0.00000000E+00  0.00000000E+00  0.00000000E+00
  0.00000000E+00  0.00000000E+00  0.00000000E+00
  0.00000000E+00  0.00000000E+00  0.00000000E+00
  0.00000000E+00  0.00000000E+00  0.00000000E+00
  0.00000000E+00  0.00000000E+00  0.00000000E+00
  0.00000000E+00  0.00000000E+00  0.00000000E+00
  0.00000000E+00  0.00000000E+00  0.00000000E+00
  0.00000000E+00  0.00000000E+00  0.00000000E+00
  0.00000000E+00  0.00000000E+00  0.00000000E+00
  0.00000000E+00  0.00000000E+00  0.00000000E+00
  0.00000000E+00  0.00000000E+00  0.00000000E+00
  0.00000000E+00  0.00000000E+00  0.00000000E+00
  0.00000000E+00  0.00000000E+00  0.00000000E+00
  0.00000000E+00  0.00000000E+00  0.00000000E+00
  0.00000000E+00  0.00000000E+00  0.00000000E+00
  0.00000000E+00  0.00000000E+00  0.00000000E+00
  0.00000000E+00  0.00000000E+00  0.00000000E+00
  0.00000000E+00  0.00000000E+00  0.00000000E+00
  0.00000000E+00  0.00000000E+00  0.00000000E+00
  0.00000000E+00  0.00000000E+00  0.00000000E+00
  0.00000000E+00  0.00000000E+00  0.00000000E+00
  0.00000000E+00  0.00000000E+00  0.00000000E+00
  0.00000000E+00  0.00000000E+00  0.00000000E+00
  0.00000000E+00  0.00000000E+00  0.00000000E+00
  0.00000000E+00  0.00000000E+00  0.00000000E+00
  0.00000000E+00  0.00000000E+00  0.00000000E+00
  0.00000000E+00  0.00000000E+00  0.00000000E+00
  0.00000000E+00  0.00000000E+00  0.00000000E+00
  0.00000000E+00  0.00000000E+00  0.00000000E+00
  0.00000000E+00  0.00000000E+00  0.00000000E+00
  0.00000000E+00  0.00000000E+00  0.00000000E+00
  0.00000000E+00  0.00000000E+00  0.00000000E+00
  0.00000000E+00  0.00000000E+00  0.00000000E+00
  0.00000000E+00  0.00000000E+00  0.00000000E+00
  0.00000000E+00  0.00000000E+00  0.00000000E+00
  0.00000000E+00  0.00000000E+00  0.00000000E+00
  0.00000000E+00  0.00000000E+00  0.00000000E+00
  0.00000000E+00  0.00000000E+00  0.00000000E+00
  0.00000000E+00  0.00000000E+00  0.00000000E+00
  0.00000000E+00  0.00000000E+00  0.00000000E+00
  0.00000000E+00  0.00000000E+00  0.00000000E+00
  0.00000000E+00  0.00000000E+00  0.00000000E+00
  0.00000000E+00  0.00000000E+00  0.00000000E+00
  0.00000000E+00  0.00000000E+00  0.00000000E+00
  0.00000000E+00  0.00000000E+00  0.00000000E+00
  0.00000000E+00  0.00000000E+00  0.00000000E+00
  0.00000000E+00  0.00000000E+00  0.00000000E+00
  0.00000000E+00  0.00000000E+00  0.00000000E+00
  0.00000000E+00  0.00000000E+00  0.00000000E+00
  0.00000000E+00  0.00000000E+00  0.00000000E+00
  0.00000000E+00  0.00000000E+00  0.00000000E+00
  0.00000000E+00  0.00000000E+00  0.00000000E+00
  0.00000000E+00  0.00000000E+00  0.00000000E+00
  0.00000000E+00  0.00000000E+00  0.00000000E+00
  0.00000000E+00  0.00000000E+00  0.00000000E+00
  0.00000000E+00  0.00000000E+00  0.00000000E+00
  0.00000000E+00  0.00000000E+00  0.00000000E+00
  0.00000000E+00  0.00000000E+00  0.00000000E+00
  0.00000000E+00  0.00000000E+00  0.00000000E+00
  0.00000000E+00  0.00000000E+00  0.00000000E+00
  0.00000000E+00  0.00000000E+00  0.00000000E+00
  0.00000000E+00  0.00000000E+00  0.00000000E+00
  0.00000000E+00  0.00000000E+00  0.00000000E+00
  0.00000000E+00  0.00000000E+00  0.00000000E+00
  0.00000000E+00  0.00000000E+00  0.00000000E+00
  0.00000000E+00  0.00000000E+00  0.00000000E+00
  0.00000000E+00  0.00000000E+00  0.00000000E+00
  0.00000000E+00  0.00000000E+00  0.00000000E+00
  0.00000000E+00  0.00000000E+00  0.00000000E+00
  0.00000000E+00  0.00000000E+00  0.00000000E+00
  0.00000000E+00  0.00000000E+00  0.00000000E+00
  0.00000000E+00  0.00000000E+00  0.00000000E+00
  0.00000000E+00  0.00000000E+00  0.00000000E+00
  0.00000000E+00  0.00000000E+00  0.00000000E+00
  0.00000000E+00  0.00000000E+00  0.00000000E+00
  0.00000000E+00  0.00000000E+00  0.00000000E+00
  0.00000000E+00  0.00000000E+00  0.00000000E+00
  0.00000000E+00  0.00000000E+00  0.00000000E+00
  0.00000000E+00  0.00000000E+00  0.00000000E+00
  0.00000000E+00  0.00000000E+00  0.00000000E+00
  0.00000000E+00  0.00000000E+00  0.00000000E+00
  0.00000000E+00  0.00000000E+00  0.00000000E+00
  0.00000000E+00  0.00000000E+00  0.00000000E+00
  0.00000000E+00  0.00000000E+00  0.00000000E+00
  0.00000000E+00  0.00000000E+00  0.00000000E+00
  0.00000000E+00  0.00000000E+00  0.00000000E+00
  0.00000000E+00  0.00000000E+00  0.00000000E+00
  0.00000000E+00  0.00000000E+00  0.00000000E+00
  0.00000000E+00  0.00000000E+00  0.00000000E+00
  0.00000000E+00  0.00000000E+00  0.00000000E+00
  0.00000000E+00  0.00000000E+00  0.00000000E+00
  0.00000000E+00  0.00000000E+00  0.00000000E+00
  0.00000000E+00  0.00000000E+00  0.00000000E+00
  0.00000000E+00  0.00000000E+00  0.00000000E+00
  0.00000000E+00  0.00000000E+00  0.00000000E+00
  0.00000000E+00  0.00000000E+00  0.00000000E+00
  0.00000000E+00  0.00000000E+00  0.00000000E+00
  0.00000000E+00  0.00000000E+00  0.00000000E+00
  0.00000000E+00  0.00000000E+00  0.00000000E+00
  0.00000000E+00  0.00000000E+00  0.00000000E+00
  0.00000000E+00  0.00000000E+00  0.00000000E+00
  0.00000000E+00  0.00000000E+00  0.00000000E+00
  0.00000000E+00  0.00000000E+00  0.00000000E+00
