supercell of POSCAR                     
   1.01189200000000     
     3.1482772356600002   -5.4762754812200001    9.9674464565599994
    -9.4511209497999999   -5.4731922780100000    0.0032121685426600
     6.3112884282600001  -10.9581161277000003   -9.9749049577999997
   Al   Sc   N 
    83    12    96
Direct
  0.0985345778002795  0.5834416956677586  0.3297204901776212
  0.0040205803663724  0.3247594286210642  0.2539823135514041
  0.0879091302991952  0.0815598359244305  0.3335583263455817
  0.2570972509508067  0.5796728608797395  0.4943146332260611
  0.3292355316237376  0.3261298088709381  0.0809324082260119
  0.4177145150230146  0.0867824904592638  0.1691808066010907
  0.0088089606389872  0.8392058714704476  0.2532869308323171
  0.1694775293091908  0.3319355572320859  0.4138176767201003
  0.2500985540981944  0.0838186158550016  0.4964682800813733
  0.1714808301543727  0.8330680725153030  0.4130526106810208
  0.1550157567330430  0.6688459938250375  0.1644217308767040
  0.2501622148340417  0.4040429682208213  0.2496195231260145
  0.3352440957143443  0.1629345414868624  0.3340557324088778
  0.0082241199976920  0.6692400057853760  0.4962547883611563
  0.1673595659462279  0.1583678089382943  0.1672589956363950
  0.2560308684738430  0.9163957349991705  0.2552942566282965
  0.4170137604299455  0.4149284209661772  0.4162599552278792
  0.5005745483075827  0.1602422395791052  0.4982302179953351
  0.0778994113161957  0.9196763230836993  0.0814921105406654
  0.4178407810139930  0.9147583567660433  0.4119599445219109
  0.0863678219525781  0.5853539350998744  0.8347645735506717
  0.0003344974692965  0.3276020176877452  0.7538456367181610
  0.0831094374162262  0.0847120392271421  0.8346187162639822
  0.2476899405095949  0.5817803206592842  0.9981507673419117
  0.3314833042478753  0.3232982583694906  0.5788446100982654
  0.4169325582379315  0.0858332781740643  0.6687099361092166
  0.0038525329648351  0.8405077226356568  0.7539521365535791
  0.1649515436230757  0.3348766325521169  0.9155059772676921
  0.2463243349975954  0.0862374300963822  0.9972127825712036
  0.1616292724439177  0.8354162856500125  0.9163047939610820
  0.3340555029633521  0.6708172954469305  0.8364880020436019
  0.1605111164206576  0.6720087314261747  0.6663713110758493
  0.2506950321374717  0.4098673841337188  0.7505961428822161
  0.3320913739543983  0.1667775647521452  0.8336415577596910
  0.9968393524303494  0.6720824585802063  0.9972532898610638
  0.1670097347248074  0.1617803062079304  0.6682002529754811
  0.2512086623096650  0.9190360960393136  0.7531487338087715
  0.4121503220614571  0.4174706133607273  0.9152946848414203
  0.4965215443503652  0.1654501991334811  0.9977081912281989
  0.0825879746486535  0.9203564645465363  0.5813499946359713
  0.4159550657222795  0.9185894132553258  0.9138704950237582
  0.5975293039547580  0.5819511623079450  0.3350984292920742
  0.5031539166797785  0.3266300329823295  0.2543865409592385
  0.5867294156575937  0.0837646615153602  0.3346647458940453
  0.7528536048119463  0.5806908145045853  0.4981929163556771
  0.8292662115875515  0.3249231327000430  0.0805100406477166
  0.9181760452536096  0.0857988998879833  0.1693265698205977
  0.5120511899053568  0.8432940217198777  0.2516511667041570
  0.6697319851004693  0.3320152062149049  0.4146286406930244
  0.7497829709701733  0.0849337231416030  0.4975489797668402
  0.6653845264725575  0.8334293070954644  0.4156190610192212
  0.8426190952113970  0.6689501115936523  0.3386229868140020
  0.6407923162779809  0.6708912709552450  0.1766776677883115
  0.7563137356866960  0.4056103608868895  0.2521499608555970
  0.8366817974093905  0.1641448597684700  0.3347352601919837
  0.5040568998752875  0.6678875177600361  0.4968940153738330
  0.6678564489281626  0.1619357599562292  0.1688827851737358
  0.7557435330282303  0.9201492622167535  0.2540365112661576
  0.9181397723451994  0.4155925324602379  0.4153596816079670
  0.0005288456015506  0.1625841091718812  0.4977598153701948
  0.5801189774896898  0.9240920228580123  0.0800638104887099
  0.9208740255800905  0.9164145274446867  0.4141390127316384
  0.5857946493019597  0.5852316343205004  0.8342193546228032
  0.5000385815954189  0.3280662107161518  0.7524405732008290
  0.5830369106266033  0.0852302879353601  0.8340522593201172
  0.7443245483906082  0.5815862659338720  0.9999861076480485
  0.8311094559612329  0.3245414465532264  0.5804178868221044
  0.9170901815296304  0.0869034673114513  0.6694227201682708
  0.5041879612606337  0.8398904424260181  0.7523524903747614
  0.6647474826053283  0.3346612329925875  0.9151201463807439
  0.7465332191526599  0.0870009146596047  0.9971622563649376
  0.6609911632559360  0.8354475055342263  0.9157277200764184
  0.8336036851964224  0.6709872811818727  0.8380358850639027
  0.6631515287549163  0.6724244223712503  0.6683441479699752
  0.7497160421959848  0.4097948516026619  0.7507602301533112
  0.8322802598123289  0.1673783225430938  0.8340724269763200
  0.4984969469326757  0.6698832570605404  0.9986442581399047
  0.6664280824303859  0.1628827164666617  0.6680301559842050
  0.7514952632375227  0.9205402660611455  0.7540054306099080
  0.9118185267049199  0.4177469500173814  0.9163939130909071
  0.9972602493395542  0.1649449981295774  0.9983488870087740
  0.5829344635080389  0.9196288314881826  0.5811956190298133
  0.9146960046303789  0.9191251059135723  0.9155922933349530
  0.3932299393155461  0.5880379484669120  0.1869413030378269
  0.3259377370101575  0.8384051135836827  0.0847394194151931
  0.0754820657957325  0.4196192079447769  0.0894212718382121
  0.4054235016792376  0.5838362636780090  0.6711738114368089
  0.3303424750006201  0.8370132172026103  0.5816268621779273
  0.0802220606531350  0.4161870282911622  0.5843006550343972
  0.8963217837630353  0.5840936101158647  0.1764618663945114
  0.8188472009836119  0.8355200534720097  0.0877781234477695
  0.5726253150142142  0.4181874822856813  0.0879899937576241
  0.9065733057539518  0.5822983087387783  0.6742272521137949
  0.8306162842689417  0.8375409727557326  0.5840985205961502
  0.5753246212355094  0.4192299397176669  0.5820117125608277
  0.2064719392656258  0.5662981718466611  0.2518524880263229
  0.0301559403205118  0.6018639648007991  0.1001436136462388
  0.1309740297453956  0.3162559495347210  0.1938155821401111
  0.2135010174944156  0.0826604119926344  0.2692416199878807
  0.3933282763423520  0.5675916187213588  0.4525249028219847
  0.4482457537984530  0.3249481006108397  0.0116739864356745
  0.0411537368253931  0.0849546560211820  0.1020020334110825
  0.1327540456859708  0.8397090921003567  0.1842216657680567
  0.2975838027865905  0.3291293917786930  0.3520282919114308
  0.3800795624853635  0.0809901013965089  0.4362606874479624
  0.4654867400050833  0.8375154890137182  0.0131134774192034
  0.2939685722332754  0.8484288122096970  0.3553695572004330
  0.5181271574068873  0.6783289762371680  0.2595368875488688
  0.2743195337085353  0.6633657199883842  0.0968111049997518
  0.3807590483658529  0.3944417246665992  0.1854030356750016
  0.4641486318169115  0.1636994037458379  0.2724097392104028
  0.1349882524088173  0.6638339027776610  0.4332850049338219
  0.2134675744960717  0.4150515630635283  0.0155058090725859
  0.2922274868712975  0.1603129090166249  0.1013761287691111
  0.3869691207286721  0.9242437729366628  0.1951072868555599
  0.0466189994890343  0.4171630808698481  0.3523497352354710
  0.1285584969188420  0.1679771126816334  0.4348432343619422
  0.1967394708476888  0.9278147995899815  0.0121349194847085
  0.0479003316589939  0.9196775096520042  0.3534412932395341
  0.2157813845883041  0.5825860312656772  0.7673493199066854
  0.0404043384587709  0.5986441330761565  0.6025678646516539
  0.1301226973326735  0.3234505002644994  0.6954974820903459
  0.2105584390171487  0.0828755995223744  0.7714142961706756
  0.3759344915431626  0.5839996923439159  0.9354230126072594
  0.4527834247847196  0.3170937307892245  0.5135764769803401
  0.0420188617750057  0.0850903572574211  0.6038545088730700
  0.1296164637012041  0.8395353199285012  0.6868427615334909
  0.2931093701680538  0.3327622211332582  0.8522433929517064
  0.3752121501485917  0.0822213197665960  0.9346196679508907
  0.4711636839428692  0.8352299745923162  0.5136345296556897
  0.2912691316916067  0.8343551504169895  0.8543029002914153
  0.4666269236065901  0.6784843431898082  0.7794879763702482
  0.2752398064111645  0.6625202371466585  0.5977555463458799
  0.3764465788355338  0.3965181057938949  0.6846426481082304
  0.4604371525956381  0.1656812382441544  0.7717940871078142
  0.1274449867928809  0.6673199320023357  0.9347493908458873
  0.2164709260461422  0.4114027004173337  0.5143098408007418
  0.2915524108389604  0.1598620350744824  0.6026835541251856
  0.3820780120013936  0.9239714462650355  0.6955053719697020
  0.0419364963488391  0.4201124037080035  0.8525546868072951
  0.1254956609928257  0.1708251568521675  0.9348629797194405
  0.1997909684041943  0.9262613144738410  0.5136752028346194
  0.0439790504995798  0.9216737976809810  0.8537061682364708
  0.7327083636675340  0.5755300553743368  0.2697240826018898
  0.5294297380577149  0.5963564245459452  0.1004920263359139
  0.6339139544299783  0.3231960642727145  0.1963479929183904
  0.7145343519048097  0.0837258831694427  0.2719537113020891
  0.8836646946888749  0.5821378050408228  0.4390356641066404
  0.9503032200214818  0.3255266371870960  0.0130045243536330
  0.5418863387514108  0.0889874299619535  0.1023394141715954
  0.6387125073290179  0.8496481531758775  0.1813549944103698
  0.7991726890728827  0.3291148237511408  0.3538755191356771
  0.8788407727288217  0.0797918047545068  0.4363043682215206
  0.9610568715443080  0.8370378556002507  0.0147748185820262
  0.7958115328230591  0.8326897528466688  0.3548203496739504
  0.9733133147058979  0.6782635934341315  0.2805847628525413
  0.7651167515953858  0.6598980827372216  0.1011744084106567
  0.8813128968875645  0.3931969198184788  0.1847440292641735
  0.9635753012406738  0.1627093928471908  0.2727356830310512
  0.6352422159785718  0.6654534940848151  0.4357921617567158
  0.7132947100751181  0.4135496736370570  0.0153458349795343
  0.7919667026288906  0.1600498677227833  0.1022240273874644
  0.8865888130109170  0.9241689364641772  0.1966164615132797
  0.5482480871961357  0.4170201636048887  0.3526316243094101
  0.6295953347945868  0.1685573599610422  0.4357147235371954
  0.6975239614794759  0.9289581867840866  0.0104143775253220
  0.5500703253714363  0.9210128772139896  0.3530538900550582
  0.7174901164183680  0.5826896097754997  0.7684307192457140
  0.5445032291330563  0.6021304634223839  0.6056911448437035
  0.6295532638842829  0.3251388164596136  0.6935584084230797
  0.7108503775606181  0.0844742899273854  0.7714057910867638
  0.8746527722284441  0.5841279709200862  0.9372781278623918
  0.9521498318151060  0.3227016602830872  0.5135988389973392
  0.5433528653099913  0.0834278420263246  0.6043219160460040
  0.6322818123384835  0.8402557978164680  0.6866606212499278
  0.7932321799731952  0.3330473757937966  0.8524977308293842
  0.8753234537917933  0.0835892215383254  0.9350095396005855
  0.9691977953385873  0.8342568969500803  0.5142595056281394
  0.7912882794584846  0.8348441236650714  0.8545210650102888
  0.9667810101311574  0.6789431090830789  0.7809797215605272
  0.7792128339402211  0.6616168361446100  0.5993108217391097
  0.8765649108224522  0.3956696081070561  0.6859134808736158
  0.9606993682712570  0.1655661443717307  0.7725600943653603
  0.6273298040557833  0.6672010780215700  0.9342375670933976
  0.7179590629866297  0.4140309125513966  0.5148000179884917
  0.7919702713008334  0.1608532192801491  0.6028177451339261
  0.8826083450234208  0.9254109233935921  0.6967120202148536
  0.5422343349092458  0.4196171452551383  0.8516812306909785
  0.6250771358717202  0.1708095013488489  0.9345538523070616
  0.7018702888089621  0.9262116795040356  0.5131525036601730
  0.5443536403371425  0.9216674330823551  0.8519385165903515
 
  0.00000000E+00  0.00000000E+00  0.00000000E+00
  0.00000000E+00  0.00000000E+00  0.00000000E+00
  0.00000000E+00  0.00000000E+00  0.00000000E+00
  0.00000000E+00  0.00000000E+00  0.00000000E+00
  0.00000000E+00  0.00000000E+00  0.00000000E+00
  0.00000000E+00  0.00000000E+00  0.00000000E+00
  0.00000000E+00  0.00000000E+00  0.00000000E+00
  0.00000000E+00  0.00000000E+00  0.00000000E+00
  0.00000000E+00  0.00000000E+00  0.00000000E+00
  0.00000000E+00  0.00000000E+00  0.00000000E+00
  0.00000000E+00  0.00000000E+00  0.00000000E+00
  0.00000000E+00  0.00000000E+00  0.00000000E+00
  0.00000000E+00  0.00000000E+00  0.00000000E+00
  0.00000000E+00  0.00000000E+00  0.00000000E+00
  0.00000000E+00  0.00000000E+00  0.00000000E+00
  0.00000000E+00  0.00000000E+00  0.00000000E+00
  0.00000000E+00  0.00000000E+00  0.00000000E+00
  0.00000000E+00  0.00000000E+00  0.00000000E+00
  0.00000000E+00  0.00000000E+00  0.00000000E+00
  0.00000000E+00  0.00000000E+00  0.00000000E+00
  0.00000000E+00  0.00000000E+00  0.00000000E+00
  0.00000000E+00  0.00000000E+00  0.00000000E+00
  0.00000000E+00  0.00000000E+00  0.00000000E+00
  0.00000000E+00  0.00000000E+00  0.00000000E+00
  0.00000000E+00  0.00000000E+00  0.00000000E+00
  0.00000000E+00  0.00000000E+00  0.00000000E+00
  0.00000000E+00  0.00000000E+00  0.00000000E+00
  0.00000000E+00  0.00000000E+00  0.00000000E+00
  0.00000000E+00  0.00000000E+00  0.00000000E+00
  0.00000000E+00  0.00000000E+00  0.00000000E+00
  0.00000000E+00  0.00000000E+00  0.00000000E+00
  0.00000000E+00  0.00000000E+00  0.00000000E+00
  0.00000000E+00  0.00000000E+00  0.00000000E+00
  0.00000000E+00  0.00000000E+00  0.00000000E+00
  0.00000000E+00  0.00000000E+00  0.00000000E+00
  0.00000000E+00  0.00000000E+00  0.00000000E+00
  0.00000000E+00  0.00000000E+00  0.00000000E+00
  0.00000000E+00  0.00000000E+00  0.00000000E+00
  0.00000000E+00  0.00000000E+00  0.00000000E+00
  0.00000000E+00  0.00000000E+00  0.00000000E+00
  0.00000000E+00  0.00000000E+00  0.00000000E+00
  0.00000000E+00  0.00000000E+00  0.00000000E+00
  0.00000000E+00  0.00000000E+00  0.00000000E+00
  0.00000000E+00  0.00000000E+00  0.00000000E+00
  0.00000000E+00  0.00000000E+00  0.00000000E+00
  0.00000000E+00  0.00000000E+00  0.00000000E+00
  0.00000000E+00  0.00000000E+00  0.00000000E+00
  0.00000000E+00  0.00000000E+00  0.00000000E+00
  0.00000000E+00  0.00000000E+00  0.00000000E+00
  0.00000000E+00  0.00000000E+00  0.00000000E+00
  0.00000000E+00  0.00000000E+00  0.00000000E+00
  0.00000000E+00  0.00000000E+00  0.00000000E+00
  0.00000000E+00  0.00000000E+00  0.00000000E+00
  0.00000000E+00  0.00000000E+00  0.00000000E+00
  0.00000000E+00  0.00000000E+00  0.00000000E+00
  0.00000000E+00  0.00000000E+00  0.00000000E+00
  0.00000000E+00  0.00000000E+00  0.00000000E+00
  0.00000000E+00  0.00000000E+00  0.00000000E+00
  0.00000000E+00  0.00000000E+00  0.00000000E+00
  0.00000000E+00  0.00000000E+00  0.00000000E+00
  0.00000000E+00  0.00000000E+00  0.00000000E+00
  0.00000000E+00  0.00000000E+00  0.00000000E+00
  0.00000000E+00  0.00000000E+00  0.00000000E+00
  0.00000000E+00  0.00000000E+00  0.00000000E+00
  0.00000000E+00  0.00000000E+00  0.00000000E+00
  0.00000000E+00  0.00000000E+00  0.00000000E+00
  0.00000000E+00  0.00000000E+00  0.00000000E+00
  0.00000000E+00  0.00000000E+00  0.00000000E+00
  0.00000000E+00  0.00000000E+00  0.00000000E+00
  0.00000000E+00  0.00000000E+00  0.00000000E+00
  0.00000000E+00  0.00000000E+00  0.00000000E+00
  0.00000000E+00  0.00000000E+00  0.00000000E+00
  0.00000000E+00  0.00000000E+00  0.00000000E+00
  0.00000000E+00  0.00000000E+00  0.00000000E+00
  0.00000000E+00  0.00000000E+00  0.00000000E+00
  0.00000000E+00  0.00000000E+00  0.00000000E+00
  0.00000000E+00  0.00000000E+00  0.00000000E+00
  0.00000000E+00  0.00000000E+00  0.00000000E+00
  0.00000000E+00  0.00000000E+00  0.00000000E+00
  0.00000000E+00  0.00000000E+00  0.00000000E+00
  0.00000000E+00  0.00000000E+00  0.00000000E+00
  0.00000000E+00  0.00000000E+00  0.00000000E+00
  0.00000000E+00  0.00000000E+00  0.00000000E+00
  0.00000000E+00  0.00000000E+00  0.00000000E+00
  0.00000000E+00  0.00000000E+00  0.00000000E+00
  0.00000000E+00  0.00000000E+00  0.00000000E+00
  0.00000000E+00  0.00000000E+00  0.00000000E+00
  0.00000000E+00  0.00000000E+00  0.00000000E+00
  0.00000000E+00  0.00000000E+00  0.00000000E+00
  0.00000000E+00  0.00000000E+00  0.00000000E+00
  0.00000000E+00  0.00000000E+00  0.00000000E+00
  0.00000000E+00  0.00000000E+00  0.00000000E+00
  0.00000000E+00  0.00000000E+00  0.00000000E+00
  0.00000000E+00  0.00000000E+00  0.00000000E+00
  0.00000000E+00  0.00000000E+00  0.00000000E+00
  0.00000000E+00  0.00000000E+00  0.00000000E+00
  0.00000000E+00  0.00000000E+00  0.00000000E+00
  0.00000000E+00  0.00000000E+00  0.00000000E+00
  0.00000000E+00  0.00000000E+00  0.00000000E+00
  0.00000000E+00  0.00000000E+00  0.00000000E+00
  0.00000000E+00  0.00000000E+00  0.00000000E+00
  0.00000000E+00  0.00000000E+00  0.00000000E+00
  0.00000000E+00  0.00000000E+00  0.00000000E+00
  0.00000000E+00  0.00000000E+00  0.00000000E+00
  0.00000000E+00  0.00000000E+00  0.00000000E+00
  0.00000000E+00  0.00000000E+00  0.00000000E+00
  0.00000000E+00  0.00000000E+00  0.00000000E+00
  0.00000000E+00  0.00000000E+00  0.00000000E+00
  0.00000000E+00  0.00000000E+00  0.00000000E+00
  0.00000000E+00  0.00000000E+00  0.00000000E+00
  0.00000000E+00  0.00000000E+00  0.00000000E+00
  0.00000000E+00  0.00000000E+00  0.00000000E+00
  0.00000000E+00  0.00000000E+00  0.00000000E+00
  0.00000000E+00  0.00000000E+00  0.00000000E+00
  0.00000000E+00  0.00000000E+00  0.00000000E+00
  0.00000000E+00  0.00000000E+00  0.00000000E+00
  0.00000000E+00  0.00000000E+00  0.00000000E+00
  0.00000000E+00  0.00000000E+00  0.00000000E+00
  0.00000000E+00  0.00000000E+00  0.00000000E+00
  0.00000000E+00  0.00000000E+00  0.00000000E+00
  0.00000000E+00  0.00000000E+00  0.00000000E+00
  0.00000000E+00  0.00000000E+00  0.00000000E+00
  0.00000000E+00  0.00000000E+00  0.00000000E+00
  0.00000000E+00  0.00000000E+00  0.00000000E+00
  0.00000000E+00  0.00000000E+00  0.00000000E+00
  0.00000000E+00  0.00000000E+00  0.00000000E+00
  0.00000000E+00  0.00000000E+00  0.00000000E+00
  0.00000000E+00  0.00000000E+00  0.00000000E+00
  0.00000000E+00  0.00000000E+00  0.00000000E+00
  0.00000000E+00  0.00000000E+00  0.00000000E+00
  0.00000000E+00  0.00000000E+00  0.00000000E+00
  0.00000000E+00  0.00000000E+00  0.00000000E+00
  0.00000000E+00  0.00000000E+00  0.00000000E+00
  0.00000000E+00  0.00000000E+00  0.00000000E+00
  0.00000000E+00  0.00000000E+00  0.00000000E+00
  0.00000000E+00  0.00000000E+00  0.00000000E+00
  0.00000000E+00  0.00000000E+00  0.00000000E+00
  0.00000000E+00  0.00000000E+00  0.00000000E+00
  0.00000000E+00  0.00000000E+00  0.00000000E+00
  0.00000000E+00  0.00000000E+00  0.00000000E+00
  0.00000000E+00  0.00000000E+00  0.00000000E+00
  0.00000000E+00  0.00000000E+00  0.00000000E+00
  0.00000000E+00  0.00000000E+00  0.00000000E+00
  0.00000000E+00  0.00000000E+00  0.00000000E+00
  0.00000000E+00  0.00000000E+00  0.00000000E+00
  0.00000000E+00  0.00000000E+00  0.00000000E+00
  0.00000000E+00  0.00000000E+00  0.00000000E+00
  0.00000000E+00  0.00000000E+00  0.00000000E+00
  0.00000000E+00  0.00000000E+00  0.00000000E+00
  0.00000000E+00  0.00000000E+00  0.00000000E+00
  0.00000000E+00  0.00000000E+00  0.00000000E+00
  0.00000000E+00  0.00000000E+00  0.00000000E+00
  0.00000000E+00  0.00000000E+00  0.00000000E+00
  0.00000000E+00  0.00000000E+00  0.00000000E+00
  0.00000000E+00  0.00000000E+00  0.00000000E+00
  0.00000000E+00  0.00000000E+00  0.00000000E+00
  0.00000000E+00  0.00000000E+00  0.00000000E+00
  0.00000000E+00  0.00000000E+00  0.00000000E+00
  0.00000000E+00  0.00000000E+00  0.00000000E+00
  0.00000000E+00  0.00000000E+00  0.00000000E+00
  0.00000000E+00  0.00000000E+00  0.00000000E+00
  0.00000000E+00  0.00000000E+00  0.00000000E+00
  0.00000000E+00  0.00000000E+00  0.00000000E+00
  0.00000000E+00  0.00000000E+00  0.00000000E+00
  0.00000000E+00  0.00000000E+00  0.00000000E+00
  0.00000000E+00  0.00000000E+00  0.00000000E+00
  0.00000000E+00  0.00000000E+00  0.00000000E+00
  0.00000000E+00  0.00000000E+00  0.00000000E+00
  0.00000000E+00  0.00000000E+00  0.00000000E+00
  0.00000000E+00  0.00000000E+00  0.00000000E+00
  0.00000000E+00  0.00000000E+00  0.00000000E+00
  0.00000000E+00  0.00000000E+00  0.00000000E+00
  0.00000000E+00  0.00000000E+00  0.00000000E+00
  0.00000000E+00  0.00000000E+00  0.00000000E+00
  0.00000000E+00  0.00000000E+00  0.00000000E+00
  0.00000000E+00  0.00000000E+00  0.00000000E+00
  0.00000000E+00  0.00000000E+00  0.00000000E+00
  0.00000000E+00  0.00000000E+00  0.00000000E+00
  0.00000000E+00  0.00000000E+00  0.00000000E+00
  0.00000000E+00  0.00000000E+00  0.00000000E+00
  0.00000000E+00  0.00000000E+00  0.00000000E+00
  0.00000000E+00  0.00000000E+00  0.00000000E+00
  0.00000000E+00  0.00000000E+00  0.00000000E+00
  0.00000000E+00  0.00000000E+00  0.00000000E+00
  0.00000000E+00  0.00000000E+00  0.00000000E+00
  0.00000000E+00  0.00000000E+00  0.00000000E+00
  0.00000000E+00  0.00000000E+00  0.00000000E+00
  0.00000000E+00  0.00000000E+00  0.00000000E+00
  0.00000000E+00  0.00000000E+00  0.00000000E+00
  0.00000000E+00  0.00000000E+00  0.00000000E+00
  0.00000000E+00  0.00000000E+00  0.00000000E+00
