supercell of POSCAR                     
   1.01189200000000     
     3.1482772356600002   -5.4762754812200001    9.9674464565599994
    -9.4511209497999999   -5.4731922780100000    0.0032121685426600
     6.3112884282600001  -10.9581161277000003   -9.9749049577999997
   Al   Sc   N 
    83    12    96
Direct
  0.0898862543062933  0.5845206442119277  0.3332017215650751
  0.0042582505434083  0.3260297417567912  0.2538533449308247
  0.0854698153485884  0.0841657273394532  0.3340999179704980
  0.2496992276543324  0.5807534811038408  0.4967645795408728
  0.3317651930939292  0.3243878682742718  0.0809540225278766
  0.4181067255570596  0.0863346938293361  0.1696698542208352
  0.0143316658620591  0.8401892852200703  0.2499578919326098
  0.1680184232616142  0.3332918343112397  0.4141069252892748
  0.2479686239766181  0.0863134348295134  0.4973302007137761
  0.1648479006449364  0.8355273716648455  0.4159192511241585
  0.3367737575586744  0.6711488374259318  0.3375070624500438
  0.1614537517524823  0.6672010410872957  0.1673273525148602
  0.2560651159815635  0.4095074068138729  0.2527295966233396
  0.3349024691735139  0.1652388460249341  0.3341574032443759
  0.0025089173870612  0.6701796974578542  0.4966082924343311
  0.1673005401539100  0.1614283296066219  0.1685611860403142
  0.2548700119115139  0.9172337369776713  0.2573437900285214
  0.4157075193402306  0.4163266054726620  0.4159946894484889
  0.4989116535550195  0.1636843206298622  0.4982312613753450
  0.4203249345986748  0.9184948436192499  0.4157774860451582
  0.0874404952595711  0.5830170439513438  0.8329811117645392
  0.0003285414042224  0.3255730668492873  0.7531840361180642
  0.0843106231004072  0.0833513241639423  0.8346888014832317
  0.2484904485166055  0.5783567786504946  0.9971434279425537
  0.3306659562200380  0.3243351416311384  0.5804099872534749
  0.4166344847077426  0.0863476819360258  0.6694704279151367
  0.0037191244235828  0.8400951404817008  0.7516344742344998
  0.1660306476900928  0.3325955735146096  0.9139866956261145
  0.2473431263370003  0.0882717508314599  0.9968770762346324
  0.1589996118863297  0.8329120313719898  0.9148494673436005
  0.3352188092530923  0.6688228712639059  0.8370036542018298
  0.1594122846536408  0.6710669341612245  0.6659022616990526
  0.2508854952066670  0.4081997088004528  0.7506061854055375
  0.3338160616694452  0.1664699339986413  0.8339032653282672
  0.0021007850758323  0.6661004665200565  0.9954726199667405
  0.1666894729503028  0.1608420258251826  0.6685012754688273
  0.2511046315929022  0.9180485084694254  0.7532679574349572
  0.4143026409792938  0.4160682465669865  0.9159489301313997
  0.4993911208889799  0.1642432584339062  0.9985357834474229
  0.0805092771949987  0.9211651409084567  0.5808393163696977
  0.3985811850466305  0.9174605333851460  0.9241768006011526
  0.5892508573007476  0.5852373655177061  0.3335067789793627
  0.5032228731886690  0.3273595534983045  0.2539995766843433
  0.5858250623028525  0.0841688266101386  0.3341002242080435
  0.7494441615640639  0.5810467498662035  0.4969157347089848
  0.8318113053125700  0.3227019495372048  0.0790845701871561
  0.9228485212924724  0.0886969672406934  0.1680011200046607
  0.5066188997140486  0.8411363374663381  0.2533539459614502
  0.6678392097250807  0.3336641570576688  0.4141713209247868
  0.7476185986681401  0.0860693862904611  0.4976316752481296
  0.6649410571237127  0.8355546371363758  0.4158063200127131
  0.8379861610946691  0.6705682363568641  0.3360041456287917
  0.6640509315602898  0.6735806181820010  0.1654273732988116
  0.7542468374257183  0.4086525497477140  0.2505755813432842
  0.8346551326340048  0.1654415347327713  0.3338772982856213
  0.5026630189852384  0.6706503205358345  0.4974703371987914
  0.6682830810498075  0.1607482105853677  0.1684589291114307
  0.7567742130432364  0.9188898444601534  0.2522021239515553
  0.9150366069709008  0.4161263676581441  0.4151784912396863
  0.9983292770122887  0.1631299039987084  0.4976738190318741
  0.5804559224353341  0.9188283735443576  0.0823435853073065
  0.9190273350340590  0.9178748984109362  0.4128647427736070
  0.5877561424041176  0.5844653785507816  0.8351829597130020
  0.5009928070253835  0.3267571380735959  0.7539582451231226
  0.5806222374649934  0.0815496685706094  0.8365242312058285
  0.7501690481959855  0.5823086159472339  0.9972811407062281
  0.8301436869369496  0.3242138575660576  0.5802678470768825
  0.9160510659328054  0.0861199726681221  0.6692990743433782
  0.5018510012500101  0.8406272709998817  0.7566906269884299
  0.6673519020135714  0.3329019205257495  0.9148906699110810
  0.7477587742175515  0.0844561640296888  0.9979811093382764
  0.6608738400091951  0.8364455880900650  0.9171648898837361
  0.8353507782751493  0.6721187256637293  0.8381308983703164
  0.6586140225189965  0.6718573015525209  0.6673091573266134
  0.7505786160047947  0.4087267138791404  0.7508578176438405
  0.8320645377255218  0.1638463123194214  0.8343892474349630
  0.5000889481372894  0.6726660481499067  0.9994012395520429
  0.6658636404028329  0.1615022276134681  0.6693389216714181
  0.7489942848160425  0.9188596073870343  0.7528024235052300
  0.9124945362866015  0.4152485883005426  0.9131284549047365
  0.9981973521608225  0.1621230896692367  0.9990531735185897
  0.5807677830495805  0.9209847127304798  0.5826079594863103
  0.9161521288214232  0.9154062029380654  0.9121167211534456
  0.4066557400160562  0.5850973627211644  0.1730607365092567
  0.3078233622139805  0.8421147605446535  0.0899596146400086
  0.0773440657729978  0.4054570840373231  0.0858305098226282
  0.4035495038998889  0.5826671885831445  0.6736433804658830
  0.3277112237908142  0.8382905386961994  0.5838742995351893
  0.0778162907384683  0.4155041581448202  0.5848809665840662
  0.9077100921142218  0.5825956881445435  0.1719799665267630
  0.8423369317826612  0.8415199094741368  0.0804342242454084
  0.5797519963341742  0.4156318199033109  0.0861905987408562
  0.9030020545730579  0.5827633107478647  0.6737619345821386
  0.8278265644376717  0.8376833698077562  0.5830618960440361
  0.5783607312459296  0.4162300691391678  0.5852863543476374
  0.2220728334323852  0.5783425290775313  0.2698757113443762
  0.0422201537872553  0.5911326198489277  0.1006269401667765
  0.1367327969754299  0.3258594591211832  0.1998389189951197
  0.2135780001982823  0.0827785363273037  0.2731360754494219
  0.3805974252780189  0.5829720356481332  0.4377079242970012
  0.4522773933741959  0.3255228200988469  0.0133697886278341
  0.0394551654111197  0.1155024997484233  0.1056385584889412
  0.1466446222330475  0.8255527891330843  0.1982989888649556
  0.2981738864048822  0.3310107933957127  0.3543083437362569
  0.3777787974734963  0.0816806854227110  0.4364539134895580
  0.4632597748626139  0.8342192288638017  0.0201241803805203
  0.2979494292002087  0.8338916690537062  0.3599178753002050
  0.4698114798034680  0.6789993510128767  0.2810129879029901
  0.2767011127801169  0.6561132199523811  0.0972698619817436
  0.3813966929968089  0.3970121320205706  0.1857588503104068
  0.4634912972474083  0.1658676613776677  0.2733364364940627
  0.1311008299693270  0.6663253300137342  0.4344629030711289
  0.2165745874820004  0.4109920111815129  0.0142059145520719
  0.2938567701528285  0.1613693436724617  0.1032562450945420
  0.3856966692191719  0.9271886038123753  0.1996210593474643
  0.0449096306716967  0.4193785084888475  0.3535220791314160
  0.1272366015598863  0.1703155086473274  0.4358458689983138
  0.2273459332152257  0.9274532058996243  0.9945604479213088
  0.0477932961144703  0.9209592433597820  0.3535419374192443
  0.2176718266342235  0.5804006324790905  0.7649726458448143
  0.0384892367703742  0.5983029332287586  0.6014852014052607
  0.1304504934131572  0.3225043138042736  0.6944006614772604
  0.2118608109852573  0.0827006013644578  0.7707896782214618
  0.3795779907031971  0.5823721740933721  0.9367739169683986
  0.4515284794307348  0.3239093132043678  0.5134812438586778
  0.0411242556768698  0.0855074566942591  0.6032039809674217
  0.1300782129256888  0.8391427468854644  0.6838034867562044
  0.2951201562132155  0.3328961020461207  0.8516914836331608
  0.3789269718483652  0.0894823651372221  0.9345281636571343
  0.4684842400497615  0.8357143242220957  0.5152221349485373
  0.2900128130114226  0.8286402146292460  0.8494330513873436
  0.4687123511906108  0.6760148847714831  0.7794960875793322
  0.2758320383776933  0.6615910214069061  0.5971660162111689
  0.3776740812863792  0.3954385860900587  0.6850452696273805
  0.4613823065682467  0.1650831144840623  0.7714487463820419
  0.1314447047649026  0.6613303356729361  0.9325164612707013
  0.2168859466464355  0.4141010740323452  0.5146740419754394
  0.2914159932784202  0.1609082196645772  0.6023485632155356
  0.3823505130465037  0.9246012258143708  0.6952783674384193
  0.0436450484472530  0.4180591672564091  0.8501799713524676
  0.1255042496933427  0.1707330590431155  0.9336367525817906
  0.1990016342655139  0.9280648328084808  0.5131459127674418
  0.0442928937880467  0.9211750274153303  0.8494375977310682
  0.7194340882268122  0.5820270001699797  0.2671287543865191
  0.5432631240229782  0.5980878885768632  0.1026964159514918
  0.6332066513117596  0.3229097025679906  0.1965334294162915
  0.7130325511466395  0.0822786027488078  0.2719390001540347
  0.8795134691298117  0.5832726582522483  0.4368859637144737
  0.9474430417854549  0.3252852270895303  0.0083231393697361
  0.5428428063322528  0.0858207082745679  0.1040000126808778
  0.6329364334381609  0.8396695919545749  0.1876878413990326
  0.7959730297123997  0.3320742007964910  0.3527780443308757
  0.8764302436726936  0.0809000307585563  0.4360285191291311
  0.9583578193687501  0.8217340859780222  0.0003663474720526
  0.7943164136078451  0.8335061147236047  0.3549008155804430
  0.9699017522025599  0.6772295114693279  0.2796687003836169
  0.7803234659517457  0.6642819724065703  0.0973482488718034
  0.8800805509066407  0.3947260030481061  0.1849799787099897
  0.9625738189479236  0.1656782850281502  0.2748391561711472
  0.6310866276931293  0.6667220803150826  0.4345754826762231
  0.7164127984798014  0.4145175853978529  0.0145757129084387
  0.7904020938033014  0.1606194482071501  0.1024106873514654
  0.8884919081702449  0.9260476079061277  0.1972008099685922
  0.5454270975602924  0.4198660998203394  0.3530927486143938
  0.6273037813470452  0.1704432952992079  0.4354537150065099
  0.7001431096926964  0.9258984021070020  0.0143385997980516
  0.5479342729646035  0.9214060875789656  0.3542929815163944
  0.7176353933290756  0.5816932597482278  0.7663981043275783
  0.5390553418114763  0.5984735715134093  0.6019428611707269
  0.6302841586826986  0.3236080668180179  0.6946848013813636
  0.7089590458996682  0.0821174039638919  0.7714279081364239
  0.8771511452974394  0.5786127547851692  0.9339145940677724
  0.9503703029567774  0.3234505464286670  0.5128394491644812
  0.5416486195281962  0.0858968953892827  0.6033695620058310
  0.6282671001929288  0.8393770964285423  0.6859002319735623
  0.7935533050199055  0.3301632376866692  0.8506113894113057
  0.8757116826087170  0.0800234830383104  0.9346657376634724
  0.9673138541991193  0.8354959593936044  0.5132134757436972
  0.7876373809229378  0.8340552622770616  0.8511193235488648
  0.9681317340820286  0.6781103641495037  0.7790293998663174
  0.7749443699218617  0.6616488633400337  0.5976947027243824
  0.8772245137781667  0.3955262314570263  0.6847502618787757
  0.9605153994367654  0.1639786309103641  0.7717089399709991
  0.6292231936797492  0.6664849294904798  0.9351332544328699
  0.7167912944344863  0.4143307737785946  0.5144320747526052
  0.7906502669106175  0.1610129886041776  0.6026699085015466
  0.8808456232906110  0.9241975441931558  0.6945548417114082
  0.5442453373789462  0.4184835493133789  0.8521895097982295
  0.6274629998835763  0.1699848414901197  0.9353768137562923
  0.6987964094258388  0.9275672178321486  0.5132470519937229
  0.5395294062019715  0.9201475497387790  0.8566900623738363
 
  0.00000000E+00  0.00000000E+00  0.00000000E+00
  0.00000000E+00  0.00000000E+00  0.00000000E+00
  0.00000000E+00  0.00000000E+00  0.00000000E+00
  0.00000000E+00  0.00000000E+00  0.00000000E+00
  0.00000000E+00  0.00000000E+00  0.00000000E+00
  0.00000000E+00  0.00000000E+00  0.00000000E+00
  0.00000000E+00  0.00000000E+00  0.00000000E+00
  0.00000000E+00  0.00000000E+00  0.00000000E+00
  0.00000000E+00  0.00000000E+00  0.00000000E+00
  0.00000000E+00  0.00000000E+00  0.00000000E+00
  0.00000000E+00  0.00000000E+00  0.00000000E+00
  0.00000000E+00  0.00000000E+00  0.00000000E+00
  0.00000000E+00  0.00000000E+00  0.00000000E+00
  0.00000000E+00  0.00000000E+00  0.00000000E+00
  0.00000000E+00  0.00000000E+00  0.00000000E+00
  0.00000000E+00  0.00000000E+00  0.00000000E+00
  0.00000000E+00  0.00000000E+00  0.00000000E+00
  0.00000000E+00  0.00000000E+00  0.00000000E+00
  0.00000000E+00  0.00000000E+00  0.00000000E+00
  0.00000000E+00  0.00000000E+00  0.00000000E+00
  0.00000000E+00  0.00000000E+00  0.00000000E+00
  0.00000000E+00  0.00000000E+00  0.00000000E+00
  0.00000000E+00  0.00000000E+00  0.00000000E+00
  0.00000000E+00  0.00000000E+00  0.00000000E+00
  0.00000000E+00  0.00000000E+00  0.00000000E+00
  0.00000000E+00  0.00000000E+00  0.00000000E+00
  0.00000000E+00  0.00000000E+00  0.00000000E+00
  0.00000000E+00  0.00000000E+00  0.00000000E+00
  0.00000000E+00  0.00000000E+00  0.00000000E+00
  0.00000000E+00  0.00000000E+00  0.00000000E+00
  0.00000000E+00  0.00000000E+00  0.00000000E+00
  0.00000000E+00  0.00000000E+00  0.00000000E+00
  0.00000000E+00  0.00000000E+00  0.00000000E+00
  0.00000000E+00  0.00000000E+00  0.00000000E+00
  0.00000000E+00  0.00000000E+00  0.00000000E+00
  0.00000000E+00  0.00000000E+00  0.00000000E+00
  0.00000000E+00  0.00000000E+00  0.00000000E+00
  0.00000000E+00  0.00000000E+00  0.00000000E+00
  0.00000000E+00  0.00000000E+00  0.00000000E+00
  0.00000000E+00  0.00000000E+00  0.00000000E+00
  0.00000000E+00  0.00000000E+00  0.00000000E+00
  0.00000000E+00  0.00000000E+00  0.00000000E+00
  0.00000000E+00  0.00000000E+00  0.00000000E+00
  0.00000000E+00  0.00000000E+00  0.00000000E+00
  0.00000000E+00  0.00000000E+00  0.00000000E+00
  0.00000000E+00  0.00000000E+00  0.00000000E+00
  0.00000000E+00  0.00000000E+00  0.00000000E+00
  0.00000000E+00  0.00000000E+00  0.00000000E+00
  0.00000000E+00  0.00000000E+00  0.00000000E+00
  0.00000000E+00  0.00000000E+00  0.00000000E+00
  0.00000000E+00  0.00000000E+00  0.00000000E+00
  0.00000000E+00  0.00000000E+00  0.00000000E+00
  0.00000000E+00  0.00000000E+00  0.00000000E+00
  0.00000000E+00  0.00000000E+00  0.00000000E+00
  0.00000000E+00  0.00000000E+00  0.00000000E+00
  0.00000000E+00  0.00000000E+00  0.00000000E+00
  0.00000000E+00  0.00000000E+00  0.00000000E+00
  0.00000000E+00  0.00000000E+00  0.00000000E+00
  0.00000000E+00  0.00000000E+00  0.00000000E+00
  0.00000000E+00  0.00000000E+00  0.00000000E+00
  0.00000000E+00  0.00000000E+00  0.00000000E+00
  0.00000000E+00  0.00000000E+00  0.00000000E+00
  0.00000000E+00  0.00000000E+00  0.00000000E+00
  0.00000000E+00  0.00000000E+00  0.00000000E+00
  0.00000000E+00  0.00000000E+00  0.00000000E+00
  0.00000000E+00  0.00000000E+00  0.00000000E+00
  0.00000000E+00  0.00000000E+00  0.00000000E+00
  0.00000000E+00  0.00000000E+00  0.00000000E+00
  0.00000000E+00  0.00000000E+00  0.00000000E+00
  0.00000000E+00  0.00000000E+00  0.00000000E+00
  0.00000000E+00  0.00000000E+00  0.00000000E+00
  0.00000000E+00  0.00000000E+00  0.00000000E+00
  0.00000000E+00  0.00000000E+00  0.00000000E+00
  0.00000000E+00  0.00000000E+00  0.00000000E+00
  0.00000000E+00  0.00000000E+00  0.00000000E+00
  0.00000000E+00  0.00000000E+00  0.00000000E+00
  0.00000000E+00  0.00000000E+00  0.00000000E+00
  0.00000000E+00  0.00000000E+00  0.00000000E+00
  0.00000000E+00  0.00000000E+00  0.00000000E+00
  0.00000000E+00  0.00000000E+00  0.00000000E+00
  0.00000000E+00  0.00000000E+00  0.00000000E+00
  0.00000000E+00  0.00000000E+00  0.00000000E+00
  0.00000000E+00  0.00000000E+00  0.00000000E+00
  0.00000000E+00  0.00000000E+00  0.00000000E+00
  0.00000000E+00  0.00000000E+00  0.00000000E+00
  0.00000000E+00  0.00000000E+00  0.00000000E+00
  0.00000000E+00  0.00000000E+00  0.00000000E+00
  0.00000000E+00  0.00000000E+00  0.00000000E+00
  0.00000000E+00  0.00000000E+00  0.00000000E+00
  0.00000000E+00  0.00000000E+00  0.00000000E+00
  0.00000000E+00  0.00000000E+00  0.00000000E+00
  0.00000000E+00  0.00000000E+00  0.00000000E+00
  0.00000000E+00  0.00000000E+00  0.00000000E+00
  0.00000000E+00  0.00000000E+00  0.00000000E+00
  0.00000000E+00  0.00000000E+00  0.00000000E+00
  0.00000000E+00  0.00000000E+00  0.00000000E+00
  0.00000000E+00  0.00000000E+00  0.00000000E+00
  0.00000000E+00  0.00000000E+00  0.00000000E+00
  0.00000000E+00  0.00000000E+00  0.00000000E+00
  0.00000000E+00  0.00000000E+00  0.00000000E+00
  0.00000000E+00  0.00000000E+00  0.00000000E+00
  0.00000000E+00  0.00000000E+00  0.00000000E+00
  0.00000000E+00  0.00000000E+00  0.00000000E+00
  0.00000000E+00  0.00000000E+00  0.00000000E+00
  0.00000000E+00  0.00000000E+00  0.00000000E+00
  0.00000000E+00  0.00000000E+00  0.00000000E+00
  0.00000000E+00  0.00000000E+00  0.00000000E+00
  0.00000000E+00  0.00000000E+00  0.00000000E+00
  0.00000000E+00  0.00000000E+00  0.00000000E+00
  0.00000000E+00  0.00000000E+00  0.00000000E+00
  0.00000000E+00  0.00000000E+00  0.00000000E+00
  0.00000000E+00  0.00000000E+00  0.00000000E+00
  0.00000000E+00  0.00000000E+00  0.00000000E+00
  0.00000000E+00  0.00000000E+00  0.00000000E+00
  0.00000000E+00  0.00000000E+00  0.00000000E+00
  0.00000000E+00  0.00000000E+00  0.00000000E+00
  0.00000000E+00  0.00000000E+00  0.00000000E+00
  0.00000000E+00  0.00000000E+00  0.00000000E+00
  0.00000000E+00  0.00000000E+00  0.00000000E+00
  0.00000000E+00  0.00000000E+00  0.00000000E+00
  0.00000000E+00  0.00000000E+00  0.00000000E+00
  0.00000000E+00  0.00000000E+00  0.00000000E+00
  0.00000000E+00  0.00000000E+00  0.00000000E+00
  0.00000000E+00  0.00000000E+00  0.00000000E+00
  0.00000000E+00  0.00000000E+00  0.00000000E+00
  0.00000000E+00  0.00000000E+00  0.00000000E+00
  0.00000000E+00  0.00000000E+00  0.00000000E+00
  0.00000000E+00  0.00000000E+00  0.00000000E+00
  0.00000000E+00  0.00000000E+00  0.00000000E+00
  0.00000000E+00  0.00000000E+00  0.00000000E+00
  0.00000000E+00  0.00000000E+00  0.00000000E+00
  0.00000000E+00  0.00000000E+00  0.00000000E+00
  0.00000000E+00  0.00000000E+00  0.00000000E+00
  0.00000000E+00  0.00000000E+00  0.00000000E+00
  0.00000000E+00  0.00000000E+00  0.00000000E+00
  0.00000000E+00  0.00000000E+00  0.00000000E+00
  0.00000000E+00  0.00000000E+00  0.00000000E+00
  0.00000000E+00  0.00000000E+00  0.00000000E+00
  0.00000000E+00  0.00000000E+00  0.00000000E+00
  0.00000000E+00  0.00000000E+00  0.00000000E+00
  0.00000000E+00  0.00000000E+00  0.00000000E+00
  0.00000000E+00  0.00000000E+00  0.00000000E+00
  0.00000000E+00  0.00000000E+00  0.00000000E+00
  0.00000000E+00  0.00000000E+00  0.00000000E+00
  0.00000000E+00  0.00000000E+00  0.00000000E+00
  0.00000000E+00  0.00000000E+00  0.00000000E+00
  0.00000000E+00  0.00000000E+00  0.00000000E+00
  0.00000000E+00  0.00000000E+00  0.00000000E+00
  0.00000000E+00  0.00000000E+00  0.00000000E+00
  0.00000000E+00  0.00000000E+00  0.00000000E+00
  0.00000000E+00  0.00000000E+00  0.00000000E+00
  0.00000000E+00  0.00000000E+00  0.00000000E+00
  0.00000000E+00  0.00000000E+00  0.00000000E+00
  0.00000000E+00  0.00000000E+00  0.00000000E+00
  0.00000000E+00  0.00000000E+00  0.00000000E+00
  0.00000000E+00  0.00000000E+00  0.00000000E+00
  0.00000000E+00  0.00000000E+00  0.00000000E+00
  0.00000000E+00  0.00000000E+00  0.00000000E+00
  0.00000000E+00  0.00000000E+00  0.00000000E+00
  0.00000000E+00  0.00000000E+00  0.00000000E+00
  0.00000000E+00  0.00000000E+00  0.00000000E+00
  0.00000000E+00  0.00000000E+00  0.00000000E+00
  0.00000000E+00  0.00000000E+00  0.00000000E+00
  0.00000000E+00  0.00000000E+00  0.00000000E+00
  0.00000000E+00  0.00000000E+00  0.00000000E+00
  0.00000000E+00  0.00000000E+00  0.00000000E+00
  0.00000000E+00  0.00000000E+00  0.00000000E+00
  0.00000000E+00  0.00000000E+00  0.00000000E+00
  0.00000000E+00  0.00000000E+00  0.00000000E+00
  0.00000000E+00  0.00000000E+00  0.00000000E+00
  0.00000000E+00  0.00000000E+00  0.00000000E+00
  0.00000000E+00  0.00000000E+00  0.00000000E+00
  0.00000000E+00  0.00000000E+00  0.00000000E+00
  0.00000000E+00  0.00000000E+00  0.00000000E+00
  0.00000000E+00  0.00000000E+00  0.00000000E+00
  0.00000000E+00  0.00000000E+00  0.00000000E+00
  0.00000000E+00  0.00000000E+00  0.00000000E+00
  0.00000000E+00  0.00000000E+00  0.00000000E+00
  0.00000000E+00  0.00000000E+00  0.00000000E+00
  0.00000000E+00  0.00000000E+00  0.00000000E+00
  0.00000000E+00  0.00000000E+00  0.00000000E+00
  0.00000000E+00  0.00000000E+00  0.00000000E+00
  0.00000000E+00  0.00000000E+00  0.00000000E+00
  0.00000000E+00  0.00000000E+00  0.00000000E+00
  0.00000000E+00  0.00000000E+00  0.00000000E+00
  0.00000000E+00  0.00000000E+00  0.00000000E+00
  0.00000000E+00  0.00000000E+00  0.00000000E+00
  0.00000000E+00  0.00000000E+00  0.00000000E+00
  0.00000000E+00  0.00000000E+00  0.00000000E+00
  0.00000000E+00  0.00000000E+00  0.00000000E+00
  0.00000000E+00  0.00000000E+00  0.00000000E+00
