supercell of POSCAR                     
   1.01189200000000     
     3.1482772356600002   -5.4762754812200001    9.9674464565599994
    -9.4511209497999999   -5.4731922780100000    0.0032121685426600
     6.3112884282600001  -10.9581161277000003   -9.9749049577999997
   Al   Sc   N 
    84    12    95
Direct
  0.0849153218750445  0.5848377145556682  0.3341852269169436
  0.0000142919487729  0.3267644436632438  0.2532872206581800
  0.0814756320016130  0.0837653264247393  0.3344745239871969
  0.2472993447928999  0.5804291645681587  0.4980115317869789
  0.3316061665446171  0.3245887455497041  0.0803599589286534
  0.4182092666172466  0.0842413329775269  0.1665162999168857
  0.0045797591631143  0.8397072470711606  0.2524591808222709
  0.1636142553752080  0.3348103833257028  0.4152322288429602
  0.1971159150575659  0.0888694860776553  0.5224527196784692
  0.1603118806756356  0.8341905115899308  0.4164433198312238
  0.3319753131859784  0.6647637662444978  0.3359019013193887
  0.1601754761765406  0.6720661432563588  0.1653443937666381
  0.2476844985665920  0.4150886585540405  0.2492670095415690
  0.3202505293610258  0.1877791336496344  0.3081088709863380
  0.0000685627947803  0.6685578398441407  0.4972802640272036
  0.1632869921715923  0.1612233434708941  0.1646085211305248
  0.2518510297665841  0.9181693654499128  0.2523049854572292
  0.4138779770065284  0.4158297508675517  0.4148704353154073
  0.5254839179382174  0.1790366423531182  0.5122616157071178
  0.0817023558152314  0.9204805134626994  0.0806919259508945
  0.4264456707138891  0.8781905503675418  0.4075720827823162
  0.0899139950537418  0.5842060972560077  0.8344855893140561
  0.0018052907510011  0.3283531051591737  0.7548830285620483
  0.0860144138404024  0.0835276582062789  0.8359107660413017
  0.2509327133914709  0.5803329151163865  0.9972256813805558
  0.3283686515411972  0.3241544320034322  0.5813139060649988
  0.4170861928294869  0.0859262408757573  0.6719817687388669
  0.0068481340843789  0.8391561335182942  0.7543615555859802
  0.1686927716227160  0.3333063410966943  0.9146191108277435
  0.2489993520922127  0.0857975620643501  0.9972198523162916
  0.1650045160876985  0.8348316234416870  0.9164558992212619
  0.3381568755996724  0.6709645226872425  0.8385051702655630
  0.1603422451519378  0.6700790406100765  0.6671552340584270
  0.2537845000088481  0.4096475314808785  0.7521084427812355
  0.3362157703982902  0.1659203045493030  0.8358111952967491
  0.0037659577948546  0.6699163807993500  0.9967202262882466
  0.1681623639500174  0.1656081635769269  0.6762453901657466
  0.2538571474711446  0.9182623464317814  0.7552451428003621
  0.4161163644503034  0.4161659363680883  0.9159300369489642
  0.5001728135974233  0.1638275380111054  0.9977488739261418
  0.0765388516207892  0.9121828901713300  0.5839183157323333
  0.4197842191787871  0.9182389403884841  0.9144051099844859
  0.5874034027247674  0.5850150703937089  0.3338203222459484
  0.5030732349895644  0.3296570948402504  0.2528453627758438
  0.5839935026586716  0.0840314428444557  0.3335018011465820
  0.7479518531147775  0.5801180690959100  0.4972927919774719
  0.8318898387419580  0.3243024297424171  0.0797845871763414
  0.9166558561411193  0.0861788850852250  0.1684903430152076
  0.5062042455288491  0.8389245764178241  0.2493431829274826
  0.6671712240120016  0.3359280324479670  0.4134471127234036
  0.7497591708518172  0.0831222436678587  0.4970368354105119
  0.6668235302420129  0.8336993301633413  0.4160903591122462
  0.8349281183912112  0.6698261956557872  0.3362399691652698
  0.6618551148495371  0.6705584636651665  0.1656608913121929
  0.7516552267737850  0.4092178791518535  0.2501616165216660
  0.8318521813952344  0.1658697977525279  0.3318531550369599
  0.5022234885936925  0.6661918823458137  0.4990395989363634
  0.6678525490862555  0.1616410887540312  0.1673508615048505
  0.7525917883784459  0.9188298790896496  0.2527112553962070
  0.9124629170835235  0.4173386174937761  0.4143495722457473
  0.9873860955019396  0.1685812405839826  0.4950298510204902
  0.5829765677463357  0.9208642329688104  0.0801936897865829
  0.9168341239725919  0.9168194359135882  0.4134601368523292
  0.5897088706674580  0.5842496812061526  0.8345713154216057
  0.5025723553075920  0.3267716512235950  0.7545761880643980
  0.5866563795799138  0.0841251387904549  0.8350334069216814
  0.7512295962408544  0.5807718986056969  0.9966669955876597
  0.8280012241939545  0.3263683095790810  0.5809684785806013
  0.9205035015773291  0.0866982339756035  0.6686649243390264
  0.5072068344791347  0.8399562586166951  0.7538400279172990
  0.6692318714081225  0.3330020517249821  0.9140080648668487
  0.7493423474927781  0.0862621048975214  0.9968066448635682
  0.6654138327527761  0.8349984285717582  0.9157248837350096
  0.8378437352610817  0.6701631696075907  0.8376010625197949
  0.6607647831009587  0.6712390876685603  0.6679640074823681
  0.7531981382705979  0.4090445854436453  0.7515582568059216
  0.8365994772635545  0.1655031459120124  0.8339630931450088
  0.5042514934008864  0.6701928346132888  0.9970168492775784
  0.6721501717595117  0.1617089411815371  0.6715876347588150
  0.7552650771767588  0.9191234558153525  0.7540169331706394
  0.9156706160327346  0.4162269801900536  0.9156401366279994
  0.9990553528860602  0.1634753700888893  0.9972424047050197
  0.5823816808564786  0.9196351049995215  0.5821670951798694
  0.9192327020514952  0.9177564427113865  0.9142755104896167
  0.4065649559199827  0.5825813150612618  0.1728226463508591
  0.3292392930248980  0.8374238606949120  0.0830563478183208
  0.0791717053995313  0.4154706475419729  0.0843853424079128
  0.4020687667805944  0.5845734703998033  0.6758814612904445
  0.3260453352440891  0.8394192036630130  0.5849572361719098
  0.0759683003928302  0.4156333060558524  0.5861952768277945
  0.9058428356028756  0.5826011097935435  0.1725890602762377
  0.8294473132315474  0.8379157502000680  0.0834023180856533
  0.5810328986314559  0.4157196248488830  0.0838487859020063
  0.9042372176718061  0.5830317989343214  0.6743473584675357
  0.8255994928144688  0.8364321375667600  0.5848805119469702
  0.5752411937542092  0.4200956785281420  0.5883614111239339
  0.2148785036162053  0.5832304187655595  0.2669887805399966
  0.0409165043252813  0.5981623629134774  0.1014417446306766
  0.1313544512176748  0.3220817193731165  0.1958060764915501
  0.2088779735784314  0.0818759663841675  0.2707827891126797
  0.3782641051766973  0.5821170920421324  0.4373789184640060
  0.4522428217887224  0.3238310806600211  0.0135379969382186
  0.0409954795280143  0.0845713518477496  0.1024544598814146
  0.1315723888907243  0.8396701096889387  0.1857417332269762
  0.2916977584345091  0.3355849002271256  0.3523667813797005
  0.4690464760745030  0.8355123074455264  0.0137820254018521
  0.2903420780613999  0.8320467018398290  0.3544346859418184
  0.4664671375433329  0.6796799005224727  0.2814160865104043
  0.2778702791873968  0.6609372830360343  0.0982680946847978
  0.3761030284792852  0.3951672127682144  0.1872265243816003
  0.4601533344223725  0.1650106137787688  0.2733312908800301
  0.1292576989393766  0.6658986760698795  0.4344908290394471
  0.2181949347358341  0.4137653394020120  0.0147097272019607
  0.2920678811005288  0.1605762873442487  0.1032996558253529
  0.3832993007945760  0.9245372322136021  0.1963694507351832
  0.0426846521855708  0.4191616380670169  0.3521873457888631
  0.1211690876726621  0.1717401762552839  0.4350059136458739
  0.2005251739436176  0.9272894690179854  0.0130080066107965
  0.0458708551411178  0.9205970667971428  0.3528676604815146
  0.2213360374279247  0.5823825564980467  0.7667856212965845
  0.0395539585898206  0.5986574888423917  0.6019359731565785
  0.1321162079488190  0.3259462660452783  0.6964648245485563
  0.2141946496574931  0.0819257413884387  0.7736897748888438
  0.3814138922144892  0.5829765041960542  0.9373578708278103
  0.4485263205729950  0.3201882088028967  0.5121381511146765
  0.0516790497379773  0.0868775431028652  0.5980690087265685
  0.1330516691728363  0.8385863654131143  0.6865537000376278
  0.2975022686250242  0.3317922361962289  0.8526483554042912
  0.3785775381792718  0.0813278263797486  0.9362950976473954
  0.4666181110028162  0.8354192461624947  0.5143110585908062
  0.2951356534947465  0.8339166280918278  0.8553704201245225
  0.4709123848069439  0.6786722606976809  0.7806639463842515
  0.2760390784494433  0.6627836669395961  0.5972477681864490
  0.3803497457790073  0.3957226611031857  0.6844124999691275
  0.4636075520489982  0.1646576591894657  0.7729212121046771
  0.1327883569959951  0.6661462243274840  0.9344318642684968
  0.2155982771755234  0.4129140348224567  0.5149812444924606
  0.2910570017901009  0.1611500037278972  0.6057824726284622
  0.3846627069427555  0.9238469597913692  0.6961844580610119
  0.0459338779602163  0.4192499625017163  0.8527672430011322
  0.1282697206724350  0.1700629133478060  0.9355553581179805
  0.1956693438741723  0.9251822688886762  0.5131858922908634
  0.0480335346339800  0.9205219096411952  0.8532521719383581
  0.7166367360535588  0.5819493370550433  0.2671617483705546
  0.5409035483299078  0.5981226071061698  0.1019521341416123
  0.6309663976758131  0.3228892996686739  0.1950746784987203
  0.7095939978981747  0.0823504805309554  0.2710738789691405
  0.8771892110568231  0.5830073606810018  0.4363932204820600
  0.9521996138544253  0.3235434784566422  0.0127171818054563
  0.5430978451511308  0.0851837094438253  0.1032757098626149
  0.6322222282819752  0.8388843337863960  0.1851117908355135
  0.7940311304194196  0.3315277534398717  0.3519745170525113
  0.8739654453532992  0.0804970393001554  0.4333712806580081
  0.9687302968063918  0.8351549822634041  0.0135160173535098
  0.7927473239033205  0.8336204348458907  0.3539226523663288
  0.9674412142897424  0.6784073127100640  0.2797460606257758
  0.7776933609571657  0.6612997819378208  0.0974124715434854
  0.8776593936095907  0.3957484692789777  0.1852021608232093
  0.9608236907115852  0.1645477178811205  0.2719925259980869
  0.6287870083495548  0.6666869457391655  0.4346778122385189
  0.7188760009084447  0.4140007899042075  0.0136342162491019
  0.7922369635042159  0.1608501101980551  0.1021824274861416
  0.8832294331721826  0.9246778950942200  0.1960835943419568
  0.5429765898656456  0.4190714437786838  0.3525360923162566
  0.6267719367252269  0.1687869539735374  0.4348397301986324
  0.7011348253939360  0.9274425335106997  0.0122243684236665
  0.5461686100840453  0.9204792773994157  0.3521198372777192
  0.7199348125209113  0.5818770842919534  0.7669152375830990
  0.5381202413604740  0.6011042254963215  0.6038822914129653
  0.6326698673098434  0.3228788038780124  0.6946396785736439
  0.7148076501828697  0.0822456866603716  0.7719497696252020
  0.8812490460667348  0.5830733849295413  0.9367020474380183
  0.9468874147499662  0.3269340686552624  0.5124368738449263
  0.5435801015118855  0.0843440322945099  0.6056396585546722
  0.6339480827119743  0.8402116859252899  0.6852039910990158
  0.7977748188007112  0.3311215555439162  0.8518616208276129
  0.8784658892965780  0.0812897357140656  0.9347847542345491
  0.9641868119313770  0.8343262034446610  0.5134897723769924
  0.7953850609641435  0.8336820523017323  0.8540518414612066
  0.9706838697578846  0.6775967110651138  0.7799704914971954
  0.7752856219477522  0.6598618750091703  0.5976063148111592
  0.8788806441741883  0.3955142591067755  0.6850453592635688
  0.9653101519251237  0.1643309404857192  0.7708392702885689
  0.6326904705451994  0.6664483837839015  0.9343432664636637
  0.7116868024445040  0.4132842251053788  0.5151022484820373
  0.7940057620074938  0.1595761752573921  0.6013945041996678
  0.8872519560014922  0.9249904918297105  0.6946261215295451
  0.5460830446945550  0.4188825888389758  0.8522588822296413
  0.6284078236907860  0.1701512798325098  0.9350877279282983
  0.6980273885070361  0.9268038385686097  0.5120622109178328
  0.5483363196742488  0.9211651215601009  0.8528901615154822
 
  0.00000000E+00  0.00000000E+00  0.00000000E+00
  0.00000000E+00  0.00000000E+00  0.00000000E+00
  0.00000000E+00  0.00000000E+00  0.00000000E+00
  0.00000000E+00  0.00000000E+00  0.00000000E+00
  0.00000000E+00  0.00000000E+00  0.00000000E+00
  0.00000000E+00  0.00000000E+00  0.00000000E+00
  0.00000000E+00  0.00000000E+00  0.00000000E+00
  0.00000000E+00  0.00000000E+00  0.00000000E+00
  0.00000000E+00  0.00000000E+00  0.00000000E+00
  0.00000000E+00  0.00000000E+00  0.00000000E+00
  0.00000000E+00  0.00000000E+00  0.00000000E+00
  0.00000000E+00  0.00000000E+00  0.00000000E+00
  0.00000000E+00  0.00000000E+00  0.00000000E+00
  0.00000000E+00  0.00000000E+00  0.00000000E+00
  0.00000000E+00  0.00000000E+00  0.00000000E+00
  0.00000000E+00  0.00000000E+00  0.00000000E+00
  0.00000000E+00  0.00000000E+00  0.00000000E+00
  0.00000000E+00  0.00000000E+00  0.00000000E+00
  0.00000000E+00  0.00000000E+00  0.00000000E+00
  0.00000000E+00  0.00000000E+00  0.00000000E+00
  0.00000000E+00  0.00000000E+00  0.00000000E+00
  0.00000000E+00  0.00000000E+00  0.00000000E+00
  0.00000000E+00  0.00000000E+00  0.00000000E+00
  0.00000000E+00  0.00000000E+00  0.00000000E+00
  0.00000000E+00  0.00000000E+00  0.00000000E+00
  0.00000000E+00  0.00000000E+00  0.00000000E+00
  0.00000000E+00  0.00000000E+00  0.00000000E+00
  0.00000000E+00  0.00000000E+00  0.00000000E+00
  0.00000000E+00  0.00000000E+00  0.00000000E+00
  0.00000000E+00  0.00000000E+00  0.00000000E+00
  0.00000000E+00  0.00000000E+00  0.00000000E+00
  0.00000000E+00  0.00000000E+00  0.00000000E+00
  0.00000000E+00  0.00000000E+00  0.00000000E+00
  0.00000000E+00  0.00000000E+00  0.00000000E+00
  0.00000000E+00  0.00000000E+00  0.00000000E+00
  0.00000000E+00  0.00000000E+00  0.00000000E+00
  0.00000000E+00  0.00000000E+00  0.00000000E+00
  0.00000000E+00  0.00000000E+00  0.00000000E+00
  0.00000000E+00  0.00000000E+00  0.00000000E+00
  0.00000000E+00  0.00000000E+00  0.00000000E+00
  0.00000000E+00  0.00000000E+00  0.00000000E+00
  0.00000000E+00  0.00000000E+00  0.00000000E+00
  0.00000000E+00  0.00000000E+00  0.00000000E+00
  0.00000000E+00  0.00000000E+00  0.00000000E+00
  0.00000000E+00  0.00000000E+00  0.00000000E+00
  0.00000000E+00  0.00000000E+00  0.00000000E+00
  0.00000000E+00  0.00000000E+00  0.00000000E+00
  0.00000000E+00  0.00000000E+00  0.00000000E+00
  0.00000000E+00  0.00000000E+00  0.00000000E+00
  0.00000000E+00  0.00000000E+00  0.00000000E+00
  0.00000000E+00  0.00000000E+00  0.00000000E+00
  0.00000000E+00  0.00000000E+00  0.00000000E+00
  0.00000000E+00  0.00000000E+00  0.00000000E+00
  0.00000000E+00  0.00000000E+00  0.00000000E+00
  0.00000000E+00  0.00000000E+00  0.00000000E+00
  0.00000000E+00  0.00000000E+00  0.00000000E+00
  0.00000000E+00  0.00000000E+00  0.00000000E+00
  0.00000000E+00  0.00000000E+00  0.00000000E+00
  0.00000000E+00  0.00000000E+00  0.00000000E+00
  0.00000000E+00  0.00000000E+00  0.00000000E+00
  0.00000000E+00  0.00000000E+00  0.00000000E+00
  0.00000000E+00  0.00000000E+00  0.00000000E+00
  0.00000000E+00  0.00000000E+00  0.00000000E+00
  0.00000000E+00  0.00000000E+00  0.00000000E+00
  0.00000000E+00  0.00000000E+00  0.00000000E+00
  0.00000000E+00  0.00000000E+00  0.00000000E+00
  0.00000000E+00  0.00000000E+00  0.00000000E+00
  0.00000000E+00  0.00000000E+00  0.00000000E+00
  0.00000000E+00  0.00000000E+00  0.00000000E+00
  0.00000000E+00  0.00000000E+00  0.00000000E+00
  0.00000000E+00  0.00000000E+00  0.00000000E+00
  0.00000000E+00  0.00000000E+00  0.00000000E+00
  0.00000000E+00  0.00000000E+00  0.00000000E+00
  0.00000000E+00  0.00000000E+00  0.00000000E+00
  0.00000000E+00  0.00000000E+00  0.00000000E+00
  0.00000000E+00  0.00000000E+00  0.00000000E+00
  0.00000000E+00  0.00000000E+00  0.00000000E+00
  0.00000000E+00  0.00000000E+00  0.00000000E+00
  0.00000000E+00  0.00000000E+00  0.00000000E+00
  0.00000000E+00  0.00000000E+00  0.00000000E+00
  0.00000000E+00  0.00000000E+00  0.00000000E+00
  0.00000000E+00  0.00000000E+00  0.00000000E+00
  0.00000000E+00  0.00000000E+00  0.00000000E+00
  0.00000000E+00  0.00000000E+00  0.00000000E+00
  0.00000000E+00  0.00000000E+00  0.00000000E+00
  0.00000000E+00  0.00000000E+00  0.00000000E+00
  0.00000000E+00  0.00000000E+00  0.00000000E+00
  0.00000000E+00  0.00000000E+00  0.00000000E+00
  0.00000000E+00  0.00000000E+00  0.00000000E+00
  0.00000000E+00  0.00000000E+00  0.00000000E+00
  0.00000000E+00  0.00000000E+00  0.00000000E+00
  0.00000000E+00  0.00000000E+00  0.00000000E+00
  0.00000000E+00  0.00000000E+00  0.00000000E+00
  0.00000000E+00  0.00000000E+00  0.00000000E+00
  0.00000000E+00  0.00000000E+00  0.00000000E+00
  0.00000000E+00  0.00000000E+00  0.00000000E+00
  0.00000000E+00  0.00000000E+00  0.00000000E+00
  0.00000000E+00  0.00000000E+00  0.00000000E+00
  0.00000000E+00  0.00000000E+00  0.00000000E+00
  0.00000000E+00  0.00000000E+00  0.00000000E+00
  0.00000000E+00  0.00000000E+00  0.00000000E+00
  0.00000000E+00  0.00000000E+00  0.00000000E+00
  0.00000000E+00  0.00000000E+00  0.00000000E+00
  0.00000000E+00  0.00000000E+00  0.00000000E+00
  0.00000000E+00  0.00000000E+00  0.00000000E+00
  0.00000000E+00  0.00000000E+00  0.00000000E+00
  0.00000000E+00  0.00000000E+00  0.00000000E+00
  0.00000000E+00  0.00000000E+00  0.00000000E+00
  0.00000000E+00  0.00000000E+00  0.00000000E+00
  0.00000000E+00  0.00000000E+00  0.00000000E+00
  0.00000000E+00  0.00000000E+00  0.00000000E+00
  0.00000000E+00  0.00000000E+00  0.00000000E+00
  0.00000000E+00  0.00000000E+00  0.00000000E+00
  0.00000000E+00  0.00000000E+00  0.00000000E+00
  0.00000000E+00  0.00000000E+00  0.00000000E+00
  0.00000000E+00  0.00000000E+00  0.00000000E+00
  0.00000000E+00  0.00000000E+00  0.00000000E+00
  0.00000000E+00  0.00000000E+00  0.00000000E+00
  0.00000000E+00  0.00000000E+00  0.00000000E+00
  0.00000000E+00  0.00000000E+00  0.00000000E+00
  0.00000000E+00  0.00000000E+00  0.00000000E+00
  0.00000000E+00  0.00000000E+00  0.00000000E+00
  0.00000000E+00  0.00000000E+00  0.00000000E+00
  0.00000000E+00  0.00000000E+00  0.00000000E+00
  0.00000000E+00  0.00000000E+00  0.00000000E+00
  0.00000000E+00  0.00000000E+00  0.00000000E+00
  0.00000000E+00  0.00000000E+00  0.00000000E+00
  0.00000000E+00  0.00000000E+00  0.00000000E+00
  0.00000000E+00  0.00000000E+00  0.00000000E+00
  0.00000000E+00  0.00000000E+00  0.00000000E+00
  0.00000000E+00  0.00000000E+00  0.00000000E+00
  0.00000000E+00  0.00000000E+00  0.00000000E+00
  0.00000000E+00  0.00000000E+00  0.00000000E+00
  0.00000000E+00  0.00000000E+00  0.00000000E+00
  0.00000000E+00  0.00000000E+00  0.00000000E+00
  0.00000000E+00  0.00000000E+00  0.00000000E+00
  0.00000000E+00  0.00000000E+00  0.00000000E+00
  0.00000000E+00  0.00000000E+00  0.00000000E+00
  0.00000000E+00  0.00000000E+00  0.00000000E+00
  0.00000000E+00  0.00000000E+00  0.00000000E+00
  0.00000000E+00  0.00000000E+00  0.00000000E+00
  0.00000000E+00  0.00000000E+00  0.00000000E+00
  0.00000000E+00  0.00000000E+00  0.00000000E+00
  0.00000000E+00  0.00000000E+00  0.00000000E+00
  0.00000000E+00  0.00000000E+00  0.00000000E+00
  0.00000000E+00  0.00000000E+00  0.00000000E+00
  0.00000000E+00  0.00000000E+00  0.00000000E+00
  0.00000000E+00  0.00000000E+00  0.00000000E+00
  0.00000000E+00  0.00000000E+00  0.00000000E+00
  0.00000000E+00  0.00000000E+00  0.00000000E+00
  0.00000000E+00  0.00000000E+00  0.00000000E+00
  0.00000000E+00  0.00000000E+00  0.00000000E+00
  0.00000000E+00  0.00000000E+00  0.00000000E+00
  0.00000000E+00  0.00000000E+00  0.00000000E+00
  0.00000000E+00  0.00000000E+00  0.00000000E+00
  0.00000000E+00  0.00000000E+00  0.00000000E+00
  0.00000000E+00  0.00000000E+00  0.00000000E+00
  0.00000000E+00  0.00000000E+00  0.00000000E+00
  0.00000000E+00  0.00000000E+00  0.00000000E+00
  0.00000000E+00  0.00000000E+00  0.00000000E+00
  0.00000000E+00  0.00000000E+00  0.00000000E+00
  0.00000000E+00  0.00000000E+00  0.00000000E+00
  0.00000000E+00  0.00000000E+00  0.00000000E+00
  0.00000000E+00  0.00000000E+00  0.00000000E+00
  0.00000000E+00  0.00000000E+00  0.00000000E+00
  0.00000000E+00  0.00000000E+00  0.00000000E+00
  0.00000000E+00  0.00000000E+00  0.00000000E+00
  0.00000000E+00  0.00000000E+00  0.00000000E+00
  0.00000000E+00  0.00000000E+00  0.00000000E+00
  0.00000000E+00  0.00000000E+00  0.00000000E+00
  0.00000000E+00  0.00000000E+00  0.00000000E+00
  0.00000000E+00  0.00000000E+00  0.00000000E+00
  0.00000000E+00  0.00000000E+00  0.00000000E+00
  0.00000000E+00  0.00000000E+00  0.00000000E+00
  0.00000000E+00  0.00000000E+00  0.00000000E+00
  0.00000000E+00  0.00000000E+00  0.00000000E+00
  0.00000000E+00  0.00000000E+00  0.00000000E+00
  0.00000000E+00  0.00000000E+00  0.00000000E+00
  0.00000000E+00  0.00000000E+00  0.00000000E+00
  0.00000000E+00  0.00000000E+00  0.00000000E+00
  0.00000000E+00  0.00000000E+00  0.00000000E+00
  0.00000000E+00  0.00000000E+00  0.00000000E+00
  0.00000000E+00  0.00000000E+00  0.00000000E+00
  0.00000000E+00  0.00000000E+00  0.00000000E+00
  0.00000000E+00  0.00000000E+00  0.00000000E+00
  0.00000000E+00  0.00000000E+00  0.00000000E+00
  0.00000000E+00  0.00000000E+00  0.00000000E+00
  0.00000000E+00  0.00000000E+00  0.00000000E+00
  0.00000000E+00  0.00000000E+00  0.00000000E+00
  0.00000000E+00  0.00000000E+00  0.00000000E+00
  0.00000000E+00  0.00000000E+00  0.00000000E+00
