supercell of POSCAR                     
   1.01189200000000     
     3.1482772356600002   -5.4762754812200001    9.9674464565599994
    -9.4511209497999999   -5.4731922780100000    0.0032121685426600
     6.3112884282600001  -10.9581161277000003   -9.9749049577999997
   Al   Sc   N 
    83    12    96
Direct
  0.0872365580228660  0.5831648186940299  0.3345935440573484
  0.0010839179349347  0.3264319096603288  0.2536668109301345
  0.0850694366477569  0.0839614297855604  0.3341607959561941
  0.2527456297296666  0.5797159969576740  0.4971776971302475
  0.3297014864815040  0.3246350338966693  0.0802097956864500
  0.4171104552403904  0.0866728668935011  0.1694072091902044
  0.0057423622804720  0.8391505372880559  0.2536003613157902
  0.1678951429575761  0.3334853207800776  0.4143812269088656
  0.2492852513348680  0.0863974717610745  0.4974888925415399
  0.1635813921104443  0.8350189268671286  0.4169480919787674
  0.3167968567498747  0.6700318582846307  0.3470795779786187
  0.1585393161950890  0.6704309395343131  0.1653615537724704
  0.2515244516031174  0.4070305470721181  0.2502195492119412
  0.3345678738555904  0.1655877380858684  0.3342316327061354
  0.1664986185526942  0.1612509251808163  0.1680963333640193
  0.2532069087548265  0.9203030553620977  0.2540295150293446
  0.4170722965711633  0.4149559354205792  0.4160305355973009
  0.5004828872857061  0.1627832946856103  0.4983638426255936
  0.0803124579036378  0.9206514428685679  0.0813043251226091
  0.4196156328289931  0.9190406158273419  0.4144582035851982
  0.0881613309999167  0.5852627902961913  0.8323719032132146
  0.0013081200986775  0.3273400114536784  0.7517330660162571
  0.0841881706583507  0.0846117099171551  0.8335790405191617
  0.2484786083933272  0.5809756983158252  0.9970409156092117
  0.3310695464767761  0.3248039731100647  0.5800978198433597
  0.4180520007889328  0.0860218569597890  0.6691500003501289
  0.0056848016165176  0.8391439757396597  0.7522954061069811
  0.1659904207959997  0.3339421887048317  0.9138451780319770
  0.2466708858258997  0.0864627346620637  0.9970932158605237
  0.1626673366082798  0.8351304952830958  0.9158715518421019
  0.3367121390643177  0.6710573473519474  0.8383768183096620
  0.1607766766919880  0.6706134810927153  0.6666846735939913
  0.2506743282435906  0.4104673656877722  0.7506779930881038
  0.3332335680233740  0.1662867811885675  0.8338097768642569
  0.0008353832149766  0.6700577602078113  0.9964822892526115
  0.1682376731756250  0.1635790137282171  0.6685288524167277
  0.2524988516156768  0.9192168336987194  0.7539289611300219
  0.4134032837342545  0.4165290541073361  0.9154089118392292
  0.4975850488282134  0.1638491959540502  0.9979577946984719
  0.0822414016748922  0.9227949164977431  0.5808450966719860
  0.4171660780795392  0.9188306136107727  0.9144238206568645
  0.5863105138049747  0.5855830326467739  0.3351292495871547
  0.5020588318201433  0.3263111076326695  0.2539665755480769
  0.5858481773106874  0.0834179359873914  0.3343276350200526
  0.7530493610056581  0.5778106825689306  0.4952157025832804
  0.8290898386142374  0.3249423380143313  0.0805480565156671
  0.9168113575759662  0.0856144932627743  0.1691143455127104
  0.5027946721873988  0.8376983504068676  0.2552683668832927
  0.6690569823339345  0.3317924438749671  0.4145032735230458
  0.7503864869954953  0.0833706705861417  0.4969451150484119
  0.6657598184357809  0.8339698250535506  0.4167326821339614
  0.8374210588219810  0.6681367536410647  0.3397442993536899
  0.6569728225930760  0.6711017262693062  0.1666460883152610
  0.7504680737989915  0.4097435314551490  0.2518651200015398
  0.8336223780114835  0.1642726155297964  0.3326274768206190
  0.5049834872110850  0.6698919673466506  0.4979568922601771
  0.6668941893714972  0.1614427435696015  0.1683308737712110
  0.7519391554087846  0.9171058244717116  0.2542814790166972
  0.9122889875625972  0.4148864765967630  0.4143674752101631
  0.9982222166746126  0.1624491322350821  0.4977970710556008
  0.5799543205518560  0.9211377300503614  0.0824409075057844
  0.9199761114125025  0.9177272252830946  0.4155296024481174
  0.5876693645343352  0.5848200821448160  0.8344309793591975
  0.5005882168103781  0.3270144500208048  0.7535434329278132
  0.5845584380284876  0.0843733063660537  0.8339325857951891
  0.7477277838970480  0.5805265451598629  0.9973950215066480
  0.8305147588917166  0.3232613659013737  0.5798465528689789
  0.9185020602978895  0.0845538684314491  0.6681206858784563
  0.5057739432391415  0.8399623504935221  0.7533590726889088
  0.6658953224594839  0.3336306602994910  0.9148323154464819
  0.7468715612785033  0.0861938751880089  0.9971836757794961
  0.6623834219399853  0.8353644504389095  0.9163884365889601
  0.8351057264532287  0.6705431505751349  0.8372816205364941
  0.6620870074305998  0.6707827656044287  0.6659923060800281
  0.7510749869762847  0.4081581626518656  0.7509289808726720
  0.8335611307050428  0.1657606019538491  0.8331814163673741
  0.5005600125697995  0.6705106422591740  0.9987051513106877
  0.6681799645870186  0.1612569733655675  0.6680013724847100
  0.7531501460390047  0.9180032616866072  0.7524487001482214
  0.9135948532235005  0.4161816128184412  0.9148048042110517
  0.9972573077878195  0.1635858150992888  0.9976031631753415
  0.5845477053824482  0.9194088776337850  0.5816017643832367
  0.9170462888796962  0.9180267261934461  0.9133921610641451
  0.3984792511348800  0.5844698986530332  0.1785355161079707
  0.3268028219843586  0.8386119374871015  0.0843326903198260
  0.0763583465255593  0.4164832176889917  0.0855906252592646
  0.4042550312189519  0.5837380990064887  0.6746806753320627
  0.3291534400032035  0.8376536961586183  0.5841278114080950
  0.0768727176395956  0.4188217553718658  0.5833341363919473
  0.9014871965716083  0.5836487586173718  0.1744649270967855
  0.8267695704876346  0.8378666203505389  0.0839416361542789
  0.5746783648957674  0.4176474400016090  0.0867721586877792
  0.9060822891604303  0.5809429838672528  0.6740839871408966
  0.8374560091562415  0.8310917404808364  0.5802970518279338
  0.5781523000346880  0.4169291689984647  0.5856049682402116
  0.2186077923861589  0.5773912440084956  0.2604128730568007
  0.0366312995630409  0.5992989047419002  0.1010727482148184
  0.1306733116373096  0.3221284773348074  0.1940904341794933
  0.2124279810622909  0.0842617003788817  0.2704664025982382
  0.3877602878987503  0.5784378710583624  0.4402532102460484
  0.4498521531479298  0.3239676915825171  0.0124658996798246
  0.0413161503017889  0.0852856451595443  0.1025595311149914
  0.1320938934964460  0.8396144525938283  0.1849586222196749
  0.2968416342441884  0.3316639348298693  0.3519459813024000
  0.3785392431823524  0.0828932441711387  0.4356599943233377
  0.4664544061810787  0.8367052105050021  0.0139311027063087
  0.2964725753553239  0.8425492283582585  0.3539731439532119
  0.4645922151162196  0.6781598873474906  0.2830588389890139
  0.2748839449572245  0.6628245894187188  0.0962586889335313
  0.3791711266661295  0.3940707387510898  0.1846237330474736
  0.4626282402862856  0.1640221475252304  0.2721983432358499
  0.1692887943363743  0.6665934796861848  0.4161612287584617
  0.2151813832790452  0.4140693323188600  0.0143933372283911
  0.2912507259748196  0.1605194858030501  0.1019293852527881
  0.3838565990876432  0.9250147191842686  0.1953200398106105
  0.0452441675275779  0.4167111030971427  0.3515031010687650
  0.1280122189991530  0.1694321230020748  0.4347355515478171
  0.1981809313530647  0.9277994807685843  0.0123336726445658
  0.0476746310181255  0.9212916248838852  0.3517228007380382
  0.2225153512216878  0.5834518486744358  0.7700531044234182
  0.0450378907359834  0.5861731472525875  0.6182421383286254
  0.1322290368079777  0.3234032000284657  0.6955063547747855
  0.2123814591749991  0.0831795402654549  0.7718863272874543
  0.3792834449353322  0.5832196628167807  0.9378098110925492
  0.4523471954909866  0.3221659399160046  0.5135020055745585
  0.0450486553280811  0.0892436575187006  0.6046389441718887
  0.1335072360156246  0.8401727850959659  0.6867190864887220
  0.2948921587960101  0.3322226337093568  0.8525190196545580
  0.3759166877609204  0.0821143321206748  0.9355101946009583
  0.4688659504255384  0.8361829018042215  0.5142826979063599
  0.2932509164027834  0.8345573670410360  0.8556704053661761
  0.4689581246843844  0.6791801656871996  0.7816085342312888
  0.2776374162251329  0.6614654421176454  0.5979480249941602
  0.3778400156909001  0.3960818301700328  0.6856197748049340
  0.4615719414011608  0.1648271404572199  0.7727152099190704
  0.1297389598013154  0.6661753564873649  0.9341297771862855
  0.2186541653471608  0.4132829899910178  0.5138331231418718
  0.2935005812232490  0.1609695606123225  0.6029137972294976
  0.3839257604050701  0.9246337416659998  0.6970957529533806
  0.0434450134744822  0.4194414350348694  0.8518479970324648
  0.1258496094417865  0.1703825634276797  0.9349023836456567
  0.2030539116860268  0.9283249489444145  0.5133216253119102
  0.0460771343770219  0.9213480414343920  0.8528111013483581
  0.7154045708367960  0.5824649785892433  0.2638316254704520
  0.5347495866841214  0.5999320054445505  0.1032628425587134
  0.6311677514438969  0.3226842210576351  0.1944694316484714
  0.7117923705671032  0.0812824562265604  0.2697810080875840
  0.8651442382760806  0.5689659852779272  0.4274334565466162
  0.9495096133109442  0.3239862162464959  0.0124985543106320
  0.5414833549631979  0.0863204336436638  0.1029016016751712
  0.6301071486955721  0.8394901318128163  0.1857642243584436
  0.7944703947303324  0.3269347917739012  0.3500924268213623
  0.8765588862375111  0.0833112047342581  0.4328473817772434
  0.9663015250183093  0.8358870552054043  0.0132379826109101
  0.7944691035403366  0.8334521085944004  0.3542827543174170
  0.9693967160444430  0.6776167823379637  0.2792640443731074
  0.7737684381420991  0.6621558304701480  0.0970758856820026
  0.8778744619166474  0.3958003142593398  0.1848983500758550
  0.9624242682248294  0.1638459587805770  0.2710123567591012
  0.6310878757903069  0.6669308445379301  0.4351020421769149
  0.7140601862376172  0.4141218114926986  0.0152040417580608
  0.7914797362039963  0.1605018132588398  0.1019629383943581
  0.8832552558449080  0.9233653890169222  0.1955319092083627
  0.5459979939077968  0.4171526808477424  0.3518986662160586
  0.6279339678739078  0.1678460115498055  0.4350712744985543
  0.6979813781342585  0.9277635553281485  0.0130266799765550
  0.5485907377752497  0.9209444782067209  0.3533511321785170
  0.7169604168241861  0.5816289731735864  0.7685697051763114
  0.5391121032846513  0.5998071598788499  0.6039628472445955
  0.6302043559107346  0.3223604606222636  0.6958985712229051
  0.7118535173894358  0.0821685738184001  0.7713840976718984
  0.8776242729699320  0.5826529447337094  0.9371739999151600
  0.9491901169719341  0.3216877490814127  0.5117437228908202
  0.5433227300393710  0.0842495087557893  0.6038667118388332
  0.6311475608938935  0.8386549494864113  0.6869105062718717
  0.7940999970706315  0.3314225975482685  0.8530802901085721
  0.8757424292997271  0.0814115885424016  0.9351209748220626
  0.9686681209981174  0.8550661772558570  0.5152434837991606
  0.7917742805824588  0.8341119038471376  0.8551471297691577
  0.9673828261012645  0.6797391500677179  0.7826487301749054
  0.7755244606112583  0.6568904794333150  0.5973825053995299
  0.8749155059878149  0.3922851190858481  0.6861317417272446
  0.9616371776108465  0.1645867161726358  0.7722290680810531
  0.6290466917916930  0.6665495813924593  0.9352565942152609
  0.7142750161489246  0.4099688354501865  0.5155136444165862
  0.7923835051792807  0.1588485401251774  0.6023743046990191
  0.8836589000264325  0.9229731436531523  0.6958221820648376
  0.5432575638471420  0.4192006844166087  0.8526651782155312
  0.6259028736571750  0.1699682046177671  0.9350661665942042
  0.7021642111368607  0.9251176544552706  0.5135907212754915
  0.5457294803463952  0.9215565555324190  0.8534926927789783
 
  0.00000000E+00  0.00000000E+00  0.00000000E+00
  0.00000000E+00  0.00000000E+00  0.00000000E+00
  0.00000000E+00  0.00000000E+00  0.00000000E+00
  0.00000000E+00  0.00000000E+00  0.00000000E+00
  0.00000000E+00  0.00000000E+00  0.00000000E+00
  0.00000000E+00  0.00000000E+00  0.00000000E+00
  0.00000000E+00  0.00000000E+00  0.00000000E+00
  0.00000000E+00  0.00000000E+00  0.00000000E+00
  0.00000000E+00  0.00000000E+00  0.00000000E+00
  0.00000000E+00  0.00000000E+00  0.00000000E+00
  0.00000000E+00  0.00000000E+00  0.00000000E+00
  0.00000000E+00  0.00000000E+00  0.00000000E+00
  0.00000000E+00  0.00000000E+00  0.00000000E+00
  0.00000000E+00  0.00000000E+00  0.00000000E+00
  0.00000000E+00  0.00000000E+00  0.00000000E+00
  0.00000000E+00  0.00000000E+00  0.00000000E+00
  0.00000000E+00  0.00000000E+00  0.00000000E+00
  0.00000000E+00  0.00000000E+00  0.00000000E+00
  0.00000000E+00  0.00000000E+00  0.00000000E+00
  0.00000000E+00  0.00000000E+00  0.00000000E+00
  0.00000000E+00  0.00000000E+00  0.00000000E+00
  0.00000000E+00  0.00000000E+00  0.00000000E+00
  0.00000000E+00  0.00000000E+00  0.00000000E+00
  0.00000000E+00  0.00000000E+00  0.00000000E+00
  0.00000000E+00  0.00000000E+00  0.00000000E+00
  0.00000000E+00  0.00000000E+00  0.00000000E+00
  0.00000000E+00  0.00000000E+00  0.00000000E+00
  0.00000000E+00  0.00000000E+00  0.00000000E+00
  0.00000000E+00  0.00000000E+00  0.00000000E+00
  0.00000000E+00  0.00000000E+00  0.00000000E+00
  0.00000000E+00  0.00000000E+00  0.00000000E+00
  0.00000000E+00  0.00000000E+00  0.00000000E+00
  0.00000000E+00  0.00000000E+00  0.00000000E+00
  0.00000000E+00  0.00000000E+00  0.00000000E+00
  0.00000000E+00  0.00000000E+00  0.00000000E+00
  0.00000000E+00  0.00000000E+00  0.00000000E+00
  0.00000000E+00  0.00000000E+00  0.00000000E+00
  0.00000000E+00  0.00000000E+00  0.00000000E+00
  0.00000000E+00  0.00000000E+00  0.00000000E+00
  0.00000000E+00  0.00000000E+00  0.00000000E+00
  0.00000000E+00  0.00000000E+00  0.00000000E+00
  0.00000000E+00  0.00000000E+00  0.00000000E+00
  0.00000000E+00  0.00000000E+00  0.00000000E+00
  0.00000000E+00  0.00000000E+00  0.00000000E+00
  0.00000000E+00  0.00000000E+00  0.00000000E+00
  0.00000000E+00  0.00000000E+00  0.00000000E+00
  0.00000000E+00  0.00000000E+00  0.00000000E+00
  0.00000000E+00  0.00000000E+00  0.00000000E+00
  0.00000000E+00  0.00000000E+00  0.00000000E+00
  0.00000000E+00  0.00000000E+00  0.00000000E+00
  0.00000000E+00  0.00000000E+00  0.00000000E+00
  0.00000000E+00  0.00000000E+00  0.00000000E+00
  0.00000000E+00  0.00000000E+00  0.00000000E+00
  0.00000000E+00  0.00000000E+00  0.00000000E+00
  0.00000000E+00  0.00000000E+00  0.00000000E+00
  0.00000000E+00  0.00000000E+00  0.00000000E+00
  0.00000000E+00  0.00000000E+00  0.00000000E+00
  0.00000000E+00  0.00000000E+00  0.00000000E+00
  0.00000000E+00  0.00000000E+00  0.00000000E+00
  0.00000000E+00  0.00000000E+00  0.00000000E+00
  0.00000000E+00  0.00000000E+00  0.00000000E+00
  0.00000000E+00  0.00000000E+00  0.00000000E+00
  0.00000000E+00  0.00000000E+00  0.00000000E+00
  0.00000000E+00  0.00000000E+00  0.00000000E+00
  0.00000000E+00  0.00000000E+00  0.00000000E+00
  0.00000000E+00  0.00000000E+00  0.00000000E+00
  0.00000000E+00  0.00000000E+00  0.00000000E+00
  0.00000000E+00  0.00000000E+00  0.00000000E+00
  0.00000000E+00  0.00000000E+00  0.00000000E+00
  0.00000000E+00  0.00000000E+00  0.00000000E+00
  0.00000000E+00  0.00000000E+00  0.00000000E+00
  0.00000000E+00  0.00000000E+00  0.00000000E+00
  0.00000000E+00  0.00000000E+00  0.00000000E+00
  0.00000000E+00  0.00000000E+00  0.00000000E+00
  0.00000000E+00  0.00000000E+00  0.00000000E+00
  0.00000000E+00  0.00000000E+00  0.00000000E+00
  0.00000000E+00  0.00000000E+00  0.00000000E+00
  0.00000000E+00  0.00000000E+00  0.00000000E+00
  0.00000000E+00  0.00000000E+00  0.00000000E+00
  0.00000000E+00  0.00000000E+00  0.00000000E+00
  0.00000000E+00  0.00000000E+00  0.00000000E+00
  0.00000000E+00  0.00000000E+00  0.00000000E+00
  0.00000000E+00  0.00000000E+00  0.00000000E+00
  0.00000000E+00  0.00000000E+00  0.00000000E+00
  0.00000000E+00  0.00000000E+00  0.00000000E+00
  0.00000000E+00  0.00000000E+00  0.00000000E+00
  0.00000000E+00  0.00000000E+00  0.00000000E+00
  0.00000000E+00  0.00000000E+00  0.00000000E+00
  0.00000000E+00  0.00000000E+00  0.00000000E+00
  0.00000000E+00  0.00000000E+00  0.00000000E+00
  0.00000000E+00  0.00000000E+00  0.00000000E+00
  0.00000000E+00  0.00000000E+00  0.00000000E+00
  0.00000000E+00  0.00000000E+00  0.00000000E+00
  0.00000000E+00  0.00000000E+00  0.00000000E+00
  0.00000000E+00  0.00000000E+00  0.00000000E+00
  0.00000000E+00  0.00000000E+00  0.00000000E+00
  0.00000000E+00  0.00000000E+00  0.00000000E+00
  0.00000000E+00  0.00000000E+00  0.00000000E+00
  0.00000000E+00  0.00000000E+00  0.00000000E+00
  0.00000000E+00  0.00000000E+00  0.00000000E+00
  0.00000000E+00  0.00000000E+00  0.00000000E+00
  0.00000000E+00  0.00000000E+00  0.00000000E+00
  0.00000000E+00  0.00000000E+00  0.00000000E+00
  0.00000000E+00  0.00000000E+00  0.00000000E+00
  0.00000000E+00  0.00000000E+00  0.00000000E+00
  0.00000000E+00  0.00000000E+00  0.00000000E+00
  0.00000000E+00  0.00000000E+00  0.00000000E+00
  0.00000000E+00  0.00000000E+00  0.00000000E+00
  0.00000000E+00  0.00000000E+00  0.00000000E+00
  0.00000000E+00  0.00000000E+00  0.00000000E+00
  0.00000000E+00  0.00000000E+00  0.00000000E+00
  0.00000000E+00  0.00000000E+00  0.00000000E+00
  0.00000000E+00  0.00000000E+00  0.00000000E+00
  0.00000000E+00  0.00000000E+00  0.00000000E+00
  0.00000000E+00  0.00000000E+00  0.00000000E+00
  0.00000000E+00  0.00000000E+00  0.00000000E+00
  0.00000000E+00  0.00000000E+00  0.00000000E+00
  0.00000000E+00  0.00000000E+00  0.00000000E+00
  0.00000000E+00  0.00000000E+00  0.00000000E+00
  0.00000000E+00  0.00000000E+00  0.00000000E+00
  0.00000000E+00  0.00000000E+00  0.00000000E+00
  0.00000000E+00  0.00000000E+00  0.00000000E+00
  0.00000000E+00  0.00000000E+00  0.00000000E+00
  0.00000000E+00  0.00000000E+00  0.00000000E+00
  0.00000000E+00  0.00000000E+00  0.00000000E+00
  0.00000000E+00  0.00000000E+00  0.00000000E+00
  0.00000000E+00  0.00000000E+00  0.00000000E+00
  0.00000000E+00  0.00000000E+00  0.00000000E+00
  0.00000000E+00  0.00000000E+00  0.00000000E+00
  0.00000000E+00  0.00000000E+00  0.00000000E+00
  0.00000000E+00  0.00000000E+00  0.00000000E+00
  0.00000000E+00  0.00000000E+00  0.00000000E+00
  0.00000000E+00  0.00000000E+00  0.00000000E+00
  0.00000000E+00  0.00000000E+00  0.00000000E+00
  0.00000000E+00  0.00000000E+00  0.00000000E+00
  0.00000000E+00  0.00000000E+00  0.00000000E+00
  0.00000000E+00  0.00000000E+00  0.00000000E+00
  0.00000000E+00  0.00000000E+00  0.00000000E+00
  0.00000000E+00  0.00000000E+00  0.00000000E+00
  0.00000000E+00  0.00000000E+00  0.00000000E+00
  0.00000000E+00  0.00000000E+00  0.00000000E+00
  0.00000000E+00  0.00000000E+00  0.00000000E+00
  0.00000000E+00  0.00000000E+00  0.00000000E+00
  0.00000000E+00  0.00000000E+00  0.00000000E+00
  0.00000000E+00  0.00000000E+00  0.00000000E+00
  0.00000000E+00  0.00000000E+00  0.00000000E+00
  0.00000000E+00  0.00000000E+00  0.00000000E+00
  0.00000000E+00  0.00000000E+00  0.00000000E+00
  0.00000000E+00  0.00000000E+00  0.00000000E+00
  0.00000000E+00  0.00000000E+00  0.00000000E+00
  0.00000000E+00  0.00000000E+00  0.00000000E+00
  0.00000000E+00  0.00000000E+00  0.00000000E+00
  0.00000000E+00  0.00000000E+00  0.00000000E+00
  0.00000000E+00  0.00000000E+00  0.00000000E+00
  0.00000000E+00  0.00000000E+00  0.00000000E+00
  0.00000000E+00  0.00000000E+00  0.00000000E+00
  0.00000000E+00  0.00000000E+00  0.00000000E+00
  0.00000000E+00  0.00000000E+00  0.00000000E+00
  0.00000000E+00  0.00000000E+00  0.00000000E+00
  0.00000000E+00  0.00000000E+00  0.00000000E+00
  0.00000000E+00  0.00000000E+00  0.00000000E+00
  0.00000000E+00  0.00000000E+00  0.00000000E+00
  0.00000000E+00  0.00000000E+00  0.00000000E+00
  0.00000000E+00  0.00000000E+00  0.00000000E+00
  0.00000000E+00  0.00000000E+00  0.00000000E+00
  0.00000000E+00  0.00000000E+00  0.00000000E+00
  0.00000000E+00  0.00000000E+00  0.00000000E+00
  0.00000000E+00  0.00000000E+00  0.00000000E+00
  0.00000000E+00  0.00000000E+00  0.00000000E+00
  0.00000000E+00  0.00000000E+00  0.00000000E+00
  0.00000000E+00  0.00000000E+00  0.00000000E+00
  0.00000000E+00  0.00000000E+00  0.00000000E+00
  0.00000000E+00  0.00000000E+00  0.00000000E+00
  0.00000000E+00  0.00000000E+00  0.00000000E+00
  0.00000000E+00  0.00000000E+00  0.00000000E+00
  0.00000000E+00  0.00000000E+00  0.00000000E+00
  0.00000000E+00  0.00000000E+00  0.00000000E+00
  0.00000000E+00  0.00000000E+00  0.00000000E+00
  0.00000000E+00  0.00000000E+00  0.00000000E+00
  0.00000000E+00  0.00000000E+00  0.00000000E+00
  0.00000000E+00  0.00000000E+00  0.00000000E+00
  0.00000000E+00  0.00000000E+00  0.00000000E+00
  0.00000000E+00  0.00000000E+00  0.00000000E+00
  0.00000000E+00  0.00000000E+00  0.00000000E+00
  0.00000000E+00  0.00000000E+00  0.00000000E+00
  0.00000000E+00  0.00000000E+00  0.00000000E+00
  0.00000000E+00  0.00000000E+00  0.00000000E+00
  0.00000000E+00  0.00000000E+00  0.00000000E+00
  0.00000000E+00  0.00000000E+00  0.00000000E+00
  0.00000000E+00  0.00000000E+00  0.00000000E+00
  0.00000000E+00  0.00000000E+00  0.00000000E+00
