supercell of POSCAR                     
   1.01189200000000     
     3.1482772356600002   -5.4762754812200001    9.9674464565599994
    -9.4511209497999999   -5.4731922780100000    0.0032121685426600
     6.3112884282600001  -10.9581161277000003   -9.9749049577999997
   Al   Sc   N 
    84    12    95
Direct
  0.0858606551167966  0.5823356887465110  0.3369283288325349
  0.0003303034753799  0.3264285650337797  0.2541618279887601
  0.0820896387623975  0.0845026188706512  0.3355216864283079
  0.2500644926814104  0.5803658682813264  0.4980970484722960
  0.3302686753349491  0.3255107784769464  0.0799832289899172
  0.4181730426857015  0.0898710261998943  0.1677183915768552
  0.9560523455740579  0.8378385953241505  0.2781950972971856
  0.1662504800357780  0.3331707110660034  0.4156401256941535
  0.2476612222687180  0.0855815694118149  0.4981535094795220
  0.1624722739909501  0.8341180651130031  0.4182401681758634
  0.3375474503259071  0.6688635524580775  0.3383234679029670
  0.1658385152072057  0.6357055982294924  0.1647470510056053
  0.2523653011667832  0.4047372643968359  0.2514476800789467
  0.3350794309212617  0.1703749947325051  0.3364931231550088
  0.0023924904957795  0.6695630328917872  0.4991904005885459
  0.1673394443336491  0.1616959964320799  0.1677239288090249
  0.2798614713875978  0.9376821910272497  0.2704967681275292
  0.4146236964965837  0.4162298504564959  0.4164215555757877
  0.4989369647716941  0.1634762014146105  0.4985601392495340
  0.0685559033088410  0.9417879818397807  0.0544812186473891
  0.4239158389443816  0.9176376750707220  0.4182199116283059
  0.0893591499147135  0.5840303776324518  0.8333497361761673
  0.0023158998956418  0.3268607981429881  0.7536062768068064
  0.0855492735357686  0.0847540207942146  0.8332651610172590
  0.2495642386986603  0.5807428026740027  0.9958932146831998
  0.3309817374927135  0.3241571561259278  0.5805897072914945
  0.4184270028186461  0.0863808713369281  0.6691245643580430
  0.0069618406422407  0.8396994714825610  0.7528233734631655
  0.1677373993785380  0.3345440641415180  0.9136259546453545
  0.2505736267564487  0.0898612033253130  0.9957539271019655
  0.1655657581878529  0.8331219163320043  0.9127283227654388
  0.3379449155317715  0.6699762938370029  0.8363917793485953
  0.1619704502355503  0.6709992162103049  0.6668833182686953
  0.2531083221258683  0.4087538954974335  0.7509003868146351
  0.3347318847954810  0.1662620316006098  0.8329120402507257
  0.0026004392958328  0.6694183086293961  0.9950288993114853
  0.1683820053077980  0.1617504523242914  0.6687524536965057
  0.2541662685700672  0.9193989053823870  0.7533915303688090
  0.4152113187073212  0.4159927162963868  0.9148259018356200
  0.4989355174820957  0.1640609012789653  0.9966997104685404
  0.0826447396498722  0.9212892426709516  0.5834613563680264
  0.4193650687921391  0.9186670477348926  0.9122418503867280
  0.5875110243540718  0.5824824915304276  0.3341665676219563
  0.5012869815623233  0.3271680781379374  0.2536464752820891
  0.5840004712407207  0.0858035223924389  0.3346003642099262
  0.7499017325333810  0.5789039273504244  0.4987233746547162
  0.8281595734425480  0.3241577099079151  0.0796272655544072
  0.9149884052838075  0.0872868570480492  0.1695060401064552
  0.5070074535435936  0.8371196775425602  0.2528175712113807
  0.6668949089376071  0.3330873190297723  0.4146946723250409
  0.7473568265351744  0.0878137998124942  0.4982734883116322
  0.6668191227763103  0.8347369644582656  0.4155564143391146
  0.8306774902685063  0.6613042286010895  0.3399094172625112
  0.6604837053430828  0.6706016774360748  0.1654835463010897
  0.7509063755126135  0.4067776541250367  0.2506337649440198
  0.8329815218687102  0.1663255887668313  0.3343427930344305
  0.5047179508172164  0.6694267148384512  0.4975302780219621
  0.6663265222513246  0.1625387181659690  0.1675633823811538
  0.7441174767644512  0.9231395012233676  0.2514994046809491
  0.9140275830980826  0.4141013879802173  0.4165641018040986
  0.9993206678329116  0.1644953929480621  0.4994671124907413
  0.5817776427720247  0.9217703965941269  0.0795915089524541
  0.9173745679562657  0.9231346921944237  0.4228435127292869
  0.5894005090433936  0.5837919314090954  0.8332907676056607
  0.5020677606482380  0.3268855933585328  0.7534544901284974
  0.5852100848438724  0.0846070460508415  0.8335003476922793
  0.7493293366706553  0.5803885936812208  0.9962363166379333
  0.8312614901997293  0.3242035526011833  0.5808764615585247
  0.9180979409606564  0.0868704458830436  0.6696840302153717
  0.5070315540907373  0.8397119708440997  0.7522895271612029
  0.6673002655440072  0.3333755419387288  0.9133378778239845
  0.7472385601004419  0.0861317757122535  0.9964618018522842
  0.6635703977054277  0.8346753636535880  0.9149721716147070
  0.8363469561055084  0.6698861070485194  0.8363477879296042
  0.6614760490302913  0.6700117292310779  0.6664636290630526
  0.7525189037478270  0.4083652485330305  0.7503634871071441
  0.8335711250198656  0.1663292034901502  0.8325602002038224
  0.5037758830328443  0.6699613869754444  0.9955910064791240
  0.6678508928770981  0.1616205280858338  0.6686190084080152
  0.7524522235769027  0.9193718283750769  0.7531729191098790
  0.9135083967072219  0.4172184305586200  0.9135187385711916
  0.9952365423570342  0.1686720843633722  0.9936941207432355
  0.5837010260953619  0.9209875097323206  0.5815077230805343
  0.9141987803316880  0.9179683379889525  0.9088269553332040
  0.4090694713092233  0.5822208573750274  0.1731424782497726
  0.3314873376328435  0.8397532709929578  0.0817980312842934
  0.0742227104790771  0.4107755489787834  0.0834948536389462
  0.4062552425490651  0.5824627006771195  0.6731934979279757
  0.3293283422990925  0.8380681999848321  0.5846870139248566
  0.0790584894246535  0.4154003633581098  0.5861769305083300
  0.9019859441053768  0.5815675421708093  0.1740282245415301
  0.8273249768628688  0.8378201912579684  0.0833138978050343
  0.5782426718887024  0.4151524009165612  0.0837448479207907
  0.9058967698442686  0.5823948144198141  0.6742369748916701
  0.8275960959304669  0.8377922501661814  0.5868127503955662
  0.5784867103901448  0.4139978457450155  0.5854763762423687
  0.2171600356923662  0.5802059229714587  0.2693963669506161
  0.0383624429982206  0.5979637043813710  0.1014909606124235
  0.1304346198997095  0.3226696280094998  0.1948527419023236
  0.2102368951562852  0.0841546487753675  0.2719725832371864
  0.3806584742483423  0.5834985434983437  0.4370551479282412
  0.4499571509306790  0.3236259494993163  0.0126844329943765
  0.0401908320318825  0.0873655061838861  0.1024306164556918
  0.2948410674300845  0.3327696047706894  0.3532747916001782
  0.3772271438081063  0.0798597697459016  0.4346852793550013
  0.4682828482702632  0.8358612814282580  0.0126356450007350
  0.2948807964057139  0.8326395779393607  0.3572917640400775
  0.4683236284640770  0.6772092483452425  0.2797915155296451
  0.2761236924522521  0.6651652043985976  0.0993867219020359
  0.3771368344867128  0.3964297029322523  0.1854415698032881
  0.4601152563652775  0.1644354070916663  0.2720634360349905
  0.1307570248310412  0.6662530674771006  0.4348341864450305
  0.2152621669363768  0.4153938664766201  0.0154619714359896
  0.2912829128043413  0.1607598483568964  0.1022449006887314
  0.3826666748140326  0.9241834932583259  0.1958257061496127
  0.0436204663573250  0.4177165768020998  0.3525455488492071
  0.1270801682469980  0.1692270935820019  0.4351316523562332
  0.2012416259289580  0.9279191710167893  0.0114257828890487
  0.0450317322729674  0.9211727393208875  0.3559777144300114
  0.2197939859688418  0.5821071178244352  0.7673661358717183
  0.0412923287151870  0.5983511234917387  0.6027728697463743
  0.1325634869693033  0.3230771377686210  0.6958636650027756
  0.2131156869103918  0.0826012861784591  0.7714828774422529
  0.3798863657711564  0.5835566143363522  0.9373803267953278
  0.4507510232563945  0.3230294028061067  0.5124301763556218
  0.0430802633907632  0.0857121191392309  0.6037813723118006
  0.1335924603935226  0.8392121792440932  0.6863129390833507
  0.2960546237468691  0.3319994958296135  0.8527151446641668
  0.3776284836343393  0.0814080916417055  0.9347515492890537
  0.4704961912761831  0.8344624174734534  0.5147705935378895
  0.2951634743605211  0.8334781027683036  0.8543234925160519
  0.4705942951299065  0.6779674112341780  0.7796231292546594
  0.2779099414438448  0.6617295144187310  0.5977259294179831
  0.3789825670710840  0.3956838196412491  0.6850711095409352
  0.4626633016527677  0.1648397551858309  0.7719595503766499
  0.1316603786428558  0.6667296669491236  0.9346184483294806
  0.2171431436871103  0.4140773830225726  0.5145150862051935
  0.2927856294170539  0.1601812754559262  0.6022518920407620
  0.3850315726795799  0.9243180441874017  0.6961238483378978
  0.0447576163232597  0.4195136849802381  0.8525125806658167
  0.1267996263247682  0.1704476686591363  0.9353189393627659
  0.1997572202259690  0.9267017271314657  0.5132038323588759
  0.0475626821843989  0.9211097942997384  0.8532897287587033
  0.7168573005164305  0.5806114807081855  0.2660305353756485
  0.5402245442897708  0.5990614772492080  0.1007928099885547
  0.6300212353814914  0.3233587993025822  0.1944147439011630
  0.7102686260959103  0.0849278936896667  0.2710462404720531
  0.8801577021189075  0.5812407529906878  0.4385571743711054
  0.9473410010873735  0.3245761790193171  0.0112692141418691
  0.5417158553912671  0.0852206111735967  0.1026624530344620
  0.6295223743342291  0.8388344631901958  0.1843373533206929
  0.7951447643026128  0.3317834105473096  0.3521223138504652
  0.8763659221577598  0.0844391020249375  0.4362656960326348
  0.9644191846237504  0.8347755535880808  0.0103189393148071
  0.8032926780939960  0.8340998574396181  0.3499320537208561
  0.9656657527213710  0.6728418217563004  0.2819299134387734
  0.7769940232797694  0.6616585295970481  0.0972173182957476
  0.8777508955638780  0.3948310391934129  0.1845564744640100
  0.9612773947994029  0.1637008822784338  0.2719852653843589
  0.6341828293799949  0.6667504929432368  0.4326926755024232
  0.7161889688631859  0.4142549914868141  0.0137571204532421
  0.7911237817277694  0.1601134210209665  0.1019823045037498
  0.8790829508068185  0.9254625150611062  0.1955806129041164
  0.5437155675006409  0.4184742565385449  0.3521652873493508
  0.6264081318801544  0.1696887392536439  0.4348490607100004
  0.6999268153122458  0.9268262576654891  0.0120536425599695
  0.5488441717598107  0.9198308098382526  0.3517172972681450
  0.7195656728943760  0.5815049441009847  0.7668017605320472
  0.5416271041196765  0.5975147364936575  0.6011970818996275
  0.6319808102737170  0.3228912339882370  0.6953814657831501
  0.7125141036007179  0.0825908548070728  0.7711443727916958
  0.8799208363540814  0.5835738909161208  0.9368053276980746
  0.9517079143835190  0.3238921394745944  0.5133998756195695
  0.5434213309561002  0.0849114268191755  0.6027707634115842
  0.6338579726482578  0.8389694021140031  0.6845786219537047
  0.7956175849725540  0.3317637523108559  0.8518722208942506
  0.8767686375935355  0.0805004959606705  0.9346510673871933
  0.9677837492600077  0.8351611932807330  0.5168138508750673
  0.7921847112280034  0.8326918216634880  0.8533518273682432
  0.9701753713308392  0.6784554612623168  0.7806194934099793
  0.7778508900166372  0.6606480008212401  0.5979012656119096
  0.8791653827463790  0.3954971003508589  0.6853039162723178
  0.9626813267272851  0.1650133832670448  0.7726438400645534
  0.6315785896565700  0.6662320840730800  0.9337642646886408
  0.7168346786395006  0.4128743618658604  0.5143657257786955
  0.7924291647674551  0.1604312343963201  0.6028027435432080
  0.8849341224917922  0.9249810002086036  0.6974447261953003
  0.5446070345086298  0.4192350402025724  0.8521889707486778
  0.6271920053680091  0.1700424905603057  0.9347027007250759
  0.7022157647097487  0.9268113332819610  0.5109354283420799
  0.5476453928051583  0.9209791329992711  0.8521279720307362
 
  0.00000000E+00  0.00000000E+00  0.00000000E+00
  0.00000000E+00  0.00000000E+00  0.00000000E+00
  0.00000000E+00  0.00000000E+00  0.00000000E+00
  0.00000000E+00  0.00000000E+00  0.00000000E+00
  0.00000000E+00  0.00000000E+00  0.00000000E+00
  0.00000000E+00  0.00000000E+00  0.00000000E+00
  0.00000000E+00  0.00000000E+00  0.00000000E+00
  0.00000000E+00  0.00000000E+00  0.00000000E+00
  0.00000000E+00  0.00000000E+00  0.00000000E+00
  0.00000000E+00  0.00000000E+00  0.00000000E+00
  0.00000000E+00  0.00000000E+00  0.00000000E+00
  0.00000000E+00  0.00000000E+00  0.00000000E+00
  0.00000000E+00  0.00000000E+00  0.00000000E+00
  0.00000000E+00  0.00000000E+00  0.00000000E+00
  0.00000000E+00  0.00000000E+00  0.00000000E+00
  0.00000000E+00  0.00000000E+00  0.00000000E+00
  0.00000000E+00  0.00000000E+00  0.00000000E+00
  0.00000000E+00  0.00000000E+00  0.00000000E+00
  0.00000000E+00  0.00000000E+00  0.00000000E+00
  0.00000000E+00  0.00000000E+00  0.00000000E+00
  0.00000000E+00  0.00000000E+00  0.00000000E+00
  0.00000000E+00  0.00000000E+00  0.00000000E+00
  0.00000000E+00  0.00000000E+00  0.00000000E+00
  0.00000000E+00  0.00000000E+00  0.00000000E+00
  0.00000000E+00  0.00000000E+00  0.00000000E+00
  0.00000000E+00  0.00000000E+00  0.00000000E+00
  0.00000000E+00  0.00000000E+00  0.00000000E+00
  0.00000000E+00  0.00000000E+00  0.00000000E+00
  0.00000000E+00  0.00000000E+00  0.00000000E+00
  0.00000000E+00  0.00000000E+00  0.00000000E+00
  0.00000000E+00  0.00000000E+00  0.00000000E+00
  0.00000000E+00  0.00000000E+00  0.00000000E+00
  0.00000000E+00  0.00000000E+00  0.00000000E+00
  0.00000000E+00  0.00000000E+00  0.00000000E+00
  0.00000000E+00  0.00000000E+00  0.00000000E+00
  0.00000000E+00  0.00000000E+00  0.00000000E+00
  0.00000000E+00  0.00000000E+00  0.00000000E+00
  0.00000000E+00  0.00000000E+00  0.00000000E+00
  0.00000000E+00  0.00000000E+00  0.00000000E+00
  0.00000000E+00  0.00000000E+00  0.00000000E+00
  0.00000000E+00  0.00000000E+00  0.00000000E+00
  0.00000000E+00  0.00000000E+00  0.00000000E+00
  0.00000000E+00  0.00000000E+00  0.00000000E+00
  0.00000000E+00  0.00000000E+00  0.00000000E+00
  0.00000000E+00  0.00000000E+00  0.00000000E+00
  0.00000000E+00  0.00000000E+00  0.00000000E+00
  0.00000000E+00  0.00000000E+00  0.00000000E+00
  0.00000000E+00  0.00000000E+00  0.00000000E+00
  0.00000000E+00  0.00000000E+00  0.00000000E+00
  0.00000000E+00  0.00000000E+00  0.00000000E+00
  0.00000000E+00  0.00000000E+00  0.00000000E+00
  0.00000000E+00  0.00000000E+00  0.00000000E+00
  0.00000000E+00  0.00000000E+00  0.00000000E+00
  0.00000000E+00  0.00000000E+00  0.00000000E+00
  0.00000000E+00  0.00000000E+00  0.00000000E+00
  0.00000000E+00  0.00000000E+00  0.00000000E+00
  0.00000000E+00  0.00000000E+00  0.00000000E+00
  0.00000000E+00  0.00000000E+00  0.00000000E+00
  0.00000000E+00  0.00000000E+00  0.00000000E+00
  0.00000000E+00  0.00000000E+00  0.00000000E+00
  0.00000000E+00  0.00000000E+00  0.00000000E+00
  0.00000000E+00  0.00000000E+00  0.00000000E+00
  0.00000000E+00  0.00000000E+00  0.00000000E+00
  0.00000000E+00  0.00000000E+00  0.00000000E+00
  0.00000000E+00  0.00000000E+00  0.00000000E+00
  0.00000000E+00  0.00000000E+00  0.00000000E+00
  0.00000000E+00  0.00000000E+00  0.00000000E+00
  0.00000000E+00  0.00000000E+00  0.00000000E+00
  0.00000000E+00  0.00000000E+00  0.00000000E+00
  0.00000000E+00  0.00000000E+00  0.00000000E+00
  0.00000000E+00  0.00000000E+00  0.00000000E+00
  0.00000000E+00  0.00000000E+00  0.00000000E+00
  0.00000000E+00  0.00000000E+00  0.00000000E+00
  0.00000000E+00  0.00000000E+00  0.00000000E+00
  0.00000000E+00  0.00000000E+00  0.00000000E+00
  0.00000000E+00  0.00000000E+00  0.00000000E+00
  0.00000000E+00  0.00000000E+00  0.00000000E+00
  0.00000000E+00  0.00000000E+00  0.00000000E+00
  0.00000000E+00  0.00000000E+00  0.00000000E+00
  0.00000000E+00  0.00000000E+00  0.00000000E+00
  0.00000000E+00  0.00000000E+00  0.00000000E+00
  0.00000000E+00  0.00000000E+00  0.00000000E+00
  0.00000000E+00  0.00000000E+00  0.00000000E+00
  0.00000000E+00  0.00000000E+00  0.00000000E+00
  0.00000000E+00  0.00000000E+00  0.00000000E+00
  0.00000000E+00  0.00000000E+00  0.00000000E+00
  0.00000000E+00  0.00000000E+00  0.00000000E+00
  0.00000000E+00  0.00000000E+00  0.00000000E+00
  0.00000000E+00  0.00000000E+00  0.00000000E+00
  0.00000000E+00  0.00000000E+00  0.00000000E+00
  0.00000000E+00  0.00000000E+00  0.00000000E+00
  0.00000000E+00  0.00000000E+00  0.00000000E+00
  0.00000000E+00  0.00000000E+00  0.00000000E+00
  0.00000000E+00  0.00000000E+00  0.00000000E+00
  0.00000000E+00  0.00000000E+00  0.00000000E+00
  0.00000000E+00  0.00000000E+00  0.00000000E+00
  0.00000000E+00  0.00000000E+00  0.00000000E+00
  0.00000000E+00  0.00000000E+00  0.00000000E+00
  0.00000000E+00  0.00000000E+00  0.00000000E+00
  0.00000000E+00  0.00000000E+00  0.00000000E+00
  0.00000000E+00  0.00000000E+00  0.00000000E+00
  0.00000000E+00  0.00000000E+00  0.00000000E+00
  0.00000000E+00  0.00000000E+00  0.00000000E+00
  0.00000000E+00  0.00000000E+00  0.00000000E+00
  0.00000000E+00  0.00000000E+00  0.00000000E+00
  0.00000000E+00  0.00000000E+00  0.00000000E+00
  0.00000000E+00  0.00000000E+00  0.00000000E+00
  0.00000000E+00  0.00000000E+00  0.00000000E+00
  0.00000000E+00  0.00000000E+00  0.00000000E+00
  0.00000000E+00  0.00000000E+00  0.00000000E+00
  0.00000000E+00  0.00000000E+00  0.00000000E+00
  0.00000000E+00  0.00000000E+00  0.00000000E+00
  0.00000000E+00  0.00000000E+00  0.00000000E+00
  0.00000000E+00  0.00000000E+00  0.00000000E+00
  0.00000000E+00  0.00000000E+00  0.00000000E+00
  0.00000000E+00  0.00000000E+00  0.00000000E+00
  0.00000000E+00  0.00000000E+00  0.00000000E+00
  0.00000000E+00  0.00000000E+00  0.00000000E+00
  0.00000000E+00  0.00000000E+00  0.00000000E+00
  0.00000000E+00  0.00000000E+00  0.00000000E+00
  0.00000000E+00  0.00000000E+00  0.00000000E+00
  0.00000000E+00  0.00000000E+00  0.00000000E+00
  0.00000000E+00  0.00000000E+00  0.00000000E+00
  0.00000000E+00  0.00000000E+00  0.00000000E+00
  0.00000000E+00  0.00000000E+00  0.00000000E+00
  0.00000000E+00  0.00000000E+00  0.00000000E+00
  0.00000000E+00  0.00000000E+00  0.00000000E+00
  0.00000000E+00  0.00000000E+00  0.00000000E+00
  0.00000000E+00  0.00000000E+00  0.00000000E+00
  0.00000000E+00  0.00000000E+00  0.00000000E+00
  0.00000000E+00  0.00000000E+00  0.00000000E+00
  0.00000000E+00  0.00000000E+00  0.00000000E+00
  0.00000000E+00  0.00000000E+00  0.00000000E+00
  0.00000000E+00  0.00000000E+00  0.00000000E+00
  0.00000000E+00  0.00000000E+00  0.00000000E+00
  0.00000000E+00  0.00000000E+00  0.00000000E+00
  0.00000000E+00  0.00000000E+00  0.00000000E+00
  0.00000000E+00  0.00000000E+00  0.00000000E+00
  0.00000000E+00  0.00000000E+00  0.00000000E+00
  0.00000000E+00  0.00000000E+00  0.00000000E+00
  0.00000000E+00  0.00000000E+00  0.00000000E+00
  0.00000000E+00  0.00000000E+00  0.00000000E+00
  0.00000000E+00  0.00000000E+00  0.00000000E+00
  0.00000000E+00  0.00000000E+00  0.00000000E+00
  0.00000000E+00  0.00000000E+00  0.00000000E+00
  0.00000000E+00  0.00000000E+00  0.00000000E+00
  0.00000000E+00  0.00000000E+00  0.00000000E+00
  0.00000000E+00  0.00000000E+00  0.00000000E+00
  0.00000000E+00  0.00000000E+00  0.00000000E+00
  0.00000000E+00  0.00000000E+00  0.00000000E+00
  0.00000000E+00  0.00000000E+00  0.00000000E+00
  0.00000000E+00  0.00000000E+00  0.00000000E+00
  0.00000000E+00  0.00000000E+00  0.00000000E+00
  0.00000000E+00  0.00000000E+00  0.00000000E+00
  0.00000000E+00  0.00000000E+00  0.00000000E+00
  0.00000000E+00  0.00000000E+00  0.00000000E+00
  0.00000000E+00  0.00000000E+00  0.00000000E+00
  0.00000000E+00  0.00000000E+00  0.00000000E+00
  0.00000000E+00  0.00000000E+00  0.00000000E+00
  0.00000000E+00  0.00000000E+00  0.00000000E+00
  0.00000000E+00  0.00000000E+00  0.00000000E+00
  0.00000000E+00  0.00000000E+00  0.00000000E+00
  0.00000000E+00  0.00000000E+00  0.00000000E+00
  0.00000000E+00  0.00000000E+00  0.00000000E+00
  0.00000000E+00  0.00000000E+00  0.00000000E+00
  0.00000000E+00  0.00000000E+00  0.00000000E+00
  0.00000000E+00  0.00000000E+00  0.00000000E+00
  0.00000000E+00  0.00000000E+00  0.00000000E+00
  0.00000000E+00  0.00000000E+00  0.00000000E+00
  0.00000000E+00  0.00000000E+00  0.00000000E+00
  0.00000000E+00  0.00000000E+00  0.00000000E+00
  0.00000000E+00  0.00000000E+00  0.00000000E+00
  0.00000000E+00  0.00000000E+00  0.00000000E+00
  0.00000000E+00  0.00000000E+00  0.00000000E+00
  0.00000000E+00  0.00000000E+00  0.00000000E+00
  0.00000000E+00  0.00000000E+00  0.00000000E+00
  0.00000000E+00  0.00000000E+00  0.00000000E+00
  0.00000000E+00  0.00000000E+00  0.00000000E+00
  0.00000000E+00  0.00000000E+00  0.00000000E+00
  0.00000000E+00  0.00000000E+00  0.00000000E+00
  0.00000000E+00  0.00000000E+00  0.00000000E+00
  0.00000000E+00  0.00000000E+00  0.00000000E+00
  0.00000000E+00  0.00000000E+00  0.00000000E+00
  0.00000000E+00  0.00000000E+00  0.00000000E+00
  0.00000000E+00  0.00000000E+00  0.00000000E+00
  0.00000000E+00  0.00000000E+00  0.00000000E+00
  0.00000000E+00  0.00000000E+00  0.00000000E+00
  0.00000000E+00  0.00000000E+00  0.00000000E+00
  0.00000000E+00  0.00000000E+00  0.00000000E+00
  0.00000000E+00  0.00000000E+00  0.00000000E+00
  0.00000000E+00  0.00000000E+00  0.00000000E+00
