supercell of POSCAR                     
   1.01189200000000     
     3.1482772356600002   -5.4762754812200001    9.9674464565599994
    -9.4511209497999999   -5.4731922780100000    0.0032121685426600
     6.3112884282600001  -10.9581161277000003   -9.9749049577999997
   Al   Sc   N 
    84    12    95
Direct
  0.0860945583975052  0.5838924491546535  0.3346286069560662
  0.9993699942379166  0.3266481371813725  0.2541824218143205
  0.0369201235347063  0.0842370283637948  0.3576097786216721
  0.2479939330719247  0.5805931134483870  0.4987011014146674
  0.3325837935637708  0.3273090868298141  0.0790410795041510
  0.4165898085635149  0.0875164979642520  0.1692536383647862
  0.0020242313011920  0.8392625585724716  0.2536197974707406
  0.1645559834332104  0.3343679435333797  0.4158327933154311
  0.2463224529889629  0.0852764258678604  0.4992185208295581
  0.1611714546787226  0.8335451748449216  0.4184186422081808
  0.3362417430792703  0.6653167454554492  0.3389769958601008
  0.1588406172864723  0.6682780999846685  0.1653591439288462
  0.2521635564444225  0.4081841893814371  0.2504230842116542
  0.3624838373231114  0.1870095526661544  0.3514080767473047
  0.0013289532840872  0.6682982085827618  0.4985559562685680
  0.1562141091721756  0.1770224322973846  0.1444409435392089
  0.2584727627660754  0.8824807453891594  0.2509143467457235
  0.4154741602929590  0.4209442990985792  0.4177198390790906
  0.5035064165478715  0.1620111336070309  0.5020365549981136
  0.0813922456588614  0.9195018895356668  0.0793713258467008
  0.4188479971542662  0.9166532236191856  0.4150068064787078
  0.0896503569064961  0.5838502684121991  0.8339155105997733
  0.0026673592227127  0.3267326386451828  0.7542222912857284
  0.0858377557453736  0.0838120913024341  0.8337893459167063
  0.2502121339743795  0.5810739371289202  0.9966165849190034
  0.3307735491307540  0.3236099618062696  0.5807110656110410
  0.4184629799780524  0.0858813087965657  0.6702117854839216
  0.0070046408670166  0.8394260288851854  0.7535732854839168
  0.1680439109191809  0.3335475273572044  0.9141767893288844
  0.2492918071476424  0.0838826567441515  0.9937595475790246
  0.1646219630758097  0.8342732253106462  0.9152499619011891
  0.3377032063246688  0.6701884659226351  0.8371533827620397
  0.1611507102632288  0.6710828669983258  0.6672208633837684
  0.2535321741574137  0.4083907832768858  0.7512456111881676
  0.3354380951099927  0.1660117513584609  0.8334814897213292
  0.0023817581491770  0.6709195992425592  0.9958095620810141
  0.1691431028107644  0.1614785122676921  0.6700527739156712
  0.2539435333210847  0.9186147480093894  0.7542195349606260
  0.4158807275237066  0.4161268422420932  0.9145502870632143
  0.4992497591458189  0.1634289588869535  0.9969173269158489
  0.0814082212709692  0.9200465538048448  0.5830016447331730
  0.4199860199114198  0.9177627210661399  0.9125660003774811
  0.5876710651555115  0.5849438329316641  0.3337088208943513
  0.5027399580892720  0.3301878669065488  0.2519230775695291
  0.5861206219788855  0.0819312701743442  0.3343562916906819
  0.7486414409523618  0.5802711774241658  0.4974959422591994
  0.8307011800579502  0.3242445302910255  0.0797423327296229
  0.9140201697399277  0.0854506593067867  0.1688143526156907
  0.5066645552839120  0.8392960709446413  0.2534534260496741
  0.6658009908373685  0.3349074714371483  0.4149225307983571
  0.7506302483849154  0.0860600767242303  0.4969519439720642
  0.6623778614131623  0.8337315227278168  0.4164751608275807
  0.8345093498605181  0.6686405196361704  0.3371777859385929
  0.6594176120259618  0.6713966501578952  0.1653558496078986
  0.7511089774797597  0.4099349101933782  0.2501233960859466
  0.8250117333125218  0.1700658812295543  0.3313272539158447
  0.5030144302821924  0.6705823035302316  0.4986797970145034
  0.6661104868033476  0.1616526014905801  0.1667170343353348
  0.7510545817193162  0.9178822208328370  0.2530057202278400
  0.9131288986697470  0.4164221228962077  0.4159148601873000
  0.9982469058587142  0.1671536492157912  0.5054808739853058
  0.5821502295335321  0.9213210689314693  0.0802705275850855
  0.9128401356026927  0.9090989534764091  0.4164256241641624
  0.5897692158712573  0.5840443375576641  0.8336111764717700
  0.5031223714356869  0.3264663610149654  0.7536037886123026
  0.5860717163032731  0.0842765609792622  0.8337211283094064
  0.7503011812256659  0.5807399381788727  0.9963001112289760
  0.8300164365903981  0.3258519297076177  0.5812864241930313
  0.9183396754891504  0.0857742094085054  0.6710187300775843
  0.5073469300020790  0.8394491896797120  0.7527140430196937
  0.6682515534239286  0.3331239865580216  0.9136873332555737
  0.7477803626553552  0.0860385636589243  0.9962593959740786
  0.6646012705532129  0.8347134826504004  0.9155866768848355
  0.8373541067016959  0.6702028136305245  0.8370911402662458
  0.6611585659768622  0.6701318244353374  0.6667978790925275
  0.7532873043893034  0.4085373760874234  0.7512140166276424
  0.8343133327647578  0.1658178739889564  0.8332062278196091
  0.5037489795449659  0.6696417694096155  0.9960999940627602
  0.6696866012046456  0.1611768712754653  0.6687982227873377
  0.7536894510512582  0.9185572256384447  0.7543806765614605
  0.9150848391431126  0.4163367658186132  0.9148045675362368
  0.9958454412210642  0.1637855964447184  0.9938074362681490
  0.5833578895000926  0.9205769700815551  0.5817848674894250
  0.9185302486548608  0.9178310857581167  0.9131664895415312
  0.4046466237368804  0.5828950818703191  0.1726751954165735
  0.3308981745894002  0.8381561897922722  0.0809050040532497
  0.0758341781371143  0.4203004552913043  0.0843460875544579
  0.4047891012706941  0.5829100216529071  0.6742680743405671
  0.3285640265717831  0.8383132585319260  0.5850212281718044
  0.0785315327012981  0.4161714688450004  0.5870931965189925
  0.9022827086192038  0.5837616405809385  0.1735467490510771
  0.8283364399506823  0.8379449809660215  0.0827473533948933
  0.5799034606475075  0.4163596674767831  0.0835151330180395
  0.9048461891598976  0.5827742067987600  0.6744323959721328
  0.8273484474582702  0.8373037218588024  0.5863104293623920
  0.5775566338849458  0.4153161427397265  0.5863260040284715
  0.2170755244625013  0.5811110887360300  0.2668887399033864
  0.0375818839000530  0.6008384910823636  0.1017462732599839
  0.1309515651298270  0.3192739990523989  0.1959224035239586
  0.3790934729095667  0.5839781682668388  0.4386687133202685
  0.4516537062187140  0.3236379515521648  0.0125781682549047
  0.0383688006127798  0.0832298923554973  0.1015318207505871
  0.1290897221068690  0.8394022861135824  0.1862520027560208
  0.2939613470013640  0.3349584858239751  0.3535942870503277
  0.3773105490810664  0.0800555594567882  0.4374192558026380
  0.4693051595732953  0.8356633001671909  0.0127157303678729
  0.2922766261804668  0.8312591792694874  0.3570664672473427
  0.4665773260290678  0.6786359273349518  0.2799636574047710
  0.2759577731662617  0.6635009052050549  0.0978870473627325
  0.3769304970319070  0.3951412877967186  0.1853002319405803
  0.4608506074765728  0.1658374951223180  0.2730589128474747
  0.1296503208854958  0.6652496245795660  0.4346621596715181
  0.2159296097957082  0.4141150123998472  0.0156066456436150
  0.2917617696511670  0.1602840816038693  0.1016712647453204
  0.3796487953998451  0.9265348440398498  0.1978243101803940
  0.0435341674152383  0.4177976395819485  0.3520109003679508
  0.1258137392032808  0.1706218063156300  0.4370555784336574
  0.2004631176975096  0.9267682853501285  0.0128291035904127
  0.0447042530413100  0.9183337393312598  0.3537143739549222
  0.2203105714750890  0.5816413507859082  0.7670192283041217
  0.0404939110248463  0.5984318408040963  0.6026786304058334
  0.1328822044364273  0.3228364976903748  0.6959078026837986
  0.2138075215579747  0.0823270570547479  0.7719682570265149
  0.3803730880565226  0.5827250460864803  0.9371040818009604
  0.4511171990426917  0.3214505215215269  0.5110901461159116
  0.0434983951072638  0.0849442749425577  0.6053083666081847
  0.1332595421999088  0.8393025137412806  0.6860135834561589
  0.2966707858321698  0.3315969334316051  0.8528042561200380
  0.3782892777716285  0.0808817974316014  0.9348908901472868
  0.4687074132284224  0.8364509002797860  0.5139667898974096
  0.2948270015856593  0.8333850511135665  0.8550076362849737
  0.4706336068201793  0.6780269033571784  0.7800540039296138
  0.2770072398992909  0.6620131668718727  0.5978681100828496
  0.3800427048260886  0.3950694882066799  0.6846299575699391
  0.4633449858395764  0.1647323411707831  0.7722622755925457
  0.1317092081451392  0.6660507890547436  0.9345116379314717
  0.2166830511742290  0.4133790568040467  0.5148592381662098
  0.2928111250222045  0.1597778587915357  0.6026023430017702
  0.3850111458389378  0.9239584810094641  0.6964217422920811
  0.0455444122062545  0.4188541310500256  0.8527444854021127
  0.1276113727466068  0.1696426732400127  0.9354918888849397
  0.1987968543805678  0.9269366971849635  0.5128310054817078
  0.0479779784755507  0.9208598770516332  0.8531737338592009
  0.7171310468119003  0.5822403380090506  0.2661570381504674
  0.5389344370866027  0.5985228031958982  0.1015028327841705
  0.6312086215494404  0.3231988010171563  0.1944388183079084
  0.7095068960221269  0.0820198777185084  0.2699090971729632
  0.8787457518985775  0.5827965134219752  0.4367425838445982
  0.9522679204380822  0.3235821670652470  0.0131301500808050
  0.5398925117193727  0.0851849302505912  0.1037380646304129
  0.6295839696983379  0.8396400388393559  0.1852531602943728
  0.7933337202344077  0.3337683252877355  0.3521075724447016
  0.8868252175090774  0.0816236464094899  0.4301574074318637
  0.9680593280529664  0.8359580098387553  0.0132999414430799
  0.7908881405029717  0.8322450634903689  0.3538606236819106
  0.9677577972067937  0.6777992108957491  0.2802387105676232
  0.7754977420242355  0.6621440869229147  0.0970320540772249
  0.8784757415413509  0.3958016558105086  0.1849401492791856
  0.9571386192399203  0.1653640327736809  0.2714330618898231
  0.6298095869387765  0.6657017100741669  0.4341143631987521
  0.7181498258981591  0.4139265808393517  0.0138617872009021
  0.7911534403001639  0.1605225928622858  0.1019231317911746
  0.8823467223856980  0.9240040663536675  0.1960623983873901
  0.5424265877879861  0.4193459507765454  0.3519218459924360
  0.6287359877699927  0.1689966959706624  0.4342025555054789
  0.6998125875059529  0.9276390664080552  0.0124727693582258
  0.5454041469651045  0.9205527063270793  0.3527573307036036
  0.7201632598989747  0.5816743188149545  0.7668013794577675
  0.5401187430492627  0.5982490105420837  0.6022235277775252
  0.6333582732772243  0.3225566290312685  0.6950165215991433
  0.7136195559574645  0.0824974552700084  0.7709142510916038
  0.8806398151149466  0.5829603180785554  0.9368505030089835
  0.9502339566191722  0.3256818171954166  0.5133589733610293
  0.5444390435435480  0.0845836606918766  0.6043641557785904
  0.6341794909612091  0.8389940525216488  0.6848981024478675
  0.7968021648313055  0.3314377485539595  0.8524385833363866
  0.8761665157234617  0.0807847161283064  0.9343835904323683
  0.9670211760972549  0.8342806099815903  0.5152690603818399
  0.7945390111237316  0.8332269425926526  0.8549207675780295
  0.9705788183103863  0.6778446684305308  0.7803500561381185
  0.7768748413884268  0.6605099071822309  0.5974178399057735
  0.8795748781521624  0.3953903201326696  0.6855079573111027
  0.9632165044478498  0.1648064692061837  0.7728725774307890
  0.6319011405859030  0.6659566757070507  0.9339680636654606
  0.7155201562331328  0.4136259725773499  0.5146331342313033
  0.7946164015139843  0.1599240360057550  0.6010493837400759
  0.8850580317981311  0.9240135581201230  0.6970282586819820
  0.5456495361018980  0.4189079178197730  0.8519991326161005
  0.6273622808808028  0.1699566677479467  0.9348558427322828
  0.7019441162423021  0.9279875120595520  0.5112509281239284
  0.5485354788592645  0.9208450988708563  0.8521971507064663
 
  0.00000000E+00  0.00000000E+00  0.00000000E+00
  0.00000000E+00  0.00000000E+00  0.00000000E+00
  0.00000000E+00  0.00000000E+00  0.00000000E+00
  0.00000000E+00  0.00000000E+00  0.00000000E+00
  0.00000000E+00  0.00000000E+00  0.00000000E+00
  0.00000000E+00  0.00000000E+00  0.00000000E+00
  0.00000000E+00  0.00000000E+00  0.00000000E+00
  0.00000000E+00  0.00000000E+00  0.00000000E+00
  0.00000000E+00  0.00000000E+00  0.00000000E+00
  0.00000000E+00  0.00000000E+00  0.00000000E+00
  0.00000000E+00  0.00000000E+00  0.00000000E+00
  0.00000000E+00  0.00000000E+00  0.00000000E+00
  0.00000000E+00  0.00000000E+00  0.00000000E+00
  0.00000000E+00  0.00000000E+00  0.00000000E+00
  0.00000000E+00  0.00000000E+00  0.00000000E+00
  0.00000000E+00  0.00000000E+00  0.00000000E+00
  0.00000000E+00  0.00000000E+00  0.00000000E+00
  0.00000000E+00  0.00000000E+00  0.00000000E+00
  0.00000000E+00  0.00000000E+00  0.00000000E+00
  0.00000000E+00  0.00000000E+00  0.00000000E+00
  0.00000000E+00  0.00000000E+00  0.00000000E+00
  0.00000000E+00  0.00000000E+00  0.00000000E+00
  0.00000000E+00  0.00000000E+00  0.00000000E+00
  0.00000000E+00  0.00000000E+00  0.00000000E+00
  0.00000000E+00  0.00000000E+00  0.00000000E+00
  0.00000000E+00  0.00000000E+00  0.00000000E+00
  0.00000000E+00  0.00000000E+00  0.00000000E+00
  0.00000000E+00  0.00000000E+00  0.00000000E+00
  0.00000000E+00  0.00000000E+00  0.00000000E+00
  0.00000000E+00  0.00000000E+00  0.00000000E+00
  0.00000000E+00  0.00000000E+00  0.00000000E+00
  0.00000000E+00  0.00000000E+00  0.00000000E+00
  0.00000000E+00  0.00000000E+00  0.00000000E+00
  0.00000000E+00  0.00000000E+00  0.00000000E+00
  0.00000000E+00  0.00000000E+00  0.00000000E+00
  0.00000000E+00  0.00000000E+00  0.00000000E+00
  0.00000000E+00  0.00000000E+00  0.00000000E+00
  0.00000000E+00  0.00000000E+00  0.00000000E+00
  0.00000000E+00  0.00000000E+00  0.00000000E+00
  0.00000000E+00  0.00000000E+00  0.00000000E+00
  0.00000000E+00  0.00000000E+00  0.00000000E+00
  0.00000000E+00  0.00000000E+00  0.00000000E+00
  0.00000000E+00  0.00000000E+00  0.00000000E+00
  0.00000000E+00  0.00000000E+00  0.00000000E+00
  0.00000000E+00  0.00000000E+00  0.00000000E+00
  0.00000000E+00  0.00000000E+00  0.00000000E+00
  0.00000000E+00  0.00000000E+00  0.00000000E+00
  0.00000000E+00  0.00000000E+00  0.00000000E+00
  0.00000000E+00  0.00000000E+00  0.00000000E+00
  0.00000000E+00  0.00000000E+00  0.00000000E+00
  0.00000000E+00  0.00000000E+00  0.00000000E+00
  0.00000000E+00  0.00000000E+00  0.00000000E+00
  0.00000000E+00  0.00000000E+00  0.00000000E+00
  0.00000000E+00  0.00000000E+00  0.00000000E+00
  0.00000000E+00  0.00000000E+00  0.00000000E+00
  0.00000000E+00  0.00000000E+00  0.00000000E+00
  0.00000000E+00  0.00000000E+00  0.00000000E+00
  0.00000000E+00  0.00000000E+00  0.00000000E+00
  0.00000000E+00  0.00000000E+00  0.00000000E+00
  0.00000000E+00  0.00000000E+00  0.00000000E+00
  0.00000000E+00  0.00000000E+00  0.00000000E+00
  0.00000000E+00  0.00000000E+00  0.00000000E+00
  0.00000000E+00  0.00000000E+00  0.00000000E+00
  0.00000000E+00  0.00000000E+00  0.00000000E+00
  0.00000000E+00  0.00000000E+00  0.00000000E+00
  0.00000000E+00  0.00000000E+00  0.00000000E+00
  0.00000000E+00  0.00000000E+00  0.00000000E+00
  0.00000000E+00  0.00000000E+00  0.00000000E+00
  0.00000000E+00  0.00000000E+00  0.00000000E+00
  0.00000000E+00  0.00000000E+00  0.00000000E+00
  0.00000000E+00  0.00000000E+00  0.00000000E+00
  0.00000000E+00  0.00000000E+00  0.00000000E+00
  0.00000000E+00  0.00000000E+00  0.00000000E+00
  0.00000000E+00  0.00000000E+00  0.00000000E+00
  0.00000000E+00  0.00000000E+00  0.00000000E+00
  0.00000000E+00  0.00000000E+00  0.00000000E+00
  0.00000000E+00  0.00000000E+00  0.00000000E+00
  0.00000000E+00  0.00000000E+00  0.00000000E+00
  0.00000000E+00  0.00000000E+00  0.00000000E+00
  0.00000000E+00  0.00000000E+00  0.00000000E+00
  0.00000000E+00  0.00000000E+00  0.00000000E+00
  0.00000000E+00  0.00000000E+00  0.00000000E+00
  0.00000000E+00  0.00000000E+00  0.00000000E+00
  0.00000000E+00  0.00000000E+00  0.00000000E+00
  0.00000000E+00  0.00000000E+00  0.00000000E+00
  0.00000000E+00  0.00000000E+00  0.00000000E+00
  0.00000000E+00  0.00000000E+00  0.00000000E+00
  0.00000000E+00  0.00000000E+00  0.00000000E+00
  0.00000000E+00  0.00000000E+00  0.00000000E+00
  0.00000000E+00  0.00000000E+00  0.00000000E+00
  0.00000000E+00  0.00000000E+00  0.00000000E+00
  0.00000000E+00  0.00000000E+00  0.00000000E+00
  0.00000000E+00  0.00000000E+00  0.00000000E+00
  0.00000000E+00  0.00000000E+00  0.00000000E+00
  0.00000000E+00  0.00000000E+00  0.00000000E+00
  0.00000000E+00  0.00000000E+00  0.00000000E+00
  0.00000000E+00  0.00000000E+00  0.00000000E+00
  0.00000000E+00  0.00000000E+00  0.00000000E+00
  0.00000000E+00  0.00000000E+00  0.00000000E+00
  0.00000000E+00  0.00000000E+00  0.00000000E+00
  0.00000000E+00  0.00000000E+00  0.00000000E+00
  0.00000000E+00  0.00000000E+00  0.00000000E+00
  0.00000000E+00  0.00000000E+00  0.00000000E+00
  0.00000000E+00  0.00000000E+00  0.00000000E+00
  0.00000000E+00  0.00000000E+00  0.00000000E+00
  0.00000000E+00  0.00000000E+00  0.00000000E+00
  0.00000000E+00  0.00000000E+00  0.00000000E+00
  0.00000000E+00  0.00000000E+00  0.00000000E+00
  0.00000000E+00  0.00000000E+00  0.00000000E+00
  0.00000000E+00  0.00000000E+00  0.00000000E+00
  0.00000000E+00  0.00000000E+00  0.00000000E+00
  0.00000000E+00  0.00000000E+00  0.00000000E+00
  0.00000000E+00  0.00000000E+00  0.00000000E+00
  0.00000000E+00  0.00000000E+00  0.00000000E+00
  0.00000000E+00  0.00000000E+00  0.00000000E+00
  0.00000000E+00  0.00000000E+00  0.00000000E+00
  0.00000000E+00  0.00000000E+00  0.00000000E+00
  0.00000000E+00  0.00000000E+00  0.00000000E+00
  0.00000000E+00  0.00000000E+00  0.00000000E+00
  0.00000000E+00  0.00000000E+00  0.00000000E+00
  0.00000000E+00  0.00000000E+00  0.00000000E+00
  0.00000000E+00  0.00000000E+00  0.00000000E+00
  0.00000000E+00  0.00000000E+00  0.00000000E+00
  0.00000000E+00  0.00000000E+00  0.00000000E+00
  0.00000000E+00  0.00000000E+00  0.00000000E+00
  0.00000000E+00  0.00000000E+00  0.00000000E+00
  0.00000000E+00  0.00000000E+00  0.00000000E+00
  0.00000000E+00  0.00000000E+00  0.00000000E+00
  0.00000000E+00  0.00000000E+00  0.00000000E+00
  0.00000000E+00  0.00000000E+00  0.00000000E+00
  0.00000000E+00  0.00000000E+00  0.00000000E+00
  0.00000000E+00  0.00000000E+00  0.00000000E+00
  0.00000000E+00  0.00000000E+00  0.00000000E+00
  0.00000000E+00  0.00000000E+00  0.00000000E+00
  0.00000000E+00  0.00000000E+00  0.00000000E+00
  0.00000000E+00  0.00000000E+00  0.00000000E+00
  0.00000000E+00  0.00000000E+00  0.00000000E+00
  0.00000000E+00  0.00000000E+00  0.00000000E+00
  0.00000000E+00  0.00000000E+00  0.00000000E+00
  0.00000000E+00  0.00000000E+00  0.00000000E+00
  0.00000000E+00  0.00000000E+00  0.00000000E+00
  0.00000000E+00  0.00000000E+00  0.00000000E+00
  0.00000000E+00  0.00000000E+00  0.00000000E+00
  0.00000000E+00  0.00000000E+00  0.00000000E+00
  0.00000000E+00  0.00000000E+00  0.00000000E+00
  0.00000000E+00  0.00000000E+00  0.00000000E+00
  0.00000000E+00  0.00000000E+00  0.00000000E+00
  0.00000000E+00  0.00000000E+00  0.00000000E+00
  0.00000000E+00  0.00000000E+00  0.00000000E+00
  0.00000000E+00  0.00000000E+00  0.00000000E+00
  0.00000000E+00  0.00000000E+00  0.00000000E+00
  0.00000000E+00  0.00000000E+00  0.00000000E+00
  0.00000000E+00  0.00000000E+00  0.00000000E+00
  0.00000000E+00  0.00000000E+00  0.00000000E+00
  0.00000000E+00  0.00000000E+00  0.00000000E+00
  0.00000000E+00  0.00000000E+00  0.00000000E+00
  0.00000000E+00  0.00000000E+00  0.00000000E+00
  0.00000000E+00  0.00000000E+00  0.00000000E+00
  0.00000000E+00  0.00000000E+00  0.00000000E+00
  0.00000000E+00  0.00000000E+00  0.00000000E+00
  0.00000000E+00  0.00000000E+00  0.00000000E+00
  0.00000000E+00  0.00000000E+00  0.00000000E+00
  0.00000000E+00  0.00000000E+00  0.00000000E+00
  0.00000000E+00  0.00000000E+00  0.00000000E+00
  0.00000000E+00  0.00000000E+00  0.00000000E+00
  0.00000000E+00  0.00000000E+00  0.00000000E+00
  0.00000000E+00  0.00000000E+00  0.00000000E+00
  0.00000000E+00  0.00000000E+00  0.00000000E+00
  0.00000000E+00  0.00000000E+00  0.00000000E+00
  0.00000000E+00  0.00000000E+00  0.00000000E+00
  0.00000000E+00  0.00000000E+00  0.00000000E+00
  0.00000000E+00  0.00000000E+00  0.00000000E+00
  0.00000000E+00  0.00000000E+00  0.00000000E+00
  0.00000000E+00  0.00000000E+00  0.00000000E+00
  0.00000000E+00  0.00000000E+00  0.00000000E+00
  0.00000000E+00  0.00000000E+00  0.00000000E+00
  0.00000000E+00  0.00000000E+00  0.00000000E+00
  0.00000000E+00  0.00000000E+00  0.00000000E+00
  0.00000000E+00  0.00000000E+00  0.00000000E+00
  0.00000000E+00  0.00000000E+00  0.00000000E+00
  0.00000000E+00  0.00000000E+00  0.00000000E+00
  0.00000000E+00  0.00000000E+00  0.00000000E+00
  0.00000000E+00  0.00000000E+00  0.00000000E+00
  0.00000000E+00  0.00000000E+00  0.00000000E+00
  0.00000000E+00  0.00000000E+00  0.00000000E+00
  0.00000000E+00  0.00000000E+00  0.00000000E+00
  0.00000000E+00  0.00000000E+00  0.00000000E+00
  0.00000000E+00  0.00000000E+00  0.00000000E+00
  0.00000000E+00  0.00000000E+00  0.00000000E+00
  0.00000000E+00  0.00000000E+00  0.00000000E+00
  0.00000000E+00  0.00000000E+00  0.00000000E+00
