supercell of POSCAR                     
   1.01189200000000     
     3.1482772356600002   -5.4762754812200001    9.9674464565599994
    -9.4511209497999999   -5.4731922780100000    0.0032121685426600
     6.3112884282600001  -10.9581161277000003   -9.9749049577999997
   Al   Sc   N 
    84    12    95
Direct
  0.0845024309231519  0.5834732551902349  0.3345620120127535
  0.9991562657579180  0.3276174274173371  0.2533770044323163
  0.0819963844420073  0.0860352378176472  0.3349359502036648
  0.2466954999753739  0.5792760717030987  0.4994990162836430
  0.3314411265151875  0.3244721933956356  0.0794229090322531
  0.4186035320845320  0.0891554490133331  0.1684731113528031
  0.0023239464618925  0.8389641611482901  0.2531301976568727
  0.1650130820908586  0.3335236062729763  0.4152445588104143
  0.2460525140406276  0.0876017185541471  0.4986816389404112
  0.1149477084412140  0.8344267024075478  0.4394136821656431
  0.3416236339873464  0.6324817128714102  0.3343179750973349
  0.1606910208822043  0.6706502569930350  0.1649503717002077
  0.2506309713882757  0.4050841113435482  0.2498660160028621
  0.3338200375706535  0.1669472880192018  0.3335979391997910
  0.9974317896404585  0.6596740239756969  0.4991078645971285
  0.1640336072381601  0.1668895836950455  0.1657286782323979
  0.2398457122194060  0.9385283689889548  0.2314276034805758
  0.4146088435241069  0.4107033842517183  0.4174408435308194
  0.5001522598800818  0.1676198194459957  0.5010942215347143
  0.0795596761271042  0.9217951404973306  0.0777625018131332
  0.4481150603852484  0.9387799113967432  0.4288145723865142
  0.0896099716424175  0.5835069875134309  0.8341723603010749
  0.0022866739322254  0.3262773497233624  0.7545775451092851
  0.0858746017835585  0.0840752459171554  0.8343674980635924
  0.2504961372848840  0.5799816566971998  0.9961279074075762
  0.3292700261363066  0.3246765391002100  0.5821604756475054
  0.4175953518928566  0.0859307884024645  0.6702984404900008
  0.0062410763671252  0.8390870043254850  0.7540098245820204
  0.1684514025452017  0.3327322159418742  0.9141086145760582
  0.2488169181790028  0.0860147490854857  0.9967845597427285
  0.1647486132667737  0.8345273329187322  0.9156283166706345
  0.3376935660017395  0.6700171559417640  0.8375210826627537
  0.1603756902254787  0.6702398529649614  0.6676297473576582
  0.2532502870582078  0.4086046381852952  0.7518392063351982
  0.3351410177394882  0.1654364278538694  0.8342069268032049
  0.0035389639429582  0.6698049708892881  0.9961934551893705
  0.1682861452435631  0.1621578886841633  0.6700746067930154
  0.2541423227521307  0.9187401614475732  0.7550469784879894
  0.4159798104923951  0.4156166805487800  0.9153235062338396
  0.4994800581110823  0.1630226496137155  0.9971016823155097
  0.0837172801214905  0.9253885916104423  0.5878696583727461
  0.4197896172955140  0.9183348535643390  0.9133603146042404
  0.5892992306845670  0.5830830862984655  0.3340434604861287
  0.5007491393997228  0.3276281584350187  0.2530102575401543
  0.5864165991693540  0.0881031189657051  0.3323396887472398
  0.7475530944382598  0.5793954284687217  0.4975267988798677
  0.8315427107996030  0.3241750961541570  0.0797178745511147
  0.9161225855077575  0.0863608255273007  0.1689350205851312
  0.5036584741553867  0.8395494535953247  0.2529620212812631
  0.6662868314491348  0.3337775520515009  0.4147685209285896
  0.7465402139365338  0.0871155604553380  0.4980135148755380
  0.6659344212497089  0.8322929034368087  0.4161693030789877
  0.8345508698425164  0.6689614735090075  0.3363297703989829
  0.6613303086953977  0.6712801634194179  0.1650573356767921
  0.7507141365170682  0.4084063498159978  0.2501652016155873
  0.8324775013926882  0.1670772388159918  0.3330264769569240
  0.5036537760815563  0.6689774007486946  0.4980377919841672
  0.6674350704205025  0.1619208332585487  0.1673322838172240
  0.7503656940260868  0.9187393790172607  0.2518594936379799
  0.9125518029190332  0.4140380247995736  0.4152254874823882
  0.9972064271627730  0.1637378590617260  0.4984038145577188
  0.5828393465717880  0.9208023341701619  0.0802416100079739
  0.9096669710513368  0.9228007627443660  0.4101352718220852
  0.5901830217365998  0.5835788013923775  0.8333639212350050
  0.5022902126267965  0.3264179545739125  0.7544600961883177
  0.5862980333456278  0.0839098426624076  0.8340829331924198
  0.7509992084308479  0.5803428922480052  0.9963767990457200
  0.8299090035845467  0.3240704212895267  0.5806474706113534
  0.9167979929634527  0.0872111112845388  0.6701540297045909
  0.5064835279264415  0.8391917897090408  0.7538140531416317
  0.6686696166364356  0.3328027948888490  0.9138360362576847
  0.7487830231819359  0.0861390648189797  0.9967791809868203
  0.6652848250188228  0.8350258127057018  0.9154031803804514
  0.8377706135703491  0.6701678613573634  0.8375016136906268
  0.6621046477664905  0.6718033335503932  0.6662909688585898
  0.7533141764695586  0.4074293889036156  0.7511981577677531
  0.8349285327964893  0.1652807353965571  0.8341033237255289
  0.5049933064361412  0.6694291769039538  0.9952925609367611
  0.6682339323361077  0.1615280146185327  0.6695213761844414
  0.7543852681618404  0.9182466830471299  0.7535819891255215
  0.9154027174547323  0.4156006135450312  0.9151836360942909
  0.9988042267968851  0.1636280584698753  0.9969800816621941
  0.5859194621651085  0.9204520882892666  0.5856982675446289
  0.9186847070330728  0.9183891039105490  0.9132138494213464
  0.4070186957172552  0.5816798461462724  0.1693414395566606
  0.3317207044384460  0.8362411728951500  0.0806531374793593
  0.0785087998681533  0.4167355409799072  0.0835028836296061
  0.4046436708444929  0.5832660537242589  0.6744667491260046
  0.3278388470354656  0.8379237499568148  0.5849458433901376
  0.0761933492025548  0.4131709101324290  0.5872572371646072
  0.9049133537363332  0.5825766085121202  0.1725038198419853
  0.8297460518513304  0.8379866778204388  0.0825256428619312
  0.5808611431794120  0.4145915214544473  0.0836636846489398
  0.9027167953982342  0.5825165002326713  0.6753199132346595
  0.8341843869961210  0.8383906254649673  0.5812043036434531
  0.5779055968981979  0.4160643017958847  0.5874755884881040
  0.2151127843431624  0.5810570223891958  0.2674554442386068
  0.0403644412179247  0.5994379679135591  0.1017123168427787
  0.1288335243520109  0.3249887734215662  0.1948258622811423
  0.2093082352026059  0.0868429470319967  0.2715559018038007
  0.3785331971529260  0.5804662725559311  0.4397743039977300
  0.4520685944549925  0.3231875426733595  0.0130773004788480
  0.0419965764290637  0.0849376655225242  0.1033405686309337
  0.1283786600933965  0.8382533601753792  0.1853316225991364
  0.2942470356829858  0.3318724298713320  0.3528075433967359
  0.3759243559899943  0.0835310206196169  0.4360544108098736
  0.4701734460428924  0.8349104394888656  0.0127061317183745
  0.4635975699323964  0.6784205160257883  0.2812753589622616
  0.2772885971793784  0.6617088030791578  0.0974789762417387
  0.3765585296813754  0.3963125196216879  0.1855379322216635
  0.4610113599669035  0.1648970325854648  0.2723221747354501
  0.1290494044262545  0.6646660501461739  0.4348957501813047
  0.2178781152802713  0.4138369564235163  0.0143261349872219
  0.2914328442411502  0.1604526505888941  0.1030943644306248
  0.3803332031791982  0.9239811273740415  0.1977169907722001
  0.0428433579896392  0.4187009378221660  0.3524990237498784
  0.1261496174751144  0.1693723016103306  0.4352226619792319
  0.2011026599914985  0.9265506065296165  0.0133384129469505
  0.0439473016764680  0.9220948710310850  0.3519992189686789
  0.2200892899964444  0.5819338585895935  0.7669707339775442
  0.0389899190028586  0.5973675933501781  0.6033038296830640
  0.1327328543686619  0.3229619948592557  0.6963867890688391
  0.2134693696868766  0.0821564884843653  0.7716443678154690
  0.3811738938182074  0.5827588244531015  0.9370104645650130
  0.4500989569530205  0.3241507707393367  0.5147016878277100
  0.0418603021971435  0.0873327865893359  0.6038911260553164
  0.1329904756572233  0.8388695091399683  0.6867083062010408
  0.2971919668498586  0.3313233935523812  0.8527138002631034
  0.3777763567903065  0.0808321023008460  0.9356171649328786
  0.4694163184356270  0.8350146365267079  0.5151156426534271
  0.2951124603258393  0.8333342725511130  0.8552381331502943
  0.4705301267337418  0.6774898645527685  0.7801451310109471
  0.2760479743888311  0.6622034135277346  0.5977269828001894
  0.3795222425620963  0.3960838064171952  0.6855898573319763
  0.4631780903077640  0.1641211319750653  0.7723921542662353
  0.1323611888581695  0.6660325750031362  0.9342657559745504
  0.2149080777907031  0.4132069928414950  0.5153056307484718
  0.2921781968317916  0.1601599687333959  0.6028553927781459
  0.3844675990609687  0.9232438730985493  0.6961296164750692
  0.0456636342465089  0.4186340672152227  0.8525575147246585
  0.1279490451731462  0.1694089002470989  0.9352772611256484
  0.1994579301859787  0.9288882123452282  0.5145061262149255
  0.0479173820401400  0.9207759672161586  0.8529283026779595
  0.7160222849306948  0.5823873930854688  0.2665710650579172
  0.5415398413516996  0.5981579058714175  0.1006095355415297
  0.6300064021372478  0.3229178563523902  0.1950709199877920
  0.7118564629792914  0.0826095865622420  0.2704756625275238
  0.8766412648667981  0.5813706962004304  0.4360161968660421
  0.9519110705595963  0.3234706665836953  0.0127515009708290
  0.5419693723190377  0.0843120616929198  0.1033126827786219
  0.6282008473560765  0.8384405297505282  0.1860748415486100
  0.7932960779838680  0.3319032618536042  0.3519689193256426
  0.8745948619098556  0.0828524722510693  0.4351099741882010
  0.9683611651926185  0.8351517217543716  0.0124695429152624
  0.7914677331340627  0.8329089333582615  0.3532375227369258
  0.9676467549533925  0.6777607284062483  0.2802209496184744
  0.7772822474591834  0.6620124324588161  0.0971485806038359
  0.8766387746287378  0.3962024948935436  0.1851528320574758
  0.9607685840901539  0.1650391986048731  0.2721362533402072
  0.6294830090078563  0.6658183047680595  0.4336591542145740
  0.7185977832976391  0.4138133384505593  0.0137117083354497
  0.7919148760607015  0.1607180266316064  0.1021345391218347
  0.8820909398924002  0.9238412778790988  0.1958707204638728
  0.5420832893373770  0.4193724329549156  0.3525306047469741
  0.6250051386079178  0.1695290701643088  0.4350292804585862
  0.7007494313703475  0.9270693328144475  0.0125002621750170
  0.5481169171902067  0.9213799898786021  0.3522095950530471
  0.7212573751747726  0.5816860786791196  0.7655386653804896
  0.5406398082880983  0.5997679624072916  0.6020546881538635
  0.6322851839472108  0.3226017919080633  0.6958094944212334
  0.7139465678006971  0.0817304932170870  0.7710702334198274
  0.8812314218856230  0.5827451188201849  0.9367713979232732
  0.9496437933333510  0.3234165158662421  0.5124099329588532
  0.5428635239941357  0.0845142048709420  0.6033737381067539
  0.6331684754070466  0.8386746478146634  0.6866484487495867
  0.7970737181269030  0.3311736902577422  0.8522362928453830
  0.8777498315238503  0.0810209149475583  0.9353352751939568
  0.9788980183954052  0.8348231362797236  0.5069030885811046
  0.7952317249539860  0.8335770285230311  0.8541317010068923
  0.9707532876708242  0.6774978167094403  0.7801818357602031
  0.7783095103222593  0.6646023764340754  0.5958545834829962
  0.8795762477564253  0.3948269881274271  0.6848446047697792
  0.9629306408119263  0.1639976033836348  0.7725483913744497
  0.6332570774041599  0.6659832951254572  0.9333074762962710
  0.7150367754419662  0.4135530202550015  0.5149269043585463
  0.7915916637228406  0.1601032273717635  0.6023280047307225
  0.8852334419302466  0.9226131175957164  0.6939698207904215
  0.5459751371154482  0.4188893452782025  0.8523548239459871
  0.6279440835055823  0.1696099150916837  0.9348693315397938
  0.7003259915799518  0.9259188313652729  0.5123663064161974
  0.5482024205496714  0.9207764848572708  0.8527146078566332
 
  0.00000000E+00  0.00000000E+00  0.00000000E+00
  0.00000000E+00  0.00000000E+00  0.00000000E+00
  0.00000000E+00  0.00000000E+00  0.00000000E+00
  0.00000000E+00  0.00000000E+00  0.00000000E+00
  0.00000000E+00  0.00000000E+00  0.00000000E+00
  0.00000000E+00  0.00000000E+00  0.00000000E+00
  0.00000000E+00  0.00000000E+00  0.00000000E+00
  0.00000000E+00  0.00000000E+00  0.00000000E+00
  0.00000000E+00  0.00000000E+00  0.00000000E+00
  0.00000000E+00  0.00000000E+00  0.00000000E+00
  0.00000000E+00  0.00000000E+00  0.00000000E+00
  0.00000000E+00  0.00000000E+00  0.00000000E+00
  0.00000000E+00  0.00000000E+00  0.00000000E+00
  0.00000000E+00  0.00000000E+00  0.00000000E+00
  0.00000000E+00  0.00000000E+00  0.00000000E+00
  0.00000000E+00  0.00000000E+00  0.00000000E+00
  0.00000000E+00  0.00000000E+00  0.00000000E+00
  0.00000000E+00  0.00000000E+00  0.00000000E+00
  0.00000000E+00  0.00000000E+00  0.00000000E+00
  0.00000000E+00  0.00000000E+00  0.00000000E+00
  0.00000000E+00  0.00000000E+00  0.00000000E+00
  0.00000000E+00  0.00000000E+00  0.00000000E+00
  0.00000000E+00  0.00000000E+00  0.00000000E+00
  0.00000000E+00  0.00000000E+00  0.00000000E+00
  0.00000000E+00  0.00000000E+00  0.00000000E+00
  0.00000000E+00  0.00000000E+00  0.00000000E+00
  0.00000000E+00  0.00000000E+00  0.00000000E+00
  0.00000000E+00  0.00000000E+00  0.00000000E+00
  0.00000000E+00  0.00000000E+00  0.00000000E+00
  0.00000000E+00  0.00000000E+00  0.00000000E+00
  0.00000000E+00  0.00000000E+00  0.00000000E+00
  0.00000000E+00  0.00000000E+00  0.00000000E+00
  0.00000000E+00  0.00000000E+00  0.00000000E+00
  0.00000000E+00  0.00000000E+00  0.00000000E+00
  0.00000000E+00  0.00000000E+00  0.00000000E+00
  0.00000000E+00  0.00000000E+00  0.00000000E+00
  0.00000000E+00  0.00000000E+00  0.00000000E+00
  0.00000000E+00  0.00000000E+00  0.00000000E+00
  0.00000000E+00  0.00000000E+00  0.00000000E+00
  0.00000000E+00  0.00000000E+00  0.00000000E+00
  0.00000000E+00  0.00000000E+00  0.00000000E+00
  0.00000000E+00  0.00000000E+00  0.00000000E+00
  0.00000000E+00  0.00000000E+00  0.00000000E+00
  0.00000000E+00  0.00000000E+00  0.00000000E+00
  0.00000000E+00  0.00000000E+00  0.00000000E+00
  0.00000000E+00  0.00000000E+00  0.00000000E+00
  0.00000000E+00  0.00000000E+00  0.00000000E+00
  0.00000000E+00  0.00000000E+00  0.00000000E+00
  0.00000000E+00  0.00000000E+00  0.00000000E+00
  0.00000000E+00  0.00000000E+00  0.00000000E+00
  0.00000000E+00  0.00000000E+00  0.00000000E+00
  0.00000000E+00  0.00000000E+00  0.00000000E+00
  0.00000000E+00  0.00000000E+00  0.00000000E+00
  0.00000000E+00  0.00000000E+00  0.00000000E+00
  0.00000000E+00  0.00000000E+00  0.00000000E+00
  0.00000000E+00  0.00000000E+00  0.00000000E+00
  0.00000000E+00  0.00000000E+00  0.00000000E+00
  0.00000000E+00  0.00000000E+00  0.00000000E+00
  0.00000000E+00  0.00000000E+00  0.00000000E+00
  0.00000000E+00  0.00000000E+00  0.00000000E+00
  0.00000000E+00  0.00000000E+00  0.00000000E+00
  0.00000000E+00  0.00000000E+00  0.00000000E+00
  0.00000000E+00  0.00000000E+00  0.00000000E+00
  0.00000000E+00  0.00000000E+00  0.00000000E+00
  0.00000000E+00  0.00000000E+00  0.00000000E+00
  0.00000000E+00  0.00000000E+00  0.00000000E+00
  0.00000000E+00  0.00000000E+00  0.00000000E+00
  0.00000000E+00  0.00000000E+00  0.00000000E+00
  0.00000000E+00  0.00000000E+00  0.00000000E+00
  0.00000000E+00  0.00000000E+00  0.00000000E+00
  0.00000000E+00  0.00000000E+00  0.00000000E+00
  0.00000000E+00  0.00000000E+00  0.00000000E+00
  0.00000000E+00  0.00000000E+00  0.00000000E+00
  0.00000000E+00  0.00000000E+00  0.00000000E+00
  0.00000000E+00  0.00000000E+00  0.00000000E+00
  0.00000000E+00  0.00000000E+00  0.00000000E+00
  0.00000000E+00  0.00000000E+00  0.00000000E+00
  0.00000000E+00  0.00000000E+00  0.00000000E+00
  0.00000000E+00  0.00000000E+00  0.00000000E+00
  0.00000000E+00  0.00000000E+00  0.00000000E+00
  0.00000000E+00  0.00000000E+00  0.00000000E+00
  0.00000000E+00  0.00000000E+00  0.00000000E+00
  0.00000000E+00  0.00000000E+00  0.00000000E+00
  0.00000000E+00  0.00000000E+00  0.00000000E+00
  0.00000000E+00  0.00000000E+00  0.00000000E+00
  0.00000000E+00  0.00000000E+00  0.00000000E+00
  0.00000000E+00  0.00000000E+00  0.00000000E+00
  0.00000000E+00  0.00000000E+00  0.00000000E+00
  0.00000000E+00  0.00000000E+00  0.00000000E+00
  0.00000000E+00  0.00000000E+00  0.00000000E+00
  0.00000000E+00  0.00000000E+00  0.00000000E+00
  0.00000000E+00  0.00000000E+00  0.00000000E+00
  0.00000000E+00  0.00000000E+00  0.00000000E+00
  0.00000000E+00  0.00000000E+00  0.00000000E+00
  0.00000000E+00  0.00000000E+00  0.00000000E+00
  0.00000000E+00  0.00000000E+00  0.00000000E+00
  0.00000000E+00  0.00000000E+00  0.00000000E+00
  0.00000000E+00  0.00000000E+00  0.00000000E+00
  0.00000000E+00  0.00000000E+00  0.00000000E+00
  0.00000000E+00  0.00000000E+00  0.00000000E+00
  0.00000000E+00  0.00000000E+00  0.00000000E+00
  0.00000000E+00  0.00000000E+00  0.00000000E+00
  0.00000000E+00  0.00000000E+00  0.00000000E+00
  0.00000000E+00  0.00000000E+00  0.00000000E+00
  0.00000000E+00  0.00000000E+00  0.00000000E+00
  0.00000000E+00  0.00000000E+00  0.00000000E+00
  0.00000000E+00  0.00000000E+00  0.00000000E+00
  0.00000000E+00  0.00000000E+00  0.00000000E+00
  0.00000000E+00  0.00000000E+00  0.00000000E+00
  0.00000000E+00  0.00000000E+00  0.00000000E+00
  0.00000000E+00  0.00000000E+00  0.00000000E+00
  0.00000000E+00  0.00000000E+00  0.00000000E+00
  0.00000000E+00  0.00000000E+00  0.00000000E+00
  0.00000000E+00  0.00000000E+00  0.00000000E+00
  0.00000000E+00  0.00000000E+00  0.00000000E+00
  0.00000000E+00  0.00000000E+00  0.00000000E+00
  0.00000000E+00  0.00000000E+00  0.00000000E+00
  0.00000000E+00  0.00000000E+00  0.00000000E+00
  0.00000000E+00  0.00000000E+00  0.00000000E+00
  0.00000000E+00  0.00000000E+00  0.00000000E+00
  0.00000000E+00  0.00000000E+00  0.00000000E+00
  0.00000000E+00  0.00000000E+00  0.00000000E+00
  0.00000000E+00  0.00000000E+00  0.00000000E+00
  0.00000000E+00  0.00000000E+00  0.00000000E+00
  0.00000000E+00  0.00000000E+00  0.00000000E+00
  0.00000000E+00  0.00000000E+00  0.00000000E+00
  0.00000000E+00  0.00000000E+00  0.00000000E+00
  0.00000000E+00  0.00000000E+00  0.00000000E+00
  0.00000000E+00  0.00000000E+00  0.00000000E+00
  0.00000000E+00  0.00000000E+00  0.00000000E+00
  0.00000000E+00  0.00000000E+00  0.00000000E+00
  0.00000000E+00  0.00000000E+00  0.00000000E+00
  0.00000000E+00  0.00000000E+00  0.00000000E+00
  0.00000000E+00  0.00000000E+00  0.00000000E+00
  0.00000000E+00  0.00000000E+00  0.00000000E+00
  0.00000000E+00  0.00000000E+00  0.00000000E+00
  0.00000000E+00  0.00000000E+00  0.00000000E+00
  0.00000000E+00  0.00000000E+00  0.00000000E+00
  0.00000000E+00  0.00000000E+00  0.00000000E+00
  0.00000000E+00  0.00000000E+00  0.00000000E+00
  0.00000000E+00  0.00000000E+00  0.00000000E+00
  0.00000000E+00  0.00000000E+00  0.00000000E+00
  0.00000000E+00  0.00000000E+00  0.00000000E+00
  0.00000000E+00  0.00000000E+00  0.00000000E+00
  0.00000000E+00  0.00000000E+00  0.00000000E+00
  0.00000000E+00  0.00000000E+00  0.00000000E+00
  0.00000000E+00  0.00000000E+00  0.00000000E+00
  0.00000000E+00  0.00000000E+00  0.00000000E+00
  0.00000000E+00  0.00000000E+00  0.00000000E+00
  0.00000000E+00  0.00000000E+00  0.00000000E+00
  0.00000000E+00  0.00000000E+00  0.00000000E+00
  0.00000000E+00  0.00000000E+00  0.00000000E+00
  0.00000000E+00  0.00000000E+00  0.00000000E+00
  0.00000000E+00  0.00000000E+00  0.00000000E+00
  0.00000000E+00  0.00000000E+00  0.00000000E+00
  0.00000000E+00  0.00000000E+00  0.00000000E+00
  0.00000000E+00  0.00000000E+00  0.00000000E+00
  0.00000000E+00  0.00000000E+00  0.00000000E+00
  0.00000000E+00  0.00000000E+00  0.00000000E+00
  0.00000000E+00  0.00000000E+00  0.00000000E+00
  0.00000000E+00  0.00000000E+00  0.00000000E+00
  0.00000000E+00  0.00000000E+00  0.00000000E+00
  0.00000000E+00  0.00000000E+00  0.00000000E+00
  0.00000000E+00  0.00000000E+00  0.00000000E+00
  0.00000000E+00  0.00000000E+00  0.00000000E+00
  0.00000000E+00  0.00000000E+00  0.00000000E+00
  0.00000000E+00  0.00000000E+00  0.00000000E+00
  0.00000000E+00  0.00000000E+00  0.00000000E+00
  0.00000000E+00  0.00000000E+00  0.00000000E+00
  0.00000000E+00  0.00000000E+00  0.00000000E+00
  0.00000000E+00  0.00000000E+00  0.00000000E+00
  0.00000000E+00  0.00000000E+00  0.00000000E+00
  0.00000000E+00  0.00000000E+00  0.00000000E+00
  0.00000000E+00  0.00000000E+00  0.00000000E+00
  0.00000000E+00  0.00000000E+00  0.00000000E+00
  0.00000000E+00  0.00000000E+00  0.00000000E+00
  0.00000000E+00  0.00000000E+00  0.00000000E+00
  0.00000000E+00  0.00000000E+00  0.00000000E+00
  0.00000000E+00  0.00000000E+00  0.00000000E+00
  0.00000000E+00  0.00000000E+00  0.00000000E+00
  0.00000000E+00  0.00000000E+00  0.00000000E+00
  0.00000000E+00  0.00000000E+00  0.00000000E+00
  0.00000000E+00  0.00000000E+00  0.00000000E+00
  0.00000000E+00  0.00000000E+00  0.00000000E+00
  0.00000000E+00  0.00000000E+00  0.00000000E+00
  0.00000000E+00  0.00000000E+00  0.00000000E+00
  0.00000000E+00  0.00000000E+00  0.00000000E+00
  0.00000000E+00  0.00000000E+00  0.00000000E+00
  0.00000000E+00  0.00000000E+00  0.00000000E+00
  0.00000000E+00  0.00000000E+00  0.00000000E+00
  0.00000000E+00  0.00000000E+00  0.00000000E+00
