supercell of POSCAR                     
   1.01189200000000     
     3.1482772356600002   -5.4762754812200001    9.9674464565599994
    -9.4511209497999999   -5.4731922780100000    0.0032121685426600
     6.3112884282600001  -10.9581161277000003   -9.9749049577999997
   Al   Sc   N 
    83    12    96
Direct
  0.0920858312070223  0.5850342107875335  0.3340706323628453
  0.0026601641046398  0.3267765408153736  0.2540366057209766
  0.0858365961369785  0.0840131190840410  0.3349299505707748
  0.2512054803923931  0.5815884279500239  0.4967442561814011
  0.3295172898408083  0.3235525297235142  0.0802837943502794
  0.4168095473867695  0.0858926159156823  0.1705457537327106
  0.0035783660871331  0.8418551031308539  0.2541303315549612
  0.1697760564488036  0.3322968944807485  0.4138430260242387
  0.2508029523705346  0.0863921130054237  0.4949225564446564
  0.1656786385239357  0.8351257554828209  0.4136577060659405
  0.3374806910375696  0.6724164201908991  0.3378832223157815
  0.1592508393890952  0.6726231002810579  0.1677039926359640
  0.2522332527767688  0.4073529846905757  0.2502456614516433
  0.3356199570911045  0.1628959971404882  0.3363956627699523
  0.0037520958546580  0.6701721062706696  0.4980007799591419
  0.1659202671250384  0.1596734218263762  0.1692828393480639
  0.2524228345915702  0.9169218082278618  0.2561156722760742
  0.4151855347612425  0.4153061844914276  0.4158143040937219
  0.4964257909000409  0.1617829237364816  0.4967861844333612
  0.0773660465600798  0.9210879117041912  0.0816361172929092
  0.0871574140832081  0.5852444697912631  0.8341885119628429
  0.0009495175266778  0.3271261463304143  0.7538771941126541
  0.0835016150927714  0.0838059197300751  0.8347217281928820
  0.2475963289748719  0.5815327739386618  0.9973791935622884
  0.3329377574176249  0.3235087512944688  0.5797816754699667
  0.4170256053715633  0.0857978532254435  0.6684518767820791
  0.0049588302319137  0.8402616650748200  0.7536696531137750
  0.1658536511215942  0.3335056657366451  0.9145216435912502
  0.2459720832731378  0.0859809055028720  0.9975281974642343
  0.1625222936004747  0.8354321092199157  0.9158428592351129
  0.3353787519491505  0.6703346141964204  0.8361418607709723
  0.1625674274428377  0.6732510304867603  0.6653900248187128
  0.2515676959633097  0.4096546010875883  0.7507375650607955
  0.3324042726267749  0.1653048698577848  0.8336103196512070
  0.9995169647338216  0.6715958320840798  0.9985640406745659
  0.1674192371022087  0.1616686841131880  0.6685322935936213
  0.2524736822687501  0.9182931515822474  0.7517347235467682
  0.4127478772447617  0.4161156570160855  0.9152736343657040
  0.4968552288274211  0.1628518839040680  0.9979444839941607
  0.0837199668921329  0.9212061151165827  0.5810769291389164
  0.4160130620395677  0.9176953368464140  0.9134340997298551
  0.5897433248127157  0.5839602229853256  0.3341653372213642
  0.5015695772309456  0.3262745636063329  0.2539912177307855
  0.5855734402555370  0.0844379218074565  0.3347104091643516
  0.7514033997407665  0.5795719186923947  0.4971883608146541
  0.8299160573873365  0.3246444212463473  0.0805200717674097
  0.9137498417627583  0.0844173540147892  0.1717805078643195
  0.5050660932769517  0.8394634505387444  0.2540086575959108
  0.6686265807178202  0.3325978079429177  0.4144146655197218
  0.7481772513669185  0.0864562766508001  0.4973941270283291
  0.6638054586026243  0.8338279707819041  0.4183412710537269
  0.8397549584473296  0.6699840702054729  0.3384765941499666
  0.6593236976560632  0.6698416056563801  0.1657701508998386
  0.7526811994215592  0.4088040385258793  0.2512565158975590
  0.8356771420343421  0.1666334899736697  0.3340559264878138
  0.5056318697246809  0.6682448487323498  0.4982477982227138
  0.6673204635091494  0.1630162463738145  0.1685647725307291
  0.7341993921542880  0.9189550987249078  0.2643980292809047
  0.9168591381265614  0.4159249405352838  0.4158325123172730
  0.9995885679470504  0.1629604607828412  0.4979635092497716
  0.5788497922919191  0.9209224029407750  0.0808817971578932
  0.9193099698459903  0.9176791073027530  0.4154342100083142
  0.5870578220450398  0.5846269070766184  0.8337367321384477
  0.5001690549289748  0.3269217170923326  0.7536470524084962
  0.5833329706046868  0.0839917753702224  0.8340477459743099
  0.7480011574003171  0.5805700082853349  0.9972167501379587
  0.8328464701350242  0.3239374996782942  0.5805738085195316
  0.9175089153604077  0.0865389323996837  0.6697048025342482
  0.5051063614143700  0.8399707590823482  0.7511254276258938
  0.6657342266440764  0.3333115304433605  0.9144709600042944
  0.7461688653134289  0.0864840942104479  0.9973622814783951
  0.6621375601078157  0.8353178077586563  0.9160213047381731
  0.8350732779942192  0.6704312000440424  0.8376053335893801
  0.6612081970530141  0.6709687731153977  0.6660366469413717
  0.7514333472067776  0.4087042772293259  0.7517682455927499
  0.8330392896617198  0.1657675941896315  0.8343933426467700
  0.5000948581106357  0.6704941691792499  0.9975202025509944
  0.6672842503474996  0.1605484536477917  0.6690862238825233
  0.7529119980015508  0.9186443467260617  0.7551040602184216
  0.9134985151900423  0.4164300497504598  0.9158610610791413
  0.9966890432115250  0.1633761738493220  0.9989826435440250
  0.5831982251738310  0.9198668576221323  0.5816166075553113
  0.9157339758280045  0.9177322492282443  0.9159314758837169
  0.4023219237160234  0.5830177273400139  0.1745595022015323
  0.3249804386605391  0.8397300563452035  0.0849805637382204
  0.0774282332512399  0.4158047917170720  0.0859225925595197
  0.4071376066698775  0.5838726472263573  0.6708027099499105
  0.3360381946716657  0.8416616176586231  0.5750327361348297
  0.0812454473595352  0.4157665129620511  0.5847315907509838
  0.9044296049379525  0.5832931128792467  0.1744729104229847
  0.8213844771540622  0.8400591638095563  0.0890980068135292
  0.5759339880365175  0.4151903055188981  0.0852365043039427
  0.9059815063701890  0.5824900919564087  0.6738047597510999
  0.8295286587542279  0.8385457435888881  0.5850680374406636
  0.5830378850189675  0.4114599894519912  0.5856936873289271
  0.2195907645684088  0.5775680184489005  0.2643302725966947
  0.0392689899429968  0.5983886532434965  0.1018492578875652
  0.1314081097142008  0.3221564403618729  0.1943319634973051
  0.2121719078675994  0.0826503818606241  0.2710548713489302
  0.3813662058161071  0.5819569767386739  0.4369192065401251
  0.4490564906800287  0.3231513955452527  0.0119061927135462
  0.0392636362058099  0.0858112880652868  0.1037293798252819
  0.1284982687242078  0.8410478684997216  0.1829497183067375
  0.2965294544139496  0.3333635112748183  0.3509321701782824
  0.3736120370343201  0.0985516748055986  0.4378694706990771
  0.4642420602638708  0.8359394041035983  0.0130670379818127
  0.2760389340659657  0.8199112716957799  0.3453093934880371
  0.4708565711733783  0.6762924189354393  0.2795552563992203
  0.2753281727688304  0.6623824875388209  0.0972701090289760
  0.3791504268132044  0.3948193238265318  0.1839548698698863
  0.4626220946986592  0.1648208583619564  0.2719356000487494
  0.1300392944444226  0.6638489250703614  0.4359991410998916
  0.2156910088571706  0.4142362724993802  0.0142989640984865
  0.2906502345150557  0.1598361578478134  0.1021870539705176
  0.3833700305548859  0.9239580195179542  0.1960652317808993
  0.0460233035390516  0.4190197541117016  0.3521803914454154
  0.1253173961756389  0.1711051467736127  0.4350888637324246
  0.1961813734948095  0.9278106207121084  0.0120998137454507
  0.0450649232703881  0.9225693217020918  0.3536709013376651
  0.2169367077762203  0.5826765684345645  0.7673206192947788
  0.0412455469971889  0.5979733146720037  0.6031362911819187
  0.1305653664107069  0.3236129314458935  0.6959805916529902
  0.2106622520691062  0.0819448232078273  0.7718451277949256
  0.3776232315563206  0.5833200147705071  0.9363538437948691
  0.4543040019477971  0.3270937827739004  0.5143571697487843
  0.0419268257074208  0.0857803484095356  0.6042969311096016
  0.1298755208606579  0.8394379277478521  0.6868017638062582
  0.2939785112407662  0.3317439319762130  0.8523402082594131
  0.3749952649837098  0.0810932533041964  0.9351781709356146
  0.4812228070581739  0.8236061737418297  0.5249034716361436
  0.2918563040818825  0.8335662438474642  0.8539369384551563
  0.4681833635527894  0.6778424182923430  0.7793968397377071
  0.2782258627732830  0.6641746559481021  0.5969546964884884
  0.3770759361401588  0.3967035157958847  0.6859961955054104
  0.4606115464832072  0.1646041987602587  0.7726154969456758
  0.1284567407974535  0.6670991789760947  0.9347812521118612
  0.2188900890875658  0.4136793619038883  0.5143333223813613
  0.2913690096698147  0.1613651180058113  0.6039478070281561
  0.3826037760223642  0.9236471148866841  0.6945244399905803
  0.0432769448844610  0.4196605870831505  0.8526172406081116
  0.1252291843417694  0.1703164684926222  0.9353623780839442
  0.1974866160038715  0.9290315995224887  0.5113154832770732
  0.0444152452080360  0.9208178878405207  0.8540409241355960
  0.7206405637998969  0.5820301133160726  0.2665175597194818
  0.5378044920072114  0.5974545161922435  0.1012904264807517
  0.6314639393934129  0.3254310663402435  0.1947192061205314
  0.7152072569235699  0.0915724940718903  0.2702178345754547
  0.8819896533707094  0.5816300530256555  0.4378907033702788
  0.9501458396531035  0.3243623068981236  0.0127266442070635
  0.5411802328302002  0.0863954580196236  0.1030940910372067
  0.6314969255150871  0.8363928561103435  0.1799804295977481
  0.7976245458648066  0.3331233077576456  0.3526982942067036
  0.8771635486911862  0.0822309507413905  0.4360047306813470
  0.9620617102528612  0.8360640480513268  0.0155425826873739
  0.8001269753502669  0.8290811083416543  0.3594023883046873
  0.9718007546681164  0.6770331004416903  0.2798396937440586
  0.7763504421103420  0.6593415224022081  0.0972620268424080
  0.8790149851403513  0.3955097031678818  0.1850049976000747
  0.9635253042373364  0.1656013987824423  0.2725917820088171
  0.6334660427964138  0.6625549102927693  0.4344680488003405
  0.7152394610504942  0.4137174131689818  0.0143225607786732
  0.7908864947383094  0.1613214033635515  0.1014864149156409
  0.8778062719229354  0.9243907779059413  0.2000710640483021
  0.5459618357788756  0.4182091626796733  0.3520903138006446
  0.6281106114020290  0.1705480309310801  0.4357848871963910
  0.6968083704004613  0.9284187879038655  0.0115946646284755
  0.5843518827381189  0.9198363970447900  0.3366418882205693
  0.7182796575544330  0.5816888325297711  0.7680023880011859
  0.5450170432992323  0.5904678295996604  0.6033870722193555
  0.6317026481784183  0.3214186008799658  0.6978891603009600
  0.7118193755752316  0.0823426500207489  0.7725018952990865
  0.8782450704211726  0.5830382198641146  0.9370287646527444
  0.9530609051192371  0.3239187963590950  0.5137563271135974
  0.5434433791143860  0.0857666319268233  0.6045414757571947
  0.6353610821455291  0.8385148302266430  0.6885665645153907
  0.7948883416901609  0.3318168679820133  0.8532165923375885
  0.8754596057298158  0.0818714977124415  0.9356338079406328
  0.9685989669477948  0.8353607952085937  0.5158542239189146
  0.7927028156072922  0.8334364965212018  0.8559250508184775
  0.9675332685416649  0.6784649692267024  0.7806947563915401
  0.7784651492590626  0.6609097750633310  0.5979849371656698
  0.8773601300188005  0.3957037836859669  0.6862234169682822
  0.9612655266912356  0.1652673194869791  0.7731147467042518
  0.6289276493429341  0.6663339150584804  0.9344071250741948
  0.7204003312271041  0.4127509864000700  0.5142554213352142
  0.7924964090216164  0.1612635713351338  0.6034449776000770
  0.8835082161326469  0.9254036946415098  0.6978063566701493
  0.5430450776013771  0.4193144445533150  0.8526364969025195
  0.6251558132767485  0.1700751322556684  0.9347479428058136
  0.7030446336350309  0.9283181053520906  0.5143909812487237
  0.5447174674354400  0.9204500548423340  0.8522863356055481
 
  0.00000000E+00  0.00000000E+00  0.00000000E+00
  0.00000000E+00  0.00000000E+00  0.00000000E+00
  0.00000000E+00  0.00000000E+00  0.00000000E+00
  0.00000000E+00  0.00000000E+00  0.00000000E+00
  0.00000000E+00  0.00000000E+00  0.00000000E+00
  0.00000000E+00  0.00000000E+00  0.00000000E+00
  0.00000000E+00  0.00000000E+00  0.00000000E+00
  0.00000000E+00  0.00000000E+00  0.00000000E+00
  0.00000000E+00  0.00000000E+00  0.00000000E+00
  0.00000000E+00  0.00000000E+00  0.00000000E+00
  0.00000000E+00  0.00000000E+00  0.00000000E+00
  0.00000000E+00  0.00000000E+00  0.00000000E+00
  0.00000000E+00  0.00000000E+00  0.00000000E+00
  0.00000000E+00  0.00000000E+00  0.00000000E+00
  0.00000000E+00  0.00000000E+00  0.00000000E+00
  0.00000000E+00  0.00000000E+00  0.00000000E+00
  0.00000000E+00  0.00000000E+00  0.00000000E+00
  0.00000000E+00  0.00000000E+00  0.00000000E+00
  0.00000000E+00  0.00000000E+00  0.00000000E+00
  0.00000000E+00  0.00000000E+00  0.00000000E+00
  0.00000000E+00  0.00000000E+00  0.00000000E+00
  0.00000000E+00  0.00000000E+00  0.00000000E+00
  0.00000000E+00  0.00000000E+00  0.00000000E+00
  0.00000000E+00  0.00000000E+00  0.00000000E+00
  0.00000000E+00  0.00000000E+00  0.00000000E+00
  0.00000000E+00  0.00000000E+00  0.00000000E+00
  0.00000000E+00  0.00000000E+00  0.00000000E+00
  0.00000000E+00  0.00000000E+00  0.00000000E+00
  0.00000000E+00  0.00000000E+00  0.00000000E+00
  0.00000000E+00  0.00000000E+00  0.00000000E+00
  0.00000000E+00  0.00000000E+00  0.00000000E+00
  0.00000000E+00  0.00000000E+00  0.00000000E+00
  0.00000000E+00  0.00000000E+00  0.00000000E+00
  0.00000000E+00  0.00000000E+00  0.00000000E+00
  0.00000000E+00  0.00000000E+00  0.00000000E+00
  0.00000000E+00  0.00000000E+00  0.00000000E+00
  0.00000000E+00  0.00000000E+00  0.00000000E+00
  0.00000000E+00  0.00000000E+00  0.00000000E+00
  0.00000000E+00  0.00000000E+00  0.00000000E+00
  0.00000000E+00  0.00000000E+00  0.00000000E+00
  0.00000000E+00  0.00000000E+00  0.00000000E+00
  0.00000000E+00  0.00000000E+00  0.00000000E+00
  0.00000000E+00  0.00000000E+00  0.00000000E+00
  0.00000000E+00  0.00000000E+00  0.00000000E+00
  0.00000000E+00  0.00000000E+00  0.00000000E+00
  0.00000000E+00  0.00000000E+00  0.00000000E+00
  0.00000000E+00  0.00000000E+00  0.00000000E+00
  0.00000000E+00  0.00000000E+00  0.00000000E+00
  0.00000000E+00  0.00000000E+00  0.00000000E+00
  0.00000000E+00  0.00000000E+00  0.00000000E+00
  0.00000000E+00  0.00000000E+00  0.00000000E+00
  0.00000000E+00  0.00000000E+00  0.00000000E+00
  0.00000000E+00  0.00000000E+00  0.00000000E+00
  0.00000000E+00  0.00000000E+00  0.00000000E+00
  0.00000000E+00  0.00000000E+00  0.00000000E+00
  0.00000000E+00  0.00000000E+00  0.00000000E+00
  0.00000000E+00  0.00000000E+00  0.00000000E+00
  0.00000000E+00  0.00000000E+00  0.00000000E+00
  0.00000000E+00  0.00000000E+00  0.00000000E+00
  0.00000000E+00  0.00000000E+00  0.00000000E+00
  0.00000000E+00  0.00000000E+00  0.00000000E+00
  0.00000000E+00  0.00000000E+00  0.00000000E+00
  0.00000000E+00  0.00000000E+00  0.00000000E+00
  0.00000000E+00  0.00000000E+00  0.00000000E+00
  0.00000000E+00  0.00000000E+00  0.00000000E+00
  0.00000000E+00  0.00000000E+00  0.00000000E+00
  0.00000000E+00  0.00000000E+00  0.00000000E+00
  0.00000000E+00  0.00000000E+00  0.00000000E+00
  0.00000000E+00  0.00000000E+00  0.00000000E+00
  0.00000000E+00  0.00000000E+00  0.00000000E+00
  0.00000000E+00  0.00000000E+00  0.00000000E+00
  0.00000000E+00  0.00000000E+00  0.00000000E+00
  0.00000000E+00  0.00000000E+00  0.00000000E+00
  0.00000000E+00  0.00000000E+00  0.00000000E+00
  0.00000000E+00  0.00000000E+00  0.00000000E+00
  0.00000000E+00  0.00000000E+00  0.00000000E+00
  0.00000000E+00  0.00000000E+00  0.00000000E+00
  0.00000000E+00  0.00000000E+00  0.00000000E+00
  0.00000000E+00  0.00000000E+00  0.00000000E+00
  0.00000000E+00  0.00000000E+00  0.00000000E+00
  0.00000000E+00  0.00000000E+00  0.00000000E+00
  0.00000000E+00  0.00000000E+00  0.00000000E+00
  0.00000000E+00  0.00000000E+00  0.00000000E+00
  0.00000000E+00  0.00000000E+00  0.00000000E+00
  0.00000000E+00  0.00000000E+00  0.00000000E+00
  0.00000000E+00  0.00000000E+00  0.00000000E+00
  0.00000000E+00  0.00000000E+00  0.00000000E+00
  0.00000000E+00  0.00000000E+00  0.00000000E+00
  0.00000000E+00  0.00000000E+00  0.00000000E+00
  0.00000000E+00  0.00000000E+00  0.00000000E+00
  0.00000000E+00  0.00000000E+00  0.00000000E+00
  0.00000000E+00  0.00000000E+00  0.00000000E+00
  0.00000000E+00  0.00000000E+00  0.00000000E+00
  0.00000000E+00  0.00000000E+00  0.00000000E+00
  0.00000000E+00  0.00000000E+00  0.00000000E+00
  0.00000000E+00  0.00000000E+00  0.00000000E+00
  0.00000000E+00  0.00000000E+00  0.00000000E+00
  0.00000000E+00  0.00000000E+00  0.00000000E+00
  0.00000000E+00  0.00000000E+00  0.00000000E+00
  0.00000000E+00  0.00000000E+00  0.00000000E+00
  0.00000000E+00  0.00000000E+00  0.00000000E+00
  0.00000000E+00  0.00000000E+00  0.00000000E+00
  0.00000000E+00  0.00000000E+00  0.00000000E+00
  0.00000000E+00  0.00000000E+00  0.00000000E+00
  0.00000000E+00  0.00000000E+00  0.00000000E+00
  0.00000000E+00  0.00000000E+00  0.00000000E+00
  0.00000000E+00  0.00000000E+00  0.00000000E+00
  0.00000000E+00  0.00000000E+00  0.00000000E+00
  0.00000000E+00  0.00000000E+00  0.00000000E+00
  0.00000000E+00  0.00000000E+00  0.00000000E+00
  0.00000000E+00  0.00000000E+00  0.00000000E+00
  0.00000000E+00  0.00000000E+00  0.00000000E+00
  0.00000000E+00  0.00000000E+00  0.00000000E+00
  0.00000000E+00  0.00000000E+00  0.00000000E+00
  0.00000000E+00  0.00000000E+00  0.00000000E+00
  0.00000000E+00  0.00000000E+00  0.00000000E+00
  0.00000000E+00  0.00000000E+00  0.00000000E+00
  0.00000000E+00  0.00000000E+00  0.00000000E+00
  0.00000000E+00  0.00000000E+00  0.00000000E+00
  0.00000000E+00  0.00000000E+00  0.00000000E+00
  0.00000000E+00  0.00000000E+00  0.00000000E+00
  0.00000000E+00  0.00000000E+00  0.00000000E+00
  0.00000000E+00  0.00000000E+00  0.00000000E+00
  0.00000000E+00  0.00000000E+00  0.00000000E+00
  0.00000000E+00  0.00000000E+00  0.00000000E+00
  0.00000000E+00  0.00000000E+00  0.00000000E+00
  0.00000000E+00  0.00000000E+00  0.00000000E+00
  0.00000000E+00  0.00000000E+00  0.00000000E+00
  0.00000000E+00  0.00000000E+00  0.00000000E+00
  0.00000000E+00  0.00000000E+00  0.00000000E+00
  0.00000000E+00  0.00000000E+00  0.00000000E+00
  0.00000000E+00  0.00000000E+00  0.00000000E+00
  0.00000000E+00  0.00000000E+00  0.00000000E+00
  0.00000000E+00  0.00000000E+00  0.00000000E+00
  0.00000000E+00  0.00000000E+00  0.00000000E+00
  0.00000000E+00  0.00000000E+00  0.00000000E+00
  0.00000000E+00  0.00000000E+00  0.00000000E+00
  0.00000000E+00  0.00000000E+00  0.00000000E+00
  0.00000000E+00  0.00000000E+00  0.00000000E+00
  0.00000000E+00  0.00000000E+00  0.00000000E+00
  0.00000000E+00  0.00000000E+00  0.00000000E+00
  0.00000000E+00  0.00000000E+00  0.00000000E+00
  0.00000000E+00  0.00000000E+00  0.00000000E+00
  0.00000000E+00  0.00000000E+00  0.00000000E+00
  0.00000000E+00  0.00000000E+00  0.00000000E+00
  0.00000000E+00  0.00000000E+00  0.00000000E+00
  0.00000000E+00  0.00000000E+00  0.00000000E+00
  0.00000000E+00  0.00000000E+00  0.00000000E+00
  0.00000000E+00  0.00000000E+00  0.00000000E+00
  0.00000000E+00  0.00000000E+00  0.00000000E+00
  0.00000000E+00  0.00000000E+00  0.00000000E+00
  0.00000000E+00  0.00000000E+00  0.00000000E+00
  0.00000000E+00  0.00000000E+00  0.00000000E+00
  0.00000000E+00  0.00000000E+00  0.00000000E+00
  0.00000000E+00  0.00000000E+00  0.00000000E+00
  0.00000000E+00  0.00000000E+00  0.00000000E+00
  0.00000000E+00  0.00000000E+00  0.00000000E+00
  0.00000000E+00  0.00000000E+00  0.00000000E+00
  0.00000000E+00  0.00000000E+00  0.00000000E+00
  0.00000000E+00  0.00000000E+00  0.00000000E+00
  0.00000000E+00  0.00000000E+00  0.00000000E+00
  0.00000000E+00  0.00000000E+00  0.00000000E+00
  0.00000000E+00  0.00000000E+00  0.00000000E+00
  0.00000000E+00  0.00000000E+00  0.00000000E+00
  0.00000000E+00  0.00000000E+00  0.00000000E+00
  0.00000000E+00  0.00000000E+00  0.00000000E+00
  0.00000000E+00  0.00000000E+00  0.00000000E+00
  0.00000000E+00  0.00000000E+00  0.00000000E+00
  0.00000000E+00  0.00000000E+00  0.00000000E+00
  0.00000000E+00  0.00000000E+00  0.00000000E+00
  0.00000000E+00  0.00000000E+00  0.00000000E+00
  0.00000000E+00  0.00000000E+00  0.00000000E+00
  0.00000000E+00  0.00000000E+00  0.00000000E+00
  0.00000000E+00  0.00000000E+00  0.00000000E+00
  0.00000000E+00  0.00000000E+00  0.00000000E+00
  0.00000000E+00  0.00000000E+00  0.00000000E+00
  0.00000000E+00  0.00000000E+00  0.00000000E+00
  0.00000000E+00  0.00000000E+00  0.00000000E+00
  0.00000000E+00  0.00000000E+00  0.00000000E+00
  0.00000000E+00  0.00000000E+00  0.00000000E+00
  0.00000000E+00  0.00000000E+00  0.00000000E+00
  0.00000000E+00  0.00000000E+00  0.00000000E+00
  0.00000000E+00  0.00000000E+00  0.00000000E+00
  0.00000000E+00  0.00000000E+00  0.00000000E+00
  0.00000000E+00  0.00000000E+00  0.00000000E+00
  0.00000000E+00  0.00000000E+00  0.00000000E+00
  0.00000000E+00  0.00000000E+00  0.00000000E+00
  0.00000000E+00  0.00000000E+00  0.00000000E+00
  0.00000000E+00  0.00000000E+00  0.00000000E+00
  0.00000000E+00  0.00000000E+00  0.00000000E+00
  0.00000000E+00  0.00000000E+00  0.00000000E+00
