supercell of POSCAR                     
   1.01189200000000     
     3.1482772356600002   -5.4762754812200001    9.9674464565599994
    -9.4511209497999999   -5.4731922780100000    0.0032121685426600
     6.3112884282600001  -10.9581161277000003   -9.9749049577999997
   Al   Sc   N 
    84    11    96
Direct
  0.0878060165011618  0.5834324798000452  0.3324114565515970
  0.0036002776547903  0.3264061048031408  0.2485976811806978
  0.0844587522397404  0.0843894755366392  0.3321526398568793
  0.2481358730741903  0.5804689320083298  0.4964947296888056
  0.3275018628059811  0.3263739030040114  0.0808110981726387
  0.4174181863532951  0.0868900873852994  0.1692617828036944
  0.0067925505471180  0.8368154474771359  0.2512752674191532
  0.1660696764023157  0.3335492051093567  0.4118403147543717
  0.2466357326001329  0.0865150271681614  0.4965569051212384
  0.1630419873733615  0.8350007804577615  0.4151978625001220
  0.3351482140630750  0.6698825922623968  0.3366657158597306
  0.1616441300736327  0.6694139840673472  0.1641715323612587
  0.2477926443091008  0.4079857225940557  0.2477337504025527
  0.3318614686792003  0.1667850658856196  0.3328815338416078
  0.0010415755420325  0.6697742899530965  0.4962833739335082
  0.1655151427467274  0.1670319377546789  0.1672145093043511
  0.2530610722197792  0.9193653523699439  0.2535261599301961
  0.4132379780805522  0.4160431393938993  0.4153697614423635
  0.4971917904861272  0.1634693658594415  0.4978055749312915
  0.0825181809333984  0.9207304163919829  0.0809241859843866
  0.4172306639221546  0.9182911037138268  0.4139151535202075
  0.0883885152295818  0.5840401348042974  0.8342120288984773
  0.0006951026914024  0.3279530440530607  0.7542838709787318
  0.0847100293040555  0.0855273116609183  0.8348795741247699
  0.2468998283407942  0.5797762184583490  0.9989701630374839
  0.3294474231930522  0.3245059743861489  0.5800462571926630
  0.4167332109837574  0.0870201820634122  0.6697337448339979
  0.0054126777762562  0.8401281422911424  0.7528121161727128
  0.1650671908277488  0.3352028899850694  0.9177381319569804
  0.2483250410720430  0.0873860187724560  0.9977091283541384
  0.1636507219434407  0.8355573024076079  0.9160858252998239
  0.3364897024561202  0.6714543967176070  0.8384016889478190
  0.1595239720880031  0.6708367325399394  0.6661140073685843
  0.2509919156986911  0.4077438082521780  0.7511173380302125
  0.3333915071575220  0.1659316063478542  0.8343526912215964
  0.0050352137425165  0.6682654746994814  0.9971920494491116
  0.1662443039636514  0.1618446646803449  0.6684478689555604
  0.2521379153697936  0.9194810995287952  0.7540069598255528
  0.4009451590506075  0.4160118366093357  0.9234066879061444
  0.5004316420612085  0.1628369489994483  0.9990505387403132
  0.0800941395216697  0.9212820703949376  0.5809786200564275
  0.4188069005417319  0.9186354642912349  0.9148183370039717
  0.5870364088435807  0.5838937646984590  0.3345927324762172
  0.4998877819614833  0.3269254067917089  0.2540771878164634
  0.5841434792773939  0.0839859531768781  0.3339418297157266
  0.7482601297655194  0.5804432697176622  0.4969866341768210
  0.8393703362972147  0.3251296853552930  0.0799932548628135
  0.9182644967211004  0.0857410560227763  0.1686506577936981
  0.5063236703615672  0.8387974610895412  0.2531236815086473
  0.6658601158782744  0.3331662272680731  0.4148041772377766
  0.7469530241675670  0.0861037770291091  0.4971717203732524
  0.6636611482539578  0.8343850569562861  0.4157702786090596
  0.8361139949373069  0.6678368667074466  0.3345126954310018
  0.6639587794449042  0.6683069688003300  0.1671406784516591
  0.7517144164022866  0.4080076129062320  0.2514276726492710
  0.8336544602053877  0.1658328545439645  0.3331705681374828
  0.5009310713755326  0.6705539405911054  0.4977613502229232
  0.6686709827673383  0.1619099897653484  0.1687369143394903
  0.7535590227871580  0.9179146623724606  0.2531726301439434
  0.9139318192096582  0.4153903200974725  0.4141768794602783
  0.9974670871798494  0.1632186961198343  0.4970555178068636
  0.5845201817127190  0.9202486946413799  0.0822104189112878
  0.9175584195171282  0.9173498279029246  0.4130150146995888
  0.5860488576771132  0.5828289213848095  0.8362011488898986
  0.4995971775638282  0.3280323965244349  0.7564806705301734
  0.5854561132806779  0.0847566825473081  0.8350262461180691
  0.7510502724747141  0.5796158080408134  0.9979205278687644
  0.8293330498887030  0.3245979616371315  0.5802831525039096
  0.9164480291184702  0.0873371931521092  0.6696832540552151
  0.5056269957677557  0.8402233878500596  0.7536140621357248
  0.6666735530075627  0.3342024458361550  0.9158110663027799
  0.7512381121439091  0.0860964402909090  0.9982207524958611
  0.6652100168833144  0.8350969422991597  0.9169674270562780
  0.8360381059347475  0.6701769477489350  0.8376869323944973
  0.6592533313333035  0.6711634220370684  0.6671801335227130
  0.7506222120169639  0.4091186699988114  0.7519306620703077
  0.8341401343289832  0.1679018925336209  0.8357241419539889
  0.5031614867960457  0.6705805006525623  0.9981515081782959
  0.6661628186165345  0.1624765422824836  0.6692684161094817
  0.7524725993440882  0.9197848134813498  0.7541360715070056
  0.9170268376558965  0.4154297840991035  0.9197160355211480
  0.0002230471876885  0.1689304583783837  0.9998018968588269
  0.5803537995686696  0.9214892303593842  0.5815976490424930
  0.9187723865486674  0.9194100535688889  0.9136408805836567
  0.4055278619379266  0.5821693284798073  0.1733388968974907
  0.3296657372404468  0.8398808201625343  0.0843767589581219
  0.4025690379427900  0.5831282572036613  0.6746999749311158
  0.3265720718473588  0.8387391365412213  0.5841177192268390
  0.0769032279604502  0.4153257764332139  0.5841691913303961
  0.9179719521624179  0.5729963174808290  0.1670559083258709
  0.8337248451102184  0.8329553216126797  0.0839266465800037
  0.5810329906469036  0.4144292184705094  0.0864965920869736
  0.9035341024880736  0.5825522154783158  0.6737393913564844
  0.8271451443334001  0.8381910716386329  0.5839872807855713
  0.5760609267902481  0.4158908216298869  0.5863832821662029
  0.2190009641696520  0.5831368510014627  0.2674145712407636
  0.0425788028528231  0.6112728964685772  0.0999740984918063
  0.1330309884867589  0.3196281597824751  0.1991057928525564
  0.2126372125664204  0.0813247486233948  0.2713401966473299
  0.3788545592512733  0.5835348509186034  0.4373828681669494
  0.4557227845091987  0.3208917679545635  0.0159836692911952
  0.0428014132520431  0.0836865507248703  0.1032041034490376
  0.1346659208607548  0.8402657501362967  0.1858052349605330
  0.2961112503133023  0.3330292248877669  0.3525777073683614
  0.3759223917485315  0.0816017499816653  0.4353467608941415
  0.4698709122455114  0.8370704172246519  0.0141772314606641
  0.2935507771632686  0.8335841671949495  0.3553164400106397
  0.4684482783096797  0.6779332184879010  0.2808625303553285
  0.2809837046162400  0.6641878297640318  0.0976669194637694
  0.3786550837861569  0.3962076539448205  0.1860643368847903
  0.4614003143308025  0.1643446243696829  0.2730078469102040
  0.1295980172374698  0.6662279407649407  0.4338490585871071
  0.2371929075404040  0.4155446796788667  0.0051469827745123
  0.2929104838752608  0.1598726397107484  0.1025716778522607
  0.3853183836643126  0.9244355856968554  0.1972154148827059
  0.0427909557731212  0.4193383610161163  0.3523105058012703
  0.1258261429692737  0.1697392404723956  0.4344669481226404
  0.2010656762294047  0.9275128342335606  0.0119807109137042
  0.0459780214555892  0.9197057590654083  0.3520715707367046
  0.2193144024445175  0.5824803033912644  0.7659293667836664
  0.0386848031102573  0.5986296744916473  0.6013874969889343
  0.1299526088132836  0.3236726616066008  0.6940145910630307
  0.2117483582684301  0.0827981692666242  0.7705789016285465
  0.3808498356220866  0.5888575439359585  0.9371825294804381
  0.4501048011036417  0.3236894643830723  0.5131423465082463
  0.0410342932389725  0.0857495587318198  0.6029859633818617
  0.1318298037893868  0.8394740971840804  0.6848070372295183
  0.2938722098323225  0.3292868552090127  0.8500594168164142
  0.3780195996552962  0.0816345428108036  0.9353910431498917
  0.4662941171147352  0.8364458610543508  0.5142644108547643
  0.2941604866820100  0.8353815001078786  0.8542786484154874
  0.4691958456867980  0.6787853401680977  0.7798261413043761
  0.2755858606414989  0.6616850860857895  0.5969424121827203
  0.3776329913001675  0.3956461447605406  0.6846203931592498
  0.4621143251331716  0.1640897362908262  0.7724378518875241
  0.1321751998417184  0.6677465013875405  0.9323336141394165
  0.2155474195890292  0.4135828788124769  0.5137486211134572
  0.2909214339504800  0.1603943882808565  0.6021704387748628
  0.3834651908954001  0.9243772281706413  0.6960719429529831
  0.0440863812597883  0.4200616383392983  0.8511841209167699
  0.1280008400920210  0.1692351114973079  0.9346815231315091
  0.1980905766767833  0.9275140342661388  0.5122632788942454
  0.0474461988483199  0.9214224288520967  0.8514563891024451
  0.7149879377244304  0.5808006662240075  0.2692087779543613
  0.5416616221049679  0.5984741924619854  0.1024469653594764
  0.6300799386148839  0.3216734358851170  0.1975236453020912
  0.7117414917816944  0.0812549842146026  0.2719160194323180
  0.8780729072372893  0.5827939693152615  0.4366227521677004
  0.9491585916369516  0.3213598974153271  0.0102770830034444
  0.5437268404018951  0.0838087744315956  0.1042460178247921
  0.6329598272108967  0.8372851310260074  0.1864059543126828
  0.7936444643541449  0.3308042522098447  0.3539320626661819
  0.8757807131750965  0.0805147633530581  0.4353872473257709
  0.9695082230179608  0.8373179976802163  0.0109753092592371
  0.7933155286316307  0.8320978473391634  0.3546075231423913
  0.9680833738287475  0.6752504769926944  0.2781438260091775
  0.7799055745635073  0.6574977901130268  0.0993403490375826
  0.8732128002465416  0.3915774929639184  0.1878998537859360
  0.9605688805336854  0.1634542827784671  0.2723285435210983
  0.6292217280875363  0.6664264553311909  0.4353544391168569
  0.7176480612336960  0.4142217490793527  0.0151142642915119
  0.7924836050695134  0.1599560281057393  0.1032059082992447
  0.8842945117637129  0.9228282374961339  0.1959669598321554
  0.5432963367828378  0.4188514179564322  0.3536483411044600
  0.6256801166828794  0.1693898098268320  0.4354616078381710
  0.7031994910835664  0.9256015754408509  0.0138449838705696
  0.5464526173045243  0.9203280191189194  0.3534183146822798
  0.7174340805184158  0.5826148145971999  0.7668251220933584
  0.5381254534220687  0.5994257279902584  0.6026157413287407
  0.6294960983839744  0.3237873291599840  0.6959896361791778
  0.7124086126632321  0.0834147594893011  0.7712772989629286
  0.8796648756723044  0.5844662577608304  0.9360177081774737
  0.9492406591093498  0.3232362726584270  0.5125131179028344
  0.5413677324241348  0.0859815570900082  0.6034358376127216
  0.6317135727626919  0.8401061470657041  0.6854686842499831
  0.7946100440679231  0.3334312667637178  0.8520510538280348
  0.8781222230338912  0.0807985560021223  0.9346500064189769
  0.9664458576881998  0.8355666911275179  0.5135471134210690
  0.7937818371044472  0.8340906017346654  0.8538691376464200
  0.9689592664830471  0.6783579925403203  0.7789879130079242
  0.7753890169308661  0.6615820033525353  0.5976327961647669
  0.8768669033469791  0.3957197763862652  0.6848818745342129
  0.9616820695088677  0.1654589110514948  0.7720979496911937
  0.6321544676088067  0.6669143513327001  0.9349859102427445
  0.7146788567619637  0.4140646904035776  0.5153476513244186
  0.7905474618638735  0.1607396239186727  0.6024807415406883
  0.8832777879644595  0.9246679358111720  0.6956665046915376
  0.5411804278951777  0.4190263012565723  0.8545332623630202
  0.6286255723752490  0.1684521034197459  0.9354451492610707
  0.6984424196696395  0.9271401111131397  0.5126995508895362
  0.5477336850458627  0.9208563557112086  0.8531439323023946
 
  0.00000000E+00  0.00000000E+00  0.00000000E+00
  0.00000000E+00  0.00000000E+00  0.00000000E+00
  0.00000000E+00  0.00000000E+00  0.00000000E+00
  0.00000000E+00  0.00000000E+00  0.00000000E+00
  0.00000000E+00  0.00000000E+00  0.00000000E+00
  0.00000000E+00  0.00000000E+00  0.00000000E+00
  0.00000000E+00  0.00000000E+00  0.00000000E+00
  0.00000000E+00  0.00000000E+00  0.00000000E+00
  0.00000000E+00  0.00000000E+00  0.00000000E+00
  0.00000000E+00  0.00000000E+00  0.00000000E+00
  0.00000000E+00  0.00000000E+00  0.00000000E+00
  0.00000000E+00  0.00000000E+00  0.00000000E+00
  0.00000000E+00  0.00000000E+00  0.00000000E+00
  0.00000000E+00  0.00000000E+00  0.00000000E+00
  0.00000000E+00  0.00000000E+00  0.00000000E+00
  0.00000000E+00  0.00000000E+00  0.00000000E+00
  0.00000000E+00  0.00000000E+00  0.00000000E+00
  0.00000000E+00  0.00000000E+00  0.00000000E+00
  0.00000000E+00  0.00000000E+00  0.00000000E+00
  0.00000000E+00  0.00000000E+00  0.00000000E+00
  0.00000000E+00  0.00000000E+00  0.00000000E+00
  0.00000000E+00  0.00000000E+00  0.00000000E+00
  0.00000000E+00  0.00000000E+00  0.00000000E+00
  0.00000000E+00  0.00000000E+00  0.00000000E+00
  0.00000000E+00  0.00000000E+00  0.00000000E+00
  0.00000000E+00  0.00000000E+00  0.00000000E+00
  0.00000000E+00  0.00000000E+00  0.00000000E+00
  0.00000000E+00  0.00000000E+00  0.00000000E+00
  0.00000000E+00  0.00000000E+00  0.00000000E+00
  0.00000000E+00  0.00000000E+00  0.00000000E+00
  0.00000000E+00  0.00000000E+00  0.00000000E+00
  0.00000000E+00  0.00000000E+00  0.00000000E+00
  0.00000000E+00  0.00000000E+00  0.00000000E+00
  0.00000000E+00  0.00000000E+00  0.00000000E+00
  0.00000000E+00  0.00000000E+00  0.00000000E+00
  0.00000000E+00  0.00000000E+00  0.00000000E+00
  0.00000000E+00  0.00000000E+00  0.00000000E+00
  0.00000000E+00  0.00000000E+00  0.00000000E+00
  0.00000000E+00  0.00000000E+00  0.00000000E+00
  0.00000000E+00  0.00000000E+00  0.00000000E+00
  0.00000000E+00  0.00000000E+00  0.00000000E+00
  0.00000000E+00  0.00000000E+00  0.00000000E+00
  0.00000000E+00  0.00000000E+00  0.00000000E+00
  0.00000000E+00  0.00000000E+00  0.00000000E+00
  0.00000000E+00  0.00000000E+00  0.00000000E+00
  0.00000000E+00  0.00000000E+00  0.00000000E+00
  0.00000000E+00  0.00000000E+00  0.00000000E+00
  0.00000000E+00  0.00000000E+00  0.00000000E+00
  0.00000000E+00  0.00000000E+00  0.00000000E+00
  0.00000000E+00  0.00000000E+00  0.00000000E+00
  0.00000000E+00  0.00000000E+00  0.00000000E+00
  0.00000000E+00  0.00000000E+00  0.00000000E+00
  0.00000000E+00  0.00000000E+00  0.00000000E+00
  0.00000000E+00  0.00000000E+00  0.00000000E+00
  0.00000000E+00  0.00000000E+00  0.00000000E+00
  0.00000000E+00  0.00000000E+00  0.00000000E+00
  0.00000000E+00  0.00000000E+00  0.00000000E+00
  0.00000000E+00  0.00000000E+00  0.00000000E+00
  0.00000000E+00  0.00000000E+00  0.00000000E+00
  0.00000000E+00  0.00000000E+00  0.00000000E+00
  0.00000000E+00  0.00000000E+00  0.00000000E+00
  0.00000000E+00  0.00000000E+00  0.00000000E+00
  0.00000000E+00  0.00000000E+00  0.00000000E+00
  0.00000000E+00  0.00000000E+00  0.00000000E+00
  0.00000000E+00  0.00000000E+00  0.00000000E+00
  0.00000000E+00  0.00000000E+00  0.00000000E+00
  0.00000000E+00  0.00000000E+00  0.00000000E+00
  0.00000000E+00  0.00000000E+00  0.00000000E+00
  0.00000000E+00  0.00000000E+00  0.00000000E+00
  0.00000000E+00  0.00000000E+00  0.00000000E+00
  0.00000000E+00  0.00000000E+00  0.00000000E+00
  0.00000000E+00  0.00000000E+00  0.00000000E+00
  0.00000000E+00  0.00000000E+00  0.00000000E+00
  0.00000000E+00  0.00000000E+00  0.00000000E+00
  0.00000000E+00  0.00000000E+00  0.00000000E+00
  0.00000000E+00  0.00000000E+00  0.00000000E+00
  0.00000000E+00  0.00000000E+00  0.00000000E+00
  0.00000000E+00  0.00000000E+00  0.00000000E+00
  0.00000000E+00  0.00000000E+00  0.00000000E+00
  0.00000000E+00  0.00000000E+00  0.00000000E+00
  0.00000000E+00  0.00000000E+00  0.00000000E+00
  0.00000000E+00  0.00000000E+00  0.00000000E+00
  0.00000000E+00  0.00000000E+00  0.00000000E+00
  0.00000000E+00  0.00000000E+00  0.00000000E+00
  0.00000000E+00  0.00000000E+00  0.00000000E+00
  0.00000000E+00  0.00000000E+00  0.00000000E+00
  0.00000000E+00  0.00000000E+00  0.00000000E+00
  0.00000000E+00  0.00000000E+00  0.00000000E+00
  0.00000000E+00  0.00000000E+00  0.00000000E+00
  0.00000000E+00  0.00000000E+00  0.00000000E+00
  0.00000000E+00  0.00000000E+00  0.00000000E+00
  0.00000000E+00  0.00000000E+00  0.00000000E+00
  0.00000000E+00  0.00000000E+00  0.00000000E+00
  0.00000000E+00  0.00000000E+00  0.00000000E+00
  0.00000000E+00  0.00000000E+00  0.00000000E+00
  0.00000000E+00  0.00000000E+00  0.00000000E+00
  0.00000000E+00  0.00000000E+00  0.00000000E+00
  0.00000000E+00  0.00000000E+00  0.00000000E+00
  0.00000000E+00  0.00000000E+00  0.00000000E+00
  0.00000000E+00  0.00000000E+00  0.00000000E+00
  0.00000000E+00  0.00000000E+00  0.00000000E+00
  0.00000000E+00  0.00000000E+00  0.00000000E+00
  0.00000000E+00  0.00000000E+00  0.00000000E+00
  0.00000000E+00  0.00000000E+00  0.00000000E+00
  0.00000000E+00  0.00000000E+00  0.00000000E+00
  0.00000000E+00  0.00000000E+00  0.00000000E+00
  0.00000000E+00  0.00000000E+00  0.00000000E+00
  0.00000000E+00  0.00000000E+00  0.00000000E+00
  0.00000000E+00  0.00000000E+00  0.00000000E+00
  0.00000000E+00  0.00000000E+00  0.00000000E+00
  0.00000000E+00  0.00000000E+00  0.00000000E+00
  0.00000000E+00  0.00000000E+00  0.00000000E+00
  0.00000000E+00  0.00000000E+00  0.00000000E+00
  0.00000000E+00  0.00000000E+00  0.00000000E+00
  0.00000000E+00  0.00000000E+00  0.00000000E+00
  0.00000000E+00  0.00000000E+00  0.00000000E+00
  0.00000000E+00  0.00000000E+00  0.00000000E+00
  0.00000000E+00  0.00000000E+00  0.00000000E+00
  0.00000000E+00  0.00000000E+00  0.00000000E+00
  0.00000000E+00  0.00000000E+00  0.00000000E+00
  0.00000000E+00  0.00000000E+00  0.00000000E+00
  0.00000000E+00  0.00000000E+00  0.00000000E+00
  0.00000000E+00  0.00000000E+00  0.00000000E+00
  0.00000000E+00  0.00000000E+00  0.00000000E+00
  0.00000000E+00  0.00000000E+00  0.00000000E+00
  0.00000000E+00  0.00000000E+00  0.00000000E+00
  0.00000000E+00  0.00000000E+00  0.00000000E+00
  0.00000000E+00  0.00000000E+00  0.00000000E+00
  0.00000000E+00  0.00000000E+00  0.00000000E+00
  0.00000000E+00  0.00000000E+00  0.00000000E+00
  0.00000000E+00  0.00000000E+00  0.00000000E+00
  0.00000000E+00  0.00000000E+00  0.00000000E+00
  0.00000000E+00  0.00000000E+00  0.00000000E+00
  0.00000000E+00  0.00000000E+00  0.00000000E+00
  0.00000000E+00  0.00000000E+00  0.00000000E+00
  0.00000000E+00  0.00000000E+00  0.00000000E+00
  0.00000000E+00  0.00000000E+00  0.00000000E+00
  0.00000000E+00  0.00000000E+00  0.00000000E+00
  0.00000000E+00  0.00000000E+00  0.00000000E+00
  0.00000000E+00  0.00000000E+00  0.00000000E+00
  0.00000000E+00  0.00000000E+00  0.00000000E+00
  0.00000000E+00  0.00000000E+00  0.00000000E+00
  0.00000000E+00  0.00000000E+00  0.00000000E+00
  0.00000000E+00  0.00000000E+00  0.00000000E+00
  0.00000000E+00  0.00000000E+00  0.00000000E+00
  0.00000000E+00  0.00000000E+00  0.00000000E+00
  0.00000000E+00  0.00000000E+00  0.00000000E+00
  0.00000000E+00  0.00000000E+00  0.00000000E+00
  0.00000000E+00  0.00000000E+00  0.00000000E+00
  0.00000000E+00  0.00000000E+00  0.00000000E+00
  0.00000000E+00  0.00000000E+00  0.00000000E+00
  0.00000000E+00  0.00000000E+00  0.00000000E+00
  0.00000000E+00  0.00000000E+00  0.00000000E+00
  0.00000000E+00  0.00000000E+00  0.00000000E+00
  0.00000000E+00  0.00000000E+00  0.00000000E+00
  0.00000000E+00  0.00000000E+00  0.00000000E+00
  0.00000000E+00  0.00000000E+00  0.00000000E+00
  0.00000000E+00  0.00000000E+00  0.00000000E+00
  0.00000000E+00  0.00000000E+00  0.00000000E+00
  0.00000000E+00  0.00000000E+00  0.00000000E+00
  0.00000000E+00  0.00000000E+00  0.00000000E+00
  0.00000000E+00  0.00000000E+00  0.00000000E+00
  0.00000000E+00  0.00000000E+00  0.00000000E+00
  0.00000000E+00  0.00000000E+00  0.00000000E+00
  0.00000000E+00  0.00000000E+00  0.00000000E+00
  0.00000000E+00  0.00000000E+00  0.00000000E+00
  0.00000000E+00  0.00000000E+00  0.00000000E+00
  0.00000000E+00  0.00000000E+00  0.00000000E+00
  0.00000000E+00  0.00000000E+00  0.00000000E+00
  0.00000000E+00  0.00000000E+00  0.00000000E+00
  0.00000000E+00  0.00000000E+00  0.00000000E+00
  0.00000000E+00  0.00000000E+00  0.00000000E+00
  0.00000000E+00  0.00000000E+00  0.00000000E+00
  0.00000000E+00  0.00000000E+00  0.00000000E+00
  0.00000000E+00  0.00000000E+00  0.00000000E+00
  0.00000000E+00  0.00000000E+00  0.00000000E+00
  0.00000000E+00  0.00000000E+00  0.00000000E+00
  0.00000000E+00  0.00000000E+00  0.00000000E+00
  0.00000000E+00  0.00000000E+00  0.00000000E+00
  0.00000000E+00  0.00000000E+00  0.00000000E+00
  0.00000000E+00  0.00000000E+00  0.00000000E+00
  0.00000000E+00  0.00000000E+00  0.00000000E+00
  0.00000000E+00  0.00000000E+00  0.00000000E+00
  0.00000000E+00  0.00000000E+00  0.00000000E+00
  0.00000000E+00  0.00000000E+00  0.00000000E+00
  0.00000000E+00  0.00000000E+00  0.00000000E+00
  0.00000000E+00  0.00000000E+00  0.00000000E+00
  0.00000000E+00  0.00000000E+00  0.00000000E+00
  0.00000000E+00  0.00000000E+00  0.00000000E+00
  0.00000000E+00  0.00000000E+00  0.00000000E+00
  0.00000000E+00  0.00000000E+00  0.00000000E+00
