supercell of POSCAR                     
   1.01189200000000     
     3.1482772356600002   -5.4762754812200001    9.9674464565599994
    -9.4511209497999999   -5.4731922780100000    0.0032121685426600
     6.3112884282600001  -10.9581161277000003   -9.9749049577999997
   Al   Sc   N 
    84    12    95
Direct
  0.0870692148842878  0.5846044019330208  0.3358156036704116
  0.9989694008606946  0.3277429892986774  0.2555537785445026
  0.0844792313199392  0.0838846511407212  0.3366738599923309
  0.2500759043289023  0.5806679808994133  0.4975375439659189
  0.3312835705111326  0.3275390660770867  0.0788324503758489
  0.4194820357148146  0.0834771110230363  0.1694374054171632
  0.0037823903698992  0.8391497228206362  0.2552309316706385
  0.1675080478350282  0.3329457553802584  0.4155018747600678
  0.2491256720386730  0.0857268693326318  0.4983183656071262
  0.1645816281686905  0.8349955206149744  0.4170479292377181
  0.3371743764924275  0.6707848458174013  0.3384412608497840
  0.1608855243234402  0.6666847682143100  0.1689098096818924
  0.2522166555313419  0.4139204218197676  0.2542243989970387
  0.3395050166574691  0.1657731288591577  0.3385917711048947
  0.0032602954119696  0.6703941582374568  0.4981581732939944
  0.1982858553465690  0.1820175452877564  0.1855858133012305
  0.2537633862351001  0.9177196866380726  0.2546311440930609
  0.4151335893652899  0.4165608769451907  0.4163991194067265
  0.5009207371866609  0.1628526787780800  0.4984040782926087
  0.0884929576195219  0.8790523262593055  0.0779592622766785
  0.4202523472823216  0.9177502848428958  0.4141789498638602
  0.0887750919278005  0.5845495511544740  0.8329528728556497
  0.0018641987403427  0.3269384520130671  0.7531448261144575
  0.0860720662901926  0.0816412281056884  0.8301939348838943
  0.2491784007575859  0.5817656651298151  0.9968851252585722
  0.3322771909067797  0.3241404689155303  0.5801397398066328
  0.4180959863715898  0.0862530754601423  0.6690032096669825
  0.0058690004863635  0.8390093118897894  0.7522317257628899
  0.1695599892325461  0.3368012652326087  0.9128331213119054
  0.2463341332954059  0.0859036181049220  0.9969765274855362
  0.1637428136496837  0.8341556767704574  0.9134536062551462
  0.3368040956248777  0.6699313204141788  0.8366595557528882
  0.1614887731705963  0.6710491007428701  0.6662137005009470
  0.2530514314866679  0.4087905203315145  0.7501853017900189
  0.3341300920381300  0.1656361150250092  0.8330513374326216
  0.9998972826440564  0.6647064315973950  0.9949504116793264
  0.1687556486827830  0.1619028543312950  0.6680112322846057
  0.2538222731259125  0.9181735650960050  0.7527794522967213
  0.4150954429854323  0.4166895481734443  0.9144346111617736
  0.4969890361958136  0.1635797344646761  0.9960800192188444
  0.0825814608476847  0.9208603698227691  0.5819499629229057
  0.4184770273037586  0.9181833175252265  0.9127254032465757
  0.5882451963154054  0.5842589831798648  0.3341900580216617
  0.5000333225685409  0.3285041962696553  0.2540657826886061
  0.5880008075199115  0.0844040076726245  0.3336353142933817
  0.7499020978354665  0.5805042787742352  0.4975503985243321
  0.8289805836932302  0.3243678430127446  0.0808523678954458
  0.8694968216390535  0.0870794663490031  0.1941147244467416
  0.5049524989065475  0.8383936159374983  0.2530214404596123
  0.6665951674506232  0.3349693294358858  0.4152191818427937
  0.7486102658362270  0.0854197374459389  0.4990056741082043
  0.6639983107596237  0.8339779503169851  0.4175585263597057
  0.8362536178667881  0.6690126231276992  0.3383136537148772
  0.6594048374711008  0.6698192704258261  0.1660607669591485
  0.7506818642999491  0.4094472394149093  0.2513318217525082
  0.8343954175046022  0.1708364755542959  0.3421229993838182
  0.5033073058073256  0.6694442095604174  0.4974088529825877
  0.6583065361239946  0.1660926147131505  0.1658435878307216
  0.7483310098349278  0.9106410166820140  0.2560394456175601
  0.9149946873370425  0.4173441327426488  0.4170099285722841
  0.0002603277706257  0.1633398078165840  0.4998151506880006
  0.5815435978093149  0.9204003951782411  0.0803721689463472
  0.9187148471382116  0.9175242194725257  0.4156323639968704
  0.5884719888145327  0.5841647531534377  0.8332499690708772
  0.5017394242242830  0.3266704645604861  0.7533938511204070
  0.5839343040154219  0.0837970861791604  0.8332036540980567
  0.7480167550646186  0.5806100284801232  0.9966015502495225
  0.8314581729252808  0.3243938977670808  0.5805839577875531
  0.9178508093326414  0.0860068545162065  0.6689653838478691
  0.5062152567983844  0.8393298771099040  0.7524652914351222
  0.6664272485959160  0.3330635092097580  0.9136430851555417
  0.7452117409355452  0.0857983289814754  0.9968535086768355
  0.6630662404195888  0.8346095948138412  0.9152495933930567
  0.8351417647156865  0.6706782382208374  0.8357122055698767
  0.6610459205180348  0.6707301691426721  0.6659508803240968
  0.7519390274986648  0.4089552075509530  0.7502165117146049
  0.8289329082915700  0.1654109222421312  0.8287981348137095
  0.5025151420789555  0.6697703731129181  0.9959204646475968
  0.6670081868905555  0.1615202912450044  0.6676706976801725
  0.7521542175102525  0.9179570139487865  0.7529154424487885
  0.9119245483266738  0.4198078653442892  0.9128429061879402
  0.9870855568065693  0.1822736274869001  0.9695570101973416
  0.5821477773730663  0.9204872263838979  0.5815837261357686
  0.9171806909936890  0.9166405754691240  0.9119156559972907
  0.4041702812042729  0.5828297436879524  0.1733069294429583
  0.3328009523290447  0.8378957253446231  0.0829272509374022
  0.0778653059037566  0.4155520384634031  0.0852185510884738
  0.4056534223030042  0.5829122386892749  0.6732496853114114
  0.3298949283916173  0.8379165177308394  0.5835162707138366
  0.0797752646982062  0.4153041906526340  0.5855204005120669
  0.9029541543652826  0.5825539493294229  0.1741113134909824
  0.8258211531661388  0.8378571400277295  0.0843275118892706
  0.5780821874222184  0.4170749884051048  0.0837205088923483
  0.9055300584394530  0.5824993312007010  0.6731981417873882
  0.8289767127873020  0.8380096456011046  0.5845023822968045
  0.5790256285805881  0.4153626302756521  0.5857301446736543
  0.2182423160139848  0.5829785458514749  0.2684165432006935
  0.0396233674353681  0.5988783570517029  0.1016492870474366
  0.1298789989117211  0.3262329779926176  0.1973408719666025
  0.2147131935687270  0.0820054596825557  0.2747447816062873
  0.3801683540253791  0.5830532034318594  0.4369142012082747
  0.4504340617223548  0.3236892045463051  0.0124028776975038
  0.1302338581066209  0.8381278545128268  0.1873540488649468
  0.2963984900617334  0.3308484372977745  0.3525532945291943
  0.3794936953020880  0.0802147765330048  0.4366437736731896
  0.4687204294540095  0.8358651079351702  0.0124776578964898
  0.2946389107384917  0.8342215498448837  0.3547060721410560
  0.4686584587370319  0.6773614863985316  0.2794795293548873
  0.2748655215143643  0.6640475204005796  0.0979107900367993
  0.3745454655812495  0.3947495011970830  0.1856059450134424
  0.4641007764781904  0.1639659408209653  0.2714627406174799
  0.1314962497294232  0.6666829278702977  0.4347085708279366
  0.2155137127904823  0.4145459159904590  0.0145873749937167
  0.2898892152283992  0.1607716642890153  0.1026435330065993
  0.3828884464331139  0.9233607768763221  0.1956202104920877
  0.0446869356794153  0.4189315571963590  0.3528373467549173
  0.1280066245723290  0.1695536104918176  0.4357649524608220
  0.1964425534715417  0.9277439155831360  0.0141370355938122
  0.0472156430874975  0.9208795223143298  0.3531706327718851
  0.2188811377567887  0.5818283293670419  0.7671865882927520
  0.0410285015833693  0.5979898164037678  0.6021065185872487
  0.1320840014444968  0.3228388334290955  0.6958892323234309
  0.2133759873341319  0.0820607091460772  0.7706863432747610
  0.3790162617813735  0.5831527025624510  0.9370238722647599
  0.4527880478434483  0.3229117489701920  0.5122619300497533
  0.0434205388744857  0.0854131672286940  0.6042030622882351
  0.1325622012731458  0.8389858134617967  0.6859724239541620
  0.2963507951119837  0.3318407929219376  0.8521208434440908
  0.3742759445541779  0.0808655382603618  0.9357920925642702
  0.4694543154514577  0.8352730388931917  0.5127893502289851
  0.2937060178553352  0.8337489685181012  0.8549407177735375
  0.4692751581726426  0.6780035535668389  0.7800819939636057
  0.2775992810518773  0.6617781616464029  0.5975468324267155
  0.3790654871758861  0.3956854355095345  0.6849642992487261
  0.4618719924283283  0.1646219699800326  0.7723062070959017
  0.1299101024509071  0.6665644321821702  0.9344395323952739
  0.2182379793525229  0.4137839800402929  0.5143772278581409
  0.2931304029389707  0.1607873890030334  0.6024126846843529
  0.3846177390290322  0.9240180628397496  0.6958407807061846
  0.0439898446411604  0.4188578838513735  0.8528753072734219
  0.1271260955522990  0.1702389745516513  0.9334090472101835
  0.2004971028264819  0.9272990219412307  0.5129192112580441
  0.0466232543757172  0.9207095905421028  0.8528454622386761
  0.7187328525267773  0.5822094633834496  0.2664223965701780
  0.5382746574861343  0.5990040282576672  0.1012787084332132
  0.6291165300260246  0.3255719695504879  0.1947852604116775
  0.7223994854211071  0.0838374952504211  0.2659935574595167
  0.8805389457920967  0.5834322391005884  0.4374356954012555
  0.9491234442983156  0.3250597899832783  0.0124649479481107
  0.5397671070052610  0.0849493242763444  0.1017752735875206
  0.6304496844870684  0.8384564505029104  0.1847386585901845
  0.7952215434039260  0.3345730891402638  0.3530476424886686
  0.8781110096258047  0.0806904661335750  0.4376174314816481
  0.9639589649648528  0.8320928436824104  0.0122285926624244
  0.7941846639636623  0.8325348095292071  0.3560984353442791
  0.9686813461654111  0.6773956267051631  0.2799469188688946
  0.7758728151674887  0.6611445830453775  0.0972112653990749
  0.8777304458774395  0.3944961870707644  0.1850808325877864
  0.9613332438135203  0.1657150754618328  0.2755911076347104
  0.6313992822387817  0.6655742845015240  0.4340215144819339
  0.7169761843290559  0.4132923461136357  0.0140230678584459
  0.7886453217424005  0.1608028897481333  0.1023811661359701
  0.8816170975377560  0.9215440056511923  0.1973326734964616
  0.5440570764644264  0.4191772703748171  0.3520038699253192
  0.6298503682854459  0.1693870205790944  0.4333713113393856
  0.6995748780404440  0.9271878938881173  0.0123134676991867
  0.5499174460185685  0.9215063056410528  0.3511560866231775
  0.7186311930169680  0.5816629666549531  0.7667197789046156
  0.5406337256961891  0.5982086029595592  0.6016718826461513
  0.6318689513515068  0.3226105847794187  0.6956371821635088
  0.7102148729720952  0.0812360157037091  0.7699794922790062
  0.8774012821587647  0.5829781419403872  0.9358868744922830
  0.9519016788559327  0.3235396369652079  0.5129817187582404
  0.5431464400263906  0.0852020127776214  0.6029518589184022
  0.6323596722184490  0.8385639543850871  0.6853439304739126
  0.7954821287626359  0.3307005220567163  0.8521143764369796
  0.8731485945989590  0.0800864098774596  0.9332446265455729
  0.9686900175713333  0.8357793104642397  0.5143787439759961
  0.7929972613964154  0.8336373916656044  0.8544376552730668
  0.9690292303052743  0.6778852533003388  0.7802201477488140
  0.7775215206857240  0.6614313098113911  0.5975420662243991
  0.8786323680777670  0.3954165376626477  0.6855650906442179
  0.9618877875814462  0.1646326433551621  0.7731063320839482
  0.6306528429518323  0.6660234723413865  0.9338781149117494
  0.7174079770170749  0.4138650953058161  0.5147668366176106
  0.7925676732458200  0.1607542296284734  0.6029051894121196
  0.8840996300736563  0.9244975575928009  0.6966872905953991
  0.5446444855532633  0.4190504218803000  0.8522529351702630
  0.6259541682682226  0.1695856971954015  0.9346187682770051
  0.7002151307394939  0.9270381303082900  0.5129278763362635
  0.5466396819050132  0.9208706847280865  0.8524878307194754
 
  0.00000000E+00  0.00000000E+00  0.00000000E+00
  0.00000000E+00  0.00000000E+00  0.00000000E+00
  0.00000000E+00  0.00000000E+00  0.00000000E+00
  0.00000000E+00  0.00000000E+00  0.00000000E+00
  0.00000000E+00  0.00000000E+00  0.00000000E+00
  0.00000000E+00  0.00000000E+00  0.00000000E+00
  0.00000000E+00  0.00000000E+00  0.00000000E+00
  0.00000000E+00  0.00000000E+00  0.00000000E+00
  0.00000000E+00  0.00000000E+00  0.00000000E+00
  0.00000000E+00  0.00000000E+00  0.00000000E+00
  0.00000000E+00  0.00000000E+00  0.00000000E+00
  0.00000000E+00  0.00000000E+00  0.00000000E+00
  0.00000000E+00  0.00000000E+00  0.00000000E+00
  0.00000000E+00  0.00000000E+00  0.00000000E+00
  0.00000000E+00  0.00000000E+00  0.00000000E+00
  0.00000000E+00  0.00000000E+00  0.00000000E+00
  0.00000000E+00  0.00000000E+00  0.00000000E+00
  0.00000000E+00  0.00000000E+00  0.00000000E+00
  0.00000000E+00  0.00000000E+00  0.00000000E+00
  0.00000000E+00  0.00000000E+00  0.00000000E+00
  0.00000000E+00  0.00000000E+00  0.00000000E+00
  0.00000000E+00  0.00000000E+00  0.00000000E+00
  0.00000000E+00  0.00000000E+00  0.00000000E+00
  0.00000000E+00  0.00000000E+00  0.00000000E+00
  0.00000000E+00  0.00000000E+00  0.00000000E+00
  0.00000000E+00  0.00000000E+00  0.00000000E+00
  0.00000000E+00  0.00000000E+00  0.00000000E+00
  0.00000000E+00  0.00000000E+00  0.00000000E+00
  0.00000000E+00  0.00000000E+00  0.00000000E+00
  0.00000000E+00  0.00000000E+00  0.00000000E+00
  0.00000000E+00  0.00000000E+00  0.00000000E+00
  0.00000000E+00  0.00000000E+00  0.00000000E+00
  0.00000000E+00  0.00000000E+00  0.00000000E+00
  0.00000000E+00  0.00000000E+00  0.00000000E+00
  0.00000000E+00  0.00000000E+00  0.00000000E+00
  0.00000000E+00  0.00000000E+00  0.00000000E+00
  0.00000000E+00  0.00000000E+00  0.00000000E+00
  0.00000000E+00  0.00000000E+00  0.00000000E+00
  0.00000000E+00  0.00000000E+00  0.00000000E+00
  0.00000000E+00  0.00000000E+00  0.00000000E+00
  0.00000000E+00  0.00000000E+00  0.00000000E+00
  0.00000000E+00  0.00000000E+00  0.00000000E+00
  0.00000000E+00  0.00000000E+00  0.00000000E+00
  0.00000000E+00  0.00000000E+00  0.00000000E+00
  0.00000000E+00  0.00000000E+00  0.00000000E+00
  0.00000000E+00  0.00000000E+00  0.00000000E+00
  0.00000000E+00  0.00000000E+00  0.00000000E+00
  0.00000000E+00  0.00000000E+00  0.00000000E+00
  0.00000000E+00  0.00000000E+00  0.00000000E+00
  0.00000000E+00  0.00000000E+00  0.00000000E+00
  0.00000000E+00  0.00000000E+00  0.00000000E+00
  0.00000000E+00  0.00000000E+00  0.00000000E+00
  0.00000000E+00  0.00000000E+00  0.00000000E+00
  0.00000000E+00  0.00000000E+00  0.00000000E+00
  0.00000000E+00  0.00000000E+00  0.00000000E+00
  0.00000000E+00  0.00000000E+00  0.00000000E+00
  0.00000000E+00  0.00000000E+00  0.00000000E+00
  0.00000000E+00  0.00000000E+00  0.00000000E+00
  0.00000000E+00  0.00000000E+00  0.00000000E+00
  0.00000000E+00  0.00000000E+00  0.00000000E+00
  0.00000000E+00  0.00000000E+00  0.00000000E+00
  0.00000000E+00  0.00000000E+00  0.00000000E+00
  0.00000000E+00  0.00000000E+00  0.00000000E+00
  0.00000000E+00  0.00000000E+00  0.00000000E+00
  0.00000000E+00  0.00000000E+00  0.00000000E+00
  0.00000000E+00  0.00000000E+00  0.00000000E+00
  0.00000000E+00  0.00000000E+00  0.00000000E+00
  0.00000000E+00  0.00000000E+00  0.00000000E+00
  0.00000000E+00  0.00000000E+00  0.00000000E+00
  0.00000000E+00  0.00000000E+00  0.00000000E+00
  0.00000000E+00  0.00000000E+00  0.00000000E+00
  0.00000000E+00  0.00000000E+00  0.00000000E+00
  0.00000000E+00  0.00000000E+00  0.00000000E+00
  0.00000000E+00  0.00000000E+00  0.00000000E+00
  0.00000000E+00  0.00000000E+00  0.00000000E+00
  0.00000000E+00  0.00000000E+00  0.00000000E+00
  0.00000000E+00  0.00000000E+00  0.00000000E+00
  0.00000000E+00  0.00000000E+00  0.00000000E+00
  0.00000000E+00  0.00000000E+00  0.00000000E+00
  0.00000000E+00  0.00000000E+00  0.00000000E+00
  0.00000000E+00  0.00000000E+00  0.00000000E+00
  0.00000000E+00  0.00000000E+00  0.00000000E+00
  0.00000000E+00  0.00000000E+00  0.00000000E+00
  0.00000000E+00  0.00000000E+00  0.00000000E+00
  0.00000000E+00  0.00000000E+00  0.00000000E+00
  0.00000000E+00  0.00000000E+00  0.00000000E+00
  0.00000000E+00  0.00000000E+00  0.00000000E+00
  0.00000000E+00  0.00000000E+00  0.00000000E+00
  0.00000000E+00  0.00000000E+00  0.00000000E+00
  0.00000000E+00  0.00000000E+00  0.00000000E+00
  0.00000000E+00  0.00000000E+00  0.00000000E+00
  0.00000000E+00  0.00000000E+00  0.00000000E+00
  0.00000000E+00  0.00000000E+00  0.00000000E+00
  0.00000000E+00  0.00000000E+00  0.00000000E+00
  0.00000000E+00  0.00000000E+00  0.00000000E+00
  0.00000000E+00  0.00000000E+00  0.00000000E+00
  0.00000000E+00  0.00000000E+00  0.00000000E+00
  0.00000000E+00  0.00000000E+00  0.00000000E+00
  0.00000000E+00  0.00000000E+00  0.00000000E+00
  0.00000000E+00  0.00000000E+00  0.00000000E+00
  0.00000000E+00  0.00000000E+00  0.00000000E+00
  0.00000000E+00  0.00000000E+00  0.00000000E+00
  0.00000000E+00  0.00000000E+00  0.00000000E+00
  0.00000000E+00  0.00000000E+00  0.00000000E+00
  0.00000000E+00  0.00000000E+00  0.00000000E+00
  0.00000000E+00  0.00000000E+00  0.00000000E+00
  0.00000000E+00  0.00000000E+00  0.00000000E+00
  0.00000000E+00  0.00000000E+00  0.00000000E+00
  0.00000000E+00  0.00000000E+00  0.00000000E+00
  0.00000000E+00  0.00000000E+00  0.00000000E+00
  0.00000000E+00  0.00000000E+00  0.00000000E+00
  0.00000000E+00  0.00000000E+00  0.00000000E+00
  0.00000000E+00  0.00000000E+00  0.00000000E+00
  0.00000000E+00  0.00000000E+00  0.00000000E+00
  0.00000000E+00  0.00000000E+00  0.00000000E+00
  0.00000000E+00  0.00000000E+00  0.00000000E+00
  0.00000000E+00  0.00000000E+00  0.00000000E+00
  0.00000000E+00  0.00000000E+00  0.00000000E+00
  0.00000000E+00  0.00000000E+00  0.00000000E+00
  0.00000000E+00  0.00000000E+00  0.00000000E+00
  0.00000000E+00  0.00000000E+00  0.00000000E+00
  0.00000000E+00  0.00000000E+00  0.00000000E+00
  0.00000000E+00  0.00000000E+00  0.00000000E+00
  0.00000000E+00  0.00000000E+00  0.00000000E+00
  0.00000000E+00  0.00000000E+00  0.00000000E+00
  0.00000000E+00  0.00000000E+00  0.00000000E+00
  0.00000000E+00  0.00000000E+00  0.00000000E+00
  0.00000000E+00  0.00000000E+00  0.00000000E+00
  0.00000000E+00  0.00000000E+00  0.00000000E+00
  0.00000000E+00  0.00000000E+00  0.00000000E+00
  0.00000000E+00  0.00000000E+00  0.00000000E+00
  0.00000000E+00  0.00000000E+00  0.00000000E+00
  0.00000000E+00  0.00000000E+00  0.00000000E+00
  0.00000000E+00  0.00000000E+00  0.00000000E+00
  0.00000000E+00  0.00000000E+00  0.00000000E+00
  0.00000000E+00  0.00000000E+00  0.00000000E+00
  0.00000000E+00  0.00000000E+00  0.00000000E+00
  0.00000000E+00  0.00000000E+00  0.00000000E+00
  0.00000000E+00  0.00000000E+00  0.00000000E+00
  0.00000000E+00  0.00000000E+00  0.00000000E+00
  0.00000000E+00  0.00000000E+00  0.00000000E+00
  0.00000000E+00  0.00000000E+00  0.00000000E+00
  0.00000000E+00  0.00000000E+00  0.00000000E+00
  0.00000000E+00  0.00000000E+00  0.00000000E+00
  0.00000000E+00  0.00000000E+00  0.00000000E+00
  0.00000000E+00  0.00000000E+00  0.00000000E+00
  0.00000000E+00  0.00000000E+00  0.00000000E+00
  0.00000000E+00  0.00000000E+00  0.00000000E+00
  0.00000000E+00  0.00000000E+00  0.00000000E+00
  0.00000000E+00  0.00000000E+00  0.00000000E+00
  0.00000000E+00  0.00000000E+00  0.00000000E+00
  0.00000000E+00  0.00000000E+00  0.00000000E+00
  0.00000000E+00  0.00000000E+00  0.00000000E+00
  0.00000000E+00  0.00000000E+00  0.00000000E+00
  0.00000000E+00  0.00000000E+00  0.00000000E+00
  0.00000000E+00  0.00000000E+00  0.00000000E+00
  0.00000000E+00  0.00000000E+00  0.00000000E+00
  0.00000000E+00  0.00000000E+00  0.00000000E+00
  0.00000000E+00  0.00000000E+00  0.00000000E+00
  0.00000000E+00  0.00000000E+00  0.00000000E+00
  0.00000000E+00  0.00000000E+00  0.00000000E+00
  0.00000000E+00  0.00000000E+00  0.00000000E+00
  0.00000000E+00  0.00000000E+00  0.00000000E+00
  0.00000000E+00  0.00000000E+00  0.00000000E+00
  0.00000000E+00  0.00000000E+00  0.00000000E+00
  0.00000000E+00  0.00000000E+00  0.00000000E+00
  0.00000000E+00  0.00000000E+00  0.00000000E+00
  0.00000000E+00  0.00000000E+00  0.00000000E+00
  0.00000000E+00  0.00000000E+00  0.00000000E+00
  0.00000000E+00  0.00000000E+00  0.00000000E+00
  0.00000000E+00  0.00000000E+00  0.00000000E+00
  0.00000000E+00  0.00000000E+00  0.00000000E+00
  0.00000000E+00  0.00000000E+00  0.00000000E+00
  0.00000000E+00  0.00000000E+00  0.00000000E+00
  0.00000000E+00  0.00000000E+00  0.00000000E+00
  0.00000000E+00  0.00000000E+00  0.00000000E+00
  0.00000000E+00  0.00000000E+00  0.00000000E+00
  0.00000000E+00  0.00000000E+00  0.00000000E+00
  0.00000000E+00  0.00000000E+00  0.00000000E+00
  0.00000000E+00  0.00000000E+00  0.00000000E+00
  0.00000000E+00  0.00000000E+00  0.00000000E+00
  0.00000000E+00  0.00000000E+00  0.00000000E+00
  0.00000000E+00  0.00000000E+00  0.00000000E+00
  0.00000000E+00  0.00000000E+00  0.00000000E+00
  0.00000000E+00  0.00000000E+00  0.00000000E+00
  0.00000000E+00  0.00000000E+00  0.00000000E+00
  0.00000000E+00  0.00000000E+00  0.00000000E+00
  0.00000000E+00  0.00000000E+00  0.00000000E+00
  0.00000000E+00  0.00000000E+00  0.00000000E+00
  0.00000000E+00  0.00000000E+00  0.00000000E+00
  0.00000000E+00  0.00000000E+00  0.00000000E+00
