supercell of POSCAR                     
   1.01189200000000     
     3.1482772356600002   -5.4762754812200001    9.9674464565599994
    -9.4511209497999999   -5.4731922780100000    0.0032121685426600
     6.3112884282600001  -10.9581161277000003   -9.9749049577999997
   Al   Sc   N 
    84    12    95
Direct
  0.0841351070951646  0.5863680988950080  0.3357190616185477
  0.9518023077303823  0.3286471221056289  0.2775586826679586
  0.0826812729552842  0.0842232727794396  0.3355783638862633
  0.2490346366579530  0.5805793747740609  0.4976847448367394
  0.3301099418518589  0.3251875194206377  0.0793214022128979
  0.4206256185679180  0.0855166328282593  0.1696122240681603
  0.0035803759967834  0.8407021676108926  0.2532191020276073
  0.1649351322950778  0.3327091499464032  0.4166517065743847
  0.2481087566100015  0.0863178435307645  0.4981292117364902
  0.1623265244409779  0.8355326981484765  0.4174754232351461
  0.3377595545431191  0.6736178213148278  0.3388828847325058
  0.1603374747337725  0.6715980396830403  0.1650738548694761
  0.2751692852807821  0.4301772864572015  0.2660021006292439
  0.3343138386800248  0.1647018024947684  0.3342705262756809
  0.0028007294730301  0.6716173300964030  0.4989030649998654
  0.1752957768749681  0.1198832303278294  0.1622609823827688
  0.2528483363211151  0.9144317934254929  0.2555600273258776
  0.4176546720286254  0.4160191919415652  0.4190316689623543
  0.4997456410657506  0.1630486904825048  0.4982728705462023
  0.0785003080783184  0.9152089383496715  0.0787851374016029
  0.4181284234280085  0.9184926268203952  0.4153545265655012
  0.0890703697360138  0.5843856160943872  0.8335072637239023
  0.0022625441613044  0.3266714790922478  0.7541133022060151
  0.0850410053745279  0.0838963278797209  0.8331428410562793
  0.2484229984074062  0.5805277202645769  0.9970731082313904
  0.3318981271011339  0.3243019585478493  0.5814185954480848
  0.4180492026283815  0.0865635921480035  0.6693744466078613
  0.0064334735004508  0.8398075622862322  0.7528928855663608
  0.1666314958042463  0.3335758187451248  0.9142793044621484
  0.2477022862203313  0.0854962400270978  0.9932472929701390
  0.1639701392480291  0.8346215301106881  0.9151146641321120
  0.3365797819794238  0.6700085083907297  0.8368868371969924
  0.1614220078676425  0.6711424858507868  0.6666891395511314
  0.2528867325924153  0.4088741778518639  0.7517399424564104
  0.3344359454397861  0.1662264098373711  0.8330655876747528
  0.0022080827502720  0.6676791757094307  0.9956350050553766
  0.1682102448277334  0.1614988967643214  0.6689148568179277
  0.2534828005862124  0.9189531503019523  0.7538791523815433
  0.4152882259906860  0.4162436182271634  0.9144155642127743
  0.4986013571463772  0.1635219769340281  0.9966857892568157
  0.0816330897501203  0.9215257195752358  0.5822501165712595
  0.4187724586220725  0.9177308989751438  0.9130104579431091
  0.5866381997719685  0.5861110687563738  0.3338743826070498
  0.5010682166228548  0.3254346417430583  0.2533030413627699
  0.5832411607379981  0.0831574588673618  0.3342033098202251
  0.7486903089534636  0.5830310639037890  0.4970883493280596
  0.8306270533305451  0.3241322633986314  0.0788001488441452
  0.9145153560436512  0.0866550887992403  0.1692779489542886
  0.5048369580598049  0.8402762792859519  0.2524528494816280
  0.6690928862009429  0.3328976269331250  0.4131337888234512
  0.7476568136528101  0.0855152700266757  0.4986986987275017
  0.6629721702583069  0.8358022033532038  0.4161782448985605
  0.8349219172734621  0.6719846786119774  0.3370668891465627
  0.6606392257644984  0.6721843724655301  0.1648772519501023
  0.7431626859908391  0.4148640304931135  0.2481863375636948
  0.8290579566657357  0.1558982820035340  0.3357914657991614
  0.5026475937348849  0.6706365888956256  0.4980208562279884
  0.6664925564685689  0.1616224649601747  0.1672178115211267
  0.7509163846423093  0.9177104235304228  0.2529612123003346
  0.9121674451417832  0.4211636407743100  0.4229691393247137
  0.9989072233477572  0.1624872699307787  0.4991394234970556
  0.5809369241900768  0.9210193117888323  0.0800366087043187
  0.9175791890999605  0.9167778866414835  0.4150106084682932
  0.5893046495153911  0.5843442113332600  0.8332216735993683
  0.5025118689787504  0.3270632357015231  0.7533713197971323
  0.5850680355521831  0.0843208758103842  0.8336599022921618
  0.7500520652842724  0.5814033281191371  0.9956580400522412
  0.8323722583152176  0.3236148946859316  0.5815122817436915
  0.9180100618473972  0.0862900049506194  0.6697092737376451
  0.5062759012328684  0.8397098300114578  0.7528204002431949
  0.6685738453042305  0.3329362521751946  0.9126301128313798
  0.7473088949946032  0.0863450536942452  0.9962874312421306
  0.6640232164412438  0.8353115449740898  0.9150275192274364
  0.8368651854862037  0.6707028779174138  0.8365319899278134
  0.6610835594357454  0.6710035599247490  0.6664330332852089
  0.7535163367581461  0.4087814171852386  0.7511415399191677
  0.8344401249480811  0.1652586113742771  0.8332023725933908
  0.5025934900667721  0.6704011058060502  0.9951529961425791
  0.6679147217993062  0.1613644968486625  0.6688515926887106
  0.7529863250967566  0.9189146534979784  0.7536677688387670
  0.9155184261975506  0.4170693483513048  0.9148424328919731
  0.9986486410669144  0.1635516767055449  0.9954889772956719
  0.5812203419523456  0.9208133639873779  0.5819199734474267
  0.9178368425779198  0.9176326520038458  0.9131045925249452
  0.4084226451111306  0.5854290281885923  0.1694180752411540
  0.3283673662175701  0.8392249093614055  0.0825908193203304
  0.0777879081244706  0.4109001270395609  0.0895560573611007
  0.4058272995674770  0.5824450837554025  0.6733983818555558
  0.3276921826094323  0.8386076755139058  0.5848634417466982
  0.0802617518004496  0.4154643376395555  0.5874088410095908
  0.9049350822799340  0.5844523561489652  0.1724707612399143
  0.8264505750476445  0.8388441133011213  0.0829716190341969
  0.5807427481552452  0.4153301220806682  0.0809321408660253
  0.9051478374256803  0.5833103980215313  0.6737032352181416
  0.8276817295352714  0.8388746201781245  0.5846433044874288
  0.5823568405114941  0.4151332535136092  0.5850997970504181
  0.2142292956592158  0.5844360489430755  0.2678453111125876
  0.0421695493884613  0.5921723979715168  0.1009758757653572
  0.2103887969868765  0.0830588365526523  0.2715248902692977
  0.3796213068898027  0.5823155465548666  0.4359477752447773
  0.4493696240021379  0.3239251032133339  0.0133751030185678
  0.0399923998278950  0.0852598721671214  0.1027940264964471
  0.1306440887859281  0.8397530690496922  0.1851866699771492
  0.2940916638735729  0.3305288396731925  0.3541038000963894
  0.3771400447038928  0.0822684999302865  0.4349060436107948
  0.4673498212251772  0.8354583180973663  0.0133159639874876
  0.2928224950094247  0.8341234337753036  0.3558934295504272
  0.4665535259963107  0.6775532171803178  0.2782762390046472
  0.2768831518519264  0.6623902546347011  0.0977442418958390
  0.3707452784222340  0.3965557237276656  0.1867955819778473
  0.4607741460596344  0.1650256071221250  0.2718456750887697
  0.1303576393536829  0.6664901352960939  0.4346603531116031
  0.2124260850648056  0.4130349470900825  0.0177882797281015
  0.2911942958877844  0.1612990775936467  0.1020474501953856
  0.3814043667821281  0.9253275149718405  0.1960252523487469
  0.0433875827081351  0.4199374576339636  0.3534738572549116
  0.1266061895585295  0.1695730482967974  0.4347011504960818
  0.1981157148405828  0.9284720979604728  0.0129511303133611
  0.0460681601145509  0.9208279488858864  0.3526495377956280
  0.2191866527984558  0.5820000628580786  0.7670539785973958
  0.0407520051156354  0.5982055710234562  0.6020539948090615
  0.1326801522142276  0.3228400063519459  0.6965052156867912
  0.2129765084892341  0.0825522877472054  0.7715080531238740
  0.3788742971945211  0.5820817461879457  0.9373179324883907
  0.4531434580419216  0.3234472114705440  0.5135762133818105
  0.0428279354634782  0.0860107465536046  0.6036515888562164
  0.1330845148420181  0.8393729759757349  0.6856000680190419
  0.2956972085114344  0.3320178543377921  0.8536437007781146
  0.3772946794350034  0.0813133232805185  0.9349932078670165
  0.4671778197596410  0.8356111435962674  0.5139520044518520
  0.2939910753612054  0.8334698695500578  0.8550290497837665
  0.4696378562782257  0.6777655451489650  0.7799690555154797
  0.2775584611352500  0.6612012337414086  0.5973750131752595
  0.3787463191164377  0.3956985930357888  0.6857917277479970
  0.4627016448187788  0.1652500894395175  0.7721673231200015
  0.1311136917002003  0.6660369151192711  0.9345683946672665
  0.2176643362302855  0.4136588901114564  0.5145792982913235
  0.2926125079966795  0.1608408376245549  0.6023332270352171
  0.3845491125506584  0.9245830603248422  0.6963717565277676
  0.0451609818182490  0.4192687476381423  0.8528144067918362
  0.1268097282366938  0.1701222809381449  0.9346368293220664
  0.1993744146109080  0.9279480744375590  0.5127424596433841
  0.0471035868743215  0.9208290815577911  0.8530831248847051
  0.7164583567851679  0.5839071465338606  0.2663594285202961
  0.5420574160019953  0.5973111700721461  0.0997500722239337
  0.6279982886238429  0.3243364109274225  0.1932973424425768
  0.7094161322519454  0.0818459077509814  0.2699745478117350
  0.8792797738008531  0.5864721084743110  0.4368729764908750
  0.9548884327720515  0.3256163111802479  0.0144484502092794
  0.5416692603212567  0.0859036375379247  0.1026133678301306
  0.6303985984424045  0.8392258258182963  0.1846240236122867
  0.8061474591723865  0.3322001498975240  0.3460936651037727
  0.8768053571692604  0.0802624661027096  0.4364019938174977
  0.9660355819986819  0.8328373167644827  0.0131858651573182
  0.7926648576421087  0.8346565413799496  0.3541809992243756
  0.9674739431459543  0.6784246207918869  0.2790752051342267
  0.7773152589285814  0.6614008085419840  0.0969326991007549
  0.8772199812688015  0.3968465286903253  0.1839663922909409
  0.9600443973530801  0.1631171344122606  0.2726255989169317
  0.6298504297909560  0.6668021789304959  0.4335179599493131
  0.7194792594209218  0.4137724748636487  0.0129222072626121
  0.7917548518412758  0.1617000517607323  0.1020687968753862
  0.8824648109625883  0.9248279726369404  0.1955292987497543
  0.5452883219283819  0.4184777739157468  0.3509752747690129
  0.6291043581350309  0.1705782873020638  0.4333119148308953
  0.6988124098457220  0.9280155162000341  0.0120039339942295
  0.5452607222283703  0.9203492218943126  0.3523237240433588
  0.7196641042823657  0.5818886572202899  0.7666597965374180
  0.5413301316120851  0.5969724798992857  0.6011793391375093
  0.6329277861892137  0.3235753706737512  0.6952896942709046
  0.7126789237274593  0.0826198844505939  0.7713849269658368
  0.8799386960770406  0.5828697046313280  0.9362976401239536
  0.9527641533351172  0.3233532144432374  0.5139490536540663
  0.5430248902172821  0.0858559682075111  0.6029131356874089
  0.6326538430688942  0.8390702879146374  0.6853508953151817
  0.7976171541227615  0.3313340668903493  0.8525448174260433
  0.8771666261117090  0.0816044177585411  0.9356641359276452
  0.9677642827488668  0.8363493948555458  0.5142471009940053
  0.7939254766709922  0.8337452612844487  0.8545763439767811
  0.9700153413802468  0.6781357354140241  0.7800433194563894
  0.7769744197685782  0.6615833186332480  0.5972410825632011
  0.8794616437055680  0.3959483412106835  0.6852849110127934
  0.9625739438080316  0.1646686860895556  0.7723768476558917
  0.6313285707761551  0.6664460035607149  0.9336922565689108
  0.7209640942163915  0.4137197762960483  0.5111177180533133
  0.7924388167620506  0.1606445868253772  0.6024968786860896
  0.8843676357214534  0.9243250518508717  0.6963818781718274
  0.5454085696590028  0.4190528786254291  0.8524481514688276
  0.6268764775822646  0.1706878641167791  0.9348757424050333
  0.6987222195333587  0.9273100781602110  0.5123645287486625
  0.5471629464667416  0.9210177267925204  0.8525506114595984
 
  0.00000000E+00  0.00000000E+00  0.00000000E+00
  0.00000000E+00  0.00000000E+00  0.00000000E+00
  0.00000000E+00  0.00000000E+00  0.00000000E+00
  0.00000000E+00  0.00000000E+00  0.00000000E+00
  0.00000000E+00  0.00000000E+00  0.00000000E+00
  0.00000000E+00  0.00000000E+00  0.00000000E+00
  0.00000000E+00  0.00000000E+00  0.00000000E+00
  0.00000000E+00  0.00000000E+00  0.00000000E+00
  0.00000000E+00  0.00000000E+00  0.00000000E+00
  0.00000000E+00  0.00000000E+00  0.00000000E+00
  0.00000000E+00  0.00000000E+00  0.00000000E+00
  0.00000000E+00  0.00000000E+00  0.00000000E+00
  0.00000000E+00  0.00000000E+00  0.00000000E+00
  0.00000000E+00  0.00000000E+00  0.00000000E+00
  0.00000000E+00  0.00000000E+00  0.00000000E+00
  0.00000000E+00  0.00000000E+00  0.00000000E+00
  0.00000000E+00  0.00000000E+00  0.00000000E+00
  0.00000000E+00  0.00000000E+00  0.00000000E+00
  0.00000000E+00  0.00000000E+00  0.00000000E+00
  0.00000000E+00  0.00000000E+00  0.00000000E+00
  0.00000000E+00  0.00000000E+00  0.00000000E+00
  0.00000000E+00  0.00000000E+00  0.00000000E+00
  0.00000000E+00  0.00000000E+00  0.00000000E+00
  0.00000000E+00  0.00000000E+00  0.00000000E+00
  0.00000000E+00  0.00000000E+00  0.00000000E+00
  0.00000000E+00  0.00000000E+00  0.00000000E+00
  0.00000000E+00  0.00000000E+00  0.00000000E+00
  0.00000000E+00  0.00000000E+00  0.00000000E+00
  0.00000000E+00  0.00000000E+00  0.00000000E+00
  0.00000000E+00  0.00000000E+00  0.00000000E+00
  0.00000000E+00  0.00000000E+00  0.00000000E+00
  0.00000000E+00  0.00000000E+00  0.00000000E+00
  0.00000000E+00  0.00000000E+00  0.00000000E+00
  0.00000000E+00  0.00000000E+00  0.00000000E+00
  0.00000000E+00  0.00000000E+00  0.00000000E+00
  0.00000000E+00  0.00000000E+00  0.00000000E+00
  0.00000000E+00  0.00000000E+00  0.00000000E+00
  0.00000000E+00  0.00000000E+00  0.00000000E+00
  0.00000000E+00  0.00000000E+00  0.00000000E+00
  0.00000000E+00  0.00000000E+00  0.00000000E+00
  0.00000000E+00  0.00000000E+00  0.00000000E+00
  0.00000000E+00  0.00000000E+00  0.00000000E+00
  0.00000000E+00  0.00000000E+00  0.00000000E+00
  0.00000000E+00  0.00000000E+00  0.00000000E+00
  0.00000000E+00  0.00000000E+00  0.00000000E+00
  0.00000000E+00  0.00000000E+00  0.00000000E+00
  0.00000000E+00  0.00000000E+00  0.00000000E+00
  0.00000000E+00  0.00000000E+00  0.00000000E+00
  0.00000000E+00  0.00000000E+00  0.00000000E+00
  0.00000000E+00  0.00000000E+00  0.00000000E+00
  0.00000000E+00  0.00000000E+00  0.00000000E+00
  0.00000000E+00  0.00000000E+00  0.00000000E+00
  0.00000000E+00  0.00000000E+00  0.00000000E+00
  0.00000000E+00  0.00000000E+00  0.00000000E+00
  0.00000000E+00  0.00000000E+00  0.00000000E+00
  0.00000000E+00  0.00000000E+00  0.00000000E+00
  0.00000000E+00  0.00000000E+00  0.00000000E+00
  0.00000000E+00  0.00000000E+00  0.00000000E+00
  0.00000000E+00  0.00000000E+00  0.00000000E+00
  0.00000000E+00  0.00000000E+00  0.00000000E+00
  0.00000000E+00  0.00000000E+00  0.00000000E+00
  0.00000000E+00  0.00000000E+00  0.00000000E+00
  0.00000000E+00  0.00000000E+00  0.00000000E+00
  0.00000000E+00  0.00000000E+00  0.00000000E+00
  0.00000000E+00  0.00000000E+00  0.00000000E+00
  0.00000000E+00  0.00000000E+00  0.00000000E+00
  0.00000000E+00  0.00000000E+00  0.00000000E+00
  0.00000000E+00  0.00000000E+00  0.00000000E+00
  0.00000000E+00  0.00000000E+00  0.00000000E+00
  0.00000000E+00  0.00000000E+00  0.00000000E+00
  0.00000000E+00  0.00000000E+00  0.00000000E+00
  0.00000000E+00  0.00000000E+00  0.00000000E+00
  0.00000000E+00  0.00000000E+00  0.00000000E+00
  0.00000000E+00  0.00000000E+00  0.00000000E+00
  0.00000000E+00  0.00000000E+00  0.00000000E+00
  0.00000000E+00  0.00000000E+00  0.00000000E+00
  0.00000000E+00  0.00000000E+00  0.00000000E+00
  0.00000000E+00  0.00000000E+00  0.00000000E+00
  0.00000000E+00  0.00000000E+00  0.00000000E+00
  0.00000000E+00  0.00000000E+00  0.00000000E+00
  0.00000000E+00  0.00000000E+00  0.00000000E+00
  0.00000000E+00  0.00000000E+00  0.00000000E+00
  0.00000000E+00  0.00000000E+00  0.00000000E+00
  0.00000000E+00  0.00000000E+00  0.00000000E+00
  0.00000000E+00  0.00000000E+00  0.00000000E+00
  0.00000000E+00  0.00000000E+00  0.00000000E+00
  0.00000000E+00  0.00000000E+00  0.00000000E+00
  0.00000000E+00  0.00000000E+00  0.00000000E+00
  0.00000000E+00  0.00000000E+00  0.00000000E+00
  0.00000000E+00  0.00000000E+00  0.00000000E+00
  0.00000000E+00  0.00000000E+00  0.00000000E+00
  0.00000000E+00  0.00000000E+00  0.00000000E+00
  0.00000000E+00  0.00000000E+00  0.00000000E+00
  0.00000000E+00  0.00000000E+00  0.00000000E+00
  0.00000000E+00  0.00000000E+00  0.00000000E+00
  0.00000000E+00  0.00000000E+00  0.00000000E+00
  0.00000000E+00  0.00000000E+00  0.00000000E+00
  0.00000000E+00  0.00000000E+00  0.00000000E+00
  0.00000000E+00  0.00000000E+00  0.00000000E+00
  0.00000000E+00  0.00000000E+00  0.00000000E+00
  0.00000000E+00  0.00000000E+00  0.00000000E+00
  0.00000000E+00  0.00000000E+00  0.00000000E+00
  0.00000000E+00  0.00000000E+00  0.00000000E+00
  0.00000000E+00  0.00000000E+00  0.00000000E+00
  0.00000000E+00  0.00000000E+00  0.00000000E+00
  0.00000000E+00  0.00000000E+00  0.00000000E+00
  0.00000000E+00  0.00000000E+00  0.00000000E+00
  0.00000000E+00  0.00000000E+00  0.00000000E+00
  0.00000000E+00  0.00000000E+00  0.00000000E+00
  0.00000000E+00  0.00000000E+00  0.00000000E+00
  0.00000000E+00  0.00000000E+00  0.00000000E+00
  0.00000000E+00  0.00000000E+00  0.00000000E+00
  0.00000000E+00  0.00000000E+00  0.00000000E+00
  0.00000000E+00  0.00000000E+00  0.00000000E+00
  0.00000000E+00  0.00000000E+00  0.00000000E+00
  0.00000000E+00  0.00000000E+00  0.00000000E+00
  0.00000000E+00  0.00000000E+00  0.00000000E+00
  0.00000000E+00  0.00000000E+00  0.00000000E+00
  0.00000000E+00  0.00000000E+00  0.00000000E+00
  0.00000000E+00  0.00000000E+00  0.00000000E+00
  0.00000000E+00  0.00000000E+00  0.00000000E+00
  0.00000000E+00  0.00000000E+00  0.00000000E+00
  0.00000000E+00  0.00000000E+00  0.00000000E+00
  0.00000000E+00  0.00000000E+00  0.00000000E+00
  0.00000000E+00  0.00000000E+00  0.00000000E+00
  0.00000000E+00  0.00000000E+00  0.00000000E+00
  0.00000000E+00  0.00000000E+00  0.00000000E+00
  0.00000000E+00  0.00000000E+00  0.00000000E+00
  0.00000000E+00  0.00000000E+00  0.00000000E+00
  0.00000000E+00  0.00000000E+00  0.00000000E+00
  0.00000000E+00  0.00000000E+00  0.00000000E+00
  0.00000000E+00  0.00000000E+00  0.00000000E+00
  0.00000000E+00  0.00000000E+00  0.00000000E+00
  0.00000000E+00  0.00000000E+00  0.00000000E+00
  0.00000000E+00  0.00000000E+00  0.00000000E+00
  0.00000000E+00  0.00000000E+00  0.00000000E+00
  0.00000000E+00  0.00000000E+00  0.00000000E+00
  0.00000000E+00  0.00000000E+00  0.00000000E+00
  0.00000000E+00  0.00000000E+00  0.00000000E+00
  0.00000000E+00  0.00000000E+00  0.00000000E+00
  0.00000000E+00  0.00000000E+00  0.00000000E+00
  0.00000000E+00  0.00000000E+00  0.00000000E+00
  0.00000000E+00  0.00000000E+00  0.00000000E+00
  0.00000000E+00  0.00000000E+00  0.00000000E+00
  0.00000000E+00  0.00000000E+00  0.00000000E+00
  0.00000000E+00  0.00000000E+00  0.00000000E+00
  0.00000000E+00  0.00000000E+00  0.00000000E+00
  0.00000000E+00  0.00000000E+00  0.00000000E+00
  0.00000000E+00  0.00000000E+00  0.00000000E+00
  0.00000000E+00  0.00000000E+00  0.00000000E+00
  0.00000000E+00  0.00000000E+00  0.00000000E+00
  0.00000000E+00  0.00000000E+00  0.00000000E+00
  0.00000000E+00  0.00000000E+00  0.00000000E+00
  0.00000000E+00  0.00000000E+00  0.00000000E+00
  0.00000000E+00  0.00000000E+00  0.00000000E+00
  0.00000000E+00  0.00000000E+00  0.00000000E+00
  0.00000000E+00  0.00000000E+00  0.00000000E+00
  0.00000000E+00  0.00000000E+00  0.00000000E+00
  0.00000000E+00  0.00000000E+00  0.00000000E+00
  0.00000000E+00  0.00000000E+00  0.00000000E+00
  0.00000000E+00  0.00000000E+00  0.00000000E+00
  0.00000000E+00  0.00000000E+00  0.00000000E+00
  0.00000000E+00  0.00000000E+00  0.00000000E+00
  0.00000000E+00  0.00000000E+00  0.00000000E+00
  0.00000000E+00  0.00000000E+00  0.00000000E+00
  0.00000000E+00  0.00000000E+00  0.00000000E+00
  0.00000000E+00  0.00000000E+00  0.00000000E+00
  0.00000000E+00  0.00000000E+00  0.00000000E+00
  0.00000000E+00  0.00000000E+00  0.00000000E+00
  0.00000000E+00  0.00000000E+00  0.00000000E+00
  0.00000000E+00  0.00000000E+00  0.00000000E+00
  0.00000000E+00  0.00000000E+00  0.00000000E+00
  0.00000000E+00  0.00000000E+00  0.00000000E+00
  0.00000000E+00  0.00000000E+00  0.00000000E+00
  0.00000000E+00  0.00000000E+00  0.00000000E+00
  0.00000000E+00  0.00000000E+00  0.00000000E+00
  0.00000000E+00  0.00000000E+00  0.00000000E+00
  0.00000000E+00  0.00000000E+00  0.00000000E+00
  0.00000000E+00  0.00000000E+00  0.00000000E+00
  0.00000000E+00  0.00000000E+00  0.00000000E+00
  0.00000000E+00  0.00000000E+00  0.00000000E+00
  0.00000000E+00  0.00000000E+00  0.00000000E+00
  0.00000000E+00  0.00000000E+00  0.00000000E+00
  0.00000000E+00  0.00000000E+00  0.00000000E+00
  0.00000000E+00  0.00000000E+00  0.00000000E+00
  0.00000000E+00  0.00000000E+00  0.00000000E+00
  0.00000000E+00  0.00000000E+00  0.00000000E+00
  0.00000000E+00  0.00000000E+00  0.00000000E+00
  0.00000000E+00  0.00000000E+00  0.00000000E+00
  0.00000000E+00  0.00000000E+00  0.00000000E+00
  0.00000000E+00  0.00000000E+00  0.00000000E+00
