supercell of POSCAR                     
   1.01189200000000     
     3.1482772356600002   -5.4762754812200001    9.9674464565599994
    -9.4511209497999999   -5.4731922780100000    0.0032121685426600
     6.3112884282600001  -10.9581161277000003   -9.9749049577999997
   Al   Sc   N 
    84    12    95
Direct
  0.0815424716134530  0.5947722235286790  0.3373368142121791
  0.9926429197985343  0.3225999252568243  0.2504875347543774
  0.0834010433291255  0.0837582461221587  0.3344079315393387
  0.2490131977506138  0.5819402688340389  0.4986024023991078
  0.3194212150568703  0.3045770614689189  0.0521966613954064
  0.4173981712699231  0.0855896486970025  0.1680924596718967
  0.0039896404486797  0.8415748619731787  0.2525638224868771
  0.1669275766464224  0.3286952198443771  0.4224316944858018
  0.2483656602734001  0.0854476438554101  0.4985774508038361
  0.1629506893135115  0.8374971371206072  0.4170501492998113
  0.3342480882770289  0.6722572976467305  0.3389005617331478
  0.1583006276031185  0.6711769859007362  0.1669316430948484
  0.1994034193405270  0.4156242995680657  0.2769890311011309
  0.3304926005052522  0.1661696817738019  0.3345108202990872
  0.0018126239537537  0.6722998067166870  0.4993618252331444
  0.1653508296474655  0.1616578830398225  0.1688518857289907
  0.2511936901120961  0.9195868184949560  0.2539294147611031
  0.4120061334060949  0.4175254202451413  0.4173244795752282
  0.4977554085758840  0.1641196031739014  0.4983195064608168
  0.0805432604435410  0.9199809034090833  0.0815615939798775
  0.4163428844346200  0.9182110843772975  0.4150421124452066
  0.0897357169073842  0.5849906503706777  0.8338436463419114
  0.0019149554174689  0.3267468513786085  0.7531401818321584
  0.0854140082342099  0.0834752323219305  0.8334294736039993
  0.2514022984694932  0.5810452579410921  0.9963747997460501
  0.3320492028361954  0.3245190807536886  0.5820815702479933
  0.4183926811056793  0.0866873898488691  0.6695930315944878
  0.0070427817710197  0.8404990942717134  0.7532034060679891
  0.1639687737391995  0.3325845440226587  0.9093619346013568
  0.2463507392984567  0.0786175493184160  0.9951054607943490
  0.1645410394454458  0.8339284068587247  0.9156588380516908
  0.3377269217756051  0.6710516849908643  0.8367632181218596
  0.1614690493491722  0.6717954262228076  0.6671697954375873
  0.2537177475244690  0.4091020363749678  0.7509444389295510
  0.3351514340333850  0.1650514832912791  0.8334159334458917
  0.0028248718075972  0.6706737603864994  0.9965639631319618
  0.1682463425542196  0.1615166919243123  0.6689304111015701
  0.2539116485977573  0.9191470371465016  0.7540921077554117
  0.4169421076189721  0.4187332013080152  0.9120433594857573
  0.5023726358415601  0.1595509731265565  0.9966401224410788
  0.0813306205967734  0.9216327424743440  0.5822268181078414
  0.4189537763523603  0.9164907671044489  0.9143838247480005
  0.5879356241891713  0.5868000305591892  0.3339527357917333
  0.5298110870150197  0.3093984675751997  0.2706482661639882
  0.5844919481644624  0.0786694357742803  0.3356889049219589
  0.7504745777410946  0.5819635483488526  0.4969106316724421
  0.8322988234097934  0.3235717714117499  0.0782107622965782
  0.9164822001776969  0.0846282040115867  0.1680487096506624
  0.5032039450986190  0.8392513646917266  0.2520944544491570
  0.6724596299915788  0.3337233075475936  0.4180998091355832
  0.7477487697096308  0.0863840314712476  0.4975254319256806
  0.6628501394224315  0.8353387758610609  0.4166110243851051
  0.8339250387431463  0.6722372459627053  0.3370770052141552
  0.6569918606785734  0.6696677362866410  0.1665671145021150
  0.7525745561017061  0.4124764775097063  0.2507706525897646
  0.8324767905782409  0.1639078101734981  0.3339164718596166
  0.5022383703315256  0.6710009962060610  0.4981408239359908
  0.6680804802566058  0.1584714477723779  0.1665161780277558
  0.7509399681104085  0.9178283302413419  0.2533050642926185
  0.9156279195508716  0.4168875538061982  0.4152381616640710
  0.9978191113243469  0.1619765961100441  0.4986461481617326
  0.5808433178462806  0.9195909088351186  0.0813025363570787
  0.9169109661670092  0.9183069894320823  0.4144360498906394
  0.5903452012521129  0.5849951936128264  0.8333713743634519
  0.5033635266115368  0.3264718928647596  0.7532298714352663
  0.5859524060906125  0.0835769151471055  0.8333148868373286
  0.7510592264548563  0.5810477762611654  0.9954478344776234
  0.8330862206912144  0.3247741755202043  0.5801976017156036
  0.9181537315774619  0.0866349086648412  0.6695948786439985
  0.5069722158539633  0.8401910424661736  0.7530968311592545
  0.6694420197407212  0.3324433533349804  0.9118735680229548
  0.7489229963549917  0.0851755633416076  0.9962479617300062
  0.6641622798496272  0.8347254446071375  0.9159204659707925
  0.8379128355557981  0.6711818578004198  0.8368511172174138
  0.6615868228457273  0.6719097320346847  0.6659501914214516
  0.7539506085845247  0.4089686095347176  0.7500756556145944
  0.8350410680389615  0.1651814004314573  0.8332849808200180
  0.5023472087573566  0.6685123698440520  0.9978070395545942
  0.6684869015304216  0.1617994578064312  0.6682669131010783
  0.7535928227549462  0.9189882710663895  0.7539782557943653
  0.9147856178416660  0.4163987671806026  0.9146585635149691
  0.9989572970034146  0.1627511500741079  0.9974203350661810
  0.5808919571076743  0.9218462164239014  0.5816843344708076
  0.9185532560561427  0.9177974698747491  0.9139160344954007
  0.4003138746825456  0.5712254603888027  0.1782440522259989
  0.3285879316778875  0.8326593548309020  0.0857950326694947
  0.0786336198546564  0.4167460320896978  0.0843530650884219
  0.4061694321896425  0.5834112638868945  0.6738509165927269
  0.3280278984299301  0.8388418615831625  0.5851560316763056
  0.0778068057890238  0.4164260890509865  0.5877796726218634
  0.9031693173078352  0.5840249251858509  0.1722022196133679
  0.8267090623006865  0.8364443362741767  0.0831607468751372
  0.5844768602909696  0.4154109227116010  0.0816972698504728
  0.9049184149262430  0.5847968109750212  0.6740715864617997
  0.8272303513154640  0.8405639813318899  0.5845899646440600
  0.5792956955939985  0.4158611541369908  0.5857749046354996
  0.2152733561140749  0.5846489656207510  0.2686433110187423
  0.0393206893924614  0.5986055387256428  0.1017628692144399
  0.1275736737975279  0.3232330452943373  0.1946367439285055
  0.2108579267078525  0.0838344133513615  0.2709191264191801
  0.3788180661539826  0.5840066689165084  0.4368411559360368
  0.4539112280058433  0.3239407285837288  0.0120076906478559
  0.0424910435818404  0.0852959217031284  0.1031452077306128
  0.1315726362203833  0.8387466908817700  0.1856427478401628
  0.2937807665362797  0.3325683646162503  0.3537735124385364
  0.3765127867679112  0.0824617010468387  0.4348499660355714
  0.4669482713948199  0.8335409663172086  0.0149697064257239
  0.2923158858015427  0.8347876898777002  0.3546773435958954
  0.4646882413733948  0.6754072847145736  0.2771708714545724
  0.2790241196258165  0.6526171357346797  0.1016540599294160
  0.4589053883807281  0.1649233620976318  0.2718095142499664
  0.1303429582987121  0.6688468289825735  0.4362390625358614
  0.2151749109739498  0.4144206520705680  0.0113471288282057
  0.2910720485542768  0.1613779337292058  0.1025783315506033
  0.3820286385757115  0.9253716543105739  0.1956215432222876
  0.0549129633676060  0.4195571235820807  0.3466497094806016
  0.1262749835253700  0.1675250372151709  0.4355656126231651
  0.2004887437478189  0.9228151954580781  0.0142619497742444
  0.0455743272167197  0.9208841509152990  0.3525771985595938
  0.2201215031346280  0.5821097947546505  0.7674943879864671
  0.0405393264029996  0.5995011827799033  0.6026187189256902
  0.1331228043831487  0.3231176744138011  0.6964011955334399
  0.2133326778568474  0.0827046055706049  0.7717177659969039
  0.3806194350724610  0.5828397525939266  0.9369245287836421
  0.4511281101657119  0.3248082875564435  0.5127230617508758
  0.0427131677794961  0.0864205359100083  0.6036263582790014
  0.1333359816899033  0.8399937615508577  0.6858706095374743
  0.2970234954096824  0.3315672402861765  0.8530439572121011
  0.3773898556294029  0.0811831491068133  0.9362999775231842
  0.4670675979017176  0.8361943951812094  0.5139484668625300
  0.2944566673167088  0.8336605789443254  0.8552039785167906
  0.4707248355637788  0.6782723558077208  0.7802455066790728
  0.2776174862341279  0.6618285497996155  0.5982926096177010
  0.3801002678821490  0.3961058172780483  0.6859000577532370
  0.4632785337770216  0.1649083798300097  0.7725988041774769
  0.1324868749561432  0.6656854404671435  0.9354236448447679
  0.2171578083375394  0.4149558987906161  0.5168471849797385
  0.2928120698055139  0.1609220396655644  0.6026759662064478
  0.3850732372014321  0.9247917346458721  0.6967264390017434
  0.0439693474599636  0.4199303663343699  0.8513766482670491
  0.1286853279949796  0.1693665561760014  0.9353828001208839
  0.1994878687969077  0.9276778117589330  0.5132372593378633
  0.0479311833929614  0.9207240940481825  0.8535822221676028
  0.7163922490242314  0.5824582853508034  0.2671469928729877
  0.5329214761391086  0.5920913300193718  0.1051039645041101
  0.6298624903323642  0.3243982455459005  0.1945235609769043
  0.7094130884184651  0.0829340088357569  0.2706464391635848
  0.8817146115608665  0.5831495988637201  0.4352722317131565
  0.9530796583282992  0.3239046283990703  0.0123404908806748
  0.5419359435652069  0.0853627814582012  0.1030671760257746
  0.6295165476903790  0.8377338106534324  0.1855725536330226
  0.7969408843107004  0.3327487417630977  0.3510473905957241
  0.8759856319361603  0.0819344959134511  0.4349754841109075
  0.9671290880179058  0.8353711452930170  0.0140149228498458
  0.7919285085008738  0.8347478273976421  0.3546179541696617
  0.9653857873179419  0.6800773381644234  0.2787942761327713
  0.7723017743547231  0.6592877755558817  0.0973348970538837
  0.8746057205297504  0.3966074273847084  0.1838014578635381
  0.9597126471715640  0.1625928298478669  0.2717073565205581
  0.6302476506087586  0.6664096470089760  0.4337528540219608
  0.7196942883018380  0.4133727995408165  0.0120285174910606
  0.7918688108354814  0.1611845330293704  0.1016484280756771
  0.8814671624783088  0.9237874678032512  0.1951606060339728
  0.5440738680712442  0.4209525446196523  0.3538723590246491
  0.6262985011578763  0.1713071123478969  0.4333019533650528
  0.6987527372322262  0.9273780521935180  0.0129276454149903
  0.5441937035404507  0.9181500032343521  0.3524604385796266
  0.7207552657325706  0.5825185046456056  0.7664072016371435
  0.5411330345415166  0.5985343980763673  0.6016857816445693
  0.6331734494298473  0.3235248947195899  0.6951403892958510
  0.7132128037129561  0.0827497552342038  0.7709565828408103
  0.8809905994322236  0.5834331685471170  0.9365817883648830
  0.9536864004893175  0.3246458995081483  0.5107542289865563
  0.5428310836812855  0.0868140848803023  0.6029421089338030
  0.6331437387611913  0.8399049144534487  0.6853090621848992
  0.7975196898630443  0.3315708221789748  0.8512878846382606
  0.8777614121118305  0.0813161060945689  0.9351696156742051
  0.9667626822207467  0.8372921798525113  0.5141153172733794
  0.7939475173714641  0.8336165324881648  0.8550797076269987
  0.9710247240044652  0.6788299972064635  0.7805526611532017
  0.7777221728879624  0.6628550106207101  0.5965207228951570
  0.8807118416108466  0.3966096756669373  0.6840074125998825
  0.9632565184174027  0.1649056578224091  0.7723914261611924
  0.6306789046492867  0.6653469863363739  0.9351196571492721
  0.7192168078753909  0.4153256522797619  0.5149707944492476
  0.7931161534295583  0.1614566730975753  0.6016823897497403
  0.8848681686455606  0.9246966391131224  0.6967337719990141
  0.5465087042096073  0.4192772912986555  0.8517815849115564
  0.6283551114469574  0.1698857612460074  0.9344031726443802
  0.6981886344988197  0.9285455926869375  0.5120002498466221
  0.5472996591270913  0.9207297045635983  0.8534333868319521
 
  0.00000000E+00  0.00000000E+00  0.00000000E+00
  0.00000000E+00  0.00000000E+00  0.00000000E+00
  0.00000000E+00  0.00000000E+00  0.00000000E+00
  0.00000000E+00  0.00000000E+00  0.00000000E+00
  0.00000000E+00  0.00000000E+00  0.00000000E+00
  0.00000000E+00  0.00000000E+00  0.00000000E+00
  0.00000000E+00  0.00000000E+00  0.00000000E+00
  0.00000000E+00  0.00000000E+00  0.00000000E+00
  0.00000000E+00  0.00000000E+00  0.00000000E+00
  0.00000000E+00  0.00000000E+00  0.00000000E+00
  0.00000000E+00  0.00000000E+00  0.00000000E+00
  0.00000000E+00  0.00000000E+00  0.00000000E+00
  0.00000000E+00  0.00000000E+00  0.00000000E+00
  0.00000000E+00  0.00000000E+00  0.00000000E+00
  0.00000000E+00  0.00000000E+00  0.00000000E+00
  0.00000000E+00  0.00000000E+00  0.00000000E+00
  0.00000000E+00  0.00000000E+00  0.00000000E+00
  0.00000000E+00  0.00000000E+00  0.00000000E+00
  0.00000000E+00  0.00000000E+00  0.00000000E+00
  0.00000000E+00  0.00000000E+00  0.00000000E+00
  0.00000000E+00  0.00000000E+00  0.00000000E+00
  0.00000000E+00  0.00000000E+00  0.00000000E+00
  0.00000000E+00  0.00000000E+00  0.00000000E+00
  0.00000000E+00  0.00000000E+00  0.00000000E+00
  0.00000000E+00  0.00000000E+00  0.00000000E+00
  0.00000000E+00  0.00000000E+00  0.00000000E+00
  0.00000000E+00  0.00000000E+00  0.00000000E+00
  0.00000000E+00  0.00000000E+00  0.00000000E+00
  0.00000000E+00  0.00000000E+00  0.00000000E+00
  0.00000000E+00  0.00000000E+00  0.00000000E+00
  0.00000000E+00  0.00000000E+00  0.00000000E+00
  0.00000000E+00  0.00000000E+00  0.00000000E+00
  0.00000000E+00  0.00000000E+00  0.00000000E+00
  0.00000000E+00  0.00000000E+00  0.00000000E+00
  0.00000000E+00  0.00000000E+00  0.00000000E+00
  0.00000000E+00  0.00000000E+00  0.00000000E+00
  0.00000000E+00  0.00000000E+00  0.00000000E+00
  0.00000000E+00  0.00000000E+00  0.00000000E+00
  0.00000000E+00  0.00000000E+00  0.00000000E+00
  0.00000000E+00  0.00000000E+00  0.00000000E+00
  0.00000000E+00  0.00000000E+00  0.00000000E+00
  0.00000000E+00  0.00000000E+00  0.00000000E+00
  0.00000000E+00  0.00000000E+00  0.00000000E+00
  0.00000000E+00  0.00000000E+00  0.00000000E+00
  0.00000000E+00  0.00000000E+00  0.00000000E+00
  0.00000000E+00  0.00000000E+00  0.00000000E+00
  0.00000000E+00  0.00000000E+00  0.00000000E+00
  0.00000000E+00  0.00000000E+00  0.00000000E+00
  0.00000000E+00  0.00000000E+00  0.00000000E+00
  0.00000000E+00  0.00000000E+00  0.00000000E+00
  0.00000000E+00  0.00000000E+00  0.00000000E+00
  0.00000000E+00  0.00000000E+00  0.00000000E+00
  0.00000000E+00  0.00000000E+00  0.00000000E+00
  0.00000000E+00  0.00000000E+00  0.00000000E+00
  0.00000000E+00  0.00000000E+00  0.00000000E+00
  0.00000000E+00  0.00000000E+00  0.00000000E+00
  0.00000000E+00  0.00000000E+00  0.00000000E+00
  0.00000000E+00  0.00000000E+00  0.00000000E+00
  0.00000000E+00  0.00000000E+00  0.00000000E+00
  0.00000000E+00  0.00000000E+00  0.00000000E+00
  0.00000000E+00  0.00000000E+00  0.00000000E+00
  0.00000000E+00  0.00000000E+00  0.00000000E+00
  0.00000000E+00  0.00000000E+00  0.00000000E+00
  0.00000000E+00  0.00000000E+00  0.00000000E+00
  0.00000000E+00  0.00000000E+00  0.00000000E+00
  0.00000000E+00  0.00000000E+00  0.00000000E+00
  0.00000000E+00  0.00000000E+00  0.00000000E+00
  0.00000000E+00  0.00000000E+00  0.00000000E+00
  0.00000000E+00  0.00000000E+00  0.00000000E+00
  0.00000000E+00  0.00000000E+00  0.00000000E+00
  0.00000000E+00  0.00000000E+00  0.00000000E+00
  0.00000000E+00  0.00000000E+00  0.00000000E+00
  0.00000000E+00  0.00000000E+00  0.00000000E+00
  0.00000000E+00  0.00000000E+00  0.00000000E+00
  0.00000000E+00  0.00000000E+00  0.00000000E+00
  0.00000000E+00  0.00000000E+00  0.00000000E+00
  0.00000000E+00  0.00000000E+00  0.00000000E+00
  0.00000000E+00  0.00000000E+00  0.00000000E+00
  0.00000000E+00  0.00000000E+00  0.00000000E+00
  0.00000000E+00  0.00000000E+00  0.00000000E+00
  0.00000000E+00  0.00000000E+00  0.00000000E+00
  0.00000000E+00  0.00000000E+00  0.00000000E+00
  0.00000000E+00  0.00000000E+00  0.00000000E+00
  0.00000000E+00  0.00000000E+00  0.00000000E+00
  0.00000000E+00  0.00000000E+00  0.00000000E+00
  0.00000000E+00  0.00000000E+00  0.00000000E+00
  0.00000000E+00  0.00000000E+00  0.00000000E+00
  0.00000000E+00  0.00000000E+00  0.00000000E+00
  0.00000000E+00  0.00000000E+00  0.00000000E+00
  0.00000000E+00  0.00000000E+00  0.00000000E+00
  0.00000000E+00  0.00000000E+00  0.00000000E+00
  0.00000000E+00  0.00000000E+00  0.00000000E+00
  0.00000000E+00  0.00000000E+00  0.00000000E+00
  0.00000000E+00  0.00000000E+00  0.00000000E+00
  0.00000000E+00  0.00000000E+00  0.00000000E+00
  0.00000000E+00  0.00000000E+00  0.00000000E+00
  0.00000000E+00  0.00000000E+00  0.00000000E+00
  0.00000000E+00  0.00000000E+00  0.00000000E+00
  0.00000000E+00  0.00000000E+00  0.00000000E+00
  0.00000000E+00  0.00000000E+00  0.00000000E+00
  0.00000000E+00  0.00000000E+00  0.00000000E+00
  0.00000000E+00  0.00000000E+00  0.00000000E+00
  0.00000000E+00  0.00000000E+00  0.00000000E+00
  0.00000000E+00  0.00000000E+00  0.00000000E+00
  0.00000000E+00  0.00000000E+00  0.00000000E+00
  0.00000000E+00  0.00000000E+00  0.00000000E+00
  0.00000000E+00  0.00000000E+00  0.00000000E+00
  0.00000000E+00  0.00000000E+00  0.00000000E+00
  0.00000000E+00  0.00000000E+00  0.00000000E+00
  0.00000000E+00  0.00000000E+00  0.00000000E+00
  0.00000000E+00  0.00000000E+00  0.00000000E+00
  0.00000000E+00  0.00000000E+00  0.00000000E+00
  0.00000000E+00  0.00000000E+00  0.00000000E+00
  0.00000000E+00  0.00000000E+00  0.00000000E+00
  0.00000000E+00  0.00000000E+00  0.00000000E+00
  0.00000000E+00  0.00000000E+00  0.00000000E+00
  0.00000000E+00  0.00000000E+00  0.00000000E+00
  0.00000000E+00  0.00000000E+00  0.00000000E+00
  0.00000000E+00  0.00000000E+00  0.00000000E+00
  0.00000000E+00  0.00000000E+00  0.00000000E+00
  0.00000000E+00  0.00000000E+00  0.00000000E+00
  0.00000000E+00  0.00000000E+00  0.00000000E+00
  0.00000000E+00  0.00000000E+00  0.00000000E+00
  0.00000000E+00  0.00000000E+00  0.00000000E+00
  0.00000000E+00  0.00000000E+00  0.00000000E+00
  0.00000000E+00  0.00000000E+00  0.00000000E+00
  0.00000000E+00  0.00000000E+00  0.00000000E+00
  0.00000000E+00  0.00000000E+00  0.00000000E+00
  0.00000000E+00  0.00000000E+00  0.00000000E+00
  0.00000000E+00  0.00000000E+00  0.00000000E+00
  0.00000000E+00  0.00000000E+00  0.00000000E+00
  0.00000000E+00  0.00000000E+00  0.00000000E+00
  0.00000000E+00  0.00000000E+00  0.00000000E+00
  0.00000000E+00  0.00000000E+00  0.00000000E+00
  0.00000000E+00  0.00000000E+00  0.00000000E+00
  0.00000000E+00  0.00000000E+00  0.00000000E+00
  0.00000000E+00  0.00000000E+00  0.00000000E+00
  0.00000000E+00  0.00000000E+00  0.00000000E+00
  0.00000000E+00  0.00000000E+00  0.00000000E+00
  0.00000000E+00  0.00000000E+00  0.00000000E+00
  0.00000000E+00  0.00000000E+00  0.00000000E+00
  0.00000000E+00  0.00000000E+00  0.00000000E+00
  0.00000000E+00  0.00000000E+00  0.00000000E+00
  0.00000000E+00  0.00000000E+00  0.00000000E+00
  0.00000000E+00  0.00000000E+00  0.00000000E+00
  0.00000000E+00  0.00000000E+00  0.00000000E+00
  0.00000000E+00  0.00000000E+00  0.00000000E+00
  0.00000000E+00  0.00000000E+00  0.00000000E+00
  0.00000000E+00  0.00000000E+00  0.00000000E+00
  0.00000000E+00  0.00000000E+00  0.00000000E+00
  0.00000000E+00  0.00000000E+00  0.00000000E+00
  0.00000000E+00  0.00000000E+00  0.00000000E+00
  0.00000000E+00  0.00000000E+00  0.00000000E+00
  0.00000000E+00  0.00000000E+00  0.00000000E+00
  0.00000000E+00  0.00000000E+00  0.00000000E+00
  0.00000000E+00  0.00000000E+00  0.00000000E+00
  0.00000000E+00  0.00000000E+00  0.00000000E+00
  0.00000000E+00  0.00000000E+00  0.00000000E+00
  0.00000000E+00  0.00000000E+00  0.00000000E+00
  0.00000000E+00  0.00000000E+00  0.00000000E+00
  0.00000000E+00  0.00000000E+00  0.00000000E+00
  0.00000000E+00  0.00000000E+00  0.00000000E+00
  0.00000000E+00  0.00000000E+00  0.00000000E+00
  0.00000000E+00  0.00000000E+00  0.00000000E+00
  0.00000000E+00  0.00000000E+00  0.00000000E+00
  0.00000000E+00  0.00000000E+00  0.00000000E+00
  0.00000000E+00  0.00000000E+00  0.00000000E+00
  0.00000000E+00  0.00000000E+00  0.00000000E+00
  0.00000000E+00  0.00000000E+00  0.00000000E+00
  0.00000000E+00  0.00000000E+00  0.00000000E+00
  0.00000000E+00  0.00000000E+00  0.00000000E+00
  0.00000000E+00  0.00000000E+00  0.00000000E+00
  0.00000000E+00  0.00000000E+00  0.00000000E+00
  0.00000000E+00  0.00000000E+00  0.00000000E+00
  0.00000000E+00  0.00000000E+00  0.00000000E+00
  0.00000000E+00  0.00000000E+00  0.00000000E+00
  0.00000000E+00  0.00000000E+00  0.00000000E+00
  0.00000000E+00  0.00000000E+00  0.00000000E+00
  0.00000000E+00  0.00000000E+00  0.00000000E+00
  0.00000000E+00  0.00000000E+00  0.00000000E+00
  0.00000000E+00  0.00000000E+00  0.00000000E+00
  0.00000000E+00  0.00000000E+00  0.00000000E+00
  0.00000000E+00  0.00000000E+00  0.00000000E+00
  0.00000000E+00  0.00000000E+00  0.00000000E+00
  0.00000000E+00  0.00000000E+00  0.00000000E+00
  0.00000000E+00  0.00000000E+00  0.00000000E+00
  0.00000000E+00  0.00000000E+00  0.00000000E+00
  0.00000000E+00  0.00000000E+00  0.00000000E+00
  0.00000000E+00  0.00000000E+00  0.00000000E+00
  0.00000000E+00  0.00000000E+00  0.00000000E+00
  0.00000000E+00  0.00000000E+00  0.00000000E+00
