supercell of POSCAR                     
   1.01189200000000     
     3.1482772356600002   -5.4762754812200001    9.9674464565599994
    -9.4511209497999999   -5.4731922780100000    0.0032121685426600
     6.3112884282600001  -10.9581161277000003   -9.9749049577999997
   Al   Sc   N 
    83    12    96
Direct
  0.0899689102911410  0.5835206113919469  0.3323474748973965
  0.0059745971615470  0.3259099913198895  0.2523321687924778
  0.0854806614020234  0.0834702176569309  0.3344357255846262
  0.2494034645383252  0.5797765116478857  0.4964991664576459
  0.4179301132459017  0.0858976723993834  0.1699406266096588
  0.0069984947370330  0.8395308073316201  0.2525404189909679
  0.1679779646874309  0.3326618188647785  0.4132737368214663
  0.2475572815624147  0.0854662088003408  0.4971639874988583
  0.1640936287312229  0.8339702573566470  0.4158590406984999
  0.3373144009229279  0.6688443406247302  0.3362664336753767
  0.1619477142344579  0.6731726886369458  0.1641569684964779
  0.2611820955523498  0.4067280479473396  0.2482050144247054
  0.3347333730909980  0.1649347797582337  0.3340119727032516
  0.0021241579243494  0.6690529650897759  0.4970336526163095
  0.1729966477154576  0.1589750502794516  0.1676934092344311
  0.2550756231011277  0.9192657748004009  0.2541818049005045
  0.4157072121421805  0.4144877300983580  0.4152529993021190
  0.4985759032981036  0.1623239384329764  0.4980168830379341
  0.0814933145700678  0.9236089957331330  0.0797943734705981
  0.4186010534971913  0.9169063317014121  0.4139970497700034
  0.0861614557133024  0.5834798266386798  0.8343168295817733
  0.9975851842178400  0.3267443091471876  0.7530135743354123
  0.0829539807210864  0.0863410517034069  0.8348662917633050
  0.2476661894400962  0.5865738521320054  0.9944338350912645
  0.3296983047106323  0.3235684159223666  0.5794971360761991
  0.4166081092340193  0.0870487624275711  0.6693874159227420
  0.0041899983510518  0.8398394096794277  0.7527168230366073
  0.1651328968934322  0.3369011422739021  0.9125671586452953
  0.2475841123148754  0.0891177596187802  0.9989162516798729
  0.1617977735639329  0.8369847338496541  0.9135440631646361
  0.3355545854102928  0.6724171211005867  0.8362861816310527
  0.1591551374434133  0.6706199677627751  0.6662677938861066
  0.2496405218613944  0.4082413849072211  0.7497018751096789
  0.3332648366525390  0.1669955957243943  0.8345531568481164
  0.0031066543848226  0.6694784055136935  0.9967863550370026
  0.1658963066262515  0.1616401956019970  0.6685196884929425
  0.2514734746680034  0.9204278449152881  0.7533398224673675
  0.4098556610836468  0.4192871772083322  0.9138927805114321
  0.4981415627136627  0.1620356105875231  0.9975584995690951
  0.0805866357842646  0.9207008220345045  0.5814722465011997
  0.4168444941855611  0.9194025008818016  0.9141275756990268
  0.5884352482940187  0.5812921323510025  0.3344207884442412
  0.5046020075967945  0.3273147908170841  0.2572003644617453
  0.5857821269054497  0.0830874542933060  0.3347089209166398
  0.7497052129376129  0.5792208973664899  0.4972595367539085
  0.8307150980248537  0.3261723754900672  0.0812683658173725
  0.9182681578864731  0.0870404273110452  0.1693820514925548
  0.5087017564144531  0.8370506735121026  0.2546462634566922
  0.6695866975601277  0.3315667491868695  0.4161207000473794
  0.7482361463712337  0.0846665138148452  0.4977453912141598
  0.6648362052827466  0.8332178523396081  0.4167212319026703
  0.8367573537231223  0.6683691429322565  0.3361738125553302
  0.6615496402042993  0.6688175937276952  0.1661329328842456
  0.7534366888915613  0.4066710203579902  0.2513903050286856
  0.8350187433217116  0.1650091243048522  0.3339223086880097
  0.5023776111003784  0.6691079102144784  0.4971159508843712
  0.6683375690708999  0.1608939032900238  0.1690761438199999
  0.7538563366066029  0.9178241937357257  0.2542929838658097
  0.9156745322495823  0.4147712297853658  0.4151202663201445
  0.9981319462984786  0.1627046262062279  0.4983276141765742
  0.5818245243021707  0.9208818251335984  0.0822229367637135
  0.9183614582380031  0.9167800585612014  0.4140624651061415
  0.5869772025112496  0.5861501619702949  0.8335159351123309
  0.4996820145988465  0.3276229719515626  0.7529172436359914
  0.5847508976307125  0.0835544820074219  0.8342308262079712
  0.7471846039571943  0.5786425574999541  0.9990169874802390
  0.8299592699896010  0.3235641956920787  0.5813370534229350
  0.9158344306306745  0.0862631493889623  0.6703642212841672
  0.5046551049997063  0.8408031600127970  0.7527269518055490
  0.6446482774876117  0.3338994453578081  0.9253802589938260
  0.7489119897671230  0.0849113408021367  0.9980521895673817
  0.6633599030784509  0.8351629114430281  0.9166515928115118
  0.8354086139328558  0.6705301720281582  0.8381583910183323
  0.6596416747456288  0.6707762756195379  0.6666219972573302
  0.7476620663108449  0.4074340613969980  0.7547306503810631
  0.8295634476079954  0.1686429698585457  0.8364235518289007
  0.5011364021573641  0.6719697258906407  0.9976026295349882
  0.6665706628431707  0.1612246294314730  0.6685932076070529
  0.7520253981166078  0.9190583557665875  0.7540468122075836
  0.9107737019379059  0.4150511722762857  0.9165240884886288
  0.9986158200641100  0.1655123885512708  0.9986033436025821
  0.5811020452673006  0.9204565067158441  0.5816061436759412
  0.9179123205135724  0.9187465948729425  0.9144975637409516
  0.4031652028847574  0.5873896247521060  0.1719652307292918
  0.3256799283425806  0.8501602507194193  0.0843574158434492
  0.0923715044608713  0.4130633075885299  0.0820019101351406
  0.4035713473433518  0.5818028998943561  0.6738856728248095
  0.3275932834723037  0.8376252166244669  0.5839175179339762
  0.0776871381347846  0.4156265778778021  0.5843991099585324
  0.9086232618573504  0.5793821382289579  0.1717184932340601
  0.8291942674392487  0.8376050600497464  0.0852133167779172
  0.5631764301736482  0.4113585338770918  0.0901210791607454
  0.9022352835646643  0.5806532910232178  0.6749169064919656
  0.8281995837884253  0.8366629754056945  0.5843513781299094
  0.5778124415215018  0.4149871663334963  0.5850731443097530
  0.2187269947204484  0.5837578342762697  0.2659675492799209
  0.0425935121983940  0.5972220739171590  0.1009222766966573
  0.1367251332455837  0.3210418751349806  0.1965276599348158
  0.2127457121229313  0.0811700917644202  0.2742054542659602
  0.3797430040540419  0.5819411541305399  0.4370160491931614
  0.4841682300926280  0.3253590252272431  0.9927125013844673
  0.0407423184357683  0.0863353637845279  0.1034699869789364
  0.1327797910036850  0.8414176315409634  0.1852776085200318
  0.2965444483112236  0.3306032767023908  0.3533738307104812
  0.3771229637651814  0.0798891383536713  0.4362592955609017
  0.4668192523257773  0.8384774063897069  0.0139210631080360
  0.2939984887634068  0.8322101695122370  0.3558085393540225
  0.4714109514974822  0.6769943434926589  0.2819479784104928
  0.2761524014572032  0.6710340260176153  0.0942861825210883
  0.3928586024743694  0.4092743393963687  0.1963122751889941
  0.4638043841896788  0.1635949015379197  0.2745105759142561
  0.1303792463320832  0.6651856038089292  0.4341270899667435
  0.2068934440364245  0.4296121509157942  0.0011072779283055
  0.2903231904783823  0.1310980095118097  0.1059967983856254
  0.3886773654605236  0.9207126462679085  0.2008370597583493
  0.0452129105248744  0.4186344319684991  0.3525384168702033
  0.1263695320536158  0.1694714070043517  0.4358598744385986
  0.1947728181300619  0.9279142863108731  0.0077659390588494
  0.0467576765239031  0.9195167118472867  0.3533550567529744
  0.2176709908953569  0.5821411439038755  0.7658292839305929
  0.0379923305515533  0.5981401135078670  0.6021479137934875
  0.1283421388298578  0.3230111490748371  0.6938953135029493
  0.2107082356360621  0.0835907584025648  0.7708775312700880
  0.3797183136069862  0.5884761465023800  0.9349870193450442
  0.4506173501115853  0.3221684390375259  0.5132204170448702
  0.0409106462947406  0.0847394909003967  0.6037227637114029
  0.1311809364242364  0.8391597808983491  0.6850687689306341
  0.2932510660438652  0.3317699671242451  0.8494292555396044
  0.3754950320145412  0.0816184543374234  0.9345022385609880
  0.4675031821555748  0.8346949668570929  0.5141930046928067
  0.2929769568488254  0.8354973095555280  0.8529110410306870
  0.4680729704390174  0.6801595224084451  0.7781648028951480
  0.2756017011559422  0.6609009448549017  0.5971168214435778
  0.3757321122434902  0.3949361003774783  0.6833923482221067
  0.4614977544245846  0.1647465268568666  0.7719553950025002
  0.1279904213130791  0.6721230233530093  0.9307186987481160
  0.2161262968273761  0.4134405951384608  0.5139203948968003
  0.2906270623817093  0.1600656593654577  0.6022355993734294
  0.3826197314762041  0.9250442409930173  0.6953097969796218
  0.0383068289915016  0.4196066915066439  0.8484704198415471
  0.1259265639079601  0.1722065650014670  0.9344143609194902
  0.1986580763689716  0.9266774704921446  0.5127704571469991
  0.0443820976860678  0.9226358367012821  0.8507947708962220
  0.7185948172499650  0.5802422203317192  0.2678719395362066
  0.5406070211585359  0.6010856469968644  0.1010452470089618
  0.6339889309432110  0.3196407825273937  0.1986734318952728
  0.7135649382723344  0.0808374696071752  0.2725417467351505
  0.8797684865737665  0.5819369739572622  0.4368291055647973
  0.9520152929887828  0.3255048996004106  0.0143193317500447
  0.5441515885135786  0.0848895553545930  0.1042309516434585
  0.6344163217258227  0.8378830472230447  0.1865118023414212
  0.7968900506757919  0.3302671653004907  0.3539021828108204
  0.8771298338336706  0.0799297377745631  0.4358441549710363
  0.9665886247459454  0.8355623895840836  0.0138230208860719
  0.7944058619282117  0.8317923947861416  0.3554315426645189
  0.9694476899184608  0.6770965329668286  0.2792285990690146
  0.7791806538612249  0.6612521690574269  0.0987604968129503
  0.8794715943204423  0.3939155143509723  0.1876567715941206
  0.9630843322243550  0.1643137981438088  0.2731575540735349
  0.6313788692705558  0.6650059244319948  0.4351517197247929
  0.7148125520652542  0.4157726844629153  0.0205089265297502
  0.7926448186200403  0.1602852528842220  0.1031273858061326
  0.8847354402382521  0.9245663673027096  0.1974131420646614
  0.5489907046159601  0.4171322836691687  0.3576701704162630
  0.6278509497668239  0.1682391412472981  0.4362716369028021
  0.7004931750278018  0.9252511646014412  0.0135995953932593
  0.5488130043633959  0.9195056000243369  0.3546619726183167
  0.7183763330084858  0.5835634807741386  0.7665157163487493
  0.5390302673643106  0.5980486202595827  0.6020522857014114
  0.6297313957728150  0.3223313594624173  0.6942434078781829
  0.7114593538798246  0.0821877066541887  0.7704589056476081
  0.8779912835930475  0.5836839101965978  0.9373043536404424
  0.9503295675897974  0.3228289012471421  0.5133388538320247
  0.5416364804031701  0.0847064430281890  0.6033411394852948
  0.6314909463156582  0.8392670693668620  0.6853479106546914
  0.7885144317993138  0.3323081324667214  0.8560735750642792
  0.8776034043515608  0.0814303497320807  0.9359030045502124
  0.9674355348257535  0.8346533502542641  0.5138990614243042
  0.7930274792830190  0.8344875498068802  0.8546362498061910
  0.9673305927368148  0.6787035348504133  0.7791315904338774
  0.7759146690306622  0.6605724860694977  0.5975827854925555
  0.8737146292732092  0.3943919960825255  0.6856758306598252
  0.9588231209997176  0.1650876250969375  0.7726727571855747
  0.6304714772441145  0.6670180828965755  0.9342150434549339
  0.7175781435637916  0.4130788894020014  0.5158016245868779
  0.7912967363375074  0.1595335940630989  0.6024103770106706
  0.8823825674422068  0.9238129331525684  0.6955356365147907
  0.5404484811506407  0.4249571602707647  0.8459898740468574
  0.6294281315804398  0.1612758690032265  0.9342406798017251
  0.6998070347283090  0.9259435052996210  0.5133856362086533
  0.5460693930791507  0.9200609735787637  0.8523925328434530
 
  0.00000000E+00  0.00000000E+00  0.00000000E+00
  0.00000000E+00  0.00000000E+00  0.00000000E+00
  0.00000000E+00  0.00000000E+00  0.00000000E+00
  0.00000000E+00  0.00000000E+00  0.00000000E+00
  0.00000000E+00  0.00000000E+00  0.00000000E+00
  0.00000000E+00  0.00000000E+00  0.00000000E+00
  0.00000000E+00  0.00000000E+00  0.00000000E+00
  0.00000000E+00  0.00000000E+00  0.00000000E+00
  0.00000000E+00  0.00000000E+00  0.00000000E+00
  0.00000000E+00  0.00000000E+00  0.00000000E+00
  0.00000000E+00  0.00000000E+00  0.00000000E+00
  0.00000000E+00  0.00000000E+00  0.00000000E+00
  0.00000000E+00  0.00000000E+00  0.00000000E+00
  0.00000000E+00  0.00000000E+00  0.00000000E+00
  0.00000000E+00  0.00000000E+00  0.00000000E+00
  0.00000000E+00  0.00000000E+00  0.00000000E+00
  0.00000000E+00  0.00000000E+00  0.00000000E+00
  0.00000000E+00  0.00000000E+00  0.00000000E+00
  0.00000000E+00  0.00000000E+00  0.00000000E+00
  0.00000000E+00  0.00000000E+00  0.00000000E+00
  0.00000000E+00  0.00000000E+00  0.00000000E+00
  0.00000000E+00  0.00000000E+00  0.00000000E+00
  0.00000000E+00  0.00000000E+00  0.00000000E+00
  0.00000000E+00  0.00000000E+00  0.00000000E+00
  0.00000000E+00  0.00000000E+00  0.00000000E+00
  0.00000000E+00  0.00000000E+00  0.00000000E+00
  0.00000000E+00  0.00000000E+00  0.00000000E+00
  0.00000000E+00  0.00000000E+00  0.00000000E+00
  0.00000000E+00  0.00000000E+00  0.00000000E+00
  0.00000000E+00  0.00000000E+00  0.00000000E+00
  0.00000000E+00  0.00000000E+00  0.00000000E+00
  0.00000000E+00  0.00000000E+00  0.00000000E+00
  0.00000000E+00  0.00000000E+00  0.00000000E+00
  0.00000000E+00  0.00000000E+00  0.00000000E+00
  0.00000000E+00  0.00000000E+00  0.00000000E+00
  0.00000000E+00  0.00000000E+00  0.00000000E+00
  0.00000000E+00  0.00000000E+00  0.00000000E+00
  0.00000000E+00  0.00000000E+00  0.00000000E+00
  0.00000000E+00  0.00000000E+00  0.00000000E+00
  0.00000000E+00  0.00000000E+00  0.00000000E+00
  0.00000000E+00  0.00000000E+00  0.00000000E+00
  0.00000000E+00  0.00000000E+00  0.00000000E+00
  0.00000000E+00  0.00000000E+00  0.00000000E+00
  0.00000000E+00  0.00000000E+00  0.00000000E+00
  0.00000000E+00  0.00000000E+00  0.00000000E+00
  0.00000000E+00  0.00000000E+00  0.00000000E+00
  0.00000000E+00  0.00000000E+00  0.00000000E+00
  0.00000000E+00  0.00000000E+00  0.00000000E+00
  0.00000000E+00  0.00000000E+00  0.00000000E+00
  0.00000000E+00  0.00000000E+00  0.00000000E+00
  0.00000000E+00  0.00000000E+00  0.00000000E+00
  0.00000000E+00  0.00000000E+00  0.00000000E+00
  0.00000000E+00  0.00000000E+00  0.00000000E+00
  0.00000000E+00  0.00000000E+00  0.00000000E+00
  0.00000000E+00  0.00000000E+00  0.00000000E+00
  0.00000000E+00  0.00000000E+00  0.00000000E+00
  0.00000000E+00  0.00000000E+00  0.00000000E+00
  0.00000000E+00  0.00000000E+00  0.00000000E+00
  0.00000000E+00  0.00000000E+00  0.00000000E+00
  0.00000000E+00  0.00000000E+00  0.00000000E+00
  0.00000000E+00  0.00000000E+00  0.00000000E+00
  0.00000000E+00  0.00000000E+00  0.00000000E+00
  0.00000000E+00  0.00000000E+00  0.00000000E+00
  0.00000000E+00  0.00000000E+00  0.00000000E+00
  0.00000000E+00  0.00000000E+00  0.00000000E+00
  0.00000000E+00  0.00000000E+00  0.00000000E+00
  0.00000000E+00  0.00000000E+00  0.00000000E+00
  0.00000000E+00  0.00000000E+00  0.00000000E+00
  0.00000000E+00  0.00000000E+00  0.00000000E+00
  0.00000000E+00  0.00000000E+00  0.00000000E+00
  0.00000000E+00  0.00000000E+00  0.00000000E+00
  0.00000000E+00  0.00000000E+00  0.00000000E+00
  0.00000000E+00  0.00000000E+00  0.00000000E+00
  0.00000000E+00  0.00000000E+00  0.00000000E+00
  0.00000000E+00  0.00000000E+00  0.00000000E+00
  0.00000000E+00  0.00000000E+00  0.00000000E+00
  0.00000000E+00  0.00000000E+00  0.00000000E+00
  0.00000000E+00  0.00000000E+00  0.00000000E+00
  0.00000000E+00  0.00000000E+00  0.00000000E+00
  0.00000000E+00  0.00000000E+00  0.00000000E+00
  0.00000000E+00  0.00000000E+00  0.00000000E+00
  0.00000000E+00  0.00000000E+00  0.00000000E+00
  0.00000000E+00  0.00000000E+00  0.00000000E+00
  0.00000000E+00  0.00000000E+00  0.00000000E+00
  0.00000000E+00  0.00000000E+00  0.00000000E+00
  0.00000000E+00  0.00000000E+00  0.00000000E+00
  0.00000000E+00  0.00000000E+00  0.00000000E+00
  0.00000000E+00  0.00000000E+00  0.00000000E+00
  0.00000000E+00  0.00000000E+00  0.00000000E+00
  0.00000000E+00  0.00000000E+00  0.00000000E+00
  0.00000000E+00  0.00000000E+00  0.00000000E+00
  0.00000000E+00  0.00000000E+00  0.00000000E+00
  0.00000000E+00  0.00000000E+00  0.00000000E+00
  0.00000000E+00  0.00000000E+00  0.00000000E+00
  0.00000000E+00  0.00000000E+00  0.00000000E+00
  0.00000000E+00  0.00000000E+00  0.00000000E+00
  0.00000000E+00  0.00000000E+00  0.00000000E+00
  0.00000000E+00  0.00000000E+00  0.00000000E+00
  0.00000000E+00  0.00000000E+00  0.00000000E+00
  0.00000000E+00  0.00000000E+00  0.00000000E+00
  0.00000000E+00  0.00000000E+00  0.00000000E+00
  0.00000000E+00  0.00000000E+00  0.00000000E+00
  0.00000000E+00  0.00000000E+00  0.00000000E+00
  0.00000000E+00  0.00000000E+00  0.00000000E+00
  0.00000000E+00  0.00000000E+00  0.00000000E+00
  0.00000000E+00  0.00000000E+00  0.00000000E+00
  0.00000000E+00  0.00000000E+00  0.00000000E+00
  0.00000000E+00  0.00000000E+00  0.00000000E+00
  0.00000000E+00  0.00000000E+00  0.00000000E+00
  0.00000000E+00  0.00000000E+00  0.00000000E+00
  0.00000000E+00  0.00000000E+00  0.00000000E+00
  0.00000000E+00  0.00000000E+00  0.00000000E+00
  0.00000000E+00  0.00000000E+00  0.00000000E+00
  0.00000000E+00  0.00000000E+00  0.00000000E+00
  0.00000000E+00  0.00000000E+00  0.00000000E+00
  0.00000000E+00  0.00000000E+00  0.00000000E+00
  0.00000000E+00  0.00000000E+00  0.00000000E+00
  0.00000000E+00  0.00000000E+00  0.00000000E+00
  0.00000000E+00  0.00000000E+00  0.00000000E+00
  0.00000000E+00  0.00000000E+00  0.00000000E+00
  0.00000000E+00  0.00000000E+00  0.00000000E+00
  0.00000000E+00  0.00000000E+00  0.00000000E+00
  0.00000000E+00  0.00000000E+00  0.00000000E+00
  0.00000000E+00  0.00000000E+00  0.00000000E+00
  0.00000000E+00  0.00000000E+00  0.00000000E+00
  0.00000000E+00  0.00000000E+00  0.00000000E+00
  0.00000000E+00  0.00000000E+00  0.00000000E+00
  0.00000000E+00  0.00000000E+00  0.00000000E+00
  0.00000000E+00  0.00000000E+00  0.00000000E+00
  0.00000000E+00  0.00000000E+00  0.00000000E+00
  0.00000000E+00  0.00000000E+00  0.00000000E+00
  0.00000000E+00  0.00000000E+00  0.00000000E+00
  0.00000000E+00  0.00000000E+00  0.00000000E+00
  0.00000000E+00  0.00000000E+00  0.00000000E+00
  0.00000000E+00  0.00000000E+00  0.00000000E+00
  0.00000000E+00  0.00000000E+00  0.00000000E+00
  0.00000000E+00  0.00000000E+00  0.00000000E+00
  0.00000000E+00  0.00000000E+00  0.00000000E+00
  0.00000000E+00  0.00000000E+00  0.00000000E+00
  0.00000000E+00  0.00000000E+00  0.00000000E+00
  0.00000000E+00  0.00000000E+00  0.00000000E+00
  0.00000000E+00  0.00000000E+00  0.00000000E+00
  0.00000000E+00  0.00000000E+00  0.00000000E+00
  0.00000000E+00  0.00000000E+00  0.00000000E+00
  0.00000000E+00  0.00000000E+00  0.00000000E+00
  0.00000000E+00  0.00000000E+00  0.00000000E+00
  0.00000000E+00  0.00000000E+00  0.00000000E+00
  0.00000000E+00  0.00000000E+00  0.00000000E+00
  0.00000000E+00  0.00000000E+00  0.00000000E+00
  0.00000000E+00  0.00000000E+00  0.00000000E+00
  0.00000000E+00  0.00000000E+00  0.00000000E+00
  0.00000000E+00  0.00000000E+00  0.00000000E+00
  0.00000000E+00  0.00000000E+00  0.00000000E+00
  0.00000000E+00  0.00000000E+00  0.00000000E+00
  0.00000000E+00  0.00000000E+00  0.00000000E+00
  0.00000000E+00  0.00000000E+00  0.00000000E+00
  0.00000000E+00  0.00000000E+00  0.00000000E+00
  0.00000000E+00  0.00000000E+00  0.00000000E+00
  0.00000000E+00  0.00000000E+00  0.00000000E+00
  0.00000000E+00  0.00000000E+00  0.00000000E+00
  0.00000000E+00  0.00000000E+00  0.00000000E+00
  0.00000000E+00  0.00000000E+00  0.00000000E+00
  0.00000000E+00  0.00000000E+00  0.00000000E+00
  0.00000000E+00  0.00000000E+00  0.00000000E+00
  0.00000000E+00  0.00000000E+00  0.00000000E+00
  0.00000000E+00  0.00000000E+00  0.00000000E+00
  0.00000000E+00  0.00000000E+00  0.00000000E+00
  0.00000000E+00  0.00000000E+00  0.00000000E+00
  0.00000000E+00  0.00000000E+00  0.00000000E+00
  0.00000000E+00  0.00000000E+00  0.00000000E+00
  0.00000000E+00  0.00000000E+00  0.00000000E+00
  0.00000000E+00  0.00000000E+00  0.00000000E+00
  0.00000000E+00  0.00000000E+00  0.00000000E+00
  0.00000000E+00  0.00000000E+00  0.00000000E+00
  0.00000000E+00  0.00000000E+00  0.00000000E+00
  0.00000000E+00  0.00000000E+00  0.00000000E+00
  0.00000000E+00  0.00000000E+00  0.00000000E+00
  0.00000000E+00  0.00000000E+00  0.00000000E+00
  0.00000000E+00  0.00000000E+00  0.00000000E+00
  0.00000000E+00  0.00000000E+00  0.00000000E+00
  0.00000000E+00  0.00000000E+00  0.00000000E+00
  0.00000000E+00  0.00000000E+00  0.00000000E+00
  0.00000000E+00  0.00000000E+00  0.00000000E+00
  0.00000000E+00  0.00000000E+00  0.00000000E+00
  0.00000000E+00  0.00000000E+00  0.00000000E+00
  0.00000000E+00  0.00000000E+00  0.00000000E+00
  0.00000000E+00  0.00000000E+00  0.00000000E+00
  0.00000000E+00  0.00000000E+00  0.00000000E+00
  0.00000000E+00  0.00000000E+00  0.00000000E+00
  0.00000000E+00  0.00000000E+00  0.00000000E+00
  0.00000000E+00  0.00000000E+00  0.00000000E+00
