supercell of POSCAR                     
   1.01189200000000     
     3.1482772356600002   -5.4762754812200001    9.9674464565599994
    -9.4511209497999999   -5.4731922780100000    0.0032121685426600
     6.3112884282600001  -10.9581161277000003   -9.9749049577999997
   Al   Sc   N 
    83    12    96
Direct
  0.0897341929068745  0.5831605403508462  0.3352241968100813
  0.0019411538601517  0.3263608207021704  0.2522795085749436
  0.0857099304068143  0.0826620650154624  0.3344313024620647
  0.2506834047494877  0.5773892805434997  0.4963430196881902
  0.3295695716403415  0.3245484926372058  0.0800294713560206
  0.4171627998696366  0.0871776616939357  0.1689795220527515
  0.0071070599967769  0.8415271763269629  0.2556213002293006
  0.1685887776838015  0.3336963195746705  0.4138689463718279
  0.2492070812150615  0.0868767696916635  0.4979889030008025
  0.3367835542815598  0.6717342150010097  0.3381897939745357
  0.1598835668410175  0.6714650406344873  0.1670698479911294
  0.2525644740706028  0.4086380717778013  0.2508581909632213
  0.3350349029828976  0.1650307227908954  0.3340510482514887
  0.0091309244211715  0.6716918073674591  0.4954251229319055
  0.1673374329393553  0.1610611242250855  0.1686585374608001
  0.2521910446711999  0.9179742947266831  0.2564343448161779
  0.4162742296013562  0.4158761195690275  0.4159399703459243
  0.5000556688996625  0.1631321643824748  0.4978353661232191
  0.0797815641254900  0.9206108645553641  0.0819726405296990
  0.4187397741915930  0.9181595458575202  0.4134324943696939
  0.0865743155015721  0.5848515376105894  0.8338494216939125
  0.0007199872732215  0.3274738448416343  0.7524685313088213
  0.0835606127338622  0.0843919127209958  0.8334108488856913
  0.2479276700428272  0.5811137550268484  0.9969519343576820
  0.3344256395433831  0.3245352325993807  0.5811623203273300
  0.4154664680625402  0.0844752815637477  0.6681390339321567
  0.0040103505594473  0.8396466203949160  0.7530267413042111
  0.1655889509616273  0.3334204658037550  0.9138621067544932
  0.2462747554226041  0.0864067520380942  0.9970456558447012
  0.1620108180373734  0.8358443458215845  0.9154659762198776
  0.3343758056112165  0.6707391053779901  0.8368909549769512
  0.1591777935516276  0.6714984670858826  0.6663087572359672
  0.2508277203072922  0.4096571060722525  0.7503399291776560
  0.3323487442587805  0.1652771398116428  0.8330000103937110
  0.0009374628984986  0.6705317735570233  0.9974746844894327
  0.1672896670269779  0.1624330294552792  0.6665743805655993
  0.2511881394219415  0.9183441653948563  0.7512899369055077
  0.4126783190845913  0.4161048711407673  0.9151610491260200
  0.4971573862289560  0.1633308527899757  0.9978017239402490
  0.0836615121396846  0.9223031279465204  0.5802842402456889
  0.4160329173727533  0.9179797939200753  0.9138904448045295
  0.5910907726609480  0.5829301258932063  0.3341072408020480
  0.5026455700353623  0.3265920108554354  0.2542856208287461
  0.5872828195790447  0.0843800194394717  0.3343217069832889
  0.7513960791784200  0.5812650735313412  0.4967996456145514
  0.8298471193331949  0.3242942761609129  0.0802118815432777
  0.9168844224670778  0.0845522495230071  0.1701111685248904
  0.4968775720294900  0.8394867622288942  0.2578234129108665
  0.6696516267667931  0.3326719063943386  0.4146664388727643
  0.7497416650219577  0.0859193850893263  0.4975739092482030
  0.6663539175977036  0.8357782623264356  0.4164075802227529
  0.8390740835284589  0.6711732837690718  0.3379936950389819
  0.6576467237884529  0.6717489823919607  0.1679475196994531
  0.7537383435457343  0.4083991608156552  0.2512823172008254
  0.8372803343584465  0.1645849329167888  0.3341971095340668
  0.5037536726171936  0.6710477113498214  0.4963680814031264
  0.6680665396478958  0.1614889289795514  0.1688846195744986
  0.7523651750814153  0.9174891026592604  0.2544533998265592
  0.9172963180808438  0.4173614884659287  0.4147214365540961
  0.0006546600037751  0.1637882329732108  0.4977485403518855
  0.5785718107999855  0.9206741333910529  0.0835069608968979
  0.9259110852900108  0.9182895575783192  0.4131683118909848
  0.5863686563158339  0.5844074333475717  0.8341681621606796
  0.5000939959344350  0.3267938069863803  0.7536812509903115
  0.5830306123330615  0.0841419243412602  0.8339130233436975
  0.7472658188868593  0.5803214675489130  0.9978387676104248
  0.8328492343014702  0.3248465833096859  0.5801455981165446
  0.9164306522184731  0.0871048482470727  0.6693201722869304
  0.5034533979584239  0.8398621478594919  0.7523205000474320
  0.6654153429113094  0.3331662428601163  0.9145961512249343
  0.7458133871950281  0.0858335304866031  0.9977723174536450
  0.6611423522193718  0.8354911298145922  0.9163997627833496
  0.8339909605056022  0.6704177101295983  0.8377559411175142
  0.6601481744947932  0.6719052947738078  0.6662724826928965
  0.7505836738696914  0.4086103314747902  0.7513067980455830
  0.8325279621147885  0.1658402925535896  0.8340446790003853
  0.5004655361777210  0.6703158838777696  0.9976271728380013
  0.6663985312784320  0.1617926293971834  0.6683637496914301
  0.7510888137954339  0.9189026677371857  0.7537605878656848
  0.9129730673645611  0.4160228007150408  0.9152935430728064
  0.9971380945603485  0.1629318840449727  0.9980421952551382
  0.5816026414592912  0.9204983279309431  0.5812049495187779
  0.9162728266814995  0.9181709018158344  0.9141703677595103
  0.4029786615535400  0.5824678722890937  0.1740087355604487
  0.3252186175940466  0.8389065564946279  0.0841484642126602
  0.0768084397888487  0.4161149110208697  0.0851827548977511
  0.4049701514818906  0.5842946084634661  0.6728346930405138
  0.3247114410148129  0.8359782518779966  0.5784759870015819
  0.0824335600550654  0.4201495364214409  0.5821826371072945
  0.9033790683102296  0.5842836307022523  0.1742701244819997
  0.8252002490105568  0.8372442970850784  0.0834124390073470
  0.5766461762723765  0.4150518013728899  0.0860085797077943
  0.9040475046118814  0.5826563585001168  0.6738651912771800
  0.8310933435659180  0.8377106417800491  0.5834833540523334
  0.5808351714029740  0.4166988068589816  0.5852512473738898
  0.2204609888547679  0.5808295415985825  0.2653037611233060
  0.0389082175382143  0.5989308446069828  0.1015314152242013
  0.1325669355792130  0.3236908686132978  0.1936562387370202
  0.2140047899727335  0.0844728276942703  0.2704726870151362
  0.3829357255972781  0.5818632070479168  0.4372297897351629
  0.4496776006763525  0.3239214396801842  0.0120649556933188
  0.0415625231542407  0.0856966004338133  0.1028892877017640
  0.1323107297956909  0.8394296377755737  0.1842905357540658
  0.2979351803723063  0.3321320284617286  0.3517690300230214
  0.3791063409429967  0.0833450289767512  0.4354503679373565
  0.4655236216813634  0.8358484462655156  0.0134505614929736
  0.3175642749687242  0.8336618002058955  0.3444150326551210
  0.4736171399447500  0.6719188332074069  0.2783140773732100
  0.2754479597517729  0.6612471579023449  0.0968265024145367
  0.3796815212066136  0.3944283099764334  0.1845147527271678
  0.4638079118886083  0.1645829151336216  0.2720644501175400
  0.1278961195042356  0.6378226191696683  0.4377067290541277
  0.2154188408561168  0.4141528256822866  0.0137655083446120
  0.2912570509047043  0.1612701465438420  0.1013130897034671
  0.3836455200018065  0.9266858786551140  0.1922888298852143
  0.0444934439741402  0.4150360488507090  0.3494563457681252
  0.1283597751357917  0.1717617002665222  0.4346668254301918
  0.1970438700245438  0.9281078654735708  0.0116724062697457
  0.0376497924179233  0.9308181693551703  0.3464500530557046
  0.2167302388482781  0.5821958019675648  0.7682164855955875
  0.0371995469006237  0.6000302777984672  0.6042035697433761
  0.1300998292197804  0.3251742255620087  0.6942486566388908
  0.2107535268617156  0.0828170370453591  0.7705666046533111
  0.3780263488847169  0.5832160095158372  0.9365292688992355
  0.4551963862931103  0.3241873706849390  0.5135295809951188
  0.0397069775122390  0.0880820405704696  0.6045192048075236
  0.1289178578645078  0.8378028207673154  0.6876616367819111
  0.2940081550806468  0.3316415813947913  0.8519455870076840
  0.3753607152907463  0.0816421975303712  0.9349334894973396
  0.4708561978022985  0.8359300870417030  0.5130705541869531
  0.2917910795818699  0.8342994244035395  0.8542215172859429
  0.4676830513695904  0.6781925117340606  0.7807288759081317
  0.2748500509612981  0.6567255616490968  0.5985777888482318
  0.3784263430533983  0.3977421584528145  0.6865985961845951
  0.4607953973154935  0.1643151192877781  0.7720988847874892
  0.1291194147536103  0.6667038414792259  0.9341854616804568
  0.2228784113912639  0.4086604717906681  0.5149475038366518
  0.2944433165422993  0.1654090811892246  0.6039870718309643
  0.3827145614749767  0.9223801751962384  0.6950747771725005
  0.0426851490988085  0.4193016856695309  0.8521136626374712
  0.1253603891166009  0.1701075198436044  0.9345072114175608
  0.2055775646591442  0.9395296727294138  0.5258395207206306
  0.0444556271997598  0.9214322905068855  0.8529270808808178
  0.7210861118982237  0.5812383396293441  0.2666888787577335
  0.5386154616744676  0.5977051348234426  0.1012643157335518
  0.6326078184626311  0.3234953900263804  0.1954550778136692
  0.7142972593825903  0.0832475647916340  0.2709678533025439
  0.8795200401953664  0.5832519467372350  0.4369060424464664
  0.9498507725831900  0.3236280589211447  0.0121393138135772
  0.5423556280531372  0.0875125605983982  0.1029058832939640
  0.6292755920980042  0.8393573210244227  0.1866633112187088
  0.7973579445584633  0.3315097722344476  0.3524328036786812
  0.8776124784648829  0.0828347565490759  0.4366680908591150
  0.9658547971770091  0.8357823976189920  0.0133289339089302
  0.7950005379004068  0.8332406420081924  0.3553098042163683
  0.9704283319032925  0.6770093694888999  0.2793592873721238
  0.7738585253868990  0.6606666373336836  0.0978025238910760
  0.8785863458482197  0.3964976585360489  0.1837230279144535
  0.9623081889825471  0.1668564168243947  0.2702158833414501
  0.6324330840191053  0.6660441398288839  0.4343222708651808
  0.7149757732272022  0.4133747037106659  0.0144318912289307
  0.7915770474097457  0.1607514614447041  0.1018567800073598
  0.8810481004066517  0.9220903360129853  0.1930585609321511
  0.5468159463930533  0.4175725004573110  0.3527386131865171
  0.6288106602844508  0.1699242639394001  0.4353843502453856
  0.6960566118053677  0.9276765785643875  0.0127329170130395
  0.5519875877366189  0.9230125984514075  0.3538327028373516
  0.7164922124317101  0.5820087854270639  0.7676718079955265
  0.5404347116976140  0.5990039893159960  0.6017483377996342
  0.6301486639966782  0.3232081045963753  0.6960517740336556
  0.7108159533788054  0.0828745648367644  0.7716622296147833
  0.8776542692592386  0.5828917404596226  0.9373370004736614
  0.9531822988048546  0.3256013251687264  0.5130861695223174
  0.5424515487519415  0.0851195015226409  0.6037366542699729
  0.6308546490965199  0.8391480516152683  0.6865552347087842
  0.7937629615048678  0.3318220565356427  0.8528508360724700
  0.8749057575571726  0.0813705753861882  0.9354694022697743
  0.9682804787160464  0.8357986851694221  0.5146407741204371
  0.7912855769609450  0.8339311756118519  0.8552874296501258
  0.9662085152226823  0.6782155609994120  0.7813293373258361
  0.7759823584657468  0.6614852173010064  0.5980994341413393
  0.8757676796284599  0.3955265702092632  0.6862078011822206
  0.9605478104353793  0.1657061519977390  0.7728778551672519
  0.6291026920030731  0.6661933860879401  0.9344651468740537
  0.7185823738439581  0.4140868468694237  0.5146377560748405
  0.7910613707843126  0.1620239880849468  0.6030895135967782
  0.8818820439818253  0.9250297693900436  0.6970446164568997
  0.5430233255019985  0.4188963709905664  0.8526770647187547
  0.6253642767824275  0.1697837467919570  0.9347161332952183
  0.7012450342260692  0.9274969075326069  0.5140814997626677
  0.5447304442666905  0.9208315494588746  0.8526450562705108
 
  0.00000000E+00  0.00000000E+00  0.00000000E+00
  0.00000000E+00  0.00000000E+00  0.00000000E+00
  0.00000000E+00  0.00000000E+00  0.00000000E+00
  0.00000000E+00  0.00000000E+00  0.00000000E+00
  0.00000000E+00  0.00000000E+00  0.00000000E+00
  0.00000000E+00  0.00000000E+00  0.00000000E+00
  0.00000000E+00  0.00000000E+00  0.00000000E+00
  0.00000000E+00  0.00000000E+00  0.00000000E+00
  0.00000000E+00  0.00000000E+00  0.00000000E+00
  0.00000000E+00  0.00000000E+00  0.00000000E+00
  0.00000000E+00  0.00000000E+00  0.00000000E+00
  0.00000000E+00  0.00000000E+00  0.00000000E+00
  0.00000000E+00  0.00000000E+00  0.00000000E+00
  0.00000000E+00  0.00000000E+00  0.00000000E+00
  0.00000000E+00  0.00000000E+00  0.00000000E+00
  0.00000000E+00  0.00000000E+00  0.00000000E+00
  0.00000000E+00  0.00000000E+00  0.00000000E+00
  0.00000000E+00  0.00000000E+00  0.00000000E+00
  0.00000000E+00  0.00000000E+00  0.00000000E+00
  0.00000000E+00  0.00000000E+00  0.00000000E+00
  0.00000000E+00  0.00000000E+00  0.00000000E+00
  0.00000000E+00  0.00000000E+00  0.00000000E+00
  0.00000000E+00  0.00000000E+00  0.00000000E+00
  0.00000000E+00  0.00000000E+00  0.00000000E+00
  0.00000000E+00  0.00000000E+00  0.00000000E+00
  0.00000000E+00  0.00000000E+00  0.00000000E+00
  0.00000000E+00  0.00000000E+00  0.00000000E+00
  0.00000000E+00  0.00000000E+00  0.00000000E+00
  0.00000000E+00  0.00000000E+00  0.00000000E+00
  0.00000000E+00  0.00000000E+00  0.00000000E+00
  0.00000000E+00  0.00000000E+00  0.00000000E+00
  0.00000000E+00  0.00000000E+00  0.00000000E+00
  0.00000000E+00  0.00000000E+00  0.00000000E+00
  0.00000000E+00  0.00000000E+00  0.00000000E+00
  0.00000000E+00  0.00000000E+00  0.00000000E+00
  0.00000000E+00  0.00000000E+00  0.00000000E+00
  0.00000000E+00  0.00000000E+00  0.00000000E+00
  0.00000000E+00  0.00000000E+00  0.00000000E+00
  0.00000000E+00  0.00000000E+00  0.00000000E+00
  0.00000000E+00  0.00000000E+00  0.00000000E+00
  0.00000000E+00  0.00000000E+00  0.00000000E+00
  0.00000000E+00  0.00000000E+00  0.00000000E+00
  0.00000000E+00  0.00000000E+00  0.00000000E+00
  0.00000000E+00  0.00000000E+00  0.00000000E+00
  0.00000000E+00  0.00000000E+00  0.00000000E+00
  0.00000000E+00  0.00000000E+00  0.00000000E+00
  0.00000000E+00  0.00000000E+00  0.00000000E+00
  0.00000000E+00  0.00000000E+00  0.00000000E+00
  0.00000000E+00  0.00000000E+00  0.00000000E+00
  0.00000000E+00  0.00000000E+00  0.00000000E+00
  0.00000000E+00  0.00000000E+00  0.00000000E+00
  0.00000000E+00  0.00000000E+00  0.00000000E+00
  0.00000000E+00  0.00000000E+00  0.00000000E+00
  0.00000000E+00  0.00000000E+00  0.00000000E+00
  0.00000000E+00  0.00000000E+00  0.00000000E+00
  0.00000000E+00  0.00000000E+00  0.00000000E+00
  0.00000000E+00  0.00000000E+00  0.00000000E+00
  0.00000000E+00  0.00000000E+00  0.00000000E+00
  0.00000000E+00  0.00000000E+00  0.00000000E+00
  0.00000000E+00  0.00000000E+00  0.00000000E+00
  0.00000000E+00  0.00000000E+00  0.00000000E+00
  0.00000000E+00  0.00000000E+00  0.00000000E+00
  0.00000000E+00  0.00000000E+00  0.00000000E+00
  0.00000000E+00  0.00000000E+00  0.00000000E+00
  0.00000000E+00  0.00000000E+00  0.00000000E+00
  0.00000000E+00  0.00000000E+00  0.00000000E+00
  0.00000000E+00  0.00000000E+00  0.00000000E+00
  0.00000000E+00  0.00000000E+00  0.00000000E+00
  0.00000000E+00  0.00000000E+00  0.00000000E+00
  0.00000000E+00  0.00000000E+00  0.00000000E+00
  0.00000000E+00  0.00000000E+00  0.00000000E+00
  0.00000000E+00  0.00000000E+00  0.00000000E+00
  0.00000000E+00  0.00000000E+00  0.00000000E+00
  0.00000000E+00  0.00000000E+00  0.00000000E+00
  0.00000000E+00  0.00000000E+00  0.00000000E+00
  0.00000000E+00  0.00000000E+00  0.00000000E+00
  0.00000000E+00  0.00000000E+00  0.00000000E+00
  0.00000000E+00  0.00000000E+00  0.00000000E+00
  0.00000000E+00  0.00000000E+00  0.00000000E+00
  0.00000000E+00  0.00000000E+00  0.00000000E+00
  0.00000000E+00  0.00000000E+00  0.00000000E+00
  0.00000000E+00  0.00000000E+00  0.00000000E+00
  0.00000000E+00  0.00000000E+00  0.00000000E+00
  0.00000000E+00  0.00000000E+00  0.00000000E+00
  0.00000000E+00  0.00000000E+00  0.00000000E+00
  0.00000000E+00  0.00000000E+00  0.00000000E+00
  0.00000000E+00  0.00000000E+00  0.00000000E+00
  0.00000000E+00  0.00000000E+00  0.00000000E+00
  0.00000000E+00  0.00000000E+00  0.00000000E+00
  0.00000000E+00  0.00000000E+00  0.00000000E+00
  0.00000000E+00  0.00000000E+00  0.00000000E+00
  0.00000000E+00  0.00000000E+00  0.00000000E+00
  0.00000000E+00  0.00000000E+00  0.00000000E+00
  0.00000000E+00  0.00000000E+00  0.00000000E+00
  0.00000000E+00  0.00000000E+00  0.00000000E+00
  0.00000000E+00  0.00000000E+00  0.00000000E+00
  0.00000000E+00  0.00000000E+00  0.00000000E+00
  0.00000000E+00  0.00000000E+00  0.00000000E+00
  0.00000000E+00  0.00000000E+00  0.00000000E+00
  0.00000000E+00  0.00000000E+00  0.00000000E+00
  0.00000000E+00  0.00000000E+00  0.00000000E+00
  0.00000000E+00  0.00000000E+00  0.00000000E+00
  0.00000000E+00  0.00000000E+00  0.00000000E+00
  0.00000000E+00  0.00000000E+00  0.00000000E+00
  0.00000000E+00  0.00000000E+00  0.00000000E+00
  0.00000000E+00  0.00000000E+00  0.00000000E+00
  0.00000000E+00  0.00000000E+00  0.00000000E+00
  0.00000000E+00  0.00000000E+00  0.00000000E+00
  0.00000000E+00  0.00000000E+00  0.00000000E+00
  0.00000000E+00  0.00000000E+00  0.00000000E+00
  0.00000000E+00  0.00000000E+00  0.00000000E+00
  0.00000000E+00  0.00000000E+00  0.00000000E+00
  0.00000000E+00  0.00000000E+00  0.00000000E+00
  0.00000000E+00  0.00000000E+00  0.00000000E+00
  0.00000000E+00  0.00000000E+00  0.00000000E+00
  0.00000000E+00  0.00000000E+00  0.00000000E+00
  0.00000000E+00  0.00000000E+00  0.00000000E+00
  0.00000000E+00  0.00000000E+00  0.00000000E+00
  0.00000000E+00  0.00000000E+00  0.00000000E+00
  0.00000000E+00  0.00000000E+00  0.00000000E+00
  0.00000000E+00  0.00000000E+00  0.00000000E+00
  0.00000000E+00  0.00000000E+00  0.00000000E+00
  0.00000000E+00  0.00000000E+00  0.00000000E+00
  0.00000000E+00  0.00000000E+00  0.00000000E+00
  0.00000000E+00  0.00000000E+00  0.00000000E+00
  0.00000000E+00  0.00000000E+00  0.00000000E+00
  0.00000000E+00  0.00000000E+00  0.00000000E+00
  0.00000000E+00  0.00000000E+00  0.00000000E+00
  0.00000000E+00  0.00000000E+00  0.00000000E+00
  0.00000000E+00  0.00000000E+00  0.00000000E+00
  0.00000000E+00  0.00000000E+00  0.00000000E+00
  0.00000000E+00  0.00000000E+00  0.00000000E+00
  0.00000000E+00  0.00000000E+00  0.00000000E+00
  0.00000000E+00  0.00000000E+00  0.00000000E+00
  0.00000000E+00  0.00000000E+00  0.00000000E+00
  0.00000000E+00  0.00000000E+00  0.00000000E+00
  0.00000000E+00  0.00000000E+00  0.00000000E+00
  0.00000000E+00  0.00000000E+00  0.00000000E+00
  0.00000000E+00  0.00000000E+00  0.00000000E+00
  0.00000000E+00  0.00000000E+00  0.00000000E+00
  0.00000000E+00  0.00000000E+00  0.00000000E+00
  0.00000000E+00  0.00000000E+00  0.00000000E+00
  0.00000000E+00  0.00000000E+00  0.00000000E+00
  0.00000000E+00  0.00000000E+00  0.00000000E+00
  0.00000000E+00  0.00000000E+00  0.00000000E+00
  0.00000000E+00  0.00000000E+00  0.00000000E+00
  0.00000000E+00  0.00000000E+00  0.00000000E+00
  0.00000000E+00  0.00000000E+00  0.00000000E+00
  0.00000000E+00  0.00000000E+00  0.00000000E+00
  0.00000000E+00  0.00000000E+00  0.00000000E+00
  0.00000000E+00  0.00000000E+00  0.00000000E+00
  0.00000000E+00  0.00000000E+00  0.00000000E+00
  0.00000000E+00  0.00000000E+00  0.00000000E+00
  0.00000000E+00  0.00000000E+00  0.00000000E+00
  0.00000000E+00  0.00000000E+00  0.00000000E+00
  0.00000000E+00  0.00000000E+00  0.00000000E+00
  0.00000000E+00  0.00000000E+00  0.00000000E+00
  0.00000000E+00  0.00000000E+00  0.00000000E+00
  0.00000000E+00  0.00000000E+00  0.00000000E+00
  0.00000000E+00  0.00000000E+00  0.00000000E+00
  0.00000000E+00  0.00000000E+00  0.00000000E+00
  0.00000000E+00  0.00000000E+00  0.00000000E+00
  0.00000000E+00  0.00000000E+00  0.00000000E+00
  0.00000000E+00  0.00000000E+00  0.00000000E+00
  0.00000000E+00  0.00000000E+00  0.00000000E+00
  0.00000000E+00  0.00000000E+00  0.00000000E+00
  0.00000000E+00  0.00000000E+00  0.00000000E+00
  0.00000000E+00  0.00000000E+00  0.00000000E+00
  0.00000000E+00  0.00000000E+00  0.00000000E+00
  0.00000000E+00  0.00000000E+00  0.00000000E+00
  0.00000000E+00  0.00000000E+00  0.00000000E+00
  0.00000000E+00  0.00000000E+00  0.00000000E+00
  0.00000000E+00  0.00000000E+00  0.00000000E+00
  0.00000000E+00  0.00000000E+00  0.00000000E+00
  0.00000000E+00  0.00000000E+00  0.00000000E+00
  0.00000000E+00  0.00000000E+00  0.00000000E+00
  0.00000000E+00  0.00000000E+00  0.00000000E+00
  0.00000000E+00  0.00000000E+00  0.00000000E+00
  0.00000000E+00  0.00000000E+00  0.00000000E+00
  0.00000000E+00  0.00000000E+00  0.00000000E+00
  0.00000000E+00  0.00000000E+00  0.00000000E+00
  0.00000000E+00  0.00000000E+00  0.00000000E+00
  0.00000000E+00  0.00000000E+00  0.00000000E+00
  0.00000000E+00  0.00000000E+00  0.00000000E+00
  0.00000000E+00  0.00000000E+00  0.00000000E+00
  0.00000000E+00  0.00000000E+00  0.00000000E+00
  0.00000000E+00  0.00000000E+00  0.00000000E+00
  0.00000000E+00  0.00000000E+00  0.00000000E+00
  0.00000000E+00  0.00000000E+00  0.00000000E+00
  0.00000000E+00  0.00000000E+00  0.00000000E+00
  0.00000000E+00  0.00000000E+00  0.00000000E+00
