supercell of POSCAR                     
   1.01189200000000     
     3.1482772356600002   -5.4762754812200001    9.9674464565599994
    -9.4511209497999999   -5.4731922780100000    0.0032121685426600
     6.3112884282600001  -10.9581161277000003   -9.9749049577999997
   Al   Sc   N 
    83    12    96
Direct
  0.0914623218752411  0.5835622499972430  0.3346149822859559
  0.0001459936463277  0.3280833079160246  0.2541192685323566
  0.0884676273362288  0.0850920793330872  0.3345408739931699
  0.2558978160817631  0.5796270313064085  0.4956930943362181
  0.3286310141219531  0.3246559896830234  0.0804309734477471
  0.4174851530801718  0.0869466347887027  0.1694487759781182
  0.0076758910250305  0.8397698032555567  0.2535583290118169
  0.1754766427525496  0.3329908053136279  0.4131778374570558
  0.2499691906244692  0.0857446037085481  0.4974134407606883
  0.1666017888504641  0.8338103525281966  0.4157095784055684
  0.3391515117320907  0.6713041690614929  0.3396267554991539
  0.1586924200252327  0.6698001702173428  0.1671798948805900
  0.2524675114883550  0.4057872224723056  0.2527530572420389
  0.3350021576737205  0.1677602203271178  0.3342197366557897
  0.0046242693778069  0.6695928802320523  0.4972005543777058
  0.1668109129573452  0.1627664800631052  0.1691847957206463
  0.2534103369122391  0.9192914022584233  0.2529521725259727
  0.4997003796056276  0.1630055564494697  0.4987209847243079
  0.0805929183378140  0.9209121958720914  0.0816329737206445
  0.4196627050870774  0.9183257350088425  0.4138691071013127
  0.0857971522181273  0.5839424384400189  0.8350887543080461
  0.9997353990476725  0.3266035471426250  0.7537112845101390
  0.0833327778307904  0.0838053921220521  0.8344562445599877
  0.2475408853855328  0.5796870710486672  0.9976939131712896
  0.3337059596447034  0.3232493534782037  0.5794975594805436
  0.4171517478585685  0.0853408732468779  0.6677037987822132
  0.0041747777039944  0.8396467104903209  0.7534144558376212
  0.1648512149797341  0.3328923382112308  0.9149871868295918
  0.2464624588103561  0.0860103914693369  0.9975346042037927
  0.1621003938464938  0.8344590729222787  0.9162594354131599
  0.3342526786008975  0.6693585163415250  0.8370964945848058
  0.1593694681158979  0.6707045493001544  0.6673429623019729
  0.2497777068034495  0.4086071243853411  0.7515410184698297
  0.3323776245454084  0.1653176756589758  0.8333749350154562
  0.9999692388239509  0.6699791996885835  0.9989698192020811
  0.1665985184854506  0.1610789338358956  0.6686177906884510
  0.2516347973493254  0.9179851441375675  0.7528967656883054
  0.4123806674473727  0.4150051115041080  0.9148165567116706
  0.4967925381723646  0.1629503430109409  0.9977256043727607
  0.0834193951661746  0.9205218032814244  0.5815122252952349
  0.4162219383169230  0.9174934624355160  0.9137211485444396
  0.5908307681059881  0.5870673578485395  0.3341669779489038
  0.5019621937879961  0.3273632273772762  0.2538008662677100
  0.5863857482664372  0.0853842479895377  0.3341389245823976
  0.7508969681278472  0.5802583538393122  0.4965893330640512
  0.8277139899192107  0.3244992833490983  0.0826728536533849
  0.9183930254642831  0.0861560948753919  0.1696403553159413
  0.5068122378371669  0.8406836209130972  0.2529557361203416
  0.6703891516616665  0.3330079955536434  0.4139674089314411
  0.7495849344798629  0.0867862560135748  0.4972578214521661
  0.6656548390327757  0.8361614936454487  0.4167358291360372
  0.8397516650160597  0.6727405574501901  0.3378654978028237
  0.6600689390062229  0.6730157728842414  0.1658307292346777
  0.7319172498943161  0.4107580809310889  0.2609720218299145
  0.8373234006966683  0.1652808195982658  0.3337742962498069
  0.5030998431065044  0.6729303498133703  0.4965593190088669
  0.6677654024782669  0.1599559147290179  0.1672654815035344
  0.7539895401553665  0.9194750195952466  0.2543307814280027
  0.9181872693730142  0.4152213760448831  0.4156462512670203
  0.0005507069091095  0.1638196492426118  0.4982100808435703
  0.5800405889566349  0.9208872190215303  0.0809218225025603
  0.9207326818192598  0.9189404390631495  0.4146855498211437
  0.5861495589748031  0.5834893572921445  0.8336863383911037
  0.4995954647957888  0.3268411695415239  0.7515516202678754
  0.5831106482545962  0.0841833699844585  0.8334843072274509
  0.7476970754693326  0.5799854467068144  0.9969151559969944
  0.8313453252205889  0.3251959482958569  0.5801853506010133
  0.9164937324563667  0.0863398296528928  0.6692098120190124
  0.5041998703529913  0.8387285749109168  0.7522815679146575
  0.6651736417471739  0.3329029456987698  0.9140727625109903
  0.7466509504665879  0.0855873702202459  0.9969664733691275
  0.6618645747669518  0.8344019550347923  0.9158448243841448
  0.8344439961477974  0.6699659394020401  0.8373593339162326
  0.6602646838669912  0.6705536227812630  0.6662767617108543
  0.7496466339024010  0.4084553415596588  0.7505359564795810
  0.8321798948985517  0.1656213678313279  0.8337186599853510
  0.5006729902799734  0.6694465370850438  0.9976985334370738
  0.6654547795878258  0.1633169512893957  0.6676895132182494
  0.7513230980063597  0.9191226390638647  0.7539819338577374
  0.9117845249174152  0.4151322476287760  0.9158997988619930
  0.9963503506188189  0.1634124878905894  0.9984638453643484
  0.5848089290606850  0.9212783743176516  0.5822875905155911
  0.9163351269603197  0.9178249997750356  0.9143769313684444
  0.4027145862154811  0.5824556659153259  0.1760204844185651
  0.3267204994535788  0.8371507024451432  0.0843855824084798
  0.0733119985648258  0.4170180736103006  0.0857990887244711
  0.4045554130940303  0.5813988734111390  0.6726341435468015
  0.3320354095094658  0.8333776747997490  0.5813176052859959
  0.0818822218232071  0.4161261106503744  0.5847004953446771
  0.8977307146402183  0.5806773608848630  0.1774720403249717
  0.8269590050143591  0.8384775386068668  0.0847013180539520
  0.5751741686625564  0.4157721317592618  0.0845001385394895
  0.9043954382988488  0.5815689321003461  0.6737672991145374
  0.8305842121751255  0.8370489411513304  0.5843040412192479
  0.5757710342963236  0.4167828316123305  0.5805659506163749
  0.2206097617639244  0.5828376531887471  0.2662170229004488
  0.0355696944149244  0.6000957057528069  0.1035977305485218
  0.1288053565711493  0.3242904941766014  0.1923585206363256
  0.2129783092554760  0.0804863425516018  0.2694833533426717
  0.3783322044753277  0.6084499942026369  0.4409074663585031
  0.4482911227391000  0.3227851441888347  0.0115467135433889
  0.0420510037995996  0.0851365942038953  0.1027361805145830
  0.1326029148894960  0.8391458925371964  0.1845207086088081
  0.2873413043151203  0.3214769147460927  0.3459135577970329
  0.3782976128629159  0.0798804908551887  0.4351825880374562
  0.4660278660499131  0.8352526971537202  0.0132126619511155
  0.2943486489401366  0.8369827639230962  0.3527465612777263
  0.4715614256212319  0.6798840900455758  0.2794356645910483
  0.2752260307021288  0.6606067884323821  0.0975025235936187
  0.3787537900848577  0.3954287736965796  0.1837474093361777
  0.4641021499027218  0.1638041047747976  0.2715909505602028
  0.1313076864181753  0.6659647169689364  0.4349753909584209
  0.2137477007977395  0.4137095586175334  0.0145638807469766
  0.2913726112654373  0.1602132353815406  0.1019901710072872
  0.3849198162950955  0.9239260919864591  0.1949762740091572
  0.0463468682837913  0.4196034880352713  0.3527077852355660
  0.1278994483947073  0.1685788809166340  0.4364331757998201
  0.1985042451584107  0.9268196128947181  0.0123600996880597
  0.0487967101414313  0.9210323595036911  0.3532405383801560
  0.2149222754619160  0.5817392154997876  0.7689934523893527
  0.0385702744404171  0.5986157120462394  0.6027434163195124
  0.1293517226735617  0.3224918206408205  0.6962125453107291
  0.2105846567734702  0.0815323672718620  0.7718736225544376
  0.3777701320704310  0.5823403963914799  0.9369965726179785
  0.4582275157456195  0.3119827391251633  0.5261767058532172
  0.0415737406678218  0.0842303771088453  0.6040947790024731
  0.1297035175991823  0.8388600751441189  0.6866948478046098
  0.2928213389920487  0.3307975754506742  0.8529263368428346
  0.3751990566095600  0.0807089965971812  0.9348753547694741
  0.4735335079254526  0.8408002504187806  0.5142329006910487
  0.2917153370763543  0.8330018931578351  0.8546317478885470
  0.4668980908703730  0.6773529200733606  0.7803830346593870
  0.2743537093443891  0.6598344711659152  0.5999442344092571
  0.3740899002027973  0.3962389669439972  0.6875523445487417
  0.4603812592856471  0.1641538069007638  0.7718307099659256
  0.1284708675565582  0.6660281981947733  0.9353242412429026
  0.2181651900972241  0.4137032470813793  0.5151586703307700
  0.2898943972110928  0.1585750496535852  0.6036912968300143
  0.3820586174021514  0.9223227431235514  0.6952146958728918
  0.0418957899957917  0.4184725312232445  0.8528883997018895
  0.1249520924082006  0.1692766845970226  0.9352735672405501
  0.2017034195304745  0.9255601268733002  0.5133129532927683
  0.0450089416366239  0.9203654834795998  0.8533406854321797
  0.7253492777552992  0.5913163081680253  0.2645367804611993
  0.5382287509532730  0.5999306094232750  0.1026131825133660
  0.6306206916979278  0.3190496757062746  0.1886914318266264
  0.7142180928521569  0.0830651431077385  0.2708506472482313
  0.8813300307212089  0.5833813729467110  0.4370271904670417
  0.9474700052695724  0.3228759509013415  0.0126151983989544
  0.5414014629456361  0.0844660832730426  0.1020809402232530
  0.6331492297632835  0.8415092193309661  0.1846509300156356
  0.8031700355349756  0.3279489246932812  0.3540337579472137
  0.8789342920001886  0.0813472090144742  0.4358842636768259
  0.9660836530457431  0.8362420867534439  0.0138120144047846
  0.7960106602460755  0.8358011388221911  0.3553822903437052
  0.9724969710965894  0.6786717331492085  0.2806513515126596
  0.7751711485473223  0.6623562841958304  0.0957403663929526
  0.8758960104761542  0.3946730703028720  0.1859935442522698
  0.9647992470484041  0.1633668668277295  0.2719350497010993
  0.6342387505918623  0.6683725193477414  0.4346589267470335
  0.7146038553287468  0.4136132976196620  0.0136575881985337
  0.7925683702958963  0.1577074687139799  0.1016132226934516
  0.8850636557978007  0.9235799404656646  0.1964608270773667
  0.5831764701805895  0.4209773114054087  0.3336161017251911
  0.6290242132005730  0.1689216402313392  0.4349508097744561
  0.6980985575489385  0.9266311816663517  0.0118781495679556
  0.5492754174523142  0.9213640202481628  0.3524128771446300
  0.7172421256760941  0.5819492702965832  0.7677209022661344
  0.5391280168274051  0.6025185832654216  0.6026511878319099
  0.6302003883655871  0.3245954878980655  0.6949862839830914
  0.7109499559180605  0.0829720572533077  0.7713182534117848
  0.8780738099290488  0.5828503622031533  0.9368494596739865
  0.9531824547986929  0.3238903124364967  0.5144652307420756
  0.5444777304614874  0.0811170606717866  0.6051260324886627
  0.6324575008480267  0.8381550823768080  0.6869300036118844
  0.7935624709663145  0.3314258895497488  0.8522364442280832
  0.8753617959876507  0.0810009183402016  0.9348825735846589
  0.9693572638008803  0.8355175438769109  0.5141948265922593
  0.7920959646109083  0.8334856690016039  0.8550409294023424
  0.9671212962553923  0.6779665216351987  0.7806016593528824
  0.7771930624092889  0.6609675463494327  0.5980167928205589
  0.8764417251768535  0.3953122778912359  0.6862984619858139
  0.9606404873506094  0.1642847516854289  0.7727133854940149
  0.6287113707226766  0.6655868302415016  0.9339571556859099
  0.7198183099341406  0.4141930390769133  0.5136653446264319
  0.7920515775567978  0.1614082899253262  0.6028280736831633
  0.8824752110428591  0.9244484126742023  0.6969878045326041
  0.5423616351261771  0.4182188388294961  0.8519075099006344
  0.6253455100600860  0.1691807854005987  0.9346666792979761
  0.7035725387680358  0.9274248202723854  0.5136146514911459
  0.5449597470141967  0.9203210804417168  0.8523601987074017
 
  0.00000000E+00  0.00000000E+00  0.00000000E+00
  0.00000000E+00  0.00000000E+00  0.00000000E+00
  0.00000000E+00  0.00000000E+00  0.00000000E+00
  0.00000000E+00  0.00000000E+00  0.00000000E+00
  0.00000000E+00  0.00000000E+00  0.00000000E+00
  0.00000000E+00  0.00000000E+00  0.00000000E+00
  0.00000000E+00  0.00000000E+00  0.00000000E+00
  0.00000000E+00  0.00000000E+00  0.00000000E+00
  0.00000000E+00  0.00000000E+00  0.00000000E+00
  0.00000000E+00  0.00000000E+00  0.00000000E+00
  0.00000000E+00  0.00000000E+00  0.00000000E+00
  0.00000000E+00  0.00000000E+00  0.00000000E+00
  0.00000000E+00  0.00000000E+00  0.00000000E+00
  0.00000000E+00  0.00000000E+00  0.00000000E+00
  0.00000000E+00  0.00000000E+00  0.00000000E+00
  0.00000000E+00  0.00000000E+00  0.00000000E+00
  0.00000000E+00  0.00000000E+00  0.00000000E+00
  0.00000000E+00  0.00000000E+00  0.00000000E+00
  0.00000000E+00  0.00000000E+00  0.00000000E+00
  0.00000000E+00  0.00000000E+00  0.00000000E+00
  0.00000000E+00  0.00000000E+00  0.00000000E+00
  0.00000000E+00  0.00000000E+00  0.00000000E+00
  0.00000000E+00  0.00000000E+00  0.00000000E+00
  0.00000000E+00  0.00000000E+00  0.00000000E+00
  0.00000000E+00  0.00000000E+00  0.00000000E+00
  0.00000000E+00  0.00000000E+00  0.00000000E+00
  0.00000000E+00  0.00000000E+00  0.00000000E+00
  0.00000000E+00  0.00000000E+00  0.00000000E+00
  0.00000000E+00  0.00000000E+00  0.00000000E+00
  0.00000000E+00  0.00000000E+00  0.00000000E+00
  0.00000000E+00  0.00000000E+00  0.00000000E+00
  0.00000000E+00  0.00000000E+00  0.00000000E+00
  0.00000000E+00  0.00000000E+00  0.00000000E+00
  0.00000000E+00  0.00000000E+00  0.00000000E+00
  0.00000000E+00  0.00000000E+00  0.00000000E+00
  0.00000000E+00  0.00000000E+00  0.00000000E+00
  0.00000000E+00  0.00000000E+00  0.00000000E+00
  0.00000000E+00  0.00000000E+00  0.00000000E+00
  0.00000000E+00  0.00000000E+00  0.00000000E+00
  0.00000000E+00  0.00000000E+00  0.00000000E+00
  0.00000000E+00  0.00000000E+00  0.00000000E+00
  0.00000000E+00  0.00000000E+00  0.00000000E+00
  0.00000000E+00  0.00000000E+00  0.00000000E+00
  0.00000000E+00  0.00000000E+00  0.00000000E+00
  0.00000000E+00  0.00000000E+00  0.00000000E+00
  0.00000000E+00  0.00000000E+00  0.00000000E+00
  0.00000000E+00  0.00000000E+00  0.00000000E+00
  0.00000000E+00  0.00000000E+00  0.00000000E+00
  0.00000000E+00  0.00000000E+00  0.00000000E+00
  0.00000000E+00  0.00000000E+00  0.00000000E+00
  0.00000000E+00  0.00000000E+00  0.00000000E+00
  0.00000000E+00  0.00000000E+00  0.00000000E+00
  0.00000000E+00  0.00000000E+00  0.00000000E+00
  0.00000000E+00  0.00000000E+00  0.00000000E+00
  0.00000000E+00  0.00000000E+00  0.00000000E+00
  0.00000000E+00  0.00000000E+00  0.00000000E+00
  0.00000000E+00  0.00000000E+00  0.00000000E+00
  0.00000000E+00  0.00000000E+00  0.00000000E+00
  0.00000000E+00  0.00000000E+00  0.00000000E+00
  0.00000000E+00  0.00000000E+00  0.00000000E+00
  0.00000000E+00  0.00000000E+00  0.00000000E+00
  0.00000000E+00  0.00000000E+00  0.00000000E+00
  0.00000000E+00  0.00000000E+00  0.00000000E+00
  0.00000000E+00  0.00000000E+00  0.00000000E+00
  0.00000000E+00  0.00000000E+00  0.00000000E+00
  0.00000000E+00  0.00000000E+00  0.00000000E+00
  0.00000000E+00  0.00000000E+00  0.00000000E+00
  0.00000000E+00  0.00000000E+00  0.00000000E+00
  0.00000000E+00  0.00000000E+00  0.00000000E+00
  0.00000000E+00  0.00000000E+00  0.00000000E+00
  0.00000000E+00  0.00000000E+00  0.00000000E+00
  0.00000000E+00  0.00000000E+00  0.00000000E+00
  0.00000000E+00  0.00000000E+00  0.00000000E+00
  0.00000000E+00  0.00000000E+00  0.00000000E+00
  0.00000000E+00  0.00000000E+00  0.00000000E+00
  0.00000000E+00  0.00000000E+00  0.00000000E+00
  0.00000000E+00  0.00000000E+00  0.00000000E+00
  0.00000000E+00  0.00000000E+00  0.00000000E+00
  0.00000000E+00  0.00000000E+00  0.00000000E+00
  0.00000000E+00  0.00000000E+00  0.00000000E+00
  0.00000000E+00  0.00000000E+00  0.00000000E+00
  0.00000000E+00  0.00000000E+00  0.00000000E+00
  0.00000000E+00  0.00000000E+00  0.00000000E+00
  0.00000000E+00  0.00000000E+00  0.00000000E+00
  0.00000000E+00  0.00000000E+00  0.00000000E+00
  0.00000000E+00  0.00000000E+00  0.00000000E+00
  0.00000000E+00  0.00000000E+00  0.00000000E+00
  0.00000000E+00  0.00000000E+00  0.00000000E+00
  0.00000000E+00  0.00000000E+00  0.00000000E+00
  0.00000000E+00  0.00000000E+00  0.00000000E+00
  0.00000000E+00  0.00000000E+00  0.00000000E+00
  0.00000000E+00  0.00000000E+00  0.00000000E+00
  0.00000000E+00  0.00000000E+00  0.00000000E+00
  0.00000000E+00  0.00000000E+00  0.00000000E+00
  0.00000000E+00  0.00000000E+00  0.00000000E+00
  0.00000000E+00  0.00000000E+00  0.00000000E+00
  0.00000000E+00  0.00000000E+00  0.00000000E+00
  0.00000000E+00  0.00000000E+00  0.00000000E+00
  0.00000000E+00  0.00000000E+00  0.00000000E+00
  0.00000000E+00  0.00000000E+00  0.00000000E+00
  0.00000000E+00  0.00000000E+00  0.00000000E+00
  0.00000000E+00  0.00000000E+00  0.00000000E+00
  0.00000000E+00  0.00000000E+00  0.00000000E+00
  0.00000000E+00  0.00000000E+00  0.00000000E+00
  0.00000000E+00  0.00000000E+00  0.00000000E+00
  0.00000000E+00  0.00000000E+00  0.00000000E+00
  0.00000000E+00  0.00000000E+00  0.00000000E+00
  0.00000000E+00  0.00000000E+00  0.00000000E+00
  0.00000000E+00  0.00000000E+00  0.00000000E+00
  0.00000000E+00  0.00000000E+00  0.00000000E+00
  0.00000000E+00  0.00000000E+00  0.00000000E+00
  0.00000000E+00  0.00000000E+00  0.00000000E+00
  0.00000000E+00  0.00000000E+00  0.00000000E+00
  0.00000000E+00  0.00000000E+00  0.00000000E+00
  0.00000000E+00  0.00000000E+00  0.00000000E+00
  0.00000000E+00  0.00000000E+00  0.00000000E+00
  0.00000000E+00  0.00000000E+00  0.00000000E+00
  0.00000000E+00  0.00000000E+00  0.00000000E+00
  0.00000000E+00  0.00000000E+00  0.00000000E+00
  0.00000000E+00  0.00000000E+00  0.00000000E+00
  0.00000000E+00  0.00000000E+00  0.00000000E+00
  0.00000000E+00  0.00000000E+00  0.00000000E+00
  0.00000000E+00  0.00000000E+00  0.00000000E+00
  0.00000000E+00  0.00000000E+00  0.00000000E+00
  0.00000000E+00  0.00000000E+00  0.00000000E+00
  0.00000000E+00  0.00000000E+00  0.00000000E+00
  0.00000000E+00  0.00000000E+00  0.00000000E+00
  0.00000000E+00  0.00000000E+00  0.00000000E+00
  0.00000000E+00  0.00000000E+00  0.00000000E+00
  0.00000000E+00  0.00000000E+00  0.00000000E+00
  0.00000000E+00  0.00000000E+00  0.00000000E+00
  0.00000000E+00  0.00000000E+00  0.00000000E+00
  0.00000000E+00  0.00000000E+00  0.00000000E+00
  0.00000000E+00  0.00000000E+00  0.00000000E+00
  0.00000000E+00  0.00000000E+00  0.00000000E+00
  0.00000000E+00  0.00000000E+00  0.00000000E+00
  0.00000000E+00  0.00000000E+00  0.00000000E+00
  0.00000000E+00  0.00000000E+00  0.00000000E+00
  0.00000000E+00  0.00000000E+00  0.00000000E+00
  0.00000000E+00  0.00000000E+00  0.00000000E+00
  0.00000000E+00  0.00000000E+00  0.00000000E+00
  0.00000000E+00  0.00000000E+00  0.00000000E+00
  0.00000000E+00  0.00000000E+00  0.00000000E+00
  0.00000000E+00  0.00000000E+00  0.00000000E+00
  0.00000000E+00  0.00000000E+00  0.00000000E+00
  0.00000000E+00  0.00000000E+00  0.00000000E+00
  0.00000000E+00  0.00000000E+00  0.00000000E+00
  0.00000000E+00  0.00000000E+00  0.00000000E+00
  0.00000000E+00  0.00000000E+00  0.00000000E+00
  0.00000000E+00  0.00000000E+00  0.00000000E+00
  0.00000000E+00  0.00000000E+00  0.00000000E+00
  0.00000000E+00  0.00000000E+00  0.00000000E+00
  0.00000000E+00  0.00000000E+00  0.00000000E+00
  0.00000000E+00  0.00000000E+00  0.00000000E+00
  0.00000000E+00  0.00000000E+00  0.00000000E+00
  0.00000000E+00  0.00000000E+00  0.00000000E+00
  0.00000000E+00  0.00000000E+00  0.00000000E+00
  0.00000000E+00  0.00000000E+00  0.00000000E+00
  0.00000000E+00  0.00000000E+00  0.00000000E+00
  0.00000000E+00  0.00000000E+00  0.00000000E+00
  0.00000000E+00  0.00000000E+00  0.00000000E+00
  0.00000000E+00  0.00000000E+00  0.00000000E+00
  0.00000000E+00  0.00000000E+00  0.00000000E+00
  0.00000000E+00  0.00000000E+00  0.00000000E+00
  0.00000000E+00  0.00000000E+00  0.00000000E+00
  0.00000000E+00  0.00000000E+00  0.00000000E+00
  0.00000000E+00  0.00000000E+00  0.00000000E+00
  0.00000000E+00  0.00000000E+00  0.00000000E+00
  0.00000000E+00  0.00000000E+00  0.00000000E+00
  0.00000000E+00  0.00000000E+00  0.00000000E+00
  0.00000000E+00  0.00000000E+00  0.00000000E+00
  0.00000000E+00  0.00000000E+00  0.00000000E+00
  0.00000000E+00  0.00000000E+00  0.00000000E+00
  0.00000000E+00  0.00000000E+00  0.00000000E+00
  0.00000000E+00  0.00000000E+00  0.00000000E+00
  0.00000000E+00  0.00000000E+00  0.00000000E+00
  0.00000000E+00  0.00000000E+00  0.00000000E+00
  0.00000000E+00  0.00000000E+00  0.00000000E+00
  0.00000000E+00  0.00000000E+00  0.00000000E+00
  0.00000000E+00  0.00000000E+00  0.00000000E+00
  0.00000000E+00  0.00000000E+00  0.00000000E+00
  0.00000000E+00  0.00000000E+00  0.00000000E+00
  0.00000000E+00  0.00000000E+00  0.00000000E+00
  0.00000000E+00  0.00000000E+00  0.00000000E+00
  0.00000000E+00  0.00000000E+00  0.00000000E+00
  0.00000000E+00  0.00000000E+00  0.00000000E+00
  0.00000000E+00  0.00000000E+00  0.00000000E+00
  0.00000000E+00  0.00000000E+00  0.00000000E+00
  0.00000000E+00  0.00000000E+00  0.00000000E+00
  0.00000000E+00  0.00000000E+00  0.00000000E+00
  0.00000000E+00  0.00000000E+00  0.00000000E+00
