supercell of POSCAR                     
   1.01189200000000     
     3.1482772356600002   -5.4762754812200001    9.9674464565599994
    -9.4511209497999999   -5.4731922780100000    0.0032121685426600
     6.3112884282600001  -10.9581161277000003   -9.9749049577999997
   Al   Sc   N 
    84    12    95
Direct
  0.0864455400605380  0.5854133870886784  0.3337089102531934
  0.9998344455673589  0.3274879904998187  0.2527881863210268
  0.0757768819300892  0.0796380099247500  0.3315670084752824
  0.2481679363358964  0.5821830733650799  0.4980185215313284
  0.3311167827794748  0.3244640237414416  0.0783684501235271
  0.4064567796828555  0.0718502805231367  0.1454888752182910
  0.0046854878622327  0.8381915063078935  0.2518767032704261
  0.1613595877624405  0.3417682233869641  0.4171221221038266
  0.2475042574400845  0.0823161416639522  0.5041148970639000
  0.1623156474752676  0.8342935274212948  0.4163183102591361
  0.3343168427708108  0.6704008678389499  0.3373320291369950
  0.1584626895343177  0.6698408062532835  0.1662874045438940
  0.2482090861433406  0.4081546010743295  0.2522924006891571
  0.2860587690331187  0.1668501057431939  0.3564241548324105
  0.0014181278767680  0.6702624963876076  0.4977587602753815
  0.1638751085367716  0.1622003618631283  0.1677114316325543
  0.2502954319914323  0.9192042289051017  0.2541019849732891
  0.4116142280248951  0.4172943065014181  0.4180732885224714
  0.4968542866551928  0.1641500528349980  0.4995956500799110
  0.0809863156683051  0.9208364322221740  0.0806083585505775
  0.4151016640447125  0.9172451630671929  0.4150679692067030
  0.0894132566416488  0.5842635485655165  0.8336020458569422
  0.0026624857451978  0.3271880157091687  0.7542333141201212
  0.0850484169638506  0.0840057227472784  0.8333476407731837
  0.2495936516959816  0.5793455451509999  0.9955519052462165
  0.3307212519880949  0.3252302124202302  0.5817766374921050
  0.4189006787782787  0.0864178540195155  0.6706223456027232
  0.0068867316120773  0.8398407269543640  0.7531168670062414
  0.1679293856898099  0.3331347883792759  0.9135412545016877
  0.2452022967594587  0.0849707137512397  0.9931975651788250
  0.1641079003665595  0.8343804474685257  0.9152293303574410
  0.3374197675094734  0.6706914281278387  0.8369950198240232
  0.1608147699559623  0.6712032499561005  0.6669471421535889
  0.2533629307952765  0.4088529127941811  0.7515476641207854
  0.3348361639380713  0.1659169567908023  0.8333794173253324
  0.0030864564895978  0.6699053830504766  0.9961944245870313
  0.1681663762355043  0.1620615920764550  0.6699804051590945
  0.2536555130687503  0.9189402999020189  0.7541810021698367
  0.4156222641490217  0.4166662437498587  0.9146045461518284
  0.4999975218259536  0.1655443206553144  0.9941296782575151
  0.0805270777565426  0.9195457797027800  0.5823516659802337
  0.4186596345660050  0.9176056107902966  0.9138806539740116
  0.5876082045141047  0.5882919800932811  0.3345126934396632
  0.5079406782226030  0.3563310162912572  0.2524075142331625
  0.6133981677595912  0.0640025513531057  0.3505823366753162
  0.7494328813354514  0.5802686787674673  0.4978395788445908
  0.8316739024643809  0.3238593946933150  0.0791191434518055
  0.9161007815435696  0.0858136657446522  0.1673083523400649
  0.5053298229391316  0.8399266277748367  0.2518491455253695
  0.6684023329872488  0.3345736438366345  0.4156160093631343
  0.7524532080217341  0.0871753205773018  0.5010829483939077
  0.6637328452063755  0.8300197995360747  0.4179604121325795
  0.8356636299069393  0.6693705079554420  0.3369015565110587
  0.6592241877506453  0.6698349503421568  0.1658160734156837
  0.7533629481439306  0.4090034481042153  0.2515960417781358
  0.8354142473065096  0.1679511507628035  0.3339300377520402
  0.5006788757411655  0.6700245736203527  0.4985623105285981
  0.6672550989190569  0.1600502854526056  0.1681442506771305
  0.7537225897855677  0.9146887356842583  0.2518958784947145
  0.9131496790538378  0.4172316033531231  0.4157793522907696
  0.0007643815094980  0.1630195884213776  0.4976234615719193
  0.5827246726397917  0.9177067444812437  0.0801079502578403
  0.9163315347690428  0.9160607260716631  0.4145192708246412
  0.5896367055516762  0.5844563671494853  0.8336998629044388
  0.5028825332327784  0.3270115416419372  0.7540130276570522
  0.5861444397868780  0.0837333086120324  0.8336050489228128
  0.7504814268079016  0.5808977964321400  0.9960714714002563
  0.8329629636063345  0.3249354781764353  0.5805324960239275
  0.9194221702368139  0.0867069873549724  0.6695444995515416
  0.5069550476032276  0.8400031529034706  0.7531419194218998
  0.6691631940069556  0.3335076875513110  0.9128044888358389
  0.7484898072671768  0.0857970928439897  0.9961746323974836
  0.6647405722333133  0.8347738159226239  0.9151562599919600
  0.8375465411279848  0.6705844781114649  0.8369026021385793
  0.6606190807156409  0.6712855209625275  0.6665353772426386
  0.7537639833970502  0.4090399349002709  0.7505738786474865
  0.8349797118236566  0.1655659542223091  0.8333028662747139
  0.5026837680914795  0.6692518174085436  0.9966711044976293
  0.6682579392940227  0.1620695405020456  0.6691963743126479
  0.7539915436203373  0.9191763791107164  0.7536678472996314
  0.9154680686028911  0.4162579726810094  0.9149033058245521
  0.9983658588014563  0.1632928242618803  0.9966721244354204
  0.5810055529339451  0.9218206858515785  0.5816693615824136
  0.9188189253484538  0.9180897503051284  0.9133323055479750
  0.4018407957240271  0.5814727042412215  0.1729003407702905
  0.3254743211502529  0.8324927648656839  0.0831128509992425
  0.0787246607239354  0.4157117127146748  0.0840160192173158
  0.4048889713829951  0.5828618894726532  0.6743838172480352
  0.3281333251663199  0.8374919689814746  0.5855508006880257
  0.0774351334496259  0.4165160028300150  0.5876992936266632
  0.9038808796898081  0.5822319780835130  0.1720864021167614
  0.8290969315448251  0.8368532362367347  0.0821801551299686
  0.5813583787582601  0.4152046809144423  0.0828590277003656
  0.9045448441293331  0.5842910286306662  0.6739514842113437
  0.8270410961287951  0.8387120590745312  0.5847957101333208
  0.5787461345970542  0.4156278021667390  0.5862964628750760
  0.2178130876143811  0.5812241083917726  0.2667320911853182
  0.0388523989107412  0.5980572991586541  0.1012745925188696
  0.1301107015795466  0.3231011283110305  0.1951897041429049
  0.2074284896772198  0.0822240638603873  0.2704602179752698
  0.3782028840461109  0.5839847122373882  0.4368501514047693
  0.4523930513769159  0.3243032248011062  0.0131038020436804
  0.0413392925427658  0.0852911592867969  0.1026398672925311
  0.1323781704681153  0.8389041280100358  0.1851552071425786
  0.2925404258683528  0.3344441521062436  0.3542057361738102
  0.3756948096339201  0.0810950125407217  0.4365046039344733
  0.4664493553610285  0.8351330678676305  0.0148036098858526
  0.2924113679147951  0.8345382025909345  0.3541302614384207
  0.4668845786754616  0.6786009042960899  0.2786054189907148
  0.2747535804273440  0.6578457999296106  0.0975408868204255
  0.3770012134470804  0.3890041239058561  0.1880959850968438
  0.1296797728131196  0.6661951931138717  0.4339436660995943
  0.2178632328529986  0.4132128011230520  0.0143897397212029
  0.2872867760443825  0.1621400142107703  0.0997514562804227
  0.3828338409302319  0.9286550770689246  0.1964089816086343
  0.0417143942195040  0.4201010106790477  0.3513754052203950
  0.1365071102085764  0.1692712617210361  0.4295396757112826
  0.2005171709310218  0.9265466958154249  0.0128835269723950
  0.0442162214298207  0.9182545566188054  0.3524157189122477
  0.2200103212746924  0.5820816334767969  0.7668983596877723
  0.0398520559976774  0.5995592778364980  0.6019966584623475
  0.1329015321256932  0.3232733783018418  0.6961598506561870
  0.2132464404183239  0.0824551061684460  0.7716769635762120
  0.3803027965435817  0.5830211675273347  0.9367627110213803
  0.4504927696787107  0.3239957411451471  0.5130292145556439
  0.0445260086629631  0.0862117634084782  0.6019339356957687
  0.1331935464694993  0.8395892638794749  0.6856954330266092
  0.2970183268082920  0.3315461030657332  0.8527688863994172
  0.3774929823100237  0.0814586021267019  0.9356707270309812
  0.4672641316163393  0.8363829369569942  0.5137527302156144
  0.2944700116100876  0.8337331200234317  0.8550196717867209
  0.4705616702420770  0.6783829539794866  0.7800679070410439
  0.2770043073287525  0.6615103793258328  0.5979251442244760
  0.3795939005292368  0.3956173274481500  0.6856689923924293
  0.4634832370375790  0.1649151023029916  0.7727583404410225
  0.1317900367478231  0.6659844764749039  0.9341518743110342
  0.2160305671162632  0.4152684474946184  0.5161059527710705
  0.2930018118497557  0.1611133426254483  0.6040646870193029
  0.3849215954582732  0.9245207396442368  0.6965224623733519
  0.0456490956456150  0.4193187347588179  0.8525445146393906
  0.1262437421923295  0.1700829127973122  0.9339417245703103
  0.1984933296396747  0.9253034054511247  0.5129780396418013
  0.0476942260175832  0.9209676174610877  0.8528004653732850
  0.7160472765072754  0.5809497666880716  0.2670726863261947
  0.5379036681834748  0.5959625497614383  0.1023772334128310
  0.6290783801706681  0.3200984024219622  0.1974437179237682
  0.7114868087959039  0.0811676842062568  0.2716141025202887
  0.8785954837465297  0.5834450466939032  0.4365920898212536
  0.9516515627327635  0.3234125830109065  0.0125544522984171
  0.5421960434670225  0.0859492788834970  0.1025572954027822
  0.6305297107614933  0.8388183765413046  0.1853383732051270
  0.7944949273848536  0.3316769129684545  0.3525146537478463
  0.8783075286170074  0.0819264654747229  0.4343903623218495
  0.9685145486349995  0.8354581704707726  0.0130618957658371
  0.7912146143437724  0.8330847760942035  0.3542536069399418
  0.9673350531650655  0.6773926368570287  0.2788328084642089
  0.7750281839129229  0.6611464070213060  0.0973300972494329
  0.8757594015691126  0.3949091895676631  0.1849081385738529
  0.9592646838322878  0.1650180576154199  0.2706324825777315
  0.6292866393976553  0.6649952165101354  0.4351959331606565
  0.7183036228512094  0.4136371508843126  0.0135160687083271
  0.7899562035422960  0.1606215986137371  0.1024244783451849
  0.8832230462571360  0.9238297698037172  0.1950557700822202
  0.5432399721700705  0.4207989027714945  0.3552273141580784
  0.6270700401765836  0.1709791982518709  0.4364630483415652
  0.6996143200652014  0.9273091477398339  0.0124360034581201
  0.5442563327691374  0.9182331666105981  0.3532191814092798
  0.7201049966493613  0.5822689136036416  0.7665219690373561
  0.5399551560049289  0.5983266987848310  0.6020993683953151
  0.6328945260654848  0.3234937946547092  0.6954963088238770
  0.7133265387279124  0.0825456853708459  0.7710613345985209
  0.8804189994080147  0.5831752702573283  0.9365477297681153
  0.9538146544682178  0.3228654703190301  0.5111897047686043
  0.5428821830231954  0.0864585049163225  0.6032203366559230
  0.6333948597695525  0.8401062051257355  0.6848288575225041
  0.7974693187638593  0.3317423661562202  0.8516695754247934
  0.8771506321278935  0.0811918126939162  0.9350085453937353
  0.9662364653514715  0.8359036171370420  0.5139160038982311
  0.7944493271638464  0.8337266742949652  0.8544427564942438
  0.9704872471561359  0.6783406070828306  0.7800274520090653
  0.7763832013731431  0.6621421731583723  0.5970563589625471
  0.8807933776964276  0.3964267726265263  0.6844273989972578
  0.9631887616688104  0.1648717836678699  0.7717926351875448
  0.6312531939143611  0.6663386408881280  0.9345140183833678
  0.7179539145901614  0.4132640125516147  0.5147413354028387
  0.7939502869291957  0.1616388834402400  0.6032458489599009
  0.8853876590181002  0.9247407384212778  0.6958006133728531
  0.5457828749197802  0.4192674584434570  0.8524239549954231
  0.6283423770056800  0.1702415515494806  0.9343303154139591
  0.6989957830847331  0.9294021264778607  0.5107085781212319
  0.5474999992003973  0.9208237511487738  0.8531779870506355
 
  0.00000000E+00  0.00000000E+00  0.00000000E+00
  0.00000000E+00  0.00000000E+00  0.00000000E+00
  0.00000000E+00  0.00000000E+00  0.00000000E+00
  0.00000000E+00  0.00000000E+00  0.00000000E+00
  0.00000000E+00  0.00000000E+00  0.00000000E+00
  0.00000000E+00  0.00000000E+00  0.00000000E+00
  0.00000000E+00  0.00000000E+00  0.00000000E+00
  0.00000000E+00  0.00000000E+00  0.00000000E+00
  0.00000000E+00  0.00000000E+00  0.00000000E+00
  0.00000000E+00  0.00000000E+00  0.00000000E+00
  0.00000000E+00  0.00000000E+00  0.00000000E+00
  0.00000000E+00  0.00000000E+00  0.00000000E+00
  0.00000000E+00  0.00000000E+00  0.00000000E+00
  0.00000000E+00  0.00000000E+00  0.00000000E+00
  0.00000000E+00  0.00000000E+00  0.00000000E+00
  0.00000000E+00  0.00000000E+00  0.00000000E+00
  0.00000000E+00  0.00000000E+00  0.00000000E+00
  0.00000000E+00  0.00000000E+00  0.00000000E+00
  0.00000000E+00  0.00000000E+00  0.00000000E+00
  0.00000000E+00  0.00000000E+00  0.00000000E+00
  0.00000000E+00  0.00000000E+00  0.00000000E+00
  0.00000000E+00  0.00000000E+00  0.00000000E+00
  0.00000000E+00  0.00000000E+00  0.00000000E+00
  0.00000000E+00  0.00000000E+00  0.00000000E+00
  0.00000000E+00  0.00000000E+00  0.00000000E+00
  0.00000000E+00  0.00000000E+00  0.00000000E+00
  0.00000000E+00  0.00000000E+00  0.00000000E+00
  0.00000000E+00  0.00000000E+00  0.00000000E+00
  0.00000000E+00  0.00000000E+00  0.00000000E+00
  0.00000000E+00  0.00000000E+00  0.00000000E+00
  0.00000000E+00  0.00000000E+00  0.00000000E+00
  0.00000000E+00  0.00000000E+00  0.00000000E+00
  0.00000000E+00  0.00000000E+00  0.00000000E+00
  0.00000000E+00  0.00000000E+00  0.00000000E+00
  0.00000000E+00  0.00000000E+00  0.00000000E+00
  0.00000000E+00  0.00000000E+00  0.00000000E+00
  0.00000000E+00  0.00000000E+00  0.00000000E+00
  0.00000000E+00  0.00000000E+00  0.00000000E+00
  0.00000000E+00  0.00000000E+00  0.00000000E+00
  0.00000000E+00  0.00000000E+00  0.00000000E+00
  0.00000000E+00  0.00000000E+00  0.00000000E+00
  0.00000000E+00  0.00000000E+00  0.00000000E+00
  0.00000000E+00  0.00000000E+00  0.00000000E+00
  0.00000000E+00  0.00000000E+00  0.00000000E+00
  0.00000000E+00  0.00000000E+00  0.00000000E+00
  0.00000000E+00  0.00000000E+00  0.00000000E+00
  0.00000000E+00  0.00000000E+00  0.00000000E+00
  0.00000000E+00  0.00000000E+00  0.00000000E+00
  0.00000000E+00  0.00000000E+00  0.00000000E+00
  0.00000000E+00  0.00000000E+00  0.00000000E+00
  0.00000000E+00  0.00000000E+00  0.00000000E+00
  0.00000000E+00  0.00000000E+00  0.00000000E+00
  0.00000000E+00  0.00000000E+00  0.00000000E+00
  0.00000000E+00  0.00000000E+00  0.00000000E+00
  0.00000000E+00  0.00000000E+00  0.00000000E+00
  0.00000000E+00  0.00000000E+00  0.00000000E+00
  0.00000000E+00  0.00000000E+00  0.00000000E+00
  0.00000000E+00  0.00000000E+00  0.00000000E+00
  0.00000000E+00  0.00000000E+00  0.00000000E+00
  0.00000000E+00  0.00000000E+00  0.00000000E+00
  0.00000000E+00  0.00000000E+00  0.00000000E+00
  0.00000000E+00  0.00000000E+00  0.00000000E+00
  0.00000000E+00  0.00000000E+00  0.00000000E+00
  0.00000000E+00  0.00000000E+00  0.00000000E+00
  0.00000000E+00  0.00000000E+00  0.00000000E+00
  0.00000000E+00  0.00000000E+00  0.00000000E+00
  0.00000000E+00  0.00000000E+00  0.00000000E+00
  0.00000000E+00  0.00000000E+00  0.00000000E+00
  0.00000000E+00  0.00000000E+00  0.00000000E+00
  0.00000000E+00  0.00000000E+00  0.00000000E+00
  0.00000000E+00  0.00000000E+00  0.00000000E+00
  0.00000000E+00  0.00000000E+00  0.00000000E+00
  0.00000000E+00  0.00000000E+00  0.00000000E+00
  0.00000000E+00  0.00000000E+00  0.00000000E+00
  0.00000000E+00  0.00000000E+00  0.00000000E+00
  0.00000000E+00  0.00000000E+00  0.00000000E+00
  0.00000000E+00  0.00000000E+00  0.00000000E+00
  0.00000000E+00  0.00000000E+00  0.00000000E+00
  0.00000000E+00  0.00000000E+00  0.00000000E+00
  0.00000000E+00  0.00000000E+00  0.00000000E+00
  0.00000000E+00  0.00000000E+00  0.00000000E+00
  0.00000000E+00  0.00000000E+00  0.00000000E+00
  0.00000000E+00  0.00000000E+00  0.00000000E+00
  0.00000000E+00  0.00000000E+00  0.00000000E+00
  0.00000000E+00  0.00000000E+00  0.00000000E+00
  0.00000000E+00  0.00000000E+00  0.00000000E+00
  0.00000000E+00  0.00000000E+00  0.00000000E+00
  0.00000000E+00  0.00000000E+00  0.00000000E+00
  0.00000000E+00  0.00000000E+00  0.00000000E+00
  0.00000000E+00  0.00000000E+00  0.00000000E+00
  0.00000000E+00  0.00000000E+00  0.00000000E+00
  0.00000000E+00  0.00000000E+00  0.00000000E+00
  0.00000000E+00  0.00000000E+00  0.00000000E+00
  0.00000000E+00  0.00000000E+00  0.00000000E+00
  0.00000000E+00  0.00000000E+00  0.00000000E+00
  0.00000000E+00  0.00000000E+00  0.00000000E+00
  0.00000000E+00  0.00000000E+00  0.00000000E+00
  0.00000000E+00  0.00000000E+00  0.00000000E+00
  0.00000000E+00  0.00000000E+00  0.00000000E+00
  0.00000000E+00  0.00000000E+00  0.00000000E+00
  0.00000000E+00  0.00000000E+00  0.00000000E+00
  0.00000000E+00  0.00000000E+00  0.00000000E+00
  0.00000000E+00  0.00000000E+00  0.00000000E+00
  0.00000000E+00  0.00000000E+00  0.00000000E+00
  0.00000000E+00  0.00000000E+00  0.00000000E+00
  0.00000000E+00  0.00000000E+00  0.00000000E+00
  0.00000000E+00  0.00000000E+00  0.00000000E+00
  0.00000000E+00  0.00000000E+00  0.00000000E+00
  0.00000000E+00  0.00000000E+00  0.00000000E+00
  0.00000000E+00  0.00000000E+00  0.00000000E+00
  0.00000000E+00  0.00000000E+00  0.00000000E+00
  0.00000000E+00  0.00000000E+00  0.00000000E+00
  0.00000000E+00  0.00000000E+00  0.00000000E+00
  0.00000000E+00  0.00000000E+00  0.00000000E+00
  0.00000000E+00  0.00000000E+00  0.00000000E+00
  0.00000000E+00  0.00000000E+00  0.00000000E+00
  0.00000000E+00  0.00000000E+00  0.00000000E+00
  0.00000000E+00  0.00000000E+00  0.00000000E+00
  0.00000000E+00  0.00000000E+00  0.00000000E+00
  0.00000000E+00  0.00000000E+00  0.00000000E+00
  0.00000000E+00  0.00000000E+00  0.00000000E+00
  0.00000000E+00  0.00000000E+00  0.00000000E+00
  0.00000000E+00  0.00000000E+00  0.00000000E+00
  0.00000000E+00  0.00000000E+00  0.00000000E+00
  0.00000000E+00  0.00000000E+00  0.00000000E+00
  0.00000000E+00  0.00000000E+00  0.00000000E+00
  0.00000000E+00  0.00000000E+00  0.00000000E+00
  0.00000000E+00  0.00000000E+00  0.00000000E+00
  0.00000000E+00  0.00000000E+00  0.00000000E+00
  0.00000000E+00  0.00000000E+00  0.00000000E+00
  0.00000000E+00  0.00000000E+00  0.00000000E+00
  0.00000000E+00  0.00000000E+00  0.00000000E+00
  0.00000000E+00  0.00000000E+00  0.00000000E+00
  0.00000000E+00  0.00000000E+00  0.00000000E+00
  0.00000000E+00  0.00000000E+00  0.00000000E+00
  0.00000000E+00  0.00000000E+00  0.00000000E+00
  0.00000000E+00  0.00000000E+00  0.00000000E+00
  0.00000000E+00  0.00000000E+00  0.00000000E+00
  0.00000000E+00  0.00000000E+00  0.00000000E+00
  0.00000000E+00  0.00000000E+00  0.00000000E+00
  0.00000000E+00  0.00000000E+00  0.00000000E+00
  0.00000000E+00  0.00000000E+00  0.00000000E+00
  0.00000000E+00  0.00000000E+00  0.00000000E+00
  0.00000000E+00  0.00000000E+00  0.00000000E+00
  0.00000000E+00  0.00000000E+00  0.00000000E+00
  0.00000000E+00  0.00000000E+00  0.00000000E+00
  0.00000000E+00  0.00000000E+00  0.00000000E+00
  0.00000000E+00  0.00000000E+00  0.00000000E+00
  0.00000000E+00  0.00000000E+00  0.00000000E+00
  0.00000000E+00  0.00000000E+00  0.00000000E+00
  0.00000000E+00  0.00000000E+00  0.00000000E+00
  0.00000000E+00  0.00000000E+00  0.00000000E+00
  0.00000000E+00  0.00000000E+00  0.00000000E+00
  0.00000000E+00  0.00000000E+00  0.00000000E+00
  0.00000000E+00  0.00000000E+00  0.00000000E+00
  0.00000000E+00  0.00000000E+00  0.00000000E+00
  0.00000000E+00  0.00000000E+00  0.00000000E+00
  0.00000000E+00  0.00000000E+00  0.00000000E+00
  0.00000000E+00  0.00000000E+00  0.00000000E+00
  0.00000000E+00  0.00000000E+00  0.00000000E+00
  0.00000000E+00  0.00000000E+00  0.00000000E+00
  0.00000000E+00  0.00000000E+00  0.00000000E+00
  0.00000000E+00  0.00000000E+00  0.00000000E+00
  0.00000000E+00  0.00000000E+00  0.00000000E+00
  0.00000000E+00  0.00000000E+00  0.00000000E+00
  0.00000000E+00  0.00000000E+00  0.00000000E+00
  0.00000000E+00  0.00000000E+00  0.00000000E+00
  0.00000000E+00  0.00000000E+00  0.00000000E+00
  0.00000000E+00  0.00000000E+00  0.00000000E+00
  0.00000000E+00  0.00000000E+00  0.00000000E+00
  0.00000000E+00  0.00000000E+00  0.00000000E+00
  0.00000000E+00  0.00000000E+00  0.00000000E+00
  0.00000000E+00  0.00000000E+00  0.00000000E+00
  0.00000000E+00  0.00000000E+00  0.00000000E+00
  0.00000000E+00  0.00000000E+00  0.00000000E+00
  0.00000000E+00  0.00000000E+00  0.00000000E+00
  0.00000000E+00  0.00000000E+00  0.00000000E+00
  0.00000000E+00  0.00000000E+00  0.00000000E+00
  0.00000000E+00  0.00000000E+00  0.00000000E+00
  0.00000000E+00  0.00000000E+00  0.00000000E+00
  0.00000000E+00  0.00000000E+00  0.00000000E+00
  0.00000000E+00  0.00000000E+00  0.00000000E+00
  0.00000000E+00  0.00000000E+00  0.00000000E+00
  0.00000000E+00  0.00000000E+00  0.00000000E+00
  0.00000000E+00  0.00000000E+00  0.00000000E+00
  0.00000000E+00  0.00000000E+00  0.00000000E+00
  0.00000000E+00  0.00000000E+00  0.00000000E+00
  0.00000000E+00  0.00000000E+00  0.00000000E+00
  0.00000000E+00  0.00000000E+00  0.00000000E+00
  0.00000000E+00  0.00000000E+00  0.00000000E+00
  0.00000000E+00  0.00000000E+00  0.00000000E+00
