supercell of POSCAR                     
   1.01189200000000     
     3.1482772356600002   -5.4762754812200001    9.9674464565599994
    -9.4511209497999999   -5.4731922780100000    0.0032121685426600
     6.3112884282600001  -10.9581161277000003   -9.9749049577999997
   Al   Sc   N 
    83    12    96
Direct
  0.0876867108192698  0.5821934643975339  0.3340617102405119
  0.0020740524172709  0.3280861507739274  0.2544012320932367
  0.0835087300327402  0.0802285690165263  0.3332819486115000
  0.2493342751805017  0.5802402623569165  0.4971441836704287
  0.3312034189486468  0.3243913787167614  0.0805993234434936
  0.4190395927818642  0.0870651324372886  0.1703255393216878
  0.1687001041746825  0.3312826858255136  0.4150321988156733
  0.2467510081082125  0.0840508370467390  0.4969022420497922
  0.1609311759215117  0.8360240270052230  0.4134494447748764
  0.3355114470201741  0.6707694324977851  0.3374172177127903
  0.1621644343752209  0.6736526416926125  0.1663450509925539
  0.2528081786171015  0.4090747025343191  0.2515596695187199
  0.3336029563273541  0.1651536392159869  0.3337910921527083
  0.0023771754012358  0.6695252210645037  0.4960785272482937
  0.1675163464183811  0.1614680305325606  0.1687966767651332
  0.2506298395102746  0.9187656078619213  0.2533520591258238
  0.4147476113310518  0.4158794133827968  0.4157308492904050
  0.4979626940939141  0.1628450748711074  0.4978497542031519
  0.0827331914844223  0.9216951538459952  0.0817048323964329
  0.4173909815030754  0.9172748516458427  0.4140725906071268
  0.0876031739075529  0.5844631762014814  0.8337162713398740
  0.0002836379594555  0.3266115538351286  0.7533379606037158
  0.0838401358513181  0.0840426393062472  0.8340925098705512
  0.2498576407790978  0.5793011920143911  0.9968447376871410
  0.3304132996865334  0.3234244395434231  0.5804836052471387
  0.4163543919536394  0.0859654522075317  0.6693545391062372
  0.0044122389130976  0.8396712074623167  0.7521527183255046
  0.1662540412110260  0.3332059249234902  0.9140141742745698
  0.2477151146561383  0.0871218552414206  0.9968219751813265
  0.1629708576542086  0.8358092143590525  0.9153102528672505
  0.3353999089040656  0.6702421264974561  0.8373642943513246
  0.1599200393496503  0.6702290092722620  0.6661382169555168
  0.2509712848621746  0.4080107134075206  0.7507790623758694
  0.3333584239791634  0.1652876228144109  0.8339417560162445
  0.0033578033951400  0.6714893464974523  0.9972662405193446
  0.1663411926853584  0.1605167983867943  0.6678903984269056
  0.2516368735195016  0.9184626182171911  0.7536318610691453
  0.4140163654693083  0.4158488058036127  0.9156703115042149
  0.4989044943252878  0.1634004366809165  0.9985854181605802
  0.0811867567799851  0.9195421640087460  0.5798524194182235
  0.4157079875089806  0.9172565513183955  0.9171066649670934
  0.5882620741502507  0.5850078652368111  0.3343701585494827
  0.5029237176724379  0.3270506725504134  0.2543424142175326
  0.5847857914734504  0.0839908530364610  0.3346180734145250
  0.7491932668895132  0.5802871463951007  0.4974681213979721
  0.8315784479415385  0.3276362956058563  0.0802906833003263
  0.9169313314412548  0.0859188984698704  0.1688707418673161
  0.5065373065757015  0.8405345056597824  0.2542079302889917
  0.6678864180190018  0.3331307771028165  0.4140862477965257
  0.7477260384175040  0.0855789859051939  0.4966555436309790
  0.6654125932342438  0.8349899663825013  0.4154853109684424
  0.8391530896611386  0.6688072112847223  0.3358637062616694
  0.6609082756125630  0.6711406608011572  0.1671758314578113
  0.7540333151806990  0.4113244453963887  0.2509550085304255
  0.8344231988531021  0.1648563503136629  0.3331743199986974
  0.5023409104840013  0.6701638503378149  0.4973817746642126
  0.6697586917319356  0.1616079942125168  0.1690252807601240
  0.7556070706236966  0.9187101801736475  0.2519355712171247
  0.9158921576150050  0.4161843983073368  0.4149372863368157
  0.9983869817249129  0.1612039823186819  0.4959842868203737
  0.5795926711970552  0.9199088285633366  0.0832763125952170
  0.9219119694626770  0.9162351344212638  0.4093909882134668
  0.5869459368234473  0.5848057340451120  0.8351423667821152
  0.5008381394077333  0.3263593585990492  0.7540224758809444
  0.5834918046094373  0.0836138221333940  0.8351503927662307
  0.7485216816797546  0.5828971736883943  0.9980944158320568
  0.8303315073372772  0.3234887746618185  0.5798956375878390
  0.9165894731522854  0.0857435066441923  0.6687249745731734
  0.5041152983871768  0.8400933471993852  0.7541045158116262
  0.6670208546738650  0.3335759729937209  0.9146485138201399
  0.7471307577979474  0.0863680486168903  0.9990366475168599
  0.6624994719482729  0.8358925995220048  0.9173629748077872
  0.8353847830268393  0.6708462966634912  0.8374620219964655
  0.6595315810567612  0.6713098216473270  0.6670580586729074
  0.7510546123748227  0.4088705237258452  0.7511125401587293
  0.8329419039429951  0.1653530927789788  0.8343001622307966
  0.4995437304687513  0.6719442014984551  0.9994397706900031
  0.6665222068528109  0.1610635539799787  0.6686913986146479
  0.7514836952517641  0.9186318579767345  0.7538708050292087
  0.9137154143492410  0.4171758391021569  0.9155585302506921
  0.9981385669665244  0.1641101525390098  0.9982599109306776
  0.5807381455320666  0.9207549342672721  0.5815459863677077
  0.9177002871128224  0.9182065383288034  0.9144231548171149
  0.4063747591484699  0.5820039395756638  0.1747490451202154
  0.3159336709255811  0.8392318399879954  0.0911859617071755
  0.0790986903808530  0.4161426408625104  0.0857918314377955
  0.4043786653504355  0.5817341319150557  0.6740058612284088
  0.3285196515024893  0.8363498211464631  0.5845364457509845
  0.0780081608594259  0.4143015971128534  0.5840958582849751
  0.9084531441822108  0.5870783729594891  0.1735008196922507
  0.8295904131003695  0.8395879257599148  0.0852714797422394
  0.5797301135626043  0.4150646921807990  0.0858190081486185
  0.9044625378248696  0.5825308570163727  0.6728852346949878
  0.8281905920743924  0.8378924247298301  0.5826484346333700
  0.5779318992629570  0.4151041620386380  0.5852400723404898
  0.2204870130892189  0.5812804172730495  0.2673329478078585
  0.0437882309871114  0.5988314115852944  0.0999037909981411
  0.1326675867420661  0.3240711684739139  0.1955930165516904
  0.2128814056834187  0.0841611284057180  0.2711674276306653
  0.3799925537664350  0.5827058153007769  0.4377381068833728
  0.4514323411700971  0.3242091311597335  0.0125887936653015
  0.0431194093065912  0.0879957837144829  0.1024069653508022
  0.1621621099420452  0.8408616066785797  0.1697028033495585
  0.2968843670704402  0.3316306754537806  0.3530124918828150
  0.3767159452238360  0.0809719846339689  0.4358276856988113
  0.4629423675970088  0.8361111605669365  0.0165350309543300
  0.2941554138933284  0.8335192966738063  0.3551900519433033
  0.4686441130650181  0.6786279617829791  0.2815752880513216
  0.2808445234439390  0.6539297712993957  0.0966934248694997
  0.3792971809142998  0.3944332071266601  0.1855838723325149
  0.4626441017605529  0.1661106253167688  0.2734890560640153
  0.1320254691244074  0.6647906013989839  0.4351580061741416
  0.2168428040348473  0.4123014180277451  0.0133612378729424
  0.2927169232525486  0.1607401935315238  0.1021435628651588
  0.3886531609831181  0.9282336850888200  0.1992233312300726
  0.0477377381953872  0.4145558692324443  0.3550048878361096
  0.1283355071694174  0.1703199069421046  0.4360093932483977
  0.1989307135124889  0.9304807688079322  0.0079273794188879
  0.0508307832078714  0.9271378116350917  0.3599505996669095
  0.2179321159199290  0.5813077058662799  0.7667269802233960
  0.0398307437492775  0.5971500437639818  0.6019598513911362
  0.1303623253581989  0.3225373239700389  0.6950408323537118
  0.2113848167885948  0.0824757480706282  0.7710692084380852
  0.3795337525950160  0.5824992795467665  0.9358109270974708
  0.4507676759899724  0.3232324323022482  0.5134609790815148
  0.0414618478872839  0.0843113231800601  0.6030809116886076
  0.1311288519390601  0.8383159544147958  0.6855512789968259
  0.2950958764941376  0.3315485639186520  0.8519517631401001
  0.3771849972483423  0.0827927069436427  0.9349880633673351
  0.4673903603464282  0.8352957472259632  0.5145005748632414
  0.2929949358689683  0.8333917228878462  0.8538527853287974
  0.4681341610434799  0.6778007885077670  0.7798725896616006
  0.2766664477944047  0.6595324858847817  0.5984412862790052
  0.3775815152016122  0.3946632369697483  0.6856382056255370
  0.4614044507753547  0.1643610993982136  0.7722626028926811
  0.1314599293465903  0.6660531443931745  0.9331657577624028
  0.2178539573390452  0.4134448793502372  0.5153525387436986
  0.2914660227084269  0.1600978394276922  0.6027016069837927
  0.3828724620017212  0.9243092172807224  0.6965492708427306
  0.0435082819863979  0.4193349263847779  0.8514426648677116
  0.1259900389001771  0.1707084585352163  0.9338474436867585
  0.2021158493816984  0.9251431803198216  0.5149065813289795
  0.0451924022155978  0.9207699265701166  0.8512407279496159
  0.7144401460754608  0.5815468199443927  0.2677412961535595
  0.5406042638164053  0.5967025712056682  0.1019328075172652
  0.6327467352382570  0.3240046183292407  0.1961952650537526
  0.7106357898242806  0.0836934311458322  0.2725854764815097
  0.8785739258486345  0.5815596866771315  0.4393081877394920
  0.9516260605169649  0.3254578314245222  0.0118453326382948
  0.5433197206239626  0.0872668682673279  0.1036014382589130
  0.6296924025153245  0.8376633431333644  0.1867732026150435
  0.7961208114504501  0.3323327220422030  0.3525120885908350
  0.8749911723590245  0.0809314684048488  0.4352455114218614
  0.9694611000232030  0.8364759680756038  0.0121681550365338
  0.7930537323256885  0.8322987581350318  0.3545669590485829
  0.9649720751771440  0.6543067673969176  0.2826722160863611
  0.7750987052363669  0.6615637928858220  0.0977498427088790
  0.8796953076466210  0.3974078633432754  0.1847600986923297
  0.9622750187426163  0.1665676191718788  0.2719483108196528
  0.6303818707925259  0.6660525772449049  0.4355828849817556
  0.7168031736045251  0.4156399542404401  0.0132214087562659
  0.7914093947300529  0.1668629802373900  0.1007931601040184
  0.8692306964371568  0.9346873650423717  0.1869558352788587
  0.5444321153254137  0.4191395482660880  0.3534305917355098
  0.6262399547896251  0.1703121587528784  0.4359666594944045
  0.6968975637007944  0.9282047313749970  0.0125296017363681
  0.5470556221802312  0.9209242190930453  0.3547853897903437
  0.7172605050817893  0.5820343630681819  0.7675387851831701
  0.5393886588221477  0.5980710829351992  0.6024972643319799
  0.6306398146130832  0.3229338604533183  0.6956160521860895
  0.7109140065106274  0.0823705859657764  0.7716114578274471
  0.8791487243549980  0.5841943320588641  0.9365328462813807
  0.9503164862240538  0.3221365731082741  0.5129991452103653
  0.5413739416943031  0.0853566631408782  0.6038313714338202
  0.6302494481387626  0.8392833636689900  0.6864017536176874
  0.7952217643127710  0.3319111658456464  0.8520996584420786
  0.8762201253388682  0.0817866774865905  0.9353008404945129
  0.9667536464164428  0.8339176310720546  0.5142147340556207
  0.7923416960335103  0.8340294377795487  0.8546399380661924
  0.9679236033657901  0.6777973393925265  0.7794810873674365
  0.7753858972787100  0.6614319837753015  0.5984774057277349
  0.8768400168474102  0.3955006830202095  0.6852020148522655
  0.9607989526151925  0.1644463006184793  0.7718869470340834
  0.6287829469028878  0.6672351307974154  0.9346889923046717
  0.7158723420022355  0.4132054819012936  0.5151004762002032
  0.7908558624725970  0.1601872262212964  0.6027932840441537
  0.8819464304278881  0.9238855972191615  0.6956941251943860
  0.5438453517681978  0.4188426011127149  0.8520685098561600
  0.6266136606137778  0.1704711757400332  0.9346648010634482
  0.6983830173505012  0.9273430568369037  0.5133591391486831
  0.5445680854557651  0.9205722105929510  0.8537815627993552
 
  0.00000000E+00  0.00000000E+00  0.00000000E+00
  0.00000000E+00  0.00000000E+00  0.00000000E+00
  0.00000000E+00  0.00000000E+00  0.00000000E+00
  0.00000000E+00  0.00000000E+00  0.00000000E+00
  0.00000000E+00  0.00000000E+00  0.00000000E+00
  0.00000000E+00  0.00000000E+00  0.00000000E+00
  0.00000000E+00  0.00000000E+00  0.00000000E+00
  0.00000000E+00  0.00000000E+00  0.00000000E+00
  0.00000000E+00  0.00000000E+00  0.00000000E+00
  0.00000000E+00  0.00000000E+00  0.00000000E+00
  0.00000000E+00  0.00000000E+00  0.00000000E+00
  0.00000000E+00  0.00000000E+00  0.00000000E+00
  0.00000000E+00  0.00000000E+00  0.00000000E+00
  0.00000000E+00  0.00000000E+00  0.00000000E+00
  0.00000000E+00  0.00000000E+00  0.00000000E+00
  0.00000000E+00  0.00000000E+00  0.00000000E+00
  0.00000000E+00  0.00000000E+00  0.00000000E+00
  0.00000000E+00  0.00000000E+00  0.00000000E+00
  0.00000000E+00  0.00000000E+00  0.00000000E+00
  0.00000000E+00  0.00000000E+00  0.00000000E+00
  0.00000000E+00  0.00000000E+00  0.00000000E+00
  0.00000000E+00  0.00000000E+00  0.00000000E+00
  0.00000000E+00  0.00000000E+00  0.00000000E+00
  0.00000000E+00  0.00000000E+00  0.00000000E+00
  0.00000000E+00  0.00000000E+00  0.00000000E+00
  0.00000000E+00  0.00000000E+00  0.00000000E+00
  0.00000000E+00  0.00000000E+00  0.00000000E+00
  0.00000000E+00  0.00000000E+00  0.00000000E+00
  0.00000000E+00  0.00000000E+00  0.00000000E+00
  0.00000000E+00  0.00000000E+00  0.00000000E+00
  0.00000000E+00  0.00000000E+00  0.00000000E+00
  0.00000000E+00  0.00000000E+00  0.00000000E+00
  0.00000000E+00  0.00000000E+00  0.00000000E+00
  0.00000000E+00  0.00000000E+00  0.00000000E+00
  0.00000000E+00  0.00000000E+00  0.00000000E+00
  0.00000000E+00  0.00000000E+00  0.00000000E+00
  0.00000000E+00  0.00000000E+00  0.00000000E+00
  0.00000000E+00  0.00000000E+00  0.00000000E+00
  0.00000000E+00  0.00000000E+00  0.00000000E+00
  0.00000000E+00  0.00000000E+00  0.00000000E+00
  0.00000000E+00  0.00000000E+00  0.00000000E+00
  0.00000000E+00  0.00000000E+00  0.00000000E+00
  0.00000000E+00  0.00000000E+00  0.00000000E+00
  0.00000000E+00  0.00000000E+00  0.00000000E+00
  0.00000000E+00  0.00000000E+00  0.00000000E+00
  0.00000000E+00  0.00000000E+00  0.00000000E+00
  0.00000000E+00  0.00000000E+00  0.00000000E+00
  0.00000000E+00  0.00000000E+00  0.00000000E+00
  0.00000000E+00  0.00000000E+00  0.00000000E+00
  0.00000000E+00  0.00000000E+00  0.00000000E+00
  0.00000000E+00  0.00000000E+00  0.00000000E+00
  0.00000000E+00  0.00000000E+00  0.00000000E+00
  0.00000000E+00  0.00000000E+00  0.00000000E+00
  0.00000000E+00  0.00000000E+00  0.00000000E+00
  0.00000000E+00  0.00000000E+00  0.00000000E+00
  0.00000000E+00  0.00000000E+00  0.00000000E+00
  0.00000000E+00  0.00000000E+00  0.00000000E+00
  0.00000000E+00  0.00000000E+00  0.00000000E+00
  0.00000000E+00  0.00000000E+00  0.00000000E+00
  0.00000000E+00  0.00000000E+00  0.00000000E+00
  0.00000000E+00  0.00000000E+00  0.00000000E+00
  0.00000000E+00  0.00000000E+00  0.00000000E+00
  0.00000000E+00  0.00000000E+00  0.00000000E+00
  0.00000000E+00  0.00000000E+00  0.00000000E+00
  0.00000000E+00  0.00000000E+00  0.00000000E+00
  0.00000000E+00  0.00000000E+00  0.00000000E+00
  0.00000000E+00  0.00000000E+00  0.00000000E+00
  0.00000000E+00  0.00000000E+00  0.00000000E+00
  0.00000000E+00  0.00000000E+00  0.00000000E+00
  0.00000000E+00  0.00000000E+00  0.00000000E+00
  0.00000000E+00  0.00000000E+00  0.00000000E+00
  0.00000000E+00  0.00000000E+00  0.00000000E+00
  0.00000000E+00  0.00000000E+00  0.00000000E+00
  0.00000000E+00  0.00000000E+00  0.00000000E+00
  0.00000000E+00  0.00000000E+00  0.00000000E+00
  0.00000000E+00  0.00000000E+00  0.00000000E+00
  0.00000000E+00  0.00000000E+00  0.00000000E+00
  0.00000000E+00  0.00000000E+00  0.00000000E+00
  0.00000000E+00  0.00000000E+00  0.00000000E+00
  0.00000000E+00  0.00000000E+00  0.00000000E+00
  0.00000000E+00  0.00000000E+00  0.00000000E+00
  0.00000000E+00  0.00000000E+00  0.00000000E+00
  0.00000000E+00  0.00000000E+00  0.00000000E+00
  0.00000000E+00  0.00000000E+00  0.00000000E+00
  0.00000000E+00  0.00000000E+00  0.00000000E+00
  0.00000000E+00  0.00000000E+00  0.00000000E+00
  0.00000000E+00  0.00000000E+00  0.00000000E+00
  0.00000000E+00  0.00000000E+00  0.00000000E+00
  0.00000000E+00  0.00000000E+00  0.00000000E+00
  0.00000000E+00  0.00000000E+00  0.00000000E+00
  0.00000000E+00  0.00000000E+00  0.00000000E+00
  0.00000000E+00  0.00000000E+00  0.00000000E+00
  0.00000000E+00  0.00000000E+00  0.00000000E+00
  0.00000000E+00  0.00000000E+00  0.00000000E+00
  0.00000000E+00  0.00000000E+00  0.00000000E+00
  0.00000000E+00  0.00000000E+00  0.00000000E+00
  0.00000000E+00  0.00000000E+00  0.00000000E+00
  0.00000000E+00  0.00000000E+00  0.00000000E+00
  0.00000000E+00  0.00000000E+00  0.00000000E+00
  0.00000000E+00  0.00000000E+00  0.00000000E+00
  0.00000000E+00  0.00000000E+00  0.00000000E+00
  0.00000000E+00  0.00000000E+00  0.00000000E+00
  0.00000000E+00  0.00000000E+00  0.00000000E+00
  0.00000000E+00  0.00000000E+00  0.00000000E+00
  0.00000000E+00  0.00000000E+00  0.00000000E+00
  0.00000000E+00  0.00000000E+00  0.00000000E+00
  0.00000000E+00  0.00000000E+00  0.00000000E+00
  0.00000000E+00  0.00000000E+00  0.00000000E+00
  0.00000000E+00  0.00000000E+00  0.00000000E+00
  0.00000000E+00  0.00000000E+00  0.00000000E+00
  0.00000000E+00  0.00000000E+00  0.00000000E+00
  0.00000000E+00  0.00000000E+00  0.00000000E+00
  0.00000000E+00  0.00000000E+00  0.00000000E+00
  0.00000000E+00  0.00000000E+00  0.00000000E+00
  0.00000000E+00  0.00000000E+00  0.00000000E+00
  0.00000000E+00  0.00000000E+00  0.00000000E+00
  0.00000000E+00  0.00000000E+00  0.00000000E+00
  0.00000000E+00  0.00000000E+00  0.00000000E+00
  0.00000000E+00  0.00000000E+00  0.00000000E+00
  0.00000000E+00  0.00000000E+00  0.00000000E+00
  0.00000000E+00  0.00000000E+00  0.00000000E+00
  0.00000000E+00  0.00000000E+00  0.00000000E+00
  0.00000000E+00  0.00000000E+00  0.00000000E+00
  0.00000000E+00  0.00000000E+00  0.00000000E+00
  0.00000000E+00  0.00000000E+00  0.00000000E+00
  0.00000000E+00  0.00000000E+00  0.00000000E+00
  0.00000000E+00  0.00000000E+00  0.00000000E+00
  0.00000000E+00  0.00000000E+00  0.00000000E+00
  0.00000000E+00  0.00000000E+00  0.00000000E+00
  0.00000000E+00  0.00000000E+00  0.00000000E+00
  0.00000000E+00  0.00000000E+00  0.00000000E+00
  0.00000000E+00  0.00000000E+00  0.00000000E+00
  0.00000000E+00  0.00000000E+00  0.00000000E+00
  0.00000000E+00  0.00000000E+00  0.00000000E+00
  0.00000000E+00  0.00000000E+00  0.00000000E+00
  0.00000000E+00  0.00000000E+00  0.00000000E+00
  0.00000000E+00  0.00000000E+00  0.00000000E+00
  0.00000000E+00  0.00000000E+00  0.00000000E+00
  0.00000000E+00  0.00000000E+00  0.00000000E+00
  0.00000000E+00  0.00000000E+00  0.00000000E+00
  0.00000000E+00  0.00000000E+00  0.00000000E+00
  0.00000000E+00  0.00000000E+00  0.00000000E+00
  0.00000000E+00  0.00000000E+00  0.00000000E+00
  0.00000000E+00  0.00000000E+00  0.00000000E+00
  0.00000000E+00  0.00000000E+00  0.00000000E+00
  0.00000000E+00  0.00000000E+00  0.00000000E+00
  0.00000000E+00  0.00000000E+00  0.00000000E+00
  0.00000000E+00  0.00000000E+00  0.00000000E+00
  0.00000000E+00  0.00000000E+00  0.00000000E+00
  0.00000000E+00  0.00000000E+00  0.00000000E+00
  0.00000000E+00  0.00000000E+00  0.00000000E+00
  0.00000000E+00  0.00000000E+00  0.00000000E+00
  0.00000000E+00  0.00000000E+00  0.00000000E+00
  0.00000000E+00  0.00000000E+00  0.00000000E+00
  0.00000000E+00  0.00000000E+00  0.00000000E+00
  0.00000000E+00  0.00000000E+00  0.00000000E+00
  0.00000000E+00  0.00000000E+00  0.00000000E+00
  0.00000000E+00  0.00000000E+00  0.00000000E+00
  0.00000000E+00  0.00000000E+00  0.00000000E+00
  0.00000000E+00  0.00000000E+00  0.00000000E+00
  0.00000000E+00  0.00000000E+00  0.00000000E+00
  0.00000000E+00  0.00000000E+00  0.00000000E+00
  0.00000000E+00  0.00000000E+00  0.00000000E+00
  0.00000000E+00  0.00000000E+00  0.00000000E+00
  0.00000000E+00  0.00000000E+00  0.00000000E+00
  0.00000000E+00  0.00000000E+00  0.00000000E+00
  0.00000000E+00  0.00000000E+00  0.00000000E+00
  0.00000000E+00  0.00000000E+00  0.00000000E+00
  0.00000000E+00  0.00000000E+00  0.00000000E+00
  0.00000000E+00  0.00000000E+00  0.00000000E+00
  0.00000000E+00  0.00000000E+00  0.00000000E+00
  0.00000000E+00  0.00000000E+00  0.00000000E+00
  0.00000000E+00  0.00000000E+00  0.00000000E+00
  0.00000000E+00  0.00000000E+00  0.00000000E+00
  0.00000000E+00  0.00000000E+00  0.00000000E+00
  0.00000000E+00  0.00000000E+00  0.00000000E+00
  0.00000000E+00  0.00000000E+00  0.00000000E+00
  0.00000000E+00  0.00000000E+00  0.00000000E+00
  0.00000000E+00  0.00000000E+00  0.00000000E+00
  0.00000000E+00  0.00000000E+00  0.00000000E+00
  0.00000000E+00  0.00000000E+00  0.00000000E+00
  0.00000000E+00  0.00000000E+00  0.00000000E+00
  0.00000000E+00  0.00000000E+00  0.00000000E+00
  0.00000000E+00  0.00000000E+00  0.00000000E+00
  0.00000000E+00  0.00000000E+00  0.00000000E+00
  0.00000000E+00  0.00000000E+00  0.00000000E+00
  0.00000000E+00  0.00000000E+00  0.00000000E+00
  0.00000000E+00  0.00000000E+00  0.00000000E+00
  0.00000000E+00  0.00000000E+00  0.00000000E+00
  0.00000000E+00  0.00000000E+00  0.00000000E+00
  0.00000000E+00  0.00000000E+00  0.00000000E+00
