supercell of POSCAR                     
   1.01189200000000     
     3.1482772356600002   -5.4762754812200001    9.9674464565599994
    -9.4511209497999999   -5.4731922780100000    0.0032121685426600
     6.3112884282600001  -10.9581161277000003   -9.9749049577999997
   Al   Sc   N 
    84    12    95
Direct
  0.0882355813624756  0.5849175632464281  0.3348881937064760
  0.9961556662542534  0.3346787335673369  0.2562027131327156
  0.0851451375642114  0.0793960873294566  0.3420436750492826
  0.2502504237612655  0.5802353451266384  0.4979013249429016
  0.3363534836693631  0.3590870333572127  0.0747367853035996
  0.4465176357578287  0.0676669857780965  0.1865663790588457
  0.0047937748510805  0.8384551297726119  0.2533250027076122
  0.1677436652516278  0.3335296020845391  0.4157197156778523
  0.2495262249069867  0.0858066066212757  0.4991647649608382
  0.1643368572868695  0.8335054775343380  0.4175577602564999
  0.3356697375952820  0.6697580039850166  0.3390462049238820
  0.1595299380056474  0.6703286797785211  0.1667201285996498
  0.2490610804319218  0.4081436172707598  0.2526236861941484
  0.3336179620022079  0.1658038807477382  0.3365257750753585
  0.0030077464089118  0.6700445020115424  0.4977812667569310
  0.1195314300515804  0.1611509910904090  0.1930372411201162
  0.2503011964775652  0.9175337935363075  0.2555466811894433
  0.4149172576328937  0.4158676098421594  0.4161767034521375
  0.4997497802683455  0.1634308112189373  0.4988252664866053
  0.0793604385108608  0.9204297665807673  0.0823312047185922
  0.4184456718059337  0.9179978622976179  0.4150894645052574
  0.0876703074295193  0.5839746158714263  0.8328208267979065
  0.0007948538426064  0.3278827893499283  0.7525452702462019
  0.0798685206031209  0.0844277903102508  0.8291401511153182
  0.2479347182435561  0.5847165119320508  0.9955527947295266
  0.3320145622116897  0.3244543419899202  0.5805715324445799
  0.4186884203461716  0.0860112654749656  0.6688041014324284
  0.0057950453510003  0.8396259676504201  0.7523614937179204
  0.1659961558628638  0.3344879070547080  0.9115303763557705
  0.2366383401018552  0.0679231289110049  0.9697297123867230
  0.1611507599022985  0.8311613072931792  0.9141743974267911
  0.3363155813574110  0.6702184285214159  0.8362440780109353
  0.1612812954636738  0.6713831405857249  0.6662592451880300
  0.2521172409459140  0.4095954988805701  0.7499786682489145
  0.3350249221769630  0.1684447746437101  0.8299327506611576
  0.0008767748561169  0.6698850324962322  0.9968604531899317
  0.1678167854699879  0.1620369171423803  0.6681085767537880
  0.2529260735527572  0.9187820186853983  0.7533923950348651
  0.4149417498470100  0.4172499002013765  0.9118775841798694
  0.4978388329386192  0.1632874069841534  0.9972108982499677
  0.0819694709669179  0.9209171582446487  0.5817835038835000
  0.4201805990400160  0.9145070245583042  0.9128106495423154
  0.5891991074811571  0.5834687184613969  0.3351806056598008
  0.5022487532814139  0.3267098465301643  0.2541144656523002
  0.5906722152174311  0.0837262467554041  0.3388249896563451
  0.7503112252831130  0.5811221518136733  0.4972616483869174
  0.8303819095107556  0.3248896527769176  0.0791723469050680
  0.9081625985589312  0.0816954735196163  0.1668222333631277
  0.5071278570420006  0.8346523418727543  0.2557534803818911
  0.6691274223805195  0.3331637737540092  0.4142278677927109
  0.7503879797962583  0.0863602316709731  0.4977511886044539
  0.6646160216455357  0.8341778189809261  0.4170023729333465
  0.8365444896452914  0.6698849849541304  0.3376023823592362
  0.6591105510651118  0.6700273083986943  0.1665650516719026
  0.7507021364510251  0.4099003706319664  0.2510815571696625
  0.8370251021034392  0.1651969144472716  0.3332777870948505
  0.5031672432249721  0.6699788127649384  0.4976916625969139
  0.6691190057171852  0.1643165669661997  0.1685255753521986
  0.7517405019500174  0.9167049177043580  0.2540926676888517
  0.9144896803869287  0.4168224813422725  0.4170068987719091
  0.9992422551350231  0.1638063499696898  0.4995528795785233
  0.5815741541608261  0.9176191985800912  0.0802880719738681
  0.9175981150681736  0.9160963063398171  0.4149962305241317
  0.5889072688151984  0.5849093119687723  0.8332770174704436
  0.5027096553714969  0.3273491409845661  0.7522890381556024
  0.5851148244927913  0.0840977659311548  0.8332035339182298
  0.7492891110119970  0.5808151207907528  0.9957914562124586
  0.8314781465801460  0.3248565140344439  0.5802650479972442
  0.9170745631410142  0.0864243256444652  0.6684766368008823
  0.5065227821175071  0.8397183800993346  0.7522075192794802
  0.6674589640917290  0.3330944162726013  0.9128450914180917
  0.7465275508895388  0.0856818491644802  0.9955098716145372
  0.6640110556198096  0.8343756898507166  0.9151778918088098
  0.8364000023579052  0.6704534208369068  0.8365033114062115
  0.6613317911988048  0.6711303979903249  0.6661719433018973
  0.7523748410315605  0.4092611711143093  0.7503129839423792
  0.8329123016398512  0.1660851493985263  0.8328706217679880
  0.5018783129500903  0.6689631083240286  0.9970877496270631
  0.6681400952595098  0.1616230141028439  0.6680514582011767
  0.7529081646566738  0.9190047913123394  0.7535827809494506
  0.9136061544626273  0.4163116610169979  0.9144715128524865
  0.9957421266772357  0.1635804774263079  0.9974259677963460
  0.5827288133221273  0.9212198365721918  0.5812673522682417
  0.9171610284818286  0.9181014772296194  0.9135219267302261
  0.4037482103222487  0.5827081432388752  0.1765267708654576
  0.3279025385723742  0.8372493004910879  0.0843406559762911
  0.0754141443218117  0.4159041287351073  0.0852358884610425
  0.4060677751311914  0.5828959905049729  0.6731561810878546
  0.3293672744137552  0.8382948319310088  0.5843454702333588
  0.0792617667767388  0.4156838178840658  0.5854876393433130
  0.9029274365114190  0.5838897599744399  0.1732342327761387
  0.8271094833076447  0.8361771849954494  0.0825307716481802
  0.5821527362485384  0.4166522955975225  0.0841946810727663
  0.9054582417369801  0.5833696058640427  0.6731508057983291
  0.8287283503708949  0.8382652824267964  0.5846392992511156
  0.5800486691323954  0.4156826156370954  0.5844819249885376
  0.2193790937386666  0.5814077549427950  0.2666693148534591
  0.0390376672289463  0.5987121567384861  0.1017123296201916
  0.1274381909302065  0.3264591333082976  0.1965171874367897
  0.2117850544387849  0.0815921371520432  0.2739941204898386
  0.3803778484848479  0.5824846100682350  0.4373193852468162
  0.4496169752692154  0.3234028488855429  0.0122712736703292
  0.0387585590439272  0.0849902351482186  0.1032379262687044
  0.1320495177714349  0.8395423075501895  0.1853579857469541
  0.2958658082957228  0.3312121766041471  0.3523494153055111
  0.3778220226728308  0.0812065927476695  0.4361034745732866
  0.4661593672011648  0.8350274329293867  0.0140165666336500
  0.2938647362863449  0.8334957812036592  0.3552464582896562
  0.4688413663543187  0.6762169894630929  0.2814328829755155
  0.2771806685990299  0.6602271687771122  0.0979260322917384
  0.3742433730643668  0.3902305199343843  0.1844408196648075
  0.4650858197708132  0.1648948591186823  0.2766735006530396
  0.1317711662319496  0.6656491478872368  0.4346394013044232
  0.2126279189068327  0.4163067208767757  0.0122979121588003
  0.3825295678858964  0.9211819140037818  0.1980128866389492
  0.0447837838998808  0.4198529746195021  0.3536986182497870
  0.1281837120133957  0.1701995455916574  0.4370901229821200
  0.1978874666755175  0.9263473208817032  0.0132344381122920
  0.0464271990831406  0.9177351255366020  0.3534033632137152
  0.2185670621396412  0.5822408074834584  0.7672321458850107
  0.0409862298923969  0.5984802613694598  0.6019462116685119
  0.1317116457645042  0.3230884948180091  0.6956518080214522
  0.2120149149941923  0.0828460740411572  0.7720587561487307
  0.3787931285881641  0.5824868729608497  0.9368263469571119
  0.4520791070617491  0.3235124070168425  0.5126564457452218
  0.0428866411094049  0.0853969415047899  0.6037812647753071
  0.1325870751099103  0.8395007015920086  0.6859244272746494
  0.2954282102999528  0.3319140430679539  0.8520211406354647
  0.3768343170392328  0.0812753069872940  0.9342063468805577
  0.4689562396244682  0.8357067322491147  0.5137077992627823
  0.2928749921579552  0.8340371513534564  0.8555481281760606
  0.4691364799054298  0.6784663792081105  0.7801544669956257
  0.2776932902772700  0.6618373474581389  0.5977673648537518
  0.3785840191754559  0.3959071637833631  0.6854183857671856
  0.4631601360130659  0.1651756871054459  0.7717189690279227
  0.1290203932223832  0.6659647404196392  0.9339323751399533
  0.2179401355735848  0.4136764047490757  0.5147491465003071
  0.2931096595813116  0.1607521710026916  0.6032067240901071
  0.3841432048125739  0.9246507457245627  0.6967335511301584
  0.0436226310565857  0.4191475462118106  0.8517975670724667
  0.1232754255037349  0.1710864573532120  0.9330344855013806
  0.2001356594909538  0.9272623824932467  0.5129011706283251
  0.0467749287352390  0.9217331597659921  0.8528890647083287
  0.7182252886305847  0.5821047117442149  0.2668076441713865
  0.5370155129553638  0.5967936620184986  0.1026490451841724
  0.6302072228235147  0.3239097131057491  0.1945987150841475
  0.7143632715124113  0.0829639836755192  0.2702921637446138
  0.8802655873526390  0.5834990230658903  0.4367906252979026
  0.9507051428300244  0.3236090438837849  0.0123140665248869
  0.5396181053960589  0.0855339373137411  0.1038612177706000
  0.6296948479787758  0.8390533404304179  0.1855851194382154
  0.7985695685776193  0.3305363388777280  0.3507713619778272
  0.8797553442946580  0.0815642252528122  0.4336606677748236
  0.9675922074572227  0.8360659203270870  0.0134928831051866
  0.7935006736895005  0.8331899197085733  0.3545072795972146
  0.9692180412347327  0.6770469741672542  0.2795669881596083
  0.7740696211416775  0.6606427757419979  0.0969356394102334
  0.8757913344259904  0.3962160222341993  0.1844232901335303
  0.9719025116584490  0.1633156863158405  0.2670942210548262
  0.6314238783880555  0.6660521700259636  0.4343785881002020
  0.7172486039411226  0.4136272689088827  0.0130784632161891
  0.7893255820713776  0.1609892811981126  0.1008734687083788
  0.8818655386779568  0.9213926574322642  0.1954839199532827
  0.5448659627901193  0.4182082355629788  0.3515383345280796
  0.6296025438487121  0.1705996633358495  0.4363057448156624
  0.6983530827298026  0.9274330593234339  0.0124150636679872
  0.5477225899381821  0.9211414582761535  0.3527134977802220
  0.7188197176660012  0.5823031755039239  0.7669858632190554
  0.5410613089034939  0.5981782843077568  0.6017979682927077
  0.6323779651719832  0.3233689967315314  0.6946769661952601
  0.7120768527936860  0.0826793195277133  0.7711599789835262
  0.8793616123788439  0.5831637225482567  0.9365234233668644
  0.9518500522630333  0.3237697896228866  0.5129574398795569
  0.5433219809566268  0.0853605562436215  0.6032770283865077
  0.6328362778218874  0.8393884615188085  0.6853448186370983
  0.7953885865538197  0.3316143098510551  0.8518748013315403
  0.8759108761682910  0.0814839452437113  0.9348773415178044
  0.9681625632622897  0.8355482334048077  0.5142145466361612
  0.7936013246433617  0.8336351168084661  0.8548013057000716
  0.9693213923996140  0.6785759677646723  0.7799869920539777
  0.7773678827505677  0.6616750027824452  0.5973848511167432
  0.8782242699667222  0.3965948374316994  0.6847652007510376
  0.9599630101340395  0.1661784243091873  0.7709526950643593
  0.6299077952564289  0.6661216913768584  0.9344216117374842
  0.7184267863866722  0.4141647290210173  0.5131560097318584
  0.7930134353140090  0.1608900014961989  0.6019896122194837
  0.8842307276465817  0.9248485106088040  0.6966096847680987
  0.5447884644784367  0.4190784819284445  0.8518084473029788
  0.6248307997498799  0.1699878021104340  0.9352042971072905
  0.7010717560953807  0.9279074848290065  0.5121878972687597
  0.5471589963439030  0.9207532259173519  0.8526242504604298
 
  0.00000000E+00  0.00000000E+00  0.00000000E+00
  0.00000000E+00  0.00000000E+00  0.00000000E+00
  0.00000000E+00  0.00000000E+00  0.00000000E+00
  0.00000000E+00  0.00000000E+00  0.00000000E+00
  0.00000000E+00  0.00000000E+00  0.00000000E+00
  0.00000000E+00  0.00000000E+00  0.00000000E+00
  0.00000000E+00  0.00000000E+00  0.00000000E+00
  0.00000000E+00  0.00000000E+00  0.00000000E+00
  0.00000000E+00  0.00000000E+00  0.00000000E+00
  0.00000000E+00  0.00000000E+00  0.00000000E+00
  0.00000000E+00  0.00000000E+00  0.00000000E+00
  0.00000000E+00  0.00000000E+00  0.00000000E+00
  0.00000000E+00  0.00000000E+00  0.00000000E+00
  0.00000000E+00  0.00000000E+00  0.00000000E+00
  0.00000000E+00  0.00000000E+00  0.00000000E+00
  0.00000000E+00  0.00000000E+00  0.00000000E+00
  0.00000000E+00  0.00000000E+00  0.00000000E+00
  0.00000000E+00  0.00000000E+00  0.00000000E+00
  0.00000000E+00  0.00000000E+00  0.00000000E+00
  0.00000000E+00  0.00000000E+00  0.00000000E+00
  0.00000000E+00  0.00000000E+00  0.00000000E+00
  0.00000000E+00  0.00000000E+00  0.00000000E+00
  0.00000000E+00  0.00000000E+00  0.00000000E+00
  0.00000000E+00  0.00000000E+00  0.00000000E+00
  0.00000000E+00  0.00000000E+00  0.00000000E+00
  0.00000000E+00  0.00000000E+00  0.00000000E+00
  0.00000000E+00  0.00000000E+00  0.00000000E+00
  0.00000000E+00  0.00000000E+00  0.00000000E+00
  0.00000000E+00  0.00000000E+00  0.00000000E+00
  0.00000000E+00  0.00000000E+00  0.00000000E+00
  0.00000000E+00  0.00000000E+00  0.00000000E+00
  0.00000000E+00  0.00000000E+00  0.00000000E+00
  0.00000000E+00  0.00000000E+00  0.00000000E+00
  0.00000000E+00  0.00000000E+00  0.00000000E+00
  0.00000000E+00  0.00000000E+00  0.00000000E+00
  0.00000000E+00  0.00000000E+00  0.00000000E+00
  0.00000000E+00  0.00000000E+00  0.00000000E+00
  0.00000000E+00  0.00000000E+00  0.00000000E+00
  0.00000000E+00  0.00000000E+00  0.00000000E+00
  0.00000000E+00  0.00000000E+00  0.00000000E+00
  0.00000000E+00  0.00000000E+00  0.00000000E+00
  0.00000000E+00  0.00000000E+00  0.00000000E+00
  0.00000000E+00  0.00000000E+00  0.00000000E+00
  0.00000000E+00  0.00000000E+00  0.00000000E+00
  0.00000000E+00  0.00000000E+00  0.00000000E+00
  0.00000000E+00  0.00000000E+00  0.00000000E+00
  0.00000000E+00  0.00000000E+00  0.00000000E+00
  0.00000000E+00  0.00000000E+00  0.00000000E+00
  0.00000000E+00  0.00000000E+00  0.00000000E+00
  0.00000000E+00  0.00000000E+00  0.00000000E+00
  0.00000000E+00  0.00000000E+00  0.00000000E+00
  0.00000000E+00  0.00000000E+00  0.00000000E+00
  0.00000000E+00  0.00000000E+00  0.00000000E+00
  0.00000000E+00  0.00000000E+00  0.00000000E+00
  0.00000000E+00  0.00000000E+00  0.00000000E+00
  0.00000000E+00  0.00000000E+00  0.00000000E+00
  0.00000000E+00  0.00000000E+00  0.00000000E+00
  0.00000000E+00  0.00000000E+00  0.00000000E+00
  0.00000000E+00  0.00000000E+00  0.00000000E+00
  0.00000000E+00  0.00000000E+00  0.00000000E+00
  0.00000000E+00  0.00000000E+00  0.00000000E+00
  0.00000000E+00  0.00000000E+00  0.00000000E+00
  0.00000000E+00  0.00000000E+00  0.00000000E+00
  0.00000000E+00  0.00000000E+00  0.00000000E+00
  0.00000000E+00  0.00000000E+00  0.00000000E+00
  0.00000000E+00  0.00000000E+00  0.00000000E+00
  0.00000000E+00  0.00000000E+00  0.00000000E+00
  0.00000000E+00  0.00000000E+00  0.00000000E+00
  0.00000000E+00  0.00000000E+00  0.00000000E+00
  0.00000000E+00  0.00000000E+00  0.00000000E+00
  0.00000000E+00  0.00000000E+00  0.00000000E+00
  0.00000000E+00  0.00000000E+00  0.00000000E+00
  0.00000000E+00  0.00000000E+00  0.00000000E+00
  0.00000000E+00  0.00000000E+00  0.00000000E+00
  0.00000000E+00  0.00000000E+00  0.00000000E+00
  0.00000000E+00  0.00000000E+00  0.00000000E+00
  0.00000000E+00  0.00000000E+00  0.00000000E+00
  0.00000000E+00  0.00000000E+00  0.00000000E+00
  0.00000000E+00  0.00000000E+00  0.00000000E+00
  0.00000000E+00  0.00000000E+00  0.00000000E+00
  0.00000000E+00  0.00000000E+00  0.00000000E+00
  0.00000000E+00  0.00000000E+00  0.00000000E+00
  0.00000000E+00  0.00000000E+00  0.00000000E+00
  0.00000000E+00  0.00000000E+00  0.00000000E+00
  0.00000000E+00  0.00000000E+00  0.00000000E+00
  0.00000000E+00  0.00000000E+00  0.00000000E+00
  0.00000000E+00  0.00000000E+00  0.00000000E+00
  0.00000000E+00  0.00000000E+00  0.00000000E+00
  0.00000000E+00  0.00000000E+00  0.00000000E+00
  0.00000000E+00  0.00000000E+00  0.00000000E+00
  0.00000000E+00  0.00000000E+00  0.00000000E+00
  0.00000000E+00  0.00000000E+00  0.00000000E+00
  0.00000000E+00  0.00000000E+00  0.00000000E+00
  0.00000000E+00  0.00000000E+00  0.00000000E+00
  0.00000000E+00  0.00000000E+00  0.00000000E+00
  0.00000000E+00  0.00000000E+00  0.00000000E+00
  0.00000000E+00  0.00000000E+00  0.00000000E+00
  0.00000000E+00  0.00000000E+00  0.00000000E+00
  0.00000000E+00  0.00000000E+00  0.00000000E+00
  0.00000000E+00  0.00000000E+00  0.00000000E+00
  0.00000000E+00  0.00000000E+00  0.00000000E+00
  0.00000000E+00  0.00000000E+00  0.00000000E+00
  0.00000000E+00  0.00000000E+00  0.00000000E+00
  0.00000000E+00  0.00000000E+00  0.00000000E+00
  0.00000000E+00  0.00000000E+00  0.00000000E+00
  0.00000000E+00  0.00000000E+00  0.00000000E+00
  0.00000000E+00  0.00000000E+00  0.00000000E+00
  0.00000000E+00  0.00000000E+00  0.00000000E+00
  0.00000000E+00  0.00000000E+00  0.00000000E+00
  0.00000000E+00  0.00000000E+00  0.00000000E+00
  0.00000000E+00  0.00000000E+00  0.00000000E+00
  0.00000000E+00  0.00000000E+00  0.00000000E+00
  0.00000000E+00  0.00000000E+00  0.00000000E+00
  0.00000000E+00  0.00000000E+00  0.00000000E+00
  0.00000000E+00  0.00000000E+00  0.00000000E+00
  0.00000000E+00  0.00000000E+00  0.00000000E+00
  0.00000000E+00  0.00000000E+00  0.00000000E+00
  0.00000000E+00  0.00000000E+00  0.00000000E+00
  0.00000000E+00  0.00000000E+00  0.00000000E+00
  0.00000000E+00  0.00000000E+00  0.00000000E+00
  0.00000000E+00  0.00000000E+00  0.00000000E+00
  0.00000000E+00  0.00000000E+00  0.00000000E+00
  0.00000000E+00  0.00000000E+00  0.00000000E+00
  0.00000000E+00  0.00000000E+00  0.00000000E+00
  0.00000000E+00  0.00000000E+00  0.00000000E+00
  0.00000000E+00  0.00000000E+00  0.00000000E+00
  0.00000000E+00  0.00000000E+00  0.00000000E+00
  0.00000000E+00  0.00000000E+00  0.00000000E+00
  0.00000000E+00  0.00000000E+00  0.00000000E+00
  0.00000000E+00  0.00000000E+00  0.00000000E+00
  0.00000000E+00  0.00000000E+00  0.00000000E+00
  0.00000000E+00  0.00000000E+00  0.00000000E+00
  0.00000000E+00  0.00000000E+00  0.00000000E+00
  0.00000000E+00  0.00000000E+00  0.00000000E+00
  0.00000000E+00  0.00000000E+00  0.00000000E+00
  0.00000000E+00  0.00000000E+00  0.00000000E+00
  0.00000000E+00  0.00000000E+00  0.00000000E+00
  0.00000000E+00  0.00000000E+00  0.00000000E+00
  0.00000000E+00  0.00000000E+00  0.00000000E+00
  0.00000000E+00  0.00000000E+00  0.00000000E+00
  0.00000000E+00  0.00000000E+00  0.00000000E+00
  0.00000000E+00  0.00000000E+00  0.00000000E+00
  0.00000000E+00  0.00000000E+00  0.00000000E+00
  0.00000000E+00  0.00000000E+00  0.00000000E+00
  0.00000000E+00  0.00000000E+00  0.00000000E+00
  0.00000000E+00  0.00000000E+00  0.00000000E+00
  0.00000000E+00  0.00000000E+00  0.00000000E+00
  0.00000000E+00  0.00000000E+00  0.00000000E+00
  0.00000000E+00  0.00000000E+00  0.00000000E+00
  0.00000000E+00  0.00000000E+00  0.00000000E+00
  0.00000000E+00  0.00000000E+00  0.00000000E+00
  0.00000000E+00  0.00000000E+00  0.00000000E+00
  0.00000000E+00  0.00000000E+00  0.00000000E+00
  0.00000000E+00  0.00000000E+00  0.00000000E+00
  0.00000000E+00  0.00000000E+00  0.00000000E+00
  0.00000000E+00  0.00000000E+00  0.00000000E+00
  0.00000000E+00  0.00000000E+00  0.00000000E+00
  0.00000000E+00  0.00000000E+00  0.00000000E+00
  0.00000000E+00  0.00000000E+00  0.00000000E+00
  0.00000000E+00  0.00000000E+00  0.00000000E+00
  0.00000000E+00  0.00000000E+00  0.00000000E+00
  0.00000000E+00  0.00000000E+00  0.00000000E+00
  0.00000000E+00  0.00000000E+00  0.00000000E+00
  0.00000000E+00  0.00000000E+00  0.00000000E+00
  0.00000000E+00  0.00000000E+00  0.00000000E+00
  0.00000000E+00  0.00000000E+00  0.00000000E+00
  0.00000000E+00  0.00000000E+00  0.00000000E+00
  0.00000000E+00  0.00000000E+00  0.00000000E+00
  0.00000000E+00  0.00000000E+00  0.00000000E+00
  0.00000000E+00  0.00000000E+00  0.00000000E+00
  0.00000000E+00  0.00000000E+00  0.00000000E+00
  0.00000000E+00  0.00000000E+00  0.00000000E+00
  0.00000000E+00  0.00000000E+00  0.00000000E+00
  0.00000000E+00  0.00000000E+00  0.00000000E+00
  0.00000000E+00  0.00000000E+00  0.00000000E+00
  0.00000000E+00  0.00000000E+00  0.00000000E+00
  0.00000000E+00  0.00000000E+00  0.00000000E+00
  0.00000000E+00  0.00000000E+00  0.00000000E+00
  0.00000000E+00  0.00000000E+00  0.00000000E+00
  0.00000000E+00  0.00000000E+00  0.00000000E+00
  0.00000000E+00  0.00000000E+00  0.00000000E+00
  0.00000000E+00  0.00000000E+00  0.00000000E+00
  0.00000000E+00  0.00000000E+00  0.00000000E+00
  0.00000000E+00  0.00000000E+00  0.00000000E+00
  0.00000000E+00  0.00000000E+00  0.00000000E+00
  0.00000000E+00  0.00000000E+00  0.00000000E+00
  0.00000000E+00  0.00000000E+00  0.00000000E+00
  0.00000000E+00  0.00000000E+00  0.00000000E+00
  0.00000000E+00  0.00000000E+00  0.00000000E+00
  0.00000000E+00  0.00000000E+00  0.00000000E+00
  0.00000000E+00  0.00000000E+00  0.00000000E+00
