supercell of POSCAR                     
   1.01189200000000     
     3.1482772356600002   -5.4762754812200001    9.9674464565599994
    -9.4511209497999999   -5.4731922780100000    0.0032121685426600
     6.3112884282600001  -10.9581161277000003   -9.9749049577999997
   Al   Sc   N 
    83    12    96
Direct
  0.0872446475994337  0.5865798184870314  0.3332259831411335
  0.9999498270283880  0.3284028055269061  0.2537554895555942
  0.0867274252573509  0.0882427479528403  0.3366426342129429
  0.2521916796567751  0.5842918316509085  0.4983048153602425
  0.3283342509063303  0.3237954565206422  0.0787563975523113
  0.4171821842056218  0.0849965021135404  0.1693820721470658
  0.0063189868400713  0.8440446345383492  0.2523931635155989
  0.2456740189780362  0.0890449469602572  0.4960840545442764
  0.1645770745733728  0.8372168727561373  0.4162585345080245
  0.3378183982645169  0.6712540521369235  0.3376330492243937
  0.1592382509589925  0.6712925722804002  0.1664822640579331
  0.2512774554639989  0.4094983799901897  0.2518992839966430
  0.3340056111733531  0.1669957052485174  0.3347092966522354
  0.0045729091998084  0.6705465576497645  0.4965334219442639
  0.1668161591414759  0.1618095343124537  0.1692375857403405
  0.2529618133430418  0.9199938518333894  0.2540779651114349
  0.4145843976778920  0.4175736913701442  0.4175997127544022
  0.4989020194137339  0.1632904693709989  0.4979261419308827
  0.0798354777724199  0.9215524881206676  0.0813456375007462
  0.4194302618409296  0.9194794971986937  0.4139967376024103
  0.0871604800728036  0.5832743281692387  0.8330964375373355
  0.0010528112732544  0.3263334302285301  0.7517226682580684
  0.0831861923399941  0.0835773504204056  0.8338443806522662
  0.2474215343733235  0.5793794656628890  0.9967479037291298
  0.3335768473396428  0.3255171646272288  0.5814393945466136
  0.4175413098062677  0.0871540482001265  0.6700959274383820
  0.0042538805411709  0.8390087031010083  0.7527859220852733
  0.1650019100193845  0.3325911024010466  0.9133661556789150
  0.2461228754330236  0.0856575184682313  0.9970479849324718
  0.1618759929022104  0.8336637457965708  0.9158584194576207
  0.3351694948291453  0.6685079533152347  0.8362079848008008
  0.1614548036936796  0.6726424920221348  0.6647134223064839
  0.2516556715766924  0.4071273108828208  0.7492402514838830
  0.3326568141975486  0.1649067010530274  0.8337858632235324
  0.0003329605317006  0.6680394236510665  0.9985176176048967
  0.1670959541556130  0.1618246795214944  0.6676641618464814
  0.2512946467215400  0.9185489316445725  0.7538190871814123
  0.4129226382353011  0.4144341023480820  0.9150700910198566
  0.4969111573843179  0.1614892211611902  0.9977144629458223
  0.0831467925022764  0.9227112922165546  0.5807500911098202
  0.4166085440125400  0.9163984983013762  0.9140942138426169
  0.5915389123664170  0.5846860987595690  0.3352793657651745
  0.4848413618710694  0.3278615203061790  0.2627012999828366
  0.5859059731889360  0.0842821233417723  0.3339827925115415
  0.7509263944375490  0.5808073329552101  0.4977412671592774
  0.8260267526496250  0.3226139602088551  0.0790680725792043
  0.9156271131408431  0.0884004946339303  0.1695704010151360
  0.5069645303368588  0.8394202441963898  0.2534103792376001
  0.6685355967381952  0.3338728248185916  0.4151896875528251
  0.7490139114639902  0.0868204061147395  0.4971828319561311
  0.6655506804384572  0.8359600483157479  0.4166319956069415
  0.8396342595665089  0.6718998282974411  0.3380919650171563
  0.6616616894884899  0.6692303165775684  0.1672100343185576
  0.7492337587494120  0.4050638311004633  0.2515995520325163
  0.8349094426982830  0.1660638898609292  0.3342736849496220
  0.5042266420085184  0.6712121650914398  0.4970929476412351
  0.6637726848628631  0.1628741089458927  0.1702097487598166
  0.7537178848188049  0.9194298392699451  0.2541758495246853
  0.9169150790679055  0.4175167836610854  0.4112860198782542
  0.0020025822223531  0.1649850333809937  0.4948410293332799
  0.5807181635072567  0.9196275729241421  0.0817421438816126
  0.9205424144003516  0.9201823017764426  0.4136628651428111
  0.5864920101910656  0.5825825738380033  0.8343034785934407
  0.5025207030850325  0.3255686352486791  0.7554243609866020
  0.5840171854354850  0.0821436579261814  0.8346040029105808
  0.7474056248077048  0.5775260362230838  0.9990791054905372
  0.8335176404076918  0.3246690542872201  0.5791429083561184
  0.9173343176911288  0.0862786264730175  0.6689198238529599
  0.5045281945978815  0.8380260802703674  0.7532717009514727
  0.6648353759546453  0.3319782572146295  0.9158077383866612
  0.7460879749692282  0.0837736108911287  0.9980991631793259
  0.6630150265037429  0.8326590599472681  0.9165719826566772
  0.8349218651102248  0.6680756971509325  0.8370467803652701
  0.6607669625967461  0.6700445975652869  0.6669278174224758
  0.7514942478418547  0.4076464368558135  0.7515297445517106
  0.8325422429696303  0.1649046890698571  0.8342494406640313
  0.5010957054704051  0.6687337280701797  0.9979702728508926
  0.6677965135305470  0.1611576914568857  0.6687329635987709
  0.7517817206095785  0.9176562703486013  0.7539255911359106
  0.9129828126700161  0.4146438304091831  0.9149498524212589
  0.9965559318152728  0.1626041530599593  0.9978133899854598
  0.5834752369774634  0.9213391736365679  0.5817001212254311
  0.9164679009609813  0.9164653914971836  0.9145452955955236
  0.4026357976278518  0.5849499644479721  0.1741363626128063
  0.3258538006183684  0.8384879822905447  0.0838589500278246
  0.0752042919944529  0.4138843199401165  0.0854703621706321
  0.4019022709832356  0.5807319789322989  0.6704577336252555
  0.3327661984166426  0.8440548547411240  0.5839438768705207
  0.0864890537685810  0.4131351642253591  0.5775749766798342
  0.9053420173356130  0.5769102783679543  0.1801117366200700
  0.8275872203523704  0.8351011582251573  0.0857670587659101
  0.5711703177963159  0.4128409205843226  0.0896483154440872
  0.9082332633902510  0.5799244411132705  0.6716081638538611
  0.8306641999456588  0.8373927176314240  0.5836585251623703
  0.5802385923961566  0.4149483232142614  0.5862404863533257
  0.2207999105270417  0.5849560159927734  0.2659308788699448
  0.0382042514245029  0.5970423148715867  0.1031910283192303
  0.1314120978129054  0.3234193999998567  0.1945113731932366
  0.2129077023881223  0.0829273546325666  0.2706420010316322
  0.3820234044595594  0.5871525893864771  0.4370866843323142
  0.4485494791820841  0.3210316848351553  0.0110558098708822
  0.0408861277201282  0.0860975501829699  0.1028352191149366
  0.1328701837612485  0.8407740568639994  0.1842737229105111
  0.3301930778714919  0.3331839853282119  0.3375979395986732
  0.3781113095088244  0.0811993808072202  0.4360777127785695
  0.4661650451782720  0.8347007916717857  0.0137969038587187
  0.2951523342631077  0.8350746173323458  0.3545578399350902
  0.4717895283939342  0.6780481546975849  0.2805329524063325
  0.2746081599657160  0.6620644833465406  0.0959910001930453
  0.3788321671776700  0.3996652126234181  0.1786190812146558
  0.4636451179541936  0.1577246563749171  0.2710563056645441
  0.1325552735280411  0.6684046009354034  0.4338561532619565
  0.2133771758468015  0.4130330391286776  0.0131194164997197
  0.2908922188292422  0.1592768701538034  0.1017681567723372
  0.3841528813700918  0.9217414310243157  0.1956199370543388
  0.0215480719629184  0.4385643304020448  0.3364441123098558
  0.1246138056444792  0.1566221866387920  0.4369484697020596
  0.1971766729955036  0.9270409096637664  0.0116699400652678
  0.0480664894916671  0.9217789125913072  0.3517492886417841
  0.2174864859134686  0.5814056082387467  0.7662714609600698
  0.0422640536021532  0.5977574287096274  0.6007719927975756
  0.1301675737088743  0.3231217846565286  0.6940613980198336
  0.2107800559013526  0.0822900028221909  0.7716563663082567
  0.3781661281965683  0.5819260992367816  0.9365749883053098
  0.4549913090809383  0.3230299819608007  0.5145226358260970
  0.0415811227165293  0.0856286555603631  0.6043707061860530
  0.1299468054503663  0.8398168397707622  0.6865599930152584
  0.2934647299005988  0.3308450205239026  0.8519573108705742
  0.3751035472103155  0.0795378069958659  0.9349448039215957
  0.4713500928022754  0.8370548952918853  0.5132517432446377
  0.2921082247790707  0.8319594774697947  0.8547810838545686
  0.4676162001128503  0.6755656984796090  0.7789502596734579
  0.2789376151834304  0.6724829510771571  0.5983355175971070
  0.3818572801845193  0.3937316428883904  0.6892565692013193
  0.4621001502569868  0.1634906291434248  0.7738791395118625
  0.1283371483851070  0.6649101006394318  0.9339822520418508
  0.2329740186844376  0.4291625533702401  0.5294341249705852
  0.2934386156973687  0.1603879321595301  0.6037186239895718
  0.3838607168023458  0.9257343353842629  0.6987858096289514
  0.0424493322509036  0.4182635428790249  0.8513899612181817
  0.1250092760773924  0.1691446332624764  0.9346637285216772
  0.2021573149134284  0.9258479937202750  0.5139116765035752
  0.0448427681488610  0.9197933366872491  0.8529455231789882
  0.7217042808025411  0.5823704775423906  0.2672339827158083
  0.5396299435318994  0.5993226841115344  0.1025064727111200
  0.6247187927490998  0.3222587715522138  0.1988310197611298
  0.7131591206577568  0.0821734669025886  0.2712780962522885
  0.8796940180545789  0.5859922728458784  0.4384084443160603
  0.9478714803705941  0.3222329762372453  0.0116921909258920
  0.5411138967144780  0.0838341923732173  0.1023628538327159
  0.6334751639452136  0.8386005461817092  0.1853792179070197
  0.7942731344590683  0.3298235862242294  0.3528738858099487
  0.8756164681311489  0.0812678437220882  0.4353160719838911
  0.9662984269335197  0.8343619226469627  0.0140527722982924
  0.7946188422839526  0.8351306095261464  0.3550792498503270
  0.9698549546645481  0.6867479154070537  0.2792258468510838
  0.7790443058608929  0.6575368710241989  0.0992694013908562
  0.8726359616390624  0.3899972908779716  0.1816449777286451
  0.9620477867019090  0.1648351045378433  0.2717132885930624
  0.6333607527025720  0.6681472712056333  0.4353625106155263
  0.7108462759316510  0.4121564173482213  0.0155012677973190
  0.7884264879002814  0.1588747510830046  0.1020026369641158
  0.8833376359224729  0.9260927230442491  0.1950982847941205
  0.5506101084734567  0.4235154934114078  0.3560746778822406
  0.6272215486566637  0.1693650946011118  0.4354390972155073
  0.6991250807950422  0.9241810265097286  0.0129175199571989
  0.5485880107795609  0.9203881551821240  0.3529807005687857
  0.7164353812132092  0.5806877035755136  0.7679941414253832
  0.5405455143747631  0.5985145316597453  0.6018658610714454
  0.6315090871362656  0.3215156758214590  0.6968681780037755
  0.7113258626505043  0.0811092384336050  0.7718544376351417
  0.8775553333858639  0.5812871197788141  0.9372568632645084
  0.9499831689628593  0.3243425872590464  0.5103213180951087
  0.5428633979621083  0.0847418856948039  0.6043313237262140
  0.6311715694673623  0.8381933520814826  0.6863706954086410
  0.7933554346538187  0.3305324579237663  0.8532949328834860
  0.8751298383986921  0.0796188696561515  0.9354760230394632
  0.9693048153327553  0.8367052719464283  0.5135738884213907
  0.7925220679511611  0.8317979030204867  0.8548624996163667
  0.9673007215346558  0.6766215802634079  0.7795104153188319
  0.7778591897480425  0.6611949300057347  0.5992044547619173
  0.8759822841190612  0.3946477817711127  0.6861557163160157
  0.9604645305873802  0.1644461006886075  0.7727103704583698
  0.6295336209880418  0.6645516919284802  0.9349402121908170
  0.7179030866315799  0.4145070940506272  0.5158740382617069
  0.7919022060006853  0.1609768625619594  0.6028982480725986
  0.8822815978337815  0.9239780845913188  0.6965761911465123
  0.5437018526077395  0.4177726797834040  0.8536302114466849
  0.6257261680310506  0.1673698887166708  0.9351463942672495
  0.7016431772374432  0.9274860182820248  0.5138077528518963
  0.5460626907103361  0.9183861476110522  0.8534860428778401
 
  0.00000000E+00  0.00000000E+00  0.00000000E+00
  0.00000000E+00  0.00000000E+00  0.00000000E+00
  0.00000000E+00  0.00000000E+00  0.00000000E+00
  0.00000000E+00  0.00000000E+00  0.00000000E+00
  0.00000000E+00  0.00000000E+00  0.00000000E+00
  0.00000000E+00  0.00000000E+00  0.00000000E+00
  0.00000000E+00  0.00000000E+00  0.00000000E+00
  0.00000000E+00  0.00000000E+00  0.00000000E+00
  0.00000000E+00  0.00000000E+00  0.00000000E+00
  0.00000000E+00  0.00000000E+00  0.00000000E+00
  0.00000000E+00  0.00000000E+00  0.00000000E+00
  0.00000000E+00  0.00000000E+00  0.00000000E+00
  0.00000000E+00  0.00000000E+00  0.00000000E+00
  0.00000000E+00  0.00000000E+00  0.00000000E+00
  0.00000000E+00  0.00000000E+00  0.00000000E+00
  0.00000000E+00  0.00000000E+00  0.00000000E+00
  0.00000000E+00  0.00000000E+00  0.00000000E+00
  0.00000000E+00  0.00000000E+00  0.00000000E+00
  0.00000000E+00  0.00000000E+00  0.00000000E+00
  0.00000000E+00  0.00000000E+00  0.00000000E+00
  0.00000000E+00  0.00000000E+00  0.00000000E+00
  0.00000000E+00  0.00000000E+00  0.00000000E+00
  0.00000000E+00  0.00000000E+00  0.00000000E+00
  0.00000000E+00  0.00000000E+00  0.00000000E+00
  0.00000000E+00  0.00000000E+00  0.00000000E+00
  0.00000000E+00  0.00000000E+00  0.00000000E+00
  0.00000000E+00  0.00000000E+00  0.00000000E+00
  0.00000000E+00  0.00000000E+00  0.00000000E+00
  0.00000000E+00  0.00000000E+00  0.00000000E+00
  0.00000000E+00  0.00000000E+00  0.00000000E+00
  0.00000000E+00  0.00000000E+00  0.00000000E+00
  0.00000000E+00  0.00000000E+00  0.00000000E+00
  0.00000000E+00  0.00000000E+00  0.00000000E+00
  0.00000000E+00  0.00000000E+00  0.00000000E+00
  0.00000000E+00  0.00000000E+00  0.00000000E+00
  0.00000000E+00  0.00000000E+00  0.00000000E+00
  0.00000000E+00  0.00000000E+00  0.00000000E+00
  0.00000000E+00  0.00000000E+00  0.00000000E+00
  0.00000000E+00  0.00000000E+00  0.00000000E+00
  0.00000000E+00  0.00000000E+00  0.00000000E+00
  0.00000000E+00  0.00000000E+00  0.00000000E+00
  0.00000000E+00  0.00000000E+00  0.00000000E+00
  0.00000000E+00  0.00000000E+00  0.00000000E+00
  0.00000000E+00  0.00000000E+00  0.00000000E+00
  0.00000000E+00  0.00000000E+00  0.00000000E+00
  0.00000000E+00  0.00000000E+00  0.00000000E+00
  0.00000000E+00  0.00000000E+00  0.00000000E+00
  0.00000000E+00  0.00000000E+00  0.00000000E+00
  0.00000000E+00  0.00000000E+00  0.00000000E+00
  0.00000000E+00  0.00000000E+00  0.00000000E+00
  0.00000000E+00  0.00000000E+00  0.00000000E+00
  0.00000000E+00  0.00000000E+00  0.00000000E+00
  0.00000000E+00  0.00000000E+00  0.00000000E+00
  0.00000000E+00  0.00000000E+00  0.00000000E+00
  0.00000000E+00  0.00000000E+00  0.00000000E+00
  0.00000000E+00  0.00000000E+00  0.00000000E+00
  0.00000000E+00  0.00000000E+00  0.00000000E+00
  0.00000000E+00  0.00000000E+00  0.00000000E+00
  0.00000000E+00  0.00000000E+00  0.00000000E+00
  0.00000000E+00  0.00000000E+00  0.00000000E+00
  0.00000000E+00  0.00000000E+00  0.00000000E+00
  0.00000000E+00  0.00000000E+00  0.00000000E+00
  0.00000000E+00  0.00000000E+00  0.00000000E+00
  0.00000000E+00  0.00000000E+00  0.00000000E+00
  0.00000000E+00  0.00000000E+00  0.00000000E+00
  0.00000000E+00  0.00000000E+00  0.00000000E+00
  0.00000000E+00  0.00000000E+00  0.00000000E+00
  0.00000000E+00  0.00000000E+00  0.00000000E+00
  0.00000000E+00  0.00000000E+00  0.00000000E+00
  0.00000000E+00  0.00000000E+00  0.00000000E+00
  0.00000000E+00  0.00000000E+00  0.00000000E+00
  0.00000000E+00  0.00000000E+00  0.00000000E+00
  0.00000000E+00  0.00000000E+00  0.00000000E+00
  0.00000000E+00  0.00000000E+00  0.00000000E+00
  0.00000000E+00  0.00000000E+00  0.00000000E+00
  0.00000000E+00  0.00000000E+00  0.00000000E+00
  0.00000000E+00  0.00000000E+00  0.00000000E+00
  0.00000000E+00  0.00000000E+00  0.00000000E+00
  0.00000000E+00  0.00000000E+00  0.00000000E+00
  0.00000000E+00  0.00000000E+00  0.00000000E+00
  0.00000000E+00  0.00000000E+00  0.00000000E+00
  0.00000000E+00  0.00000000E+00  0.00000000E+00
  0.00000000E+00  0.00000000E+00  0.00000000E+00
  0.00000000E+00  0.00000000E+00  0.00000000E+00
  0.00000000E+00  0.00000000E+00  0.00000000E+00
  0.00000000E+00  0.00000000E+00  0.00000000E+00
  0.00000000E+00  0.00000000E+00  0.00000000E+00
  0.00000000E+00  0.00000000E+00  0.00000000E+00
  0.00000000E+00  0.00000000E+00  0.00000000E+00
  0.00000000E+00  0.00000000E+00  0.00000000E+00
  0.00000000E+00  0.00000000E+00  0.00000000E+00
  0.00000000E+00  0.00000000E+00  0.00000000E+00
  0.00000000E+00  0.00000000E+00  0.00000000E+00
  0.00000000E+00  0.00000000E+00  0.00000000E+00
  0.00000000E+00  0.00000000E+00  0.00000000E+00
  0.00000000E+00  0.00000000E+00  0.00000000E+00
  0.00000000E+00  0.00000000E+00  0.00000000E+00
  0.00000000E+00  0.00000000E+00  0.00000000E+00
  0.00000000E+00  0.00000000E+00  0.00000000E+00
  0.00000000E+00  0.00000000E+00  0.00000000E+00
  0.00000000E+00  0.00000000E+00  0.00000000E+00
  0.00000000E+00  0.00000000E+00  0.00000000E+00
  0.00000000E+00  0.00000000E+00  0.00000000E+00
  0.00000000E+00  0.00000000E+00  0.00000000E+00
  0.00000000E+00  0.00000000E+00  0.00000000E+00
  0.00000000E+00  0.00000000E+00  0.00000000E+00
  0.00000000E+00  0.00000000E+00  0.00000000E+00
  0.00000000E+00  0.00000000E+00  0.00000000E+00
  0.00000000E+00  0.00000000E+00  0.00000000E+00
  0.00000000E+00  0.00000000E+00  0.00000000E+00
  0.00000000E+00  0.00000000E+00  0.00000000E+00
  0.00000000E+00  0.00000000E+00  0.00000000E+00
  0.00000000E+00  0.00000000E+00  0.00000000E+00
  0.00000000E+00  0.00000000E+00  0.00000000E+00
  0.00000000E+00  0.00000000E+00  0.00000000E+00
  0.00000000E+00  0.00000000E+00  0.00000000E+00
  0.00000000E+00  0.00000000E+00  0.00000000E+00
  0.00000000E+00  0.00000000E+00  0.00000000E+00
  0.00000000E+00  0.00000000E+00  0.00000000E+00
  0.00000000E+00  0.00000000E+00  0.00000000E+00
  0.00000000E+00  0.00000000E+00  0.00000000E+00
  0.00000000E+00  0.00000000E+00  0.00000000E+00
  0.00000000E+00  0.00000000E+00  0.00000000E+00
  0.00000000E+00  0.00000000E+00  0.00000000E+00
  0.00000000E+00  0.00000000E+00  0.00000000E+00
  0.00000000E+00  0.00000000E+00  0.00000000E+00
  0.00000000E+00  0.00000000E+00  0.00000000E+00
  0.00000000E+00  0.00000000E+00  0.00000000E+00
  0.00000000E+00  0.00000000E+00  0.00000000E+00
  0.00000000E+00  0.00000000E+00  0.00000000E+00
  0.00000000E+00  0.00000000E+00  0.00000000E+00
  0.00000000E+00  0.00000000E+00  0.00000000E+00
  0.00000000E+00  0.00000000E+00  0.00000000E+00
  0.00000000E+00  0.00000000E+00  0.00000000E+00
  0.00000000E+00  0.00000000E+00  0.00000000E+00
  0.00000000E+00  0.00000000E+00  0.00000000E+00
  0.00000000E+00  0.00000000E+00  0.00000000E+00
  0.00000000E+00  0.00000000E+00  0.00000000E+00
  0.00000000E+00  0.00000000E+00  0.00000000E+00
  0.00000000E+00  0.00000000E+00  0.00000000E+00
  0.00000000E+00  0.00000000E+00  0.00000000E+00
  0.00000000E+00  0.00000000E+00  0.00000000E+00
  0.00000000E+00  0.00000000E+00  0.00000000E+00
  0.00000000E+00  0.00000000E+00  0.00000000E+00
  0.00000000E+00  0.00000000E+00  0.00000000E+00
  0.00000000E+00  0.00000000E+00  0.00000000E+00
  0.00000000E+00  0.00000000E+00  0.00000000E+00
  0.00000000E+00  0.00000000E+00  0.00000000E+00
  0.00000000E+00  0.00000000E+00  0.00000000E+00
  0.00000000E+00  0.00000000E+00  0.00000000E+00
  0.00000000E+00  0.00000000E+00  0.00000000E+00
  0.00000000E+00  0.00000000E+00  0.00000000E+00
  0.00000000E+00  0.00000000E+00  0.00000000E+00
  0.00000000E+00  0.00000000E+00  0.00000000E+00
  0.00000000E+00  0.00000000E+00  0.00000000E+00
  0.00000000E+00  0.00000000E+00  0.00000000E+00
  0.00000000E+00  0.00000000E+00  0.00000000E+00
  0.00000000E+00  0.00000000E+00  0.00000000E+00
  0.00000000E+00  0.00000000E+00  0.00000000E+00
  0.00000000E+00  0.00000000E+00  0.00000000E+00
  0.00000000E+00  0.00000000E+00  0.00000000E+00
  0.00000000E+00  0.00000000E+00  0.00000000E+00
  0.00000000E+00  0.00000000E+00  0.00000000E+00
  0.00000000E+00  0.00000000E+00  0.00000000E+00
  0.00000000E+00  0.00000000E+00  0.00000000E+00
  0.00000000E+00  0.00000000E+00  0.00000000E+00
  0.00000000E+00  0.00000000E+00  0.00000000E+00
  0.00000000E+00  0.00000000E+00  0.00000000E+00
  0.00000000E+00  0.00000000E+00  0.00000000E+00
  0.00000000E+00  0.00000000E+00  0.00000000E+00
  0.00000000E+00  0.00000000E+00  0.00000000E+00
  0.00000000E+00  0.00000000E+00  0.00000000E+00
  0.00000000E+00  0.00000000E+00  0.00000000E+00
  0.00000000E+00  0.00000000E+00  0.00000000E+00
  0.00000000E+00  0.00000000E+00  0.00000000E+00
  0.00000000E+00  0.00000000E+00  0.00000000E+00
  0.00000000E+00  0.00000000E+00  0.00000000E+00
  0.00000000E+00  0.00000000E+00  0.00000000E+00
  0.00000000E+00  0.00000000E+00  0.00000000E+00
  0.00000000E+00  0.00000000E+00  0.00000000E+00
  0.00000000E+00  0.00000000E+00  0.00000000E+00
  0.00000000E+00  0.00000000E+00  0.00000000E+00
  0.00000000E+00  0.00000000E+00  0.00000000E+00
  0.00000000E+00  0.00000000E+00  0.00000000E+00
  0.00000000E+00  0.00000000E+00  0.00000000E+00
  0.00000000E+00  0.00000000E+00  0.00000000E+00
  0.00000000E+00  0.00000000E+00  0.00000000E+00
  0.00000000E+00  0.00000000E+00  0.00000000E+00
  0.00000000E+00  0.00000000E+00  0.00000000E+00
  0.00000000E+00  0.00000000E+00  0.00000000E+00
  0.00000000E+00  0.00000000E+00  0.00000000E+00
