supercell of POSCAR                     
   1.01189200000000     
     3.1482772356600002   -5.4762754812200001    9.9674464565599994
    -9.4511209497999999   -5.4731922780100000    0.0032121685426600
     6.3112884282600001  -10.9581161277000003   -9.9749049577999997
   Al   Sc   N 
    84    12    95
Direct
  0.0351862828885814  0.5834584801213651  0.3602758473729040
  0.9981850710606608  0.3255834917701534  0.2543358789521974
  0.0829682615273413  0.0840003441384241  0.3348967734585173
  0.2479352343059276  0.5802331742604281  0.4984167056782240
  0.3311713633731799  0.3226358541184666  0.0765863840542025
  0.4168502969326724  0.0865958271737668  0.1687815901338681
  0.0016146453632189  0.8411207522432633  0.2539763118968281
  0.1647328807094226  0.3327237311837692  0.4156510415248817
  0.2461806246965494  0.0864053894832750  0.4992556054961810
  0.1609641195680283  0.8357217137192450  0.4175150061484842
  0.3645928559938341  0.6912502652385939  0.3538637111675840
  0.1440987047255859  0.6934942853571897  0.1415592134595798
  0.2619041288297197  0.3639406313973765  0.2455627872333821
  0.3345821473797770  0.1596630511307069  0.3367441633023276
  0.0023969255675951  0.6759013377685932  0.5059283556803180
  0.1640175296955491  0.1558035941033040  0.1664048076628930
  0.2519337628365435  0.9193848695650289  0.2532334817665003
  0.4149153947365392  0.4148736517669960  0.4159778992324590
  0.4988156066279004  0.1640600340198972  0.4996714811898570
  0.0786779596509533  0.9264380909808807  0.0779143768673478
  0.4195210088436312  0.9228919921590801  0.4170980973353906
  0.0900329747937079  0.5839932121321070  0.8339302556358277
  0.0024872927456201  0.3267186621228859  0.7541950943251337
  0.0857502059812916  0.0843592421708408  0.8340291897933483
  0.2502102275833522  0.5786153065369106  0.9959530822175395
  0.3313060633729989  0.3246278864748078  0.5809630880364551
  0.4175311670402877  0.0867559253027181  0.6700389162665772
  0.0071414363186122  0.8401210801784842  0.7535711909389136
  0.1676850124027851  0.3328585724387025  0.9135439788152553
  0.2484731465745682  0.0860230334850840  0.9963707045056438
  0.1649806991678204  0.8353381396618289  0.9155505745838965
  0.3378706319599374  0.6707085951241822  0.8371623214594592
  0.1625286829244033  0.6710125240324203  0.6683592220433354
  0.2532946504174305  0.4085527512202418  0.7514110967745395
  0.3348581395500432  0.1658065065310836  0.8338729308899318
  0.9983777087146848  0.6701743498806962  0.9915409001463473
  0.1680915536063168  0.1619125956160943  0.6694641365745113
  0.2539153062167827  0.9192437860661897  0.7542882249695708
  0.4160166813992845  0.4160353485361128  0.9143451847291146
  0.4994336982374747  0.1626751114944440  0.9969743508594746
  0.0815168719959445  0.9223432770229749  0.5834010604952269
  0.4193484987104270  0.9183962048127654  0.9130104515727666
  0.5897724628292664  0.5811299912541159  0.3339194026986050
  0.5050929804831128  0.3249292529939964  0.2540509437623228
  0.5842946954072730  0.0844492467216114  0.3344704161112659
  0.7529634433371584  0.5803302684432197  0.4963807028359497
  0.8309062155161371  0.3238348714718882  0.0793210642567885
  0.9148852609614977  0.0865648881229575  0.1688845842100406
  0.5062149365455326  0.8430465524842106  0.2513754228531013
  0.6658290569728536  0.3316569202198778  0.4144231371299441
  0.7472401630176080  0.0865791694369662  0.4977991628837373
  0.6625386439593797  0.8369730843462548  0.4165816421840418
  0.8260805389209338  0.6748467446473967  0.3347886330474665
  0.6602340572477630  0.6717480656034880  0.1647112243352495
  0.7513973007369898  0.4069877304659713  0.2501450457427978
  0.8323185740345664  0.1633659831082426  0.3336321359130139
  0.5084417375500294  0.6695222370785174  0.5016255731637074
  0.6667558896670158  0.1609234499305359  0.1674146716221756
  0.7510185433164764  0.9201010524533686  0.2530039262221635
  0.9081552197103520  0.4059624812005609  0.4182740953467530
  0.9983207314015274  0.1613730560390891  0.4989969737764923
  0.5822309055906345  0.9218530923999282  0.0802825865514194
  0.9163609575453151  0.9188117908795448  0.4151600835577156
  0.5899428816991374  0.5842039475503427  0.8330133474822929
  0.5023372661230283  0.3267201386066816  0.7534012002532791
  0.5855248603850143  0.0844091058438821  0.8338943807623806
  0.7496879034738910  0.5803206103677496  0.9957747138731250
  0.8316171986257004  0.3228748016711975  0.5818824218738428
  0.9181012932575783  0.0867962903200663  0.6702181112734635
  0.5071566406552037  0.8396277472468086  0.7528178709601718
  0.6681035844954692  0.3327569322216206  0.9132631601237264
  0.7481711874992882  0.0863479564529612  0.9964823915825605
  0.6645601200430775  0.8353696602854015  0.9154338214851947
  0.8364899321192425  0.6710686307317744  0.8362023245399826
  0.6634557471639582  0.6707324433484132  0.6662561210742481
  0.7530378159205995  0.4078855808941029  0.7508695960254457
  0.8344628147990250  0.1655112858206920  0.8334598424927364
  0.5041809961415282  0.6702618988527291  0.9951918831181459
  0.6677034492885312  0.1608834758032245  0.6690677220230512
  0.7535730372717353  0.9194852000529679  0.7543657163587199
  0.9146354273591868  0.4157339558302624  0.9143696931732350
  0.9978507221677475  0.1645251822262992  0.9961550682472691
  0.5812528633758660  0.9218160289309409  0.5822764915463168
  0.9183541695951121  0.9188961043982076  0.9129744445799943
  0.4089697192365023  0.5814993256118797  0.1719556229610646
  0.3320824643812941  0.8391461126412096  0.0824393659559917
  0.0781702876716039  0.4148260764022567  0.0841658066824280
  0.4060465097388146  0.5822720830116879  0.6740853395853250
  0.3275269432456582  0.8382437302197872  0.5851559149389232
  0.0786428468488225  0.4145914688031596  0.5866378591679222
  0.9021766192526215  0.5819442446021412  0.1732337037045255
  0.8279982967740906  0.8381644228281289  0.0830578044153398
  0.5806724905330611  0.4145420086052667  0.0829984322536461
  0.9048406045670845  0.5826875201976733  0.6756023569237044
  0.8259283620435056  0.8411706204777758  0.5859506510439942
  0.5812647382119209  0.4143019542041699  0.5851068698548971
  0.0334886651751702  0.5976177804187159  0.0977250175913085
  0.1277289799560108  0.3195225206701267  0.1947489528803956
  0.2112450460845352  0.0825816423206831  0.2714106716676952
  0.3809674241946155  0.5827707073657393  0.4388813310401787
  0.4520926313578428  0.3235104608569941  0.0121427045497668
  0.0392365915010657  0.0864329264755312  0.1021828365376507
  0.1277651909186730  0.8436173963519806  0.1855306669096919
  0.2947781663449263  0.3295656185518325  0.3538348901483275
  0.3763606086591835  0.0819501526021043  0.4378331211856050
  0.4692066549174356  0.8353106695581474  0.0130124718017726
  0.2922508521005582  0.8365876790382600  0.3558017183295590
  0.4686721614982190  0.6775775689451038  0.2794738394381255
  0.2755315849882720  0.6594905364584349  0.1010389507837814
  0.3789859538268772  0.3946016730579061  0.1845477774332167
  0.4600487468626682  0.1646636222559081  0.2726338655163545
  0.1283268133713378  0.6674456770968860  0.4372119819848308
  0.2168530505225519  0.4137119843000434  0.0146559576189773
  0.2907558837913911  0.1609837828671701  0.1027839599042579
  0.3820060024411944  0.9238776167771263  0.1956128394128882
  0.0396474662396429  0.4151835516647679  0.3538946237718861
  0.1263203226949656  0.1692126726466228  0.4351215971926337
  0.2005710697178742  0.9265264403590692  0.0136780463269091
  0.0453860378581936  0.9200933574355119  0.3532349189565096
  0.2205635521562499  0.5820261924474579  0.7678008518217254
  0.0412767090610089  0.5976028881178124  0.6049269661579757
  0.1325541157342442  0.3235292643246694  0.6960317728241066
  0.2133543202793717  0.0826819175794924  0.7716797983318173
  0.3804298972273585  0.5832672204089207  0.9375156153139343
  0.4516840315576047  0.3247546844845033  0.5128072756082673
  0.0429464496726411  0.0861360344691988  0.6041314790297392
  0.1335934374133672  0.8392723385919325  0.6860309563828153
  0.2966481902660760  0.3318431949824117  0.8528025099613146
  0.3774117783213171  0.0809908980646412  0.9355171902909092
  0.4678589801091420  0.8338556258528200  0.5133828384074945
  0.2947511749832330  0.8335926541067309  0.8551149407226077
  0.4705045856205743  0.6779846089158710  0.7799308947282668
  0.2775631229477753  0.6610060085289504  0.5978836977372595
  0.3789716041238407  0.3957783316142454  0.6852719932829814
  0.4628388043816116  0.1649972122681049  0.7725042821529726
  0.1320803088153539  0.6662878066389766  0.9352484255151978
  0.2168064182549259  0.4140435072045037  0.5138838974483519
  0.2922134127494971  0.1611353079155009  0.6028482392818972
  0.3849799536811958  0.9240807563345683  0.6963065105829571
  0.0453755270729914  0.4193947033480825  0.8525922382186835
  0.1275558547813844  0.1697942363553295  0.9352633213492041
  0.1987664420947937  0.9269825247490289  0.5131967242180266
  0.0481037404634534  0.9210581862087253  0.8533783586508576
  0.7157781347011039  0.5812643331087628  0.2657687267228184
  0.5396630467590739  0.5981419846669311  0.1007821550243477
  0.6309136348412281  0.3230639845826389  0.1941032957608115
  0.7100774478349052  0.0827207467126314  0.2707160985918549
  0.8893533066704791  0.5830632244561613  0.4318073507086666
  0.9516022945641183  0.3245534172797164  0.0124556644498384
  0.5412547157547039  0.0852837494905287  0.1031807185985443
  0.6308922849246983  0.8389646614435549  0.1851257715134267
  0.7924892699572013  0.3293279255041170  0.3513225931643547
  0.8759893216202528  0.0816080060036057  0.4353943515176795
  0.9681732794797711  0.8352318333784581  0.0131188881314088
  0.7909353975020110  0.8364005491383040  0.3547082681048366
  0.9621961138818662  0.6798386793991043  0.2794749537711567
  0.7760136034792922  0.6610937283959046  0.0967974217848280
  0.8777453584761545  0.3954118074747512  0.1850236200392814
  0.9606778635731459  0.1635231373865551  0.2721690234810339
  0.6332191432939211  0.6653707081998661  0.4331457451925260
  0.7181287448567844  0.4138145380840754  0.0134221394714800
  0.7911560328689831  0.1609235436328689  0.1019352690566393
  0.8816156614640818  0.9243935400633276  0.1957090856241805
  0.5432166359651447  0.4184392242527011  0.3518595579131869
  0.6255867688014973  0.1694389730523653  0.4351866776404805
  0.7000236655666612  0.9274963615262521  0.0123500833827137
  0.5443418255684023  0.9205614552629839  0.3526219638092130
  0.7208977014549873  0.5820796865831781  0.7657536136982515
  0.5432083867826805  0.5965506694889555  0.6031121426659354
  0.6324847324792202  0.3230390292188829  0.6949488791038405
  0.7128277462804533  0.0826269338998316  0.7713778561839106
  0.8783403215147487  0.5824612894210048  0.9349661106833267
  0.9515212019932662  0.3213297160714532  0.5145268723966723
  0.5421232998611671  0.0856967527997199  0.6037451865358605
  0.6342016714768661  0.8387978579484781  0.6848299511662077
  0.7964274503737414  0.3313030693949841  0.8519946692456699
  0.8771328173602768  0.0814788486492759  0.9350421794960440
  0.9658607693280885  0.8387440248122573  0.5155854134484343
  0.7943596869741114  0.8337710647270242  0.8547727552634754
  0.9709221752492709  0.6785166933608338  0.7809996975121649
  0.7798562810856851  0.6614732126037950  0.5956228399418535
  0.8794476387077665  0.3954653130590913  0.6853599981740999
  0.9630633345148780  0.1649289198988910  0.7727084240764839
  0.6319453077198460  0.6662001084900737  0.9334558037901743
  0.7205742283232865  0.4144748240175105  0.5124314103102776
  0.7919205173536312  0.1597677832345994  0.6026910550494051
  0.8850858760246822  0.9247210946812103  0.6973545301127047
  0.5456964624842229  0.4194563683201409  0.8517805846268018
  0.6274338319770294  0.1699237311087956  0.9347984166239272
  0.6978693005909022  0.9280361789813441  0.5123805981710348
  0.5478941449943378  0.9208527662160222  0.8524164238679717
 
  0.00000000E+00  0.00000000E+00  0.00000000E+00
  0.00000000E+00  0.00000000E+00  0.00000000E+00
  0.00000000E+00  0.00000000E+00  0.00000000E+00
  0.00000000E+00  0.00000000E+00  0.00000000E+00
  0.00000000E+00  0.00000000E+00  0.00000000E+00
  0.00000000E+00  0.00000000E+00  0.00000000E+00
  0.00000000E+00  0.00000000E+00  0.00000000E+00
  0.00000000E+00  0.00000000E+00  0.00000000E+00
  0.00000000E+00  0.00000000E+00  0.00000000E+00
  0.00000000E+00  0.00000000E+00  0.00000000E+00
  0.00000000E+00  0.00000000E+00  0.00000000E+00
  0.00000000E+00  0.00000000E+00  0.00000000E+00
  0.00000000E+00  0.00000000E+00  0.00000000E+00
  0.00000000E+00  0.00000000E+00  0.00000000E+00
  0.00000000E+00  0.00000000E+00  0.00000000E+00
  0.00000000E+00  0.00000000E+00  0.00000000E+00
  0.00000000E+00  0.00000000E+00  0.00000000E+00
  0.00000000E+00  0.00000000E+00  0.00000000E+00
  0.00000000E+00  0.00000000E+00  0.00000000E+00
  0.00000000E+00  0.00000000E+00  0.00000000E+00
  0.00000000E+00  0.00000000E+00  0.00000000E+00
  0.00000000E+00  0.00000000E+00  0.00000000E+00
  0.00000000E+00  0.00000000E+00  0.00000000E+00
  0.00000000E+00  0.00000000E+00  0.00000000E+00
  0.00000000E+00  0.00000000E+00  0.00000000E+00
  0.00000000E+00  0.00000000E+00  0.00000000E+00
  0.00000000E+00  0.00000000E+00  0.00000000E+00
  0.00000000E+00  0.00000000E+00  0.00000000E+00
  0.00000000E+00  0.00000000E+00  0.00000000E+00
  0.00000000E+00  0.00000000E+00  0.00000000E+00
  0.00000000E+00  0.00000000E+00  0.00000000E+00
  0.00000000E+00  0.00000000E+00  0.00000000E+00
  0.00000000E+00  0.00000000E+00  0.00000000E+00
  0.00000000E+00  0.00000000E+00  0.00000000E+00
  0.00000000E+00  0.00000000E+00  0.00000000E+00
  0.00000000E+00  0.00000000E+00  0.00000000E+00
  0.00000000E+00  0.00000000E+00  0.00000000E+00
  0.00000000E+00  0.00000000E+00  0.00000000E+00
  0.00000000E+00  0.00000000E+00  0.00000000E+00
  0.00000000E+00  0.00000000E+00  0.00000000E+00
  0.00000000E+00  0.00000000E+00  0.00000000E+00
  0.00000000E+00  0.00000000E+00  0.00000000E+00
  0.00000000E+00  0.00000000E+00  0.00000000E+00
  0.00000000E+00  0.00000000E+00  0.00000000E+00
  0.00000000E+00  0.00000000E+00  0.00000000E+00
  0.00000000E+00  0.00000000E+00  0.00000000E+00
  0.00000000E+00  0.00000000E+00  0.00000000E+00
  0.00000000E+00  0.00000000E+00  0.00000000E+00
  0.00000000E+00  0.00000000E+00  0.00000000E+00
  0.00000000E+00  0.00000000E+00  0.00000000E+00
  0.00000000E+00  0.00000000E+00  0.00000000E+00
  0.00000000E+00  0.00000000E+00  0.00000000E+00
  0.00000000E+00  0.00000000E+00  0.00000000E+00
  0.00000000E+00  0.00000000E+00  0.00000000E+00
  0.00000000E+00  0.00000000E+00  0.00000000E+00
  0.00000000E+00  0.00000000E+00  0.00000000E+00
  0.00000000E+00  0.00000000E+00  0.00000000E+00
  0.00000000E+00  0.00000000E+00  0.00000000E+00
  0.00000000E+00  0.00000000E+00  0.00000000E+00
  0.00000000E+00  0.00000000E+00  0.00000000E+00
  0.00000000E+00  0.00000000E+00  0.00000000E+00
  0.00000000E+00  0.00000000E+00  0.00000000E+00
  0.00000000E+00  0.00000000E+00  0.00000000E+00
  0.00000000E+00  0.00000000E+00  0.00000000E+00
  0.00000000E+00  0.00000000E+00  0.00000000E+00
  0.00000000E+00  0.00000000E+00  0.00000000E+00
  0.00000000E+00  0.00000000E+00  0.00000000E+00
  0.00000000E+00  0.00000000E+00  0.00000000E+00
  0.00000000E+00  0.00000000E+00  0.00000000E+00
  0.00000000E+00  0.00000000E+00  0.00000000E+00
  0.00000000E+00  0.00000000E+00  0.00000000E+00
  0.00000000E+00  0.00000000E+00  0.00000000E+00
  0.00000000E+00  0.00000000E+00  0.00000000E+00
  0.00000000E+00  0.00000000E+00  0.00000000E+00
  0.00000000E+00  0.00000000E+00  0.00000000E+00
  0.00000000E+00  0.00000000E+00  0.00000000E+00
  0.00000000E+00  0.00000000E+00  0.00000000E+00
  0.00000000E+00  0.00000000E+00  0.00000000E+00
  0.00000000E+00  0.00000000E+00  0.00000000E+00
  0.00000000E+00  0.00000000E+00  0.00000000E+00
  0.00000000E+00  0.00000000E+00  0.00000000E+00
  0.00000000E+00  0.00000000E+00  0.00000000E+00
  0.00000000E+00  0.00000000E+00  0.00000000E+00
  0.00000000E+00  0.00000000E+00  0.00000000E+00
  0.00000000E+00  0.00000000E+00  0.00000000E+00
  0.00000000E+00  0.00000000E+00  0.00000000E+00
  0.00000000E+00  0.00000000E+00  0.00000000E+00
  0.00000000E+00  0.00000000E+00  0.00000000E+00
  0.00000000E+00  0.00000000E+00  0.00000000E+00
  0.00000000E+00  0.00000000E+00  0.00000000E+00
  0.00000000E+00  0.00000000E+00  0.00000000E+00
  0.00000000E+00  0.00000000E+00  0.00000000E+00
  0.00000000E+00  0.00000000E+00  0.00000000E+00
  0.00000000E+00  0.00000000E+00  0.00000000E+00
  0.00000000E+00  0.00000000E+00  0.00000000E+00
  0.00000000E+00  0.00000000E+00  0.00000000E+00
  0.00000000E+00  0.00000000E+00  0.00000000E+00
  0.00000000E+00  0.00000000E+00  0.00000000E+00
  0.00000000E+00  0.00000000E+00  0.00000000E+00
  0.00000000E+00  0.00000000E+00  0.00000000E+00
  0.00000000E+00  0.00000000E+00  0.00000000E+00
  0.00000000E+00  0.00000000E+00  0.00000000E+00
  0.00000000E+00  0.00000000E+00  0.00000000E+00
  0.00000000E+00  0.00000000E+00  0.00000000E+00
  0.00000000E+00  0.00000000E+00  0.00000000E+00
  0.00000000E+00  0.00000000E+00  0.00000000E+00
  0.00000000E+00  0.00000000E+00  0.00000000E+00
  0.00000000E+00  0.00000000E+00  0.00000000E+00
  0.00000000E+00  0.00000000E+00  0.00000000E+00
  0.00000000E+00  0.00000000E+00  0.00000000E+00
  0.00000000E+00  0.00000000E+00  0.00000000E+00
  0.00000000E+00  0.00000000E+00  0.00000000E+00
  0.00000000E+00  0.00000000E+00  0.00000000E+00
  0.00000000E+00  0.00000000E+00  0.00000000E+00
  0.00000000E+00  0.00000000E+00  0.00000000E+00
  0.00000000E+00  0.00000000E+00  0.00000000E+00
  0.00000000E+00  0.00000000E+00  0.00000000E+00
  0.00000000E+00  0.00000000E+00  0.00000000E+00
  0.00000000E+00  0.00000000E+00  0.00000000E+00
  0.00000000E+00  0.00000000E+00  0.00000000E+00
  0.00000000E+00  0.00000000E+00  0.00000000E+00
  0.00000000E+00  0.00000000E+00  0.00000000E+00
  0.00000000E+00  0.00000000E+00  0.00000000E+00
  0.00000000E+00  0.00000000E+00  0.00000000E+00
  0.00000000E+00  0.00000000E+00  0.00000000E+00
  0.00000000E+00  0.00000000E+00  0.00000000E+00
  0.00000000E+00  0.00000000E+00  0.00000000E+00
  0.00000000E+00  0.00000000E+00  0.00000000E+00
  0.00000000E+00  0.00000000E+00  0.00000000E+00
  0.00000000E+00  0.00000000E+00  0.00000000E+00
  0.00000000E+00  0.00000000E+00  0.00000000E+00
  0.00000000E+00  0.00000000E+00  0.00000000E+00
  0.00000000E+00  0.00000000E+00  0.00000000E+00
  0.00000000E+00  0.00000000E+00  0.00000000E+00
  0.00000000E+00  0.00000000E+00  0.00000000E+00
  0.00000000E+00  0.00000000E+00  0.00000000E+00
  0.00000000E+00  0.00000000E+00  0.00000000E+00
  0.00000000E+00  0.00000000E+00  0.00000000E+00
  0.00000000E+00  0.00000000E+00  0.00000000E+00
  0.00000000E+00  0.00000000E+00  0.00000000E+00
  0.00000000E+00  0.00000000E+00  0.00000000E+00
  0.00000000E+00  0.00000000E+00  0.00000000E+00
  0.00000000E+00  0.00000000E+00  0.00000000E+00
  0.00000000E+00  0.00000000E+00  0.00000000E+00
  0.00000000E+00  0.00000000E+00  0.00000000E+00
  0.00000000E+00  0.00000000E+00  0.00000000E+00
  0.00000000E+00  0.00000000E+00  0.00000000E+00
  0.00000000E+00  0.00000000E+00  0.00000000E+00
  0.00000000E+00  0.00000000E+00  0.00000000E+00
  0.00000000E+00  0.00000000E+00  0.00000000E+00
  0.00000000E+00  0.00000000E+00  0.00000000E+00
  0.00000000E+00  0.00000000E+00  0.00000000E+00
  0.00000000E+00  0.00000000E+00  0.00000000E+00
  0.00000000E+00  0.00000000E+00  0.00000000E+00
  0.00000000E+00  0.00000000E+00  0.00000000E+00
  0.00000000E+00  0.00000000E+00  0.00000000E+00
  0.00000000E+00  0.00000000E+00  0.00000000E+00
  0.00000000E+00  0.00000000E+00  0.00000000E+00
  0.00000000E+00  0.00000000E+00  0.00000000E+00
  0.00000000E+00  0.00000000E+00  0.00000000E+00
  0.00000000E+00  0.00000000E+00  0.00000000E+00
  0.00000000E+00  0.00000000E+00  0.00000000E+00
  0.00000000E+00  0.00000000E+00  0.00000000E+00
  0.00000000E+00  0.00000000E+00  0.00000000E+00
  0.00000000E+00  0.00000000E+00  0.00000000E+00
  0.00000000E+00  0.00000000E+00  0.00000000E+00
  0.00000000E+00  0.00000000E+00  0.00000000E+00
  0.00000000E+00  0.00000000E+00  0.00000000E+00
  0.00000000E+00  0.00000000E+00  0.00000000E+00
  0.00000000E+00  0.00000000E+00  0.00000000E+00
  0.00000000E+00  0.00000000E+00  0.00000000E+00
  0.00000000E+00  0.00000000E+00  0.00000000E+00
  0.00000000E+00  0.00000000E+00  0.00000000E+00
  0.00000000E+00  0.00000000E+00  0.00000000E+00
  0.00000000E+00  0.00000000E+00  0.00000000E+00
  0.00000000E+00  0.00000000E+00  0.00000000E+00
  0.00000000E+00  0.00000000E+00  0.00000000E+00
  0.00000000E+00  0.00000000E+00  0.00000000E+00
  0.00000000E+00  0.00000000E+00  0.00000000E+00
  0.00000000E+00  0.00000000E+00  0.00000000E+00
  0.00000000E+00  0.00000000E+00  0.00000000E+00
  0.00000000E+00  0.00000000E+00  0.00000000E+00
  0.00000000E+00  0.00000000E+00  0.00000000E+00
  0.00000000E+00  0.00000000E+00  0.00000000E+00
  0.00000000E+00  0.00000000E+00  0.00000000E+00
  0.00000000E+00  0.00000000E+00  0.00000000E+00
  0.00000000E+00  0.00000000E+00  0.00000000E+00
  0.00000000E+00  0.00000000E+00  0.00000000E+00
  0.00000000E+00  0.00000000E+00  0.00000000E+00
  0.00000000E+00  0.00000000E+00  0.00000000E+00
  0.00000000E+00  0.00000000E+00  0.00000000E+00
