supercell of POSCAR                     
   1.01189200000000     
     3.1482772356600002   -5.4762754812200001    9.9674464565599994
    -9.4511209497999999   -5.4731922780100000    0.0032121685426600
     6.3112884282600001  -10.9581161277000003   -9.9749049577999997
   Al   Sc   N 
    84    12    95
Direct
  0.0842119114518098  0.5837818641867329  0.3342628034620105
  0.9998323136124014  0.3267568884366696  0.2528796330057617
  0.0814067424161209  0.0846864245768515  0.3339617063689531
  0.1956659166011434  0.5803015544146248  0.5217734189199064
  0.3317035196506168  0.3235885413907909  0.0795747388100096
  0.4167910383493805  0.0861983159699022  0.1684133101039436
  0.0034311765346544  0.8395923096814215  0.2527555900359673
  0.1628685990106646  0.3332793810615726  0.4154585441475902
  0.2451580583258774  0.0864596121770873  0.4979469415504454
  0.1597906051459006  0.8371268622534060  0.4169413302487328
  0.3214881041555842  0.6893421042463572  0.3152657481452579
  0.1583629981280978  0.6716369348240789  0.1629951340891225
  0.2504657689751113  0.4078198777195752  0.2498006281579492
  0.3298099574815581  0.1602111717888874  0.3321973035696999
  0.9923627310782166  0.6744843462876773  0.4937225351407051
  0.1658399456766730  0.1625658957196094  0.1672051527131444
  0.2484258956189223  0.9230271691487246  0.2513278126404686
  0.4217528209452794  0.3750135037188400  0.4099826703202254
  0.4978313514942698  0.1586224515693004  0.5000080603127159
  0.0817626239042468  0.9215242479457117  0.0806599603514613
  0.4175887995177447  0.9192485226490561  0.4138572471642661
  0.0904144524610331  0.5830730297873075  0.8348511252204176
  0.0035183837386228  0.3255243063548079  0.7564255225522132
  0.0861178352214793  0.0836653459388828  0.8349203805759018
  0.2511161868715845  0.5800603399434507  0.9967171101565526
  0.3271347927083212  0.3241042566130616  0.5824771373962534
  0.4167165559592405  0.0872941010940025  0.6712539446792363
  0.0066642947647608  0.8409820815194067  0.7536611917776312
  0.1693142967755605  0.3325104000472194  0.9145770771914599
  0.2490125588348278  0.0857309772016208  0.9972638146816308
  0.1654530189945689  0.8348844782581821  0.9162744137483827
  0.3390456356692511  0.6703322615123284  0.8385128859246436
  0.1637645283950562  0.6736469644316898  0.6717091153565633
  0.2543420722056524  0.4075774524484004  0.7522063931523348
  0.3355180125806925  0.1654322652548004  0.8349133205914328
  0.0038195947750808  0.6702626923125976  0.9961277605988741
  0.1679834106379801  0.1585609282414282  0.6703278783087470
  0.2543696497643992  0.9187361703486943  0.7552574828427154
  0.4165008779830401  0.4155737617169066  0.9159095194420956
  0.4999066684886770  0.1630488158733883  0.9978583191804447
  0.0793675697239138  0.9217369224120375  0.5822495373000649
  0.4199180208003099  0.9180131291884592  0.9143742767152574
  0.5859658391948699  0.5843450484066608  0.3339469864811164
  0.5003993748648270  0.3252581394887741  0.2498498122695523
  0.5833896307172779  0.0850439452775760  0.3336209081375898
  0.7503939362620002  0.5777062467392398  0.4969744097703028
  0.8322105691579651  0.3238331901865905  0.0796925828026787
  0.9168623186939300  0.0864911384323648  0.1686587944567677
  0.5056291673687809  0.8418525744174801  0.2522849130725433
  0.6689956464749329  0.3318714929313700  0.4146174962527311
  0.7464663274761847  0.0868708318501135  0.4972764326771326
  0.6649585230441133  0.8397006802962181  0.4137595826494689
  0.8332822660973562  0.6699302055085994  0.3349642315422869
  0.6617633480006404  0.6709603194394020  0.1652818513061405
  0.7509750955039465  0.4086884676103963  0.2498139386996527
  0.8321326765583876  0.1652483523354746  0.3328102791982204
  0.5351202325659941  0.6934888228769296  0.5140573352405511
  0.6673537560057952  0.1609905571318322  0.1677164283896033
  0.7517365741976789  0.9193425996208830  0.2524887309499277
  0.9127492965543809  0.4146349655490909  0.4140946078393526
  0.9956208708370795  0.1606434358531672  0.4970120239154596
  0.5822573796010175  0.9208910976161206  0.0807549735480109
  0.9154847368616643  0.9186835891884968  0.4134390974096647
  0.5904599075281993  0.5835839639194731  0.8349900126958119
  0.5037397273407436  0.3268960433447958  0.7547064960947765
  0.5860079094263781  0.0842190586788902  0.8349539745099790
  0.7519563284636703  0.5809332997924130  0.9962450701266832
  0.8277698276716734  0.3224927792746399  0.5798524454431870
  0.9175109773282273  0.0870657735167129  0.6701458603956354
  0.5071342213630459  0.8397896208440443  0.7538619621345148
  0.6697731238432141  0.3328638581504961  0.9134252163455159
  0.7489639654527878  0.0860161458168420  0.9972087289078573
  0.6658914909174172  0.8347501157476458  0.9160054704608598
  0.8396568868204071  0.6697665227202450  0.8364389826287209
  0.6666713450074511  0.6701819376149416  0.6709453072931240
  0.7560894575169712  0.4096419476863531  0.7505101552150748
  0.8352693760130450  0.1650750505965988  0.8345121432527520
  0.5046956030687042  0.6702309304905967  0.9965988363084577
  0.6682844450832661  0.1623219009833718  0.6702992822357317
  0.7545396174395478  0.9197622216923733  0.7551964572597782
  0.9159805108152881  0.4157515037191786  0.9156750932480833
  0.9994468998311916  0.1628244547801501  0.9975178869433847
  0.5821430127915050  0.9268565570380218  0.5848077515244086
  0.9195995829595063  0.9180188919817951  0.9142945177687096
  0.4079562735131077  0.5798545688124008  0.1702468640528423
  0.3296529960772503  0.8378629426996085  0.0833372307937026
  0.0798344146887473  0.4145225246236279  0.0837683982432651
  0.4059270628719176  0.5828895833525749  0.6753398791057705
  0.3261890399257581  0.8409180832220216  0.5850880191429155
  0.0692331003909530  0.4001412907700583  0.5894800180685920
  0.9061806439593738  0.5820288565697069  0.1718134064374794
  0.8298137430138581  0.8381573297298459  0.0831253514479044
  0.5823224877178319  0.4147298415415079  0.0829130006084426
  0.9125181541548599  0.5839655389778997  0.6693654209148647
  0.8247996920712595  0.8415386103583984  0.5854152848422132
  0.5768234181210019  0.4140321735897032  0.5861499286831560
  0.2144573730016219  0.5816827015914257  0.2673538819881642
  0.0403258449533652  0.5972587835571943  0.1003196445419832
  0.1300374804362434  0.3238214812301550  0.1952825341237201
  0.2081735388385155  0.0832971723779110  0.2705760992849378
  0.4528015406698600  0.3235086278051043  0.0133589766654012
  0.0420396052385854  0.0852627992769470  0.1031786835357025
  0.1308529841701684  0.8382597827692351  0.1858418348059487
  0.2907253711613009  0.3290935063469860  0.3520104086222062
  0.3749233649752810  0.0812127575166670  0.4355403173120820
  0.4689529555912344  0.8350419239656048  0.0138108273405493
  0.2898605957502554  0.8378197251865842  0.3553507598302446
  0.4638452142577378  0.6769102364550648  0.2821893935533453
  0.2780763101020867  0.6605051688473580  0.0983472030237920
  0.3761652772627926  0.3955649772316931  0.1856373836853038
  0.4595476715441720  0.1651452808863709  0.2727899159536307
  0.1263525625304851  0.6682645760278376  0.4337597392160149
  0.2188147138553660  0.4138050697317439  0.0142172155343161
  0.2917837800370791  0.1606523151905677  0.1026588886613879
  0.3817660169277914  0.9239912663249541  0.1970486316231259
  0.0429979052430269  0.4190524879873863  0.3523583854617698
  0.1248511180139644  0.1696024436570696  0.4350984264373920
  0.2007953728394085  0.9268155910621800  0.0130694051576583
  0.0441953738795249  0.9208118140641233  0.3527860968482415
  0.2213480517837922  0.5811866230723197  0.7676706537092599
  0.0549379412351527  0.5934335039868728  0.5932701917590961
  0.1342299802047080  0.3199790451058746  0.6985061280340616
  0.2140085808206464  0.0814331741972723  0.7722997692576783
  0.3819032068529893  0.5827422217327367  0.9373214344954732
  0.4479326951570144  0.3206095113763254  0.5145526067960873
  0.0415519319884012  0.0866640947234458  0.6033400818384109
  0.1326318459998532  0.8401578726811252  0.6857169425187237
  0.2980654322839982  0.3314534860484031  0.8530058911648268
  0.3784154046838708  0.0808847527370631  0.9357966229874961
  0.4672878425586191  0.8403800174045841  0.5152356427740941
  0.2955684194594497  0.8330395511634592  0.8551096427440115
  0.4717434673184329  0.6776409693386043  0.7802255531395375
  0.2796881211558286  0.6644280659713502  0.6003878214681606
  0.3806529777857435  0.3958926558392832  0.6848939154169926
  0.4635527732905018  0.1652567641614553  0.7728741554613521
  0.1328197740008292  0.6661812004608905  0.9341784429415654
  0.2111450375250286  0.4130606651813764  0.5169016617035211
  0.2912027429493520  0.1597452054495463  0.6028592488607245
  0.3851921965019969  0.9240500443944484  0.6965736213318223
  0.0464663857619172  0.4188777433519846  0.8530401390745013
  0.1283284963953690  0.1694893493483676  0.9351584550559622
  0.1971386539595699  0.9273431939712609  0.5129382811588883
  0.0482986079597723  0.9201372745847820  0.8531684220755622
  0.7137276465403914  0.5818209132746759  0.2675838082050177
  0.5420946310075294  0.5973504130969545  0.1010849973136061
  0.6304277136970384  0.3230843953376876  0.1947584856619073
  0.7101658434280225  0.0824182680656875  0.2711235029314523
  0.8763220455973340  0.5822571061550263  0.4350230685086203
  0.9523116489813859  0.3230637962502456  0.0125739350032461
  0.5421175032767778  0.0847569835395490  0.1036403943217650
  0.6304256199304490  0.8380284100887323  0.1858828953457703
  0.7934210527065773  0.3318247190401564  0.3513874452806434
  0.8738120062285901  0.0806570466312735  0.4344979013335717
  0.9692124493445036  0.8352455782861483  0.0135148636326363
  0.7923985110536904  0.8333676748991579  0.3537460641765122
  0.9667079181359242  0.6774041523387382  0.2795249766568517
  0.7778776503034379  0.6613312237981219  0.0973802821861227
  0.8767736824006604  0.3961476339056631  0.1851825348188640
  0.9601323199683947  0.1651067018578019  0.2720167725801019
  0.6301584056595644  0.6670378596253386  0.4342058365402579
  0.7200985889385976  0.4141069755485347  0.0129273130560250
  0.7918917631132274  0.1609034444510868  0.1023187106024324
  0.8826195642691843  0.9244374584306243  0.1958302221816908
  0.5415362543305093  0.4188107614835346  0.3527210961573601
  0.6240529194313424  0.1704572864887126  0.4352886915480099
  0.7005963075144095  0.9270936343125200  0.0126998730992227
  0.5448970885200453  0.9210137162483605  0.3526382511366677
  0.7220009584970626  0.5812129802153407  0.7676700691078153
  0.5440787690609170  0.5986453121537210  0.6045209166511540
  0.6343108172915493  0.3249288903148937  0.6952082174444669
  0.7132418221829440  0.0827937345712328  0.7717809612397417
  0.8821398444279254  0.5833373978024454  0.9358504244447587
  0.9454335182014901  0.3203426426355307  0.5102383293868300
  0.5418436201335837  0.0879057569261832  0.6052824251471591
  0.6346289177818178  0.8389753118325132  0.6852338417172987
  0.7984469070363929  0.3317837465475861  0.8511356228499025
  0.8779397972351148  0.0808152170902474  0.9354164682472117
  0.9637220876892343  0.8373015147107452  0.5144640249562968
  0.7961199479482914  0.8326527372123209  0.8544331023453680
  0.9726970458774247  0.6762873788236021  0.7767647074975983
  0.7790061587594437  0.6608359092607685  0.5967341187107209
  0.8846641982076804  0.3975401051717498  0.6824480295289206
  0.9630301383886888  0.1640530363629082  0.7727164856538309
  0.6330919812554114  0.6663103853744659  0.9342782986877438
  0.7140171920181260  0.4135114336436914  0.5144688207357149
  0.7908895936948994  0.1595584365203919  0.6027098656299046
  0.8848236729509082  0.9245961886131440  0.6965343760713836
  0.5464198537088052  0.4190146540998612  0.8524219204228984
  0.6284997408920887  0.1701761622238323  0.9351299333270191
  0.6961167161632105  0.9280006159843026  0.5122265065591094
  0.5487586057586924  0.9205455379030099  0.8529704318380595
 
  0.00000000E+00  0.00000000E+00  0.00000000E+00
  0.00000000E+00  0.00000000E+00  0.00000000E+00
  0.00000000E+00  0.00000000E+00  0.00000000E+00
  0.00000000E+00  0.00000000E+00  0.00000000E+00
  0.00000000E+00  0.00000000E+00  0.00000000E+00
  0.00000000E+00  0.00000000E+00  0.00000000E+00
  0.00000000E+00  0.00000000E+00  0.00000000E+00
  0.00000000E+00  0.00000000E+00  0.00000000E+00
  0.00000000E+00  0.00000000E+00  0.00000000E+00
  0.00000000E+00  0.00000000E+00  0.00000000E+00
  0.00000000E+00  0.00000000E+00  0.00000000E+00
  0.00000000E+00  0.00000000E+00  0.00000000E+00
  0.00000000E+00  0.00000000E+00  0.00000000E+00
  0.00000000E+00  0.00000000E+00  0.00000000E+00
  0.00000000E+00  0.00000000E+00  0.00000000E+00
  0.00000000E+00  0.00000000E+00  0.00000000E+00
  0.00000000E+00  0.00000000E+00  0.00000000E+00
  0.00000000E+00  0.00000000E+00  0.00000000E+00
  0.00000000E+00  0.00000000E+00  0.00000000E+00
  0.00000000E+00  0.00000000E+00  0.00000000E+00
  0.00000000E+00  0.00000000E+00  0.00000000E+00
  0.00000000E+00  0.00000000E+00  0.00000000E+00
  0.00000000E+00  0.00000000E+00  0.00000000E+00
  0.00000000E+00  0.00000000E+00  0.00000000E+00
  0.00000000E+00  0.00000000E+00  0.00000000E+00
  0.00000000E+00  0.00000000E+00  0.00000000E+00
  0.00000000E+00  0.00000000E+00  0.00000000E+00
  0.00000000E+00  0.00000000E+00  0.00000000E+00
  0.00000000E+00  0.00000000E+00  0.00000000E+00
  0.00000000E+00  0.00000000E+00  0.00000000E+00
  0.00000000E+00  0.00000000E+00  0.00000000E+00
  0.00000000E+00  0.00000000E+00  0.00000000E+00
  0.00000000E+00  0.00000000E+00  0.00000000E+00
  0.00000000E+00  0.00000000E+00  0.00000000E+00
  0.00000000E+00  0.00000000E+00  0.00000000E+00
  0.00000000E+00  0.00000000E+00  0.00000000E+00
  0.00000000E+00  0.00000000E+00  0.00000000E+00
  0.00000000E+00  0.00000000E+00  0.00000000E+00
  0.00000000E+00  0.00000000E+00  0.00000000E+00
  0.00000000E+00  0.00000000E+00  0.00000000E+00
  0.00000000E+00  0.00000000E+00  0.00000000E+00
  0.00000000E+00  0.00000000E+00  0.00000000E+00
  0.00000000E+00  0.00000000E+00  0.00000000E+00
  0.00000000E+00  0.00000000E+00  0.00000000E+00
  0.00000000E+00  0.00000000E+00  0.00000000E+00
  0.00000000E+00  0.00000000E+00  0.00000000E+00
  0.00000000E+00  0.00000000E+00  0.00000000E+00
  0.00000000E+00  0.00000000E+00  0.00000000E+00
  0.00000000E+00  0.00000000E+00  0.00000000E+00
  0.00000000E+00  0.00000000E+00  0.00000000E+00
  0.00000000E+00  0.00000000E+00  0.00000000E+00
  0.00000000E+00  0.00000000E+00  0.00000000E+00
  0.00000000E+00  0.00000000E+00  0.00000000E+00
  0.00000000E+00  0.00000000E+00  0.00000000E+00
  0.00000000E+00  0.00000000E+00  0.00000000E+00
  0.00000000E+00  0.00000000E+00  0.00000000E+00
  0.00000000E+00  0.00000000E+00  0.00000000E+00
  0.00000000E+00  0.00000000E+00  0.00000000E+00
  0.00000000E+00  0.00000000E+00  0.00000000E+00
  0.00000000E+00  0.00000000E+00  0.00000000E+00
  0.00000000E+00  0.00000000E+00  0.00000000E+00
  0.00000000E+00  0.00000000E+00  0.00000000E+00
  0.00000000E+00  0.00000000E+00  0.00000000E+00
  0.00000000E+00  0.00000000E+00  0.00000000E+00
  0.00000000E+00  0.00000000E+00  0.00000000E+00
  0.00000000E+00  0.00000000E+00  0.00000000E+00
  0.00000000E+00  0.00000000E+00  0.00000000E+00
  0.00000000E+00  0.00000000E+00  0.00000000E+00
  0.00000000E+00  0.00000000E+00  0.00000000E+00
  0.00000000E+00  0.00000000E+00  0.00000000E+00
  0.00000000E+00  0.00000000E+00  0.00000000E+00
  0.00000000E+00  0.00000000E+00  0.00000000E+00
  0.00000000E+00  0.00000000E+00  0.00000000E+00
  0.00000000E+00  0.00000000E+00  0.00000000E+00
  0.00000000E+00  0.00000000E+00  0.00000000E+00
  0.00000000E+00  0.00000000E+00  0.00000000E+00
  0.00000000E+00  0.00000000E+00  0.00000000E+00
  0.00000000E+00  0.00000000E+00  0.00000000E+00
  0.00000000E+00  0.00000000E+00  0.00000000E+00
  0.00000000E+00  0.00000000E+00  0.00000000E+00
  0.00000000E+00  0.00000000E+00  0.00000000E+00
  0.00000000E+00  0.00000000E+00  0.00000000E+00
  0.00000000E+00  0.00000000E+00  0.00000000E+00
  0.00000000E+00  0.00000000E+00  0.00000000E+00
  0.00000000E+00  0.00000000E+00  0.00000000E+00
  0.00000000E+00  0.00000000E+00  0.00000000E+00
  0.00000000E+00  0.00000000E+00  0.00000000E+00
  0.00000000E+00  0.00000000E+00  0.00000000E+00
  0.00000000E+00  0.00000000E+00  0.00000000E+00
  0.00000000E+00  0.00000000E+00  0.00000000E+00
  0.00000000E+00  0.00000000E+00  0.00000000E+00
  0.00000000E+00  0.00000000E+00  0.00000000E+00
  0.00000000E+00  0.00000000E+00  0.00000000E+00
  0.00000000E+00  0.00000000E+00  0.00000000E+00
  0.00000000E+00  0.00000000E+00  0.00000000E+00
  0.00000000E+00  0.00000000E+00  0.00000000E+00
  0.00000000E+00  0.00000000E+00  0.00000000E+00
  0.00000000E+00  0.00000000E+00  0.00000000E+00
  0.00000000E+00  0.00000000E+00  0.00000000E+00
  0.00000000E+00  0.00000000E+00  0.00000000E+00
  0.00000000E+00  0.00000000E+00  0.00000000E+00
  0.00000000E+00  0.00000000E+00  0.00000000E+00
  0.00000000E+00  0.00000000E+00  0.00000000E+00
  0.00000000E+00  0.00000000E+00  0.00000000E+00
  0.00000000E+00  0.00000000E+00  0.00000000E+00
  0.00000000E+00  0.00000000E+00  0.00000000E+00
  0.00000000E+00  0.00000000E+00  0.00000000E+00
  0.00000000E+00  0.00000000E+00  0.00000000E+00
  0.00000000E+00  0.00000000E+00  0.00000000E+00
  0.00000000E+00  0.00000000E+00  0.00000000E+00
  0.00000000E+00  0.00000000E+00  0.00000000E+00
  0.00000000E+00  0.00000000E+00  0.00000000E+00
  0.00000000E+00  0.00000000E+00  0.00000000E+00
  0.00000000E+00  0.00000000E+00  0.00000000E+00
  0.00000000E+00  0.00000000E+00  0.00000000E+00
  0.00000000E+00  0.00000000E+00  0.00000000E+00
  0.00000000E+00  0.00000000E+00  0.00000000E+00
  0.00000000E+00  0.00000000E+00  0.00000000E+00
  0.00000000E+00  0.00000000E+00  0.00000000E+00
  0.00000000E+00  0.00000000E+00  0.00000000E+00
  0.00000000E+00  0.00000000E+00  0.00000000E+00
  0.00000000E+00  0.00000000E+00  0.00000000E+00
  0.00000000E+00  0.00000000E+00  0.00000000E+00
  0.00000000E+00  0.00000000E+00  0.00000000E+00
  0.00000000E+00  0.00000000E+00  0.00000000E+00
  0.00000000E+00  0.00000000E+00  0.00000000E+00
  0.00000000E+00  0.00000000E+00  0.00000000E+00
  0.00000000E+00  0.00000000E+00  0.00000000E+00
  0.00000000E+00  0.00000000E+00  0.00000000E+00
  0.00000000E+00  0.00000000E+00  0.00000000E+00
  0.00000000E+00  0.00000000E+00  0.00000000E+00
  0.00000000E+00  0.00000000E+00  0.00000000E+00
  0.00000000E+00  0.00000000E+00  0.00000000E+00
  0.00000000E+00  0.00000000E+00  0.00000000E+00
  0.00000000E+00  0.00000000E+00  0.00000000E+00
  0.00000000E+00  0.00000000E+00  0.00000000E+00
  0.00000000E+00  0.00000000E+00  0.00000000E+00
  0.00000000E+00  0.00000000E+00  0.00000000E+00
  0.00000000E+00  0.00000000E+00  0.00000000E+00
  0.00000000E+00  0.00000000E+00  0.00000000E+00
  0.00000000E+00  0.00000000E+00  0.00000000E+00
  0.00000000E+00  0.00000000E+00  0.00000000E+00
  0.00000000E+00  0.00000000E+00  0.00000000E+00
  0.00000000E+00  0.00000000E+00  0.00000000E+00
  0.00000000E+00  0.00000000E+00  0.00000000E+00
  0.00000000E+00  0.00000000E+00  0.00000000E+00
  0.00000000E+00  0.00000000E+00  0.00000000E+00
  0.00000000E+00  0.00000000E+00  0.00000000E+00
  0.00000000E+00  0.00000000E+00  0.00000000E+00
  0.00000000E+00  0.00000000E+00  0.00000000E+00
  0.00000000E+00  0.00000000E+00  0.00000000E+00
  0.00000000E+00  0.00000000E+00  0.00000000E+00
  0.00000000E+00  0.00000000E+00  0.00000000E+00
  0.00000000E+00  0.00000000E+00  0.00000000E+00
  0.00000000E+00  0.00000000E+00  0.00000000E+00
  0.00000000E+00  0.00000000E+00  0.00000000E+00
  0.00000000E+00  0.00000000E+00  0.00000000E+00
  0.00000000E+00  0.00000000E+00  0.00000000E+00
  0.00000000E+00  0.00000000E+00  0.00000000E+00
  0.00000000E+00  0.00000000E+00  0.00000000E+00
  0.00000000E+00  0.00000000E+00  0.00000000E+00
  0.00000000E+00  0.00000000E+00  0.00000000E+00
  0.00000000E+00  0.00000000E+00  0.00000000E+00
  0.00000000E+00  0.00000000E+00  0.00000000E+00
  0.00000000E+00  0.00000000E+00  0.00000000E+00
  0.00000000E+00  0.00000000E+00  0.00000000E+00
  0.00000000E+00  0.00000000E+00  0.00000000E+00
  0.00000000E+00  0.00000000E+00  0.00000000E+00
  0.00000000E+00  0.00000000E+00  0.00000000E+00
  0.00000000E+00  0.00000000E+00  0.00000000E+00
  0.00000000E+00  0.00000000E+00  0.00000000E+00
  0.00000000E+00  0.00000000E+00  0.00000000E+00
  0.00000000E+00  0.00000000E+00  0.00000000E+00
  0.00000000E+00  0.00000000E+00  0.00000000E+00
  0.00000000E+00  0.00000000E+00  0.00000000E+00
  0.00000000E+00  0.00000000E+00  0.00000000E+00
  0.00000000E+00  0.00000000E+00  0.00000000E+00
  0.00000000E+00  0.00000000E+00  0.00000000E+00
  0.00000000E+00  0.00000000E+00  0.00000000E+00
  0.00000000E+00  0.00000000E+00  0.00000000E+00
  0.00000000E+00  0.00000000E+00  0.00000000E+00
  0.00000000E+00  0.00000000E+00  0.00000000E+00
  0.00000000E+00  0.00000000E+00  0.00000000E+00
  0.00000000E+00  0.00000000E+00  0.00000000E+00
  0.00000000E+00  0.00000000E+00  0.00000000E+00
  0.00000000E+00  0.00000000E+00  0.00000000E+00
  0.00000000E+00  0.00000000E+00  0.00000000E+00
  0.00000000E+00  0.00000000E+00  0.00000000E+00
  0.00000000E+00  0.00000000E+00  0.00000000E+00
  0.00000000E+00  0.00000000E+00  0.00000000E+00
  0.00000000E+00  0.00000000E+00  0.00000000E+00
