supercell of POSCAR                     
   1.01189200000000     
     3.1482772356600002   -5.4762754812200001    9.9674464565599994
    -9.4511209497999999   -5.4731922780100000    0.0032121685426600
     6.3112884282600001  -10.9581161277000003   -9.9749049577999997
   Al   Sc   N 
    84    12    95
Direct
  0.0880954376528322  0.5820708778344681  0.3376444450481131
  0.0021208620841975  0.3263766733971352  0.2543470745869527
  0.0846277379821601  0.0851390973539097  0.3352542181124463
  0.2510251604122544  0.5802471849058719  0.4978141859688563
  0.3289273513674331  0.3231334848580119  0.0803577717169048
  0.4163039111832632  0.0856647863322166  0.1686039612788690
  0.0029933390468031  0.8437679639618239  0.2546360882953849
  0.1680961796668043  0.3323041561401681  0.4154517445769912
  0.2483186243533382  0.0857933795063772  0.4978369029153384
  0.1638803194204357  0.8351176431690490  0.4169518009163014
  0.3409099832402589  0.6708446401812367  0.3404580516980857
  0.1760026878492766  0.6864600957282718  0.1866315727764345
  0.2526807178529253  0.4060805420746689  0.2517422768383710
  0.3344779808403544  0.1653811232435132  0.3347028088892756
  0.0042889453214912  0.6705453205547798  0.4994250842632795
  0.1665202327718305  0.1615850970048527  0.1678919975475637
  0.2539075184359731  0.9236312512088247  0.2555772495797797
  0.4154332427204963  0.4150187839284527  0.4158282727819795
  0.4989637257091246  0.1624080287242293  0.4982075318485357
  0.0817675089732148  0.9225967540143998  0.0811563397979640
  0.4190692845594697  0.9183054458781186  0.4145722991490075
  0.0905998441308284  0.5806520567642082  0.8300882195242139
  0.0019347610056997  0.3257435737299588  0.7529618792837169
  0.0851086602114677  0.0846546995014705  0.8337629208517470
  0.2469275069208123  0.5775223257014872  0.9956045325657215
  0.3318872183942645  0.3236775265290603  0.5802778240941890
  0.4179889404675095  0.0863497972629617  0.6693097820422125
  0.0061516589248924  0.8397110754940087  0.7532958169887536
  0.1664470456162803  0.3314711964889412  0.9138492820338442
  0.2483310623847004  0.0862215230135845  0.9972644317644850
  0.1677278106255642  0.8391898623290643  0.9143716609918044
  0.3366246058052340  0.6701890552408685  0.8362890792376731
  0.1625222756554763  0.6714869635603549  0.6659194011525642
  0.2533523861697802  0.4071720123165363  0.7505104662735889
  0.3339002103572639  0.1651838806513979  0.8336375949050634
  0.9925995524093096  0.6895324202233297  0.9671992411649271
  0.1680587842442378  0.1609938022590640  0.6684471585195269
  0.2534826968451327  0.9191477971273656  0.7528295292773493
  0.4142892285489879  0.4151237697907888  0.9147934643448608
  0.4972871484334576  0.1634384172598686  0.9974064087666790
  0.0822705397156014  0.9210064749423381  0.5820640921197437
  0.4184118285174208  0.9185443911354980  0.9135017020004739
  0.5878994202342014  0.5829208550837777  0.3341214089668725
  0.5007464912550006  0.3248895138357852  0.2537485585248334
  0.5846644443975251  0.0839456079462337  0.3342814729495203
  0.7504737680954463  0.5794788889118649  0.4978804214160704
  0.8302767739395946  0.3238477279149379  0.0792676277568489
  0.9164834582002044  0.0870747983408151  0.1693565763665319
  0.5045223713245406  0.8400123835091478  0.2524863321964830
  0.6674083544599583  0.3317212271260175  0.4153321473555138
  0.7481515660025693  0.0861079757644703  0.4978116628656082
  0.6635962123567936  0.8357901030274704  0.4164309872839809
  0.8370206586748665  0.6738410390924230  0.3430289727010489
  0.6532584371250962  0.6749195219184330  0.1634285739344818
  0.7485644083126672  0.4004421687080963  0.2526052290805723
  0.8343532250801005  0.1637996849347303  0.3346081032158210
  0.5048583684807610  0.6695818898145021  0.4976991151580989
  0.6663096369834065  0.1597704266884534  0.1679460526649947
  0.7514900917832321  0.9196983256731457  0.2540163319590079
  0.9151285138495169  0.4143880741424510  0.4164724412034104
  0.9991936161913983  0.1630670194040889  0.4988027865975511
  0.5792813332450777  0.9219847550989613  0.0805069886337506
  0.9188941601963023  0.9195133618189004  0.4159807053719007
  0.5874519641001825  0.5833007993504324  0.8332230909256637
  0.5018399711229833  0.3261050382112884  0.7535611039759900
  0.5844742970888461  0.0843352378880908  0.8340560126998611
  0.7475861259121572  0.5794515115587586  0.9966664308451030
  0.8317678549612424  0.3236485270208291  0.5806909915887388
  0.9178579502063826  0.0859716815539500  0.6695337907055645
  0.5060574951984478  0.8395916615832135  0.7528226508127176
  0.6666643240092185  0.3328883932782887  0.9137598739094059
  0.7461703207410295  0.0870128988109187  0.9972941410191538
  0.6630862828842368  0.8353901288341703  0.9158172880260764
  0.8305588039145917  0.6700920045438465  0.8332821038803218
  0.6610521651476873  0.6709351337630878  0.6655575026431322
  0.7526291941650456  0.4074827890304178  0.7506763758956936
  0.8335083687511755  0.1660896098866331  0.8334063092283586
  0.5018081441675406  0.6700686448819724  0.9949299272392338
  0.6677826214208338  0.1609171420401125  0.6686520888113492
  0.7523786490720425  0.9192923454159398  0.7535370147329559
  0.9158919103867120  0.4140133856725043  0.9141940455063065
  0.9993201267464826  0.1639186561766763  0.9982568300298595
  0.5822423392217502  0.9211186584957503  0.5815437555215297
  0.9158442917159775  0.9235423313539215  0.9125351711025544
  0.4014777553645530  0.5798194032052848  0.1724258988617251
  0.3261065751160430  0.8331273109535573  0.0827913201380639
  0.0762260608048138  0.4209363621423563  0.0865510323965566
  0.4062216806859311  0.5822171171339718  0.6730634674419420
  0.3300811732340705  0.8384181079617719  0.5836551540849726
  0.0799103896843789  0.4149252007175477  0.5855883178354730
  0.8724761644085461  0.5822460557614377  0.1898747151756481
  0.8263792481693031  0.8394052472143940  0.0840852367079989
  0.5769918045095537  0.4145197262090718  0.0841301841901156
  0.9059429298938753  0.5826012162242264  0.6737417726968431
  0.8286277955196582  0.8386175279240859  0.5846391566916864
  0.5794620555849335  0.4139283285804041  0.5854590014957637
  0.2200018278309770  0.5799589818431201  0.2718057283796824
  0.1302344723947328  0.3260584923650995  0.1924486461190469
  0.2115192461240127  0.0851242026557983  0.2713186740925835
  0.3821937802671869  0.5823769279659672  0.4374774866399989
  0.4486640287100627  0.3240404709305551  0.0128857014993073
  0.0414546207484534  0.0852434952415351  0.1032535069544238
  0.1291694117754076  0.8440406509546250  0.1872666079480467
  0.2959991519054057  0.3312303036480628  0.3523978080816121
  0.3771571630930026  0.0806953703108420  0.4353164110388406
  0.4655495043733424  0.8344275205241942  0.0136874640242013
  0.2939421775751683  0.8332667560870917  0.3540323910726713
  0.4695210711200275  0.6757917264119655  0.2776962489377581
  0.2556192150487675  0.6530103916691630  0.1000369398910976
  0.3774595384363764  0.3951859766252568  0.1853441850547739
  0.4613757271704841  0.1630984261919011  0.2717644366619609
  0.1316266959999624  0.6662483914452650  0.4353832111230318
  0.2114373513468664  0.4131309158599237  0.0157512582773975
  0.2907875166733476  0.1602968259546174  0.1024532098643434
  0.3811344246709112  0.9216272950794391  0.1940192440415913
  0.0447508312692833  0.4178829481703801  0.3522372245772942
  0.1273978334754560  0.1696670371572822  0.4354696688523205
  0.2004194494595168  0.9261329614599632  0.0134947959470537
  0.0468041786037716  0.9214358898681283  0.3537696705133513
  0.2197274315334141  0.5813757394730388  0.7665005923063504
  0.0414156076459093  0.5980403549813786  0.6030869480876007
  0.1321611814610577  0.3225946586457837  0.6956172330712462
  0.2122735540955532  0.0820505865574290  0.7715110588116616
  0.3772034302354044  0.5830996334046574  0.9377602954554618
  0.4520932770979513  0.3230837077571422  0.5123669293195547
  0.0427666204243238  0.0851098961511667  0.6037723078984456
  0.1322298618404361  0.8386227097929790  0.6863440382858172
  0.2950803558722583  0.3315942447525018  0.8529398830002464
  0.3763051548262339  0.0808736769873022  0.9353649765301029
  0.4695432131540969  0.8348199405413581  0.5130397939226086
  0.2946181446957254  0.8335984752255925  0.8541654730170336
  0.4691230370171127  0.6775545349600733  0.7801683103545045
  0.2784802415239866  0.6618163965423562  0.5974968907529004
  0.3791380516553531  0.3953122770833346  0.6851459091559704
  0.4619314122524614  0.1644718988699339  0.7725192856548020
  0.1319766438664374  0.6659551225582732  0.9321275568379406
  0.2181675797761500  0.4139884711078139  0.5143173297453885
  0.2926316506765829  0.1603259796131482  0.6024820519326823
  0.3844686728819440  0.9239652708302017  0.6960320610912234
  0.0448190975264851  0.4184300456581624  0.8521319179051048
  0.1266370897008642  0.1688836157942148  0.9353779080436908
  0.2002424657004198  0.9268046714174432  0.5129573730008445
  0.0465053309275518  0.9204937520976770  0.8540582017828626
  0.7246396849165748  0.5816947424024406  0.2638557358181401
  0.5351027254344984  0.5988410211012152  0.1005316506005087
  0.6299292380797041  0.3218465185514745  0.1940713706983601
  0.7120451194765280  0.0828569315343159  0.2710519590520590
  0.8821255685290197  0.5825807941277290  0.4376139096596035
  0.9546969488320727  0.3268034915683700  0.0145542289228544
  0.5409741585901031  0.0854629300958507  0.1028364544191760
  0.6306816700251332  0.8403413159660573  0.1848708083609480
  0.7964397132928838  0.3301136725071316  0.3528809707824152
  0.8773806985166388  0.0817207580525476  0.4358448044198440
  0.9674912931912161  0.8355044209295670  0.0141413687859497
  0.7947152513997082  0.8351567277187755  0.3548172406956880
  0.9742552553744304  0.6778464126484991  0.2774737386936152
  0.7756557591853408  0.6617021675933046  0.0963631275960708
  0.8813727563612872  0.3969388922240213  0.1832860315917983
  0.9621580080106042  0.1649998393056791  0.2719975874656555
  0.6334054394949007  0.6655136265630617  0.4327269812657377
  0.7168523733316263  0.4137173102858753  0.0143415599089209
  0.7916470077304680  0.1612861836364203  0.1023155361365866
  0.8822225180612833  0.9244665974158721  0.1957634069635219
  0.5460085015103431  0.4182631759127418  0.3511691969645199
  0.6270821607594783  0.1688825767759212  0.4348245670109918
  0.6984649646291743  0.9273846038841143  0.0126284547186160
  0.5466398921825970  0.9198533114016527  0.3518544572179465
  0.7174488841445381  0.5809451796025868  0.7664711943634330
  0.5416510964058503  0.5973508665096929  0.6014157438387571
  0.6321155071338538  0.3224946636643153  0.6959316972117975
  0.7123107358601501  0.0823819952048339  0.7718725725281104
  0.8785724004156990  0.5817207378535585  0.9369939179069888
  0.9521169516844168  0.3235790712750841  0.5132392557485943
  0.5428584760265522  0.0851746841884449  0.6034201346987587
  0.6327751445872991  0.8386397049884309  0.6856850987747549
  0.7960483008130268  0.3319994567783837  0.8530229622856211
  0.8761713920926724  0.0838269489559664  0.9362872671382974
  0.9682516015588405  0.8355134676165079  0.5144145633701456
  0.7939030635239419  0.8333757543128471  0.8555830661172763
  0.9685935504223835  0.6775234275315043  0.7829582633415626
  0.7781674278730506  0.6610715118550701  0.5976036112793395
  0.8787974297709198  0.3958626783596060  0.6854727359450621
  0.9619898278251782  0.1643327683125975  0.7727454498197162
  0.6308342005909537  0.6656784586263313  0.9337794231283354
  0.7180203921536901  0.4132864479147358  0.5141816347245225
  0.7925229576225234  0.1601498911917929  0.6027591210718981
  0.8841691787170092  0.9237166802474164  0.6972378994438913
  0.5439882315549909  0.4190109098375530  0.8526242605270298
  0.6259441620633339  0.1703468068224652  0.9351939959226314
  0.7001764875502516  0.9269758858878916  0.5125229772074604
  0.5468736446955518  0.9205097623904948  0.8529048357507065
 
  0.00000000E+00  0.00000000E+00  0.00000000E+00
  0.00000000E+00  0.00000000E+00  0.00000000E+00
  0.00000000E+00  0.00000000E+00  0.00000000E+00
  0.00000000E+00  0.00000000E+00  0.00000000E+00
  0.00000000E+00  0.00000000E+00  0.00000000E+00
  0.00000000E+00  0.00000000E+00  0.00000000E+00
  0.00000000E+00  0.00000000E+00  0.00000000E+00
  0.00000000E+00  0.00000000E+00  0.00000000E+00
  0.00000000E+00  0.00000000E+00  0.00000000E+00
  0.00000000E+00  0.00000000E+00  0.00000000E+00
  0.00000000E+00  0.00000000E+00  0.00000000E+00
  0.00000000E+00  0.00000000E+00  0.00000000E+00
  0.00000000E+00  0.00000000E+00  0.00000000E+00
  0.00000000E+00  0.00000000E+00  0.00000000E+00
  0.00000000E+00  0.00000000E+00  0.00000000E+00
  0.00000000E+00  0.00000000E+00  0.00000000E+00
  0.00000000E+00  0.00000000E+00  0.00000000E+00
  0.00000000E+00  0.00000000E+00  0.00000000E+00
  0.00000000E+00  0.00000000E+00  0.00000000E+00
  0.00000000E+00  0.00000000E+00  0.00000000E+00
  0.00000000E+00  0.00000000E+00  0.00000000E+00
  0.00000000E+00  0.00000000E+00  0.00000000E+00
  0.00000000E+00  0.00000000E+00  0.00000000E+00
  0.00000000E+00  0.00000000E+00  0.00000000E+00
  0.00000000E+00  0.00000000E+00  0.00000000E+00
  0.00000000E+00  0.00000000E+00  0.00000000E+00
  0.00000000E+00  0.00000000E+00  0.00000000E+00
  0.00000000E+00  0.00000000E+00  0.00000000E+00
  0.00000000E+00  0.00000000E+00  0.00000000E+00
  0.00000000E+00  0.00000000E+00  0.00000000E+00
  0.00000000E+00  0.00000000E+00  0.00000000E+00
  0.00000000E+00  0.00000000E+00  0.00000000E+00
  0.00000000E+00  0.00000000E+00  0.00000000E+00
  0.00000000E+00  0.00000000E+00  0.00000000E+00
  0.00000000E+00  0.00000000E+00  0.00000000E+00
  0.00000000E+00  0.00000000E+00  0.00000000E+00
  0.00000000E+00  0.00000000E+00  0.00000000E+00
  0.00000000E+00  0.00000000E+00  0.00000000E+00
  0.00000000E+00  0.00000000E+00  0.00000000E+00
  0.00000000E+00  0.00000000E+00  0.00000000E+00
  0.00000000E+00  0.00000000E+00  0.00000000E+00
  0.00000000E+00  0.00000000E+00  0.00000000E+00
  0.00000000E+00  0.00000000E+00  0.00000000E+00
  0.00000000E+00  0.00000000E+00  0.00000000E+00
  0.00000000E+00  0.00000000E+00  0.00000000E+00
  0.00000000E+00  0.00000000E+00  0.00000000E+00
  0.00000000E+00  0.00000000E+00  0.00000000E+00
  0.00000000E+00  0.00000000E+00  0.00000000E+00
  0.00000000E+00  0.00000000E+00  0.00000000E+00
  0.00000000E+00  0.00000000E+00  0.00000000E+00
  0.00000000E+00  0.00000000E+00  0.00000000E+00
  0.00000000E+00  0.00000000E+00  0.00000000E+00
  0.00000000E+00  0.00000000E+00  0.00000000E+00
  0.00000000E+00  0.00000000E+00  0.00000000E+00
  0.00000000E+00  0.00000000E+00  0.00000000E+00
  0.00000000E+00  0.00000000E+00  0.00000000E+00
  0.00000000E+00  0.00000000E+00  0.00000000E+00
  0.00000000E+00  0.00000000E+00  0.00000000E+00
  0.00000000E+00  0.00000000E+00  0.00000000E+00
  0.00000000E+00  0.00000000E+00  0.00000000E+00
  0.00000000E+00  0.00000000E+00  0.00000000E+00
  0.00000000E+00  0.00000000E+00  0.00000000E+00
  0.00000000E+00  0.00000000E+00  0.00000000E+00
  0.00000000E+00  0.00000000E+00  0.00000000E+00
  0.00000000E+00  0.00000000E+00  0.00000000E+00
  0.00000000E+00  0.00000000E+00  0.00000000E+00
  0.00000000E+00  0.00000000E+00  0.00000000E+00
  0.00000000E+00  0.00000000E+00  0.00000000E+00
  0.00000000E+00  0.00000000E+00  0.00000000E+00
  0.00000000E+00  0.00000000E+00  0.00000000E+00
  0.00000000E+00  0.00000000E+00  0.00000000E+00
  0.00000000E+00  0.00000000E+00  0.00000000E+00
  0.00000000E+00  0.00000000E+00  0.00000000E+00
  0.00000000E+00  0.00000000E+00  0.00000000E+00
  0.00000000E+00  0.00000000E+00  0.00000000E+00
  0.00000000E+00  0.00000000E+00  0.00000000E+00
  0.00000000E+00  0.00000000E+00  0.00000000E+00
  0.00000000E+00  0.00000000E+00  0.00000000E+00
  0.00000000E+00  0.00000000E+00  0.00000000E+00
  0.00000000E+00  0.00000000E+00  0.00000000E+00
  0.00000000E+00  0.00000000E+00  0.00000000E+00
  0.00000000E+00  0.00000000E+00  0.00000000E+00
  0.00000000E+00  0.00000000E+00  0.00000000E+00
  0.00000000E+00  0.00000000E+00  0.00000000E+00
  0.00000000E+00  0.00000000E+00  0.00000000E+00
  0.00000000E+00  0.00000000E+00  0.00000000E+00
  0.00000000E+00  0.00000000E+00  0.00000000E+00
  0.00000000E+00  0.00000000E+00  0.00000000E+00
  0.00000000E+00  0.00000000E+00  0.00000000E+00
  0.00000000E+00  0.00000000E+00  0.00000000E+00
  0.00000000E+00  0.00000000E+00  0.00000000E+00
  0.00000000E+00  0.00000000E+00  0.00000000E+00
  0.00000000E+00  0.00000000E+00  0.00000000E+00
  0.00000000E+00  0.00000000E+00  0.00000000E+00
  0.00000000E+00  0.00000000E+00  0.00000000E+00
  0.00000000E+00  0.00000000E+00  0.00000000E+00
  0.00000000E+00  0.00000000E+00  0.00000000E+00
  0.00000000E+00  0.00000000E+00  0.00000000E+00
  0.00000000E+00  0.00000000E+00  0.00000000E+00
  0.00000000E+00  0.00000000E+00  0.00000000E+00
  0.00000000E+00  0.00000000E+00  0.00000000E+00
  0.00000000E+00  0.00000000E+00  0.00000000E+00
  0.00000000E+00  0.00000000E+00  0.00000000E+00
  0.00000000E+00  0.00000000E+00  0.00000000E+00
  0.00000000E+00  0.00000000E+00  0.00000000E+00
  0.00000000E+00  0.00000000E+00  0.00000000E+00
  0.00000000E+00  0.00000000E+00  0.00000000E+00
  0.00000000E+00  0.00000000E+00  0.00000000E+00
  0.00000000E+00  0.00000000E+00  0.00000000E+00
  0.00000000E+00  0.00000000E+00  0.00000000E+00
  0.00000000E+00  0.00000000E+00  0.00000000E+00
  0.00000000E+00  0.00000000E+00  0.00000000E+00
  0.00000000E+00  0.00000000E+00  0.00000000E+00
  0.00000000E+00  0.00000000E+00  0.00000000E+00
  0.00000000E+00  0.00000000E+00  0.00000000E+00
  0.00000000E+00  0.00000000E+00  0.00000000E+00
  0.00000000E+00  0.00000000E+00  0.00000000E+00
  0.00000000E+00  0.00000000E+00  0.00000000E+00
  0.00000000E+00  0.00000000E+00  0.00000000E+00
  0.00000000E+00  0.00000000E+00  0.00000000E+00
  0.00000000E+00  0.00000000E+00  0.00000000E+00
  0.00000000E+00  0.00000000E+00  0.00000000E+00
  0.00000000E+00  0.00000000E+00  0.00000000E+00
  0.00000000E+00  0.00000000E+00  0.00000000E+00
  0.00000000E+00  0.00000000E+00  0.00000000E+00
  0.00000000E+00  0.00000000E+00  0.00000000E+00
  0.00000000E+00  0.00000000E+00  0.00000000E+00
  0.00000000E+00  0.00000000E+00  0.00000000E+00
  0.00000000E+00  0.00000000E+00  0.00000000E+00
  0.00000000E+00  0.00000000E+00  0.00000000E+00
  0.00000000E+00  0.00000000E+00  0.00000000E+00
  0.00000000E+00  0.00000000E+00  0.00000000E+00
  0.00000000E+00  0.00000000E+00  0.00000000E+00
  0.00000000E+00  0.00000000E+00  0.00000000E+00
  0.00000000E+00  0.00000000E+00  0.00000000E+00
  0.00000000E+00  0.00000000E+00  0.00000000E+00
  0.00000000E+00  0.00000000E+00  0.00000000E+00
  0.00000000E+00  0.00000000E+00  0.00000000E+00
  0.00000000E+00  0.00000000E+00  0.00000000E+00
  0.00000000E+00  0.00000000E+00  0.00000000E+00
  0.00000000E+00  0.00000000E+00  0.00000000E+00
  0.00000000E+00  0.00000000E+00  0.00000000E+00
  0.00000000E+00  0.00000000E+00  0.00000000E+00
  0.00000000E+00  0.00000000E+00  0.00000000E+00
  0.00000000E+00  0.00000000E+00  0.00000000E+00
  0.00000000E+00  0.00000000E+00  0.00000000E+00
  0.00000000E+00  0.00000000E+00  0.00000000E+00
  0.00000000E+00  0.00000000E+00  0.00000000E+00
  0.00000000E+00  0.00000000E+00  0.00000000E+00
  0.00000000E+00  0.00000000E+00  0.00000000E+00
  0.00000000E+00  0.00000000E+00  0.00000000E+00
  0.00000000E+00  0.00000000E+00  0.00000000E+00
  0.00000000E+00  0.00000000E+00  0.00000000E+00
  0.00000000E+00  0.00000000E+00  0.00000000E+00
  0.00000000E+00  0.00000000E+00  0.00000000E+00
  0.00000000E+00  0.00000000E+00  0.00000000E+00
  0.00000000E+00  0.00000000E+00  0.00000000E+00
  0.00000000E+00  0.00000000E+00  0.00000000E+00
  0.00000000E+00  0.00000000E+00  0.00000000E+00
  0.00000000E+00  0.00000000E+00  0.00000000E+00
  0.00000000E+00  0.00000000E+00  0.00000000E+00
  0.00000000E+00  0.00000000E+00  0.00000000E+00
  0.00000000E+00  0.00000000E+00  0.00000000E+00
  0.00000000E+00  0.00000000E+00  0.00000000E+00
  0.00000000E+00  0.00000000E+00  0.00000000E+00
  0.00000000E+00  0.00000000E+00  0.00000000E+00
  0.00000000E+00  0.00000000E+00  0.00000000E+00
  0.00000000E+00  0.00000000E+00  0.00000000E+00
  0.00000000E+00  0.00000000E+00  0.00000000E+00
  0.00000000E+00  0.00000000E+00  0.00000000E+00
  0.00000000E+00  0.00000000E+00  0.00000000E+00
  0.00000000E+00  0.00000000E+00  0.00000000E+00
  0.00000000E+00  0.00000000E+00  0.00000000E+00
  0.00000000E+00  0.00000000E+00  0.00000000E+00
  0.00000000E+00  0.00000000E+00  0.00000000E+00
  0.00000000E+00  0.00000000E+00  0.00000000E+00
  0.00000000E+00  0.00000000E+00  0.00000000E+00
  0.00000000E+00  0.00000000E+00  0.00000000E+00
  0.00000000E+00  0.00000000E+00  0.00000000E+00
  0.00000000E+00  0.00000000E+00  0.00000000E+00
  0.00000000E+00  0.00000000E+00  0.00000000E+00
  0.00000000E+00  0.00000000E+00  0.00000000E+00
  0.00000000E+00  0.00000000E+00  0.00000000E+00
  0.00000000E+00  0.00000000E+00  0.00000000E+00
  0.00000000E+00  0.00000000E+00  0.00000000E+00
  0.00000000E+00  0.00000000E+00  0.00000000E+00
  0.00000000E+00  0.00000000E+00  0.00000000E+00
  0.00000000E+00  0.00000000E+00  0.00000000E+00
  0.00000000E+00  0.00000000E+00  0.00000000E+00
  0.00000000E+00  0.00000000E+00  0.00000000E+00
  0.00000000E+00  0.00000000E+00  0.00000000E+00
