supercell of POSCAR                     
   1.01189200000000     
     3.1482772356600002   -5.4762754812200001    9.9674464565599994
    -9.4511209497999999   -5.4731922780100000    0.0032121685426600
     6.3112884282600001  -10.9581161277000003   -9.9749049577999997
   Al   Sc   N 
    84    12    95
Direct
  0.0900905347551841  0.5845845891181440  0.3350365770421035
  0.0041185094007687  0.3241666077669763  0.2583858477779941
  0.0864266352946430  0.0834163329681274  0.3358762448841404
  0.2515080166207184  0.5806078071010177  0.4973120536787050
  0.3549817032528679  0.3015397867178180  0.0980220318537732
  0.4204311597238330  0.0799112734880083  0.1738860224926881
  0.0069374838757099  0.8411245044723401  0.2537141732843438
  0.1697691453646826  0.3327701428780827  0.4160448558565975
  0.2493021356926235  0.0860575718881194  0.4979042084336456
  0.1651538261937588  0.8346375619547928  0.4170898891572961
  0.3383914798759093  0.6700649036561046  0.3381249043572510
  0.1574257565223292  0.6703157401649023  0.1678759211836791
  0.2525737267473289  0.4085984516356120  0.2540054370597176
  0.3353062562677991  0.1653727650934229  0.3354097137850829
  0.0043816747856411  0.6702492119354488  0.4973856341378209
  0.1657040749302325  0.1582421507324057  0.1707427757614610
  0.2526683295843242  0.9179109604378581  0.2564030816130014
  0.4168580524800731  0.4159010695791210  0.4163832346651901
  0.5003096040440198  0.1632055947856585  0.4981483723821896
  0.0789285943828801  0.9207462760678951  0.0816890737641458
  0.4196085262950007  0.9178542332808206  0.4148797720270423
  0.0864559927687907  0.5854552465749379  0.8316896801934490
  0.9954827823108587  0.3265803546899946  0.7493318241292926
  0.0808914432475447  0.0800542310128662  0.8316427694931861
  0.2551299851198934  0.6183917153316401  0.9908391532339849
  0.3327386717196674  0.3240663771629286  0.5803058781106998
  0.4176001254661799  0.0864371434301106  0.6687737535408544
  0.0040037539996831  0.8390233531667519  0.7517563479965901
  0.1531925288938396  0.3144614095931360  0.8888959845617492
  0.2471237002705777  0.0847223623017541  0.9969773548501166
  0.1603919310681121  0.8393547726798332  0.9146013754277575
  0.3354746800771835  0.6715328216523844  0.8328226360087143
  0.1610147607590733  0.6717593825119721  0.6653731193326351
  0.2524003703057787  0.4115524716810270  0.7487458880709710
  0.3347118355233718  0.1625833560260617  0.8331020117407206
  0.9975057601303092  0.6706760561188148  0.9979587604884230
  0.1673906279457711  0.1615825154735617  0.6683378634230266
  0.2517884970302688  0.9186794508637206  0.7530576289385493
  0.4131967719194947  0.4162047519626384  0.9146718513374523
  0.4971366857593793  0.1612458204648846  0.9969288076800922
  0.0823110294124305  0.9213856593760426  0.5814075462328105
  0.4161979094282415  0.9169719558383989  0.9142715098702325
  0.5913767730164707  0.5837490056349495  0.3339644798445676
  0.5075447795773442  0.3261174447516311  0.2570096294035622
  0.5870477314063081  0.0832654418262635  0.3354872375893123
  0.7512777912816659  0.5809799636774144  0.4967527286622229
  0.8254281324452180  0.3211649383301207  0.0775361375905135
  0.9169580504880841  0.0858401355047889  0.1698403196223524
  0.5078733456960904  0.8383045406956597  0.2546956251595986
  0.6707077350637505  0.3329222305038755  0.4141595160074374
  0.7492297814926232  0.0860613237602195  0.4975772991897784
  0.6654807735684898  0.8353264522150283  0.4165666732355149
  0.8389539903437822  0.6718822600191388  0.3389154546037147
  0.6588567212032714  0.6726314619074003  0.1657182697871349
  0.7554876975633391  0.4083573034591126  0.2500487894816814
  0.8352901393457017  0.1642532015339526  0.3344728140940205
  0.5046337716403784  0.6701417273245838  0.4965813145950833
  0.6674320035768986  0.1604429041539959  0.1688064039368840
  0.7535021426455515  0.9187325975672280  0.2542941482495493
  0.9164101751689131  0.4164507632539696  0.4162011654176681
  0.9998841313860112  0.1632029492554423  0.4982034909342090
  0.5791259072899635  0.9209211351835620  0.0815996096733471
  0.9196543346809634  0.9181829200364717  0.4145641996162439
  0.5872710348170358  0.5846799695591969  0.8329462478803009
  0.5011337966641563  0.3268446171924708  0.7528242190500123
  0.5835002951657771  0.0838925683040657  0.8337042252594813
  0.7479066989355232  0.5819545858350494  0.9958156781982979
  0.8317383249916972  0.3239992383370733  0.5791733743863006
  0.9167107504190568  0.0859810417082372  0.6684664827221098
  0.5052996126070894  0.8405402537017821  0.7524360108456207
  0.6657318241712176  0.3334161697788076  0.9125135498831725
  0.7452811590716166  0.0856922685657295  0.9965074072435840
  0.6621097138593370  0.8354675027214711  0.9149970908400960
  0.8344480688204641  0.6704940844548517  0.8360196909273014
  0.6610754255465920  0.6716899853014411  0.6657058061579235
  0.7502741294913378  0.4095216240341060  0.7500623771359685
  0.8317007010861559  0.1654574061532017  0.8334522589489950
  0.5034148888823893  0.6719216114118893  0.9978097952741436
  0.6672277723647539  0.1615897771383032  0.6682688979830971
  0.7516085868760030  0.9189561111984190  0.7532311165478305
  0.9105798651001464  0.4167567860204429  0.9147141072865494
  0.9952265501740953  0.1615702394630247  0.9981955255820267
  0.5824295447973356  0.9211522486850257  0.5813412982061976
  0.9146605925941955  0.9175548264746851  0.9137416897018511
  0.4039758101087116  0.5823294358928095  0.1745442618087054
  0.3251795241651507  0.8414579398179782  0.0877231303261965
  0.0466151733142866  0.4140445840497264  0.1009316813286389
  0.4075253270143264  0.5826196231470320  0.6712343525149365
  0.3299015678967478  0.8384923481474331  0.5838063506332318
  0.0804609003357939  0.4151893485144527  0.5851297319185420
  0.8976303575832958  0.5906833028174674  0.1767100570824738
  0.8250645393793192  0.8410258106751911  0.0834395756421031
  0.5792655043778865  0.4175995111860686  0.0842262334653441
  0.9049984548211896  0.5833318917444856  0.6719141433020113
  0.8293462566879413  0.8387240412615711  0.5834995845748168
  0.5816700150075675  0.4150114277799162  0.5840919094594952
  0.2206707700224726  0.5815902487593121  0.2661242244220290
  0.0366491015194299  0.5995082814830894  0.1026041765459667
  0.1352455151315937  0.3214755238669724  0.1962264719808644
  0.2136345153214236  0.0818833969561652  0.2725520544001867
  0.3817764617366493  0.5825804396715597  0.4367667094188121
  0.4428745933785052  0.3249475707700853  0.0140214254704745
  0.0416019318287439  0.0861450199685834  0.1032386689061227
  0.1337369914696751  0.8394463305800315  0.1851218830307104
  0.2978390737837913  0.3313643878095220  0.3536570664302019
  0.3785704609791480  0.0811158347562042  0.4359044504748297
  0.4628117875804350  0.8351934678421173  0.0151827233651787
  0.2952367661276512  0.8325735167649455  0.3557117484454011
  0.4713964710602951  0.6760519050998752  0.2793434554678740
  0.2737432837876881  0.6593758304248425  0.0972519155435378
  0.3809834319072749  0.3948233480573577  0.1893749217477136
  0.4641914746787563  0.1647554043309114  0.2729952570861585
  0.1330166042741396  0.6658394035884072  0.4346840728560935
  0.2909030865871713  0.1532788682450601  0.1047166265857626
  0.3845137346766663  0.9214031046125157  0.1989808348586877
  0.0472556169391325  0.4190900637515966  0.3531368491869813
  0.1284740621408673  0.1699221144238123  0.4355800593008823
  0.1976232229567572  0.9269212139586358  0.0125692533296515
  0.0486080695652049  0.9205712314302303  0.3532634672194703
  0.2168739820838752  0.5822756588233275  0.7671385046330457
  0.0412176217275331  0.5976304653058477  0.6016554187129799
  0.1305344586761592  0.3232792710583681  0.6976736177957363
  0.2106555624427671  0.0828383435030702  0.7722230042011375
  0.3773052393960725  0.5827892878906127  0.9357238910994496
  0.4531073662605465  0.3235970602143041  0.5132295329672232
  0.0426156376577040  0.0858453878509167  0.6038353928115825
  0.1313639611842987  0.8391784578609318  0.6859079179419112
  0.2932034104978669  0.3327207937651835  0.8533687498929652
  0.3749953707391924  0.0811743096510540  0.9355186127684831
  0.4694113328659597  0.8350901467240277  0.5138234388426781
  0.2912669367067693  0.8327773109449907  0.8551162546999791
  0.4681512787119644  0.6780124778192871  0.7789892553522009
  0.2780043682782178  0.6617777476956306  0.5977726449302665
  0.3775782637815581  0.3961392902105914  0.6858482371633201
  0.4610170451738682  0.1652854652754527  0.7724226977704021
  0.1251388049721101  0.6677536586113106  0.9330312535021505
  0.2190304023263749  0.4141170237125280  0.5151752399470411
  0.2922016826817568  0.1613091309657264  0.6030225767189918
  0.3828600983116814  0.9249691819332142  0.6966560172968101
  0.0403081046958960  0.4201606885449465  0.8511469958955615
  0.1247130930176397  0.1684017586460556  0.9353802571700811
  0.2007442980119265  0.9274880413641569  0.5131914840102709
  0.0430778660909397  0.9201042307335285  0.8522900383831313
  0.7239970447341690  0.5818206961282826  0.2644228391360031
  0.5379388054944840  0.5982731260005849  0.1018164140057678
  0.6342297425201124  0.3244631973261889  0.1936726229248720
  0.7132508923197207  0.0827405304536768  0.2710890942456032
  0.8818579952638359  0.5831788039146417  0.4368762844514933
  0.9494329443576959  0.3227321907120171  0.0104706757897475
  0.5400166413706415  0.0868626237852368  0.1036456098354250
  0.6319636454893214  0.8401534211621495  0.1853725258375860
  0.7993955120008494  0.3318353590190739  0.3505143588917861
  0.8783599657752390  0.0813820392384699  0.4355890397444853
  0.9653972307432781  0.8363205782389045  0.0137167264973428
  0.7950434612320336  0.8342322745884161  0.3548083756829783
  0.9720201655345448  0.6793159223404075  0.2809368266703416
  0.7736625081136168  0.6637935884920623  0.0955024228916059
  0.8892856184792777  0.3969902281328075  0.1798183100930686
  0.9635263466359518  0.1633109407514297  0.2725071500931406
  0.6333145364842423  0.6662278880765484  0.4333048024051180
  0.7151814817213307  0.4142615702044594  0.0129831046929354
  0.7909379975556234  0.1592623276348135  0.1019819271499358
  0.8843924201735049  0.9234980641911577  0.1959523115881368
  0.5480244685873927  0.4191725814096685  0.3528354996675986
  0.6290855216330655  0.1703091344712817  0.4349203049768207
  0.6953500810374749  0.9279862662368927  0.0118089708438589
  0.5482931817864127  0.9203596843044792  0.3532929445787971
  0.7169207719654764  0.5819588854271416  0.7668793294355751
  0.5421875862325933  0.5975350208020274  0.6006552560656289
  0.6304640971110231  0.3232473355088246  0.6953274329690373
  0.7108004872443345  0.0825560839161668  0.7714847559263518
  0.8779791352899693  0.5831639163799878  0.9362225271613767
  0.9530022020179985  0.3238141919445710  0.5128871123036802
  0.5426303791344580  0.0853945148901119  0.6034768128242547
  0.6313941165192460  0.8392048791651590  0.6856603867389168
  0.7938267688065466  0.3319737020929239  0.8515246474054265
  0.8745640919663416  0.0811095470395458  0.9351005890530359
  0.9692454318484849  0.8355405604250805  0.5137516063620495
  0.7916482527098765  0.8333132078986765  0.8544336885849049
  0.9673313244143458  0.6777249828995977  0.7793762046729071
  0.7772274141058588  0.6622636417285008  0.5970305911845912
  0.8753633549229747  0.3968730242383671  0.6840109581259455
  0.9605521963974937  0.1652956476460474  0.7724266437611789
  0.6282869784579148  0.6663841453646171  0.9336747389246085
  0.7196908354583158  0.4140636869113266  0.5131022862227539
  0.7921942296684961  0.1611672578439567  0.6024793112738251
  0.8828638934609785  0.9247297442760143  0.6961920516410487
  0.5415003707343189  0.4191503576484124  0.8529138445597439
  0.6243123887839346  0.1713370558171334  0.9351793360450884
  0.7005455709955299  0.9276719978786474  0.5127659393506647
  0.5442876728150736  0.9208042395250828  0.8531120069871747
 
  0.00000000E+00  0.00000000E+00  0.00000000E+00
  0.00000000E+00  0.00000000E+00  0.00000000E+00
  0.00000000E+00  0.00000000E+00  0.00000000E+00
  0.00000000E+00  0.00000000E+00  0.00000000E+00
  0.00000000E+00  0.00000000E+00  0.00000000E+00
  0.00000000E+00  0.00000000E+00  0.00000000E+00
  0.00000000E+00  0.00000000E+00  0.00000000E+00
  0.00000000E+00  0.00000000E+00  0.00000000E+00
  0.00000000E+00  0.00000000E+00  0.00000000E+00
  0.00000000E+00  0.00000000E+00  0.00000000E+00
  0.00000000E+00  0.00000000E+00  0.00000000E+00
  0.00000000E+00  0.00000000E+00  0.00000000E+00
  0.00000000E+00  0.00000000E+00  0.00000000E+00
  0.00000000E+00  0.00000000E+00  0.00000000E+00
  0.00000000E+00  0.00000000E+00  0.00000000E+00
  0.00000000E+00  0.00000000E+00  0.00000000E+00
  0.00000000E+00  0.00000000E+00  0.00000000E+00
  0.00000000E+00  0.00000000E+00  0.00000000E+00
  0.00000000E+00  0.00000000E+00  0.00000000E+00
  0.00000000E+00  0.00000000E+00  0.00000000E+00
  0.00000000E+00  0.00000000E+00  0.00000000E+00
  0.00000000E+00  0.00000000E+00  0.00000000E+00
  0.00000000E+00  0.00000000E+00  0.00000000E+00
  0.00000000E+00  0.00000000E+00  0.00000000E+00
  0.00000000E+00  0.00000000E+00  0.00000000E+00
  0.00000000E+00  0.00000000E+00  0.00000000E+00
  0.00000000E+00  0.00000000E+00  0.00000000E+00
  0.00000000E+00  0.00000000E+00  0.00000000E+00
  0.00000000E+00  0.00000000E+00  0.00000000E+00
  0.00000000E+00  0.00000000E+00  0.00000000E+00
  0.00000000E+00  0.00000000E+00  0.00000000E+00
  0.00000000E+00  0.00000000E+00  0.00000000E+00
  0.00000000E+00  0.00000000E+00  0.00000000E+00
  0.00000000E+00  0.00000000E+00  0.00000000E+00
  0.00000000E+00  0.00000000E+00  0.00000000E+00
  0.00000000E+00  0.00000000E+00  0.00000000E+00
  0.00000000E+00  0.00000000E+00  0.00000000E+00
  0.00000000E+00  0.00000000E+00  0.00000000E+00
  0.00000000E+00  0.00000000E+00  0.00000000E+00
  0.00000000E+00  0.00000000E+00  0.00000000E+00
  0.00000000E+00  0.00000000E+00  0.00000000E+00
  0.00000000E+00  0.00000000E+00  0.00000000E+00
  0.00000000E+00  0.00000000E+00  0.00000000E+00
  0.00000000E+00  0.00000000E+00  0.00000000E+00
  0.00000000E+00  0.00000000E+00  0.00000000E+00
  0.00000000E+00  0.00000000E+00  0.00000000E+00
  0.00000000E+00  0.00000000E+00  0.00000000E+00
  0.00000000E+00  0.00000000E+00  0.00000000E+00
  0.00000000E+00  0.00000000E+00  0.00000000E+00
  0.00000000E+00  0.00000000E+00  0.00000000E+00
  0.00000000E+00  0.00000000E+00  0.00000000E+00
  0.00000000E+00  0.00000000E+00  0.00000000E+00
  0.00000000E+00  0.00000000E+00  0.00000000E+00
  0.00000000E+00  0.00000000E+00  0.00000000E+00
  0.00000000E+00  0.00000000E+00  0.00000000E+00
  0.00000000E+00  0.00000000E+00  0.00000000E+00
  0.00000000E+00  0.00000000E+00  0.00000000E+00
  0.00000000E+00  0.00000000E+00  0.00000000E+00
  0.00000000E+00  0.00000000E+00  0.00000000E+00
  0.00000000E+00  0.00000000E+00  0.00000000E+00
  0.00000000E+00  0.00000000E+00  0.00000000E+00
  0.00000000E+00  0.00000000E+00  0.00000000E+00
  0.00000000E+00  0.00000000E+00  0.00000000E+00
  0.00000000E+00  0.00000000E+00  0.00000000E+00
  0.00000000E+00  0.00000000E+00  0.00000000E+00
  0.00000000E+00  0.00000000E+00  0.00000000E+00
  0.00000000E+00  0.00000000E+00  0.00000000E+00
  0.00000000E+00  0.00000000E+00  0.00000000E+00
  0.00000000E+00  0.00000000E+00  0.00000000E+00
  0.00000000E+00  0.00000000E+00  0.00000000E+00
  0.00000000E+00  0.00000000E+00  0.00000000E+00
  0.00000000E+00  0.00000000E+00  0.00000000E+00
  0.00000000E+00  0.00000000E+00  0.00000000E+00
  0.00000000E+00  0.00000000E+00  0.00000000E+00
  0.00000000E+00  0.00000000E+00  0.00000000E+00
  0.00000000E+00  0.00000000E+00  0.00000000E+00
  0.00000000E+00  0.00000000E+00  0.00000000E+00
  0.00000000E+00  0.00000000E+00  0.00000000E+00
  0.00000000E+00  0.00000000E+00  0.00000000E+00
  0.00000000E+00  0.00000000E+00  0.00000000E+00
  0.00000000E+00  0.00000000E+00  0.00000000E+00
  0.00000000E+00  0.00000000E+00  0.00000000E+00
  0.00000000E+00  0.00000000E+00  0.00000000E+00
  0.00000000E+00  0.00000000E+00  0.00000000E+00
  0.00000000E+00  0.00000000E+00  0.00000000E+00
  0.00000000E+00  0.00000000E+00  0.00000000E+00
  0.00000000E+00  0.00000000E+00  0.00000000E+00
  0.00000000E+00  0.00000000E+00  0.00000000E+00
  0.00000000E+00  0.00000000E+00  0.00000000E+00
  0.00000000E+00  0.00000000E+00  0.00000000E+00
  0.00000000E+00  0.00000000E+00  0.00000000E+00
  0.00000000E+00  0.00000000E+00  0.00000000E+00
  0.00000000E+00  0.00000000E+00  0.00000000E+00
  0.00000000E+00  0.00000000E+00  0.00000000E+00
  0.00000000E+00  0.00000000E+00  0.00000000E+00
  0.00000000E+00  0.00000000E+00  0.00000000E+00
  0.00000000E+00  0.00000000E+00  0.00000000E+00
  0.00000000E+00  0.00000000E+00  0.00000000E+00
  0.00000000E+00  0.00000000E+00  0.00000000E+00
  0.00000000E+00  0.00000000E+00  0.00000000E+00
  0.00000000E+00  0.00000000E+00  0.00000000E+00
  0.00000000E+00  0.00000000E+00  0.00000000E+00
  0.00000000E+00  0.00000000E+00  0.00000000E+00
  0.00000000E+00  0.00000000E+00  0.00000000E+00
  0.00000000E+00  0.00000000E+00  0.00000000E+00
  0.00000000E+00  0.00000000E+00  0.00000000E+00
  0.00000000E+00  0.00000000E+00  0.00000000E+00
  0.00000000E+00  0.00000000E+00  0.00000000E+00
  0.00000000E+00  0.00000000E+00  0.00000000E+00
  0.00000000E+00  0.00000000E+00  0.00000000E+00
  0.00000000E+00  0.00000000E+00  0.00000000E+00
  0.00000000E+00  0.00000000E+00  0.00000000E+00
  0.00000000E+00  0.00000000E+00  0.00000000E+00
  0.00000000E+00  0.00000000E+00  0.00000000E+00
  0.00000000E+00  0.00000000E+00  0.00000000E+00
  0.00000000E+00  0.00000000E+00  0.00000000E+00
  0.00000000E+00  0.00000000E+00  0.00000000E+00
  0.00000000E+00  0.00000000E+00  0.00000000E+00
  0.00000000E+00  0.00000000E+00  0.00000000E+00
  0.00000000E+00  0.00000000E+00  0.00000000E+00
  0.00000000E+00  0.00000000E+00  0.00000000E+00
  0.00000000E+00  0.00000000E+00  0.00000000E+00
  0.00000000E+00  0.00000000E+00  0.00000000E+00
  0.00000000E+00  0.00000000E+00  0.00000000E+00
  0.00000000E+00  0.00000000E+00  0.00000000E+00
  0.00000000E+00  0.00000000E+00  0.00000000E+00
  0.00000000E+00  0.00000000E+00  0.00000000E+00
  0.00000000E+00  0.00000000E+00  0.00000000E+00
  0.00000000E+00  0.00000000E+00  0.00000000E+00
  0.00000000E+00  0.00000000E+00  0.00000000E+00
  0.00000000E+00  0.00000000E+00  0.00000000E+00
  0.00000000E+00  0.00000000E+00  0.00000000E+00
  0.00000000E+00  0.00000000E+00  0.00000000E+00
  0.00000000E+00  0.00000000E+00  0.00000000E+00
  0.00000000E+00  0.00000000E+00  0.00000000E+00
  0.00000000E+00  0.00000000E+00  0.00000000E+00
  0.00000000E+00  0.00000000E+00  0.00000000E+00
  0.00000000E+00  0.00000000E+00  0.00000000E+00
  0.00000000E+00  0.00000000E+00  0.00000000E+00
  0.00000000E+00  0.00000000E+00  0.00000000E+00
  0.00000000E+00  0.00000000E+00  0.00000000E+00
  0.00000000E+00  0.00000000E+00  0.00000000E+00
  0.00000000E+00  0.00000000E+00  0.00000000E+00
  0.00000000E+00  0.00000000E+00  0.00000000E+00
  0.00000000E+00  0.00000000E+00  0.00000000E+00
  0.00000000E+00  0.00000000E+00  0.00000000E+00
  0.00000000E+00  0.00000000E+00  0.00000000E+00
  0.00000000E+00  0.00000000E+00  0.00000000E+00
  0.00000000E+00  0.00000000E+00  0.00000000E+00
  0.00000000E+00  0.00000000E+00  0.00000000E+00
  0.00000000E+00  0.00000000E+00  0.00000000E+00
  0.00000000E+00  0.00000000E+00  0.00000000E+00
  0.00000000E+00  0.00000000E+00  0.00000000E+00
  0.00000000E+00  0.00000000E+00  0.00000000E+00
  0.00000000E+00  0.00000000E+00  0.00000000E+00
  0.00000000E+00  0.00000000E+00  0.00000000E+00
  0.00000000E+00  0.00000000E+00  0.00000000E+00
  0.00000000E+00  0.00000000E+00  0.00000000E+00
  0.00000000E+00  0.00000000E+00  0.00000000E+00
  0.00000000E+00  0.00000000E+00  0.00000000E+00
  0.00000000E+00  0.00000000E+00  0.00000000E+00
  0.00000000E+00  0.00000000E+00  0.00000000E+00
  0.00000000E+00  0.00000000E+00  0.00000000E+00
  0.00000000E+00  0.00000000E+00  0.00000000E+00
  0.00000000E+00  0.00000000E+00  0.00000000E+00
  0.00000000E+00  0.00000000E+00  0.00000000E+00
  0.00000000E+00  0.00000000E+00  0.00000000E+00
  0.00000000E+00  0.00000000E+00  0.00000000E+00
  0.00000000E+00  0.00000000E+00  0.00000000E+00
  0.00000000E+00  0.00000000E+00  0.00000000E+00
  0.00000000E+00  0.00000000E+00  0.00000000E+00
  0.00000000E+00  0.00000000E+00  0.00000000E+00
  0.00000000E+00  0.00000000E+00  0.00000000E+00
  0.00000000E+00  0.00000000E+00  0.00000000E+00
  0.00000000E+00  0.00000000E+00  0.00000000E+00
  0.00000000E+00  0.00000000E+00  0.00000000E+00
  0.00000000E+00  0.00000000E+00  0.00000000E+00
  0.00000000E+00  0.00000000E+00  0.00000000E+00
  0.00000000E+00  0.00000000E+00  0.00000000E+00
  0.00000000E+00  0.00000000E+00  0.00000000E+00
  0.00000000E+00  0.00000000E+00  0.00000000E+00
  0.00000000E+00  0.00000000E+00  0.00000000E+00
  0.00000000E+00  0.00000000E+00  0.00000000E+00
  0.00000000E+00  0.00000000E+00  0.00000000E+00
  0.00000000E+00  0.00000000E+00  0.00000000E+00
  0.00000000E+00  0.00000000E+00  0.00000000E+00
  0.00000000E+00  0.00000000E+00  0.00000000E+00
  0.00000000E+00  0.00000000E+00  0.00000000E+00
  0.00000000E+00  0.00000000E+00  0.00000000E+00
  0.00000000E+00  0.00000000E+00  0.00000000E+00
  0.00000000E+00  0.00000000E+00  0.00000000E+00
