supercell of POSCAR                     
   1.01189200000000     
     3.1482772356600002   -5.4762754812200001    9.9674464565599994
    -9.4511209497999999   -5.4731922780100000    0.0032121685426600
     6.3112884282600001  -10.9581161277000003   -9.9749049577999997
   Al   Sc   N 
    84    12    95
Direct
  0.0872854879981944  0.5819672361129236  0.3337222428898272
  0.0000745623668550  0.3276158951886572  0.2528536350714887
  0.0807907736141686  0.0927537219807704  0.3359613959174297
  0.2500924685900756  0.5788868045957045  0.4981848246414486
  0.3274737536314092  0.3292856528535140  0.0766128854503023
  0.4246158763925578  0.1313108825519080  0.1631464592544276
  0.9969825818024347  0.8341579634465432  0.2500840426966988
  0.1669788633582101  0.3339762975513878  0.4151670769187419
  0.2486423283749843  0.0864095836084644  0.4984041536313129
  0.1624027925958629  0.8291623868685889  0.4233497589880528
  0.3332063007233117  0.6678593269912696  0.3380294228793161
  0.1602515801185405  0.6698662729195561  0.1658337821919176
  0.2503479239703523  0.4066321015970118  0.2510069356558375
  0.3325031456635443  0.1654184801388965  0.3354219063760127
  0.0020119243133223  0.6673648687356248  0.4974067526844692
  0.1644164381387583  0.1613033197428493  0.1681969721315681
  0.2032982143787763  0.9180316640019797  0.2771523821630737
  0.4131091008986019  0.4149584441649878  0.4169588632917751
  0.4990807276343716  0.1625888840971328  0.4986715210200643
  0.0796149959529373  0.9215584431802810  0.0798507066800980
  0.4164422791246665  0.9177196791788091  0.4156117934099512
  0.0887829548103198  0.5840322427745193  0.8333243974704274
  0.0017170703448386  0.3267581638929471  0.7535124922381584
  0.0849645171641313  0.0844517827032050  0.8334617930454513
  0.2491547570054493  0.5834280361536770  0.9958625168839674
  0.3312936476884261  0.3236581978272142  0.5809937148208775
  0.4182042114974465  0.0863861017786078  0.6696865406718473
  0.0068198919315776  0.8396270055712520  0.7532428990328413
  0.1667186150175581  0.3338761581450811  0.9131178424974635
  0.2473669608093303  0.0857271554514085  0.9947098170371831
  0.1643009263222481  0.8338557693670623  0.9154039171896144
  0.3366438423120499  0.6702190159477581  0.8366358396856199
  0.1610058709409614  0.6709343060756154  0.6663802595994071
  0.2525815502579221  0.4086345119640669  0.7507592469014455
  0.3338765159668284  0.1659562403561523  0.8328221916149445
  0.0022402025885313  0.6697300288962111  0.9959189059570548
  0.1679612433359026  0.1615194488190212  0.6688247119455539
  0.2532543367523630  0.9190353141111984  0.7541982285864322
  0.4146228930720994  0.4166653858111928  0.9142458675386251
  0.4979707963036191  0.1638512487176840  0.9937203289629153
  0.0830891996973975  0.9215293984130497  0.5827243398494630
  0.4167545763864098  0.9174891049506186  0.9146730689178142
  0.5895162798849114  0.5790627569555085  0.3356045862152328
  0.5027961585813188  0.3301732721059025  0.2561744566552377
  0.5859064906339597  0.0844204853595016  0.3343635838047661
  0.7496355251679816  0.5799434540142911  0.4977019676156402
  0.8301566367216680  0.3243124732205089  0.0788568329048402
  0.9168139261229911  0.0868589188586739  0.1678687844876023
  0.5340044457558619  0.8180880186739259  0.2668497249808439
  0.6678949158484784  0.3320900639702913  0.4156931111601523
  0.7495641159999309  0.0861047801858916  0.4976301383285104
  0.6673302328625255  0.8346727764471353  0.4197662168385534
  0.8349845923232380  0.6680012617342044  0.3372744613166532
  0.6610517803534464  0.6664063504228466  0.1642069745649763
  0.7516828525693242  0.4074663095106814  0.2506012818870360
  0.8331347630548152  0.1664287900617154  0.3340531579475936
  0.5023000351013849  0.6698377900140073  0.4977731100080760
  0.6705968819154080  0.1619632891848752  0.1688557270062105
  0.7545404037852634  0.9208165566566819  0.2534447424880923
  0.9140253580124877  0.4150736985993362  0.4156249726019965
  0.9987886844727285  0.1636169740375237  0.4993265174491626
  0.5802026524614092  0.9206470699918583  0.0802248074237397
  0.9203700405622328  0.9178152651857303  0.4129314595609870
  0.5885031278422588  0.5846660753554005  0.8338876124189198
  0.5022501972600892  0.3266767501972154  0.7536587774015828
  0.5849389203970645  0.0833652296182095  0.8334485363174053
  0.7486039824753163  0.5804425497141992  0.9958268376458719
  0.8310963259015338  0.3244706551905523  0.5807117213699655
  0.9179346768441548  0.0864492398081396  0.6696185709060174
  0.5061288559398065  0.8396396193655491  0.7537801968974307
  0.6676704993588203  0.3334792934399857  0.9132645573665528
  0.7477221174963802  0.0858745202178497  0.9960208694010149
  0.6641000317911576  0.8347960035713768  0.9150452303294614
  0.8368559873868406  0.6702969007004285  0.8366976398498593
  0.6611215370448491  0.6715590599710097  0.6663062133786255
  0.7524989444293695  0.4085854432118836  0.7507756166428550
  0.8338862380757206  0.1654727086714303  0.8333094415247118
  0.5003074202567603  0.6707200993044680  0.9976012068663849
  0.6680165531112081  0.1612382066509781  0.6685057357665514
  0.7533513558714233  0.9184865716087955  0.7534143926378860
  0.9143069367682557  0.4160147911369592  0.9144618611837316
  0.9976552025878149  0.1634975945969757  0.9966481273082763
  0.5826047801804890  0.9209226444104885  0.5825459997140570
  0.9185805302714982  0.9182442438660914  0.9127358364700342
  0.4028104899916727  0.5800025501507591  0.1720334547375870
  0.3246634623233291  0.8446171871327408  0.0898763486186454
  0.0765744723380379  0.4153293657745536  0.0841355995093238
  0.4053428609214933  0.5826396228131472  0.6736221136805440
  0.3303370923707973  0.8382810753808627  0.5857789582698487
  0.0782781811633200  0.4150047405526038  0.5858805831898621
  0.9044080539000134  0.5813711258357515  0.1719013087225179
  0.8281601439532267  0.8376770860671741  0.0808350668341049
  0.5782175793876476  0.4141656320678493  0.0840672765374322
  0.9046396893377135  0.5829941680612905  0.6738191178746646
  0.8322340099002190  0.8383204555477732  0.5837532023111436
  0.5782971066791944  0.4148254365208786  0.5858929979050558
  0.2186194316070385  0.5810961199514253  0.2655977288855382
  0.0403977477914808  0.5990725290143573  0.1014050233794848
  0.1302859537037619  0.3225596580867887  0.1944527521264874
  0.2110123421879777  0.0843759520263916  0.2714046215814392
  0.3796861363089690  0.5825842654284230  0.4366380366776994
  0.4496883125576829  0.3225113968371218  0.0125450052652099
  0.0418860156842484  0.0849346821122410  0.1027657043122048
  0.1318920956195839  0.8389890752238642  0.1846224073780647
  0.2952567249168538  0.3311365462477767  0.3521559278112250
  0.3770608647647649  0.0807498862382303  0.4348917067823876
  0.4614727504282143  0.8369254032441518  0.0183650823833617
  0.2930148034705198  0.8317011502399581  0.3561244951226143
  0.4664099963035753  0.6738349520424833  0.2798633164606912
  0.2780132233792685  0.6682977824755696  0.0970072701698612
  0.3779412614806219  0.3912288698635109  0.1844152062530213
  0.4610205127390827  0.1638044308857687  0.2729235480627423
  0.1306766307977725  0.6624486354335133  0.4340328888507585
  0.2151223570977265  0.4169183157748009  0.0137607209562560
  0.2893396633046237  0.1602998297059415  0.1015109854385372
  0.0439575903589144  0.4177785921368056  0.3516458422496243
  0.1272792287886162  0.1703198594357289  0.4359207175894042
  0.2018025671176957  0.9254660930053333  0.0139489126813785
  0.0580742444601299  0.9195268533810861  0.3462722453020106
  0.2192476845406617  0.5819705087331783  0.7667326602720834
  0.0399978431248655  0.5985163853274713  0.6018539421053930
  0.1320090324921779  0.3229673885676618  0.6954771885056346
  0.2124977335246641  0.0825675229843768  0.7713689602453186
  0.3794727871659589  0.5834422449798495  0.9371140481936777
  0.4512874963893978  0.3225544842667318  0.5127801107940542
  0.0427699217208470  0.0852951583306591  0.6033903305185575
  0.1329139159993531  0.8391512430015311  0.6856992220147262
  0.2957999276956897  0.3318077592928645  0.8525029354783271
  0.3762301783523156  0.0810680505043351  0.9349505993698486
  0.4689691727920504  0.8357799372683345  0.5135162996778462
  0.2938881558636908  0.8333348686090858  0.8552230359790443
  0.4694176924082711  0.6778591207190985  0.7799676854262145
  0.2772537024637032  0.6619205339756249  0.5971521094229715
  0.3791060321989974  0.3955606201878652  0.6852142433999120
  0.4625828238085887  0.1647013481446749  0.7724932791045944
  0.1305696822133910  0.6665237261558943  0.9340056154065266
  0.2173130338597034  0.4131102672983218  0.5146595720469094
  0.2925948205291604  0.1600524979840472  0.6026338660189055
  0.3846442318294763  0.9245326086687626  0.6971520617015869
  0.0444186882608761  0.4191721667917037  0.8521121611745031
  0.1269295209056267  0.1698578870876375  0.9351690539609976
  0.2011488027898451  0.9274035201287489  0.5137781286011460
  0.0480034434032817  0.9210406760002883  0.8531958707165614
  0.7164001310536392  0.5813760786670770  0.2664695393341106
  0.5383468162795353  0.5969645019347780  0.1020696149122600
  0.6297375888710661  0.3217037290083695  0.1954625057545698
  0.7118114406005205  0.0820955538243169  0.2709457623363534
  0.8790774201923384  0.5823375899565590  0.4363076167796791
  0.9503729678697894  0.3233482397646554  0.0121262491857479
  0.5405631864304823  0.0850562988987704  0.1037071088143193
  0.6298728135779825  0.8379351001217330  0.1857186609048966
  0.7947798231553449  0.3314897202909464  0.3520571483994104
  0.8795765662142969  0.0800315057049161  0.4337427661763869
  0.9683444546476281  0.8357152694936758  0.0129054246003548
  0.7946952510346250  0.8338175567186852  0.3534517831005530
  0.9673955957274387  0.6754436883485084  0.2794680727296495
  0.7765387904863488  0.6617914531144677  0.0968165203097584
  0.8767189306009939  0.3951209408720757  0.1843687555928994
  0.9599924089222327  0.1650509943225416  0.2710819761172374
  0.6309337761778906  0.6666974514371731  0.4330773385427662
  0.7161138959034403  0.4138638834197508  0.0140393037339379
  0.7912996317076662  0.1600965829552692  0.1016381507157433
  0.8816814207110824  0.9238378958344100  0.1941009780557010
  0.5438910339480216  0.4176779002207454  0.3538012573481879
  0.6276128023734131  0.1682413344975302  0.4345000390763261
  0.6970868369344956  0.9273916519417753  0.0129599500335189
  0.5457274432781318  0.9207589474123523  0.3531073351938119
  0.7191836829682998  0.5822519728666080  0.7667981658715490
  0.5407903138527459  0.5983915766215659  0.6014938938709165
  0.6322142678749998  0.3227250199355041  0.6954356978646103
  0.7125126578121694  0.0818640381769171  0.7711525516741347
  0.8792572992565724  0.5830668565206452  0.9367508612601370
  0.9509562963007951  0.3234794989386671  0.5124517869735570
  0.5429223368273739  0.0851210301470431  0.6032107078526749
  0.6322453939725534  0.8392597958427359  0.6860300397201087
  0.7958502480470244  0.3314196400046825  0.8521169982642220
  0.8765443708277658  0.0806647262997586  0.9351539660276202
  0.9721446043785562  0.8355428668400222  0.5104854283791340
  0.7939626118644867  0.8336019628651528  0.8548573215650777
  0.9697976848431864  0.6781506921622835  0.7800011849577970
  0.7774369770958103  0.6630974844032380  0.5967478719347241
  0.8788463254052701  0.3958503675473608  0.6850031130773786
  0.9622443820017139  0.1646549905789243  0.7723325850851523
  0.6292072797078632  0.6674114828683031  0.9351041878421640
  0.7167903123068271  0.4137249164370971  0.5144669751450976
  0.7928786205652116  0.1603150359076295  0.6019503027176469
  0.8848709065483433  0.9237691011991913  0.6960277646618707
  0.5447270203951717  0.4192836922963039  0.8524376775425537
  0.6270493068958203  0.1697831113541071  0.9346554002076388
  0.7016288211725339  0.9274463566845270  0.5134471280087354
  0.5459808489837528  0.9203040933168580  0.8543276053677147
 
  0.00000000E+00  0.00000000E+00  0.00000000E+00
  0.00000000E+00  0.00000000E+00  0.00000000E+00
  0.00000000E+00  0.00000000E+00  0.00000000E+00
  0.00000000E+00  0.00000000E+00  0.00000000E+00
  0.00000000E+00  0.00000000E+00  0.00000000E+00
  0.00000000E+00  0.00000000E+00  0.00000000E+00
  0.00000000E+00  0.00000000E+00  0.00000000E+00
  0.00000000E+00  0.00000000E+00  0.00000000E+00
  0.00000000E+00  0.00000000E+00  0.00000000E+00
  0.00000000E+00  0.00000000E+00  0.00000000E+00
  0.00000000E+00  0.00000000E+00  0.00000000E+00
  0.00000000E+00  0.00000000E+00  0.00000000E+00
  0.00000000E+00  0.00000000E+00  0.00000000E+00
  0.00000000E+00  0.00000000E+00  0.00000000E+00
  0.00000000E+00  0.00000000E+00  0.00000000E+00
  0.00000000E+00  0.00000000E+00  0.00000000E+00
  0.00000000E+00  0.00000000E+00  0.00000000E+00
  0.00000000E+00  0.00000000E+00  0.00000000E+00
  0.00000000E+00  0.00000000E+00  0.00000000E+00
  0.00000000E+00  0.00000000E+00  0.00000000E+00
  0.00000000E+00  0.00000000E+00  0.00000000E+00
  0.00000000E+00  0.00000000E+00  0.00000000E+00
  0.00000000E+00  0.00000000E+00  0.00000000E+00
  0.00000000E+00  0.00000000E+00  0.00000000E+00
  0.00000000E+00  0.00000000E+00  0.00000000E+00
  0.00000000E+00  0.00000000E+00  0.00000000E+00
  0.00000000E+00  0.00000000E+00  0.00000000E+00
  0.00000000E+00  0.00000000E+00  0.00000000E+00
  0.00000000E+00  0.00000000E+00  0.00000000E+00
  0.00000000E+00  0.00000000E+00  0.00000000E+00
  0.00000000E+00  0.00000000E+00  0.00000000E+00
  0.00000000E+00  0.00000000E+00  0.00000000E+00
  0.00000000E+00  0.00000000E+00  0.00000000E+00
  0.00000000E+00  0.00000000E+00  0.00000000E+00
  0.00000000E+00  0.00000000E+00  0.00000000E+00
  0.00000000E+00  0.00000000E+00  0.00000000E+00
  0.00000000E+00  0.00000000E+00  0.00000000E+00
  0.00000000E+00  0.00000000E+00  0.00000000E+00
  0.00000000E+00  0.00000000E+00  0.00000000E+00
  0.00000000E+00  0.00000000E+00  0.00000000E+00
  0.00000000E+00  0.00000000E+00  0.00000000E+00
  0.00000000E+00  0.00000000E+00  0.00000000E+00
  0.00000000E+00  0.00000000E+00  0.00000000E+00
  0.00000000E+00  0.00000000E+00  0.00000000E+00
  0.00000000E+00  0.00000000E+00  0.00000000E+00
  0.00000000E+00  0.00000000E+00  0.00000000E+00
  0.00000000E+00  0.00000000E+00  0.00000000E+00
  0.00000000E+00  0.00000000E+00  0.00000000E+00
  0.00000000E+00  0.00000000E+00  0.00000000E+00
  0.00000000E+00  0.00000000E+00  0.00000000E+00
  0.00000000E+00  0.00000000E+00  0.00000000E+00
  0.00000000E+00  0.00000000E+00  0.00000000E+00
  0.00000000E+00  0.00000000E+00  0.00000000E+00
  0.00000000E+00  0.00000000E+00  0.00000000E+00
  0.00000000E+00  0.00000000E+00  0.00000000E+00
  0.00000000E+00  0.00000000E+00  0.00000000E+00
  0.00000000E+00  0.00000000E+00  0.00000000E+00
  0.00000000E+00  0.00000000E+00  0.00000000E+00
  0.00000000E+00  0.00000000E+00  0.00000000E+00
  0.00000000E+00  0.00000000E+00  0.00000000E+00
  0.00000000E+00  0.00000000E+00  0.00000000E+00
  0.00000000E+00  0.00000000E+00  0.00000000E+00
  0.00000000E+00  0.00000000E+00  0.00000000E+00
  0.00000000E+00  0.00000000E+00  0.00000000E+00
  0.00000000E+00  0.00000000E+00  0.00000000E+00
  0.00000000E+00  0.00000000E+00  0.00000000E+00
  0.00000000E+00  0.00000000E+00  0.00000000E+00
  0.00000000E+00  0.00000000E+00  0.00000000E+00
  0.00000000E+00  0.00000000E+00  0.00000000E+00
  0.00000000E+00  0.00000000E+00  0.00000000E+00
  0.00000000E+00  0.00000000E+00  0.00000000E+00
  0.00000000E+00  0.00000000E+00  0.00000000E+00
  0.00000000E+00  0.00000000E+00  0.00000000E+00
  0.00000000E+00  0.00000000E+00  0.00000000E+00
  0.00000000E+00  0.00000000E+00  0.00000000E+00
  0.00000000E+00  0.00000000E+00  0.00000000E+00
  0.00000000E+00  0.00000000E+00  0.00000000E+00
  0.00000000E+00  0.00000000E+00  0.00000000E+00
  0.00000000E+00  0.00000000E+00  0.00000000E+00
  0.00000000E+00  0.00000000E+00  0.00000000E+00
  0.00000000E+00  0.00000000E+00  0.00000000E+00
  0.00000000E+00  0.00000000E+00  0.00000000E+00
  0.00000000E+00  0.00000000E+00  0.00000000E+00
  0.00000000E+00  0.00000000E+00  0.00000000E+00
  0.00000000E+00  0.00000000E+00  0.00000000E+00
  0.00000000E+00  0.00000000E+00  0.00000000E+00
  0.00000000E+00  0.00000000E+00  0.00000000E+00
  0.00000000E+00  0.00000000E+00  0.00000000E+00
  0.00000000E+00  0.00000000E+00  0.00000000E+00
  0.00000000E+00  0.00000000E+00  0.00000000E+00
  0.00000000E+00  0.00000000E+00  0.00000000E+00
  0.00000000E+00  0.00000000E+00  0.00000000E+00
  0.00000000E+00  0.00000000E+00  0.00000000E+00
  0.00000000E+00  0.00000000E+00  0.00000000E+00
  0.00000000E+00  0.00000000E+00  0.00000000E+00
  0.00000000E+00  0.00000000E+00  0.00000000E+00
  0.00000000E+00  0.00000000E+00  0.00000000E+00
  0.00000000E+00  0.00000000E+00  0.00000000E+00
  0.00000000E+00  0.00000000E+00  0.00000000E+00
  0.00000000E+00  0.00000000E+00  0.00000000E+00
  0.00000000E+00  0.00000000E+00  0.00000000E+00
  0.00000000E+00  0.00000000E+00  0.00000000E+00
  0.00000000E+00  0.00000000E+00  0.00000000E+00
  0.00000000E+00  0.00000000E+00  0.00000000E+00
  0.00000000E+00  0.00000000E+00  0.00000000E+00
  0.00000000E+00  0.00000000E+00  0.00000000E+00
  0.00000000E+00  0.00000000E+00  0.00000000E+00
  0.00000000E+00  0.00000000E+00  0.00000000E+00
  0.00000000E+00  0.00000000E+00  0.00000000E+00
  0.00000000E+00  0.00000000E+00  0.00000000E+00
  0.00000000E+00  0.00000000E+00  0.00000000E+00
  0.00000000E+00  0.00000000E+00  0.00000000E+00
  0.00000000E+00  0.00000000E+00  0.00000000E+00
  0.00000000E+00  0.00000000E+00  0.00000000E+00
  0.00000000E+00  0.00000000E+00  0.00000000E+00
  0.00000000E+00  0.00000000E+00  0.00000000E+00
  0.00000000E+00  0.00000000E+00  0.00000000E+00
  0.00000000E+00  0.00000000E+00  0.00000000E+00
  0.00000000E+00  0.00000000E+00  0.00000000E+00
  0.00000000E+00  0.00000000E+00  0.00000000E+00
  0.00000000E+00  0.00000000E+00  0.00000000E+00
  0.00000000E+00  0.00000000E+00  0.00000000E+00
  0.00000000E+00  0.00000000E+00  0.00000000E+00
  0.00000000E+00  0.00000000E+00  0.00000000E+00
  0.00000000E+00  0.00000000E+00  0.00000000E+00
  0.00000000E+00  0.00000000E+00  0.00000000E+00
  0.00000000E+00  0.00000000E+00  0.00000000E+00
  0.00000000E+00  0.00000000E+00  0.00000000E+00
  0.00000000E+00  0.00000000E+00  0.00000000E+00
  0.00000000E+00  0.00000000E+00  0.00000000E+00
  0.00000000E+00  0.00000000E+00  0.00000000E+00
  0.00000000E+00  0.00000000E+00  0.00000000E+00
  0.00000000E+00  0.00000000E+00  0.00000000E+00
  0.00000000E+00  0.00000000E+00  0.00000000E+00
  0.00000000E+00  0.00000000E+00  0.00000000E+00
  0.00000000E+00  0.00000000E+00  0.00000000E+00
  0.00000000E+00  0.00000000E+00  0.00000000E+00
  0.00000000E+00  0.00000000E+00  0.00000000E+00
  0.00000000E+00  0.00000000E+00  0.00000000E+00
  0.00000000E+00  0.00000000E+00  0.00000000E+00
  0.00000000E+00  0.00000000E+00  0.00000000E+00
  0.00000000E+00  0.00000000E+00  0.00000000E+00
  0.00000000E+00  0.00000000E+00  0.00000000E+00
  0.00000000E+00  0.00000000E+00  0.00000000E+00
  0.00000000E+00  0.00000000E+00  0.00000000E+00
  0.00000000E+00  0.00000000E+00  0.00000000E+00
  0.00000000E+00  0.00000000E+00  0.00000000E+00
  0.00000000E+00  0.00000000E+00  0.00000000E+00
  0.00000000E+00  0.00000000E+00  0.00000000E+00
  0.00000000E+00  0.00000000E+00  0.00000000E+00
  0.00000000E+00  0.00000000E+00  0.00000000E+00
  0.00000000E+00  0.00000000E+00  0.00000000E+00
  0.00000000E+00  0.00000000E+00  0.00000000E+00
  0.00000000E+00  0.00000000E+00  0.00000000E+00
  0.00000000E+00  0.00000000E+00  0.00000000E+00
  0.00000000E+00  0.00000000E+00  0.00000000E+00
  0.00000000E+00  0.00000000E+00  0.00000000E+00
  0.00000000E+00  0.00000000E+00  0.00000000E+00
  0.00000000E+00  0.00000000E+00  0.00000000E+00
  0.00000000E+00  0.00000000E+00  0.00000000E+00
  0.00000000E+00  0.00000000E+00  0.00000000E+00
  0.00000000E+00  0.00000000E+00  0.00000000E+00
  0.00000000E+00  0.00000000E+00  0.00000000E+00
  0.00000000E+00  0.00000000E+00  0.00000000E+00
  0.00000000E+00  0.00000000E+00  0.00000000E+00
  0.00000000E+00  0.00000000E+00  0.00000000E+00
  0.00000000E+00  0.00000000E+00  0.00000000E+00
  0.00000000E+00  0.00000000E+00  0.00000000E+00
  0.00000000E+00  0.00000000E+00  0.00000000E+00
  0.00000000E+00  0.00000000E+00  0.00000000E+00
  0.00000000E+00  0.00000000E+00  0.00000000E+00
  0.00000000E+00  0.00000000E+00  0.00000000E+00
  0.00000000E+00  0.00000000E+00  0.00000000E+00
  0.00000000E+00  0.00000000E+00  0.00000000E+00
  0.00000000E+00  0.00000000E+00  0.00000000E+00
  0.00000000E+00  0.00000000E+00  0.00000000E+00
  0.00000000E+00  0.00000000E+00  0.00000000E+00
  0.00000000E+00  0.00000000E+00  0.00000000E+00
  0.00000000E+00  0.00000000E+00  0.00000000E+00
  0.00000000E+00  0.00000000E+00  0.00000000E+00
  0.00000000E+00  0.00000000E+00  0.00000000E+00
  0.00000000E+00  0.00000000E+00  0.00000000E+00
  0.00000000E+00  0.00000000E+00  0.00000000E+00
  0.00000000E+00  0.00000000E+00  0.00000000E+00
  0.00000000E+00  0.00000000E+00  0.00000000E+00
  0.00000000E+00  0.00000000E+00  0.00000000E+00
  0.00000000E+00  0.00000000E+00  0.00000000E+00
  0.00000000E+00  0.00000000E+00  0.00000000E+00
  0.00000000E+00  0.00000000E+00  0.00000000E+00
  0.00000000E+00  0.00000000E+00  0.00000000E+00
  0.00000000E+00  0.00000000E+00  0.00000000E+00
