supercell of POSCAR                     
   1.01189200000000     
     3.1482772356600002   -5.4762754812200001    9.9674464565599994
    -9.4511209497999999   -5.4731922780100000    0.0032121685426600
     6.3112884282600001  -10.9581161277000003   -9.9749049577999997
   Al   Sc   N 
    84    11    96
Direct
  0.0894918099599522  0.5845587119267535  0.3338308702212487
  0.0046938442501343  0.3284546446473229  0.2532706409132786
  0.0859150765163719  0.0843911222801950  0.3338078647941884
  0.2501776114985219  0.5812275585178597  0.4949985644127466
  0.3299994170032079  0.3257186212338468  0.0808643912884932
  0.4175889205139072  0.0871346774655919  0.1693622658078340
  0.0076695756784915  0.8389847758073685  0.2533217382934936
  0.1691555070085116  0.3345779741873969  0.4118133423042920
  0.2479629609924601  0.0859925887133741  0.4964324951165509
  0.1650776380910912  0.8340170032687695  0.4150528290531952
  0.3413163179251129  0.6676173856008845  0.3287583463226014
  0.1688047780667503  0.6666073817942859  0.1662719422508800
  0.2634352094273922  0.4166494142444179  0.2447890960465031
  0.3350436315747629  0.1673454690416278  0.3325352492764964
  0.0019033880790147  0.6701990335009356  0.4973882733515680
  0.1691773916922941  0.1632069450614964  0.1684709949962908
  0.2542950837335667  0.9185907829799689  0.2533800065843934
  0.4151561623940552  0.4167244567772315  0.4139468603395002
  0.4982428229226841  0.1629522920394422  0.4969786042353377
  0.0856189774926293  0.9186764361318609  0.0825366830761993
  0.4183743410081675  0.9167841430847332  0.4118740098344631
  0.0865453727723775  0.5833186614238954  0.8349219441861990
  0.0000655185336171  0.3263600261573245  0.7540564125290317
  0.0840825454597933  0.0832059028708230  0.8350225492514838
  0.2514856967922583  0.5795266397246621  0.0000636509707874
  0.3302476619357151  0.3242910256585390  0.5792964200159929
  0.4163601673785493  0.0862759558180812  0.6690159214357863
  0.0044950733923130  0.8386958626342462  0.7542147756348996
  0.1660538344559370  0.3320767901979380  0.9146076377576264
  0.2486611965763572  0.0831548702025984  0.9984881623692061
  0.1642880828295219  0.8326033426181709  0.9185581346847940
  0.3348359573750486  0.6696202919919898  0.8370428123316316
  0.1594112084779340  0.6707357314234059  0.6661111051025870
  0.2504418905191983  0.4085182567713233  0.7505071507232515
  0.3328167152064339  0.1655638288295407  0.8341582372573839
  0.0019568669680083  0.6687524213534601  0.9992470326432255
  0.1664703139767738  0.1614016000838987  0.6683613057670712
  0.2513563930186962  0.9182222964294411  0.7539511528136131
  0.4128326385789549  0.4161936552539203  0.9151864118660242
  0.4974436859694293  0.1649752001226190  0.9983583345034788
  0.0808328650860233  0.9207249599323220  0.5813571634277750
  0.4168287232674075  0.9180147892080228  0.9147026523630970
  0.5853859072176490  0.5852667263421552  0.3303022713811998
  0.5008119112057301  0.3290783220895150  0.2532727506097956
  0.5857358564132227  0.0847764125217338  0.3338380364045506
  0.7491992259745928  0.5801424495134313  0.4969852489189108
  0.8266379511241624  0.3262889741117689  0.0813208419280684
  0.9187461491724065  0.0869765761607084  0.1696770112422925
  0.5058763189056990  0.8369661778319823  0.2527873752470455
  0.6673496706437803  0.3337805748760232  0.4139117372607970
  0.7479143831858934  0.0858367356870176  0.4970017098181856
  0.6629425274595206  0.8340111942169912  0.4152327938889755
  0.8356212070778426  0.6701347700806295  0.3374106710657969
  0.6585892610635824  0.6724582476810781  0.1660388654762528
  0.7530654482500410  0.4094928996865193  0.2512103398114576
  0.8349439300364452  0.1668066836546416  0.3335577177727842
  0.5020608456398321  0.6694329107767061  0.4942364117339437
  0.6672597100660127  0.1636247701024089  0.1688589431671232
  0.7531566297577541  0.9197306161239851  0.2539857341132077
  0.9150588997182041  0.4160195250348693  0.4155583709760577
  0.9989744325354692  0.1637255926551404  0.4975971268743251
  0.5812932510452526  0.9212082124269685  0.0813061461468436
  0.9182304685195248  0.9179713460590690  0.4138958546759923
  0.5868587150289315  0.5843882767352682  0.8336551528112182
  0.5002981121049430  0.3268533960670226  0.7536503808494501
  0.5836536728789667  0.0845853896401891  0.8345894814250556
  0.7404637881736278  0.5798771784364902  0.0024317062650638
  0.8303280211561415  0.3239004023816818  0.5807610071855294
  0.9166863246940693  0.0859552501115033  0.6697442973838861
  0.5044292897417577  0.8398274376028425  0.7528115215921716
  0.6642022037889816  0.3348393530325424  0.9181456235746950
  0.7471706344116242  0.0867958164351634  0.9979979511368882
  0.6626242232187423  0.8355646047067751  0.9163001392583112
  0.8337682954366201  0.6693673721239861  0.8397873995540195
  0.6592565569765796  0.6706088223741560  0.6660004422515726
  0.7499043795680933  0.4079264906835434  0.7521231055709805
  0.8325017157275951  0.1661685222953793  0.8350453100270272
  0.5021579544526915  0.6705542531839512  0.9968217110453139
  0.6664197248320107  0.1611907061841009  0.6684743486262690
  0.7518882952628516  0.9187850016046184  0.7543840587041686
  0.9118224177890326  0.4165649868524000  0.9171747632890614
  0.9981405680921327  0.1634919778902599  0.9990495122461240
  0.5808707714382280  0.9206764458909049  0.5806932173479211
  0.9182840682177016  0.9177126617530007  0.9152490046365571
  0.3336243991355090  0.8260013767421981  0.0883551142658447
  0.0783624046378861  0.4162187534102699  0.0856012295426964
  0.4036705863738845  0.5825023519470847  0.6724136976143811
  0.3282737478320854  0.8377232143899533  0.5828189106373785
  0.0786737773476887  0.4161849357090688  0.5843599986800854
  0.9059139539617433  0.5839851402715723  0.1750253649020337
  0.8294225800579227  0.8406225131209268  0.0851132517623299
  0.5586240553827011  0.4240263696083986  0.0946426103255718
  0.9029204967652973  0.5818027715195555  0.6747665088658152
  0.8273859629962104  0.8376542867795536  0.5843016542226351
  0.5776601381101756  0.4153608639567423  0.5844349997219354
  0.2149849333366802  0.5815695587899654  0.2691956459194529
  0.0400303219044957  0.5979239832241916  0.1035177273897858
  0.1349974332841199  0.3253676329796065  0.1954863548431334
  0.2128045347026131  0.0830912699321473  0.2714057396202989
  0.3792993876648367  0.5829604869923131  0.4353260368657885
  0.4478290996120791  0.3232427557042357  0.0100305250019659
  0.0435236588665049  0.0848729189462247  0.1036583410400809
  0.1333217279457841  0.8380256302407432  0.1868815775301442
  0.2970796828983993  0.3336773887426858  0.3501828461630438
  0.3766288020261470  0.0810528386625649  0.4349090968521168
  0.4688316713449936  0.8371674892049370  0.0120696429372344
  0.2936245325344515  0.8324920373550100  0.3542489752237543
  0.4741854396814844  0.6820878589493446  0.2817807542577384
  0.2757903692286661  0.6594658466358823  0.0958640237815516
  0.3849813411990795  0.3911326351314202  0.1815936806710141
  0.4639111183916285  0.1645243517680655  0.2730636273377129
  0.1295812478527338  0.6665762929571741  0.4354467696434341
  0.2146689684929441  0.4119229248539469  0.0129592104170229
  0.2917559718177500  0.1594497394087000  0.1016598500765724
  0.3853228556684982  0.9262751499085624  0.1974605714467330
  0.0439625615002299  0.4190890488916637  0.3532534545735899
  0.1274962111609312  0.1708508175202894  0.4349314291698434
  0.2037665372892405  0.9239889155582617  0.0141856669989124
  0.0472552504175354  0.9213122268730274  0.3536472869163276
  0.2167110683330336  0.5814906901768140  0.7660313209008720
  0.0380942310931047  0.5983820014720251  0.6025479303255423
  0.1296511449309108  0.3230440045551006  0.6946505969849781
  0.2110069955072760  0.0822987769483134  0.7709180190751184
  0.3788123010221724  0.5826689197325621  0.9348214392375027
  0.4505452257104992  0.3232171967724895  0.5123751746955563
  0.0414989383948239  0.0852945231538627  0.6034076276931657
  0.1304624966235082  0.8387711536116385  0.6857206425173814
  0.2936902648274184  0.3313025353046939  0.8509958095388015
  0.3763516785706500  0.0814283005862748  0.9344715621366220
  0.4676589307060013  0.8354351139441576  0.5129941975440317
  0.2926724823303459  0.8331507250033994  0.8541151628155887
  0.4674648051854007  0.6778519391701963  0.7783240262869242
  0.2753562799493636  0.6614026766098888  0.5968088894672334
  0.3768969733786207  0.3953421324397723  0.6845790175908206
  0.4608681038705384  0.1645888838711187  0.7717879017738909
  0.1295014758597475  0.6640439734115731  0.9339142466702057
  0.2167848117366233  0.4140882693283885  0.5135945461945042
  0.2910342882817076  0.1606102026137890  0.6021305364107121
  0.3822201457071941  0.9240341924401960  0.6954272221749704
  0.0421530570205135  0.4178276009868966  0.8522327969302381
  0.1264840272913048  0.1679798894286932  0.9352349681161201
  0.1989194125762523  0.9272705523542442  0.5126778339901819
  0.0470360859849777  0.9196759223710487  0.8535465914508436
  0.7207113269787939  0.5821088946944570  0.2671072209840943
  0.5538678079097963  0.6036205174851830  0.0938013719540649
  0.6340115756245126  0.3230909020846511  0.1979689702425489
  0.7138631848535368  0.0836007400190084  0.2718490996476959
  0.8797035648597955  0.5827687190136430  0.4378159403839277
  0.9489638202468456  0.3234084764227632  0.0135658195211121
  0.5427845367493518  0.0868291043511462  0.1030998141022010
  0.6341050872143654  0.8425158904122867  0.1854396663558049
  0.7966717425765069  0.3320461520101929  0.3533916558203245
  0.8773484265389868  0.0816759364183213  0.4355339995568883
  0.9691961407558765  0.8360503594419129  0.0142603310352172
  0.7937740441850494  0.8341257283162449  0.3553609590080953
  0.9688463012444899  0.6790695365399912  0.2822337645627044
  0.7818516058747278  0.6658222986510225  0.0993201329994022
  0.8796805413866480  0.3956471255369323  0.1860204975279274
  0.9636631025232916  0.1660359778129887  0.2726097077031824
  0.6325367142426472  0.6650199603368847  0.4344718184839991
  0.7101361894940936  0.4126911945723606  0.0182817580920158
  0.7925691204055454  0.1600839691962364  0.1030231297559396
  0.8856210449578938  0.9254844857006006  0.1978583386695192
  0.5458476578491656  0.4187396903525311  0.3535425916630501
  0.6276525333525385  0.1701238554740101  0.4356524405591813
  0.6997941945481116  0.9278617341141810  0.0121490378145666
  0.5483714716552370  0.9226999927433042  0.3530912787587397
  0.7174176639298082  0.5815060196980468  0.7662078614754648
  0.5388438864602634  0.5985873187962270  0.6007476244637076
  0.6300407666149326  0.3228445456995601  0.6948283942316067
  0.7113288795524610  0.0828131846245768  0.7712823322500739
  0.8761535535993232  0.5824727232002331  0.9390603631726506
  0.9508331897848876  0.3235335222709637  0.5136398757866303
  0.5414085361348953  0.0851710411308417  0.6031242855325232
  0.6313363377960712  0.8392158834822041  0.6853181275378333
  0.7929923100500460  0.3318204718044271  0.8536303216612708
  0.8765295437059919  0.0813738018889367  0.9356325034120303
  0.9666720866562102  0.8359226830973157  0.5143037598350233
  0.7934727298368287  0.8345003735237739  0.8548746212769629
  0.9667247464824342  0.6771964999479181  0.7807260002063785
  0.7762005761294546  0.6609678228050626  0.5979519171799978
  0.8762145316542131  0.3944377352261412  0.6860767344675267
  0.9609486172776585  0.1640515803413223  0.7727337448684395
  0.6308814459030998  0.6681004664126888  0.9311297524321631
  0.7169943922286350  0.4132688147801531  0.5151129265707652
  0.7914376052474381  0.1599015301752260  0.6027068807684017
  0.8830520556466865  0.9238997301059797  0.6965668406030971
  0.5431444417083497  0.4189902247611030  0.8513517171057288
  0.6260674811593958  0.1694500220720627  0.9348389006556559
  0.6995117324510787  0.9270031642829366  0.5127724922879651
  0.5457118074636185  0.9211915766291909  0.8518749131072738
 
  0.00000000E+00  0.00000000E+00  0.00000000E+00
  0.00000000E+00  0.00000000E+00  0.00000000E+00
  0.00000000E+00  0.00000000E+00  0.00000000E+00
  0.00000000E+00  0.00000000E+00  0.00000000E+00
  0.00000000E+00  0.00000000E+00  0.00000000E+00
  0.00000000E+00  0.00000000E+00  0.00000000E+00
  0.00000000E+00  0.00000000E+00  0.00000000E+00
  0.00000000E+00  0.00000000E+00  0.00000000E+00
  0.00000000E+00  0.00000000E+00  0.00000000E+00
  0.00000000E+00  0.00000000E+00  0.00000000E+00
  0.00000000E+00  0.00000000E+00  0.00000000E+00
  0.00000000E+00  0.00000000E+00  0.00000000E+00
  0.00000000E+00  0.00000000E+00  0.00000000E+00
  0.00000000E+00  0.00000000E+00  0.00000000E+00
  0.00000000E+00  0.00000000E+00  0.00000000E+00
  0.00000000E+00  0.00000000E+00  0.00000000E+00
  0.00000000E+00  0.00000000E+00  0.00000000E+00
  0.00000000E+00  0.00000000E+00  0.00000000E+00
  0.00000000E+00  0.00000000E+00  0.00000000E+00
  0.00000000E+00  0.00000000E+00  0.00000000E+00
  0.00000000E+00  0.00000000E+00  0.00000000E+00
  0.00000000E+00  0.00000000E+00  0.00000000E+00
  0.00000000E+00  0.00000000E+00  0.00000000E+00
  0.00000000E+00  0.00000000E+00  0.00000000E+00
  0.00000000E+00  0.00000000E+00  0.00000000E+00
  0.00000000E+00  0.00000000E+00  0.00000000E+00
  0.00000000E+00  0.00000000E+00  0.00000000E+00
  0.00000000E+00  0.00000000E+00  0.00000000E+00
  0.00000000E+00  0.00000000E+00  0.00000000E+00
  0.00000000E+00  0.00000000E+00  0.00000000E+00
  0.00000000E+00  0.00000000E+00  0.00000000E+00
  0.00000000E+00  0.00000000E+00  0.00000000E+00
  0.00000000E+00  0.00000000E+00  0.00000000E+00
  0.00000000E+00  0.00000000E+00  0.00000000E+00
  0.00000000E+00  0.00000000E+00  0.00000000E+00
  0.00000000E+00  0.00000000E+00  0.00000000E+00
  0.00000000E+00  0.00000000E+00  0.00000000E+00
  0.00000000E+00  0.00000000E+00  0.00000000E+00
  0.00000000E+00  0.00000000E+00  0.00000000E+00
  0.00000000E+00  0.00000000E+00  0.00000000E+00
  0.00000000E+00  0.00000000E+00  0.00000000E+00
  0.00000000E+00  0.00000000E+00  0.00000000E+00
  0.00000000E+00  0.00000000E+00  0.00000000E+00
  0.00000000E+00  0.00000000E+00  0.00000000E+00
  0.00000000E+00  0.00000000E+00  0.00000000E+00
  0.00000000E+00  0.00000000E+00  0.00000000E+00
  0.00000000E+00  0.00000000E+00  0.00000000E+00
  0.00000000E+00  0.00000000E+00  0.00000000E+00
  0.00000000E+00  0.00000000E+00  0.00000000E+00
  0.00000000E+00  0.00000000E+00  0.00000000E+00
  0.00000000E+00  0.00000000E+00  0.00000000E+00
  0.00000000E+00  0.00000000E+00  0.00000000E+00
  0.00000000E+00  0.00000000E+00  0.00000000E+00
  0.00000000E+00  0.00000000E+00  0.00000000E+00
  0.00000000E+00  0.00000000E+00  0.00000000E+00
  0.00000000E+00  0.00000000E+00  0.00000000E+00
  0.00000000E+00  0.00000000E+00  0.00000000E+00
  0.00000000E+00  0.00000000E+00  0.00000000E+00
  0.00000000E+00  0.00000000E+00  0.00000000E+00
  0.00000000E+00  0.00000000E+00  0.00000000E+00
  0.00000000E+00  0.00000000E+00  0.00000000E+00
  0.00000000E+00  0.00000000E+00  0.00000000E+00
  0.00000000E+00  0.00000000E+00  0.00000000E+00
  0.00000000E+00  0.00000000E+00  0.00000000E+00
  0.00000000E+00  0.00000000E+00  0.00000000E+00
  0.00000000E+00  0.00000000E+00  0.00000000E+00
  0.00000000E+00  0.00000000E+00  0.00000000E+00
  0.00000000E+00  0.00000000E+00  0.00000000E+00
  0.00000000E+00  0.00000000E+00  0.00000000E+00
  0.00000000E+00  0.00000000E+00  0.00000000E+00
  0.00000000E+00  0.00000000E+00  0.00000000E+00
  0.00000000E+00  0.00000000E+00  0.00000000E+00
  0.00000000E+00  0.00000000E+00  0.00000000E+00
  0.00000000E+00  0.00000000E+00  0.00000000E+00
  0.00000000E+00  0.00000000E+00  0.00000000E+00
  0.00000000E+00  0.00000000E+00  0.00000000E+00
  0.00000000E+00  0.00000000E+00  0.00000000E+00
  0.00000000E+00  0.00000000E+00  0.00000000E+00
  0.00000000E+00  0.00000000E+00  0.00000000E+00
  0.00000000E+00  0.00000000E+00  0.00000000E+00
  0.00000000E+00  0.00000000E+00  0.00000000E+00
  0.00000000E+00  0.00000000E+00  0.00000000E+00
  0.00000000E+00  0.00000000E+00  0.00000000E+00
  0.00000000E+00  0.00000000E+00  0.00000000E+00
  0.00000000E+00  0.00000000E+00  0.00000000E+00
  0.00000000E+00  0.00000000E+00  0.00000000E+00
  0.00000000E+00  0.00000000E+00  0.00000000E+00
  0.00000000E+00  0.00000000E+00  0.00000000E+00
  0.00000000E+00  0.00000000E+00  0.00000000E+00
  0.00000000E+00  0.00000000E+00  0.00000000E+00
  0.00000000E+00  0.00000000E+00  0.00000000E+00
  0.00000000E+00  0.00000000E+00  0.00000000E+00
  0.00000000E+00  0.00000000E+00  0.00000000E+00
  0.00000000E+00  0.00000000E+00  0.00000000E+00
  0.00000000E+00  0.00000000E+00  0.00000000E+00
  0.00000000E+00  0.00000000E+00  0.00000000E+00
  0.00000000E+00  0.00000000E+00  0.00000000E+00
  0.00000000E+00  0.00000000E+00  0.00000000E+00
  0.00000000E+00  0.00000000E+00  0.00000000E+00
  0.00000000E+00  0.00000000E+00  0.00000000E+00
  0.00000000E+00  0.00000000E+00  0.00000000E+00
  0.00000000E+00  0.00000000E+00  0.00000000E+00
  0.00000000E+00  0.00000000E+00  0.00000000E+00
  0.00000000E+00  0.00000000E+00  0.00000000E+00
  0.00000000E+00  0.00000000E+00  0.00000000E+00
  0.00000000E+00  0.00000000E+00  0.00000000E+00
  0.00000000E+00  0.00000000E+00  0.00000000E+00
  0.00000000E+00  0.00000000E+00  0.00000000E+00
  0.00000000E+00  0.00000000E+00  0.00000000E+00
  0.00000000E+00  0.00000000E+00  0.00000000E+00
  0.00000000E+00  0.00000000E+00  0.00000000E+00
  0.00000000E+00  0.00000000E+00  0.00000000E+00
  0.00000000E+00  0.00000000E+00  0.00000000E+00
  0.00000000E+00  0.00000000E+00  0.00000000E+00
  0.00000000E+00  0.00000000E+00  0.00000000E+00
  0.00000000E+00  0.00000000E+00  0.00000000E+00
  0.00000000E+00  0.00000000E+00  0.00000000E+00
  0.00000000E+00  0.00000000E+00  0.00000000E+00
  0.00000000E+00  0.00000000E+00  0.00000000E+00
  0.00000000E+00  0.00000000E+00  0.00000000E+00
  0.00000000E+00  0.00000000E+00  0.00000000E+00
  0.00000000E+00  0.00000000E+00  0.00000000E+00
  0.00000000E+00  0.00000000E+00  0.00000000E+00
  0.00000000E+00  0.00000000E+00  0.00000000E+00
  0.00000000E+00  0.00000000E+00  0.00000000E+00
  0.00000000E+00  0.00000000E+00  0.00000000E+00
  0.00000000E+00  0.00000000E+00  0.00000000E+00
  0.00000000E+00  0.00000000E+00  0.00000000E+00
  0.00000000E+00  0.00000000E+00  0.00000000E+00
  0.00000000E+00  0.00000000E+00  0.00000000E+00
  0.00000000E+00  0.00000000E+00  0.00000000E+00
  0.00000000E+00  0.00000000E+00  0.00000000E+00
  0.00000000E+00  0.00000000E+00  0.00000000E+00
  0.00000000E+00  0.00000000E+00  0.00000000E+00
  0.00000000E+00  0.00000000E+00  0.00000000E+00
  0.00000000E+00  0.00000000E+00  0.00000000E+00
  0.00000000E+00  0.00000000E+00  0.00000000E+00
  0.00000000E+00  0.00000000E+00  0.00000000E+00
  0.00000000E+00  0.00000000E+00  0.00000000E+00
  0.00000000E+00  0.00000000E+00  0.00000000E+00
  0.00000000E+00  0.00000000E+00  0.00000000E+00
  0.00000000E+00  0.00000000E+00  0.00000000E+00
  0.00000000E+00  0.00000000E+00  0.00000000E+00
  0.00000000E+00  0.00000000E+00  0.00000000E+00
  0.00000000E+00  0.00000000E+00  0.00000000E+00
  0.00000000E+00  0.00000000E+00  0.00000000E+00
  0.00000000E+00  0.00000000E+00  0.00000000E+00
  0.00000000E+00  0.00000000E+00  0.00000000E+00
  0.00000000E+00  0.00000000E+00  0.00000000E+00
  0.00000000E+00  0.00000000E+00  0.00000000E+00
  0.00000000E+00  0.00000000E+00  0.00000000E+00
  0.00000000E+00  0.00000000E+00  0.00000000E+00
  0.00000000E+00  0.00000000E+00  0.00000000E+00
  0.00000000E+00  0.00000000E+00  0.00000000E+00
  0.00000000E+00  0.00000000E+00  0.00000000E+00
  0.00000000E+00  0.00000000E+00  0.00000000E+00
  0.00000000E+00  0.00000000E+00  0.00000000E+00
  0.00000000E+00  0.00000000E+00  0.00000000E+00
  0.00000000E+00  0.00000000E+00  0.00000000E+00
  0.00000000E+00  0.00000000E+00  0.00000000E+00
  0.00000000E+00  0.00000000E+00  0.00000000E+00
  0.00000000E+00  0.00000000E+00  0.00000000E+00
  0.00000000E+00  0.00000000E+00  0.00000000E+00
  0.00000000E+00  0.00000000E+00  0.00000000E+00
  0.00000000E+00  0.00000000E+00  0.00000000E+00
  0.00000000E+00  0.00000000E+00  0.00000000E+00
  0.00000000E+00  0.00000000E+00  0.00000000E+00
  0.00000000E+00  0.00000000E+00  0.00000000E+00
  0.00000000E+00  0.00000000E+00  0.00000000E+00
  0.00000000E+00  0.00000000E+00  0.00000000E+00
  0.00000000E+00  0.00000000E+00  0.00000000E+00
  0.00000000E+00  0.00000000E+00  0.00000000E+00
  0.00000000E+00  0.00000000E+00  0.00000000E+00
  0.00000000E+00  0.00000000E+00  0.00000000E+00
  0.00000000E+00  0.00000000E+00  0.00000000E+00
  0.00000000E+00  0.00000000E+00  0.00000000E+00
  0.00000000E+00  0.00000000E+00  0.00000000E+00
  0.00000000E+00  0.00000000E+00  0.00000000E+00
  0.00000000E+00  0.00000000E+00  0.00000000E+00
  0.00000000E+00  0.00000000E+00  0.00000000E+00
  0.00000000E+00  0.00000000E+00  0.00000000E+00
  0.00000000E+00  0.00000000E+00  0.00000000E+00
  0.00000000E+00  0.00000000E+00  0.00000000E+00
  0.00000000E+00  0.00000000E+00  0.00000000E+00
  0.00000000E+00  0.00000000E+00  0.00000000E+00
  0.00000000E+00  0.00000000E+00  0.00000000E+00
  0.00000000E+00  0.00000000E+00  0.00000000E+00
  0.00000000E+00  0.00000000E+00  0.00000000E+00
  0.00000000E+00  0.00000000E+00  0.00000000E+00
  0.00000000E+00  0.00000000E+00  0.00000000E+00
  0.00000000E+00  0.00000000E+00  0.00000000E+00
