Al   Hf   Mg   N                        
   1.00000000000000     
   -10.0423199905748675    0.0020835102722730    0.0015548607779222
    -5.0250709871212100    8.6946448980106066    0.0015547363590354
    -0.0010291379642119    0.0005938862470257   -8.5657471324302232
   Al   Hf   Mg   N 
    32     2     2    36
Direct
  0.1113861211563072  0.0977934731298220  0.3599427999540016
  0.2210408331018317  0.2054175109767655  0.1107114109829772
  0.8913376307650061  0.2080042927070647  0.5949619137432669
  0.4412543443753399  0.0973244120752555  0.3616948688392461
  0.5523607279422947  0.2068965108262475  0.1232992316011674
  0.1133136803426878  0.0986598471799219  0.8570076050762326
  0.2210277207953004  0.2075689901980081  0.6082922353924043
  0.8918080019962856  0.2084746293960966  0.1196871779439963
  0.4384100879339700  0.0989249190787389  0.8582298035537358
  0.5504722625124253  0.2088606139198131  0.5956789877026530
  0.1112860732581074  0.4279526897570444  0.3542541771000898
  0.7819933625653950  0.4299803035394228  0.8570076212526089
  0.8909023916473576  0.5376944607693300  0.6082922294580084
  0.4407342166350011  0.4277905326587582  0.3556261038644509
  0.5612405727109320  0.5302408081297133  0.0961068959079989
  0.1110558680703858  0.4277224766297104  0.8641494213284517
  0.2217028175644765  0.5383696057091972  0.6047641603969148
  0.7811269669720603  0.4280527745834855  0.3599427736710467
  0.8887509743354152  0.5377075271880020  0.1107113973828815
  0.4386540537585714  0.4289204737319240  0.8601543268944675
  0.5582382302301423  0.5328111436227249  0.6167323659214659
  0.1111237333333443  0.7574010527851441  0.3556261306779235
  0.2135743528098439  0.8779070489946512  0.0961068545213037
  0.7822583414300006  0.7550768369811820  0.8582298222974666
  0.8921938120072268  0.8671392037374103  0.5956789772410400
  0.5593494059334867  0.8760159548372481  0.0976276841544955
  0.1122536830764536  0.7553208822295423  0.8601542981420186
  0.2161446728661740  0.8749047194646082  0.6167323825779315
  0.7806578251128672  0.7579210987587045  0.3616948280793188
  0.8902297458343439  0.8690276707250101  0.1232992413093269
  0.4443400702154789  0.7610064785802144  0.8567421454571619
  0.5580351653286861  0.8747017245848777  0.6194707822385311
  0.7775949781110810  0.0942619335800470  0.8536138971096837
  0.4444046415142696  0.7610711286859193  0.3527811643354216
  0.7781001715499068  0.0947671829435691  0.3565670103301354
  0.2217963224964155  0.5384631489456275  0.1065723394353138
  0.2237531681762774  0.2030809702102770  0.3505648574965629
  0.1116260406206385  0.0955122635157529  0.0976913983118186
  0.8968102356347747  0.2134768524466615  0.8477643714719069
  0.7785512468334209  0.0952181991174869  0.6002935547800912
  0.5400148278975514  0.2122544793595429  0.3546814163148616
  0.4432820377697285  0.0959412600077628  0.0966465560079151
  0.2216370450737907  0.2072637230965120  0.8472697827217011
  0.1128615850633464  0.0938476566107301  0.6015658706678164
  0.8971606198578211  0.2138272536902697  0.3525456596607649
  0.7774739155970530  0.0941408425915593  0.1061823927217832
  0.5403402022577057  0.2120006711996949  0.8423479980678024
  0.4434097965899406  0.0922732630149018  0.6005036266475975
  0.2225830345432526  0.5392498713318046  0.3604261741989251
  0.1040435271959015  0.4207100800223012  0.1026450151250456
  0.8905971303045922  0.5383037828985318  0.8472698097184908
  0.7771811484297404  0.4295282456645317  0.6015658586017424
  0.5637007944939426  0.5241055354076178  0.3496881061804427
  0.4574120327453851  0.4201399703487733  0.0980102999975448
  0.2208104122544802  0.5374772277253631  0.8435958721000585
  0.1100023554580402  0.4266689744202807  0.5956342554972567
  0.8864143807048626  0.5404199083638475  0.3505648348325460
  0.7788457733222426  0.4282926727499954  0.0976914091244569
  0.5569546026762031  0.5380449390083120  0.8516609966540979
  0.4452488622416252  0.4293433435952475  0.6014870364035406
  0.2074390708944823  0.8803672900986441  0.3496881240853171
  0.1034731883214833  0.7740788527605271  0.0980102787205778
  0.8953338678440244  0.8570071817448062  0.8423479965835894
  0.7756066916705172  0.7600765232004949  0.6005036163119355
  0.5631491896452255  0.8798157789069962  0.3449065482163788
  0.4444122337090542  0.7610786738010716  0.0950161723547592
  0.2213785256239016  0.8736210590103406  0.8516609971075083
  0.1126765450121817  0.7619156694393500  0.6014870638018731
  0.8955876779176060  0.8566818186055407  0.3546814246177798
  0.7792747161802998  0.7599487571980621  0.0966465753967276
  0.5563661481674710  0.8730326923212759  0.8530317583656726
  0.4448657510031938  0.7615322042240281  0.6093040379577751
