Al   B    N                             
   1.00000000000000     
    -9.2996171793748275   -0.0142267815996736   -0.0069774154571320
    -4.7441074005649755    8.0396335627924795   -0.0123775176315520
     0.0816472358373266    0.0150843307328137  -10.1510072968905565
   Al   B    N 
    33     3    36
Direct
  0.1202648091991136  0.0878481828246507  0.3209916501426662
  0.2206315150420082  0.2074135474406944  0.0717816042319441
  0.7775357918783641  0.0873299737194770  0.8108312657383010
  0.4488404736673317  0.0898525628845448  0.3214076214224235
  0.5557120799143007  0.2053753279158386  0.0674621748662929
  0.1220936802952650  0.0883344399679302  0.8228041245360771
  0.2182854972249473  0.2097951323433378  0.5676997619550974
  0.7742818374517384  0.0919729657591972  0.3212987653374455
  0.8839276909939429  0.2130256220993658  0.1394532721847241
  0.4432860087683821  0.0903670431385919  0.8208512669073755
  0.5609611041672125  0.1939852044814430  0.5721242767979149
  0.1188023978258954  0.4252884520219453  0.3217635113862087
  0.2222488812826313  0.5385995263180376  0.0707722955566155
  0.7754081869894591  0.4375980735531400  0.8843736010175007
  0.8888978628046260  0.5457677318550296  0.6426186701939329
  0.4496558951366652  0.4267356597957743  0.3241483967671144
  0.5446214282861419  0.5469174062849760  0.0674396679994871
  0.1197418619434032  0.4249876253127596  0.8221205602996093
  0.2175320653368615  0.5431906694333080  0.5707009978812181
  0.7916121710830950  0.4149491104834269  0.4015691478057022
  0.8774541055598846  0.5426028444634881  0.1444442703070479
  0.4436833248791174  0.4327044998874996  0.8203445680477230
  0.5517642377423044  0.5388768168163409  0.5852964554136975
  0.1163060119178567  0.7591814421316272  0.3182294462231638
  0.2265322130375580  0.8688864841162385  0.0655975460787488
  0.7791703071368090  0.7599439338800167  0.8925589995970498
  0.4485999562794021  0.7570798658155127  0.3280188458989173
  0.5430401954875776  0.8730981570063108  0.0693994474522697
  0.1087988208489818  0.7628222455180662  0.8246156496083188
  0.2017578568991070  0.8832697122523570  0.5775088915672626
  0.7866289273711828  0.7593114510509622  0.3925456881380498
  0.8882306996083997  0.8712023367846484  0.1083994906486438
  0.5496971181386670  0.8751278687868975  0.5818645020890116
  0.9111900993179773  0.2388137016904111  0.6636120643829173
  0.8830778510781627  0.8690223794035390  0.6133750679957188
  0.4412092006560187  0.7629235661725673  0.8189479801432711
  0.2240846492141770  0.2041426626584197  0.3812740830896288
  0.1186639072494984  0.0887465994407819  0.1269406810280174
  0.8812019881726059  0.2216474313263461  0.8092267990344055
  0.7820062992412886  0.0491395209991339  0.6268383054417868
  0.5550393695133735  0.2042945525420663  0.3844882161167931
  0.4456400044058526  0.0931586140335625  0.1315023955124133
  0.2210104769310419  0.2067480463792464  0.8844176411779685
  0.0920850753343103  0.1138042324388593  0.6312353508541264
  0.8890199955027498  0.2081615782007091  0.3301368494605015
  0.7704320898957349  0.1004478988982171  0.1277706039907471
  0.5551664148364921  0.2062513188803692  0.8782878923949298
  0.4370732162752589  0.0957418988769376  0.6344266099964386
  0.2246883783502014  0.5390261165105557  0.3837718451211103
  0.1143102132440745  0.4272875207903297  0.1324054727016915
  0.8850065008722794  0.5451516554181879  0.8280838736471168
  0.8010844731571538  0.4032491306872643  0.5936242498491779
  0.5553095614941839  0.5390622621789731  0.3951050151276903
  0.4469260908010568  0.4273208685191463  0.1327907295864392
  0.2228592783404082  0.5394560560071184  0.8824148952823165
  0.1199196460684746  0.4252149390035882  0.6315336207106483
  0.8830469987350327  0.5384100552430695  0.3360944002582897
  0.7808538108295764  0.4257572937807410  0.0714001740642018
  0.5351352842286801  0.5698629208504968  0.8731591969192394
  0.4461050954456951  0.4231757044624374  0.6338730768575260
  0.2230425509885094  0.8706731560960677  0.3902540213217094
  0.1231853928889706  0.7570469935385731  0.1289670459394188
  0.8922325303615537  0.8777034486245228  0.8860374453676556
  0.7956330034572971  0.7675281999855343  0.5866379023116650
  0.5506324436005272  0.8723422328999320  0.3914396534732703
  0.4444195534444404  0.7594552709424178  0.1399806906559249
  0.2435958848677089  0.8608398901291849  0.8722855539409409
  0.0797558907204987  0.7744335400495430  0.6309789711836302
  0.8881619958651257  0.8650952086509704  0.3260604180853832
  0.7740891465130559  0.7559791382360288  0.0809188718791631
  0.5355945290815569  0.8625904012884149  0.8743140143929722
  0.4381078083736156  0.7635261240812312  0.6543164844050651
 
  0.00000000E+00  0.00000000E+00  0.00000000E+00
  0.00000000E+00  0.00000000E+00  0.00000000E+00
  0.00000000E+00  0.00000000E+00  0.00000000E+00
  0.00000000E+00  0.00000000E+00  0.00000000E+00
  0.00000000E+00  0.00000000E+00  0.00000000E+00
  0.00000000E+00  0.00000000E+00  0.00000000E+00
  0.00000000E+00  0.00000000E+00  0.00000000E+00
  0.00000000E+00  0.00000000E+00  0.00000000E+00
  0.00000000E+00  0.00000000E+00  0.00000000E+00
  0.00000000E+00  0.00000000E+00  0.00000000E+00
  0.00000000E+00  0.00000000E+00  0.00000000E+00
  0.00000000E+00  0.00000000E+00  0.00000000E+00
  0.00000000E+00  0.00000000E+00  0.00000000E+00
  0.00000000E+00  0.00000000E+00  0.00000000E+00
  0.00000000E+00  0.00000000E+00  0.00000000E+00
  0.00000000E+00  0.00000000E+00  0.00000000E+00
  0.00000000E+00  0.00000000E+00  0.00000000E+00
  0.00000000E+00  0.00000000E+00  0.00000000E+00
  0.00000000E+00  0.00000000E+00  0.00000000E+00
  0.00000000E+00  0.00000000E+00  0.00000000E+00
  0.00000000E+00  0.00000000E+00  0.00000000E+00
  0.00000000E+00  0.00000000E+00  0.00000000E+00
  0.00000000E+00  0.00000000E+00  0.00000000E+00
  0.00000000E+00  0.00000000E+00  0.00000000E+00
  0.00000000E+00  0.00000000E+00  0.00000000E+00
  0.00000000E+00  0.00000000E+00  0.00000000E+00
  0.00000000E+00  0.00000000E+00  0.00000000E+00
  0.00000000E+00  0.00000000E+00  0.00000000E+00
  0.00000000E+00  0.00000000E+00  0.00000000E+00
  0.00000000E+00  0.00000000E+00  0.00000000E+00
  0.00000000E+00  0.00000000E+00  0.00000000E+00
  0.00000000E+00  0.00000000E+00  0.00000000E+00
  0.00000000E+00  0.00000000E+00  0.00000000E+00
  0.00000000E+00  0.00000000E+00  0.00000000E+00
  0.00000000E+00  0.00000000E+00  0.00000000E+00
  0.00000000E+00  0.00000000E+00  0.00000000E+00
  0.00000000E+00  0.00000000E+00  0.00000000E+00
  0.00000000E+00  0.00000000E+00  0.00000000E+00
  0.00000000E+00  0.00000000E+00  0.00000000E+00
  0.00000000E+00  0.00000000E+00  0.00000000E+00
  0.00000000E+00  0.00000000E+00  0.00000000E+00
  0.00000000E+00  0.00000000E+00  0.00000000E+00
  0.00000000E+00  0.00000000E+00  0.00000000E+00
  0.00000000E+00  0.00000000E+00  0.00000000E+00
  0.00000000E+00  0.00000000E+00  0.00000000E+00
  0.00000000E+00  0.00000000E+00  0.00000000E+00
  0.00000000E+00  0.00000000E+00  0.00000000E+00
  0.00000000E+00  0.00000000E+00  0.00000000E+00
  0.00000000E+00  0.00000000E+00  0.00000000E+00
  0.00000000E+00  0.00000000E+00  0.00000000E+00
  0.00000000E+00  0.00000000E+00  0.00000000E+00
  0.00000000E+00  0.00000000E+00  0.00000000E+00
  0.00000000E+00  0.00000000E+00  0.00000000E+00
  0.00000000E+00  0.00000000E+00  0.00000000E+00
  0.00000000E+00  0.00000000E+00  0.00000000E+00
  0.00000000E+00  0.00000000E+00  0.00000000E+00
  0.00000000E+00  0.00000000E+00  0.00000000E+00
  0.00000000E+00  0.00000000E+00  0.00000000E+00
  0.00000000E+00  0.00000000E+00  0.00000000E+00
  0.00000000E+00  0.00000000E+00  0.00000000E+00
  0.00000000E+00  0.00000000E+00  0.00000000E+00
  0.00000000E+00  0.00000000E+00  0.00000000E+00
  0.00000000E+00  0.00000000E+00  0.00000000E+00
  0.00000000E+00  0.00000000E+00  0.00000000E+00
  0.00000000E+00  0.00000000E+00  0.00000000E+00
  0.00000000E+00  0.00000000E+00  0.00000000E+00
  0.00000000E+00  0.00000000E+00  0.00000000E+00
  0.00000000E+00  0.00000000E+00  0.00000000E+00
  0.00000000E+00  0.00000000E+00  0.00000000E+00
  0.00000000E+00  0.00000000E+00  0.00000000E+00
  0.00000000E+00  0.00000000E+00  0.00000000E+00
  0.00000000E+00  0.00000000E+00  0.00000000E+00
