Al   B    N                             
   1.00000000000000     
    -9.2826019603249534   -0.0237362120661306   -0.0159787445435900
    -4.6486205101783131    8.0195312596119006   -0.0208399825962151
     0.0892918526159208    0.0257155689040418  -10.0346202052402003
   Al   B    N 
    33     3    36
Direct
  0.1144418935148792  0.0903052143685983  0.3185432998948201
  0.2183840823634142  0.2072556547265734  0.0647399638348318
  0.7830657667885319  0.0918003581267257  0.8031978889808471
  0.4475677729695846  0.0912808645250109  0.3154006589265350
  0.5578160179962453  0.2044257033492229  0.0656151275218448
  0.1085890688397129  0.0945719096981747  0.8088977894818612
  0.2167122912152237  0.2076365778622886  0.5629468247531264
  0.7813994836162834  0.0926332320478735  0.3251353887319937
  0.8900260428379241  0.1996462426956782  0.0650600528246486
  0.4420369896093987  0.0915633693173987  0.8150644589207019
  0.5623601564174976  0.2021534328156775  0.5645247782950591
  0.1190333669995027  0.4238167837833728  0.3147437464820726
  0.2183844262232313  0.5410270503311665  0.0647398908244412
  0.7742965281332062  0.4338351064163106  0.8764782811856193
  0.8849654447693780  0.5408498580114554  0.6355042200662453
  0.4475680787975875  0.4278181906667058  0.3154006343193814
  0.5432781561508122  0.5489162306992768  0.0618917452919945
  0.1180479243778834  0.4243091729606974  0.8151310253529260
  0.2167124590305392  0.5423178945580318  0.5629466497882660
  0.7849310324993866  0.4238084707984484  0.3937518139684286
  0.8763618364989227  0.5451526837897447  0.1365083675408059
  0.4420370368366804  0.4330667296466899  0.8150643484896563
  0.5529777965209206  0.5380823649370612  0.5774905594822997
  0.1144415448247571  0.7619201510607923  0.3185432804836807
  0.2230556653307900  0.8718054029487661  0.0599120865161851
  0.7742957265360886  0.7585339960970074  0.8764784767751905
  0.4481160237485682  0.7592752519157528  0.3184490911990352
  0.5432774919752248  0.8744731201666411  0.0618918801021877
  0.1085885202448225  0.7635052584971973  0.8088975007013133
  0.2149255340206793  0.8758708068002647  0.5687043961668437
  0.7849303391369062  0.7579253344258134  0.3937513280863811
  0.8900260748179534  0.8769949118240277  0.0650595951549207
  0.5529774692429470  0.8756070328745764  0.5774904461919235
  0.9007477297637436  0.1897261807212871  0.5574342678212432
  0.9007476063775286  0.8761904807464873  0.5574338430181527
  0.4398142882516609  0.7634261059610878  0.8116155645980214
  0.2246154671867373  0.2037077271444687  0.3744410393030932
  0.1103448334836230  0.0930117355853213  0.1273171153318700
  0.8910398038721112  0.1987120545765180  0.8742187449452388
  0.8027789136280177  0.0819435347802226  0.6096309654725687
  0.5567479480227391  0.2049595725879954  0.3755497484459056
  0.4433583349131638  0.0945966368271627  0.1239357321179995
  0.2201513933656543  0.2044016348421422  0.8748090796673580
  0.0877157158781330  0.1058887719450112  0.6172401706713515
  0.9001389243976945  0.1919538132044067  0.3944181438290073
  0.7785672532236347  0.0940494729704966  0.1344947279200497
  0.5594275489297260  0.2036198425792648  0.8727064043816171
  0.4417719303550882  0.0981735483988970  0.6268238517977807
  0.2246155138385859  0.5383440367319210  0.3744408242187376
  0.1116970031452240  0.4274847634960679  0.1237649094520563
  0.8857690993282858  0.5404486444814296  0.8239550886288427
  0.7915900241884799  0.4029922395451493  0.5872938917849027
  0.5527599493611746  0.5408826758407486  0.3826514160960599
  0.4433586096595690  0.4287115403768240  0.1239357477986971
  0.2201514326066061  0.5421134723228036  0.8748089622698032
  0.1164791067968238  0.4250934478769963  0.6233994090936434
  0.8846403695596621  0.5410125811781370  0.3294591488316243
  0.7739168551164042  0.4309036172457539  0.0748334502079686
  0.5350119055151126  0.5690053763389002  0.8664708616740313
  0.4417719341622970  0.4267209503708145  0.6268238077511228
  0.2286200753670968  0.8690235345831638  0.3801614424178226
  0.1103446801305807  0.7633097056263765  0.1273169871814659
  0.8910392211396854  0.8769143966055637  0.8742182624980686
  0.7915899384832343  0.7720829796358757  0.5872935320298893
  0.5527593865549321  0.8730245049189733  0.3826512346032800
  0.4401663923670824  0.7632498372565877  0.1303383221796039
  0.2416764743627695  0.8624947325708732  0.8639554652877308
  0.0877157186876474  0.7730614409617331  0.6172398321903714
  0.9001383146163633  0.8745730600036197  0.3944178461857035
  0.7739162800977866  0.7618465636981142  0.0748336867223074
  0.5350114682747247  0.8626495677860646  0.8664708562697854
  0.4415753150852453  0.7625455719522733  0.6467747164045434
 
  0.00000000E+00  0.00000000E+00  0.00000000E+00
  0.00000000E+00  0.00000000E+00  0.00000000E+00
  0.00000000E+00  0.00000000E+00  0.00000000E+00
  0.00000000E+00  0.00000000E+00  0.00000000E+00
  0.00000000E+00  0.00000000E+00  0.00000000E+00
  0.00000000E+00  0.00000000E+00  0.00000000E+00
  0.00000000E+00  0.00000000E+00  0.00000000E+00
  0.00000000E+00  0.00000000E+00  0.00000000E+00
  0.00000000E+00  0.00000000E+00  0.00000000E+00
  0.00000000E+00  0.00000000E+00  0.00000000E+00
  0.00000000E+00  0.00000000E+00  0.00000000E+00
  0.00000000E+00  0.00000000E+00  0.00000000E+00
  0.00000000E+00  0.00000000E+00  0.00000000E+00
  0.00000000E+00  0.00000000E+00  0.00000000E+00
  0.00000000E+00  0.00000000E+00  0.00000000E+00
  0.00000000E+00  0.00000000E+00  0.00000000E+00
  0.00000000E+00  0.00000000E+00  0.00000000E+00
  0.00000000E+00  0.00000000E+00  0.00000000E+00
  0.00000000E+00  0.00000000E+00  0.00000000E+00
  0.00000000E+00  0.00000000E+00  0.00000000E+00
  0.00000000E+00  0.00000000E+00  0.00000000E+00
  0.00000000E+00  0.00000000E+00  0.00000000E+00
  0.00000000E+00  0.00000000E+00  0.00000000E+00
  0.00000000E+00  0.00000000E+00  0.00000000E+00
  0.00000000E+00  0.00000000E+00  0.00000000E+00
  0.00000000E+00  0.00000000E+00  0.00000000E+00
  0.00000000E+00  0.00000000E+00  0.00000000E+00
  0.00000000E+00  0.00000000E+00  0.00000000E+00
  0.00000000E+00  0.00000000E+00  0.00000000E+00
  0.00000000E+00  0.00000000E+00  0.00000000E+00
  0.00000000E+00  0.00000000E+00  0.00000000E+00
  0.00000000E+00  0.00000000E+00  0.00000000E+00
  0.00000000E+00  0.00000000E+00  0.00000000E+00
  0.00000000E+00  0.00000000E+00  0.00000000E+00
  0.00000000E+00  0.00000000E+00  0.00000000E+00
  0.00000000E+00  0.00000000E+00  0.00000000E+00
  0.00000000E+00  0.00000000E+00  0.00000000E+00
  0.00000000E+00  0.00000000E+00  0.00000000E+00
  0.00000000E+00  0.00000000E+00  0.00000000E+00
  0.00000000E+00  0.00000000E+00  0.00000000E+00
  0.00000000E+00  0.00000000E+00  0.00000000E+00
  0.00000000E+00  0.00000000E+00  0.00000000E+00
  0.00000000E+00  0.00000000E+00  0.00000000E+00
  0.00000000E+00  0.00000000E+00  0.00000000E+00
  0.00000000E+00  0.00000000E+00  0.00000000E+00
  0.00000000E+00  0.00000000E+00  0.00000000E+00
  0.00000000E+00  0.00000000E+00  0.00000000E+00
  0.00000000E+00  0.00000000E+00  0.00000000E+00
  0.00000000E+00  0.00000000E+00  0.00000000E+00
  0.00000000E+00  0.00000000E+00  0.00000000E+00
  0.00000000E+00  0.00000000E+00  0.00000000E+00
  0.00000000E+00  0.00000000E+00  0.00000000E+00
  0.00000000E+00  0.00000000E+00  0.00000000E+00
  0.00000000E+00  0.00000000E+00  0.00000000E+00
  0.00000000E+00  0.00000000E+00  0.00000000E+00
  0.00000000E+00  0.00000000E+00  0.00000000E+00
  0.00000000E+00  0.00000000E+00  0.00000000E+00
  0.00000000E+00  0.00000000E+00  0.00000000E+00
  0.00000000E+00  0.00000000E+00  0.00000000E+00
  0.00000000E+00  0.00000000E+00  0.00000000E+00
  0.00000000E+00  0.00000000E+00  0.00000000E+00
  0.00000000E+00  0.00000000E+00  0.00000000E+00
  0.00000000E+00  0.00000000E+00  0.00000000E+00
  0.00000000E+00  0.00000000E+00  0.00000000E+00
  0.00000000E+00  0.00000000E+00  0.00000000E+00
  0.00000000E+00  0.00000000E+00  0.00000000E+00
  0.00000000E+00  0.00000000E+00  0.00000000E+00
  0.00000000E+00  0.00000000E+00  0.00000000E+00
  0.00000000E+00  0.00000000E+00  0.00000000E+00
  0.00000000E+00  0.00000000E+00  0.00000000E+00
  0.00000000E+00  0.00000000E+00  0.00000000E+00
  0.00000000E+00  0.00000000E+00  0.00000000E+00
