Al   B    N                             
   1.00000000000000     
    -9.2563727569904888    0.0035294727184377    0.0030324239542806
    -4.6415464793130186    8.0695346414456992    0.0021132693830421
    -0.0426491210872500   -0.0708910052682367   -9.9246215844423915
   Al   B    N 
    33     3    36
Direct
  0.1033465380094540  0.0991133329315943  0.4007914256096257
  0.2218943825392827  0.2033341148634307  0.1451715411452241
  0.7805167014131271  0.0914162914545926  0.8789380075295838
  0.4457096003086889  0.0949823301098434  0.3961726822017013
  0.5589982675030782  0.2040345992604955  0.1431978943531718
  0.1132032341171438  0.0925502168284567  0.8837407798084200
  0.2181444087655109  0.2071331417323989  0.6454554423619214
  0.7813577623710160  0.0987099995836545  0.4041227564923133
  0.8888010011105436  0.2045147089032184  0.1403585329674470
  0.4423331000967465  0.0905662868409749  0.8959558908569605
  0.5621767416858887  0.2082425692460035  0.6445863695229832
  0.1106960980435048  0.4273855461195311  0.3939803175751848
  0.2218102440986343  0.5407943187466770  0.1455192161097116
  0.7734685529328260  0.4311965277830581  0.8897941886064160
  0.8926868315922931  0.5331951015639476  0.6469563232196478
  0.4442054437016054  0.4288168502442247  0.3957874443153031
  0.5563495218400121  0.5398154359780776  0.1456571177400292
  0.1109890222249703  0.4264660986347266  0.8986610049605943
  0.2189746005654811  0.5372202100862538  0.6472021789757392
  0.7793754382127318  0.4234742041422379  0.4003429001999450
  0.8862360427340121  0.5397588192660336  0.1463169179047981
  0.4433374345126637  0.4325652266254636  0.8961359865108065
  0.5557448099149553  0.5407627017939234  0.6446881287223647
  0.1022945159742221  0.7640577540659308  0.4006847293091838
  0.2243473652195220  0.8717325556382107  0.1300003467524959
  0.7722763606327305  0.7572946167178713  0.8935415757178120
  0.4452912086059655  0.7610695864393620  0.3914970118593715
  0.5563173682322002  0.8711761490371117  0.1467805451652708
  0.1171575977185100  0.7574990357402598  0.8876595680210215
  0.2137886530121946  0.8766257765993117  0.6344231736458852
  0.7808402543959829  0.7653172173106952  0.4003224646964014
  0.8882867732321245  0.8749315971541094  0.1437290385890719
  0.5567689761942631  0.8734638593456125  0.6464952023343500
  0.8850584904772347  0.2052665953005004  0.6487710113141461
  0.9072270676285257  0.8336141799468209  0.6609812709435303
  0.4427807864535680  0.7613646067518118  0.8688912887355684
  0.2216096660695754  0.2035266062556573  0.3376678082051257
  0.1103175524243625  0.0946693694657696  0.0767964643370576
  0.8872703682800491  0.2073693811420085  0.8148427347680993
  0.7873754342091956  0.1191638370002721  0.5933675041641777
  0.5579466673318763  0.2056206296445282  0.3369628528995676
  0.4458861559829899  0.0929216113479896  0.0866508962668036
  0.2225178038663600  0.2069425573829662  0.8351719009254808
  0.0843641562611097  0.1097576883632456  0.5958232790246569
  0.8885875792022730  0.2074229439294371  0.3300636215368158
  0.7809909624156504  0.0916262634404887  0.0739949841555543
  0.5534619494131903  0.2060422346909974  0.8356648963013953
  0.4463971974153225  0.0950679145993547  0.5882880409562716
  0.2197207735489357  0.5424181936566086  0.3376784412309206
  0.1111800760436381  0.4269508571676610  0.0895383640646941
  0.8903906582422323  0.5370588316932938  0.8362843680874690
  0.7866359444102287  0.4110523359809974  0.5947218113910751
  0.5584291272701023  0.5365966379787963  0.3382656185890127
  0.4455717585206500  0.4272549435097375  0.0865867260986732
  0.2226015430787527  0.5354313204028145  0.8365699645481612
  0.1120493489042502  0.4258756836790454  0.5844133947686245
  0.8855328927189348  0.5419932394845048  0.3402626225622214
  0.7785901335465297  0.4258246850080525  0.0811353354168887
  0.5399739015238936  0.5678360484039331  0.8387985333443169
  0.4399082898111146  0.4337036485502708  0.5876091799428949
  0.2170234411825831  0.8741170589964966  0.3535693043777073
  0.1098408434161229  0.7611054005375024  0.0793348332888897
  0.8906559952264814  0.8637302476221720  0.8151096219499294
  0.7933226430883238  0.7703248251857246  0.5980048452459741
  0.5595603705893453  0.8725552818917279  0.3400259389549163
  0.4475182035332494  0.7596338602291937  0.0926580529994752
  0.2489976917572605  0.8579547277135617  0.8353674666374005
  0.0832729661856035  0.7678152016067585  0.5982884934562165
  0.8855737301944941  0.8782487725739259  0.3350117351174191
  0.7793385222225453  0.7614451111373839  0.0836840374800403
  0.5407263014611488  0.8582189757126670  0.8393303934158070
  0.4468194604731721  0.7618989102221860  0.5825884315578378
 
  0.00000000E+00  0.00000000E+00  0.00000000E+00
  0.00000000E+00  0.00000000E+00  0.00000000E+00
  0.00000000E+00  0.00000000E+00  0.00000000E+00
  0.00000000E+00  0.00000000E+00  0.00000000E+00
  0.00000000E+00  0.00000000E+00  0.00000000E+00
  0.00000000E+00  0.00000000E+00  0.00000000E+00
  0.00000000E+00  0.00000000E+00  0.00000000E+00
  0.00000000E+00  0.00000000E+00  0.00000000E+00
  0.00000000E+00  0.00000000E+00  0.00000000E+00
  0.00000000E+00  0.00000000E+00  0.00000000E+00
  0.00000000E+00  0.00000000E+00  0.00000000E+00
  0.00000000E+00  0.00000000E+00  0.00000000E+00
  0.00000000E+00  0.00000000E+00  0.00000000E+00
  0.00000000E+00  0.00000000E+00  0.00000000E+00
  0.00000000E+00  0.00000000E+00  0.00000000E+00
  0.00000000E+00  0.00000000E+00  0.00000000E+00
  0.00000000E+00  0.00000000E+00  0.00000000E+00
  0.00000000E+00  0.00000000E+00  0.00000000E+00
  0.00000000E+00  0.00000000E+00  0.00000000E+00
  0.00000000E+00  0.00000000E+00  0.00000000E+00
  0.00000000E+00  0.00000000E+00  0.00000000E+00
  0.00000000E+00  0.00000000E+00  0.00000000E+00
  0.00000000E+00  0.00000000E+00  0.00000000E+00
  0.00000000E+00  0.00000000E+00  0.00000000E+00
  0.00000000E+00  0.00000000E+00  0.00000000E+00
  0.00000000E+00  0.00000000E+00  0.00000000E+00
  0.00000000E+00  0.00000000E+00  0.00000000E+00
  0.00000000E+00  0.00000000E+00  0.00000000E+00
  0.00000000E+00  0.00000000E+00  0.00000000E+00
  0.00000000E+00  0.00000000E+00  0.00000000E+00
  0.00000000E+00  0.00000000E+00  0.00000000E+00
  0.00000000E+00  0.00000000E+00  0.00000000E+00
  0.00000000E+00  0.00000000E+00  0.00000000E+00
  0.00000000E+00  0.00000000E+00  0.00000000E+00
  0.00000000E+00  0.00000000E+00  0.00000000E+00
  0.00000000E+00  0.00000000E+00  0.00000000E+00
  0.00000000E+00  0.00000000E+00  0.00000000E+00
  0.00000000E+00  0.00000000E+00  0.00000000E+00
  0.00000000E+00  0.00000000E+00  0.00000000E+00
  0.00000000E+00  0.00000000E+00  0.00000000E+00
  0.00000000E+00  0.00000000E+00  0.00000000E+00
  0.00000000E+00  0.00000000E+00  0.00000000E+00
  0.00000000E+00  0.00000000E+00  0.00000000E+00
  0.00000000E+00  0.00000000E+00  0.00000000E+00
  0.00000000E+00  0.00000000E+00  0.00000000E+00
  0.00000000E+00  0.00000000E+00  0.00000000E+00
  0.00000000E+00  0.00000000E+00  0.00000000E+00
  0.00000000E+00  0.00000000E+00  0.00000000E+00
  0.00000000E+00  0.00000000E+00  0.00000000E+00
  0.00000000E+00  0.00000000E+00  0.00000000E+00
  0.00000000E+00  0.00000000E+00  0.00000000E+00
  0.00000000E+00  0.00000000E+00  0.00000000E+00
  0.00000000E+00  0.00000000E+00  0.00000000E+00
  0.00000000E+00  0.00000000E+00  0.00000000E+00
  0.00000000E+00  0.00000000E+00  0.00000000E+00
  0.00000000E+00  0.00000000E+00  0.00000000E+00
  0.00000000E+00  0.00000000E+00  0.00000000E+00
  0.00000000E+00  0.00000000E+00  0.00000000E+00
  0.00000000E+00  0.00000000E+00  0.00000000E+00
  0.00000000E+00  0.00000000E+00  0.00000000E+00
  0.00000000E+00  0.00000000E+00  0.00000000E+00
  0.00000000E+00  0.00000000E+00  0.00000000E+00
  0.00000000E+00  0.00000000E+00  0.00000000E+00
  0.00000000E+00  0.00000000E+00  0.00000000E+00
  0.00000000E+00  0.00000000E+00  0.00000000E+00
  0.00000000E+00  0.00000000E+00  0.00000000E+00
  0.00000000E+00  0.00000000E+00  0.00000000E+00
  0.00000000E+00  0.00000000E+00  0.00000000E+00
  0.00000000E+00  0.00000000E+00  0.00000000E+00
  0.00000000E+00  0.00000000E+00  0.00000000E+00
  0.00000000E+00  0.00000000E+00  0.00000000E+00
  0.00000000E+00  0.00000000E+00  0.00000000E+00
