Al   B    N                             
   1.00000000000000     
    -9.1655835868773590   -0.0002982213485084   -0.0016649747901516
    -4.5733262208135583    7.9850627756259502    0.0012578995376246
     0.0521928203517869    0.0876742395503918   -9.8664972645986566
   Al   B    N 
    31     5    36
Direct
  0.1061086905022037  0.0961358262574450  0.3977238079392507
  0.2174317221147319  0.2035388269120020  0.1529089165996211
  0.8888080310751647  0.1915664025445381  0.6562927561678151
  0.4467161186437849  0.0903777400128831  0.3979181913671042
  0.5598285394634317  0.2037156940343365  0.1505428612182413
  0.1008590187872542  0.0926725506796728  0.9073320172499706
  0.2241538189413532  0.2012004932231477  0.6535227733372651
  0.7814278870375162  0.0897026191332628  0.3898907345276044
  0.4518518190006162  0.0897223920156378  0.9102551904442819
  0.5679791522420174  0.1919421973921658  0.6591820206637706
  0.1088920363363357  0.4269304387712296  0.4015065256072248
  0.2217846242721961  0.5391246863390862  0.1544528822396316
  0.7803267452858549  0.4146088540292610  0.9053080683329995
  0.8913931103469181  0.5381138814570292  0.6578264224410830
  0.4459001407099521  0.4251497166604068  0.4055626728856865
  0.5590362350079801  0.5376440432135539  0.1530959409901982
  0.1072170624394815  0.4269104070977860  0.9019130569796872
  0.2163612922095979  0.5399192330275326  0.6519451831017520
  0.7798460913277054  0.4230271871685574  0.3959795356405778
  0.8816137317641903  0.5410656333611854  0.1425620049442671
  0.4448376442622148  0.4273628677151180  0.9029875004456969
  0.5595325966323088  0.5364296075845019  0.6550220914439748
  0.1059323351537103  0.7628755830225700  0.3943464121423617
  0.2197523873100380  0.8780988801547664  0.1542186941831574
  0.4478991094831315  0.7614801414445864  0.3990382420155782
  0.0961672483921205  0.7661245236126533  0.9040583382477791
  0.2194517293934126  0.8727398497508290  0.6527310890180971
  0.7782264922438245  0.7630015482260433  0.3887106878594295
  0.8829588089113329  0.8826732039520309  0.1276153277672805
  0.4524796363663768  0.7622438362439041  0.9081276061226689
  0.5720462496649930  0.8695433879748222  0.6583510167095312
  0.7735775846064783  0.0983422626449553  0.9172680382318106
  0.8837945985709794  0.2088421422951470  0.1501146334618682
  0.7423570107199495  0.8182599244078688  0.9313632394327769
  0.8902283178759660  0.8685472581435647  0.6039681058945092
  0.5507586246453613  0.8738037414321624  0.1538651597100795
  0.2215123214231909  0.2049737215359215  0.3436853633784551
  0.0831379275004878  0.1078632244899964  0.0999228556895204
  0.8732993871929011  0.1836230277783883  0.8476892032415009
  0.7945428888473174  0.0597669929265194  0.5878390521756103
  0.5559484724546948  0.2054299413903067  0.3423364257231327
  0.4533029855981852  0.0716166799566196  0.1026089523080529
  0.2267968368351418  0.1970606014322414  0.8474243400565271
  0.1079594662458163  0.0939869526263379  0.5913009350784080
  0.8866665936770985  0.2047024875162435  0.3198665503242708
  0.7834928855291992  0.1172490855766810  0.0861336611677572
  0.5777593220010644  0.1947253205940811  0.8559020280079963
  0.4489945008238152  0.0891752098560161  0.5934721005187384
  0.2222429637919845  0.5384126345878570  0.3468318633691396
  0.1103926370649262  0.4282687235404836  0.0934530838423271
  0.8881518287188470  0.5276021338539891  0.8449740731315956
  0.7816759152523005  0.4182996672937165  0.5905211331213351
  0.5541387083894307  0.5389309878875466  0.3440153458661541
  0.4423236165818878  0.4287775530270892  0.0938010022702258
  0.2176136377687570  0.5415302663503638  0.8419399018535003
  0.1115245083010024  0.4237212857985782  0.5923698715574801
  0.8865328023259664  0.5404204722921833  0.3369557128308358
  0.7879985375784457  0.4034188028933272  0.0989974739594857
  0.5554622194618517  0.5407725300611546  0.8469757054034162
  0.4472771961458122  0.4221326882011880  0.5987479961217090
  0.2224060952950424  0.8721488829729438  0.3461281198020174
  0.1167622391812415  0.7590932980169640  0.0949543169688525
  0.8535150403589071  0.8938688695467221  0.8985567963825503
  0.7958682311126637  0.7711236001744197  0.5882392990017919
  0.5562069452637814  0.8716895532502562  0.3213101184256999
  0.4536591688752125  0.7756564245169955  0.1016656924179387
  0.2225012121236745  0.8697663671155311  0.8453107763419965
  0.0826619913146587  0.7740505052336317  0.5942233593573505
  0.8877039177905175  0.8727767475410602  0.3249822005048841
  0.7428596386478930  0.7790042287807353  0.0864873434181845
  0.5812328095079451  0.8652372431524213  0.8516721633562554
  0.4507245354583631  0.7620061014957002  0.5948076558799897
 
  0.00000000E+00  0.00000000E+00  0.00000000E+00
  0.00000000E+00  0.00000000E+00  0.00000000E+00
  0.00000000E+00  0.00000000E+00  0.00000000E+00
  0.00000000E+00  0.00000000E+00  0.00000000E+00
  0.00000000E+00  0.00000000E+00  0.00000000E+00
  0.00000000E+00  0.00000000E+00  0.00000000E+00
  0.00000000E+00  0.00000000E+00  0.00000000E+00
  0.00000000E+00  0.00000000E+00  0.00000000E+00
  0.00000000E+00  0.00000000E+00  0.00000000E+00
  0.00000000E+00  0.00000000E+00  0.00000000E+00
  0.00000000E+00  0.00000000E+00  0.00000000E+00
  0.00000000E+00  0.00000000E+00  0.00000000E+00
  0.00000000E+00  0.00000000E+00  0.00000000E+00
  0.00000000E+00  0.00000000E+00  0.00000000E+00
  0.00000000E+00  0.00000000E+00  0.00000000E+00
  0.00000000E+00  0.00000000E+00  0.00000000E+00
  0.00000000E+00  0.00000000E+00  0.00000000E+00
  0.00000000E+00  0.00000000E+00  0.00000000E+00
  0.00000000E+00  0.00000000E+00  0.00000000E+00
  0.00000000E+00  0.00000000E+00  0.00000000E+00
  0.00000000E+00  0.00000000E+00  0.00000000E+00
  0.00000000E+00  0.00000000E+00  0.00000000E+00
  0.00000000E+00  0.00000000E+00  0.00000000E+00
  0.00000000E+00  0.00000000E+00  0.00000000E+00
  0.00000000E+00  0.00000000E+00  0.00000000E+00
  0.00000000E+00  0.00000000E+00  0.00000000E+00
  0.00000000E+00  0.00000000E+00  0.00000000E+00
  0.00000000E+00  0.00000000E+00  0.00000000E+00
  0.00000000E+00  0.00000000E+00  0.00000000E+00
  0.00000000E+00  0.00000000E+00  0.00000000E+00
  0.00000000E+00  0.00000000E+00  0.00000000E+00
  0.00000000E+00  0.00000000E+00  0.00000000E+00
  0.00000000E+00  0.00000000E+00  0.00000000E+00
  0.00000000E+00  0.00000000E+00  0.00000000E+00
  0.00000000E+00  0.00000000E+00  0.00000000E+00
  0.00000000E+00  0.00000000E+00  0.00000000E+00
  0.00000000E+00  0.00000000E+00  0.00000000E+00
  0.00000000E+00  0.00000000E+00  0.00000000E+00
  0.00000000E+00  0.00000000E+00  0.00000000E+00
  0.00000000E+00  0.00000000E+00  0.00000000E+00
  0.00000000E+00  0.00000000E+00  0.00000000E+00
  0.00000000E+00  0.00000000E+00  0.00000000E+00
  0.00000000E+00  0.00000000E+00  0.00000000E+00
  0.00000000E+00  0.00000000E+00  0.00000000E+00
  0.00000000E+00  0.00000000E+00  0.00000000E+00
  0.00000000E+00  0.00000000E+00  0.00000000E+00
  0.00000000E+00  0.00000000E+00  0.00000000E+00
  0.00000000E+00  0.00000000E+00  0.00000000E+00
  0.00000000E+00  0.00000000E+00  0.00000000E+00
  0.00000000E+00  0.00000000E+00  0.00000000E+00
  0.00000000E+00  0.00000000E+00  0.00000000E+00
  0.00000000E+00  0.00000000E+00  0.00000000E+00
  0.00000000E+00  0.00000000E+00  0.00000000E+00
  0.00000000E+00  0.00000000E+00  0.00000000E+00
  0.00000000E+00  0.00000000E+00  0.00000000E+00
  0.00000000E+00  0.00000000E+00  0.00000000E+00
  0.00000000E+00  0.00000000E+00  0.00000000E+00
  0.00000000E+00  0.00000000E+00  0.00000000E+00
  0.00000000E+00  0.00000000E+00  0.00000000E+00
  0.00000000E+00  0.00000000E+00  0.00000000E+00
  0.00000000E+00  0.00000000E+00  0.00000000E+00
  0.00000000E+00  0.00000000E+00  0.00000000E+00
  0.00000000E+00  0.00000000E+00  0.00000000E+00
  0.00000000E+00  0.00000000E+00  0.00000000E+00
  0.00000000E+00  0.00000000E+00  0.00000000E+00
  0.00000000E+00  0.00000000E+00  0.00000000E+00
  0.00000000E+00  0.00000000E+00  0.00000000E+00
  0.00000000E+00  0.00000000E+00  0.00000000E+00
  0.00000000E+00  0.00000000E+00  0.00000000E+00
  0.00000000E+00  0.00000000E+00  0.00000000E+00
  0.00000000E+00  0.00000000E+00  0.00000000E+00
  0.00000000E+00  0.00000000E+00  0.00000000E+00
