Al   B    N                             
   1.00000000000000     
    -9.1399538436546308    0.0081422955750945   -0.0202943444621553
    -4.5330586053202859    7.9084729682830188   -0.0110018296000565
    -0.0581319307189715   -0.1028231007677235  -10.2836361190660543
   Al   B    N 
    31     5    36
Direct
  0.1171936369265012  0.0930017252445410  0.4063282493463234
  0.2096538106599084  0.2063925748877224  0.1442537880534331
  0.8866567769313747  0.1950455933553457  0.6114671410874095
  0.4532393410842843  0.0831585565473176  0.3232133564799966
  0.5714336574929604  0.1882208554586526  0.0754803574045368
  0.0981170011441108  0.0927260796187070  0.8954839832234427
  0.2129966256124760  0.2126565517071342  0.6560925666392876
  0.7805932532601929  0.1044563711422200  0.3294090082213330
  0.4619596696870047  0.0865481244090063  0.8247795791800598
  0.5651478465180872  0.1894509824872230  0.5699531142010912
  0.1111781473645834  0.4254259784890664  0.4003108501899248
  0.2214932545775312  0.5382766053383321  0.1524332001754942
  0.7784462466964470  0.4202589801435366  0.8916315888728832
  0.8877938409013169  0.5535257474822117  0.6537294702448264
  0.4411312102218758  0.4340467568102397  0.3983699762272650
  0.5615199802704325  0.5331774629321941  0.1480316004226907
  0.1035270173098723  0.4383012539709625  0.9031618829012800
  0.2179463021615504  0.5422589265754709  0.6481226936248135
  0.7754972188660716  0.4333788600082329  0.4100399803659727
  0.8800325634254236  0.5377889781425083  0.1525551514694641
  0.4447917701704327  0.4292026770731354  0.8981817527527483
  0.5531332877261050  0.5395272043652355  0.6564041316161422
  0.1039566068275093  0.7675573544813616  0.3978484231352013
  0.2175336206710980  0.8771800546620625  0.1488965482874747
  0.4394298212946239  0.7581714643656241  0.4031039988108631
  0.0997330186251304  0.7655125276928416  0.9002483505978560
  0.2151880319484434  0.8729922830651446  0.6557114412839482
  0.7827797560723795  0.7624807927634052  0.3911433255175396
  0.8843394418638937  0.8691539444614946  0.1397006637444207
  0.4551910378415656  0.7637624024172638  0.8981460358064624
  0.5569718681926759  0.8761241650070843  0.5934268276134347
  0.7768259771258244  0.0803895891123005  0.8529383042223060
  0.8861340090388268  0.2051113350654177  0.1056301624145846
  0.7703914193019159  0.7786877042648470  0.8609796038386932
  0.8865920473728082  0.8740732559417381  0.6040449158761731
  0.5600300481304998  0.8654289715531434  0.1114757086877702
  0.2178708572246890  0.2067807921916724  0.3298815298794295
  0.0786016608494293  0.1072886094631045  0.0875203297323282
  0.8728572399065868  0.1813206747263649  0.8385267640149507
  0.7907588405424022  0.0567573222433211  0.6129345506204444
  0.5561416840605489  0.2004625163802274  0.3812800860198351
  0.4616840108311209  0.0610448641565426  0.1300963230551275
  0.2114080404865675  0.2104312630446543  0.8456268774387610
  0.1211400044800399  0.0895305188513547  0.5926106715324337
  0.8879491052910424  0.2050901501022153  0.3985601951691606
  0.7915999281584831  0.1143817278640782  0.1366172447929088
  0.5869813883068318  0.1855708544504040  0.8868463902922343
  0.4440293859836970  0.1009228718089261  0.6426285279382071
  0.2205208234505633  0.5409176004623788  0.3384263439139303
  0.1057915740274282  0.4317137345738900  0.0880457358078033
  0.8760414070525755  0.5728400309318289  0.8437462109580949
  0.7754449900832157  0.4387568699714919  0.5994487121667262
  0.5588346848612531  0.5376926190959921  0.3331722681421851
  0.4419571349462643  0.4274431797207328  0.0859714489352754
  0.2225617689328843  0.5390653248183099  0.8345161522354516
  0.1093013534151694  0.4286230852261355  0.5870272839148427
  0.8894660540076984  0.5356342088332084  0.3382312956166018
  0.7921567718318201  0.3975736846986138  0.0842658941831118
  0.5556469856246267  0.5390678187015681  0.8411392658899643
  0.4440273447670080  0.4303849427826378  0.5867501733204818
  0.2218795354484158  0.8730800247094805  0.3345298444064539
  0.1127009133116417  0.7583595164415797  0.0854486678148589
  0.8601096058704343  0.8846030474389366  0.8698741297966492
  0.7996334652891548  0.7713457739567104  0.5840213912788101
  0.5512908857098466  0.8773515129393559  0.3999740067229567
  0.4558239282467582  0.7742836284454100  0.0899635857784560
  0.2255335548900561  0.8681605990999017  0.8419490218030035
  0.0840624796892371  0.7755223221277774  0.5895801424530447
  0.8921203080327729  0.8696510089607159  0.3260897696173402
  0.7425748648360866  0.7717897057287360  0.1183840975012558
  0.5879523804381179  0.8547418756391352  0.8432682915368019
  0.4359445138173399  0.7562971164985157  0.5910891964739236
 
  0.00000000E+00  0.00000000E+00  0.00000000E+00
  0.00000000E+00  0.00000000E+00  0.00000000E+00
  0.00000000E+00  0.00000000E+00  0.00000000E+00
  0.00000000E+00  0.00000000E+00  0.00000000E+00
  0.00000000E+00  0.00000000E+00  0.00000000E+00
  0.00000000E+00  0.00000000E+00  0.00000000E+00
  0.00000000E+00  0.00000000E+00  0.00000000E+00
  0.00000000E+00  0.00000000E+00  0.00000000E+00
  0.00000000E+00  0.00000000E+00  0.00000000E+00
  0.00000000E+00  0.00000000E+00  0.00000000E+00
  0.00000000E+00  0.00000000E+00  0.00000000E+00
  0.00000000E+00  0.00000000E+00  0.00000000E+00
  0.00000000E+00  0.00000000E+00  0.00000000E+00
  0.00000000E+00  0.00000000E+00  0.00000000E+00
  0.00000000E+00  0.00000000E+00  0.00000000E+00
  0.00000000E+00  0.00000000E+00  0.00000000E+00
  0.00000000E+00  0.00000000E+00  0.00000000E+00
  0.00000000E+00  0.00000000E+00  0.00000000E+00
  0.00000000E+00  0.00000000E+00  0.00000000E+00
  0.00000000E+00  0.00000000E+00  0.00000000E+00
  0.00000000E+00  0.00000000E+00  0.00000000E+00
  0.00000000E+00  0.00000000E+00  0.00000000E+00
  0.00000000E+00  0.00000000E+00  0.00000000E+00
  0.00000000E+00  0.00000000E+00  0.00000000E+00
  0.00000000E+00  0.00000000E+00  0.00000000E+00
  0.00000000E+00  0.00000000E+00  0.00000000E+00
  0.00000000E+00  0.00000000E+00  0.00000000E+00
  0.00000000E+00  0.00000000E+00  0.00000000E+00
  0.00000000E+00  0.00000000E+00  0.00000000E+00
  0.00000000E+00  0.00000000E+00  0.00000000E+00
  0.00000000E+00  0.00000000E+00  0.00000000E+00
  0.00000000E+00  0.00000000E+00  0.00000000E+00
  0.00000000E+00  0.00000000E+00  0.00000000E+00
  0.00000000E+00  0.00000000E+00  0.00000000E+00
  0.00000000E+00  0.00000000E+00  0.00000000E+00
  0.00000000E+00  0.00000000E+00  0.00000000E+00
  0.00000000E+00  0.00000000E+00  0.00000000E+00
  0.00000000E+00  0.00000000E+00  0.00000000E+00
  0.00000000E+00  0.00000000E+00  0.00000000E+00
  0.00000000E+00  0.00000000E+00  0.00000000E+00
  0.00000000E+00  0.00000000E+00  0.00000000E+00
  0.00000000E+00  0.00000000E+00  0.00000000E+00
  0.00000000E+00  0.00000000E+00  0.00000000E+00
  0.00000000E+00  0.00000000E+00  0.00000000E+00
  0.00000000E+00  0.00000000E+00  0.00000000E+00
  0.00000000E+00  0.00000000E+00  0.00000000E+00
  0.00000000E+00  0.00000000E+00  0.00000000E+00
  0.00000000E+00  0.00000000E+00  0.00000000E+00
  0.00000000E+00  0.00000000E+00  0.00000000E+00
  0.00000000E+00  0.00000000E+00  0.00000000E+00
  0.00000000E+00  0.00000000E+00  0.00000000E+00
  0.00000000E+00  0.00000000E+00  0.00000000E+00
  0.00000000E+00  0.00000000E+00  0.00000000E+00
  0.00000000E+00  0.00000000E+00  0.00000000E+00
  0.00000000E+00  0.00000000E+00  0.00000000E+00
  0.00000000E+00  0.00000000E+00  0.00000000E+00
  0.00000000E+00  0.00000000E+00  0.00000000E+00
  0.00000000E+00  0.00000000E+00  0.00000000E+00
  0.00000000E+00  0.00000000E+00  0.00000000E+00
  0.00000000E+00  0.00000000E+00  0.00000000E+00
  0.00000000E+00  0.00000000E+00  0.00000000E+00
  0.00000000E+00  0.00000000E+00  0.00000000E+00
  0.00000000E+00  0.00000000E+00  0.00000000E+00
  0.00000000E+00  0.00000000E+00  0.00000000E+00
  0.00000000E+00  0.00000000E+00  0.00000000E+00
  0.00000000E+00  0.00000000E+00  0.00000000E+00
  0.00000000E+00  0.00000000E+00  0.00000000E+00
  0.00000000E+00  0.00000000E+00  0.00000000E+00
  0.00000000E+00  0.00000000E+00  0.00000000E+00
  0.00000000E+00  0.00000000E+00  0.00000000E+00
  0.00000000E+00  0.00000000E+00  0.00000000E+00
  0.00000000E+00  0.00000000E+00  0.00000000E+00
