Al   B    N                             
   1.00000000000000     
    -9.1648447356957892    0.0056101404980136   -0.0147055335605542
    -4.5475221046380199    7.9300639220144689   -0.0073239108587522
    -0.0188001895626156   -0.0637387728451754  -10.1202877754091052
   Al   B    N 
    31     5    36
Direct
  0.1119815160042279  0.0965498702083281  0.3993744528692815
  0.2100584103579735  0.2075237153952898  0.1467416671459105
  0.8853898385611316  0.1914667343434786  0.6504578808198929
  0.4543076071562879  0.0824637405658564  0.3249632945960670
  0.5708909011520475  0.1935425682214102  0.0826079761025866
  0.0955125875434888  0.0926191326675649  0.9080873291962206
  0.2122444240119776  0.2090490349368679  0.6546022561663634
  0.7798866360056280  0.0967522816668236  0.3331924212742976
  0.4543486204431701  0.0919536316364002  0.8348639572157452
  0.5642187073740601  0.1869343445764002  0.5710647765987247
  0.1105219497653493  0.4271493717971353  0.4008129851284892
  0.2216329659674159  0.5402065771097000  0.1540273549282176
  0.7771637952866115  0.4187135834631093  0.9067775291250868
  0.8887538836932904  0.5477276555563932  0.6597787717150965
  0.4408772851926699  0.4344223886245970  0.4004066247184994
  0.5614256637918018  0.5361006976866562  0.1531689041330466
  0.1020001964050294  0.4362151484329573  0.9047654442674755
  0.2175933731636164  0.5404460397024309  0.6500368015251112
  0.7797433603423656  0.4286352832387053  0.4014705858336498
  0.8795930718731242  0.5425290171202874  0.1497752027586401
  0.4434438622552150  0.4303876300748968  0.9001911205872020
  0.5568860298033940  0.5343732796324190  0.6557640264121005
  0.1046957793807906  0.7656022587610636  0.3967157608706486
  0.2198177775543115  0.8784406452027014  0.1531626371929988
  0.4440962097404579  0.7611277119682356  0.4077517027334991
  0.0993799556356620  0.7662337841958689  0.9013519088707653
  0.2156184547338995  0.8739756055807817  0.6534262403708553
  0.7818586398631879  0.7629925353821392  0.4000666532850872
  0.8848812300180029  0.8759933292660875  0.1308163142383947
  0.4508109702730607  0.7630481565803606  0.8984109859986660
  0.5686909144090535  0.8661712794626339  0.6395619352071478
  0.7744031942646146  0.0784844638081381  0.8708795089565626
  0.8886533560173859  0.2099920754136306  0.1590974777332264
  0.7610491869723006  0.7778554318799706  0.9066847478886686
  0.8905403865461921  0.8726546675359685  0.6031262656619916
  0.5542854690347028  0.8716702286682008  0.1076003335843083
  0.2215552499998523  0.2074733838174083  0.3347611979232354
  0.0818863054306647  0.1067945590954906  0.0971072733051273
  0.8703640860391246  0.1809831344502157  0.8425487527942508
  0.7975919631031871  0.0571187208023574  0.5929745557641937
  0.5549840185842072  0.2021638426823387  0.3815609395588382
  0.4610585953057225  0.0632577699055048  0.1261454314114445
  0.2080606457708356  0.2085760221061363  0.8482434162936627
  0.1081484174159257  0.0944274539451513  0.5884339718384908
  0.8971753521931802  0.2142486612701759  0.3242641933268757
  0.7870086345269058  0.1130219713046259  0.1398519119101493
  0.5841342968450149  0.1874617560085596  0.8905382981239853
  0.4438338855496511  0.0987746786547916  0.6462155864427217
  0.2212731579743021  0.5403797574247378  0.3414772677988864
  0.1069067931516159  0.4329067449427839  0.0910231089913225
  0.8732899264154597  0.5648789968329098  0.8519259923082956
  0.7812955055241702  0.4240599361624646  0.5943594935203009
  0.5565582908755218  0.5394923488699064  0.3397474004604959
  0.4416300915411426  0.4311205387030057  0.0899188814143344
  0.2200594032178955  0.5392889822191975  0.8377232100252385
  0.1080362095020391  0.4275932479545830  0.5901426957167359
  0.8883671197704430  0.5414106907269129  0.3380935692125959
  0.7901792622778174  0.4025858904542829  0.0966694666207530
  0.5573679278633676  0.5372127476243378  0.8436523496837651
  0.4435572833956130  0.4280864190951092  0.5911018608523406
  0.2236082032724411  0.8715452960373611  0.3409352802288268
  0.1166002164128983  0.7592478843758457  0.0880860971768058
  0.8581661957490283  0.8902436987562226  0.8837753182741181
  0.8009356097353333  0.7704058113898498  0.5920195547151295
  0.5587193120860121  0.8689483905315640  0.3774011973742120
  0.4565650935595045  0.7768186412046560  0.0918765781358530
  0.2217235716833272  0.8713413479621721  0.8425320435479122
  0.0856778718999536  0.7732820206235687  0.5914948979499854
  0.8925456815442203  0.8629176312515412  0.3235796388191403
  0.7452018430134615  0.7746755174715858  0.0756726397638730
  0.5838736746249538  0.8553993142545977  0.8414527825535245
  0.4423553251551198  0.7575161480308807  0.5979212487350836
 
  0.00000000E+00  0.00000000E+00  0.00000000E+00
  0.00000000E+00  0.00000000E+00  0.00000000E+00
  0.00000000E+00  0.00000000E+00  0.00000000E+00
  0.00000000E+00  0.00000000E+00  0.00000000E+00
  0.00000000E+00  0.00000000E+00  0.00000000E+00
  0.00000000E+00  0.00000000E+00  0.00000000E+00
  0.00000000E+00  0.00000000E+00  0.00000000E+00
  0.00000000E+00  0.00000000E+00  0.00000000E+00
  0.00000000E+00  0.00000000E+00  0.00000000E+00
  0.00000000E+00  0.00000000E+00  0.00000000E+00
  0.00000000E+00  0.00000000E+00  0.00000000E+00
  0.00000000E+00  0.00000000E+00  0.00000000E+00
  0.00000000E+00  0.00000000E+00  0.00000000E+00
  0.00000000E+00  0.00000000E+00  0.00000000E+00
  0.00000000E+00  0.00000000E+00  0.00000000E+00
  0.00000000E+00  0.00000000E+00  0.00000000E+00
  0.00000000E+00  0.00000000E+00  0.00000000E+00
  0.00000000E+00  0.00000000E+00  0.00000000E+00
  0.00000000E+00  0.00000000E+00  0.00000000E+00
  0.00000000E+00  0.00000000E+00  0.00000000E+00
  0.00000000E+00  0.00000000E+00  0.00000000E+00
  0.00000000E+00  0.00000000E+00  0.00000000E+00
  0.00000000E+00  0.00000000E+00  0.00000000E+00
  0.00000000E+00  0.00000000E+00  0.00000000E+00
  0.00000000E+00  0.00000000E+00  0.00000000E+00
  0.00000000E+00  0.00000000E+00  0.00000000E+00
  0.00000000E+00  0.00000000E+00  0.00000000E+00
  0.00000000E+00  0.00000000E+00  0.00000000E+00
  0.00000000E+00  0.00000000E+00  0.00000000E+00
  0.00000000E+00  0.00000000E+00  0.00000000E+00
  0.00000000E+00  0.00000000E+00  0.00000000E+00
  0.00000000E+00  0.00000000E+00  0.00000000E+00
  0.00000000E+00  0.00000000E+00  0.00000000E+00
  0.00000000E+00  0.00000000E+00  0.00000000E+00
  0.00000000E+00  0.00000000E+00  0.00000000E+00
  0.00000000E+00  0.00000000E+00  0.00000000E+00
  0.00000000E+00  0.00000000E+00  0.00000000E+00
  0.00000000E+00  0.00000000E+00  0.00000000E+00
  0.00000000E+00  0.00000000E+00  0.00000000E+00
  0.00000000E+00  0.00000000E+00  0.00000000E+00
  0.00000000E+00  0.00000000E+00  0.00000000E+00
  0.00000000E+00  0.00000000E+00  0.00000000E+00
  0.00000000E+00  0.00000000E+00  0.00000000E+00
  0.00000000E+00  0.00000000E+00  0.00000000E+00
  0.00000000E+00  0.00000000E+00  0.00000000E+00
  0.00000000E+00  0.00000000E+00  0.00000000E+00
  0.00000000E+00  0.00000000E+00  0.00000000E+00
  0.00000000E+00  0.00000000E+00  0.00000000E+00
  0.00000000E+00  0.00000000E+00  0.00000000E+00
  0.00000000E+00  0.00000000E+00  0.00000000E+00
  0.00000000E+00  0.00000000E+00  0.00000000E+00
  0.00000000E+00  0.00000000E+00  0.00000000E+00
  0.00000000E+00  0.00000000E+00  0.00000000E+00
  0.00000000E+00  0.00000000E+00  0.00000000E+00
  0.00000000E+00  0.00000000E+00  0.00000000E+00
  0.00000000E+00  0.00000000E+00  0.00000000E+00
  0.00000000E+00  0.00000000E+00  0.00000000E+00
  0.00000000E+00  0.00000000E+00  0.00000000E+00
  0.00000000E+00  0.00000000E+00  0.00000000E+00
  0.00000000E+00  0.00000000E+00  0.00000000E+00
  0.00000000E+00  0.00000000E+00  0.00000000E+00
  0.00000000E+00  0.00000000E+00  0.00000000E+00
  0.00000000E+00  0.00000000E+00  0.00000000E+00
  0.00000000E+00  0.00000000E+00  0.00000000E+00
  0.00000000E+00  0.00000000E+00  0.00000000E+00
  0.00000000E+00  0.00000000E+00  0.00000000E+00
  0.00000000E+00  0.00000000E+00  0.00000000E+00
  0.00000000E+00  0.00000000E+00  0.00000000E+00
  0.00000000E+00  0.00000000E+00  0.00000000E+00
  0.00000000E+00  0.00000000E+00  0.00000000E+00
  0.00000000E+00  0.00000000E+00  0.00000000E+00
  0.00000000E+00  0.00000000E+00  0.00000000E+00
