Al   B    N                             
   1.00000000000000     
    -9.1999756983937058    0.0286737681262620   -0.0299182342778594
    -4.6319009766339052    7.9923922265986285    0.0091808315048599
    -0.0551630223016456   -0.0410344233658487  -10.0867359229905702
   Al   B    N 
    31     5    36
Direct
  0.1156722715880250  0.0878170372040685  0.3969175130182450
  0.2253729389704873  0.2045818573504192  0.0751129528264229
  0.8841463912247889  0.2027324317631241  0.5946129310896850
  0.4499231793884775  0.0882157688069327  0.3133790731215882
  0.5752074510384517  0.1999190680576106  0.0625415250055923
  0.0892781523447113  0.0979710505399325  0.8887647880428133
  0.2269902779865802  0.2058666287524176  0.5940580144531680
  0.7812472781498698  0.0961781715355485  0.3214154016525583
  0.4642918798204363  0.0815910669006925  0.8309200098214475
  0.5579931222449943  0.1980414104669279  0.5712772294186479
  0.1110587107240519  0.4278341370581273  0.3189546129525382
  0.2279586740307167  0.5346193222663658  0.0665011145720413
  0.7708165535907483  0.4358145903741502  0.8154795392495799
  0.8881426557554875  0.5502720792756719  0.5693785579850399
  0.4437947032774900  0.4260092432058542  0.3224251916435179
  0.5609626571819177  0.5350486546887439  0.0725897305423899
  0.1055614362197304  0.4321526839026575  0.8253895207972874
  0.2107125795690337  0.5488627938783353  0.5733172658244001
  0.7826641348927836  0.4193323573212169  0.3279396083026640
  0.8839830501376298  0.5361394271921611  0.0759424436393843
  0.4485097345603961  0.4273616035120824  0.8162765812343835
  0.5526362768512953  0.5453153873639280  0.5673851073914378
  0.1080196566394420  0.7576493390850345  0.3138509954601290
  0.2167409340442745  0.8849015550266373  0.1301404899128258
  0.4518463381121833  0.7627691361055540  0.3153976664522631
  0.0911588279195712  0.7594987185060944  0.8405217464929819
  0.2127620424040728  0.8765128567349265  0.6534995949722457
  0.7708533426058395  0.7623177015474170  0.3219227660316477
  0.8836542989036289  0.8720198887592829  0.0923166110504567
  0.4544177255708277  0.7593374350499147  0.8349177051317511
  0.5614142847888459  0.8734593753646678  0.5737994012511294
  0.7565616656105973  0.1324033342856268  0.8002447286483161
  0.8870217293168068  0.2072593450570679  0.1083891081222674
  0.7790330282861575  0.7570151264138616  0.8830032410368815
  0.8800852506808070  0.8690187288792330  0.6280260920661149
  0.5650783221288052  0.8627629794076555  0.0720471184951492
  0.2258512922022646  0.2054097832023203  0.3658993780381365
  0.0754150677361665  0.1140602045651420  0.0828172786748311
  0.8679449901115746  0.2006801124605317  0.8316982873427605
  0.7814241059941764  0.0691218128677491  0.6512025879770249
  0.5562062615634957  0.2026020465616725  0.3818637006075889
  0.4665919272980332  0.0681861280101188  0.1170764055564035
  0.2246788382075735  0.2029374320964550  0.8805530338158718
  0.1180629358172851  0.0871699022874353  0.5886025913513393
  0.8802333631549004  0.2060408788919332  0.3977427659118931
  0.7954818905414953  0.1127759972325819  0.1271145080510578
  0.5850524262482395  0.1966620143587221  0.8699646383467083
  0.4490822009707216  0.0912511341349216  0.6430305548585054
  0.2193042510916854  0.5415972559608164  0.3844932361887032
  0.1103370227988663  0.4306339527327765  0.1288697347196219
  0.8726123608683309  0.5587062135786667  0.8844926567852127
  0.7742520695019266  0.4389224832544301  0.6285780998000021
  0.5531645671989125  0.5420100103963890  0.3771953058708704
  0.4485664457901706  0.4216937167776038  0.1314465877629800
  0.2286308703775362  0.5303545829844865  0.8799757215363755
  0.1075075276580577  0.4308348818664314  0.6372320180217628
  0.8879596605950937  0.5379087051234137  0.3792114165025069
  0.7933419078766235  0.3975614397425531  0.1315161774879599
  0.5546182521756009  0.5372699729748405  0.8863400954610725
  0.4434127043451213  0.4297924504697619  0.6279186741975948
  0.2198289232582979  0.8773824136890411  0.3243458796151515
  0.1180554287036557  0.7538601986381437  0.1194630519514561
  0.8736497598291066  0.8430133893994878  0.9026699960322375
  0.7906823504472769  0.7789061859536091  0.6128578815834018
  0.5505122772545903  0.8748047028644237  0.3872878001755780
  0.4610482604770851  0.7726993608859942  0.1193490741224466
  0.2155408261457765  0.8728305861374608  0.8469970641823679
  0.0736848925041329  0.7762268004559658  0.6415226243374264
  0.8841186591849777  0.8730295676761202  0.3342304687266378
  0.7480652088628901  0.7641740550934060  0.1312660641892549
  0.5831102263369630  0.8555832610755658  0.9032512040457874
  0.4504884515398899  0.7611939557235559  0.6410029100257262
 
  0.00000000E+00  0.00000000E+00  0.00000000E+00
  0.00000000E+00  0.00000000E+00  0.00000000E+00
  0.00000000E+00  0.00000000E+00  0.00000000E+00
  0.00000000E+00  0.00000000E+00  0.00000000E+00
  0.00000000E+00  0.00000000E+00  0.00000000E+00
  0.00000000E+00  0.00000000E+00  0.00000000E+00
  0.00000000E+00  0.00000000E+00  0.00000000E+00
  0.00000000E+00  0.00000000E+00  0.00000000E+00
  0.00000000E+00  0.00000000E+00  0.00000000E+00
  0.00000000E+00  0.00000000E+00  0.00000000E+00
  0.00000000E+00  0.00000000E+00  0.00000000E+00
  0.00000000E+00  0.00000000E+00  0.00000000E+00
  0.00000000E+00  0.00000000E+00  0.00000000E+00
  0.00000000E+00  0.00000000E+00  0.00000000E+00
  0.00000000E+00  0.00000000E+00  0.00000000E+00
  0.00000000E+00  0.00000000E+00  0.00000000E+00
  0.00000000E+00  0.00000000E+00  0.00000000E+00
  0.00000000E+00  0.00000000E+00  0.00000000E+00
  0.00000000E+00  0.00000000E+00  0.00000000E+00
  0.00000000E+00  0.00000000E+00  0.00000000E+00
  0.00000000E+00  0.00000000E+00  0.00000000E+00
  0.00000000E+00  0.00000000E+00  0.00000000E+00
  0.00000000E+00  0.00000000E+00  0.00000000E+00
  0.00000000E+00  0.00000000E+00  0.00000000E+00
  0.00000000E+00  0.00000000E+00  0.00000000E+00
  0.00000000E+00  0.00000000E+00  0.00000000E+00
  0.00000000E+00  0.00000000E+00  0.00000000E+00
  0.00000000E+00  0.00000000E+00  0.00000000E+00
  0.00000000E+00  0.00000000E+00  0.00000000E+00
  0.00000000E+00  0.00000000E+00  0.00000000E+00
  0.00000000E+00  0.00000000E+00  0.00000000E+00
  0.00000000E+00  0.00000000E+00  0.00000000E+00
  0.00000000E+00  0.00000000E+00  0.00000000E+00
  0.00000000E+00  0.00000000E+00  0.00000000E+00
  0.00000000E+00  0.00000000E+00  0.00000000E+00
  0.00000000E+00  0.00000000E+00  0.00000000E+00
  0.00000000E+00  0.00000000E+00  0.00000000E+00
  0.00000000E+00  0.00000000E+00  0.00000000E+00
  0.00000000E+00  0.00000000E+00  0.00000000E+00
  0.00000000E+00  0.00000000E+00  0.00000000E+00
  0.00000000E+00  0.00000000E+00  0.00000000E+00
  0.00000000E+00  0.00000000E+00  0.00000000E+00
  0.00000000E+00  0.00000000E+00  0.00000000E+00
  0.00000000E+00  0.00000000E+00  0.00000000E+00
  0.00000000E+00  0.00000000E+00  0.00000000E+00
  0.00000000E+00  0.00000000E+00  0.00000000E+00
  0.00000000E+00  0.00000000E+00  0.00000000E+00
  0.00000000E+00  0.00000000E+00  0.00000000E+00
  0.00000000E+00  0.00000000E+00  0.00000000E+00
  0.00000000E+00  0.00000000E+00  0.00000000E+00
  0.00000000E+00  0.00000000E+00  0.00000000E+00
  0.00000000E+00  0.00000000E+00  0.00000000E+00
  0.00000000E+00  0.00000000E+00  0.00000000E+00
  0.00000000E+00  0.00000000E+00  0.00000000E+00
  0.00000000E+00  0.00000000E+00  0.00000000E+00
  0.00000000E+00  0.00000000E+00  0.00000000E+00
  0.00000000E+00  0.00000000E+00  0.00000000E+00
  0.00000000E+00  0.00000000E+00  0.00000000E+00
  0.00000000E+00  0.00000000E+00  0.00000000E+00
  0.00000000E+00  0.00000000E+00  0.00000000E+00
  0.00000000E+00  0.00000000E+00  0.00000000E+00
  0.00000000E+00  0.00000000E+00  0.00000000E+00
  0.00000000E+00  0.00000000E+00  0.00000000E+00
  0.00000000E+00  0.00000000E+00  0.00000000E+00
  0.00000000E+00  0.00000000E+00  0.00000000E+00
  0.00000000E+00  0.00000000E+00  0.00000000E+00
  0.00000000E+00  0.00000000E+00  0.00000000E+00
  0.00000000E+00  0.00000000E+00  0.00000000E+00
  0.00000000E+00  0.00000000E+00  0.00000000E+00
  0.00000000E+00  0.00000000E+00  0.00000000E+00
  0.00000000E+00  0.00000000E+00  0.00000000E+00
  0.00000000E+00  0.00000000E+00  0.00000000E+00
