Al   B    N                             
   1.00000000000000     
    -9.1739407334452157   -0.0018456494511690    0.0017504096497157
    -4.5798192986168562    7.9476848773970588    0.0035055165461994
     0.0105863442832984   -0.0016216673517490   -9.8020268518834719
   Al   B    N 
    31     5    36
Direct
  0.1056021871080972  0.0954825777833932  0.3967335818730859
  0.2190689234704450  0.2021116156655935  0.1524897483347729
  0.8870104242500076  0.1951922396841894  0.6556800242258305
  0.4466909966378481  0.0903640759136621  0.3966381743341358
  0.5632591836702332  0.1997372511237643  0.1480846216001552
  0.1011141933547535  0.0939586956453553  0.9075785526731792
  0.2216347326415189  0.2034332410185726  0.6534190554652568
  0.7810198885312900  0.0882744329664931  0.3978770880306826
  0.4566217722880310  0.0838591555230224  0.9083090399279996
  0.5655608995817474  0.1944802676369619  0.6581835008522745
  0.1081126270146555  0.4279639981693464  0.4035150698078098
  0.2204150252659787  0.5408962589297275  0.1547070055234556
  0.7779949864645488  0.4219159227614639  0.9062280337392252
  0.8857965979764018  0.5487309896616921  0.6580518575342467
  0.4452035976817257  0.4252270262686508  0.4040907183404983
  0.5605899794714375  0.5360839751112323  0.1535851598233933
  0.1063077166943742  0.4334263797451428  0.9042137818499896
  0.2169899981309840  0.5415160970472925  0.6532001418175923
  0.7801168059889250  0.4229482505359670  0.3973051452379650
  0.8824324019859304  0.5413123675540135  0.1465101114374434
  0.4477949977003988  0.4245776439049322  0.9037511915394987
  0.5570533732931793  0.5384885927507170  0.6535688699787201
  0.1021848541873993  0.7649113129954372  0.4061471853445440
  0.2181803213990250  0.8757461301327538  0.1527946296939220
  0.4466400705577769  0.7621168294321095  0.3962627278553796
  0.0998320016902383  0.7659802541759220  0.8959309363859660
  0.2182556249257033  0.8737598742398234  0.6527685569931592
  0.7778657801102966  0.7648138007645429  0.3974627660150603
  0.8824127597447884  0.8778907084985903  0.1376600559639201
  0.4515558937674058  0.7624253402618280  0.9074905545523251
  0.5654286260235395  0.8706104067725704  0.6557519317866962
  0.7757898773359244  0.0973502208422019  0.9069359000509110
  0.8878244483641566  0.2047263551503633  0.1489718199646788
  0.7633774245856344  0.7725534177770399  0.9072990917051840
  0.8810184661898646  0.8756482637082073  0.6526824999894174
  0.5540986539811712  0.8728186978264887  0.1505891645352548
  0.2212213223210142  0.2049254045188746  0.3440527494789976
  0.0839039255957204  0.1065826284461977  0.1007031932765372
  0.8747553778816126  0.1904751075484938  0.8469095739485795
  0.7906136680217415  0.0660972250458514  0.5943681314298033
  0.5578255741780893  0.2035535346695383  0.3412281540217350
  0.4547630498573199  0.0691865541007530  0.1012231074990382
  0.2224420282103168  0.2027667176160293  0.8487217820090223
  0.1066540312925284  0.0956277347151371  0.5908732662930589
  0.8854685668647022  0.2026414896035789  0.3197870732360428
  0.7878231315408826  0.1051891778662579  0.0770352582302607
  0.5801315190499068  0.1920584196453206  0.8549530703957728
  0.4458364841209388  0.0917546883933937  0.5931210944296197
  0.2204559111266278  0.5405769575666852  0.3485414016588919
  0.1106108479486707  0.4275978685729243  0.0952564433300935
  0.8732840641828048  0.5650011429617408  0.8543945331697529
  0.7818816415932801  0.4229332739767813  0.5942163772874238
  0.5556080018126721  0.5373419311875836  0.3446087616289262
  0.4434652449057523  0.4275273297382753  0.0953550846518922
  0.2234033436302028  0.5376023492529995  0.8435076102159300
  0.1077889745208012  0.4273855635720452  0.5965256790180362
  0.8860139708717298  0.5411980696108571  0.3405524932803843
  0.7903702394919137  0.4011311223563396  0.0991485863910029
  0.5560135518694906  0.5399377050020533  0.8467807012880257
  0.4464191908165347  0.4231982240500543  0.5978650848026703
  0.2205911964623795  0.8699292983474649  0.3454398309165754
  0.1104118578327302  0.7607739220636631  0.0885667101365897
  0.8643666835912356  0.8843301493505038  0.8440077395856704
  0.7901107432320700  0.7750559855233234  0.5943499544515731
  0.5591390035915111  0.8699836512695640  0.3200088242030716
  0.4556096191783041  0.7734238648645260  0.1017181948841284
  0.2252512975109440  0.8717469396718727  0.8460045489338626
  0.0822092716709690  0.7752777627297505  0.6045819234843819
  0.8878461754992344  0.8716290012234964  0.3298316101630405
  0.7524533847588515  0.7740981729998211  0.0779923242292284
  0.5797057334414717  0.8596657623340036  0.8471417872002789
  0.4470814861378543  0.7627830042598518  0.5917689227915162
 
  0.00000000E+00  0.00000000E+00  0.00000000E+00
  0.00000000E+00  0.00000000E+00  0.00000000E+00
  0.00000000E+00  0.00000000E+00  0.00000000E+00
  0.00000000E+00  0.00000000E+00  0.00000000E+00
  0.00000000E+00  0.00000000E+00  0.00000000E+00
  0.00000000E+00  0.00000000E+00  0.00000000E+00
  0.00000000E+00  0.00000000E+00  0.00000000E+00
  0.00000000E+00  0.00000000E+00  0.00000000E+00
  0.00000000E+00  0.00000000E+00  0.00000000E+00
  0.00000000E+00  0.00000000E+00  0.00000000E+00
  0.00000000E+00  0.00000000E+00  0.00000000E+00
  0.00000000E+00  0.00000000E+00  0.00000000E+00
  0.00000000E+00  0.00000000E+00  0.00000000E+00
  0.00000000E+00  0.00000000E+00  0.00000000E+00
  0.00000000E+00  0.00000000E+00  0.00000000E+00
  0.00000000E+00  0.00000000E+00  0.00000000E+00
  0.00000000E+00  0.00000000E+00  0.00000000E+00
  0.00000000E+00  0.00000000E+00  0.00000000E+00
  0.00000000E+00  0.00000000E+00  0.00000000E+00
  0.00000000E+00  0.00000000E+00  0.00000000E+00
  0.00000000E+00  0.00000000E+00  0.00000000E+00
  0.00000000E+00  0.00000000E+00  0.00000000E+00
  0.00000000E+00  0.00000000E+00  0.00000000E+00
  0.00000000E+00  0.00000000E+00  0.00000000E+00
  0.00000000E+00  0.00000000E+00  0.00000000E+00
  0.00000000E+00  0.00000000E+00  0.00000000E+00
  0.00000000E+00  0.00000000E+00  0.00000000E+00
  0.00000000E+00  0.00000000E+00  0.00000000E+00
  0.00000000E+00  0.00000000E+00  0.00000000E+00
  0.00000000E+00  0.00000000E+00  0.00000000E+00
  0.00000000E+00  0.00000000E+00  0.00000000E+00
  0.00000000E+00  0.00000000E+00  0.00000000E+00
  0.00000000E+00  0.00000000E+00  0.00000000E+00
  0.00000000E+00  0.00000000E+00  0.00000000E+00
  0.00000000E+00  0.00000000E+00  0.00000000E+00
  0.00000000E+00  0.00000000E+00  0.00000000E+00
  0.00000000E+00  0.00000000E+00  0.00000000E+00
  0.00000000E+00  0.00000000E+00  0.00000000E+00
  0.00000000E+00  0.00000000E+00  0.00000000E+00
  0.00000000E+00  0.00000000E+00  0.00000000E+00
  0.00000000E+00  0.00000000E+00  0.00000000E+00
  0.00000000E+00  0.00000000E+00  0.00000000E+00
  0.00000000E+00  0.00000000E+00  0.00000000E+00
  0.00000000E+00  0.00000000E+00  0.00000000E+00
  0.00000000E+00  0.00000000E+00  0.00000000E+00
  0.00000000E+00  0.00000000E+00  0.00000000E+00
  0.00000000E+00  0.00000000E+00  0.00000000E+00
  0.00000000E+00  0.00000000E+00  0.00000000E+00
  0.00000000E+00  0.00000000E+00  0.00000000E+00
  0.00000000E+00  0.00000000E+00  0.00000000E+00
  0.00000000E+00  0.00000000E+00  0.00000000E+00
  0.00000000E+00  0.00000000E+00  0.00000000E+00
  0.00000000E+00  0.00000000E+00  0.00000000E+00
  0.00000000E+00  0.00000000E+00  0.00000000E+00
  0.00000000E+00  0.00000000E+00  0.00000000E+00
  0.00000000E+00  0.00000000E+00  0.00000000E+00
  0.00000000E+00  0.00000000E+00  0.00000000E+00
  0.00000000E+00  0.00000000E+00  0.00000000E+00
  0.00000000E+00  0.00000000E+00  0.00000000E+00
  0.00000000E+00  0.00000000E+00  0.00000000E+00
  0.00000000E+00  0.00000000E+00  0.00000000E+00
  0.00000000E+00  0.00000000E+00  0.00000000E+00
  0.00000000E+00  0.00000000E+00  0.00000000E+00
  0.00000000E+00  0.00000000E+00  0.00000000E+00
  0.00000000E+00  0.00000000E+00  0.00000000E+00
  0.00000000E+00  0.00000000E+00  0.00000000E+00
  0.00000000E+00  0.00000000E+00  0.00000000E+00
  0.00000000E+00  0.00000000E+00  0.00000000E+00
  0.00000000E+00  0.00000000E+00  0.00000000E+00
  0.00000000E+00  0.00000000E+00  0.00000000E+00
  0.00000000E+00  0.00000000E+00  0.00000000E+00
  0.00000000E+00  0.00000000E+00  0.00000000E+00
