Al   B    N                             
   1.00000000000000     
    -9.1744895276590519    0.0239936439015256   -0.0260868002797711
    -4.6229303146515530    7.9959649049891182   -0.0047128916324773
    -0.0097329301360244   -0.1150521848144487  -10.2758924460523708
   Al   B    N 
    31     5    36
Direct
  0.1160887820966110  0.0926784165496670  0.3979556082379290
  0.2127734156166028  0.2074237561546042  0.1336836443644884
  0.8857488673013805  0.2022438700951454  0.5911267657740069
  0.4542941917471310  0.0863614688589109  0.3167616117373626
  0.5753436652408297  0.1945494426222041  0.0591161836752434
  0.0927242054887785  0.0973609434529550  0.8899457959551569
  0.2153033745163455  0.2094903087222804  0.6495574131216770
  0.7817369295766170  0.0963356345749204  0.3189682216558722
  0.4720678679261781  0.0770663591109795  0.8171726748960779
  0.5566368369348709  0.1994546574020859  0.5683144563865099
  0.1144441961321050  0.4240804651398378  0.3818480504608743
  0.2311808605039829  0.5366953376664370  0.0637275833421000
  0.7691961028515948  0.4375121904865367  0.8143973385098278
  0.8825236140730794  0.5541455418028463  0.5703701379477479
  0.4444987371127738  0.4252768213151370  0.3181241500150875
  0.5647122695890872  0.5269210866393905  0.0737432706480945
  0.1074250550744935  0.4272142096904048  0.8810656183440386
  0.2144371865712813  0.5530438370475039  0.5750539321634207
  0.7823739506402205  0.4194372588204089  0.3244077520268860
  0.8766711004944128  0.5395650586776171  0.0730367129479177
  0.4501076760388187  0.4268870651537000  0.8150804495113348
  0.5578497412868586  0.5326929574880950  0.5658458174697074
  0.1081295000413292  0.7580477114076984  0.3109737557445911
  0.2234889817390382  0.8829048303310714  0.1377586239691269
  0.4330752133171245  0.7669216496073545  0.3926206248724284
  0.0919293804407459  0.7599437407185974  0.8341531874329959
  0.2179992082371669  0.8771920458143967  0.6523616801480188
  0.7706637638617551  0.7622901687181951  0.3226527199977482
  0.8865654221124188  0.8699413939604099  0.0878582780734476
  0.4497267350526357  0.7686963935120446  0.8928336076373000
  0.5628642550888756  0.8769241474997145  0.5754903192309513
  0.7574780944476984  0.1342565331639491  0.7994345981730291
  0.8883135074160222  0.2042912444467433  0.1056372574530684
  0.7756881812271601  0.7584536733740634  0.8714590487495215
  0.8818960882999534  0.8708059196206790  0.6267088277344897
  0.5582282328853481  0.8679720388176690  0.1042638824046307
  0.2173811198623525  0.2063176263390432  0.3203242641329567
  0.0790278818705588  0.1103156997677743  0.0799345177759676
  0.8691570925416272  0.2006044481971472  0.8341615430122218
  0.7813466918762373  0.0722375413876151  0.6509809802501749
  0.5554940354802156  0.2044839778375476  0.3811758191021255
  0.4682397501289302  0.0621848014963149  0.1210522225529687
  0.2198535107419417  0.1998047577285291  0.8384662801254876
  0.1205053510041125  0.0895492129508710  0.5831330773160417
  0.8803384204283091  0.2072789966921817  0.3964128865380019
  0.7960183330033814  0.1108341690560621  0.1257315446503284
  0.5853504060547507  0.1955245313279477  0.8690093816362321
  0.4474747366273135  0.0953372549476299  0.6340357896136126
  0.2244536970352229  0.5468878261169507  0.3850652034274589
  0.1098726701101427  0.4273649689254526  0.0834582001322985
  0.8678793564864549  0.5601850434528188  0.8825694445426677
  0.7745901419088455  0.4382545670249911  0.6308360911721422
  0.5569432750641923  0.5338925397830110  0.3757127393753379
  0.4496359879231520  0.4166778455994304  0.1305126625134108
  0.2315967102175662  0.5337478225214483  0.8767626407616191
  0.1124867638253519  0.4254154455870491  0.5911629184818565
  0.8820558437341859  0.5409104030248528  0.3784357374454288
  0.7953049590715651  0.3949461217544652  0.1317147285435851
  0.5550578640265087  0.5353366152287293  0.8886379165974674
  0.4453418829224489  0.4271935343883300  0.6304348508040292
  0.2208965095005411  0.8806322353189557  0.3232774842392629
  0.1218068762528262  0.7534514150141547  0.1217249420565807
  0.8777428831650695  0.8382198509117487  0.9032965049952537
  0.7939225172382933  0.7809918224080832  0.6063421202829389
  0.5521650658814536  0.8780363682745076  0.3869724179143859
  0.4567446673516855  0.7790187748820827  0.0868334963103621
  0.2220209400741879  0.8722023581776668  0.8398617348804933
  0.0750161202290442  0.7789200041180635  0.6421024212247275
  0.8842942635112010  0.8735660355781505  0.3312548416873966
  0.7432120998618146  0.7660006790352156  0.1327064035113779
  0.5913339268359650  0.8517840415798901  0.8564898877524527
  0.4353421540459124  0.7633024028045057  0.5836465929771535
 
  0.00000000E+00  0.00000000E+00  0.00000000E+00
  0.00000000E+00  0.00000000E+00  0.00000000E+00
  0.00000000E+00  0.00000000E+00  0.00000000E+00
  0.00000000E+00  0.00000000E+00  0.00000000E+00
  0.00000000E+00  0.00000000E+00  0.00000000E+00
  0.00000000E+00  0.00000000E+00  0.00000000E+00
  0.00000000E+00  0.00000000E+00  0.00000000E+00
  0.00000000E+00  0.00000000E+00  0.00000000E+00
  0.00000000E+00  0.00000000E+00  0.00000000E+00
  0.00000000E+00  0.00000000E+00  0.00000000E+00
  0.00000000E+00  0.00000000E+00  0.00000000E+00
  0.00000000E+00  0.00000000E+00  0.00000000E+00
  0.00000000E+00  0.00000000E+00  0.00000000E+00
  0.00000000E+00  0.00000000E+00  0.00000000E+00
  0.00000000E+00  0.00000000E+00  0.00000000E+00
  0.00000000E+00  0.00000000E+00  0.00000000E+00
  0.00000000E+00  0.00000000E+00  0.00000000E+00
  0.00000000E+00  0.00000000E+00  0.00000000E+00
  0.00000000E+00  0.00000000E+00  0.00000000E+00
  0.00000000E+00  0.00000000E+00  0.00000000E+00
  0.00000000E+00  0.00000000E+00  0.00000000E+00
  0.00000000E+00  0.00000000E+00  0.00000000E+00
  0.00000000E+00  0.00000000E+00  0.00000000E+00
  0.00000000E+00  0.00000000E+00  0.00000000E+00
  0.00000000E+00  0.00000000E+00  0.00000000E+00
  0.00000000E+00  0.00000000E+00  0.00000000E+00
  0.00000000E+00  0.00000000E+00  0.00000000E+00
  0.00000000E+00  0.00000000E+00  0.00000000E+00
  0.00000000E+00  0.00000000E+00  0.00000000E+00
  0.00000000E+00  0.00000000E+00  0.00000000E+00
  0.00000000E+00  0.00000000E+00  0.00000000E+00
  0.00000000E+00  0.00000000E+00  0.00000000E+00
  0.00000000E+00  0.00000000E+00  0.00000000E+00
  0.00000000E+00  0.00000000E+00  0.00000000E+00
  0.00000000E+00  0.00000000E+00  0.00000000E+00
  0.00000000E+00  0.00000000E+00  0.00000000E+00
  0.00000000E+00  0.00000000E+00  0.00000000E+00
  0.00000000E+00  0.00000000E+00  0.00000000E+00
  0.00000000E+00  0.00000000E+00  0.00000000E+00
  0.00000000E+00  0.00000000E+00  0.00000000E+00
  0.00000000E+00  0.00000000E+00  0.00000000E+00
  0.00000000E+00  0.00000000E+00  0.00000000E+00
  0.00000000E+00  0.00000000E+00  0.00000000E+00
  0.00000000E+00  0.00000000E+00  0.00000000E+00
  0.00000000E+00  0.00000000E+00  0.00000000E+00
  0.00000000E+00  0.00000000E+00  0.00000000E+00
  0.00000000E+00  0.00000000E+00  0.00000000E+00
  0.00000000E+00  0.00000000E+00  0.00000000E+00
  0.00000000E+00  0.00000000E+00  0.00000000E+00
  0.00000000E+00  0.00000000E+00  0.00000000E+00
  0.00000000E+00  0.00000000E+00  0.00000000E+00
  0.00000000E+00  0.00000000E+00  0.00000000E+00
  0.00000000E+00  0.00000000E+00  0.00000000E+00
  0.00000000E+00  0.00000000E+00  0.00000000E+00
  0.00000000E+00  0.00000000E+00  0.00000000E+00
  0.00000000E+00  0.00000000E+00  0.00000000E+00
  0.00000000E+00  0.00000000E+00  0.00000000E+00
  0.00000000E+00  0.00000000E+00  0.00000000E+00
  0.00000000E+00  0.00000000E+00  0.00000000E+00
  0.00000000E+00  0.00000000E+00  0.00000000E+00
  0.00000000E+00  0.00000000E+00  0.00000000E+00
  0.00000000E+00  0.00000000E+00  0.00000000E+00
  0.00000000E+00  0.00000000E+00  0.00000000E+00
  0.00000000E+00  0.00000000E+00  0.00000000E+00
  0.00000000E+00  0.00000000E+00  0.00000000E+00
  0.00000000E+00  0.00000000E+00  0.00000000E+00
  0.00000000E+00  0.00000000E+00  0.00000000E+00
  0.00000000E+00  0.00000000E+00  0.00000000E+00
  0.00000000E+00  0.00000000E+00  0.00000000E+00
  0.00000000E+00  0.00000000E+00  0.00000000E+00
  0.00000000E+00  0.00000000E+00  0.00000000E+00
  0.00000000E+00  0.00000000E+00  0.00000000E+00
