Al   B    N                             
   1.00000000000000     
    -9.1688997381149449    0.0089970822533804   -0.0242631015082802
    -4.5603680952215857    7.9322044199432442   -0.0167920415268986
    -0.0691475099059336   -0.0833846695279285  -10.2297556982397531
   Al   B    N 
    31     5    36
Direct
  0.1160488775030615  0.0938299658704196  0.3975716016909274
  0.2130404913975426  0.2052852743117768  0.1336235713078651
  0.8870324468688224  0.2001189408564343  0.6142439191453164
  0.4558647383695984  0.0814877595997388  0.3150843517350737
  0.5736657383832622  0.1927915132089524  0.0563912936654916
  0.0966870776251270  0.0950315581724794  0.8844850788411733
  0.2138466682662923  0.2116551563382103  0.6461899831928051
  0.7814160391986462  0.1051685284360886  0.3164158299312376
  0.4614379513968458  0.0833742972607894  0.8141751167640408
  0.5606621420139959  0.1981405417827133  0.5639227644307709
  0.1126504708095197  0.4244693522322507  0.3916077553435429
  0.2196377922253845  0.5402427878586735  0.1184527264981554
  0.7781169604059670  0.4207472875549172  0.8819039687365589
  0.8874869255346383  0.5544697035050561  0.6437487642061370
  0.4461074170691433  0.4210341902122678  0.3178403371254817
  0.5661840961972615  0.5384491672189995  0.1345334945122758
  0.1016332534121815  0.4362458145968375  0.8892673795124395
  0.2152237246029429  0.5453131486489013  0.6271808392973739
  0.7759473536350967  0.4315641216647421  0.4006334169819041
  0.8814281689257939  0.5375379874464130  0.1431601875157185
  0.4508602996892037  0.4137634739050995  0.8183190632030559
  0.5573788002106923  0.5462439280627436  0.6476815616640366
  0.1024762725575528  0.7703848872248429  0.3901905071649594
  0.2167295989629423  0.8792806799388160  0.1391342570481982
  0.4394235776542388  0.7559209923837713  0.3922104767760217
  0.0967209126655533  0.7674180262236661  0.8856352592653636
  0.2145319553286811  0.8756908163907440  0.6471811025323575
  0.7843184355366049  0.7611200785936063  0.3814912706864462
  0.8831812782024215  0.8702895651330493  0.1305470478243649
  0.4533540753091430  0.7640564088084787  0.8892139199624296
  0.5556073192180833  0.8766376621891254  0.5827359890462915
  0.7742543133831248  0.0775255618461088  0.8025074557944265
  0.8876211506866554  0.2050728843611509  0.0946375261908798
  0.7712081841389491  0.7750666869302236  0.8460031327721680
  0.8856357466802933  0.8713545094970598  0.6123011320713445
  0.5612292329677544  0.8676015312558150  0.1012993238989495
  0.2198140901674677  0.2058911738897322  0.3203917402645615
  0.0792660524100697  0.1085058089692126  0.0778396809036934
  0.8761268182314055  0.1897409596574207  0.8188594489763830
  0.7818940410025519  0.0630043225037937  0.6402048692558893
  0.5589156843033578  0.2005492697422468  0.3772992482140083
  0.4653328660185281  0.0622128178081525  0.1192079551918113
  0.2140907138615162  0.2078742098660129  0.8357993776093195
  0.1204259181945915  0.0908092357843060  0.5833089698100125
  0.8858962847681511  0.2020867496588679  0.3943500990851163
  0.7934795935038466  0.1137505506881382  0.1238362866656217
  0.5852028570157657  0.1859302633881725  0.8699844554518776
  0.4434501411669345  0.1001536364957332  0.6295895856864320
  0.2195156975293813  0.5438388037470716  0.3467049950235221
  0.1047955273649706  0.4298782099133547  0.0755319897083524
  0.8740882848141212  0.5707762059921819  0.8327453257888635
  0.7754587668570707  0.4426501495235087  0.5880167069871405
  0.5633858350319940  0.5390028289631559  0.3221896466850254
  0.4496983061200339  0.4160985137875315  0.1214826428009346
  0.2169748003442251  0.5413641185218125  0.8306142597863087
  0.1078253914610556  0.4278184148092024  0.5790162079778511
  0.8913095145854086  0.5338748621364218  0.3292223464910364
  0.7944262646636275  0.3970857554597629  0.0742127266929060
  0.5555131518583210  0.5410127307689692  0.8365746323615326
  0.4517014873250247  0.4195231966272814  0.6268365238042861
  0.2208034405025003  0.8743822817897779  0.3251319854535311
  0.1097495067569483  0.7640477001059551  0.0727421723947899
  0.8623196102012685  0.8764581884098703  0.8452176977278754
  0.7989008633443007  0.7749398027804659  0.5755540729942723
  0.5529604626192111  0.8743216555806086  0.3894086961340690
  0.4551915096311774  0.7778609067036300  0.0805821020349029
  0.2239920056819429  0.8701332530447274  0.8326797734742684
  0.0780151578205306  0.7834120151458919  0.5845345876501256
  0.8906750946828623  0.8717710051258081  0.3178339523047669
  0.7437136311477914  0.7714730500033369  0.1085467465950458
  0.5875770559311562  0.8522686381987228  0.8307256587629297
  0.4329436281953960  0.7575970012163893  0.5800219932200505
 
  0.00000000E+00  0.00000000E+00  0.00000000E+00
  0.00000000E+00  0.00000000E+00  0.00000000E+00
  0.00000000E+00  0.00000000E+00  0.00000000E+00
  0.00000000E+00  0.00000000E+00  0.00000000E+00
  0.00000000E+00  0.00000000E+00  0.00000000E+00
  0.00000000E+00  0.00000000E+00  0.00000000E+00
  0.00000000E+00  0.00000000E+00  0.00000000E+00
  0.00000000E+00  0.00000000E+00  0.00000000E+00
  0.00000000E+00  0.00000000E+00  0.00000000E+00
  0.00000000E+00  0.00000000E+00  0.00000000E+00
  0.00000000E+00  0.00000000E+00  0.00000000E+00
  0.00000000E+00  0.00000000E+00  0.00000000E+00
  0.00000000E+00  0.00000000E+00  0.00000000E+00
  0.00000000E+00  0.00000000E+00  0.00000000E+00
  0.00000000E+00  0.00000000E+00  0.00000000E+00
  0.00000000E+00  0.00000000E+00  0.00000000E+00
  0.00000000E+00  0.00000000E+00  0.00000000E+00
  0.00000000E+00  0.00000000E+00  0.00000000E+00
  0.00000000E+00  0.00000000E+00  0.00000000E+00
  0.00000000E+00  0.00000000E+00  0.00000000E+00
  0.00000000E+00  0.00000000E+00  0.00000000E+00
  0.00000000E+00  0.00000000E+00  0.00000000E+00
  0.00000000E+00  0.00000000E+00  0.00000000E+00
  0.00000000E+00  0.00000000E+00  0.00000000E+00
  0.00000000E+00  0.00000000E+00  0.00000000E+00
  0.00000000E+00  0.00000000E+00  0.00000000E+00
  0.00000000E+00  0.00000000E+00  0.00000000E+00
  0.00000000E+00  0.00000000E+00  0.00000000E+00
  0.00000000E+00  0.00000000E+00  0.00000000E+00
  0.00000000E+00  0.00000000E+00  0.00000000E+00
  0.00000000E+00  0.00000000E+00  0.00000000E+00
  0.00000000E+00  0.00000000E+00  0.00000000E+00
  0.00000000E+00  0.00000000E+00  0.00000000E+00
  0.00000000E+00  0.00000000E+00  0.00000000E+00
  0.00000000E+00  0.00000000E+00  0.00000000E+00
  0.00000000E+00  0.00000000E+00  0.00000000E+00
  0.00000000E+00  0.00000000E+00  0.00000000E+00
  0.00000000E+00  0.00000000E+00  0.00000000E+00
  0.00000000E+00  0.00000000E+00  0.00000000E+00
  0.00000000E+00  0.00000000E+00  0.00000000E+00
  0.00000000E+00  0.00000000E+00  0.00000000E+00
  0.00000000E+00  0.00000000E+00  0.00000000E+00
  0.00000000E+00  0.00000000E+00  0.00000000E+00
  0.00000000E+00  0.00000000E+00  0.00000000E+00
  0.00000000E+00  0.00000000E+00  0.00000000E+00
  0.00000000E+00  0.00000000E+00  0.00000000E+00
  0.00000000E+00  0.00000000E+00  0.00000000E+00
  0.00000000E+00  0.00000000E+00  0.00000000E+00
  0.00000000E+00  0.00000000E+00  0.00000000E+00
  0.00000000E+00  0.00000000E+00  0.00000000E+00
  0.00000000E+00  0.00000000E+00  0.00000000E+00
  0.00000000E+00  0.00000000E+00  0.00000000E+00
  0.00000000E+00  0.00000000E+00  0.00000000E+00
  0.00000000E+00  0.00000000E+00  0.00000000E+00
  0.00000000E+00  0.00000000E+00  0.00000000E+00
  0.00000000E+00  0.00000000E+00  0.00000000E+00
  0.00000000E+00  0.00000000E+00  0.00000000E+00
  0.00000000E+00  0.00000000E+00  0.00000000E+00
  0.00000000E+00  0.00000000E+00  0.00000000E+00
  0.00000000E+00  0.00000000E+00  0.00000000E+00
  0.00000000E+00  0.00000000E+00  0.00000000E+00
  0.00000000E+00  0.00000000E+00  0.00000000E+00
  0.00000000E+00  0.00000000E+00  0.00000000E+00
  0.00000000E+00  0.00000000E+00  0.00000000E+00
  0.00000000E+00  0.00000000E+00  0.00000000E+00
  0.00000000E+00  0.00000000E+00  0.00000000E+00
  0.00000000E+00  0.00000000E+00  0.00000000E+00
  0.00000000E+00  0.00000000E+00  0.00000000E+00
  0.00000000E+00  0.00000000E+00  0.00000000E+00
  0.00000000E+00  0.00000000E+00  0.00000000E+00
  0.00000000E+00  0.00000000E+00  0.00000000E+00
  0.00000000E+00  0.00000000E+00  0.00000000E+00
