supercell of 100% icsd_608626.cif, 0% i 
   1.00000000000000     
    -9.4287797756776808    0.0063906600960488   -0.0118285505121833
    -4.7199269661036878    8.1650701424693839    0.0030500997800625
    -0.0126344794636606   -0.0110540739288061  -10.0278415007591626
   Mg   Al   Si   N 
     5    26     5    36
Direct
  0.1152783170112670  0.0905752632681143  0.2874744444115507
  0.5538435269185129  0.5421387373207693  0.0446367525253564
  0.2266489987403659  0.8689759865963396  0.0427911219129413
  0.7764161306277373  0.7616217569259618  0.7978375008994618
  0.5503310455635457  0.8725795713080871  0.0462263210065004
  0.2220999752695434  0.2082006754126695  0.0457941033363412
  0.8902552168886686  0.2064328104940714  0.5458922970006554
  0.4422669697421284  0.0940865620667068  0.2932534342876920
  0.5514257107654643  0.2078870552257754  0.0510493292273111
  0.1119975113221869  0.0918321759472605  0.8004462345013863
  0.2217102876090493  0.2070368430298899  0.5461301225776083
  0.8897166454392007  0.2084086202922322  0.0466187942193557
  0.4478960751792371  0.0926051734687974  0.7951938580672646
  0.1152360291965024  0.4270774143593883  0.2921452310523946
  0.2208282745556502  0.5374692296524373  0.0495952908509594
  0.7767738131170461  0.4283770803283602  0.7928095009555065
  0.8875633089547819  0.5424473147448339  0.5450932558803672
  0.4423828081199659  0.4329874892507490  0.2936907151677985
  0.2202333916604431  0.5392168338436818  0.5453200157546547
  0.7729962029355093  0.4280012926980703  0.2921678660850660
  0.8943923518259709  0.5321542684246339  0.0509767486176358
  0.4467133639766772  0.4266555313612059  0.7954926983425992
  0.5588781300194228  0.5380682701706121  0.5467721162360846
  0.1177644695679732  0.7586806090466069  0.2919468725468235
  0.8879692470509113  0.8687370550073439  0.5453946318172243
  0.4427559091442106  0.7573712445930880  0.2959918065778950
  0.1074170511073760  0.7659647789673514  0.7950714072762963
  0.2222216473915353  0.8714879018339943  0.5476509811175845
  0.8907229672978332  0.8723886650718100  0.0521265858786037
  0.4427062827045916  0.7637152097852180  0.7900435982225176
  0.5616235487819665  0.8686570928212447  0.5469483562699509
  0.7758718239809568  0.0960078084072435  0.7990143756620540
  0.7765593329884908  0.0961373038955813  0.2972271476268631
  0.5558842495668870  0.2046334585584404  0.5457436922623486
  0.1103759102457573  0.4268128379551115  0.7954292741986677
  0.7756928879799361  0.7616416442298188  0.2916986236084185
  0.2284174211002323  0.2144739774594413  0.3617589455214372
  0.1049017064040214  0.1080140217246708  0.0839517000688659
  0.8767100501223837  0.2025453033291171  0.8483204440901275
  0.7652472564345416  0.0995520903676166  0.6135888127809181
  0.5692640851493920  0.1970559934886964  0.3653540614197865
  0.4380628032978393  0.1091449106003779  0.1087243707126717
  0.2211179108874219  0.2190927287737026  0.8458175826473280
  0.1095709116359629  0.0977290473264034  0.6057251766416556
  0.8698255950362537  0.2021605581356454  0.3583733820053183
  0.7743473276662627  0.0969584736111457  0.1198988751566574
  0.5681695961814484  0.2003367275252970  0.8546255962994991
  0.4524092146513610  0.1022345061230183  0.5996983863921912
  0.2210964226188921  0.5385618805151964  0.3580439256772223
  0.1127731803706382  0.4273447806408015  0.1052293133019546
  0.9087421056811777  0.5172472545112043  0.8566935424860844
  0.7827994794278865  0.4263577947577843  0.6015505813552409
  0.5578538020143000  0.5335397921503287  0.3593597829381565
  0.4376230472382687  0.4212804165568471  0.1080119305979252
  0.2156076896498362  0.5325554675469064  0.8491530216213548
  0.1098937260709931  0.4293363793758900  0.6152156583827164
  0.8848545347140089  0.5508704019574964  0.3519653561785034
  0.7897220226251491  0.4209305065750186  0.1078294441163621
  0.5546330877356596  0.5387677415651240  0.8354344024562934
  0.4502488855216811  0.4118755164688181  0.6004030912892659
  0.2252950878262752  0.8600205515618313  0.3627014019718615
  0.1042869057755027  0.7535181895500500  0.1065609497838480
  0.8853287861427290  0.8954440574272553  0.8593283244571737
  0.7812574219806052  0.7600675682384690  0.5946119730629249
  0.5698363368988240  0.8683544352291790  0.3534058572029437
  0.4445908382285282  0.7599179509878624  0.1194011739863967
  0.2217818614029170  0.8693297017444479  0.8358128898654087
  0.1065719787444124  0.7602662242870295  0.6042865384534721
  0.8755096719859523  0.8816854515319150  0.3502817605353954
  0.7915902746517958  0.7542646370555843  0.1172604725758362
  0.5401132747109756  0.8809837642401916  0.8426064934206323
  0.4464962861685606  0.7611096306961898  0.5973196745647584
 
  0.00000000E+00  0.00000000E+00  0.00000000E+00
  0.00000000E+00  0.00000000E+00  0.00000000E+00
  0.00000000E+00  0.00000000E+00  0.00000000E+00
  0.00000000E+00  0.00000000E+00  0.00000000E+00
  0.00000000E+00  0.00000000E+00  0.00000000E+00
  0.00000000E+00  0.00000000E+00  0.00000000E+00
  0.00000000E+00  0.00000000E+00  0.00000000E+00
  0.00000000E+00  0.00000000E+00  0.00000000E+00
  0.00000000E+00  0.00000000E+00  0.00000000E+00
  0.00000000E+00  0.00000000E+00  0.00000000E+00
  0.00000000E+00  0.00000000E+00  0.00000000E+00
  0.00000000E+00  0.00000000E+00  0.00000000E+00
  0.00000000E+00  0.00000000E+00  0.00000000E+00
  0.00000000E+00  0.00000000E+00  0.00000000E+00
  0.00000000E+00  0.00000000E+00  0.00000000E+00
  0.00000000E+00  0.00000000E+00  0.00000000E+00
  0.00000000E+00  0.00000000E+00  0.00000000E+00
  0.00000000E+00  0.00000000E+00  0.00000000E+00
  0.00000000E+00  0.00000000E+00  0.00000000E+00
  0.00000000E+00  0.00000000E+00  0.00000000E+00
  0.00000000E+00  0.00000000E+00  0.00000000E+00
  0.00000000E+00  0.00000000E+00  0.00000000E+00
  0.00000000E+00  0.00000000E+00  0.00000000E+00
  0.00000000E+00  0.00000000E+00  0.00000000E+00
  0.00000000E+00  0.00000000E+00  0.00000000E+00
  0.00000000E+00  0.00000000E+00  0.00000000E+00
  0.00000000E+00  0.00000000E+00  0.00000000E+00
  0.00000000E+00  0.00000000E+00  0.00000000E+00
  0.00000000E+00  0.00000000E+00  0.00000000E+00
  0.00000000E+00  0.00000000E+00  0.00000000E+00
  0.00000000E+00  0.00000000E+00  0.00000000E+00
  0.00000000E+00  0.00000000E+00  0.00000000E+00
  0.00000000E+00  0.00000000E+00  0.00000000E+00
  0.00000000E+00  0.00000000E+00  0.00000000E+00
  0.00000000E+00  0.00000000E+00  0.00000000E+00
  0.00000000E+00  0.00000000E+00  0.00000000E+00
  0.00000000E+00  0.00000000E+00  0.00000000E+00
  0.00000000E+00  0.00000000E+00  0.00000000E+00
  0.00000000E+00  0.00000000E+00  0.00000000E+00
  0.00000000E+00  0.00000000E+00  0.00000000E+00
  0.00000000E+00  0.00000000E+00  0.00000000E+00
  0.00000000E+00  0.00000000E+00  0.00000000E+00
  0.00000000E+00  0.00000000E+00  0.00000000E+00
  0.00000000E+00  0.00000000E+00  0.00000000E+00
  0.00000000E+00  0.00000000E+00  0.00000000E+00
  0.00000000E+00  0.00000000E+00  0.00000000E+00
  0.00000000E+00  0.00000000E+00  0.00000000E+00
  0.00000000E+00  0.00000000E+00  0.00000000E+00
  0.00000000E+00  0.00000000E+00  0.00000000E+00
  0.00000000E+00  0.00000000E+00  0.00000000E+00
  0.00000000E+00  0.00000000E+00  0.00000000E+00
  0.00000000E+00  0.00000000E+00  0.00000000E+00
  0.00000000E+00  0.00000000E+00  0.00000000E+00
  0.00000000E+00  0.00000000E+00  0.00000000E+00
  0.00000000E+00  0.00000000E+00  0.00000000E+00
  0.00000000E+00  0.00000000E+00  0.00000000E+00
  0.00000000E+00  0.00000000E+00  0.00000000E+00
  0.00000000E+00  0.00000000E+00  0.00000000E+00
  0.00000000E+00  0.00000000E+00  0.00000000E+00
  0.00000000E+00  0.00000000E+00  0.00000000E+00
  0.00000000E+00  0.00000000E+00  0.00000000E+00
  0.00000000E+00  0.00000000E+00  0.00000000E+00
  0.00000000E+00  0.00000000E+00  0.00000000E+00
  0.00000000E+00  0.00000000E+00  0.00000000E+00
  0.00000000E+00  0.00000000E+00  0.00000000E+00
  0.00000000E+00  0.00000000E+00  0.00000000E+00
  0.00000000E+00  0.00000000E+00  0.00000000E+00
  0.00000000E+00  0.00000000E+00  0.00000000E+00
  0.00000000E+00  0.00000000E+00  0.00000000E+00
  0.00000000E+00  0.00000000E+00  0.00000000E+00
  0.00000000E+00  0.00000000E+00  0.00000000E+00
  0.00000000E+00  0.00000000E+00  0.00000000E+00
