B    Al   N                             
   1.00000000000000     
    -9.1607056850845296    0.0046891354766148    0.0014816037384268
    -4.5844300686666504    8.0233830948550100    0.0183861944056056
     0.0016870074474516   -0.0220149398680789   -9.7686496981259108
   B    Al   N 
     5    31    36
Direct
  0.1124400428753489  0.0943260747961290  0.4140498374952983
  0.5830959514022567  0.4854422670368947  0.1810856415951037
  0.2283345532534327  0.8936672096811549  0.1755263779864293
  0.5520628511048074  0.8747711874858126  0.1734755113800190
  0.7781736481949579  0.7608514623364471  0.4119808216212988
  0.2239339069296520  0.1969209431038905  0.1696558360275162
  0.7814986193878681  0.0903944457017616  0.9138685219420353
  0.8937522709721009  0.2024984675319104  0.6585271952003353
  0.4470274783094865  0.0849056202683514  0.4094790216687016
  0.5616604253098316  0.1975674299808290  0.1663793819892945
  0.1158850970032148  0.0878966481188854  0.9160931964123833
  0.2219898274700611  0.2026106797211469  0.6578156738868586
  0.7830605555497314  0.0853967187682088  0.4164025064915222
  0.8993444071990027  0.1925737547838082  0.1710744500092574
  0.4462821383860174  0.0876912844895301  0.9180148887452262
  0.5553238953309574  0.2036198239907137  0.6658722347495711
  0.1064941450293944  0.4305296153517872  0.4138157994371099
  0.2295239883053739  0.5456066232357983  0.1652660602683653
  0.7739558822508101  0.4281384043483669  0.9174794024024067
  0.8853924225980165  0.5428146502642122  0.6593678779071652
  0.4469597562793624  0.4239884305117343  0.4146033350795619
  0.1103783508137965  0.4270167033045666  0.9156010748397421
  0.2230916077031964  0.5399783660054212  0.6660573752882968
  0.7842435061024062  0.4261805831708827  0.4127740256655912
  0.8711244428361411  0.5511395721973642  0.1699810916281237
  0.4501426492051834  0.4292530207530234  0.9183049070782658
  0.5537770231991033  0.5436328900811418  0.6644847345407854
  0.1092658260943935  0.7654568602573022  0.4065850219018117
  0.7697127351833544  0.7633880213513251  0.9160973407656812
  0.8891040492869493  0.8674186959784009  0.6584252019592753
  0.4488181716349331  0.7597497500333574  0.3833626153108725
  0.1147684349185027  0.7644768247906271  0.9192009110412229
  0.2270069445469716  0.8702509526859856  0.6538579089773577
  0.8858091091524543  0.8671350698701374  0.1670227274794840
  0.4415259351348624  0.7675989766518683  0.9325524342782643
  0.5547137466863603  0.8678676356670607  0.6536100130222167
  0.2083291737390596  0.1954646760042564  0.3632466190668850
  0.1218325241749767  0.0749301868166725  0.1092176378394711
  0.8919158133921243  0.2051553859160791  0.8553234747619385
  0.7791752900447619  0.0913939606337593  0.6080951406144166
  0.5579259946352266  0.2023216699527239  0.3574954361872713
  0.4547182647352059  0.0762226076988171  0.1163102824888540
  0.2222081330112289  0.2040869827396676  0.8548965349658388
  0.1142630163705505  0.0896976968188952  0.5814640565885369
  0.9146468347942118  0.1911656126907104  0.3642774675574714
  0.7835228101449729  0.0880830480979355  0.1080692177597129
  0.5547963229007280  0.2055016787660904  0.8611136164935402
  0.4459519821108415  0.0914834415950878  0.6019336973980742
  0.2250493495542401  0.5377792940280131  0.3559949795473045
  0.1078406915257659  0.4290823834162794  0.1115319402609529
  0.8857257530386846  0.5406806791940326  0.8566769408877661
  0.7770957474244113  0.4263189782386689  0.6041476166831217
  0.5644815472588647  0.5238030724669116  0.3332210065927868
  0.4660598909062514  0.4309658752709993  0.1149681474246478
  0.2245574276171993  0.5391345622891635  0.8625401326748161
  0.1112969323701378  0.4277855307136065  0.6071284996200816
  0.8754832953889391  0.5644857171344171  0.3623946575535300
  0.7581382580757321  0.4279559315999393  0.1179191641166426
  0.5525485004093440  0.5473733965995464  0.8585496673953017
  0.4472676389486523  0.4260634079964802  0.6070061849144679
  0.2090462441959531  0.9000935886636086  0.3420752043681574
  0.1230527984850482  0.7734031856456127  0.1153116111230332
  0.8901109875614495  0.8667066896873479  0.8550951895279582
  0.7753246400193490  0.7611491685309772  0.5807335620505043
  0.5801533811873085  0.8612651270951872  0.3417205450320395
  0.4244162314459672  0.8044746806526106  0.1281735786643665
  0.2259944498492032  0.8713021530569662  0.8485244325744929
  0.1130744483918278  0.7593205970613397  0.6004828700069993
  0.8773058434443044  0.8573144890033859  0.3607572092306626
  0.7455754255559413  0.7739144897634560  0.1082889966312592
  0.5529996227114893  0.8705289633639524  0.8477016200807697
  0.4469933958840642  0.7552610425432107  0.5839118738370885
 
  0.00000000E+00  0.00000000E+00  0.00000000E+00
  0.00000000E+00  0.00000000E+00  0.00000000E+00
  0.00000000E+00  0.00000000E+00  0.00000000E+00
  0.00000000E+00  0.00000000E+00  0.00000000E+00
  0.00000000E+00  0.00000000E+00  0.00000000E+00
  0.00000000E+00  0.00000000E+00  0.00000000E+00
  0.00000000E+00  0.00000000E+00  0.00000000E+00
  0.00000000E+00  0.00000000E+00  0.00000000E+00
  0.00000000E+00  0.00000000E+00  0.00000000E+00
  0.00000000E+00  0.00000000E+00  0.00000000E+00
  0.00000000E+00  0.00000000E+00  0.00000000E+00
  0.00000000E+00  0.00000000E+00  0.00000000E+00
  0.00000000E+00  0.00000000E+00  0.00000000E+00
  0.00000000E+00  0.00000000E+00  0.00000000E+00
  0.00000000E+00  0.00000000E+00  0.00000000E+00
  0.00000000E+00  0.00000000E+00  0.00000000E+00
  0.00000000E+00  0.00000000E+00  0.00000000E+00
  0.00000000E+00  0.00000000E+00  0.00000000E+00
  0.00000000E+00  0.00000000E+00  0.00000000E+00
  0.00000000E+00  0.00000000E+00  0.00000000E+00
  0.00000000E+00  0.00000000E+00  0.00000000E+00
  0.00000000E+00  0.00000000E+00  0.00000000E+00
  0.00000000E+00  0.00000000E+00  0.00000000E+00
  0.00000000E+00  0.00000000E+00  0.00000000E+00
  0.00000000E+00  0.00000000E+00  0.00000000E+00
  0.00000000E+00  0.00000000E+00  0.00000000E+00
  0.00000000E+00  0.00000000E+00  0.00000000E+00
  0.00000000E+00  0.00000000E+00  0.00000000E+00
  0.00000000E+00  0.00000000E+00  0.00000000E+00
  0.00000000E+00  0.00000000E+00  0.00000000E+00
  0.00000000E+00  0.00000000E+00  0.00000000E+00
  0.00000000E+00  0.00000000E+00  0.00000000E+00
  0.00000000E+00  0.00000000E+00  0.00000000E+00
  0.00000000E+00  0.00000000E+00  0.00000000E+00
  0.00000000E+00  0.00000000E+00  0.00000000E+00
  0.00000000E+00  0.00000000E+00  0.00000000E+00
  0.00000000E+00  0.00000000E+00  0.00000000E+00
  0.00000000E+00  0.00000000E+00  0.00000000E+00
  0.00000000E+00  0.00000000E+00  0.00000000E+00
  0.00000000E+00  0.00000000E+00  0.00000000E+00
  0.00000000E+00  0.00000000E+00  0.00000000E+00
  0.00000000E+00  0.00000000E+00  0.00000000E+00
  0.00000000E+00  0.00000000E+00  0.00000000E+00
  0.00000000E+00  0.00000000E+00  0.00000000E+00
  0.00000000E+00  0.00000000E+00  0.00000000E+00
  0.00000000E+00  0.00000000E+00  0.00000000E+00
  0.00000000E+00  0.00000000E+00  0.00000000E+00
  0.00000000E+00  0.00000000E+00  0.00000000E+00
  0.00000000E+00  0.00000000E+00  0.00000000E+00
  0.00000000E+00  0.00000000E+00  0.00000000E+00
  0.00000000E+00  0.00000000E+00  0.00000000E+00
  0.00000000E+00  0.00000000E+00  0.00000000E+00
  0.00000000E+00  0.00000000E+00  0.00000000E+00
  0.00000000E+00  0.00000000E+00  0.00000000E+00
  0.00000000E+00  0.00000000E+00  0.00000000E+00
  0.00000000E+00  0.00000000E+00  0.00000000E+00
  0.00000000E+00  0.00000000E+00  0.00000000E+00
  0.00000000E+00  0.00000000E+00  0.00000000E+00
  0.00000000E+00  0.00000000E+00  0.00000000E+00
  0.00000000E+00  0.00000000E+00  0.00000000E+00
  0.00000000E+00  0.00000000E+00  0.00000000E+00
  0.00000000E+00  0.00000000E+00  0.00000000E+00
  0.00000000E+00  0.00000000E+00  0.00000000E+00
  0.00000000E+00  0.00000000E+00  0.00000000E+00
  0.00000000E+00  0.00000000E+00  0.00000000E+00
  0.00000000E+00  0.00000000E+00  0.00000000E+00
  0.00000000E+00  0.00000000E+00  0.00000000E+00
  0.00000000E+00  0.00000000E+00  0.00000000E+00
  0.00000000E+00  0.00000000E+00  0.00000000E+00
  0.00000000E+00  0.00000000E+00  0.00000000E+00
  0.00000000E+00  0.00000000E+00  0.00000000E+00
  0.00000000E+00  0.00000000E+00  0.00000000E+00
