B    Al   N                             
   1.00000000000000     
    -9.1202806404197183   -0.0020920609806209   -0.0047532858349721
    -4.5650529634686388    7.9904147493642208   -0.0037953390672587
    -0.0070094151635873    0.0512285111609661  -10.1394813515563111
   B    Al   N 
     5    31    36
Direct
  0.1118955848522276  0.0941371582890156  0.3191338586038697
  0.5879165996161717  0.4743235333246076  0.0485456302487464
  0.2270276127103372  0.8939628888247384  0.1176980189254806
  0.5388045603853584  0.8868317248174975  0.1005590679100479
  0.7723309172247710  0.7654657697524883  0.3543990648995887
  0.2219016990687877  0.2027872082258142  0.0675343290232462
  0.7821279125836256  0.0886028430667807  0.8079037819598938
  0.8958055246628476  0.2018266340362871  0.5557749842659092
  0.4509329316448003  0.0848615280120981  0.3143292848374060
  0.5616829951092015  0.1934556981900357  0.0586884059464055
  0.1134264566054526  0.0932280384748623  0.8138274344220591
  0.2205001348462758  0.2023068483895898  0.5536455899695554
  0.7820964905789509  0.0881658223183663  0.3108858317822936
  0.8957295162954537  0.1935396568625620  0.0637784067400702
  0.4402907529702915  0.0954048669823777  0.8098163808560415
  0.5558765998529864  0.2052192844824603  0.5589090602322102
  0.1037747808475018  0.4355949369184913  0.3083622209891530
  0.2286249938086229  0.5511999895969595  0.0593601766430538
  0.7801146278404758  0.4224337012183028  0.8139909237956360
  0.8873622184308303  0.5407949912717953  0.5624706648853390
  0.4503335930193444  0.4290060944455121  0.3038616613252714
  0.1129962866185465  0.4231609842819282  0.8097978921669693
  0.2251976912517790  0.5368395317514114  0.5569703278440770
  0.7743456207974262  0.4346828355897401  0.3050713635724236
  0.8652158141904991  0.5530925994944411  0.0565432176307255
  0.4463174243789609  0.4248257716142803  0.8151028661011637
  0.5601483571567627  0.5300444556866353  0.5579838077633283
  0.1131231777571173  0.7704402917543192  0.3111293295255066
  0.7797432574121288  0.7568824359742834  0.8197533650294204
  0.8889118099618543  0.8675347812909635  0.5583969962773168
  0.4423236711385599  0.7747379743393452  0.3820665980961522
  0.1104568251052243  0.7540175993944942  0.8082844792377912
  0.2279206602606507  0.8691284275996054  0.6220785474064243
  0.8818750571861287  0.8726478985406345  0.0608608490590257
  0.4397982405601866  0.7659869367357715  0.9028990884412309
  0.5555887672510593  0.8659505929617595  0.6252662429242406
  0.2092202218522559  0.1970349233752628  0.3616489180008884
  0.1160555609772445  0.0842435695830943  0.1355327365426575
  0.8914927940557646  0.1996576854895977  0.8762582053894405
  0.7814378325200337  0.0909923071403469  0.6172325783298405
  0.5554788279469349  0.2084157583658310  0.3698663410169161
  0.4523235031394677  0.0794379351121535  0.1238045433919126
  0.2225210916133591  0.2042431338614605  0.8798057266280424
  0.1086862352094400  0.1014869276967545  0.6267242196335943
  0.9120246910314833  0.1980420228907889  0.3629016836182188
  0.7797147235615469  0.0891184654876938  0.1252804086564296
  0.5585851587401933  0.1994116151953662  0.8720784099726586
  0.4399861676099022  0.1008134949607822  0.6187414430477745
  0.2261411051200000  0.5406732497175923  0.3659104991062279
  0.1024150520103930  0.4408240441434330  0.1207521253784662
  0.8913641548624938  0.5325339143494219  0.8714412479952429
  0.7790251352306328  0.4235998053417873  0.6241971738547250
  0.5579628192359891  0.5357820185917390  0.3702654180034202
  0.4650774854230448  0.4276497632677803  0.1122659723638577
  0.2234460681214685  0.5357369643911483  0.8735532854336938
  0.1137698003368541  0.4236692391826509  0.6174580915318089
  0.8725171824079325  0.5682255509398999  0.3673267380370646
  0.7557931136257992  0.4289462328481122  0.1141689707819893
  0.5646098072896706  0.5215382890468945  0.9028805376628739
  0.4470673607729623  0.4258699013404765  0.6270705085974555
  0.2056510103477933  0.9069971645526707  0.3559676888930881
  0.1318569644508614  0.7807507915780150  0.1190417094955478
  0.8923643464027933  0.8695684981421010  0.8742396672800012
  0.7887736954334770  0.7539834474081388  0.6285423536473829
  0.5891848857720134  0.8603148403309362  0.3603617532296042
  0.4128108477891601  0.8208740515140249  0.0859290446023380
  0.2323635584300661  0.8616512498144289  0.8211514657058672
  0.1089657975526777  0.7541665798893078  0.6177807424095363
  0.8786841902996159  0.8563432186166295  0.3657231585267340
  0.7270701756373654  0.7847619080287416  0.0846049903574482
  0.5479936124456586  0.8650045739638657  0.8189152697737185
  0.4462666051480539  0.7580331500985409  0.5698984124386115
 
  0.00000000E+00  0.00000000E+00  0.00000000E+00
  0.00000000E+00  0.00000000E+00  0.00000000E+00
  0.00000000E+00  0.00000000E+00  0.00000000E+00
  0.00000000E+00  0.00000000E+00  0.00000000E+00
  0.00000000E+00  0.00000000E+00  0.00000000E+00
  0.00000000E+00  0.00000000E+00  0.00000000E+00
  0.00000000E+00  0.00000000E+00  0.00000000E+00
  0.00000000E+00  0.00000000E+00  0.00000000E+00
  0.00000000E+00  0.00000000E+00  0.00000000E+00
  0.00000000E+00  0.00000000E+00  0.00000000E+00
  0.00000000E+00  0.00000000E+00  0.00000000E+00
  0.00000000E+00  0.00000000E+00  0.00000000E+00
  0.00000000E+00  0.00000000E+00  0.00000000E+00
  0.00000000E+00  0.00000000E+00  0.00000000E+00
  0.00000000E+00  0.00000000E+00  0.00000000E+00
  0.00000000E+00  0.00000000E+00  0.00000000E+00
  0.00000000E+00  0.00000000E+00  0.00000000E+00
  0.00000000E+00  0.00000000E+00  0.00000000E+00
  0.00000000E+00  0.00000000E+00  0.00000000E+00
  0.00000000E+00  0.00000000E+00  0.00000000E+00
  0.00000000E+00  0.00000000E+00  0.00000000E+00
  0.00000000E+00  0.00000000E+00  0.00000000E+00
  0.00000000E+00  0.00000000E+00  0.00000000E+00
  0.00000000E+00  0.00000000E+00  0.00000000E+00
  0.00000000E+00  0.00000000E+00  0.00000000E+00
  0.00000000E+00  0.00000000E+00  0.00000000E+00
  0.00000000E+00  0.00000000E+00  0.00000000E+00
  0.00000000E+00  0.00000000E+00  0.00000000E+00
  0.00000000E+00  0.00000000E+00  0.00000000E+00
  0.00000000E+00  0.00000000E+00  0.00000000E+00
  0.00000000E+00  0.00000000E+00  0.00000000E+00
  0.00000000E+00  0.00000000E+00  0.00000000E+00
  0.00000000E+00  0.00000000E+00  0.00000000E+00
  0.00000000E+00  0.00000000E+00  0.00000000E+00
  0.00000000E+00  0.00000000E+00  0.00000000E+00
  0.00000000E+00  0.00000000E+00  0.00000000E+00
  0.00000000E+00  0.00000000E+00  0.00000000E+00
  0.00000000E+00  0.00000000E+00  0.00000000E+00
  0.00000000E+00  0.00000000E+00  0.00000000E+00
  0.00000000E+00  0.00000000E+00  0.00000000E+00
  0.00000000E+00  0.00000000E+00  0.00000000E+00
  0.00000000E+00  0.00000000E+00  0.00000000E+00
  0.00000000E+00  0.00000000E+00  0.00000000E+00
  0.00000000E+00  0.00000000E+00  0.00000000E+00
  0.00000000E+00  0.00000000E+00  0.00000000E+00
  0.00000000E+00  0.00000000E+00  0.00000000E+00
  0.00000000E+00  0.00000000E+00  0.00000000E+00
  0.00000000E+00  0.00000000E+00  0.00000000E+00
  0.00000000E+00  0.00000000E+00  0.00000000E+00
  0.00000000E+00  0.00000000E+00  0.00000000E+00
  0.00000000E+00  0.00000000E+00  0.00000000E+00
  0.00000000E+00  0.00000000E+00  0.00000000E+00
  0.00000000E+00  0.00000000E+00  0.00000000E+00
  0.00000000E+00  0.00000000E+00  0.00000000E+00
  0.00000000E+00  0.00000000E+00  0.00000000E+00
  0.00000000E+00  0.00000000E+00  0.00000000E+00
  0.00000000E+00  0.00000000E+00  0.00000000E+00
  0.00000000E+00  0.00000000E+00  0.00000000E+00
  0.00000000E+00  0.00000000E+00  0.00000000E+00
  0.00000000E+00  0.00000000E+00  0.00000000E+00
  0.00000000E+00  0.00000000E+00  0.00000000E+00
  0.00000000E+00  0.00000000E+00  0.00000000E+00
  0.00000000E+00  0.00000000E+00  0.00000000E+00
  0.00000000E+00  0.00000000E+00  0.00000000E+00
  0.00000000E+00  0.00000000E+00  0.00000000E+00
  0.00000000E+00  0.00000000E+00  0.00000000E+00
  0.00000000E+00  0.00000000E+00  0.00000000E+00
  0.00000000E+00  0.00000000E+00  0.00000000E+00
  0.00000000E+00  0.00000000E+00  0.00000000E+00
  0.00000000E+00  0.00000000E+00  0.00000000E+00
  0.00000000E+00  0.00000000E+00  0.00000000E+00
  0.00000000E+00  0.00000000E+00  0.00000000E+00
