B    Al   N                             
   1.00000000000000     
    -9.1502994655495815    0.0004514722650419    0.0172410917656034
    -4.5737140575581030    8.0073415271317199    0.0279110562114295
     0.0934782079598550   -0.1554971491568543  -10.1451718865968719
   B    Al   N 
     5    31    36
Direct
  0.1139074521174592  0.0904801692515207  0.3878580095889177
  0.5842264087667530  0.4809695415995421  0.1686948854952917
  0.2255486962973023  0.8908129423648461  0.1516551579120886
  0.5396055623140512  0.8811530004403778  0.1148583177773475
  0.7734036281538295  0.7637870232986970  0.3685819097911320
  0.2281303773874015  0.1994677178587949  0.0920923900022501
  0.7763550687045750  0.0868260083657262  0.8296483654154514
  0.8954809931138641  0.2030042191693298  0.6467191361070306
  0.4527696539453459  0.0792375280852511  0.3307521160118796
  0.5646275524792159  0.1907035085882356  0.0832636656497243
  0.1098625955801396  0.0865142037827056  0.9029708071079838
  0.2242520924542006  0.1976951142691377  0.5668983409207087
  0.7812900277123020  0.0812602374343570  0.3351956164566374
  0.9017213833086544  0.1979782108167711  0.1579874806277175
  0.4337779177321721  0.1033454366212680  0.8255621587671058
  0.5579202755310462  0.1984735581910613  0.5780906305834961
  0.1033629961585518  0.4399308331579377  0.3923448794233124
  0.2299715800411235  0.5512906444305230  0.1548450139701885
  0.7731413213025036  0.4264033472619957  0.9086898324515218
  0.8966952937409971  0.5263435748974672  0.6561828033773054
  0.4456208113649893  0.4314328349693994  0.4001029005799097
  0.1065238174772247  0.4363428652418406  0.9094346710633801
  0.2228033372207960  0.5386350888311995  0.6507385641284884
  0.7863690651909039  0.4265040055190923  0.4002222149665400
  0.8605633677300659  0.5618906074139360  0.1525807935780676
  0.4475939119917598  0.4342012157445652  0.9055275771901137
  0.5557056093347512  0.5408767927810700  0.6530925148588835
  0.1168774204927203  0.7661493242399899  0.3928146528917722
  0.7735927712208692  0.7628676960312148  0.8462787400646334
  0.8855731770040620  0.8646315513409846  0.5806678864931314
  0.4523867065475073  0.7599629203754006  0.3841206119736071
  0.1236803621627587  0.7613511252690159  0.9061644734988690
  0.2253857254994927  0.8692483331656859  0.6449621118836930
  0.8796867513206479  0.8731961975632316  0.0831069081031615
  0.4423654010717755  0.7698535804157132  0.9112474508582622
  0.5558590624897022  0.8651429515503466  0.6360451232739237
  0.2147433855942467  0.1920067912284580  0.3734717407529615
  0.1170131188772245  0.0735780786918951  0.0935293553404932
  0.8909674502074054  0.2079771653618678  0.8403002142398961
  0.7763589100738102  0.0857151803896485  0.6405045958516666
  0.5584143403069532  0.1987561938684124  0.3896908404047963
  0.4561016876605635  0.0741089686937073  0.1424177900543171
  0.2240713193477504  0.2061501637535628  0.8996820642162788
  0.1090592149831053  0.0821425850927540  0.5711378503790669
  0.9210593615309222  0.1928415755304869  0.3468056402165942
  0.7786720319800438  0.0883021126675132  0.1497468377239954
  0.5572013861445058  0.2003739933189550  0.8958852167236131
  0.4364461315999861  0.1020807311202248  0.6368003165866867
  0.2266126398318349  0.5411557019853745  0.3380172784474169
  0.0995171985616139  0.4467451972064822  0.1007598070919045
  0.8905584934675659  0.5279629437686282  0.8467823506293186
  0.7782197367114421  0.4239981192712321  0.5862851126231376
  0.5665941759877455  0.5238985519168153  0.3166856047805453
  0.4637006302161737  0.4341469694185065  0.1018342118409237
  0.2242870457116766  0.5381649146318068  0.8427485592590997
  0.1103985401769521  0.4297358649020495  0.5827636242533174
  0.8714415451148909  0.5708245882723020  0.3437155825678389
  0.7561018365997043  0.4279010250371300  0.1039986409349893
  0.5540781397040533  0.5445370410055048  0.8425469498676108
  0.4446697870815512  0.4317087137289590  0.5894270644672801
  0.2149523673339431  0.8990326900075516  0.3229780981831638
  0.1340022102088483  0.7749309363779204  0.0993252086245846
  0.8905875398599292  0.8727296717178774  0.8964310434545411
  0.7877378065660849  0.7542442772092812  0.6479427743124120
  0.5904902584921388  0.8552418370742245  0.3779110232040139
  0.4215006596326418  0.8110281227882083  0.0996264071147337
  0.2245088934577879  0.8713591751556606  0.8326106217429654
  0.1188304143592731  0.7555780957405602  0.5824394464464788
  0.8756719010504384  0.8547860970343422  0.3854665784520677
  0.7288831486565783  0.7820376037233245  0.0960380701667987
  0.5433748412264094  0.8738043060501610  0.8318664090784580
  0.4447428270603808  0.7522958268647315  0.5751136852722993
 
  0.00000000E+00  0.00000000E+00  0.00000000E+00
  0.00000000E+00  0.00000000E+00  0.00000000E+00
  0.00000000E+00  0.00000000E+00  0.00000000E+00
  0.00000000E+00  0.00000000E+00  0.00000000E+00
  0.00000000E+00  0.00000000E+00  0.00000000E+00
  0.00000000E+00  0.00000000E+00  0.00000000E+00
  0.00000000E+00  0.00000000E+00  0.00000000E+00
  0.00000000E+00  0.00000000E+00  0.00000000E+00
  0.00000000E+00  0.00000000E+00  0.00000000E+00
  0.00000000E+00  0.00000000E+00  0.00000000E+00
  0.00000000E+00  0.00000000E+00  0.00000000E+00
  0.00000000E+00  0.00000000E+00  0.00000000E+00
  0.00000000E+00  0.00000000E+00  0.00000000E+00
  0.00000000E+00  0.00000000E+00  0.00000000E+00
  0.00000000E+00  0.00000000E+00  0.00000000E+00
  0.00000000E+00  0.00000000E+00  0.00000000E+00
  0.00000000E+00  0.00000000E+00  0.00000000E+00
  0.00000000E+00  0.00000000E+00  0.00000000E+00
  0.00000000E+00  0.00000000E+00  0.00000000E+00
  0.00000000E+00  0.00000000E+00  0.00000000E+00
  0.00000000E+00  0.00000000E+00  0.00000000E+00
  0.00000000E+00  0.00000000E+00  0.00000000E+00
  0.00000000E+00  0.00000000E+00  0.00000000E+00
  0.00000000E+00  0.00000000E+00  0.00000000E+00
  0.00000000E+00  0.00000000E+00  0.00000000E+00
  0.00000000E+00  0.00000000E+00  0.00000000E+00
  0.00000000E+00  0.00000000E+00  0.00000000E+00
  0.00000000E+00  0.00000000E+00  0.00000000E+00
  0.00000000E+00  0.00000000E+00  0.00000000E+00
  0.00000000E+00  0.00000000E+00  0.00000000E+00
  0.00000000E+00  0.00000000E+00  0.00000000E+00
  0.00000000E+00  0.00000000E+00  0.00000000E+00
  0.00000000E+00  0.00000000E+00  0.00000000E+00
  0.00000000E+00  0.00000000E+00  0.00000000E+00
  0.00000000E+00  0.00000000E+00  0.00000000E+00
  0.00000000E+00  0.00000000E+00  0.00000000E+00
  0.00000000E+00  0.00000000E+00  0.00000000E+00
  0.00000000E+00  0.00000000E+00  0.00000000E+00
  0.00000000E+00  0.00000000E+00  0.00000000E+00
  0.00000000E+00  0.00000000E+00  0.00000000E+00
  0.00000000E+00  0.00000000E+00  0.00000000E+00
  0.00000000E+00  0.00000000E+00  0.00000000E+00
  0.00000000E+00  0.00000000E+00  0.00000000E+00
  0.00000000E+00  0.00000000E+00  0.00000000E+00
  0.00000000E+00  0.00000000E+00  0.00000000E+00
  0.00000000E+00  0.00000000E+00  0.00000000E+00
  0.00000000E+00  0.00000000E+00  0.00000000E+00
  0.00000000E+00  0.00000000E+00  0.00000000E+00
  0.00000000E+00  0.00000000E+00  0.00000000E+00
  0.00000000E+00  0.00000000E+00  0.00000000E+00
  0.00000000E+00  0.00000000E+00  0.00000000E+00
  0.00000000E+00  0.00000000E+00  0.00000000E+00
  0.00000000E+00  0.00000000E+00  0.00000000E+00
  0.00000000E+00  0.00000000E+00  0.00000000E+00
  0.00000000E+00  0.00000000E+00  0.00000000E+00
  0.00000000E+00  0.00000000E+00  0.00000000E+00
  0.00000000E+00  0.00000000E+00  0.00000000E+00
  0.00000000E+00  0.00000000E+00  0.00000000E+00
  0.00000000E+00  0.00000000E+00  0.00000000E+00
  0.00000000E+00  0.00000000E+00  0.00000000E+00
  0.00000000E+00  0.00000000E+00  0.00000000E+00
  0.00000000E+00  0.00000000E+00  0.00000000E+00
  0.00000000E+00  0.00000000E+00  0.00000000E+00
  0.00000000E+00  0.00000000E+00  0.00000000E+00
  0.00000000E+00  0.00000000E+00  0.00000000E+00
  0.00000000E+00  0.00000000E+00  0.00000000E+00
  0.00000000E+00  0.00000000E+00  0.00000000E+00
  0.00000000E+00  0.00000000E+00  0.00000000E+00
  0.00000000E+00  0.00000000E+00  0.00000000E+00
  0.00000000E+00  0.00000000E+00  0.00000000E+00
  0.00000000E+00  0.00000000E+00  0.00000000E+00
  0.00000000E+00  0.00000000E+00  0.00000000E+00
