B    Al   N                             
   1.00000000000000     
    -9.1111100937143608   -0.0004912145419560    0.0020102679848132
    -4.5573030452706371    8.0091124802482163   -0.0014245160420616
    -0.0540075563211193   -0.0935086447901358  -10.2245770777281813
   B    Al   N 
     5    31    36
Direct
  0.1175616706124529  0.0871563432786431  0.3191040217960222
  0.5895393817174792  0.4835406701271410  0.1551526325032739
  0.2307528129244290  0.8903368811018453  0.1099924047514023
  0.5395474245704506  0.8859351743323316  0.0948069054416862
  0.7769140802548122  0.7647855816631761  0.3555793649989170
  0.2242401741139588  0.2003992317563785  0.0663975944900130
  0.7817782377446747  0.0882346628641173  0.8091684113559197
  0.9001536364751388  0.1911065110437775  0.5524762721397281
  0.4534362172810518  0.0802183977682631  0.3133815418687433
  0.5618655355149968  0.1956845072928814  0.0587691083378274
  0.1098346687039466  0.0970330002726030  0.8115010313691471
  0.2204924566394411  0.2024344224383228  0.5537597188390038
  0.7844977347974549  0.0837212566978209  0.3097442867204663
  0.8998571924436405  0.1865107872512084  0.0698182327525387
  0.4387252995493256  0.0975272334311086  0.8075501987208540
  0.5575092930626866  0.2028402868080690  0.5585836947343594
  0.1066883453206913  0.4332413514487499  0.3079358656271580
  0.2336070346951971  0.5498078108130855  0.0611755377614713
  0.7643292948343188  0.4260850517730148  0.8911423793616677
  0.8929131570078752  0.5412592880303677  0.5622621227980602
  0.4434997631206201  0.4224729222977714  0.3106881423125785
  0.1084545390322376  0.4245542532981972  0.8136597946721409
  0.2257074833841131  0.5354129683995836  0.5587270033178271
  0.7816868814654185  0.4289239096320046  0.3699740583913709
  0.8700100985813748  0.5567541199207255  0.0693025124576181
  0.4416526871960400  0.4212606963674901  0.8107985238594182
  0.5639704275864901  0.5373053167945514  0.6345558463615362
  0.1158218096924060  0.7700816126281609  0.3115068743240670
  0.7777018400308506  0.7550251099147403  0.8210272032221013
  0.8899719505483219  0.8653117151431999  0.5601838172783360
  0.4508892148554935  0.7642532398472142  0.3772935263518988
  0.1103465847655585  0.7546462208258902  0.8079210363676381
  0.2289581395919740  0.8678414485420731  0.6173514675336236
  0.8824050036933642  0.8727139580256917  0.0587412280283672
  0.4382346647112385  0.7661722886408953  0.8890640257983051
  0.5561349945854417  0.8650353814621923  0.6204353580915694
  0.2106643598532756  0.1958564908657863  0.3621537107577595
  0.1221357281250590  0.0784539513970941  0.1344462050295618
  0.8923124663181099  0.1951087929060122  0.8815157639459841
  0.7817158844041003  0.0889984718315944  0.6199265491793398
  0.5587618008573401  0.2049063763082160  0.3717881444232560
  0.4534253276148306  0.0775277498110611  0.1230498158556372
  0.2208873137312253  0.2057178615372521  0.8797251354740254
  0.1087322523018557  0.1012539173095846  0.6256465406368790
  0.9201274766363881  0.1843160989564083  0.3598228852220373
  0.7789946879909095  0.0875482173757405  0.1265639948026873
  0.5571757812600922  0.2013733361875083  0.8733367655811293
  0.4398277752665436  0.0992645584917184  0.6172270256961667
  0.2244306893472086  0.5422388949327441  0.3704985798876805
  0.1079228888010277  0.4385910874900105  0.1229278932914681
  0.8892104194721568  0.5342001894535500  0.8799794090669195
  0.7757385131401833  0.4231037551684906  0.5582669733149856
  0.5647084439749150  0.5391577161745076  0.2976547431424237
  0.4642618479326899  0.4229597467089903  0.1210477643672405
  0.2220520513952167  0.5373222286321422  0.8761646331025688
  0.1136130758870877  0.4227923200726806  0.6218945357898562
  0.8794121302872995  0.5714998471623716  0.3670456506237230
  0.7537672268395852  0.4293930348086548  0.0877102961717000
  0.5550630941088102  0.5426921648348966  0.8222937548068217
  0.4447048321430103  0.4204959118925515  0.6224717182759107
  0.2134486089521914  0.9019991339520956  0.3576249167098453
  0.1338689688711199  0.7798408621567887  0.1191509987861323
  0.8908879934969463  0.8693184194747019  0.8738876936049422
  0.7896615829948956  0.7514642340823485  0.6304951485137096
  0.5928350747166107  0.8578979711365022  0.3631841433748946
  0.4157939477286732  0.8166263020755764  0.0742768523561921
  0.2275109506965052  0.8672572838859054  0.8161905960663560
  0.1092269608292682  0.7528880485250866  0.6185546481759872
  0.8812383068424836  0.8567444779562692  0.3677867958314636
  0.7277608722799940  0.7867616095089929  0.0865400931870823
  0.5464353894837259  0.8698741941792818  0.8148596212703083
  0.4519776464157275  0.7466298064554380  0.5623128071442807
 
  0.00000000E+00  0.00000000E+00  0.00000000E+00
  0.00000000E+00  0.00000000E+00  0.00000000E+00
  0.00000000E+00  0.00000000E+00  0.00000000E+00
  0.00000000E+00  0.00000000E+00  0.00000000E+00
  0.00000000E+00  0.00000000E+00  0.00000000E+00
  0.00000000E+00  0.00000000E+00  0.00000000E+00
  0.00000000E+00  0.00000000E+00  0.00000000E+00
  0.00000000E+00  0.00000000E+00  0.00000000E+00
  0.00000000E+00  0.00000000E+00  0.00000000E+00
  0.00000000E+00  0.00000000E+00  0.00000000E+00
  0.00000000E+00  0.00000000E+00  0.00000000E+00
  0.00000000E+00  0.00000000E+00  0.00000000E+00
  0.00000000E+00  0.00000000E+00  0.00000000E+00
  0.00000000E+00  0.00000000E+00  0.00000000E+00
  0.00000000E+00  0.00000000E+00  0.00000000E+00
  0.00000000E+00  0.00000000E+00  0.00000000E+00
  0.00000000E+00  0.00000000E+00  0.00000000E+00
  0.00000000E+00  0.00000000E+00  0.00000000E+00
  0.00000000E+00  0.00000000E+00  0.00000000E+00
  0.00000000E+00  0.00000000E+00  0.00000000E+00
  0.00000000E+00  0.00000000E+00  0.00000000E+00
  0.00000000E+00  0.00000000E+00  0.00000000E+00
  0.00000000E+00  0.00000000E+00  0.00000000E+00
  0.00000000E+00  0.00000000E+00  0.00000000E+00
  0.00000000E+00  0.00000000E+00  0.00000000E+00
  0.00000000E+00  0.00000000E+00  0.00000000E+00
  0.00000000E+00  0.00000000E+00  0.00000000E+00
  0.00000000E+00  0.00000000E+00  0.00000000E+00
  0.00000000E+00  0.00000000E+00  0.00000000E+00
  0.00000000E+00  0.00000000E+00  0.00000000E+00
  0.00000000E+00  0.00000000E+00  0.00000000E+00
  0.00000000E+00  0.00000000E+00  0.00000000E+00
  0.00000000E+00  0.00000000E+00  0.00000000E+00
  0.00000000E+00  0.00000000E+00  0.00000000E+00
  0.00000000E+00  0.00000000E+00  0.00000000E+00
  0.00000000E+00  0.00000000E+00  0.00000000E+00
  0.00000000E+00  0.00000000E+00  0.00000000E+00
  0.00000000E+00  0.00000000E+00  0.00000000E+00
  0.00000000E+00  0.00000000E+00  0.00000000E+00
  0.00000000E+00  0.00000000E+00  0.00000000E+00
  0.00000000E+00  0.00000000E+00  0.00000000E+00
  0.00000000E+00  0.00000000E+00  0.00000000E+00
  0.00000000E+00  0.00000000E+00  0.00000000E+00
  0.00000000E+00  0.00000000E+00  0.00000000E+00
  0.00000000E+00  0.00000000E+00  0.00000000E+00
  0.00000000E+00  0.00000000E+00  0.00000000E+00
  0.00000000E+00  0.00000000E+00  0.00000000E+00
  0.00000000E+00  0.00000000E+00  0.00000000E+00
  0.00000000E+00  0.00000000E+00  0.00000000E+00
  0.00000000E+00  0.00000000E+00  0.00000000E+00
  0.00000000E+00  0.00000000E+00  0.00000000E+00
  0.00000000E+00  0.00000000E+00  0.00000000E+00
  0.00000000E+00  0.00000000E+00  0.00000000E+00
  0.00000000E+00  0.00000000E+00  0.00000000E+00
  0.00000000E+00  0.00000000E+00  0.00000000E+00
  0.00000000E+00  0.00000000E+00  0.00000000E+00
  0.00000000E+00  0.00000000E+00  0.00000000E+00
  0.00000000E+00  0.00000000E+00  0.00000000E+00
  0.00000000E+00  0.00000000E+00  0.00000000E+00
  0.00000000E+00  0.00000000E+00  0.00000000E+00
  0.00000000E+00  0.00000000E+00  0.00000000E+00
  0.00000000E+00  0.00000000E+00  0.00000000E+00
  0.00000000E+00  0.00000000E+00  0.00000000E+00
  0.00000000E+00  0.00000000E+00  0.00000000E+00
  0.00000000E+00  0.00000000E+00  0.00000000E+00
  0.00000000E+00  0.00000000E+00  0.00000000E+00
  0.00000000E+00  0.00000000E+00  0.00000000E+00
  0.00000000E+00  0.00000000E+00  0.00000000E+00
  0.00000000E+00  0.00000000E+00  0.00000000E+00
  0.00000000E+00  0.00000000E+00  0.00000000E+00
  0.00000000E+00  0.00000000E+00  0.00000000E+00
  0.00000000E+00  0.00000000E+00  0.00000000E+00
