B    Al   N                             
   1.00000000000000     
    -9.1424812127889421   -0.0054338677077111    0.0108151066330309
    -4.5937073887027653    7.9972619218815115    0.0133014607136249
    -0.0262450915690221   -0.2118066160816471  -10.2298164970650394
   B    Al   N 
     5    31    36
Direct
  0.1149590021504352  0.0990404950747390  0.3095095141327562
  0.5844421744377968  0.4813796134598434  0.1593729516976339
  0.2329595065641428  0.8899967702813285  0.1555744862096375
  0.5368647143184972  0.8843954758190335  0.1031368182888244
  0.7760596600218008  0.7644494438372931  0.3617287708520820
  0.2263188469637498  0.1945914232346482  0.0786314319700665
  0.7793330915909493  0.0912884929620930  0.8171201401572716
  0.8996016887531937  0.1925795418200451  0.5610408758637604
  0.4541160857511173  0.0804280424940060  0.3178764010582285
  0.5662428274265849  0.1891610332313860  0.0698435874850105
  0.1056822780698781  0.1030608605989585  0.8204663558805976
  0.2245820848319440  0.1929953526364017  0.5561810670115932
  0.7840266068010351  0.0859893018436750  0.3181222593738582
  0.8962285742646117  0.1928108263606703  0.0781222183109165
  0.4347484963859714  0.1036032345553082  0.8157491140097406
  0.5622091965657390  0.1950823603860101  0.5656266941595263
  0.1039644883101829  0.4392393765218543  0.3836398155309908
  0.2329568192388294  0.5423071657992509  0.1406948428028656
  0.7659994859940227  0.4343679032941381  0.9001358485411259
  0.8927072522217543  0.5299243517288375  0.6441089424943414
  0.4441584757244073  0.4320465820485779  0.3889465086972592
  0.1051467888556061  0.4334961471883005  0.8995561406513133
  0.2288096734642124  0.5228639271115156  0.6383858089157641
  0.7831402986657707  0.4328109147825856  0.3838237490292968
  0.8611864573930035  0.5628967716258018  0.1422786496605113
  0.4459903917209473  0.4344796459196445  0.8946873281538217
  0.5568433956099526  0.5392175360725915  0.6413148317699537
  0.1077307206195144  0.7734624737530922  0.3177472466804829
  0.7637361806708185  0.7625101488400148  0.8683456790264827
  0.8909044833231619  0.8608067786238820  0.5671890259900536
  0.4560603388880011  0.7607199092869195  0.3777625775553162
  0.1044054796901506  0.7605249808904802  0.8178040613591833
  0.2314273002116423  0.8653338854634072  0.6382009717534913
  0.8940428742871021  0.8710626391122247  0.0666862721563248
  0.4307394770254049  0.7743969373152382  0.9034634002242754
  0.5580735464563134  0.8637108794820421  0.6331556085090497
  0.2148954129471576  0.1899010356517508  0.3654950188916430
  0.1125326727696248  0.0924789807229729  0.1507742718219305
  0.8889240842380630  0.2000636940080938  0.8909598737534949
  0.7831354117163727  0.0893171790299334  0.6288016351536356
  0.5609376102295585  0.1977444095686280  0.3777668009662136
  0.4558705846485438  0.0759898446818639  0.1300780535106796
  0.2222560200974186  0.2001946525999827  0.8927060927841524
  0.1098972622220558  0.0997108220951120  0.6332507600861561
  0.9222937016893766  0.1840499078882445  0.3700533158852366
  0.7812108972054048  0.0883405749752413  0.1354177029247552
  0.5575278453930750  0.1995793666720331  0.8838257898967044
  0.4382090607816309  0.1019521725205621  0.6274473573162780
  0.2270137150216485  0.5382946889020630  0.3268473093549531
  0.0994816919228043  0.4446328740442027  0.0875101130558136
  0.8890110625079686  0.5280228359419752  0.8342766656614700
  0.7758594901694025  0.4278509215076340  0.5704765000907983
  0.5635997256216356  0.5262338333580487  0.3054684072946472
  0.4656876516110913  0.4332599219752922  0.0897477321127198
  0.2274773390852403  0.5263555741204868  0.8306549198756414
  0.1098332755179285  0.4264530430935025  0.5700534080228223
  0.8740973670620420  0.5718894081394055  0.3300898047990444
  0.7514058062121407  0.4369423048509020  0.0954154714405817
  0.5511548241007134  0.5458579717336747  0.8303653373537614
  0.4474037574488392  0.4297700224825505  0.5759238235234889
  0.2296126056314520  0.8930682957567484  0.3167905240690985
  0.1237562420010363  0.7796859223287171  0.1269029568192721
  0.8887095761365416  0.8724425848071320  0.8826213362714270
  0.7843243619981095  0.7528776057975151  0.6191380776420701
  0.5934190986733512  0.8546676219862164  0.3557755404154648
  0.4160504218024670  0.8187178528679695  0.0883093357651674
  0.2227673512098391  0.8712258709629737  0.8281133049065375
  0.1104054841708688  0.7549154154661224  0.6233741734150655
  0.8803387263828739  0.8575936719045885  0.3751149450481179
  0.7307985410743996  0.7807836931207746  0.0718582001066537
  0.5411698974538552  0.8727294668001662  0.8232693001560776
  0.4458387392401306  0.7540724041560054  0.5651636774381572
 
  0.00000000E+00  0.00000000E+00  0.00000000E+00
  0.00000000E+00  0.00000000E+00  0.00000000E+00
  0.00000000E+00  0.00000000E+00  0.00000000E+00
  0.00000000E+00  0.00000000E+00  0.00000000E+00
  0.00000000E+00  0.00000000E+00  0.00000000E+00
  0.00000000E+00  0.00000000E+00  0.00000000E+00
  0.00000000E+00  0.00000000E+00  0.00000000E+00
  0.00000000E+00  0.00000000E+00  0.00000000E+00
  0.00000000E+00  0.00000000E+00  0.00000000E+00
  0.00000000E+00  0.00000000E+00  0.00000000E+00
  0.00000000E+00  0.00000000E+00  0.00000000E+00
  0.00000000E+00  0.00000000E+00  0.00000000E+00
  0.00000000E+00  0.00000000E+00  0.00000000E+00
  0.00000000E+00  0.00000000E+00  0.00000000E+00
  0.00000000E+00  0.00000000E+00  0.00000000E+00
  0.00000000E+00  0.00000000E+00  0.00000000E+00
  0.00000000E+00  0.00000000E+00  0.00000000E+00
  0.00000000E+00  0.00000000E+00  0.00000000E+00
  0.00000000E+00  0.00000000E+00  0.00000000E+00
  0.00000000E+00  0.00000000E+00  0.00000000E+00
  0.00000000E+00  0.00000000E+00  0.00000000E+00
  0.00000000E+00  0.00000000E+00  0.00000000E+00
  0.00000000E+00  0.00000000E+00  0.00000000E+00
  0.00000000E+00  0.00000000E+00  0.00000000E+00
  0.00000000E+00  0.00000000E+00  0.00000000E+00
  0.00000000E+00  0.00000000E+00  0.00000000E+00
  0.00000000E+00  0.00000000E+00  0.00000000E+00
  0.00000000E+00  0.00000000E+00  0.00000000E+00
  0.00000000E+00  0.00000000E+00  0.00000000E+00
  0.00000000E+00  0.00000000E+00  0.00000000E+00
  0.00000000E+00  0.00000000E+00  0.00000000E+00
  0.00000000E+00  0.00000000E+00  0.00000000E+00
  0.00000000E+00  0.00000000E+00  0.00000000E+00
  0.00000000E+00  0.00000000E+00  0.00000000E+00
  0.00000000E+00  0.00000000E+00  0.00000000E+00
  0.00000000E+00  0.00000000E+00  0.00000000E+00
  0.00000000E+00  0.00000000E+00  0.00000000E+00
  0.00000000E+00  0.00000000E+00  0.00000000E+00
  0.00000000E+00  0.00000000E+00  0.00000000E+00
  0.00000000E+00  0.00000000E+00  0.00000000E+00
  0.00000000E+00  0.00000000E+00  0.00000000E+00
  0.00000000E+00  0.00000000E+00  0.00000000E+00
  0.00000000E+00  0.00000000E+00  0.00000000E+00
  0.00000000E+00  0.00000000E+00  0.00000000E+00
  0.00000000E+00  0.00000000E+00  0.00000000E+00
  0.00000000E+00  0.00000000E+00  0.00000000E+00
  0.00000000E+00  0.00000000E+00  0.00000000E+00
  0.00000000E+00  0.00000000E+00  0.00000000E+00
  0.00000000E+00  0.00000000E+00  0.00000000E+00
  0.00000000E+00  0.00000000E+00  0.00000000E+00
  0.00000000E+00  0.00000000E+00  0.00000000E+00
  0.00000000E+00  0.00000000E+00  0.00000000E+00
  0.00000000E+00  0.00000000E+00  0.00000000E+00
  0.00000000E+00  0.00000000E+00  0.00000000E+00
  0.00000000E+00  0.00000000E+00  0.00000000E+00
  0.00000000E+00  0.00000000E+00  0.00000000E+00
  0.00000000E+00  0.00000000E+00  0.00000000E+00
  0.00000000E+00  0.00000000E+00  0.00000000E+00
  0.00000000E+00  0.00000000E+00  0.00000000E+00
  0.00000000E+00  0.00000000E+00  0.00000000E+00
  0.00000000E+00  0.00000000E+00  0.00000000E+00
  0.00000000E+00  0.00000000E+00  0.00000000E+00
  0.00000000E+00  0.00000000E+00  0.00000000E+00
  0.00000000E+00  0.00000000E+00  0.00000000E+00
  0.00000000E+00  0.00000000E+00  0.00000000E+00
  0.00000000E+00  0.00000000E+00  0.00000000E+00
  0.00000000E+00  0.00000000E+00  0.00000000E+00
  0.00000000E+00  0.00000000E+00  0.00000000E+00
  0.00000000E+00  0.00000000E+00  0.00000000E+00
  0.00000000E+00  0.00000000E+00  0.00000000E+00
  0.00000000E+00  0.00000000E+00  0.00000000E+00
  0.00000000E+00  0.00000000E+00  0.00000000E+00
