B    Al   N                             
   1.00000000000000     
    -9.1452990771190361   -0.0062185695915230    0.0090145031837514
    -4.6021799750326631    7.9951990101696726    0.0104255623063138
    -0.0511729626264575   -0.2172393184093013  -10.2085887779736026
   B    Al   N 
     5    31    36
Direct
  0.1147663678303914  0.0993090294618568  0.3096303856090259
  0.5844280794143373  0.4820397892080024  0.1590793031552948
  0.2331482929662556  0.8906135226902023  0.1548118416818483
  0.5362952301866244  0.8855351452846065  0.1102997342735463
  0.7729509116400806  0.7582235601985161  0.3989693756746604
  0.2259822625382029  0.1958719895672942  0.0785200347089656
  0.7796703240941127  0.0915483951715856  0.8188613715377002
  0.8992653493464573  0.1918979172481059  0.5613870064110387
  0.4548635006427162  0.0786208062864020  0.3192829810391871
  0.5658284025595961  0.1899226436270212  0.0709634730395976
  0.1064132427536464  0.1027332642649483  0.8203207256883189
  0.2240674145288750  0.1922700807846809  0.5560195382247173
  0.7850132108213117  0.0848205316893811  0.3183501815642771
  0.8956379131642365  0.1958253235702330  0.0785212189700388
  0.4374649664616257  0.1013120279605744  0.8142222458384651
  0.5621147995958466  0.1948709019449240  0.5653041132611065
  0.1039814484326840  0.4378755117545836  0.3840317648990776
  0.2327392288705781  0.5421837501458100  0.1401916409783937
  0.7668834054046769  0.4365445930180982  0.8982229108515867
  0.8897743061561272  0.5334293938725239  0.6369448211066668
  0.4434286750226022  0.4318174842259381  0.3886161499156131
  0.1043186371733640  0.4342171103799473  0.8974846764431064
  0.2291630300008904  0.5214220325390073  0.6403950201476292
  0.7834862614881786  0.4302285906604979  0.3838318965405634
  0.8602981776607947  0.5651252649431342  0.1497544564657787
  0.4471572725959732  0.4337568578564301  0.8954142351423116
  0.5557331239729351  0.5383656325967436  0.6415331074290265
  0.1072071480956112  0.7743553247240627  0.3168793731161017
  0.7617164735220570  0.7631765474233703  0.8869192333246403
  0.8949534766631615  0.8647017705191473  0.5629078759353661
  0.4544542386177426  0.7612200907883206  0.3768119503912715
  0.1059885899987663  0.7596515897839069  0.8212872625095144
  0.2303786633494767  0.8639947335651712  0.6388146881285621
  0.8960803749329003  0.8727614443047713  0.0700356778989146
  0.4335489413842311  0.7743933381475969  0.9017933350539238
  0.5574475441265037  0.8636268831679530  0.6242197366614093
  0.2146078034223819  0.1898086416802869  0.3658983502117437
  0.1122092725055950  0.0935370226661192  0.1502454640621593
  0.8892455416842253  0.2018967954758821  0.8905081364913983
  0.7823968970835793  0.0884531474091048  0.6309543301457978
  0.5611419472312704  0.1974709553398171  0.3779200159813243
  0.4547193981557740  0.0780961395636055  0.1309262317764208
  0.2235531583559904  0.1996578544833625  0.8914122567737692
  0.1097391950977098  0.0981649926973560  0.6330204938166517
  0.9220604782358635  0.1839390479300960  0.3703645477572550
  0.7811122863987805  0.0905805458033697  0.1349853807502299
  0.5577858185714391  0.1986498725274330  0.8842621451424577
  0.4381166119177493  0.1013586909765323  0.6266514481482588
  0.2262541460394587  0.5382874267579396  0.3265134315541545
  0.0970864612284146  0.4465607142804373  0.0859777474278758
  0.8863301119941767  0.5365225122320609  0.8279688114333084
  0.7747787837676370  0.4265536682690723  0.5716374896891594
  0.5633457536988686  0.5254948472083214  0.3052579558011885
  0.4659741500020402  0.4335930065366824  0.0894221531042731
  0.2290943631969640  0.5254984382124448  0.8318429214788310
  0.1104170294636049  0.4256926864016606  0.5716377676474877
  0.8749799058964527  0.5670496490551074  0.3347104897251896
  0.7512278783893862  0.4397988247629172  0.0946131007086493
  0.5514447990457256  0.5457889431166620  0.8304297831460303
  0.4467387531970246  0.4291285590360658  0.5763973580482329
  0.2292204757889493  0.8934084214663613  0.3156199555600807
  0.1257805157784730  0.7794417419465702  0.1251197487718301
  0.8882171209927563  0.8714839598858646  0.8836196327624606
  0.7793557268124829  0.7479942074987633  0.5641802043101976
  0.5895373827199109  0.8550345484105932  0.3557667513926503
  0.4165190493559265  0.8202877523794569  0.0871036860225516
  0.2243765271844111  0.8710507266779075  0.8288126795967514
  0.1081131182039883  0.7536989906161509  0.6281412148979229
  0.8844712428391688  0.8615835740124282  0.3764580750562985
  0.7310385967507287  0.7820609044739868  0.0763125035464185
  0.5519772877547950  0.8666241378686692  0.8155236388651090
  0.4437055175442453  0.7522252974775228  0.5652043063665531
 
  0.00000000E+00  0.00000000E+00  0.00000000E+00
  0.00000000E+00  0.00000000E+00  0.00000000E+00
  0.00000000E+00  0.00000000E+00  0.00000000E+00
  0.00000000E+00  0.00000000E+00  0.00000000E+00
  0.00000000E+00  0.00000000E+00  0.00000000E+00
  0.00000000E+00  0.00000000E+00  0.00000000E+00
  0.00000000E+00  0.00000000E+00  0.00000000E+00
  0.00000000E+00  0.00000000E+00  0.00000000E+00
  0.00000000E+00  0.00000000E+00  0.00000000E+00
  0.00000000E+00  0.00000000E+00  0.00000000E+00
  0.00000000E+00  0.00000000E+00  0.00000000E+00
  0.00000000E+00  0.00000000E+00  0.00000000E+00
  0.00000000E+00  0.00000000E+00  0.00000000E+00
  0.00000000E+00  0.00000000E+00  0.00000000E+00
  0.00000000E+00  0.00000000E+00  0.00000000E+00
  0.00000000E+00  0.00000000E+00  0.00000000E+00
  0.00000000E+00  0.00000000E+00  0.00000000E+00
  0.00000000E+00  0.00000000E+00  0.00000000E+00
  0.00000000E+00  0.00000000E+00  0.00000000E+00
  0.00000000E+00  0.00000000E+00  0.00000000E+00
  0.00000000E+00  0.00000000E+00  0.00000000E+00
  0.00000000E+00  0.00000000E+00  0.00000000E+00
  0.00000000E+00  0.00000000E+00  0.00000000E+00
  0.00000000E+00  0.00000000E+00  0.00000000E+00
  0.00000000E+00  0.00000000E+00  0.00000000E+00
  0.00000000E+00  0.00000000E+00  0.00000000E+00
  0.00000000E+00  0.00000000E+00  0.00000000E+00
  0.00000000E+00  0.00000000E+00  0.00000000E+00
  0.00000000E+00  0.00000000E+00  0.00000000E+00
  0.00000000E+00  0.00000000E+00  0.00000000E+00
  0.00000000E+00  0.00000000E+00  0.00000000E+00
  0.00000000E+00  0.00000000E+00  0.00000000E+00
  0.00000000E+00  0.00000000E+00  0.00000000E+00
  0.00000000E+00  0.00000000E+00  0.00000000E+00
  0.00000000E+00  0.00000000E+00  0.00000000E+00
  0.00000000E+00  0.00000000E+00  0.00000000E+00
  0.00000000E+00  0.00000000E+00  0.00000000E+00
  0.00000000E+00  0.00000000E+00  0.00000000E+00
  0.00000000E+00  0.00000000E+00  0.00000000E+00
  0.00000000E+00  0.00000000E+00  0.00000000E+00
  0.00000000E+00  0.00000000E+00  0.00000000E+00
  0.00000000E+00  0.00000000E+00  0.00000000E+00
  0.00000000E+00  0.00000000E+00  0.00000000E+00
  0.00000000E+00  0.00000000E+00  0.00000000E+00
  0.00000000E+00  0.00000000E+00  0.00000000E+00
  0.00000000E+00  0.00000000E+00  0.00000000E+00
  0.00000000E+00  0.00000000E+00  0.00000000E+00
  0.00000000E+00  0.00000000E+00  0.00000000E+00
  0.00000000E+00  0.00000000E+00  0.00000000E+00
  0.00000000E+00  0.00000000E+00  0.00000000E+00
  0.00000000E+00  0.00000000E+00  0.00000000E+00
  0.00000000E+00  0.00000000E+00  0.00000000E+00
  0.00000000E+00  0.00000000E+00  0.00000000E+00
  0.00000000E+00  0.00000000E+00  0.00000000E+00
  0.00000000E+00  0.00000000E+00  0.00000000E+00
  0.00000000E+00  0.00000000E+00  0.00000000E+00
  0.00000000E+00  0.00000000E+00  0.00000000E+00
  0.00000000E+00  0.00000000E+00  0.00000000E+00
  0.00000000E+00  0.00000000E+00  0.00000000E+00
  0.00000000E+00  0.00000000E+00  0.00000000E+00
  0.00000000E+00  0.00000000E+00  0.00000000E+00
  0.00000000E+00  0.00000000E+00  0.00000000E+00
  0.00000000E+00  0.00000000E+00  0.00000000E+00
  0.00000000E+00  0.00000000E+00  0.00000000E+00
  0.00000000E+00  0.00000000E+00  0.00000000E+00
  0.00000000E+00  0.00000000E+00  0.00000000E+00
  0.00000000E+00  0.00000000E+00  0.00000000E+00
  0.00000000E+00  0.00000000E+00  0.00000000E+00
  0.00000000E+00  0.00000000E+00  0.00000000E+00
  0.00000000E+00  0.00000000E+00  0.00000000E+00
  0.00000000E+00  0.00000000E+00  0.00000000E+00
  0.00000000E+00  0.00000000E+00  0.00000000E+00
