B    Al   N                             
   1.00000000000000     
    -9.1609310155389743    0.0039240018411919    0.0043270668544448
    -4.5856079624212081    8.0232240632138740    0.0201059611205461
    -0.0017753498903905   -0.0215235008771776   -9.7684942665709968
   B    Al   N 
     5    31    36
Direct
  0.1119238352024752  0.0953183390953498  0.3869650800222075
  0.5825880466729316  0.4863269881648051  0.1539971542010079
  0.2279669450497863  0.8948155691420183  0.1485041373883718
  0.5515503404573820  0.8757755199718957  0.1463727537076167
  0.7776439998277951  0.7618392244481669  0.3848817961493509
  0.2234158965808675  0.1979140430764872  0.1425579262746908
  0.7809569417888653  0.0913544063467313  0.8867610801123860
  0.8932260235777107  0.2034700642527127  0.6314352106137093
  0.4465148667802552  0.0858913487406667  0.3823851746572657
  0.5611341787929618  0.1985512763811101  0.1392793258538774
  0.1153615622341420  0.0888281604386236  0.8889939775306388
  0.2214687852566826  0.2035683238117656  0.6307168594791364
  0.7825347150415709  0.0863839193575515  0.3893006576122247
  0.8988262565538250  0.1935166050746560  0.1439744080571188
  0.4457519601545812  0.0886600374037698  0.8909091853031583
  0.5547900129599412  0.2046081081453721  0.6387732754976767
  0.1059580949421814  0.4315039936377829  0.3867151621284961
  0.2289299975699066  0.5465487678098953  0.1381474289179536
  0.7734082402426523  0.4290986886286063  0.8903820760579393
  0.8848588740247010  0.5437862545315468  0.6322720441840488
  0.4464121118431379  0.4249766560462049  0.3875034259120582
  0.1098404492451053  0.4279507032687206  0.8884925971914299
  0.2225406580219698  0.5409525143985690  0.6389387791240324
  0.7837216092227735  0.4271558937896813  0.3856734181365553
  0.8705740391668897  0.5521051297237349  0.1428675201560097
  0.4495803398796809  0.4302300758556825  0.8911977668085385
  0.5532380999070057  0.5446086618797068  0.6373947280448391
  0.1087385687466735  0.7664350008163225  0.3794210610179078
  0.7691588595299947  0.7643555125798187  0.8889856927373287
  0.8885643682918243  0.8684017046027961  0.6312942854865398
  0.4483298307115504  0.7607162762421495  0.3562776220458517
  0.1141739441677529  0.7654037453705200  0.8921060918507209
  0.2264645312643978  0.8712028285548854  0.6267572083591801
  0.8852465213707958  0.8680819019279227  0.1399072089119642
  0.4409553390112109  0.7685829088585621  0.9054590769520345
  0.5541811697073626  0.8688439054412385  0.6265064605259525
  0.2078140588410520  0.1964390600262647  0.3361552700964197
  0.1213290479847160  0.0759045514102468  0.0821346863142622
  0.8913872881730924  0.2061117902372160  0.8282377888350894
  0.7786461715852084  0.0923880302116871  0.5809922265160097
  0.5574011958295486  0.2033142319148027  0.3303989065531283
  0.4542016313758737  0.0772195362979957  0.0892111038856171
  0.2216754394329925  0.2050160765984188  0.8277941252062107
  0.1137438490851395  0.0906592779398920  0.5543703881294917
  0.9141336102193591  0.1921430214043767  0.3371800577376689
  0.7829985692003589  0.0890470830256049  0.0809677206683830
  0.5542559638181004  0.2064766941777663  0.8340122946306963
  0.4454366752710328  0.0924563799957028  0.5748396072869824
  0.2245126418061147  0.5387409864790769  0.3288874786200822
  0.1072891846534603  0.4299964360228969  0.0844231730814968
  0.8851750162880663  0.5416411444203888  0.8295855980800795
  0.7765632573364343  0.4272941275974347  0.5770531373872032
  0.5639526252281613  0.5247733418073466  0.3061199876880565
  0.4655137660283941  0.4319430301504710  0.0878719910394210
  0.2240040810528825  0.5400719837461594  0.8354123814589300
  0.1107599296525876  0.4287428355534004  0.5800274169464856
  0.8749468600662809  0.5654648524697947  0.3352857874027180
  0.7575981990784442  0.4289034569715184  0.0908237676183958
  0.5519979565213191  0.5483529140378351  0.8314637259899271
  0.4467333397689686  0.4270527475414880  0.5799050246103903
  0.2085646395003948  0.9010922911218699  0.3149644711563298
  0.1223366790211102  0.7742497517102080  0.0881619068923669
  0.8895283555735034  0.8676844297960358  0.8279533155094612
  0.7747934947350501  0.7621181000959112  0.5536309391262648
  0.5796337084522776  0.8622525985950347  0.3146289238858273
  0.4238420521751394  0.8055702985558852  0.1010843679695910
  0.2254243098068045  0.8722348640857405  0.8214343559651667
  0.1125419797530256  0.7602947022340203  0.5733393346950919
  0.8767583157355574  0.8583123566073496  0.3336569800995122
  0.7449966208275995  0.7748910347416853  0.0811828537924910
  0.5524390936497952  0.8714941835651047  0.8205987912428228
  0.4464684077301158  0.7562327981833334  0.5568164038717214
 
  0.00000000E+00  0.00000000E+00  0.00000000E+00
  0.00000000E+00  0.00000000E+00  0.00000000E+00
  0.00000000E+00  0.00000000E+00  0.00000000E+00
  0.00000000E+00  0.00000000E+00  0.00000000E+00
  0.00000000E+00  0.00000000E+00  0.00000000E+00
  0.00000000E+00  0.00000000E+00  0.00000000E+00
  0.00000000E+00  0.00000000E+00  0.00000000E+00
  0.00000000E+00  0.00000000E+00  0.00000000E+00
  0.00000000E+00  0.00000000E+00  0.00000000E+00
  0.00000000E+00  0.00000000E+00  0.00000000E+00
  0.00000000E+00  0.00000000E+00  0.00000000E+00
  0.00000000E+00  0.00000000E+00  0.00000000E+00
  0.00000000E+00  0.00000000E+00  0.00000000E+00
  0.00000000E+00  0.00000000E+00  0.00000000E+00
  0.00000000E+00  0.00000000E+00  0.00000000E+00
  0.00000000E+00  0.00000000E+00  0.00000000E+00
  0.00000000E+00  0.00000000E+00  0.00000000E+00
  0.00000000E+00  0.00000000E+00  0.00000000E+00
  0.00000000E+00  0.00000000E+00  0.00000000E+00
  0.00000000E+00  0.00000000E+00  0.00000000E+00
  0.00000000E+00  0.00000000E+00  0.00000000E+00
  0.00000000E+00  0.00000000E+00  0.00000000E+00
  0.00000000E+00  0.00000000E+00  0.00000000E+00
  0.00000000E+00  0.00000000E+00  0.00000000E+00
  0.00000000E+00  0.00000000E+00  0.00000000E+00
  0.00000000E+00  0.00000000E+00  0.00000000E+00
  0.00000000E+00  0.00000000E+00  0.00000000E+00
  0.00000000E+00  0.00000000E+00  0.00000000E+00
  0.00000000E+00  0.00000000E+00  0.00000000E+00
  0.00000000E+00  0.00000000E+00  0.00000000E+00
  0.00000000E+00  0.00000000E+00  0.00000000E+00
  0.00000000E+00  0.00000000E+00  0.00000000E+00
  0.00000000E+00  0.00000000E+00  0.00000000E+00
  0.00000000E+00  0.00000000E+00  0.00000000E+00
  0.00000000E+00  0.00000000E+00  0.00000000E+00
  0.00000000E+00  0.00000000E+00  0.00000000E+00
  0.00000000E+00  0.00000000E+00  0.00000000E+00
  0.00000000E+00  0.00000000E+00  0.00000000E+00
  0.00000000E+00  0.00000000E+00  0.00000000E+00
  0.00000000E+00  0.00000000E+00  0.00000000E+00
  0.00000000E+00  0.00000000E+00  0.00000000E+00
  0.00000000E+00  0.00000000E+00  0.00000000E+00
  0.00000000E+00  0.00000000E+00  0.00000000E+00
  0.00000000E+00  0.00000000E+00  0.00000000E+00
  0.00000000E+00  0.00000000E+00  0.00000000E+00
  0.00000000E+00  0.00000000E+00  0.00000000E+00
  0.00000000E+00  0.00000000E+00  0.00000000E+00
  0.00000000E+00  0.00000000E+00  0.00000000E+00
  0.00000000E+00  0.00000000E+00  0.00000000E+00
  0.00000000E+00  0.00000000E+00  0.00000000E+00
  0.00000000E+00  0.00000000E+00  0.00000000E+00
  0.00000000E+00  0.00000000E+00  0.00000000E+00
  0.00000000E+00  0.00000000E+00  0.00000000E+00
  0.00000000E+00  0.00000000E+00  0.00000000E+00
  0.00000000E+00  0.00000000E+00  0.00000000E+00
  0.00000000E+00  0.00000000E+00  0.00000000E+00
  0.00000000E+00  0.00000000E+00  0.00000000E+00
  0.00000000E+00  0.00000000E+00  0.00000000E+00
  0.00000000E+00  0.00000000E+00  0.00000000E+00
  0.00000000E+00  0.00000000E+00  0.00000000E+00
  0.00000000E+00  0.00000000E+00  0.00000000E+00
  0.00000000E+00  0.00000000E+00  0.00000000E+00
  0.00000000E+00  0.00000000E+00  0.00000000E+00
  0.00000000E+00  0.00000000E+00  0.00000000E+00
  0.00000000E+00  0.00000000E+00  0.00000000E+00
  0.00000000E+00  0.00000000E+00  0.00000000E+00
  0.00000000E+00  0.00000000E+00  0.00000000E+00
  0.00000000E+00  0.00000000E+00  0.00000000E+00
  0.00000000E+00  0.00000000E+00  0.00000000E+00
  0.00000000E+00  0.00000000E+00  0.00000000E+00
  0.00000000E+00  0.00000000E+00  0.00000000E+00
  0.00000000E+00  0.00000000E+00  0.00000000E+00
