B    Al   N                             
   1.00000000000000     
    -9.1429674960704901   -0.0059570022969191    0.0096147043335112
    -4.5961898931649801    7.9970747371727233    0.0113841951087509
    -0.0390991604302366   -0.2149263688403882  -10.2166870506706413
   B    Al   N 
     5    31    36
Direct
  0.1148410937282094  0.0991168135702409  0.3096444349147376
  0.5846246666067643  0.4816082327454012  0.1593765032876462
  0.2329896493636952  0.8901922915501501  0.1552544930453763
  0.5362621820328997  0.8850278659430515  0.1079631799294489
  0.7749201191728048  0.7612717059447434  0.3853399233808830
  0.2260763219881241  0.1952060104092013  0.0786437929040176
  0.7793038236837972  0.0914946975723012  0.8179192646236615
  0.8994911710935298  0.1921844732832909  0.5612581706710174
  0.4546289447038632  0.0793235712610212  0.3184131431386774
  0.5659682345552994  0.1896427541550949  0.0703823194520012
  0.1059817201923821  0.1029807439800692  0.8202975794531682
  0.2245301498826251  0.1925192430738747  0.5560514283255245
  0.7845562347356676  0.0852224869797027  0.3181849998321482
  0.8959437395098746  0.1944526967175761  0.0783558531236892
  0.4361731571599989  0.1024738845816060  0.8149190641854744
  0.5621267492684439  0.1949491636207981  0.5653763625866191
  0.1039058656396605  0.4384790382007822  0.3839254676231079
  0.2329013009081322  0.5421619823246004  0.1404516586792610
  0.7664004426656703  0.4354935064106868  0.8990435057916315
  0.8909416842625575  0.5323156238721651  0.6401144487822776
  0.4439106292184789  0.4319013458887540  0.3886330904265449
  0.1046409758732878  0.4340300322781374  0.8985305755776025
  0.2290259717678396  0.5222041558699431  0.6391615138015183
  0.7834651661767253  0.4316957985804777  0.3842742525088312
  0.8607918634269467  0.5639822891264998  0.1470319699349858
  0.4464949368396205  0.4342321293959657  0.8951156386441781
  0.5562968062270102  0.5388119364771313  0.6413520839066180
  0.1072262737450984  0.7738919850789330  0.3173796447496784
  0.7616431539854958  0.7627643115937701  0.8832627222115974
  0.8933120200470128  0.8632563063845424  0.5645752051562738
  0.4554545821015807  0.7612749475845106  0.3773597997244380
  0.1051342024983555  0.7600825675524021  0.8194410287613110
  0.2309594224513063  0.8647669161243243  0.6384367855355322
  0.8956243841310894  0.8721410979289246  0.0686462122206493
  0.4320581920062594  0.7744405631516500  0.9025425584915610
  0.5583224407555107  0.8633402051844925  0.6284537773755048
  0.2147973305857036  0.1898137304171215  0.3656148304753444
  0.1123595430741062  0.0928546700594595  0.1504780385717339
  0.8890513173268531  0.2010379413516716  0.8906421625427612
  0.7827335855045519  0.0888632438398034  0.6300050317003638
  0.5610412797000990  0.1976201570968286  0.3777510298697351
  0.4551505213590801  0.0772444367622711  0.1302356685411397
  0.2228434525955549  0.1999877849437013  0.8920010523534287
  0.1098912907840415  0.0989214157209233  0.6331200554263816
  0.9221694153726574  0.1839558993165937  0.3702459547711854
  0.7811492286556856  0.0895376683528823  0.1350035644464995
  0.5575889992377299  0.1992301271591757  0.8840015285578389
  0.4383052197443433  0.1014602336698331  0.6272007893041618
  0.2266340912921976  0.5382837669237759  0.3266821899884746
  0.0981546245744056  0.4455392590882639  0.0867873061235613
  0.8869861333186151  0.5337679221606066  0.8308292187666311
  0.7754492274253550  0.4267937649076146  0.5714978881734680
  0.5636997596597197  0.5258053993406548  0.3054384374652699
  0.4659286131358513  0.4333594075299558  0.0896746648408637
  0.2282096632092632  0.5261141590119536  0.8313932688004115
  0.1103536708575987  0.4258220284322789  0.5710444483153978
  0.8746882033168859  0.5693639476651171  0.3328272833961279
  0.7514604907891922  0.4383736415242367  0.0949446657528625
  0.5512113931523928  0.5459617874892047  0.8304521361887822
  0.4471151569821714  0.4294337655923854  0.5760830991488248
  0.2293500176972998  0.8931257571171045  0.3162584887790345
  0.1249208472807410  0.7794777524830181  0.1258933437901888
  0.8879855481910326  0.8715664895605002  0.8827193307361867
  0.7809917217968660  0.7487319629031930  0.5809364769696330
  0.5911375466176310  0.8550543549698233  0.3544195598417872
  0.4161525274692295  0.8195646519216595  0.0876051056283487
  0.2234672451335840  0.8713128777438897  0.8285240259151152
  0.1092681708399894  0.7543637673676002  0.6259119908595423
  0.8824303910934717  0.8599824499055302  0.3757746014613588
  0.7309852654870781  0.7812803217436510  0.0744922969756558
  0.5480271798906315  0.8689628134702403  0.8189229120473982
  0.4446891337029726  0.7531949380283010  0.5653426342793395
 
  0.00000000E+00  0.00000000E+00  0.00000000E+00
  0.00000000E+00  0.00000000E+00  0.00000000E+00
  0.00000000E+00  0.00000000E+00  0.00000000E+00
  0.00000000E+00  0.00000000E+00  0.00000000E+00
  0.00000000E+00  0.00000000E+00  0.00000000E+00
  0.00000000E+00  0.00000000E+00  0.00000000E+00
  0.00000000E+00  0.00000000E+00  0.00000000E+00
  0.00000000E+00  0.00000000E+00  0.00000000E+00
  0.00000000E+00  0.00000000E+00  0.00000000E+00
  0.00000000E+00  0.00000000E+00  0.00000000E+00
  0.00000000E+00  0.00000000E+00  0.00000000E+00
  0.00000000E+00  0.00000000E+00  0.00000000E+00
  0.00000000E+00  0.00000000E+00  0.00000000E+00
  0.00000000E+00  0.00000000E+00  0.00000000E+00
  0.00000000E+00  0.00000000E+00  0.00000000E+00
  0.00000000E+00  0.00000000E+00  0.00000000E+00
  0.00000000E+00  0.00000000E+00  0.00000000E+00
  0.00000000E+00  0.00000000E+00  0.00000000E+00
  0.00000000E+00  0.00000000E+00  0.00000000E+00
  0.00000000E+00  0.00000000E+00  0.00000000E+00
  0.00000000E+00  0.00000000E+00  0.00000000E+00
  0.00000000E+00  0.00000000E+00  0.00000000E+00
  0.00000000E+00  0.00000000E+00  0.00000000E+00
  0.00000000E+00  0.00000000E+00  0.00000000E+00
  0.00000000E+00  0.00000000E+00  0.00000000E+00
  0.00000000E+00  0.00000000E+00  0.00000000E+00
  0.00000000E+00  0.00000000E+00  0.00000000E+00
  0.00000000E+00  0.00000000E+00  0.00000000E+00
  0.00000000E+00  0.00000000E+00  0.00000000E+00
  0.00000000E+00  0.00000000E+00  0.00000000E+00
  0.00000000E+00  0.00000000E+00  0.00000000E+00
  0.00000000E+00  0.00000000E+00  0.00000000E+00
  0.00000000E+00  0.00000000E+00  0.00000000E+00
  0.00000000E+00  0.00000000E+00  0.00000000E+00
  0.00000000E+00  0.00000000E+00  0.00000000E+00
  0.00000000E+00  0.00000000E+00  0.00000000E+00
  0.00000000E+00  0.00000000E+00  0.00000000E+00
  0.00000000E+00  0.00000000E+00  0.00000000E+00
  0.00000000E+00  0.00000000E+00  0.00000000E+00
  0.00000000E+00  0.00000000E+00  0.00000000E+00
  0.00000000E+00  0.00000000E+00  0.00000000E+00
  0.00000000E+00  0.00000000E+00  0.00000000E+00
  0.00000000E+00  0.00000000E+00  0.00000000E+00
  0.00000000E+00  0.00000000E+00  0.00000000E+00
  0.00000000E+00  0.00000000E+00  0.00000000E+00
  0.00000000E+00  0.00000000E+00  0.00000000E+00
  0.00000000E+00  0.00000000E+00  0.00000000E+00
  0.00000000E+00  0.00000000E+00  0.00000000E+00
  0.00000000E+00  0.00000000E+00  0.00000000E+00
  0.00000000E+00  0.00000000E+00  0.00000000E+00
  0.00000000E+00  0.00000000E+00  0.00000000E+00
  0.00000000E+00  0.00000000E+00  0.00000000E+00
  0.00000000E+00  0.00000000E+00  0.00000000E+00
  0.00000000E+00  0.00000000E+00  0.00000000E+00
  0.00000000E+00  0.00000000E+00  0.00000000E+00
  0.00000000E+00  0.00000000E+00  0.00000000E+00
  0.00000000E+00  0.00000000E+00  0.00000000E+00
  0.00000000E+00  0.00000000E+00  0.00000000E+00
  0.00000000E+00  0.00000000E+00  0.00000000E+00
  0.00000000E+00  0.00000000E+00  0.00000000E+00
  0.00000000E+00  0.00000000E+00  0.00000000E+00
  0.00000000E+00  0.00000000E+00  0.00000000E+00
  0.00000000E+00  0.00000000E+00  0.00000000E+00
  0.00000000E+00  0.00000000E+00  0.00000000E+00
  0.00000000E+00  0.00000000E+00  0.00000000E+00
  0.00000000E+00  0.00000000E+00  0.00000000E+00
  0.00000000E+00  0.00000000E+00  0.00000000E+00
  0.00000000E+00  0.00000000E+00  0.00000000E+00
  0.00000000E+00  0.00000000E+00  0.00000000E+00
  0.00000000E+00  0.00000000E+00  0.00000000E+00
  0.00000000E+00  0.00000000E+00  0.00000000E+00
  0.00000000E+00  0.00000000E+00  0.00000000E+00
