B    Al   N                             
   1.00000000000000     
    -9.1418558960285488    0.0000983336640775    0.0185543824345348
    -4.5624781251566233    7.9886012893312692    0.0287047946952482
     0.1266538664422713   -0.1688080260222263  -10.2589168618080961
   B    Al   N 
     5    31    36
Direct
  0.1195742077018238  0.0886612176755577  0.3611849287801974
  0.5848161104536018  0.4799877463725792  0.1701566153284872
  0.2277488316719385  0.8871029067658469  0.1241021045640878
  0.5382907764818512  0.8819806824380336  0.1129515794639318
  0.7736022058374488  0.7634335633371663  0.3694839619542165
  0.2286217413373421  0.1984337712181699  0.0861841753698371
  0.7734852099413345  0.0868956445294842  0.8313604442268030
  0.8915853527733759  0.2069586992459733  0.6560936807451085
  0.4536990041129485  0.0781705965863040  0.3308458980079436
  0.5634954809028798  0.1904524466195596  0.0832625859660041
  0.1099219541787164  0.0887066367126650  0.8886965111901475
  0.2214215638780459  0.1961855810773088  0.5703841211455440
  0.7828135558064204  0.0794124897275168  0.3335750249307381
  0.9016725762524942  0.1960286099526485  0.1529355987650547
  0.4329717116150107  0.1048526282955820  0.8230707992806785
  0.5587279065118125  0.1986181044863997  0.5770539021734606
  0.1035169446937587  0.4408222149692875  0.3937643280292846
  0.2307096967262439  0.5521693753204886  0.1557338174740792
  0.7715777193705620  0.4281116372862854  0.9110659732883661
  0.8981909343165384  0.5243687540858062  0.6549921897280839
  0.4456504960326626  0.4319913931849229  0.4003425572010926
  0.1058183888576565  0.4372501236762432  0.9090981697086420
  0.2232456654665782  0.5384713854373473  0.6505198302794710
  0.7879455760843825  0.4251779704748770  0.4003048887638840
  0.8603777553983676  0.5620813111335323  0.1541707407507147
  0.4475472101009146  0.4340068464910729  0.9062932299845627
  0.5560438454670162  0.5405696506592292  0.6530322663251766
  0.1168516429507207  0.7681140718112687  0.3979300769700771
  0.7744348477439686  0.7617702713170758  0.8418219584080191
  0.8850080099781579  0.8660460856764658  0.5818397957082269
  0.4502032317213249  0.7621624651850851  0.3893710078455328
  0.1233760135711535  0.7592425142618993  0.9041386680570582
  0.2254237429904720  0.8701346103654330  0.6502344869585457
  0.8782902327099507  0.8728072544641776  0.0806575654493287
  0.4441733582075997  0.7681361627207437  0.9072275055367811
  0.5554481845580739  0.8663136464585790  0.6369981164657190
  0.2140217519465395  0.1886105232023283  0.3749339887668768
  0.1171800751216523  0.0720987201573422  0.0871619810737556
  0.8829359011348217  0.2105175698170569  0.8477495869200879
  0.7750529567652364  0.0866366224540940  0.6436890132332920
  0.5600028896786426  0.1982624688126791  0.3897655057555838
  0.4541286630779169  0.0746256775891254  0.1437953192931261
  0.2255054783886408  0.2069145392455027  0.8998258587189838
  0.1115949412034496  0.0925842548812383  0.6201331858341916
  0.9261776248732474  0.1900810965366588  0.3429300384017537
  0.7782309408310937  0.0866811582476146  0.1500511556633981
  0.5555693417807959  0.1998416632258042  0.8981556881475186
  0.4375610780853663  0.1033580347402605  0.6359605184031807
  0.2259977699284832  0.5431763992479830  0.3374896910295533
  0.0988305158276575  0.4482569745036216  0.0994534709875694
  0.8905239797600544  0.5267588819565887  0.8449029976565114
  0.7777580198472407  0.4234518226651005  0.5849492790507824
  0.5668701400604590  0.5238761888623742  0.3167406118219986
  0.4639509172012808  0.4342230020409943  0.1023149212288956
  0.2247849510849846  0.5363035361768382  0.8413702591439574
  0.1110268535463845  0.4305627788777855  0.5801962401668703
  0.8722086076693643  0.5701365460820327  0.3434866186023910
  0.7558411812320216  0.4284180327409715  0.1052929987596869
  0.5546239072145269  0.5429127773990601  0.8415108861155431
  0.4442972581634308  0.4324938726423611  0.5877739678339111
  0.2136892488127557  0.9011982746553073  0.3384420690314940
  0.1373856295286018  0.7749486329603528  0.0951886085779918
  0.8898404372103244  0.8713567950672783  0.8969007090380572
  0.7882335270056160  0.7536624330370074  0.6477813628919478
  0.5906603741828320  0.8543798543450407  0.3778826153672981
  0.4201862366990952  0.8114451616748468  0.0927719044566473
  0.2271353503165443  0.8653762383788504  0.8356790032841630
  0.1183414974700270  0.7567567457587216  0.5847763695275603
  0.8757090226581994  0.8548896863533457  0.3877838914479881
  0.7273703274760308  0.7822023491224499  0.0973862414619404
  0.5438271860879240  0.8744403095282465  0.8305830117284572
  0.4448728820633079  0.7527770279367871  0.5775966539019279
 
  0.00000000E+00  0.00000000E+00  0.00000000E+00
  0.00000000E+00  0.00000000E+00  0.00000000E+00
  0.00000000E+00  0.00000000E+00  0.00000000E+00
  0.00000000E+00  0.00000000E+00  0.00000000E+00
  0.00000000E+00  0.00000000E+00  0.00000000E+00
  0.00000000E+00  0.00000000E+00  0.00000000E+00
  0.00000000E+00  0.00000000E+00  0.00000000E+00
  0.00000000E+00  0.00000000E+00  0.00000000E+00
  0.00000000E+00  0.00000000E+00  0.00000000E+00
  0.00000000E+00  0.00000000E+00  0.00000000E+00
  0.00000000E+00  0.00000000E+00  0.00000000E+00
  0.00000000E+00  0.00000000E+00  0.00000000E+00
  0.00000000E+00  0.00000000E+00  0.00000000E+00
  0.00000000E+00  0.00000000E+00  0.00000000E+00
  0.00000000E+00  0.00000000E+00  0.00000000E+00
  0.00000000E+00  0.00000000E+00  0.00000000E+00
  0.00000000E+00  0.00000000E+00  0.00000000E+00
  0.00000000E+00  0.00000000E+00  0.00000000E+00
  0.00000000E+00  0.00000000E+00  0.00000000E+00
  0.00000000E+00  0.00000000E+00  0.00000000E+00
  0.00000000E+00  0.00000000E+00  0.00000000E+00
  0.00000000E+00  0.00000000E+00  0.00000000E+00
  0.00000000E+00  0.00000000E+00  0.00000000E+00
  0.00000000E+00  0.00000000E+00  0.00000000E+00
  0.00000000E+00  0.00000000E+00  0.00000000E+00
  0.00000000E+00  0.00000000E+00  0.00000000E+00
  0.00000000E+00  0.00000000E+00  0.00000000E+00
  0.00000000E+00  0.00000000E+00  0.00000000E+00
  0.00000000E+00  0.00000000E+00  0.00000000E+00
  0.00000000E+00  0.00000000E+00  0.00000000E+00
  0.00000000E+00  0.00000000E+00  0.00000000E+00
  0.00000000E+00  0.00000000E+00  0.00000000E+00
  0.00000000E+00  0.00000000E+00  0.00000000E+00
  0.00000000E+00  0.00000000E+00  0.00000000E+00
  0.00000000E+00  0.00000000E+00  0.00000000E+00
  0.00000000E+00  0.00000000E+00  0.00000000E+00
  0.00000000E+00  0.00000000E+00  0.00000000E+00
  0.00000000E+00  0.00000000E+00  0.00000000E+00
  0.00000000E+00  0.00000000E+00  0.00000000E+00
  0.00000000E+00  0.00000000E+00  0.00000000E+00
  0.00000000E+00  0.00000000E+00  0.00000000E+00
  0.00000000E+00  0.00000000E+00  0.00000000E+00
  0.00000000E+00  0.00000000E+00  0.00000000E+00
  0.00000000E+00  0.00000000E+00  0.00000000E+00
  0.00000000E+00  0.00000000E+00  0.00000000E+00
  0.00000000E+00  0.00000000E+00  0.00000000E+00
  0.00000000E+00  0.00000000E+00  0.00000000E+00
  0.00000000E+00  0.00000000E+00  0.00000000E+00
  0.00000000E+00  0.00000000E+00  0.00000000E+00
  0.00000000E+00  0.00000000E+00  0.00000000E+00
  0.00000000E+00  0.00000000E+00  0.00000000E+00
  0.00000000E+00  0.00000000E+00  0.00000000E+00
  0.00000000E+00  0.00000000E+00  0.00000000E+00
  0.00000000E+00  0.00000000E+00  0.00000000E+00
  0.00000000E+00  0.00000000E+00  0.00000000E+00
  0.00000000E+00  0.00000000E+00  0.00000000E+00
  0.00000000E+00  0.00000000E+00  0.00000000E+00
  0.00000000E+00  0.00000000E+00  0.00000000E+00
  0.00000000E+00  0.00000000E+00  0.00000000E+00
  0.00000000E+00  0.00000000E+00  0.00000000E+00
  0.00000000E+00  0.00000000E+00  0.00000000E+00
  0.00000000E+00  0.00000000E+00  0.00000000E+00
  0.00000000E+00  0.00000000E+00  0.00000000E+00
  0.00000000E+00  0.00000000E+00  0.00000000E+00
  0.00000000E+00  0.00000000E+00  0.00000000E+00
  0.00000000E+00  0.00000000E+00  0.00000000E+00
  0.00000000E+00  0.00000000E+00  0.00000000E+00
  0.00000000E+00  0.00000000E+00  0.00000000E+00
  0.00000000E+00  0.00000000E+00  0.00000000E+00
  0.00000000E+00  0.00000000E+00  0.00000000E+00
  0.00000000E+00  0.00000000E+00  0.00000000E+00
  0.00000000E+00  0.00000000E+00  0.00000000E+00
