B    Al   N                             
   1.00000000000000     
    -9.1962361854674697    0.0030411553387809    0.0076102935267732
    -4.6468787220334251    8.0464207284393403    0.0220903073300927
    -0.0441381666955813   -0.0040102348752486   -9.7537544571501442
   B    Al   N 
     5    31    36
Direct
  0.1126025556089232  0.0974049879860317  0.3963660299888190
  0.5849306597643817  0.4795936883520682  0.1625162090882313
  0.2454709910325548  0.9139137805684570  0.1652420976020608
  0.5550468868137273  0.8758915711430504  0.1542803386062062
  0.7779501222085656  0.7619024307862645  0.3929486506795925
  0.2247081582132964  0.2005799486538820  0.1503391065451964
  0.7816968950425860  0.0891384843202658  0.8933143461146358
  0.8936236497923176  0.2026530252232490  0.6393176764931070
  0.4478366082254013  0.0860966570543553  0.3900135380874659
  0.5625156238697286  0.1984032474697983  0.1460596462649590
  0.1168101552971095  0.0862160848023024  0.8965035537163430
  0.2221500757267023  0.2030990875216716  0.6381959980207270
  0.7831744722647329  0.0858860053942081  0.3963181135440266
  0.9006251893303698  0.1897968211805505  0.1517821733362226
  0.4461598795420585  0.0885437714148409  0.8982042450323178
  0.5553225517008826  0.2044093248367602  0.6459207947596823
  0.1056211594002932  0.4319412402834146  0.3944125931803200
  0.2244342335623983  0.5415913296082522  0.1441058654614693
  0.7732741714848430  0.4277375337942786  0.8981895235756028
  0.8847660189328437  0.5432579477156239  0.6400369305129416
  0.4464933223950709  0.4243655638897295  0.3942701320504582
  0.1099255350897863  0.4261851033647517  0.8946933217601014
  0.2226597432192108  0.5406529258982786  0.6439144755323269
  0.7850066329577530  0.4260508345392893  0.3931144516612193
  0.8701971875756342  0.5507879757890493  0.1494087336166530
  0.4486989194433662  0.4299176909585753  0.8978816271406984
  0.5535030868969031  0.5438283107875748  0.6455275404842098
  0.1098531153240714  0.7660443079991168  0.3805880166879163
  0.7682524827626196  0.7639720858272625  0.8956438593127274
  0.8889331219093393  0.8678958599983062  0.6357341779998222
  0.4530569107288898  0.7584918128300941  0.3664350467312474
  0.1096438498715884  0.7610674704254876  0.8995723812359060
  0.2260576762517843  0.8698811264360771  0.6348023165346177
  0.8806273716942101  0.8646439019512115  0.1463104853949346
  0.4388446779705433  0.7694946780531211  0.9133031870977177
  0.5543412021015826  0.8688274504850355  0.6344482706315233
  0.2085138916411253  0.1970736928842598  0.3445656128371510
  0.1251666346793243  0.0755421124951496  0.0915957097043574
  0.8922834716173185  0.2044760796725384  0.8370159531203427
  0.7793436224090300  0.0927589803104922  0.5879826321308599
  0.5582844993916467  0.2031139214820570  0.3376595916745018
  0.4554295949183853  0.0791769827953743  0.0971058445244637
  0.2219453838452665  0.2027892036608065  0.8351599358273347
  0.1148696454917584  0.0902488380535900  0.5627095497212053
  0.9158604523360125  0.1910773410644993  0.3451097022228780
  0.7845480740331965  0.0870169503880405  0.0883114648942893
  0.5545647152580813  0.2060436935925125  0.8414292884629049
  0.4464880199669210  0.0923330126098207  0.5826371385404983
  0.2250433705404191  0.5368279486930660  0.3358093234110342
  0.1061423969540343  0.4242277685830516  0.0908483817339985
  0.8843324080406489  0.5407011615430903  0.8378172184553065
  0.7773059374715743  0.4266597703488912  0.5851123972720842
  0.5645480894977979  0.5236910508343726  0.3133704071984837
  0.4651559515670201  0.4316005800760792  0.0955303185284535
  0.2245590723549427  0.5366026011084202  0.8395223607629347
  0.1107708731570725  0.4283435786890593  0.5875915298136007
  0.8749330558335515  0.5650027338910277  0.3423112395173646
  0.7579059648838111  0.4261116638238178  0.0989646684993772
  0.5513511565235660  0.5484262054905713  0.8403730503770106
  0.4479476929956547  0.4268181838934240  0.5867940908244265
  0.2143970897812011  0.9034682202682518  0.3215236177037681
  0.1017836316970957  0.7566936804602591  0.0889368834007982
  0.8863741702121146  0.8674985534745900  0.8312354641493727
  0.7750881585257119  0.7612984515828316  0.5610218460261294
  0.5811017809446000  0.8622275564756023  0.3232361388381761
  0.4234961809038325  0.8145822896186630  0.1101163737835478
  0.2229843395346975  0.8693841911703686  0.8307825824338622
  0.1137283639028936  0.7603048102873373  0.5766977017302466
  0.8759705299917115  0.8587783154742397  0.3413755794416389
  0.7406905483832560  0.7744092484194809  0.0885231366689325
  0.5507310830139787  0.8713153959488977  0.8285382638544689
  0.4474100624667514  0.7558153021423024  0.5657099472000411
 
  0.00000000E+00  0.00000000E+00  0.00000000E+00
  0.00000000E+00  0.00000000E+00  0.00000000E+00
  0.00000000E+00  0.00000000E+00  0.00000000E+00
  0.00000000E+00  0.00000000E+00  0.00000000E+00
  0.00000000E+00  0.00000000E+00  0.00000000E+00
  0.00000000E+00  0.00000000E+00  0.00000000E+00
  0.00000000E+00  0.00000000E+00  0.00000000E+00
  0.00000000E+00  0.00000000E+00  0.00000000E+00
  0.00000000E+00  0.00000000E+00  0.00000000E+00
  0.00000000E+00  0.00000000E+00  0.00000000E+00
  0.00000000E+00  0.00000000E+00  0.00000000E+00
  0.00000000E+00  0.00000000E+00  0.00000000E+00
  0.00000000E+00  0.00000000E+00  0.00000000E+00
  0.00000000E+00  0.00000000E+00  0.00000000E+00
  0.00000000E+00  0.00000000E+00  0.00000000E+00
  0.00000000E+00  0.00000000E+00  0.00000000E+00
  0.00000000E+00  0.00000000E+00  0.00000000E+00
  0.00000000E+00  0.00000000E+00  0.00000000E+00
  0.00000000E+00  0.00000000E+00  0.00000000E+00
  0.00000000E+00  0.00000000E+00  0.00000000E+00
  0.00000000E+00  0.00000000E+00  0.00000000E+00
  0.00000000E+00  0.00000000E+00  0.00000000E+00
  0.00000000E+00  0.00000000E+00  0.00000000E+00
  0.00000000E+00  0.00000000E+00  0.00000000E+00
  0.00000000E+00  0.00000000E+00  0.00000000E+00
  0.00000000E+00  0.00000000E+00  0.00000000E+00
  0.00000000E+00  0.00000000E+00  0.00000000E+00
  0.00000000E+00  0.00000000E+00  0.00000000E+00
  0.00000000E+00  0.00000000E+00  0.00000000E+00
  0.00000000E+00  0.00000000E+00  0.00000000E+00
  0.00000000E+00  0.00000000E+00  0.00000000E+00
  0.00000000E+00  0.00000000E+00  0.00000000E+00
  0.00000000E+00  0.00000000E+00  0.00000000E+00
  0.00000000E+00  0.00000000E+00  0.00000000E+00
  0.00000000E+00  0.00000000E+00  0.00000000E+00
  0.00000000E+00  0.00000000E+00  0.00000000E+00
  0.00000000E+00  0.00000000E+00  0.00000000E+00
  0.00000000E+00  0.00000000E+00  0.00000000E+00
  0.00000000E+00  0.00000000E+00  0.00000000E+00
  0.00000000E+00  0.00000000E+00  0.00000000E+00
  0.00000000E+00  0.00000000E+00  0.00000000E+00
  0.00000000E+00  0.00000000E+00  0.00000000E+00
  0.00000000E+00  0.00000000E+00  0.00000000E+00
  0.00000000E+00  0.00000000E+00  0.00000000E+00
  0.00000000E+00  0.00000000E+00  0.00000000E+00
  0.00000000E+00  0.00000000E+00  0.00000000E+00
  0.00000000E+00  0.00000000E+00  0.00000000E+00
  0.00000000E+00  0.00000000E+00  0.00000000E+00
  0.00000000E+00  0.00000000E+00  0.00000000E+00
  0.00000000E+00  0.00000000E+00  0.00000000E+00
  0.00000000E+00  0.00000000E+00  0.00000000E+00
  0.00000000E+00  0.00000000E+00  0.00000000E+00
  0.00000000E+00  0.00000000E+00  0.00000000E+00
  0.00000000E+00  0.00000000E+00  0.00000000E+00
  0.00000000E+00  0.00000000E+00  0.00000000E+00
  0.00000000E+00  0.00000000E+00  0.00000000E+00
  0.00000000E+00  0.00000000E+00  0.00000000E+00
  0.00000000E+00  0.00000000E+00  0.00000000E+00
  0.00000000E+00  0.00000000E+00  0.00000000E+00
  0.00000000E+00  0.00000000E+00  0.00000000E+00
  0.00000000E+00  0.00000000E+00  0.00000000E+00
  0.00000000E+00  0.00000000E+00  0.00000000E+00
  0.00000000E+00  0.00000000E+00  0.00000000E+00
  0.00000000E+00  0.00000000E+00  0.00000000E+00
  0.00000000E+00  0.00000000E+00  0.00000000E+00
  0.00000000E+00  0.00000000E+00  0.00000000E+00
  0.00000000E+00  0.00000000E+00  0.00000000E+00
  0.00000000E+00  0.00000000E+00  0.00000000E+00
  0.00000000E+00  0.00000000E+00  0.00000000E+00
  0.00000000E+00  0.00000000E+00  0.00000000E+00
  0.00000000E+00  0.00000000E+00  0.00000000E+00
  0.00000000E+00  0.00000000E+00  0.00000000E+00
