generated by phonopy                    
   1.00000000000000     
    10.0351470768999995   -0.0000022330999784   -0.0000001056124209
    -5.0175765436399997    8.6906901959899994    0.0000001395531216
    -0.0000001735893656    0.0000001431815548   14.9533752540999991
   Pb   P    O 
    19    12    50
Direct
  0.9895399048702771  0.7602137857760809  0.1179709531149911
  0.9965655965457501  0.7705970297223814  0.6251392506500864
  0.9992545385803524  0.2610363254609496  0.3730102340244414
  0.9910286639296686  0.2608815133516131  0.8777666543548079
  0.2465687771003431  0.2288873360717645  0.1163818638908438
  0.2293010765722769  0.2263094048100172  0.6257212544364705
  0.7360240479355156  0.7373537590901407  0.3733925045072297
  0.7352916944132488  0.7291631854223155  0.8773363758490191
  0.7739816003752935  0.0152711341541973  0.1177411504202013
  0.7736420307576424  0.0030179506370303  0.6250679321519144
  0.2617257193503164  0.9994676189945153  0.3740979579479458
  0.2688670059898115  0.0056345305697363  0.8759696455303256
  0.6672206058616226  0.3336267065090297  0.5021195465127448
  0.3317133041621361  0.6664632982658674  0.0051151302597674
  0.3321813654972985  0.6656027745726263  0.5050185024538720
  0.3321814181300553  0.6664599970782206  0.2460662884987244
  0.3334754331853915  0.6675235914745059  0.7457267173366589
  0.6690031136079355  0.3334951015518683  0.2316143241551814
  0.6671386037846290  0.3332736237121239  0.7597762011801166
  0.6194020696727236  0.5990837979833614  0.1252446023080722
  0.6220030432146757  0.5932920432986180  0.6238244795863608
  0.3660366771246046  0.3906507850543193  0.3726065182624296
  0.3635538668838905  0.3875921074152799  0.8740745264898635
  0.4012326682240968  0.0224680682820519  0.1256815080342122
  0.4060734650266298  0.0283971282646220  0.6240081637351764
  0.6078307266401168  0.9745324472386656  0.3737413277707375
  0.6095358835414544  0.9729587447338801  0.8720029129913058
  0.9760558161974018  0.3782003803958247  0.1253297636168043
  0.9709327058127002  0.3768643363820203  0.6240430226067915
  0.0253739967184430  0.6327608245195577  0.3735962983225960
  0.0260856188328233  0.6351997740924773  0.8723990906253150
  0.5034863750248562  0.6607013541873457  0.1251825326722624
  0.4989732810222804  0.6460125332678714  0.6233984594077455
  0.4666206858746875  0.3133567593606017  0.3741791024988217
  0.4597957443356862  0.3071513491207440  0.8663289071134628
  0.3374890837804898  0.8440955834133490  0.1252000678761007
  0.3526039083648769  0.8523466310309189  0.6237350346294690
  0.6862569105474847  0.1526984365131767  0.3743925706305262
  0.6920140360768556  0.1499807981153936  0.8639519777429143
  0.1550782961506059  0.4901425474073591  0.1253337364088623
  0.1470620593158500  0.4989325076179369  0.6235895510574494
  0.8472889987980707  0.5332940126383647  0.3744539105030285
  0.8493311689632392  0.5417832625919345  0.8643900829422861
  0.7297695904062564  0.6661118084622260  0.0432296089553077
  0.7280466842059852  0.6546099778709333  0.5389467037552080
  0.2583813846433927  0.3485396191303778  0.4563716612786735
  0.2588799238558721  0.3365661353405898  0.9600177202001490
  0.3342874963821956  0.0656417387904966  0.0429879790489878
  0.3439977255500182  0.0729058193306287  0.5394509364291125
  0.6496479360276339  0.9095586128640676  0.4578997570085974
  0.6612826632565287  0.9189959088184452  0.9569399907052016
  0.9307264507144168  0.2688684972730897  0.0425033115348725
  0.9257365998198566  0.2707698709425088  0.5392091594894737
  0.0908351623646055  0.7393543799569784  0.4577999485435029
  0.0808338598401193  0.7403258848982617  0.9577828178188312
  0.2587992926661897  0.3445912175455774  0.2883561366391945
  0.2523716971970487  0.3522460005132046  0.7927569464472413
  0.7266736308535400  0.6536675724487608  0.2097765861747689
  0.7296019247616528  0.6589563696353764  0.7075539999414175
  0.6526568256173277  0.9117961541001662  0.2899445388514934
  0.6407495378463466  0.8956030990749113  0.7897515193893909
  0.3431245626208081  0.0736290276533822  0.2096892094172063
  0.3410028749269145  0.0707305419103577  0.7079759408828394
  0.0881088504259964  0.7402640773069109  0.2897311233368995
  0.1035033408158128  0.7445139692772429  0.7903182679708820
  0.9223080431385497  0.2691974682454443  0.2096506348866640
  0.9285411803866879  0.2693570588763947  0.7078949807826973
  0.5283192207477185  0.4187779824804139  0.1266846734575964
  0.5412580119107560  0.4136182140132334  0.6245484643200996
  0.4731816332414525  0.5727112869818640  0.3717448864273010
  0.4716963119297617  0.5689667668186829  0.8787988419317045
  0.5799840226065101  0.1116641516800954  0.1276021307318871
  0.5856303873407782  0.1268473986727514  0.6243431531722408
  0.4260060903387171  0.9010768353808061  0.3728970750329452
  0.4282705941812353  0.9016812391878517  0.8779999211415870
  0.8903667017406249  0.4713656850446881  0.1279821318428844
  0.8728556742590996  0.4584850180079840  0.6247054065114739
  0.0985588663922812  0.5240743063365940  0.3726029520447014
  0.0968093522764448  0.5247531691328078  0.8778012817488019
  0.0114973921517105  0.0191200106015685  0.1161378342644994
  0.0007940467461580  0.0009557225325878  0.6232640347334382
 
  0.00000000E+00  0.00000000E+00  0.00000000E+00
  0.00000000E+00  0.00000000E+00  0.00000000E+00
  0.00000000E+00  0.00000000E+00  0.00000000E+00
  0.00000000E+00  0.00000000E+00  0.00000000E+00
  0.00000000E+00  0.00000000E+00  0.00000000E+00
  0.00000000E+00  0.00000000E+00  0.00000000E+00
  0.00000000E+00  0.00000000E+00  0.00000000E+00
  0.00000000E+00  0.00000000E+00  0.00000000E+00
  0.00000000E+00  0.00000000E+00  0.00000000E+00
  0.00000000E+00  0.00000000E+00  0.00000000E+00
  0.00000000E+00  0.00000000E+00  0.00000000E+00
  0.00000000E+00  0.00000000E+00  0.00000000E+00
  0.00000000E+00  0.00000000E+00  0.00000000E+00
  0.00000000E+00  0.00000000E+00  0.00000000E+00
  0.00000000E+00  0.00000000E+00  0.00000000E+00
  0.00000000E+00  0.00000000E+00  0.00000000E+00
  0.00000000E+00  0.00000000E+00  0.00000000E+00
  0.00000000E+00  0.00000000E+00  0.00000000E+00
  0.00000000E+00  0.00000000E+00  0.00000000E+00
  0.00000000E+00  0.00000000E+00  0.00000000E+00
  0.00000000E+00  0.00000000E+00  0.00000000E+00
  0.00000000E+00  0.00000000E+00  0.00000000E+00
  0.00000000E+00  0.00000000E+00  0.00000000E+00
  0.00000000E+00  0.00000000E+00  0.00000000E+00
  0.00000000E+00  0.00000000E+00  0.00000000E+00
  0.00000000E+00  0.00000000E+00  0.00000000E+00
  0.00000000E+00  0.00000000E+00  0.00000000E+00
  0.00000000E+00  0.00000000E+00  0.00000000E+00
  0.00000000E+00  0.00000000E+00  0.00000000E+00
  0.00000000E+00  0.00000000E+00  0.00000000E+00
  0.00000000E+00  0.00000000E+00  0.00000000E+00
  0.00000000E+00  0.00000000E+00  0.00000000E+00
  0.00000000E+00  0.00000000E+00  0.00000000E+00
  0.00000000E+00  0.00000000E+00  0.00000000E+00
  0.00000000E+00  0.00000000E+00  0.00000000E+00
  0.00000000E+00  0.00000000E+00  0.00000000E+00
  0.00000000E+00  0.00000000E+00  0.00000000E+00
  0.00000000E+00  0.00000000E+00  0.00000000E+00
  0.00000000E+00  0.00000000E+00  0.00000000E+00
  0.00000000E+00  0.00000000E+00  0.00000000E+00
  0.00000000E+00  0.00000000E+00  0.00000000E+00
  0.00000000E+00  0.00000000E+00  0.00000000E+00
  0.00000000E+00  0.00000000E+00  0.00000000E+00
  0.00000000E+00  0.00000000E+00  0.00000000E+00
  0.00000000E+00  0.00000000E+00  0.00000000E+00
  0.00000000E+00  0.00000000E+00  0.00000000E+00
  0.00000000E+00  0.00000000E+00  0.00000000E+00
  0.00000000E+00  0.00000000E+00  0.00000000E+00
  0.00000000E+00  0.00000000E+00  0.00000000E+00
  0.00000000E+00  0.00000000E+00  0.00000000E+00
  0.00000000E+00  0.00000000E+00  0.00000000E+00
  0.00000000E+00  0.00000000E+00  0.00000000E+00
  0.00000000E+00  0.00000000E+00  0.00000000E+00
  0.00000000E+00  0.00000000E+00  0.00000000E+00
  0.00000000E+00  0.00000000E+00  0.00000000E+00
  0.00000000E+00  0.00000000E+00  0.00000000E+00
  0.00000000E+00  0.00000000E+00  0.00000000E+00
  0.00000000E+00  0.00000000E+00  0.00000000E+00
  0.00000000E+00  0.00000000E+00  0.00000000E+00
  0.00000000E+00  0.00000000E+00  0.00000000E+00
  0.00000000E+00  0.00000000E+00  0.00000000E+00
  0.00000000E+00  0.00000000E+00  0.00000000E+00
  0.00000000E+00  0.00000000E+00  0.00000000E+00
  0.00000000E+00  0.00000000E+00  0.00000000E+00
  0.00000000E+00  0.00000000E+00  0.00000000E+00
  0.00000000E+00  0.00000000E+00  0.00000000E+00
  0.00000000E+00  0.00000000E+00  0.00000000E+00
  0.00000000E+00  0.00000000E+00  0.00000000E+00
  0.00000000E+00  0.00000000E+00  0.00000000E+00
  0.00000000E+00  0.00000000E+00  0.00000000E+00
  0.00000000E+00  0.00000000E+00  0.00000000E+00
  0.00000000E+00  0.00000000E+00  0.00000000E+00
  0.00000000E+00  0.00000000E+00  0.00000000E+00
  0.00000000E+00  0.00000000E+00  0.00000000E+00
  0.00000000E+00  0.00000000E+00  0.00000000E+00
  0.00000000E+00  0.00000000E+00  0.00000000E+00
  0.00000000E+00  0.00000000E+00  0.00000000E+00
  0.00000000E+00  0.00000000E+00  0.00000000E+00
  0.00000000E+00  0.00000000E+00  0.00000000E+00
  0.00000000E+00  0.00000000E+00  0.00000000E+00
  0.00000000E+00  0.00000000E+00  0.00000000E+00
