supercell of 100% icsd_608626.cif, 0% i 
   1.00000000000000     
    -9.7654135505845634   -0.0220105256510490   -0.0359136443101448
    -4.8637308545708677    8.4573198403024552   -0.0151323634495736
    -0.0379556955140337   -0.0032162828014345  -10.2536670251738666
   Al   Zr   Sr   N 
    30     3     3    36
Direct
  0.1160052258086708  0.0880671410480929  0.2953609602516849
  0.2149635597759598  0.2092008598419000  0.0464766810623942
  0.8967282561238719  0.1937690431157719  0.5463671957009240
  0.4379946001338126  0.1025675680679115  0.2920806352479701
  0.5459565922417013  0.2104478969910204  0.0496953682996732
  0.1178683685515907  0.0942287608205348  0.7936400792119755
  0.2140533638945215  0.2107211195868004  0.5488982485712057
  0.7768593626476914  0.0885141698639700  0.2957735114315128
  0.9011735472870086  0.2013289905595030  0.0506760531338628
  0.4317663540333356  0.1068494488034091  0.7931242111986379
  0.5507769904389193  0.2100065789011367  0.5405344242322414
  0.1165396571759700  0.4293019787122674  0.2865071570994786
  0.2217231673346589  0.5362907227961671  0.0469088071670782
  0.7825541557130649  0.4314847977570224  0.7799248126608944
  0.9007360398922870  0.5350707010566609  0.5529362119855961
  0.4330533888945070  0.4281651065831511  0.2904641722251071
  0.1084155463375183  0.4210455081617681  0.8015943518907136
  0.9046957905304112  0.5281568740306071  0.0459402862201941
  0.4472026185211675  0.4266924940123005  0.7884128274334188
  0.5493300757559823  0.5368359899137332  0.5591158296678316
  0.1127280210079462  0.7613494430534402  0.2882769458419361
  0.2116898698823562  0.8804130517340525  0.0437243298106011
  0.7909205506251311  0.7485340331655692  0.7972122343484642
  0.8929919619071143  0.8738977756698532  0.5444440488706022
  0.4296372603723810  0.7684218447177571  0.2955734380722106
  0.1109358733000576  0.7670437341267942  0.8014673199426454
  0.2094186840476695  0.8816226634564757  0.5481126261362803
  0.7901103399818510  0.7593624877156060  0.2919840938917062
  0.8981553907611755  0.8655460179660253  0.0515958654624384
  0.4365963370944357  0.7587580668189133  0.7852577270702241
  0.7786323191240072  0.0909925937832980  0.7986295493029587
  0.7838287248734801  0.4256689199568484  0.3223761157328369
  0.5552751668451137  0.8756023723528727  0.0591339086836413
  0.5676347544541898  0.5296332586984462  0.0426647358439354
  0.2118886369972230  0.5499699381563232  0.5577972523921488
  0.5608568572915402  0.8709784539625431  0.5459297027091523
  0.2187373098402006  0.2077656603305584  0.3534366619305374
  0.1120678730412479  0.0924575760504283  0.1066311041969144
  0.8966325417044985  0.2154820327463440  0.8556271711757972
  0.7702699559333652  0.0938774214397782  0.5919743257728456
  0.5549826737530026  0.2037946920470972  0.3506416132044450
  0.4284762889007609  0.1144891602102405  0.1055830447852060
  0.2213006760197871  0.2023148701531383  0.8613786751296217
  0.1117618256519464  0.0961821015773907  0.6050150136168568
  0.9008963609476766  0.1789236418702842  0.3597231071973113
  0.7767514913641733  0.0945264322570267  0.0999778684529957
  0.5409793842901109  0.2122297906632369  0.8628320114202594
  0.4195509603098770  0.1379874684717848  0.6119550392661779
  0.2166182173144620  0.5441314384542082  0.3245583706283597
  0.1144757700518539  0.4247282501994007  0.0980180035493632
  0.8857844977272435  0.5355802271801622  0.8598757557540750
  0.7806741393205954  0.4261413207950113  0.5820289507160012
  0.5340881771380879  0.5489059597591961  0.3516964250013999
  0.4268640504710177  0.4115635949865606  0.1095809996870187
  0.2230781028354940  0.5400252991742391  0.8484384011076216
  0.0897754911380986  0.4030302925830682  0.6246016350033230
  0.9050263701374703  0.5502663691386118  0.3635768864611606
  0.8285952712687603  0.4024460613992247  0.1230495754607972
  0.5632182205810423  0.5369526085649738  0.8140052182190090
  0.4817960850813847  0.4025297064203528  0.6101779840699066
  0.2161066549336326  0.8747700584806353  0.3571117232624701
  0.1120957504484181  0.7636457041647802  0.0997405022100821
  0.8948910395020278  0.8563503690555123  0.8681310902671058
  0.8273783237221508  0.7380154399073433  0.6171812279114874
  0.5604795748740727  0.8716464581422372  0.3061236161279410
  0.4109155476440520  0.7905893196768901  0.1134966743366022
  0.2214628237968626  0.8766731897273701  0.8582830931694190
  0.0782870460099332  0.8204338629472971  0.6257583649307321
  0.8908000153146460  0.8719516787932662  0.3519451108052323
  0.8053285012434017  0.7429129002259174  0.1068691711702314
  0.5562525557983378  0.8724980794247585  0.8376794725472010
  0.4139030222319775  0.7476405570231179  0.6046843926502419
 
  0.00000000E+00  0.00000000E+00  0.00000000E+00
  0.00000000E+00  0.00000000E+00  0.00000000E+00
  0.00000000E+00  0.00000000E+00  0.00000000E+00
  0.00000000E+00  0.00000000E+00  0.00000000E+00
  0.00000000E+00  0.00000000E+00  0.00000000E+00
  0.00000000E+00  0.00000000E+00  0.00000000E+00
  0.00000000E+00  0.00000000E+00  0.00000000E+00
  0.00000000E+00  0.00000000E+00  0.00000000E+00
  0.00000000E+00  0.00000000E+00  0.00000000E+00
  0.00000000E+00  0.00000000E+00  0.00000000E+00
  0.00000000E+00  0.00000000E+00  0.00000000E+00
  0.00000000E+00  0.00000000E+00  0.00000000E+00
  0.00000000E+00  0.00000000E+00  0.00000000E+00
  0.00000000E+00  0.00000000E+00  0.00000000E+00
  0.00000000E+00  0.00000000E+00  0.00000000E+00
  0.00000000E+00  0.00000000E+00  0.00000000E+00
  0.00000000E+00  0.00000000E+00  0.00000000E+00
  0.00000000E+00  0.00000000E+00  0.00000000E+00
  0.00000000E+00  0.00000000E+00  0.00000000E+00
  0.00000000E+00  0.00000000E+00  0.00000000E+00
  0.00000000E+00  0.00000000E+00  0.00000000E+00
  0.00000000E+00  0.00000000E+00  0.00000000E+00
  0.00000000E+00  0.00000000E+00  0.00000000E+00
  0.00000000E+00  0.00000000E+00  0.00000000E+00
  0.00000000E+00  0.00000000E+00  0.00000000E+00
  0.00000000E+00  0.00000000E+00  0.00000000E+00
  0.00000000E+00  0.00000000E+00  0.00000000E+00
  0.00000000E+00  0.00000000E+00  0.00000000E+00
  0.00000000E+00  0.00000000E+00  0.00000000E+00
  0.00000000E+00  0.00000000E+00  0.00000000E+00
  0.00000000E+00  0.00000000E+00  0.00000000E+00
  0.00000000E+00  0.00000000E+00  0.00000000E+00
  0.00000000E+00  0.00000000E+00  0.00000000E+00
  0.00000000E+00  0.00000000E+00  0.00000000E+00
  0.00000000E+00  0.00000000E+00  0.00000000E+00
  0.00000000E+00  0.00000000E+00  0.00000000E+00
  0.00000000E+00  0.00000000E+00  0.00000000E+00
  0.00000000E+00  0.00000000E+00  0.00000000E+00
  0.00000000E+00  0.00000000E+00  0.00000000E+00
  0.00000000E+00  0.00000000E+00  0.00000000E+00
  0.00000000E+00  0.00000000E+00  0.00000000E+00
  0.00000000E+00  0.00000000E+00  0.00000000E+00
  0.00000000E+00  0.00000000E+00  0.00000000E+00
  0.00000000E+00  0.00000000E+00  0.00000000E+00
  0.00000000E+00  0.00000000E+00  0.00000000E+00
  0.00000000E+00  0.00000000E+00  0.00000000E+00
  0.00000000E+00  0.00000000E+00  0.00000000E+00
  0.00000000E+00  0.00000000E+00  0.00000000E+00
  0.00000000E+00  0.00000000E+00  0.00000000E+00
  0.00000000E+00  0.00000000E+00  0.00000000E+00
  0.00000000E+00  0.00000000E+00  0.00000000E+00
  0.00000000E+00  0.00000000E+00  0.00000000E+00
  0.00000000E+00  0.00000000E+00  0.00000000E+00
  0.00000000E+00  0.00000000E+00  0.00000000E+00
  0.00000000E+00  0.00000000E+00  0.00000000E+00
  0.00000000E+00  0.00000000E+00  0.00000000E+00
  0.00000000E+00  0.00000000E+00  0.00000000E+00
  0.00000000E+00  0.00000000E+00  0.00000000E+00
  0.00000000E+00  0.00000000E+00  0.00000000E+00
  0.00000000E+00  0.00000000E+00  0.00000000E+00
  0.00000000E+00  0.00000000E+00  0.00000000E+00
  0.00000000E+00  0.00000000E+00  0.00000000E+00
  0.00000000E+00  0.00000000E+00  0.00000000E+00
  0.00000000E+00  0.00000000E+00  0.00000000E+00
  0.00000000E+00  0.00000000E+00  0.00000000E+00
  0.00000000E+00  0.00000000E+00  0.00000000E+00
  0.00000000E+00  0.00000000E+00  0.00000000E+00
  0.00000000E+00  0.00000000E+00  0.00000000E+00
  0.00000000E+00  0.00000000E+00  0.00000000E+00
  0.00000000E+00  0.00000000E+00  0.00000000E+00
  0.00000000E+00  0.00000000E+00  0.00000000E+00
  0.00000000E+00  0.00000000E+00  0.00000000E+00
