supercell of 100% icsd_608626.cif, 0% i 
   1.00000000000000     
   -10.1442258439174218   -0.0869148363310543    0.1363598553942169
    -4.9982022141607123    8.5172662861656434    0.2080279034418616
     0.1414495806086285   -0.1703177498430504  -10.4352973984033888
   Al   Zr   Sr   N 
    26     5     5    36
Direct
  0.1194764723813293  0.0924387103343633  0.3098863119923791
  0.8768319825245712  0.2152211404033721  0.5180478898226824
  0.4457368951972640  0.0924813366400770  0.2969801641389509
  0.5424756525893386  0.1977233797746649  0.0536622412417103
  0.2368756765449405  0.2117324447119842  0.5403382103414955
  0.7552540389818247  0.1055045848674325  0.3181187162170644
  0.4435301577876132  0.0972176406346037  0.7933516699934842
  0.5448460669652562  0.2160969260548384  0.5287153450638229
  0.2285558873677189  0.5310531502498534  0.0461052572722025
  0.7772407611112371  0.4164367064359880  0.7890154201314274
  0.4369580955393175  0.4295134562601461  0.2983793754890982
  0.1269038033888918  0.4229703367728632  0.7881827724926609
  0.2500324099756384  0.5430283971550338  0.5565623030674871
  0.7807460515600013  0.4313198360264181  0.2902817096256953
  0.8778490744718823  0.5467059345219809  0.0379210467685596
  0.4401816122276898  0.4113471550335177  0.7997366281688372
  0.5591719967553885  0.5259096177616840  0.5366493824574690
  0.1277027378548681  0.7604834280727459  0.2727371007832531
  0.2453982209993768  0.8661704698890631  0.0649482057574957
  0.7595840707686747  0.7778589837792111  0.8234296819170055
  0.4520547893558629  0.7648156058583027  0.3067354220265628
  0.5493682300277598  0.8726734179990956  0.0510020551159940
  0.2442613596898298  0.8647475415677448  0.5258891722283039
  0.7661059828151551  0.7595384929949631  0.2819316346954608
  0.8389285226774064  0.8843387017319486  0.0902220461453567
  0.5608213679331229  0.8880400339923256  0.5505106535659721
  0.2226956216148395  0.2033251157289868  0.0450184127988891
  0.1169376614401045  0.0871513004860560  0.7672963756588018
  0.1042962552337627  0.4454334895888366  0.3098133877168792
  0.5519118549474342  0.5305815910423775  0.0637740287777504
  0.4469955157499470  0.7506407265148027  0.7870987434676664
  0.7572381393431655  0.0789911768499039  0.7576431091599147
  0.8937416270666390  0.1641249701126881  0.0527717978310918
  0.8728449888816669  0.5531921804128714  0.5783568311986258
  0.9251217998740344  0.8358697910653063  0.5155633262288362
  0.0935206423145303  0.7674492829968500  0.8358849966984820
  0.2328401954480768  0.2006876962849375  0.3531589249447009
  0.1475656389922975  0.0725075227532983  0.1290712993781398
  0.9034274751082947  0.2096730478328936  0.8265627658901238
  0.7625379996774910  0.1131881504747767  0.5116348065495302
  0.5207483935072332  0.2242312585522299  0.3523830178786440
  0.4462999010123667  0.0844037469147025  0.1123406634704196
  0.2263517553848260  0.2091398878675435  0.8362715368747473
  0.1178879704454232  0.1009542740186262  0.5623133719613520
  0.8976032510652558  0.2162216317869792  0.3360010626210794
  0.7244012983971544  0.0966043570747885  0.1403492926177989
  0.5244267252563688  0.2130620406894863  0.8714340271975303
  0.4433569428084922  0.1046724039105911  0.6042737614557794
  0.2308050997590314  0.5594063596737797  0.3633456481801502
  0.0943696870260879  0.4509971955270942  0.1029516061033959
  0.8834077799505948  0.5373406327675312  0.8460818073604770
  0.7527752761056377  0.4074623762706509  0.6081781767840084
  0.5583143284297023  0.5342100343858363  0.3446703821453809
  0.4291171399058840  0.4134965077447532  0.1165170618185627
  0.2425855273676447  0.4990784741020704  0.8677888602733859
  0.1506662655697966  0.4256634182947110  0.6019410051012031
  0.8707521392366715  0.5548714141476836  0.3435440104024536
  0.7777576591028250  0.4448736008247991  0.1081462449108912
  0.5630111305225682  0.5148317740342421  0.8570678007650656
  0.4556000794277750  0.4226737243399370  0.6091652542281736
  0.2329701851321104  0.8692493305207165  0.3455765549872254
  0.1590130470765629  0.7413861885170192  0.0955332729473852
  0.8466135388433216  0.8775713010327806  0.9136289430592299
  0.7377435627362487  0.8215797548810500  0.6484958181473246
  0.5620301311161739  0.8782378034515261  0.3597971998173222
  0.4511564385531273  0.7694583821584828  0.1194878257445779
  0.2455362648380941  0.8908657658592176  0.8842728578103376
  0.1762362918718168  0.7533725832344018  0.6119497753447973
  0.9063159403550074  0.8467380010748329  0.2827835412435320
  0.7513028647564326  0.7531279963894235  0.1039251966235284
  0.5420462318576753  0.8827437374802400  0.8666925888212518
  0.4602298193978385  0.7632905708034912  0.5801026104830385
 
  0.00000000E+00  0.00000000E+00  0.00000000E+00
  0.00000000E+00  0.00000000E+00  0.00000000E+00
  0.00000000E+00  0.00000000E+00  0.00000000E+00
  0.00000000E+00  0.00000000E+00  0.00000000E+00
  0.00000000E+00  0.00000000E+00  0.00000000E+00
  0.00000000E+00  0.00000000E+00  0.00000000E+00
  0.00000000E+00  0.00000000E+00  0.00000000E+00
  0.00000000E+00  0.00000000E+00  0.00000000E+00
  0.00000000E+00  0.00000000E+00  0.00000000E+00
  0.00000000E+00  0.00000000E+00  0.00000000E+00
  0.00000000E+00  0.00000000E+00  0.00000000E+00
  0.00000000E+00  0.00000000E+00  0.00000000E+00
  0.00000000E+00  0.00000000E+00  0.00000000E+00
  0.00000000E+00  0.00000000E+00  0.00000000E+00
  0.00000000E+00  0.00000000E+00  0.00000000E+00
  0.00000000E+00  0.00000000E+00  0.00000000E+00
  0.00000000E+00  0.00000000E+00  0.00000000E+00
  0.00000000E+00  0.00000000E+00  0.00000000E+00
  0.00000000E+00  0.00000000E+00  0.00000000E+00
  0.00000000E+00  0.00000000E+00  0.00000000E+00
  0.00000000E+00  0.00000000E+00  0.00000000E+00
  0.00000000E+00  0.00000000E+00  0.00000000E+00
  0.00000000E+00  0.00000000E+00  0.00000000E+00
  0.00000000E+00  0.00000000E+00  0.00000000E+00
  0.00000000E+00  0.00000000E+00  0.00000000E+00
  0.00000000E+00  0.00000000E+00  0.00000000E+00
  0.00000000E+00  0.00000000E+00  0.00000000E+00
  0.00000000E+00  0.00000000E+00  0.00000000E+00
  0.00000000E+00  0.00000000E+00  0.00000000E+00
  0.00000000E+00  0.00000000E+00  0.00000000E+00
  0.00000000E+00  0.00000000E+00  0.00000000E+00
  0.00000000E+00  0.00000000E+00  0.00000000E+00
  0.00000000E+00  0.00000000E+00  0.00000000E+00
  0.00000000E+00  0.00000000E+00  0.00000000E+00
  0.00000000E+00  0.00000000E+00  0.00000000E+00
  0.00000000E+00  0.00000000E+00  0.00000000E+00
  0.00000000E+00  0.00000000E+00  0.00000000E+00
  0.00000000E+00  0.00000000E+00  0.00000000E+00
  0.00000000E+00  0.00000000E+00  0.00000000E+00
  0.00000000E+00  0.00000000E+00  0.00000000E+00
  0.00000000E+00  0.00000000E+00  0.00000000E+00
  0.00000000E+00  0.00000000E+00  0.00000000E+00
  0.00000000E+00  0.00000000E+00  0.00000000E+00
  0.00000000E+00  0.00000000E+00  0.00000000E+00
  0.00000000E+00  0.00000000E+00  0.00000000E+00
  0.00000000E+00  0.00000000E+00  0.00000000E+00
  0.00000000E+00  0.00000000E+00  0.00000000E+00
  0.00000000E+00  0.00000000E+00  0.00000000E+00
  0.00000000E+00  0.00000000E+00  0.00000000E+00
  0.00000000E+00  0.00000000E+00  0.00000000E+00
  0.00000000E+00  0.00000000E+00  0.00000000E+00
  0.00000000E+00  0.00000000E+00  0.00000000E+00
  0.00000000E+00  0.00000000E+00  0.00000000E+00
  0.00000000E+00  0.00000000E+00  0.00000000E+00
  0.00000000E+00  0.00000000E+00  0.00000000E+00
  0.00000000E+00  0.00000000E+00  0.00000000E+00
  0.00000000E+00  0.00000000E+00  0.00000000E+00
  0.00000000E+00  0.00000000E+00  0.00000000E+00
  0.00000000E+00  0.00000000E+00  0.00000000E+00
  0.00000000E+00  0.00000000E+00  0.00000000E+00
  0.00000000E+00  0.00000000E+00  0.00000000E+00
  0.00000000E+00  0.00000000E+00  0.00000000E+00
  0.00000000E+00  0.00000000E+00  0.00000000E+00
  0.00000000E+00  0.00000000E+00  0.00000000E+00
  0.00000000E+00  0.00000000E+00  0.00000000E+00
  0.00000000E+00  0.00000000E+00  0.00000000E+00
  0.00000000E+00  0.00000000E+00  0.00000000E+00
  0.00000000E+00  0.00000000E+00  0.00000000E+00
  0.00000000E+00  0.00000000E+00  0.00000000E+00
  0.00000000E+00  0.00000000E+00  0.00000000E+00
  0.00000000E+00  0.00000000E+00  0.00000000E+00
  0.00000000E+00  0.00000000E+00  0.00000000E+00
