supercell of 100% icsd_608626.cif, 0% i 
   1.00000000000000     
    -9.9576148592204330   -0.0017273351140819   -0.0725636970380397
    -4.9771778726720592    8.6712749140518142    0.0386263549776115
    -0.0768138794076443   -0.0920357795915122  -10.4719586901711743
   Sr   Al   Zr   N 
     5    26     5    36
Direct
  0.1430653119927783  0.0630739460733736  0.2929060508692629
  0.5643179848762898  0.5402033129110251  0.0509721021714071
  0.2255638159300233  0.8521786492843191  0.0113151968488197
  0.7813794483471597  0.7582205460550071  0.7842117039323355
  0.5498314804329212  0.8754828938954091  0.0554432647040315
  0.2189490481840437  0.2114423935424341  0.0429531040197304
  0.8934579183925564  0.2080778014978151  0.5497672500261501
  0.4314663687197466  0.1142043145899265  0.2947790920701081
  0.5227636868012695  0.2269674140797164  0.0463740613410550
  0.1146936264702063  0.0980029591089746  0.7805557623992243
  0.2151455271692555  0.2146060291433258  0.5416264770846411
  0.9050569123485630  0.2224421650580055  0.0348643806307649
  0.4298912248187889  0.0939402398836506  0.7887056387694358
  0.1230077828502374  0.4201571688346277  0.2929654649546549
  0.2206946774760326  0.5387971419550439  0.0639816308481400
  0.7736475861818732  0.4322131734399335  0.7854383450029445
  0.8940786320549137  0.5285766592198939  0.5368383336741331
  0.4344372617004879  0.4360201725310660  0.2994264156272664
  0.2112133174684914  0.5445790655034060  0.5404593523683445
  0.7850362433420699  0.4177848757476497  0.3044840816873844
  0.9048092384321578  0.5208088965919870  0.0617516271421579
  0.4356027567229361  0.4495759816525293  0.7916940555338172
  0.5601997672974193  0.5399799225527104  0.5476602117197658
  0.1270764255843559  0.7436326562968176  0.3082435579011502
  0.8951235085426816  0.8690402936046411  0.5397249276049294
  0.4357688555793402  0.7447561240980320  0.3272673352520741
  0.1174702045972396  0.7592123945975615  0.7827522005515419
  0.2218359557847549  0.8641747767940799  0.5718788542418736
  0.9148415752943606  0.8379861776972604  0.0545740925520946
  0.4453855799034514  0.7654107330982924  0.7601106685490251
  0.5459802142004193  0.8795562518515609  0.5362617670940750
  0.7799974807351546  0.0963312811685313  0.8327893629651371
  0.7760289821983548  0.1016114653929847  0.2788976047303535
  0.5530579951566210  0.2106933990618813  0.5559881591792788
  0.1148008597041610  0.4315681644035081  0.8106026681620051
  0.7800562026056070  0.7532971559854929  0.3178122940133790
  0.2367111940146458  0.2293442419703382  0.3678615024979592
  0.1073680645619461  0.1137349005403010  0.0652232988574681
  0.8932472308021957  0.2216829167335774  0.8454464200873204
  0.7933861804717921  0.0817190037498605  0.6147768336322557
  0.5457551489062098  0.2149534561307718  0.3535256586152826
  0.4163275773134387  0.1360907913289537  0.1154111197103944
  0.2243618622794656  0.1981622381404406  0.8490234007531967
  0.1060971144596152  0.1089737072687385  0.5943669858610008
  0.8636220671922530  0.2184963427427391  0.3722936608054894
  0.7637981127771241  0.1105514681844042  0.0694322440884036
  0.5235487501829823  0.2264734056338114  0.8481195530849419
  0.4308052861648477  0.0963566113140359  0.6036173868273025
  0.2193056630513368  0.5328859528426335  0.3594956494188324
  0.1178815294462154  0.4245258270723227  0.0983425955665709
  0.8898736257037498  0.5071746024301973  0.8760465548504826
  0.7827264723833522  0.4276115724717826  0.6017214700206424
  0.5657141829034984  0.5225680155550734  0.3623703003850380
  0.4231364724289790  0.4215153704290273  0.1212532091877847
  0.2316054729712960  0.5605010891061113  0.8685393921028677
  0.1044776100541114  0.4334928442845012  0.6052679338730300
  0.9077299674446664  0.5094704645820727  0.3573270339266656
  0.8193846647006424  0.4053880546540540  0.1285939730006760
  0.5531036646142624  0.5492664125630213  0.8116106566324675
  0.4253468623850623  0.4491084416363691  0.6054974129846258
  0.2355811936676773  0.8192738613754855  0.3972999690022192
  0.1029708014693611  0.7396890531215163  0.1326408243885311
  0.9324680601314341  0.8666871156149085  0.8794088604306012
  0.7760521414846266  0.7597116874415875  0.5489048322424637
  0.5349619350380976  0.8997283148554587  0.3543875402239394
  0.4181930989748537  0.7726273303807787  0.1590483330785020
  0.2216100866550050  0.8739199905394628  0.7709739759772987
  0.0922118048498746  0.7480983260626104  0.6075625861011744
  0.9032219635518146  0.8772190550074228  0.3582493789827907
  0.8171423209683581  0.7319671010209987  0.1147822377270060
  0.5153246069893740  0.8903723554690117  0.8250709335128832
  0.4592137511091181  0.7560514805432135  0.5804291853393337
 
  0.00000000E+00  0.00000000E+00  0.00000000E+00
  0.00000000E+00  0.00000000E+00  0.00000000E+00
  0.00000000E+00  0.00000000E+00  0.00000000E+00
  0.00000000E+00  0.00000000E+00  0.00000000E+00
  0.00000000E+00  0.00000000E+00  0.00000000E+00
  0.00000000E+00  0.00000000E+00  0.00000000E+00
  0.00000000E+00  0.00000000E+00  0.00000000E+00
  0.00000000E+00  0.00000000E+00  0.00000000E+00
  0.00000000E+00  0.00000000E+00  0.00000000E+00
  0.00000000E+00  0.00000000E+00  0.00000000E+00
  0.00000000E+00  0.00000000E+00  0.00000000E+00
  0.00000000E+00  0.00000000E+00  0.00000000E+00
  0.00000000E+00  0.00000000E+00  0.00000000E+00
  0.00000000E+00  0.00000000E+00  0.00000000E+00
  0.00000000E+00  0.00000000E+00  0.00000000E+00
  0.00000000E+00  0.00000000E+00  0.00000000E+00
  0.00000000E+00  0.00000000E+00  0.00000000E+00
  0.00000000E+00  0.00000000E+00  0.00000000E+00
  0.00000000E+00  0.00000000E+00  0.00000000E+00
  0.00000000E+00  0.00000000E+00  0.00000000E+00
  0.00000000E+00  0.00000000E+00  0.00000000E+00
  0.00000000E+00  0.00000000E+00  0.00000000E+00
  0.00000000E+00  0.00000000E+00  0.00000000E+00
  0.00000000E+00  0.00000000E+00  0.00000000E+00
  0.00000000E+00  0.00000000E+00  0.00000000E+00
  0.00000000E+00  0.00000000E+00  0.00000000E+00
  0.00000000E+00  0.00000000E+00  0.00000000E+00
  0.00000000E+00  0.00000000E+00  0.00000000E+00
  0.00000000E+00  0.00000000E+00  0.00000000E+00
  0.00000000E+00  0.00000000E+00  0.00000000E+00
  0.00000000E+00  0.00000000E+00  0.00000000E+00
  0.00000000E+00  0.00000000E+00  0.00000000E+00
  0.00000000E+00  0.00000000E+00  0.00000000E+00
  0.00000000E+00  0.00000000E+00  0.00000000E+00
  0.00000000E+00  0.00000000E+00  0.00000000E+00
  0.00000000E+00  0.00000000E+00  0.00000000E+00
  0.00000000E+00  0.00000000E+00  0.00000000E+00
  0.00000000E+00  0.00000000E+00  0.00000000E+00
  0.00000000E+00  0.00000000E+00  0.00000000E+00
  0.00000000E+00  0.00000000E+00  0.00000000E+00
  0.00000000E+00  0.00000000E+00  0.00000000E+00
  0.00000000E+00  0.00000000E+00  0.00000000E+00
  0.00000000E+00  0.00000000E+00  0.00000000E+00
  0.00000000E+00  0.00000000E+00  0.00000000E+00
  0.00000000E+00  0.00000000E+00  0.00000000E+00
  0.00000000E+00  0.00000000E+00  0.00000000E+00
  0.00000000E+00  0.00000000E+00  0.00000000E+00
  0.00000000E+00  0.00000000E+00  0.00000000E+00
  0.00000000E+00  0.00000000E+00  0.00000000E+00
  0.00000000E+00  0.00000000E+00  0.00000000E+00
  0.00000000E+00  0.00000000E+00  0.00000000E+00
  0.00000000E+00  0.00000000E+00  0.00000000E+00
  0.00000000E+00  0.00000000E+00  0.00000000E+00
  0.00000000E+00  0.00000000E+00  0.00000000E+00
  0.00000000E+00  0.00000000E+00  0.00000000E+00
  0.00000000E+00  0.00000000E+00  0.00000000E+00
  0.00000000E+00  0.00000000E+00  0.00000000E+00
  0.00000000E+00  0.00000000E+00  0.00000000E+00
  0.00000000E+00  0.00000000E+00  0.00000000E+00
  0.00000000E+00  0.00000000E+00  0.00000000E+00
  0.00000000E+00  0.00000000E+00  0.00000000E+00
  0.00000000E+00  0.00000000E+00  0.00000000E+00
  0.00000000E+00  0.00000000E+00  0.00000000E+00
  0.00000000E+00  0.00000000E+00  0.00000000E+00
  0.00000000E+00  0.00000000E+00  0.00000000E+00
  0.00000000E+00  0.00000000E+00  0.00000000E+00
  0.00000000E+00  0.00000000E+00  0.00000000E+00
  0.00000000E+00  0.00000000E+00  0.00000000E+00
  0.00000000E+00  0.00000000E+00  0.00000000E+00
  0.00000000E+00  0.00000000E+00  0.00000000E+00
  0.00000000E+00  0.00000000E+00  0.00000000E+00
  0.00000000E+00  0.00000000E+00  0.00000000E+00
