supercell of 100% icsd_608626.cif, 0% i 
   1.00000000000000     
   -10.0105798716591625   -0.0105401589281002    0.0167726194783644
    -4.9962247348337838    8.6280423383939784    0.0287883322283131
     0.0174847191307885   -0.0249903417267714  -10.4987397396032218
   Al   Zr   Sr   N 
    26     5     5    36
Direct
  0.1088027899126942  0.0991909878255228  0.3046810290648594
  0.2119739150785804  0.2150973414634336  0.0467551940346453
  0.7818115235036913  0.1031629683873660  0.7917292266730342
  0.8998657150695379  0.2024174847699314  0.5497915043958557
  0.5589546198216553  0.1955337160325570  0.0392810141312268
  0.0988651855221576  0.1102253491789753  0.7884244799677091
  0.2085398743691300  0.2143604736293767  0.5433545180362316
  0.7848274389285947  0.0897952509756337  0.2965705150372102
  0.0987204359362792  0.4227570759573496  0.2960369579841284
  0.2218993365943689  0.5246977901570062  0.0420492058643802
  0.7860386333204232  0.4216929619471514  0.7808964230631403
  0.9014982109915124  0.5251853851593182  0.5535002420832456
  0.0993586054407487  0.4258168030716263  0.7984384923138776
  0.2085299038792456  0.5361641392845726  0.5556284943280758
  0.7971018486092944  0.4204437848067286  0.2974851213067851
  0.8969636725517773  0.5423841583740270  0.0369855658692373
  0.4499409848986815  0.4245397760311747  0.7919351988101866
  0.2401450105644400  0.8909756081810229  0.0488606726265530
  0.7748596717465617  0.7523019005097780  0.7994610492982090
  0.8943938461727754  0.8698970208145482  0.5553496962141438
  0.4387776427301873  0.7662085083455423  0.2891561680420836
  0.5659040018174935  0.8642502937482703  0.0339041817644130
  0.2215848358839807  0.8869023796768118  0.5505862758732647
  0.8721242161985003  0.8778841648284015  0.0364001112655075
  0.4484613939502182  0.7623204053895520  0.7910329014879665
  0.5424298984501874  0.8787088357263215  0.5492447678466874
  0.4312916044410144  0.0846124948179039  0.2867293417942776
  0.5616504097951278  0.1949148476968361  0.5530183752768920
  0.4401595746569384  0.4244089341496320  0.2958697683801432
  0.1091493745086751  0.7676043448576593  0.2931444913956014
  0.1156402037519371  0.7636695940067995  0.8153928213739334
  0.8990021489024471  0.1979336879880549  0.0494334212308232
  0.4305022059126671  0.0948361694897812  0.8075706295649283
  0.5653988538712937  0.5390751350098668  0.0415424246068810
  0.5538191683758242  0.5528872875659658  0.5528798346697741
  0.7778402900193981  0.7469414879572014  0.2951575511640030
  0.2046377715799252  0.2157988342037527  0.3604561611060504
  0.1545385203605179  0.0836956187757067  0.1314630571489275
  0.8888093341736294  0.2057510248429750  0.8220395397879514
  0.7999919418375825  0.0824488954371603  0.6082273390833066
  0.5707636829061116  0.1894332796728833  0.3502793800166870
  0.4436328837574024  0.0936166508263909  0.0744223171702814
  0.1671098193618974  0.2317607194443383  0.8718395763248310
  0.1120800433472056  0.0981870799245286  0.6009144374550957
  0.8886091144459840  0.2008791332962119  0.3528867115987140
  0.7564645680953035  0.0708556198839574  0.1203934403683533
  0.5802071281708265  0.2234631909187357  0.8590413880462151
  0.4279238240409811  0.0968291326440607  0.5703899995731305
  0.2036503376891687  0.5357432454178834  0.3667032235031584
  0.1111409976153013  0.4336145486770064  0.1098110072441756
  0.8892929327011387  0.5381842562527197  0.8488068571674390
  0.8177056113625056  0.4064558614535940  0.6062744226726124
  0.5596913311649274  0.5438187494416624  0.3145185881329340
  0.4248696109493721  0.4023755957519128  0.1037567142422589
  0.2297072681955470  0.5188587401942115  0.8580695757981047
  0.1119063902847017  0.4256841142745174  0.6146714677690142
  0.9126671545137341  0.4972559808671448  0.3788495245352976
  0.8131767632246536  0.4480025582229743  0.1278342103652577
  0.5527353281830258  0.5401889458342524  0.8046171510746376
  0.4137707927386174  0.4188084687579092  0.6093936510791877
  0.2271842923523266  0.8776760485671389  0.3640356820689021
  0.1141035798134027  0.7637705023499493  0.0805936005463437
  0.8738038794047611  0.8854383145753957  0.8499575810989555
  0.7748435467353190  0.7639396081253338  0.6036227845170501
  0.5223350946636529  0.8723029786006080  0.3712970318126168
  0.4379624081642675  0.8001892246582685  0.1156676636798721
  0.2292265592713036  0.8917078095986071  0.8630297659311452
  0.1158779440151463  0.7586262692763768  0.6058597449472032
  0.8979934550781010  0.8935516772012733  0.3743722240587601
  0.7841747192404256  0.7591914841908647  0.0669797948092778
  0.5753049440475948  0.8278424262272353  0.8600606549039682
  0.4152793803356332  0.8142548638008407  0.6205860635222749
 
  0.00000000E+00  0.00000000E+00  0.00000000E+00
  0.00000000E+00  0.00000000E+00  0.00000000E+00
  0.00000000E+00  0.00000000E+00  0.00000000E+00
  0.00000000E+00  0.00000000E+00  0.00000000E+00
  0.00000000E+00  0.00000000E+00  0.00000000E+00
  0.00000000E+00  0.00000000E+00  0.00000000E+00
  0.00000000E+00  0.00000000E+00  0.00000000E+00
  0.00000000E+00  0.00000000E+00  0.00000000E+00
  0.00000000E+00  0.00000000E+00  0.00000000E+00
  0.00000000E+00  0.00000000E+00  0.00000000E+00
  0.00000000E+00  0.00000000E+00  0.00000000E+00
  0.00000000E+00  0.00000000E+00  0.00000000E+00
  0.00000000E+00  0.00000000E+00  0.00000000E+00
  0.00000000E+00  0.00000000E+00  0.00000000E+00
  0.00000000E+00  0.00000000E+00  0.00000000E+00
  0.00000000E+00  0.00000000E+00  0.00000000E+00
  0.00000000E+00  0.00000000E+00  0.00000000E+00
  0.00000000E+00  0.00000000E+00  0.00000000E+00
  0.00000000E+00  0.00000000E+00  0.00000000E+00
  0.00000000E+00  0.00000000E+00  0.00000000E+00
  0.00000000E+00  0.00000000E+00  0.00000000E+00
  0.00000000E+00  0.00000000E+00  0.00000000E+00
  0.00000000E+00  0.00000000E+00  0.00000000E+00
  0.00000000E+00  0.00000000E+00  0.00000000E+00
  0.00000000E+00  0.00000000E+00  0.00000000E+00
  0.00000000E+00  0.00000000E+00  0.00000000E+00
  0.00000000E+00  0.00000000E+00  0.00000000E+00
  0.00000000E+00  0.00000000E+00  0.00000000E+00
  0.00000000E+00  0.00000000E+00  0.00000000E+00
  0.00000000E+00  0.00000000E+00  0.00000000E+00
  0.00000000E+00  0.00000000E+00  0.00000000E+00
  0.00000000E+00  0.00000000E+00  0.00000000E+00
  0.00000000E+00  0.00000000E+00  0.00000000E+00
  0.00000000E+00  0.00000000E+00  0.00000000E+00
  0.00000000E+00  0.00000000E+00  0.00000000E+00
  0.00000000E+00  0.00000000E+00  0.00000000E+00
  0.00000000E+00  0.00000000E+00  0.00000000E+00
  0.00000000E+00  0.00000000E+00  0.00000000E+00
  0.00000000E+00  0.00000000E+00  0.00000000E+00
  0.00000000E+00  0.00000000E+00  0.00000000E+00
  0.00000000E+00  0.00000000E+00  0.00000000E+00
  0.00000000E+00  0.00000000E+00  0.00000000E+00
  0.00000000E+00  0.00000000E+00  0.00000000E+00
  0.00000000E+00  0.00000000E+00  0.00000000E+00
  0.00000000E+00  0.00000000E+00  0.00000000E+00
  0.00000000E+00  0.00000000E+00  0.00000000E+00
  0.00000000E+00  0.00000000E+00  0.00000000E+00
  0.00000000E+00  0.00000000E+00  0.00000000E+00
  0.00000000E+00  0.00000000E+00  0.00000000E+00
  0.00000000E+00  0.00000000E+00  0.00000000E+00
  0.00000000E+00  0.00000000E+00  0.00000000E+00
  0.00000000E+00  0.00000000E+00  0.00000000E+00
  0.00000000E+00  0.00000000E+00  0.00000000E+00
  0.00000000E+00  0.00000000E+00  0.00000000E+00
  0.00000000E+00  0.00000000E+00  0.00000000E+00
  0.00000000E+00  0.00000000E+00  0.00000000E+00
  0.00000000E+00  0.00000000E+00  0.00000000E+00
  0.00000000E+00  0.00000000E+00  0.00000000E+00
  0.00000000E+00  0.00000000E+00  0.00000000E+00
  0.00000000E+00  0.00000000E+00  0.00000000E+00
  0.00000000E+00  0.00000000E+00  0.00000000E+00
  0.00000000E+00  0.00000000E+00  0.00000000E+00
  0.00000000E+00  0.00000000E+00  0.00000000E+00
  0.00000000E+00  0.00000000E+00  0.00000000E+00
  0.00000000E+00  0.00000000E+00  0.00000000E+00
  0.00000000E+00  0.00000000E+00  0.00000000E+00
  0.00000000E+00  0.00000000E+00  0.00000000E+00
  0.00000000E+00  0.00000000E+00  0.00000000E+00
  0.00000000E+00  0.00000000E+00  0.00000000E+00
  0.00000000E+00  0.00000000E+00  0.00000000E+00
  0.00000000E+00  0.00000000E+00  0.00000000E+00
  0.00000000E+00  0.00000000E+00  0.00000000E+00
