supercell of 100% icsd_608626.cif, 0% i 
   1.00000000000000     
   -10.0487106957810504   -0.0804997778107873    0.0417944817137459
    -4.9547778643528844    8.6443737854019744    0.0010182261925808
     0.0462551923872667    0.0246358371982995  -10.3162030158662308
   Al   Zr   Sr   N 
    26     5     5    36
Direct
  0.1193051381738783  0.0979457103907393  0.2815375707638879
  0.2223083805471546  0.1911345693775885  0.0375616537813315
  0.7836379194904595  0.0896111914188467  0.7886668689800018
  0.8983261172055066  0.1997066102703755  0.5650381537279543
  0.4282277034803030  0.0870626201642324  0.3073034169899955
  0.1151871965400701  0.0925851564483580  0.8032294919193603
  0.2154723395110025  0.2090423065831715  0.5562052168280758
  0.8933958848565879  0.2044697040366472  0.0331224202299438
  0.4399612605844894  0.0833168110277001  0.7892106599760211
  0.5538126165570958  0.1980301476188870  0.5537956573104523
  0.1192776022591175  0.4102393143555929  0.2739941751151846
  0.7817766254990204  0.4260840221004685  0.7857674043032503
  0.4469090726243437  0.4240753925081435  0.2909290009836027
  0.5718736762893357  0.5365328515738170  0.0364481226613620
  0.1144002451909003  0.4195984033550957  0.7984249399487382
  0.5599607593045093  0.5357337067986734  0.5565337822972580
  0.2233315154336353  0.8797851901659257  0.0739959089215034
  0.7639622963164854  0.7798481832222990  0.8032753994712252
  0.8663658125123774  0.8880710492139343  0.5692889276135418
  0.4499408192619470  0.7576358786042050  0.2853565558255866
  0.5452556451517481  0.8744828274586354  0.0451697821345149
  0.0993777514584693  0.7752012417876770  0.7997720882396138
  0.7600100824129186  0.7771285368874459  0.2875670747574759
  0.8891586386706152  0.8830835290424588  0.0382093657505038
  0.4497544836117200  0.7636832087699474  0.8006763720213144
  0.5563791747087592  0.8725280659325989  0.5532917762124470
  0.5661714050150692  0.1782341783717527  0.0563549562937737
  0.7785777383803918  0.0898618740305466  0.3229394023575054
  0.2246910539898437  0.5404464846814321  0.0652796638370816
  0.8805653555003303  0.5490964856203107  0.0586651628754211
  0.4504903750820191  0.4228114647753927  0.8076078632183226
  0.8906716977435423  0.5633228110669322  0.5485957353398234
  0.2341703767344328  0.5353350385079594  0.5317640207083656
  0.7761038973128009  0.4221252881237305  0.3218155374532046
  0.1019615694251499  0.7672955370107317  0.3179057418852054
  0.2283952278658248  0.8837145299109537  0.5354207793572812
  0.2144731276370493  0.2086674355570111  0.3572563321086974
  0.0991289789512564  0.1079750443994527  0.0917553274256591
  0.8850245352554182  0.2037304451723685  0.8482465058288540
  0.7695374072398380  0.1038559672162265  0.6000752274392482
  0.5339438202377380  0.2121423244983589  0.3548115516337305
  0.4254341776549850  0.0824779755198222  0.1167308300031777
  0.2329532506722316  0.1970277845732156  0.8573465993024314
  0.0964908491110918  0.1282025461025285  0.6267210495578297
  0.9404901909698324  0.1501658068618568  0.3801121652031583
  0.7990720186356768  0.0891909649842972  0.1098940128126458
  0.5673765031045193  0.1769653336859704  0.8518096726072457
  0.4368942579860473  0.0925137201368784  0.6001265810709953
  0.2427474346299476  0.4974789267746118  0.2803742885246621
  0.1174893610030665  0.3997891305747459  0.0851774064740241
  0.8859069524734480  0.5455927019721329  0.8408358948686612
  0.7690385043664634  0.4108533871513984  0.5993599935624729
  0.5002278714079722  0.5628120405242569  0.3709446139750128
  0.4752130718920924  0.4183194091250400  0.0896496170412391
  0.2108965119556245  0.5471385554226060  0.8500381301693025
  0.1379087489595321  0.3980169101023350  0.6250421783017401
  0.9091745671781268  0.5638192894154841  0.2876748882978220
  0.7785994862653354  0.4143639753772845  0.0821469517086868
  0.5688654916314277  0.5445748316615138  0.8534268739178259
  0.4847962996936488  0.4008398875361721  0.6141895469591461
  0.2466203197600052  0.8914796246537406  0.2780652234947993
  0.0976946512137218  0.7778359837134516  0.0808800742623461
  0.8817321860727176  0.8828847756957501  0.8570822464820509
  0.7412473859630211  0.8178300578585791  0.6297810429224739
  0.5534827748210418  0.8645833198766795  0.3586642704174068
  0.4713938559072162  0.7406367366155493  0.0984741677123253
  0.2286822031204352  0.8716892651618977  0.8570021771782734
  0.0684126573815504  0.7858131746178216  0.6189740905512338
  0.8413065156001167  0.8765906726895949  0.3837219287340830
  0.7533494745715217  0.8081749557008351  0.1000746301803943
  0.5484866846843275  0.8783236141287674  0.8621992471781041
  0.4867404172900933  0.7387835037286408  0.6206140120020507
 
  0.00000000E+00  0.00000000E+00  0.00000000E+00
  0.00000000E+00  0.00000000E+00  0.00000000E+00
  0.00000000E+00  0.00000000E+00  0.00000000E+00
  0.00000000E+00  0.00000000E+00  0.00000000E+00
  0.00000000E+00  0.00000000E+00  0.00000000E+00
  0.00000000E+00  0.00000000E+00  0.00000000E+00
  0.00000000E+00  0.00000000E+00  0.00000000E+00
  0.00000000E+00  0.00000000E+00  0.00000000E+00
  0.00000000E+00  0.00000000E+00  0.00000000E+00
  0.00000000E+00  0.00000000E+00  0.00000000E+00
  0.00000000E+00  0.00000000E+00  0.00000000E+00
  0.00000000E+00  0.00000000E+00  0.00000000E+00
  0.00000000E+00  0.00000000E+00  0.00000000E+00
  0.00000000E+00  0.00000000E+00  0.00000000E+00
  0.00000000E+00  0.00000000E+00  0.00000000E+00
  0.00000000E+00  0.00000000E+00  0.00000000E+00
  0.00000000E+00  0.00000000E+00  0.00000000E+00
  0.00000000E+00  0.00000000E+00  0.00000000E+00
  0.00000000E+00  0.00000000E+00  0.00000000E+00
  0.00000000E+00  0.00000000E+00  0.00000000E+00
  0.00000000E+00  0.00000000E+00  0.00000000E+00
  0.00000000E+00  0.00000000E+00  0.00000000E+00
  0.00000000E+00  0.00000000E+00  0.00000000E+00
  0.00000000E+00  0.00000000E+00  0.00000000E+00
  0.00000000E+00  0.00000000E+00  0.00000000E+00
  0.00000000E+00  0.00000000E+00  0.00000000E+00
  0.00000000E+00  0.00000000E+00  0.00000000E+00
  0.00000000E+00  0.00000000E+00  0.00000000E+00
  0.00000000E+00  0.00000000E+00  0.00000000E+00
  0.00000000E+00  0.00000000E+00  0.00000000E+00
  0.00000000E+00  0.00000000E+00  0.00000000E+00
  0.00000000E+00  0.00000000E+00  0.00000000E+00
  0.00000000E+00  0.00000000E+00  0.00000000E+00
  0.00000000E+00  0.00000000E+00  0.00000000E+00
  0.00000000E+00  0.00000000E+00  0.00000000E+00
  0.00000000E+00  0.00000000E+00  0.00000000E+00
  0.00000000E+00  0.00000000E+00  0.00000000E+00
  0.00000000E+00  0.00000000E+00  0.00000000E+00
  0.00000000E+00  0.00000000E+00  0.00000000E+00
  0.00000000E+00  0.00000000E+00  0.00000000E+00
  0.00000000E+00  0.00000000E+00  0.00000000E+00
  0.00000000E+00  0.00000000E+00  0.00000000E+00
  0.00000000E+00  0.00000000E+00  0.00000000E+00
  0.00000000E+00  0.00000000E+00  0.00000000E+00
  0.00000000E+00  0.00000000E+00  0.00000000E+00
  0.00000000E+00  0.00000000E+00  0.00000000E+00
  0.00000000E+00  0.00000000E+00  0.00000000E+00
  0.00000000E+00  0.00000000E+00  0.00000000E+00
  0.00000000E+00  0.00000000E+00  0.00000000E+00
  0.00000000E+00  0.00000000E+00  0.00000000E+00
  0.00000000E+00  0.00000000E+00  0.00000000E+00
  0.00000000E+00  0.00000000E+00  0.00000000E+00
  0.00000000E+00  0.00000000E+00  0.00000000E+00
  0.00000000E+00  0.00000000E+00  0.00000000E+00
  0.00000000E+00  0.00000000E+00  0.00000000E+00
  0.00000000E+00  0.00000000E+00  0.00000000E+00
  0.00000000E+00  0.00000000E+00  0.00000000E+00
  0.00000000E+00  0.00000000E+00  0.00000000E+00
  0.00000000E+00  0.00000000E+00  0.00000000E+00
  0.00000000E+00  0.00000000E+00  0.00000000E+00
  0.00000000E+00  0.00000000E+00  0.00000000E+00
  0.00000000E+00  0.00000000E+00  0.00000000E+00
  0.00000000E+00  0.00000000E+00  0.00000000E+00
  0.00000000E+00  0.00000000E+00  0.00000000E+00
  0.00000000E+00  0.00000000E+00  0.00000000E+00
  0.00000000E+00  0.00000000E+00  0.00000000E+00
  0.00000000E+00  0.00000000E+00  0.00000000E+00
  0.00000000E+00  0.00000000E+00  0.00000000E+00
  0.00000000E+00  0.00000000E+00  0.00000000E+00
  0.00000000E+00  0.00000000E+00  0.00000000E+00
  0.00000000E+00  0.00000000E+00  0.00000000E+00
  0.00000000E+00  0.00000000E+00  0.00000000E+00
