generated by phonopy                    
   1.00000000000000     
    10.0351470768999995   -0.0000022330999784   -0.0000001056124209
    -5.0175765436399997    8.6906901959899994    0.0000001395531216
    -0.0000001735893656    0.0000001431815548   14.9533752540999991
   Pb   P    O 
    21    11    50
Direct
  0.9937423393813702  0.7608580055442857  0.1229163008678640
  0.9997554723335753  0.7628069703936120  0.6288199756999049
  0.9885085924749148  0.2515849774824233  0.3627661706298042
  0.9990590244488118  0.2620903469189955  0.8768200041529539
  0.2301114076526147  0.2203432058751815  0.1363553730558351
  0.2597553950582920  0.2440959715522339  0.6307034605484603
  0.7426673482807402  0.7521407463244714  0.3728339926519624
  0.7333640273566857  0.7415106990043014  0.8673629690002969
  0.7661176369993967  0.0036034865706753  0.1169853103320335
  0.7835210969493076  0.0238786532396205  0.6261672543972097
  0.2642036587240071  0.9915850439678380  0.3713495322498019
  0.2551679642764881  0.0000566783656524  0.8810076762231418
  0.6602105883001599  0.3429641681724647  0.0002700319236482
  0.6885679025721814  0.3341823352395465  0.4968527880010924
  0.3336676554214719  0.6552251870821664  0.0028842138412131
  0.3237242525051940  0.6502654875294382  0.5056851618961105
  0.3412781730545120  0.6819935001253725  0.2456537675454271
  0.3321878930192312  0.6830721969882916  0.7461254732658702
  0.6818857811951275  0.3303546725120796  0.2472217519488638
  0.6650683135938920  0.3244188244113317  0.7518195552990363
  0.3783139746670656  0.3776091871256426  0.3832379764815528
  0.6173052316658740  0.5919065371094021  0.1249397154385221
  0.6117903622606136  0.5964054976532438  0.6238023910721182
  0.3691403804205322  0.3948341546300469  0.8635429430702715
  0.4022699407243948  0.0240375339482242  0.1178065743189265
  0.4004938732955878  0.0324141544558429  0.6243685544985311
  0.6183517366945637  0.9802546323616070  0.3739069993813970
  0.6024559749705318  0.9767016669587960  0.8748344062257232
  0.9761790503589154  0.3757309008876035  0.1203640072256604
  0.9706289198014488  0.3863429933747113  0.6313714832421766
  0.0334923066830015  0.6228579790269961  0.3731577988481831
  0.0182207424068892  0.6309046836386258  0.8715252191039156
  0.5074574701664858  0.6598833664211554  0.1235402252302507
  0.5029643791414102  0.6647043499709326  0.6256347617275324
  0.5015861738427105  0.2661295127049144  0.3721607542343506
  0.4739472846524819  0.3221908374841078  0.8704289189478445
  0.3410807901224899  0.8475896540203323  0.1146371333251466
  0.3193771617766217  0.8533874410938580  0.6270172030811167
  0.6957343909191565  0.1598600728092521  0.3732338609940626
  0.6793130677409351  0.1554908679734410  0.8778788660945480
  0.1545548207515068  0.4816310421119923  0.1233684635516852
  0.1487184753911137  0.4878533345995493  0.6332979905624185
  0.8557804388331292  0.5147572002813448  0.3730362229964967
  0.8394879614647621  0.5265275452939875  0.8708072837792429
  0.7131136058917278  0.6297304070284113  0.0360342661322335
  0.6999589616497772  0.6252681676986640  0.5338194162017444
  0.2596992711257258  0.3628000309603507  0.5028777752627036
  0.2605778169692670  0.3550704454735580  0.9461808759512849
  0.3580749151729989  0.0831724343858582  0.0319314939440574
  0.3408861513751802  0.0889521127633657  0.5432832672559798
  0.6690406974424619  0.9249329195131608  0.4580068320400343
  0.6471023005828940  0.9108381367661949  0.9574341524113024
  0.9248139766356829  0.2601732787893241  0.0398467280901613
  0.9115012698555631  0.2809822547687446  0.5460134298940531
  0.0917167196066586  0.7248728828728659  0.4588509701972967
  0.0750343472631414  0.7445343675890754  0.9528192216835407
  0.2038248076538167  0.2688672251306343  0.2862166367479944
  0.2604272143137791  0.3369325579256071  0.7788774287521889
  0.7345438285380368  0.6590827961097503  0.2043808959503650
  0.7319719860733969  0.6626725156168760  0.7018287027847308
  0.6698304850928096  0.9246249384448433  0.2896829654493516
  0.6509145168551242  0.9196603593860715  0.7898047244884125
  0.3268814852011914  0.0616217826667054  0.1993225259905671
  0.3584190932586537  0.0974526600413270  0.7099293098355233
  0.0910868851422038  0.7313963675557744  0.2893680051522978
  0.0803073316122322  0.7334253593790407  0.7852630497219977
  0.9155664343556396  0.2738931061781287  0.2077206364148694
  0.9073546820991965  0.2757321503543793  0.7145316836307103
  0.5211175570701911  0.4107008559054677  0.1351833021189677
  0.5134166167572403  0.4132157981701141  0.6392321788516853
  0.4823181305760471  0.6135183815404659  0.3645435120531459
  0.4713978944405284  0.5762409155990582  0.8588335010052504
  0.5817884858732540  0.1173709067006001  0.1275392853957342
  0.5795812789222055  0.1085802644638534  0.6202828218443130
  0.4374621539142822  0.9041223787971546  0.3713340904283626
  0.4210126503447782  0.9011396305538568  0.8733506085048504
  0.8918697108190514  0.4707735132621025  0.1122772013975535
  0.8920908888668109  0.4880634133932702  0.6324246542427332
  0.1142633292963140  0.5205673795727819  0.3693412773573783
  0.0961755057895957  0.5274899725600193  0.8769970988799045
  0.0050548763995053  0.0105674855108404  0.1154078785716166
  0.0390801724900740  0.0592766408568508  0.6386166208516713
 
  0.00000000E+00  0.00000000E+00  0.00000000E+00
  0.00000000E+00  0.00000000E+00  0.00000000E+00
  0.00000000E+00  0.00000000E+00  0.00000000E+00
  0.00000000E+00  0.00000000E+00  0.00000000E+00
  0.00000000E+00  0.00000000E+00  0.00000000E+00
  0.00000000E+00  0.00000000E+00  0.00000000E+00
  0.00000000E+00  0.00000000E+00  0.00000000E+00
  0.00000000E+00  0.00000000E+00  0.00000000E+00
  0.00000000E+00  0.00000000E+00  0.00000000E+00
  0.00000000E+00  0.00000000E+00  0.00000000E+00
  0.00000000E+00  0.00000000E+00  0.00000000E+00
  0.00000000E+00  0.00000000E+00  0.00000000E+00
  0.00000000E+00  0.00000000E+00  0.00000000E+00
  0.00000000E+00  0.00000000E+00  0.00000000E+00
  0.00000000E+00  0.00000000E+00  0.00000000E+00
  0.00000000E+00  0.00000000E+00  0.00000000E+00
  0.00000000E+00  0.00000000E+00  0.00000000E+00
  0.00000000E+00  0.00000000E+00  0.00000000E+00
  0.00000000E+00  0.00000000E+00  0.00000000E+00
  0.00000000E+00  0.00000000E+00  0.00000000E+00
  0.00000000E+00  0.00000000E+00  0.00000000E+00
  0.00000000E+00  0.00000000E+00  0.00000000E+00
  0.00000000E+00  0.00000000E+00  0.00000000E+00
  0.00000000E+00  0.00000000E+00  0.00000000E+00
  0.00000000E+00  0.00000000E+00  0.00000000E+00
  0.00000000E+00  0.00000000E+00  0.00000000E+00
  0.00000000E+00  0.00000000E+00  0.00000000E+00
  0.00000000E+00  0.00000000E+00  0.00000000E+00
  0.00000000E+00  0.00000000E+00  0.00000000E+00
  0.00000000E+00  0.00000000E+00  0.00000000E+00
  0.00000000E+00  0.00000000E+00  0.00000000E+00
  0.00000000E+00  0.00000000E+00  0.00000000E+00
  0.00000000E+00  0.00000000E+00  0.00000000E+00
  0.00000000E+00  0.00000000E+00  0.00000000E+00
  0.00000000E+00  0.00000000E+00  0.00000000E+00
  0.00000000E+00  0.00000000E+00  0.00000000E+00
  0.00000000E+00  0.00000000E+00  0.00000000E+00
  0.00000000E+00  0.00000000E+00  0.00000000E+00
  0.00000000E+00  0.00000000E+00  0.00000000E+00
  0.00000000E+00  0.00000000E+00  0.00000000E+00
  0.00000000E+00  0.00000000E+00  0.00000000E+00
  0.00000000E+00  0.00000000E+00  0.00000000E+00
  0.00000000E+00  0.00000000E+00  0.00000000E+00
  0.00000000E+00  0.00000000E+00  0.00000000E+00
  0.00000000E+00  0.00000000E+00  0.00000000E+00
  0.00000000E+00  0.00000000E+00  0.00000000E+00
  0.00000000E+00  0.00000000E+00  0.00000000E+00
  0.00000000E+00  0.00000000E+00  0.00000000E+00
  0.00000000E+00  0.00000000E+00  0.00000000E+00
  0.00000000E+00  0.00000000E+00  0.00000000E+00
  0.00000000E+00  0.00000000E+00  0.00000000E+00
  0.00000000E+00  0.00000000E+00  0.00000000E+00
  0.00000000E+00  0.00000000E+00  0.00000000E+00
  0.00000000E+00  0.00000000E+00  0.00000000E+00
  0.00000000E+00  0.00000000E+00  0.00000000E+00
  0.00000000E+00  0.00000000E+00  0.00000000E+00
  0.00000000E+00  0.00000000E+00  0.00000000E+00
  0.00000000E+00  0.00000000E+00  0.00000000E+00
  0.00000000E+00  0.00000000E+00  0.00000000E+00
  0.00000000E+00  0.00000000E+00  0.00000000E+00
  0.00000000E+00  0.00000000E+00  0.00000000E+00
  0.00000000E+00  0.00000000E+00  0.00000000E+00
  0.00000000E+00  0.00000000E+00  0.00000000E+00
  0.00000000E+00  0.00000000E+00  0.00000000E+00
  0.00000000E+00  0.00000000E+00  0.00000000E+00
  0.00000000E+00  0.00000000E+00  0.00000000E+00
  0.00000000E+00  0.00000000E+00  0.00000000E+00
  0.00000000E+00  0.00000000E+00  0.00000000E+00
  0.00000000E+00  0.00000000E+00  0.00000000E+00
  0.00000000E+00  0.00000000E+00  0.00000000E+00
  0.00000000E+00  0.00000000E+00  0.00000000E+00
  0.00000000E+00  0.00000000E+00  0.00000000E+00
  0.00000000E+00  0.00000000E+00  0.00000000E+00
  0.00000000E+00  0.00000000E+00  0.00000000E+00
  0.00000000E+00  0.00000000E+00  0.00000000E+00
  0.00000000E+00  0.00000000E+00  0.00000000E+00
  0.00000000E+00  0.00000000E+00  0.00000000E+00
  0.00000000E+00  0.00000000E+00  0.00000000E+00
  0.00000000E+00  0.00000000E+00  0.00000000E+00
  0.00000000E+00  0.00000000E+00  0.00000000E+00
  0.00000000E+00  0.00000000E+00  0.00000000E+00
  0.00000000E+00  0.00000000E+00  0.00000000E+00
