supercell of 100% icsd_608626.cif, 0% i 
   1.00000000000000     
    -9.8463849766901212    0.0072496715769337   -0.0756141625531263
    -4.9298996610521106    8.4950053660873497    0.0800919456364760
    -0.0802001153807723   -0.1440307687692669  -10.3790508966305399
   Sr   Al   Ti   N 
     5    26     5    36
Direct
  0.1392031275633840  0.0620878478965494  0.2628081944471461
  0.5701889823873003  0.5401145092776503  0.0597490038493831
  0.2413655005605619  0.8268443975331863  0.0037468408787049
  0.7853476273371101  0.7595301100426113  0.7875819637525723
  0.5569784024205404  0.8692462729888177  0.0539407257232654
  0.2256780371539904  0.2129737074354807  0.0304269267180928
  0.8945491907534660  0.2075573087267912  0.5522166212703041
  0.4352238366571228  0.1079447032610048  0.2964896515079900
  0.5385957504354835  0.2171514955257479  0.0525661582734642
  0.1139385751814999  0.1006120575236764  0.8095471470852047
  0.2136568372563303  0.2126820765011672  0.5451414596786890
  0.8973631355902327  0.2067677372842525  0.0321055200656417
  0.4396733028818502  0.1016711378500830  0.7846304767041801
  0.1220685429558728  0.4181311265810308  0.2960152575855659
  0.2176835220477571  0.5337685980349818  0.0640445963300351
  0.7683763660216343  0.4342501473315181  0.7864510812524230
  0.8900589269789236  0.5334777296672399  0.5368509300238316
  0.4356855362191610  0.4341919603481443  0.3003047817818043
  0.2112870962068811  0.5426894853002793  0.5435431308757188
  0.7861901452545936  0.4141611303779342  0.3052537103324795
  0.9111863722320592  0.5135378634637249  0.0649799730270075
  0.4370315934499800  0.4438080898019834  0.7941320679115265
  0.5607491719069984  0.5372169539641973  0.5446300584752066
  0.1241020513388591  0.7465499168554288  0.3086121779053173
  0.8897904963925143  0.8699044722859881  0.5366929525688136
  0.4343854661466295  0.7519721620774220  0.3342361905065374
  0.1080159959563574  0.7654976588354643  0.7821832020055126
  0.2129246190735898  0.8767927564514153  0.5741173533777939
  0.9038930928884454  0.8598906846895460  0.0658961712538186
  0.4427197985767251  0.7693814430179984  0.7560087925443426
  0.5540326038885084  0.8786826981327138  0.5350883465983287
  0.7771706121494191  0.0980366280535492  0.8076865403852835
  0.7737332304228772  0.0991509409794702  0.2980035182159568
  0.5522857126945553  0.2120969568892406  0.5498077086843125
  0.1086172005082560  0.4351801469799810  0.8017002817182899
  0.7830198000178470  0.7528230719810054  0.3161738550637807
  0.2339737567238700  0.2204602232280095  0.3681979965894655
  0.1126100107150307  0.1067125948435290  0.0122391131821615
  0.8672835111347794  0.2240971957453795  0.8453606272256735
  0.7809241653866437  0.0889262837092275  0.6109953911515760
  0.5490513693127639  0.2121350331472911  0.3607095436080670
  0.4201172143577026  0.1323370754870368  0.1152593889530635
  0.2306294882785949  0.2196446874988709  0.8406128462939790
  0.1030245782224668  0.1131903688133988  0.6080333865930996
  0.8637543509161674  0.2094868875280227  0.3723919887736571
  0.7747100068321231  0.0995272380941046  0.1043223221240552
  0.5449991708199491  0.2176806689438422  0.8549581724950386
  0.4403089247623697  0.1043131093495191  0.5975581179369343
  0.2198556303910735  0.5322202055321341  0.3618081917530986
  0.1207771105838020  0.4172852920848271  0.1073819223610073
  0.9006860365290379  0.4994874732956518  0.8747568952153486
  0.7793667136557332  0.4305362703804718  0.6016578981730945
  0.5645208289230155  0.5228212792589844  0.3591500091429509
  0.4254569298109416  0.4208415887211032  0.1196680842272215
  0.2201893390702239  0.5546380936735034  0.8633088623605758
  0.1014402732386159  0.4358904699649386  0.6094930167960584
  0.9017763081296906  0.5172894313483667  0.3562307218660195
  0.8314715306734328  0.3893561829657486  0.1297683038682109
  0.5454723101058647  0.5563188474547047  0.8176567482426051
  0.4326217303870479  0.4365481884088709  0.6046077866372812
  0.2249952275844009  0.8351381432754224  0.3965772992647416
  0.1018737860534316  0.7406248798400696  0.1313194994869917
  0.9168287869381473  0.8922988500565694  0.8814363308685458
  0.7769259819134220  0.7603375006521915  0.5517664754645750
  0.5526413201753684  0.8896423791878689  0.3513397965782161
  0.4106417273898231  0.7856414639377434  0.1646599544839802
  0.2206076221447120  0.8723222071838705  0.7702608316012132
  0.0875658437075870  0.7525032664260536  0.6061051245608624
  0.8938064658859872  0.8784443926745311  0.3544815575637017
  0.8207215239051351  0.7296725383036033  0.1278480127212660
  0.5135084171135915  0.8965422479891174  0.8203857529063256
  0.4580917487201788  0.7587114570481930  0.5743286605509965
 
  0.00000000E+00  0.00000000E+00  0.00000000E+00
  0.00000000E+00  0.00000000E+00  0.00000000E+00
  0.00000000E+00  0.00000000E+00  0.00000000E+00
  0.00000000E+00  0.00000000E+00  0.00000000E+00
  0.00000000E+00  0.00000000E+00  0.00000000E+00
  0.00000000E+00  0.00000000E+00  0.00000000E+00
  0.00000000E+00  0.00000000E+00  0.00000000E+00
  0.00000000E+00  0.00000000E+00  0.00000000E+00
  0.00000000E+00  0.00000000E+00  0.00000000E+00
  0.00000000E+00  0.00000000E+00  0.00000000E+00
  0.00000000E+00  0.00000000E+00  0.00000000E+00
  0.00000000E+00  0.00000000E+00  0.00000000E+00
  0.00000000E+00  0.00000000E+00  0.00000000E+00
  0.00000000E+00  0.00000000E+00  0.00000000E+00
  0.00000000E+00  0.00000000E+00  0.00000000E+00
  0.00000000E+00  0.00000000E+00  0.00000000E+00
  0.00000000E+00  0.00000000E+00  0.00000000E+00
  0.00000000E+00  0.00000000E+00  0.00000000E+00
  0.00000000E+00  0.00000000E+00  0.00000000E+00
  0.00000000E+00  0.00000000E+00  0.00000000E+00
  0.00000000E+00  0.00000000E+00  0.00000000E+00
  0.00000000E+00  0.00000000E+00  0.00000000E+00
  0.00000000E+00  0.00000000E+00  0.00000000E+00
  0.00000000E+00  0.00000000E+00  0.00000000E+00
  0.00000000E+00  0.00000000E+00  0.00000000E+00
  0.00000000E+00  0.00000000E+00  0.00000000E+00
  0.00000000E+00  0.00000000E+00  0.00000000E+00
  0.00000000E+00  0.00000000E+00  0.00000000E+00
  0.00000000E+00  0.00000000E+00  0.00000000E+00
  0.00000000E+00  0.00000000E+00  0.00000000E+00
  0.00000000E+00  0.00000000E+00  0.00000000E+00
  0.00000000E+00  0.00000000E+00  0.00000000E+00
  0.00000000E+00  0.00000000E+00  0.00000000E+00
  0.00000000E+00  0.00000000E+00  0.00000000E+00
  0.00000000E+00  0.00000000E+00  0.00000000E+00
  0.00000000E+00  0.00000000E+00  0.00000000E+00
  0.00000000E+00  0.00000000E+00  0.00000000E+00
  0.00000000E+00  0.00000000E+00  0.00000000E+00
  0.00000000E+00  0.00000000E+00  0.00000000E+00
  0.00000000E+00  0.00000000E+00  0.00000000E+00
  0.00000000E+00  0.00000000E+00  0.00000000E+00
  0.00000000E+00  0.00000000E+00  0.00000000E+00
  0.00000000E+00  0.00000000E+00  0.00000000E+00
  0.00000000E+00  0.00000000E+00  0.00000000E+00
  0.00000000E+00  0.00000000E+00  0.00000000E+00
  0.00000000E+00  0.00000000E+00  0.00000000E+00
  0.00000000E+00  0.00000000E+00  0.00000000E+00
  0.00000000E+00  0.00000000E+00  0.00000000E+00
  0.00000000E+00  0.00000000E+00  0.00000000E+00
  0.00000000E+00  0.00000000E+00  0.00000000E+00
  0.00000000E+00  0.00000000E+00  0.00000000E+00
  0.00000000E+00  0.00000000E+00  0.00000000E+00
  0.00000000E+00  0.00000000E+00  0.00000000E+00
  0.00000000E+00  0.00000000E+00  0.00000000E+00
  0.00000000E+00  0.00000000E+00  0.00000000E+00
  0.00000000E+00  0.00000000E+00  0.00000000E+00
  0.00000000E+00  0.00000000E+00  0.00000000E+00
  0.00000000E+00  0.00000000E+00  0.00000000E+00
  0.00000000E+00  0.00000000E+00  0.00000000E+00
  0.00000000E+00  0.00000000E+00  0.00000000E+00
  0.00000000E+00  0.00000000E+00  0.00000000E+00
  0.00000000E+00  0.00000000E+00  0.00000000E+00
  0.00000000E+00  0.00000000E+00  0.00000000E+00
  0.00000000E+00  0.00000000E+00  0.00000000E+00
  0.00000000E+00  0.00000000E+00  0.00000000E+00
  0.00000000E+00  0.00000000E+00  0.00000000E+00
  0.00000000E+00  0.00000000E+00  0.00000000E+00
  0.00000000E+00  0.00000000E+00  0.00000000E+00
  0.00000000E+00  0.00000000E+00  0.00000000E+00
  0.00000000E+00  0.00000000E+00  0.00000000E+00
  0.00000000E+00  0.00000000E+00  0.00000000E+00
  0.00000000E+00  0.00000000E+00  0.00000000E+00
