supercell of 100% icsd_608626.cif, 0% i 
   1.00000000000000     
    -9.9983058182216844   -0.0518133377687492    0.0921699158289827
    -4.9545186672961687    8.3913013421805189    0.1450072997274698
     0.0973263362564403   -0.1201064057258733  -10.3559669284840989
   Al   Ti   Sr   N 
    26     5     5    36
Direct
  0.1214322545509177  0.0945306439800291  0.3039070875134939
  0.8829575106271790  0.2089676945736869  0.5218396532960980
  0.4417703430579891  0.0954654628480895  0.2966187191186620
  0.5422018497388024  0.2049314593100746  0.0505849922743096
  0.2319358079008751  0.2127299756751668  0.5453523055039895
  0.7589186226949707  0.0999263041196627  0.3160540457603531
  0.4419035798991544  0.0981656928686689  0.7960890775808807
  0.5457368751585321  0.2125449738227303  0.5282598044604896
  0.2272764311123225  0.5382414585072297  0.0475458270858269
  0.7817887152698262  0.4175709506445315  0.7922805610813768
  0.4400837786877290  0.4313906218306158  0.2958746319909835
  0.1196304807236714  0.4259449751322535  0.7974011450230734
  0.2458639532824094  0.5332591371503739  0.5525572915063179
  0.7760188798927672  0.4318395220061717  0.2895636499890912
  0.8790405869935611  0.5446407937990756  0.0401942458063758
  0.4354942250650353  0.4177061391218899  0.7994835015113395
  0.5552563133137127  0.5273005977126033  0.5481191728615258
  0.1221870332720130  0.7633722845443316  0.2757930566770099
  0.2452998713228141  0.8663442012687810  0.0560281017847188
  0.7630068185188037  0.7717699161194531  0.8215337675654197
  0.4515844106897688  0.7603578132907813  0.3039980361690979
  0.5489663448618316  0.8732660072284517  0.0502131987884908
  0.2401351655029416  0.8657606311470261  0.5349421826570122
  0.7687682382427212  0.7601272158544390  0.2804272879987693
  0.8500530226248770  0.8813562911447335  0.0856186604497111
  0.5567168875275570  0.8847959912520480  0.5549824810969710
  0.2262372317187058  0.2035674511150205  0.0469518010867489
  0.1226703569376539  0.0945447071770857  0.7780839116187934
  0.1071193315286649  0.4377300092080958  0.2984913290974447
  0.5530679006745771  0.5363896031442437  0.0523139071382914
  0.4503044104703591  0.7587084780935669  0.7943017991644510
  0.7611560584764092  0.0836124056971528  0.7569463670518886
  0.8955167501641412  0.1699653839886039  0.0536312679157263
  0.8760253239580607  0.5453928797414278  0.5676579060730234
  0.9194888118649374  0.8306863255694452  0.5151094921821908
  0.0949840059388762  0.7727424570361876  0.8226516182717134
  0.2253471196968704  0.2099001816400232  0.3559522431581001
  0.1576549431643244  0.0765815903203944  0.1212971945655852
  0.9202824006372694  0.2036790484303879  0.8275414480752090
  0.7646597232835433  0.1104721770726940  0.5120051844604134
  0.5231543296140515  0.2224918188079101  0.3494847768734175
  0.4383703107559143  0.0924752017344943  0.1090977922259597
  0.2249088918593642  0.2069451222676193  0.8512794202510108
  0.1172675365871640  0.0993880387116590  0.5819299025596436
  0.9003761131426842  0.2134949654573575  0.3346416356872695
  0.7263787571211111  0.0965807047464793  0.1354524855210357
  0.5241783711698176  0.2158598716839464  0.8695614161396108
  0.4416840531364059  0.1032009929139477  0.6057966534471291
  0.2227037325675880  0.5479690358181557  0.3519798896402762
  0.1026684113349461  0.4384770546757579  0.1050432658694547
  0.8880426249112361  0.5335866490126975  0.8501644117996818
  0.7551796146189886  0.4018243941740138  0.6140567993156267
  0.5578231176402113  0.5364818037710677  0.3561263263176855
  0.4379578939635209  0.4288850057505940  0.1113882729838522
  0.2374687949300878  0.5050231513156760  0.8709903123706582
  0.1484623509068612  0.4214553929232778  0.6133766878299554
  0.8862995938760960  0.5442449175196558  0.3317379754150451
  0.7612740684200503  0.4536487078800064  0.1055329248337955
  0.5588255455416729  0.5280544448221747  0.8584427214558445
  0.4539048518000826  0.4186044117149663  0.6100578051845602
  0.2321623445601730  0.8716902811367149  0.3488300027668174
  0.1395064517043920  0.7578816771478714  0.0942592334977945
  0.8482742934659129  0.8749377181127471  0.9078187192644975
  0.7379713436720010  0.8119348623841915  0.6473270941120219
  0.5600028821603829  0.8747790710431076  0.3600575367702987
  0.4526204956074196  0.7600214161228322  0.1144510759320454
  0.2516231317567872  0.8907588921942562  0.8711097401119048
  0.1706855343836153  0.7425588403722969  0.5980195038589216
  0.9004076177414362  0.8543028378392847  0.2852913141336018
  0.7540900097117174  0.7537788453870178  0.1028967390459599
  0.5414016608737171  0.8789221605823130  0.8659056892657091
  0.4557829014174430  0.7634622587887065  0.5996939201078888
 
  0.00000000E+00  0.00000000E+00  0.00000000E+00
  0.00000000E+00  0.00000000E+00  0.00000000E+00
  0.00000000E+00  0.00000000E+00  0.00000000E+00
  0.00000000E+00  0.00000000E+00  0.00000000E+00
  0.00000000E+00  0.00000000E+00  0.00000000E+00
  0.00000000E+00  0.00000000E+00  0.00000000E+00
  0.00000000E+00  0.00000000E+00  0.00000000E+00
  0.00000000E+00  0.00000000E+00  0.00000000E+00
  0.00000000E+00  0.00000000E+00  0.00000000E+00
  0.00000000E+00  0.00000000E+00  0.00000000E+00
  0.00000000E+00  0.00000000E+00  0.00000000E+00
  0.00000000E+00  0.00000000E+00  0.00000000E+00
  0.00000000E+00  0.00000000E+00  0.00000000E+00
  0.00000000E+00  0.00000000E+00  0.00000000E+00
  0.00000000E+00  0.00000000E+00  0.00000000E+00
  0.00000000E+00  0.00000000E+00  0.00000000E+00
  0.00000000E+00  0.00000000E+00  0.00000000E+00
  0.00000000E+00  0.00000000E+00  0.00000000E+00
  0.00000000E+00  0.00000000E+00  0.00000000E+00
  0.00000000E+00  0.00000000E+00  0.00000000E+00
  0.00000000E+00  0.00000000E+00  0.00000000E+00
  0.00000000E+00  0.00000000E+00  0.00000000E+00
  0.00000000E+00  0.00000000E+00  0.00000000E+00
  0.00000000E+00  0.00000000E+00  0.00000000E+00
  0.00000000E+00  0.00000000E+00  0.00000000E+00
  0.00000000E+00  0.00000000E+00  0.00000000E+00
  0.00000000E+00  0.00000000E+00  0.00000000E+00
  0.00000000E+00  0.00000000E+00  0.00000000E+00
  0.00000000E+00  0.00000000E+00  0.00000000E+00
  0.00000000E+00  0.00000000E+00  0.00000000E+00
  0.00000000E+00  0.00000000E+00  0.00000000E+00
  0.00000000E+00  0.00000000E+00  0.00000000E+00
  0.00000000E+00  0.00000000E+00  0.00000000E+00
  0.00000000E+00  0.00000000E+00  0.00000000E+00
  0.00000000E+00  0.00000000E+00  0.00000000E+00
  0.00000000E+00  0.00000000E+00  0.00000000E+00
  0.00000000E+00  0.00000000E+00  0.00000000E+00
  0.00000000E+00  0.00000000E+00  0.00000000E+00
  0.00000000E+00  0.00000000E+00  0.00000000E+00
  0.00000000E+00  0.00000000E+00  0.00000000E+00
  0.00000000E+00  0.00000000E+00  0.00000000E+00
  0.00000000E+00  0.00000000E+00  0.00000000E+00
  0.00000000E+00  0.00000000E+00  0.00000000E+00
  0.00000000E+00  0.00000000E+00  0.00000000E+00
  0.00000000E+00  0.00000000E+00  0.00000000E+00
  0.00000000E+00  0.00000000E+00  0.00000000E+00
  0.00000000E+00  0.00000000E+00  0.00000000E+00
  0.00000000E+00  0.00000000E+00  0.00000000E+00
  0.00000000E+00  0.00000000E+00  0.00000000E+00
  0.00000000E+00  0.00000000E+00  0.00000000E+00
  0.00000000E+00  0.00000000E+00  0.00000000E+00
  0.00000000E+00  0.00000000E+00  0.00000000E+00
  0.00000000E+00  0.00000000E+00  0.00000000E+00
  0.00000000E+00  0.00000000E+00  0.00000000E+00
  0.00000000E+00  0.00000000E+00  0.00000000E+00
  0.00000000E+00  0.00000000E+00  0.00000000E+00
  0.00000000E+00  0.00000000E+00  0.00000000E+00
  0.00000000E+00  0.00000000E+00  0.00000000E+00
  0.00000000E+00  0.00000000E+00  0.00000000E+00
  0.00000000E+00  0.00000000E+00  0.00000000E+00
  0.00000000E+00  0.00000000E+00  0.00000000E+00
  0.00000000E+00  0.00000000E+00  0.00000000E+00
  0.00000000E+00  0.00000000E+00  0.00000000E+00
  0.00000000E+00  0.00000000E+00  0.00000000E+00
  0.00000000E+00  0.00000000E+00  0.00000000E+00
  0.00000000E+00  0.00000000E+00  0.00000000E+00
  0.00000000E+00  0.00000000E+00  0.00000000E+00
  0.00000000E+00  0.00000000E+00  0.00000000E+00
  0.00000000E+00  0.00000000E+00  0.00000000E+00
  0.00000000E+00  0.00000000E+00  0.00000000E+00
  0.00000000E+00  0.00000000E+00  0.00000000E+00
  0.00000000E+00  0.00000000E+00  0.00000000E+00
