supercell of 100% icsd_608626.cif, 0% i 
   1.00000000000000     
    -9.8814528525321865    0.0270562109284240    0.0075772977421573
    -4.9641754872553809    8.4911685374595560    0.0097705385683959
     0.0079413657553899   -0.0072672712289435  -10.4313861968897115
   Al   Ti   Sr   N 
    26     5     5    36
Direct
  0.1097833918951139  0.0946218864876158  0.2986578528504538
  0.2159305938216676  0.2058274813640040  0.0524114939617135
  0.7787071072422762  0.1043194580844187  0.7901361577384449
  0.8952976329459759  0.2073693264730991  0.5508404568142851
  0.5576233523853134  0.1908960850259547  0.0555488611006467
  0.1023501511422040  0.1055462872550734  0.7872306724145020
  0.2081961249522450  0.2152217923620370  0.5366011032231626
  0.7911394184667770  0.0905673587539368  0.3009377589429292
  0.1075718260178604  0.4223753536956210  0.2929659482736966
  0.2177109966526061  0.5324129157969253  0.0485165008376072
  0.7823021607939395  0.4277809659220466  0.7745808756758663
  0.8965681204223657  0.5363086606313416  0.5482582690649949
  0.1007740804650510  0.4250207622007593  0.7992812089176198
  0.2148379634620738  0.5300194256731317  0.5558557001434536
  0.7975472642898751  0.4208575637806007  0.3008337527777414
  0.9020234066706792  0.5326525666351074  0.0393423154436761
  0.4518180169273123  0.4227416741615926  0.7965504530849756
  0.2264121126776359  0.8829843838309941  0.0488839229993729
  0.7758169257509877  0.7552036543372864  0.8543625957473253
  0.8911258868410457  0.8690141809556025  0.5527060889763717
  0.4341313062287639  0.7661612537133067  0.2834115626552531
  0.5474639240698451  0.8738279089843886  0.0417213865847330
  0.2223226565784131  0.8872127692466591  0.5493632527639392
  0.8881847604496187  0.8747082249767217  0.0431517812673619
  0.4448885529037554  0.7656037580427935  0.7893779265090757
  0.5535247888395034  0.8751148956083625  0.5387624617873783
  0.4362635873544249  0.0924671091520040  0.3055752143382051
  0.5584206277867594  0.1987659573740146  0.5396374915159754
  0.4420125819840166  0.4253019072119173  0.2937887577741094
  0.1183247374705516  0.7624002427071019  0.3022339909881353
  0.1147214115850588  0.7613385388938454  0.8027530271824830
  0.8839274345903334  0.2059679640421521  0.0409978949320688
  0.4391150216633335  0.1025097230479801  0.7890816948773463
  0.5616920283375464  0.5320357635548234  0.0402293391660109
  0.5426248597156587  0.5511701121592694  0.5506858196867981
  0.7826164867892444  0.7540921679066983  0.2852562355256865
  0.2132634843008745  0.2085218381295277  0.3519627250271427
  0.1393652298142314  0.0814441437905273  0.1230857343447411
  0.8877355547152632  0.2079903539563759  0.8112231196031772
  0.7811189284896827  0.0891624431867797  0.6036147704086048
  0.5688964668422187  0.2014129100106530  0.3512207923096824
  0.4412882771049738  0.0918377864093642  0.1035822043455781
  0.1791623616245701  0.2229181835525296  0.8722411820664675
  0.1124336397218073  0.0998174321838476  0.5988389406833647
  0.8915737008738560  0.2018607854840155  0.3568982678957440
  0.7611119849501833  0.0645482249439695  0.1284124687667330
  0.5829820160819921  0.2246324725755429  0.8783914793569210
  0.4371693451151231  0.1008048916699664  0.5504087389676400
  0.2170457054907118  0.5353015084764579  0.3658726908006216
  0.1124388834188110  0.4308743712820586  0.1082412983158676
  0.8892221524681858  0.5324682474037630  0.8517910437354814
  0.8106219420378480  0.4165961295566234  0.5989383121533010
  0.5528042240751390  0.5388631385785345  0.3136853567610984
  0.4204501278488166  0.4031509405245473  0.1178379005542922
  0.2237699691031665  0.5331006081595007  0.8605997250209469
  0.1125350572539006  0.4246097012415504  0.6139936911669821
  0.9185105526498702  0.4991565624863057  0.3735409771170524
  0.8066404719754487  0.4524301397290600  0.1309202033633738
  0.5520597948075903  0.5418073065428075  0.8021791502693532
  0.4218302237269569  0.3977608613089956  0.6170142154726790
  0.2258458705742754  0.8716702913998517  0.3626263111383352
  0.1131675085605224  0.7616068066572694  0.1038598504380914
  0.8897619399503967  0.8812362499309359  0.8522463004072875
  0.7753040604865973  0.7652405958805133  0.5782313448277137
  0.5171447860420315  0.8817938801550085  0.3570812765791516
  0.4285710033890879  0.7932281555732672  0.1093910387361561
  0.2181764695316062  0.8796560366768134  0.8577945409537620
  0.1198688624034858  0.7565255561266966  0.6109170356632703
  0.9185734152938920  0.8859115591117188  0.3720819228475989
  0.7849894787982592  0.7601786403561590  0.0480869899065937
  0.5610629511600607  0.8419835483699103  0.8658315325407173
  0.4197322591487378  0.8194776185294117  0.6168270409110050
 
  0.00000000E+00  0.00000000E+00  0.00000000E+00
  0.00000000E+00  0.00000000E+00  0.00000000E+00
  0.00000000E+00  0.00000000E+00  0.00000000E+00
  0.00000000E+00  0.00000000E+00  0.00000000E+00
  0.00000000E+00  0.00000000E+00  0.00000000E+00
  0.00000000E+00  0.00000000E+00  0.00000000E+00
  0.00000000E+00  0.00000000E+00  0.00000000E+00
  0.00000000E+00  0.00000000E+00  0.00000000E+00
  0.00000000E+00  0.00000000E+00  0.00000000E+00
  0.00000000E+00  0.00000000E+00  0.00000000E+00
  0.00000000E+00  0.00000000E+00  0.00000000E+00
  0.00000000E+00  0.00000000E+00  0.00000000E+00
  0.00000000E+00  0.00000000E+00  0.00000000E+00
  0.00000000E+00  0.00000000E+00  0.00000000E+00
  0.00000000E+00  0.00000000E+00  0.00000000E+00
  0.00000000E+00  0.00000000E+00  0.00000000E+00
  0.00000000E+00  0.00000000E+00  0.00000000E+00
  0.00000000E+00  0.00000000E+00  0.00000000E+00
  0.00000000E+00  0.00000000E+00  0.00000000E+00
  0.00000000E+00  0.00000000E+00  0.00000000E+00
  0.00000000E+00  0.00000000E+00  0.00000000E+00
  0.00000000E+00  0.00000000E+00  0.00000000E+00
  0.00000000E+00  0.00000000E+00  0.00000000E+00
  0.00000000E+00  0.00000000E+00  0.00000000E+00
  0.00000000E+00  0.00000000E+00  0.00000000E+00
  0.00000000E+00  0.00000000E+00  0.00000000E+00
  0.00000000E+00  0.00000000E+00  0.00000000E+00
  0.00000000E+00  0.00000000E+00  0.00000000E+00
  0.00000000E+00  0.00000000E+00  0.00000000E+00
  0.00000000E+00  0.00000000E+00  0.00000000E+00
  0.00000000E+00  0.00000000E+00  0.00000000E+00
  0.00000000E+00  0.00000000E+00  0.00000000E+00
  0.00000000E+00  0.00000000E+00  0.00000000E+00
  0.00000000E+00  0.00000000E+00  0.00000000E+00
  0.00000000E+00  0.00000000E+00  0.00000000E+00
  0.00000000E+00  0.00000000E+00  0.00000000E+00
  0.00000000E+00  0.00000000E+00  0.00000000E+00
  0.00000000E+00  0.00000000E+00  0.00000000E+00
  0.00000000E+00  0.00000000E+00  0.00000000E+00
  0.00000000E+00  0.00000000E+00  0.00000000E+00
  0.00000000E+00  0.00000000E+00  0.00000000E+00
  0.00000000E+00  0.00000000E+00  0.00000000E+00
  0.00000000E+00  0.00000000E+00  0.00000000E+00
  0.00000000E+00  0.00000000E+00  0.00000000E+00
  0.00000000E+00  0.00000000E+00  0.00000000E+00
  0.00000000E+00  0.00000000E+00  0.00000000E+00
  0.00000000E+00  0.00000000E+00  0.00000000E+00
  0.00000000E+00  0.00000000E+00  0.00000000E+00
  0.00000000E+00  0.00000000E+00  0.00000000E+00
  0.00000000E+00  0.00000000E+00  0.00000000E+00
  0.00000000E+00  0.00000000E+00  0.00000000E+00
  0.00000000E+00  0.00000000E+00  0.00000000E+00
  0.00000000E+00  0.00000000E+00  0.00000000E+00
  0.00000000E+00  0.00000000E+00  0.00000000E+00
  0.00000000E+00  0.00000000E+00  0.00000000E+00
  0.00000000E+00  0.00000000E+00  0.00000000E+00
  0.00000000E+00  0.00000000E+00  0.00000000E+00
  0.00000000E+00  0.00000000E+00  0.00000000E+00
  0.00000000E+00  0.00000000E+00  0.00000000E+00
  0.00000000E+00  0.00000000E+00  0.00000000E+00
  0.00000000E+00  0.00000000E+00  0.00000000E+00
  0.00000000E+00  0.00000000E+00  0.00000000E+00
  0.00000000E+00  0.00000000E+00  0.00000000E+00
  0.00000000E+00  0.00000000E+00  0.00000000E+00
  0.00000000E+00  0.00000000E+00  0.00000000E+00
  0.00000000E+00  0.00000000E+00  0.00000000E+00
  0.00000000E+00  0.00000000E+00  0.00000000E+00
  0.00000000E+00  0.00000000E+00  0.00000000E+00
  0.00000000E+00  0.00000000E+00  0.00000000E+00
  0.00000000E+00  0.00000000E+00  0.00000000E+00
  0.00000000E+00  0.00000000E+00  0.00000000E+00
  0.00000000E+00  0.00000000E+00  0.00000000E+00
