generated by phonopy                    
   1.00000000000000     
    10.0351470768999995   -0.0000022330999784   -0.0000001056124209
    -5.0175765436399997    8.6906901959899994    0.0000001395531216
    -0.0000001735893656    0.0000001431815548   14.9533752540999991
   Pb   Cu   P    O 
    19     1    12    50
Direct
  0.9930657116373780  0.7747772618123392  0.1199625760131156
  0.9991570668470757  0.7714892718538238  0.6258279769300970
  0.0032331881935690  0.2698994492453437  0.3823238704794818
  0.9991587053263586  0.2557098231056543  0.8807922582182144
  0.2181773084271441  0.2193575450472380  0.1297598644842495
  0.2358047460032822  0.2239929174686139  0.6405859245379943
  0.7333939201757573  0.7383440320953483  0.3679634326238315
  0.7460462792345410  0.7378400244553234  0.8735149113329328
  0.7646055551498065  0.0005387001816857  0.1174007035667231
  0.7803238078625725  0.0037296004391010  0.6259479994972779
  0.2614267662144769  0.9977881981869885  0.3786169887547572
  0.2638418603099026  0.9966209123859429  0.8803755608247243
  0.6674274469614545  0.3379233082837132  0.5015693306070688
  0.3225471507144491  0.6479738902701015  0.0055905101424827
  0.3337424957474866  0.6546804558799266  0.5052602655650134
  0.3297551258279512  0.6815199715215030  0.2446235865763455
  0.3483501640792284  0.6891787185032499  0.7457560027728931
  0.6573630301467688  0.3230139401247669  0.2417080113259402
  0.6745126972093374  0.3329515602361397  0.7519722487972231
  0.6431348246309909  0.3462275037182536  0.0121160369839401
  0.6208756714932520  0.5982414548079475  0.1203650754721508
  0.6270645241370190  0.5963569681989114  0.6218584784122783
  0.3634716675527443  0.3946444634414874  0.3749512222182574
  0.3870222080852557  0.3838110264434604  0.8940112953865125
  0.4010493909927391  0.0281866498593999  0.1163556109421080
  0.4126905737459197  0.0299333734201355  0.6232314668555645
  0.6012747745513707  0.9723715717387833  0.3706854290113029
  0.6184572729121527  0.9803506916381437  0.8720867896478879
  0.9498524333809186  0.3766851173588464  0.1068306556699881
  0.9761191992770293  0.3779343512792579  0.6262974564977242
  0.0228039995350926  0.6350274212407996  0.3720779052819339
  0.0275872768646508  0.6301175629574658  0.8704888276603455
  0.4895069810582555  0.6381793463212091  0.1264954166696128
  0.5026634278701323  0.6467672285779713  0.6244747852446366
  0.4664404216721891  0.3197086547291761  0.3770477272988515
  0.4952546236081901  0.3149305492754877  0.9165999961616293
  0.3674533143028000  0.8585746729400938  0.1235529622888407
  0.3623839953357546  0.8549729344077548  0.6250979454020040
  0.6704070993314204  0.1499022490251321  0.3663350937938432
  0.7038822794294930  0.1589513155967524  0.8658253390691755
  0.1181221501516845  0.5141682428297187  0.1152322042561522
  0.1501957476568307  0.5022566609255819  0.6274867184881430
  0.8451984079541006  0.5305138725042013  0.3674886886069828
  0.8497031122556038  0.5351409328614452  0.8632059655058626
  0.7368772620492834  0.6936528067730166  0.0441112038376374
  0.7316919391065966  0.6605338867251334  0.5367659900310926
  0.2562957605330212  0.3538707657048263  0.4594947032533057
  0.2732979179265982  0.3628143830168185  0.9716973175087560
  0.2818931775219866  0.0337538217153011  0.0502749315744992
  0.3444693973874919  0.0693569829314953  0.5396817656827082
  0.6649522641407302  0.9228327938986141  0.4513859368836606
  0.6852432148947756  0.9279116166059254  0.9499865623774042
  0.9449243974528585  0.2529710222518062  0.0404045429662290
  0.9335671856743986  0.2730501542814778  0.5407423650514644
  0.0744720071271558  0.7500026828193640  0.4526613282069363
  0.0802275379726893  0.7445099322999198  0.9513633830344617
  0.2536663917656128  0.3433015628371976  0.2922546732086246
  0.2886352230569287  0.2993611512515528  0.8109424062969168
  0.7149226525513441  0.6363176638610284  0.2093864383964359
  0.7349293701040551  0.6591260201049991  0.7055953739305494
  0.6322329630848458  0.9037392371264090  0.2841684825333601
  0.6369105434301900  0.9030536215955962  0.7848080837047462
  0.3778705963680196  0.0872224012444391  0.2095606016849345
  0.3525264329733773  0.0742134896532249  0.7085175063269276
  0.0936267763260332  0.7356249322938595  0.2861035842954252
  0.1067650446033284  0.7325369012080856  0.7859042054338232
  0.8902795463293458  0.2945361626838121  0.1992520717614070
  0.9322524890229289  0.2691405608730975  0.7096148536755820
  0.5490545601923813  0.4214448581646835  0.1015168382661642
  0.5477456788080346  0.4161819166852680  0.6206241099674656
  0.4687358312568861  0.5765318633045524  0.3736549984624773
  0.4876803097993445  0.5622589347240066  0.8762778889457863
  0.5690472660522587  0.1368095642315481  0.0839874904181173
  0.5924281398773417  0.1313015844870975  0.6206877750128399
  0.4187867917671610  0.8910326882870194  0.3795439613840230
  0.4393541604032620  0.9105865684560541  0.8853348261724534
  0.8415148463427897  0.4378163104922379  0.0728855609145569
  0.8724164673878860  0.4544149229110630  0.6272439984452163
  0.1002895767227159  0.5313689138479489  0.3835792877840447
  0.0963936957823179  0.5191365506374765  0.8826313919754014
  0.9885248624465888  0.9973805766647672  0.1413052008707538
  0.0061387347319837  0.0012718581187201  0.6399533687284134
 
  0.00000000E+00  0.00000000E+00  0.00000000E+00
  0.00000000E+00  0.00000000E+00  0.00000000E+00
  0.00000000E+00  0.00000000E+00  0.00000000E+00
  0.00000000E+00  0.00000000E+00  0.00000000E+00
  0.00000000E+00  0.00000000E+00  0.00000000E+00
  0.00000000E+00  0.00000000E+00  0.00000000E+00
  0.00000000E+00  0.00000000E+00  0.00000000E+00
  0.00000000E+00  0.00000000E+00  0.00000000E+00
  0.00000000E+00  0.00000000E+00  0.00000000E+00
  0.00000000E+00  0.00000000E+00  0.00000000E+00
  0.00000000E+00  0.00000000E+00  0.00000000E+00
  0.00000000E+00  0.00000000E+00  0.00000000E+00
  0.00000000E+00  0.00000000E+00  0.00000000E+00
  0.00000000E+00  0.00000000E+00  0.00000000E+00
  0.00000000E+00  0.00000000E+00  0.00000000E+00
  0.00000000E+00  0.00000000E+00  0.00000000E+00
  0.00000000E+00  0.00000000E+00  0.00000000E+00
  0.00000000E+00  0.00000000E+00  0.00000000E+00
  0.00000000E+00  0.00000000E+00  0.00000000E+00
  0.00000000E+00  0.00000000E+00  0.00000000E+00
  0.00000000E+00  0.00000000E+00  0.00000000E+00
  0.00000000E+00  0.00000000E+00  0.00000000E+00
  0.00000000E+00  0.00000000E+00  0.00000000E+00
  0.00000000E+00  0.00000000E+00  0.00000000E+00
  0.00000000E+00  0.00000000E+00  0.00000000E+00
  0.00000000E+00  0.00000000E+00  0.00000000E+00
  0.00000000E+00  0.00000000E+00  0.00000000E+00
  0.00000000E+00  0.00000000E+00  0.00000000E+00
  0.00000000E+00  0.00000000E+00  0.00000000E+00
  0.00000000E+00  0.00000000E+00  0.00000000E+00
  0.00000000E+00  0.00000000E+00  0.00000000E+00
  0.00000000E+00  0.00000000E+00  0.00000000E+00
  0.00000000E+00  0.00000000E+00  0.00000000E+00
  0.00000000E+00  0.00000000E+00  0.00000000E+00
  0.00000000E+00  0.00000000E+00  0.00000000E+00
  0.00000000E+00  0.00000000E+00  0.00000000E+00
  0.00000000E+00  0.00000000E+00  0.00000000E+00
  0.00000000E+00  0.00000000E+00  0.00000000E+00
  0.00000000E+00  0.00000000E+00  0.00000000E+00
  0.00000000E+00  0.00000000E+00  0.00000000E+00
  0.00000000E+00  0.00000000E+00  0.00000000E+00
  0.00000000E+00  0.00000000E+00  0.00000000E+00
  0.00000000E+00  0.00000000E+00  0.00000000E+00
  0.00000000E+00  0.00000000E+00  0.00000000E+00
  0.00000000E+00  0.00000000E+00  0.00000000E+00
  0.00000000E+00  0.00000000E+00  0.00000000E+00
  0.00000000E+00  0.00000000E+00  0.00000000E+00
  0.00000000E+00  0.00000000E+00  0.00000000E+00
  0.00000000E+00  0.00000000E+00  0.00000000E+00
  0.00000000E+00  0.00000000E+00  0.00000000E+00
  0.00000000E+00  0.00000000E+00  0.00000000E+00
  0.00000000E+00  0.00000000E+00  0.00000000E+00
  0.00000000E+00  0.00000000E+00  0.00000000E+00
  0.00000000E+00  0.00000000E+00  0.00000000E+00
  0.00000000E+00  0.00000000E+00  0.00000000E+00
  0.00000000E+00  0.00000000E+00  0.00000000E+00
  0.00000000E+00  0.00000000E+00  0.00000000E+00
  0.00000000E+00  0.00000000E+00  0.00000000E+00
  0.00000000E+00  0.00000000E+00  0.00000000E+00
  0.00000000E+00  0.00000000E+00  0.00000000E+00
  0.00000000E+00  0.00000000E+00  0.00000000E+00
  0.00000000E+00  0.00000000E+00  0.00000000E+00
  0.00000000E+00  0.00000000E+00  0.00000000E+00
  0.00000000E+00  0.00000000E+00  0.00000000E+00
  0.00000000E+00  0.00000000E+00  0.00000000E+00
  0.00000000E+00  0.00000000E+00  0.00000000E+00
  0.00000000E+00  0.00000000E+00  0.00000000E+00
  0.00000000E+00  0.00000000E+00  0.00000000E+00
  0.00000000E+00  0.00000000E+00  0.00000000E+00
  0.00000000E+00  0.00000000E+00  0.00000000E+00
  0.00000000E+00  0.00000000E+00  0.00000000E+00
  0.00000000E+00  0.00000000E+00  0.00000000E+00
  0.00000000E+00  0.00000000E+00  0.00000000E+00
  0.00000000E+00  0.00000000E+00  0.00000000E+00
  0.00000000E+00  0.00000000E+00  0.00000000E+00
  0.00000000E+00  0.00000000E+00  0.00000000E+00
  0.00000000E+00  0.00000000E+00  0.00000000E+00
  0.00000000E+00  0.00000000E+00  0.00000000E+00
  0.00000000E+00  0.00000000E+00  0.00000000E+00
  0.00000000E+00  0.00000000E+00  0.00000000E+00
  0.00000000E+00  0.00000000E+00  0.00000000E+00
  0.00000000E+00  0.00000000E+00  0.00000000E+00
