generated by phonopy                    
   1.00000000000000     
    10.0351470768999995   -0.0000022330999784   -0.0000001056124209
    -5.0175765436399997    8.6906901959899994    0.0000001395531216
    -0.0000001735893656    0.0000001431815548   14.9533752540999991
   Pb   Cu   P    O 
    19     1    12    50
Direct
  0.9781091829146860  0.7623332364413145  0.1192285846094734
  0.9960283827775172  0.7588054022722517  0.6226230941215078
  0.0021103704730834  0.2554595320439574  0.3812707249255780
  0.0092153840111493  0.2742007838924962  0.8787638568812781
  0.2319760750878004  0.2419780062598278  0.1210869001396020
  0.2487158059505816  0.2284016914517935  0.6119220178104712
  0.7353413638551487  0.7335582079174330  0.3798443149816890
  0.7265247179973997  0.7218711323895306  0.8757676019145961
  0.7619559374677038  0.0275129787257598  0.1266787707175965
  0.7806287356373716  0.0120786986689723  0.6286130212007208
  0.2616295876369463  0.9844346334219125  0.3637725818794380
  0.2707144350899853  0.9844076905082986  0.8845004566006196
  0.6688521587673648  0.3456701594752047  0.9940437253675753
  0.6619098946166702  0.3202916007050973  0.4969834893718996
  0.3309346134827180  0.6704605680928779  0.5055027420782920
  0.3204282692869214  0.6520373866742020  0.2373054093354980
  0.3188034987629038  0.6584028465123879  0.7524826417753161
  0.6747459075082816  0.3456475733947570  0.2497292978073489
  0.6579420162082599  0.3325963964725958  0.7449744645706033
  0.4239124856464755  0.7276267483735310  0.0099727598089103
  0.6135680868879874  0.5910727251942731  0.1184326826382858
  0.6184008701195296  0.5983993909260548  0.6221924861663624
  0.3712173528303495  0.3928444333494667  0.3726166567944276
  0.3711349512759767  0.4191104068145464  0.8917105378036609
  0.4062994511493869  0.0016609124575453  0.1149604709875121
  0.4080622459514842  0.0312025754362040  0.6215143619587380
  0.6106912221305905  0.9797227346876340  0.3604963075999166
  0.6101202827726837  0.9733571108701042  0.8899121402925871
  0.9720586392864661  0.3758045145348063  0.1229268438869013
  0.9702517796147063  0.3760232517989195  0.6248362424267029
  0.0259035243755861  0.6229792155783755  0.3719094297102217
  0.0215177170852527  0.6324760004071237  0.8739563044082672
  0.5175352549132199  0.6760732408834542  0.1133545101416686
  0.5017281810001393  0.6569801326641809  0.6241132618582625
  0.4786115362420773  0.3223347914435308  0.3680505851171105
  0.5045013816007256  0.3837083794351557  0.8789484876516624
  0.3569151516168318  0.8280543789610135  0.1007903648528483
  0.3322610371206522  0.8530558798409871  0.6216382965283955
  0.6759815699014879  0.1571655845816977  0.3641500542439218
  0.6490364267954831  0.1428400638790563  0.8801335923096545
  0.1500882256410918  0.4607677361836835  0.1283979897956513
  0.1468460432771579  0.4925217606916306  0.6266809392519193
  0.8468821227117758  0.5190433146689060  0.3686361098042852
  0.8430940476985072  0.5232661134367618  0.8691746841784465
  0.7301419493905570  0.6394411576050416  0.0377585399228693
  0.7314428331584182  0.6640503551049832  0.5403218213992460
  0.2565675991742680  0.3267145566133678  0.4545720266894406
  0.2479847191414564  0.3119669593164289  0.9613644342927543
  0.3523082253383336  0.0686744985608101  0.0381586792756465
  0.3550257729130806  0.0882731978450693  0.5367592268085062
  0.6832774161591431  0.9293891318193772  0.4365440372650511
  0.6907023101164711  0.9420988074092449  0.9718874830113648
  0.9127839586100350  0.2635229918881521  0.0397592735528818
  0.9232531680387837  0.2679593503829523  0.5401454422824159
  0.0800735782372755  0.7344291579825253  0.4543048489646111
  0.0606940154353026  0.7548339058474838  0.9504175713470246
  0.2676180881739398  0.3562501565553831  0.2876288539306060
  0.2817477155532231  0.4002005293284512  0.8024104808691419
  0.7121286500222368  0.6338828873039333  0.2055821748741948
  0.7210431970341702  0.6448269768405623  0.7084003101665317
  0.6442945394297794  0.9245139782754208  0.2687326665997958
  0.6511510216010947  0.9113946998600611  0.8053076728986639
  0.3505349639054245  0.0311373003786031  0.2046579266164983
  0.3612661408364559  0.0916629447353827  0.7060256275987058
  0.0920186322688679  0.7259338112791411  0.2861962288590121
  0.0916966595487665  0.7297835965084261  0.7863844707074676
  0.8970998975902802  0.2631102608044884  0.2061638694381571
  0.9176656215263321  0.2668970259132095  0.7086268894133951
  0.5070828989174174  0.4122398099203934  0.1142188339494723
  0.5307446185561489  0.4154524017390315  0.6158716305740626
  0.4699823014220428  0.5736611661868949  0.3831957644161434
  0.4521280642743761  0.5960560145669334  0.9209122132064564
  0.5919191018397001  0.1012230067760882  0.1126917648855681
  0.5888698725197230  0.1147350173233477  0.6181690720096782
  0.4304064428532612  0.8914674006925765  0.3752312685825743
  0.4282423334471872  0.8677666540912483  0.9092074073090686
  0.9010133114431298  0.4830016383655931  0.1195231523335067
  0.8760307819587467  0.4629783027692724  0.6229760761682641
  0.1032387207688217  0.5191369423148373  0.3780835979743671
  0.1027645933126067  0.5354591851639228  0.8887525418082305
  0.9395152904485045  0.9836835260677148  0.1291052625849574
  0.0207858712409248  0.0146489507498444  0.6196129476065551
 
  0.00000000E+00  0.00000000E+00  0.00000000E+00
  0.00000000E+00  0.00000000E+00  0.00000000E+00
  0.00000000E+00  0.00000000E+00  0.00000000E+00
  0.00000000E+00  0.00000000E+00  0.00000000E+00
  0.00000000E+00  0.00000000E+00  0.00000000E+00
  0.00000000E+00  0.00000000E+00  0.00000000E+00
  0.00000000E+00  0.00000000E+00  0.00000000E+00
  0.00000000E+00  0.00000000E+00  0.00000000E+00
  0.00000000E+00  0.00000000E+00  0.00000000E+00
  0.00000000E+00  0.00000000E+00  0.00000000E+00
  0.00000000E+00  0.00000000E+00  0.00000000E+00
  0.00000000E+00  0.00000000E+00  0.00000000E+00
  0.00000000E+00  0.00000000E+00  0.00000000E+00
  0.00000000E+00  0.00000000E+00  0.00000000E+00
  0.00000000E+00  0.00000000E+00  0.00000000E+00
  0.00000000E+00  0.00000000E+00  0.00000000E+00
  0.00000000E+00  0.00000000E+00  0.00000000E+00
  0.00000000E+00  0.00000000E+00  0.00000000E+00
  0.00000000E+00  0.00000000E+00  0.00000000E+00
  0.00000000E+00  0.00000000E+00  0.00000000E+00
  0.00000000E+00  0.00000000E+00  0.00000000E+00
  0.00000000E+00  0.00000000E+00  0.00000000E+00
  0.00000000E+00  0.00000000E+00  0.00000000E+00
  0.00000000E+00  0.00000000E+00  0.00000000E+00
  0.00000000E+00  0.00000000E+00  0.00000000E+00
  0.00000000E+00  0.00000000E+00  0.00000000E+00
  0.00000000E+00  0.00000000E+00  0.00000000E+00
  0.00000000E+00  0.00000000E+00  0.00000000E+00
  0.00000000E+00  0.00000000E+00  0.00000000E+00
  0.00000000E+00  0.00000000E+00  0.00000000E+00
  0.00000000E+00  0.00000000E+00  0.00000000E+00
  0.00000000E+00  0.00000000E+00  0.00000000E+00
  0.00000000E+00  0.00000000E+00  0.00000000E+00
  0.00000000E+00  0.00000000E+00  0.00000000E+00
  0.00000000E+00  0.00000000E+00  0.00000000E+00
  0.00000000E+00  0.00000000E+00  0.00000000E+00
  0.00000000E+00  0.00000000E+00  0.00000000E+00
  0.00000000E+00  0.00000000E+00  0.00000000E+00
  0.00000000E+00  0.00000000E+00  0.00000000E+00
  0.00000000E+00  0.00000000E+00  0.00000000E+00
  0.00000000E+00  0.00000000E+00  0.00000000E+00
  0.00000000E+00  0.00000000E+00  0.00000000E+00
  0.00000000E+00  0.00000000E+00  0.00000000E+00
  0.00000000E+00  0.00000000E+00  0.00000000E+00
  0.00000000E+00  0.00000000E+00  0.00000000E+00
  0.00000000E+00  0.00000000E+00  0.00000000E+00
  0.00000000E+00  0.00000000E+00  0.00000000E+00
  0.00000000E+00  0.00000000E+00  0.00000000E+00
  0.00000000E+00  0.00000000E+00  0.00000000E+00
  0.00000000E+00  0.00000000E+00  0.00000000E+00
  0.00000000E+00  0.00000000E+00  0.00000000E+00
  0.00000000E+00  0.00000000E+00  0.00000000E+00
  0.00000000E+00  0.00000000E+00  0.00000000E+00
  0.00000000E+00  0.00000000E+00  0.00000000E+00
  0.00000000E+00  0.00000000E+00  0.00000000E+00
  0.00000000E+00  0.00000000E+00  0.00000000E+00
  0.00000000E+00  0.00000000E+00  0.00000000E+00
  0.00000000E+00  0.00000000E+00  0.00000000E+00
  0.00000000E+00  0.00000000E+00  0.00000000E+00
  0.00000000E+00  0.00000000E+00  0.00000000E+00
  0.00000000E+00  0.00000000E+00  0.00000000E+00
  0.00000000E+00  0.00000000E+00  0.00000000E+00
  0.00000000E+00  0.00000000E+00  0.00000000E+00
  0.00000000E+00  0.00000000E+00  0.00000000E+00
  0.00000000E+00  0.00000000E+00  0.00000000E+00
  0.00000000E+00  0.00000000E+00  0.00000000E+00
  0.00000000E+00  0.00000000E+00  0.00000000E+00
  0.00000000E+00  0.00000000E+00  0.00000000E+00
  0.00000000E+00  0.00000000E+00  0.00000000E+00
  0.00000000E+00  0.00000000E+00  0.00000000E+00
  0.00000000E+00  0.00000000E+00  0.00000000E+00
  0.00000000E+00  0.00000000E+00  0.00000000E+00
  0.00000000E+00  0.00000000E+00  0.00000000E+00
  0.00000000E+00  0.00000000E+00  0.00000000E+00
  0.00000000E+00  0.00000000E+00  0.00000000E+00
  0.00000000E+00  0.00000000E+00  0.00000000E+00
  0.00000000E+00  0.00000000E+00  0.00000000E+00
  0.00000000E+00  0.00000000E+00  0.00000000E+00
  0.00000000E+00  0.00000000E+00  0.00000000E+00
  0.00000000E+00  0.00000000E+00  0.00000000E+00
  0.00000000E+00  0.00000000E+00  0.00000000E+00
  0.00000000E+00  0.00000000E+00  0.00000000E+00
