Al   Gd   N                             
   1.00000000000000     
    -9.6969088219419923    0.0008709512273234   -0.0061967556073826
    -4.8281402026856890    8.3952890183491196    0.0059748728226020
    -0.1628726109435993   -0.0005254137762685  -10.6345700334808111
   Al   Gd   N 
    31     5    36
Direct
  0.1197188301096830  0.0811057162776621  0.3916664624776018
  0.7736900186758717  0.0911491202602974  0.7977789674794948
  0.8915382067845670  0.2004571013504446  0.5671767647902968
  0.4520028823337583  0.0930124643214612  0.3267068477826243
  0.1127951255243360  0.0838935741094815  0.8691472919355689
  0.2278964261471330  0.2020468993478630  0.5691330626888700
  0.7877099127983840  0.0885562088245493  0.3154418141413160
  0.8838305901675980  0.1974713335644509  0.0415948104846464
  0.4376814001461113  0.0957796395008828  0.7891919394262388
  0.5572823636361193  0.2024435642221150  0.5568214842828780
  0.1198741360855067  0.4356412148378865  0.3942133152579288
  0.2106171117343649  0.5469310217642231  0.1323710606221908
  0.7821287681751059  0.4233717776768628  0.8112495671309290
  0.8916657224245625  0.5416024547765090  0.5691887964175777
  0.4445875965193125  0.4307643282886531  0.3054293988204293
  0.5434317816146645  0.5457535758838787  0.0451312447336392
  0.1129668378428903  0.4299151798011067  0.8649056931297423
  0.2143684218062276  0.5376053179915985  0.6305147769874324
  0.8848960981436207  0.5509293305886800  0.0400981153659146
  0.4432426392339011  0.4214667813361501  0.7991189678626540
  0.1027286842501951  0.7672774342767568  0.3140543619722820
  0.2119509571447651  0.8741948333900709  0.1291789111402011
  0.7738654202947117  0.7651553304247898  0.7973021374650102
  0.8893828223138129  0.8722221991018841  0.5560530477400007
  0.4441600775411132  0.7630704773332369  0.3035193237297946
  0.0971392526727755  0.7653623808608145  0.8089123185905578
  0.2133930497039671  0.8814964450208151  0.6320154542051526
  0.7878930910321031  0.7605378550663389  0.3162171016963597
  0.9013815189289645  0.8655871168915255  0.0654504677345997
  0.4433316697759508  0.7646682925762960  0.8000899102025585
  0.5567065249216014  0.8742966845360343  0.5569435578068749
  0.2051001037289595  0.2130268610918407  0.1037686506631346
  0.5640049769377384  0.2080988025842458  0.0545229040361050
  0.7939499599632711  0.4237875282855583  0.2929819528472706
  0.5587509368653443  0.5382567846544148  0.5596104355361433
  0.5650224274934885  0.8665941044073691  0.0536990512099678
  0.2241080134812634  0.2067651555899772  0.3682358607125096
  0.1026795267338017  0.0669537876073605  0.0484706775481101
  0.8769424042271154  0.2018426007253922  0.8598547300438923
  0.7782051425421770  0.0909795691775130  0.6168151556333257
  0.5612157528501882  0.2092741435016450  0.3709753957988937
  0.4535523884700936  0.0920841325767299  0.1519697475734034
  0.2205807229305847  0.2032676572063252  0.8477905101257619
  0.1171591813040962  0.0880807309131981  0.5734402401443504
  0.8954251352426894  0.1867596483268201  0.3848217970316341
  0.8080943012709270  0.0801030650735797  0.1342554878220739
  0.5508893066149554  0.2009524211559608  0.8413624421458579
  0.4472487802462553  0.0928278651415866  0.6055664439614148
  0.2188834803702377  0.5383199306386359  0.3221697290884791
  0.1036693491472391  0.4614863101202786  0.0496295138307801
  0.8785084380550359  0.5495080510707595  0.8581925561165349
  0.8111910352345433  0.4102532134065910  0.6307315722264306
  0.5393934114218553  0.5496196125661683  0.3517602875199728
  0.4341548621280964  0.4517130265768117  0.1227566239477369
  0.2158746367082998  0.5405654553992250  0.8132488490020222
  0.1172607231429268  0.4264185705784413  0.5768218274351256
  0.8963132612828133  0.5555634375014336  0.3879367043987756
  0.7790589955494340  0.4266325453480135  0.0774542460974459
  0.5480968283679033  0.5403035874766644  0.8563891911211243
  0.4360140104240884  0.4108738110155414  0.6196416577794466
  0.2181750811323084  0.8816377440728260  0.3172282347740989
  0.1036982790162071  0.7645689086436533  0.1279234722217524
  0.8801587340413306  0.8744126330358455  0.8737999771489342
  0.7777329344853072  0.7642212850892278  0.6169750246231942
  0.5607394913640604  0.8666058470383504  0.3707305613777905
  0.4358941427581584  0.7500494757265059  0.1197045130256384
  0.2154611288764414  0.8720962149567910  0.8147616144620073
  0.1011976701554289  0.7657516011621368  0.6168321349214523
  0.8886611774840532  0.8740978633897569  0.3753930524169604
  0.8085743601397581  0.7426291751076946  0.1344512714682153
  0.5516319213666989  0.8763400085476789  0.8407528802178490
  0.4348613190777399  0.7868992451061700  0.6205728678358184
 
  0.00000000E+00  0.00000000E+00  0.00000000E+00
  0.00000000E+00  0.00000000E+00  0.00000000E+00
  0.00000000E+00  0.00000000E+00  0.00000000E+00
  0.00000000E+00  0.00000000E+00  0.00000000E+00
  0.00000000E+00  0.00000000E+00  0.00000000E+00
  0.00000000E+00  0.00000000E+00  0.00000000E+00
  0.00000000E+00  0.00000000E+00  0.00000000E+00
  0.00000000E+00  0.00000000E+00  0.00000000E+00
  0.00000000E+00  0.00000000E+00  0.00000000E+00
  0.00000000E+00  0.00000000E+00  0.00000000E+00
  0.00000000E+00  0.00000000E+00  0.00000000E+00
  0.00000000E+00  0.00000000E+00  0.00000000E+00
  0.00000000E+00  0.00000000E+00  0.00000000E+00
  0.00000000E+00  0.00000000E+00  0.00000000E+00
  0.00000000E+00  0.00000000E+00  0.00000000E+00
  0.00000000E+00  0.00000000E+00  0.00000000E+00
  0.00000000E+00  0.00000000E+00  0.00000000E+00
  0.00000000E+00  0.00000000E+00  0.00000000E+00
  0.00000000E+00  0.00000000E+00  0.00000000E+00
  0.00000000E+00  0.00000000E+00  0.00000000E+00
  0.00000000E+00  0.00000000E+00  0.00000000E+00
  0.00000000E+00  0.00000000E+00  0.00000000E+00
  0.00000000E+00  0.00000000E+00  0.00000000E+00
  0.00000000E+00  0.00000000E+00  0.00000000E+00
  0.00000000E+00  0.00000000E+00  0.00000000E+00
  0.00000000E+00  0.00000000E+00  0.00000000E+00
  0.00000000E+00  0.00000000E+00  0.00000000E+00
  0.00000000E+00  0.00000000E+00  0.00000000E+00
  0.00000000E+00  0.00000000E+00  0.00000000E+00
  0.00000000E+00  0.00000000E+00  0.00000000E+00
  0.00000000E+00  0.00000000E+00  0.00000000E+00
  0.00000000E+00  0.00000000E+00  0.00000000E+00
  0.00000000E+00  0.00000000E+00  0.00000000E+00
  0.00000000E+00  0.00000000E+00  0.00000000E+00
  0.00000000E+00  0.00000000E+00  0.00000000E+00
  0.00000000E+00  0.00000000E+00  0.00000000E+00
  0.00000000E+00  0.00000000E+00  0.00000000E+00
  0.00000000E+00  0.00000000E+00  0.00000000E+00
  0.00000000E+00  0.00000000E+00  0.00000000E+00
  0.00000000E+00  0.00000000E+00  0.00000000E+00
  0.00000000E+00  0.00000000E+00  0.00000000E+00
  0.00000000E+00  0.00000000E+00  0.00000000E+00
  0.00000000E+00  0.00000000E+00  0.00000000E+00
  0.00000000E+00  0.00000000E+00  0.00000000E+00
  0.00000000E+00  0.00000000E+00  0.00000000E+00
  0.00000000E+00  0.00000000E+00  0.00000000E+00
  0.00000000E+00  0.00000000E+00  0.00000000E+00
  0.00000000E+00  0.00000000E+00  0.00000000E+00
  0.00000000E+00  0.00000000E+00  0.00000000E+00
  0.00000000E+00  0.00000000E+00  0.00000000E+00
  0.00000000E+00  0.00000000E+00  0.00000000E+00
  0.00000000E+00  0.00000000E+00  0.00000000E+00
  0.00000000E+00  0.00000000E+00  0.00000000E+00
  0.00000000E+00  0.00000000E+00  0.00000000E+00
  0.00000000E+00  0.00000000E+00  0.00000000E+00
  0.00000000E+00  0.00000000E+00  0.00000000E+00
  0.00000000E+00  0.00000000E+00  0.00000000E+00
  0.00000000E+00  0.00000000E+00  0.00000000E+00
  0.00000000E+00  0.00000000E+00  0.00000000E+00
  0.00000000E+00  0.00000000E+00  0.00000000E+00
  0.00000000E+00  0.00000000E+00  0.00000000E+00
  0.00000000E+00  0.00000000E+00  0.00000000E+00
  0.00000000E+00  0.00000000E+00  0.00000000E+00
  0.00000000E+00  0.00000000E+00  0.00000000E+00
  0.00000000E+00  0.00000000E+00  0.00000000E+00
  0.00000000E+00  0.00000000E+00  0.00000000E+00
  0.00000000E+00  0.00000000E+00  0.00000000E+00
  0.00000000E+00  0.00000000E+00  0.00000000E+00
  0.00000000E+00  0.00000000E+00  0.00000000E+00
  0.00000000E+00  0.00000000E+00  0.00000000E+00
  0.00000000E+00  0.00000000E+00  0.00000000E+00
  0.00000000E+00  0.00000000E+00  0.00000000E+00
