Al   Gd   N                             
   1.00000000000000     
    -9.7430544411536140    0.0089583558494604    0.0148764590435009
    -4.8826985831473833    8.4524766246232250    0.0101308965554529
    -0.1877319187011536   -0.0961567284543751  -10.4208594935462848
   Al   Gd   N 
    31     5    36
Direct
  0.1225176346115830  0.0814538097888331  0.4235449573890833
  0.7724193538090134  0.0926144429504419  0.8297200534056799
  0.8905099279430928  0.1999421580119503  0.5946314614248678
  0.4431279352068387  0.0951023509663358  0.3797999350808112
  0.1160120557011481  0.0865837595983407  0.8872536530322819
  0.2236237276715016  0.2048530346787274  0.6446347097886260
  0.8027466190092909  0.0773538874693998  0.3392129498861394
  0.8881618502012927  0.1946971312840375  0.0651948010653669
  0.4439648428336653  0.0946845150213633  0.8585953622655822
  0.5620598522171463  0.1954182167394194  0.5796176088453464
  0.1225199731740148  0.4293632358893831  0.4235454469664788
  0.2112990847215386  0.5520993953810915  0.1453903345565593
  0.7911735861320466  0.4210813755652936  0.8330303592691877
  0.8905110600345481  0.5428784364440062  0.5946307624585145
  0.4311450985893472  0.4317104142360577  0.4044694582230548
  0.5552393013482799  0.5390445777383022  0.0638763554478814
  0.1160131615466113  0.4307393022657351  0.8872526658746551
  0.2162137404451059  0.5393607008810477  0.6535416810558559
  0.8881633385580017  0.5504748422950385  0.0651938174834186
  0.4324591568873757  0.4294181563773947  0.8963680102287128
  0.1227130817714865  0.7553112072033414  0.4019702133998635
  0.2112976089674419  0.8699326499999387  0.1453910471489692
  0.7724194385948522  0.7683009832821313  0.8297203849247481
  0.8886889871993020  0.8723211140783036  0.5850906282222823
  0.4311442913291970  0.7704770154156151  0.4044687581837394
  0.1159969708258473  0.7586698087829760  0.9005902916844803
  0.2162139398137839  0.8777574281592564  0.6535407259936221
  0.8027483587453546  0.7532343461532847  0.3392120457094450
  0.8967990658062135  0.8682666808917929  0.0849372532881958
  0.4324590433754381  0.7714570745987288  0.8963690227179129
  0.5620609111824919  0.8758489780215157  0.5796166922646506
  0.1699305254163903  0.2317016138115591  0.1695880528270806
  0.5572860651051172  0.2136775654844811  0.1261461319575687
  0.7766833606734806  0.4283276599332524  0.3349204161759118
  0.5421602111223436  0.5455832546432262  0.6332848102113857
  0.5572862389186355  0.8623600761880255  0.1261465129519479
  0.2162651282044052  0.2085303428793779  0.3873673415921957
  0.1086793438871396  0.0714225968853697  0.0684725067651826
  0.8819882024795760  0.2030369911184167  0.8804586464765336
  0.7766258257540599  0.0916713921300385  0.6441519503162496
  0.5696373905723675  0.2002279072648108  0.3795708741015744
  0.4180085974921681  0.1076640625791683  0.1585515433817903
  0.2203023190569624  0.2065128755274301  0.8359860498536023
  0.1137718160755270  0.0906109178007100  0.6078527273517054
  0.9009321660537211  0.1810051266305877  0.4097327307755450
  0.8204241752994079  0.0723021468135272  0.1566442836914987
  0.5530899156456925  0.2039926389375850  0.8834573757994661
  0.4471715292742431  0.0930831792157250  0.6004242636950323
  0.2200459969159922  0.5361103458315384  0.3364876606083627
  0.1086816324670750  0.4532340183372057  0.0684714091691703
  0.8819892214038347  0.5483036192078572  0.8804597051584295
  0.8077097460290332  0.4128159904708895  0.6476100501549453
  0.5263952188153169  0.5534635809242516  0.3913022887935824
  0.4184502850247327  0.4619183315013018  0.0774733034620141
  0.2214008790238609  0.5444932478282709  0.8341478730839071
  0.1137731591148423  0.4289548795759259  0.6078538638373985
  0.9009355927197547  0.5513906429883448  0.4097306048296545
  0.7799462368273709  0.4266982820078908  0.1100774293746909
  0.5593204529030160  0.5370032031903165  0.8678444217857688
  0.4214462348035184  0.4114173620305621  0.5866180136963663
  0.2200446159895293  0.8771725377619788  0.3364882538131724
  0.1153655695680129  0.7589858267672369  0.0861531680526824
  0.8814690411210933  0.8759304464263948  0.8932364176176577
  0.7766271998920757  0.7650417929552233  0.6441519261897497
  0.5696381038474598  0.8634575177472570  0.3795708440805470
  0.4184463854121603  0.7529710060625732  0.0774732936498239
  0.2214020785838997  0.8674333925483424  0.8341466525053249
  0.1218945332753378  0.7557216811626901  0.5907690274747921
  0.8940090880386364  0.8696602412654926  0.4005271105533694
  0.8204237208969687  0.7406177635710520  0.1566435968491930
  0.5530902727543605  0.8762430709832785  0.8834589103910062
  0.4214482864097775  0.8004730447853916  0.5866181862127817
 
  0.00000000E+00  0.00000000E+00  0.00000000E+00
  0.00000000E+00  0.00000000E+00  0.00000000E+00
  0.00000000E+00  0.00000000E+00  0.00000000E+00
  0.00000000E+00  0.00000000E+00  0.00000000E+00
  0.00000000E+00  0.00000000E+00  0.00000000E+00
  0.00000000E+00  0.00000000E+00  0.00000000E+00
  0.00000000E+00  0.00000000E+00  0.00000000E+00
  0.00000000E+00  0.00000000E+00  0.00000000E+00
  0.00000000E+00  0.00000000E+00  0.00000000E+00
  0.00000000E+00  0.00000000E+00  0.00000000E+00
  0.00000000E+00  0.00000000E+00  0.00000000E+00
  0.00000000E+00  0.00000000E+00  0.00000000E+00
  0.00000000E+00  0.00000000E+00  0.00000000E+00
  0.00000000E+00  0.00000000E+00  0.00000000E+00
  0.00000000E+00  0.00000000E+00  0.00000000E+00
  0.00000000E+00  0.00000000E+00  0.00000000E+00
  0.00000000E+00  0.00000000E+00  0.00000000E+00
  0.00000000E+00  0.00000000E+00  0.00000000E+00
  0.00000000E+00  0.00000000E+00  0.00000000E+00
  0.00000000E+00  0.00000000E+00  0.00000000E+00
  0.00000000E+00  0.00000000E+00  0.00000000E+00
  0.00000000E+00  0.00000000E+00  0.00000000E+00
  0.00000000E+00  0.00000000E+00  0.00000000E+00
  0.00000000E+00  0.00000000E+00  0.00000000E+00
  0.00000000E+00  0.00000000E+00  0.00000000E+00
  0.00000000E+00  0.00000000E+00  0.00000000E+00
  0.00000000E+00  0.00000000E+00  0.00000000E+00
  0.00000000E+00  0.00000000E+00  0.00000000E+00
  0.00000000E+00  0.00000000E+00  0.00000000E+00
  0.00000000E+00  0.00000000E+00  0.00000000E+00
  0.00000000E+00  0.00000000E+00  0.00000000E+00
  0.00000000E+00  0.00000000E+00  0.00000000E+00
  0.00000000E+00  0.00000000E+00  0.00000000E+00
  0.00000000E+00  0.00000000E+00  0.00000000E+00
  0.00000000E+00  0.00000000E+00  0.00000000E+00
  0.00000000E+00  0.00000000E+00  0.00000000E+00
  0.00000000E+00  0.00000000E+00  0.00000000E+00
  0.00000000E+00  0.00000000E+00  0.00000000E+00
  0.00000000E+00  0.00000000E+00  0.00000000E+00
  0.00000000E+00  0.00000000E+00  0.00000000E+00
  0.00000000E+00  0.00000000E+00  0.00000000E+00
  0.00000000E+00  0.00000000E+00  0.00000000E+00
  0.00000000E+00  0.00000000E+00  0.00000000E+00
  0.00000000E+00  0.00000000E+00  0.00000000E+00
  0.00000000E+00  0.00000000E+00  0.00000000E+00
  0.00000000E+00  0.00000000E+00  0.00000000E+00
  0.00000000E+00  0.00000000E+00  0.00000000E+00
  0.00000000E+00  0.00000000E+00  0.00000000E+00
  0.00000000E+00  0.00000000E+00  0.00000000E+00
  0.00000000E+00  0.00000000E+00  0.00000000E+00
  0.00000000E+00  0.00000000E+00  0.00000000E+00
  0.00000000E+00  0.00000000E+00  0.00000000E+00
  0.00000000E+00  0.00000000E+00  0.00000000E+00
  0.00000000E+00  0.00000000E+00  0.00000000E+00
  0.00000000E+00  0.00000000E+00  0.00000000E+00
  0.00000000E+00  0.00000000E+00  0.00000000E+00
  0.00000000E+00  0.00000000E+00  0.00000000E+00
  0.00000000E+00  0.00000000E+00  0.00000000E+00
  0.00000000E+00  0.00000000E+00  0.00000000E+00
  0.00000000E+00  0.00000000E+00  0.00000000E+00
  0.00000000E+00  0.00000000E+00  0.00000000E+00
  0.00000000E+00  0.00000000E+00  0.00000000E+00
  0.00000000E+00  0.00000000E+00  0.00000000E+00
  0.00000000E+00  0.00000000E+00  0.00000000E+00
  0.00000000E+00  0.00000000E+00  0.00000000E+00
  0.00000000E+00  0.00000000E+00  0.00000000E+00
  0.00000000E+00  0.00000000E+00  0.00000000E+00
  0.00000000E+00  0.00000000E+00  0.00000000E+00
  0.00000000E+00  0.00000000E+00  0.00000000E+00
  0.00000000E+00  0.00000000E+00  0.00000000E+00
  0.00000000E+00  0.00000000E+00  0.00000000E+00
  0.00000000E+00  0.00000000E+00  0.00000000E+00
