Al   Gd   N                             
   1.00000000000000     
    -9.6878362658960224   -0.0013373372410506    0.0131425984362022
    -4.8442643319889145    8.3903950208561415    0.0049355767519427
    -0.1044531614533575   -0.0990328244353761  -10.5502471445888588
   Al   Gd   N 
    31     5    36
Direct
  0.1246049440918213  0.0813143370247644  0.4175791974059635
  0.7778501769240478  0.0889006733358855  0.8853989762154697
  0.8942660737049763  0.1999656699790009  0.5925294771012588
  0.4468282080737040  0.0916507742690698  0.4267990591295288
  0.1179056607138378  0.0871210850515780  0.8892612716061663
  0.2206648417181185  0.2061170432139718  0.6546660490309222
  0.7793689973828890  0.0812487377027438  0.4173900195066267
  0.8879382480800970  0.2041294573602244  0.0577662054485586
  0.4421620223302654  0.0966785038041920  0.8920379043146909
  0.5510279046341111  0.2011452617324352  0.6538898846093204
  0.1246568879242531  0.4247624493950397  0.4170345354289893
  0.2166166729601642  0.5498886831151566  0.1448523677847078
  0.7952231379538830  0.4203179023840846  0.8253289890723252
  0.8939350427557642  0.5379585210565878  0.5911214497281847
  0.4327161195535822  0.4247054249640030  0.4158212111141708
  0.5565843115099511  0.5396321988837158  0.0545881677620059
  0.1175542954113027  0.4300993890898468  0.8895797388729676
  0.2124106959364340  0.5413241377238123  0.6534937772162408
  0.8885149466050208  0.5421730947118704  0.0587658704559786
  0.4345576676020926  0.4281944179925361  0.8898514726308520
  0.1139024793932606  0.7585858004928170  0.3969544690806970
  0.2166294920529239  0.8682154195443914  0.1451978525909823
  0.7786264598328998  0.7690642431665466  0.8895315032820932
  0.8924875838607349  0.8694827777249756  0.6537414987037522
  0.4332476162803260  0.7730684312977232  0.4151208868423595
  0.1097043982214601  0.7628228546673981  0.9028531365135848
  0.2133294337723228  0.8786809507346405  0.6535161143670294
  0.7794050772351468  0.7693512462709862  0.4157915908899881
  0.8967648145215250  0.8696628253344656  0.1475979878329454
  0.4353075607317365  0.7724624625249206  0.8900817302673687
  0.5524385268415344  0.8799450431070497  0.6544860425726924
  0.2035762765539459  0.2156375341031520  0.1568921753495189
  0.5581285303541250  0.2162160332881840  0.1558334557701073
  0.7756393293886745  0.4263312735153875  0.3307998940132251
  0.5458666491164053  0.5433427999975322  0.6301640350708553
  0.5589986214557214  0.8617347266083470  0.1552382368100425
  0.2276048089510567  0.2012941821312140  0.3745011248142518
  0.1071872594340419  0.0745212470062242  0.0722829618169740
  0.8894746855889508  0.2059030931552925  0.8740051283298342
  0.7748520069483931  0.0890375486828390  0.6046496065962685
  0.5588328682512014  0.1999134128917177  0.3728343421823155
  0.4399844670811177  0.0979835573909753  0.0695205126017697
  0.2204580482218432  0.2071588991429891  0.8394029134361389
  0.1167973205871604  0.0907402122684147  0.6023450615170063
  0.9022476953454444  0.1800131103166080  0.4056995260372744
  0.7974804744240416  0.0760214887054786  0.0735800822849484
  0.5544665929460990  0.2070021845093919  0.8385168758986694
  0.4426708000929196  0.0945271516527342  0.6070903925934772
  0.2247249105279252  0.5327683054700216  0.3353926214699499
  0.1076155614165373  0.4525390296640310  0.0724298381272135
  0.8894152206081287  0.5401002896509226  0.8748384700984602
  0.8104918657702029  0.4112875380197067  0.6452620805055815
  0.5275020589242700  0.5513889051432699  0.4001696068614535
  0.4241638591269137  0.4537264235348317  0.0692071474137990
  0.2186556374359583  0.5465801377747823  0.8343623696239320
  0.1163727355170963  0.4250438488997332  0.6015722121313445
  0.9022058741946921  0.5472769570359333  0.4038112297125735
  0.7767624708682064  0.4291869257079526  0.1081313129282648
  0.5617680121277928  0.5367837562289779  0.8643494450251197
  0.4205212843170969  0.4095960301280073  0.5950136278699674
  0.2245619443368554  0.8732006712189317  0.3357958798535350
  0.1097788663687780  0.7625250014642049  0.0898707930881670
  0.8950568696487906  0.8697848419810370  0.8344373207551712
  0.7750642833155723  0.7682278005458087  0.6021165455811328
  0.5587690574769297  0.8714180093117250  0.3717705602118784
  0.4243817423949210  0.7581842087492987  0.0695265131497678
  0.2194108687992795  0.8690364119168308  0.8344352646319138
  0.1120700700715247  0.7601419721769602  0.5855287918665653
  0.8892037490343583  0.8706090772990862  0.3399366129545314
  0.7987396389013810  0.7613984167197785  0.0734290328650360
  0.5559079298093721  0.8731709599621240  0.8393801223044406
  0.4215870821689833  0.8018463534781830  0.5948923883893613
 
  0.00000000E+00  0.00000000E+00  0.00000000E+00
  0.00000000E+00  0.00000000E+00  0.00000000E+00
  0.00000000E+00  0.00000000E+00  0.00000000E+00
  0.00000000E+00  0.00000000E+00  0.00000000E+00
  0.00000000E+00  0.00000000E+00  0.00000000E+00
  0.00000000E+00  0.00000000E+00  0.00000000E+00
  0.00000000E+00  0.00000000E+00  0.00000000E+00
  0.00000000E+00  0.00000000E+00  0.00000000E+00
  0.00000000E+00  0.00000000E+00  0.00000000E+00
  0.00000000E+00  0.00000000E+00  0.00000000E+00
  0.00000000E+00  0.00000000E+00  0.00000000E+00
  0.00000000E+00  0.00000000E+00  0.00000000E+00
  0.00000000E+00  0.00000000E+00  0.00000000E+00
  0.00000000E+00  0.00000000E+00  0.00000000E+00
  0.00000000E+00  0.00000000E+00  0.00000000E+00
  0.00000000E+00  0.00000000E+00  0.00000000E+00
  0.00000000E+00  0.00000000E+00  0.00000000E+00
  0.00000000E+00  0.00000000E+00  0.00000000E+00
  0.00000000E+00  0.00000000E+00  0.00000000E+00
  0.00000000E+00  0.00000000E+00  0.00000000E+00
  0.00000000E+00  0.00000000E+00  0.00000000E+00
  0.00000000E+00  0.00000000E+00  0.00000000E+00
  0.00000000E+00  0.00000000E+00  0.00000000E+00
  0.00000000E+00  0.00000000E+00  0.00000000E+00
  0.00000000E+00  0.00000000E+00  0.00000000E+00
  0.00000000E+00  0.00000000E+00  0.00000000E+00
  0.00000000E+00  0.00000000E+00  0.00000000E+00
  0.00000000E+00  0.00000000E+00  0.00000000E+00
  0.00000000E+00  0.00000000E+00  0.00000000E+00
  0.00000000E+00  0.00000000E+00  0.00000000E+00
  0.00000000E+00  0.00000000E+00  0.00000000E+00
  0.00000000E+00  0.00000000E+00  0.00000000E+00
  0.00000000E+00  0.00000000E+00  0.00000000E+00
  0.00000000E+00  0.00000000E+00  0.00000000E+00
  0.00000000E+00  0.00000000E+00  0.00000000E+00
  0.00000000E+00  0.00000000E+00  0.00000000E+00
  0.00000000E+00  0.00000000E+00  0.00000000E+00
  0.00000000E+00  0.00000000E+00  0.00000000E+00
  0.00000000E+00  0.00000000E+00  0.00000000E+00
  0.00000000E+00  0.00000000E+00  0.00000000E+00
  0.00000000E+00  0.00000000E+00  0.00000000E+00
  0.00000000E+00  0.00000000E+00  0.00000000E+00
  0.00000000E+00  0.00000000E+00  0.00000000E+00
  0.00000000E+00  0.00000000E+00  0.00000000E+00
  0.00000000E+00  0.00000000E+00  0.00000000E+00
  0.00000000E+00  0.00000000E+00  0.00000000E+00
  0.00000000E+00  0.00000000E+00  0.00000000E+00
  0.00000000E+00  0.00000000E+00  0.00000000E+00
  0.00000000E+00  0.00000000E+00  0.00000000E+00
  0.00000000E+00  0.00000000E+00  0.00000000E+00
  0.00000000E+00  0.00000000E+00  0.00000000E+00
  0.00000000E+00  0.00000000E+00  0.00000000E+00
  0.00000000E+00  0.00000000E+00  0.00000000E+00
  0.00000000E+00  0.00000000E+00  0.00000000E+00
  0.00000000E+00  0.00000000E+00  0.00000000E+00
  0.00000000E+00  0.00000000E+00  0.00000000E+00
  0.00000000E+00  0.00000000E+00  0.00000000E+00
  0.00000000E+00  0.00000000E+00  0.00000000E+00
  0.00000000E+00  0.00000000E+00  0.00000000E+00
  0.00000000E+00  0.00000000E+00  0.00000000E+00
  0.00000000E+00  0.00000000E+00  0.00000000E+00
  0.00000000E+00  0.00000000E+00  0.00000000E+00
  0.00000000E+00  0.00000000E+00  0.00000000E+00
  0.00000000E+00  0.00000000E+00  0.00000000E+00
  0.00000000E+00  0.00000000E+00  0.00000000E+00
  0.00000000E+00  0.00000000E+00  0.00000000E+00
  0.00000000E+00  0.00000000E+00  0.00000000E+00
  0.00000000E+00  0.00000000E+00  0.00000000E+00
  0.00000000E+00  0.00000000E+00  0.00000000E+00
  0.00000000E+00  0.00000000E+00  0.00000000E+00
  0.00000000E+00  0.00000000E+00  0.00000000E+00
  0.00000000E+00  0.00000000E+00  0.00000000E+00
