Al   Gd   N                             
   1.00000000000000     
    -9.7084707367464098   -0.0003997984687435   -0.0085532845055824
    -4.8268930554082665    8.3956053001156441    0.0053254830765064
    -0.2064867592076756    0.0198892323803517  -10.6126128579961083
   Al   Gd   N 
    31     5    36
Direct
  0.1202849011722265  0.0831591588687175  0.3918182308723459
  0.7726124269057024  0.0907452225602015  0.7983907019051273
  0.8911538035893329  0.2008959800268997  0.5675313414689924
  0.4503924142661901  0.0949100226291719  0.3266961697778115
  0.1085742238803107  0.0814480475931276  0.8658982136138818
  0.2289366702442379  0.2001009727770082  0.5689869284974236
  0.7883725572113178  0.0895388865715105  0.3161298909756880
  0.8840064149558486  0.1991812843340952  0.0424392738984238
  0.4408082509197087  0.0929820381819226  0.7866750067259858
  0.5580334824669606  0.2020966654424470  0.5559433950093293
  0.1200339497654923  0.4342157974888892  0.3852421902331571
  0.2093051313869978  0.5465314720274748  0.1401914332098926
  0.7787370393122757  0.4236039612624154  0.8136693242327624
  0.8893004744093957  0.5431010626962660  0.5698179968076857
  0.4471720052774089  0.4312620387529975  0.3075469915966096
  0.5414993150748160  0.5464282425219764  0.0462444100427035
  0.1039625467349907  0.4244830907893089  0.8064340625641364
  0.2173652993808162  0.5416780670540859  0.6248346131169171
  0.8905762161673181  0.5472412080840670  0.0401925645158698
  0.4405429933352139  0.4214726480055475  0.8000756913402043
  0.1034564631003150  0.7695311290383984  0.3171241677015644
  0.2109772629422935  0.8769845562811653  0.1300844619971926
  0.7734179231872247  0.7656998919874809  0.7981269381078704
  0.8884302592584348  0.8730579285015878  0.5563715228125119
  0.4448032063568803  0.7629311114791619  0.3033993932870942
  0.0968807130017879  0.7630100986350996  0.8097993113485060
  0.2134024583581891  0.8812583718371343  0.6317379747987673
  0.7885566583579902  0.7613997339178766  0.3160868385118789
  0.9019740016160327  0.8652596606951803  0.0672580744597866
  0.4426717236241728  0.7639576744191032  0.8005042393637964
  0.5568139729464008  0.8742525711696487  0.5562441529667765
  0.2211500557627843  0.2099937517685504  0.0660969413945480
  0.5671796309247341  0.2082932798600012  0.0578440362379240
  0.8003809878723516  0.4236992684767316  0.2894831398629805
  0.5602379105222468  0.5380043345522196  0.5590995441213309
  0.5653602068689736  0.8664247796215747  0.0557881043973580
  0.2269753229786744  0.2080101092182360  0.3792757060630976
  0.1018373655315656  0.0698479435736274  0.0479931947370531
  0.8757046381077558  0.2010860533644419  0.8597922260009909
  0.7774881451777347  0.0913964329472634  0.6172960453082155
  0.5623429829861735  0.2093809474680128  0.3710800880740024
  0.4540884881730634  0.0930334737587728  0.1531252279535309
  0.2181970634371666  0.2018519932717098  0.8381265207944821
  0.1158392887972823  0.0880522038222580  0.5749590898093828
  0.8957065739093863  0.1885570407840831  0.3848396531785383
  0.8102610082877320  0.0799013324075375  0.1353217099849005
  0.5491135480219214  0.2003613927999197  0.8432611218300892
  0.4486994519502971  0.0921850141101004  0.6054962777869122
  0.2227641618553875  0.5421117439084711  0.3336383452208693
  0.0926103903427276  0.4575928795354329  0.0938306995848137
  0.8822794602905830  0.5465971466873043  0.8567726466822947
  0.8103249086616415  0.4104888571426670  0.6324243932662270
  0.5448646468348528  0.5484051819346973  0.3506830943962242
  0.4318481752228749  0.4522786859659078  0.1250147951141685
  0.2136730031296565  0.5386948052809757  0.8134161277321184
  0.1124881535007844  0.4259271341069564  0.5993868050544791
  0.8991417216895172  0.5560450269750135  0.3915554002678263
  0.7742622743743510  0.4288483779900147  0.0738593231391675
  0.5457656175452001  0.5402366730654720  0.8562762461226612
  0.4367856135296790  0.4104363201061147  0.6193143494623286
  0.2186807467908736  0.8833220737247558  0.3183515988726384
  0.1044864235750111  0.7645748749212586  0.1299205404011090
  0.8798159572680362  0.8740669062311852  0.8741484426868738
  0.7768665680996776  0.7649977890652977  0.6178389173877576
  0.5613849870779788  0.8665128131502300  0.3706454602303211
  0.4343533142133182  0.7507545796690280  0.1198585887438668
  0.2150885364290716  0.8697608283220220  0.8149911503607399
  0.1003671527641004  0.7671149347295696  0.6162359447633534
  0.8884844281071764  0.8750788920937325  0.3760229272318227
  0.8061489568794755  0.7452788700313775  0.1337734944317219
  0.5511659117669225  0.8754597628367904  0.8416321798991717
  0.4347237326515412  0.7869049608886982  0.6206512156442088
 
  0.00000000E+00  0.00000000E+00  0.00000000E+00
  0.00000000E+00  0.00000000E+00  0.00000000E+00
  0.00000000E+00  0.00000000E+00  0.00000000E+00
  0.00000000E+00  0.00000000E+00  0.00000000E+00
  0.00000000E+00  0.00000000E+00  0.00000000E+00
  0.00000000E+00  0.00000000E+00  0.00000000E+00
  0.00000000E+00  0.00000000E+00  0.00000000E+00
  0.00000000E+00  0.00000000E+00  0.00000000E+00
  0.00000000E+00  0.00000000E+00  0.00000000E+00
  0.00000000E+00  0.00000000E+00  0.00000000E+00
  0.00000000E+00  0.00000000E+00  0.00000000E+00
  0.00000000E+00  0.00000000E+00  0.00000000E+00
  0.00000000E+00  0.00000000E+00  0.00000000E+00
  0.00000000E+00  0.00000000E+00  0.00000000E+00
  0.00000000E+00  0.00000000E+00  0.00000000E+00
  0.00000000E+00  0.00000000E+00  0.00000000E+00
  0.00000000E+00  0.00000000E+00  0.00000000E+00
  0.00000000E+00  0.00000000E+00  0.00000000E+00
  0.00000000E+00  0.00000000E+00  0.00000000E+00
  0.00000000E+00  0.00000000E+00  0.00000000E+00
  0.00000000E+00  0.00000000E+00  0.00000000E+00
  0.00000000E+00  0.00000000E+00  0.00000000E+00
  0.00000000E+00  0.00000000E+00  0.00000000E+00
  0.00000000E+00  0.00000000E+00  0.00000000E+00
  0.00000000E+00  0.00000000E+00  0.00000000E+00
  0.00000000E+00  0.00000000E+00  0.00000000E+00
  0.00000000E+00  0.00000000E+00  0.00000000E+00
  0.00000000E+00  0.00000000E+00  0.00000000E+00
  0.00000000E+00  0.00000000E+00  0.00000000E+00
  0.00000000E+00  0.00000000E+00  0.00000000E+00
  0.00000000E+00  0.00000000E+00  0.00000000E+00
  0.00000000E+00  0.00000000E+00  0.00000000E+00
  0.00000000E+00  0.00000000E+00  0.00000000E+00
  0.00000000E+00  0.00000000E+00  0.00000000E+00
  0.00000000E+00  0.00000000E+00  0.00000000E+00
  0.00000000E+00  0.00000000E+00  0.00000000E+00
  0.00000000E+00  0.00000000E+00  0.00000000E+00
  0.00000000E+00  0.00000000E+00  0.00000000E+00
  0.00000000E+00  0.00000000E+00  0.00000000E+00
  0.00000000E+00  0.00000000E+00  0.00000000E+00
  0.00000000E+00  0.00000000E+00  0.00000000E+00
  0.00000000E+00  0.00000000E+00  0.00000000E+00
  0.00000000E+00  0.00000000E+00  0.00000000E+00
  0.00000000E+00  0.00000000E+00  0.00000000E+00
  0.00000000E+00  0.00000000E+00  0.00000000E+00
  0.00000000E+00  0.00000000E+00  0.00000000E+00
  0.00000000E+00  0.00000000E+00  0.00000000E+00
  0.00000000E+00  0.00000000E+00  0.00000000E+00
  0.00000000E+00  0.00000000E+00  0.00000000E+00
  0.00000000E+00  0.00000000E+00  0.00000000E+00
  0.00000000E+00  0.00000000E+00  0.00000000E+00
  0.00000000E+00  0.00000000E+00  0.00000000E+00
  0.00000000E+00  0.00000000E+00  0.00000000E+00
  0.00000000E+00  0.00000000E+00  0.00000000E+00
  0.00000000E+00  0.00000000E+00  0.00000000E+00
  0.00000000E+00  0.00000000E+00  0.00000000E+00
  0.00000000E+00  0.00000000E+00  0.00000000E+00
  0.00000000E+00  0.00000000E+00  0.00000000E+00
  0.00000000E+00  0.00000000E+00  0.00000000E+00
  0.00000000E+00  0.00000000E+00  0.00000000E+00
  0.00000000E+00  0.00000000E+00  0.00000000E+00
  0.00000000E+00  0.00000000E+00  0.00000000E+00
  0.00000000E+00  0.00000000E+00  0.00000000E+00
  0.00000000E+00  0.00000000E+00  0.00000000E+00
  0.00000000E+00  0.00000000E+00  0.00000000E+00
  0.00000000E+00  0.00000000E+00  0.00000000E+00
  0.00000000E+00  0.00000000E+00  0.00000000E+00
  0.00000000E+00  0.00000000E+00  0.00000000E+00
  0.00000000E+00  0.00000000E+00  0.00000000E+00
  0.00000000E+00  0.00000000E+00  0.00000000E+00
  0.00000000E+00  0.00000000E+00  0.00000000E+00
  0.00000000E+00  0.00000000E+00  0.00000000E+00
