Al   Gd   N                             
   1.00000000000000     
    -9.6791291606853633    0.0002070167225260    0.0134026775272970
    -4.8310426941630871    8.3978050082797768    0.0057148747224693
    -0.1228857115520470   -0.1292238628486157  -10.5830772018633432
   Al   Gd   N 
    31     5    36
Direct
  0.1259998166972167  0.0797702273311742  0.4187261424506517
  0.7782891383094181  0.0983607330039220  0.8258559011694899
  0.8932626831602590  0.1990980686669914  0.5911251745720136
  0.4475783370727910  0.0900311145779327  0.4266676814051351
  0.1168851823881596  0.0874085839743231  0.8906561366060970
  0.2195740601942973  0.2061491008221239  0.6551257685407919
  0.7865244538107277  0.0808085689785472  0.3726287117424292
  0.8837122318397164  0.1992516014214445  0.0608572287576479
  0.4413593110390650  0.0970716043668247  0.8918274392981260
  0.5451057099362231  0.2049551756814196  0.6513349687012706
  0.1249842426622934  0.4234012863616243  0.4167558180416293
  0.2162073466609868  0.5506891020890663  0.1436785084933732
  0.7947837755631326  0.4213950452198247  0.8274893355041542
  0.8943536606176536  0.5359486925450838  0.5914879856577784
  0.4337715605530832  0.4244652618972466  0.4155805872782707
  0.5570077239066507  0.5407555703263398  0.0539062549925333
  0.1172917240516185  0.4306741742904734  0.8896190176168801
  0.2122298981158437  0.5412860556619563  0.6538252175618595
  0.8880880015494697  0.5432020984200250  0.0582147864695557
  0.4330906628739157  0.4303927593274395  0.8900386497431541
  0.1170994591492516  0.7551338714797851  0.3983129170872246
  0.2157019590615690  0.8690280031424109  0.1443421812564623
  0.7784770939492986  0.7717432131176238  0.8908283324832595
  0.8958633009935397  0.8642251481375567  0.6518675706295411
  0.4341798359418760  0.7722232309735588  0.4150417775916537
  0.1086728810753499  0.7640102099505768  0.9030434356526129
  0.2140982010229351  0.8786240262790699  0.6539165749673899
  0.7798503482944952  0.7665047936699949  0.4173069069414197
  0.8994029520547926  0.8661619238012790  0.1527581965388620
  0.4350215048329176  0.7735046368670453  0.8902557341363462
  0.5525521303022813  0.8798606861851823  0.6547908795539428
  0.2012731041285321  0.2154532544861141  0.1557387323946529
  0.5477285992192407  0.2211926719833812  0.1554096230912378
  0.7763805521750342  0.4234438071417372  0.3280840933704923
  0.5472537303546190  0.5428723121853238  0.6304770574392222
  0.5592904174391791  0.8615852733768463  0.1555252448671922
  0.2283099628370096  0.1999361781355304  0.3735475875649712
  0.1060441674338861  0.0743968537132460  0.0706907724010577
  0.8855989534855411  0.2054982786567194  0.8788227960001294
  0.7769030126470611  0.0946230136100894  0.6370908573580323
  0.5603166473728507  0.1983432200358948  0.3743561399319759
  0.4378111307124612  0.0952092173813242  0.0679628321162227
  0.2188489842770664  0.2077820421069489  0.8389393801831773
  0.1168890916452412  0.0902797884933477  0.6024251665886098
  0.9020695680322177  0.1783360081790306  0.4105612069721047
  0.8023967751399255  0.0854605730060953  0.1367759104827115
  0.5484438270250322  0.2111360356140040  0.8378276370480080
  0.4419901254563356  0.0940764664466016  0.6061419168190767
  0.2265682284871531  0.5304728785147930  0.3347909357475771
  0.1077846490743042  0.4525020583463331  0.0720778511034581
  0.8892550098780774  0.5416415436311937  0.8750440842520888
  0.8119509127472568  0.4094678305571691  0.6477572127892444
  0.5293164601114952  0.5505280056948720  0.3998031716720050
  0.4228147682847236  0.4574079575100640  0.0677165718632580
  0.2178437242744380  0.5475790724636411  0.8338633364241375
  0.1168670710315141  0.4245288255372017  0.6009288974177025
  0.9017458537008665  0.5439928268968117  0.4046005172786806
  0.7766019606099164  0.4310461136656301  0.1065445437751720
  0.5613272793799453  0.5379431755829174  0.8636800370158895
  0.4194411159064941  0.4114743670826755  0.5933562197726800
  0.2248283051586952  0.8723457589715480  0.3359539319846974
  0.1094840006270061  0.7626512756758927  0.0890716816528823
  0.8958106794194549  0.8701582869098488  0.8350094276009514
  0.7753436500345714  0.7672015329711144  0.6018750806418680
  0.5598501957901192  0.8704553240695958  0.3719109362612301
  0.4240809329323270  0.7593087169756103  0.0690232115364893
  0.2191397600283764  0.8697142013238306  0.8341757123719447
  0.1137947528229120  0.7589130357542331  0.5856145776475685
  0.8960294988088435  0.8589035355818808  0.3438883522497136
  0.7992329852599482  0.7630265115633392  0.0736248323722251
  0.5561500103363457  0.8737918366814981  0.8385880641467836
  0.4223986574413985  0.8010559289856189  0.5945045236035682
 
  0.00000000E+00  0.00000000E+00  0.00000000E+00
  0.00000000E+00  0.00000000E+00  0.00000000E+00
  0.00000000E+00  0.00000000E+00  0.00000000E+00
  0.00000000E+00  0.00000000E+00  0.00000000E+00
  0.00000000E+00  0.00000000E+00  0.00000000E+00
  0.00000000E+00  0.00000000E+00  0.00000000E+00
  0.00000000E+00  0.00000000E+00  0.00000000E+00
  0.00000000E+00  0.00000000E+00  0.00000000E+00
  0.00000000E+00  0.00000000E+00  0.00000000E+00
  0.00000000E+00  0.00000000E+00  0.00000000E+00
  0.00000000E+00  0.00000000E+00  0.00000000E+00
  0.00000000E+00  0.00000000E+00  0.00000000E+00
  0.00000000E+00  0.00000000E+00  0.00000000E+00
  0.00000000E+00  0.00000000E+00  0.00000000E+00
  0.00000000E+00  0.00000000E+00  0.00000000E+00
  0.00000000E+00  0.00000000E+00  0.00000000E+00
  0.00000000E+00  0.00000000E+00  0.00000000E+00
  0.00000000E+00  0.00000000E+00  0.00000000E+00
  0.00000000E+00  0.00000000E+00  0.00000000E+00
  0.00000000E+00  0.00000000E+00  0.00000000E+00
  0.00000000E+00  0.00000000E+00  0.00000000E+00
  0.00000000E+00  0.00000000E+00  0.00000000E+00
  0.00000000E+00  0.00000000E+00  0.00000000E+00
  0.00000000E+00  0.00000000E+00  0.00000000E+00
  0.00000000E+00  0.00000000E+00  0.00000000E+00
  0.00000000E+00  0.00000000E+00  0.00000000E+00
  0.00000000E+00  0.00000000E+00  0.00000000E+00
  0.00000000E+00  0.00000000E+00  0.00000000E+00
  0.00000000E+00  0.00000000E+00  0.00000000E+00
  0.00000000E+00  0.00000000E+00  0.00000000E+00
  0.00000000E+00  0.00000000E+00  0.00000000E+00
  0.00000000E+00  0.00000000E+00  0.00000000E+00
  0.00000000E+00  0.00000000E+00  0.00000000E+00
  0.00000000E+00  0.00000000E+00  0.00000000E+00
  0.00000000E+00  0.00000000E+00  0.00000000E+00
  0.00000000E+00  0.00000000E+00  0.00000000E+00
  0.00000000E+00  0.00000000E+00  0.00000000E+00
  0.00000000E+00  0.00000000E+00  0.00000000E+00
  0.00000000E+00  0.00000000E+00  0.00000000E+00
  0.00000000E+00  0.00000000E+00  0.00000000E+00
  0.00000000E+00  0.00000000E+00  0.00000000E+00
  0.00000000E+00  0.00000000E+00  0.00000000E+00
  0.00000000E+00  0.00000000E+00  0.00000000E+00
  0.00000000E+00  0.00000000E+00  0.00000000E+00
  0.00000000E+00  0.00000000E+00  0.00000000E+00
  0.00000000E+00  0.00000000E+00  0.00000000E+00
  0.00000000E+00  0.00000000E+00  0.00000000E+00
  0.00000000E+00  0.00000000E+00  0.00000000E+00
  0.00000000E+00  0.00000000E+00  0.00000000E+00
  0.00000000E+00  0.00000000E+00  0.00000000E+00
  0.00000000E+00  0.00000000E+00  0.00000000E+00
  0.00000000E+00  0.00000000E+00  0.00000000E+00
  0.00000000E+00  0.00000000E+00  0.00000000E+00
  0.00000000E+00  0.00000000E+00  0.00000000E+00
  0.00000000E+00  0.00000000E+00  0.00000000E+00
  0.00000000E+00  0.00000000E+00  0.00000000E+00
  0.00000000E+00  0.00000000E+00  0.00000000E+00
  0.00000000E+00  0.00000000E+00  0.00000000E+00
  0.00000000E+00  0.00000000E+00  0.00000000E+00
  0.00000000E+00  0.00000000E+00  0.00000000E+00
  0.00000000E+00  0.00000000E+00  0.00000000E+00
  0.00000000E+00  0.00000000E+00  0.00000000E+00
  0.00000000E+00  0.00000000E+00  0.00000000E+00
  0.00000000E+00  0.00000000E+00  0.00000000E+00
  0.00000000E+00  0.00000000E+00  0.00000000E+00
  0.00000000E+00  0.00000000E+00  0.00000000E+00
  0.00000000E+00  0.00000000E+00  0.00000000E+00
  0.00000000E+00  0.00000000E+00  0.00000000E+00
  0.00000000E+00  0.00000000E+00  0.00000000E+00
  0.00000000E+00  0.00000000E+00  0.00000000E+00
  0.00000000E+00  0.00000000E+00  0.00000000E+00
  0.00000000E+00  0.00000000E+00  0.00000000E+00
