Al   Gd   N                             
   1.00000000000000     
    -9.7398223326465061    0.0094731405039859    0.0149631520738658
    -4.8801856591476058    8.4487921185880559    0.0103906625456284
    -0.1836529472901610   -0.0937080713530345  -10.4218355654728807
   Al   Gd   N 
    31     5    36
Direct
  0.1225229816909277  0.0812063624028951  0.4240688187268660
  0.7724463989638863  0.0927051081606791  0.8294992496911462
  0.8901299390986850  0.1999173207944551  0.5945807489097064
  0.4434485725437085  0.0949413080855592  0.3656336896852821
  0.1163039415328129  0.0869815853810394  0.8871122947346493
  0.2218574059165945  0.2057341944402040  0.6438304241792068
  0.8020618637015033  0.0776928629518778  0.3394263079966464
  0.8884501977103270  0.1946824698085905  0.0652524500125153
  0.4461262191632613  0.0936042269701929  0.8417781857409636
  0.5612430600701970  0.1948515545889364  0.5786277901099197
  0.1225291027130240  0.4296074825356371  0.4240699630123572
  0.2116373155148494  0.5519260037953302  0.1458201172089133
  0.7912891129498618  0.4210259613999909  0.8329822020245317
  0.8901328358440566  0.5432802976268860  0.5945791086724697
  0.4312559709620700  0.4313675426069139  0.4043932160879464
  0.5556290031630482  0.5388466780967462  0.0641708076799858
  0.1163069860337771  0.4300525306125280  0.8871101375943553
  0.2161832995741122  0.5394935626775776  0.6536193646995230
  0.8884544311544076  0.5502024689292142  0.0652500879836140
  0.4324697314884673  0.4294045477468345  0.8961018460330621
  0.1226523007003308  0.7553436336073887  0.4021085774951985
  0.2116334425494628  0.8697660657697384  0.1458215308898474
  0.7724467242699049  0.7681860788416657  0.8295002997241170
  0.8885272266331228  0.8724010175722015  0.5850315037705869
  0.4312539873032293  0.7707081368572730  0.4043919247061609
  0.1159390554932145  0.7587012308209893  0.9005730025078620
  0.2161835964467969  0.8776537181063659  0.6536171430622986
  0.8020667528967209  0.7535825731878845  0.3394242065170019
  0.8970551462529031  0.8681385805380231  0.0851395386842455
  0.4324689561911157  0.7714621683868401  0.8961041230162650
  0.5612453691003694  0.8772249203147808  0.5786254985595818
  0.1694520766634398  0.2319412839509525  0.1706908900495065
  0.5575225001782442  0.2115259584449589  0.1214815963450775
  0.7764062488950501  0.4284704877780570  0.3350521675148102
  0.5420257273434927  0.5456459776460889  0.6330120086825559
  0.5575225092114522  0.8642613808195421  0.1214836931005792
  0.2164279510605880  0.2084440273597181  0.3899677007501836
  0.1094662259958952  0.0714080366700145  0.0687642201321665
  0.8819609350596167  0.2029664258463484  0.8807419158936227
  0.7763921444148565  0.0917404646128475  0.6440827272040153
  0.5697075490849315  0.1995259887173759  0.3813609912815323
  0.4199075809674966  0.1067165829015195  0.1739160900748473
  0.2189872033146543  0.2071666933842806  0.8359144426763692
  0.1131794635635046  0.0904041853409865  0.6080913968195816
  0.9008834822463072  0.1810492814350368  0.4095680755913307
  0.8197474197499233  0.0729117760207885  0.1567179117572977
  0.5527247882097157  0.2034577422370063  0.8838761917235303
  0.4484825624991657  0.0924307772580661  0.6151575395564208
  0.2199897148539947  0.5361233857322958  0.3365204472734717
  0.1094726002494042  0.4524652828910547  0.0687616645950371
  0.8819634676117047  0.5483960896497848  0.8807444842294387
  0.8076794954150870  0.4128373781539949  0.6476676644960406
  0.5262442369107490  0.5535319734602666  0.3912368973095042
  0.4190828809005254  0.4612654393186659  0.0780719167981374
  0.2213682565489492  0.5445178878091568  0.8343455429610316
  0.1131828084377062  0.4297605763986851  0.6080941119322034
  0.9008922171492273  0.5513882597247957  0.4095629298427710
  0.7805057211604165  0.4264259727290067  0.1102061986455993
  0.5592571072964319  0.5370307501401399  0.8681002998695604
  0.4212142933459972  0.4114485879383381  0.5865446190149015
  0.2199864527106428  0.8772105798460075  0.3365217967837353
  0.1155914004485439  0.7588759764561033  0.0862620591431025
  0.8813820647350710  0.8759720261188022  0.8934984957898351
  0.7763956493633728  0.7652149495856762  0.6440827199761330
  0.5697093186008857  0.8640753415025202  0.3813612414420717
  0.4190731671421943  0.7530001198209391  0.0780716083222828
  0.2213708463998429  0.8674342045220200  0.8343426703720951
  0.1217693761839982  0.7557878494578887  0.5908545799366749
  0.8940496864799599  0.8696377549678687  0.4003640726986930
  0.8197474744712778  0.7406999679303752  0.1567163336504009
  0.5527247593800979  0.8771349761769685  0.8838804608005546
  0.4212190692405784  0.8006786095734455  0.5865451418010963
 
  0.00000000E+00  0.00000000E+00  0.00000000E+00
  0.00000000E+00  0.00000000E+00  0.00000000E+00
  0.00000000E+00  0.00000000E+00  0.00000000E+00
  0.00000000E+00  0.00000000E+00  0.00000000E+00
  0.00000000E+00  0.00000000E+00  0.00000000E+00
  0.00000000E+00  0.00000000E+00  0.00000000E+00
  0.00000000E+00  0.00000000E+00  0.00000000E+00
  0.00000000E+00  0.00000000E+00  0.00000000E+00
  0.00000000E+00  0.00000000E+00  0.00000000E+00
  0.00000000E+00  0.00000000E+00  0.00000000E+00
  0.00000000E+00  0.00000000E+00  0.00000000E+00
  0.00000000E+00  0.00000000E+00  0.00000000E+00
  0.00000000E+00  0.00000000E+00  0.00000000E+00
  0.00000000E+00  0.00000000E+00  0.00000000E+00
  0.00000000E+00  0.00000000E+00  0.00000000E+00
  0.00000000E+00  0.00000000E+00  0.00000000E+00
  0.00000000E+00  0.00000000E+00  0.00000000E+00
  0.00000000E+00  0.00000000E+00  0.00000000E+00
  0.00000000E+00  0.00000000E+00  0.00000000E+00
  0.00000000E+00  0.00000000E+00  0.00000000E+00
  0.00000000E+00  0.00000000E+00  0.00000000E+00
  0.00000000E+00  0.00000000E+00  0.00000000E+00
  0.00000000E+00  0.00000000E+00  0.00000000E+00
  0.00000000E+00  0.00000000E+00  0.00000000E+00
  0.00000000E+00  0.00000000E+00  0.00000000E+00
  0.00000000E+00  0.00000000E+00  0.00000000E+00
  0.00000000E+00  0.00000000E+00  0.00000000E+00
  0.00000000E+00  0.00000000E+00  0.00000000E+00
  0.00000000E+00  0.00000000E+00  0.00000000E+00
  0.00000000E+00  0.00000000E+00  0.00000000E+00
  0.00000000E+00  0.00000000E+00  0.00000000E+00
  0.00000000E+00  0.00000000E+00  0.00000000E+00
  0.00000000E+00  0.00000000E+00  0.00000000E+00
  0.00000000E+00  0.00000000E+00  0.00000000E+00
  0.00000000E+00  0.00000000E+00  0.00000000E+00
  0.00000000E+00  0.00000000E+00  0.00000000E+00
  0.00000000E+00  0.00000000E+00  0.00000000E+00
  0.00000000E+00  0.00000000E+00  0.00000000E+00
  0.00000000E+00  0.00000000E+00  0.00000000E+00
  0.00000000E+00  0.00000000E+00  0.00000000E+00
  0.00000000E+00  0.00000000E+00  0.00000000E+00
  0.00000000E+00  0.00000000E+00  0.00000000E+00
  0.00000000E+00  0.00000000E+00  0.00000000E+00
  0.00000000E+00  0.00000000E+00  0.00000000E+00
  0.00000000E+00  0.00000000E+00  0.00000000E+00
  0.00000000E+00  0.00000000E+00  0.00000000E+00
  0.00000000E+00  0.00000000E+00  0.00000000E+00
  0.00000000E+00  0.00000000E+00  0.00000000E+00
  0.00000000E+00  0.00000000E+00  0.00000000E+00
  0.00000000E+00  0.00000000E+00  0.00000000E+00
  0.00000000E+00  0.00000000E+00  0.00000000E+00
  0.00000000E+00  0.00000000E+00  0.00000000E+00
  0.00000000E+00  0.00000000E+00  0.00000000E+00
  0.00000000E+00  0.00000000E+00  0.00000000E+00
  0.00000000E+00  0.00000000E+00  0.00000000E+00
  0.00000000E+00  0.00000000E+00  0.00000000E+00
  0.00000000E+00  0.00000000E+00  0.00000000E+00
  0.00000000E+00  0.00000000E+00  0.00000000E+00
  0.00000000E+00  0.00000000E+00  0.00000000E+00
  0.00000000E+00  0.00000000E+00  0.00000000E+00
  0.00000000E+00  0.00000000E+00  0.00000000E+00
  0.00000000E+00  0.00000000E+00  0.00000000E+00
  0.00000000E+00  0.00000000E+00  0.00000000E+00
  0.00000000E+00  0.00000000E+00  0.00000000E+00
  0.00000000E+00  0.00000000E+00  0.00000000E+00
  0.00000000E+00  0.00000000E+00  0.00000000E+00
  0.00000000E+00  0.00000000E+00  0.00000000E+00
  0.00000000E+00  0.00000000E+00  0.00000000E+00
  0.00000000E+00  0.00000000E+00  0.00000000E+00
  0.00000000E+00  0.00000000E+00  0.00000000E+00
  0.00000000E+00  0.00000000E+00  0.00000000E+00
  0.00000000E+00  0.00000000E+00  0.00000000E+00
