supercell of POSCAR                     
   1.01800000000000     
     3.1310994802600001   -5.4896946145000003   10.0244832682999991
    -9.4821132118399998   -5.5089477087900001    0.0170740616273000
     6.3359946057599998  -11.0114127993000004  -10.0652216442999993
   Al   Gd   N 
    84    11    96
Direct
  0.0872719121101326  0.5848833894902512  0.3361524043404103
  0.4979189095672183  0.3271310489025723  0.2535999900753083
  0.0872924777189610  0.0857548696416330  0.3336301573999521
  0.2525803474504613  0.5800885117010353  0.4917502040998230
  0.3314728723370948  0.3189558125539520  0.0786645923301421
  0.4174252203391191  0.0853323751868800  0.1691305231073628
  0.0077003762359453  0.8428305153771163  0.2558803794263653
  0.1703177401844727  0.3339996212811158  0.4089522054526213
  0.2481356741418992  0.0872888340857259  0.4948254884203394
  0.1640841938669553  0.8360817870230122  0.4146438472671647
  0.3401903191718958  0.6706211952055554  0.3295911804027654
  0.1535252993808598  0.6692266625739478  0.1746067537815179
  0.2616130847353588  0.4151006865079765  0.2452240940886767
  0.3353419762074452  0.1671769205508227  0.3318257302675178
  0.0051084185147090  0.6743099827680510  0.4947259648361353
  0.1694606119879651  0.1622788524222898  0.1690555510966192
  0.2549343725522348  0.9207261694417497  0.2545479451836385
  0.4136358506736926  0.4161356341560634  0.4131442709099460
  0.4987727501490298  0.1619368226246820  0.4957291879571599
  0.0947639618851213  0.9180730205030514  0.0822497623680576
  0.4195336341278022  0.9200521652062434  0.4103044047882349
  0.0894691202661875  0.5824399518671086  0.8355918477290416
  0.4995983965821580  0.3220323763060335  0.7550051184228153
  0.0870540624295941  0.0823189420758581  0.8357417511888698
  0.2531673465839006  0.5670386374392393  0.9934384862754442
  0.3321303513296314  0.3184611704303109  0.5767016696780729
  0.4170998428474135  0.0868663693431273  0.6705162973903995
  0.0088502349075554  0.8416094775119376  0.7573130509655570
  0.1678221417783945  0.3244258173640304  0.9119445609251926
  0.2527317386837709  0.0759296765335833  0.0004695701762003
  0.1686453307356501  0.8336591874597445  0.9218440981499754
  0.3364268904280650  0.6730761589156273  0.8394825301249753
  0.1540643807715227  0.6745739618011015  0.6652835597189650
  0.2497416472755916  0.4009051234587915  0.7512820672136726
  0.3346411330309706  0.1628717624389608  0.8343672777213413
  0.0071123968795490  0.6745868547125227  0.9954731961151211
  0.1671233746823617  0.1588557539654971  0.6690005452444794
  0.2527630450725269  0.9192929983755533  0.7559342760508869
  0.4126622114807859  0.4131920717264350  0.9143012659485166
  0.4990844841661612  0.1642406749330831  0.9975568037188580
  0.0832734086287488  0.9235955149672961  0.5793764982395970
  0.4184351965521600  0.9205301819940956  0.9136869884263916
  0.5826154041954581  0.5865305844458035  0.3284244401093019
  0.0032885551562245  0.3254148720348482  0.2541617572114347
  0.5863801454022877  0.0877475185006915  0.3332327647606093
  0.7496392051970275  0.5793422063025346  0.4932730133902012
  0.8275665828457477  0.3222450099509757  0.0797110553184837
  0.9198646922175087  0.0871650812476759  0.1704430006781621
  0.5079717097317911  0.8441744088071701  0.2564555052850821
  0.6675799223086685  0.3334113517737549  0.4115588201884606
  0.7481946766183398  0.0874728013643207  0.4954166654253385
  0.6616373194933587  0.8374359019351445  0.4154657634128185
  0.8337009980894337  0.6743986263907473  0.3401507604387248
  0.6432073053415195  0.6814088685405579  0.1648730982440298
  0.7497344085004514  0.4029795721718301  0.2520731620572860
  0.8357725434719256  0.1662458701628751  0.3330911757809787
  0.5053331244656079  0.6734811748066605  0.4911191560907753
  0.6669712315582359  0.1632603257660463  0.1686294198026843
  0.7529800966619931  0.9230240367200082  0.2553253070948927
  0.9126379296089837  0.4149695744411943  0.4152827981811242
  0.9995301373123908  0.1626347445721805  0.4964024227332331
  0.5830927486960249  0.9266457348320642  0.0789178806993434
  0.9201524783988191  0.9207118894129707  0.4116343403491811
  0.5887653361780920  0.5848505889123032  0.8335120468318280
  0.9996068960378324  0.3216086317340583  0.7551901898476103
  0.5859683136351848  0.0853562766039104  0.8351211280453512
  0.7470616931043423  0.5775353308950741  0.9970127309179659
  0.8319723220314330  0.3183760338432862  0.5787913112736973
  0.9178640295288005  0.0863052083554550  0.6717780346991802
  0.5069514122083945  0.8438161456583160  0.7553091507868999
  0.6650444483277269  0.3344788326509942  0.9171328146739128
  0.7486286969514921  0.0882662508735166  0.9968917790940779
  0.6625883196079982  0.8384038999365728  0.9166134366521845
  0.8361095063697945  0.6730245639090811  0.8420755339490924
  0.6533435041844982  0.6754857603008233  0.6646794280145869
  0.7489939104870658  0.4013466645295125  0.7537413631756422
  0.8342203857385897  0.1650798856449356  0.8357155889292756
  0.5084960423520855  0.6768135622056235  0.9914530710383431
  0.6672121065464367  0.1588445485801202  0.6695367107108865
  0.7536225174709159  0.9203162491694457  0.7569418885631194
  0.9132890348112142  0.4140888325071828  0.9169285822266957
  0.0000540761269932  0.1618302762331041  0.9992433723539165
  0.5831323001460618  0.9241249403338188  0.5790712724224250
  0.9229852662821969  0.9205853172814358  0.9132115640365441
  0.3588358383618839  0.7864779644046394  0.1012870192567448
  0.0848355828064342  0.4275069152138329  0.0854108212631601
  0.3972883165887069  0.5790989869305108  0.6772940975303428
  0.3322493183712751  0.8354682482161735  0.5825249143650240
  0.0833216996453388  0.4207246781042500  0.5832844407844178
  0.8903145569766835  0.5823979487342967  0.1794891162294263
  0.8346376395567390  0.8367360341121355  0.0836545773146327
  0.5560699434736875  0.4368812358486451  0.0953227530022716
  0.8960554401831757  0.5790295571852866  0.6791323870493144
  0.8316541629052807  0.8368105403175861  0.5844530264513921
  0.5814725984245683  0.4193214183800293  0.5841908838231760
  0.2120517662384671  0.5815382466972068  0.2712507713799681
  0.0272900382734207  0.6199495268826141  0.1035226372082576
  0.1342112139406879  0.3226879369644067  0.1987732710504702
  0.2132279846687766  0.0836123283339916  0.2716728909015558
  0.3820248316282360  0.5851315562661981  0.4337516215856638
  0.4486130594904338  0.3209399670640920  0.0089050094356651
  0.0448821189544120  0.0825032882341219  0.1041218454795469
  0.1341910378909077  0.8390660387425370  0.1891304196989196
  0.2978099306237922  0.3334316191986630  0.3481472813071989
  0.3766272197283840  0.0819062383757796  0.4339681948659262
  0.4760121629112959  0.8409775773162735  0.0071792810556488
  0.2938877021817632  0.8340949134357984  0.3549833318947364
  0.4710467230494544  0.6869595511385924  0.2788639200183880
  0.2452163921961343  0.6218897523688511  0.0978286085310742
  0.3811894040833224  0.3891540676119760  0.1801210634393371
  0.4627160530125920  0.1642617165954832  0.2724747572875046
  0.1321048951187862  0.6666965267586207  0.4344240424250998
  0.2223983717841378  0.4033182966484219  0.0060720560953058
  0.2914939033293606  0.1573736757490067  0.1022861358791545
  0.3855478009896132  0.9272847178823156  0.2001811748902185
  0.0419023789334290  0.4193911702508188  0.3530079936635957
  0.1278525446472614  0.1724584703243295  0.4339788283241148
  0.2165093987846092  0.9146403079125562  0.0196423440875790
  0.0490845882024686  0.9247876527998784  0.3531007562114823
  0.2174239001851461  0.5801724878478112  0.7660187266199827
  0.0310064836160180  0.6117740981262969  0.6012156803999105
  0.1288673939571652  0.3174607347432925  0.6987319341252700
  0.2122211186344671  0.0820912095995752  0.7717036204972558
  0.3820673734584972  0.5828563655091727  0.9360294833054823
  0.4490209422497529  0.3197366241064756  0.5093341347046518
  0.0406527860251984  0.0854420168852030  0.6035870410233102
  0.1320234927099975  0.8418996363592584  0.6859030414932690
  0.2955569448810991  0.3277764946318698  0.8505756102297966
  0.3774024661864885  0.0814236971887468  0.9348967868461315
  0.4760135326050303  0.8387183410758041  0.5073014267378468
  0.2933919996141086  0.8341782855703528  0.8556772491609905
  0.4706844099928844  0.6846926618422984  0.7853424172445216
  0.2626260907406248  0.6542418715142801  0.5940212542985890
  0.3739259336005745  0.3816567869948315  0.6842816205747866
  0.4619614929862408  0.1621757644773254  0.7735825958171887
  0.1358125821199607  0.6609321257652709  0.9347901389705626
  0.2253551853428490  0.4126177384305763  0.5074373870777364
  0.2899937819467482  0.1575366152303772  0.6014200876507942
  0.3842279061139351  0.9275850481707266  0.7011200353003417
  0.0426646991598361  0.4164578116252713  0.8521017089728105
  0.1286969162655325  0.1628358492559983  0.9366021613891462
  0.1969474344393305  0.9317943891263951  0.5097041838095535
  0.0530958544753943  0.9208629534039403  0.8551832801922146
  0.7170181524797883  0.5824233066003117  0.2651937334602437
  0.5180021300557698  0.6319158050051072  0.0992007973949143
  0.6307249589471766  0.3201889459453113  0.2000422239813417
  0.7135962926149091  0.0855770183686957  0.2720041123080179
  0.8810495807232783  0.5842555124412101  0.4374833530732545
  0.9487519814094725  0.3208873680956046  0.0127007559242713
  0.5419967301855309  0.0882462521431719  0.1030252263078211
  0.6321624982077410  0.8492419312392343  0.1860984461607913
  0.7963889556452344  0.3306012672700831  0.3525947317160671
  0.8775282285578569  0.0821120802031032  0.4347294507790878
  0.9810529481293244  0.8397487182426460  0.0086629802009384
  0.7923719373459832  0.8370416666827367  0.3563429236128286
  0.9690342020381877  0.6853092246486909  0.2877522964075396
  0.7564220964674888  0.6598883177657200  0.0950192135657204
  0.8754184229246533  0.3845318403234046  0.1864749572635205
  0.9641332118500898  0.1648522491018696  0.2732631239859273
  0.6331997532764930  0.6655462609768037  0.4303385666522246
  0.7135174817695784  0.4141370403047944  0.0154339537791230
  0.7919835062505456  0.1583525561746413  0.1025965420658039
  0.8857333582279807  0.9287030227539077  0.2024822781593301
  0.5440869824585874  0.4197692846971037  0.3522662434586223
  0.6274727100988855  0.1717105687371543  0.4346631120290212
  0.6987108680703500  0.9326292685021826  0.0104571117250316
  0.5493073001094970  0.9270245105081258  0.3530596930682108
  0.7175955089436528  0.5811788919806204  0.7660636165461980
  0.5315439866310214  0.6121649908770195  0.5988111342568985
  0.6296563006611180  0.3172560419981991  0.6997901324764868
  0.7127864236552810  0.0830260204260398  0.7726090850331957
  0.8807869637881254  0.5830707206579291  0.9395226541848913
  0.9489739243862445  0.3198879208868988  0.5112725159677538
  0.5405473658505571  0.0859905866685580  0.6033076646726130
  0.6326386452053114  0.8431183508092914  0.6858504205591700
  0.7942370276413797  0.3307237018588722  0.8548191052493834
  0.8778996590017556  0.0813174123506144  0.9359307583595893
  0.9744674960854738  0.8390636015902402  0.5086107851093828
  0.7943804263899494  0.8357294619309314  0.8574190502559347
  0.9710962895930351  0.6829349964327136  0.7881540107420477
  0.7626797523288573  0.6554846177225429  0.5943637580487930
  0.8729241759268973  0.3814301086822880  0.6864670605739747
  0.9624119364805210  0.1617607560515566  0.7751018694601655
  0.6351923884660877  0.6666083207460076  0.9306476519297178
  0.7242823785093719  0.4119806678523261  0.5096605840462018
  0.7905587880709746  0.1567034072682816  0.6024306287689569
  0.8861853407984839  0.9270881085378022  0.7037116617780868
  0.5421104228601479  0.4197310404173891  0.8507582186512437
  0.6270777948849471  0.1710385911661447  0.9347421904611437
  0.6973451990951745  0.9321428130639475  0.5102569568869413
  0.5484719549624799  0.9241890250038338  0.8524746361152182
 
  0.00000000E+00  0.00000000E+00  0.00000000E+00
  0.00000000E+00  0.00000000E+00  0.00000000E+00
  0.00000000E+00  0.00000000E+00  0.00000000E+00
  0.00000000E+00  0.00000000E+00  0.00000000E+00
  0.00000000E+00  0.00000000E+00  0.00000000E+00
  0.00000000E+00  0.00000000E+00  0.00000000E+00
  0.00000000E+00  0.00000000E+00  0.00000000E+00
  0.00000000E+00  0.00000000E+00  0.00000000E+00
  0.00000000E+00  0.00000000E+00  0.00000000E+00
  0.00000000E+00  0.00000000E+00  0.00000000E+00
  0.00000000E+00  0.00000000E+00  0.00000000E+00
  0.00000000E+00  0.00000000E+00  0.00000000E+00
  0.00000000E+00  0.00000000E+00  0.00000000E+00
  0.00000000E+00  0.00000000E+00  0.00000000E+00
  0.00000000E+00  0.00000000E+00  0.00000000E+00
  0.00000000E+00  0.00000000E+00  0.00000000E+00
  0.00000000E+00  0.00000000E+00  0.00000000E+00
  0.00000000E+00  0.00000000E+00  0.00000000E+00
  0.00000000E+00  0.00000000E+00  0.00000000E+00
  0.00000000E+00  0.00000000E+00  0.00000000E+00
  0.00000000E+00  0.00000000E+00  0.00000000E+00
  0.00000000E+00  0.00000000E+00  0.00000000E+00
  0.00000000E+00  0.00000000E+00  0.00000000E+00
  0.00000000E+00  0.00000000E+00  0.00000000E+00
  0.00000000E+00  0.00000000E+00  0.00000000E+00
  0.00000000E+00  0.00000000E+00  0.00000000E+00
  0.00000000E+00  0.00000000E+00  0.00000000E+00
  0.00000000E+00  0.00000000E+00  0.00000000E+00
  0.00000000E+00  0.00000000E+00  0.00000000E+00
  0.00000000E+00  0.00000000E+00  0.00000000E+00
  0.00000000E+00  0.00000000E+00  0.00000000E+00
  0.00000000E+00  0.00000000E+00  0.00000000E+00
  0.00000000E+00  0.00000000E+00  0.00000000E+00
  0.00000000E+00  0.00000000E+00  0.00000000E+00
  0.00000000E+00  0.00000000E+00  0.00000000E+00
  0.00000000E+00  0.00000000E+00  0.00000000E+00
  0.00000000E+00  0.00000000E+00  0.00000000E+00
  0.00000000E+00  0.00000000E+00  0.00000000E+00
  0.00000000E+00  0.00000000E+00  0.00000000E+00
  0.00000000E+00  0.00000000E+00  0.00000000E+00
  0.00000000E+00  0.00000000E+00  0.00000000E+00
  0.00000000E+00  0.00000000E+00  0.00000000E+00
  0.00000000E+00  0.00000000E+00  0.00000000E+00
  0.00000000E+00  0.00000000E+00  0.00000000E+00
  0.00000000E+00  0.00000000E+00  0.00000000E+00
  0.00000000E+00  0.00000000E+00  0.00000000E+00
  0.00000000E+00  0.00000000E+00  0.00000000E+00
  0.00000000E+00  0.00000000E+00  0.00000000E+00
  0.00000000E+00  0.00000000E+00  0.00000000E+00
  0.00000000E+00  0.00000000E+00  0.00000000E+00
  0.00000000E+00  0.00000000E+00  0.00000000E+00
  0.00000000E+00  0.00000000E+00  0.00000000E+00
  0.00000000E+00  0.00000000E+00  0.00000000E+00
  0.00000000E+00  0.00000000E+00  0.00000000E+00
  0.00000000E+00  0.00000000E+00  0.00000000E+00
  0.00000000E+00  0.00000000E+00  0.00000000E+00
  0.00000000E+00  0.00000000E+00  0.00000000E+00
  0.00000000E+00  0.00000000E+00  0.00000000E+00
  0.00000000E+00  0.00000000E+00  0.00000000E+00
  0.00000000E+00  0.00000000E+00  0.00000000E+00
  0.00000000E+00  0.00000000E+00  0.00000000E+00
  0.00000000E+00  0.00000000E+00  0.00000000E+00
  0.00000000E+00  0.00000000E+00  0.00000000E+00
  0.00000000E+00  0.00000000E+00  0.00000000E+00
  0.00000000E+00  0.00000000E+00  0.00000000E+00
  0.00000000E+00  0.00000000E+00  0.00000000E+00
  0.00000000E+00  0.00000000E+00  0.00000000E+00
  0.00000000E+00  0.00000000E+00  0.00000000E+00
  0.00000000E+00  0.00000000E+00  0.00000000E+00
  0.00000000E+00  0.00000000E+00  0.00000000E+00
  0.00000000E+00  0.00000000E+00  0.00000000E+00
  0.00000000E+00  0.00000000E+00  0.00000000E+00
  0.00000000E+00  0.00000000E+00  0.00000000E+00
  0.00000000E+00  0.00000000E+00  0.00000000E+00
  0.00000000E+00  0.00000000E+00  0.00000000E+00
  0.00000000E+00  0.00000000E+00  0.00000000E+00
  0.00000000E+00  0.00000000E+00  0.00000000E+00
  0.00000000E+00  0.00000000E+00  0.00000000E+00
  0.00000000E+00  0.00000000E+00  0.00000000E+00
  0.00000000E+00  0.00000000E+00  0.00000000E+00
  0.00000000E+00  0.00000000E+00  0.00000000E+00
  0.00000000E+00  0.00000000E+00  0.00000000E+00
  0.00000000E+00  0.00000000E+00  0.00000000E+00
  0.00000000E+00  0.00000000E+00  0.00000000E+00
  0.00000000E+00  0.00000000E+00  0.00000000E+00
  0.00000000E+00  0.00000000E+00  0.00000000E+00
  0.00000000E+00  0.00000000E+00  0.00000000E+00
  0.00000000E+00  0.00000000E+00  0.00000000E+00
  0.00000000E+00  0.00000000E+00  0.00000000E+00
  0.00000000E+00  0.00000000E+00  0.00000000E+00
  0.00000000E+00  0.00000000E+00  0.00000000E+00
  0.00000000E+00  0.00000000E+00  0.00000000E+00
  0.00000000E+00  0.00000000E+00  0.00000000E+00
  0.00000000E+00  0.00000000E+00  0.00000000E+00
  0.00000000E+00  0.00000000E+00  0.00000000E+00
  0.00000000E+00  0.00000000E+00  0.00000000E+00
  0.00000000E+00  0.00000000E+00  0.00000000E+00
  0.00000000E+00  0.00000000E+00  0.00000000E+00
  0.00000000E+00  0.00000000E+00  0.00000000E+00
  0.00000000E+00  0.00000000E+00  0.00000000E+00
  0.00000000E+00  0.00000000E+00  0.00000000E+00
  0.00000000E+00  0.00000000E+00  0.00000000E+00
  0.00000000E+00  0.00000000E+00  0.00000000E+00
  0.00000000E+00  0.00000000E+00  0.00000000E+00
  0.00000000E+00  0.00000000E+00  0.00000000E+00
  0.00000000E+00  0.00000000E+00  0.00000000E+00
  0.00000000E+00  0.00000000E+00  0.00000000E+00
  0.00000000E+00  0.00000000E+00  0.00000000E+00
  0.00000000E+00  0.00000000E+00  0.00000000E+00
  0.00000000E+00  0.00000000E+00  0.00000000E+00
  0.00000000E+00  0.00000000E+00  0.00000000E+00
  0.00000000E+00  0.00000000E+00  0.00000000E+00
  0.00000000E+00  0.00000000E+00  0.00000000E+00
  0.00000000E+00  0.00000000E+00  0.00000000E+00
  0.00000000E+00  0.00000000E+00  0.00000000E+00
  0.00000000E+00  0.00000000E+00  0.00000000E+00
  0.00000000E+00  0.00000000E+00  0.00000000E+00
  0.00000000E+00  0.00000000E+00  0.00000000E+00
  0.00000000E+00  0.00000000E+00  0.00000000E+00
  0.00000000E+00  0.00000000E+00  0.00000000E+00
  0.00000000E+00  0.00000000E+00  0.00000000E+00
  0.00000000E+00  0.00000000E+00  0.00000000E+00
  0.00000000E+00  0.00000000E+00  0.00000000E+00
  0.00000000E+00  0.00000000E+00  0.00000000E+00
  0.00000000E+00  0.00000000E+00  0.00000000E+00
  0.00000000E+00  0.00000000E+00  0.00000000E+00
  0.00000000E+00  0.00000000E+00  0.00000000E+00
  0.00000000E+00  0.00000000E+00  0.00000000E+00
  0.00000000E+00  0.00000000E+00  0.00000000E+00
  0.00000000E+00  0.00000000E+00  0.00000000E+00
  0.00000000E+00  0.00000000E+00  0.00000000E+00
  0.00000000E+00  0.00000000E+00  0.00000000E+00
  0.00000000E+00  0.00000000E+00  0.00000000E+00
  0.00000000E+00  0.00000000E+00  0.00000000E+00
  0.00000000E+00  0.00000000E+00  0.00000000E+00
  0.00000000E+00  0.00000000E+00  0.00000000E+00
  0.00000000E+00  0.00000000E+00  0.00000000E+00
  0.00000000E+00  0.00000000E+00  0.00000000E+00
  0.00000000E+00  0.00000000E+00  0.00000000E+00
  0.00000000E+00  0.00000000E+00  0.00000000E+00
  0.00000000E+00  0.00000000E+00  0.00000000E+00
  0.00000000E+00  0.00000000E+00  0.00000000E+00
  0.00000000E+00  0.00000000E+00  0.00000000E+00
  0.00000000E+00  0.00000000E+00  0.00000000E+00
  0.00000000E+00  0.00000000E+00  0.00000000E+00
  0.00000000E+00  0.00000000E+00  0.00000000E+00
  0.00000000E+00  0.00000000E+00  0.00000000E+00
  0.00000000E+00  0.00000000E+00  0.00000000E+00
  0.00000000E+00  0.00000000E+00  0.00000000E+00
  0.00000000E+00  0.00000000E+00  0.00000000E+00
  0.00000000E+00  0.00000000E+00  0.00000000E+00
  0.00000000E+00  0.00000000E+00  0.00000000E+00
  0.00000000E+00  0.00000000E+00  0.00000000E+00
  0.00000000E+00  0.00000000E+00  0.00000000E+00
  0.00000000E+00  0.00000000E+00  0.00000000E+00
  0.00000000E+00  0.00000000E+00  0.00000000E+00
  0.00000000E+00  0.00000000E+00  0.00000000E+00
  0.00000000E+00  0.00000000E+00  0.00000000E+00
  0.00000000E+00  0.00000000E+00  0.00000000E+00
  0.00000000E+00  0.00000000E+00  0.00000000E+00
  0.00000000E+00  0.00000000E+00  0.00000000E+00
  0.00000000E+00  0.00000000E+00  0.00000000E+00
  0.00000000E+00  0.00000000E+00  0.00000000E+00
  0.00000000E+00  0.00000000E+00  0.00000000E+00
  0.00000000E+00  0.00000000E+00  0.00000000E+00
  0.00000000E+00  0.00000000E+00  0.00000000E+00
  0.00000000E+00  0.00000000E+00  0.00000000E+00
  0.00000000E+00  0.00000000E+00  0.00000000E+00
  0.00000000E+00  0.00000000E+00  0.00000000E+00
  0.00000000E+00  0.00000000E+00  0.00000000E+00
  0.00000000E+00  0.00000000E+00  0.00000000E+00
  0.00000000E+00  0.00000000E+00  0.00000000E+00
  0.00000000E+00  0.00000000E+00  0.00000000E+00
  0.00000000E+00  0.00000000E+00  0.00000000E+00
  0.00000000E+00  0.00000000E+00  0.00000000E+00
  0.00000000E+00  0.00000000E+00  0.00000000E+00
  0.00000000E+00  0.00000000E+00  0.00000000E+00
  0.00000000E+00  0.00000000E+00  0.00000000E+00
  0.00000000E+00  0.00000000E+00  0.00000000E+00
  0.00000000E+00  0.00000000E+00  0.00000000E+00
  0.00000000E+00  0.00000000E+00  0.00000000E+00
  0.00000000E+00  0.00000000E+00  0.00000000E+00
  0.00000000E+00  0.00000000E+00  0.00000000E+00
  0.00000000E+00  0.00000000E+00  0.00000000E+00
  0.00000000E+00  0.00000000E+00  0.00000000E+00
  0.00000000E+00  0.00000000E+00  0.00000000E+00
  0.00000000E+00  0.00000000E+00  0.00000000E+00
  0.00000000E+00  0.00000000E+00  0.00000000E+00
  0.00000000E+00  0.00000000E+00  0.00000000E+00
  0.00000000E+00  0.00000000E+00  0.00000000E+00
  0.00000000E+00  0.00000000E+00  0.00000000E+00
