P    Zn   N                             
   1.00000000000000     
     0.1455002579081873   -0.0000019148571310    4.9851943621699997
    -4.7624462467404136    2.7813205483101258    0.0000033783873967
    -4.7655497086804521   -2.7643825110693845    0.2490619560551716
   P    Zn   N 
     2     4     6
Direct
  0.9203877511653307  0.8057143533557518  0.1941439182949649
  0.2813923841754418  0.1417620465758449  0.8584112133787292
  0.8920565579805416  0.4861364176566000  0.8553987327115185
  0.8924091654236407  0.1445659787296427  0.5134088793642467
  0.4199641435725484  0.4708980650030434  0.2018161066470533
  0.4204132401852670  0.7987014676469367  0.5294698014572624
  0.8734292085168198  0.0988984008800716  0.9007763233200000
  0.2702976384698789  0.8360691112848878  0.1641178369788256
  0.8249135054157485  0.5225864657870075  0.1919909422092293
  0.8251787108108570  0.8077085674762117  0.4769968352400480
  0.3335656527847235  0.1299746482962451  0.5768340046053115
  0.3338022404286354  0.4235779450807469  0.8700324361328575
 
             NaN             NaN             NaN
             NaN             NaN             NaN
             NaN             NaN             NaN
             NaN             NaN             NaN
             NaN             NaN             NaN
             NaN             NaN             NaN
             NaN             NaN             NaN
             NaN             NaN             NaN
             NaN             NaN             NaN
             NaN             NaN             NaN
             NaN             NaN             NaN
             NaN             NaN             NaN
