P    Zn   N
1.0
  4.75648417573416 2.756400871453238 -0.2384760206522635
  -4.752646760106971 2.773230156874015 3.65488072e-06
  0.1445152969624914 -1.6096118231e-06 4.98519436217
 P  Zn  N 
2 4 6 
direct
   -0.1876765988193438   0.8122224229700064   0.9120899610067977
   -0.8618043359307216   0.1384144160662984   0.3544494959554655
   -0.8556485547509644   0.4802811615907981   0.8985700317773875
   -0.5194615109565042   0.1443542897167437   0.8988094885846722
   -0.2012141525231181   0.4716807743650138   0.4208584823458805
   -0.5286839699377445   0.7992954766463848   0.4213594424571399
   -0.9054201729184892   0.0942374780378742   0.8135904357762533
   -0.1574348982293094   0.8427285570215262   0.2628661506982032
   -0.1921777985786943   0.5217088126341395   0.8251996138078452
   -0.4778808109272491   0.8074873540982588   0.8254844417081046
   -0.5765331128340461   0.1304903555282112   0.3271295140407944
   -0.8694611139338377   0.4236923690977343   0.3274031407708880
