P    Zn   N                             
   1.00000000000000     
     0.1453878743086787   -0.0000017622344770    4.9851943621699997
    -4.7576023358104926    2.7768368500633489    0.0000035166340583
    -4.7610920576846416   -2.7597407431989414    0.2449117013098831
   P    Zn   N 
     2     4     6
Direct
  0.9152402133388600  0.8107929666406914  0.1890796378408321
  0.3165669551693234  0.1406879031732341  0.8595108056149371
  0.8946207952542491  0.4820772935990533  0.8559005663162529
  0.8949327374834237  0.1440813041148202  0.5175587232415657
  0.4212633389781338  0.4719474856824891  0.2013424718744381
  0.4217415310987627  0.7991735134826470  0.5284258395055936
  0.8421410049619228  0.0955160289002624  0.9041338206121011
  0.2675858033992413  0.8389407876950048  0.1612331265525930
  0.8256983369229216  0.5215859764223879  0.1925801037503521
  0.8259742751426271  0.8071087885525446  0.4780044482462479
  0.3309063518192061  0.1302041634873196  0.5758498538409897
  0.3311388553607588  0.4244772560225317  0.8697776329441405
 
             NaN             NaN             NaN
             NaN             NaN             NaN
             NaN             NaN             NaN
             NaN             NaN             NaN
             NaN             NaN             NaN
             NaN             NaN             NaN
             NaN             NaN             NaN
             NaN             NaN             NaN
             NaN             NaN             NaN
             NaN             NaN             NaN
             NaN             NaN             NaN
             NaN             NaN             NaN
