P    Zn   N
1.0
  4.765549708680452 2.7643825110693845 -0.2490619560551716
  -4.762446246740414 2.7813205483101258 3.3783873967e-06
  0.1455002579081873 -1.914857131e-06 4.98519436217
 P  Zn  N 
2 4 6 
direct
   -0.1941439182949648   0.8057143533557518   0.9203877511653306
   -0.8584112133787291   0.1417620465758450   0.2813923841754418
   -0.8553987327115185   0.4861364176566001   0.8920565579805415
   -0.5134088793642467   0.1445659787296427   0.8924091654236406
   -0.2018161066470532   0.4708980650030434   0.4199641435725483
   -0.5294698014572623   0.7987014676469368   0.4204132401852670
   -0.9007763233200001   0.0988984008800716   0.8734292085168197
   -0.1641178369788255   0.8360691112848879   0.2702976384698789
   -0.1919909422092293   0.5225864657870076   0.8249135054157485
   -0.4769968352400479   0.8077085674762118   0.8251787108108570
   -0.5768340046053115   0.1299746482962451   0.3335656527847235
   -0.8700324361328574   0.4235779450807469   0.3338022404286354
