P    Zn   N
1.0
  4.748618854649349 2.75000315783474 -0.2270602339295533
  -4.742849541578654 2.7688665022439225 1.9959207801e-06
  0.1422254943087525 -3.4410836709e-06 4.98519436217
 P  Zn  N 
2 4 6 
direct
   -0.1908012402515280   0.8089583523066129   0.8261706397411629
   -0.8683041526591088   0.1317524189473160   0.3051078562391762
   -0.8542521476024976   0.4738963372234891   0.7951159448146451
   -0.5257681931098962   0.1452575349147620   0.7945675150168461
   -0.2009827768103587   0.4652230220560704   0.3091784611658253
   -0.5348748805642792   0.7989641490922017   0.3091164540987790
   -0.9029061007737623   0.0969389997379533   0.9561716091754288
   -0.1493186441628131   0.8509886395346272   0.4335709810195251
   -0.1862974217923480   0.5232721800849919   0.8892503823889720
   -0.4766470887127361   0.8138151976214210   0.8896174585312175
   -0.5785112380446991   0.1356369319323593   0.3898125160451761
   -0.8647331458559427   0.4218897043212097   0.3901303806926867
