P    Zn   N                             
   1.00000000000000     
     0.1456332268103265   -0.0000029832157090    4.9851943621699997
    -4.7617497057338758    2.7824040212260801    0.0000024106607650
    -4.7661623070136407   -2.7632013933780097    0.2491165224226959
   P    Zn   N 
     2     4     6
Direct
  0.9329490094512486  0.8026915421112315  0.1971365888474543
  0.2943153898218326  0.1386512326889162  0.8614894244712964
  0.7946529751539575  0.4735336670488161  0.8537434311408695
  0.7941928434203406  0.1457340146359712  0.5260947859688233
  0.3225184692675286  0.4583240967041093  0.2001733433862687
  0.3221657662164620  0.7998596341979862  0.5421305965376398
  0.9443667017199773  0.1083486402424014  0.8914613652466640
  0.3415143685162663  0.8455597250382582  0.1547662973045932
  0.8808602508406981  0.5208482742593987  0.1855234822839838
  0.8810987412478344  0.8144687472771974  0.4787327048809176
  0.3894528941213364  0.1367229107062060  0.5785666822244845
  0.3897227891519530  0.4218509828625182  0.8635783280469849
 
             NaN             NaN             NaN
             NaN             NaN             NaN
             NaN             NaN             NaN
             NaN             NaN             NaN
             NaN             NaN             NaN
             NaN             NaN             NaN
             NaN             NaN             NaN
             NaN             NaN             NaN
             NaN             NaN             NaN
             NaN             NaN             NaN
             NaN             NaN             NaN
             NaN             NaN             NaN
