P    Zn   N
1.0
  4.770647814399481 2.781097051183852 -0.287095336891875
  -4.768546263218493 2.7934428084837735 3.1018940733e-06
  0.1676646125950269 -2.220102439e-06 4.98519436217
 P  Zn  N 
2 4 6 
direct
   -0.1986688527470080   0.8013022633110158   0.9316783554516487
   -0.8582783216128693   0.1426038934733824   0.2692578867097976
   -0.8507788913108689   0.4859097542341337   0.8479954450532879
   -0.5101728364685054   0.1494221982143530   0.8636042043771696
   -0.2063770083664113   0.4660492834482889   0.4081858588629000
   -0.5342477783072572   0.7956867072466164   0.4077631065240885
   -0.8942869619562051   0.1066503889091048   0.9176292409123115
   -0.1680357866158886   0.8322981297517292   0.2764458150307892
   -0.1859783862955462   0.5290023208377530   0.8240520305362805
   -0.4703462442975401   0.8139313513482723   0.8240737593934004
   -0.5830936324634797   0.1274325533652192   0.3543389872318271
   -0.8731323298984452   0.4163046236331175   0.3627855088459347
