P    Zn   N
1.0
  4.721877494017803 2.7418513407415084 -0.1552554134778947
  -4.713853880319584 2.757902504233609 3.9313740433e-06
  0.1105549277433209 -1.3043665151e-06 4.98519436217
 P  Zn  N 
2 4 6 
direct
   -0.1871660823988294   0.8128942943808616   0.9054872038618316
   -0.8680920636908293   0.1320627215122497   0.4068118414332711
   -0.8510599103817084   0.4788859666788597   0.9194082939476242
   -0.5213178469453441   0.1492262540672613   0.9187993414489504
   -0.2022450430119043   0.4678761804613089   0.4181193694632682
   -0.5322281876545273   0.7981959720389402   0.4188608792162223
   -0.9097601678708718   0.0901344423004646   0.7535971290409025
   -0.1476194487338854   0.8524788994155800   0.2519984261391029
   -0.1877383906454940   0.5232165148736793   0.8226731824899146
   -0.4764532714150533   0.8117868495321839   0.8231794415100255
   -0.5809395756168257   0.1308133492098751   0.3241580618977025
   -0.8687770419747674   0.4190220233017219   0.3247170284806074
