P    Zn   N
1.0
  4.71024787986 2.7518275445700002 -3.719022171e-06
  -4.71019770094 2.7517934413900003 1.5811807951e-06
  -2.8019893852e-06 -3.8989516329e-06 4.98519436217
 P  Zn  N 
2 4 6 
direct
   -0.1871554805399924   0.8128472716428732   0.7938427613178616
   -0.8684210592286731   0.1315725704588005   0.2938420774692574
   -0.8515672843878194   0.4779317997378528   0.7799830109496355
   -0.5220663490190063   0.1484288946268393   0.7799838958285790
   -0.2040084819003241   0.4664885079652593   0.2799841458265604
   -0.5335107706355444   0.7959903987472501   0.2799838414908891
   -0.9095836036954948   0.0904126701433868   0.9483642755850779
   -0.1459939825413484   0.8540073609382688   0.4483647440672414
   -0.1871661088608220   0.5241517205924637   0.8761499524216134
   -0.4758453526139874   0.8128325191073600   0.8761502142676606
   -0.5797321768433221   0.1315875432912108   0.3761491373485625
   -0.8684100774203074   0.4202690111591565   0.3761503455821895
