P    Zn   N
1.0
  4.748125137276277 2.751182471784995 -0.2271061451229321
  -4.743544495152188 2.7678164260258264 3.7931273816e-06
  0.1421183155679307 -1.4569891691e-06 4.98519436217
 P  Zn  N 
2 4 6 
direct
   -0.1872748686003704   0.8126714698239639   0.9095523912135834
   -0.8647259652083167   0.1355062495618397   0.3882120328340490
   -0.8546102333936815   0.4792009079877979   0.9053688790016581
   -0.5207001177543772   0.1454395276639255   0.9054343718189014
   -0.2013009293120572   0.4705621336505211   0.4195374658180417
   -0.5297695967684269   0.7991855722973059   0.4200742072972488
   -0.9062450654941072   0.0934471410584769   0.7813341247418655
   -0.1526931297349957   0.8474590229303660   0.2585017647334108
   -0.1908609236341236   0.5225225657021403   0.8245227178583588
   -0.4770725750942718   0.8087701181456307   0.8248364852564419
   -0.5788840907286832   0.1306284754589409   0.3250361510513116
   -0.8692595346166254   0.4212002834920856   0.3253996073045630
