P    Zn   N
1.0
  4.771379864364503 2.7768480576757253 -0.2697684460403477
  -4.76889792952378 2.7933994911977016 3.240140735e-06
  0.1542171581379391 -2.067479785e-06 4.98519436217
 P  Zn  N 
2 4 6 
direct
   -0.1996119601659159   0.8002329255169167   0.9286866232321795
   -0.8583156832187999   0.1420344869264893   0.2625221033713669
   -0.8520656061735381   0.4918246762980860   0.8791580880242619
   -0.5070748307391718   0.1478575876944408   0.8818767074709268
   -0.2041691884550682   0.4668554530900301   0.4136402605558493
   -0.5335080179809306   0.7965686976200518   0.4138415567508040
   -0.8972619365955607   0.1025979150315064   0.9073014773329485
   -0.1676763879434798   0.8325648556976156   0.2740876639052934
   -0.1889240298237442   0.5262349248846027   0.8225050511911702
   -0.4732788844215632   0.8108113196008779   0.8226546458522960
   -0.5800970713760203   0.1287781961022572   0.3400853315674734
   -0.8714134334462396   0.4202324293101141   0.3414506896748699
