P    Zn   N
1.0
  4.768673457073581 2.7799215153070955 -0.3140645659523918
  -4.769644646853452 2.79315210455197 2.9636474117e-06
  0.1771551319857592 -2.372725093e-06 4.98519436217
 P  Zn  N 
2 4 6 
direct
   -0.1973962840768330   0.8025282820915195   0.9334299111512587
   -0.8584288045682256   0.1420046474643586   0.2760941153656481
   -0.8494258295922092   0.4812179712481884   0.8264764915651559
   -0.5159983658440555   0.1506200626753903   0.8355496619474672
   -0.2073917917558359   0.4658763314354441   0.4024850821812395
   -0.5345253041384128   0.7941047855041238   0.4020093812731692
   -0.8900623144385286   0.1104477360689552   0.9274927817228833
   -0.1682543078187546   0.8320318014014847   0.2785640944995231
   -0.1825121800963744   0.5318331562461214   0.8259148108368090
   -0.4677859845007316   0.8171807291391212   0.8259532700365914
   -0.5869346482469063   0.1258258647755789   0.3750533544404079
   -0.8746812152631628   0.4129220997226999   0.3787872439092888
