P    Zn   N
1.0
  4.713339144589057 2.7443660764381863 -0.0281927900386322
  -4.705531190733306 2.75765653944734 1.7194274568e-06
  0.0219114916753586 -3.7463289789e-06 4.98519436217
 P  Zn  N 
2 4 6 
direct
   -0.1870904110119889   0.8128665973603048   0.8074542213957140
   -0.8684213035426412   0.1315432234035494   0.3079210017530254
   -0.8518228304491164   0.4777430781324835   0.7941540778823429
   -0.5222147054598383   0.1480584669312595   0.7939485947781446
   -0.2042589002458197   0.4662420530817816   0.2934802161570215
   -0.5336979384772517   0.7956323120245099   0.2936819264733288
   -0.9093779381762482   0.0905978227319869   0.9623508874548423
   -0.1457696564844031   0.8542149753656385   0.4621721688285972
   -0.1871097658165255   0.5244156505146881   0.8897397356620428
   -0.4755993209416002   0.8129970473689732   0.8898900045674326
   -0.5795750791538272   0.1317316876764975   0.3901141072477770
   -0.8683768554481897   0.4204586468604928   0.3902604103180635
