P    Zn   N                             
   1.00000000000000     
     0.1681678585676684   -0.0000026779704010    4.9851943621699997
    -4.7679231784491467    2.7942632180459093    0.0000026871540884
    -4.7713416897924317   -2.7802424867189961    0.2865105704186999
   P    Zn   N 
     2     4     6
Direct
  0.9455195729889013  0.8018032229295263  0.1972418524028770
  0.2830057591633923  0.1431495702651678  0.8568744968134031
  0.8063036929618338  0.4783749768588705  0.8491391566139610
  0.8067693780292836  0.1486503017400685  0.5213227021451999
  0.3667971854476946  0.4585669080372609  0.2047615769736990
  0.3499279059348583  0.7950128445688942  0.5456373616898240
  0.9382354102880881  0.1121340773583135  0.8875141210506422
  0.2971760652579208  0.8378016326264885  0.1611721155080673
  0.8518555427347706  0.5281076465133616  0.1824369389167431
  0.8609935884316416  0.8169583083843104  0.4725641433991153
  0.3906074993771516  0.1305445708555557  0.5851974646987218
  0.3906185983139032  0.4154894076351918  0.8695351001277444
 
             NaN             NaN             NaN
             NaN             NaN             NaN
             NaN             NaN             NaN
             NaN             NaN             NaN
             NaN             NaN             NaN
             NaN             NaN             NaN
             NaN             NaN             NaN
             NaN             NaN             NaN
             NaN             NaN             NaN
             NaN             NaN             NaN
             NaN             NaN             NaN
             NaN             NaN             NaN
