P    Zn   N
1.0
  4.7616124641960935 2.758794391730832 -0.2449283303937243
  -4.757052463811478 2.7777352626081595 2.2724141034e-06
  0.145485063055168 -3.135838363e-06 4.98519436217
 P  Zn  N 
2 4 6 
direct
   -0.1960212529693771   0.8037825037330375   0.8976900993281864
   -0.8665224139180528   0.1336045075542150   0.2994389876799233
   -0.8542111790031338   0.4725028925773395   0.7933742401806992
   -0.5271203319395308   0.1452679890982163   0.7928865350640337
   -0.1996825216746346   0.4623521886417363   0.3199641747933104
   -0.5380110640587137   0.8003332751547256   0.3196535831106083
   -0.8943467680730403   0.1054763080843551   0.9470983555598042
   -0.1514284622341320   0.8489219395470587   0.3727266244616458
   -0.1857777514977716   0.5199638930267201   0.8835515848771652
   -0.4797014746173429   0.8142395228188622   0.8837862546572814
   -0.5775727101219800   0.1373110915949053   0.3886799509568928
   -0.8630011002322765   0.4228373559418361   0.3889598082598910
