P    Zn   N                             
   1.00000000000000     
     0.1100411046752525   -0.0000035937063249    4.9851943621699997
    -4.7129633553575498    2.7589004582855230    0.0000018576741184
    -4.7222534612289273   -2.7407257006474648    0.1543061264781604
   P    Zn   N 
     2     4     6
Direct
  0.8078103688637640  0.8123808048471194  0.1874618936146961
  0.3091545089983302  0.1315392461610783  0.8684035235810394
  0.7965257285788205  0.4765691587487871  0.8533040824365001
  0.7957691451467693  0.1462530078988965  0.5233239718182017
  0.2951815412026251  0.4655441298642422  0.2045183718759858
  0.2958040063250211  0.7951921551494940  0.5342500499889192
  0.9626536148539049  0.0919416112285672  0.9079588303352701
  0.4610813581958632  0.8543029925869308  0.1457994306633725
  0.8899196730193456  0.5254060529564882  0.1867911705001497
  0.8904826194954172  0.8136196087365916  0.4746323552014058
  0.3914580792244347  0.1326328829794960  0.5791116143105296
  0.3919695550251414  0.4212118166153130  0.8678417360139118
 
             NaN             NaN             NaN
             NaN             NaN             NaN
             NaN             NaN             NaN
             NaN             NaN             NaN
             NaN             NaN             NaN
             NaN             NaN             NaN
             NaN             NaN             NaN
             NaN             NaN             NaN
             NaN             NaN             NaN
             NaN             NaN             NaN
             NaN             NaN             NaN
             NaN             NaN             NaN
