P    Zn   N
1.0
  4.766162307013641 2.7632013933780097 -0.2491165224226959
  -4.761749705733876 2.78240402122608 2.410660765e-06
  0.1456332268103265 -2.983215709e-06 4.98519436217
 P  Zn  N 
2 4 6 
direct
   -0.1971365888474544   0.8026915421112315   0.9329490094512487
   -0.8614894244712964   0.1386512326889162   0.2943153898218326
   -0.8537434311408694   0.4735336670488161   0.7946529751539576
   -0.5260947859688233   0.1457340146359712   0.7941928434203405
   -0.2001733433862687   0.4583240967041092   0.3225184692675286
   -0.5421305965376398   0.7998596341979863   0.3221657662164619
   -0.8914613652466640   0.1083486402424014   0.9443667017199771
   -0.1547662973045931   0.8455597250382583   0.3415143685162663
   -0.1855234822839837   0.5208482742593987   0.8808602508406980
   -0.4787327048809177   0.8144687472771974   0.8810987412478343
   -0.5785666822244844   0.1367229107062060   0.3894528941213364
   -0.8635783280469849   0.4218509828625183   0.3897227891519530
