P    Zn   N                             
   1.00000000000000     
     0.1421183155679307   -0.0000014569891691    4.9851943621699997
    -4.7435444951521877    2.7678164260258264    0.0000037931273816
    -4.7481251372762774   -2.7511824717849951    0.2271061451229321
   P    Zn   N 
     2     4     6
Direct
  0.9095523912135833  0.8126714698239641  0.1872748686003701
  0.3882120328340489  0.1355062495618398  0.8647259652083166
  0.9053688790016582  0.4792009079877980  0.8546102333936813
  0.9054343718189013  0.1454395276639256  0.5207001177543771
  0.4195374658180417  0.4705621336505212  0.2013009293120571
  0.4200742072972488  0.7991855722973060  0.5297695967684267
  0.7813341247418654  0.0934471410584769  0.9062450654941071
  0.2585017647334108  0.8474590229303661  0.1526931297349954
  0.8245227178583588  0.5225225657021404  0.1908609236341235
  0.8248364852564420  0.8087701181456309  0.4770725750942716
  0.3250361510513115  0.1306284754589410  0.5788840907286831
  0.3253996073045630  0.4212002834920856  0.8692595346166252
 
             NaN             NaN             NaN
             NaN             NaN             NaN
             NaN             NaN             NaN
             NaN             NaN             NaN
             NaN             NaN             NaN
             NaN             NaN             NaN
             NaN             NaN             NaN
             NaN             NaN             NaN
             NaN             NaN             NaN
             NaN             NaN             NaN
             NaN             NaN             NaN
             NaN             NaN             NaN
