P    Zn   N
1.0
  4.712718093659713 2.7455651339050893 -0.0288913143231797
  -4.7062835739408255 2.756523195815458 4.0696207049e-06
  0.0224561894369827 -1.1517438611e-06 4.98519436217
 P  Zn  N 
2 4 6 
direct
   -0.1871472349872138   0.8128883485382037   0.9066895346822400
   -0.8684738420732058   0.1315683044163781   0.4071653366571332
   -0.8513024825415650   0.4781908854981582   0.9211205714112454
   -0.5218673724056170   0.1488059918593169   0.9209180424890396
   -0.2037351199722807   0.4666967295941090   0.4204417553887050
   -0.5333448024345738   0.7963841218408918   0.4206474638828279
   -0.9098016026630549   0.0902118676291973   0.7524462834503896
   -0.1461924618552922   0.8538301562607041   0.2522646829550708
   -0.1871911674401465   0.5239684780401104   0.8243475057986139
   -0.4759936428154994   0.8126961888937805   0.8244954593028465
   -0.5799718579417718   0.1314327463826530   0.3247241272127966
   -0.8684567308409513   0.4200102834101543   0.3248762579982221
