P    Zn   N
1.0
  4.722253461228927 2.740725700647465 -0.1543061264781604
  -4.71296335535755 2.758900458285523 1.8576741184e-06
  0.1100411046752525 -3.5937063249e-06 4.98519436217
 P  Zn  N 
2 4 6 
direct
   -0.1874618936146962   0.8123808048471194   0.8078103688637641
   -0.8684035235810397   0.1315392461610783   0.3091545089983302
   -0.8533040824365004   0.4765691587487870   0.7965257285788206
   -0.5233239718182018   0.1462530078988965   0.7957691451467693
   -0.2045183718759858   0.4655441298642421   0.2951815412026251
   -0.5342500499889196   0.7951921551494940   0.2958040063250211
   -0.9079588303352705   0.0919416112285671   0.9626536148539047
   -0.1457994306633727   0.8543029925869308   0.4610813581958632
   -0.1867911705001497   0.5254060529564881   0.8899196730193456
   -0.4746323552014058   0.8136196087365916   0.8904826194954173
   -0.5791116143105297   0.1326328829794959   0.3914580792244348
   -0.8678417360139119   0.4212118166153129   0.3919695550251414
