P    Zn   N 
   1.00000000000000     
  -0.0000028019866534  -0.0000009991212071   4.9851943621699997
  -4.7101977009400002   2.7517934413900003   0.0000042078673666
  -4.7102478798599998  -2.7518275445700002   0.0000010923606908
P    Zn   N 
2  4  6  
Direct
  0.9207918277506196  0.8128594714975392  0.1871448643438853  
  0.4207911439020151  0.1315847703134594  0.8684104430325661  
  0.9346515781188458  0.4779439995925117  0.8515566681917122  
  0.9346524629977822  0.1484410944814982  0.5220557328228992  
  0.4346527129957636  0.4665007078199253  0.2039978657042099  
  0.4346524086600922  0.7960025986019161  0.5335001544394373  
  0.7662703134833961  0.0904248699980457  0.9095729874993880  
  0.2662707819655594  0.8540195607929277  0.1459833663452343  
  0.8384846366468750  0.5241639204471298  0.1871554926647079  
  0.8384848984929221  0.8128447189620189  0.4758347364178732  
  0.3384838215738242  0.1315997431458769  0.5797215606472150  
  0.3384850298074511  0.4202812110138225  0.8683994612242003  
