P    Zn   N                             
   1.00000000000000     
     0.1445152969624914   -0.0000016096118231    4.9851943621699997
    -4.7526467601069706    2.7732301568740150    0.0000036548807200
    -4.7564841757341600   -2.7564008714532382    0.2384760206522635
   P    Zn   N 
     2     4     6
Direct
  0.9120899610067977  0.8122224229700064  0.1876765988193438
  0.3544494959554655  0.1384144160662983  0.8618043359307217
  0.8985700317773875  0.4802811615907982  0.8556485547509645
  0.8988094885846724  0.1443542897167437  0.5194615109565042
  0.4208584823458804  0.4716807743650139  0.2012141525231181
  0.4213594424571399  0.7992954766463848  0.5286839699377445
  0.8135904357762532  0.0942374780378742  0.9054201729184892
  0.2628661506982032  0.8427285570215260  0.1574348982293094
  0.8251996138078452  0.5217088126341395  0.1921777985786943
  0.8254844417081046  0.8074873540982588  0.4778808109272491
  0.3271295140407944  0.1304903555282112  0.5765331128340460
  0.3274031407708880  0.4236923690977342  0.8694611139338378
 
             NaN             NaN             NaN
             NaN             NaN             NaN
             NaN             NaN             NaN
             NaN             NaN             NaN
             NaN             NaN             NaN
             NaN             NaN             NaN
             NaN             NaN             NaN
             NaN             NaN             NaN
             NaN             NaN             NaN
             NaN             NaN             NaN
             NaN             NaN             NaN
             NaN             NaN             NaN
