supercell of POSCAR                     
   1.03600000000000     
     9.6051007291200001   -5.6678653607799996   -9.9907275475200006
     9.5551777488200003    5.5783510108199996    9.9928581731800001
    -1.5573508785200001   -8.3719044994900003    4.9655686364999996
   Al   Gd   N 
    72    24    95
Direct
  0.3023500534436963  0.2911834843045042  0.5376229926600402
  0.1430439280601661  0.2482826655019750  0.3077246562378448
  0.3092962205808547  0.4115062189238117  0.3115342042938138
  0.4690420503877917  0.3309508769105918  0.7878014965937936
  0.1404428967079951  0.4986381144496193  0.7848900716871228
  0.3194967774899808  0.1924679994427123  0.8033150140538012
  0.4701922250352553  0.4467727814948717  0.5338033123455759
  0.1288342137555389  0.1290390003164461  0.5024894522600789
  0.4796525462374248  0.0724256180407892  0.2957918035877540
  0.2798771136456537  0.1072929782428034  0.3332604528931427
  0.1162284852218036  0.0689831264074670  0.1078942731762353
  0.1155355511479854  0.1934879925316082  0.8142267335196109
  0.2732076145739626  0.3598968476468016  0.8121901890337284
  0.1117830602920975  0.3266108948736388  0.5896466374080873
  0.2706283711109307  0.4851906157845178  0.5772919081052024
  0.4495592151068522  0.2808688911427382  0.3362586186749681
  0.1113276950550457  0.4462047300379623  0.3401219090297616
  0.4488875017786569  0.4053353174187961  0.1050492125927818
  0.8007800012156210  0.2895798043841467  0.5395037956332942
  0.6442912016798275  0.2444446722533868  0.3117851118268575
  0.8080326578031674  0.4098482279306808  0.3115145949444269
  0.9621081841991099  0.3246188692738059  0.7903585393624297
  0.6427057213129714  0.4994691967249452  0.7851987989432772
  0.7933351843340901  0.1668033167857175  0.7806643657004031
  0.9688646089951760  0.4459632567642586  0.5335031256599123
  0.6443096917831497  0.1203331872203250  0.5383179304538288
  0.9751645253179859  0.0716056650820676  0.2968148949474809
  0.7759691615224611  0.1095583833462399  0.3370478385076439
  0.6159542846872412  0.0710877032604174  0.1020804937051665
  0.6145888326975708  0.1971972275813982  0.8174735602630889
  0.7742430816053414  0.3562933611605317  0.8130262314188670
  0.6129654712567785  0.3254446228640973  0.5885994421967311
  0.7706316787116947  0.4856940331302226  0.5773428204716637
  0.9481008452986828  0.2801359035425577  0.3375300518232081
  0.6116846123114996  0.4466406760820831  0.3407985557608768
  0.9476891162855665  0.4048500176475187  0.1056810524607954
  0.3006681609802797  0.7793348635673141  0.5377801551404104
  0.1429091737971646  0.7405656277995263  0.3107881262807766
  0.3106755146814066  0.9049255402360004  0.2934915919681345
  0.4634178201658159  0.8235527339189019  0.7875691926510129
  0.1213617907000994  0.9784533991031950  0.8048779691215202
  0.2950433608660674  0.6630118333601018  0.7790940355577760
  0.4764414119997724  0.9467337384434771  0.5321695190064091
  0.1417962842946849  0.6171515177875548  0.5387779273001314
  0.4788611203013033  0.5727833071241335  0.2980290725879016
  0.2759139631471257  0.6072064523051850  0.3358628141391193
  0.1140528954947087  0.5697465058040905  0.1024361085053442
  0.1138509500490841  0.6953790000016298  0.8158559693895882
  0.2757695432696607  0.8528052945447939  0.8109302081437377
  0.1120996161371082  0.8211653552407654  0.5858048442516406
  0.2942685803208178  0.9541334105258414  0.5412943351216484
  0.4471079529114377  0.7801936494991750  0.3375525419816370
  0.1127128595140192  0.9420936266023290  0.3393989667920110
  0.4484521992116299  0.9048025510839466  0.1006375904662207
  0.8007271327116712  0.7885291910450434  0.5385652171245070
  0.6429447450468189  0.7439112785946662  0.3120483994471002
  0.8083174365569761  0.9090229220934987  0.3106781395665976
  0.9598627653722431  0.8235356142740002  0.7912637786149972
  0.6439318196239867  0.9991212146995281  0.7848258105843442
  0.7943619167763458  0.6652576543536810  0.7805860087726657
  0.9679233190605601  0.9453548080012766  0.5329646779802246
  0.6440872196943630  0.6201456787356392  0.5394751209989153
  0.9775965651680210  0.5715905126098022  0.2990006417264013
  0.7759284110509768  0.6091060084041899  0.3365324527694256
  0.6147780286300630  0.5715363046885571  0.1023458160309545
  0.6149904401834547  0.6960161185411948  0.8184435225474829
  0.7743347013228572  0.8550527218900967  0.8118609267904731
  0.6125955025192056  0.8243086166485725  0.5899239481806831
  0.7699674021775849  0.9851111636274723  0.5751836199107174
  0.9483636135434210  0.7788605650111577  0.3358343938074171
  0.6125449289918876  0.9453845279473754  0.3374263937455027
  0.9487973773464660  0.9041299266551590  0.1034587098465707
  0.4839459551512633  0.1956372637434640  0.0415366257036709
  0.1321476801890142  0.3652328606440136  0.0306234526201123
  0.3070496189340304  0.0225942303568729  0.0320409959743060
  0.2836834312462599  0.2364779849626046  0.0895380377361406
  0.4521355581463453  0.0181364512723476  0.8177817128203984
  0.4456483409579164  0.1561027150157912  0.5704111046539424
  0.9820683609682206  0.1949352213753670  0.0414353883853877
  0.6366877729283473  0.3667702075630288  0.0339141810907151
  0.8064529611081142  0.0221225820527664  0.0431459134056809
  0.7845066049270741  0.2349106166177251  0.0828025507578047
  0.9403639442339937  0.0232099489681588  0.8202103204209550
  0.9411114558940241  0.1570843961731470  0.5757327708465780
  0.4816177558275427  0.6976342183255255  0.0428066873545987
  0.1366765532521157  0.8614459667895389  0.0367252309205952
  0.3069026306325142  0.5201056217000897  0.0416122413195339
  0.2829372274127451  0.7290988269934715  0.0787364078304122
  0.4479100973109240  0.5220823529806111  0.8225287195878721
  0.4459741601130389  0.6523653233609323  0.5720166797288613
  0.9818601708804380  0.6942214388445649  0.0390022690976437
  0.6368143567885767  0.8652111740248714  0.0307104885300973
  0.8075438395600258  0.5225802708935134  0.0417255276316411
  0.7840622950889866  0.7342157631281907  0.0849306503715681
  0.9466569972477217  0.5193459967995011  0.8202405934053800
  0.9419653605248257  0.6549326301968108  0.5735096547413718
  0.2369987369101949  0.3673730498516434  0.6263386659277970
  0.0753905346083528  0.3245843709643239  0.4008959697289782
  0.2388591968824443  0.4895972065260565  0.3919100594339540
  0.4268957824169064  0.2926772886735378  0.1560483158804615
  0.0690771723008154  0.4565635637451919  0.1527892088748146
  0.2360556887835372  0.1028769986938585  0.1540816999865271
  0.3992971997133665  0.3931173624103721  0.9070562403698759
  0.0917296946698158  0.0784443488708320  0.8954619915482951
  0.2342346254191483  0.2452910456696102  0.8669848076551361
  0.4014596614301027  0.0174288195148620  0.6086233893771578
  0.0919084214015271  0.2005207172441033  0.6287942607376138
  0.4051781036860120  0.1558168064249372  0.3535624787023508
  0.2220322574428764  0.1915761984091944  0.4307359412676277
  0.0629772820114098  0.1453410871395278  0.2129047366072427
  0.2149868202594760  0.3232074882266502  0.2091163937068075
  0.3676816411348227  0.1180057609045235  0.9027210202891780
  0.0410934599653885  0.2637865263102626  0.8816398433580090
  0.2077986276195958  0.4353338252283478  0.8897839503161791
  0.3723940447098215  0.2517599005934557  0.6781670396901163
  0.0393750924476706  0.4049577293380722  0.6832770701412372
  0.3820370070479555  0.3532005024080433  0.4319604133005157
  0.0497985698707453  0.0236733432503087  0.4383691378131900
  0.3910164911796770  0.4758351256142674  0.2107133288450385
  0.7376689650872805  0.3686971330797988  0.6271247258349746
  0.5750738853969111  0.3255971202733505  0.4002352686778394
  0.7385985862405846  0.4907218560984390  0.3917542835854277
  0.9292151806597033  0.2923455623401168  0.1575615014695373
  0.5695386903200088  0.4578118862748966  0.1529350866496628
  0.7352307072327449  0.1048491222075825  0.1576255976306626
  0.9007106345049891  0.3923829512343957  0.9102515075861106
  0.5942374433215107  0.0838656619545191  0.9025267499863077
  0.7324485279623829  0.2458262739965207  0.8684306752848769
  0.8952161146842883  0.0166819656329977  0.6082200300467093
  0.5904251936467944  0.2040630679472457  0.6322183858652934
  0.9048468042425455  0.1554590012016348  0.3576041454166656
  0.7197401421310374  0.1917023172209866  0.4357698497159532
  0.5626608888762590  0.1464304742919111  0.2089021297283793
  0.7159541407767875  0.3208502138987441  0.2109182413319672
  0.8625817843447692  0.1203677265786780  0.9134821755659104
  0.5412472452658719  0.2697060302101590  0.8871185709227376
  0.7105348652940293  0.4364444495804776  0.8898666307052991
  0.8655177073743943  0.2469377643825084  0.6835182389375589
  0.5416080752336896  0.4082751592980358  0.6826892438351422
  0.7124944631443029  0.0686997821411168  0.6707360007515106
  0.8817950197399824  0.3521904078516087  0.4336565840028257
  0.5500944624757267  0.0266091655979039  0.4371261123612413
  0.8899954423676704  0.4748890427766028  0.2107791117218625
  0.2384919839635629  0.8630749709049894  0.6249270829466695
  0.0761762435831201  0.8240967151005805  0.3990792514964667
  0.2408547756616670  0.9879357403064972  0.3864853061878222
  0.4235864621443142  0.7948608613783321  0.1595107456614215
  0.0713830199387786  0.9553634893544469  0.1526305210255359
  0.2337406555782309  0.6010542674231942  0.1566259115473940
  0.3989845970819061  0.8930014264765518  0.9054899310599893
  0.0921126182906491  0.5831333800138125  0.9019768394797438
  0.2328375487262733  0.7430797975791208  0.8648619417119860
  0.3947920396232476  0.5145927831775268  0.6120131697718634
  0.0890188831015877  0.7022193053219894  0.6310598743301838
  0.4030023116330739  0.6570090930779742  0.3564236290440306
  0.2176364649923812  0.6876451557025050  0.4342368471068170
  0.0606807823151811  0.6449397718612389  0.2089210556100625
  0.2162662584783703  0.8161392934753806  0.2090811546594225
  0.3641268817915702  0.6184306620275066  0.9135502964150817
  0.0417592916171543  0.7695633280509000  0.8860270917409494
  0.2086548363916876  0.9320946130047290  0.8860291586593476
  0.3681511921303482  0.7430461928112209  0.6810580190629310
  0.0376147977761860  0.9025306070584946  0.6792871756055163
  0.2112404629229374  0.5669323539180482  0.6715115240469771
  0.3770851600891660  0.8575752966371439  0.4372011879369921
  0.0481826180092781  0.5248787394491998  0.4400752006828341
  0.3901413699671394  0.9774939964756868  0.2021620288002808
  0.7377056272733000  0.8685931513517104  0.6261073101544596
  0.5728785792574556  0.8263587204135376  0.4016062483511860
  0.7393108638483952  0.9904568318906968  0.3900009315747255
  0.9283538648197762  0.7926456369380332  0.1564534680137726
  0.5696606681203065  0.9567750688415728  0.1497853982778423
  0.7342761721649396  0.6039502273611035  0.1569078044328549
  0.9008968920284559  0.8947303543334826  0.9082054404448812
  0.5931140037085996  0.5834350235419237  0.9025121886254936
  0.7333639581357332  0.7452279374028450  0.8698226234066269
  0.8951202862376562  0.5156647725459820  0.6099523484688376
  0.5909699434048861  0.7042453511897193  0.6336523235761575
  0.9039386146788004  0.6555852204158867  0.3558712535177477
  0.7188590130711745  0.6915964851433714  0.4351627892572765
  0.5609559708458676  0.6469029628988920  0.2092674822478671
  0.7149311542848196  0.8211561103857719  0.2115147296056037
  0.8648753966467382  0.6176250364615825  0.9090469684360158
  0.5411659401249338  0.7684395334108203  0.8869319393683668
  0.7116002547807341  0.9362674168636147  0.8886174023773705
  0.8652847283055394  0.7465616735861644  0.6828549677020135
  0.5405552368915991  0.9068549356291342  0.6844642403189951
  0.7121370838529231  0.5688018520588969  0.6715999385958540
  0.8821387431660597  0.8523591230110696  0.4328885528663022
  0.5481276834599100  0.5275563636180607  0.4410714036923906
  0.8912756576500200  0.9745926803895699  0.2096675620802628
 
  0.00000000E+00  0.00000000E+00  0.00000000E+00
  0.00000000E+00  0.00000000E+00  0.00000000E+00
  0.00000000E+00  0.00000000E+00  0.00000000E+00
  0.00000000E+00  0.00000000E+00  0.00000000E+00
  0.00000000E+00  0.00000000E+00  0.00000000E+00
  0.00000000E+00  0.00000000E+00  0.00000000E+00
  0.00000000E+00  0.00000000E+00  0.00000000E+00
  0.00000000E+00  0.00000000E+00  0.00000000E+00
  0.00000000E+00  0.00000000E+00  0.00000000E+00
  0.00000000E+00  0.00000000E+00  0.00000000E+00
  0.00000000E+00  0.00000000E+00  0.00000000E+00
  0.00000000E+00  0.00000000E+00  0.00000000E+00
  0.00000000E+00  0.00000000E+00  0.00000000E+00
  0.00000000E+00  0.00000000E+00  0.00000000E+00
  0.00000000E+00  0.00000000E+00  0.00000000E+00
  0.00000000E+00  0.00000000E+00  0.00000000E+00
  0.00000000E+00  0.00000000E+00  0.00000000E+00
  0.00000000E+00  0.00000000E+00  0.00000000E+00
  0.00000000E+00  0.00000000E+00  0.00000000E+00
  0.00000000E+00  0.00000000E+00  0.00000000E+00
  0.00000000E+00  0.00000000E+00  0.00000000E+00
  0.00000000E+00  0.00000000E+00  0.00000000E+00
  0.00000000E+00  0.00000000E+00  0.00000000E+00
  0.00000000E+00  0.00000000E+00  0.00000000E+00
  0.00000000E+00  0.00000000E+00  0.00000000E+00
  0.00000000E+00  0.00000000E+00  0.00000000E+00
  0.00000000E+00  0.00000000E+00  0.00000000E+00
  0.00000000E+00  0.00000000E+00  0.00000000E+00
  0.00000000E+00  0.00000000E+00  0.00000000E+00
  0.00000000E+00  0.00000000E+00  0.00000000E+00
  0.00000000E+00  0.00000000E+00  0.00000000E+00
  0.00000000E+00  0.00000000E+00  0.00000000E+00
  0.00000000E+00  0.00000000E+00  0.00000000E+00
  0.00000000E+00  0.00000000E+00  0.00000000E+00
  0.00000000E+00  0.00000000E+00  0.00000000E+00
  0.00000000E+00  0.00000000E+00  0.00000000E+00
  0.00000000E+00  0.00000000E+00  0.00000000E+00
  0.00000000E+00  0.00000000E+00  0.00000000E+00
  0.00000000E+00  0.00000000E+00  0.00000000E+00
  0.00000000E+00  0.00000000E+00  0.00000000E+00
  0.00000000E+00  0.00000000E+00  0.00000000E+00
  0.00000000E+00  0.00000000E+00  0.00000000E+00
  0.00000000E+00  0.00000000E+00  0.00000000E+00
  0.00000000E+00  0.00000000E+00  0.00000000E+00
  0.00000000E+00  0.00000000E+00  0.00000000E+00
  0.00000000E+00  0.00000000E+00  0.00000000E+00
  0.00000000E+00  0.00000000E+00  0.00000000E+00
  0.00000000E+00  0.00000000E+00  0.00000000E+00
  0.00000000E+00  0.00000000E+00  0.00000000E+00
  0.00000000E+00  0.00000000E+00  0.00000000E+00
  0.00000000E+00  0.00000000E+00  0.00000000E+00
  0.00000000E+00  0.00000000E+00  0.00000000E+00
  0.00000000E+00  0.00000000E+00  0.00000000E+00
  0.00000000E+00  0.00000000E+00  0.00000000E+00
  0.00000000E+00  0.00000000E+00  0.00000000E+00
  0.00000000E+00  0.00000000E+00  0.00000000E+00
  0.00000000E+00  0.00000000E+00  0.00000000E+00
  0.00000000E+00  0.00000000E+00  0.00000000E+00
  0.00000000E+00  0.00000000E+00  0.00000000E+00
  0.00000000E+00  0.00000000E+00  0.00000000E+00
  0.00000000E+00  0.00000000E+00  0.00000000E+00
  0.00000000E+00  0.00000000E+00  0.00000000E+00
  0.00000000E+00  0.00000000E+00  0.00000000E+00
  0.00000000E+00  0.00000000E+00  0.00000000E+00
  0.00000000E+00  0.00000000E+00  0.00000000E+00
  0.00000000E+00  0.00000000E+00  0.00000000E+00
  0.00000000E+00  0.00000000E+00  0.00000000E+00
  0.00000000E+00  0.00000000E+00  0.00000000E+00
  0.00000000E+00  0.00000000E+00  0.00000000E+00
  0.00000000E+00  0.00000000E+00  0.00000000E+00
  0.00000000E+00  0.00000000E+00  0.00000000E+00
  0.00000000E+00  0.00000000E+00  0.00000000E+00
  0.00000000E+00  0.00000000E+00  0.00000000E+00
  0.00000000E+00  0.00000000E+00  0.00000000E+00
  0.00000000E+00  0.00000000E+00  0.00000000E+00
  0.00000000E+00  0.00000000E+00  0.00000000E+00
  0.00000000E+00  0.00000000E+00  0.00000000E+00
  0.00000000E+00  0.00000000E+00  0.00000000E+00
  0.00000000E+00  0.00000000E+00  0.00000000E+00
  0.00000000E+00  0.00000000E+00  0.00000000E+00
  0.00000000E+00  0.00000000E+00  0.00000000E+00
  0.00000000E+00  0.00000000E+00  0.00000000E+00
  0.00000000E+00  0.00000000E+00  0.00000000E+00
  0.00000000E+00  0.00000000E+00  0.00000000E+00
  0.00000000E+00  0.00000000E+00  0.00000000E+00
  0.00000000E+00  0.00000000E+00  0.00000000E+00
  0.00000000E+00  0.00000000E+00  0.00000000E+00
  0.00000000E+00  0.00000000E+00  0.00000000E+00
  0.00000000E+00  0.00000000E+00  0.00000000E+00
  0.00000000E+00  0.00000000E+00  0.00000000E+00
  0.00000000E+00  0.00000000E+00  0.00000000E+00
  0.00000000E+00  0.00000000E+00  0.00000000E+00
  0.00000000E+00  0.00000000E+00  0.00000000E+00
  0.00000000E+00  0.00000000E+00  0.00000000E+00
  0.00000000E+00  0.00000000E+00  0.00000000E+00
  0.00000000E+00  0.00000000E+00  0.00000000E+00
  0.00000000E+00  0.00000000E+00  0.00000000E+00
  0.00000000E+00  0.00000000E+00  0.00000000E+00
  0.00000000E+00  0.00000000E+00  0.00000000E+00
  0.00000000E+00  0.00000000E+00  0.00000000E+00
  0.00000000E+00  0.00000000E+00  0.00000000E+00
  0.00000000E+00  0.00000000E+00  0.00000000E+00
  0.00000000E+00  0.00000000E+00  0.00000000E+00
  0.00000000E+00  0.00000000E+00  0.00000000E+00
  0.00000000E+00  0.00000000E+00  0.00000000E+00
  0.00000000E+00  0.00000000E+00  0.00000000E+00
  0.00000000E+00  0.00000000E+00  0.00000000E+00
  0.00000000E+00  0.00000000E+00  0.00000000E+00
  0.00000000E+00  0.00000000E+00  0.00000000E+00
  0.00000000E+00  0.00000000E+00  0.00000000E+00
  0.00000000E+00  0.00000000E+00  0.00000000E+00
  0.00000000E+00  0.00000000E+00  0.00000000E+00
  0.00000000E+00  0.00000000E+00  0.00000000E+00
  0.00000000E+00  0.00000000E+00  0.00000000E+00
  0.00000000E+00  0.00000000E+00  0.00000000E+00
  0.00000000E+00  0.00000000E+00  0.00000000E+00
  0.00000000E+00  0.00000000E+00  0.00000000E+00
  0.00000000E+00  0.00000000E+00  0.00000000E+00
  0.00000000E+00  0.00000000E+00  0.00000000E+00
  0.00000000E+00  0.00000000E+00  0.00000000E+00
  0.00000000E+00  0.00000000E+00  0.00000000E+00
  0.00000000E+00  0.00000000E+00  0.00000000E+00
  0.00000000E+00  0.00000000E+00  0.00000000E+00
  0.00000000E+00  0.00000000E+00  0.00000000E+00
  0.00000000E+00  0.00000000E+00  0.00000000E+00
  0.00000000E+00  0.00000000E+00  0.00000000E+00
  0.00000000E+00  0.00000000E+00  0.00000000E+00
  0.00000000E+00  0.00000000E+00  0.00000000E+00
  0.00000000E+00  0.00000000E+00  0.00000000E+00
  0.00000000E+00  0.00000000E+00  0.00000000E+00
  0.00000000E+00  0.00000000E+00  0.00000000E+00
  0.00000000E+00  0.00000000E+00  0.00000000E+00
  0.00000000E+00  0.00000000E+00  0.00000000E+00
  0.00000000E+00  0.00000000E+00  0.00000000E+00
  0.00000000E+00  0.00000000E+00  0.00000000E+00
  0.00000000E+00  0.00000000E+00  0.00000000E+00
  0.00000000E+00  0.00000000E+00  0.00000000E+00
  0.00000000E+00  0.00000000E+00  0.00000000E+00
  0.00000000E+00  0.00000000E+00  0.00000000E+00
  0.00000000E+00  0.00000000E+00  0.00000000E+00
  0.00000000E+00  0.00000000E+00  0.00000000E+00
  0.00000000E+00  0.00000000E+00  0.00000000E+00
  0.00000000E+00  0.00000000E+00  0.00000000E+00
  0.00000000E+00  0.00000000E+00  0.00000000E+00
  0.00000000E+00  0.00000000E+00  0.00000000E+00
  0.00000000E+00  0.00000000E+00  0.00000000E+00
  0.00000000E+00  0.00000000E+00  0.00000000E+00
  0.00000000E+00  0.00000000E+00  0.00000000E+00
  0.00000000E+00  0.00000000E+00  0.00000000E+00
  0.00000000E+00  0.00000000E+00  0.00000000E+00
  0.00000000E+00  0.00000000E+00  0.00000000E+00
  0.00000000E+00  0.00000000E+00  0.00000000E+00
  0.00000000E+00  0.00000000E+00  0.00000000E+00
  0.00000000E+00  0.00000000E+00  0.00000000E+00
  0.00000000E+00  0.00000000E+00  0.00000000E+00
  0.00000000E+00  0.00000000E+00  0.00000000E+00
  0.00000000E+00  0.00000000E+00  0.00000000E+00
  0.00000000E+00  0.00000000E+00  0.00000000E+00
  0.00000000E+00  0.00000000E+00  0.00000000E+00
  0.00000000E+00  0.00000000E+00  0.00000000E+00
  0.00000000E+00  0.00000000E+00  0.00000000E+00
  0.00000000E+00  0.00000000E+00  0.00000000E+00
  0.00000000E+00  0.00000000E+00  0.00000000E+00
  0.00000000E+00  0.00000000E+00  0.00000000E+00
  0.00000000E+00  0.00000000E+00  0.00000000E+00
  0.00000000E+00  0.00000000E+00  0.00000000E+00
  0.00000000E+00  0.00000000E+00  0.00000000E+00
  0.00000000E+00  0.00000000E+00  0.00000000E+00
  0.00000000E+00  0.00000000E+00  0.00000000E+00
  0.00000000E+00  0.00000000E+00  0.00000000E+00
  0.00000000E+00  0.00000000E+00  0.00000000E+00
  0.00000000E+00  0.00000000E+00  0.00000000E+00
  0.00000000E+00  0.00000000E+00  0.00000000E+00
  0.00000000E+00  0.00000000E+00  0.00000000E+00
  0.00000000E+00  0.00000000E+00  0.00000000E+00
  0.00000000E+00  0.00000000E+00  0.00000000E+00
  0.00000000E+00  0.00000000E+00  0.00000000E+00
  0.00000000E+00  0.00000000E+00  0.00000000E+00
  0.00000000E+00  0.00000000E+00  0.00000000E+00
  0.00000000E+00  0.00000000E+00  0.00000000E+00
  0.00000000E+00  0.00000000E+00  0.00000000E+00
  0.00000000E+00  0.00000000E+00  0.00000000E+00
  0.00000000E+00  0.00000000E+00  0.00000000E+00
  0.00000000E+00  0.00000000E+00  0.00000000E+00
  0.00000000E+00  0.00000000E+00  0.00000000E+00
  0.00000000E+00  0.00000000E+00  0.00000000E+00
  0.00000000E+00  0.00000000E+00  0.00000000E+00
  0.00000000E+00  0.00000000E+00  0.00000000E+00
  0.00000000E+00  0.00000000E+00  0.00000000E+00
  0.00000000E+00  0.00000000E+00  0.00000000E+00
  0.00000000E+00  0.00000000E+00  0.00000000E+00
