generated by phonopy                    
   1.00000000000000     
    11.7777700938999992   -0.0000006592896312    0.0000118211769744
    -0.0000006477562692   11.7777479613999994   -0.0000130806483528
     0.0000177256125076   -0.0000204342245446   17.8544012557999991
   Bi   O    Cu   Se
    36    37    35    36
Direct
  0.0014605920003845  0.1657350264488571  0.4296975619071262
  0.3352156309819776  0.1643178801596008  0.4270864567444619
  0.6742887140574183  0.1577002175588618  0.4293871385075576
  0.0026652647925403  0.5000035501773112  0.4279891134023401
  0.3355511017408759  0.5000019202326698  0.4275901103667437
  0.6676811228164681  0.5000024981415550  0.4289885296077998
  0.0014629309376772  0.8342683893934222  0.4296982831589418
  0.3352136362930125  0.8356867688825602  0.4270850274304863
  0.6742888830238272  0.8423054066665046  0.4293871190013263
  0.0009917656679477  0.1664040336919044  0.9282555059610829
  0.3334181941791954  0.1671910932165233  0.9285798521773287
  0.6675959802477891  0.1667997170241762  0.9286932652700131
  0.0013996419706075  0.5000053506829687  0.9277966138890363
  0.3328834036676724  0.5000070220433415  0.9291037906122668
  0.6677603650601469  0.5000043995407708  0.9285695726517318
  0.0009908239709659  0.8336073096265153  0.9282553366599089
  0.3334170744691747  0.8328199446371727  0.9285789114423082
  0.6675978963834197  0.8332126713150458  0.9286959032378803
  0.1661399848065557  0.0000035611641067  0.0718419385857061
  0.4996247509506091  0.0000037489139544  0.0694599101072271
  0.8355367240823526  0.0000072878707229  0.0710707754187467
  0.1650401805820039  0.3321588173303311  0.0711446647817269
  0.5003924664441968  0.3333916940144519  0.0700286899005818
  0.8359896606088526  0.3329294760428709  0.0703180210135912
  0.1650398553915480  0.6678544141728651  0.0711472086906824
  0.5003931709423881  0.6666198432754200  0.0700288215793066
  0.8359910425263024  0.6670801316540889  0.0703174124914057
  0.1689101692527828  0.0000012304259087  0.5708242823809471
  0.4993317816079639  0.0000027580177360  0.5725855442649319
  0.8368578104913738  0.0000028984026059  0.5727181615745778
  0.1693322136256654  0.3333988929892513  0.5696066150529333
  0.5026239977616953  0.3313320957850081  0.5686328776743679
  0.8337892092966612  0.3345521228823429  0.5709048486057000
  0.1693319616569866  0.6666026575601904  0.5696068378445531
  0.5026268032164083  0.6686755571091183  0.5686326407576061
  0.8337894023010648  0.6654486756399010  0.5709047303010877
  0.8009390146244115  0.0000020340236944  0.3961538497305455
  0.1677696785913625  0.1662147606576241  0.4982045339196404
  0.5018042523548800  0.1647157806772981  0.4998723424054461
  0.8359659102605903  0.1683655734632410  0.5032236809215291
  0.1678246384049942  0.5000016136327545  0.4991419521170926
  0.5008340103219240  0.5000020625492283  0.4988269362462887
  0.8364812829146757  0.5000025099701091  0.4988518543841209
  0.1677711135081026  0.8337919278080861  0.4982055204007168
  0.5018047415133182  0.8352887167865006  0.4998711574792338
  0.8359636613373667  0.8316378209446711  0.5032245938883193
  0.1671853630569302  0.1662115350686193  0.9993153652146347
  0.5005019654235383  0.1667262687121038  0.9987232910069892
  0.8345988570268261  0.1662600309972433  0.9992902631938136
  0.1664033371911060  0.5000047626245490  0.9991834502570569
  0.5007730237437897  0.5000062546658626  0.9984671977669848
  0.8348857598828445  0.5000068008922796  0.9988130794974452
  0.1671862192398521  0.8337998476727648  0.9993154437016756
  0.5004989243951385  0.8332842871151982  0.9987227608728304
  0.8346011631850274  0.8337500229655603  0.9992899685414329
  0.0004931550660672  0.0000048655351961  0.9995146091260807
  0.3340516040095451  0.0000056797698491  0.9994053288268105
  0.6675116236312988  0.0000052881227219  0.9992330793486914
  0.0009787774685037  0.3336453303702029  0.9982341287491039
  0.3334964336665536  0.3328847670523629  0.9989241814276966
  0.6676185266852386  0.3335095149771874  0.9987120294491589
  0.0009827732057772  0.6663663905688821  0.9982345367742340
  0.3334947060628792  0.6671274315153966  0.9989243886746095
  0.6676176630409856  0.6665024353598312  0.9987133607361187
  0.0025196843716202  0.0000018262405277  0.5008398915813572
  0.3350313572945183  0.0000030328281753  0.4997043220834385
  0.6655357424931054  0.0000035126580684  0.5068105528155940
  0.0020684477764092  0.3322301508624648  0.4984302179424631
  0.3344728297939454  0.3328202740088670  0.4985243499604550
  0.6690689930220159  0.3346439932758116  0.5001135805280228
  0.0020708730796670  0.6677772663379358  0.4984303169965045
  0.3344724117468871  0.6671849599773907  0.4985236624970923
  0.6690680867721071  0.6653563813864949  0.5001158365251683
  0.3369633358814994  0.0000014580604599  0.2492997974838715
  0.6730660122697572  0.0000042690572286  0.2406148146770306
  0.0020198091634143  0.3318380701085175  0.2494851429175284
  0.3347191605273778  0.3335726143612732  0.2498867719347544
  0.6660108489801644  0.3351259455920399  0.2495026069010962
  0.0020226274396293  0.6681723474591053  0.2494858167351452
  0.3347173798852339  0.6664362745229582  0.2498858572186506
  0.6660063015002748  0.6648773858931207  0.2495017724092747
  0.0015502795931468  0.0000025153009133  0.7494078403273789
  0.3338420216447346  0.0000050184937876  0.7493727369254444
  0.6675366435451551  0.0000048328891964  0.7495114232984363
  0.0013523681267031  0.3338544213397014  0.7493317230325260
  0.3342547169967816  0.3346462316068610  0.7493130592477542
  0.6673653258440524  0.3335896410998558  0.7499186195735703
  0.0013523052747075  0.6661496044099309  0.7493322240384828
  0.3342539538740397  0.6653636039557611  0.7493139846005903
  0.6673654059359890  0.6664205027843124  0.7499187304394681
  0.1662738563547208  0.1640906594152085  0.2492940648132276
  0.5010105760655463  0.1687752243255005  0.2488293443292946
  0.8320429802798941  0.1823138747558346  0.2418781836113340
  0.1678444674944259  0.5000019223460015  0.2502978787433179
  0.4997788276259882  0.5000023132024367  0.2497868857082608
  0.8337180646514568  0.5000020296222090  0.2495871064377084
  0.1662717324592649  0.8359148052867766  0.2492939785814698
  0.5010112134947988  0.8312294072753161  0.2488290879990060
  0.8320429635376811  0.8176910279343872  0.2418794778989621
  0.1676406962433958  0.1665738645678232  0.7499759417861611
  0.5010196812676639  0.1673328127203888  0.7496569573856320
  0.8352751604370852  0.1669303568391953  0.7494304905084377
  0.1693639747702420  0.5000054869346613  0.7490095981292058
  0.5003218553155193  0.5000053260065798  0.7494683818523740
  0.8346815772873555  0.5000037896379297  0.7488516626936956
  0.1676418300488862  0.8334334710665061  0.7499758763101596
  0.5010197989034069  0.8326783603424985  0.7496565750644919
  0.8352753360961813  0.8330762600538080  0.7494311062292169
  0.1674084540838550  0.3320768190326007  0.3370180077983207
  0.5012438248932938  0.3332171587604194  0.3370022735915867
  0.8339268263752828  0.3322774791624568  0.3370280623736903
  0.1674100781846874  0.6679305642614963  0.3370191094693453
  0.5012412203511971  0.6667894087105211  0.3370026659695426
  0.8339246459617300  0.6677270819704404  0.3370272480075442
  0.1736321804982097  0.0000031373909763  0.3365161357153141
  0.5132990278707368  0.0000032108508350  0.3331816499073668
  0.8650679881891676  0.0000031207848252  0.2999021737015752
  0.1676351681148205  0.3333914305230152  0.8364961167876572
  0.5003793506772709  0.3334657298927226  0.8365659190055652
  0.8347995289351928  0.3332602233453059  0.8363529949695874
  0.1676352918916919  0.6666189242022540  0.8364960018622511
  0.5003792222577204  0.6665415394979206  0.8365652829990395
  0.8347994534478147  0.6667510202085083  0.8363533123962199
  0.1674688150966546  0.0000059055380461  0.8369929483709271
  0.5007215552527171  0.0000033415105065  0.8361612231744004
  0.8346250172119198  0.0000055935722258  0.8363813676544254
  0.3347993117164094  0.1671226968620232  0.1620091812095623
  0.6637130351591907  0.1715590418858142  0.1580914342461028
  0.0037374864148347  0.1682919020774349  0.1599342488871329
  0.3333108306602668  0.5000053641277376  0.1624642758396320
  0.6674310677983684  0.5000038721923161  0.1618600764517524
  0.0008283497268451  0.5000042239669256  0.1628723174164293
  0.3347994432092634  0.8328900345362698  0.1620089613219875
  0.6637133247161131  0.8284513212897693  0.1580927299094057
  0.0037404511332397  0.8317150255445256  0.1599341636791962
  0.3334430939276416  0.1674031093005937  0.6626647271757591
  0.6681550421542042  0.1674188314364713  0.6629741671516527
  0.0023170205545640  0.1667804664244201  0.6623490427700958
  0.3346942295385702  0.5000022276537379  0.6613269443105878
  0.6671763908711412  0.5000016870969120  0.6627744197487644
  0.0026027142484892  0.5000056210381203  0.6621473343202808
  0.3334412423594486  0.8326013834307417  0.6626650058874333
  0.6681538218923393  0.8325845359046795  0.6629743643624479
  0.0023179543511844  0.8332312718855306  0.6623489489921752
 
  0.00000000E+00  0.00000000E+00  0.00000000E+00
  0.00000000E+00  0.00000000E+00  0.00000000E+00
  0.00000000E+00  0.00000000E+00  0.00000000E+00
  0.00000000E+00  0.00000000E+00  0.00000000E+00
  0.00000000E+00  0.00000000E+00  0.00000000E+00
  0.00000000E+00  0.00000000E+00  0.00000000E+00
  0.00000000E+00  0.00000000E+00  0.00000000E+00
  0.00000000E+00  0.00000000E+00  0.00000000E+00
  0.00000000E+00  0.00000000E+00  0.00000000E+00
  0.00000000E+00  0.00000000E+00  0.00000000E+00
  0.00000000E+00  0.00000000E+00  0.00000000E+00
  0.00000000E+00  0.00000000E+00  0.00000000E+00
  0.00000000E+00  0.00000000E+00  0.00000000E+00
  0.00000000E+00  0.00000000E+00  0.00000000E+00
  0.00000000E+00  0.00000000E+00  0.00000000E+00
  0.00000000E+00  0.00000000E+00  0.00000000E+00
  0.00000000E+00  0.00000000E+00  0.00000000E+00
  0.00000000E+00  0.00000000E+00  0.00000000E+00
  0.00000000E+00  0.00000000E+00  0.00000000E+00
  0.00000000E+00  0.00000000E+00  0.00000000E+00
  0.00000000E+00  0.00000000E+00  0.00000000E+00
  0.00000000E+00  0.00000000E+00  0.00000000E+00
  0.00000000E+00  0.00000000E+00  0.00000000E+00
  0.00000000E+00  0.00000000E+00  0.00000000E+00
  0.00000000E+00  0.00000000E+00  0.00000000E+00
  0.00000000E+00  0.00000000E+00  0.00000000E+00
  0.00000000E+00  0.00000000E+00  0.00000000E+00
  0.00000000E+00  0.00000000E+00  0.00000000E+00
  0.00000000E+00  0.00000000E+00  0.00000000E+00
  0.00000000E+00  0.00000000E+00  0.00000000E+00
  0.00000000E+00  0.00000000E+00  0.00000000E+00
  0.00000000E+00  0.00000000E+00  0.00000000E+00
  0.00000000E+00  0.00000000E+00  0.00000000E+00
  0.00000000E+00  0.00000000E+00  0.00000000E+00
  0.00000000E+00  0.00000000E+00  0.00000000E+00
  0.00000000E+00  0.00000000E+00  0.00000000E+00
  0.00000000E+00  0.00000000E+00  0.00000000E+00
  0.00000000E+00  0.00000000E+00  0.00000000E+00
  0.00000000E+00  0.00000000E+00  0.00000000E+00
  0.00000000E+00  0.00000000E+00  0.00000000E+00
  0.00000000E+00  0.00000000E+00  0.00000000E+00
  0.00000000E+00  0.00000000E+00  0.00000000E+00
  0.00000000E+00  0.00000000E+00  0.00000000E+00
  0.00000000E+00  0.00000000E+00  0.00000000E+00
  0.00000000E+00  0.00000000E+00  0.00000000E+00
  0.00000000E+00  0.00000000E+00  0.00000000E+00
  0.00000000E+00  0.00000000E+00  0.00000000E+00
  0.00000000E+00  0.00000000E+00  0.00000000E+00
  0.00000000E+00  0.00000000E+00  0.00000000E+00
  0.00000000E+00  0.00000000E+00  0.00000000E+00
  0.00000000E+00  0.00000000E+00  0.00000000E+00
  0.00000000E+00  0.00000000E+00  0.00000000E+00
  0.00000000E+00  0.00000000E+00  0.00000000E+00
  0.00000000E+00  0.00000000E+00  0.00000000E+00
  0.00000000E+00  0.00000000E+00  0.00000000E+00
  0.00000000E+00  0.00000000E+00  0.00000000E+00
  0.00000000E+00  0.00000000E+00  0.00000000E+00
  0.00000000E+00  0.00000000E+00  0.00000000E+00
  0.00000000E+00  0.00000000E+00  0.00000000E+00
  0.00000000E+00  0.00000000E+00  0.00000000E+00
  0.00000000E+00  0.00000000E+00  0.00000000E+00
  0.00000000E+00  0.00000000E+00  0.00000000E+00
  0.00000000E+00  0.00000000E+00  0.00000000E+00
  0.00000000E+00  0.00000000E+00  0.00000000E+00
  0.00000000E+00  0.00000000E+00  0.00000000E+00
  0.00000000E+00  0.00000000E+00  0.00000000E+00
  0.00000000E+00  0.00000000E+00  0.00000000E+00
  0.00000000E+00  0.00000000E+00  0.00000000E+00
  0.00000000E+00  0.00000000E+00  0.00000000E+00
  0.00000000E+00  0.00000000E+00  0.00000000E+00
  0.00000000E+00  0.00000000E+00  0.00000000E+00
  0.00000000E+00  0.00000000E+00  0.00000000E+00
  0.00000000E+00  0.00000000E+00  0.00000000E+00
  0.00000000E+00  0.00000000E+00  0.00000000E+00
  0.00000000E+00  0.00000000E+00  0.00000000E+00
  0.00000000E+00  0.00000000E+00  0.00000000E+00
  0.00000000E+00  0.00000000E+00  0.00000000E+00
  0.00000000E+00  0.00000000E+00  0.00000000E+00
  0.00000000E+00  0.00000000E+00  0.00000000E+00
  0.00000000E+00  0.00000000E+00  0.00000000E+00
  0.00000000E+00  0.00000000E+00  0.00000000E+00
  0.00000000E+00  0.00000000E+00  0.00000000E+00
  0.00000000E+00  0.00000000E+00  0.00000000E+00
  0.00000000E+00  0.00000000E+00  0.00000000E+00
  0.00000000E+00  0.00000000E+00  0.00000000E+00
  0.00000000E+00  0.00000000E+00  0.00000000E+00
  0.00000000E+00  0.00000000E+00  0.00000000E+00
  0.00000000E+00  0.00000000E+00  0.00000000E+00
  0.00000000E+00  0.00000000E+00  0.00000000E+00
  0.00000000E+00  0.00000000E+00  0.00000000E+00
  0.00000000E+00  0.00000000E+00  0.00000000E+00
  0.00000000E+00  0.00000000E+00  0.00000000E+00
  0.00000000E+00  0.00000000E+00  0.00000000E+00
  0.00000000E+00  0.00000000E+00  0.00000000E+00
  0.00000000E+00  0.00000000E+00  0.00000000E+00
  0.00000000E+00  0.00000000E+00  0.00000000E+00
  0.00000000E+00  0.00000000E+00  0.00000000E+00
  0.00000000E+00  0.00000000E+00  0.00000000E+00
  0.00000000E+00  0.00000000E+00  0.00000000E+00
  0.00000000E+00  0.00000000E+00  0.00000000E+00
  0.00000000E+00  0.00000000E+00  0.00000000E+00
  0.00000000E+00  0.00000000E+00  0.00000000E+00
  0.00000000E+00  0.00000000E+00  0.00000000E+00
  0.00000000E+00  0.00000000E+00  0.00000000E+00
  0.00000000E+00  0.00000000E+00  0.00000000E+00
  0.00000000E+00  0.00000000E+00  0.00000000E+00
  0.00000000E+00  0.00000000E+00  0.00000000E+00
  0.00000000E+00  0.00000000E+00  0.00000000E+00
  0.00000000E+00  0.00000000E+00  0.00000000E+00
  0.00000000E+00  0.00000000E+00  0.00000000E+00
  0.00000000E+00  0.00000000E+00  0.00000000E+00
  0.00000000E+00  0.00000000E+00  0.00000000E+00
  0.00000000E+00  0.00000000E+00  0.00000000E+00
  0.00000000E+00  0.00000000E+00  0.00000000E+00
  0.00000000E+00  0.00000000E+00  0.00000000E+00
  0.00000000E+00  0.00000000E+00  0.00000000E+00
  0.00000000E+00  0.00000000E+00  0.00000000E+00
  0.00000000E+00  0.00000000E+00  0.00000000E+00
  0.00000000E+00  0.00000000E+00  0.00000000E+00
  0.00000000E+00  0.00000000E+00  0.00000000E+00
  0.00000000E+00  0.00000000E+00  0.00000000E+00
  0.00000000E+00  0.00000000E+00  0.00000000E+00
  0.00000000E+00  0.00000000E+00  0.00000000E+00
  0.00000000E+00  0.00000000E+00  0.00000000E+00
  0.00000000E+00  0.00000000E+00  0.00000000E+00
  0.00000000E+00  0.00000000E+00  0.00000000E+00
  0.00000000E+00  0.00000000E+00  0.00000000E+00
  0.00000000E+00  0.00000000E+00  0.00000000E+00
  0.00000000E+00  0.00000000E+00  0.00000000E+00
  0.00000000E+00  0.00000000E+00  0.00000000E+00
  0.00000000E+00  0.00000000E+00  0.00000000E+00
  0.00000000E+00  0.00000000E+00  0.00000000E+00
  0.00000000E+00  0.00000000E+00  0.00000000E+00
  0.00000000E+00  0.00000000E+00  0.00000000E+00
  0.00000000E+00  0.00000000E+00  0.00000000E+00
  0.00000000E+00  0.00000000E+00  0.00000000E+00
  0.00000000E+00  0.00000000E+00  0.00000000E+00
  0.00000000E+00  0.00000000E+00  0.00000000E+00
  0.00000000E+00  0.00000000E+00  0.00000000E+00
  0.00000000E+00  0.00000000E+00  0.00000000E+00
  0.00000000E+00  0.00000000E+00  0.00000000E+00
  0.00000000E+00  0.00000000E+00  0.00000000E+00
  0.00000000E+00  0.00000000E+00  0.00000000E+00
  0.00000000E+00  0.00000000E+00  0.00000000E+00
