generated by phonopy                    
   1.00000000000000     
    11.7777700938999992   -0.0000006592896312    0.0000118211769744
    -0.0000006477562692   11.7777479613999994   -0.0000130806483528
     0.0000177256125076   -0.0000204342245446   17.8544012557999991
   Bi   Sn   Cu   Se   O 
    36     1    35    36    36
Direct
  0.0000477258899281  0.1691309535290060  0.4330837183692395
  0.3358972506956661  0.1672250417323440  0.4319475677026503
  0.6642085623320000  0.1672202522951665  0.4319484527568704
  0.0000576823863909  0.5001032348012870  0.4306869547482748
  0.3341016098991858  0.5001033155764389  0.4311237006939663
  0.6659860650276883  0.5001060536886257  0.4311352038627945
  0.0000403063367429  0.8310641090362409  0.4330809498204076
  0.3358921389430662  0.8329694308621427  0.4319499886030869
  0.6642138730496470  0.8329873167220896  0.4319506935445432
  0.0001560137344683  0.1671728511934631  0.9273402597338958
  0.3340271903805032  0.1676678220015475  0.9270091584333855
  0.6662697010176544  0.1676669192795970  0.9270082361911633
  0.0001547271902851  0.5001680373808739  0.9254440955531891
  0.3346306188405421  0.5001584849589520  0.9261486195558319
  0.6656705334706672  0.5001609230409585  0.9261521791942471
  0.0001495365075428  0.8331445920963176  0.9273406105670858
  0.3340270641723677  0.8326397267324452  0.9270073805348247
  0.6662721729172461  0.8326422555131288  0.9270098201860861
  0.1691827457736608  0.0001526968441681  0.0669010972415549
  0.5001438332615109  0.0001504959154133  0.0692975814956114
  0.8311169577478950  0.0001621972108978  0.0668955812452054
  0.1672709020507597  0.3360140429963963  0.0680217516707131
  0.5001480047299083  0.3342154109909288  0.0688499277530994
  0.8330298328249341  0.3360128568947403  0.0680183778948091
  0.1672713057601527  0.6643153497675058  0.0680291609548078
  0.5001430366285433  0.6661034774225385  0.0688567999157002
  0.8330216506234720  0.6643151163535208  0.0680294917408091
  0.1670613341081904  0.0000917297391894  0.5726350439735910
  0.5000401408691033  0.0000963342191298  0.5745249440049705
  0.8330336165668584  0.0001033261181433  0.5726424851255416
  0.1675594698939307  0.3339674867149824  0.5729706473912444
  0.5000419207286839  0.3345711219453875  0.5738256072765324
  0.8325317526026552  0.3339822151705292  0.5729735654329815
  0.1675633192700161  0.6662186729980277  0.5729727013042094
  0.5000498359774141  0.6656241794488551  0.5738281058868964
  0.8325363752875177  0.6662166408004566  0.5729750300773375
  0.0000016905278457  0.0002114384828431  0.2499861002790524
  0.3396189496908306  0.0001538146911884  0.2461426748362356
  0.6605725455735225  0.0001646426064070  0.2461582632902264
  0.0000786682195013  0.3397047105085136  0.2538275778580399
  0.3358188311820882  0.3358907084355778  0.2499878783959701
  0.6643488880014843  0.3358951174735552  0.2499954725200624
  0.0000716155593139  0.6606453305564131  0.2538369038912407
  0.3358076490302793  0.6644213083525727  0.2499939724419136
  0.6643436551406481  0.6644236357464948  0.2499938627754617
  0.0001173097102836  0.0001037438647415  0.7499928978080916
  0.3327255352730276  0.0000981427042177  0.7503367906981779
  0.6675045241654445  0.0001001130106744  0.7503353255886580
  0.0001189064645004  0.3327101686381582  0.7496485770737706
  0.3329456679127674  0.3329144837949585  0.7499896177389118
  0.6672994743417817  0.3329141557426567  0.7499909794700699
  0.0001174285461190  0.6674984423814223  0.7496433726525069
  0.3329452985573624  0.6672780366417896  0.7499833310338886
  0.6672961082224731  0.6672810381827574  0.7499842737444027
  0.1762124656858930  0.1762015904044247  0.2499786885250543
  0.5001281846098067  0.1677592052931871  0.2498113747888695
  0.8241208755148790  0.1763631370846994  0.2499241453675438
  0.1677515832817846  0.5001344632461695  0.2501634561312400
  0.5001222679773107  0.5001377186424065  0.2499885258938761
  0.8324900172572640  0.5001368924655409  0.2501629476570244
  0.1761690330452907  0.8240674929697533  0.2499881224423888
  0.5001280939504156  0.8325050507520189  0.2498133520512269
  0.8240282120227107  0.8240543136944609  0.2500160289109417
  0.1660561559935587  0.1661064600008046  0.7499894517686982
  0.5000697794651998  0.1660505575786502  0.7495116597079345
  0.8340807870517040  0.1661129572104159  0.7499896929594954
  0.1660081448943771  0.5001244398438303  0.7504681376506568
  0.5000650062827532  0.5001214054637302  0.7499911313304040
  0.8341333400208768  0.5001254037982505  0.7504688675277791
  0.1660539279976092  0.8341517415059130  0.7499865914866959
  0.5000706360746463  0.8341969932030224  0.7495090688331700
  0.8340793479133666  0.8341524507220939  0.7499877139233107
  0.1679309286957320  0.3343070301707201  0.3387469068152171
  0.5000759591286510  0.3335605542966462  0.3379362131051167
  0.8322299928084433  0.3343271126051732  0.3387637697499315
  0.1679297108589708  0.6659263635551795  0.3387588966053343
  0.5000695546143206  0.6666837035217412  0.3379416727064211
  0.8322178685026032  0.6659252502921618  0.3387648153056588
  0.1868940366761791  0.0000783110233300  0.3422901423856146
  0.5000653662381893  0.0001205348069391  0.3378548115037177
  0.8131709607454098  0.0001064165024474  0.3423615496510735
  0.1667505812067773  0.3328120809317170  0.8367236682465204
  0.5001258860899043  0.3328982751832044  0.8362536275072330
  0.8334947937343102  0.3328128638634524  0.8367267670895018
  0.1667516039103845  0.6674614835571901  0.8367179672912712
  0.5001244275726791  0.6673631405093943  0.8362512820398038
  0.8334906138005991  0.6674597109451952  0.8367207060342423
  0.1664467489984034  0.0001353902030701  0.8372860186502180
  0.5001221405170355  0.0001275197392445  0.8367996253294336
  0.8337936483052246  0.0001358836312448  0.8372850455736511
  0.3343322002066884  0.1680078198079968  0.1612186642368343
  0.6659535807085391  0.1680017127675697  0.1612318709508500
  0.0002045676338724  0.1870665897037611  0.1576220355214204
  0.3335586338625021  0.5001544295004337  0.1620380817438729
  0.6666845134774633  0.5001543119411380  0.1620418545452580
  0.0001199394367433  0.5001709010653954  0.1621218491958700
  0.3343179377042418  0.8322850503455825  0.1612256436900807
  0.6659480890306000  0.8322974290768244  0.1612321370683176
  0.0001738847796915  0.8133141818256533  0.1576746036697045
  0.3327464025380991  0.1667244916371544  0.6632557676438040
  0.6673857776290362  0.1667257789158896  0.6632528479688560
  0.0000655737372810  0.1664281629897317  0.6626991492871923
  0.3328414241381026  0.5000972363689655  0.6637245149270470
  0.6672938092498981  0.5000980403037261  0.6637279837383545
  0.0000701056214396  0.5001019046543789  0.6631874215071463
  0.3327461038679829  0.8334794908207286  0.6632555392779267
  0.6673843231455976  0.8334807937219040  0.6632523593122386
  0.0000636963493577  0.8337844200843634  0.6626973044362217
  0.1667242760238281  0.1671541808114441  0.5013391785805084
  0.5000439501290757  0.1674115196444035  0.5035223241057665
  0.8333855462381266  0.1671638960835864  0.5013451566460532
  0.1656591628596260  0.5000980921560370  0.5013454557880053
  0.5000490714645878  0.5001005733311743  0.5018153404578243
  0.8344623160516846  0.5001009438317467  0.5013420657974592
  0.1667240733734232  0.8330437375445712  0.5013441093549957
  0.5000463684147434  0.8327952831062930  0.5035331893087971
  0.8333803543793223  0.8330412176805524  0.5013525242850747
  0.1672002707558349  0.1668272855096760  0.9986359683518558
  0.5001443774125462  0.1657450804987590  0.9986397987785196
  0.8330875032823783  0.1668246512544442  0.9986360429077550
  0.1674475640616180  0.5001690904170673  0.9964365263068302
  0.5001419104476739  0.5001550077439205  0.9981676463271398
  0.8328290560737770  0.5001664982119109  0.9964502788107552
  0.1671964994177628  0.8334791851143635  0.9986341919433599
  0.5001433108726303  0.8345576815385343  0.9986389275656364
  0.8330871357988201  0.8334861260911026  0.9986393551803303
  0.0001454802061645  0.0001496925721796  0.9989548545799067
  0.3329133612285489  0.0001476130273730  0.9987973946987623
  0.6673785954328721  0.0001497567537001  0.9987994463997936
  0.0001402066900198  0.3349733332361495  0.9972827873595378
  0.3350834357883272  0.3337061652137194  0.9973623731279986
  0.6652134130762093  0.3337060940594796  0.9973681690729990
  0.0001362877382576  0.6653528424386863  0.9972983460639711
  0.3350773697360410  0.6666003705079362  0.9973689189031418
  0.6652153376013317  0.6666007925014128  0.9973756051036489
  0.0000528687032926  0.0001026915896389  0.5010244783948252
  0.3348513249498097  0.0001062156825569  0.5026742252579695
  0.6652405798101881  0.0001102072303922  0.5026911469489548
  0.0000591048707363  0.3328699326316666  0.5011848658951266
  0.3336051769436779  0.3350232493208338  0.5026020754610769
  0.6665015083043855  0.3350347555040756  0.5026127922539132
  0.0000584026047292  0.6673314541313644  0.5011892341675761
  0.3336060447608986  0.6651724375832231  0.5026092599322070
  0.6665023352545774  0.6651659632875990  0.5026180169272436
 
  0.00000000E+00  0.00000000E+00  0.00000000E+00
  0.00000000E+00  0.00000000E+00  0.00000000E+00
  0.00000000E+00  0.00000000E+00  0.00000000E+00
  0.00000000E+00  0.00000000E+00  0.00000000E+00
  0.00000000E+00  0.00000000E+00  0.00000000E+00
  0.00000000E+00  0.00000000E+00  0.00000000E+00
  0.00000000E+00  0.00000000E+00  0.00000000E+00
  0.00000000E+00  0.00000000E+00  0.00000000E+00
  0.00000000E+00  0.00000000E+00  0.00000000E+00
  0.00000000E+00  0.00000000E+00  0.00000000E+00
  0.00000000E+00  0.00000000E+00  0.00000000E+00
  0.00000000E+00  0.00000000E+00  0.00000000E+00
  0.00000000E+00  0.00000000E+00  0.00000000E+00
  0.00000000E+00  0.00000000E+00  0.00000000E+00
  0.00000000E+00  0.00000000E+00  0.00000000E+00
  0.00000000E+00  0.00000000E+00  0.00000000E+00
  0.00000000E+00  0.00000000E+00  0.00000000E+00
  0.00000000E+00  0.00000000E+00  0.00000000E+00
  0.00000000E+00  0.00000000E+00  0.00000000E+00
  0.00000000E+00  0.00000000E+00  0.00000000E+00
  0.00000000E+00  0.00000000E+00  0.00000000E+00
  0.00000000E+00  0.00000000E+00  0.00000000E+00
  0.00000000E+00  0.00000000E+00  0.00000000E+00
  0.00000000E+00  0.00000000E+00  0.00000000E+00
  0.00000000E+00  0.00000000E+00  0.00000000E+00
  0.00000000E+00  0.00000000E+00  0.00000000E+00
  0.00000000E+00  0.00000000E+00  0.00000000E+00
  0.00000000E+00  0.00000000E+00  0.00000000E+00
  0.00000000E+00  0.00000000E+00  0.00000000E+00
  0.00000000E+00  0.00000000E+00  0.00000000E+00
  0.00000000E+00  0.00000000E+00  0.00000000E+00
  0.00000000E+00  0.00000000E+00  0.00000000E+00
  0.00000000E+00  0.00000000E+00  0.00000000E+00
  0.00000000E+00  0.00000000E+00  0.00000000E+00
  0.00000000E+00  0.00000000E+00  0.00000000E+00
  0.00000000E+00  0.00000000E+00  0.00000000E+00
  0.00000000E+00  0.00000000E+00  0.00000000E+00
  0.00000000E+00  0.00000000E+00  0.00000000E+00
  0.00000000E+00  0.00000000E+00  0.00000000E+00
  0.00000000E+00  0.00000000E+00  0.00000000E+00
  0.00000000E+00  0.00000000E+00  0.00000000E+00
  0.00000000E+00  0.00000000E+00  0.00000000E+00
  0.00000000E+00  0.00000000E+00  0.00000000E+00
  0.00000000E+00  0.00000000E+00  0.00000000E+00
  0.00000000E+00  0.00000000E+00  0.00000000E+00
  0.00000000E+00  0.00000000E+00  0.00000000E+00
  0.00000000E+00  0.00000000E+00  0.00000000E+00
  0.00000000E+00  0.00000000E+00  0.00000000E+00
  0.00000000E+00  0.00000000E+00  0.00000000E+00
  0.00000000E+00  0.00000000E+00  0.00000000E+00
  0.00000000E+00  0.00000000E+00  0.00000000E+00
  0.00000000E+00  0.00000000E+00  0.00000000E+00
  0.00000000E+00  0.00000000E+00  0.00000000E+00
  0.00000000E+00  0.00000000E+00  0.00000000E+00
  0.00000000E+00  0.00000000E+00  0.00000000E+00
  0.00000000E+00  0.00000000E+00  0.00000000E+00
  0.00000000E+00  0.00000000E+00  0.00000000E+00
  0.00000000E+00  0.00000000E+00  0.00000000E+00
  0.00000000E+00  0.00000000E+00  0.00000000E+00
  0.00000000E+00  0.00000000E+00  0.00000000E+00
  0.00000000E+00  0.00000000E+00  0.00000000E+00
  0.00000000E+00  0.00000000E+00  0.00000000E+00
  0.00000000E+00  0.00000000E+00  0.00000000E+00
  0.00000000E+00  0.00000000E+00  0.00000000E+00
  0.00000000E+00  0.00000000E+00  0.00000000E+00
  0.00000000E+00  0.00000000E+00  0.00000000E+00
  0.00000000E+00  0.00000000E+00  0.00000000E+00
  0.00000000E+00  0.00000000E+00  0.00000000E+00
  0.00000000E+00  0.00000000E+00  0.00000000E+00
  0.00000000E+00  0.00000000E+00  0.00000000E+00
  0.00000000E+00  0.00000000E+00  0.00000000E+00
  0.00000000E+00  0.00000000E+00  0.00000000E+00
  0.00000000E+00  0.00000000E+00  0.00000000E+00
  0.00000000E+00  0.00000000E+00  0.00000000E+00
  0.00000000E+00  0.00000000E+00  0.00000000E+00
  0.00000000E+00  0.00000000E+00  0.00000000E+00
  0.00000000E+00  0.00000000E+00  0.00000000E+00
  0.00000000E+00  0.00000000E+00  0.00000000E+00
  0.00000000E+00  0.00000000E+00  0.00000000E+00
  0.00000000E+00  0.00000000E+00  0.00000000E+00
  0.00000000E+00  0.00000000E+00  0.00000000E+00
  0.00000000E+00  0.00000000E+00  0.00000000E+00
  0.00000000E+00  0.00000000E+00  0.00000000E+00
  0.00000000E+00  0.00000000E+00  0.00000000E+00
  0.00000000E+00  0.00000000E+00  0.00000000E+00
  0.00000000E+00  0.00000000E+00  0.00000000E+00
  0.00000000E+00  0.00000000E+00  0.00000000E+00
  0.00000000E+00  0.00000000E+00  0.00000000E+00
  0.00000000E+00  0.00000000E+00  0.00000000E+00
  0.00000000E+00  0.00000000E+00  0.00000000E+00
  0.00000000E+00  0.00000000E+00  0.00000000E+00
  0.00000000E+00  0.00000000E+00  0.00000000E+00
  0.00000000E+00  0.00000000E+00  0.00000000E+00
  0.00000000E+00  0.00000000E+00  0.00000000E+00
  0.00000000E+00  0.00000000E+00  0.00000000E+00
  0.00000000E+00  0.00000000E+00  0.00000000E+00
  0.00000000E+00  0.00000000E+00  0.00000000E+00
  0.00000000E+00  0.00000000E+00  0.00000000E+00
  0.00000000E+00  0.00000000E+00  0.00000000E+00
  0.00000000E+00  0.00000000E+00  0.00000000E+00
  0.00000000E+00  0.00000000E+00  0.00000000E+00
  0.00000000E+00  0.00000000E+00  0.00000000E+00
  0.00000000E+00  0.00000000E+00  0.00000000E+00
  0.00000000E+00  0.00000000E+00  0.00000000E+00
  0.00000000E+00  0.00000000E+00  0.00000000E+00
  0.00000000E+00  0.00000000E+00  0.00000000E+00
  0.00000000E+00  0.00000000E+00  0.00000000E+00
  0.00000000E+00  0.00000000E+00  0.00000000E+00
  0.00000000E+00  0.00000000E+00  0.00000000E+00
  0.00000000E+00  0.00000000E+00  0.00000000E+00
  0.00000000E+00  0.00000000E+00  0.00000000E+00
  0.00000000E+00  0.00000000E+00  0.00000000E+00
  0.00000000E+00  0.00000000E+00  0.00000000E+00
  0.00000000E+00  0.00000000E+00  0.00000000E+00
  0.00000000E+00  0.00000000E+00  0.00000000E+00
  0.00000000E+00  0.00000000E+00  0.00000000E+00
  0.00000000E+00  0.00000000E+00  0.00000000E+00
  0.00000000E+00  0.00000000E+00  0.00000000E+00
  0.00000000E+00  0.00000000E+00  0.00000000E+00
  0.00000000E+00  0.00000000E+00  0.00000000E+00
  0.00000000E+00  0.00000000E+00  0.00000000E+00
  0.00000000E+00  0.00000000E+00  0.00000000E+00
  0.00000000E+00  0.00000000E+00  0.00000000E+00
  0.00000000E+00  0.00000000E+00  0.00000000E+00
  0.00000000E+00  0.00000000E+00  0.00000000E+00
  0.00000000E+00  0.00000000E+00  0.00000000E+00
  0.00000000E+00  0.00000000E+00  0.00000000E+00
  0.00000000E+00  0.00000000E+00  0.00000000E+00
  0.00000000E+00  0.00000000E+00  0.00000000E+00
  0.00000000E+00  0.00000000E+00  0.00000000E+00
  0.00000000E+00  0.00000000E+00  0.00000000E+00
  0.00000000E+00  0.00000000E+00  0.00000000E+00
  0.00000000E+00  0.00000000E+00  0.00000000E+00
  0.00000000E+00  0.00000000E+00  0.00000000E+00
  0.00000000E+00  0.00000000E+00  0.00000000E+00
  0.00000000E+00  0.00000000E+00  0.00000000E+00
  0.00000000E+00  0.00000000E+00  0.00000000E+00
  0.00000000E+00  0.00000000E+00  0.00000000E+00
  0.00000000E+00  0.00000000E+00  0.00000000E+00
  0.00000000E+00  0.00000000E+00  0.00000000E+00
  0.00000000E+00  0.00000000E+00  0.00000000E+00
  0.00000000E+00  0.00000000E+00  0.00000000E+00
  0.00000000E+00  0.00000000E+00  0.00000000E+00
  0.00000000E+00  0.00000000E+00  0.00000000E+00
