generated by phonopy                    
   1.00000000000000     
    10.0351470768999995   -0.0000022330999784   -0.0000001056124209
    -5.0175765436399997    8.6906901959899994    0.0000001395531216
    -0.0000001735893656    0.0000001431815548   14.9533752540999991
   Pb   P    O 
    19    13    50
Direct
  0.9952169347509638  0.7741851643272568  0.1121998671612587
  0.9955018618078029  0.7744902718915228  0.6353331994914058
  0.9942864265156288  0.2582166300804758  0.8736090131141694
  0.2239279050679102  0.2221405053082890  0.1085261370082407
  0.2243183409426166  0.2227990140616356  0.6382175225701374
  0.7354867325515357  0.7478549919680617  0.3742346784269159
  0.7419354213644453  0.7458197908852995  0.8737628922969876
  0.7782885654939662  0.0072359481456417  0.1134698896621629
  0.7778164295948287  0.0068861843685042  0.6339482418120923
  0.2535992913661502  0.9845976842997217  0.3737638440219939
  0.2576077227329492  0.9970002638709587  0.8738589415238778
  0.6638768652121882  0.3421349788451238  0.0019200994695368
  0.6912565559221733  0.3251224483899620  0.5023573979298703
  0.3328924315699453  0.6627019443642794  0.0000941703198691
  0.3448067714577974  0.6876005339748303  0.5122840076820339
  0.3464495054649959  0.6891419805535577  0.2351893312505311
  0.3336875868935465  0.6635805215020270  0.7474659308129574
  0.6892507452708330  0.3246224288256983  0.2456817728158356
  0.6628166551270951  0.3407494628217691  0.7462094743027166
  0.0780230315998693  0.3197194036233455  0.3717186978199223
  0.6254317005129764  0.5974199360660606  0.1241982624634446
  0.6257028737022949  0.5979102289507097  0.6239990071738717
  0.3565386781972251  0.3897838587910840  0.3730486441705665
  0.3684562629889570  0.3952845113994954  0.8738313531037036
  0.4031534597037805  0.0290419439027261  0.1246367316145438
  0.4026174864148828  0.0290088691124595  0.6228483949402275
  0.5997576668261004  0.9680867133334843  0.3743580519634264
  0.6080866211148717  0.9785758029418758  0.8741402725180478
  0.9740881116046793  0.3832075994732733  0.1214065981546710
  0.9734543419280897  0.3826753307737363  0.6274977684691336
  0.0337959454094161  0.6121219918087917  0.3734949057621719
  0.0230450203770403  0.6317398396144895  0.8737670257859023
  0.5030650316211833  0.6503268883413753  0.1177042318512989
  0.5033072229557689  0.6508702175539156  0.6299718785676731
  0.4274058728800725  0.2886115866215064  0.3728596688635406
  0.4658224809514451  0.3147307317049126  0.8743101725154077
  0.3558760524498794  0.8549212721678430  0.1179143158636435
  0.3552428150566129  0.8547741790225629  0.6291706469567160
  0.6689222693167665  0.1437064924914111  0.3746512560531343
  0.6881903391671926  0.1568303058891729  0.8743905447734903
  0.1494940029461276  0.5034314791554166  0.1205819067147900
  0.1491878140197400  0.5016678396521783  0.6275165637441376
  0.8586468956184703  0.5112949746106850  0.3734872880193194
  0.8448029505354171  0.5334669985429841  0.8739789453108244
  0.7307067098689899  0.6496584639342373  0.0377403141656103
  0.7331245898826353  0.6718670474829480  0.5411849624213829
  0.2227593033532145  0.3464582748847391  0.4489269534513056
  0.2619072388497443  0.3532299095380438  0.9580073954224346
  0.3423523857979447  0.0769615148571887  0.0406087693895927
  0.3326097785882638  0.0595670497716654  0.5377108974193376
  0.6426326124115675  0.9027738062570876  0.4579575542988863
  0.6523448977129149  0.9144594207697594  0.9578308882218280
  0.9301940367023320  0.2706024846251367  0.0394848729287034
  0.9206939618895191  0.2836433908663096  0.5399916665654132
  0.1009059743240073  0.7094644424024139  0.4586143268322616
  0.0873305861717668  0.7398424607194798  0.9574785854848216
  0.2244043580644544  0.3484323826905111  0.2959508990979671
  0.2602942759351663  0.3500880008536384  0.7902670410932444
  0.7340301823743687  0.6737215913518284  0.2062538676362919
  0.7323251355088729  0.6529607352881470  0.7098438556916378
  0.6426874036439969  0.9035950004834419  0.2904455235135615
  0.6538465030321845  0.9153608576776620  0.7906352243042960
  0.3328453505579674  0.0590221436319993  0.2098489758733848
  0.3415833199596108  0.0765252885626069  0.7069460714688844
  0.1011644899645177  0.7113330188442717  0.2890480102149269
  0.0864347343387024  0.7411239822661386  0.7905479235395418
  0.9234470279452509  0.2842183790903619  0.2089302374413222
  0.9299072420593149  0.2696208722366009  0.7091720820262353
  0.5452531632134523  0.4180534909369911  0.1297862802568304
  0.5455613736467555  0.4184686971516882  0.6200808302833423
  0.4688274917492095  0.5631904869660076  0.3737324883396127
  0.4767378459716056  0.5762461871628091  0.8728184071944938
  0.5832087683830949  0.1299997255767593  0.1255390373670124
  0.5827071611500401  0.1299217062182407  0.6222780150488276
  0.4166023875602036  0.8884781892407290  0.3744204732792582
  0.4270311901720589  0.9045239053337184  0.8735284971676478
  0.8747135707330500  0.4647472889496669  0.1158396026452806
  0.8753340704244010  0.4653412464734785  0.6339833493970772
  0.1103360207778721  0.4965193308162199  0.3727866198845931
  0.0957701641092541  0.5236643345240424  0.8730740857967589
  0.9990254977100790  0.0017327774854436  0.0854209478646695
  0.9994351891197795  0.0024514258559236  0.6599410353733219
 
  0.00000000E+00  0.00000000E+00  0.00000000E+00
  0.00000000E+00  0.00000000E+00  0.00000000E+00
  0.00000000E+00  0.00000000E+00  0.00000000E+00
  0.00000000E+00  0.00000000E+00  0.00000000E+00
  0.00000000E+00  0.00000000E+00  0.00000000E+00
  0.00000000E+00  0.00000000E+00  0.00000000E+00
  0.00000000E+00  0.00000000E+00  0.00000000E+00
  0.00000000E+00  0.00000000E+00  0.00000000E+00
  0.00000000E+00  0.00000000E+00  0.00000000E+00
  0.00000000E+00  0.00000000E+00  0.00000000E+00
  0.00000000E+00  0.00000000E+00  0.00000000E+00
  0.00000000E+00  0.00000000E+00  0.00000000E+00
  0.00000000E+00  0.00000000E+00  0.00000000E+00
  0.00000000E+00  0.00000000E+00  0.00000000E+00
  0.00000000E+00  0.00000000E+00  0.00000000E+00
  0.00000000E+00  0.00000000E+00  0.00000000E+00
  0.00000000E+00  0.00000000E+00  0.00000000E+00
  0.00000000E+00  0.00000000E+00  0.00000000E+00
  0.00000000E+00  0.00000000E+00  0.00000000E+00
  0.00000000E+00  0.00000000E+00  0.00000000E+00
  0.00000000E+00  0.00000000E+00  0.00000000E+00
  0.00000000E+00  0.00000000E+00  0.00000000E+00
  0.00000000E+00  0.00000000E+00  0.00000000E+00
  0.00000000E+00  0.00000000E+00  0.00000000E+00
  0.00000000E+00  0.00000000E+00  0.00000000E+00
  0.00000000E+00  0.00000000E+00  0.00000000E+00
  0.00000000E+00  0.00000000E+00  0.00000000E+00
  0.00000000E+00  0.00000000E+00  0.00000000E+00
  0.00000000E+00  0.00000000E+00  0.00000000E+00
  0.00000000E+00  0.00000000E+00  0.00000000E+00
  0.00000000E+00  0.00000000E+00  0.00000000E+00
  0.00000000E+00  0.00000000E+00  0.00000000E+00
  0.00000000E+00  0.00000000E+00  0.00000000E+00
  0.00000000E+00  0.00000000E+00  0.00000000E+00
  0.00000000E+00  0.00000000E+00  0.00000000E+00
  0.00000000E+00  0.00000000E+00  0.00000000E+00
  0.00000000E+00  0.00000000E+00  0.00000000E+00
  0.00000000E+00  0.00000000E+00  0.00000000E+00
  0.00000000E+00  0.00000000E+00  0.00000000E+00
  0.00000000E+00  0.00000000E+00  0.00000000E+00
  0.00000000E+00  0.00000000E+00  0.00000000E+00
  0.00000000E+00  0.00000000E+00  0.00000000E+00
  0.00000000E+00  0.00000000E+00  0.00000000E+00
  0.00000000E+00  0.00000000E+00  0.00000000E+00
  0.00000000E+00  0.00000000E+00  0.00000000E+00
  0.00000000E+00  0.00000000E+00  0.00000000E+00
  0.00000000E+00  0.00000000E+00  0.00000000E+00
  0.00000000E+00  0.00000000E+00  0.00000000E+00
  0.00000000E+00  0.00000000E+00  0.00000000E+00
  0.00000000E+00  0.00000000E+00  0.00000000E+00
  0.00000000E+00  0.00000000E+00  0.00000000E+00
  0.00000000E+00  0.00000000E+00  0.00000000E+00
  0.00000000E+00  0.00000000E+00  0.00000000E+00
  0.00000000E+00  0.00000000E+00  0.00000000E+00
  0.00000000E+00  0.00000000E+00  0.00000000E+00
  0.00000000E+00  0.00000000E+00  0.00000000E+00
  0.00000000E+00  0.00000000E+00  0.00000000E+00
  0.00000000E+00  0.00000000E+00  0.00000000E+00
  0.00000000E+00  0.00000000E+00  0.00000000E+00
  0.00000000E+00  0.00000000E+00  0.00000000E+00
  0.00000000E+00  0.00000000E+00  0.00000000E+00
  0.00000000E+00  0.00000000E+00  0.00000000E+00
  0.00000000E+00  0.00000000E+00  0.00000000E+00
  0.00000000E+00  0.00000000E+00  0.00000000E+00
  0.00000000E+00  0.00000000E+00  0.00000000E+00
  0.00000000E+00  0.00000000E+00  0.00000000E+00
  0.00000000E+00  0.00000000E+00  0.00000000E+00
  0.00000000E+00  0.00000000E+00  0.00000000E+00
  0.00000000E+00  0.00000000E+00  0.00000000E+00
  0.00000000E+00  0.00000000E+00  0.00000000E+00
  0.00000000E+00  0.00000000E+00  0.00000000E+00
  0.00000000E+00  0.00000000E+00  0.00000000E+00
  0.00000000E+00  0.00000000E+00  0.00000000E+00
  0.00000000E+00  0.00000000E+00  0.00000000E+00
  0.00000000E+00  0.00000000E+00  0.00000000E+00
  0.00000000E+00  0.00000000E+00  0.00000000E+00
  0.00000000E+00  0.00000000E+00  0.00000000E+00
  0.00000000E+00  0.00000000E+00  0.00000000E+00
  0.00000000E+00  0.00000000E+00  0.00000000E+00
  0.00000000E+00  0.00000000E+00  0.00000000E+00
  0.00000000E+00  0.00000000E+00  0.00000000E+00
  0.00000000E+00  0.00000000E+00  0.00000000E+00
