supercell of icsd_608626.cif            
  0.911355576244153     
     9.3195918108594586    0.0631804360566465   -0.0505631081461203
    -4.6049757976297743    7.9930742794565175   -0.0097487942219022
    -0.0555181370331400   -0.0442425772531188    9.9280695127695360
   B    Al   N 
    20    16    36
Direct
  0.2436520227997008  0.1177410607673366  0.2545363953135222
  0.8806157800203778  0.1030594007009853  0.7480675580457330
  0.5506588713931535  0.1141068607088940  0.2587544735357739
  0.4524697634901287  0.2209498268037109  0.4970225967811714
  0.2184341369263265  0.1058533541826421  0.7539541705207782
  0.1140503299003726  0.2289971831865074  0.9961393367699642
  0.7599475426130979  0.2099193228926239  0.5057683773892805
  0.5394367250418952  0.0905670068761069  0.7510798428106042
  0.2357071145601921  0.4561213389993668  0.2449049632169675
  0.7850083596846247  0.5518205710861679  0.0090295275378978
  0.5508858441736706  0.4345216602956441  0.2627867651750151
  0.1254877827043259  0.5613974516449289  0.0127124911170640
  0.8178933995393081  0.4096289580600683  0.2693327883520027
  0.7635641717428001  0.5441741574670615  0.4998670168422237
  0.2436363801672670  0.7853066542719773  0.2424291816416897
  0.5652203939533322  0.7863786615383432  0.2563349548856380
  0.2352237081368216  0.7822917064249282  0.7585266999709859
  0.7672679253989898  0.8930314158573296  0.5057371770082710
  0.5467142136041758  0.7867370933322348  0.7533471068064941
  0.4437706257796421  0.8832154689378484  0.9919255553854498
  0.1069214592485110  0.2143835182785381  0.4932132798072644
  0.7759335214241361  0.2271303613290812  0.9964519113872257
  0.8878254312588254  0.1188379615327264  0.2505484437150827
  0.4446927696676966  0.2196957524010585  0.0039997912754615
  0.0990594513830274  0.5543547099880257  0.4781112447259943
  0.8928400054236363  0.4473020422970109  0.7522314630560558
  0.4493232469276052  0.5598188734171501  0.4854383915635410
  0.2180235251411133  0.4449429257050141  0.7520909472036195
  0.5545741541181997  0.4398189971369888  0.7451494715811648
  0.4450654107687271  0.5571206240148427  0.0092159372382028
  0.1212381108326284  0.8943941734582950  0.5018059325719690
  0.8866260543494775  0.7783016418219191  0.7418118989223501
  0.7731325984343158  0.8877755653412791  0.9928218283253472
  0.4492588221876304  0.8938677534961030  0.4977148636857081
  0.1207486006838110  0.8890866566331752  0.9936958944261534
  0.8917532927841449  0.7745399473826637  0.2527456967413428
  0.2534015743835170  0.1270305487668395  0.4277275551580217
  0.1319151439721509  0.2319163261242778  0.1811524430092533
  0.9090548828700733  0.1229521001250902  0.9287071833933780
  0.7627344416870798  0.2012435276878293  0.6874384622473713
  0.5630151321612189  0.1292293209745097  0.4381137297199871
  0.4460970127131318  0.2221110727823472  0.2080950712093284
  0.2171917179233418  0.1312775352430080  0.9268720484117807
  0.0955562772390479  0.1935761866687500  0.6938584755384909
  0.8614523475844180  0.1018575290877166  0.4535582256457147
  0.7519423972159487  0.2278488209526515  0.2012959071046225
  0.5389493280653070  0.0846840938354489  0.9253465772197131
  0.4319821979388578  0.1978748085284465  0.6815409005234443
  0.2160399810645472  0.4397225350186744  0.4158913497528829
  0.1574016459192862  0.5806769914087511  0.1805883271439654
  0.9079582101475623  0.4713737273233605  0.9585551911629508
  0.7738940414144011  0.5487446222948620  0.6653703020828914
  0.5639700368554657  0.4310523946388614  0.4397086984132699
  0.4542249761644257  0.5545440875932357  0.2152412191151427
  0.2011978886489771  0.4331096413239166  0.9533834642302210
  0.1226893443309294  0.5845931155510300  0.6842659952995120
  0.8542288814282699  0.4278180869359360  0.4327386594302496
  0.7604869760176598  0.5301644161687236  0.1957550551684832
  0.5867146320150169  0.4542490663318617  0.9477109755758590
  0.4537663443883488  0.5811110778686341  0.6934023450718314
  0.2285370324064075  0.7809221476691377  0.4123176822311123
  0.1410676010653802  0.9069775950601127  0.1984967628332015
  0.8785678106549497  0.7518338392759034  0.9520119478761515
  0.7578695598719776  0.8983182992665490  0.6906518385842517
  0.5807524886481374  0.7953598917589915  0.4286609146369429
  0.4541579246796559  0.8973555039858141  0.1897024745649958
  0.2402818672558169  0.7658488808032686  0.9364319446662535
  0.1367522717195868  0.8992998550949096  0.7114469857202650
  0.8716930472544391  0.7760285656731227  0.4604181262177889
  0.7557554315464259  0.8794324610239528  0.1925576793301502
  0.5424579019789704  0.7864025894462046  0.9277373606033024
  0.4395801045055947  0.8862680794386861  0.7019441457742204
 
  0.00000000E+00  0.00000000E+00  0.00000000E+00
  0.00000000E+00  0.00000000E+00  0.00000000E+00
  0.00000000E+00  0.00000000E+00  0.00000000E+00
  0.00000000E+00  0.00000000E+00  0.00000000E+00
  0.00000000E+00  0.00000000E+00  0.00000000E+00
  0.00000000E+00  0.00000000E+00  0.00000000E+00
  0.00000000E+00  0.00000000E+00  0.00000000E+00
  0.00000000E+00  0.00000000E+00  0.00000000E+00
  0.00000000E+00  0.00000000E+00  0.00000000E+00
  0.00000000E+00  0.00000000E+00  0.00000000E+00
  0.00000000E+00  0.00000000E+00  0.00000000E+00
  0.00000000E+00  0.00000000E+00  0.00000000E+00
  0.00000000E+00  0.00000000E+00  0.00000000E+00
  0.00000000E+00  0.00000000E+00  0.00000000E+00
  0.00000000E+00  0.00000000E+00  0.00000000E+00
  0.00000000E+00  0.00000000E+00  0.00000000E+00
  0.00000000E+00  0.00000000E+00  0.00000000E+00
  0.00000000E+00  0.00000000E+00  0.00000000E+00
  0.00000000E+00  0.00000000E+00  0.00000000E+00
  0.00000000E+00  0.00000000E+00  0.00000000E+00
  0.00000000E+00  0.00000000E+00  0.00000000E+00
  0.00000000E+00  0.00000000E+00  0.00000000E+00
  0.00000000E+00  0.00000000E+00  0.00000000E+00
  0.00000000E+00  0.00000000E+00  0.00000000E+00
  0.00000000E+00  0.00000000E+00  0.00000000E+00
  0.00000000E+00  0.00000000E+00  0.00000000E+00
  0.00000000E+00  0.00000000E+00  0.00000000E+00
  0.00000000E+00  0.00000000E+00  0.00000000E+00
  0.00000000E+00  0.00000000E+00  0.00000000E+00
  0.00000000E+00  0.00000000E+00  0.00000000E+00
  0.00000000E+00  0.00000000E+00  0.00000000E+00
  0.00000000E+00  0.00000000E+00  0.00000000E+00
  0.00000000E+00  0.00000000E+00  0.00000000E+00
  0.00000000E+00  0.00000000E+00  0.00000000E+00
  0.00000000E+00  0.00000000E+00  0.00000000E+00
  0.00000000E+00  0.00000000E+00  0.00000000E+00
  0.00000000E+00  0.00000000E+00  0.00000000E+00
  0.00000000E+00  0.00000000E+00  0.00000000E+00
  0.00000000E+00  0.00000000E+00  0.00000000E+00
  0.00000000E+00  0.00000000E+00  0.00000000E+00
  0.00000000E+00  0.00000000E+00  0.00000000E+00
  0.00000000E+00  0.00000000E+00  0.00000000E+00
  0.00000000E+00  0.00000000E+00  0.00000000E+00
  0.00000000E+00  0.00000000E+00  0.00000000E+00
  0.00000000E+00  0.00000000E+00  0.00000000E+00
  0.00000000E+00  0.00000000E+00  0.00000000E+00
  0.00000000E+00  0.00000000E+00  0.00000000E+00
  0.00000000E+00  0.00000000E+00  0.00000000E+00
  0.00000000E+00  0.00000000E+00  0.00000000E+00
  0.00000000E+00  0.00000000E+00  0.00000000E+00
  0.00000000E+00  0.00000000E+00  0.00000000E+00
  0.00000000E+00  0.00000000E+00  0.00000000E+00
  0.00000000E+00  0.00000000E+00  0.00000000E+00
  0.00000000E+00  0.00000000E+00  0.00000000E+00
  0.00000000E+00  0.00000000E+00  0.00000000E+00
  0.00000000E+00  0.00000000E+00  0.00000000E+00
  0.00000000E+00  0.00000000E+00  0.00000000E+00
  0.00000000E+00  0.00000000E+00  0.00000000E+00
  0.00000000E+00  0.00000000E+00  0.00000000E+00
  0.00000000E+00  0.00000000E+00  0.00000000E+00
  0.00000000E+00  0.00000000E+00  0.00000000E+00
  0.00000000E+00  0.00000000E+00  0.00000000E+00
  0.00000000E+00  0.00000000E+00  0.00000000E+00
  0.00000000E+00  0.00000000E+00  0.00000000E+00
  0.00000000E+00  0.00000000E+00  0.00000000E+00
  0.00000000E+00  0.00000000E+00  0.00000000E+00
  0.00000000E+00  0.00000000E+00  0.00000000E+00
  0.00000000E+00  0.00000000E+00  0.00000000E+00
  0.00000000E+00  0.00000000E+00  0.00000000E+00
  0.00000000E+00  0.00000000E+00  0.00000000E+00
  0.00000000E+00  0.00000000E+00  0.00000000E+00
  0.00000000E+00  0.00000000E+00  0.00000000E+00
