generated by phonopy                    
   1.00000000000000     
    10.0351470768999995   -0.0000022330999784   -0.0000001056124209
    -5.0175765436399997    8.6906901959899994    0.0000001395531216
    -0.0000001735893656    0.0000001431815548   14.9533752540999991
   Cu   Pb   P    O 
     1    19    12    50
Direct
  0.9104926951044590  0.8274366590309228  0.0820132898668504
  0.0000798625464427  0.7702846880802454  0.6232449594033795
  0.0049257575223365  0.2575521562150627  0.3756885500383547
  0.0037126590806977  0.2445169542192005  0.8747602379509090
  0.2303112755419008  0.2267339260202803  0.1231357979945216
  0.2295132044589678  0.2242601132850623  0.6245341958051966
  0.7362927467987248  0.7371965610287745  0.3686474236243171
  0.7530793941240574  0.7559790845761256  0.8718088876705110
  0.7700247011264238  0.0093426423298624  0.1272481196243405
  0.7759247420162865  0.0013380265605534  0.6239216325725749
  0.2574611312991166  0.9923476991390743  0.3644073124563718
  0.2394779974081160  0.9919834931178073  0.8825286784806607
  0.6775458392538809  0.3446578508492522  0.0004937824911053
  0.6638264501751223  0.3307415317236249  0.5029172416664522
  0.3291942427259400  0.6700488441358630  0.0011738344370116
  0.3381542774198820  0.6694447831911532  0.5058088019309324
  0.3219244653141686  0.6666129087393600  0.2420666936237126
  0.3322292280124088  0.6666599699624172  0.7482550907413454
  0.6767789907994981  0.3463872571439026  0.2458866769115886
  0.6648060649232548  0.3305222434535366  0.7518385444137792
  0.6146405068730729  0.5824674520675046  0.1275395395814485
  0.6275961889782238  0.5959385351525199  0.6231783627127641
  0.3694385931897983  0.3961172487262843  0.3756117729013866
  0.3656785987667988  0.3977200329245392  0.8733484525662334
  0.4074344188626569  0.0300603538931199  0.1249944812605790
  0.4067721031853822  0.0318718317727686  0.6226109209900272
  0.6077277104669037  0.9746760140350048  0.3759535039204351
  0.6029546001718700  0.9679800372482887  0.8739267989195199
  0.9708236490611029  0.3783281153240665  0.1262404282863088
  0.9713810560054483  0.3727213490928420  0.6236491827766883
  0.0335635134929291  0.6296812119909703  0.3768768576351391
  0.0357693718986312  0.6327071958797532  0.8714183851347101
  0.4971534419952164  0.6396979717652087  0.1221745774969989
  0.5053946704388608  0.6483896868636023  0.6225139508074662
  0.4747929297232574  0.3238024073674595  0.3751312207054625
  0.4747806607289249  0.3297773805903432  0.8736339902369394
  0.3656449740483936  0.8583128938355813  0.1254885763164921
  0.3532772414494545  0.8568236122518229  0.6221448556096192
  0.6847252223808411  0.1525800616118076  0.3773639243890017
  0.6762065212675878  0.1456104276008006  0.8724549500706331
  0.1465229248023263  0.4979804680550473  0.1258262237929770
  0.1456794067057103  0.4959145334310975  0.6225700039161595
  0.8550942826305530  0.5327178669344192  0.3729145319226319
  0.8575072204478715  0.5315757511621655  0.8722421291227533
  0.7306799546970666  0.6452724643600334  0.0458150622646087
  0.7286980933058302  0.6472677727317517  0.5364682621236554
  0.2611486514813137  0.3471744272981567  0.4591443264929751
  0.2565540768155614  0.3438196299134475  0.9571098838161731
  0.3343402501001123  0.0688106421049994  0.0436965483241778
  0.3572480906712556  0.0820873952390357  0.5352169381541643
  0.6455847965546653  0.9086248875775240  0.4606709784699845
  0.6524671451401787  0.9108275305296303  0.9582806454941704
  0.9288977741307249  0.2666017473635165  0.0441875660531394
  0.9230391752146190  0.2699676195144818  0.5371474632444659
  0.0914019872050815  0.7364217811924476  0.4608811058887241
  0.0991512345203915  0.7383615556666570  0.9557510018663322
  0.2619673719924123  0.3483692149521218  0.2918375695482496
  0.2567082019811480  0.3449372655810734  0.7895839035412706
  0.7013564036715820  0.6248330182692428  0.2187382921542138
  0.7391883876537619  0.6674839684158798  0.7049328181733756
  0.6607443624140359  0.9165703911527103  0.2934754978214187
  0.6530113398840740  0.9080015504868584  0.7903427270000591
  0.3532507713234949  0.0758465367680046  0.2122734597086051
  0.3366383243064135  0.0734990544243530  0.7041712823740269
  0.1061372195806669  0.7352756687667181  0.2934016406384785
  0.0944878452628615  0.7409929177362571  0.7875202837551427
  0.9247573341539947  0.2776912269713776  0.2136911424397425
  0.9312451610199375  0.2608291579455937  0.7052127062789211
  0.5360146554555527  0.4028503150539322  0.1185070345705981
  0.5463734213955860  0.4157941822991233  0.6293542394676450
  0.4722557259882620  0.5779155163298668  0.3773263100030348
  0.4615972122251009  0.5790979429049585  0.8732077706123107
  0.5872542067405462  0.1354452325035354  0.1194806342632333
  0.5873337618650254  0.1298515849419033  0.6286813311447261
  0.4265778675259355  0.8993648112091748  0.3710632281122344
  0.4216437458072377  0.8871532213486688  0.8730659125581681
  0.8721953144735295  0.4586954126823173  0.1219359351166034
  0.8709217285206705  0.4521426612285779  0.6288860070121558
  0.1035476140306599  0.5186792568056333  0.3805288918719612
  0.1118533095427168  0.5275521713147739  0.8691155016521890
  0.0014698428142950  0.0131910841940837  0.1372705821099558
  0.0012644423035084  0.9981989811822061  0.6130697254804431
 
  0.00000000E+00  0.00000000E+00  0.00000000E+00
  0.00000000E+00  0.00000000E+00  0.00000000E+00
  0.00000000E+00  0.00000000E+00  0.00000000E+00
  0.00000000E+00  0.00000000E+00  0.00000000E+00
  0.00000000E+00  0.00000000E+00  0.00000000E+00
  0.00000000E+00  0.00000000E+00  0.00000000E+00
  0.00000000E+00  0.00000000E+00  0.00000000E+00
  0.00000000E+00  0.00000000E+00  0.00000000E+00
  0.00000000E+00  0.00000000E+00  0.00000000E+00
  0.00000000E+00  0.00000000E+00  0.00000000E+00
  0.00000000E+00  0.00000000E+00  0.00000000E+00
  0.00000000E+00  0.00000000E+00  0.00000000E+00
  0.00000000E+00  0.00000000E+00  0.00000000E+00
  0.00000000E+00  0.00000000E+00  0.00000000E+00
  0.00000000E+00  0.00000000E+00  0.00000000E+00
  0.00000000E+00  0.00000000E+00  0.00000000E+00
  0.00000000E+00  0.00000000E+00  0.00000000E+00
  0.00000000E+00  0.00000000E+00  0.00000000E+00
  0.00000000E+00  0.00000000E+00  0.00000000E+00
  0.00000000E+00  0.00000000E+00  0.00000000E+00
  0.00000000E+00  0.00000000E+00  0.00000000E+00
  0.00000000E+00  0.00000000E+00  0.00000000E+00
  0.00000000E+00  0.00000000E+00  0.00000000E+00
  0.00000000E+00  0.00000000E+00  0.00000000E+00
  0.00000000E+00  0.00000000E+00  0.00000000E+00
  0.00000000E+00  0.00000000E+00  0.00000000E+00
  0.00000000E+00  0.00000000E+00  0.00000000E+00
  0.00000000E+00  0.00000000E+00  0.00000000E+00
  0.00000000E+00  0.00000000E+00  0.00000000E+00
  0.00000000E+00  0.00000000E+00  0.00000000E+00
  0.00000000E+00  0.00000000E+00  0.00000000E+00
  0.00000000E+00  0.00000000E+00  0.00000000E+00
  0.00000000E+00  0.00000000E+00  0.00000000E+00
  0.00000000E+00  0.00000000E+00  0.00000000E+00
  0.00000000E+00  0.00000000E+00  0.00000000E+00
  0.00000000E+00  0.00000000E+00  0.00000000E+00
  0.00000000E+00  0.00000000E+00  0.00000000E+00
  0.00000000E+00  0.00000000E+00  0.00000000E+00
  0.00000000E+00  0.00000000E+00  0.00000000E+00
  0.00000000E+00  0.00000000E+00  0.00000000E+00
  0.00000000E+00  0.00000000E+00  0.00000000E+00
  0.00000000E+00  0.00000000E+00  0.00000000E+00
  0.00000000E+00  0.00000000E+00  0.00000000E+00
  0.00000000E+00  0.00000000E+00  0.00000000E+00
  0.00000000E+00  0.00000000E+00  0.00000000E+00
  0.00000000E+00  0.00000000E+00  0.00000000E+00
  0.00000000E+00  0.00000000E+00  0.00000000E+00
  0.00000000E+00  0.00000000E+00  0.00000000E+00
  0.00000000E+00  0.00000000E+00  0.00000000E+00
  0.00000000E+00  0.00000000E+00  0.00000000E+00
  0.00000000E+00  0.00000000E+00  0.00000000E+00
  0.00000000E+00  0.00000000E+00  0.00000000E+00
  0.00000000E+00  0.00000000E+00  0.00000000E+00
  0.00000000E+00  0.00000000E+00  0.00000000E+00
  0.00000000E+00  0.00000000E+00  0.00000000E+00
  0.00000000E+00  0.00000000E+00  0.00000000E+00
  0.00000000E+00  0.00000000E+00  0.00000000E+00
  0.00000000E+00  0.00000000E+00  0.00000000E+00
  0.00000000E+00  0.00000000E+00  0.00000000E+00
  0.00000000E+00  0.00000000E+00  0.00000000E+00
  0.00000000E+00  0.00000000E+00  0.00000000E+00
  0.00000000E+00  0.00000000E+00  0.00000000E+00
  0.00000000E+00  0.00000000E+00  0.00000000E+00
  0.00000000E+00  0.00000000E+00  0.00000000E+00
  0.00000000E+00  0.00000000E+00  0.00000000E+00
  0.00000000E+00  0.00000000E+00  0.00000000E+00
  0.00000000E+00  0.00000000E+00  0.00000000E+00
  0.00000000E+00  0.00000000E+00  0.00000000E+00
  0.00000000E+00  0.00000000E+00  0.00000000E+00
  0.00000000E+00  0.00000000E+00  0.00000000E+00
  0.00000000E+00  0.00000000E+00  0.00000000E+00
  0.00000000E+00  0.00000000E+00  0.00000000E+00
  0.00000000E+00  0.00000000E+00  0.00000000E+00
  0.00000000E+00  0.00000000E+00  0.00000000E+00
  0.00000000E+00  0.00000000E+00  0.00000000E+00
  0.00000000E+00  0.00000000E+00  0.00000000E+00
  0.00000000E+00  0.00000000E+00  0.00000000E+00
  0.00000000E+00  0.00000000E+00  0.00000000E+00
  0.00000000E+00  0.00000000E+00  0.00000000E+00
  0.00000000E+00  0.00000000E+00  0.00000000E+00
  0.00000000E+00  0.00000000E+00  0.00000000E+00
  0.00000000E+00  0.00000000E+00  0.00000000E+00
