supercell of POSCAR                     
   1.01800000000000     
     3.1310994802600001   -5.4896946145000003   10.0244832682999991
    -9.4821132118399998   -5.5089477087900001    0.0170740616273000
     6.3359946057599998  -11.0114127993000004  -10.0652216442999993
   Al   Gd   N 
    84    11    96
Direct
  0.0889939233343640  0.5867322796863661  0.3343692691634601
  0.4981886101126776  0.3253063639839553  0.2536265534308484
  0.0866930599532552  0.0847976810457709  0.3331310380346864
  0.2507733991773904  0.5789653374300201  0.4939699008158058
  0.3339255218226072  0.3207684208472656  0.0778998615303124
  0.4149044154454486  0.0786651572910628  0.1675729180931569
  0.0061082548889004  0.8444295456805477  0.2557682898503515
  0.1680367997292151  0.3327338981686481  0.4107154896079237
  0.2472593327590573  0.0868000786713736  0.4949934508515312
  0.1621735989088648  0.8374979550262367  0.4146761389280016
  0.3355683493612318  0.6736083112169098  0.3386957225115026
  0.1511720797248302  0.6812598190423103  0.1630607540367066
  0.2532063156265210  0.4090356371732895  0.2502532563479463
  0.3338928027312988  0.1638141522885590  0.3312018250326787
  0.0051648423332580  0.6735489849042366  0.4946040399398584
  0.1684725122251791  0.1615784061678553  0.1681374330807230
  0.2553945828914479  0.9178316155140180  0.2490718956917419
  0.4124682939336282  0.4148493392389838  0.4143030780055170
  0.4975926068374008  0.1610762891009685  0.4959496606437810
  0.0959985539371075  0.9210948419512022  0.0794825277211046
  0.4185754055892019  0.9195853660178912  0.4091207288618008
  0.0884670440046307  0.5843789521811544  0.8338562274788757
  0.4996852848271303  0.3220217046475184  0.7556992693557021
  0.0876356652795067  0.0830229059675958  0.8360161097911387
  0.2522364004551321  0.5802589480363807  0.9921395414424552
  0.3310245407323933  0.3179455173625172  0.5776781267674522
  0.4169762970224582  0.0861823550536656  0.6708459621405964
  0.0074828319049018  0.8427262083167761  0.7563769345102287
  0.1691745856117137  0.3290042663047643  0.9118628851942461
  0.2522388028636087  0.0797061297663149  0.9992633389405228
  0.1679297270853937  0.8374887010678052  0.9215765158086384
  0.3376497950740713  0.6740332079439426  0.8403646147871129
  0.1540586107826485  0.6744375188991114  0.6659422114023101
  0.2499460056405667  0.4010186612366340  0.7516433339558617
  0.3353472586184623  0.1620613713551080  0.8348250238974302
  0.0077944151105598  0.6758350283573336  0.9938146126694747
  0.1669996325462648  0.1577712786112144  0.6694259292321476
  0.2531237046325074  0.9186648074511439  0.7563431401265035
  0.4118887590472440  0.4137280097905673  0.9156744447872214
  0.5000295738734053  0.1599908866497799  0.9973996775062517
  0.0822165248795343  0.9231312493836015  0.5797679030350338
  0.4172809229598045  0.9168045518449475  0.9174419136188305
  0.5869862422839773  0.5851124498247486  0.3334752169461623
  0.0014758980860421  0.3239743429593673  0.2539305004446888
  0.5837688631299827  0.0858391520803750  0.3324861277419515
  0.7501764283843499  0.5783691603748267  0.4947662440794574
  0.8368150859140968  0.3194888879980482  0.0789358360141179
  0.9194233379143100  0.0865193516078122  0.1704639115825657
  0.5034629150129888  0.8441072602620210  0.2525017347937464
  0.6668709926643075  0.3318788229978438  0.4121716874194234
  0.7466628889831455  0.0866196568336477  0.4955423388201936
  0.6604267495652607  0.8370769355016208  0.4156287773193981
  0.8347805825302856  0.6738224274899451  0.3409639809042844
  0.6548527691833854  0.6750745691023496  0.1650676069608394
  0.7499158389537470  0.4013587495612114  0.2527989975834188
  0.8343949336237273  0.1640359876394655  0.3332435663305731
  0.5053456975397665  0.6731414565195877  0.4934882500623985
  0.6671415127744922  0.1583611973030798  0.1688266589520424
  0.7509672886592895  0.9196200898894631  0.2555583712825396
  0.9125850077901916  0.4146392911202597  0.4151190131197424
  0.9982837607073947  0.1614109137674191  0.4965265137337056
  0.5779354098803182  0.9194383866238951  0.0806555340621244
  0.9187656263828288  0.9199057289824282  0.4120451954893554
  0.5893321638368860  0.5835103330625131  0.8351534817285895
  0.9999817067674783  0.3218299294374063  0.7556041790166361
  0.5858840905103833  0.0841141615820931  0.8353113756616111
  0.7526368348054433  0.5785193896867540  0.9953663993099298
  0.8310056553742555  0.3176569496899972  0.5785518369285754
  0.9170694361612703  0.0860217287630007  0.6717142454284470
  0.5068777147123384  0.8437430010271356  0.7561932797723543
  0.6692500383054991  0.3313844667207562  0.9133591903730434
  0.7498910436060982  0.0860277048740912  0.9975200143805623
  0.6532394531972798  0.8364691438004996  0.9227153101982282
  0.8350909962319690  0.6750108101082830  0.8413951434663147
  0.6534859113440774  0.6745538447496386  0.6664053722651104
  0.7499079068007504  0.4012517080430200  0.7528746541198430
  0.8356508191297394  0.1636173373525551  0.8352125631579881
  0.5047132298802808  0.6736198257496824  0.9954662463407757
  0.6669470662208994  0.1579951982255636  0.6697749027643809
  0.7521616880302986  0.9191164062311543  0.7583898574019869
  0.9148038210830904  0.4150087633930966  0.9168294780445549
  0.0034590925468905  0.1624029971477725  0.9984593685117318
  0.5820011110108041  0.9233589889021303  0.5795897243936707
  0.9217352402661447  0.9203053921315885  0.9128672580878714
  0.3941546442487152  0.5986063345762389  0.1701352363841195
  0.0914773138836367  0.4328981715240587  0.0849549503109301
  0.3972578184945732  0.5796313812667009  0.6789166554912711
  0.3311543837292561  0.8358858948075465  0.5825099421866540
  0.0812178830070920  0.4192280063796900  0.5847246746147690
  0.8962002419146131  0.5796382448910364  0.1811125066344204
  0.8376771314092437  0.8354154745953437  0.0844978742363338
  0.5832378025447369  0.4169300938582836  0.0856792097915431
  0.8967616437821277  0.5788499548157802  0.6792582084754386
  0.8302455806655189  0.8363586380347598  0.5848075127060071
  0.5802159285356439  0.4187995608938593  0.5852574221449416
  0.2162517044762211  0.5839210580874763  0.2687027100352140
  0.0222133980059169  0.6193409007305348  0.1013532481735382
  0.1316883074068471  0.3218643094118150  0.1988092180967840
  0.2116706859230959  0.0824961844161223  0.2708419199352790
  0.3811288315547046  0.5834549198023069  0.4372200390976957
  0.4511647322057399  0.3184924905475270  0.0098104626494049
  0.0431266064556866  0.0850127925166788  0.1043116783745219
  0.1267418792756985  0.8439292858751983  0.1881597601157026
  0.2959787704993957  0.3306727925139938  0.3504618918523121
  0.3757510881129278  0.0809438486625851  0.4339361312577950
  0.4875272387420750  0.8346317790745630  0.0039783330478329
  0.2911291416082378  0.8353597118097724  0.3553643643429254
  0.4703663612680486  0.6856878309412764  0.2880940460001611
  0.2469845541002016  0.6357759151809219  0.0930891915179117
  0.3773613209782667  0.3938629104852538  0.1835539206546173
  0.4608452857107750  0.1645488047455430  0.2718663271081070
  0.1328941151453407  0.6664168447606755  0.4339228993513373
  0.2279333149644316  0.4098377746526225  0.0050935487243393
  0.2916641518336647  0.1615315254383916  0.1023269094818531
  0.3851146131146237  0.9254211645990225  0.2002659618172729
  0.0421665907687867  0.4201612841888647  0.3521162682283077
  0.1264733922875578  0.1714081588982665  0.4341311304597397
  0.2048053133015486  0.9288127156859005  0.0117256130398786
  0.0469659635113686  0.9251800875748586  0.3537916899567435
  0.2180575111659948  0.5799943235868170  0.7654683134932725
  0.0317132820694255  0.6112643811892084  0.6007732876188285
  0.1296042190283160  0.3162542535052282  0.6992822537220960
  0.2130245672328215  0.0816067841356301  0.7717759927203787
  0.3829097521405060  0.5822721004495790  0.9357063596051631
  0.4478340068350093  0.3188790907103467  0.5098931897168484
  0.0399225953612969  0.0851989053760889  0.6035500386113313
  0.1317352856135088  0.8421745289327305  0.6854518299052117
  0.2971481978353125  0.3276803126723280  0.8505648756523883
  0.3788850552556511  0.0810797692736855  0.9350831141953364
  0.4748577367884437  0.8382691588743114  0.5069023875626328
  0.2933837966064416  0.8342445288775266  0.8553765318428717
  0.4721529922016003  0.6843111518437084  0.7860724062010647
  0.2628020723447122  0.6547113991717097  0.5947322836656994
  0.3743950792978907  0.3817498752180626  0.6843786180433682
  0.4622725264701515  0.1619873043099744  0.7734122148007998
  0.1336823666972364  0.6646142601658980  0.9307009532415265
  0.2232362609323815  0.4117574933031918  0.5086728662395501
  0.2896569028548299  0.1567074075145882  0.6014725202013977
  0.3841896016917303  0.9269121818554780  0.7007202440463942
  0.0433478119797286  0.4183694532325646  0.8512244816191981
  0.1295401744927958  0.1689831814715674  0.9345502611285639
  0.1953954633248287  0.9319277084645279  0.5098802660174471
  0.0505811611271128  0.9222849104624586  0.8530239827084571
  0.7175789811795852  0.5806575833376542  0.2675972374094329
  0.5376861297691420  0.6063583960288312  0.0991727228947852
  0.6305498249323804  0.3162644403807349  0.2014990656030022
  0.7119143154160881  0.0827826139290693  0.2723352706833992
  0.8808490173127481  0.5830600443560883  0.4381883419026238
  0.9561087104298380  0.3226488099180571  0.0127583054453666
  0.5420460421096820  0.0853757569757008  0.1034575580004287
  0.6322005898431655  0.8409221862568046  0.1872068510414522
  0.7957716257514988  0.3289931792482008  0.3531935058843985
  0.8758840820480742  0.0810872583589060  0.4351044964565389
  0.9794844750807030  0.8397189582625089  0.0077328663144272
  0.7914668366927984  0.8355461319535848  0.3572970260102011
  0.9692101641378699  0.6866699325947749  0.2893174444655457
  0.7644844076112065  0.6557469729083465  0.0954815035123318
  0.8735123579305792  0.3819266982848788  0.1867325441772820
  0.9627114789302098  0.1640772876614776  0.2739147715786032
  0.6336069574590226  0.6651629031253563  0.4330362078102041
  0.7273966522429802  0.4108942515084877  0.0097990142482587
  0.7923493607660816  0.1591986230230447  0.1025856012152815
  0.8831735279075517  0.9295673221667968  0.2036160298128493
  0.5429817639488164  0.4192078767630036  0.3526734326317893
  0.6258176820125456  0.1704864924728042  0.4342701975099317
  0.7006239554195801  0.9323313036697911  0.0143260675302557
  0.5484106502181447  0.9244610506748785  0.3519797216678526
  0.7176754822703941  0.5799804897194463  0.7660748056887954
  0.5316902594232218  0.6117138546813123  0.6001017197258705
  0.6298735573747365  0.3164949137488122  0.7000518283662274
  0.7128697360254606  0.0828640034824133  0.7726505741454304
  0.8829695109942790  0.5838213215171351  0.9371092910945507
  0.9480501903992007  0.3189690981817321  0.5106955278378962
  0.5400048137116968  0.0856053699797741  0.6032469606344506
  0.6320013119686791  0.8426905005446628  0.6857452777642763
  0.7975817521354998  0.3292811161828766  0.8528979032516517
  0.8791405916397323  0.0825000097939039  0.9360753434062588
  0.9736174971374112  0.8380614642893107  0.5088564877973454
  0.7910496672238949  0.8358308393757312  0.8589222536151482
  0.9695104312165981  0.6845859136375978  0.7861410932369921
  0.7624522256625923  0.6546927602274693  0.5952273085803057
  0.8737207124424557  0.3808852494332200  0.6854112737436893
  0.9629057813008259  0.1617147714929388  0.7742901158756581
  0.6351955746084244  0.6612310532822505  0.9330319370481703
  0.7228316587278556  0.4112460531276909  0.5099000975080088
  0.7896640670103423  0.1562741372085057  0.6020383092755566
  0.8840258557358069  0.9274489130365922  0.7030794373734253
  0.5434312360669793  0.4176265764652527  0.8519748523724360
  0.6287700106379148  0.1700215132865779  0.9349444448194859
  0.6958009723097689  0.9315534097344340  0.5103613116624217
  0.5472296133101011  0.9249664480259909  0.8523532532603326
 
  0.00000000E+00  0.00000000E+00  0.00000000E+00
  0.00000000E+00  0.00000000E+00  0.00000000E+00
  0.00000000E+00  0.00000000E+00  0.00000000E+00
  0.00000000E+00  0.00000000E+00  0.00000000E+00
  0.00000000E+00  0.00000000E+00  0.00000000E+00
  0.00000000E+00  0.00000000E+00  0.00000000E+00
  0.00000000E+00  0.00000000E+00  0.00000000E+00
  0.00000000E+00  0.00000000E+00  0.00000000E+00
  0.00000000E+00  0.00000000E+00  0.00000000E+00
  0.00000000E+00  0.00000000E+00  0.00000000E+00
  0.00000000E+00  0.00000000E+00  0.00000000E+00
  0.00000000E+00  0.00000000E+00  0.00000000E+00
  0.00000000E+00  0.00000000E+00  0.00000000E+00
  0.00000000E+00  0.00000000E+00  0.00000000E+00
  0.00000000E+00  0.00000000E+00  0.00000000E+00
  0.00000000E+00  0.00000000E+00  0.00000000E+00
  0.00000000E+00  0.00000000E+00  0.00000000E+00
  0.00000000E+00  0.00000000E+00  0.00000000E+00
  0.00000000E+00  0.00000000E+00  0.00000000E+00
  0.00000000E+00  0.00000000E+00  0.00000000E+00
  0.00000000E+00  0.00000000E+00  0.00000000E+00
  0.00000000E+00  0.00000000E+00  0.00000000E+00
  0.00000000E+00  0.00000000E+00  0.00000000E+00
  0.00000000E+00  0.00000000E+00  0.00000000E+00
  0.00000000E+00  0.00000000E+00  0.00000000E+00
  0.00000000E+00  0.00000000E+00  0.00000000E+00
  0.00000000E+00  0.00000000E+00  0.00000000E+00
  0.00000000E+00  0.00000000E+00  0.00000000E+00
  0.00000000E+00  0.00000000E+00  0.00000000E+00
  0.00000000E+00  0.00000000E+00  0.00000000E+00
  0.00000000E+00  0.00000000E+00  0.00000000E+00
  0.00000000E+00  0.00000000E+00  0.00000000E+00
  0.00000000E+00  0.00000000E+00  0.00000000E+00
  0.00000000E+00  0.00000000E+00  0.00000000E+00
  0.00000000E+00  0.00000000E+00  0.00000000E+00
  0.00000000E+00  0.00000000E+00  0.00000000E+00
  0.00000000E+00  0.00000000E+00  0.00000000E+00
  0.00000000E+00  0.00000000E+00  0.00000000E+00
  0.00000000E+00  0.00000000E+00  0.00000000E+00
  0.00000000E+00  0.00000000E+00  0.00000000E+00
  0.00000000E+00  0.00000000E+00  0.00000000E+00
  0.00000000E+00  0.00000000E+00  0.00000000E+00
  0.00000000E+00  0.00000000E+00  0.00000000E+00
  0.00000000E+00  0.00000000E+00  0.00000000E+00
  0.00000000E+00  0.00000000E+00  0.00000000E+00
  0.00000000E+00  0.00000000E+00  0.00000000E+00
  0.00000000E+00  0.00000000E+00  0.00000000E+00
  0.00000000E+00  0.00000000E+00  0.00000000E+00
  0.00000000E+00  0.00000000E+00  0.00000000E+00
  0.00000000E+00  0.00000000E+00  0.00000000E+00
  0.00000000E+00  0.00000000E+00  0.00000000E+00
  0.00000000E+00  0.00000000E+00  0.00000000E+00
  0.00000000E+00  0.00000000E+00  0.00000000E+00
  0.00000000E+00  0.00000000E+00  0.00000000E+00
  0.00000000E+00  0.00000000E+00  0.00000000E+00
  0.00000000E+00  0.00000000E+00  0.00000000E+00
  0.00000000E+00  0.00000000E+00  0.00000000E+00
  0.00000000E+00  0.00000000E+00  0.00000000E+00
  0.00000000E+00  0.00000000E+00  0.00000000E+00
  0.00000000E+00  0.00000000E+00  0.00000000E+00
  0.00000000E+00  0.00000000E+00  0.00000000E+00
  0.00000000E+00  0.00000000E+00  0.00000000E+00
  0.00000000E+00  0.00000000E+00  0.00000000E+00
  0.00000000E+00  0.00000000E+00  0.00000000E+00
  0.00000000E+00  0.00000000E+00  0.00000000E+00
  0.00000000E+00  0.00000000E+00  0.00000000E+00
  0.00000000E+00  0.00000000E+00  0.00000000E+00
  0.00000000E+00  0.00000000E+00  0.00000000E+00
  0.00000000E+00  0.00000000E+00  0.00000000E+00
  0.00000000E+00  0.00000000E+00  0.00000000E+00
  0.00000000E+00  0.00000000E+00  0.00000000E+00
  0.00000000E+00  0.00000000E+00  0.00000000E+00
  0.00000000E+00  0.00000000E+00  0.00000000E+00
  0.00000000E+00  0.00000000E+00  0.00000000E+00
  0.00000000E+00  0.00000000E+00  0.00000000E+00
  0.00000000E+00  0.00000000E+00  0.00000000E+00
  0.00000000E+00  0.00000000E+00  0.00000000E+00
  0.00000000E+00  0.00000000E+00  0.00000000E+00
  0.00000000E+00  0.00000000E+00  0.00000000E+00
  0.00000000E+00  0.00000000E+00  0.00000000E+00
  0.00000000E+00  0.00000000E+00  0.00000000E+00
  0.00000000E+00  0.00000000E+00  0.00000000E+00
  0.00000000E+00  0.00000000E+00  0.00000000E+00
  0.00000000E+00  0.00000000E+00  0.00000000E+00
  0.00000000E+00  0.00000000E+00  0.00000000E+00
  0.00000000E+00  0.00000000E+00  0.00000000E+00
  0.00000000E+00  0.00000000E+00  0.00000000E+00
  0.00000000E+00  0.00000000E+00  0.00000000E+00
  0.00000000E+00  0.00000000E+00  0.00000000E+00
  0.00000000E+00  0.00000000E+00  0.00000000E+00
  0.00000000E+00  0.00000000E+00  0.00000000E+00
  0.00000000E+00  0.00000000E+00  0.00000000E+00
  0.00000000E+00  0.00000000E+00  0.00000000E+00
  0.00000000E+00  0.00000000E+00  0.00000000E+00
  0.00000000E+00  0.00000000E+00  0.00000000E+00
  0.00000000E+00  0.00000000E+00  0.00000000E+00
  0.00000000E+00  0.00000000E+00  0.00000000E+00
  0.00000000E+00  0.00000000E+00  0.00000000E+00
  0.00000000E+00  0.00000000E+00  0.00000000E+00
  0.00000000E+00  0.00000000E+00  0.00000000E+00
  0.00000000E+00  0.00000000E+00  0.00000000E+00
  0.00000000E+00  0.00000000E+00  0.00000000E+00
  0.00000000E+00  0.00000000E+00  0.00000000E+00
  0.00000000E+00  0.00000000E+00  0.00000000E+00
  0.00000000E+00  0.00000000E+00  0.00000000E+00
  0.00000000E+00  0.00000000E+00  0.00000000E+00
  0.00000000E+00  0.00000000E+00  0.00000000E+00
  0.00000000E+00  0.00000000E+00  0.00000000E+00
  0.00000000E+00  0.00000000E+00  0.00000000E+00
  0.00000000E+00  0.00000000E+00  0.00000000E+00
  0.00000000E+00  0.00000000E+00  0.00000000E+00
  0.00000000E+00  0.00000000E+00  0.00000000E+00
  0.00000000E+00  0.00000000E+00  0.00000000E+00
  0.00000000E+00  0.00000000E+00  0.00000000E+00
  0.00000000E+00  0.00000000E+00  0.00000000E+00
  0.00000000E+00  0.00000000E+00  0.00000000E+00
  0.00000000E+00  0.00000000E+00  0.00000000E+00
  0.00000000E+00  0.00000000E+00  0.00000000E+00
  0.00000000E+00  0.00000000E+00  0.00000000E+00
  0.00000000E+00  0.00000000E+00  0.00000000E+00
  0.00000000E+00  0.00000000E+00  0.00000000E+00
  0.00000000E+00  0.00000000E+00  0.00000000E+00
  0.00000000E+00  0.00000000E+00  0.00000000E+00
  0.00000000E+00  0.00000000E+00  0.00000000E+00
  0.00000000E+00  0.00000000E+00  0.00000000E+00
  0.00000000E+00  0.00000000E+00  0.00000000E+00
  0.00000000E+00  0.00000000E+00  0.00000000E+00
  0.00000000E+00  0.00000000E+00  0.00000000E+00
  0.00000000E+00  0.00000000E+00  0.00000000E+00
  0.00000000E+00  0.00000000E+00  0.00000000E+00
  0.00000000E+00  0.00000000E+00  0.00000000E+00
  0.00000000E+00  0.00000000E+00  0.00000000E+00
  0.00000000E+00  0.00000000E+00  0.00000000E+00
  0.00000000E+00  0.00000000E+00  0.00000000E+00
  0.00000000E+00  0.00000000E+00  0.00000000E+00
  0.00000000E+00  0.00000000E+00  0.00000000E+00
  0.00000000E+00  0.00000000E+00  0.00000000E+00
  0.00000000E+00  0.00000000E+00  0.00000000E+00
  0.00000000E+00  0.00000000E+00  0.00000000E+00
  0.00000000E+00  0.00000000E+00  0.00000000E+00
  0.00000000E+00  0.00000000E+00  0.00000000E+00
  0.00000000E+00  0.00000000E+00  0.00000000E+00
  0.00000000E+00  0.00000000E+00  0.00000000E+00
  0.00000000E+00  0.00000000E+00  0.00000000E+00
  0.00000000E+00  0.00000000E+00  0.00000000E+00
  0.00000000E+00  0.00000000E+00  0.00000000E+00
  0.00000000E+00  0.00000000E+00  0.00000000E+00
  0.00000000E+00  0.00000000E+00  0.00000000E+00
  0.00000000E+00  0.00000000E+00  0.00000000E+00
  0.00000000E+00  0.00000000E+00  0.00000000E+00
  0.00000000E+00  0.00000000E+00  0.00000000E+00
  0.00000000E+00  0.00000000E+00  0.00000000E+00
  0.00000000E+00  0.00000000E+00  0.00000000E+00
  0.00000000E+00  0.00000000E+00  0.00000000E+00
  0.00000000E+00  0.00000000E+00  0.00000000E+00
  0.00000000E+00  0.00000000E+00  0.00000000E+00
  0.00000000E+00  0.00000000E+00  0.00000000E+00
  0.00000000E+00  0.00000000E+00  0.00000000E+00
  0.00000000E+00  0.00000000E+00  0.00000000E+00
  0.00000000E+00  0.00000000E+00  0.00000000E+00
  0.00000000E+00  0.00000000E+00  0.00000000E+00
  0.00000000E+00  0.00000000E+00  0.00000000E+00
  0.00000000E+00  0.00000000E+00  0.00000000E+00
  0.00000000E+00  0.00000000E+00  0.00000000E+00
  0.00000000E+00  0.00000000E+00  0.00000000E+00
  0.00000000E+00  0.00000000E+00  0.00000000E+00
  0.00000000E+00  0.00000000E+00  0.00000000E+00
  0.00000000E+00  0.00000000E+00  0.00000000E+00
  0.00000000E+00  0.00000000E+00  0.00000000E+00
  0.00000000E+00  0.00000000E+00  0.00000000E+00
  0.00000000E+00  0.00000000E+00  0.00000000E+00
  0.00000000E+00  0.00000000E+00  0.00000000E+00
  0.00000000E+00  0.00000000E+00  0.00000000E+00
  0.00000000E+00  0.00000000E+00  0.00000000E+00
  0.00000000E+00  0.00000000E+00  0.00000000E+00
  0.00000000E+00  0.00000000E+00  0.00000000E+00
  0.00000000E+00  0.00000000E+00  0.00000000E+00
  0.00000000E+00  0.00000000E+00  0.00000000E+00
  0.00000000E+00  0.00000000E+00  0.00000000E+00
  0.00000000E+00  0.00000000E+00  0.00000000E+00
  0.00000000E+00  0.00000000E+00  0.00000000E+00
  0.00000000E+00  0.00000000E+00  0.00000000E+00
  0.00000000E+00  0.00000000E+00  0.00000000E+00
  0.00000000E+00  0.00000000E+00  0.00000000E+00
  0.00000000E+00  0.00000000E+00  0.00000000E+00
  0.00000000E+00  0.00000000E+00  0.00000000E+00
  0.00000000E+00  0.00000000E+00  0.00000000E+00
  0.00000000E+00  0.00000000E+00  0.00000000E+00
  0.00000000E+00  0.00000000E+00  0.00000000E+00
  0.00000000E+00  0.00000000E+00  0.00000000E+00
  0.00000000E+00  0.00000000E+00  0.00000000E+00
