generated by phonopy                    
   1.00000000000000     
    10.0351470768999995   -0.0000022330999784   -0.0000001056124209
    -5.0175765436399997    8.6906901959899994    0.0000001395531216
    -0.0000001735893656    0.0000001431815548   14.9533752540999991
   Pb   P    O    Cu
    20    12    49     1
Direct
  0.9790762000004278  0.7496525952422743  0.1101744793124340
  0.0009254773013865  0.7763604544595637  0.6189586062705175
  0.0150691033274271  0.2702638700839941  0.3822442606058445
  0.9979202347357585  0.2560486759141156  0.8628990064814914
  0.1743842370716635  0.1901244858619933  0.0866987122679674
  0.2301693370485012  0.2269560196771607  0.6220275711721825
  0.7451333568348986  0.7465663575707140  0.3670995968595108
  0.7331055175319747  0.7358395547441603  0.8725354106205074
  0.7518363535330295  0.9778430210828901  0.1113642897833600
  0.7740798695076236  0.0022687195661391  0.6224085792675780
  0.2648010109771235  0.0045201441269427  0.3783732209372630
  0.2550989934234593  0.9933055706959735  0.8657479335253910
  0.6551425804493149  0.3377667678180600  0.9958423008303043
  0.6726224024669847  0.3420370420761287  0.5019412883148959
  0.3351410791251510  0.6758922065218940  0.0053298566866928
  0.3509999261408581  0.6727843388395200  0.5044375855073326
  0.3280309040882869  0.6815016099317646  0.2455191201846390
  0.3264001642023686  0.6628468712119329  0.7437982403764991
  0.7026841658850529  0.3274825886628392  0.2505146526951663
  0.6706889354964076  0.3361252184165053  0.7449404423155386
  0.5972274944436222  0.5766915966004547  0.1377747174799424
  0.6276503493878565  0.5970058703141632  0.6288356975190297
  0.3806377724070416  0.4001357338690923  0.3781661669981702
  0.3649566307067502  0.3942985885725463  0.8677423860646840
  0.4096053579509586  0.0420080925286044  0.1227464154810463
  0.4054987619878574  0.0282171670180986  0.6232050956737609
  0.6117515102998894  0.9782775742435987  0.3760094992186112
  0.6068682657169191  0.9766538202897550  0.8768823092819744
  0.9825541711588741  0.3815373488243949  0.1253951520529242
  0.9762341076762198  0.3797589663280903  0.6236892451129563
  0.0342518956926980  0.6370833458311296  0.3747733146972649
  0.0243662634271047  0.6270550859714703  0.8766131113966082
  0.5105683577919820  0.6723144128369043  0.1231210237523968
  0.5048623525643734  0.6491928567533449  0.6278795977017566
  0.4808706410903838  0.3222403583642404  0.3828650226713819
  0.4676407573873220  0.3196311102393139  0.8634841497822023
  0.3441327613439427  0.8642949029133149  0.1283315229576942
  0.3573533974124885  0.8546418699662297  0.6236623422468810
  0.6927022480754417  0.1579741969050801  0.3753485137639743
  0.6890368591170173  0.1551553611586911  0.8803067683824324
  0.1543688351781398  0.5122980294173090  0.1261057565296539
  0.1513396743152668  0.4999275687097722  0.6232883855423950
  0.8558682936865694  0.5324597000580127  0.3706879180132390
  0.8455946542396262  0.5289281012850608  0.8781246450437763
  0.6904049781053985  0.5946043700827488  0.0473187304489358
  0.7373372428369152  0.6618626177722717  0.5460644949926419
  0.2660553767131972  0.3556433104450036  0.4587995421281832
  0.2567940669477125  0.3392422190245483  0.9516282980842448
  0.3493775039854654  0.0821884326522948  0.0356448939358884
  0.3421307019762665  0.0707605819273809  0.5383436939848281
  0.6521592955145579  0.9162731975968441  0.4614298966935522
  0.6299409819833315  0.9044446589614878  0.9648559973329895
  0.9594891392791709  0.2564323353492526  0.0548899963932712
  0.9306691024601150  0.2707926455971545  0.5402259371193665
  0.0849181193717854  0.7528482667575886  0.4548209142226654
  0.0899833873958684  0.7329516108112415  0.9610281727496428
  0.2806970693327884  0.3499932322833530  0.2910557176082804
  0.2556856197746384  0.3534049132665160  0.7849763046607237
  0.7305555469944451  0.6696058876554787  0.2091308865182455
  0.7291517800470118  0.6546649323192852  0.7156083490473222
  0.6581242062953834  0.9154069482998608  0.2934532780731800
  0.6696547461610720  0.9196098694949342  0.7989486570769060
  0.3591702351755686  0.1041575256514804  0.2054481848867908
  0.3382275039516074  0.0696860120062652  0.7066723920289135
  0.1026365307916777  0.7352031637372463  0.2880706815012886
  0.0861613916427473  0.7365033522881532  0.7935407916239399
  0.9321270945878979  0.3039757190647023  0.2200563374860636
  0.9291462821543988  0.2727771187591088  0.7083802426673103
  0.5472136745465761  0.4163425074676326  0.6265788852039833
  0.4849801500495801  0.5812645982324938  0.3795338140679476
  0.4671695545437871  0.5754212447333060  0.8726847157280559
  0.5902975988085615  0.1287563506975431  0.1207175831935174
  0.5852238384133202  0.1321364698505221  0.6242039273800941
  0.4308138744574634  0.9080694641118754  0.3737074936137716
  0.4275047374109633  0.9048525628283173  0.8650493697341730
  0.8743536012023938  0.4480328972364731  0.1031516073615180
  0.8778754431967144  0.4613191878759935  0.6239449769080565
  0.1111041443231215  0.5331410248361550  0.3865235035459023
  0.0965074250955240  0.5185674673493139  0.8739334389067324
  0.9690497511188667  0.9640193896697227  0.0603542488743045
  0.0002262979278385  0.0030100580460797  0.6185112641362309
  0.4329149253851483  0.3462196434720255  0.1926821157827163
 
  0.00000000E+00  0.00000000E+00  0.00000000E+00
  0.00000000E+00  0.00000000E+00  0.00000000E+00
  0.00000000E+00  0.00000000E+00  0.00000000E+00
  0.00000000E+00  0.00000000E+00  0.00000000E+00
  0.00000000E+00  0.00000000E+00  0.00000000E+00
  0.00000000E+00  0.00000000E+00  0.00000000E+00
  0.00000000E+00  0.00000000E+00  0.00000000E+00
  0.00000000E+00  0.00000000E+00  0.00000000E+00
  0.00000000E+00  0.00000000E+00  0.00000000E+00
  0.00000000E+00  0.00000000E+00  0.00000000E+00
  0.00000000E+00  0.00000000E+00  0.00000000E+00
  0.00000000E+00  0.00000000E+00  0.00000000E+00
  0.00000000E+00  0.00000000E+00  0.00000000E+00
  0.00000000E+00  0.00000000E+00  0.00000000E+00
  0.00000000E+00  0.00000000E+00  0.00000000E+00
  0.00000000E+00  0.00000000E+00  0.00000000E+00
  0.00000000E+00  0.00000000E+00  0.00000000E+00
  0.00000000E+00  0.00000000E+00  0.00000000E+00
  0.00000000E+00  0.00000000E+00  0.00000000E+00
  0.00000000E+00  0.00000000E+00  0.00000000E+00
  0.00000000E+00  0.00000000E+00  0.00000000E+00
  0.00000000E+00  0.00000000E+00  0.00000000E+00
  0.00000000E+00  0.00000000E+00  0.00000000E+00
  0.00000000E+00  0.00000000E+00  0.00000000E+00
  0.00000000E+00  0.00000000E+00  0.00000000E+00
  0.00000000E+00  0.00000000E+00  0.00000000E+00
  0.00000000E+00  0.00000000E+00  0.00000000E+00
  0.00000000E+00  0.00000000E+00  0.00000000E+00
  0.00000000E+00  0.00000000E+00  0.00000000E+00
  0.00000000E+00  0.00000000E+00  0.00000000E+00
  0.00000000E+00  0.00000000E+00  0.00000000E+00
  0.00000000E+00  0.00000000E+00  0.00000000E+00
  0.00000000E+00  0.00000000E+00  0.00000000E+00
  0.00000000E+00  0.00000000E+00  0.00000000E+00
  0.00000000E+00  0.00000000E+00  0.00000000E+00
  0.00000000E+00  0.00000000E+00  0.00000000E+00
  0.00000000E+00  0.00000000E+00  0.00000000E+00
  0.00000000E+00  0.00000000E+00  0.00000000E+00
  0.00000000E+00  0.00000000E+00  0.00000000E+00
  0.00000000E+00  0.00000000E+00  0.00000000E+00
  0.00000000E+00  0.00000000E+00  0.00000000E+00
  0.00000000E+00  0.00000000E+00  0.00000000E+00
  0.00000000E+00  0.00000000E+00  0.00000000E+00
  0.00000000E+00  0.00000000E+00  0.00000000E+00
  0.00000000E+00  0.00000000E+00  0.00000000E+00
  0.00000000E+00  0.00000000E+00  0.00000000E+00
  0.00000000E+00  0.00000000E+00  0.00000000E+00
  0.00000000E+00  0.00000000E+00  0.00000000E+00
  0.00000000E+00  0.00000000E+00  0.00000000E+00
  0.00000000E+00  0.00000000E+00  0.00000000E+00
  0.00000000E+00  0.00000000E+00  0.00000000E+00
  0.00000000E+00  0.00000000E+00  0.00000000E+00
  0.00000000E+00  0.00000000E+00  0.00000000E+00
  0.00000000E+00  0.00000000E+00  0.00000000E+00
  0.00000000E+00  0.00000000E+00  0.00000000E+00
  0.00000000E+00  0.00000000E+00  0.00000000E+00
  0.00000000E+00  0.00000000E+00  0.00000000E+00
  0.00000000E+00  0.00000000E+00  0.00000000E+00
  0.00000000E+00  0.00000000E+00  0.00000000E+00
  0.00000000E+00  0.00000000E+00  0.00000000E+00
  0.00000000E+00  0.00000000E+00  0.00000000E+00
  0.00000000E+00  0.00000000E+00  0.00000000E+00
  0.00000000E+00  0.00000000E+00  0.00000000E+00
  0.00000000E+00  0.00000000E+00  0.00000000E+00
  0.00000000E+00  0.00000000E+00  0.00000000E+00
  0.00000000E+00  0.00000000E+00  0.00000000E+00
  0.00000000E+00  0.00000000E+00  0.00000000E+00
  0.00000000E+00  0.00000000E+00  0.00000000E+00
  0.00000000E+00  0.00000000E+00  0.00000000E+00
  0.00000000E+00  0.00000000E+00  0.00000000E+00
  0.00000000E+00  0.00000000E+00  0.00000000E+00
  0.00000000E+00  0.00000000E+00  0.00000000E+00
  0.00000000E+00  0.00000000E+00  0.00000000E+00
  0.00000000E+00  0.00000000E+00  0.00000000E+00
  0.00000000E+00  0.00000000E+00  0.00000000E+00
  0.00000000E+00  0.00000000E+00  0.00000000E+00
  0.00000000E+00  0.00000000E+00  0.00000000E+00
  0.00000000E+00  0.00000000E+00  0.00000000E+00
  0.00000000E+00  0.00000000E+00  0.00000000E+00
  0.00000000E+00  0.00000000E+00  0.00000000E+00
  0.00000000E+00  0.00000000E+00  0.00000000E+00
  0.00000000E+00  0.00000000E+00  0.00000000E+00
