supercell of POSCAR                     
   1.03600000000000     
     9.6051007291200001   -5.6678653607799996   -9.9907275475200006
     9.5551777488200003    5.5783510108199996    9.9928581731800001
    -1.5573508785200001   -8.3719044994900003    4.9655686364999996
   Al   Gd   N    O 
    72    24    95     1
Direct
  0.3013856265074253  0.2878499054757953  0.5378727597488719
  0.1419960304624084  0.2447260256492285  0.3106968897391695
  0.3071813564806760  0.4102897291378653  0.3091536768075684
  0.4631220969820831  0.3225154945181501  0.7861327018307236
  0.1418074982099142  0.4981064633654881  0.7842354049353091
  0.2971048367105098  0.1641299518569426  0.7752329577390924
  0.4692991695605144  0.4473020825950371  0.5338300878186857
  0.1421929619122082  0.1194386302688812  0.5387123526911139
  0.5033165669872091  0.0439687541362446  0.2735247350861414
  0.2698414273665577  0.1108925520418396  0.3335832829451064
  0.1150063170171620  0.0704125807366083  0.1005468611487856
  0.1156105843010664  0.1961330829458703  0.8160034602972530
  0.2738327277215120  0.3556868777974742  0.8123639919584491
  0.1120705379756970  0.3243049275295817  0.5889730485733793
  0.2708655792914456  0.4847495699268549  0.5766420457619219
  0.4454366382395065  0.2858641985535471  0.3349704386594325
  0.1109626353258122  0.4462764605930118  0.3409095945536791
  0.4480109664835865  0.4040740905144844  0.1022201519813208
  0.8012252188444080  0.2885259429345410  0.5390638102108127
  0.6430802790185766  0.2433366610465484  0.3124403962589142
  0.8082196107628832  0.4092354312436797  0.3110869774398850
  0.9634976642386590  0.3253071757420543  0.7892758145464285
  0.6419887234504529  0.4981331523624277  0.7849964416231643
  0.7961186938644218  0.1652497785991685  0.7804241942659758
  0.9693983812336313  0.4461719859277125  0.5337152456655687
  0.6455703773451660  0.1186932888341659  0.5396596354955392
  0.9787653573117652  0.0723739079764698  0.2983307937864623
  0.7775898229451741  0.1085512509459718  0.3357312524649885
  0.6185863517034562  0.0738967365035847  0.0956546038546833
  0.6148955193232126  0.1957347861042322  0.8163289708105737
  0.7747154081486798  0.3552811414842694  0.8126450442968505
  0.6110559535463196  0.3241003303521879  0.5895385624331979
  0.7704311658187137  0.4846145539095588  0.5772774821585358
  0.9485357848692146  0.2801499158709433  0.3368377014101824
  0.6111265671022039  0.4454345930994990  0.3400937999798828
  0.9479078561967498  0.4051701394740164  0.1049774200723661
  0.3012098289105722  0.7883169426191543  0.5380906912611820
  0.1433990237741298  0.7438784905603697  0.3116277862382546
  0.3088209177558667  0.9099260523839376  0.3104320551909865
  0.4633565864540117  0.8250229568430711  0.7887848845935963
  0.1427082472675849  0.9982168561510321  0.7836801874207993
  0.2953610068573198  0.6646422255527256  0.7792552417786496
  0.4702616380428566  0.9443863754497528  0.5326914185285716
  0.1433349318583126  0.6194776700222278  0.5389154556754718
  0.4779247792687755  0.5714508074795219  0.2980782555190302
  0.2759622970142317  0.6086969981040156  0.3362433435206427
  0.1146033517817813  0.5712685095839021  0.1024829170022770
  0.1149680771007482  0.6960154440300670  0.8174909038882276
  0.2744006601449200  0.8550027115035448  0.8110376455387183
  0.1120283240182687  0.8245392869566288  0.5889068572679648
  0.2709418908506223  0.9855252588407524  0.5750924988394246
  0.4484266331680971  0.7784615289834775  0.3356931594196340
  0.1113862599072135  0.9455312951506727  0.3395115139556779
  0.4439552212865863  0.9006423777272232  0.0979920645278227
  0.8013567514756232  0.7882572687754106  0.5400396419103828
  0.6430552783523211  0.7416039067947082  0.3123260437452586
  0.8102513859758034  0.9094091350456637  0.3112245034512995
  0.9629549404292987  0.8251209830437674  0.7896519090476417
  0.6425085551850600  0.9971059658732031  0.7840269813556517
  0.7954256425297075  0.6648382916707618  0.7800486037303571
  0.9700966167361997  0.9460568243116256  0.5332214070631807
  0.6433085285669122  0.6190321784375712  0.5396619759314447
  0.9782881513074315  0.5721780389997519  0.2986887158516396
  0.7766733028655324  0.6086610910107808  0.3371703611917951
  0.6152395819030900  0.5699618698283331  0.1031894159934197
  0.6149786136149658  0.6962412444448347  0.8187201533417507
  0.7743533379853176  0.8551067843341471  0.8141448252005290
  0.6122486048465845  0.8230621461071124  0.5913306687300164
  0.7726128434829818  0.9848604284164466  0.5790810917175548
  0.9482196908672407  0.7793036587298019  0.3373588650495449
  0.6187373352293122  0.9387272576588117  0.3468115862519738
  0.9487482271592071  0.9042946237454643  0.1050600555437100
  0.4820923788769917  0.1951848687333140  0.0399638876895239
  0.1344220640176133  0.3669636991239784  0.0334424568026677
  0.3082026999232497  0.0221035849596873  0.0391621580068957
  0.2826153712860489  0.2345908730561135  0.0787558272816398
  0.4483340073570403  0.0205912828330241  0.8161524074178388
  0.4449552935527663  0.1523379088404866  0.5566108507135894
  0.9830799292964585  0.1955933631669282  0.0390803510793774
  0.6362271059442435  0.3647262026844373  0.0322809354099078
  0.8098938161544567  0.0205817309744916  0.0386985021351336
  0.7854426581475664  0.2343283707385240  0.0838615479310150
  0.9499778505680183  0.0194811931415302  0.8193187241172382
  0.9430124083789622  0.1554056932331633  0.5730526644121312
  0.4834267775495391  0.6931143037191987  0.0382210926814253
  0.1367450514225652  0.8653263205309543  0.0319391455231255
  0.3073729889674937  0.5216819285870926  0.0395297477204224
  0.2838948229627576  0.7327484930938724  0.0834615896791604
  0.4482521146222922  0.5177808533904482  0.8191498750546344
  0.4432097421207217  0.6552572393018252  0.5728250068192722
  0.9815428198354397  0.6961173199722239  0.0404364833642390
  0.6320155788024806  0.8696708534070794  0.0361474649614166
  0.8073511113643548  0.5225900257508229  0.0408483788809733
  0.7820065074866065  0.7354349678967580  0.0842377112667023
  0.9483658025296080  0.5196905699819183  0.8203988328994640
  0.9437499173357367  0.6547840372010327  0.5739885524718673
  0.2381842997760799  0.3672548983595121  0.6264921700247115
  0.0748674456245055  0.3256923006420678  0.4003598903368086
  0.2384275831734826  0.4902856257567692  0.3909205146985286
  0.4259480409590850  0.2920199471192504  0.1553748633974834
  0.0689122381872593  0.4580940755273275  0.1533356407231068
  0.2350171039856761  0.1041997554433109  0.1537756081987212
  0.3995121452047670  0.3907903903119987  0.9063809078550591
  0.0944848053474985  0.0833208345704364  0.9016910380846852
  0.2348418459061818  0.2431399801824980  0.8620715932933720
  0.3961511952307575  0.0167495506124311  0.6050468775485669
  0.0889896036291731  0.2032412156089762  0.6316583697290525
  0.2165056162388055  0.1918463009471338  0.4348867849554168
  0.0617664301912768  0.1454493642531958  0.2082980287126546
  0.2151581880439579  0.3204380493332835  0.2089628335952156
  0.3661796009320355  0.1170195070990090  0.9076900993118997
  0.0426797130757421  0.2688064469681137  0.8855439709950232
  0.2097886838962069  0.4350983227616609  0.8891183225671497
  0.3703072402971657  0.2417322125574586  0.6747529381223671
  0.0397788139448139  0.4065639382428330  0.6833773024018441
  0.2121337176902713  0.0676775594382093  0.6693484011744602
  0.3805964707422902  0.3553912566606385  0.4333464672524201
  0.0488119922444739  0.0257644971856692  0.4395233529134899
  0.3905391808299896  0.4747177302795080  0.2082636042554498
  0.7364316554416348  0.3670986406490897  0.6261969872798332
  0.5721544140848991  0.3228664406667150  0.4001514582762695
  0.7381634683277056  0.4895286460421886  0.3912210679618013
  0.9283954208224543  0.2930473642420779  0.1570212555943158
  0.5696497039472490  0.4559070008434105  0.1519532779388015
  0.7365981185844319  0.1021954782353589  0.1549783818585411
  0.9000389570192198  0.3931748478991608  0.9092267326671433
  0.5934703909606753  0.0821281049020541  0.9016366302267329
  0.7333814201112787  0.2440001546643771  0.8681004345307812
  0.8962449660090783  0.0160151194364886  0.6100897659819609
  0.5891041159144663  0.2016437539313358  0.6310281432628742
  0.9045566159553786  0.1558768055211104  0.3552094555035197
  0.7194510376117762  0.1901358950547873  0.4348056124077289
  0.5628033821582790  0.1452972797284104  0.2081307490047024
  0.7154218613575551  0.3193682491792487  0.2113741293407401
  0.8665307360207279  0.1170940589988447  0.9081337111374168
  0.5418730993261605  0.2676339987758851  0.8861981183825236
  0.7102861773301612  0.4354174291684316  0.8894257628391600
  0.8667437690830582  0.2467256971738152  0.6826769954468119
  0.5393402793027846  0.4062889738694651  0.6832168300626549
  0.7129744730434382  0.0676599561267395  0.6723832803035137
  0.8816865777356853  0.3524911174272489  0.4335087161913336
  0.5534844831011370  0.0216895771856258  0.4418916029831479
  0.8898107632364116  0.4753919136355478  0.2102782565346288
  0.2380042298409606  0.8684227231976109  0.6252752002963007
  0.0752203791951231  0.8254389066878716  0.4000342685066940
  0.2397805864556162  0.9919990606770668  0.3891411530605637
  0.4286596257618456  0.7911752013663786  0.1553371964056325
  0.0702882275079872  0.9565681489313249  0.1514449194509169
  0.2344272184246137  0.6028513299115872  0.1562103556435588
  0.4006876709701714  0.8942297108717412  0.9074987085740958
  0.0935590687958836  0.5831645709226407  0.9021898259385921
  0.2339099979392003  0.7444370965090741  0.8679791720599681
  0.3950633694234824  0.5167145946224778  0.6101286717150671
  0.0903282032851251  0.7037902306359953  0.6325519701516953
  0.4037868629436332  0.6550887111339421  0.3549365369069477
  0.2191650923429478  0.6909873806745424  0.4350924560853002
  0.0612410271838257  0.6465526972470101  0.2092779343569120
  0.2166666301391018  0.8205977487246159  0.2107737524249913
  0.3657976314773705  0.6166835050083748  0.9078459025276686
  0.0417916436613979  0.7688454485209562  0.8865445929487095
  0.2110951924701254  0.9355694973052877  0.8882616886952164
  0.3668410080834121  0.7467934620274548  0.6823164863323044
  0.0398686213235067  0.9067327206691402  0.6838450529922468
  0.2119414597791760  0.5678042157325294  0.6709169566656428
  0.3823356711371346  0.8521816887023235  0.4319849817935335
  0.0483252853230951  0.5263874459032536  0.4406903778328797
  0.3914026538561828  0.9746668566670067  0.2089090163515266
  0.7374300859120666  0.8678637193291365  0.6281225252212295
  0.5753959224611478  0.8222634254170700  0.4022387490704276
  0.7418842720127330  0.9898619394421360  0.3928872231908471
  0.9254611788185230  0.7926253260068563  0.1580149158087139
  0.5648861061452664  0.9634296622579086  0.1618458918640258
  0.7347921443032703  0.6046684964601567  0.1574734444433048
  0.8996982872825470  0.8938616069285743  0.9095871561209066
  0.5927318134835602  0.5831743134623579  0.9033419341065780
  0.7335987047648729  0.7439682998975172  0.8680124793683959
  0.8947145669264103  0.5154996941781889  0.6103212961574513
  0.5895995152975715  0.7027320763704736  0.6339141221946178
  0.9042641077771307  0.6554580638279077  0.3568795323803187
  0.7193472640154823  0.6907219234488977  0.4362012451190793
  0.5614652552978967  0.6448635793658539  0.2098956389146807
  0.7123729878876617  0.8231342938215036  0.2115693072792695
  0.8655706300153767  0.6172646158189465  0.9091693696500158
  0.5426621852474156  0.7703110944662441  0.8880464238399952
  0.7089622094412107  0.9345460221526452  0.8915294574331583
  0.8669166579575105  0.7462443550737561  0.6829150113585314
  0.5396539777416578  0.9061681529654280  0.6835954394952282
  0.7118078665477157  0.5677885006085646  0.6717251603920715
  0.8818113108146193  0.8521543307697073  0.4341034992004111
  0.5484731365791120  0.5257740693303603  0.4400553347388652
  0.8912987009517153  0.9751416804746782  0.2105911842258692
  0.3892949421159457  0.1698623605400371  0.3557318995487364
 
  0.00000000E+00  0.00000000E+00  0.00000000E+00
  0.00000000E+00  0.00000000E+00  0.00000000E+00
  0.00000000E+00  0.00000000E+00  0.00000000E+00
  0.00000000E+00  0.00000000E+00  0.00000000E+00
  0.00000000E+00  0.00000000E+00  0.00000000E+00
  0.00000000E+00  0.00000000E+00  0.00000000E+00
  0.00000000E+00  0.00000000E+00  0.00000000E+00
  0.00000000E+00  0.00000000E+00  0.00000000E+00
  0.00000000E+00  0.00000000E+00  0.00000000E+00
  0.00000000E+00  0.00000000E+00  0.00000000E+00
  0.00000000E+00  0.00000000E+00  0.00000000E+00
  0.00000000E+00  0.00000000E+00  0.00000000E+00
  0.00000000E+00  0.00000000E+00  0.00000000E+00
  0.00000000E+00  0.00000000E+00  0.00000000E+00
  0.00000000E+00  0.00000000E+00  0.00000000E+00
  0.00000000E+00  0.00000000E+00  0.00000000E+00
  0.00000000E+00  0.00000000E+00  0.00000000E+00
  0.00000000E+00  0.00000000E+00  0.00000000E+00
  0.00000000E+00  0.00000000E+00  0.00000000E+00
  0.00000000E+00  0.00000000E+00  0.00000000E+00
  0.00000000E+00  0.00000000E+00  0.00000000E+00
  0.00000000E+00  0.00000000E+00  0.00000000E+00
  0.00000000E+00  0.00000000E+00  0.00000000E+00
  0.00000000E+00  0.00000000E+00  0.00000000E+00
  0.00000000E+00  0.00000000E+00  0.00000000E+00
  0.00000000E+00  0.00000000E+00  0.00000000E+00
  0.00000000E+00  0.00000000E+00  0.00000000E+00
  0.00000000E+00  0.00000000E+00  0.00000000E+00
  0.00000000E+00  0.00000000E+00  0.00000000E+00
  0.00000000E+00  0.00000000E+00  0.00000000E+00
  0.00000000E+00  0.00000000E+00  0.00000000E+00
  0.00000000E+00  0.00000000E+00  0.00000000E+00
  0.00000000E+00  0.00000000E+00  0.00000000E+00
  0.00000000E+00  0.00000000E+00  0.00000000E+00
  0.00000000E+00  0.00000000E+00  0.00000000E+00
  0.00000000E+00  0.00000000E+00  0.00000000E+00
  0.00000000E+00  0.00000000E+00  0.00000000E+00
  0.00000000E+00  0.00000000E+00  0.00000000E+00
  0.00000000E+00  0.00000000E+00  0.00000000E+00
  0.00000000E+00  0.00000000E+00  0.00000000E+00
  0.00000000E+00  0.00000000E+00  0.00000000E+00
  0.00000000E+00  0.00000000E+00  0.00000000E+00
  0.00000000E+00  0.00000000E+00  0.00000000E+00
  0.00000000E+00  0.00000000E+00  0.00000000E+00
  0.00000000E+00  0.00000000E+00  0.00000000E+00
  0.00000000E+00  0.00000000E+00  0.00000000E+00
  0.00000000E+00  0.00000000E+00  0.00000000E+00
  0.00000000E+00  0.00000000E+00  0.00000000E+00
  0.00000000E+00  0.00000000E+00  0.00000000E+00
  0.00000000E+00  0.00000000E+00  0.00000000E+00
  0.00000000E+00  0.00000000E+00  0.00000000E+00
  0.00000000E+00  0.00000000E+00  0.00000000E+00
  0.00000000E+00  0.00000000E+00  0.00000000E+00
  0.00000000E+00  0.00000000E+00  0.00000000E+00
  0.00000000E+00  0.00000000E+00  0.00000000E+00
  0.00000000E+00  0.00000000E+00  0.00000000E+00
  0.00000000E+00  0.00000000E+00  0.00000000E+00
  0.00000000E+00  0.00000000E+00  0.00000000E+00
  0.00000000E+00  0.00000000E+00  0.00000000E+00
  0.00000000E+00  0.00000000E+00  0.00000000E+00
  0.00000000E+00  0.00000000E+00  0.00000000E+00
  0.00000000E+00  0.00000000E+00  0.00000000E+00
  0.00000000E+00  0.00000000E+00  0.00000000E+00
  0.00000000E+00  0.00000000E+00  0.00000000E+00
  0.00000000E+00  0.00000000E+00  0.00000000E+00
  0.00000000E+00  0.00000000E+00  0.00000000E+00
  0.00000000E+00  0.00000000E+00  0.00000000E+00
  0.00000000E+00  0.00000000E+00  0.00000000E+00
  0.00000000E+00  0.00000000E+00  0.00000000E+00
  0.00000000E+00  0.00000000E+00  0.00000000E+00
  0.00000000E+00  0.00000000E+00  0.00000000E+00
  0.00000000E+00  0.00000000E+00  0.00000000E+00
  0.00000000E+00  0.00000000E+00  0.00000000E+00
  0.00000000E+00  0.00000000E+00  0.00000000E+00
  0.00000000E+00  0.00000000E+00  0.00000000E+00
  0.00000000E+00  0.00000000E+00  0.00000000E+00
  0.00000000E+00  0.00000000E+00  0.00000000E+00
  0.00000000E+00  0.00000000E+00  0.00000000E+00
  0.00000000E+00  0.00000000E+00  0.00000000E+00
  0.00000000E+00  0.00000000E+00  0.00000000E+00
  0.00000000E+00  0.00000000E+00  0.00000000E+00
  0.00000000E+00  0.00000000E+00  0.00000000E+00
  0.00000000E+00  0.00000000E+00  0.00000000E+00
  0.00000000E+00  0.00000000E+00  0.00000000E+00
  0.00000000E+00  0.00000000E+00  0.00000000E+00
  0.00000000E+00  0.00000000E+00  0.00000000E+00
  0.00000000E+00  0.00000000E+00  0.00000000E+00
  0.00000000E+00  0.00000000E+00  0.00000000E+00
  0.00000000E+00  0.00000000E+00  0.00000000E+00
  0.00000000E+00  0.00000000E+00  0.00000000E+00
  0.00000000E+00  0.00000000E+00  0.00000000E+00
  0.00000000E+00  0.00000000E+00  0.00000000E+00
  0.00000000E+00  0.00000000E+00  0.00000000E+00
  0.00000000E+00  0.00000000E+00  0.00000000E+00
  0.00000000E+00  0.00000000E+00  0.00000000E+00
  0.00000000E+00  0.00000000E+00  0.00000000E+00
  0.00000000E+00  0.00000000E+00  0.00000000E+00
  0.00000000E+00  0.00000000E+00  0.00000000E+00
  0.00000000E+00  0.00000000E+00  0.00000000E+00
  0.00000000E+00  0.00000000E+00  0.00000000E+00
  0.00000000E+00  0.00000000E+00  0.00000000E+00
  0.00000000E+00  0.00000000E+00  0.00000000E+00
  0.00000000E+00  0.00000000E+00  0.00000000E+00
  0.00000000E+00  0.00000000E+00  0.00000000E+00
  0.00000000E+00  0.00000000E+00  0.00000000E+00
  0.00000000E+00  0.00000000E+00  0.00000000E+00
  0.00000000E+00  0.00000000E+00  0.00000000E+00
  0.00000000E+00  0.00000000E+00  0.00000000E+00
  0.00000000E+00  0.00000000E+00  0.00000000E+00
  0.00000000E+00  0.00000000E+00  0.00000000E+00
  0.00000000E+00  0.00000000E+00  0.00000000E+00
  0.00000000E+00  0.00000000E+00  0.00000000E+00
  0.00000000E+00  0.00000000E+00  0.00000000E+00
  0.00000000E+00  0.00000000E+00  0.00000000E+00
  0.00000000E+00  0.00000000E+00  0.00000000E+00
  0.00000000E+00  0.00000000E+00  0.00000000E+00
  0.00000000E+00  0.00000000E+00  0.00000000E+00
  0.00000000E+00  0.00000000E+00  0.00000000E+00
  0.00000000E+00  0.00000000E+00  0.00000000E+00
  0.00000000E+00  0.00000000E+00  0.00000000E+00
  0.00000000E+00  0.00000000E+00  0.00000000E+00
  0.00000000E+00  0.00000000E+00  0.00000000E+00
  0.00000000E+00  0.00000000E+00  0.00000000E+00
  0.00000000E+00  0.00000000E+00  0.00000000E+00
  0.00000000E+00  0.00000000E+00  0.00000000E+00
  0.00000000E+00  0.00000000E+00  0.00000000E+00
  0.00000000E+00  0.00000000E+00  0.00000000E+00
  0.00000000E+00  0.00000000E+00  0.00000000E+00
  0.00000000E+00  0.00000000E+00  0.00000000E+00
  0.00000000E+00  0.00000000E+00  0.00000000E+00
  0.00000000E+00  0.00000000E+00  0.00000000E+00
  0.00000000E+00  0.00000000E+00  0.00000000E+00
  0.00000000E+00  0.00000000E+00  0.00000000E+00
  0.00000000E+00  0.00000000E+00  0.00000000E+00
  0.00000000E+00  0.00000000E+00  0.00000000E+00
  0.00000000E+00  0.00000000E+00  0.00000000E+00
  0.00000000E+00  0.00000000E+00  0.00000000E+00
  0.00000000E+00  0.00000000E+00  0.00000000E+00
  0.00000000E+00  0.00000000E+00  0.00000000E+00
  0.00000000E+00  0.00000000E+00  0.00000000E+00
  0.00000000E+00  0.00000000E+00  0.00000000E+00
  0.00000000E+00  0.00000000E+00  0.00000000E+00
  0.00000000E+00  0.00000000E+00  0.00000000E+00
  0.00000000E+00  0.00000000E+00  0.00000000E+00
  0.00000000E+00  0.00000000E+00  0.00000000E+00
  0.00000000E+00  0.00000000E+00  0.00000000E+00
  0.00000000E+00  0.00000000E+00  0.00000000E+00
  0.00000000E+00  0.00000000E+00  0.00000000E+00
  0.00000000E+00  0.00000000E+00  0.00000000E+00
  0.00000000E+00  0.00000000E+00  0.00000000E+00
  0.00000000E+00  0.00000000E+00  0.00000000E+00
  0.00000000E+00  0.00000000E+00  0.00000000E+00
  0.00000000E+00  0.00000000E+00  0.00000000E+00
  0.00000000E+00  0.00000000E+00  0.00000000E+00
  0.00000000E+00  0.00000000E+00  0.00000000E+00
  0.00000000E+00  0.00000000E+00  0.00000000E+00
  0.00000000E+00  0.00000000E+00  0.00000000E+00
  0.00000000E+00  0.00000000E+00  0.00000000E+00
  0.00000000E+00  0.00000000E+00  0.00000000E+00
  0.00000000E+00  0.00000000E+00  0.00000000E+00
  0.00000000E+00  0.00000000E+00  0.00000000E+00
  0.00000000E+00  0.00000000E+00  0.00000000E+00
  0.00000000E+00  0.00000000E+00  0.00000000E+00
  0.00000000E+00  0.00000000E+00  0.00000000E+00
  0.00000000E+00  0.00000000E+00  0.00000000E+00
  0.00000000E+00  0.00000000E+00  0.00000000E+00
  0.00000000E+00  0.00000000E+00  0.00000000E+00
  0.00000000E+00  0.00000000E+00  0.00000000E+00
  0.00000000E+00  0.00000000E+00  0.00000000E+00
  0.00000000E+00  0.00000000E+00  0.00000000E+00
  0.00000000E+00  0.00000000E+00  0.00000000E+00
  0.00000000E+00  0.00000000E+00  0.00000000E+00
  0.00000000E+00  0.00000000E+00  0.00000000E+00
  0.00000000E+00  0.00000000E+00  0.00000000E+00
  0.00000000E+00  0.00000000E+00  0.00000000E+00
  0.00000000E+00  0.00000000E+00  0.00000000E+00
  0.00000000E+00  0.00000000E+00  0.00000000E+00
  0.00000000E+00  0.00000000E+00  0.00000000E+00
  0.00000000E+00  0.00000000E+00  0.00000000E+00
  0.00000000E+00  0.00000000E+00  0.00000000E+00
  0.00000000E+00  0.00000000E+00  0.00000000E+00
  0.00000000E+00  0.00000000E+00  0.00000000E+00
  0.00000000E+00  0.00000000E+00  0.00000000E+00
  0.00000000E+00  0.00000000E+00  0.00000000E+00
  0.00000000E+00  0.00000000E+00  0.00000000E+00
  0.00000000E+00  0.00000000E+00  0.00000000E+00
  0.00000000E+00  0.00000000E+00  0.00000000E+00
  0.00000000E+00  0.00000000E+00  0.00000000E+00
  0.00000000E+00  0.00000000E+00  0.00000000E+00
  0.00000000E+00  0.00000000E+00  0.00000000E+00
  0.00000000E+00  0.00000000E+00  0.00000000E+00
  0.00000000E+00  0.00000000E+00  0.00000000E+00
