supercell of supercell of icsd_608626.c 
   1.00600000000000     
    18.8433725412000008    0.0042597715995000    0.0111656436851000
    -6.2786657403800001   10.8752831735999997   -0.0012954496991100
     0.0059525623905900    0.0022414031449000   10.0498800689000003
   Al   Gd   N    O 
    92     4    95     1
Direct
  0.1118403357929125  0.0833523620466323  0.2477667167502133
  0.0511691673303147  0.1613822087896537  0.9983571518753038
  0.4451757690112998  0.3346208733436455  0.7500374395087732
  0.3907539574898991  0.4174116860082222  0.5001049525650885
  0.2793712599293912  0.0858605331537703  0.2580659897044200
  0.2250656687184787  0.1689508420351942  0.9977219480670954
  0.1074350377720350  0.3304645839530735  0.7460149836802898
  0.0529509240134232  0.4207261502783055  0.5014749700118060
  0.4442979905309272  0.0832429485796737  0.2486913850423065
  0.3920612761523188  0.1721350922606888  0.9978194999686920
  0.2794125797920231  0.3315465000368789  0.7443378037068911
  0.2265808587116496  0.4200860752543250  0.5003944680510912
  0.1114059612737748  0.0832008142161200  0.7498551079010838
  0.0524788254548767  0.1582552249803229  0.5016328840198128
  0.4447877816812138  0.3336584766136852  0.2488433268632164
  0.3896700759274196  0.4147480597167075  0.9990088475839656
  0.2801110445965449  0.0879677362609712  0.7444398759574327
  0.2218472997222776  0.1657059432543164  0.5018763566167337
  0.1082842422931378  0.3309708847384769  0.2530012323550324
  0.0533827746236639  0.4167090058500023  0.9989620237875556
  0.4441602888323288  0.0825453981802653  0.7496205489906913
  0.3908808192330113  0.1684947898329341  0.5001008724322347
  0.2788628040503056  0.3317939453992977  0.2590379160333285
  0.6114620990586985  0.0836935832066530  0.2480155511404334
  0.5510542410469554  0.1616947610419643  0.9980827889275901
  0.9445536845273423  0.3340896555480981  0.7504183048950495
  0.8894612301462672  0.4172268519162188  0.4998073091315263
  0.7786142384972123  0.0855270698847619  0.2581017991475179
  0.7248487407121544  0.1687150088342335  0.9977673147781303
  0.6067660561976638  0.3299404127783774  0.7430223162851419
  0.5551238609499904  0.4178464297387237  0.4996043228092617
  0.9433472225990371  0.0824515780281700  0.2484499315386302
  0.8916497487551069  0.1718096742752238  0.9979084064924137
  0.7791244440327247  0.3316014799103186  0.7441586304814720
  0.7221001469562083  0.4167031283086757  0.4993584987099524
  0.6110350302376730  0.0832591228086343  0.7493025252404024
  0.5546067956027585  0.1643171632584384  0.4997839644775439
  0.9439157581573738  0.3331022037242306  0.2486905473224965
  0.8894857623298833  0.4146765899285469  0.9991501387217525
  0.7794188967454119  0.0875816560029250  0.7443959429660438
  0.7212628998031363  0.1659783948736617  0.5010517790009601
  0.6093201367591377  0.3317840104681196  0.2586380061099263
  0.5532822651259366  0.4163246225342050  0.9986772099124863
  0.9436201764219661  0.0822911337606413  0.7500895748055001
  0.8898798028503734  0.1678405866490635  0.5007375521976059
  0.7784650732778005  0.3323857135674260  0.2582529265612621
  0.1118338982817377  0.5845570010826577  0.2477406602687893
  0.0509288949124738  0.6617682256709188  0.9981715259828121
  0.4451114855391722  0.8348782765956884  0.7500445709304699
  0.3901710672806260  0.9174485932492402  0.4997476504202396
  0.2792349920046036  0.5868783609578543  0.2588375746225111
  0.2250613404946691  0.6688948182521841  0.9977183443191464
  0.1069101378847890  0.8300790615139917  0.7431967515552742
  0.0548572708079504  0.9171119523202194  0.4997845087589141
  0.4441819798615114  0.5831185701436468  0.2487167371704118
  0.3921166410339154  0.6722448599863000  0.9976000604984918
  0.2794949581412354  0.8321848219206487  0.7443908372556294
  0.2224105775896419  0.9169342147626764  0.4996190371239280
  0.1114051472406317  0.5838200047664088  0.7498416574423317
  0.0544445885762102  0.6648134648055333  0.4999298978690589
  0.4447395401225336  0.8337421907638713  0.2488472842242615
  0.3895994554141495  0.9148094608321387  0.9992267826301386
  0.2800086873675767  0.5884440281379781  0.7443828793318517
  0.2218519031175248  0.6670922543329709  0.5018608243303859
  0.1094872597832293  0.8319042958831915  0.2585863310495427
  0.0531266138767990  0.9159765717018473  0.9988080899460030
  0.4441695314503136  0.5825205966130298  0.7498097483547568
  0.3914701772654041  0.6693665343202753  0.5004619305695641
  0.2789926776827869  0.8330218786475783  0.2582985210645603
  0.6115576443369974  0.5837286153470131  0.2480500882190242
  0.5510698946627670  0.6616209242372122  0.9981417650887821
  0.9449086830125282  0.8344938469862129  0.7501620721508360
  0.8894290181551554  0.9162518685489829  0.4998583391180986
  0.7789888035589598  0.5857930427560731  0.2580754541147527
  0.7249365410142943  0.6688101332052412  0.9977093269100905
  0.6066359270807382  0.8298414876466538  0.7430681092316362
  0.5550420034891062  0.9179445267311053  0.4996458260640395
  0.9440306531846758  0.5831307322102006  0.2486710724467471
  0.8917408428161906  0.6719135223610593  0.9978136538158964
  0.7791093693864823  0.8316712696123929  0.7441899842608777
  0.7219364492930751  0.9164892182675572  0.4994535829531515
  0.6111412068679130  0.5833003966378243  0.7492896431466889
  0.5546782283126390  0.6642925279794127  0.4998292957127930
  0.9445940820468621  0.8334431184188844  0.2489390382521393
  0.8894536693091766  0.9145438804039827  0.9991943533937615
  0.7797770319481430  0.5878950300825423  0.7441530653356097
  0.7214049784213756  0.6659702669156360  0.5009799725076931
  0.6091953595204629  0.8316499154886969  0.2587595939831573
  0.5532022083217214  0.9162543904779383  0.9986808937880625
  0.9439578973008622  0.5824162629385228  0.7497697211878673
  0.8905016275874758  0.6683048626912580  0.5000681514993701
  0.7784614459463626  0.8322686626059479  0.2582982364670627
  0.2208094589472296  0.4163809284918614  0.0020696455988016
  0.7194827190162982  0.4152291870511888  0.9983948412891692
  0.2197034709583008  0.9155409149236888  0.9985104211850810
  0.7192739455678350  0.9150583906699623  0.9986245846799235
  0.1115724436211991  0.0847216718683512  0.4381905903050196
  0.0556148525274125  0.1672215287264791  0.1914711278820320
  0.4458432691388907  0.3370931256723324  0.9401463840369786
  0.3899907993737699  0.4173823489947992  0.6881207011689128
  0.2791658286193268  0.0860838902880303  0.4468173240421081
  0.2232916642903291  0.1675557252595112  0.1908329959495987
  0.0941959765817515  0.3198738367495082  0.9306452430204075
  0.0554659610118478  0.4175944081340290  0.6871918599018798
  0.4442121161942794  0.0829816398492866  0.4385798807761319
  0.3888304986794466  0.1668701758878655  0.1899647566762397
  0.2846464027577298  0.3264331680808041  0.9299014679583664
  0.2210919719753832  0.4161066190905132  0.6924866647986789
  0.1121956291535611  0.0844687785362979  0.9416845392540978
  0.0549539863438042  0.1650658488776244  0.6876574530516777
  0.4448486996838241  0.3339014322110998  0.4384157092884564
  0.3878711569932136  0.4160275295495808  0.1908842135578297
  0.2865584343425098  0.1037415795775871  0.9300225667071516
  0.2208714609511020  0.1656197277234241  0.6883329909872771
  0.0561945241924704  0.4164167055958501  0.1918766102303664
  0.4411520252958070  0.0790491093737131  0.9405439886092140
  0.3912839077471872  0.1688485702482367  0.6887548360531497
  0.2785000999810947  0.3320283931251353  0.4473001554142542
  0.2207168983131567  0.4156043363429021  0.2263236194920921
  0.6112939829895794  0.0835488717565198  0.4380204939873877
  0.5557957762820394  0.1673312466864800  0.1897806288028150
  0.9462727680250111  0.3370796012736292  0.9403536588943666
  0.8903265937552334  0.4173438051935250  0.6879269194662569
  0.7790897392161042  0.0859493551291450  0.4468220955383586
  0.7232701415480207  0.1673909764608013  0.1906450092729912
  0.5927844296543086  0.3188717997430146  0.9283125595881003
  0.5549436253825561  0.4185253680760326  0.6877967034740777
  0.9445569175857074  0.0838493251559527  0.4387640021681776
  0.8886698521111285  0.1667116504492512  0.1901877883706007
  0.7850587331690448  0.3259208640178031  0.9299202299808016
  0.7217746663895852  0.4165528302002954  0.6950011661183524
  0.6122524626399155  0.0843110153610667  0.9413475467249413
  0.5543984377627851  0.1633529060341843  0.6883129059926105
  0.9452233456003469  0.3335385610006298  0.4386333701208400
  0.8883859034012289  0.4161286812746781  0.1909819537417050
  0.7865066636749276  0.1032861868782291  0.9300108755791143
  0.7208537701608861  0.1656230863778632  0.6879237430248892
  0.6091514213300755  0.3316515179413386  0.4471659225703348
  0.5562978981350781  0.4166323681238282  0.1902271555059230
  0.9416406012100254  0.0795878332468476  0.9408211414377234
  0.8911712044352811  0.1687030089745534  0.6890248795055882
  0.7786786677803548  0.3322752058740335  0.4466247408949329
  0.7222009577805295  0.4167192020998485  0.2203546061886641
  0.1115896089675061  0.5828834052113123  0.4381658065090193
  0.0558209189365684  0.6672475802698443  0.1900546670811494
  0.4457830552922317  0.8369745320819320  0.9401536726280924
  0.3901030964576151  0.9174510868328127  0.6879749769639858
  0.2790174394618603  0.5862327786022163  0.4474063395247896
  0.2232971660639507  0.6673060629059719  0.1908315910740868
  0.0929078504470837  0.8189227927290190  0.9284056194456696
  0.0550013547546371  0.9188441106671661  0.6878309434279686
  0.4440347577816226  0.5828301690308493  0.4387260039208627
  0.3883220982343261  0.6662428405473975  0.1900136160363957
  0.2848874372508092  0.8258005473767724  0.9300859317366701
  0.2217303847188958  0.9166153943312736  0.6951699810226870
  0.1122030999368562  0.5841145065816633  0.9416617917524945
  0.0544832751486766  0.6631241661867975  0.6883117074831233
  0.4448106706246975  0.8339560556067411  0.4384115287238473
  0.3883672881719136  0.9161964872736945  0.1908368306570054
  0.2863109026573909  0.6027320800773026  0.9298214787548602
  0.2208745576065425  0.6657490049309729  0.6883178908310867
  0.1093346061034026  0.8318324480527650  0.4472000203499960
  0.0563954554982686  0.9167166042973705  0.1905102857006398
  0.4411230336530707  0.5790181425360714  0.9406759188486831
  0.3911506917018244  0.6686912588768195  0.6889019750669689
  0.2786731934280482  0.8324208392497354  0.4467068580144584
  0.2222260749667413  0.9167432533448476  0.2204404453194826
  0.6113160152864978  0.5835890994598856  0.4380563325606914
  0.5556390718615631  0.6671635182738527  0.1898959361801147
  0.9459050540678575  0.8370826596763479  0.9402243891534354
  0.8903140035797250  0.9178534767267053  0.6879762902406270
  0.7791916154275356  0.5860372814750576  0.4467829975675315
  0.7233295428549340  0.6674594392951576  0.1906234696036790
  0.5926545267112076  0.8187151234326748  0.9283159436346864
  0.5548717497512641  0.9184353165179076  0.6878239113290334
  0.9443422929618919  0.5828866921554976  0.4386799798684820
  0.8888460721986817  0.6668551356504864  0.1900463341658067
  0.7849954083641251  0.8261930352698243  0.9299544437698231
  0.7216214501506073  0.9164687831524745  0.6950299514564833
  0.6122929912117243  0.5844206416599462  0.9413430978224824
  0.5543116622084909  0.6632336085940622  0.6883245827104716
  0.9449788107698680  0.8342074022529502  0.4385890413864360
  0.8883645091971744  0.9162439948555345  0.1910090621719789
  0.7864851277993523  0.6034040136411676  0.9298527032414015
  0.7209448879633484  0.6657618321351464  0.6878728235809177
  0.6090172274774730  0.8315760676300670  0.4472608300122261
  0.5562569524440661  0.9164464643473877  0.1902289983914187
  0.9412251604829081  0.5790497362029399  0.9406393908796105
  0.8913671176284907  0.6688753451018030  0.6887240759807156
  0.7786480719947519  0.8325135385158404  0.4466723995351671
  0.7220857664886395  0.9165664100252613  0.2205508611764557
  0.1079718934334650  0.3308507634148228  0.4456010217150634
 
  0.00000000E+00  0.00000000E+00  0.00000000E+00
  0.00000000E+00  0.00000000E+00  0.00000000E+00
  0.00000000E+00  0.00000000E+00  0.00000000E+00
  0.00000000E+00  0.00000000E+00  0.00000000E+00
  0.00000000E+00  0.00000000E+00  0.00000000E+00
  0.00000000E+00  0.00000000E+00  0.00000000E+00
  0.00000000E+00  0.00000000E+00  0.00000000E+00
  0.00000000E+00  0.00000000E+00  0.00000000E+00
  0.00000000E+00  0.00000000E+00  0.00000000E+00
  0.00000000E+00  0.00000000E+00  0.00000000E+00
  0.00000000E+00  0.00000000E+00  0.00000000E+00
  0.00000000E+00  0.00000000E+00  0.00000000E+00
  0.00000000E+00  0.00000000E+00  0.00000000E+00
  0.00000000E+00  0.00000000E+00  0.00000000E+00
  0.00000000E+00  0.00000000E+00  0.00000000E+00
  0.00000000E+00  0.00000000E+00  0.00000000E+00
  0.00000000E+00  0.00000000E+00  0.00000000E+00
  0.00000000E+00  0.00000000E+00  0.00000000E+00
  0.00000000E+00  0.00000000E+00  0.00000000E+00
  0.00000000E+00  0.00000000E+00  0.00000000E+00
  0.00000000E+00  0.00000000E+00  0.00000000E+00
  0.00000000E+00  0.00000000E+00  0.00000000E+00
  0.00000000E+00  0.00000000E+00  0.00000000E+00
  0.00000000E+00  0.00000000E+00  0.00000000E+00
  0.00000000E+00  0.00000000E+00  0.00000000E+00
  0.00000000E+00  0.00000000E+00  0.00000000E+00
  0.00000000E+00  0.00000000E+00  0.00000000E+00
  0.00000000E+00  0.00000000E+00  0.00000000E+00
  0.00000000E+00  0.00000000E+00  0.00000000E+00
  0.00000000E+00  0.00000000E+00  0.00000000E+00
  0.00000000E+00  0.00000000E+00  0.00000000E+00
  0.00000000E+00  0.00000000E+00  0.00000000E+00
  0.00000000E+00  0.00000000E+00  0.00000000E+00
  0.00000000E+00  0.00000000E+00  0.00000000E+00
  0.00000000E+00  0.00000000E+00  0.00000000E+00
  0.00000000E+00  0.00000000E+00  0.00000000E+00
  0.00000000E+00  0.00000000E+00  0.00000000E+00
  0.00000000E+00  0.00000000E+00  0.00000000E+00
  0.00000000E+00  0.00000000E+00  0.00000000E+00
  0.00000000E+00  0.00000000E+00  0.00000000E+00
  0.00000000E+00  0.00000000E+00  0.00000000E+00
  0.00000000E+00  0.00000000E+00  0.00000000E+00
  0.00000000E+00  0.00000000E+00  0.00000000E+00
  0.00000000E+00  0.00000000E+00  0.00000000E+00
  0.00000000E+00  0.00000000E+00  0.00000000E+00
  0.00000000E+00  0.00000000E+00  0.00000000E+00
  0.00000000E+00  0.00000000E+00  0.00000000E+00
  0.00000000E+00  0.00000000E+00  0.00000000E+00
  0.00000000E+00  0.00000000E+00  0.00000000E+00
  0.00000000E+00  0.00000000E+00  0.00000000E+00
  0.00000000E+00  0.00000000E+00  0.00000000E+00
  0.00000000E+00  0.00000000E+00  0.00000000E+00
  0.00000000E+00  0.00000000E+00  0.00000000E+00
  0.00000000E+00  0.00000000E+00  0.00000000E+00
  0.00000000E+00  0.00000000E+00  0.00000000E+00
  0.00000000E+00  0.00000000E+00  0.00000000E+00
  0.00000000E+00  0.00000000E+00  0.00000000E+00
  0.00000000E+00  0.00000000E+00  0.00000000E+00
  0.00000000E+00  0.00000000E+00  0.00000000E+00
  0.00000000E+00  0.00000000E+00  0.00000000E+00
  0.00000000E+00  0.00000000E+00  0.00000000E+00
  0.00000000E+00  0.00000000E+00  0.00000000E+00
  0.00000000E+00  0.00000000E+00  0.00000000E+00
  0.00000000E+00  0.00000000E+00  0.00000000E+00
  0.00000000E+00  0.00000000E+00  0.00000000E+00
  0.00000000E+00  0.00000000E+00  0.00000000E+00
  0.00000000E+00  0.00000000E+00  0.00000000E+00
  0.00000000E+00  0.00000000E+00  0.00000000E+00
  0.00000000E+00  0.00000000E+00  0.00000000E+00
  0.00000000E+00  0.00000000E+00  0.00000000E+00
  0.00000000E+00  0.00000000E+00  0.00000000E+00
  0.00000000E+00  0.00000000E+00  0.00000000E+00
  0.00000000E+00  0.00000000E+00  0.00000000E+00
  0.00000000E+00  0.00000000E+00  0.00000000E+00
  0.00000000E+00  0.00000000E+00  0.00000000E+00
  0.00000000E+00  0.00000000E+00  0.00000000E+00
  0.00000000E+00  0.00000000E+00  0.00000000E+00
  0.00000000E+00  0.00000000E+00  0.00000000E+00
  0.00000000E+00  0.00000000E+00  0.00000000E+00
  0.00000000E+00  0.00000000E+00  0.00000000E+00
  0.00000000E+00  0.00000000E+00  0.00000000E+00
  0.00000000E+00  0.00000000E+00  0.00000000E+00
  0.00000000E+00  0.00000000E+00  0.00000000E+00
  0.00000000E+00  0.00000000E+00  0.00000000E+00
  0.00000000E+00  0.00000000E+00  0.00000000E+00
  0.00000000E+00  0.00000000E+00  0.00000000E+00
  0.00000000E+00  0.00000000E+00  0.00000000E+00
  0.00000000E+00  0.00000000E+00  0.00000000E+00
  0.00000000E+00  0.00000000E+00  0.00000000E+00
  0.00000000E+00  0.00000000E+00  0.00000000E+00
  0.00000000E+00  0.00000000E+00  0.00000000E+00
  0.00000000E+00  0.00000000E+00  0.00000000E+00
  0.00000000E+00  0.00000000E+00  0.00000000E+00
  0.00000000E+00  0.00000000E+00  0.00000000E+00
  0.00000000E+00  0.00000000E+00  0.00000000E+00
  0.00000000E+00  0.00000000E+00  0.00000000E+00
  0.00000000E+00  0.00000000E+00  0.00000000E+00
  0.00000000E+00  0.00000000E+00  0.00000000E+00
  0.00000000E+00  0.00000000E+00  0.00000000E+00
  0.00000000E+00  0.00000000E+00  0.00000000E+00
  0.00000000E+00  0.00000000E+00  0.00000000E+00
  0.00000000E+00  0.00000000E+00  0.00000000E+00
  0.00000000E+00  0.00000000E+00  0.00000000E+00
  0.00000000E+00  0.00000000E+00  0.00000000E+00
  0.00000000E+00  0.00000000E+00  0.00000000E+00
  0.00000000E+00  0.00000000E+00  0.00000000E+00
  0.00000000E+00  0.00000000E+00  0.00000000E+00
  0.00000000E+00  0.00000000E+00  0.00000000E+00
  0.00000000E+00  0.00000000E+00  0.00000000E+00
  0.00000000E+00  0.00000000E+00  0.00000000E+00
  0.00000000E+00  0.00000000E+00  0.00000000E+00
  0.00000000E+00  0.00000000E+00  0.00000000E+00
  0.00000000E+00  0.00000000E+00  0.00000000E+00
  0.00000000E+00  0.00000000E+00  0.00000000E+00
  0.00000000E+00  0.00000000E+00  0.00000000E+00
  0.00000000E+00  0.00000000E+00  0.00000000E+00
  0.00000000E+00  0.00000000E+00  0.00000000E+00
  0.00000000E+00  0.00000000E+00  0.00000000E+00
  0.00000000E+00  0.00000000E+00  0.00000000E+00
  0.00000000E+00  0.00000000E+00  0.00000000E+00
  0.00000000E+00  0.00000000E+00  0.00000000E+00
  0.00000000E+00  0.00000000E+00  0.00000000E+00
  0.00000000E+00  0.00000000E+00  0.00000000E+00
  0.00000000E+00  0.00000000E+00  0.00000000E+00
  0.00000000E+00  0.00000000E+00  0.00000000E+00
  0.00000000E+00  0.00000000E+00  0.00000000E+00
  0.00000000E+00  0.00000000E+00  0.00000000E+00
  0.00000000E+00  0.00000000E+00  0.00000000E+00
  0.00000000E+00  0.00000000E+00  0.00000000E+00
  0.00000000E+00  0.00000000E+00  0.00000000E+00
  0.00000000E+00  0.00000000E+00  0.00000000E+00
  0.00000000E+00  0.00000000E+00  0.00000000E+00
  0.00000000E+00  0.00000000E+00  0.00000000E+00
  0.00000000E+00  0.00000000E+00  0.00000000E+00
  0.00000000E+00  0.00000000E+00  0.00000000E+00
  0.00000000E+00  0.00000000E+00  0.00000000E+00
  0.00000000E+00  0.00000000E+00  0.00000000E+00
  0.00000000E+00  0.00000000E+00  0.00000000E+00
  0.00000000E+00  0.00000000E+00  0.00000000E+00
  0.00000000E+00  0.00000000E+00  0.00000000E+00
  0.00000000E+00  0.00000000E+00  0.00000000E+00
  0.00000000E+00  0.00000000E+00  0.00000000E+00
  0.00000000E+00  0.00000000E+00  0.00000000E+00
  0.00000000E+00  0.00000000E+00  0.00000000E+00
  0.00000000E+00  0.00000000E+00  0.00000000E+00
  0.00000000E+00  0.00000000E+00  0.00000000E+00
  0.00000000E+00  0.00000000E+00  0.00000000E+00
  0.00000000E+00  0.00000000E+00  0.00000000E+00
  0.00000000E+00  0.00000000E+00  0.00000000E+00
  0.00000000E+00  0.00000000E+00  0.00000000E+00
  0.00000000E+00  0.00000000E+00  0.00000000E+00
  0.00000000E+00  0.00000000E+00  0.00000000E+00
  0.00000000E+00  0.00000000E+00  0.00000000E+00
  0.00000000E+00  0.00000000E+00  0.00000000E+00
  0.00000000E+00  0.00000000E+00  0.00000000E+00
  0.00000000E+00  0.00000000E+00  0.00000000E+00
  0.00000000E+00  0.00000000E+00  0.00000000E+00
  0.00000000E+00  0.00000000E+00  0.00000000E+00
  0.00000000E+00  0.00000000E+00  0.00000000E+00
  0.00000000E+00  0.00000000E+00  0.00000000E+00
  0.00000000E+00  0.00000000E+00  0.00000000E+00
  0.00000000E+00  0.00000000E+00  0.00000000E+00
  0.00000000E+00  0.00000000E+00  0.00000000E+00
  0.00000000E+00  0.00000000E+00  0.00000000E+00
  0.00000000E+00  0.00000000E+00  0.00000000E+00
  0.00000000E+00  0.00000000E+00  0.00000000E+00
  0.00000000E+00  0.00000000E+00  0.00000000E+00
  0.00000000E+00  0.00000000E+00  0.00000000E+00
  0.00000000E+00  0.00000000E+00  0.00000000E+00
  0.00000000E+00  0.00000000E+00  0.00000000E+00
  0.00000000E+00  0.00000000E+00  0.00000000E+00
  0.00000000E+00  0.00000000E+00  0.00000000E+00
  0.00000000E+00  0.00000000E+00  0.00000000E+00
  0.00000000E+00  0.00000000E+00  0.00000000E+00
  0.00000000E+00  0.00000000E+00  0.00000000E+00
  0.00000000E+00  0.00000000E+00  0.00000000E+00
  0.00000000E+00  0.00000000E+00  0.00000000E+00
  0.00000000E+00  0.00000000E+00  0.00000000E+00
  0.00000000E+00  0.00000000E+00  0.00000000E+00
  0.00000000E+00  0.00000000E+00  0.00000000E+00
  0.00000000E+00  0.00000000E+00  0.00000000E+00
  0.00000000E+00  0.00000000E+00  0.00000000E+00
  0.00000000E+00  0.00000000E+00  0.00000000E+00
  0.00000000E+00  0.00000000E+00  0.00000000E+00
  0.00000000E+00  0.00000000E+00  0.00000000E+00
  0.00000000E+00  0.00000000E+00  0.00000000E+00
  0.00000000E+00  0.00000000E+00  0.00000000E+00
  0.00000000E+00  0.00000000E+00  0.00000000E+00
  0.00000000E+00  0.00000000E+00  0.00000000E+00
  0.00000000E+00  0.00000000E+00  0.00000000E+00
  0.00000000E+00  0.00000000E+00  0.00000000E+00
  0.00000000E+00  0.00000000E+00  0.00000000E+00
