generated by phonopy                    
   1.00000000000000     
    10.0351470768999995   -0.0000022330999784   -0.0000001056124209
    -5.0175765436399997    8.6906901959899994    0.0000001395531216
    -0.0000001735893656    0.0000001431815548   14.9533752540999991
   Pb   P    O 
    19    12    50
Direct
  0.9969317989867648  0.7693296641076870  0.6223269664037190
  0.0038981647043386  0.2450567971774404  0.3754138402295837
  0.0024954905530450  0.2306733644290802  0.9034212910724690
  0.2227399893513535  0.2212320987664214  0.1067812435534705
  0.2279126422918765  0.2226588399708263  0.6297723113954135
  0.7556587002895157  0.7600632017636713  0.3548996433395928
  0.7405219664685774  0.7418054209263119  0.8772880830446752
  0.7836250162763037  0.9948343643667670  0.1086106345245597
  0.7725169323819685  0.9996308457533942  0.6271021812159958
  0.2382862070729246  0.9884937445758410  0.3687893408006033
  0.2501079995384288  0.9884128025720713  0.8821544617927373
  0.6891589419484063  0.3639845437082911  0.0062761283851529
  0.6645272925277226  0.3415465905677095  0.4985983923036912
  0.3242478952713057  0.6672518711348303  0.0046182356764817
  0.3434528155119025  0.6659166066138482  0.5012444162686975
  0.3249135360641375  0.6695908284994232  0.2459626920974642
  0.3218319302233894  0.6587735750372801  0.7447061832622879
  0.6541231592958781  0.3188502734687404  0.2508207994979941
  0.6750886365440039  0.3244884548940021  0.7484761677728144
  0.6189724245667492  0.6037670700667022  0.1229594742290061
  0.6271776399617792  0.5920382036568270  0.6287431219600208
  0.3627147544465146  0.3979907531407605  0.3750221353170744
  0.3785273193356886  0.3976115467325698  0.8746394254062722
  0.4106343047398013  0.0280286410267081  0.1240851068107958
  0.4030840509790110  0.0288770852900626  0.6268352682515186
  0.5973822451603752  0.9654132157794777  0.3800354248294084
  0.6032195590536205  0.9757481691592815  0.8757085158145159
  0.9714634161072624  0.3819047347119877  0.1242014851758171
  0.9670124601462575  0.3663870587069482  0.6229812269926711
  0.0308421723596553  0.6307459474611505  0.3765413052133226
  0.0349837616816941  0.6284109542443161  0.8720513751407424
  0.4838298610751437  0.6394052399344190  0.1211266024840256
  0.5048489485901584  0.6445262897705604  0.6280367072537700
  0.4691160306857114  0.3268204698367185  0.3756351577211561
  0.4850813763597230  0.3274008166653815  0.8800972518359984
  0.3601072947591675  0.8542495624176638  0.1215144008452285
  0.3523477267067463  0.8544764308426878  0.6274827098855766
  0.6730561924269978  0.1432792379740846  0.3817959618216591
  0.6786894194762425  0.1530801124454229  0.8789364605114471
  0.1480940647384017  0.4991537886554482  0.1224341159028484
  0.1426061366864033  0.4857816843222196  0.6283949001924540
  0.8527832054555375  0.5282664436015878  0.3712292163691799
  0.8554461240577993  0.5338307118871342  0.8748096950424724
  0.6958394675028572  0.6325619124548751  0.0285132729721980
  0.7354398587771485  0.6540791129841068  0.5452553975914469
  0.2546089433224381  0.3458236732853663  0.4596046137318623
  0.2801888868324198  0.3647203499078628  0.9632413443237127
  0.3418879334723997  0.0732429121918869  0.0424004808748535
  0.3292952588156339  0.0683266739726349  0.5462144207837127
  0.6452736559504757  0.9015826706416803  0.4618663074562690
  0.6444766516900131  0.9112999643928248  0.9605642335669700
  0.9167668909560831  0.3162215279207814  0.0269372001071133
  0.9308879369397118  0.2579459239721018  0.5401249398759020
  0.0815709067899348  0.7405736244541217  0.4599226047925313
  0.1023145367656326  0.7360361518299001  0.9554610584791519
  0.2545056435944417  0.3477552455288944  0.2917163621294563
  0.2620337983358425  0.3315797982041033  0.7964894434157586
  0.7380812056110102  0.7068090107717353  0.1944142402134545
  0.7317884178160625  0.6516368118806000  0.7140567629704364
  0.6427703209404712  0.9095215574023001  0.2933460927788119
  0.6554229567798302  0.9174961256677392  0.7936113322283092
  0.3571778132976817  0.0722304390919177  0.2115901417179344
  0.3529467210539394  0.0779758176414873  0.7145912713906526
  0.1016317052463904  0.7384318218771924  0.2933555175635618
  0.0926764707619441  0.7372334844738901  0.7879997281383950
  0.9410728573941256  0.2471822328184814  0.1889635131127179
  0.9075682298090229  0.2609292300396149  0.7075937089697675
  0.5521107372172125  0.4276060750992414  0.1431262346285678
  0.5448857467406398  0.4113495961687264  0.6275326005119339
  0.4627254696091896  0.5792902209083053  0.3764838191224058
  0.4765167508083792  0.5784741380561869  0.8646404583164156
  0.5911851069774627  0.1276940095514263  0.1192728329235351
  0.5833321459969056  0.1288399500717077  0.6197242975506114
  0.4159103858331932  0.8868496513775810  0.3816329021205505
  0.4220581373913816  0.8984379908398950  0.8726242146643841
  0.8745233446251746  0.4569165257291985  0.1500721957139248
  0.8728915356265716  0.4527537403170143  0.6158035367311498
  0.1081978809280457  0.5272999183869516  0.3827833236029434
  0.1050942987796191  0.5195674296305128  0.8677566520268485
  0.0025831858907139  0.0748327026609701  0.0248167025195372
  0.9988254331781548  0.9976083031491711  0.6360943832383796
 
  0.00000000E+00  0.00000000E+00  0.00000000E+00
  0.00000000E+00  0.00000000E+00  0.00000000E+00
  0.00000000E+00  0.00000000E+00  0.00000000E+00
  0.00000000E+00  0.00000000E+00  0.00000000E+00
  0.00000000E+00  0.00000000E+00  0.00000000E+00
  0.00000000E+00  0.00000000E+00  0.00000000E+00
  0.00000000E+00  0.00000000E+00  0.00000000E+00
  0.00000000E+00  0.00000000E+00  0.00000000E+00
  0.00000000E+00  0.00000000E+00  0.00000000E+00
  0.00000000E+00  0.00000000E+00  0.00000000E+00
  0.00000000E+00  0.00000000E+00  0.00000000E+00
  0.00000000E+00  0.00000000E+00  0.00000000E+00
  0.00000000E+00  0.00000000E+00  0.00000000E+00
  0.00000000E+00  0.00000000E+00  0.00000000E+00
  0.00000000E+00  0.00000000E+00  0.00000000E+00
  0.00000000E+00  0.00000000E+00  0.00000000E+00
  0.00000000E+00  0.00000000E+00  0.00000000E+00
  0.00000000E+00  0.00000000E+00  0.00000000E+00
  0.00000000E+00  0.00000000E+00  0.00000000E+00
  0.00000000E+00  0.00000000E+00  0.00000000E+00
  0.00000000E+00  0.00000000E+00  0.00000000E+00
  0.00000000E+00  0.00000000E+00  0.00000000E+00
  0.00000000E+00  0.00000000E+00  0.00000000E+00
  0.00000000E+00  0.00000000E+00  0.00000000E+00
  0.00000000E+00  0.00000000E+00  0.00000000E+00
  0.00000000E+00  0.00000000E+00  0.00000000E+00
  0.00000000E+00  0.00000000E+00  0.00000000E+00
  0.00000000E+00  0.00000000E+00  0.00000000E+00
  0.00000000E+00  0.00000000E+00  0.00000000E+00
  0.00000000E+00  0.00000000E+00  0.00000000E+00
  0.00000000E+00  0.00000000E+00  0.00000000E+00
  0.00000000E+00  0.00000000E+00  0.00000000E+00
  0.00000000E+00  0.00000000E+00  0.00000000E+00
  0.00000000E+00  0.00000000E+00  0.00000000E+00
  0.00000000E+00  0.00000000E+00  0.00000000E+00
  0.00000000E+00  0.00000000E+00  0.00000000E+00
  0.00000000E+00  0.00000000E+00  0.00000000E+00
  0.00000000E+00  0.00000000E+00  0.00000000E+00
  0.00000000E+00  0.00000000E+00  0.00000000E+00
  0.00000000E+00  0.00000000E+00  0.00000000E+00
  0.00000000E+00  0.00000000E+00  0.00000000E+00
  0.00000000E+00  0.00000000E+00  0.00000000E+00
  0.00000000E+00  0.00000000E+00  0.00000000E+00
  0.00000000E+00  0.00000000E+00  0.00000000E+00
  0.00000000E+00  0.00000000E+00  0.00000000E+00
  0.00000000E+00  0.00000000E+00  0.00000000E+00
  0.00000000E+00  0.00000000E+00  0.00000000E+00
  0.00000000E+00  0.00000000E+00  0.00000000E+00
  0.00000000E+00  0.00000000E+00  0.00000000E+00
  0.00000000E+00  0.00000000E+00  0.00000000E+00
  0.00000000E+00  0.00000000E+00  0.00000000E+00
  0.00000000E+00  0.00000000E+00  0.00000000E+00
  0.00000000E+00  0.00000000E+00  0.00000000E+00
  0.00000000E+00  0.00000000E+00  0.00000000E+00
  0.00000000E+00  0.00000000E+00  0.00000000E+00
  0.00000000E+00  0.00000000E+00  0.00000000E+00
  0.00000000E+00  0.00000000E+00  0.00000000E+00
  0.00000000E+00  0.00000000E+00  0.00000000E+00
  0.00000000E+00  0.00000000E+00  0.00000000E+00
  0.00000000E+00  0.00000000E+00  0.00000000E+00
  0.00000000E+00  0.00000000E+00  0.00000000E+00
  0.00000000E+00  0.00000000E+00  0.00000000E+00
  0.00000000E+00  0.00000000E+00  0.00000000E+00
  0.00000000E+00  0.00000000E+00  0.00000000E+00
  0.00000000E+00  0.00000000E+00  0.00000000E+00
  0.00000000E+00  0.00000000E+00  0.00000000E+00
  0.00000000E+00  0.00000000E+00  0.00000000E+00
  0.00000000E+00  0.00000000E+00  0.00000000E+00
  0.00000000E+00  0.00000000E+00  0.00000000E+00
  0.00000000E+00  0.00000000E+00  0.00000000E+00
  0.00000000E+00  0.00000000E+00  0.00000000E+00
  0.00000000E+00  0.00000000E+00  0.00000000E+00
  0.00000000E+00  0.00000000E+00  0.00000000E+00
  0.00000000E+00  0.00000000E+00  0.00000000E+00
  0.00000000E+00  0.00000000E+00  0.00000000E+00
  0.00000000E+00  0.00000000E+00  0.00000000E+00
  0.00000000E+00  0.00000000E+00  0.00000000E+00
  0.00000000E+00  0.00000000E+00  0.00000000E+00
  0.00000000E+00  0.00000000E+00  0.00000000E+00
  0.00000000E+00  0.00000000E+00  0.00000000E+00
  0.00000000E+00  0.00000000E+00  0.00000000E+00
