supercell of icsd_191774.cif            
   1.00000000000000     
    10.4714123836877793   -0.0005701554592146    0.0014787715258787
    -5.2362000180517194    9.0693637962372442   -0.0000006385511401
     0.0016040266070187    0.0009253220686187   11.1702360098680149
   N    In   B 
    36    34     2
Direct
  0.2211733829003535  0.1083495819820826  0.4293688182799258
  0.1341379417950961  0.2674890409120536  0.2029970810328621
  0.8941109202338353  0.1140363512683251  0.9411955071277589
  0.7789348307727408  0.2228003358973396  0.6916631317125166
  0.5537441052963885  0.1102058704478779  0.4440839172363198
  0.4455184903930558  0.2218316030081198  0.1880451148073945
  0.1968879814418614  0.0674641084483127  0.9584094108112353
  0.1153218677444556  0.2220087233470096  0.6825883629260900
  0.8891738872646542  0.1106463604104988  0.4413081506773011
  0.7775375339950656  0.2221022107897426  0.1900897339776648
  0.5562823545072746  0.1114750918725917  0.9381933454150797
  0.4384218627405261  0.2206410908834258  0.6952890032277779
  0.2212175710785900  0.4439417944428712  0.3989241454171406
  0.1341382177609702  0.5333164652166360  0.2029975138002342
  0.8941108155674584  0.4467416211620900  0.9411956900231786
  0.7796221221136506  0.5601043989916690  0.6947919425264928
  0.5556392840001294  0.4432730055580194  0.4405777718545636
  0.3984928526966769  0.5325794654584257  0.2057653725021424
  0.2200877139036237  0.4433782605819445  0.9353699467351930
  0.1153210733593326  0.5599795133643042  0.6825879341624130
  0.8891735828237159  0.4451948031941342  0.4413079591987525
  0.7768707363129792  0.5528555206671086  0.1916208266084283
  0.5546412174537991  0.4463569235517113  0.9453105217928766
  0.4422677365460359  0.5544667429744550  0.6806201567268815
  0.2211733385847978  0.7794900842749897  0.4293691671039142
  0.1124742423375977  0.8895705152851292  0.1516798132223229
  0.9348671503264825  0.8007666918328056  0.9568938226174666
  0.7796231223349324  0.8861842197103655  0.6947921100060697
  0.5556397346951698  0.7790333334907160  0.4405781403236944
  0.4455190443944446  0.8903527341939395  0.1880445882732928
  0.1968882410394670  0.7960914849397227  0.9584093975701933
  0.1122676306602273  0.8894669729680800  0.6858709230403193
  0.8908909712682913  0.7787790838263291  0.4320628856757835
  0.7768712902699662  0.8906821571316428  0.1916209028530531
  0.5546423093622153  0.7749521372643215  0.9453105309839458
  0.4384217518555289  0.8844456931279154  0.6952887491895794
  0.2203601865680511  0.1140479836607469  0.2375486495059818
  0.1167822523106921  0.2276984701807763  0.4871884405560678
  0.8932305876463715  0.1127518948480173  0.7482855987168264
  0.7781036204846501  0.2223854935227862  0.9989580441408705
  0.5555166180702926  0.1110911064520934  0.2519832231695034
  0.4396052694931285  0.2204055647335110  0.5015158583167150
  0.2151860928047071  0.1037402330788808  0.7609215730103926
  0.1141293667946215  0.2233152395316722  0.0093649607945494
  0.8978150630388058  0.1207959570804675  0.2503080000193307
  0.7779548201044690  0.2223110478801686  0.5003716137533871
  0.5547866267372754  0.1107254752907565  0.7478299451624864
  0.4361797282761870  0.2128746465481797  0.9981347230206552
  0.1167818149085633  0.5557489088348504  0.4871881924926313
  0.8932294122435920  0.4471445658115414  0.7482857728955565
  0.7875666839073219  0.5633172434741311  0.0004100092405253
  0.5463517939147664  0.4423913620967639  0.2492180941973174
  0.4370081119758567  0.5518372723958009  0.4876458142165419
  0.2219537001478216  0.4443107526714130  0.7461583003221079
  0.1141292332238493  0.5574826446324153  0.0093655852082648
  0.8978151823146945  0.4436865081390451  0.2503076020707979
  0.7791596358740449  0.5588663272283227  0.5001585544728044
  0.5536062936757133  0.4465432385813699  0.7509745199716704
  0.4350347645765780  0.5508512691344194  0.0111744893194725
  0.2203609858753239  0.7729803461612832  0.2375492942359969
  0.1112396629846657  0.8889528543560203  0.4970599735165138
  0.8983814081677721  0.7825234521501585  0.7614691584197786
  0.7875677567518125  0.8909166138167279  0.0004098713308380
  0.5463524782590881  0.7706262870394625  0.2492182705708217
  0.4396058769650537  0.8858668376922623  0.5015159252987615
  0.2151854644722420  0.7781117208262103  0.7609212456750640
  0.8957400213946158  0.7812034092603000  0.2395674244427823
  0.7791600408546486  0.8869610185426069  0.5001588287459739
  0.5536080345938927  0.7737290927387690  0.7509747761939565
  0.4361808858424112  0.8899728031262910  0.9981346099151978
  0.2234672002238653  0.4450669054182654  0.2526892584337190
  0.1087564146911930  0.8877114605867718  0.0066114092062861
 
  0.00000000E+00  0.00000000E+00  0.00000000E+00
  0.00000000E+00  0.00000000E+00  0.00000000E+00
  0.00000000E+00  0.00000000E+00  0.00000000E+00
  0.00000000E+00  0.00000000E+00  0.00000000E+00
  0.00000000E+00  0.00000000E+00  0.00000000E+00
  0.00000000E+00  0.00000000E+00  0.00000000E+00
  0.00000000E+00  0.00000000E+00  0.00000000E+00
  0.00000000E+00  0.00000000E+00  0.00000000E+00
  0.00000000E+00  0.00000000E+00  0.00000000E+00
  0.00000000E+00  0.00000000E+00  0.00000000E+00
  0.00000000E+00  0.00000000E+00  0.00000000E+00
  0.00000000E+00  0.00000000E+00  0.00000000E+00
  0.00000000E+00  0.00000000E+00  0.00000000E+00
  0.00000000E+00  0.00000000E+00  0.00000000E+00
  0.00000000E+00  0.00000000E+00  0.00000000E+00
  0.00000000E+00  0.00000000E+00  0.00000000E+00
  0.00000000E+00  0.00000000E+00  0.00000000E+00
  0.00000000E+00  0.00000000E+00  0.00000000E+00
  0.00000000E+00  0.00000000E+00  0.00000000E+00
  0.00000000E+00  0.00000000E+00  0.00000000E+00
  0.00000000E+00  0.00000000E+00  0.00000000E+00
  0.00000000E+00  0.00000000E+00  0.00000000E+00
  0.00000000E+00  0.00000000E+00  0.00000000E+00
  0.00000000E+00  0.00000000E+00  0.00000000E+00
  0.00000000E+00  0.00000000E+00  0.00000000E+00
  0.00000000E+00  0.00000000E+00  0.00000000E+00
  0.00000000E+00  0.00000000E+00  0.00000000E+00
  0.00000000E+00  0.00000000E+00  0.00000000E+00
  0.00000000E+00  0.00000000E+00  0.00000000E+00
  0.00000000E+00  0.00000000E+00  0.00000000E+00
  0.00000000E+00  0.00000000E+00  0.00000000E+00
  0.00000000E+00  0.00000000E+00  0.00000000E+00
  0.00000000E+00  0.00000000E+00  0.00000000E+00
  0.00000000E+00  0.00000000E+00  0.00000000E+00
  0.00000000E+00  0.00000000E+00  0.00000000E+00
  0.00000000E+00  0.00000000E+00  0.00000000E+00
  0.00000000E+00  0.00000000E+00  0.00000000E+00
  0.00000000E+00  0.00000000E+00  0.00000000E+00
  0.00000000E+00  0.00000000E+00  0.00000000E+00
  0.00000000E+00  0.00000000E+00  0.00000000E+00
  0.00000000E+00  0.00000000E+00  0.00000000E+00
  0.00000000E+00  0.00000000E+00  0.00000000E+00
  0.00000000E+00  0.00000000E+00  0.00000000E+00
  0.00000000E+00  0.00000000E+00  0.00000000E+00
  0.00000000E+00  0.00000000E+00  0.00000000E+00
  0.00000000E+00  0.00000000E+00  0.00000000E+00
  0.00000000E+00  0.00000000E+00  0.00000000E+00
  0.00000000E+00  0.00000000E+00  0.00000000E+00
  0.00000000E+00  0.00000000E+00  0.00000000E+00
  0.00000000E+00  0.00000000E+00  0.00000000E+00
  0.00000000E+00  0.00000000E+00  0.00000000E+00
  0.00000000E+00  0.00000000E+00  0.00000000E+00
  0.00000000E+00  0.00000000E+00  0.00000000E+00
  0.00000000E+00  0.00000000E+00  0.00000000E+00
  0.00000000E+00  0.00000000E+00  0.00000000E+00
  0.00000000E+00  0.00000000E+00  0.00000000E+00
  0.00000000E+00  0.00000000E+00  0.00000000E+00
  0.00000000E+00  0.00000000E+00  0.00000000E+00
  0.00000000E+00  0.00000000E+00  0.00000000E+00
  0.00000000E+00  0.00000000E+00  0.00000000E+00
  0.00000000E+00  0.00000000E+00  0.00000000E+00
  0.00000000E+00  0.00000000E+00  0.00000000E+00
  0.00000000E+00  0.00000000E+00  0.00000000E+00
  0.00000000E+00  0.00000000E+00  0.00000000E+00
  0.00000000E+00  0.00000000E+00  0.00000000E+00
  0.00000000E+00  0.00000000E+00  0.00000000E+00
  0.00000000E+00  0.00000000E+00  0.00000000E+00
  0.00000000E+00  0.00000000E+00  0.00000000E+00
  0.00000000E+00  0.00000000E+00  0.00000000E+00
  0.00000000E+00  0.00000000E+00  0.00000000E+00
  0.00000000E+00  0.00000000E+00  0.00000000E+00
  0.00000000E+00  0.00000000E+00  0.00000000E+00
