supercell of icsd_608626.cif            
   1.12248915506316     
     9.3326151716006667    0.0565763969061778    0.0664805087192350
    -4.6172590606192756    8.0920026832941119   -0.0220243847793204
     0.0710431499757662    0.0142367299958969    9.3133043513885827
   Y    Al   N 
    18    18    36
Direct
  0.2104690546011341  0.1016995243840881  0.2337234304511355
  0.1243600245044547  0.2214042745045290  0.4966834568930238
  0.8871979487466177  0.1190879364477269  0.7328657931815741
  0.5572716486641411  0.1051881008329829  0.2055899551223064
  0.7512824590720086  0.2153781502468490  0.4805310289725355
  0.2191488731934612  0.4436639568203660  0.2148036968882749
  0.1058411212744659  0.5477518916019193  0.4906910681951686
  0.8832776726084504  0.4453790414827452  0.7683832899648095
  0.5560425366948394  0.4307649077496762  0.2454026010920174
  0.4432101477248196  0.5618014118924037  0.5139172750790237
  0.7829413247095118  0.5730782182986545  0.4759090841907465
  0.5547952550293118  0.4180295130521898  0.7289452534142384
  0.4567571720066752  0.5580596584628026  0.9685846468525270
  0.2162162549233386  0.7878014834540537  0.2584500783146808
  0.7876395421965441  0.9025166812926386  0.9890848005825248
  0.5651609086630387  0.7864153066596913  0.2458419421150069
  0.2314617692722365  0.7797215017604060  0.7250503646297162
  0.1084882352249465  0.8843888821745409  0.9685825945150697
  0.8568369844138957  0.2652732620571996  0.0296628764156353
  0.4238382567224903  0.1825761091833726  0.5066146425209297
  0.2227972721206584  0.1183473365033763  0.7543889519572957
  0.1133160126240824  0.2291423321328097  0.9927414319261842
  0.8953882974335201  0.1091389808823706  0.2565364918432991
  0.5393642144723572  0.0933189893397994  0.7599899896846694
  0.4415377312820041  0.2154475665526903  0.9857229019667670
  0.7822300581859665  0.5532527930224376  0.0124738274097069
  0.2191283491789804  0.4416380346249298  0.7699114595882008
  0.1134742694619177  0.5635382346504514  0.0077940119525906
  0.8975135465059836  0.4593703105953892  0.2364639285006049
  0.1093829268585651  0.9017803407296583  0.5180522801284724
  0.8750756304829892  0.7718996531486937  0.7467883745534607
  0.4549566341635725  0.9010443430486390  0.5097162330294580
  0.8981698110794696  0.7961140994008247  0.2504616084871572
  0.7814652735083385  0.8945509177467130  0.5017082112888573
  0.5609254645546429  0.7887367553934084  0.7509322005484194
  0.4293289287588351  0.8770021586781596  0.9866309657883008
  0.2292216503997082  0.0893848328820610  0.4495469573069641
  0.0824039159266050  0.2064385392088468  0.1789184231457099
  0.9126819755605737  0.1477768855493906  0.9429644018283909
  0.7385808563840115  0.2167740231320678  0.6990393836984197
  0.5170791870753106  0.0829777739998363  0.4283863789258078
  0.4354366868255966  0.2153312983438056  0.1641454155499886
  0.2330174399758249  0.1441978696652413  0.9391197296909439
  0.1445909019479359  0.2443944898393511  0.7087237358594152
  0.8814170970772039  0.0969153012329684  0.4482194658933594
  0.8106060421228989  0.2367565285318776  0.2015155432710642
  0.5033996180985056  0.0779493696189135  0.9396765177283157
  0.4156328180231341  0.1685023868122713  0.6910501778626355
  0.2322471936169777  0.4466581070268205  0.4255359719618781
  0.0956151125607505  0.5605409426631667  0.1918430859622902
  0.9003954336042028  0.4540809941318784  0.9838889677071947
  0.7965684152168961  0.5803466755771609  0.6836780140926635
  0.5330666573130358  0.4024061218025139  0.4775142265696530
  0.4605689683329857  0.5594664314300601  0.1859044660754066
  0.2003722117534394  0.4380586293391531  0.9606718702538188
  0.1132689641424349  0.5264031863846768  0.7012320074476222
  0.8842047923753995  0.4453303005259883  0.4163949304601218
  0.8001741018437443  0.5773741173012183  0.2009426802297156
  0.5837645993413219  0.4234536783533258  0.9490703400423826
  0.4352739248449637  0.5638012377537365  0.7341614827122385
  0.2286443572509214  0.7982634336407415  0.4910536292048988
  0.0832087629027569  0.8742635305452353  0.1781466553105275
  0.8642310155551911  0.7423793187928283  0.9295944886822909
  0.7659544901077524  0.8689731421939442  0.6943988365249822
  0.5714164468741032  0.8035052372631100  0.4604400628205525
  0.4310007067483284  0.8731326812838631  0.1669845995804948
  0.2252950852258451  0.7539250557320116  0.9442802044490364
  0.0883135070623311  0.9068386765341430  0.7085811640327080
  0.9109286754568089  0.8186520653968472  0.4374529314453071
  0.8049954215342368  0.9085675454079336  0.2026212904311038
  0.5550995220967323  0.8021093668285602  0.9331159016294066
  0.4750318339032944  0.8997675664653499  0.6895553135683414
 
  0.00000000E+00  0.00000000E+00  0.00000000E+00
  0.00000000E+00  0.00000000E+00  0.00000000E+00
  0.00000000E+00  0.00000000E+00  0.00000000E+00
  0.00000000E+00  0.00000000E+00  0.00000000E+00
  0.00000000E+00  0.00000000E+00  0.00000000E+00
  0.00000000E+00  0.00000000E+00  0.00000000E+00
  0.00000000E+00  0.00000000E+00  0.00000000E+00
  0.00000000E+00  0.00000000E+00  0.00000000E+00
  0.00000000E+00  0.00000000E+00  0.00000000E+00
  0.00000000E+00  0.00000000E+00  0.00000000E+00
  0.00000000E+00  0.00000000E+00  0.00000000E+00
  0.00000000E+00  0.00000000E+00  0.00000000E+00
  0.00000000E+00  0.00000000E+00  0.00000000E+00
  0.00000000E+00  0.00000000E+00  0.00000000E+00
  0.00000000E+00  0.00000000E+00  0.00000000E+00
  0.00000000E+00  0.00000000E+00  0.00000000E+00
  0.00000000E+00  0.00000000E+00  0.00000000E+00
  0.00000000E+00  0.00000000E+00  0.00000000E+00
  0.00000000E+00  0.00000000E+00  0.00000000E+00
  0.00000000E+00  0.00000000E+00  0.00000000E+00
  0.00000000E+00  0.00000000E+00  0.00000000E+00
  0.00000000E+00  0.00000000E+00  0.00000000E+00
  0.00000000E+00  0.00000000E+00  0.00000000E+00
  0.00000000E+00  0.00000000E+00  0.00000000E+00
  0.00000000E+00  0.00000000E+00  0.00000000E+00
  0.00000000E+00  0.00000000E+00  0.00000000E+00
  0.00000000E+00  0.00000000E+00  0.00000000E+00
  0.00000000E+00  0.00000000E+00  0.00000000E+00
  0.00000000E+00  0.00000000E+00  0.00000000E+00
  0.00000000E+00  0.00000000E+00  0.00000000E+00
  0.00000000E+00  0.00000000E+00  0.00000000E+00
  0.00000000E+00  0.00000000E+00  0.00000000E+00
  0.00000000E+00  0.00000000E+00  0.00000000E+00
  0.00000000E+00  0.00000000E+00  0.00000000E+00
  0.00000000E+00  0.00000000E+00  0.00000000E+00
  0.00000000E+00  0.00000000E+00  0.00000000E+00
  0.00000000E+00  0.00000000E+00  0.00000000E+00
  0.00000000E+00  0.00000000E+00  0.00000000E+00
  0.00000000E+00  0.00000000E+00  0.00000000E+00
  0.00000000E+00  0.00000000E+00  0.00000000E+00
  0.00000000E+00  0.00000000E+00  0.00000000E+00
  0.00000000E+00  0.00000000E+00  0.00000000E+00
  0.00000000E+00  0.00000000E+00  0.00000000E+00
  0.00000000E+00  0.00000000E+00  0.00000000E+00
  0.00000000E+00  0.00000000E+00  0.00000000E+00
  0.00000000E+00  0.00000000E+00  0.00000000E+00
  0.00000000E+00  0.00000000E+00  0.00000000E+00
  0.00000000E+00  0.00000000E+00  0.00000000E+00
  0.00000000E+00  0.00000000E+00  0.00000000E+00
  0.00000000E+00  0.00000000E+00  0.00000000E+00
  0.00000000E+00  0.00000000E+00  0.00000000E+00
  0.00000000E+00  0.00000000E+00  0.00000000E+00
  0.00000000E+00  0.00000000E+00  0.00000000E+00
  0.00000000E+00  0.00000000E+00  0.00000000E+00
  0.00000000E+00  0.00000000E+00  0.00000000E+00
  0.00000000E+00  0.00000000E+00  0.00000000E+00
  0.00000000E+00  0.00000000E+00  0.00000000E+00
  0.00000000E+00  0.00000000E+00  0.00000000E+00
  0.00000000E+00  0.00000000E+00  0.00000000E+00
  0.00000000E+00  0.00000000E+00  0.00000000E+00
  0.00000000E+00  0.00000000E+00  0.00000000E+00
  0.00000000E+00  0.00000000E+00  0.00000000E+00
  0.00000000E+00  0.00000000E+00  0.00000000E+00
  0.00000000E+00  0.00000000E+00  0.00000000E+00
  0.00000000E+00  0.00000000E+00  0.00000000E+00
  0.00000000E+00  0.00000000E+00  0.00000000E+00
  0.00000000E+00  0.00000000E+00  0.00000000E+00
  0.00000000E+00  0.00000000E+00  0.00000000E+00
  0.00000000E+00  0.00000000E+00  0.00000000E+00
  0.00000000E+00  0.00000000E+00  0.00000000E+00
  0.00000000E+00  0.00000000E+00  0.00000000E+00
  0.00000000E+00  0.00000000E+00  0.00000000E+00
