generated by phonopy                    
   1.00000000000000     
    10.0351470768999995   -0.0000022330999784   -0.0000001056124209
    -5.0175765436399997    8.6906901959899994    0.0000001395531216
    -0.0000001735893656    0.0000001431815548   14.9533752540999991
   Pb   P    O    Cu
    20    12    49     1
Direct
  0.0018824963134563  0.7812723844142226  0.1175783622603888
  0.0026029276481978  0.7823923688630643  0.6285595776047614
  0.0122139535105674  0.2608137405742923  0.3740923720119511
  0.0092307698706193  0.2646865552925206  0.8737510413275444
  0.2324412252533676  0.2275667457965938  0.1220859354883501
  0.2329960389739441  0.2281709290079803  0.6245193449077391
  0.7285121117857472  0.7462316105598035  0.3732930589427639
  0.7436512294187807  0.7475065476726499  0.8736472805643558
  0.7730040399851248  0.0043367849573173  0.1195216184169254
  0.7729065760431908  0.0045114501144070  0.6275180976001948
  0.2250042451349401  0.9646004391142426  0.3723029120941490
  0.2570333436111270  0.9947094823782052  0.8736006376470229
  0.6603149198334606  0.3293270292559001  0.9965798448299594
  0.6971785843893414  0.3571174424613943  0.5162485675110560
  0.3375140304798947  0.6696678734142196  0.0028334790204028
  0.3351158079056873  0.6663605133477191  0.5053873481593030
  0.3338287699964653  0.6643927135208259  0.2421342054766029
  0.3375802406375215  0.6701550196228681  0.7446560224785301
  0.6952533851793277  0.3544646764594646  0.2329246999384438
  0.6599279389921193  0.3285883608819162  0.7522202800066466
  0.6290061888037570  0.6022625947829852  0.1231448376543085
  0.6297207953898791  0.6032090738143410  0.6252611804984767
  0.3675765520820988  0.3765547709863242  0.3742316621948376
  0.3710427107785534  0.3997033467962581  0.8740294848336703
  0.4057684788711526  0.0288722000232227  0.1253746540483363
  0.4065515270278510  0.0299782101550505  0.6225020508181558
  0.5754654235444008  0.9664383812220692  0.3741808084886813
  0.6058154381369647  0.9747037861490568  0.8741320438676610
  0.9753902180202800  0.3786744079274129  0.1213793094155804
  0.9760730469015897  0.3791840926337713  0.6270168860282155
  0.0227047300379795  0.6205805024117836  0.3738309979076249
  0.0252974711070948  0.6331799583356812  0.8737559730301996
  0.5030695010879285  0.6499196031045784  0.1227788683935671
  0.5038970687117583  0.6509702921219969  0.6247054936120264
  0.4695553301518629  0.3193041109279093  0.8743550055742659
  0.3601695394985427  0.8554239213738839  0.1237698245735643
  0.3606136214098683  0.8563938995416081  0.6237587395616586
  0.6206426218312018  0.1404361596225812  0.3745545854281147
  0.6828821125390334  0.1529786910838951  0.8744760017463804
  0.1504190034720025  0.4978723125574263  0.1217968412261570
  0.1510534082291244  0.4984205657827729  0.6261342853258043
  0.8454769483884661  0.5196568527637524  0.3740831358426249
  0.8466721159634858  0.5336119494179954  0.8739503203885874
  0.7387325302154295  0.6716329494046533  0.0405579829114302
  0.7314837001152483  0.6589588213984428  0.5384829790946810
  0.2556881555785537  0.3371048340523473  0.4573653974488678
  0.2645538725658341  0.3568996142400636  0.9580683065020708
  0.3462667187193702  0.0731497502143057  0.0393364988769704
  0.3366460405039291  0.0673396190491644  0.5391522633186412
  0.6314991748921628  0.9157206630511467  0.4581180366806734
  0.6505858450309603  0.9126143385389369  0.9582098762844637
  0.9301473572367414  0.2657806933900773  0.0403985157735036
  0.9224875922950559  0.2825608195915663  0.5382042237853000
  0.0827873656261460  0.7288570401721444  0.4577741507036635
  0.0889263680046284  0.7414628116527240  0.9574524864716309
  0.2550443191273786  0.3350083812844460  0.2912518810696199
  0.2634105518388168  0.3548462467195819  0.7904811735520809
  0.7313373566845769  0.6608306942913487  0.2095471309746699
  0.7402720234558799  0.6753392340912114  0.7072648100397672
  0.6356896474841349  0.9179587858199696  0.2911526820542960
  0.6524052743023105  0.9137516124705840  0.7903430759199210
  0.3343350501109583  0.0649862874766640  0.2084989019063741
  0.3458438402873796  0.0731595631145154  0.7084790447000842
  0.0817718111876715  0.7286159857513255  0.2896189309806658
  0.0885450411833588  0.7423901317053563  0.7904705974578405
  0.9228314923939109  0.2811357279845481  0.2098708317208704
  0.9315822824700675  0.2654281272303649  0.7074820152098766
  0.5526283377172803  0.4220145105140105  0.1200911857325693
  0.5533429470905062  0.4230952738331908  0.6299121810701607
  0.4750676042044830  0.5601326860318423  0.3734510951061978
  0.4806787685009084  0.5806571861881338  0.8733189148314011
  0.5862604429110689  0.1344180965148212  0.1268006132998067
  0.5871320174710206  0.1353056444511722  0.6220251176504306
  0.3927136114562586  0.8697326662303340  0.3728030367566433
  0.4243920778143391  0.8993179793644188  0.8735391460758350
  0.8787602054578656  0.4636393320222112  0.1147641708979208
  0.8794921632300188  0.4641477801424259  0.6347123928639391
  0.1027617466666797  0.5195897421943272  0.3733784246490401
  0.0994288257136091  0.5262232625891912  0.8732855089312537
  0.0011361477086353  0.0066656172155248  0.1169032482213623
  0.0013328211749979  0.0072667167064537  0.6259916425888150
  0.4916125175689672  0.2440467743862698  0.3757578749070021
 
  0.00000000E+00  0.00000000E+00  0.00000000E+00
  0.00000000E+00  0.00000000E+00  0.00000000E+00
  0.00000000E+00  0.00000000E+00  0.00000000E+00
  0.00000000E+00  0.00000000E+00  0.00000000E+00
  0.00000000E+00  0.00000000E+00  0.00000000E+00
  0.00000000E+00  0.00000000E+00  0.00000000E+00
  0.00000000E+00  0.00000000E+00  0.00000000E+00
  0.00000000E+00  0.00000000E+00  0.00000000E+00
  0.00000000E+00  0.00000000E+00  0.00000000E+00
  0.00000000E+00  0.00000000E+00  0.00000000E+00
  0.00000000E+00  0.00000000E+00  0.00000000E+00
  0.00000000E+00  0.00000000E+00  0.00000000E+00
  0.00000000E+00  0.00000000E+00  0.00000000E+00
  0.00000000E+00  0.00000000E+00  0.00000000E+00
  0.00000000E+00  0.00000000E+00  0.00000000E+00
  0.00000000E+00  0.00000000E+00  0.00000000E+00
  0.00000000E+00  0.00000000E+00  0.00000000E+00
  0.00000000E+00  0.00000000E+00  0.00000000E+00
  0.00000000E+00  0.00000000E+00  0.00000000E+00
  0.00000000E+00  0.00000000E+00  0.00000000E+00
  0.00000000E+00  0.00000000E+00  0.00000000E+00
  0.00000000E+00  0.00000000E+00  0.00000000E+00
  0.00000000E+00  0.00000000E+00  0.00000000E+00
  0.00000000E+00  0.00000000E+00  0.00000000E+00
  0.00000000E+00  0.00000000E+00  0.00000000E+00
  0.00000000E+00  0.00000000E+00  0.00000000E+00
  0.00000000E+00  0.00000000E+00  0.00000000E+00
  0.00000000E+00  0.00000000E+00  0.00000000E+00
  0.00000000E+00  0.00000000E+00  0.00000000E+00
  0.00000000E+00  0.00000000E+00  0.00000000E+00
  0.00000000E+00  0.00000000E+00  0.00000000E+00
  0.00000000E+00  0.00000000E+00  0.00000000E+00
  0.00000000E+00  0.00000000E+00  0.00000000E+00
  0.00000000E+00  0.00000000E+00  0.00000000E+00
  0.00000000E+00  0.00000000E+00  0.00000000E+00
  0.00000000E+00  0.00000000E+00  0.00000000E+00
  0.00000000E+00  0.00000000E+00  0.00000000E+00
  0.00000000E+00  0.00000000E+00  0.00000000E+00
  0.00000000E+00  0.00000000E+00  0.00000000E+00
  0.00000000E+00  0.00000000E+00  0.00000000E+00
  0.00000000E+00  0.00000000E+00  0.00000000E+00
  0.00000000E+00  0.00000000E+00  0.00000000E+00
  0.00000000E+00  0.00000000E+00  0.00000000E+00
  0.00000000E+00  0.00000000E+00  0.00000000E+00
  0.00000000E+00  0.00000000E+00  0.00000000E+00
  0.00000000E+00  0.00000000E+00  0.00000000E+00
  0.00000000E+00  0.00000000E+00  0.00000000E+00
  0.00000000E+00  0.00000000E+00  0.00000000E+00
  0.00000000E+00  0.00000000E+00  0.00000000E+00
  0.00000000E+00  0.00000000E+00  0.00000000E+00
  0.00000000E+00  0.00000000E+00  0.00000000E+00
  0.00000000E+00  0.00000000E+00  0.00000000E+00
  0.00000000E+00  0.00000000E+00  0.00000000E+00
  0.00000000E+00  0.00000000E+00  0.00000000E+00
  0.00000000E+00  0.00000000E+00  0.00000000E+00
  0.00000000E+00  0.00000000E+00  0.00000000E+00
  0.00000000E+00  0.00000000E+00  0.00000000E+00
  0.00000000E+00  0.00000000E+00  0.00000000E+00
  0.00000000E+00  0.00000000E+00  0.00000000E+00
  0.00000000E+00  0.00000000E+00  0.00000000E+00
  0.00000000E+00  0.00000000E+00  0.00000000E+00
  0.00000000E+00  0.00000000E+00  0.00000000E+00
  0.00000000E+00  0.00000000E+00  0.00000000E+00
  0.00000000E+00  0.00000000E+00  0.00000000E+00
  0.00000000E+00  0.00000000E+00  0.00000000E+00
  0.00000000E+00  0.00000000E+00  0.00000000E+00
  0.00000000E+00  0.00000000E+00  0.00000000E+00
  0.00000000E+00  0.00000000E+00  0.00000000E+00
  0.00000000E+00  0.00000000E+00  0.00000000E+00
  0.00000000E+00  0.00000000E+00  0.00000000E+00
  0.00000000E+00  0.00000000E+00  0.00000000E+00
  0.00000000E+00  0.00000000E+00  0.00000000E+00
  0.00000000E+00  0.00000000E+00  0.00000000E+00
  0.00000000E+00  0.00000000E+00  0.00000000E+00
  0.00000000E+00  0.00000000E+00  0.00000000E+00
  0.00000000E+00  0.00000000E+00  0.00000000E+00
  0.00000000E+00  0.00000000E+00  0.00000000E+00
  0.00000000E+00  0.00000000E+00  0.00000000E+00
  0.00000000E+00  0.00000000E+00  0.00000000E+00
  0.00000000E+00  0.00000000E+00  0.00000000E+00
  0.00000000E+00  0.00000000E+00  0.00000000E+00
  0.00000000E+00  0.00000000E+00  0.00000000E+00
