supercell of icsd_191774.cif            
   1.00000000000000     
    10.6264576969391076   -0.0000053789972767   -0.0021123839075187
    -5.3132334431942638    9.2027974365952527   -0.0000001787744345
    -0.0023011241008313   -0.0013289608754533   11.2839418009647154
   N    In   Sc
    36    32     4
Direct
  0.2221970696674589  0.1111204339924612  0.4395542824259238
  0.1058936366299363  0.2196129983213169  0.1855508553227097
  0.8940558223806292  0.1136944792228647  0.9439420684109052
  0.7777216143734549  0.2215696745113362  0.6897094683717384
  0.5554615185047069  0.1108902354151695  0.4395215260745857
  0.4441496959720439  0.2222566519035070  0.1907440883139842
  0.2202393349043348  0.1133831036075321  0.9430081480117565
  0.1107768913000839  0.2220547204213972  0.6903672286404969
  0.8892177338325737  0.1112771474911085  0.4331186615309477
  0.7799782327524483  0.2200266868070315  0.1931755501376813
  0.5543781296357153  0.1075418035849509  0.9433053417186628
  0.4442662879176211  0.2217015562635467  0.6906553804019850
  0.2221969484475252  0.4444099275289588  0.4395539278297562
  0.1103038871516873  0.5550292555735297  0.1904261543015053
  0.8886678330811435  0.4439634403797896  0.9396507845300519
  0.7778154349602389  0.5555732461377758  0.6836730161666367
  0.5599031681068851  0.4466173081838463  0.4430978150098426
  0.4441495100444754  0.5552282127350239  0.1907434229036440
  0.2202403095930165  0.4401907064652804  0.9430085132443651
  0.1114764140464004  0.5557436642499454  0.6905698279134924
  0.8866073990191055  0.4465817987560285  0.4431672534438604
  0.7779380115364347  0.5556360234118500  0.1912836816009644
  0.5555262395110176  0.4444294156747617  0.9396569671477124
  0.4442652131562852  0.5558947794539364  0.6906538317005584
  0.2224275624143033  0.7778808018301504  0.4393187797314653
  0.1103041176038388  0.8886075179457364  0.1904265498084428
  0.8886668397103250  0.7780375724885218  0.9396503666187925
  0.7777222485801047  0.8894842058738703  0.6897074925342395
  0.5554617867439191  0.7779047300753419  0.4395211689944674
  0.4444918567920055  0.8889136016106249  0.1829688313267823
  0.2262742175295571  0.7798041781057137  0.9431164585953766
  0.1114773008949470  0.8890658006218075  0.6905707002880206
  0.8866064914291414  0.7733592511811622  0.4431670547057820
  0.7799781200841736  0.8932858359576201  0.1931757288125766
  0.5543781001721513  0.7801703840609804  0.9433039194433803
  0.4445720380833578  0.8889509249202661  0.6914835268797930
  0.2207471925552795  0.1119992629156599  0.2478847717919521
  0.1099298939716817  0.2216317211284604  0.4987300138884692
  0.8886392277834005  0.1109854486751942  0.7511730306411977
  0.7778804324899724  0.2222282002968115  0.0007223411659609
  0.5552677264975188  0.1101116973591658  0.2481930530166068
  0.4444782002953787  0.2224297824216137  0.4990706786059889
  0.2222861731190093  0.1110214722907727  0.7506665042739940
  0.7786662714468591  0.2217486601881120  0.4978691974655050
  0.5561483240928382  0.1115929784074439  0.7506813483331314
  0.4446408260314598  0.2220149514752165  0.9992669464552506
  0.2207462854093336  0.4420797493348587  0.2478846290212999
  0.1108899129454386  0.5554166349549021  0.4989509141618313
  0.8881542438437293  0.4446646696988381  0.7479410827567037
  0.7778418761270061  0.5555879951803391  0.9998174070836541
  0.5551920584816585  0.4442639886711746  0.2509218148502228
  0.4444784913075210  0.5553807869162242  0.4990684432214749
  0.2222848119400993  0.4445965526477735  0.7506663569924541
  0.1113380165934785  0.5557460875154590  0.9991489717582382
  0.8884731582491767  0.4435367412083409  0.2508867484795871
  0.5567437901528933  0.4450375539911420  0.7481581722613555
  0.4446426023874963  0.5559607563396440  0.9992656513941611
  0.2233051424634738  0.7783189299934818  0.2479756256184587
  0.1108887510225358  0.8888068598300265  0.4989518748217776
  0.8881536565764492  0.7768203932173208  0.7479403746224591
  0.7778805491746184  0.8889859002554061  0.0007223331569008
  0.5552676825467842  0.7784909933786537  0.2481928373615148
  0.4444011444970499  0.8888666682717528  0.4999438113210672
  0.2219517148038079  0.7776421192058081  0.7506979304279682
  0.1113366564914102  0.8889258690545176  0.9991495501647734
  0.8884727896661389  0.7782708712736266  0.2508864525023569
  0.7786676195659936  0.8902541851115515  0.4978669650408776
  0.5561489431214639  0.7778852033746730  0.7506788604796526
  0.1120047703215334  0.2226691036726862  0.9980802890051876
  0.8898339559316071  0.1115858927047597  0.2461628889937089
  0.7777285330724482  0.5555311687629043  0.4976623399720452
  0.4447015584604301  0.8890180755109611  0.9973714159993179
 
  0.00000000E+00  0.00000000E+00  0.00000000E+00
  0.00000000E+00  0.00000000E+00  0.00000000E+00
  0.00000000E+00  0.00000000E+00  0.00000000E+00
  0.00000000E+00  0.00000000E+00  0.00000000E+00
  0.00000000E+00  0.00000000E+00  0.00000000E+00
  0.00000000E+00  0.00000000E+00  0.00000000E+00
  0.00000000E+00  0.00000000E+00  0.00000000E+00
  0.00000000E+00  0.00000000E+00  0.00000000E+00
  0.00000000E+00  0.00000000E+00  0.00000000E+00
  0.00000000E+00  0.00000000E+00  0.00000000E+00
  0.00000000E+00  0.00000000E+00  0.00000000E+00
  0.00000000E+00  0.00000000E+00  0.00000000E+00
  0.00000000E+00  0.00000000E+00  0.00000000E+00
  0.00000000E+00  0.00000000E+00  0.00000000E+00
  0.00000000E+00  0.00000000E+00  0.00000000E+00
  0.00000000E+00  0.00000000E+00  0.00000000E+00
  0.00000000E+00  0.00000000E+00  0.00000000E+00
  0.00000000E+00  0.00000000E+00  0.00000000E+00
  0.00000000E+00  0.00000000E+00  0.00000000E+00
  0.00000000E+00  0.00000000E+00  0.00000000E+00
  0.00000000E+00  0.00000000E+00  0.00000000E+00
  0.00000000E+00  0.00000000E+00  0.00000000E+00
  0.00000000E+00  0.00000000E+00  0.00000000E+00
  0.00000000E+00  0.00000000E+00  0.00000000E+00
  0.00000000E+00  0.00000000E+00  0.00000000E+00
  0.00000000E+00  0.00000000E+00  0.00000000E+00
  0.00000000E+00  0.00000000E+00  0.00000000E+00
  0.00000000E+00  0.00000000E+00  0.00000000E+00
  0.00000000E+00  0.00000000E+00  0.00000000E+00
  0.00000000E+00  0.00000000E+00  0.00000000E+00
  0.00000000E+00  0.00000000E+00  0.00000000E+00
  0.00000000E+00  0.00000000E+00  0.00000000E+00
  0.00000000E+00  0.00000000E+00  0.00000000E+00
  0.00000000E+00  0.00000000E+00  0.00000000E+00
  0.00000000E+00  0.00000000E+00  0.00000000E+00
  0.00000000E+00  0.00000000E+00  0.00000000E+00
  0.00000000E+00  0.00000000E+00  0.00000000E+00
  0.00000000E+00  0.00000000E+00  0.00000000E+00
  0.00000000E+00  0.00000000E+00  0.00000000E+00
  0.00000000E+00  0.00000000E+00  0.00000000E+00
  0.00000000E+00  0.00000000E+00  0.00000000E+00
  0.00000000E+00  0.00000000E+00  0.00000000E+00
  0.00000000E+00  0.00000000E+00  0.00000000E+00
  0.00000000E+00  0.00000000E+00  0.00000000E+00
  0.00000000E+00  0.00000000E+00  0.00000000E+00
  0.00000000E+00  0.00000000E+00  0.00000000E+00
  0.00000000E+00  0.00000000E+00  0.00000000E+00
  0.00000000E+00  0.00000000E+00  0.00000000E+00
  0.00000000E+00  0.00000000E+00  0.00000000E+00
  0.00000000E+00  0.00000000E+00  0.00000000E+00
  0.00000000E+00  0.00000000E+00  0.00000000E+00
  0.00000000E+00  0.00000000E+00  0.00000000E+00
  0.00000000E+00  0.00000000E+00  0.00000000E+00
  0.00000000E+00  0.00000000E+00  0.00000000E+00
  0.00000000E+00  0.00000000E+00  0.00000000E+00
  0.00000000E+00  0.00000000E+00  0.00000000E+00
  0.00000000E+00  0.00000000E+00  0.00000000E+00
  0.00000000E+00  0.00000000E+00  0.00000000E+00
  0.00000000E+00  0.00000000E+00  0.00000000E+00
  0.00000000E+00  0.00000000E+00  0.00000000E+00
  0.00000000E+00  0.00000000E+00  0.00000000E+00
  0.00000000E+00  0.00000000E+00  0.00000000E+00
  0.00000000E+00  0.00000000E+00  0.00000000E+00
  0.00000000E+00  0.00000000E+00  0.00000000E+00
  0.00000000E+00  0.00000000E+00  0.00000000E+00
  0.00000000E+00  0.00000000E+00  0.00000000E+00
  0.00000000E+00  0.00000000E+00  0.00000000E+00
  0.00000000E+00  0.00000000E+00  0.00000000E+00
  0.00000000E+00  0.00000000E+00  0.00000000E+00
  0.00000000E+00  0.00000000E+00  0.00000000E+00
  0.00000000E+00  0.00000000E+00  0.00000000E+00
  0.00000000E+00  0.00000000E+00  0.00000000E+00
