Mg   Si   N                             
   1.00000000000000     
    -0.0880476787380287    0.0000000140510386   -5.0254035464199998
    -5.3290160197395169    0.0035137445256277   -0.0000001450372405
    -0.0062021574173480    6.5759894413299573   -0.1824990395559860
   Mg   Si   N 
     4     4     8
Direct
  0.0965774684921143  0.4076057686133439  0.8861610045151238
  0.0983891368905603  0.9140658780157551  0.6338388289468284
  0.5396536921208153  0.5794299049984417  0.1228801085102305
  0.5695975973141003  0.0657783591090251  0.3842215356567920
  0.0990567038623169  0.9277715552752355  0.1340974745483976
  0.6063340477849124  0.0673099711678802  0.8823465968488406
  0.9504562447698746  0.4248853167753950  0.3759004051876360
  0.6250111082542205  0.5716609785648714  0.6430252370064551
  0.9510951829576086  0.0461430117945767  0.9156059359931490
  0.4463429463956103  0.9533365808895908  0.1004838289681658
  0.0349183613947730  0.6037198317027759  0.1610543821972144
  0.0143271717632842  0.0989969764115060  0.3562219383185621
  0.5165542418588842  0.3865585304927350  0.8493448279303948
  0.5190103384437990  0.8880154551614581  0.6674104655346014
  0.9811841258770713  0.5529503234346294  0.6182723279748998
  0.5876939726269370  0.4451418686243258  0.4024779806832797
 
             NaN             NaN             NaN
             NaN             NaN             NaN
             NaN             NaN             NaN
             NaN             NaN             NaN
             NaN             NaN             NaN
             NaN             NaN             NaN
             NaN             NaN             NaN
             NaN             NaN             NaN
             NaN             NaN             NaN
             NaN             NaN             NaN
             NaN             NaN             NaN
             NaN             NaN             NaN
             NaN             NaN             NaN
             NaN             NaN             NaN
             NaN             NaN             NaN
             NaN             NaN             NaN
