Mg   Si   N                             
   1.00000000000000     
    -0.0899056924312387    0.0000000140510379   -5.0254035464199998
    -5.3293217323460542   -0.0037195456287571   -0.0000001450372359
     0.0064740873936466    6.5757364827199805    0.1853761530770617
   Mg   Si   N 
     4     4     8
Direct
  0.0099102978161838  0.4258273113003668  0.8842376603643132
  0.0420155607923647  0.9125197369339801  0.6230807565041019
  0.4810606076691641  0.5776928452053482  0.1338129642499908
  0.4830915481054987  0.0841763327583323  0.3860364718562295
  0.9543246232486595  0.9199303651789279  0.1430707464158587
  0.6291084446521182  0.0667313038892559  0.8757792924640952
  0.9731150301128579  0.4243548671492050  0.3823432966023290
  0.4804332791546457  0.5638174954479069  0.6341214179109400
  0.9914751968485618  0.0463845367780564  0.9024420442993843
  0.5982223465164367  0.9387364671410197  0.1181963420693890
  0.0604511856225614  0.6036117370392020  0.1674402897608829
  0.0629418877271632  0.1051148129088304  0.3492801595106343
  0.5652242325975152  0.3926781072339480  0.8562525310990452
  0.5433101545780019  0.8880945848953630  0.6611228327625938
  0.1331342182710955  0.5381176273471269  0.6005220455633520
  0.6283837270948638  0.4455821798246333  0.4156040273874666
 
             NaN             NaN             NaN
             NaN             NaN             NaN
             NaN             NaN             NaN
             NaN             NaN             NaN
             NaN             NaN             NaN
             NaN             NaN             NaN
             NaN             NaN             NaN
             NaN             NaN             NaN
             NaN             NaN             NaN
             NaN             NaN             NaN
             NaN             NaN             NaN
             NaN             NaN             NaN
             NaN             NaN             NaN
             NaN             NaN             NaN
             NaN             NaN             NaN
             NaN             NaN             NaN
