Mg   Si   N
1.0
  5.314105691813058 -0.0008460775008861 1.450372345e-07
  -0.0002824637334112 6.540805291782772 0.1063810745238645
  0.0513657148759752 -1.40510377e-08 5.02540354642
 Mg  Si  N 
4 4 8 
direct
   -0.4174140427188037   0.8848726077569039  -0.9978627273787383
   -0.9111831310732086   0.6271550005448533  -0.9981468585294380
   -0.5790697137592674   0.1338411898449650  -0.4833362336631168
   -0.0822287092498115   0.3857701676518204  -0.4832375730800464
   -0.9256677379646875   0.1334177894822943  -0.9717424393008046
   -0.0666113055042317   0.8815577621832560  -0.4938608777649591
   -0.4245233953642469   0.3825635227355377  -0.9753550343993564
   -0.5652804944295725   0.6332009428060275  -0.4786033341269161
   -0.0448389255040951   0.9096793773806553  -0.1104101964351969
   -0.9437741040171731   0.1094962067920306  -0.6206823533291866
   -0.6043153146161943   0.1661721724638738  -0.0627735582882849
   -0.1041454148532566   0.3518705604849970  -0.0639776772710690
   -0.3896750270602142   0.8550257838725273  -0.5683541654241040
   -0.8864396812724352   0.6621147780481637  -0.5667559145436698
   -0.5424606024080633   0.6019686391748706  -0.1321715241369645
   -0.4457427112362494   0.4146363775978514  -0.6289318731358620
