Mg   Si   N                             
   1.00000000000000     
    -0.0578310114925172    0.0000000140510387   -5.0254035464199998
    -5.3204490488496825    0.0001957198363203   -0.0000001450372415
    -0.0011902399858844    6.5556139682028514   -0.1223205157569796
   Mg   Si   N 
     4     4     8
Direct
  0.0981185275402225  0.4087345202435628  0.8858710298580661
  0.0978572997860567  0.9130119064240745  0.6344300330469110
  0.5765955585855238  0.5810494550521526  0.1260130974089435
  0.5775531692631120  0.0722462535873518  0.3850878158805031
  0.1012557402375975  0.9268468855623411  0.1324027802853607
  0.6042634123485229  0.0676651128438195  0.8825244219447654
  0.0483874562256759  0.4237386941304422  0.3791072700486140
  0.6106450495555578  0.5668456623074931  0.6349833168055454
  0.9508494361690936  0.0463235223978060  0.9149926736835781
  0.4468724815375964  0.9496614655090170  0.1014796225054155
  0.0136350707762887  0.6060552019692338  0.1602362178623551
  0.0109153617454609  0.0991054352378029  0.3552535544376099
  0.5163812139056958  0.3877330453823618  0.8522876330500466
  0.5176141955990587  0.8877763953175446  0.6672226635174496
  0.9646834213367939  0.5501507013646929  0.6134501538879960
  0.5005749461946252  0.4464260537018419  0.4080005945974321
 
             NaN             NaN             NaN
             NaN             NaN             NaN
             NaN             NaN             NaN
             NaN             NaN             NaN
             NaN             NaN             NaN
             NaN             NaN             NaN
             NaN             NaN             NaN
             NaN             NaN             NaN
             NaN             NaN             NaN
             NaN             NaN             NaN
             NaN             NaN             NaN
             NaN             NaN             NaN
             NaN             NaN             NaN
             NaN             NaN             NaN
             NaN             NaN             NaN
             NaN             NaN             NaN
