Mg   Si   N
1.0
  5.32189839625444 0.0058583794370809 1.450372363e-07
  0.0090066707207339 6.601926467526109 0.191108993370231
  0.0850931688687024 -1.4051038e-08 5.02540354642
 Mg  Si  N 
4 4 8 
direct
   -0.4274061592422171   0.8827042520139942  -0.0022884942065176
   -0.9208563728046074   0.6291188855041198  -0.0804499754737620
   -0.5737024358509401   0.1320157465708718  -0.4827874771717759
   -0.0825675167025253   0.3857446031809886  -0.4979328649755813
   -0.9196059402399683   0.1428686540772048  -0.9585721570544761
   -0.0642479297164229   0.8756367922874586  -0.6248398063071576
   -0.4256872454783789   0.3828502046577781  -0.9726377834773529
   -0.5620921518248992   0.6339597836913029  -0.4784283039580827
   -0.0448650107819972   0.9020219121118983  -0.9836072263704168
   -0.9383657680348422   0.1156200163202996  -0.5880128283382078
   -0.6015304236769482   0.1664437481508330  -0.0589700581231440
   -0.1048226104766741   0.3502829675492478  -0.0607542877783658
   -0.3919147806858022   0.8542910074427182  -0.5650522149373032
   -0.8903576672751399   0.6633110620461834  -0.5229317149786041
   -0.5366994582933771   0.6009454829004425  -0.1311230993034158
   -0.4486488399467632   0.4155277603153067  -0.6278140483534997
