Mg   Si   N
1.0
  5.329016019739517 -0.0035137445256277 1.450372405e-07
  -0.006202157417348 6.575989441329957 -0.182499039555986
  0.0880476787380287 -1.40510386e-08 5.02540354642
 Mg  Si  N 
4 4 8 
direct
   -0.4076057686133438   0.8861610045151237  -0.0965774684921143
   -0.9140658780157549   0.6338388289468284  -0.0983891368905603
   -0.5794299049984416   0.1228801085102305  -0.5396536921208153
   -0.0657783591090251   0.3842215356567920  -0.5695975973141003
   -0.9277715552752354   0.1340974745483976  -0.0990567038623169
   -0.0673099711678802   0.8823465968488406  -0.6063340477849124
   -0.4248853167753948   0.3759004051876360  -0.9504562447698746
   -0.5716609785648712   0.6430252370064551  -0.6250111082542206
   -0.0461430117945767   0.9156059359931490  -0.9510951829576085
   -0.9533365808895908   0.1004838289681658  -0.4463429463956103
   -0.6037198317027758   0.1610543821972144  -0.0349183613947730
   -0.0989969764115060   0.3562219383185621  -0.0143271717632842
   -0.3865585304927349   0.8493448279303948  -0.5165542418588842
   -0.8880154551614577   0.6674104655346014  -0.5190103384437990
   -0.5529503234346291   0.6182723279748998  -0.9811841258770714
   -0.4451418686243257   0.4024779806832797  -0.5876939726269370
