Mg   Si   N
1.0
  5.308001756305846 -9.39416120635e-05 1.450372342e-07
  9.48458140163e-05 6.488393815469399 0.0005798294041985
  0.0003872408604771 -1.40510377e-08 5.02540354642
 Mg  Si  N 
4 4 8 
direct
   -0.4110167249018842   0.8854661591709955  -0.9890876025807175
   -0.9110068936277429   0.6311829729840566  -0.9890862962550457
   -0.5806494603442971   0.1311985990812303  -0.4890681492564681
   -0.0806545686590354   0.3854731119266929  -0.4890695865567666
   -0.9256205006875147   0.1337630081042747  -0.9777626135711872
   -0.0660309125565206   0.8829013978520307  -0.4777661277217504
   -0.4256188141678478   0.3828967611846678  -0.9777667259578636
   -0.5660314729285217   0.6337688716913732  -0.4777745305303114
   -0.0445695111049602   0.9126343682988390  -0.1306653260988853
   -0.9470716564257415   0.1040415161222654  -0.6306668563041313
   -0.6050097698039208   0.1635556890337924  -0.0676208372046858
   -0.1050121624873270   0.3531097860317444  -0.0676285674654409
   -0.3866324466339677   0.8531228957213628  -0.5676275566981914
   -0.8866345787104135   0.6635560910623466  -0.5676264730432835
   -0.5445700002072158   0.6040273615757242  -0.1306855192144951
   -0.4470755557118125   0.4126432996009655  -0.6306800010911928
