Mg   Si   N
1.0
  5.324095821641439 -0.0054651593798917 1.450372398e-07
  -0.0082696729840027 6.611590548069802 -0.1765654822531117
  0.0782857415385914 -1.40510385e-08 5.02540354642
 Mg  Si  N 
4 4 8 
direct
   -0.4101952619054074   0.8861206851049062  -0.0732780217683811
   -0.9198212644982817   0.6311430295057221  -0.0923856642044711
   -0.5705940974790095   0.1300594319595376  -0.4986524124773055
   -0.0644482853658275   0.3820478843739962  -0.5790312476347027
   -0.9289295957303025   0.1340208749862128  -0.1007633315823995
   -0.0650747711689519   0.8838804503473768  -0.6072102963891766
   -0.4286137559975245   0.3777990971061413  -0.9592762496081022
   -0.5716473421675374   0.6422715856079222  -0.5995151622839928
   -0.0419915203471319   0.9155804978190148  -0.9515320228178582
   -0.9545500206834135   0.1011545199828703  -0.4485021393252566
   -0.6007173826767129   0.1627152652078365  -0.0564624340180657
   -0.0997274433069038   0.3529854813187755  -0.0136642931320736
   -0.3864176167094867   0.8523565061474514  -0.5211407475391071
   -0.8922494564997265   0.6660781992309808  -0.5204797788538330
   -0.5511318155369692   0.6123342852776830  -0.0142975495044269
   -0.4472606809582089   0.4027950848441151  -0.6000109896676947
