Mg   Si   N
1.0
  5.30798884073 -1.058798297e-07 1.450372426e-07
  -1.282285563e-07 6.48854682732 -1.89720115e-08
  1.382052431e-07 -1.40510389e-08 5.02540354642
 Mg  Si  N 
4 4 8 
direct
   -0.4110296159078359   0.8854805841085778  -0.0775921202968846
   -0.9110296109453841   0.6311884666023390  -0.0775921248655180
   -0.5806463163536505   0.1311884700201418  -0.5775921235779861
   -0.0806463067589291   0.3854805879110685  -0.5775921195947545
   -0.9256330565277296   0.1337709813062489  -0.0888695508383393
   -0.0660428198555678   0.8828981144648295  -0.5888695507493438
   -0.4256330490039987   0.3828980682340273  -0.0888695422002073
   -0.5660428261354937   0.6337709376989408  -0.5888695533457237
   -0.0446220931060424   0.9125767433490352  -0.9360185972243116
   -0.9470538453056534   0.1040922968761464  -0.4360186090998113
   -0.6050071790272042   0.1635129749379161  -0.9989541773494111
   -0.1050071893586235   0.3531560700816456  -0.9989541811297473
   -0.3866687262743512   0.8531560691973894  -0.4989542199909138
   -0.8866687214093217   0.6635129963854425  -0.4989542081819920
   -0.5446220912075574   0.6040922893334510  -0.9360186304460070
   -0.4470538415040792   0.4125767737890484  -0.4360186452382209
