Mg   Si   N
1.0
  5.323921139709043 -0.0009488998660151 1.450372412e-07
  -0.0022245397672705 6.563168860299647 -0.1321160556274012
  0.0620462799375408 -1.40510387e-08 5.02540354642
 Mg  Si  N 
4 4 8 
direct
   -0.4085038763532438   0.8860625411516594  -0.0990243188300326
   -0.9132465034792218   0.6346201707123599  -0.0985181849839307
   -0.5816044888528965   0.1249363835394277  -0.5735757593222033
   -0.0707211673529713   0.3851032589520145  -0.5752298734580209
   -0.9270223642810365   0.1322262544631982  -0.1015205547790217
   -0.0677822793897391   0.8824892089246603  -0.6045252288742660
   -0.4230751615857002   0.3775032572383381  -0.0082806307019681
   -0.5677761272995312   0.6367436034427314  -0.6136874909122625
   -0.0465361519459080   0.9152213466846177  -0.9510004629202343
   -0.9499212669383538   0.1011967146298502  -0.4469445151550317
   -0.6064528886050339   0.1593891638518201  -0.0159812892434630
   -0.0977052536979315   0.3554530401039599  -0.0124154334080870
   -0.3876909103747153   0.8522226316598989  -0.5167873610434129
   -0.8878866797192655   0.6675175588133584  -0.5180364686260219
   -0.5516253736244749   0.6161665387431229  -0.9702763272442212
   -0.4458198175315076   0.4064912059095391  -0.5303984413047047
