Mg   Si   N
1.0
  5.30798884073 -1.058798205e-07 1.450372338e-07
  -1.282285487e-07 6.48854682732 -1.89720097e-08
  1.382052337e-07 -1.40510376e-08 5.02540354642
 Mg  Si  N 
4 4 8 
direct
   -0.4110249936985824   0.8854793909233932  -0.0019331685028590
   -0.9110249887361307   0.6311872734171544  -0.0019331730714924
   -0.5806416941443970   0.1311872768349573  -0.5019331717839677
   -0.0806416845496756   0.3854793947258841  -0.5019331678007289
   -0.9256284343184757   0.1337697881210644  -0.9906557379614044
   -0.0660381976463142   0.8828969212796453  -0.4906557378724088
   -0.4256284267947449   0.3828968750488428  -0.9906557293232723
   -0.5660382039262402   0.6337697445137563  -0.4906557404687888
   -0.0446174708967888   0.9125755501638508  -0.1435066915754319
   -0.9470492230963998   0.1040911036909620  -0.6435067034509317
   -0.6050025568179507   0.1635117817527316  -0.0805711114503254
   -0.1050025671493700   0.3531548768964612  -0.0805711152306543
   -0.3866641040650975   0.8531548760122120  -0.5805711540918210
   -0.8866640992000682   0.6635118032002580  -0.5805711422828991
   -0.5446174689983039   0.6040910961482666  -0.1435067247971205
   -0.4470492192948257   0.4125755806038640  -0.6435067395893341
