Mg   Si   N                             
   1.00000000000000     
    -0.0374987051304332    0.0000000140510383   -5.0254035464199998
    -5.3073964266264566    0.0003112617132699   -0.0000001450372384
    -0.0008657758251954    6.5827513958740091   -0.0738944448693991
   Mg   Si   N 
     4     4     8
Direct
  0.0199536319541309  0.4186955662092728  0.8866919520525798
  0.0836980700681522  0.9259105717573561  0.6314897606057386
  0.4993641845194006  0.5679677174850326  0.1315642355533058
  0.5843583639606749  0.0656841715522418  0.3841550896737047
  0.1040497906150932  0.9290496390209597  0.1343748285776627
  0.6044439380147466  0.0632446049977204  0.8824809412338155
  0.9725508434167764  0.4302563880685284  0.3826932565116294
  0.4731112698670827  0.5631587512114322  0.6336199752644731
  0.9506708437955496  0.0371428457865690  0.9150781784205222
  0.4503346812267210  0.9557339692260669  0.1026393169164237
  0.0616603533790538  0.5993496100252997  0.1638577035195468
  0.0146647492622023  0.0992427529480082  0.3530322852531071
  0.5499619388379813  0.3910746640871636  0.8527476978364845
  0.5167460651421933  0.8927221631209434  0.6647280194203375
  0.1248283592009969  0.5387050024971742  0.6008920890294718
  0.6258052575460979  0.4554318930376340  0.4132975489517108
 
             NaN             NaN             NaN
             NaN             NaN             NaN
             NaN             NaN             NaN
             NaN             NaN             NaN
             NaN             NaN             NaN
             NaN             NaN             NaN
             NaN             NaN             NaN
             NaN             NaN             NaN
             NaN             NaN             NaN
             NaN             NaN             NaN
             NaN             NaN             NaN
             NaN             NaN             NaN
             NaN             NaN             NaN
             NaN             NaN             NaN
             NaN             NaN             NaN
             NaN             NaN             NaN
