Mg   Si   N 
   1.00000000000000     
  -0.0000001382052431   0.0000000140510389  -5.0254035464199998
  -5.3079888407300002   0.0000001058798297  -0.0000001450372426
  -0.0000001282285563   6.4885468273200004  -0.0000000189720115
Mg   Si   N 
4  4  8  
Direct
  0.0775921202968846  0.4110296159078359  0.8854805841085778  
  0.0775921248655180  0.9110296109453840  0.6311884666023388  
  0.5775921235779862  0.5806463163536506  0.1311884700201418  
  0.5775921195947546  0.0806463067589291  0.3854805879110685  
  0.0888695508383393  0.9256330565277296  0.1337709813062489  
  0.5888695507493438  0.0660428198555678  0.8828981144648296  
  0.0888695422002073  0.4256330490039986  0.3828980682340273  
  0.5888695533457238  0.5660428261354937  0.6337709376989409  
  0.9360185972243116  0.0446220931060424  0.9125767433490352  
  0.4360186090998113  0.9470538453056534  0.1040922968761464  
  0.9989541773494112  0.6050071790272042  0.1635129749379161  
  0.9989541811297472  0.1050071893586235  0.3531560700816456  
  0.4989542199909138  0.3866687262743511  0.8531560691973894  
  0.4989542081819920  0.8866687214093218  0.6635129963854425  
  0.9360186304460072  0.5446220912075574  0.6040922893334510  
  0.4360186452382209  0.4470538415040792  0.4125767737890484  
