Mg   Si   N
1.0
  5.317512665061955 0.0005700544374038 1.450372377e-07
  0.0014736900250774 6.590092138000656 0.1094698616262609
  0.0528322494017379 -1.40510382e-08 5.02540354642
 Mg  Si  N 
4 4 8 
direct
   -0.4261185369642177   0.8834931886765747  -0.9966708852472477
   -0.9220383753353474   0.6311649456125752  -0.0767108617863030
   -0.5662797769672494   0.1313623495485245  -0.4966588096197028
   -0.0783758246020625   0.3880459197482011  -0.5338394383259129
   -0.9275024989836782   0.1333102899799812  -0.1046753083876126
   -0.0607662417512458   0.8828142693892503  -0.6087891492896915
   -0.4276018651274853   0.3827111695157371  -0.9750177363909457
   -0.5627437094371288   0.6344996618972375  -0.4767118719512951
   -0.0379200448459471   0.9121374016367909  -0.9569390137651010
   -0.9497650251578378   0.1008850453087220  -0.4604605099338386
   -0.5993999295673264   0.1650244761715172  -0.0606926146084348
   -0.1031218400699672   0.3531965076241335  -0.0444314922780862
   -0.3916227566923566   0.8531530292534981  -0.5652208370335287
   -0.8913838245276864   0.6636260366257859  -0.5204730653390897
   -0.5367613524631450   0.6023685215992884  -0.1298737056077428
   -0.4519687085388071   0.4155500662328109  -0.6290370412431159
