Mg   Si   N
1.0
  5.325662060220321 0.0048720386749618 1.450372366e-07
  0.0075015587217038 6.610975152783333 0.1735563165840067
  0.0775065254818967 -1.4051038e-08 5.02540354642
 Mg  Si  N 
4 4 8 
direct
   -0.4271552488108910   0.8819164248703190  -0.0000345698157318
   -0.9208989734541009   0.6300974072792727  -0.0803194444060438
   -0.5714862746069543   0.1310612310889354  -0.4883865283342388
   -0.0813997610397834   0.3861278353259651  -0.5075673456129621
   -0.9203618753600223   0.1417893076887395  -0.9935086583091535
   -0.0625035826381719   0.8788192344947348  -0.6187063940787284
   -0.4268460621833867   0.3841179055952609  -0.9720342792900212
   -0.5628799670504209   0.6341743719751634  -0.4788413422280727
   -0.0442293899877910   0.9030849242539177  -0.9778605519834684
   -0.9414560097504108   0.1110262677523437  -0.5540469416686804
   -0.5987747326768300   0.1659932961620073  -0.0590013318871243
   -0.1056597727925066   0.3528627200689770  -0.0579783788668990
   -0.3918698406758665   0.8528568243897398  -0.5659563499187003
   -0.8910210496192121   0.6625609445104033  -0.5230455757668224
   -0.5371931142787006   0.6011729727029262  -0.1309166963715214
   -0.4496346561064398   0.4156812106619512  -0.6279979522694603
