Mg   Si   N                             
   1.00000000000000     
    -0.0003872408604771    0.0000000140510377   -5.0254035464199998
    -5.3080017563058464    0.0000939416120635   -0.0000001450372342
     0.0000948458140163    6.4883938154693990    0.0005798294041985
   Mg   Si   N 
     4     4     8
Direct
  0.9890876025807174  0.4110167249018843  0.8854661591709956
  0.9890862962550457  0.9110068936277429  0.6311829729840568
  0.4890681492564681  0.5806494603442971  0.1311985990812303
  0.4890695865567665  0.0806545686590354  0.3854731119266930
  0.9777626135711870  0.9256205006875149  0.1337630081042747
  0.4777661277217504  0.0660309125565206  0.8829013978520308
  0.9777667259578635  0.4256188141678479  0.3828967611846679
  0.4777745305303114  0.5660314729285219  0.6337688716913732
  0.1306653260988853  0.0445695111049602  0.9126343682988391
  0.6306668563041313  0.9470716564257415  0.1040415161222654
  0.0676208372046858  0.6050097698039210  0.1635556890337924
  0.0676285674654409  0.1050121624873270  0.3531097860317445
  0.5676275566981914  0.3866324466339677  0.8531228957213628
  0.5676264730432834  0.8866345787104137  0.6635560910623468
  0.1306855192144951  0.5445700002072158  0.6040273615757243
  0.6306800010911928  0.4470755557118125  0.4126432996009655
 
             NaN             NaN             NaN
             NaN             NaN             NaN
             NaN             NaN             NaN
             NaN             NaN             NaN
             NaN             NaN             NaN
             NaN             NaN             NaN
             NaN             NaN             NaN
             NaN             NaN             NaN
             NaN             NaN             NaN
             NaN             NaN             NaN
             NaN             NaN             NaN
             NaN             NaN             NaN
             NaN             NaN             NaN
             NaN             NaN             NaN
             NaN             NaN             NaN
             NaN             NaN             NaN
