Mg   Si   N
1.0
  5.326807618072407 0.0037863369255433 1.45037237e-07
  0.006029228423276 6.6104977226991375 0.1644622504487357
  0.0737641789714613 -1.40510381e-08 5.02540354642
 Mg  Si  N 
4 4 8 
direct
   -0.4270538543544617   0.8818117802763581  -0.9991110387351794
   -0.9208269708678999   0.6305340294924023  -0.0797631981848284
   -0.5706125386924513   0.1308047424341297  -0.4908038394428543
   -0.0810723963741964   0.3861656761737394  -0.5114899419629282
   -0.9215382528421330   0.1399869548267674  -0.0339214223366540
   -0.0614566482283720   0.8808048160576832  -0.6152113556777293
   -0.4271986918725049   0.3845251033379072  -0.9714088666724195
   -0.5631121944943801   0.6343399397037005  -0.4789010331816926
   -0.0431273962269714   0.9048793144941528  -0.9722454061704154
   -0.9437717252836251   0.1075746280261356  -0.5230782324198983
   -0.5974889211602133   0.1659559112251898  -0.0576803896736848
   -0.1058882782318804   0.3541155422336786  -0.0550413175733766
   -0.3919049518238324   0.8525496958544851  -0.5662187874574443
   -0.8912645282477810   0.6622509364634085  -0.5228701157117398
   -0.5372243443472372   0.6012936764221523  -0.1307124732411609
   -0.4498286179835561   0.4157501317987453  -0.6277449223656433
