Mg   Si   N
1.0
  5.320490104832736 0.0002229911422607 1.450372349e-07
  0.0011833538697475 6.5557047580954455 0.122467654319422
  0.057927232736806 -1.40510378e-08 5.02540354642
 Mg  Si  N 
4 4 8 
direct
   -0.4194396317913843   0.8850893364253238  -0.0019964408476056
   -0.9106155452362472   0.6260038138606845  -0.0029574225458404
   -0.5786601969889986   0.1344305800579235  -0.4816571395725476
   -0.0829408259834352   0.3858702813896642  -0.4813941733488676
   -0.9248151425448228   0.1350021859885686  -0.9688535814098175
   -0.0679424312999188   0.8790866431841664  -0.5315798685743972
   -0.4240029723910653   0.3825232072270595  -0.9752578498766838
   -0.5648219300041504   0.6323977418264874  -0.4782619701127402
   -0.0452489291244973   0.9079870916818820  -0.0786245066298576
   -0.9415037463954262   0.1134810007630875  -0.6147884388758983
   -0.6038898910064390   0.1672284127925963  -0.0619060472054898
   -0.1039372370308911   0.3522916149708095  -0.0631381193950844
   -0.3925869246756619   0.8552542421621681  -0.5685979239759716
   -0.8856096116697502   0.6602227639114772  -0.5658697319818841
   -0.5420081359073734   0.6014786366537236  -0.1326498835433725
   -0.4453471589814484   0.4149953259250053  -0.6286692429116841
