Mg   Si   N
1.0
  5.3080991941383004 5.19304905681e-05 1.450372422e-07
  -9.71041045255e-05 6.4878807814175445 0.0013198401939621
  -0.0007717068993157 -1.40510388e-08 5.02540354642
 Mg  Si  N 
4 4 8 
direct
   -0.4110219694422596   0.8854760570238654  -0.0905010526014678
   -0.9110141105648922   0.6311872849018201  -0.0905003681811394
   -0.5806835609936414   0.1312138032995591  -0.5905396695893188
   -0.0807040363506459   0.3854826999755829  -0.5905425331709110
   -0.9256384524852025   0.1337678153320425  -0.1018320643759623
   -0.0660527243680988   0.8829047583902750  -0.6018137273863075
   -0.4256394093895609   0.3829014920162380  -0.1018213187829247
   -0.5660573707153986   0.6337765918645033  -0.6018087894877695
   -0.0445921465674459   0.9126211824622814  -0.9489066155023022
   -0.9470874597266885   0.1040403425511940  -0.4489203475848242
   -0.6050387496713725   0.1635472072484490  -0.0119561702050035
   -0.1050363120767273   0.3531040794167525  -0.0119621258127580
   -0.3866477087099653   0.8531255728439078  -0.5119557140602994
   -0.8866445747909352   0.6635409450567948  -0.5119440656983018
   -0.5445857777626985   0.6040180338557235  -0.9488860393273271
   -0.4470897935731344   0.4126359851412715  -0.4488825880067324
