Mg   Si   N                             
   1.00000000000000     
    -0.0666388257732403    0.0000000140510379   -5.0254035464199998
    -5.3261325369639350   -0.0014794569566747   -0.0000001450372356
     0.0029601503196461    6.5683680470194350    0.1419128956140098
   Mg   Si   N 
     4     4     8
Direct
  0.0068819076768136  0.4237876827275784  0.8847111144373585
  0.0101053690118746  0.9090836363776020  0.6226052169674858
  0.4812377274943671  0.5779955828713383  0.1344495336507876
  0.4802939470365430  0.0831469982648230  0.3866438127652785
  0.9614923665376338  0.9222942294157264  0.1398154910647094
  0.6104644508965578  0.0680939496427797  0.8772160139974190
  0.9744391163217827  0.4240762019925981  0.3825112284968810
  0.4789155261881035  0.5646987286580227  0.6329584544805371
  0.0161571121939730  0.0472730829731987  0.9039283698436051
  0.6041439265615409  0.9390645702270319  0.1181591982674064
  0.0615471282273816  0.6039718551581288  0.1673716563660506
  0.0629573326729798  0.1044406614166888  0.3513341708167914
  0.5656206361960372  0.3935163789951943  0.8557527859588703
  0.5606136375996584  0.8856125086313611  0.6597526007913928
  0.1327539402618356  0.5413792883113970  0.6007691177370234
  0.6285782159306308  0.4449349553680406  0.4153641131790167
 
             NaN             NaN             NaN
             NaN             NaN             NaN
             NaN             NaN             NaN
             NaN             NaN             NaN
             NaN             NaN             NaN
             NaN             NaN             NaN
             NaN             NaN             NaN
             NaN             NaN             NaN
             NaN             NaN             NaN
             NaN             NaN             NaN
             NaN             NaN             NaN
             NaN             NaN             NaN
             NaN             NaN             NaN
             NaN             NaN             NaN
             NaN             NaN             NaN
             NaN             NaN             NaN
