Mg   Si   N
1.0
  5.326054701453233 -0.0014436398553806 1.450372408e-07
  -0.0029514729413134 6.568173927392643 -0.1414006836492677
  0.0663695119921074 -1.40510386e-08 5.02540354642
 Mg  Si  N 
4 4 8 
direct
   -0.4085252384416549   0.8866191492290556  -0.0992325191947643
   -0.9136581217522631   0.6344631989513305  -0.0983060418030917
   -0.5825524222686981   0.1227027679932604  -0.5696406431805484
   -0.0680016587912888   0.3847304419608833  -0.5727683997633619
   -0.9269810635839235   0.1329157450463185  -0.1006694032673039
   -0.0676076330877891   0.8825027482043171  -0.6050589387813475
   -0.4235535375969519   0.3772267822242625  -0.9702819786703643
   -0.5693062650635740   0.6396819474700095  -0.6178464571814574
   -0.0467269119942344   0.9153644489769877  -0.9509557648156816
   -0.9502689433141569   0.1007914410868906  -0.4467867758469596
   -0.6060894457847397   0.1597270733743983  -0.0188031914234017
   -0.0981172280231988   0.3557408752031179  -0.0138789429175716
   -0.3872504237037546   0.8513803831948864  -0.5165828358814579
   -0.8877068801155376   0.6673794603931783  -0.5179829501827414
   -0.5525794350116229   0.6180977182441155  -0.9752089093732651
   -0.4444451024981150   0.4040186972675599  -0.5621985885235787
