Mg   Si   N
1.0
  5.32549598574758 0.0023576034451627 1.450372373e-07
  0.0040924916771187 6.605369157803472 0.1508975271714246
  0.0684648019743223 -1.40510381e-08 5.02540354642
 Mg  Si  N 
4 4 8 
direct
   -0.4269023005123457   0.8821487719030118  -0.9983167026515289
   -0.9210471116943851   0.6307360375298573  -0.0786092854482803
   -0.5687667501759391   0.1309506829139693  -0.4931384577979046
   -0.0809938442322036   0.3871272124556029  -0.5161376207014284
   -0.9239704840514593   0.1367284226291829  -0.0736362709438225
   -0.0608092250204422   0.8820692049092927  -0.6124414732435709
   -0.4272868378511988   0.3840603518238268  -0.9720871242055933
   -0.5630554558184073   0.6344121085278829  -0.4783754386314597
   -0.0413303610412825   0.9076520364352946  -0.9657635520686439
   -0.9456232627530807   0.1048958194237173  -0.4914100511498559
   -0.5979894423616939   0.1657218124170186  -0.0573084117385960
   -0.1052664300972523   0.3541115629367583  -0.0522097672219317
   -0.3917076674860027   0.8527179373415379  -0.5660341089702285
   -0.8912760893883203   0.6626186246596434  -0.5224067615562545
   -0.5371931587348513   0.6015873486501278  -0.1304826749957115
   -0.4501518898126164   0.4158049442639111  -0.6278446394828520
