supercell of supercell of icsd_608626.c 
   1.00600000000000     
    18.8433725412000008    0.0042597715995000    0.0111656436851000
    -6.2786657403800001   10.8752831735999997   -0.0012954496991100
     0.0059525623905900    0.0022414031449000   10.0498800689000003
   Al   Gd   N 
    92     3    96
Direct
  0.1106756024047399  0.0825905595784491  0.2507385272793101
  0.0542435090697211  0.1627288878077593  0.0014133822380842
  0.4446397228964827  0.3356563131471546  0.7493102164866769
  0.3894285480174347  0.4172258846141759  0.4984697543167016
  0.2786127157098619  0.0850948751016816  0.2575916439964274
  0.2197267548609645  0.1711001226009543  0.0033020280548115
  0.1111508019873497  0.3332295147132101  0.7452561613805955
  0.0555038068398801  0.4173424625798816  0.4989333632858433
  0.4437923716189545  0.0829878120262961  0.2485980447711427
  0.3920412454481053  0.1755705430867280  0.9985225246044038
  0.2774743875683683  0.3338903473073245  0.7457328620323338
  0.2223469942309109  0.4168741109090917  0.4974647678201265
  0.1110912639571140  0.0836806257095901  0.7488301410397682
  0.0550757091936092  0.1654615679360845  0.4991595574172578
  0.4450619454979758  0.3342216384366026  0.2492295226645709
  0.3883932503608989  0.4179651579418930  0.0011995221657912
  0.2800429411051581  0.0917445195209865  0.7420855473021888
  0.2211964598712726  0.1669640503161745  0.4990089630117325
  0.1083856027636401  0.3310098496060405  0.2507839019159803
  0.0569919359336808  0.4202775225639641  0.0022818769804829
  0.4431916037711829  0.0819050847452658  0.7489199162627997
  0.3906198566631929  0.1686785328578750  0.4996282246292694
  0.2793940744964303  0.3319813822061946  0.2510658374946857
  0.6114931986328642  0.0837958140758417  0.2480387403687416
  0.5495061777693664  0.1605643716720451  0.9981264603743298
  0.9460107560395414  0.3344227668289363  0.7493047155982708
  0.8902602764256073  0.4172301569529537  0.5000491629588524
  0.7790919433844721  0.0857615729109256  0.2582825391475083
  0.7250823764593122  0.1682868622371956  0.9982408682548751
  0.6059318813768968  0.3294124898139472  0.7428764339558995
  0.5550060412303566  0.4180839812873032  0.4995083225511081
  0.9438692757116343  0.0826836056670786  0.2495158073565733
  0.8927759127823265  0.1724307160856995  0.9985425440879254
  0.7798267289078566  0.3314029649495680  0.7438474052224464
  0.7220879305936236  0.4164479849298033  0.4999527481450770
  0.6108251771423170  0.0830027043095640  0.7490671760328027
  0.5543756134014401  0.1641195410881622  0.4997316242884153
  0.9445063010796275  0.3334886607936056  0.2498314144223812
  0.8914651550904367  0.4154923375687289  0.9996386233592602
  0.7800503175334299  0.0878822138801709  0.7441787342180604
  0.7214451001512074  0.1660011154155114  0.5010696017210705
  0.6093433961266541  0.3317937832739588  0.2583365379123705
  0.5527610781311481  0.4172207326744726  0.9987172437719636
  0.9450397900499397  0.0837894637343766  0.7491437255392484
  0.8905721568367042  0.1682899680316581  0.5002857074659985
  0.7788044029926056  0.3326917471496955  0.2582712462369869
  0.1107065133909302  0.5836139893204759  0.2508350773293557
  0.0517666538904251  0.6629204030495899  0.9997148064789059
  0.4447653175927186  0.8334767640621692  0.7492649941178584
  0.3899941268114873  0.9170558179952906  0.4991879307228118
  0.2798216280923427  0.5874861877863609  0.2504808448134668
  0.2197676026121584  0.6587815907299728  0.0035091509672469
  0.1073820380631361  0.8303682707015980  0.7451118932504954
  0.0550586195083724  0.9172067446034617  0.5003325440361337
  0.4447295660149067  0.5836778778638987  0.2496287625551759
  0.3913378904173115  0.6686099137110162  0.9997184366551508
  0.2795565367116950  0.8282757915598467  0.7417313971290938
  0.2223982170892569  0.9169017345555091  0.5013983052729074
  0.1111458338156481  0.5828393674385026  0.7488824980897064
  0.0546626466357836  0.6648922937346455  0.5005607138094419
  0.4451711448650357  0.8339542609659887  0.2492710971319596
  0.3897674398697148  0.9117992515652915  0.0000684427414583
  0.2780074369258116  0.5830828317128507  0.7457666150773221
  0.2212326107625131  0.6648075491760110  0.4989159427627428
  0.1099600245358161  0.8322314749036295  0.2573369748838559
  0.0538490936418583  0.9158243459554996  0.0003407947694569
  0.4437103792609136  0.5823855555376767  0.7484451092574389
  0.3901023431181940  0.6677179980264185  0.4988322228773185
  0.2782919538788420  0.8327261094672664  0.2579990145911495
  0.6118709242430498  0.5840891690150087  0.2482177219910113
  0.5514750336172725  0.6621144864033610  0.9979636958790650
  0.9452404189855841  0.8344294324810591  0.7504414941726978
  0.8903892460706189  0.9173736509208084  0.5002176371053366
  0.7789536865494213  0.5853435788673167  0.2579245269258550
  0.7256094938155258  0.6691023068389015  0.9982472735930159
  0.6069997489239043  0.8299579176630871  0.7429417387773753
  0.5550285974563849  0.9176617403300256  0.4996416047032000
  0.9440824177922096  0.5831163918391056  0.2496306852026180
  0.8917893719262722  0.6714698083964663  0.9986343149486032
  0.7799643338353803  0.8320914285205703  0.7440610688635800
  0.7223944019078985  0.9167397731376354  0.4994345516957637
  0.6113305657562194  0.5836809060523791  0.7492113966046148
  0.5548525023909434  0.6645290662523493  0.4999129655613928
  0.9446242806635468  0.8332622077838749  0.2497684805311096
  0.8912317595990018  0.9157800237075691  0.9993139571830554
  0.7798343537291288  0.5876909234448533  0.7447697885264404
  0.7217150408977204  0.6661365499309184  0.5011470376008660
  0.6097068947080899  0.8320749748139136  0.2586515148911772
  0.5531725352972003  0.9154210817712425  0.9985792078176772
  0.9442882962832897  0.5825395301801706  0.7500356340921570
  0.8904448803455765  0.6681024026840561  0.5004850565895964
  0.7790163235340799  0.8326678553776574  0.2586335390471532
  0.7189060739380864  0.4130063432480711  0.9967441924416107
  0.2251981846318429  0.9191691087497063  0.9917767358855158
  0.7203261964471039  0.9151047076569228  0.9982686284321289
  0.1108334818014853  0.0831110044476944  0.4395648383044843
  0.0554521883999470  0.1659737192571242  0.1906813076486884
  0.4448098274041712  0.3395439053136897  0.9398403191121290
  0.3882890565116170  0.4166642891241139  0.6877469998066701
  0.2786587527186128  0.0855345751880989  0.4467083380850454
  0.2220984258904650  0.1660585997665578  0.1924670706933043
  0.0963299812971101  0.3216018132784413  0.9324314498239659
  0.0563866003853448  0.4175083073760035  0.6883943240907868
  0.4438150090735320  0.0827848911437243  0.4384446643550817
  0.3883556915297959  0.1671181097716499  0.1898425830964783
  0.2825051334809245  0.3264484514830244  0.9330666127364680
  0.2222225719725870  0.4169574893516312  0.6897983466191633
  0.1110816501455574  0.0827420806414025  0.9411394173282019
  0.0558533822846954  0.1664896427313565  0.6889547926226456
  0.4445405419486477  0.3340810585598319  0.4385645320440759
  0.3891044183349450  0.4171108095572009  0.1907755521310790
  0.2858193570306895  0.1135084648819813  0.9293880296488837
  0.2207934642492759  0.1681497748788559  0.6864438609248538
  0.1106313967414323  0.3327667104815433  0.4416266163306020
  0.0560839116375860  0.4174879433926435  0.1912415242136021
  0.4378129011214327  0.0767860343824367  0.9407397904856225
  0.3910534063163453  0.1694124183324348  0.6886429301291486
  0.2780710448010240  0.3333527284726898  0.4410628097461284
  0.2222552703302085  0.4167573154899955  0.2182917131558568
  0.6111439755642110  0.0835025730404837  0.4381538400630802
  0.5551366834413258  0.1668112194530664  0.1895342103988824
  0.9492201225973460  0.3374073529990866  0.9399577992386838
  0.8909788677492401  0.4175342156083275  0.6885324412288796
  0.7792073188419693  0.0860414478689009  0.4469088101454872
  0.7233025867490994  0.1674202743468740  0.1907491708469706
  0.5908719134657900  0.3177104837288809  0.9284777823768451
  0.5545892188779433  0.4187319948756780  0.6878086004632493
  0.9446740901996407  0.0834840684009635  0.4393256835079526
  0.8890765103829708  0.1669734058279104  0.1904024616381079
  0.7868035365385850  0.3258014063196981  0.9301616606445151
  0.7214474482316220  0.4157768154456036  0.6963561073270697
  0.6116701352815852  0.0842467961092552  0.9414546612028758
  0.5536348381271097  0.1626829414211173  0.6885936977322444
  0.9452989916851351  0.3339358891371234  0.4392241140656665
  0.8887382852826420  0.4162330017993199  0.1910333245860016
  0.7872579295154978  0.1036963994170392  0.9303127365324926
  0.7207953635290352  0.1653261375111299  0.6882499144242971
  0.6090217061866241  0.3315567858545805  0.4471533251276938
  0.5562965156168502  0.4167597266513070  0.1901957319823993
  0.9441521462707740  0.0826626154774743  0.9405490751617123
  0.8914627907217891  0.1688143168076124  0.6889113962277662
  0.7788498144372014  0.3325642996131037  0.4469065511344539
  0.7220754425808238  0.4163305670888491  0.2187816533326270
  0.1108622340134247  0.5833023177252983  0.4395989297442000
  0.0557169230705767  0.6672196821183860  0.1910059291237829
  0.4453315542708509  0.8342801981185062  0.9397948568766665
  0.3899924912288171  0.9167872381798432  0.6876720939892991
  0.2785649795576646  0.5841877052484605  0.4409652240905828
  0.2221380059355695  0.6671357027887055  0.1925418901840956
  0.0971093094532236  0.8220600884368494  0.9323581349080712
  0.0556139765657662  0.9184118707320366  0.6890094933419206
  0.4443064925895612  0.5831409580471032  0.4390753249963311
  0.3896475265854207  0.6674514150370570  0.1897937649422445
  0.2846541916949690  0.8146820852760186  0.9291319583418272
  0.2231388335762006  0.9175654369535664  0.6993705141445474
  0.1112339789011472  0.5843946303477452  0.9411748405029243
  0.0550735081110290  0.6642958961874683  0.6895748110191988
  0.4445895020411044  0.8334738862360780  0.4385696409514424
  0.3879272530876605  0.9154597338858323  0.1908189138073908
  0.2843577652475062  0.6002780156589793  0.9330453705671715
  0.2208148594636015  0.6630231484581302  0.6863517428829411
  0.1101371823388462  0.8323618996453561  0.4470125355382919
  0.0562940239269523  0.9165270236058305  0.1914255324455212
  0.4413801085500850  0.5797867055897967  0.9394437186381381
  0.3893939264039332  0.6671536626653420  0.6885856680425775
  0.2782137172258956  0.8322137502986706  0.4466751151043979
  0.2223762875860942  0.9168377884045569  0.2141538372432024
  0.6114572207442421  0.5837753317253842  0.4381864139704987
  0.5558531682547070  0.6674057176858099  0.1897659807735295
  0.9468616569569548  0.8365664072095313  0.9406152691970107
  0.8911468999173024  0.9184362654059441  0.6886436168934011
  0.7790144018906702  0.5854709670889591  0.4468877975348846
  0.7235643642804490  0.6676766641682974  0.1908985723676722
  0.5934320490013860  0.8191932537884696  0.9283993134411688
  0.5546748680102880  0.9178998090271904  0.6879437958252126
  0.9444513773009646  0.5831561364984950  0.4394993611849145
  0.8888543788662915  0.6666708886533783  0.1906032351349225
  0.7865783509927908  0.8267341063485603  0.9300630421278484
  0.7219885155524466  0.9164630919012708  0.6953708190198498
  0.6127357562201041  0.5850504051670669  0.9414237438373334
  0.5541303181912554  0.6631940090637585  0.6884118300784010
  0.9450658419941647  0.8337731150415237  0.4393213692227391
  0.8887730332196710  0.9164343066116203  0.1909060784196583
  0.7862506797260238  0.6019817547436332  0.9309747196177085
  0.7211956637409074  0.6658057661722552  0.6882950669449670
  0.6092832119651490  0.8317680330533079  0.4471958769588653
  0.5563981708627352  0.9166381645465265  0.1901291890405048
  0.9423358231104473  0.5801312661040754  0.9410550042763930
  0.8912981399746442  0.6685810166786652  0.6893913156658442
  0.7791089317912778  0.8326658190604235  0.4470692733049759
  0.7224646987331766  0.9167565593989835  0.2201969783423081
 
  0.00000000E+00  0.00000000E+00  0.00000000E+00
  0.00000000E+00  0.00000000E+00  0.00000000E+00
  0.00000000E+00  0.00000000E+00  0.00000000E+00
  0.00000000E+00  0.00000000E+00  0.00000000E+00
  0.00000000E+00  0.00000000E+00  0.00000000E+00
  0.00000000E+00  0.00000000E+00  0.00000000E+00
  0.00000000E+00  0.00000000E+00  0.00000000E+00
  0.00000000E+00  0.00000000E+00  0.00000000E+00
  0.00000000E+00  0.00000000E+00  0.00000000E+00
  0.00000000E+00  0.00000000E+00  0.00000000E+00
  0.00000000E+00  0.00000000E+00  0.00000000E+00
  0.00000000E+00  0.00000000E+00  0.00000000E+00
  0.00000000E+00  0.00000000E+00  0.00000000E+00
  0.00000000E+00  0.00000000E+00  0.00000000E+00
  0.00000000E+00  0.00000000E+00  0.00000000E+00
  0.00000000E+00  0.00000000E+00  0.00000000E+00
  0.00000000E+00  0.00000000E+00  0.00000000E+00
  0.00000000E+00  0.00000000E+00  0.00000000E+00
  0.00000000E+00  0.00000000E+00  0.00000000E+00
  0.00000000E+00  0.00000000E+00  0.00000000E+00
  0.00000000E+00  0.00000000E+00  0.00000000E+00
  0.00000000E+00  0.00000000E+00  0.00000000E+00
  0.00000000E+00  0.00000000E+00  0.00000000E+00
  0.00000000E+00  0.00000000E+00  0.00000000E+00
  0.00000000E+00  0.00000000E+00  0.00000000E+00
  0.00000000E+00  0.00000000E+00  0.00000000E+00
  0.00000000E+00  0.00000000E+00  0.00000000E+00
  0.00000000E+00  0.00000000E+00  0.00000000E+00
  0.00000000E+00  0.00000000E+00  0.00000000E+00
  0.00000000E+00  0.00000000E+00  0.00000000E+00
  0.00000000E+00  0.00000000E+00  0.00000000E+00
  0.00000000E+00  0.00000000E+00  0.00000000E+00
  0.00000000E+00  0.00000000E+00  0.00000000E+00
  0.00000000E+00  0.00000000E+00  0.00000000E+00
  0.00000000E+00  0.00000000E+00  0.00000000E+00
  0.00000000E+00  0.00000000E+00  0.00000000E+00
  0.00000000E+00  0.00000000E+00  0.00000000E+00
  0.00000000E+00  0.00000000E+00  0.00000000E+00
  0.00000000E+00  0.00000000E+00  0.00000000E+00
  0.00000000E+00  0.00000000E+00  0.00000000E+00
  0.00000000E+00  0.00000000E+00  0.00000000E+00
  0.00000000E+00  0.00000000E+00  0.00000000E+00
  0.00000000E+00  0.00000000E+00  0.00000000E+00
  0.00000000E+00  0.00000000E+00  0.00000000E+00
  0.00000000E+00  0.00000000E+00  0.00000000E+00
  0.00000000E+00  0.00000000E+00  0.00000000E+00
  0.00000000E+00  0.00000000E+00  0.00000000E+00
  0.00000000E+00  0.00000000E+00  0.00000000E+00
  0.00000000E+00  0.00000000E+00  0.00000000E+00
  0.00000000E+00  0.00000000E+00  0.00000000E+00
  0.00000000E+00  0.00000000E+00  0.00000000E+00
  0.00000000E+00  0.00000000E+00  0.00000000E+00
  0.00000000E+00  0.00000000E+00  0.00000000E+00
  0.00000000E+00  0.00000000E+00  0.00000000E+00
  0.00000000E+00  0.00000000E+00  0.00000000E+00
  0.00000000E+00  0.00000000E+00  0.00000000E+00
  0.00000000E+00  0.00000000E+00  0.00000000E+00
  0.00000000E+00  0.00000000E+00  0.00000000E+00
  0.00000000E+00  0.00000000E+00  0.00000000E+00
  0.00000000E+00  0.00000000E+00  0.00000000E+00
  0.00000000E+00  0.00000000E+00  0.00000000E+00
  0.00000000E+00  0.00000000E+00  0.00000000E+00
  0.00000000E+00  0.00000000E+00  0.00000000E+00
  0.00000000E+00  0.00000000E+00  0.00000000E+00
  0.00000000E+00  0.00000000E+00  0.00000000E+00
  0.00000000E+00  0.00000000E+00  0.00000000E+00
  0.00000000E+00  0.00000000E+00  0.00000000E+00
  0.00000000E+00  0.00000000E+00  0.00000000E+00
  0.00000000E+00  0.00000000E+00  0.00000000E+00
  0.00000000E+00  0.00000000E+00  0.00000000E+00
  0.00000000E+00  0.00000000E+00  0.00000000E+00
  0.00000000E+00  0.00000000E+00  0.00000000E+00
  0.00000000E+00  0.00000000E+00  0.00000000E+00
  0.00000000E+00  0.00000000E+00  0.00000000E+00
  0.00000000E+00  0.00000000E+00  0.00000000E+00
  0.00000000E+00  0.00000000E+00  0.00000000E+00
  0.00000000E+00  0.00000000E+00  0.00000000E+00
  0.00000000E+00  0.00000000E+00  0.00000000E+00
  0.00000000E+00  0.00000000E+00  0.00000000E+00
  0.00000000E+00  0.00000000E+00  0.00000000E+00
  0.00000000E+00  0.00000000E+00  0.00000000E+00
  0.00000000E+00  0.00000000E+00  0.00000000E+00
  0.00000000E+00  0.00000000E+00  0.00000000E+00
  0.00000000E+00  0.00000000E+00  0.00000000E+00
  0.00000000E+00  0.00000000E+00  0.00000000E+00
  0.00000000E+00  0.00000000E+00  0.00000000E+00
  0.00000000E+00  0.00000000E+00  0.00000000E+00
  0.00000000E+00  0.00000000E+00  0.00000000E+00
  0.00000000E+00  0.00000000E+00  0.00000000E+00
  0.00000000E+00  0.00000000E+00  0.00000000E+00
  0.00000000E+00  0.00000000E+00  0.00000000E+00
  0.00000000E+00  0.00000000E+00  0.00000000E+00
  0.00000000E+00  0.00000000E+00  0.00000000E+00
  0.00000000E+00  0.00000000E+00  0.00000000E+00
  0.00000000E+00  0.00000000E+00  0.00000000E+00
  0.00000000E+00  0.00000000E+00  0.00000000E+00
  0.00000000E+00  0.00000000E+00  0.00000000E+00
  0.00000000E+00  0.00000000E+00  0.00000000E+00
  0.00000000E+00  0.00000000E+00  0.00000000E+00
  0.00000000E+00  0.00000000E+00  0.00000000E+00
  0.00000000E+00  0.00000000E+00  0.00000000E+00
  0.00000000E+00  0.00000000E+00  0.00000000E+00
  0.00000000E+00  0.00000000E+00  0.00000000E+00
  0.00000000E+00  0.00000000E+00  0.00000000E+00
  0.00000000E+00  0.00000000E+00  0.00000000E+00
  0.00000000E+00  0.00000000E+00  0.00000000E+00
  0.00000000E+00  0.00000000E+00  0.00000000E+00
  0.00000000E+00  0.00000000E+00  0.00000000E+00
  0.00000000E+00  0.00000000E+00  0.00000000E+00
  0.00000000E+00  0.00000000E+00  0.00000000E+00
  0.00000000E+00  0.00000000E+00  0.00000000E+00
  0.00000000E+00  0.00000000E+00  0.00000000E+00
  0.00000000E+00  0.00000000E+00  0.00000000E+00
  0.00000000E+00  0.00000000E+00  0.00000000E+00
  0.00000000E+00  0.00000000E+00  0.00000000E+00
  0.00000000E+00  0.00000000E+00  0.00000000E+00
  0.00000000E+00  0.00000000E+00  0.00000000E+00
  0.00000000E+00  0.00000000E+00  0.00000000E+00
  0.00000000E+00  0.00000000E+00  0.00000000E+00
  0.00000000E+00  0.00000000E+00  0.00000000E+00
  0.00000000E+00  0.00000000E+00  0.00000000E+00
  0.00000000E+00  0.00000000E+00  0.00000000E+00
  0.00000000E+00  0.00000000E+00  0.00000000E+00
  0.00000000E+00  0.00000000E+00  0.00000000E+00
  0.00000000E+00  0.00000000E+00  0.00000000E+00
  0.00000000E+00  0.00000000E+00  0.00000000E+00
  0.00000000E+00  0.00000000E+00  0.00000000E+00
  0.00000000E+00  0.00000000E+00  0.00000000E+00
  0.00000000E+00  0.00000000E+00  0.00000000E+00
  0.00000000E+00  0.00000000E+00  0.00000000E+00
  0.00000000E+00  0.00000000E+00  0.00000000E+00
  0.00000000E+00  0.00000000E+00  0.00000000E+00
  0.00000000E+00  0.00000000E+00  0.00000000E+00
  0.00000000E+00  0.00000000E+00  0.00000000E+00
  0.00000000E+00  0.00000000E+00  0.00000000E+00
  0.00000000E+00  0.00000000E+00  0.00000000E+00
  0.00000000E+00  0.00000000E+00  0.00000000E+00
  0.00000000E+00  0.00000000E+00  0.00000000E+00
  0.00000000E+00  0.00000000E+00  0.00000000E+00
  0.00000000E+00  0.00000000E+00  0.00000000E+00
  0.00000000E+00  0.00000000E+00  0.00000000E+00
  0.00000000E+00  0.00000000E+00  0.00000000E+00
  0.00000000E+00  0.00000000E+00  0.00000000E+00
  0.00000000E+00  0.00000000E+00  0.00000000E+00
  0.00000000E+00  0.00000000E+00  0.00000000E+00
  0.00000000E+00  0.00000000E+00  0.00000000E+00
  0.00000000E+00  0.00000000E+00  0.00000000E+00
  0.00000000E+00  0.00000000E+00  0.00000000E+00
  0.00000000E+00  0.00000000E+00  0.00000000E+00
  0.00000000E+00  0.00000000E+00  0.00000000E+00
  0.00000000E+00  0.00000000E+00  0.00000000E+00
  0.00000000E+00  0.00000000E+00  0.00000000E+00
  0.00000000E+00  0.00000000E+00  0.00000000E+00
  0.00000000E+00  0.00000000E+00  0.00000000E+00
  0.00000000E+00  0.00000000E+00  0.00000000E+00
  0.00000000E+00  0.00000000E+00  0.00000000E+00
  0.00000000E+00  0.00000000E+00  0.00000000E+00
  0.00000000E+00  0.00000000E+00  0.00000000E+00
  0.00000000E+00  0.00000000E+00  0.00000000E+00
  0.00000000E+00  0.00000000E+00  0.00000000E+00
  0.00000000E+00  0.00000000E+00  0.00000000E+00
  0.00000000E+00  0.00000000E+00  0.00000000E+00
  0.00000000E+00  0.00000000E+00  0.00000000E+00
  0.00000000E+00  0.00000000E+00  0.00000000E+00
  0.00000000E+00  0.00000000E+00  0.00000000E+00
  0.00000000E+00  0.00000000E+00  0.00000000E+00
  0.00000000E+00  0.00000000E+00  0.00000000E+00
  0.00000000E+00  0.00000000E+00  0.00000000E+00
  0.00000000E+00  0.00000000E+00  0.00000000E+00
  0.00000000E+00  0.00000000E+00  0.00000000E+00
  0.00000000E+00  0.00000000E+00  0.00000000E+00
  0.00000000E+00  0.00000000E+00  0.00000000E+00
  0.00000000E+00  0.00000000E+00  0.00000000E+00
  0.00000000E+00  0.00000000E+00  0.00000000E+00
  0.00000000E+00  0.00000000E+00  0.00000000E+00
  0.00000000E+00  0.00000000E+00  0.00000000E+00
  0.00000000E+00  0.00000000E+00  0.00000000E+00
  0.00000000E+00  0.00000000E+00  0.00000000E+00
  0.00000000E+00  0.00000000E+00  0.00000000E+00
  0.00000000E+00  0.00000000E+00  0.00000000E+00
  0.00000000E+00  0.00000000E+00  0.00000000E+00
  0.00000000E+00  0.00000000E+00  0.00000000E+00
  0.00000000E+00  0.00000000E+00  0.00000000E+00
  0.00000000E+00  0.00000000E+00  0.00000000E+00
  0.00000000E+00  0.00000000E+00  0.00000000E+00
  0.00000000E+00  0.00000000E+00  0.00000000E+00
  0.00000000E+00  0.00000000E+00  0.00000000E+00
  0.00000000E+00  0.00000000E+00  0.00000000E+00
  0.00000000E+00  0.00000000E+00  0.00000000E+00
  0.00000000E+00  0.00000000E+00  0.00000000E+00
  0.00000000E+00  0.00000000E+00  0.00000000E+00
