supercell of 100% icsd_608626.cif, 0% i 
   1.00000000000000     
    -9.7099299042828200    0.0019944053728873   -0.0040918558965047
    -4.8566900987990138    8.4537355724813477   -0.0330698527866500
    -0.0043551180382287    0.0379008522325400  -10.2876646263407814
   Al   Hf   Sr   N 
    30     3     3    36
Direct
  0.1050022578135028  0.1017433903729668  0.2983276067679483
  0.2141926080155514  0.2075367571186533  0.0554024084778888
  0.7782456583474300  0.1055067516687913  0.7982636942344286
  0.8773495298422915  0.2208722596081287  0.5470324170278857
  0.4451682801237808  0.0881517335345663  0.3027225487355025
  0.1068702991286798  0.1016850242390746  0.7888359496678063
  0.2191358800365677  0.2109635860338770  0.5331879299891824
  0.7809307452824328  0.0966598472460660  0.2910974335134782
  0.8896023233756694  0.2163690248603771  0.0470922642232736
  0.4362982193816762  0.0865203708772739  0.7969825768453020
  0.5507336167781460  0.2126280165698660  0.5500449020456699
  0.1132709580248914  0.4273317462137811  0.3006533512958001
  0.2215574752395284  0.5452706144976318  0.0517355944472158
  0.7749288956903015  0.4252689996349233  0.7954672883680232
  0.8840791512029327  0.5345645756938993  0.5337726606224393
  0.4453827289149146  0.4318113936150638  0.2999222779759663
  0.5636074435368172  0.5394351153709138  0.0479733328165182
  0.2268801869971071  0.5303196118035132  0.5315465313906031
  0.7751535745380096  0.4262246241183476  0.2947067449501475
  0.8894114308727410  0.5313942981523070  0.0576692748214782
  0.4445733571595767  0.4362240492476062  0.7937601984647884
  0.5626768971789673  0.5278915129423964  0.5458220846747821
  0.1106466567772273  0.7589285063906672  0.2863321593986186
  0.4538990677843415  0.7532987727926255  0.3000853750288783
  0.5552460141306454  0.8654345957122374  0.0538007274939787
  0.1217241682416983  0.7572767021518843  0.7928632138224572
  0.7760578105069555  0.7617711071071867  0.2806352397014820
  0.8958669696998314  0.8707222106129109  0.0593186884781005
  0.4503549958989694  0.7515023062955706  0.7862473417016389
  0.5589673584577000  0.8637623939330012  0.5448438197053207
  0.5494374083936933  0.2078208659522716  0.0532962218523139
  0.7734656956778494  0.7599262370778064  0.8172979358968036
  0.2233336847740688  0.8719608835699688  0.5631027344135120
  0.1221696641495456  0.4239511044477524  0.7917648685362551
  0.2284905006121605  0.8810757106735778  0.0305259983999093
  0.8742162644816958  0.8793598113848020  0.5407370570264263
  0.2271679990460171  0.2002835385580184  0.3505071789006564
  0.0859050394144205  0.1355844306661140  0.1221045494795021
  0.8907933309346774  0.2082349817142983  0.8582052920612639
  0.7547156034977860  0.1400753248297022  0.6191141187881186
  0.5560067131598316  0.2043210965746383  0.3513032349214811
  0.4388564009254097  0.0812477455171177  0.1149251673467191
  0.2368574194892261  0.1640202143971266  0.8741416407104481
  0.0956341203788043  0.1234833011222136  0.6018242389810382
  0.8843024690441865  0.2069505378859944  0.3599570296002170
  0.7881188963853631  0.0966022700501838  0.1015034245318489
  0.5471976616156624  0.2057434998675589  0.8498392646748414
  0.4429958169678798  0.0899627105230536  0.6047618902437648
  0.2265670854126896  0.5400251025195786  0.3472228881849233
  0.1167920149308870  0.4271623898360559  0.1042578793109143
  0.8635944144943366  0.5339930031961586  0.8767459349334317
  0.7777889174001018  0.4303227894263699  0.6054599059463044
  0.5586090236797858  0.5336211989042567  0.3606883548132416
  0.4431321597504123  0.4414683458254274  0.1127594136627934
  0.2470334389988551  0.5618890606567248  0.8727001414074991
  0.1075341005063422  0.4291726633259856  0.5577610851459127
  0.8822371701064426  0.5431580919343162  0.3421937606753218
  0.7748816982214919  0.4251939113678844  0.1098085185173616
  0.5585366322641576  0.5366113055691315  0.8541342814643471
  0.4396491021873530  0.4278299966285033  0.6035796912881040
  0.2225029846056685  0.8724375480411410  0.3480213579722644
  0.1018055750450202  0.7464362117617895  0.1095375620707557
  0.9012883437887425  0.8835030325708217  0.8570566414278673
  0.7610894900763086  0.7334064334088595  0.6195649670587713
  0.5617377189960280  0.8694764119688685  0.3583679860466162
  0.4862201323106419  0.7367684435935971  0.1218745246783328
  0.2241440606981584  0.8777359972502907  0.7904188245544432
  0.1365244064467319  0.7257549580587082  0.6107188547862208
  0.8844245278163427  0.8750158824450551  0.3123710533769071
  0.7768676013495224  0.7634189459396623  0.0892752389402816
  0.5342267075174476  0.8744526134176311  0.8643960669405217
  0.4653334454694331  0.7434714991249294  0.6000275837450388
 
  0.00000000E+00  0.00000000E+00  0.00000000E+00
  0.00000000E+00  0.00000000E+00  0.00000000E+00
  0.00000000E+00  0.00000000E+00  0.00000000E+00
  0.00000000E+00  0.00000000E+00  0.00000000E+00
  0.00000000E+00  0.00000000E+00  0.00000000E+00
  0.00000000E+00  0.00000000E+00  0.00000000E+00
  0.00000000E+00  0.00000000E+00  0.00000000E+00
  0.00000000E+00  0.00000000E+00  0.00000000E+00
  0.00000000E+00  0.00000000E+00  0.00000000E+00
  0.00000000E+00  0.00000000E+00  0.00000000E+00
  0.00000000E+00  0.00000000E+00  0.00000000E+00
  0.00000000E+00  0.00000000E+00  0.00000000E+00
  0.00000000E+00  0.00000000E+00  0.00000000E+00
  0.00000000E+00  0.00000000E+00  0.00000000E+00
  0.00000000E+00  0.00000000E+00  0.00000000E+00
  0.00000000E+00  0.00000000E+00  0.00000000E+00
  0.00000000E+00  0.00000000E+00  0.00000000E+00
  0.00000000E+00  0.00000000E+00  0.00000000E+00
  0.00000000E+00  0.00000000E+00  0.00000000E+00
  0.00000000E+00  0.00000000E+00  0.00000000E+00
  0.00000000E+00  0.00000000E+00  0.00000000E+00
  0.00000000E+00  0.00000000E+00  0.00000000E+00
  0.00000000E+00  0.00000000E+00  0.00000000E+00
  0.00000000E+00  0.00000000E+00  0.00000000E+00
  0.00000000E+00  0.00000000E+00  0.00000000E+00
  0.00000000E+00  0.00000000E+00  0.00000000E+00
  0.00000000E+00  0.00000000E+00  0.00000000E+00
  0.00000000E+00  0.00000000E+00  0.00000000E+00
  0.00000000E+00  0.00000000E+00  0.00000000E+00
  0.00000000E+00  0.00000000E+00  0.00000000E+00
  0.00000000E+00  0.00000000E+00  0.00000000E+00
  0.00000000E+00  0.00000000E+00  0.00000000E+00
  0.00000000E+00  0.00000000E+00  0.00000000E+00
  0.00000000E+00  0.00000000E+00  0.00000000E+00
  0.00000000E+00  0.00000000E+00  0.00000000E+00
  0.00000000E+00  0.00000000E+00  0.00000000E+00
  0.00000000E+00  0.00000000E+00  0.00000000E+00
  0.00000000E+00  0.00000000E+00  0.00000000E+00
  0.00000000E+00  0.00000000E+00  0.00000000E+00
  0.00000000E+00  0.00000000E+00  0.00000000E+00
  0.00000000E+00  0.00000000E+00  0.00000000E+00
  0.00000000E+00  0.00000000E+00  0.00000000E+00
  0.00000000E+00  0.00000000E+00  0.00000000E+00
  0.00000000E+00  0.00000000E+00  0.00000000E+00
  0.00000000E+00  0.00000000E+00  0.00000000E+00
  0.00000000E+00  0.00000000E+00  0.00000000E+00
  0.00000000E+00  0.00000000E+00  0.00000000E+00
  0.00000000E+00  0.00000000E+00  0.00000000E+00
  0.00000000E+00  0.00000000E+00  0.00000000E+00
  0.00000000E+00  0.00000000E+00  0.00000000E+00
  0.00000000E+00  0.00000000E+00  0.00000000E+00
  0.00000000E+00  0.00000000E+00  0.00000000E+00
  0.00000000E+00  0.00000000E+00  0.00000000E+00
  0.00000000E+00  0.00000000E+00  0.00000000E+00
  0.00000000E+00  0.00000000E+00  0.00000000E+00
  0.00000000E+00  0.00000000E+00  0.00000000E+00
  0.00000000E+00  0.00000000E+00  0.00000000E+00
  0.00000000E+00  0.00000000E+00  0.00000000E+00
  0.00000000E+00  0.00000000E+00  0.00000000E+00
  0.00000000E+00  0.00000000E+00  0.00000000E+00
  0.00000000E+00  0.00000000E+00  0.00000000E+00
  0.00000000E+00  0.00000000E+00  0.00000000E+00
  0.00000000E+00  0.00000000E+00  0.00000000E+00
  0.00000000E+00  0.00000000E+00  0.00000000E+00
  0.00000000E+00  0.00000000E+00  0.00000000E+00
  0.00000000E+00  0.00000000E+00  0.00000000E+00
  0.00000000E+00  0.00000000E+00  0.00000000E+00
  0.00000000E+00  0.00000000E+00  0.00000000E+00
  0.00000000E+00  0.00000000E+00  0.00000000E+00
  0.00000000E+00  0.00000000E+00  0.00000000E+00
  0.00000000E+00  0.00000000E+00  0.00000000E+00
  0.00000000E+00  0.00000000E+00  0.00000000E+00
