supercell of 100% icsd_608626.cif, 0% i 
   1.00000000000000     
    -9.7679834608445528    0.0826749707075662    0.0347176388568406
    -4.9553975442452352    8.5391746799061092    0.0180419832563609
     0.0372787583749683   -0.0012929792708760  -10.1755866749252437
   Al   Sr   Hf   N 
    30     3     3    36
Direct
  0.1105810797582478  0.1079325310627084  0.2985992987252217
  0.2141720736612882  0.2164977351518331  0.0483222336969220
  0.8855185826596994  0.2163598124062531  0.5355526386049547
  0.4437838622289618  0.0963680591254032  0.2886671653480661
  0.5566404984894007  0.2131729361202375  0.0568818381506659
  0.1132834739328388  0.1069194107849469  0.7980440058418026
  0.2173822072165734  0.2144908284896019  0.5452305835152984
  0.7794999592047560  0.0999851084834589  0.2921265429696049
  0.8882951380866899  0.2195408568629986  0.0506598614530915
  0.5490209324893414  0.2228020417266237  0.5322624930474404
  0.1115816863370753  0.4259419241436078  0.2949278870558913
  0.2231473754370796  0.5309464283966960  0.0486139063027835
  0.7832381582418151  0.4293947060853824  0.7974980638127249
  0.8890828517591132  0.5281941920228590  0.5494915128819500
  0.4447161095549177  0.4280143713911713  0.2916083790337609
  0.5614855982014504  0.5308276652072692  0.0455080214611812
  0.1072175753792379  0.4313867735806483  0.7998049456670415
  0.2295277018117687  0.5300898687457405  0.5311313974461314
  0.7776757582908402  0.4310685381025010  0.2966907335090454
  0.8901013760854966  0.5328913087856861  0.0470213760705960
  0.4371023781520904  0.4300754570604184  0.8000013319041983
  0.5548650363177927  0.5290283000813076  0.5507198148894972
  0.1149826673639112  0.7525469559464568  0.3141150545159164
  0.7787382927676560  0.7420740377175576  0.8139009865529658
  0.4560614230996194  0.7510269837188943  0.2950137014459600
  0.5637949714452688  0.8596513733633557  0.0489120986190201
  0.2232377729729009  0.8745592082197646  0.5258493403670244
  0.7822921754800234  0.7533953077590141  0.2858638431668297
  0.8839224618950112  0.8642920136269936  0.0649895145970305
  0.4446921470054974  0.7538064257435266  0.8031459808986128
  0.7849329335995066  0.1001163083486816  0.8002243259957851
  0.8710036826804526  0.8726526071516147  0.5376533084705883
  0.1129245587000156  0.7614088797305882  0.7814951874311618
  0.4461493911181478  0.0947049170601773  0.8164916846383008
  0.2209288303098020  0.8776759805763277  0.0683826868982607
  0.5457940666167644  0.8673047701137975  0.5544395574008192
  0.2265193054432473  0.2067929390941217  0.3560460155426313
  0.1041987523123495  0.1188336633456544  0.1137752886326453
  0.9128859564988971  0.2300752662928076  0.8695654167036224
  0.7577037093792640  0.1380536084837090  0.5658618161827320
  0.5495428802291613  0.2077536446818797  0.3405051511693813
  0.4453226603648233  0.0889010053575845  0.0958666310149852
  0.2095749564619069  0.2192488817193876  0.8588942243966287
  0.1150811687796889  0.0943688515175580  0.5994961876831724
  0.8930523393929377  0.2128441806763419  0.3472078635166724
  0.7804980102788335  0.1044253272351483  0.0998404798649517
  0.5284760687024246  0.2325926516585426  0.8757260150995378
  0.4411976568308162  0.1107299128896955  0.6054849064771304
  0.2287710477127547  0.5229038993848718  0.3438026913410468
  0.1094399673986928  0.4272117177290795  0.1080258506238110
  0.8920912035517077  0.5299984244947566  0.8601011780982688
  0.7784559836487901  0.4260374508026317  0.6056171261494043
  0.5557746285550209  0.5370488506862756  0.3591846108449346
  0.4463603791025932  0.4321814219496574  0.1071043402702685
  0.2318550656491780  0.5097566449609161  0.8649219014796472
  0.1103593750503435  0.4307535959862179  0.6043461099172021
  0.8897088216816016  0.5392254369754141  0.3579342622424946
  0.7751047170952603  0.4329143252670207  0.1091656679946098
  0.5541233338899332  0.5355088905082539  0.8540581485857857
  0.4384413869592620  0.4296176989283467  0.6061799139187656
  0.2305520063615063  0.8805530362028549  0.3316394382542427
  0.1137006116246226  0.7461382586921417  0.1066318456550164
  0.8655950332093525  0.8510593771725539  0.8810612305817571
  0.7635943832430101  0.7258882424718323  0.6272394025261576
  0.5590992486360804  0.8703200374749827  0.3474682392090358
  0.4656695818411833  0.7452646592419754  0.1089962808034315
  0.2388776004782756  0.8993654996796892  0.8673544480177924
  0.1420046472659919  0.7458069314331794  0.5322132947676081
  0.8840162788131209  0.8735340172869712  0.3049027470153050
  0.7755874452460603  0.7469636135230076  0.1046310343821446
  0.5592978521493635  0.8496265004031258  0.8589586367065039
  0.4300911478109484  0.7505569128977214  0.6103503019444290
 
  0.00000000E+00  0.00000000E+00  0.00000000E+00
  0.00000000E+00  0.00000000E+00  0.00000000E+00
  0.00000000E+00  0.00000000E+00  0.00000000E+00
  0.00000000E+00  0.00000000E+00  0.00000000E+00
  0.00000000E+00  0.00000000E+00  0.00000000E+00
  0.00000000E+00  0.00000000E+00  0.00000000E+00
  0.00000000E+00  0.00000000E+00  0.00000000E+00
  0.00000000E+00  0.00000000E+00  0.00000000E+00
  0.00000000E+00  0.00000000E+00  0.00000000E+00
  0.00000000E+00  0.00000000E+00  0.00000000E+00
  0.00000000E+00  0.00000000E+00  0.00000000E+00
  0.00000000E+00  0.00000000E+00  0.00000000E+00
  0.00000000E+00  0.00000000E+00  0.00000000E+00
  0.00000000E+00  0.00000000E+00  0.00000000E+00
  0.00000000E+00  0.00000000E+00  0.00000000E+00
  0.00000000E+00  0.00000000E+00  0.00000000E+00
  0.00000000E+00  0.00000000E+00  0.00000000E+00
  0.00000000E+00  0.00000000E+00  0.00000000E+00
  0.00000000E+00  0.00000000E+00  0.00000000E+00
  0.00000000E+00  0.00000000E+00  0.00000000E+00
  0.00000000E+00  0.00000000E+00  0.00000000E+00
  0.00000000E+00  0.00000000E+00  0.00000000E+00
  0.00000000E+00  0.00000000E+00  0.00000000E+00
  0.00000000E+00  0.00000000E+00  0.00000000E+00
  0.00000000E+00  0.00000000E+00  0.00000000E+00
  0.00000000E+00  0.00000000E+00  0.00000000E+00
  0.00000000E+00  0.00000000E+00  0.00000000E+00
  0.00000000E+00  0.00000000E+00  0.00000000E+00
  0.00000000E+00  0.00000000E+00  0.00000000E+00
  0.00000000E+00  0.00000000E+00  0.00000000E+00
  0.00000000E+00  0.00000000E+00  0.00000000E+00
  0.00000000E+00  0.00000000E+00  0.00000000E+00
  0.00000000E+00  0.00000000E+00  0.00000000E+00
  0.00000000E+00  0.00000000E+00  0.00000000E+00
  0.00000000E+00  0.00000000E+00  0.00000000E+00
  0.00000000E+00  0.00000000E+00  0.00000000E+00
  0.00000000E+00  0.00000000E+00  0.00000000E+00
  0.00000000E+00  0.00000000E+00  0.00000000E+00
  0.00000000E+00  0.00000000E+00  0.00000000E+00
  0.00000000E+00  0.00000000E+00  0.00000000E+00
  0.00000000E+00  0.00000000E+00  0.00000000E+00
  0.00000000E+00  0.00000000E+00  0.00000000E+00
  0.00000000E+00  0.00000000E+00  0.00000000E+00
  0.00000000E+00  0.00000000E+00  0.00000000E+00
  0.00000000E+00  0.00000000E+00  0.00000000E+00
  0.00000000E+00  0.00000000E+00  0.00000000E+00
  0.00000000E+00  0.00000000E+00  0.00000000E+00
  0.00000000E+00  0.00000000E+00  0.00000000E+00
  0.00000000E+00  0.00000000E+00  0.00000000E+00
  0.00000000E+00  0.00000000E+00  0.00000000E+00
  0.00000000E+00  0.00000000E+00  0.00000000E+00
  0.00000000E+00  0.00000000E+00  0.00000000E+00
  0.00000000E+00  0.00000000E+00  0.00000000E+00
  0.00000000E+00  0.00000000E+00  0.00000000E+00
  0.00000000E+00  0.00000000E+00  0.00000000E+00
  0.00000000E+00  0.00000000E+00  0.00000000E+00
  0.00000000E+00  0.00000000E+00  0.00000000E+00
  0.00000000E+00  0.00000000E+00  0.00000000E+00
  0.00000000E+00  0.00000000E+00  0.00000000E+00
  0.00000000E+00  0.00000000E+00  0.00000000E+00
  0.00000000E+00  0.00000000E+00  0.00000000E+00
  0.00000000E+00  0.00000000E+00  0.00000000E+00
  0.00000000E+00  0.00000000E+00  0.00000000E+00
  0.00000000E+00  0.00000000E+00  0.00000000E+00
  0.00000000E+00  0.00000000E+00  0.00000000E+00
  0.00000000E+00  0.00000000E+00  0.00000000E+00
  0.00000000E+00  0.00000000E+00  0.00000000E+00
  0.00000000E+00  0.00000000E+00  0.00000000E+00
  0.00000000E+00  0.00000000E+00  0.00000000E+00
  0.00000000E+00  0.00000000E+00  0.00000000E+00
  0.00000000E+00  0.00000000E+00  0.00000000E+00
  0.00000000E+00  0.00000000E+00  0.00000000E+00
