supercell of 100% icsd_608626.cif, 0% i 
   1.00000000000000     
    -9.7567030111692041   -0.0212110492492604   -0.0367378334866142
    -4.8600553017390178    8.4496587566971293   -0.0151865452142418
    -0.0388478961903018   -0.0036631393769199  -10.2352501200883506
   Al   Hf   Sr   N 
    30     3     3    36
Direct
  0.1157204070607278  0.0883229223161948  0.2954245242858349
  0.2152675770352062  0.2088502816982611  0.0464922300546675
  0.8965042389528506  0.1937122844526442  0.5466997674566727
  0.4379853713146602  0.1029222831987653  0.2912444167431900
  0.5462971013228994  0.2101000589153657  0.0492707125431266
  0.1175045412649354  0.0942456391604267  0.7936901137681502
  0.2142079562783792  0.2104353433381547  0.5491984104065892
  0.7767805543672637  0.0888040529933960  0.2956925242771931
  0.9008801223503013  0.2016295605948386  0.0511894951061578
  0.4323647213906057  0.1063294573715510  0.7942491278927122
  0.5511235475065490  0.2096671944237869  0.5413028346227904
  0.1162780433625272  0.4292666033489922  0.2865729741736232
  0.2216476548417603  0.5363175039498316  0.0469453069692705
  0.7824344633062950  0.4314048632950076  0.7796629253364955
  0.9002013751135536  0.5353552253787726  0.5527655349110887
  0.4336106422378023  0.4279685626328344  0.2905850341051277
  0.1081299257619932  0.4211140790862657  0.8017887242293043
  0.9041702436255861  0.5280055607308469  0.0465040745006533
  0.4474402323929638  0.4267185862840890  0.7882716708223896
  0.5494897027479766  0.5371783641076462  0.5586762296536918
  0.1125116969458659  0.7614747081983140  0.2883366351838959
  0.2121426932441537  0.8801431926393661  0.0436126204672860
  0.7902110069843857  0.7492604672468133  0.7983050603953785
  0.8928034450039206  0.8739183275112197  0.5452688065304656
  0.4300381378105840  0.7678848608899713  0.2941916528986397
  0.1106061816489614  0.7674887954911114  0.8012005717827577
  0.2100018644034236  0.8812567777172902  0.5479638139216334
  0.7901470748198989  0.7591061724897372  0.2912629368147748
  0.8976432662342617  0.8662212373742904  0.0509419586038078
  0.4367973256523783  0.7590800703553526  0.7860314345436450
  0.7783776542213872  0.0917694156778097  0.7990637328813932
  0.7844371859474322  0.4250884738319201  0.3227938901176870
  0.5553273477749130  0.8756408334891148  0.0606390819082989
  0.5684279971432744  0.5289413840338923  0.0428416698862009
  0.2118581549297573  0.5492567597072622  0.5578997326382975
  0.5609097418330933  0.8714114543167852  0.5442204902299039
  0.2190147088580190  0.2076550020812888  0.3533539658593980
  0.1119985687697707  0.0924183934044791  0.1065741164423102
  0.8953800485417176  0.2149299630061066  0.8553299876550611
  0.7705297522181311  0.0938003721819243  0.5944878686487343
  0.5551700945500286  0.2034354350187400  0.3510408194412733
  0.4295293137561913  0.1130108146107887  0.1043111716981286
  0.2210850534830442  0.2023981697966448  0.8613347968928977
  0.1116753734550429  0.0960035181481231  0.6048624811978200
  0.8998084488310241  0.1806644310550070  0.3597699234786660
  0.7766975191028749  0.0947446196137918  0.1001308589808119
  0.5431381648179539  0.2114348147806382  0.8621310214118409
  0.4197986760042696  0.1375439984895763  0.6127550689240664
  0.2167089709710552  0.5441086431159476  0.3245107023077765
  0.1143199957715311  0.4247157425205899  0.0980277138890031
  0.8854962860909055  0.5354570877124729  0.8602109458431713
  0.7805762465261452  0.4260939394877283  0.5810783481647732
  0.5367287754327776  0.5478597828042524  0.3507226175536218
  0.4269042156025193  0.4111892340134631  0.1094972960407716
  0.2228879656913492  0.5400722784960408  0.8483110785161401
  0.0891929325512990  0.4029537961386467  0.6245591399838517
  0.9036809946580675  0.5496463515130046  0.3629303961197863
  0.8285921966254577  0.4023471610312725  0.1253159631189931
  0.5632285965553265  0.5370319821733531  0.8138627193042751
  0.4817281831413283  0.4029427372848247  0.6096619639336964
  0.2165126656170742  0.8745366679560860  0.3567026422143513
  0.1116279349467959  0.7638039409321848  0.0995108335538930
  0.8936215436226860  0.8591130895078010  0.8670924512647531
  0.8264875421142222  0.7382482692398611  0.6177846279677439
  0.5604755832365882  0.8718071978194075  0.3039734817716635
  0.4118459337083067  0.7905336893567565  0.1120328191007118
  0.2211975893505667  0.8768298689053537  0.8579977263454452
  0.0791359070003068  0.8194652155879751  0.6250322926320209
  0.8903827357559209  0.8720730813412843  0.3522170429073768
  0.8035675773264401  0.7440576011219164  0.1055180693959912
  0.5562187153730562  0.8726123087694404  0.8417298516998173
  0.4147759931096928  0.7481694427353673  0.6048364750765245
 
  0.00000000E+00  0.00000000E+00  0.00000000E+00
  0.00000000E+00  0.00000000E+00  0.00000000E+00
  0.00000000E+00  0.00000000E+00  0.00000000E+00
  0.00000000E+00  0.00000000E+00  0.00000000E+00
  0.00000000E+00  0.00000000E+00  0.00000000E+00
  0.00000000E+00  0.00000000E+00  0.00000000E+00
  0.00000000E+00  0.00000000E+00  0.00000000E+00
  0.00000000E+00  0.00000000E+00  0.00000000E+00
  0.00000000E+00  0.00000000E+00  0.00000000E+00
  0.00000000E+00  0.00000000E+00  0.00000000E+00
  0.00000000E+00  0.00000000E+00  0.00000000E+00
  0.00000000E+00  0.00000000E+00  0.00000000E+00
  0.00000000E+00  0.00000000E+00  0.00000000E+00
  0.00000000E+00  0.00000000E+00  0.00000000E+00
  0.00000000E+00  0.00000000E+00  0.00000000E+00
  0.00000000E+00  0.00000000E+00  0.00000000E+00
  0.00000000E+00  0.00000000E+00  0.00000000E+00
  0.00000000E+00  0.00000000E+00  0.00000000E+00
  0.00000000E+00  0.00000000E+00  0.00000000E+00
  0.00000000E+00  0.00000000E+00  0.00000000E+00
  0.00000000E+00  0.00000000E+00  0.00000000E+00
  0.00000000E+00  0.00000000E+00  0.00000000E+00
  0.00000000E+00  0.00000000E+00  0.00000000E+00
  0.00000000E+00  0.00000000E+00  0.00000000E+00
  0.00000000E+00  0.00000000E+00  0.00000000E+00
  0.00000000E+00  0.00000000E+00  0.00000000E+00
  0.00000000E+00  0.00000000E+00  0.00000000E+00
  0.00000000E+00  0.00000000E+00  0.00000000E+00
  0.00000000E+00  0.00000000E+00  0.00000000E+00
  0.00000000E+00  0.00000000E+00  0.00000000E+00
  0.00000000E+00  0.00000000E+00  0.00000000E+00
  0.00000000E+00  0.00000000E+00  0.00000000E+00
  0.00000000E+00  0.00000000E+00  0.00000000E+00
  0.00000000E+00  0.00000000E+00  0.00000000E+00
  0.00000000E+00  0.00000000E+00  0.00000000E+00
  0.00000000E+00  0.00000000E+00  0.00000000E+00
  0.00000000E+00  0.00000000E+00  0.00000000E+00
  0.00000000E+00  0.00000000E+00  0.00000000E+00
  0.00000000E+00  0.00000000E+00  0.00000000E+00
  0.00000000E+00  0.00000000E+00  0.00000000E+00
  0.00000000E+00  0.00000000E+00  0.00000000E+00
  0.00000000E+00  0.00000000E+00  0.00000000E+00
  0.00000000E+00  0.00000000E+00  0.00000000E+00
  0.00000000E+00  0.00000000E+00  0.00000000E+00
  0.00000000E+00  0.00000000E+00  0.00000000E+00
  0.00000000E+00  0.00000000E+00  0.00000000E+00
  0.00000000E+00  0.00000000E+00  0.00000000E+00
  0.00000000E+00  0.00000000E+00  0.00000000E+00
  0.00000000E+00  0.00000000E+00  0.00000000E+00
  0.00000000E+00  0.00000000E+00  0.00000000E+00
  0.00000000E+00  0.00000000E+00  0.00000000E+00
  0.00000000E+00  0.00000000E+00  0.00000000E+00
  0.00000000E+00  0.00000000E+00  0.00000000E+00
  0.00000000E+00  0.00000000E+00  0.00000000E+00
  0.00000000E+00  0.00000000E+00  0.00000000E+00
  0.00000000E+00  0.00000000E+00  0.00000000E+00
  0.00000000E+00  0.00000000E+00  0.00000000E+00
  0.00000000E+00  0.00000000E+00  0.00000000E+00
  0.00000000E+00  0.00000000E+00  0.00000000E+00
  0.00000000E+00  0.00000000E+00  0.00000000E+00
  0.00000000E+00  0.00000000E+00  0.00000000E+00
  0.00000000E+00  0.00000000E+00  0.00000000E+00
  0.00000000E+00  0.00000000E+00  0.00000000E+00
  0.00000000E+00  0.00000000E+00  0.00000000E+00
  0.00000000E+00  0.00000000E+00  0.00000000E+00
  0.00000000E+00  0.00000000E+00  0.00000000E+00
  0.00000000E+00  0.00000000E+00  0.00000000E+00
  0.00000000E+00  0.00000000E+00  0.00000000E+00
  0.00000000E+00  0.00000000E+00  0.00000000E+00
  0.00000000E+00  0.00000000E+00  0.00000000E+00
  0.00000000E+00  0.00000000E+00  0.00000000E+00
  0.00000000E+00  0.00000000E+00  0.00000000E+00
