supercell of icsd_181358.cif            
   1.00000000000000     
     9.3523964412969285   -0.0027458499058624   -0.0158462821664637
    -4.6785746224254199    8.0985154069655554    0.0130311048792210
    -0.0174000225597465    0.0064610888312864   10.0875880838759784
   N    Ga   B 
    36    32     4
Direct
  0.2075377536117813  0.1269694566328141  0.4435509248035103
  0.0811069859527649  0.2065549998955234  0.1894175770104880
  0.8893829062377421  0.1111773601101760  0.9312801092023335
  0.7774723858447885  0.2209580799583577  0.6847483971755963
  0.5528382307100159  0.1125909843188282  0.4421569356810764
  0.4386572641837390  0.2187609330478537  0.1859870402943571
  0.2189808761486489  0.1141315196518349  0.9078562914079242
  0.1238454870010486  0.2093857765456235  0.6705423662844581
  0.9184764872192446  0.1243249635386547  0.4241105496612292
  0.7949222580871833  0.2063526202029493  0.2023709173156689
  0.5572764168207840  0.1132240047058772  0.9423819247717447
  0.4146247894838524  0.2086682670477842  0.6992187186664651
  0.2074094502669226  0.4113970021623956  0.4452905079174272
  0.1144220253043713  0.5564927932658819  0.1922707909961474
  0.8886937011837546  0.4429322256542747  0.9446152789974676
  0.7744929178214122  0.5542337216574680  0.6943107862372528
  0.5539016197608717  0.4423988484276009  0.4356212634335463
  0.4419548855204667  0.5543486053785429  0.1653652029365702
  0.2515156678374524  0.4568285035828765  0.9473477863719211
  0.1125641004848390  0.5540655556050709  0.6933503742620601
  0.8891138972576442  0.4451072165904009  0.4400099904321735
  0.7793025043475410  0.5567667373742253  0.1908102220372143
  0.5397723012147893  0.4597732221403277  0.9497417510971502
  0.4442359676326078  0.5561474054214983  0.6856737414616774
  0.2196783556961392  0.7782436262619399  0.4445248275973412
  0.1140959106250037  0.8936928472827006  0.1857999129576058
  0.8879614571687711  0.7804097742553324  0.9407622844980565
  0.7745530972588313  0.8880432591698124  0.6846064181796194
  0.5529433878952901  0.7735625247025695  0.4338598096451562
  0.4439515248163204  0.8896058171041261  0.1895132935025572
  0.2215062558055507  0.7786080502191126  0.9388637890916343
  0.1265464060977095  0.9201112761286794  0.6977729507799211
  0.8913164687159991  0.7778206474312981  0.4417316963906615
  0.7955684968150223  0.9213794904743366  0.2009214645743782
  0.5432397286387385  0.7488939904323004  0.9520618949042330
  0.4468769831359083  0.8875002563783312  0.6925177458182006
  0.2128719300230131  0.1133253904206768  0.2531620232875440
  0.1126149934523255  0.2228807636099930  0.9961247339160835
  0.8975612688629795  0.1120364479037121  0.7409532982309202
  0.7856483203881623  0.2203737583838574  0.4934672747585012
  0.5591070220719345  0.1107973261224373  0.2511777755244324
  0.4366751062373879  0.2245860439510494  0.9934898136771722
  0.7816349600501766  0.2185628963485371  0.0070236483389294
  0.5522357127828812  0.1111830567424903  0.7504846595641439
  0.4344367702968199  0.2223643560317328  0.5053700353118558
  0.2160802270374660  0.4336740928977676  0.2487254145753752
  0.1194133578560965  0.5566739338929949  0.0012753627066147
  0.8877742615120923  0.4415100465288049  0.7526660716954083
  0.7759328480267911  0.5539706033717806  0.5016434864434984
  0.5524286871107407  0.4444360101160925  0.2434062705303859
  0.2254897095959336  0.4357218059033698  0.7499286319077569
  0.1103859172796149  0.5471998839229570  0.5023019692958286
  0.8913049638676966  0.4403797125426649  0.2510108573445180
  0.7728997106536326  0.5572926709028820  0.0008881948732480
  0.5456923671797824  0.4422151124319171  0.7569804076267062
  0.4390965734981478  0.5485275314828328  0.4984251561457924
  0.2222142948163324  0.7799320851655267  0.2525160610446022
  0.1141190316741287  0.8960293329854778  0.9930408666552069
  0.8924417679348338  0.7855349954514637  0.7502382881205349
  0.7830690932744631  0.8958666891552909  0.4925020416815826
  0.5587122165785487  0.7799489211512736  0.2434647837591299
  0.4433504423916901  0.8832775106236923  0.0005712359743768
  0.2234566093842290  0.7835474709797907  0.7497276299607023
  0.1125686763879727  0.9003717910180740  0.5062238082634920
  0.8927756146490538  0.7850767586322078  0.2512713965854303
  0.7776404289760208  0.8911885687810255  0.0063569872850735
  0.5549608603109988  0.7724768389628238  0.7567111114866876
  0.4456142232086364  0.8875169305572044  0.5015483447713862
  0.2216609790406778  0.1113047315295148  0.7438907716552663
  0.1162735895983147  0.2197677934460174  0.4928625458368003
  0.8974061583280388  0.1147465278855648  0.2510489779429861
  0.4437123530587996  0.5542392474091713  0.0025545268272182
 
  0.00000000E+00  0.00000000E+00  0.00000000E+00
  0.00000000E+00  0.00000000E+00  0.00000000E+00
  0.00000000E+00  0.00000000E+00  0.00000000E+00
  0.00000000E+00  0.00000000E+00  0.00000000E+00
  0.00000000E+00  0.00000000E+00  0.00000000E+00
  0.00000000E+00  0.00000000E+00  0.00000000E+00
  0.00000000E+00  0.00000000E+00  0.00000000E+00
  0.00000000E+00  0.00000000E+00  0.00000000E+00
  0.00000000E+00  0.00000000E+00  0.00000000E+00
  0.00000000E+00  0.00000000E+00  0.00000000E+00
  0.00000000E+00  0.00000000E+00  0.00000000E+00
  0.00000000E+00  0.00000000E+00  0.00000000E+00
  0.00000000E+00  0.00000000E+00  0.00000000E+00
  0.00000000E+00  0.00000000E+00  0.00000000E+00
  0.00000000E+00  0.00000000E+00  0.00000000E+00
  0.00000000E+00  0.00000000E+00  0.00000000E+00
  0.00000000E+00  0.00000000E+00  0.00000000E+00
  0.00000000E+00  0.00000000E+00  0.00000000E+00
  0.00000000E+00  0.00000000E+00  0.00000000E+00
  0.00000000E+00  0.00000000E+00  0.00000000E+00
  0.00000000E+00  0.00000000E+00  0.00000000E+00
  0.00000000E+00  0.00000000E+00  0.00000000E+00
  0.00000000E+00  0.00000000E+00  0.00000000E+00
  0.00000000E+00  0.00000000E+00  0.00000000E+00
  0.00000000E+00  0.00000000E+00  0.00000000E+00
  0.00000000E+00  0.00000000E+00  0.00000000E+00
  0.00000000E+00  0.00000000E+00  0.00000000E+00
  0.00000000E+00  0.00000000E+00  0.00000000E+00
  0.00000000E+00  0.00000000E+00  0.00000000E+00
  0.00000000E+00  0.00000000E+00  0.00000000E+00
  0.00000000E+00  0.00000000E+00  0.00000000E+00
  0.00000000E+00  0.00000000E+00  0.00000000E+00
  0.00000000E+00  0.00000000E+00  0.00000000E+00
  0.00000000E+00  0.00000000E+00  0.00000000E+00
  0.00000000E+00  0.00000000E+00  0.00000000E+00
  0.00000000E+00  0.00000000E+00  0.00000000E+00
  0.00000000E+00  0.00000000E+00  0.00000000E+00
  0.00000000E+00  0.00000000E+00  0.00000000E+00
  0.00000000E+00  0.00000000E+00  0.00000000E+00
  0.00000000E+00  0.00000000E+00  0.00000000E+00
  0.00000000E+00  0.00000000E+00  0.00000000E+00
  0.00000000E+00  0.00000000E+00  0.00000000E+00
  0.00000000E+00  0.00000000E+00  0.00000000E+00
  0.00000000E+00  0.00000000E+00  0.00000000E+00
  0.00000000E+00  0.00000000E+00  0.00000000E+00
  0.00000000E+00  0.00000000E+00  0.00000000E+00
  0.00000000E+00  0.00000000E+00  0.00000000E+00
  0.00000000E+00  0.00000000E+00  0.00000000E+00
  0.00000000E+00  0.00000000E+00  0.00000000E+00
  0.00000000E+00  0.00000000E+00  0.00000000E+00
  0.00000000E+00  0.00000000E+00  0.00000000E+00
  0.00000000E+00  0.00000000E+00  0.00000000E+00
  0.00000000E+00  0.00000000E+00  0.00000000E+00
  0.00000000E+00  0.00000000E+00  0.00000000E+00
  0.00000000E+00  0.00000000E+00  0.00000000E+00
  0.00000000E+00  0.00000000E+00  0.00000000E+00
  0.00000000E+00  0.00000000E+00  0.00000000E+00
  0.00000000E+00  0.00000000E+00  0.00000000E+00
  0.00000000E+00  0.00000000E+00  0.00000000E+00
  0.00000000E+00  0.00000000E+00  0.00000000E+00
  0.00000000E+00  0.00000000E+00  0.00000000E+00
  0.00000000E+00  0.00000000E+00  0.00000000E+00
  0.00000000E+00  0.00000000E+00  0.00000000E+00
  0.00000000E+00  0.00000000E+00  0.00000000E+00
  0.00000000E+00  0.00000000E+00  0.00000000E+00
  0.00000000E+00  0.00000000E+00  0.00000000E+00
  0.00000000E+00  0.00000000E+00  0.00000000E+00
  0.00000000E+00  0.00000000E+00  0.00000000E+00
  0.00000000E+00  0.00000000E+00  0.00000000E+00
  0.00000000E+00  0.00000000E+00  0.00000000E+00
  0.00000000E+00  0.00000000E+00  0.00000000E+00
  0.00000000E+00  0.00000000E+00  0.00000000E+00
