generated by phonopy                    
   1.00000000000000     
    11.7777700938999992   -0.0000006592896312    0.0000118211769744
    -0.0000006477562692   11.7777479613999994   -0.0000130806483528
     0.0000177256125076   -0.0000204342245446   17.8544012557999991
   Tl   Bi   Cu   Se   O 
     1    35    36    36    36
Direct
  0.0000515676868602  0.1667451365325689  0.4116483447596480
  0.3302150421945171  0.1667456032775547  0.4307353860571297
  0.6699068837127129  0.1667374901408607  0.4307318034334529
  0.0000658498113495  0.4968787535555492  0.4307360019305833
  0.3335090810605976  0.5001852138407514  0.4280882395762404
  0.6666169283845989  0.5001787214867974  0.4280829992380433
  0.0000656930161327  0.8365818495326494  0.4307324776996282
  0.3335105168814820  0.8332911138715744  0.4280889288066234
  0.6666207719097201  0.8332825403658077  0.4280838528742237
  0.0000108873821389  0.1666795188078396  0.9293039097725426
  0.3328168776743539  0.1666789573351224  0.9289513818852342
  0.6672030678203882  0.1666727125487384  0.9289568378859698
  0.0000101170216880  0.4994881596750176  0.9289503467393274
  0.3333428168906778  0.5000213792266166  0.9289030179635205
  0.6666756756855321  0.5000161727329910  0.9289072230970916
  0.0000091121091756  0.8338759893231753  0.9289515634068479
  0.3333412712749251  0.8333502401072934  0.9289029070164574
  0.6666790123956332  0.8333463869906126  0.9289101021637052
  0.1666101468970709  0.0000821065660972  0.0716515751197164
  0.5000073478239955  0.0003166901637286  0.0707384675493472
  0.8334141507868082  0.0000753128696616  0.0716577871605182
  0.1666104046981687  0.3332865296335044  0.0716497813318497
  0.5000056181228487  0.3330412974176227  0.0707334364605217
  0.8334077608074040  0.3332781046845241  0.0716514705689946
  0.1663662967488690  0.6666871408999668  0.0707324577894823
  0.5000060667643140  0.6666850624154179  0.0711347964221005
  0.8336532164315997  0.6666780839287725  0.0707356703269113
  0.1647819933237571  0.0020247448326103  0.5700333345068458
  0.5000655811379957  0.9992038378293131  0.5700754149934326
  0.8353423381696601  0.0020147401784456  0.5700334012162500
  0.1647862078785209  0.3314623179583904  0.5700400545960704
  0.5000660332419571  0.3342730867675456  0.5700785719770280
  0.8353388209320585  0.3314607329737029  0.5700376550188508
  0.1675950777487856  0.6667361473844053  0.5700761762064417
  0.5000656743776162  0.6667346233569091  0.5706654306614496
  0.8325327780210827  0.6667296525481490  0.5700720955821694
  0.0000726854580364  0.9979103112794405  0.2521082527228629
  0.3364303763707355  0.9976298538519544  0.2482042691665498
  0.6636698933219520  0.9976029162673470  0.2482020375123355
  0.0000474199148854  0.3354868860373657  0.2521049057311231
  0.3364281340231088  0.3357864581975889  0.2481931910046029
  0.6636452197223690  0.3357603509455060  0.2481893778220510
  0.0000564309377751  0.6666844581037168  0.2504055700941166
  0.3323815132597545  0.6667129522197399  0.2495010466525542
  0.6677001391955670  0.6666790927045270  0.2494980563649776
  0.0000214816457103  0.9995055509613380  0.7495999637797226
  0.3342261355101144  0.9994891531853156  0.7503670340917665
  0.6658311320387682  0.9994779652148154  0.7503706662529055
  0.0000236378480309  0.3339452435346004  0.7496076573743338
  0.3342339940088621  0.3339651237299321  0.7503712165108283
  0.6658273317444809  0.3339553268937721  0.7503723406702818
  0.0000171590341012  0.6667364458298906  0.7517865201542122
  0.3339158797464137  0.6667395304597363  0.7503839356622635
  0.6661472944672440  0.6667252252129998  0.7503860856173432
  0.1688137689650162  0.1667317546720142  0.2521102810965630
  0.5000187262833649  0.1667181550651762  0.2503998434527261
  0.8312287274095524  0.1667116698045632  0.2521059189718073
  0.1690962533139739  0.5031267408071827  0.2481968053931993
  0.5000220349729787  0.4990535326378449  0.2494979158945156
  0.8309406518475697  0.5030961594176944  0.2481837322235307
  0.1690958865915562  0.8303564940943389  0.2482103881766804
  0.5000218533674001  0.8343887317998053  0.2495024883810686
  0.8309557723608734  0.8303174507115614  0.2481989389488746
  0.1672673746398559  0.1667041296935636  0.7496021265243797
  0.5000575711878668  0.1666903207678132  0.7517875809939909
  0.8328413100029621  0.1666925910756163  0.7496076313230020
  0.1672924824910496  0.5008993093453995  0.7503704862063785
  0.5000553308507563  0.5005890564412852  0.7503927360157405
  0.8328128278189837  0.5008898106865374  0.7503785577923452
  0.1672917811813335  0.8325113808915319  0.7503589715283354
  0.5000511342656822  0.8328180088030521  0.7503784247137943
  0.8328100640326923  0.8325028571107467  0.7503691436951812
  0.1725205556195704  0.3392062852502136  0.3339454642711104
  0.5000435499163274  0.3337215537523122  0.3363852023120799
  0.8275683791169683  0.3391903828944010  0.3339375186397717
  0.1670513342447748  0.6667305149145903  0.3363906341921279
  0.5000458962901106  0.6667209798747749  0.3347677387763781
  0.8330477908256455  0.6667058468614186  0.3363806191267074
  0.1725250732160362  0.9942684259134040  0.3339598039981908
  0.5000530662502456  0.9997248340516549  0.3363879378947345
  0.8275921152705905  0.9942450749795668  0.3339446087883928
  0.1663867687762774  0.3330570984165959  0.8374964178187696
  0.5000272769680194  0.3342657570490601  0.8389230567013968
  0.8336626077304601  0.3330496647532684  0.8375015122705420
  0.1675968339870195  0.6667057182438469  0.8389156793673465
  0.5000277281078596  0.6667051551104350  0.8388813410204179
  0.8324502015303068  0.6666996932049187  0.8389240271194538
  0.1663827687264998  0.0003387125977454  0.8374931926778544
  0.5000258444202146  0.9991198128330154  0.8389210610393363
  0.8336653924527511  0.0003340557480342  0.8375002527006501
  0.3338585286810982  0.1666986732402052  0.1619958329330160
  0.6661780539005377  0.1666839027020615  0.1619931764281404
  0.0000254969969831  0.1666955082663932  0.1653805995955793
  0.3350746739495492  0.5017591319784103  0.1596114214878384
  0.6649586654760782  0.5017441836393459  0.1596055522087667
  0.0000262058109897  0.5005333896680781  0.1619904439941067
  0.3350722074645205  0.8316479070690903  0.1596164917279523
  0.6649677831566834  0.8316327322264527  0.1596152073415666
  0.0000304429047731  0.8328523462046178  0.1619982268450570
  0.3355961166413621  0.1667273473690329  0.6652831899149163
  0.6645168165692397  0.1667182357251704  0.6652841851355049
  0.0000505117181717  0.1667282237634566  0.6628651898407156
  0.3338762371349588  0.5005493388915809  0.6640249124235993
  0.6662355842135810  0.5005410886922448  0.6640252914288354
  0.0000484136044392  0.5022689815608246  0.6652881141127125
  0.3338717783443030  0.8329124991422603  0.6640138029341855
  0.6662371462072585  0.8329038060102860  0.6640170927577671
  0.0000466831691170  0.8311870509164407  0.6652771099872083
  0.1787750850704057  0.1667419989765122  0.5064118583376356
  0.5000606401104903  0.1667325846666898  0.5004999019964487
  0.8213409838418713  0.1667368335829806  0.5064126929046111
  0.1693076198626713  0.5017494804434151  0.4990818587555381
  0.5000595386740940  0.5011209219822632  0.5001619552321230
  0.8308110706612979  0.5017448869140111  0.4990769531301993
  0.1693038903885196  0.8317129221560506  0.4990826892239610
  0.5000620096655979  0.8323452916110199  0.5001600697178930
  0.8308161954237576  0.8317084542536008  0.4990786418104562
  0.1662302849347057  0.1666865814949432  0.0003934893700261
  0.5000127448843799  0.1666818041025095  0.9992788186808497
  0.8338006784984984  0.1666828963819285  0.0003974988227071
  0.1661744926131021  0.4993022711766244  0.0001571243046143
  0.5000122875034805  0.4993112360959842  0.9992060665227314
  0.8338557989577495  0.4992985223236559  0.0001605787086092
  0.1661728871543815  0.8340750783462880  0.0001588686795841
  0.5000129883032471  0.8340657956472199  0.9992068595497585
  0.8338590173669758  0.8340712974455329  0.0001651146350952
  0.0000147736220413  0.0004712443487591  0.0003956217952421
  0.3326262069311312  0.0005260419035338  0.0001606300365964
  0.6674030698784534  0.0005231296727644  0.0001671212061325
  0.0000140970313893  0.3329019959562061  0.0003935002507944
  0.3326276332086522  0.3328484359698294  0.0001573011397937
  0.6673998382032948  0.3328447976761026  0.0001609877327269
  0.0000144123492021  0.6666861941625513  0.9992752917676810
  0.3326344575690214  0.6666902572035340  0.9992052242551352
  0.6673943256664003  0.6666864773151389  0.9992101400691951
  0.0000600195455220  0.9880283785038841  0.5064074468686499
  0.3350772378250682  0.9974925630581524  0.4990805375688083
  0.6650432688369037  0.9974836425465412  0.4990765020411345
  0.0000615132930903  0.3454509114665854  0.5064209767129668
  0.3350842689977398  0.3359829620024328  0.4990827637690671
  0.6650353244416820  0.3359785260129087  0.4990784661605545
  0.0000599250090190  0.6667240346888832  0.5004963466218229
  0.3344441605097046  0.6667320056551205  0.5001637680245210
  0.6656777062614552  0.6667288457589251  0.5001594353966183
 
  0.00000000E+00  0.00000000E+00  0.00000000E+00
  0.00000000E+00  0.00000000E+00  0.00000000E+00
  0.00000000E+00  0.00000000E+00  0.00000000E+00
  0.00000000E+00  0.00000000E+00  0.00000000E+00
  0.00000000E+00  0.00000000E+00  0.00000000E+00
  0.00000000E+00  0.00000000E+00  0.00000000E+00
  0.00000000E+00  0.00000000E+00  0.00000000E+00
  0.00000000E+00  0.00000000E+00  0.00000000E+00
  0.00000000E+00  0.00000000E+00  0.00000000E+00
  0.00000000E+00  0.00000000E+00  0.00000000E+00
  0.00000000E+00  0.00000000E+00  0.00000000E+00
  0.00000000E+00  0.00000000E+00  0.00000000E+00
  0.00000000E+00  0.00000000E+00  0.00000000E+00
  0.00000000E+00  0.00000000E+00  0.00000000E+00
  0.00000000E+00  0.00000000E+00  0.00000000E+00
  0.00000000E+00  0.00000000E+00  0.00000000E+00
  0.00000000E+00  0.00000000E+00  0.00000000E+00
  0.00000000E+00  0.00000000E+00  0.00000000E+00
  0.00000000E+00  0.00000000E+00  0.00000000E+00
  0.00000000E+00  0.00000000E+00  0.00000000E+00
  0.00000000E+00  0.00000000E+00  0.00000000E+00
  0.00000000E+00  0.00000000E+00  0.00000000E+00
  0.00000000E+00  0.00000000E+00  0.00000000E+00
  0.00000000E+00  0.00000000E+00  0.00000000E+00
  0.00000000E+00  0.00000000E+00  0.00000000E+00
  0.00000000E+00  0.00000000E+00  0.00000000E+00
  0.00000000E+00  0.00000000E+00  0.00000000E+00
  0.00000000E+00  0.00000000E+00  0.00000000E+00
  0.00000000E+00  0.00000000E+00  0.00000000E+00
  0.00000000E+00  0.00000000E+00  0.00000000E+00
  0.00000000E+00  0.00000000E+00  0.00000000E+00
  0.00000000E+00  0.00000000E+00  0.00000000E+00
  0.00000000E+00  0.00000000E+00  0.00000000E+00
  0.00000000E+00  0.00000000E+00  0.00000000E+00
  0.00000000E+00  0.00000000E+00  0.00000000E+00
  0.00000000E+00  0.00000000E+00  0.00000000E+00
  0.00000000E+00  0.00000000E+00  0.00000000E+00
  0.00000000E+00  0.00000000E+00  0.00000000E+00
  0.00000000E+00  0.00000000E+00  0.00000000E+00
  0.00000000E+00  0.00000000E+00  0.00000000E+00
  0.00000000E+00  0.00000000E+00  0.00000000E+00
  0.00000000E+00  0.00000000E+00  0.00000000E+00
  0.00000000E+00  0.00000000E+00  0.00000000E+00
  0.00000000E+00  0.00000000E+00  0.00000000E+00
  0.00000000E+00  0.00000000E+00  0.00000000E+00
  0.00000000E+00  0.00000000E+00  0.00000000E+00
  0.00000000E+00  0.00000000E+00  0.00000000E+00
  0.00000000E+00  0.00000000E+00  0.00000000E+00
  0.00000000E+00  0.00000000E+00  0.00000000E+00
  0.00000000E+00  0.00000000E+00  0.00000000E+00
  0.00000000E+00  0.00000000E+00  0.00000000E+00
  0.00000000E+00  0.00000000E+00  0.00000000E+00
  0.00000000E+00  0.00000000E+00  0.00000000E+00
  0.00000000E+00  0.00000000E+00  0.00000000E+00
  0.00000000E+00  0.00000000E+00  0.00000000E+00
  0.00000000E+00  0.00000000E+00  0.00000000E+00
  0.00000000E+00  0.00000000E+00  0.00000000E+00
  0.00000000E+00  0.00000000E+00  0.00000000E+00
  0.00000000E+00  0.00000000E+00  0.00000000E+00
  0.00000000E+00  0.00000000E+00  0.00000000E+00
  0.00000000E+00  0.00000000E+00  0.00000000E+00
  0.00000000E+00  0.00000000E+00  0.00000000E+00
  0.00000000E+00  0.00000000E+00  0.00000000E+00
  0.00000000E+00  0.00000000E+00  0.00000000E+00
  0.00000000E+00  0.00000000E+00  0.00000000E+00
  0.00000000E+00  0.00000000E+00  0.00000000E+00
  0.00000000E+00  0.00000000E+00  0.00000000E+00
  0.00000000E+00  0.00000000E+00  0.00000000E+00
  0.00000000E+00  0.00000000E+00  0.00000000E+00
  0.00000000E+00  0.00000000E+00  0.00000000E+00
  0.00000000E+00  0.00000000E+00  0.00000000E+00
  0.00000000E+00  0.00000000E+00  0.00000000E+00
  0.00000000E+00  0.00000000E+00  0.00000000E+00
  0.00000000E+00  0.00000000E+00  0.00000000E+00
  0.00000000E+00  0.00000000E+00  0.00000000E+00
  0.00000000E+00  0.00000000E+00  0.00000000E+00
  0.00000000E+00  0.00000000E+00  0.00000000E+00
  0.00000000E+00  0.00000000E+00  0.00000000E+00
  0.00000000E+00  0.00000000E+00  0.00000000E+00
  0.00000000E+00  0.00000000E+00  0.00000000E+00
  0.00000000E+00  0.00000000E+00  0.00000000E+00
  0.00000000E+00  0.00000000E+00  0.00000000E+00
  0.00000000E+00  0.00000000E+00  0.00000000E+00
  0.00000000E+00  0.00000000E+00  0.00000000E+00
  0.00000000E+00  0.00000000E+00  0.00000000E+00
  0.00000000E+00  0.00000000E+00  0.00000000E+00
  0.00000000E+00  0.00000000E+00  0.00000000E+00
  0.00000000E+00  0.00000000E+00  0.00000000E+00
  0.00000000E+00  0.00000000E+00  0.00000000E+00
  0.00000000E+00  0.00000000E+00  0.00000000E+00
  0.00000000E+00  0.00000000E+00  0.00000000E+00
  0.00000000E+00  0.00000000E+00  0.00000000E+00
  0.00000000E+00  0.00000000E+00  0.00000000E+00
  0.00000000E+00  0.00000000E+00  0.00000000E+00
  0.00000000E+00  0.00000000E+00  0.00000000E+00
  0.00000000E+00  0.00000000E+00  0.00000000E+00
  0.00000000E+00  0.00000000E+00  0.00000000E+00
  0.00000000E+00  0.00000000E+00  0.00000000E+00
  0.00000000E+00  0.00000000E+00  0.00000000E+00
  0.00000000E+00  0.00000000E+00  0.00000000E+00
  0.00000000E+00  0.00000000E+00  0.00000000E+00
  0.00000000E+00  0.00000000E+00  0.00000000E+00
  0.00000000E+00  0.00000000E+00  0.00000000E+00
  0.00000000E+00  0.00000000E+00  0.00000000E+00
  0.00000000E+00  0.00000000E+00  0.00000000E+00
  0.00000000E+00  0.00000000E+00  0.00000000E+00
  0.00000000E+00  0.00000000E+00  0.00000000E+00
  0.00000000E+00  0.00000000E+00  0.00000000E+00
  0.00000000E+00  0.00000000E+00  0.00000000E+00
  0.00000000E+00  0.00000000E+00  0.00000000E+00
  0.00000000E+00  0.00000000E+00  0.00000000E+00
  0.00000000E+00  0.00000000E+00  0.00000000E+00
  0.00000000E+00  0.00000000E+00  0.00000000E+00
  0.00000000E+00  0.00000000E+00  0.00000000E+00
  0.00000000E+00  0.00000000E+00  0.00000000E+00
  0.00000000E+00  0.00000000E+00  0.00000000E+00
  0.00000000E+00  0.00000000E+00  0.00000000E+00
  0.00000000E+00  0.00000000E+00  0.00000000E+00
  0.00000000E+00  0.00000000E+00  0.00000000E+00
  0.00000000E+00  0.00000000E+00  0.00000000E+00
  0.00000000E+00  0.00000000E+00  0.00000000E+00
  0.00000000E+00  0.00000000E+00  0.00000000E+00
  0.00000000E+00  0.00000000E+00  0.00000000E+00
  0.00000000E+00  0.00000000E+00  0.00000000E+00
  0.00000000E+00  0.00000000E+00  0.00000000E+00
  0.00000000E+00  0.00000000E+00  0.00000000E+00
  0.00000000E+00  0.00000000E+00  0.00000000E+00
  0.00000000E+00  0.00000000E+00  0.00000000E+00
  0.00000000E+00  0.00000000E+00  0.00000000E+00
  0.00000000E+00  0.00000000E+00  0.00000000E+00
  0.00000000E+00  0.00000000E+00  0.00000000E+00
  0.00000000E+00  0.00000000E+00  0.00000000E+00
  0.00000000E+00  0.00000000E+00  0.00000000E+00
  0.00000000E+00  0.00000000E+00  0.00000000E+00
  0.00000000E+00  0.00000000E+00  0.00000000E+00
  0.00000000E+00  0.00000000E+00  0.00000000E+00
  0.00000000E+00  0.00000000E+00  0.00000000E+00
  0.00000000E+00  0.00000000E+00  0.00000000E+00
  0.00000000E+00  0.00000000E+00  0.00000000E+00
  0.00000000E+00  0.00000000E+00  0.00000000E+00
  0.00000000E+00  0.00000000E+00  0.00000000E+00
  0.00000000E+00  0.00000000E+00  0.00000000E+00
  0.00000000E+00  0.00000000E+00  0.00000000E+00
  0.00000000E+00  0.00000000E+00  0.00000000E+00
