Al   Gd   N                             
   1.00000000000000     
    -9.8634765758413803    0.0143418451809518   -0.0160446474014988
    -4.9394149025321816    8.5823405252572407   -0.0274184819768873
    -0.0677321311274562    0.1368863644933908  -10.5824061757554713
   Al   Gd   N 
    28     8    36
Direct
  0.1127720882194936  0.1044346440621098  0.2957252329316802
  0.2282707772700761  0.2024735624896579  0.0522203896337174
  0.7680265363615604  0.0993402191876598  0.8808971929761640
  0.4414037148198560  0.0943108007206916  0.2802540309927650
  0.5418130193687460  0.2171696259114810  0.0556004580865519
  0.1129039912005823  0.0892739139673324  0.8191588996318018
  0.8972032658850537  0.2007807754232545  0.0481446085562069
  0.4458677745081019  0.0947823025823809  0.8178258623532315
  0.1246277860684515  0.4193734230381381  0.2910274210072217
  0.2347372629074869  0.5331915797952362  0.0513570072962608
  0.7660107011652357  0.4278845486251441  0.8736410643406600
  0.8888407146822814  0.5478172126433094  0.6418397436677381
  0.4384361723521835  0.4272317233613023  0.2934535290393896
  0.5573387221521457  0.5358964210027040  0.1087474475641059
  0.1254411267624604  0.4188058786869888  0.8111400925196577
  0.2170159738058643  0.5421200743626144  0.5428736590027654
  0.7873120855583196  0.4470397097600838  0.3749656393505276
  0.4433393341186900  0.4247253541261387  0.8027740491444106
  0.5388650361152401  0.5504185817132097  0.5742977362762289
  0.1168848061040180  0.7456736860807140  0.3029275702656307
  0.2180079088221234  0.8744092425523036  0.0671096677325806
  0.7746329914274455  0.7807136109840727  0.8142546510751387
  0.9026875098641582  0.8494594346013145  0.5324586378320575
  0.4413817952943617  0.7649841491787583  0.2933134508833106
  0.5566651279289232  0.8820917337418308  0.0574560875485233
  0.2138042257700903  0.8653548652348420  0.5332889104178449
  0.7812067404779910  0.7588222104561382  0.2865118619785321
  0.8929768978321562  0.8725690627215172  0.0582338095126786
  0.8703767048863043  0.2133692612640417  0.6010090420086840
  0.2047302931534603  0.1989562800330944  0.5554752637147828
  0.7934278654277023  0.0954034489245501  0.3135119645700044
  0.5326361664610388  0.2078837729016172  0.5489479857174970
  0.8964866409564678  0.5401312095189112  0.0743411925754742
  0.1040575502718752  0.7669396012921581  0.7883626758034268
  0.4378640413617987  0.7728943600447096  0.8084758182872847
  0.5799204253936168  0.8449758899819599  0.5418620508877083
  0.2320052538723019  0.1990120032860503  0.3393821857990673
  0.1066866658632364  0.1008214117956072  0.1128574741644854
  0.8896871790883054  0.2030562019014326  0.8546837001665608
  0.7836059297405882  0.0637219806064806  0.5465351697856704
  0.5320476983651545  0.2130789708964755  0.3328865318221190
  0.4428619948833017  0.0966319234671573  0.0997868916597184
  0.2191343165722941  0.2035069808589896  0.8667725417881940
  0.1204411262883269  0.0453606708617613  0.6424335458527182
  0.9171750715662341  0.2254089731694151  0.3780991406677856
  0.7773526746218806  0.1002881283392085  0.0751468794401617
  0.5474755025672380  0.2116418975606607  0.8649845359185235
  0.4392263785041024  0.0713824570084682  0.6420773988665829
  0.2288351406924107  0.5277303187173104  0.3586444706790104
  0.1534393503918992  0.4071773662729328  0.1111965196496527
  0.8865735951471407  0.5346226929348958  0.8332443428817271
  0.7532627938812695  0.4921956160374279  0.5566620705691534
  0.5584536471361474  0.5359241025370522  0.3227942397118895
  0.4439746735322885  0.4301650408107562  0.1108505475128396
  0.2343720514141978  0.5177772715411493  0.8719329194048058
  0.1107074987205507  0.4443606706856684  0.6288509274027874
  0.8970636117494166  0.5373472158383166  0.3026560331660519
  0.7631610347856110  0.4151838816324798  0.0557243778142507
  0.5625138026990868  0.5178281149543977  0.8274286953019185
  0.4236715942733937  0.4525372202583711  0.6180051920145289
  0.2164456468365827  0.8780892272073544  0.3464383825706392
  0.1136811447870301  0.7542861551919060  0.1156277057461068
  0.8723796973326827  0.8830417473077716  0.8798452554785570
  0.8136154648568592  0.7597701306893399  0.6388805303028136
  0.5558207252316052  0.8727463577899073  0.3290379057358592
  0.4451425680677588  0.7636468009779875  0.1069420719949008
  0.2010117432810006  0.8940643781593849  0.8939069347755009
  0.1133928941197695  0.7541871912898088  0.5717333616124876
  0.9048219336079413  0.8338893114796804  0.3533403172801073
  0.7647138798666617  0.7958237995198445  0.1118830751316153
  0.5702438229248301  0.8853844528314809  0.8777530778992784
  0.4184403474783949  0.7590442435965699  0.5895982517723724
 
  0.00000000E+00  0.00000000E+00  0.00000000E+00
  0.00000000E+00  0.00000000E+00  0.00000000E+00
  0.00000000E+00  0.00000000E+00  0.00000000E+00
  0.00000000E+00  0.00000000E+00  0.00000000E+00
  0.00000000E+00  0.00000000E+00  0.00000000E+00
  0.00000000E+00  0.00000000E+00  0.00000000E+00
  0.00000000E+00  0.00000000E+00  0.00000000E+00
  0.00000000E+00  0.00000000E+00  0.00000000E+00
  0.00000000E+00  0.00000000E+00  0.00000000E+00
  0.00000000E+00  0.00000000E+00  0.00000000E+00
  0.00000000E+00  0.00000000E+00  0.00000000E+00
  0.00000000E+00  0.00000000E+00  0.00000000E+00
  0.00000000E+00  0.00000000E+00  0.00000000E+00
  0.00000000E+00  0.00000000E+00  0.00000000E+00
  0.00000000E+00  0.00000000E+00  0.00000000E+00
  0.00000000E+00  0.00000000E+00  0.00000000E+00
  0.00000000E+00  0.00000000E+00  0.00000000E+00
  0.00000000E+00  0.00000000E+00  0.00000000E+00
  0.00000000E+00  0.00000000E+00  0.00000000E+00
  0.00000000E+00  0.00000000E+00  0.00000000E+00
  0.00000000E+00  0.00000000E+00  0.00000000E+00
  0.00000000E+00  0.00000000E+00  0.00000000E+00
  0.00000000E+00  0.00000000E+00  0.00000000E+00
  0.00000000E+00  0.00000000E+00  0.00000000E+00
  0.00000000E+00  0.00000000E+00  0.00000000E+00
  0.00000000E+00  0.00000000E+00  0.00000000E+00
  0.00000000E+00  0.00000000E+00  0.00000000E+00
  0.00000000E+00  0.00000000E+00  0.00000000E+00
  0.00000000E+00  0.00000000E+00  0.00000000E+00
  0.00000000E+00  0.00000000E+00  0.00000000E+00
  0.00000000E+00  0.00000000E+00  0.00000000E+00
  0.00000000E+00  0.00000000E+00  0.00000000E+00
  0.00000000E+00  0.00000000E+00  0.00000000E+00
  0.00000000E+00  0.00000000E+00  0.00000000E+00
  0.00000000E+00  0.00000000E+00  0.00000000E+00
  0.00000000E+00  0.00000000E+00  0.00000000E+00
  0.00000000E+00  0.00000000E+00  0.00000000E+00
  0.00000000E+00  0.00000000E+00  0.00000000E+00
  0.00000000E+00  0.00000000E+00  0.00000000E+00
  0.00000000E+00  0.00000000E+00  0.00000000E+00
  0.00000000E+00  0.00000000E+00  0.00000000E+00
  0.00000000E+00  0.00000000E+00  0.00000000E+00
  0.00000000E+00  0.00000000E+00  0.00000000E+00
  0.00000000E+00  0.00000000E+00  0.00000000E+00
  0.00000000E+00  0.00000000E+00  0.00000000E+00
  0.00000000E+00  0.00000000E+00  0.00000000E+00
  0.00000000E+00  0.00000000E+00  0.00000000E+00
  0.00000000E+00  0.00000000E+00  0.00000000E+00
  0.00000000E+00  0.00000000E+00  0.00000000E+00
  0.00000000E+00  0.00000000E+00  0.00000000E+00
  0.00000000E+00  0.00000000E+00  0.00000000E+00
  0.00000000E+00  0.00000000E+00  0.00000000E+00
  0.00000000E+00  0.00000000E+00  0.00000000E+00
  0.00000000E+00  0.00000000E+00  0.00000000E+00
  0.00000000E+00  0.00000000E+00  0.00000000E+00
  0.00000000E+00  0.00000000E+00  0.00000000E+00
  0.00000000E+00  0.00000000E+00  0.00000000E+00
  0.00000000E+00  0.00000000E+00  0.00000000E+00
  0.00000000E+00  0.00000000E+00  0.00000000E+00
  0.00000000E+00  0.00000000E+00  0.00000000E+00
  0.00000000E+00  0.00000000E+00  0.00000000E+00
  0.00000000E+00  0.00000000E+00  0.00000000E+00
  0.00000000E+00  0.00000000E+00  0.00000000E+00
  0.00000000E+00  0.00000000E+00  0.00000000E+00
  0.00000000E+00  0.00000000E+00  0.00000000E+00
  0.00000000E+00  0.00000000E+00  0.00000000E+00
  0.00000000E+00  0.00000000E+00  0.00000000E+00
  0.00000000E+00  0.00000000E+00  0.00000000E+00
  0.00000000E+00  0.00000000E+00  0.00000000E+00
  0.00000000E+00  0.00000000E+00  0.00000000E+00
  0.00000000E+00  0.00000000E+00  0.00000000E+00
  0.00000000E+00  0.00000000E+00  0.00000000E+00
