Al   Gd   N                             
   1.00000000000000     
    -9.8524948373171437    0.0129479212540735   -0.0157706489035654
    -4.9237048041275733    8.5834392727507218   -0.0308121206617810
    -0.0593638538197318    0.1552601233170774  -10.5647609334843455
   Al   Gd   N 
    28     8    36
Direct
  0.1145853080647825  0.0998051381703533  0.2932209236287306
  0.2275193757653398  0.2020030845366492  0.0520200204494117
  0.7664256491601265  0.1019017151564086  0.8809507606678295
  0.4399068191919611  0.0933062864492413  0.2797820281072063
  0.5408167130529904  0.2173624465509221  0.0571481986211069
  0.1131248628911834  0.0901976180517607  0.8179884801466457
  0.8960420330167551  0.2027507533430182  0.0483595574739937
  0.4450993246231647  0.0972502387219407  0.8181563290800682
  0.1250356824555894  0.4180762204287376  0.2922168216734065
  0.2330009305493093  0.5332254944683470  0.0540915212869280
  0.7695690113839788  0.4292290834828307  0.8591063664878718
  0.8894449115667200  0.5479083315655942  0.6468229919241253
  0.4414410038950365  0.4285019372337473  0.2927598741955748
  0.5480918532796721  0.5367600803595067  0.0514696346327383
  0.1271063507018582  0.4203893624455830  0.8130918880128988
  0.2192310375538895  0.5450041985685559  0.5464646323567948
  0.7866828469963565  0.4349254651385337  0.3462338641908858
  0.4416393274221662  0.4296441730066647  0.8070179501595334
  0.5418450043170893  0.5519057342959783  0.5470112651484484
  0.1177683600245700  0.7442310503262348  0.3025774952647495
  0.2199315410006832  0.8726360959570059  0.0657161423580419
  0.7734560807450066  0.7831047284599748  0.8144337646359503
  0.9039910578460351  0.8482464285326756  0.5323854170202580
  0.4452385757913220  0.7582480002699228  0.2925925864126171
  0.5551034931235534  0.8799371115153249  0.0571320474389410
  0.2177319215630504  0.8653944708412169  0.5312999415187321
  0.7808023048906847  0.7561678306631308  0.2856744714608084
  0.8919778630066162  0.8726441273177130  0.0571225069591534
  0.8743072269222978  0.2086617601838014  0.5937346972070898
  0.2049638700943248  0.2032409966484749  0.5565990512978303
  0.7900737838866050  0.0888455992957944  0.3109522339123032
  0.5303957758795903  0.2179871762443213  0.5493170645104115
  0.8959848609207128  0.5400220238724387  0.0705891271027141
  0.1030126294640894  0.7674157334654623  0.7892254953721931
  0.4377916931519295  0.7726867470444390  0.7988670059071339
  0.5807819513925736  0.8542125729016803  0.5406836441453677
  0.2306141017958652  0.1970559129165039  0.3399537466634612
  0.1078801619749967  0.0986049929851234  0.1104555197387285
  0.8882740163926428  0.2049260688150127  0.8527385978114026
  0.7789636012014256  0.0620932285007569  0.5434218868972849
  0.5293653801266061  0.2136556377668342  0.3317816476208293
  0.4421987968498868  0.0953610995772820  0.0989216958522618
  0.2184540220151518  0.2051241773930172  0.8664327681962902
  0.1249937957197673  0.0452454497572887  0.6409507025550951
  0.9143573049176723  0.2208163992649617  0.3698260388490198
  0.7767592300426713  0.1002888213660995  0.0743708290231382
  0.5461322764190015  0.2146720285717052  0.8657788747942661
  0.4393863005618144  0.0789081654480626  0.6414380975571490
  0.2312690786841358  0.5262651811093377  0.3606219338056249
  0.1529585050775282  0.4060052061854833  0.1129989932802431
  0.8895482236467913  0.5388758931207818  0.8379336050301802
  0.7520162259185099  0.4793232863588912  0.5998982290474757
  0.5573782646422742  0.5327235854963845  0.3570960243109980
  0.4440863574647835  0.4319118147566599  0.1123476036692495
  0.2337185561117749  0.5195641035641714  0.8750276004960966
  0.1120176677876401  0.4478598631459221  0.6314156014451413
  0.8958484876086388  0.5354404119103648  0.3051332034399863
  0.7663370871044251  0.4137305397845665  0.0638789546260057
  0.5513307175185034  0.5249153089946006  0.8701715671649524
  0.4265376143922950  0.4624665916732766  0.6253507466646369
  0.2178194234766693  0.8749029552847247  0.3440248568211501
  0.1126168685188205  0.7543471831281039  0.1146541080017798
  0.8706101423930761  0.8862104625626017  0.8788336504825054
  0.8148497394654513  0.7595396202305693  0.6393114366973407
  0.5563138610440674  0.8706295733406790  0.3266470387815303
  0.4470218888739268  0.7568631504935297  0.1070526676232291
  0.2051589260487177  0.8932480304060064  0.8912120904223713
  0.1143620710754121  0.7573257988439508  0.5725095890170522
  0.9065963881271273  0.8283298525318088  0.3535800047754236
  0.7639313749732324  0.7954816318545497  0.1108943088400238
  0.5673316284656025  0.8855893039470715  0.8757147688715392
  0.4243919372002836  0.7606369161508084  0.5822627727048229
 
  0.00000000E+00  0.00000000E+00  0.00000000E+00
  0.00000000E+00  0.00000000E+00  0.00000000E+00
  0.00000000E+00  0.00000000E+00  0.00000000E+00
  0.00000000E+00  0.00000000E+00  0.00000000E+00
  0.00000000E+00  0.00000000E+00  0.00000000E+00
  0.00000000E+00  0.00000000E+00  0.00000000E+00
  0.00000000E+00  0.00000000E+00  0.00000000E+00
  0.00000000E+00  0.00000000E+00  0.00000000E+00
  0.00000000E+00  0.00000000E+00  0.00000000E+00
  0.00000000E+00  0.00000000E+00  0.00000000E+00
  0.00000000E+00  0.00000000E+00  0.00000000E+00
  0.00000000E+00  0.00000000E+00  0.00000000E+00
  0.00000000E+00  0.00000000E+00  0.00000000E+00
  0.00000000E+00  0.00000000E+00  0.00000000E+00
  0.00000000E+00  0.00000000E+00  0.00000000E+00
  0.00000000E+00  0.00000000E+00  0.00000000E+00
  0.00000000E+00  0.00000000E+00  0.00000000E+00
  0.00000000E+00  0.00000000E+00  0.00000000E+00
  0.00000000E+00  0.00000000E+00  0.00000000E+00
  0.00000000E+00  0.00000000E+00  0.00000000E+00
  0.00000000E+00  0.00000000E+00  0.00000000E+00
  0.00000000E+00  0.00000000E+00  0.00000000E+00
  0.00000000E+00  0.00000000E+00  0.00000000E+00
  0.00000000E+00  0.00000000E+00  0.00000000E+00
  0.00000000E+00  0.00000000E+00  0.00000000E+00
  0.00000000E+00  0.00000000E+00  0.00000000E+00
  0.00000000E+00  0.00000000E+00  0.00000000E+00
  0.00000000E+00  0.00000000E+00  0.00000000E+00
  0.00000000E+00  0.00000000E+00  0.00000000E+00
  0.00000000E+00  0.00000000E+00  0.00000000E+00
  0.00000000E+00  0.00000000E+00  0.00000000E+00
  0.00000000E+00  0.00000000E+00  0.00000000E+00
  0.00000000E+00  0.00000000E+00  0.00000000E+00
  0.00000000E+00  0.00000000E+00  0.00000000E+00
  0.00000000E+00  0.00000000E+00  0.00000000E+00
  0.00000000E+00  0.00000000E+00  0.00000000E+00
  0.00000000E+00  0.00000000E+00  0.00000000E+00
  0.00000000E+00  0.00000000E+00  0.00000000E+00
  0.00000000E+00  0.00000000E+00  0.00000000E+00
  0.00000000E+00  0.00000000E+00  0.00000000E+00
  0.00000000E+00  0.00000000E+00  0.00000000E+00
  0.00000000E+00  0.00000000E+00  0.00000000E+00
  0.00000000E+00  0.00000000E+00  0.00000000E+00
  0.00000000E+00  0.00000000E+00  0.00000000E+00
  0.00000000E+00  0.00000000E+00  0.00000000E+00
  0.00000000E+00  0.00000000E+00  0.00000000E+00
  0.00000000E+00  0.00000000E+00  0.00000000E+00
  0.00000000E+00  0.00000000E+00  0.00000000E+00
  0.00000000E+00  0.00000000E+00  0.00000000E+00
  0.00000000E+00  0.00000000E+00  0.00000000E+00
  0.00000000E+00  0.00000000E+00  0.00000000E+00
  0.00000000E+00  0.00000000E+00  0.00000000E+00
  0.00000000E+00  0.00000000E+00  0.00000000E+00
  0.00000000E+00  0.00000000E+00  0.00000000E+00
  0.00000000E+00  0.00000000E+00  0.00000000E+00
  0.00000000E+00  0.00000000E+00  0.00000000E+00
  0.00000000E+00  0.00000000E+00  0.00000000E+00
  0.00000000E+00  0.00000000E+00  0.00000000E+00
  0.00000000E+00  0.00000000E+00  0.00000000E+00
  0.00000000E+00  0.00000000E+00  0.00000000E+00
  0.00000000E+00  0.00000000E+00  0.00000000E+00
  0.00000000E+00  0.00000000E+00  0.00000000E+00
  0.00000000E+00  0.00000000E+00  0.00000000E+00
  0.00000000E+00  0.00000000E+00  0.00000000E+00
  0.00000000E+00  0.00000000E+00  0.00000000E+00
  0.00000000E+00  0.00000000E+00  0.00000000E+00
  0.00000000E+00  0.00000000E+00  0.00000000E+00
  0.00000000E+00  0.00000000E+00  0.00000000E+00
  0.00000000E+00  0.00000000E+00  0.00000000E+00
  0.00000000E+00  0.00000000E+00  0.00000000E+00
  0.00000000E+00  0.00000000E+00  0.00000000E+00
  0.00000000E+00  0.00000000E+00  0.00000000E+00
