Al   Gd   N                             
   1.00000000000000     
    -9.8580631820961688    0.0008378667351266   -0.0198583353013212
    -4.9295035975153150    8.5459237420878935   -0.0332185871510175
    -0.0209131824962200    0.0289824291475927  -10.4244545492852208
   Al   Gd   N 
    28     8    36
Direct
  0.1130869091697448  0.0954338438927920  0.3876672445739047
  0.2259209210086439  0.2039506610429598  0.1535967301829331
  0.7805540093381964  0.0896123503799018  0.9282667658375630
  0.4336077310750923  0.1076567832818753  0.3831194358374432
  0.5445462754428476  0.2134241415396971  0.1361443625912244
  0.1134311360613793  0.0933102127841678  0.9182448837149053
  0.8893322524151444  0.2083519455052425  0.1489727192334200
  0.4452030354254291  0.0895597792230518  0.9293982638257461
  0.1077394294769505  0.4328447922068790  0.3995323236382191
  0.2273823403068889  0.5401259028980832  0.1587865208014421
  0.7753649717060469  0.4152291169751123  0.9038398507784962
  0.8914995756402391  0.5462585364338040  0.6482736619089167
  0.4352256452829266  0.4333472360679309  0.3928107355926187
  0.5510175027378281  0.5375729370609577  0.1601658744136003
  0.1294172620295981  0.4123704394153123  0.9056069588620161
  0.2246120378961578  0.5363678425194180  0.6378116556716904
  0.7767639785878586  0.4391007194474810  0.4007622922044050
  0.4502064221900142  0.4173986986565126  0.9126978764533007
  0.5488031812026932  0.5376026694948166  0.6361082328523935
  0.1127741856268685  0.7543072223868492  0.4021802474426224
  0.2211280276663743  0.8709104676764312  0.1629273762376542
  0.7686314268151193  0.7790502917604556  0.9027916359636023
  0.8926649979291525  0.8682349890699754  0.6497173856870475
  0.4389513730429826  0.7553237030445672  0.3946312752560317
  0.5548744259133898  0.8755489064288611  0.1657508997828074
  0.2183090215177117  0.8674731887358504  0.6361860421179486
  0.7920624834198549  0.7498807024701009  0.4029947489482311
  0.8946525329293920  0.8672710296574806  0.1555380722728756
  0.8914570079672473  0.2063493888056414  0.6565227388758004
  0.2198046169510874  0.2036160254605406  0.6521757462425555
  0.7701999980374410  0.0970899796205629  0.3793672225996119
  0.5489438971145333  0.2162374815592045  0.6776274508647546
  0.8891917868421970  0.5393686668791773  0.1382393607324843
  0.1140495797835612  0.7494145670704953  0.8880792956343697
  0.4522767553687359  0.7501476762526096  0.9019254767891383
  0.5591331246180573  0.8673683226475219  0.6287145432677193
  0.2149338693786902  0.2124035024823527  0.3393408349072189
  0.1145142880489374  0.0906288395091650  0.1035038529724943
  0.8946674095676030  0.1956310153039666  0.8768090634348340
  0.7832734244923287  0.0749791523585586  0.5942835182268738
  0.5183549157010461  0.2307038321292580  0.3196462938679545
  0.4417575206678919  0.0873140792849583  0.1111787105264455
  0.2282478011640379  0.1957733866790790  0.8737465619083764
  0.1217697575885737  0.0681533495965709  0.5654573646978847
  0.8989266625776509  0.2288156078157826  0.3339013404369240
  0.7848846632116562  0.0892472009572458  0.1161982628666252
  0.5594462514544531  0.1976048695023778  0.9057004294674940
  0.4447720802654302  0.1099129945579023  0.5618502389573621
  0.2188070261254751  0.5413955696415869  0.3428512727005071
  0.1456693758244469  0.4159291467872706  0.0880079393177198
  0.8907467039795876  0.5377933885591020  0.8509495539011311
  0.7629773560450914  0.4619939945505749  0.5845082390617833
  0.5571741844727782  0.5353593176669307  0.3422485495364356
  0.4362712638581741  0.4450453062326574  0.0939677676321153
  0.2529089795495807  0.4901472275569176  0.8222415371922978
  0.0998740096944246  0.4495057261515498  0.5823931166660117
  0.8895738814757550  0.5399035675629804  0.3522081969787152
  0.7542439543203727  0.4193886019146902  0.0847697963508267
  0.5722655119424473  0.4942752937904800  0.8219483113636485
  0.4335822458002667  0.4455578790702006  0.5728592246966429
  0.2176614187755490  0.8699439304477892  0.3440636101275842
  0.1141803887868420  0.7606422969361475  0.1058144146344731
  0.8636484257851507  0.8904837416380289  0.8376006228684076
  0.8100988298072807  0.7493712741172800  0.5852333105582375
  0.5605530552895246  0.8688181428921524  0.3541379491505623
  0.4453861193042599  0.7625167163653259  0.1205488065226348
  0.2106156984166603  0.9013500751884536  0.8223643826077875
  0.1100399798498586  0.7573405629225718  0.5985521025459377
  0.9062565528528452  0.8395184234331978  0.3353963247075100
  0.7613342644830610  0.7944639185839506  0.0864438041125410
  0.5590274942952078  0.8918141438541483  0.8483387546548116
  0.4260839634589928  0.7459464741833557  0.5808465756596846
 
  0.00000000E+00  0.00000000E+00  0.00000000E+00
  0.00000000E+00  0.00000000E+00  0.00000000E+00
  0.00000000E+00  0.00000000E+00  0.00000000E+00
  0.00000000E+00  0.00000000E+00  0.00000000E+00
  0.00000000E+00  0.00000000E+00  0.00000000E+00
  0.00000000E+00  0.00000000E+00  0.00000000E+00
  0.00000000E+00  0.00000000E+00  0.00000000E+00
  0.00000000E+00  0.00000000E+00  0.00000000E+00
  0.00000000E+00  0.00000000E+00  0.00000000E+00
  0.00000000E+00  0.00000000E+00  0.00000000E+00
  0.00000000E+00  0.00000000E+00  0.00000000E+00
  0.00000000E+00  0.00000000E+00  0.00000000E+00
  0.00000000E+00  0.00000000E+00  0.00000000E+00
  0.00000000E+00  0.00000000E+00  0.00000000E+00
  0.00000000E+00  0.00000000E+00  0.00000000E+00
  0.00000000E+00  0.00000000E+00  0.00000000E+00
  0.00000000E+00  0.00000000E+00  0.00000000E+00
  0.00000000E+00  0.00000000E+00  0.00000000E+00
  0.00000000E+00  0.00000000E+00  0.00000000E+00
  0.00000000E+00  0.00000000E+00  0.00000000E+00
  0.00000000E+00  0.00000000E+00  0.00000000E+00
  0.00000000E+00  0.00000000E+00  0.00000000E+00
  0.00000000E+00  0.00000000E+00  0.00000000E+00
  0.00000000E+00  0.00000000E+00  0.00000000E+00
  0.00000000E+00  0.00000000E+00  0.00000000E+00
  0.00000000E+00  0.00000000E+00  0.00000000E+00
  0.00000000E+00  0.00000000E+00  0.00000000E+00
  0.00000000E+00  0.00000000E+00  0.00000000E+00
  0.00000000E+00  0.00000000E+00  0.00000000E+00
  0.00000000E+00  0.00000000E+00  0.00000000E+00
  0.00000000E+00  0.00000000E+00  0.00000000E+00
  0.00000000E+00  0.00000000E+00  0.00000000E+00
  0.00000000E+00  0.00000000E+00  0.00000000E+00
  0.00000000E+00  0.00000000E+00  0.00000000E+00
  0.00000000E+00  0.00000000E+00  0.00000000E+00
  0.00000000E+00  0.00000000E+00  0.00000000E+00
  0.00000000E+00  0.00000000E+00  0.00000000E+00
  0.00000000E+00  0.00000000E+00  0.00000000E+00
  0.00000000E+00  0.00000000E+00  0.00000000E+00
  0.00000000E+00  0.00000000E+00  0.00000000E+00
  0.00000000E+00  0.00000000E+00  0.00000000E+00
  0.00000000E+00  0.00000000E+00  0.00000000E+00
  0.00000000E+00  0.00000000E+00  0.00000000E+00
  0.00000000E+00  0.00000000E+00  0.00000000E+00
  0.00000000E+00  0.00000000E+00  0.00000000E+00
  0.00000000E+00  0.00000000E+00  0.00000000E+00
  0.00000000E+00  0.00000000E+00  0.00000000E+00
  0.00000000E+00  0.00000000E+00  0.00000000E+00
  0.00000000E+00  0.00000000E+00  0.00000000E+00
  0.00000000E+00  0.00000000E+00  0.00000000E+00
  0.00000000E+00  0.00000000E+00  0.00000000E+00
  0.00000000E+00  0.00000000E+00  0.00000000E+00
  0.00000000E+00  0.00000000E+00  0.00000000E+00
  0.00000000E+00  0.00000000E+00  0.00000000E+00
  0.00000000E+00  0.00000000E+00  0.00000000E+00
  0.00000000E+00  0.00000000E+00  0.00000000E+00
  0.00000000E+00  0.00000000E+00  0.00000000E+00
  0.00000000E+00  0.00000000E+00  0.00000000E+00
  0.00000000E+00  0.00000000E+00  0.00000000E+00
  0.00000000E+00  0.00000000E+00  0.00000000E+00
  0.00000000E+00  0.00000000E+00  0.00000000E+00
  0.00000000E+00  0.00000000E+00  0.00000000E+00
  0.00000000E+00  0.00000000E+00  0.00000000E+00
  0.00000000E+00  0.00000000E+00  0.00000000E+00
  0.00000000E+00  0.00000000E+00  0.00000000E+00
  0.00000000E+00  0.00000000E+00  0.00000000E+00
  0.00000000E+00  0.00000000E+00  0.00000000E+00
  0.00000000E+00  0.00000000E+00  0.00000000E+00
  0.00000000E+00  0.00000000E+00  0.00000000E+00
  0.00000000E+00  0.00000000E+00  0.00000000E+00
  0.00000000E+00  0.00000000E+00  0.00000000E+00
  0.00000000E+00  0.00000000E+00  0.00000000E+00
