Al   Gd   N                             
   1.00000000000000     
    -9.8044944338118967    0.0046528063835179   -0.0223879993554255
    -4.9076982506144589    8.5590447842019088   -0.0289666585233196
    -0.0993135989718983    0.0120212993674765  -10.7352295231783543
   Al   Gd   N 
    28     8    36
Direct
  0.1087736644287887  0.1044946200862285  0.3090124383870290
  0.2187389030964795  0.2072255455087344  0.0719066227870258
  0.7701539613387851  0.0935529506838719  0.9058841630532939
  0.4360151150721379  0.0965216271564699  0.2919270835327623
  0.5465642172545273  0.2206598909870721  0.1235669519378035
  0.1181380370893592  0.0857515288853108  0.8282972411633267
  0.8948772617328160  0.2029094461683982  0.0622579995028119
  0.4430521948398933  0.0937833559141978  0.8830809897349141
  0.1196597497675000  0.4248013350980031  0.2980602431218244
  0.2279162418926859  0.5401173695148387  0.0666617752178951
  0.7730024825901722  0.4157981702710956  0.8785115959657190
  0.8890341989156170  0.5507820904873242  0.6530210897218609
  0.4439957449081291  0.4321573031987214  0.3708479636380417
  0.5595845652465528  0.5307219235592271  0.1364586400039585
  0.1281094489290311  0.4171493888368900  0.8211341611455794
  0.2153799693301153  0.5448206822838344  0.5456025972738630
  0.7828592808708805  0.4507166835850285  0.3877591371187350
  0.4573134942417596  0.4135485016058169  0.8956927300213735
  0.5451351142539806  0.5399958602081441  0.6225356508577775
  0.1142922732266101  0.7489269047601752  0.3163752281822880
  0.2147988524001434  0.8774660664810909  0.0772227325280213
  0.7737696336635835  0.7812568100580322  0.8269345209318999
  0.9006789466629712  0.8515565661077176  0.5474898635721317
  0.4379527844562929  0.7681699154964150  0.3004487543354060
  0.5573926579330006  0.8770076023136681  0.0768228944591272
  0.2202657577189271  0.8637662209595405  0.5547013446665616
  0.7793426212530576  0.7585291971782766  0.2999146324692390
  0.8929662364891868  0.8731608671185143  0.0758984885598508
  0.8724382944205615  0.2172206870499522  0.6111787666471642
  0.2056412511305439  0.2063251491914997  0.5566402149368841
  0.7843446859599865  0.0970184652094446  0.3440273938701210
  0.5478168875320435  0.2106511150740573  0.6477413195196604
  0.8918945587001232  0.5437078449502906  0.0821902444855240
  0.1050318913504640  0.7640993772796136  0.7993769493348779
  0.4504515385194736  0.7506777721992677  0.8411139907218654
  0.5740969984758095  0.8435710177000431  0.5543843138771649
  0.2258065885214933  0.2044750960758535  0.3414724732762195
  0.1028099786042276  0.1011118055596825  0.1281013323539852
  0.8961288247769517  0.1927736806877505  0.8719092159140729
  0.7795902493829203  0.0673948035726042  0.5597950385251806
  0.5248119360962917  0.2282036133723651  0.3012255313879777
  0.4396048510301398  0.0968234102168282  0.1015341685538047
  0.2157905038072272  0.2057289724503306  0.8868307221387255
  0.1215812002813976  0.0532923215485397  0.6526943936765690
  0.9134104399854976  0.2275754195320658  0.3918565138748988
  0.7781544398734042  0.1002024966180812  0.0933134210591504
  0.5568950175778653  0.1979171056147564  0.8666057174684596
  0.4352316843815629  0.0761634103660924  0.6329867279607555
  0.2176112669303052  0.5345271035643435  0.3645293970882761
  0.1487530434682967  0.4129516111285199  0.1224436766506258
  0.8847968249876743  0.5324563155083410  0.8409503492369481
  0.7524677699333537  0.4970552422150405  0.5664634437407301
  0.5614270813449806  0.5366199240502780  0.3153407993209498
  0.4509580935981532  0.4351977933896620  0.0732999874889586
  0.2325532659179785  0.5193750424116530  0.8858850238723903
  0.1140652206617716  0.4485374542643257  0.6424268930897057
  0.8919782221190147  0.5374523908957798  0.3091491758348752
  0.7561149910432761  0.4200092253989780  0.0566318525695095
  0.5785797411295235  0.4802718642979258  0.8002906935788943
  0.4408594367405030  0.4455964883917787  0.5477374930326633
  0.2193411421166260  0.8777062356877607  0.3651872224539332
  0.1124313284086469  0.7584689021593576  0.1310557448661740
  0.8753402407205044  0.8767442591853936  0.8994015974986880
  0.8085652020953376  0.7652781053430644  0.6539566812559130
  0.5509306777504079  0.8760484511949898  0.3385276162326463
  0.4420502042029710  0.7641195284392737  0.1164848489503854
  0.2053954425823505  0.8909244146508541  0.9048549911601143
  0.1133427722924978  0.7553632505260239  0.5861236182476190
  0.9020136980200775  0.8333085138895910  0.3700738231533904
  0.7637612835135386  0.7971875356167857  0.1287090868200238
  0.5718819555921613  0.8781789439373568  0.8968199839690598
  0.4176102738444882  0.7542747120893907  0.6299718409188841
 
  0.00000000E+00  0.00000000E+00  0.00000000E+00
  0.00000000E+00  0.00000000E+00  0.00000000E+00
  0.00000000E+00  0.00000000E+00  0.00000000E+00
  0.00000000E+00  0.00000000E+00  0.00000000E+00
  0.00000000E+00  0.00000000E+00  0.00000000E+00
  0.00000000E+00  0.00000000E+00  0.00000000E+00
  0.00000000E+00  0.00000000E+00  0.00000000E+00
  0.00000000E+00  0.00000000E+00  0.00000000E+00
  0.00000000E+00  0.00000000E+00  0.00000000E+00
  0.00000000E+00  0.00000000E+00  0.00000000E+00
  0.00000000E+00  0.00000000E+00  0.00000000E+00
  0.00000000E+00  0.00000000E+00  0.00000000E+00
  0.00000000E+00  0.00000000E+00  0.00000000E+00
  0.00000000E+00  0.00000000E+00  0.00000000E+00
  0.00000000E+00  0.00000000E+00  0.00000000E+00
  0.00000000E+00  0.00000000E+00  0.00000000E+00
  0.00000000E+00  0.00000000E+00  0.00000000E+00
  0.00000000E+00  0.00000000E+00  0.00000000E+00
  0.00000000E+00  0.00000000E+00  0.00000000E+00
  0.00000000E+00  0.00000000E+00  0.00000000E+00
  0.00000000E+00  0.00000000E+00  0.00000000E+00
  0.00000000E+00  0.00000000E+00  0.00000000E+00
  0.00000000E+00  0.00000000E+00  0.00000000E+00
  0.00000000E+00  0.00000000E+00  0.00000000E+00
  0.00000000E+00  0.00000000E+00  0.00000000E+00
  0.00000000E+00  0.00000000E+00  0.00000000E+00
  0.00000000E+00  0.00000000E+00  0.00000000E+00
  0.00000000E+00  0.00000000E+00  0.00000000E+00
  0.00000000E+00  0.00000000E+00  0.00000000E+00
  0.00000000E+00  0.00000000E+00  0.00000000E+00
  0.00000000E+00  0.00000000E+00  0.00000000E+00
  0.00000000E+00  0.00000000E+00  0.00000000E+00
  0.00000000E+00  0.00000000E+00  0.00000000E+00
  0.00000000E+00  0.00000000E+00  0.00000000E+00
  0.00000000E+00  0.00000000E+00  0.00000000E+00
  0.00000000E+00  0.00000000E+00  0.00000000E+00
  0.00000000E+00  0.00000000E+00  0.00000000E+00
  0.00000000E+00  0.00000000E+00  0.00000000E+00
  0.00000000E+00  0.00000000E+00  0.00000000E+00
  0.00000000E+00  0.00000000E+00  0.00000000E+00
  0.00000000E+00  0.00000000E+00  0.00000000E+00
  0.00000000E+00  0.00000000E+00  0.00000000E+00
  0.00000000E+00  0.00000000E+00  0.00000000E+00
  0.00000000E+00  0.00000000E+00  0.00000000E+00
  0.00000000E+00  0.00000000E+00  0.00000000E+00
  0.00000000E+00  0.00000000E+00  0.00000000E+00
  0.00000000E+00  0.00000000E+00  0.00000000E+00
  0.00000000E+00  0.00000000E+00  0.00000000E+00
  0.00000000E+00  0.00000000E+00  0.00000000E+00
  0.00000000E+00  0.00000000E+00  0.00000000E+00
  0.00000000E+00  0.00000000E+00  0.00000000E+00
  0.00000000E+00  0.00000000E+00  0.00000000E+00
  0.00000000E+00  0.00000000E+00  0.00000000E+00
  0.00000000E+00  0.00000000E+00  0.00000000E+00
  0.00000000E+00  0.00000000E+00  0.00000000E+00
  0.00000000E+00  0.00000000E+00  0.00000000E+00
  0.00000000E+00  0.00000000E+00  0.00000000E+00
  0.00000000E+00  0.00000000E+00  0.00000000E+00
  0.00000000E+00  0.00000000E+00  0.00000000E+00
  0.00000000E+00  0.00000000E+00  0.00000000E+00
  0.00000000E+00  0.00000000E+00  0.00000000E+00
  0.00000000E+00  0.00000000E+00  0.00000000E+00
  0.00000000E+00  0.00000000E+00  0.00000000E+00
  0.00000000E+00  0.00000000E+00  0.00000000E+00
  0.00000000E+00  0.00000000E+00  0.00000000E+00
  0.00000000E+00  0.00000000E+00  0.00000000E+00
  0.00000000E+00  0.00000000E+00  0.00000000E+00
  0.00000000E+00  0.00000000E+00  0.00000000E+00
  0.00000000E+00  0.00000000E+00  0.00000000E+00
  0.00000000E+00  0.00000000E+00  0.00000000E+00
  0.00000000E+00  0.00000000E+00  0.00000000E+00
  0.00000000E+00  0.00000000E+00  0.00000000E+00
