Al   Gd   N                             
   1.00000000000000     
    -9.8313484695580335    0.0158529338045203   -0.0165249629919896
    -4.9413635561267286    8.5906587652364124   -0.0232498015437398
    -0.0575024431296772    0.1236778234470406  -10.6334175403727915
   Al   Gd   N 
    28     8    36
Direct
  0.1131520494145306  0.1065203727899231  0.3054429348016257
  0.2275563915727474  0.2041114721171269  0.0589145756066785
  0.7703071845111893  0.0962370315174539  0.8889290389902627
  0.4417964464864141  0.0941786631078898  0.2875873599547418
  0.5428772186378339  0.2165813222740525  0.0641430741634821
  0.1158650325030663  0.0872716811492538  0.8236379033429557
  0.8978510833151034  0.2005642381085622  0.0537892766319956
  0.4443662215469573  0.0944375291115875  0.8218576643743916
  0.1235767651151463  0.4210435234807832  0.2975776716391323
  0.2351076093550333  0.5341828168794152  0.0583895764364328
  0.7746166680522393  0.4201606636872910  0.8771480473681024
  0.8854370261104023  0.5507351647760643  0.6470829410781391
  0.4382676102796097  0.4278485520743232  0.2972847593097825
  0.5641511670557904  0.5316157346092680  0.1289838783250232
  0.1238714684491526  0.4207913464952640  0.8172947076748187
  0.2161801393514295  0.5428160307604131  0.5495759231102326
  0.7818056250787109  0.4517355300541936  0.3840680320582237
  0.4436368215673454  0.4137002134882977  0.8085468758224010
  0.5434038161750436  0.5449522017620225  0.6311729582092980
  0.1186457015309657  0.7460204113401616  0.3131407835284108
  0.2141282486748395  0.8784970968866901  0.0755086714310167
  0.7754599480261462  0.7816287655273086  0.8194755721677467
  0.8986753995727881  0.8517693663555121  0.5385896742503391
  0.4427022586746645  0.7671679568341219  0.2954229908886248
  0.5584293157481355  0.8864307388389534  0.0639724047004719
  0.2172475429587877  0.8633893868269951  0.5476603328849947
  0.7801800111520265  0.7601578614373494  0.2958069818811779
  0.8951903312458924  0.8717538427309819  0.0657122358693840
  0.8653877833534267  0.2163727983483810  0.6078984836639307
  0.1994009993957278  0.2036266736601320  0.5619974308314326
  0.7963581149088483  0.0951188032491288  0.3198861140947358
  0.5289277690784786  0.2087070825919568  0.5485681324466611
  0.8941069579860397  0.5421219400928834  0.0822129238295020
  0.1087643640579330  0.7663187160517211  0.7920936744430662
  0.4482257515885379  0.7551633158750519  0.8482860820726543
  0.5685942030032507  0.8412801883996650  0.5568898541039360
  0.2323565067025228  0.2017501442779803  0.3472591103440479
  0.1059920621073260  0.1023007989156781  0.1228614224452329
  0.8944180167775073  0.1978999568236190  0.8632005800687352
  0.7808339278300735  0.0658848637609424  0.5513649116124739
  0.5343611038801797  0.2137848364596806  0.3333928813043627
  0.4418632931162421  0.0976377095072536  0.1081350675918671
  0.2182303548520181  0.2051125787711143  0.8738979987072284
  0.1158705310731207  0.0497165401862532  0.6480295025002221
  0.9161241546565364  0.2287215182909605  0.3871480435149834
  0.7791209559523651  0.0993340817254733  0.0818312330817861
  0.5488194148788352  0.2069254729653807  0.8750332632465572
  0.4353587584741518  0.0762243608236304  0.6470015425583426
  0.2300911938100683  0.5275667596763398  0.3655598420501107
  0.1519824479166303  0.4091634353900275  0.1179463475315359
  0.8854856154166697  0.5361356289835797  0.8390772270415852
  0.7458542346372212  0.4981197268954674  0.5638505713779480
  0.5627597866149259  0.5370235682941598  0.3121438459637105
  0.4449941221948777  0.4308974220375177  0.1148421281507552
  0.2356401344555863  0.5184300764246998  0.8795353707233460
  0.1070794550051204  0.4480137568738911  0.6359877516192682
  0.8953264261931366  0.5382623169333272  0.3093857444978312
  0.7609371351478700  0.4165078664759960  0.0558490551834296
  0.5809090354277160  0.4949591765500472  0.8079724488784947
  0.4189793353039732  0.4482750977412522  0.6268992665773894
  0.2224358706734577  0.8772683608266405  0.3580377954366085
  0.1152115141380605  0.7553484264637049  0.1252751857203194
  0.8765073898786468  0.8795358632106840  0.8872794219571105
  0.8071208364142706  0.7635257136273452  0.6441771863249173
  0.5547625258075044  0.8730671447420875  0.3403199496952993
  0.4465691949210395  0.7650139408611878  0.1074442598767149
  0.1998474776104331  0.8955754104729792  0.9025953843509669
  0.1109398345352730  0.7553636927885066  0.5767056455717565
  0.9054200917171897  0.8345239903591306  0.3603900071794754
  0.7647996512000219  0.7976456757791368  0.1209585210963837
  0.5707540134049083  0.8870237359627566  0.8837976563359646
  0.4108653074773301  0.7571104098093144  0.6295875910930633
 
  0.00000000E+00  0.00000000E+00  0.00000000E+00
  0.00000000E+00  0.00000000E+00  0.00000000E+00
  0.00000000E+00  0.00000000E+00  0.00000000E+00
  0.00000000E+00  0.00000000E+00  0.00000000E+00
  0.00000000E+00  0.00000000E+00  0.00000000E+00
  0.00000000E+00  0.00000000E+00  0.00000000E+00
  0.00000000E+00  0.00000000E+00  0.00000000E+00
  0.00000000E+00  0.00000000E+00  0.00000000E+00
  0.00000000E+00  0.00000000E+00  0.00000000E+00
  0.00000000E+00  0.00000000E+00  0.00000000E+00
  0.00000000E+00  0.00000000E+00  0.00000000E+00
  0.00000000E+00  0.00000000E+00  0.00000000E+00
  0.00000000E+00  0.00000000E+00  0.00000000E+00
  0.00000000E+00  0.00000000E+00  0.00000000E+00
  0.00000000E+00  0.00000000E+00  0.00000000E+00
  0.00000000E+00  0.00000000E+00  0.00000000E+00
  0.00000000E+00  0.00000000E+00  0.00000000E+00
  0.00000000E+00  0.00000000E+00  0.00000000E+00
  0.00000000E+00  0.00000000E+00  0.00000000E+00
  0.00000000E+00  0.00000000E+00  0.00000000E+00
  0.00000000E+00  0.00000000E+00  0.00000000E+00
  0.00000000E+00  0.00000000E+00  0.00000000E+00
  0.00000000E+00  0.00000000E+00  0.00000000E+00
  0.00000000E+00  0.00000000E+00  0.00000000E+00
  0.00000000E+00  0.00000000E+00  0.00000000E+00
  0.00000000E+00  0.00000000E+00  0.00000000E+00
  0.00000000E+00  0.00000000E+00  0.00000000E+00
  0.00000000E+00  0.00000000E+00  0.00000000E+00
  0.00000000E+00  0.00000000E+00  0.00000000E+00
  0.00000000E+00  0.00000000E+00  0.00000000E+00
  0.00000000E+00  0.00000000E+00  0.00000000E+00
  0.00000000E+00  0.00000000E+00  0.00000000E+00
  0.00000000E+00  0.00000000E+00  0.00000000E+00
  0.00000000E+00  0.00000000E+00  0.00000000E+00
  0.00000000E+00  0.00000000E+00  0.00000000E+00
  0.00000000E+00  0.00000000E+00  0.00000000E+00
  0.00000000E+00  0.00000000E+00  0.00000000E+00
  0.00000000E+00  0.00000000E+00  0.00000000E+00
  0.00000000E+00  0.00000000E+00  0.00000000E+00
  0.00000000E+00  0.00000000E+00  0.00000000E+00
  0.00000000E+00  0.00000000E+00  0.00000000E+00
  0.00000000E+00  0.00000000E+00  0.00000000E+00
  0.00000000E+00  0.00000000E+00  0.00000000E+00
  0.00000000E+00  0.00000000E+00  0.00000000E+00
  0.00000000E+00  0.00000000E+00  0.00000000E+00
  0.00000000E+00  0.00000000E+00  0.00000000E+00
  0.00000000E+00  0.00000000E+00  0.00000000E+00
  0.00000000E+00  0.00000000E+00  0.00000000E+00
  0.00000000E+00  0.00000000E+00  0.00000000E+00
  0.00000000E+00  0.00000000E+00  0.00000000E+00
  0.00000000E+00  0.00000000E+00  0.00000000E+00
  0.00000000E+00  0.00000000E+00  0.00000000E+00
  0.00000000E+00  0.00000000E+00  0.00000000E+00
  0.00000000E+00  0.00000000E+00  0.00000000E+00
  0.00000000E+00  0.00000000E+00  0.00000000E+00
  0.00000000E+00  0.00000000E+00  0.00000000E+00
  0.00000000E+00  0.00000000E+00  0.00000000E+00
  0.00000000E+00  0.00000000E+00  0.00000000E+00
  0.00000000E+00  0.00000000E+00  0.00000000E+00
  0.00000000E+00  0.00000000E+00  0.00000000E+00
  0.00000000E+00  0.00000000E+00  0.00000000E+00
  0.00000000E+00  0.00000000E+00  0.00000000E+00
  0.00000000E+00  0.00000000E+00  0.00000000E+00
  0.00000000E+00  0.00000000E+00  0.00000000E+00
  0.00000000E+00  0.00000000E+00  0.00000000E+00
  0.00000000E+00  0.00000000E+00  0.00000000E+00
  0.00000000E+00  0.00000000E+00  0.00000000E+00
  0.00000000E+00  0.00000000E+00  0.00000000E+00
  0.00000000E+00  0.00000000E+00  0.00000000E+00
  0.00000000E+00  0.00000000E+00  0.00000000E+00
  0.00000000E+00  0.00000000E+00  0.00000000E+00
  0.00000000E+00  0.00000000E+00  0.00000000E+00
