Al   Gd   N                             
   1.00000000000000     
    -9.8713889642241739    0.0006971241409535   -0.0203482600286206
    -4.9252861119284796    8.6150365089447156   -0.0330785017527990
     0.0465710779389724    0.0123587602814558  -10.3740407434361810
   Al   Gd   N 
    28     8    36
Direct
  0.1156519851655418  0.0926747201063733  0.3864096637411052
  0.2237207856550896  0.2072144639277980  0.1530894776922764
  0.7841792737500413  0.0896891738092833  0.9257271621916061
  0.4315145119815327  0.1146299042884351  0.3794339009446190
  0.5445782027980073  0.2133483098731972  0.1284163575384198
  0.1096740126962175  0.0970123897497643  0.9223664454453200
  0.8889266785597343  0.2103656879480056  0.1539957207169778
  0.4426803430018325  0.0895077891713356  0.9244009313690356
  0.1055958377085702  0.4340021096332762  0.3976992516358990
  0.2272403432191723  0.5386460047075516  0.1578074292900524
  0.7776992415786665  0.4101975600806256  0.9028583567428612
  0.8900459230185263  0.5484254904135000  0.6485847339225046
  0.4358533202497128  0.4345818937715649  0.3905892731107485
  0.5557776160951065  0.5291731457410336  0.1529605023085736
  0.1298529172015037  0.4111659043359310  0.9022009862009668
  0.2270084970812647  0.5348797439784079  0.6342714628269377
  0.7749125514732498  0.4417214825376021  0.4001439652138146
  0.4513020466147779  0.4138274640873405  0.9106775535128975
  0.5513136928904174  0.5321926032257380  0.6445589191335301
  0.1138253190779608  0.7538180565680079  0.3964219047112252
  0.2117034051236359  0.8761983373709441  0.1505127656503973
  0.7634600118439465  0.7868930109181846  0.8946870241163154
  0.8924910852731145  0.8693000271001239  0.6467569033717169
  0.4434450875596383  0.7588554079524314  0.3294402422485376
  0.5583243921068117  0.8819397068726786  0.1574148688084733
  0.2173190140374288  0.8629007487570135  0.6394089186855823
  0.7960620487607599  0.7474235671419720  0.4006858898010890
  0.8926672290000752  0.8693970272049185  0.1530683602937515
  0.8954140386943763  0.2075407452048807  0.6505089728513482
  0.2229642924369202  0.2047809900181505  0.6488178532874329
  0.7673896228108248  0.0965278897452819  0.3774363862346348
  0.5532262507816483  0.2140193125416445  0.6780035898789691
  0.8874745344073389  0.5447695611886090  0.1307164179069247
  0.1118582054767501  0.7423279121590198  0.8897670194584677
  0.4546312092711844  0.7474993770074292  0.8838493900826023
  0.5533858658196493  0.8653086399456242  0.6106009910150050
  0.2134471964598248  0.2142794666199066  0.3393850672625476
  0.1096160409916749  0.0978800879073631  0.1077084330359099
  0.8959634946722161  0.1958011694836657  0.8719317120911612
  0.7864740192382911  0.0756284379274064  0.5927739081970600
  0.5171631370692324  0.2340128851624712  0.3137160444072720
  0.4378875644076032  0.0895779121108049  0.1077946748142011
  0.2249168407100655  0.1966779915814243  0.8712987324150134
  0.1313268082242374  0.0598514191384609  0.5665392073515676
  0.8976196975682313  0.2282716116619596  0.3405410634809627
  0.7876724945131386  0.0896431856038831  0.1156357567102120
  0.5606057400192839  0.1950080679912745  0.9097948517466676
  0.4466049147578062  0.1136292262658003  0.5578910641818524
  0.2187562732786219  0.5407463193686866  0.3417029223993922
  0.1445718854194809  0.4163447634384596  0.0862435672547193
  0.8900922452573425  0.5396780165056683  0.8501701135076232
  0.7605859682195515  0.4655014429208961  0.5837414924608382
  0.5574592244519394  0.5356362649212372  0.3368352817663549
  0.4339997283009964  0.4458635444298551  0.0910994239232608
  0.2565527088592106  0.4840661235015986  0.8181850151583774
  0.0977485408568270  0.4503765065230354  0.5807489426011685
  0.8883100461268043  0.5403541199009254  0.3470930195605533
  0.7590200186259040  0.4163013254178054  0.0852638313189757
  0.5801754817155640  0.4785703773306338  0.8261276158215196
  0.4368833929242513  0.4442398965920020  0.5706814739759025
  0.2181761457119791  0.8700689004535391  0.3365580121831400
  0.1105108912793042  0.7580385285315785  0.1071407117316028
  0.8638911205617603  0.8932591795637634  0.8344148644030795
  0.8092669664713910  0.7497477199857272  0.5841630130004134
  0.5618918259600747  0.8709549887234616  0.3484957303328429
  0.4477289834485276  0.7617293674651080  0.1308293235836189
  0.2021645613912568  0.8987607163388134  0.8524815270551898
  0.1100205475594933  0.7559231055728475  0.5937879943681565
  0.9054599114365587  0.8399800267790596  0.3332350346363384
  0.7589985579282583  0.7996875944151611  0.0799314189317144
  0.5559908379790670  0.8982194890843544  0.8375231913031485
  0.4263825922701372  0.7413368847444985  0.6485580806307070
 
  0.00000000E+00  0.00000000E+00  0.00000000E+00
  0.00000000E+00  0.00000000E+00  0.00000000E+00
  0.00000000E+00  0.00000000E+00  0.00000000E+00
  0.00000000E+00  0.00000000E+00  0.00000000E+00
  0.00000000E+00  0.00000000E+00  0.00000000E+00
  0.00000000E+00  0.00000000E+00  0.00000000E+00
  0.00000000E+00  0.00000000E+00  0.00000000E+00
  0.00000000E+00  0.00000000E+00  0.00000000E+00
  0.00000000E+00  0.00000000E+00  0.00000000E+00
  0.00000000E+00  0.00000000E+00  0.00000000E+00
  0.00000000E+00  0.00000000E+00  0.00000000E+00
  0.00000000E+00  0.00000000E+00  0.00000000E+00
  0.00000000E+00  0.00000000E+00  0.00000000E+00
  0.00000000E+00  0.00000000E+00  0.00000000E+00
  0.00000000E+00  0.00000000E+00  0.00000000E+00
  0.00000000E+00  0.00000000E+00  0.00000000E+00
  0.00000000E+00  0.00000000E+00  0.00000000E+00
  0.00000000E+00  0.00000000E+00  0.00000000E+00
  0.00000000E+00  0.00000000E+00  0.00000000E+00
  0.00000000E+00  0.00000000E+00  0.00000000E+00
  0.00000000E+00  0.00000000E+00  0.00000000E+00
  0.00000000E+00  0.00000000E+00  0.00000000E+00
  0.00000000E+00  0.00000000E+00  0.00000000E+00
  0.00000000E+00  0.00000000E+00  0.00000000E+00
  0.00000000E+00  0.00000000E+00  0.00000000E+00
  0.00000000E+00  0.00000000E+00  0.00000000E+00
  0.00000000E+00  0.00000000E+00  0.00000000E+00
  0.00000000E+00  0.00000000E+00  0.00000000E+00
  0.00000000E+00  0.00000000E+00  0.00000000E+00
  0.00000000E+00  0.00000000E+00  0.00000000E+00
  0.00000000E+00  0.00000000E+00  0.00000000E+00
  0.00000000E+00  0.00000000E+00  0.00000000E+00
  0.00000000E+00  0.00000000E+00  0.00000000E+00
  0.00000000E+00  0.00000000E+00  0.00000000E+00
  0.00000000E+00  0.00000000E+00  0.00000000E+00
  0.00000000E+00  0.00000000E+00  0.00000000E+00
  0.00000000E+00  0.00000000E+00  0.00000000E+00
  0.00000000E+00  0.00000000E+00  0.00000000E+00
  0.00000000E+00  0.00000000E+00  0.00000000E+00
  0.00000000E+00  0.00000000E+00  0.00000000E+00
  0.00000000E+00  0.00000000E+00  0.00000000E+00
  0.00000000E+00  0.00000000E+00  0.00000000E+00
  0.00000000E+00  0.00000000E+00  0.00000000E+00
  0.00000000E+00  0.00000000E+00  0.00000000E+00
  0.00000000E+00  0.00000000E+00  0.00000000E+00
  0.00000000E+00  0.00000000E+00  0.00000000E+00
  0.00000000E+00  0.00000000E+00  0.00000000E+00
  0.00000000E+00  0.00000000E+00  0.00000000E+00
  0.00000000E+00  0.00000000E+00  0.00000000E+00
  0.00000000E+00  0.00000000E+00  0.00000000E+00
  0.00000000E+00  0.00000000E+00  0.00000000E+00
  0.00000000E+00  0.00000000E+00  0.00000000E+00
  0.00000000E+00  0.00000000E+00  0.00000000E+00
  0.00000000E+00  0.00000000E+00  0.00000000E+00
  0.00000000E+00  0.00000000E+00  0.00000000E+00
  0.00000000E+00  0.00000000E+00  0.00000000E+00
  0.00000000E+00  0.00000000E+00  0.00000000E+00
  0.00000000E+00  0.00000000E+00  0.00000000E+00
  0.00000000E+00  0.00000000E+00  0.00000000E+00
  0.00000000E+00  0.00000000E+00  0.00000000E+00
  0.00000000E+00  0.00000000E+00  0.00000000E+00
  0.00000000E+00  0.00000000E+00  0.00000000E+00
  0.00000000E+00  0.00000000E+00  0.00000000E+00
  0.00000000E+00  0.00000000E+00  0.00000000E+00
  0.00000000E+00  0.00000000E+00  0.00000000E+00
  0.00000000E+00  0.00000000E+00  0.00000000E+00
  0.00000000E+00  0.00000000E+00  0.00000000E+00
  0.00000000E+00  0.00000000E+00  0.00000000E+00
  0.00000000E+00  0.00000000E+00  0.00000000E+00
  0.00000000E+00  0.00000000E+00  0.00000000E+00
  0.00000000E+00  0.00000000E+00  0.00000000E+00
  0.00000000E+00  0.00000000E+00  0.00000000E+00
