supercell of 100% icsd_608626.cif, 0% i 
   1.00000000000000     
    -9.4663634655972899    0.0000001568750203    0.0000000104196630
    -4.7331818690217560    8.2088272053050719   -0.0003559446482153
     0.0000000118996537    0.0004278790201583  -10.0524441668294546
   Mg   Al   Ti   N 
     2    32     2    36
Direct
  0.1125648136207005  0.0932145790918142  0.2945547628914156
  0.7775538256958896  0.0932147260140681  0.2945548636455726
  0.2209076719317338  0.2059680294705046  0.0451171556518091
  0.7759133381239991  0.0927257098090379  0.8005763868097304
  0.4405324260385015  0.1022682064703631  0.2944443444347016
  0.5564576720373609  0.2059678898411192  0.0451171196537885
  0.1146948982115958  0.0927255382030907  0.8005764571444303
  0.2214693838642674  0.2097796777652761  0.5420546305689271
  0.8892779403128159  0.2047774872157433  0.0399834768821208
  0.4431443464964389  0.0970448667502879  0.7995544087651254
  0.5520848112590002  0.2097795138000649  0.5420546205569252
  0.1133336800592559  0.4270081960986758  0.2955934575110106
  0.2221944064529282  0.5389443598999861  0.0460557003797177
  0.7757640460472075  0.4318055370975600  0.7987307525649996
  0.8921969281981887  0.5380926865118596  0.5422639975729311
  0.4429912064859423  0.4270080696533967  0.2955934721066953
  0.5553761850173231  0.5381290811588144  0.0471673536447028
  0.1113262518485669  0.4284517506632426  0.7961873715131560
  0.2221336995963696  0.5390662204036190  0.5434976928237560
  0.7764910386263679  0.4303512933761482  0.2950502019044947
  0.8898278466569352  0.5381292756559262  0.0471673543752047
  0.4435553302025426  0.4284516159958400  0.7961873427145392
  0.5530441856064243  0.5380923958513506  0.5422639534440918
  0.1129188713506508  0.7574951511740906  0.2957792765135352
  0.2204847696980323  0.8731918246204415  0.0450203354406327
  0.7800348903261067  0.7594900545113035  0.8000552254077391
  0.8937151568091650  0.8678468573806271  0.5430044836250190
  0.4414536442518866  0.7588807119400940  0.2937073755813628
  0.5551633687754602  0.8730062783503172  0.0461701154203737
  0.1119406792551771  0.7594517123446423  0.7961384904692821
  0.2217716963842449  0.8678467871665987  0.5430045894636137
  0.7829982818117074  0.7588809668491336  0.2937075415970867
  0.8896563777262188  0.8731918318337932  0.0450204383496953
  0.4438084195587280  0.7594896935113411  0.8000553511893926
  0.8880568986442441  0.2072202076736787  0.5533926905605853
  0.5552568924982992  0.8728195391414104  0.5486764850926704
  0.2274577210308451  0.2126746992382635  0.3572819192703918
  0.1097212812786665  0.0950818220166099  0.0888255722049678
  0.8878721685591842  0.2075895642735546  0.8448310758032278
  0.7728070014078838  0.0887224973342597  0.6066324410209489
  0.5432007637040783  0.2126745564085155  0.3572819317983331
  0.4444209992878925  0.0944912487627789  0.1029095585492428
  0.2227223936907521  0.2074854995009687  0.8532835298671486
  0.1218045559331600  0.0887224154143524  0.6066325039193288
  0.8807334759735426  0.2218665217792122  0.3693875339045150
  0.7785302310506736  0.0950818084464160  0.0888256765256656
  0.5531258313876677  0.2074853274059336  0.8532834611802471
  0.4420205694232706  0.0992925806773144  0.6076226013017916
  0.2225799738197196  0.5381730739386938  0.3539812617555924
  0.1112475194652305  0.4279794519419511  0.1040168311736238
  0.8894630119174778  0.5387754959977400  0.8559269557047315
  0.7717689688490523  0.4397958634806258  0.6077057099302934
  0.5556011421182845  0.5392290441412868  0.3530410484100770
  0.4441062363334751  0.4279792929056541  0.1040168163946760
  0.2224099210183041  0.5385133706246705  0.8546859417276025
  0.1101773788075633  0.4291150436113895  0.6052887646091278
  0.8885028885462489  0.5392292906858458  0.3530411276620384
  0.7782960976442936  0.4267411508748111  0.1033267121047174
  0.5550950873092049  0.5387750990245621  0.8559269264098077
  0.4440412327696706  0.4291149067830133  0.6052887136849137
  0.2292863925654629  0.8569403533553128  0.3577931605755396
  0.1114732539762713  0.7603864226736192  0.1034934569060297
  0.8904170721403162  0.8697034396528593  0.8532940815196639
  0.7827438841384975  0.7575227164549432  0.6072028832395162
  0.5555126752604878  0.8723073068115497  0.3537023702070030
  0.4446005915549307  0.7613707430028924  0.1030879741490622
  0.2232127425300661  0.8697032373995768  0.8532940100106714
  0.1119372104601979  0.7594591946603160  0.6065567069290481
  0.8971061268913090  0.8569404283742657  0.3577930986680400
  0.7773616131692975  0.7613708379956350  0.1030881250046747
  0.5554790485704260  0.8723749930691227  0.8523672601873500
  0.4430670579363110  0.7575223779862554  0.6072029814194835
 
  0.00000000E+00  0.00000000E+00  0.00000000E+00
  0.00000000E+00  0.00000000E+00  0.00000000E+00
  0.00000000E+00  0.00000000E+00  0.00000000E+00
  0.00000000E+00  0.00000000E+00  0.00000000E+00
  0.00000000E+00  0.00000000E+00  0.00000000E+00
  0.00000000E+00  0.00000000E+00  0.00000000E+00
  0.00000000E+00  0.00000000E+00  0.00000000E+00
  0.00000000E+00  0.00000000E+00  0.00000000E+00
  0.00000000E+00  0.00000000E+00  0.00000000E+00
  0.00000000E+00  0.00000000E+00  0.00000000E+00
  0.00000000E+00  0.00000000E+00  0.00000000E+00
  0.00000000E+00  0.00000000E+00  0.00000000E+00
  0.00000000E+00  0.00000000E+00  0.00000000E+00
  0.00000000E+00  0.00000000E+00  0.00000000E+00
  0.00000000E+00  0.00000000E+00  0.00000000E+00
  0.00000000E+00  0.00000000E+00  0.00000000E+00
  0.00000000E+00  0.00000000E+00  0.00000000E+00
  0.00000000E+00  0.00000000E+00  0.00000000E+00
  0.00000000E+00  0.00000000E+00  0.00000000E+00
  0.00000000E+00  0.00000000E+00  0.00000000E+00
  0.00000000E+00  0.00000000E+00  0.00000000E+00
  0.00000000E+00  0.00000000E+00  0.00000000E+00
  0.00000000E+00  0.00000000E+00  0.00000000E+00
  0.00000000E+00  0.00000000E+00  0.00000000E+00
  0.00000000E+00  0.00000000E+00  0.00000000E+00
  0.00000000E+00  0.00000000E+00  0.00000000E+00
  0.00000000E+00  0.00000000E+00  0.00000000E+00
  0.00000000E+00  0.00000000E+00  0.00000000E+00
  0.00000000E+00  0.00000000E+00  0.00000000E+00
  0.00000000E+00  0.00000000E+00  0.00000000E+00
  0.00000000E+00  0.00000000E+00  0.00000000E+00
  0.00000000E+00  0.00000000E+00  0.00000000E+00
  0.00000000E+00  0.00000000E+00  0.00000000E+00
  0.00000000E+00  0.00000000E+00  0.00000000E+00
  0.00000000E+00  0.00000000E+00  0.00000000E+00
  0.00000000E+00  0.00000000E+00  0.00000000E+00
  0.00000000E+00  0.00000000E+00  0.00000000E+00
  0.00000000E+00  0.00000000E+00  0.00000000E+00
  0.00000000E+00  0.00000000E+00  0.00000000E+00
  0.00000000E+00  0.00000000E+00  0.00000000E+00
  0.00000000E+00  0.00000000E+00  0.00000000E+00
  0.00000000E+00  0.00000000E+00  0.00000000E+00
  0.00000000E+00  0.00000000E+00  0.00000000E+00
  0.00000000E+00  0.00000000E+00  0.00000000E+00
  0.00000000E+00  0.00000000E+00  0.00000000E+00
  0.00000000E+00  0.00000000E+00  0.00000000E+00
  0.00000000E+00  0.00000000E+00  0.00000000E+00
  0.00000000E+00  0.00000000E+00  0.00000000E+00
  0.00000000E+00  0.00000000E+00  0.00000000E+00
  0.00000000E+00  0.00000000E+00  0.00000000E+00
  0.00000000E+00  0.00000000E+00  0.00000000E+00
  0.00000000E+00  0.00000000E+00  0.00000000E+00
  0.00000000E+00  0.00000000E+00  0.00000000E+00
  0.00000000E+00  0.00000000E+00  0.00000000E+00
  0.00000000E+00  0.00000000E+00  0.00000000E+00
  0.00000000E+00  0.00000000E+00  0.00000000E+00
  0.00000000E+00  0.00000000E+00  0.00000000E+00
  0.00000000E+00  0.00000000E+00  0.00000000E+00
  0.00000000E+00  0.00000000E+00  0.00000000E+00
  0.00000000E+00  0.00000000E+00  0.00000000E+00
  0.00000000E+00  0.00000000E+00  0.00000000E+00
  0.00000000E+00  0.00000000E+00  0.00000000E+00
  0.00000000E+00  0.00000000E+00  0.00000000E+00
  0.00000000E+00  0.00000000E+00  0.00000000E+00
  0.00000000E+00  0.00000000E+00  0.00000000E+00
  0.00000000E+00  0.00000000E+00  0.00000000E+00
  0.00000000E+00  0.00000000E+00  0.00000000E+00
  0.00000000E+00  0.00000000E+00  0.00000000E+00
  0.00000000E+00  0.00000000E+00  0.00000000E+00
  0.00000000E+00  0.00000000E+00  0.00000000E+00
  0.00000000E+00  0.00000000E+00  0.00000000E+00
  0.00000000E+00  0.00000000E+00  0.00000000E+00
