supercell of 100% icsd_608626.cif, 0% i 
   1.00000000000000     
    -9.4741522472665896   -0.0045317063112718   -0.0001788968993205
    -4.7331516862282923    8.1975432197517861    0.0010610197839849
    -0.0001926694510948   -0.0014271969321598  -10.0589867112406317
   Al   Ti   Mg   N 
    32     2     2    36
Direct
  0.1109172607582707  0.0937937833341707  0.2967561233139904
  0.2186709994554832  0.2069674659778187  0.0480383344443069
  0.7809963684882888  0.0942735057808619  0.7941948473335003
  0.8892819774174541  0.2072148053707892  0.5463120326764610
  0.4419879514396712  0.0983509385223726  0.2922682824662317
  0.5564520426163142  0.2074006295510316  0.0478125924670749
  0.1078050546575398  0.0928071042374015  0.7931763041934943
  0.2190382399340365  0.2073477101129129  0.5461800988765972
  0.7767819990234912  0.0985958028316105  0.2960148964952651
  0.8895802517479510  0.2051303928485737  0.0452538703773371
  0.5540037588296514  0.2099385338828057  0.5458677405316052
  0.1148605099870394  0.4255766863582906  0.2960498320522618
  0.2219984755036180  0.5390690589207736  0.0451325181736237
  0.7785854782749837  0.4270194507469114  0.7947584987481946
  0.8922755667145950  0.5346535976122340  0.5503392519892500
  0.4442695849953608  0.4293980511954274  0.2948323135880742
  0.5555348602659791  0.5380813198616323  0.0465822651380776
  0.1087007322496731  0.4317768973384943  0.7930151405734662
  0.2233912495791657  0.5382260640126759  0.5469537312464112
  0.7755118577523490  0.4254114412897323  0.2934211489311807
  0.8913022972268081  0.5350439571762777  0.0440354719021130
  0.4428206195656728  0.4317461267846099  0.7927224721444333
  0.1151676267222825  0.7601560845219169  0.2957219879173110
  0.2206593043250251  0.8731699257867334  0.0454749988112653
  0.7832534199819392  0.7571676583664555  0.7922858996967506
  0.8916382279112796  0.8718822291138224  0.5497420584824013
  0.4417931443507612  0.7586102194784132  0.2920026069020949
  0.5540248933905900  0.8711490121156018  0.0478701675248701
  0.1118548605734304  0.7612755733764658  0.7944945517336137
  0.2234167933487399  0.8713251894003875  0.5470404416756551
  0.8910726872238897  0.8737429891023183  0.0440234529068135
  0.4409392272142725  0.7584790201101654  0.7938745257182802
  0.4435263169857606  0.0956411906313761  0.7988663360188681
  0.7782852337833717  0.7605857896400323  0.3000529476378802
  0.5552924039956082  0.5398908291421307  0.5465294597879762
  0.5546012641754103  0.8693646552748007  0.5490349480871899
  0.2231033814507413  0.2047295037323025  0.3542076950702295
  0.1104827839834073  0.0947440354595699  0.1058351273797768
  0.8891678202383346  0.2044660977155957  0.8557416038272692
  0.7771868625893674  0.0951114413496299  0.6039464745705203
  0.5550401010355017  0.2053744473746875  0.3532167706650213
  0.4430878878841469  0.0962191464314941  0.0995402655732676
  0.2138388684277217  0.2094874593397549  0.8562910233946539
  0.1101061514043806  0.0945616552670998  0.6033474100443286
  0.8891731997811974  0.2055249670307546  0.3542940694822292
  0.7779705184277859  0.0943553493865465  0.1053323816859475
  0.5598121354038881  0.2081747396801745  0.8569755165682409
  0.4374315750917788  0.1081907075965347  0.6097477962617006
  0.2217122292479559  0.5393020429477886  0.3541973386569666
  0.1112057064885761  0.4279252980614956  0.1054825909014738
  0.8899858011595754  0.5386212374201875  0.8557223252693120
  0.7925590817822226  0.4200502686400540  0.6088845652251749
  0.5558401917900397  0.5387949041327644  0.3399259631628055
  0.4427009036954956  0.4273972555732684  0.1033077778352052
  0.2210715373685517  0.5396297885412622  0.8551348292398302
  0.1124786138996257  0.4271150677336237  0.6037288753316332
  0.8924448111579295  0.5313355299270910  0.3550814544443170
  0.7798172936004306  0.4265339856447312  0.1025146586749770
  0.5566488252137560  0.5372670475977870  0.8559072178360978
  0.4372621184239591  0.4217351485749106  0.6076891296891631
  0.2220815906822224  0.8726176256953835  0.3537134778016622
  0.1106820630887100  0.7610383962092158  0.1052159560329216
  0.8888542094424992  0.8728765129998592  0.8544320150648659
  0.7932439699794145  0.7533280133561036  0.6043811958559573
  0.5509544294909148  0.8751720367311151  0.3397203211570670
  0.4421113001463937  0.7620521396921518  0.1009082482972872
  0.2189529260536318  0.8740614777990103  0.8570987873448956
  0.1108657427038438  0.7615763096208426  0.6042922166357627
  0.8920463950375606  0.8763582749026853  0.3556357369499352
  0.7797832951998771  0.7602207761496302  0.1030199071059101
  0.5608709960487630  0.8651878469765890  0.8559549266006670
  0.4291321421140282  0.7685997749003164  0.6128421997989406
 
  0.00000000E+00  0.00000000E+00  0.00000000E+00
  0.00000000E+00  0.00000000E+00  0.00000000E+00
  0.00000000E+00  0.00000000E+00  0.00000000E+00
  0.00000000E+00  0.00000000E+00  0.00000000E+00
  0.00000000E+00  0.00000000E+00  0.00000000E+00
  0.00000000E+00  0.00000000E+00  0.00000000E+00
  0.00000000E+00  0.00000000E+00  0.00000000E+00
  0.00000000E+00  0.00000000E+00  0.00000000E+00
  0.00000000E+00  0.00000000E+00  0.00000000E+00
  0.00000000E+00  0.00000000E+00  0.00000000E+00
  0.00000000E+00  0.00000000E+00  0.00000000E+00
  0.00000000E+00  0.00000000E+00  0.00000000E+00
  0.00000000E+00  0.00000000E+00  0.00000000E+00
  0.00000000E+00  0.00000000E+00  0.00000000E+00
  0.00000000E+00  0.00000000E+00  0.00000000E+00
  0.00000000E+00  0.00000000E+00  0.00000000E+00
  0.00000000E+00  0.00000000E+00  0.00000000E+00
  0.00000000E+00  0.00000000E+00  0.00000000E+00
  0.00000000E+00  0.00000000E+00  0.00000000E+00
  0.00000000E+00  0.00000000E+00  0.00000000E+00
  0.00000000E+00  0.00000000E+00  0.00000000E+00
  0.00000000E+00  0.00000000E+00  0.00000000E+00
  0.00000000E+00  0.00000000E+00  0.00000000E+00
  0.00000000E+00  0.00000000E+00  0.00000000E+00
  0.00000000E+00  0.00000000E+00  0.00000000E+00
  0.00000000E+00  0.00000000E+00  0.00000000E+00
  0.00000000E+00  0.00000000E+00  0.00000000E+00
  0.00000000E+00  0.00000000E+00  0.00000000E+00
  0.00000000E+00  0.00000000E+00  0.00000000E+00
  0.00000000E+00  0.00000000E+00  0.00000000E+00
  0.00000000E+00  0.00000000E+00  0.00000000E+00
  0.00000000E+00  0.00000000E+00  0.00000000E+00
  0.00000000E+00  0.00000000E+00  0.00000000E+00
  0.00000000E+00  0.00000000E+00  0.00000000E+00
  0.00000000E+00  0.00000000E+00  0.00000000E+00
  0.00000000E+00  0.00000000E+00  0.00000000E+00
  0.00000000E+00  0.00000000E+00  0.00000000E+00
  0.00000000E+00  0.00000000E+00  0.00000000E+00
  0.00000000E+00  0.00000000E+00  0.00000000E+00
  0.00000000E+00  0.00000000E+00  0.00000000E+00
  0.00000000E+00  0.00000000E+00  0.00000000E+00
  0.00000000E+00  0.00000000E+00  0.00000000E+00
  0.00000000E+00  0.00000000E+00  0.00000000E+00
  0.00000000E+00  0.00000000E+00  0.00000000E+00
  0.00000000E+00  0.00000000E+00  0.00000000E+00
  0.00000000E+00  0.00000000E+00  0.00000000E+00
  0.00000000E+00  0.00000000E+00  0.00000000E+00
  0.00000000E+00  0.00000000E+00  0.00000000E+00
  0.00000000E+00  0.00000000E+00  0.00000000E+00
  0.00000000E+00  0.00000000E+00  0.00000000E+00
  0.00000000E+00  0.00000000E+00  0.00000000E+00
  0.00000000E+00  0.00000000E+00  0.00000000E+00
  0.00000000E+00  0.00000000E+00  0.00000000E+00
  0.00000000E+00  0.00000000E+00  0.00000000E+00
  0.00000000E+00  0.00000000E+00  0.00000000E+00
  0.00000000E+00  0.00000000E+00  0.00000000E+00
  0.00000000E+00  0.00000000E+00  0.00000000E+00
  0.00000000E+00  0.00000000E+00  0.00000000E+00
  0.00000000E+00  0.00000000E+00  0.00000000E+00
  0.00000000E+00  0.00000000E+00  0.00000000E+00
  0.00000000E+00  0.00000000E+00  0.00000000E+00
  0.00000000E+00  0.00000000E+00  0.00000000E+00
  0.00000000E+00  0.00000000E+00  0.00000000E+00
  0.00000000E+00  0.00000000E+00  0.00000000E+00
  0.00000000E+00  0.00000000E+00  0.00000000E+00
  0.00000000E+00  0.00000000E+00  0.00000000E+00
  0.00000000E+00  0.00000000E+00  0.00000000E+00
  0.00000000E+00  0.00000000E+00  0.00000000E+00
  0.00000000E+00  0.00000000E+00  0.00000000E+00
  0.00000000E+00  0.00000000E+00  0.00000000E+00
  0.00000000E+00  0.00000000E+00  0.00000000E+00
  0.00000000E+00  0.00000000E+00  0.00000000E+00
