supercell of icsd_191774.cif            
   1.00000000000000     
    10.9996573475153010    0.0055752293820577    0.0001921683443806
    -5.4949889376240160    9.5321370614174121   -0.0014521956561801
     0.0001679894945935   -0.0015252888039949   11.2659797945504678
   N    In   Y 
    36    22    14
Direct
  0.2190035925306120  0.1156462609960016  0.4496077293428016
  0.1232691831691497  0.2291300170727837  0.1892694522182126
  0.8904781998499161  0.1121211808634399  0.9497398092679816
  0.7722164957128328  0.2090336646939335  0.6917185884533765
  0.5646434842219890  0.1137023298942594  0.4398720119021107
  0.4398122556459683  0.2130804146198670  0.1990445261419680
  0.2140119766532962  0.1067732923709102  0.9389798429048213
  0.1028941626884645  0.2264613503988571  0.6905014370064038
  0.8926569284655415  0.1191707042317987  0.4329974945245354
  0.7712915971728833  0.2221826063905041  0.1883438217350815
  0.5612461073830062  0.1075573660795044  0.9403954798273659
  0.4491986872507994  0.2240991478366894  0.6993189208388273
  0.2143578864459030  0.4408312407693415  0.4387584075397086
  0.1178778146643396  0.5585084860771019  0.1880943251125871
  0.8933964941129275  0.4395811760267208  0.9396447594541470
  0.7756673522057937  0.5576883464430082  0.7086706805763896
  0.5547776072376891  0.4474486181897177  0.4387990729468001
  0.4408918070283718  0.5612218436195278  0.1901275762673862
  0.2111572306122795  0.4380434452867021  0.9395345557577315
  0.1235668310572464  0.5628808002987640  0.6907795757169808
  0.8899212602386228  0.4431196155687473  0.4566517775962993
  0.7843183623679622  0.5592647420959551  0.1912003566505902
  0.5533470817484982  0.4419659678531715  0.9544929951247667
  0.4448776364145104  0.5552046584924852  0.7066201556247975
  0.2192336172161120  0.7680477524666571  0.4341168778055717
  0.1110819741153861  0.8901490237859235  0.1976192061576896
  0.8949114046341435  0.7904467760454779  0.9433236121312731
  0.7794943783089892  0.8902512621498104  0.6958487216591607
  0.5546692951172574  0.7747781129036611  0.4402268004349139
  0.4457431889511554  0.8898553230715152  0.1927647862930897
  0.2224767026392414  0.7791695290330054  0.9456956777459737
  0.1064956010323428  0.8788027497515998  0.6883425343958507
  0.8839691288439511  0.7763578360890762  0.4373879542421193
  0.7722329242450172  0.8807866675805087  0.1917878317138886
  0.5618819509997977  0.7892446326090052  0.9410130031743122
  0.4420678371598612  0.8876361497702305  0.6938575589457301
  0.2222242269474464  0.1127719865863455  0.2515025014584964
  0.1052838104834066  0.2255210442560269  0.4959932175466264
  0.8862103960673906  0.1088681085103502  0.7537492416907128
  0.7779207851488152  0.2216689009335155  0.9960193476324690
  0.5569523086358075  0.1094592690404212  0.2470618055422307
  0.1124302412074698  0.2222530985327609  0.9963152408913984
  0.7803200527897047  0.2191055109220983  0.4980669917009095
  0.5565620736411461  0.1066537354828654  0.7485795194889491
  0.2249081545689293  0.4476640217214296  0.2461550494531650
  0.1138412798017043  0.5552986615890774  0.4976931254356813
  0.2187470792669544  0.4437794963406034  0.7487578151616319
  0.1107308403500440  0.5540176686162610  0.9965225822871560
  0.5549915222672652  0.4432045690669923  0.7574151609796971
  0.2242784436348373  0.7758294130773038  0.2417029494088112
  0.8904405124826127  0.7817328496235731  0.7515516945252685
  0.7780514278025734  0.8909405317298393  0.9971600276163528
  0.5534475339182876  0.7762360583811514  0.2465569897947191
  0.2232547947296766  0.7779958338437964  0.7511952797232766
  0.1112180768285072  0.8921141654640934  0.0012609685216987
  0.8863700056821671  0.7755356913997389  0.2447323742525782
  0.5581949299827755  0.7832661133668353  0.7502935193305262
  0.4475495005874066  0.8911747470541727  0.9979908377997546
  0.4500831317411382  0.2257097710567351  0.4943874181881966
  0.2152669323813612  0.1080948744936165  0.7397247043713477
  0.8916662973824501  0.1123852612422453  0.2339504767777782
  0.4392437258082751  0.2116368660318173  0.9965165508679164
  0.8933641745615191  0.4394869405639099  0.7394878044467390
  0.7859542547809042  0.5607934217717769  0.9897161787592168
  0.5545855074222885  0.4461155522897329  0.2390119508473560
  0.4389840602231700  0.5531611486312755  0.5016791236310070
  0.8938513458553246  0.4453681585865965  0.2516435763131781
  0.7745771283884579  0.5580468976775776  0.5038630804788795
  0.4391050709060025  0.5603753667297084  0.9894269559721067
  0.1071065265185140  0.8822659381888016  0.4864146312168955
  0.4438483348424640  0.8867687338228407  0.4923745816198419
  0.7792974742213730  0.8944565019478716  0.4941788090361428
 
  0.00000000E+00  0.00000000E+00  0.00000000E+00
  0.00000000E+00  0.00000000E+00  0.00000000E+00
  0.00000000E+00  0.00000000E+00  0.00000000E+00
  0.00000000E+00  0.00000000E+00  0.00000000E+00
  0.00000000E+00  0.00000000E+00  0.00000000E+00
  0.00000000E+00  0.00000000E+00  0.00000000E+00
  0.00000000E+00  0.00000000E+00  0.00000000E+00
  0.00000000E+00  0.00000000E+00  0.00000000E+00
  0.00000000E+00  0.00000000E+00  0.00000000E+00
  0.00000000E+00  0.00000000E+00  0.00000000E+00
  0.00000000E+00  0.00000000E+00  0.00000000E+00
  0.00000000E+00  0.00000000E+00  0.00000000E+00
  0.00000000E+00  0.00000000E+00  0.00000000E+00
  0.00000000E+00  0.00000000E+00  0.00000000E+00
  0.00000000E+00  0.00000000E+00  0.00000000E+00
  0.00000000E+00  0.00000000E+00  0.00000000E+00
  0.00000000E+00  0.00000000E+00  0.00000000E+00
  0.00000000E+00  0.00000000E+00  0.00000000E+00
  0.00000000E+00  0.00000000E+00  0.00000000E+00
  0.00000000E+00  0.00000000E+00  0.00000000E+00
  0.00000000E+00  0.00000000E+00  0.00000000E+00
  0.00000000E+00  0.00000000E+00  0.00000000E+00
  0.00000000E+00  0.00000000E+00  0.00000000E+00
  0.00000000E+00  0.00000000E+00  0.00000000E+00
  0.00000000E+00  0.00000000E+00  0.00000000E+00
  0.00000000E+00  0.00000000E+00  0.00000000E+00
  0.00000000E+00  0.00000000E+00  0.00000000E+00
  0.00000000E+00  0.00000000E+00  0.00000000E+00
  0.00000000E+00  0.00000000E+00  0.00000000E+00
  0.00000000E+00  0.00000000E+00  0.00000000E+00
  0.00000000E+00  0.00000000E+00  0.00000000E+00
  0.00000000E+00  0.00000000E+00  0.00000000E+00
  0.00000000E+00  0.00000000E+00  0.00000000E+00
  0.00000000E+00  0.00000000E+00  0.00000000E+00
  0.00000000E+00  0.00000000E+00  0.00000000E+00
  0.00000000E+00  0.00000000E+00  0.00000000E+00
  0.00000000E+00  0.00000000E+00  0.00000000E+00
  0.00000000E+00  0.00000000E+00  0.00000000E+00
  0.00000000E+00  0.00000000E+00  0.00000000E+00
  0.00000000E+00  0.00000000E+00  0.00000000E+00
  0.00000000E+00  0.00000000E+00  0.00000000E+00
  0.00000000E+00  0.00000000E+00  0.00000000E+00
  0.00000000E+00  0.00000000E+00  0.00000000E+00
  0.00000000E+00  0.00000000E+00  0.00000000E+00
  0.00000000E+00  0.00000000E+00  0.00000000E+00
  0.00000000E+00  0.00000000E+00  0.00000000E+00
  0.00000000E+00  0.00000000E+00  0.00000000E+00
  0.00000000E+00  0.00000000E+00  0.00000000E+00
  0.00000000E+00  0.00000000E+00  0.00000000E+00
  0.00000000E+00  0.00000000E+00  0.00000000E+00
  0.00000000E+00  0.00000000E+00  0.00000000E+00
  0.00000000E+00  0.00000000E+00  0.00000000E+00
  0.00000000E+00  0.00000000E+00  0.00000000E+00
  0.00000000E+00  0.00000000E+00  0.00000000E+00
  0.00000000E+00  0.00000000E+00  0.00000000E+00
  0.00000000E+00  0.00000000E+00  0.00000000E+00
  0.00000000E+00  0.00000000E+00  0.00000000E+00
  0.00000000E+00  0.00000000E+00  0.00000000E+00
  0.00000000E+00  0.00000000E+00  0.00000000E+00
  0.00000000E+00  0.00000000E+00  0.00000000E+00
  0.00000000E+00  0.00000000E+00  0.00000000E+00
  0.00000000E+00  0.00000000E+00  0.00000000E+00
  0.00000000E+00  0.00000000E+00  0.00000000E+00
  0.00000000E+00  0.00000000E+00  0.00000000E+00
  0.00000000E+00  0.00000000E+00  0.00000000E+00
  0.00000000E+00  0.00000000E+00  0.00000000E+00
  0.00000000E+00  0.00000000E+00  0.00000000E+00
  0.00000000E+00  0.00000000E+00  0.00000000E+00
  0.00000000E+00  0.00000000E+00  0.00000000E+00
  0.00000000E+00  0.00000000E+00  0.00000000E+00
  0.00000000E+00  0.00000000E+00  0.00000000E+00
  0.00000000E+00  0.00000000E+00  0.00000000E+00
