supercell of icsd_608626.cif            
  0.991772326733240     
     9.3301344071588090    0.0000019610981423   -0.0000001420587280
    -4.6650655064176636    8.0793838031159240   -0.0037322763829548
    -0.0000001507347657   -0.0046705001633032    9.8621050741367675
   Al   B    N 
    34     2    36
Direct
  0.2173667795416847  0.1076908157741485  0.2490095631223284
  0.1109846635315961  0.2219693070415474  0.4997796041596629
  0.8883490215379695  0.1094175108282727  0.7493522965453465
  0.7762059275915405  0.2257616283672021  0.9995937387734060
  0.5556602537169510  0.1113205461652385  0.2505593730865883
  0.4450626089227185  0.2240979247459762  0.4990196381004708
  0.2210686073500838  0.1094175389159773  0.7493522783729958
  0.1109453708456414  0.2218906259468838  0.9997899614847938
  0.8903241186203843  0.1076909275171758  0.2490095220048119
  0.7790352746465814  0.2240979705564499  0.4990195985738879
  0.5557824792314960  0.1115650160721700  0.7490963426557542
  0.4495556796701194  0.2257616475497812  0.9995937214373427
  0.2224976382253914  0.4449953602353816  0.2496653914226741
  0.1090312731348817  0.5545861950307085  0.4995540794763258
  0.8856026557011774  0.4484146500604780  0.7537102212310032
  0.5616610363841517  0.4506934070476589  0.2421813833966269
  0.4455549049044834  0.5545862316821868  0.4995540954639708
  0.2221609498054917  0.4443219329401273  0.7494818260590819
  0.1080387339046780  0.5576075782312628  0.9993669836435117
  0.8890324697736318  0.4506934913324088  0.2421813143859310
  0.7784416696516203  0.5568834374597103  0.4909137604626110
  0.5628120290212877  0.4484145978700695  0.7537102151888817
  0.4495688725061768  0.5576075417880162  0.9993669149612359
  0.2168499568591926  0.7760343141361545  0.2496962004842658
  0.1066415641541383  0.8861975993935260  0.4926373905234911
  0.8859992723251224  0.7719984339002792  0.7512222018928156
  0.7790105032370533  0.8803607872764019  0.0035252885041857
  0.5591842802353995  0.7760343050800245  0.2496961331662391
  0.4442243879583856  0.8884488184167765  0.4991866979156043
  0.2210372067909603  0.7785355345140985  0.7491370788613665
  0.1013504010972781  0.8803608610650144  0.0035253099092003
  0.7795559583017280  0.8861975983775494  0.4926373582057408
  0.5574983182321773  0.7785356150590204  0.7491370297669704
  0.4447710356572827  0.8895421319766186  0.9998278676051839
  0.7823215867019400  0.5646431395677709  0.0062254686789842
  0.8893002004698189  0.7786003685506060  0.2474125674759335
  0.2219893240908419  0.1107243516703846  0.4417599469671032
  0.1115287309177191  0.2230575722510366  0.1918076412011089
  0.8870524544148495  0.1079515443139485  0.9437722412194702
  0.7797234544985869  0.2250127910123396  0.6941127712458410
  0.5557330077572900  0.1114660242135272  0.4434799774986402
  0.4437012324673972  0.2215291845169176  0.1917075269950530
  0.2208991470343307  0.1079515456979934  0.9437722209021686
  0.1108954807623803  0.2217910639774345  0.6926246824951505
  0.8887350444214093  0.1107244090846109  0.4417599289687644
  0.7778278809169592  0.2215291359140679  0.1917075584411094
  0.5554639803527337  0.1109280134128454  0.9411296037325840
  0.4452893663895239  0.2250128553201520  0.6941127874334327
  0.2223771290092103  0.4447543872181114  0.4432712487520689
  0.1120456240922181  0.5557751104039497  0.1907434347546655
  0.8765015453648672  0.4585041757723971  0.9513458562878228
  0.7783856936111064  0.5567714051949295  0.6829678964904318
  0.5562569949016165  0.4448002844054955  0.4361439890534058
  0.4437295223581330  0.5557751018089832  0.1907433386602975
  0.2224782948701716  0.4449565697519375  0.9421685621730163
  0.1085390058120836  0.5545954963725421  0.6942432330265902
  0.8885432888814293  0.4448002505792559  0.4361440842644839
  0.7897970981358071  0.5795943974661597  0.1777128531030172
  0.5820027487441948  0.4585043052312443  0.9513457229915403
  0.4460565438989335  0.5545956289040745  0.6942431677812806
  0.2216594459533852  0.7770022908933782  0.4420193069394287
  0.0861663474832142  0.8766332405395900  0.1980314514817749
  0.8760904531200282  0.7521806668210331  0.9447264292507640
  0.7799147940195397  0.8868050898233477  0.6885344546049978
  0.5553429331809383  0.7770023345224075  0.4420192419759061
  0.4441865801448017  0.8883732138240248  0.1931016465544602
  0.2218592921524305  0.7797549419661891  0.9428665413361585
  0.1068901290350510  0.8868049590184839  0.6885344518047205
  0.8872614116556434  0.7745227951546383  0.4154479080428004
  0.7904669257735506  0.8766332225195939  0.1980315182460046
  0.5578957469276205  0.7797549899799563  0.9428666121167026
  0.4442256566098379  0.8884512599703669  0.6922717462080570
 
  0.00000000E+00  0.00000000E+00  0.00000000E+00
  0.00000000E+00  0.00000000E+00  0.00000000E+00
  0.00000000E+00  0.00000000E+00  0.00000000E+00
  0.00000000E+00  0.00000000E+00  0.00000000E+00
  0.00000000E+00  0.00000000E+00  0.00000000E+00
  0.00000000E+00  0.00000000E+00  0.00000000E+00
  0.00000000E+00  0.00000000E+00  0.00000000E+00
  0.00000000E+00  0.00000000E+00  0.00000000E+00
  0.00000000E+00  0.00000000E+00  0.00000000E+00
  0.00000000E+00  0.00000000E+00  0.00000000E+00
  0.00000000E+00  0.00000000E+00  0.00000000E+00
  0.00000000E+00  0.00000000E+00  0.00000000E+00
  0.00000000E+00  0.00000000E+00  0.00000000E+00
  0.00000000E+00  0.00000000E+00  0.00000000E+00
  0.00000000E+00  0.00000000E+00  0.00000000E+00
  0.00000000E+00  0.00000000E+00  0.00000000E+00
  0.00000000E+00  0.00000000E+00  0.00000000E+00
  0.00000000E+00  0.00000000E+00  0.00000000E+00
  0.00000000E+00  0.00000000E+00  0.00000000E+00
  0.00000000E+00  0.00000000E+00  0.00000000E+00
  0.00000000E+00  0.00000000E+00  0.00000000E+00
  0.00000000E+00  0.00000000E+00  0.00000000E+00
  0.00000000E+00  0.00000000E+00  0.00000000E+00
  0.00000000E+00  0.00000000E+00  0.00000000E+00
  0.00000000E+00  0.00000000E+00  0.00000000E+00
  0.00000000E+00  0.00000000E+00  0.00000000E+00
  0.00000000E+00  0.00000000E+00  0.00000000E+00
  0.00000000E+00  0.00000000E+00  0.00000000E+00
  0.00000000E+00  0.00000000E+00  0.00000000E+00
  0.00000000E+00  0.00000000E+00  0.00000000E+00
  0.00000000E+00  0.00000000E+00  0.00000000E+00
  0.00000000E+00  0.00000000E+00  0.00000000E+00
  0.00000000E+00  0.00000000E+00  0.00000000E+00
  0.00000000E+00  0.00000000E+00  0.00000000E+00
  0.00000000E+00  0.00000000E+00  0.00000000E+00
  0.00000000E+00  0.00000000E+00  0.00000000E+00
  0.00000000E+00  0.00000000E+00  0.00000000E+00
  0.00000000E+00  0.00000000E+00  0.00000000E+00
  0.00000000E+00  0.00000000E+00  0.00000000E+00
  0.00000000E+00  0.00000000E+00  0.00000000E+00
  0.00000000E+00  0.00000000E+00  0.00000000E+00
  0.00000000E+00  0.00000000E+00  0.00000000E+00
  0.00000000E+00  0.00000000E+00  0.00000000E+00
  0.00000000E+00  0.00000000E+00  0.00000000E+00
  0.00000000E+00  0.00000000E+00  0.00000000E+00
  0.00000000E+00  0.00000000E+00  0.00000000E+00
  0.00000000E+00  0.00000000E+00  0.00000000E+00
  0.00000000E+00  0.00000000E+00  0.00000000E+00
  0.00000000E+00  0.00000000E+00  0.00000000E+00
  0.00000000E+00  0.00000000E+00  0.00000000E+00
  0.00000000E+00  0.00000000E+00  0.00000000E+00
  0.00000000E+00  0.00000000E+00  0.00000000E+00
  0.00000000E+00  0.00000000E+00  0.00000000E+00
  0.00000000E+00  0.00000000E+00  0.00000000E+00
  0.00000000E+00  0.00000000E+00  0.00000000E+00
  0.00000000E+00  0.00000000E+00  0.00000000E+00
  0.00000000E+00  0.00000000E+00  0.00000000E+00
  0.00000000E+00  0.00000000E+00  0.00000000E+00
  0.00000000E+00  0.00000000E+00  0.00000000E+00
  0.00000000E+00  0.00000000E+00  0.00000000E+00
  0.00000000E+00  0.00000000E+00  0.00000000E+00
  0.00000000E+00  0.00000000E+00  0.00000000E+00
  0.00000000E+00  0.00000000E+00  0.00000000E+00
  0.00000000E+00  0.00000000E+00  0.00000000E+00
  0.00000000E+00  0.00000000E+00  0.00000000E+00
  0.00000000E+00  0.00000000E+00  0.00000000E+00
  0.00000000E+00  0.00000000E+00  0.00000000E+00
  0.00000000E+00  0.00000000E+00  0.00000000E+00
  0.00000000E+00  0.00000000E+00  0.00000000E+00
  0.00000000E+00  0.00000000E+00  0.00000000E+00
  0.00000000E+00  0.00000000E+00  0.00000000E+00
  0.00000000E+00  0.00000000E+00  0.00000000E+00
