supercell of icsd_608626.cif            
  0.921076312047757     
     9.3030983344044991    0.0247145092081245   -0.0035588594818542
    -4.6304501242337475    8.1368257733165734   -0.0770528810735124
    -0.0039684372651681   -0.0994089260730356    9.9106864216247867
   B    Al   N 
    18    18    36
Direct
  0.2217673513571086  0.1113536967702871  0.1965157047875721
  0.1242299942231639  0.2272785862332256  0.5239385684894060
  0.4116916168743714  0.1739377345681277  0.5361651339207256
  0.5476334231968139  0.1079626596543832  0.7515726280126671
  0.8223732204585374  0.4137775262081291  0.7590805919452208
  0.4338451065212112  0.4905353324588759  0.5235171225223496
  0.2439159158621464  0.4540859442075700  0.7555460644396845
  0.8880219206490807  0.4510941541878353  0.2589959757840674
  0.7859846640612886  0.5651788418531112  0.5078630785494127
  0.5527289907654591  0.4409815012048242  0.7520126944908014
  0.4437584745124141  0.5704679564683062  0.9951309092031337
  0.1074161230666419  0.8693520165706445  0.5178551112394061
  0.8977672478270335  0.7623827038724258  0.7525248786221894
  0.5518527453159336  0.7933635859871870  0.2445551199695473
  0.4343820240835754  0.9040952730148319  0.4985391001453792
  0.2319984793493006  0.7815146513048390  0.7541001003635657
  0.1217023792139287  0.8949913603104989  0.9833350529385783
  0.4387849813089133  0.8834107906710500  0.9909252167919860
  0.8854585051287103  0.1152058998688403  0.7423525662632500
  0.7688428226652277  0.2193079587106297  0.0058674921570656
  0.5384644872436297  0.1069951110030800  0.2548886484989481
  0.2092160163918422  0.0945748406866969  0.7249452337397599
  0.1171418672640243  0.2221986808334151  0.9874489137709830
  0.8938749381748536  0.1122330429765341  0.2607925835166824
  0.7669212887467083  0.2301444011122555  0.4973454483100568
  0.4387358319445269  0.2206027691575088  0.9786364288239540
  0.2314233816885434  0.4455829043667379  0.2521933560601255
  0.1294514745958821  0.5643047799082694  0.5151193673389258
  0.7815800294139379  0.5618020781811381  0.9931014150521733
  0.5561576182238213  0.4569155882445344  0.2546297344698942
  0.1150439278529589  0.5613036834004035  0.9711052027125291
  0.2246736427232179  0.7812170978733093  0.2434956311228902
  0.7688138535217419  0.8788811706436590  0.9908129325378994
  0.8978973795277341  0.7786672750145200  0.2526121140950863
  0.7742869349797417  0.8806081883840378  0.4966037015480254
  0.5365035147210264  0.7638792973651647  0.7345131645033405
  0.2156392085240313  0.0975463406562938  0.5062280401856256
  0.1235601775335837  0.2087773941828814  0.1921131602019486
  0.8853457620811724  0.1102735225118607  0.9441475151866001
  0.7526005918751224  0.2287484547543954  0.7002212587490604
  0.5177260732819136  0.1093754723866525  0.4558157034679837
  0.4182030986712917  0.2188235917188521  0.1867708622045399
  0.2068804362102910  0.0833600457898385  0.9267239055298973
  0.1220769858518267  0.2580593635807062  0.6945674025688646
  0.9225153399309605  0.1312552059684080  0.4655104734233859
  0.7820228853441620  0.2442881676295201  0.2135544246627390
  0.5424593809246332  0.0846433612626569  0.9259617797971913
  0.4637061442931270  0.2310527998220451  0.6995648747822401
  0.2484071105772756  0.4228691854617708  0.4554584713800978
  0.0860158980327412  0.5395894351581560  0.1935144669619575
  0.8765609612032819  0.4349507387521641  0.9127956057609552
  0.7758999764699652  0.5480094535169826  0.6933432776564530
  0.5846266870304575  0.4911150107549460  0.4538131610929312
  0.4558500669690062  0.5853442968407094  0.1731744692429089
  0.2515403401148930  0.4540628513174454  0.9312288049486597
  0.1787353705495605  0.5868028980528024  0.7122639353801219
  0.8854059344741501  0.4634092858517818  0.4392514424581648
  0.7891030668664811  0.5435587350534377  0.1921866204790206
  0.5491904919785071  0.4627439477959143  0.9253890410442551
  0.4420966699256681  0.5189872857028135  0.6850846552688736
  0.2324414784189131  0.8011555061605051  0.4485046231295584
  0.1241522870757024  0.9134977638879889  0.1662981329235933
  0.9185192972318887  0.7860105206151360  0.9264369031039337
  0.7882537642107366  0.8673353011807450  0.7010463001631848
  0.5504104239907122  0.8309241775869296  0.4193481053109025
  0.4535226358031466  0.8859706370415381  0.1652093253423388
  0.2361265164488060  0.8031349245844410  0.9322773006948495
  0.0937718324626573  0.8404766679175211  0.6887477461365847
  0.9097750310787873  0.7687032355495589  0.4550669193056009
  0.7562968770513052  0.8763241811163951  0.2001413803817584
  0.5253199847106131  0.7650003963940222  0.9373726946152416
  0.4408990393476131  0.9136307601653613  0.6802302297207135
 
  0.00000000E+00  0.00000000E+00  0.00000000E+00
  0.00000000E+00  0.00000000E+00  0.00000000E+00
  0.00000000E+00  0.00000000E+00  0.00000000E+00
  0.00000000E+00  0.00000000E+00  0.00000000E+00
  0.00000000E+00  0.00000000E+00  0.00000000E+00
  0.00000000E+00  0.00000000E+00  0.00000000E+00
  0.00000000E+00  0.00000000E+00  0.00000000E+00
  0.00000000E+00  0.00000000E+00  0.00000000E+00
  0.00000000E+00  0.00000000E+00  0.00000000E+00
  0.00000000E+00  0.00000000E+00  0.00000000E+00
  0.00000000E+00  0.00000000E+00  0.00000000E+00
  0.00000000E+00  0.00000000E+00  0.00000000E+00
  0.00000000E+00  0.00000000E+00  0.00000000E+00
  0.00000000E+00  0.00000000E+00  0.00000000E+00
  0.00000000E+00  0.00000000E+00  0.00000000E+00
  0.00000000E+00  0.00000000E+00  0.00000000E+00
  0.00000000E+00  0.00000000E+00  0.00000000E+00
  0.00000000E+00  0.00000000E+00  0.00000000E+00
  0.00000000E+00  0.00000000E+00  0.00000000E+00
  0.00000000E+00  0.00000000E+00  0.00000000E+00
  0.00000000E+00  0.00000000E+00  0.00000000E+00
  0.00000000E+00  0.00000000E+00  0.00000000E+00
  0.00000000E+00  0.00000000E+00  0.00000000E+00
  0.00000000E+00  0.00000000E+00  0.00000000E+00
  0.00000000E+00  0.00000000E+00  0.00000000E+00
  0.00000000E+00  0.00000000E+00  0.00000000E+00
  0.00000000E+00  0.00000000E+00  0.00000000E+00
  0.00000000E+00  0.00000000E+00  0.00000000E+00
  0.00000000E+00  0.00000000E+00  0.00000000E+00
  0.00000000E+00  0.00000000E+00  0.00000000E+00
  0.00000000E+00  0.00000000E+00  0.00000000E+00
  0.00000000E+00  0.00000000E+00  0.00000000E+00
  0.00000000E+00  0.00000000E+00  0.00000000E+00
  0.00000000E+00  0.00000000E+00  0.00000000E+00
  0.00000000E+00  0.00000000E+00  0.00000000E+00
  0.00000000E+00  0.00000000E+00  0.00000000E+00
  0.00000000E+00  0.00000000E+00  0.00000000E+00
  0.00000000E+00  0.00000000E+00  0.00000000E+00
  0.00000000E+00  0.00000000E+00  0.00000000E+00
  0.00000000E+00  0.00000000E+00  0.00000000E+00
  0.00000000E+00  0.00000000E+00  0.00000000E+00
  0.00000000E+00  0.00000000E+00  0.00000000E+00
  0.00000000E+00  0.00000000E+00  0.00000000E+00
  0.00000000E+00  0.00000000E+00  0.00000000E+00
  0.00000000E+00  0.00000000E+00  0.00000000E+00
  0.00000000E+00  0.00000000E+00  0.00000000E+00
  0.00000000E+00  0.00000000E+00  0.00000000E+00
  0.00000000E+00  0.00000000E+00  0.00000000E+00
  0.00000000E+00  0.00000000E+00  0.00000000E+00
  0.00000000E+00  0.00000000E+00  0.00000000E+00
  0.00000000E+00  0.00000000E+00  0.00000000E+00
  0.00000000E+00  0.00000000E+00  0.00000000E+00
  0.00000000E+00  0.00000000E+00  0.00000000E+00
  0.00000000E+00  0.00000000E+00  0.00000000E+00
  0.00000000E+00  0.00000000E+00  0.00000000E+00
  0.00000000E+00  0.00000000E+00  0.00000000E+00
  0.00000000E+00  0.00000000E+00  0.00000000E+00
  0.00000000E+00  0.00000000E+00  0.00000000E+00
  0.00000000E+00  0.00000000E+00  0.00000000E+00
  0.00000000E+00  0.00000000E+00  0.00000000E+00
  0.00000000E+00  0.00000000E+00  0.00000000E+00
  0.00000000E+00  0.00000000E+00  0.00000000E+00
  0.00000000E+00  0.00000000E+00  0.00000000E+00
  0.00000000E+00  0.00000000E+00  0.00000000E+00
  0.00000000E+00  0.00000000E+00  0.00000000E+00
  0.00000000E+00  0.00000000E+00  0.00000000E+00
  0.00000000E+00  0.00000000E+00  0.00000000E+00
  0.00000000E+00  0.00000000E+00  0.00000000E+00
  0.00000000E+00  0.00000000E+00  0.00000000E+00
  0.00000000E+00  0.00000000E+00  0.00000000E+00
  0.00000000E+00  0.00000000E+00  0.00000000E+00
  0.00000000E+00  0.00000000E+00  0.00000000E+00
