supercell of POSCAR                     
   1.03228000000000     
     6.3970863126299999    5.5387332920799999    4.9397337979799998
   -15.9736979067999982   -5.5365852353599996    9.8547656895600007
     6.4026568282999996  -11.0930079636999999    0.0094448205590600
   Sc   Al   N 
    32    64    95
Direct
  0.3608971292775323  0.0662605426583340  0.3082183370406852
  0.8362932345183580  0.3107294401080836  0.4336057525248762
  0.0221443549047677  0.2304874565659247  0.3050472452974518
  0.1899807038098729  0.1473011339768320  0.4418934963224004
  0.0216874541446259  0.2334243642349279  0.0673317571369196
  0.0446571361652417  0.4650999926963166  0.3697246601339685
  0.2346135906245905  0.3937374891707179  0.0047718739626106
  0.6912259268349246  0.1297424950210058  0.1185900072013126
  0.3644959939087400  0.0688068254897658  0.8122928859289544
  0.8330107997604870  0.3092347457232520  0.9328345618428742
  0.0223422985861035  0.2325829921210243  0.8048358167825569
  0.1871188321755781  0.1487573352637028  0.9390703528625224
  0.0207039952815791  0.2332018443623767  0.5665495075926898
  0.0446936146160297  0.4651253044968371  0.8702950430142522
  0.2345694895703900  0.3933816544626580  0.5042893441652225
  0.6920328425332727  0.1302050755979138  0.6182197139177674
  0.3747808469360621  0.5713643688084673  0.3107199708835964
  0.8288572128973826  0.8042599333367590  0.4366044476304438
  0.0232794216013588  0.7298479342584301  0.3028725133794481
  0.1920442915001317  0.6486089268226110  0.4379467637144998
  0.0225175261900432  0.7307479609146625  0.0660549990236916
  0.9994923908294950  0.9456690921915651  0.3603951180495244
  0.2293669949914303  0.8914035308736032  0.0037414531230482
  0.6922260007788452  0.6285216414084971  0.1180287250727687
  0.3729062784666510  0.5705220807590621  0.8102925020458613
  0.8321383764297892  0.8080185422907107  0.9330957852252340
  0.0228269488413204  0.7307842190264893  0.8038745506571701
  0.1922730341344518  0.6487997126268041  0.9373931346340072
  0.0226570177214427  0.7303760257449170  0.5683868078939298
  0.0371018419088784  0.9633081037116327  0.8705828985175970
  0.2261151131129751  0.8885840525144886  0.5024195565515370
  0.6918406346867130  0.6290665662127637  0.6187089132656425
  0.3574487877306396  0.0712559050539170  0.0640906191160795
  0.5377196262918744  0.4854656401892186  0.4349330299624441
  0.5399933814341864  0.4864230421242937  0.1926326095389754
  0.6916168715038040  0.4066374142189559  0.3108807812491392
  0.6894294069603149  0.4023916553083140  0.0639029376640536
  0.8539527056071847  0.3218523024561293  0.1836806105730560
  0.1969826692668661  0.1503315783108405  0.1871090546434147
  0.0512263559553503  0.4704391294582351  0.1227022944486720
  0.2319809189327842  0.3889655389679945  0.2486015464711286
  0.3967405978699077  0.3078686027643656  0.1286732680048885
  0.5535649630775410  0.2286090858264487  0.2464596494628353
  0.3938558168468163  0.3079064905755331  0.3730706157759727
  0.5490078992019534  0.2272231668057927  0.0044667949781143
  0.8852276697059978  0.0524314982325151  0.2477125443582437
  0.7239760757615485  0.1351740473377632  0.3743512066457768
  0.8819111819263838  0.0519212224927728  0.0015609917650679
  0.3620042238608718  0.0681591480248898  0.5764209369818616
  0.5380144588384397  0.4853794513136478  0.9345561318809317
  0.5394634802563800  0.4863959229341006  0.6922997438129812
  0.6914035941309677  0.4067004550358106  0.8104783985164090
  0.6889982591340953  0.4027060403049916  0.5637706805497942
  0.8540058354596098  0.3227114064794137  0.6832207369308989
  0.1940520395096570  0.1506190588162113  0.6867456965961409
  0.0514093636374682  0.4709468608616945  0.6229877973336642
  0.2323848796791879  0.3891841741599151  0.7485808062944201
  0.3958303042993592  0.3076948661384478  0.6290652645925903
  0.5523482135755771  0.2288502612763139  0.7470226640585054
  0.3946693410295197  0.3082691295381821  0.8742608532139187
  0.5495340352871168  0.2275111847384110  0.5021441317545339
  0.8836022593084465  0.0525301849149713  0.7475243664362736
  0.7249426510137127  0.1357945363895325  0.8741414224692008
  0.8811458170253061  0.0515752163441547  0.5022798170170546
  0.3611676228277005  0.5724482045838073  0.0648616767781647
  0.5339473731076225  0.9847651190938578  0.4345776944838917
  0.5365034989147119  0.9864198344502384  0.1908960217645301
  0.6848747681864111  0.9078658032950884  0.3112619111764729
  0.6877843491554358  0.9028333412920659  0.0641120460510081
  0.8540208057077123  0.8202223689105352  0.1793414195760974
  0.1984736398109987  0.6488369684468296  0.1852713614240429
  0.0486758783961534  0.9712211359834200  0.1223089997374416
  0.2312848871952369  0.8874532944056313  0.2479568573044446
  0.3962155958042288  0.8070908861020172  0.1282451728772074
  0.5600497037826244  0.7308006238993627  0.2480189666148576
  0.3945168089355207  0.8073092738702456  0.3740071260792703
  0.5509788509912354  0.7274007594020020  0.0045168156209883
  0.8878492796913591  0.5515990413461083  0.2466039376344824
  0.7328993170750735  0.6360674671922268  0.3754097713792817
  0.8856676723785313  0.5507307022067991  0.0004043407896788
  0.3596856492020066  0.5718177433627076  0.5644255595993926
  0.5338053902855577  0.9848985287550391  0.9350686445217775
  0.5356464053994685  0.9853878167643657  0.6937863271247267
  0.6905622522517092  0.9076482387265372  0.8120641200639724
  0.6868519200325665  0.9026181728315663  0.5649937847403734
  0.8545210902025602  0.8223293230255777  0.6851042076270559
  0.1974788094135818  0.6489092101934943  0.6857446586328209
  0.0444717501267391  0.9694185623532263  0.6230925081450494
  0.2293846180882682  0.8881195893298468  0.7486595669624592
  0.3960471423235887  0.8071538294916039  0.6297486770503156
  0.5571314367240561  0.7300261115890905  0.7480283936307046
  0.3948037898128902  0.8080670136146608  0.8739376626579727
  0.5506608620673532  0.7279866034651619  0.5069845288731116
  0.8870287262813861  0.5518956901117278  0.7468418641111114
  0.7302944433328094  0.6363713003545897  0.8749893253091727
  0.8854461112047289  0.5506220162023041  0.5005878366936400
  0.5682982891737041  0.1755170860495667  0.3645390817381227
  0.5284450407640833  0.1706496736536778  0.1093703472834520
  0.7208885750831797  0.0784752001673965  0.4770907897361951
  0.7256995360858767  0.0798946464437407  0.2442844339159933
  0.8752132685027689  0.0041560659526212  0.3621577942015506
  0.0464885507740007  0.4132477130055960  0.4933634742935524
  0.8810623721001463  0.4949704097829795  0.1098153538901698
  0.0594184654429242  0.4110634472031762  0.2231223831525568
  0.2341206196300547  0.3350690443589102  0.3551039446595823
  0.3890770487426707  0.2550286487964044  0.4859414380287319
  0.2382154250940758  0.3338460681277127  0.1203265990334259
  0.3852570011460514  0.2491179392438951  0.2368574133063817
  0.2406398538788750  0.0658667431482058  0.1652084168438748
  0.4288499220717839  0.4809425836306431  0.2980850468615017
  0.4449659934492800  0.0000903484049886  0.0576631148701665
  0.5835058449715405  0.4035889879561196  0.1735908617227864
  0.7415826456810493  0.3253850886645751  0.2879813994856661
  0.5852154971998758  0.4020668721460510  0.4238289283769987
  0.7323131742924573  0.3200292831212934  0.0574304447083946
  0.8906701912385984  0.2378593264087598  0.1725437998706738
  0.0830153336063972  0.1401395234581244  0.2900858983838361
  0.9072230176970422  0.2274953396582688  0.4198192949634603
  0.0726811027974534  0.1427145875214393  0.0591211911327392
  0.5750956792130353  0.1788332910030377  0.8639559416888432
  0.5190318121354593  0.1676390162478896  0.6035943060953031
  0.7212140877865423  0.0788965326192326  0.9761777442860549
  0.7223279570017809  0.0794646357194608  0.7423747597607431
  0.8756912708088507  0.0036265041626677  0.8610074637083684
  0.0450522806963818  0.4125625667737651  0.9928348847770891
  0.8804308455593528  0.4947963925778680  0.6099538026101996
  0.0591900463875916  0.4111443458564423  0.7230263366983323
  0.2356214868521320  0.3361188199436569  0.8555099134564585
  0.3921216211226053  0.2569116580976214  0.9869464038039837
  0.2367655152828689  0.3331578713072147  0.6199240925927114
  0.3837863009535596  0.2486693408856908  0.7362325517687509
  0.2341851153344123  0.0649443246967323  0.6618120700119476
  0.2522933083931846  0.0631466763961868  0.9294770415227944
  0.4285689287254542  0.4806110887040376  0.7976815166312861
  0.4407855403940104  0.9986595702569971  0.5549547514436810
  0.5821488703969564  0.4030896908302850  0.6728424515753488
  0.7398502044243997  0.3248570041429133  0.7858796180919683
  0.5861888803548680  0.4022762510807922  0.9235394158461716
  0.7308165315060080  0.3197276265357729  0.5564148780944009
  0.8877828705636190  0.2378291588468144  0.6704516818614366
  0.0769307695544654  0.1419083842399544  0.7849769363833019
  0.9089190467680410  0.2277524373188839  0.9200271882627149
  0.0729769673570431  0.1423545463885105  0.5556044765936718
  0.5877052564942815  0.6839635648024682  0.3677965195746253
  0.5341318610140533  0.6728350395647738  0.1116032293222560
  0.7266522262294259  0.5794128775913521  0.4771156619724195
  0.7299870991638073  0.5806731204453328  0.2445065056453117
  0.8778733374360144  0.5019613630726170  0.3598144408545707
  0.0443892197742244  0.9133773645767604  0.4942506152779700
  0.8793585234306960  0.9957640516229915  0.1115412681074588
  0.0666097742173122  0.9150441216626319  0.2260969895647733
  0.2354590321696790  0.8349760377298523  0.3544888517034437
  0.3947755727982809  0.7579843806404298  0.4880530799348932
  0.2373521598399506  0.8327794669084767  0.1205331346189311
  0.3908790462197302  0.7503310528576961  0.2378659156967231
  0.2426515575983004  0.5654450333103469  0.1640477630259127
  0.2604790253793610  0.5643223066972070  0.4278909218338853
  0.4253552603966853  0.9813850580432089  0.2980379072803956
  0.4512147527120192  0.5019815804209813  0.0583119315473795
  0.5814109119845696  0.9039558120163633  0.1740865600479751
  0.7583157019332134  0.8335981194872133  0.2927336181044922
  0.5837932147637588  0.9028215875200587  0.4243840724107457
  0.7330652967372657  0.8214711816976390  0.0583210620071100
  0.8921484957276249  0.7383945479722058  0.1707383662771065
  0.0817470612172855  0.6411944072934332  0.2845429151027972
  0.9173303410521285  0.7289594998676279  0.4218828716000758
  0.0770128726021753  0.6417376133129125  0.0560267184413945
  0.5829792722615252  0.6815786165947557  0.8673031665097142
  0.5312146363520540  0.6716686243704899  0.6109595697236543
  0.7268717872822563  0.5794063589987459  0.9766867502346273
  0.7283985584768047  0.5802800881250860  0.7443643657834258
  0.8776602132888485  0.5017861948407898  0.8595577728775439
  0.0430082656629835  0.9126187809218038  0.9946860756972100
  0.8778052317912355  0.9956067177371750  0.6104997700615087
  0.0594414191420753  0.9122833676435889  0.7242746871733345
  0.2351349718208482  0.8356152300905109  0.8555043108586560
  0.3952134457661671  0.7578696766181423  0.9876684712704744
  0.2367022241017835  0.8327548197490060  0.6210728179375025
  0.3870541484298897  0.7493361948935444  0.7375724490911892
  0.2414809163923053  0.5653730026004808  0.6638176687420980
  0.2604161618122873  0.5643917533313214  0.9286977138143300
  0.4244318260302578  0.9806332856147009  0.7979269557503557
  0.4498684804613973  0.5013217960976348  0.5578637120272489
  0.5811882984597787  0.9037883019741102  0.6742263028754465
  0.7450313390030701  0.8281865350062461  0.7894298523049628
  0.5850928826137007  0.9029995551918049  0.9245123249186946
  0.7331736659607913  0.8217728239379056  0.5599484284723388
  0.8905874159461931  0.7385098736780549  0.6711799464061414
  0.0801150828766097  0.6413533934677957  0.7846466261420133
  0.9137983859775503  0.7290457902665963  0.9209230632564740
  0.0762731748001997  0.6412244748136473  0.5560357753444052
 
  0.00000000E+00  0.00000000E+00  0.00000000E+00
  0.00000000E+00  0.00000000E+00  0.00000000E+00
  0.00000000E+00  0.00000000E+00  0.00000000E+00
  0.00000000E+00  0.00000000E+00  0.00000000E+00
  0.00000000E+00  0.00000000E+00  0.00000000E+00
  0.00000000E+00  0.00000000E+00  0.00000000E+00
  0.00000000E+00  0.00000000E+00  0.00000000E+00
  0.00000000E+00  0.00000000E+00  0.00000000E+00
  0.00000000E+00  0.00000000E+00  0.00000000E+00
  0.00000000E+00  0.00000000E+00  0.00000000E+00
  0.00000000E+00  0.00000000E+00  0.00000000E+00
  0.00000000E+00  0.00000000E+00  0.00000000E+00
  0.00000000E+00  0.00000000E+00  0.00000000E+00
  0.00000000E+00  0.00000000E+00  0.00000000E+00
  0.00000000E+00  0.00000000E+00  0.00000000E+00
  0.00000000E+00  0.00000000E+00  0.00000000E+00
  0.00000000E+00  0.00000000E+00  0.00000000E+00
  0.00000000E+00  0.00000000E+00  0.00000000E+00
  0.00000000E+00  0.00000000E+00  0.00000000E+00
  0.00000000E+00  0.00000000E+00  0.00000000E+00
  0.00000000E+00  0.00000000E+00  0.00000000E+00
  0.00000000E+00  0.00000000E+00  0.00000000E+00
  0.00000000E+00  0.00000000E+00  0.00000000E+00
  0.00000000E+00  0.00000000E+00  0.00000000E+00
  0.00000000E+00  0.00000000E+00  0.00000000E+00
  0.00000000E+00  0.00000000E+00  0.00000000E+00
  0.00000000E+00  0.00000000E+00  0.00000000E+00
  0.00000000E+00  0.00000000E+00  0.00000000E+00
  0.00000000E+00  0.00000000E+00  0.00000000E+00
  0.00000000E+00  0.00000000E+00  0.00000000E+00
  0.00000000E+00  0.00000000E+00  0.00000000E+00
  0.00000000E+00  0.00000000E+00  0.00000000E+00
  0.00000000E+00  0.00000000E+00  0.00000000E+00
  0.00000000E+00  0.00000000E+00  0.00000000E+00
  0.00000000E+00  0.00000000E+00  0.00000000E+00
  0.00000000E+00  0.00000000E+00  0.00000000E+00
  0.00000000E+00  0.00000000E+00  0.00000000E+00
  0.00000000E+00  0.00000000E+00  0.00000000E+00
  0.00000000E+00  0.00000000E+00  0.00000000E+00
  0.00000000E+00  0.00000000E+00  0.00000000E+00
  0.00000000E+00  0.00000000E+00  0.00000000E+00
  0.00000000E+00  0.00000000E+00  0.00000000E+00
  0.00000000E+00  0.00000000E+00  0.00000000E+00
  0.00000000E+00  0.00000000E+00  0.00000000E+00
  0.00000000E+00  0.00000000E+00  0.00000000E+00
  0.00000000E+00  0.00000000E+00  0.00000000E+00
  0.00000000E+00  0.00000000E+00  0.00000000E+00
  0.00000000E+00  0.00000000E+00  0.00000000E+00
  0.00000000E+00  0.00000000E+00  0.00000000E+00
  0.00000000E+00  0.00000000E+00  0.00000000E+00
  0.00000000E+00  0.00000000E+00  0.00000000E+00
  0.00000000E+00  0.00000000E+00  0.00000000E+00
  0.00000000E+00  0.00000000E+00  0.00000000E+00
  0.00000000E+00  0.00000000E+00  0.00000000E+00
  0.00000000E+00  0.00000000E+00  0.00000000E+00
  0.00000000E+00  0.00000000E+00  0.00000000E+00
  0.00000000E+00  0.00000000E+00  0.00000000E+00
  0.00000000E+00  0.00000000E+00  0.00000000E+00
  0.00000000E+00  0.00000000E+00  0.00000000E+00
  0.00000000E+00  0.00000000E+00  0.00000000E+00
  0.00000000E+00  0.00000000E+00  0.00000000E+00
  0.00000000E+00  0.00000000E+00  0.00000000E+00
  0.00000000E+00  0.00000000E+00  0.00000000E+00
  0.00000000E+00  0.00000000E+00  0.00000000E+00
  0.00000000E+00  0.00000000E+00  0.00000000E+00
  0.00000000E+00  0.00000000E+00  0.00000000E+00
  0.00000000E+00  0.00000000E+00  0.00000000E+00
  0.00000000E+00  0.00000000E+00  0.00000000E+00
  0.00000000E+00  0.00000000E+00  0.00000000E+00
  0.00000000E+00  0.00000000E+00  0.00000000E+00
  0.00000000E+00  0.00000000E+00  0.00000000E+00
  0.00000000E+00  0.00000000E+00  0.00000000E+00
  0.00000000E+00  0.00000000E+00  0.00000000E+00
  0.00000000E+00  0.00000000E+00  0.00000000E+00
  0.00000000E+00  0.00000000E+00  0.00000000E+00
  0.00000000E+00  0.00000000E+00  0.00000000E+00
  0.00000000E+00  0.00000000E+00  0.00000000E+00
  0.00000000E+00  0.00000000E+00  0.00000000E+00
  0.00000000E+00  0.00000000E+00  0.00000000E+00
  0.00000000E+00  0.00000000E+00  0.00000000E+00
  0.00000000E+00  0.00000000E+00  0.00000000E+00
  0.00000000E+00  0.00000000E+00  0.00000000E+00
  0.00000000E+00  0.00000000E+00  0.00000000E+00
  0.00000000E+00  0.00000000E+00  0.00000000E+00
  0.00000000E+00  0.00000000E+00  0.00000000E+00
  0.00000000E+00  0.00000000E+00  0.00000000E+00
  0.00000000E+00  0.00000000E+00  0.00000000E+00
  0.00000000E+00  0.00000000E+00  0.00000000E+00
  0.00000000E+00  0.00000000E+00  0.00000000E+00
  0.00000000E+00  0.00000000E+00  0.00000000E+00
  0.00000000E+00  0.00000000E+00  0.00000000E+00
  0.00000000E+00  0.00000000E+00  0.00000000E+00
  0.00000000E+00  0.00000000E+00  0.00000000E+00
  0.00000000E+00  0.00000000E+00  0.00000000E+00
  0.00000000E+00  0.00000000E+00  0.00000000E+00
  0.00000000E+00  0.00000000E+00  0.00000000E+00
  0.00000000E+00  0.00000000E+00  0.00000000E+00
  0.00000000E+00  0.00000000E+00  0.00000000E+00
  0.00000000E+00  0.00000000E+00  0.00000000E+00
  0.00000000E+00  0.00000000E+00  0.00000000E+00
  0.00000000E+00  0.00000000E+00  0.00000000E+00
  0.00000000E+00  0.00000000E+00  0.00000000E+00
  0.00000000E+00  0.00000000E+00  0.00000000E+00
  0.00000000E+00  0.00000000E+00  0.00000000E+00
  0.00000000E+00  0.00000000E+00  0.00000000E+00
  0.00000000E+00  0.00000000E+00  0.00000000E+00
  0.00000000E+00  0.00000000E+00  0.00000000E+00
  0.00000000E+00  0.00000000E+00  0.00000000E+00
  0.00000000E+00  0.00000000E+00  0.00000000E+00
  0.00000000E+00  0.00000000E+00  0.00000000E+00
  0.00000000E+00  0.00000000E+00  0.00000000E+00
  0.00000000E+00  0.00000000E+00  0.00000000E+00
  0.00000000E+00  0.00000000E+00  0.00000000E+00
  0.00000000E+00  0.00000000E+00  0.00000000E+00
  0.00000000E+00  0.00000000E+00  0.00000000E+00
  0.00000000E+00  0.00000000E+00  0.00000000E+00
  0.00000000E+00  0.00000000E+00  0.00000000E+00
  0.00000000E+00  0.00000000E+00  0.00000000E+00
  0.00000000E+00  0.00000000E+00  0.00000000E+00
  0.00000000E+00  0.00000000E+00  0.00000000E+00
  0.00000000E+00  0.00000000E+00  0.00000000E+00
  0.00000000E+00  0.00000000E+00  0.00000000E+00
  0.00000000E+00  0.00000000E+00  0.00000000E+00
  0.00000000E+00  0.00000000E+00  0.00000000E+00
  0.00000000E+00  0.00000000E+00  0.00000000E+00
  0.00000000E+00  0.00000000E+00  0.00000000E+00
  0.00000000E+00  0.00000000E+00  0.00000000E+00
  0.00000000E+00  0.00000000E+00  0.00000000E+00
  0.00000000E+00  0.00000000E+00  0.00000000E+00
  0.00000000E+00  0.00000000E+00  0.00000000E+00
  0.00000000E+00  0.00000000E+00  0.00000000E+00
  0.00000000E+00  0.00000000E+00  0.00000000E+00
  0.00000000E+00  0.00000000E+00  0.00000000E+00
  0.00000000E+00  0.00000000E+00  0.00000000E+00
  0.00000000E+00  0.00000000E+00  0.00000000E+00
  0.00000000E+00  0.00000000E+00  0.00000000E+00
  0.00000000E+00  0.00000000E+00  0.00000000E+00
  0.00000000E+00  0.00000000E+00  0.00000000E+00
  0.00000000E+00  0.00000000E+00  0.00000000E+00
  0.00000000E+00  0.00000000E+00  0.00000000E+00
  0.00000000E+00  0.00000000E+00  0.00000000E+00
  0.00000000E+00  0.00000000E+00  0.00000000E+00
  0.00000000E+00  0.00000000E+00  0.00000000E+00
  0.00000000E+00  0.00000000E+00  0.00000000E+00
  0.00000000E+00  0.00000000E+00  0.00000000E+00
  0.00000000E+00  0.00000000E+00  0.00000000E+00
  0.00000000E+00  0.00000000E+00  0.00000000E+00
  0.00000000E+00  0.00000000E+00  0.00000000E+00
  0.00000000E+00  0.00000000E+00  0.00000000E+00
  0.00000000E+00  0.00000000E+00  0.00000000E+00
  0.00000000E+00  0.00000000E+00  0.00000000E+00
  0.00000000E+00  0.00000000E+00  0.00000000E+00
  0.00000000E+00  0.00000000E+00  0.00000000E+00
  0.00000000E+00  0.00000000E+00  0.00000000E+00
  0.00000000E+00  0.00000000E+00  0.00000000E+00
  0.00000000E+00  0.00000000E+00  0.00000000E+00
  0.00000000E+00  0.00000000E+00  0.00000000E+00
  0.00000000E+00  0.00000000E+00  0.00000000E+00
  0.00000000E+00  0.00000000E+00  0.00000000E+00
  0.00000000E+00  0.00000000E+00  0.00000000E+00
  0.00000000E+00  0.00000000E+00  0.00000000E+00
  0.00000000E+00  0.00000000E+00  0.00000000E+00
  0.00000000E+00  0.00000000E+00  0.00000000E+00
  0.00000000E+00  0.00000000E+00  0.00000000E+00
  0.00000000E+00  0.00000000E+00  0.00000000E+00
  0.00000000E+00  0.00000000E+00  0.00000000E+00
  0.00000000E+00  0.00000000E+00  0.00000000E+00
  0.00000000E+00  0.00000000E+00  0.00000000E+00
  0.00000000E+00  0.00000000E+00  0.00000000E+00
  0.00000000E+00  0.00000000E+00  0.00000000E+00
  0.00000000E+00  0.00000000E+00  0.00000000E+00
  0.00000000E+00  0.00000000E+00  0.00000000E+00
  0.00000000E+00  0.00000000E+00  0.00000000E+00
  0.00000000E+00  0.00000000E+00  0.00000000E+00
  0.00000000E+00  0.00000000E+00  0.00000000E+00
  0.00000000E+00  0.00000000E+00  0.00000000E+00
  0.00000000E+00  0.00000000E+00  0.00000000E+00
  0.00000000E+00  0.00000000E+00  0.00000000E+00
  0.00000000E+00  0.00000000E+00  0.00000000E+00
  0.00000000E+00  0.00000000E+00  0.00000000E+00
  0.00000000E+00  0.00000000E+00  0.00000000E+00
  0.00000000E+00  0.00000000E+00  0.00000000E+00
  0.00000000E+00  0.00000000E+00  0.00000000E+00
  0.00000000E+00  0.00000000E+00  0.00000000E+00
  0.00000000E+00  0.00000000E+00  0.00000000E+00
  0.00000000E+00  0.00000000E+00  0.00000000E+00
  0.00000000E+00  0.00000000E+00  0.00000000E+00
  0.00000000E+00  0.00000000E+00  0.00000000E+00
  0.00000000E+00  0.00000000E+00  0.00000000E+00
  0.00000000E+00  0.00000000E+00  0.00000000E+00
  0.00000000E+00  0.00000000E+00  0.00000000E+00
