supercell of POSCAR                     
   1.03228000000000     
     6.3970863126299999    5.5387332920799999    4.9397337979799998
   -15.9736979067999982   -5.5365852353599996    9.8547656895600007
     6.4026568282999996  -11.0930079636999999    0.0094448205590600
   Sc   Al   N 
    32    63    96
Direct
  0.3699768245498234  0.0699066691585344  0.3098410843025050
  0.8363591725568895  0.3079875970880792  0.4344433486652761
  0.0308157809730076  0.2320370394802254  0.3086154491623887
  0.1925808599312049  0.1485278636418030  0.4390340258521803
  0.0230887570806146  0.2331276300059173  0.0686054115025811
  0.0408712807503306  0.4628749166822530  0.3699813871720821
  0.2370898236242027  0.3923987522695143  0.0048657567451258
  0.6944487612705785  0.1311115706702140  0.1205114987793365
  0.3698228768777199  0.0707321324893471  0.8106292277395539
  0.8351894583843062  0.3103024621306858  0.9345725542494918
  0.0253882814449540  0.2321258425647414  0.8054870509985577
  0.1955675060509776  0.1514537586174853  0.9398276366994480
  0.0254964370051312  0.2326873076032712  0.5690857597860912
  0.0414916140697628  0.4630702958822610  0.8696603069673756
  0.2364760183810972  0.3935281886156972  0.5054411836380126
  0.6923048665731386  0.1294500874647824  0.6191396471945296
  0.3673527723858072  0.5699296503240419  0.3104241430954318
  0.8292678495788977  0.8081838901827041  0.4329367467743950
  0.0168658220175359  0.7291264498330250  0.3026462330259392
  0.1855792729308803  0.6471508089275204  0.4369097045160331
  0.0163068088275438  0.7297053023496218  0.0659766313688976
  0.0391319895476485  0.9635866617474420  0.3693847087896884
  0.2279761184754392  0.8911393527065670  0.0037967780141912
  0.6865510948403042  0.6270079686019372  0.1171124390318781
  0.3684230572338762  0.5711900254237747  0.8097504168021175
  0.8301858397042992  0.8085775849825652  0.9331222659189606
  0.0199616081370593  0.7309199752816227  0.8032790502674771
  0.1858827480402070  0.6469940789295805  0.9371120931043393
  0.0188675340030500  0.7319249869045592  0.5669894290345567
  0.0401196284796228  0.9649154573466703  0.8702812109889138
  0.2283066257910704  0.8912397964108649  0.5032093489752256
  0.6887035329171809  0.6286203933337262  0.6178936223116480
  0.3578597707399496  0.0714229632406713  0.0642525320679042
  0.5369740443590914  0.4850161596062108  0.4343773746336268
  0.5396699816926684  0.4860803681865917  0.1943535827126368
  0.6934280332369340  0.4074917275019416  0.3132168823525916
  0.8594969210930259  0.3211401395734939  0.1859907304878590
  0.1975475319361877  0.1494439266040004  0.1857829866293059
  0.0495909107662058  0.4675553851215781  0.1226044384864124
  0.2361078858855450  0.3893152845716301  0.2495331387683990
  0.4073420366849447  0.3118302927431884  0.1306361509914069
  0.5587707671095714  0.2302223453737042  0.2479938503825352
  0.4001079925248092  0.3088921467812042  0.3743137876671980
  0.5585405097737421  0.2317734191478564  0.0083456771184700
  0.8846820091867187  0.0518958237297866  0.2471687149815054
  0.7289119103076871  0.1357075840174105  0.3753600109705033
  0.8834602282809243  0.0520848253000707  0.0008632412530503
  0.3578439461374430  0.0710180841914507  0.5639762195880991
  0.5365465903101452  0.4848535859344949  0.9311964706192413
  0.5385366184607676  0.4864892839381696  0.6920749759110905
  0.6910223808207334  0.4075399504329553  0.8073959684605754
  0.6909055301701130  0.4029716028050032  0.5635933360911736
  0.8551952425605052  0.3220537656894109  0.6835509826516741
  0.1970483790785238  0.1494122609407711  0.6860165527963176
  0.0507255119450889  0.4703717768486797  0.6227882087806336
  0.2339866921013609  0.3895409054478876  0.7490540742319425
  0.4000430306040315  0.3081693808603916  0.6297631775065682
  0.5574625823066199  0.2297057930152633  0.7471094240541731
  0.4053123294777166  0.3122428230621423  0.8752871776018267
  0.5524760940280586  0.2274387736011505  0.5047414092050815
  0.8854789482926435  0.0525018992835697  0.7477285002343095
  0.7278789811890576  0.1371652199162341  0.8749400548583566
  0.8826325014708303  0.0509160779019240  0.5006740266872995
  0.3560766172006140  0.5703625406604189  0.0635396072705774
  0.5332096184246566  0.9843175814932081  0.4345092072725407
  0.5351910714058903  0.9854154266965054  0.1916196501572216
  0.6881211583348730  0.9063763834376175  0.3105807506329654
  0.6859193619976907  0.9023396848778091  0.0638553411044782
  0.8510026228951091  0.8213057218957758  0.1829804935436883
  0.1902711508568302  0.6464851985690458  0.1839530993274039
  0.0477085107218826  0.9702797491038240  0.1225233281167206
  0.2276515192997763  0.8873146106344905  0.2477311768032067
  0.3925831394302222  0.8061240022841005  0.1282527781084397
  0.5527590156975819  0.7285910970576666  0.2465817123386742
  0.3908027379394738  0.8066199156038536  0.3728455762763403
  0.5478593051478953  0.7269833017084508  0.0046717491359161
  0.8796843442060691  0.5488931910181236  0.2467119313955237
  0.7264406465365028  0.6361796189173603  0.3751556246409962
  0.8765262932965143  0.5471431073683775  0.9972236862518216
  0.3569711262672257  0.5716418315670495  0.5639711714170943
  0.5341739914819570  0.9853993769805172  0.9353619621760316
  0.5359212259064776  0.9859397869816462  0.6922720498206800
  0.6888162987389705  0.9070908850182064  0.8110849881241435
  0.6860220433364503  0.9023489891626824  0.5639876436824665
  0.8521954436043941  0.8223509849279935  0.6835782793731582
  0.1950804393288550  0.6496104836023946  0.6852077274605648
  0.0482523320160695  0.9704242341350096  0.6225494077849447
  0.2295624821900972  0.8887804867474571  0.7485571739216752
  0.3937156397396535  0.8069709428714091  0.6283098324002268
  0.5548503183156939  0.7298146893251882  0.7471190323513710
  0.3921620861109290  0.8075555513579786  0.8736746083113118
  0.5477840480030167  0.7271078311912547  0.5046169578624671
  0.8867427949667928  0.5523284747076644  0.7461639798857647
  0.7271650406633938  0.6364806565790033  0.8741298883520443
  0.8845268844135177  0.5514690944889082  0.5015111080976951
  0.5818425929527606  0.1798612225426126  0.3671261205574510
  0.5292313191791322  0.1703446789290979  0.1110518325011753
  0.7215892057237454  0.0777087049628236  0.4764687813431294
  0.7237616659489845  0.0785315441388050  0.2441792084743071
  0.8739676037183415  0.0014947399734240  0.3598516267299985
  0.0476061455655312  0.4124673356042052  0.4944769768815931
  0.9017723679124501  0.5043627750321278  0.1152460824940604
  0.0649132258303737  0.4114461389058874  0.2259771525426544
  0.2416990275787754  0.3371584378985162  0.3576063661979418
  0.3952571660818762  0.2569318626847945  0.4872195948168851
  0.2389370973374980  0.3328862274298672  0.1210758501185651
  0.3874126103535431  0.2481371951911413  0.2381195061911114
  0.2380250930220740  0.0642673006854935  0.1632264731654587
  0.2555458721382138  0.0621171033533301  0.4275295289789653
  0.4273319385527046  0.4831986830384523  0.3006314199028637
  0.4438839974637858  0.9989634519423305  0.0571241495258406
  0.5771939511993764  0.4059151451522283  0.1913725686972114
  0.7485105493693851  0.3273180789737040  0.2916927872769364
  0.5892818152338606  0.4035831499546703  0.4273936725212764
  0.7486518855970843  0.3124982168108872  0.0590563741733448
  0.8969589841532439  0.2366874522351878  0.1785898613684296
  0.0798645784285767  0.1397313237024562  0.2856122261206551
  0.9140378216312683  0.2269941845407359  0.4223596188522123
  0.0747076856652384  0.1421456813565882  0.0564501160647097
  0.5787753863812597  0.1791166255788639  0.8625185926832657
  0.5299327300119216  0.1704111053012696  0.6087943910234515
  0.7222830333404247  0.0791924884055888  0.9769660193112912
  0.7248597622791166  0.0792665733564348  0.7440721425643630
  0.8737994082073897  0.0020608304668386  0.8601292402992655
  0.0516960188689808  0.4136621987789155  0.9939031495747557
  0.8823923355342487  0.4958287620147530  0.6102675903854760
  0.0606178360383467  0.4112966978786332  0.7228080663076852
  0.2359029780901167  0.3358603799632220  0.8549069094208690
  0.3981620130672496  0.2590443053611509  0.9878950252002880
  0.2404710416194433  0.3337647234384278  0.6209217613503881
  0.3858021096789628  0.2478606151895164  0.7354017066550682
  0.2383995979315259  0.0645589176493502  0.6627166256702779
  0.2553280476421733  0.0634319529947263  0.9284678840687377
  0.4251893009778271  0.4834003175445076  0.7948427370397440
  0.4445732555485691  0.9991805670647338  0.5570918841723298
  0.5842229141930062  0.4046987794038444  0.6692464063904779
  0.7441809404052364  0.3272723442717904  0.7856059360941430
  0.5776406403688057  0.4053435640333873  0.9026752338672281
  0.7347543127759977  0.3208730863831732  0.5573484625820697
  0.8909480012831779  0.2376890009597119  0.6712643020225713
  0.0794735504337964  0.1408891015034897  0.7853881675350536
  0.9133150312653342  0.2278863282241446  0.9206862773959443
  0.0736572718366304  0.1411556134757603  0.5559892650462146
  0.5791554980563660  0.6810663508745591  0.3670755851016807
  0.5277661771931363  0.6709534575950471  0.1095246445956235
  0.7252968860119822  0.5797353599595212  0.4773542742855668
  0.7278701868819226  0.5816456807111265  0.2453765943837851
  0.8811783404936477  0.5037418779345302  0.3632145978565759
  0.0413587817536794  0.9120444298697805  0.4929822765005980
  0.8772868561840994  0.9949243830702414  0.1098703218314867
  0.0562960089003113  0.9105081720318822  0.2227509440514837
  0.2310766928760870  0.8341372566449792  0.3544338052962814
  0.3904453376929595  0.7566100626604779  0.4868804162221707
  0.2329285041842581  0.8314874055051362  0.1197143402958361
  0.3825480585647654  0.7479608555720105  0.2362858083228048
  0.2397760196648306  0.5651142009383889  0.1635164571245724
  0.2548590775436423  0.5636767778460978  0.4288104032410232
  0.4237078711791682  0.9791337376505140  0.2971564577381827
  0.4499058659658317  0.5021347438519470  0.0581759099741603
  0.5788562461570876  0.9024988478027893  0.1731222710093832
  0.7406415566158344  0.8263209067028896  0.2876332115364804
  0.5821052368386859  0.9014411662110291  0.4233225071829878
  0.7300348567900699  0.8206665452238511  0.0577440780699376
  0.8859978915704119  0.7372389754388635  0.1703127081872609
  0.0758914740610237  0.6406497584913780  0.2844481125347542
  0.9100907130102556  0.7290212125443958  0.4210419264950573
  0.0702459408392642  0.6406068791772768  0.0549560461861560
  0.5801428657222729  0.6816266886648492  0.8662788595585837
  0.5285215929064648  0.6715045910142550  0.6101393095085186
  0.7245828222436472  0.5804112801323598  0.9758136351699491
  0.7279871404010549  0.5808740649904962  0.7439302199870212
  0.8806326337332777  0.5034096388333325  0.8580930713570183
  0.0416372338183422  0.9124218754749478  0.9929614414216061
  0.8775803360605750  0.9948280045209330  0.6101314571725425
  0.0573675029616680  0.9113792819407109  0.7234593840893950
  0.2328447052377527  0.8352896743187230  0.8548514774705822
  0.3905274647881853  0.7565712762367554  0.9866616255504752
  0.2349988110604500  0.8329965587051689  0.6204337522716088
  0.3850292968076374  0.7493900302231182  0.7369388864681383
  0.2386878192346487  0.5661099684332882  0.6628892641126427
  0.2557584835008910  0.5636844531416472  0.9278571213828215
  0.4250901891437238  0.9802016775588740  0.7978328898556413
  0.4494560752478165  0.5023621990063560  0.5580072140763335
  0.5796549779434201  0.9030637993646593  0.6733586718931335
  0.7417816032291853  0.8271482568999176  0.7880538497215142
  0.5828033496445499  0.9021957954842890  0.9237497394083434
  0.7301453036525629  0.8207290731160555  0.5580190936199045
  0.8872772468920616  0.7381926724623327  0.6709624808108714
  0.0789788298715450  0.6424563365969220  0.7843489213014436
  0.9108095699572800  0.7292567805768471  0.9201951926527983
  0.0736984503126195  0.6432659433102899  0.5570152030385955
 
  0.00000000E+00  0.00000000E+00  0.00000000E+00
  0.00000000E+00  0.00000000E+00  0.00000000E+00
  0.00000000E+00  0.00000000E+00  0.00000000E+00
  0.00000000E+00  0.00000000E+00  0.00000000E+00
  0.00000000E+00  0.00000000E+00  0.00000000E+00
  0.00000000E+00  0.00000000E+00  0.00000000E+00
  0.00000000E+00  0.00000000E+00  0.00000000E+00
  0.00000000E+00  0.00000000E+00  0.00000000E+00
  0.00000000E+00  0.00000000E+00  0.00000000E+00
  0.00000000E+00  0.00000000E+00  0.00000000E+00
  0.00000000E+00  0.00000000E+00  0.00000000E+00
  0.00000000E+00  0.00000000E+00  0.00000000E+00
  0.00000000E+00  0.00000000E+00  0.00000000E+00
  0.00000000E+00  0.00000000E+00  0.00000000E+00
  0.00000000E+00  0.00000000E+00  0.00000000E+00
  0.00000000E+00  0.00000000E+00  0.00000000E+00
  0.00000000E+00  0.00000000E+00  0.00000000E+00
  0.00000000E+00  0.00000000E+00  0.00000000E+00
  0.00000000E+00  0.00000000E+00  0.00000000E+00
  0.00000000E+00  0.00000000E+00  0.00000000E+00
  0.00000000E+00  0.00000000E+00  0.00000000E+00
  0.00000000E+00  0.00000000E+00  0.00000000E+00
  0.00000000E+00  0.00000000E+00  0.00000000E+00
  0.00000000E+00  0.00000000E+00  0.00000000E+00
  0.00000000E+00  0.00000000E+00  0.00000000E+00
  0.00000000E+00  0.00000000E+00  0.00000000E+00
  0.00000000E+00  0.00000000E+00  0.00000000E+00
  0.00000000E+00  0.00000000E+00  0.00000000E+00
  0.00000000E+00  0.00000000E+00  0.00000000E+00
  0.00000000E+00  0.00000000E+00  0.00000000E+00
  0.00000000E+00  0.00000000E+00  0.00000000E+00
  0.00000000E+00  0.00000000E+00  0.00000000E+00
  0.00000000E+00  0.00000000E+00  0.00000000E+00
  0.00000000E+00  0.00000000E+00  0.00000000E+00
  0.00000000E+00  0.00000000E+00  0.00000000E+00
  0.00000000E+00  0.00000000E+00  0.00000000E+00
  0.00000000E+00  0.00000000E+00  0.00000000E+00
  0.00000000E+00  0.00000000E+00  0.00000000E+00
  0.00000000E+00  0.00000000E+00  0.00000000E+00
  0.00000000E+00  0.00000000E+00  0.00000000E+00
  0.00000000E+00  0.00000000E+00  0.00000000E+00
  0.00000000E+00  0.00000000E+00  0.00000000E+00
  0.00000000E+00  0.00000000E+00  0.00000000E+00
  0.00000000E+00  0.00000000E+00  0.00000000E+00
  0.00000000E+00  0.00000000E+00  0.00000000E+00
  0.00000000E+00  0.00000000E+00  0.00000000E+00
  0.00000000E+00  0.00000000E+00  0.00000000E+00
  0.00000000E+00  0.00000000E+00  0.00000000E+00
  0.00000000E+00  0.00000000E+00  0.00000000E+00
  0.00000000E+00  0.00000000E+00  0.00000000E+00
  0.00000000E+00  0.00000000E+00  0.00000000E+00
  0.00000000E+00  0.00000000E+00  0.00000000E+00
  0.00000000E+00  0.00000000E+00  0.00000000E+00
  0.00000000E+00  0.00000000E+00  0.00000000E+00
  0.00000000E+00  0.00000000E+00  0.00000000E+00
  0.00000000E+00  0.00000000E+00  0.00000000E+00
  0.00000000E+00  0.00000000E+00  0.00000000E+00
  0.00000000E+00  0.00000000E+00  0.00000000E+00
  0.00000000E+00  0.00000000E+00  0.00000000E+00
  0.00000000E+00  0.00000000E+00  0.00000000E+00
  0.00000000E+00  0.00000000E+00  0.00000000E+00
  0.00000000E+00  0.00000000E+00  0.00000000E+00
  0.00000000E+00  0.00000000E+00  0.00000000E+00
  0.00000000E+00  0.00000000E+00  0.00000000E+00
  0.00000000E+00  0.00000000E+00  0.00000000E+00
  0.00000000E+00  0.00000000E+00  0.00000000E+00
  0.00000000E+00  0.00000000E+00  0.00000000E+00
  0.00000000E+00  0.00000000E+00  0.00000000E+00
  0.00000000E+00  0.00000000E+00  0.00000000E+00
  0.00000000E+00  0.00000000E+00  0.00000000E+00
  0.00000000E+00  0.00000000E+00  0.00000000E+00
  0.00000000E+00  0.00000000E+00  0.00000000E+00
  0.00000000E+00  0.00000000E+00  0.00000000E+00
  0.00000000E+00  0.00000000E+00  0.00000000E+00
  0.00000000E+00  0.00000000E+00  0.00000000E+00
  0.00000000E+00  0.00000000E+00  0.00000000E+00
  0.00000000E+00  0.00000000E+00  0.00000000E+00
  0.00000000E+00  0.00000000E+00  0.00000000E+00
  0.00000000E+00  0.00000000E+00  0.00000000E+00
  0.00000000E+00  0.00000000E+00  0.00000000E+00
  0.00000000E+00  0.00000000E+00  0.00000000E+00
  0.00000000E+00  0.00000000E+00  0.00000000E+00
  0.00000000E+00  0.00000000E+00  0.00000000E+00
  0.00000000E+00  0.00000000E+00  0.00000000E+00
  0.00000000E+00  0.00000000E+00  0.00000000E+00
  0.00000000E+00  0.00000000E+00  0.00000000E+00
  0.00000000E+00  0.00000000E+00  0.00000000E+00
  0.00000000E+00  0.00000000E+00  0.00000000E+00
  0.00000000E+00  0.00000000E+00  0.00000000E+00
  0.00000000E+00  0.00000000E+00  0.00000000E+00
  0.00000000E+00  0.00000000E+00  0.00000000E+00
  0.00000000E+00  0.00000000E+00  0.00000000E+00
  0.00000000E+00  0.00000000E+00  0.00000000E+00
  0.00000000E+00  0.00000000E+00  0.00000000E+00
  0.00000000E+00  0.00000000E+00  0.00000000E+00
  0.00000000E+00  0.00000000E+00  0.00000000E+00
  0.00000000E+00  0.00000000E+00  0.00000000E+00
  0.00000000E+00  0.00000000E+00  0.00000000E+00
  0.00000000E+00  0.00000000E+00  0.00000000E+00
  0.00000000E+00  0.00000000E+00  0.00000000E+00
  0.00000000E+00  0.00000000E+00  0.00000000E+00
  0.00000000E+00  0.00000000E+00  0.00000000E+00
  0.00000000E+00  0.00000000E+00  0.00000000E+00
  0.00000000E+00  0.00000000E+00  0.00000000E+00
  0.00000000E+00  0.00000000E+00  0.00000000E+00
  0.00000000E+00  0.00000000E+00  0.00000000E+00
  0.00000000E+00  0.00000000E+00  0.00000000E+00
  0.00000000E+00  0.00000000E+00  0.00000000E+00
  0.00000000E+00  0.00000000E+00  0.00000000E+00
  0.00000000E+00  0.00000000E+00  0.00000000E+00
  0.00000000E+00  0.00000000E+00  0.00000000E+00
  0.00000000E+00  0.00000000E+00  0.00000000E+00
  0.00000000E+00  0.00000000E+00  0.00000000E+00
  0.00000000E+00  0.00000000E+00  0.00000000E+00
  0.00000000E+00  0.00000000E+00  0.00000000E+00
  0.00000000E+00  0.00000000E+00  0.00000000E+00
  0.00000000E+00  0.00000000E+00  0.00000000E+00
  0.00000000E+00  0.00000000E+00  0.00000000E+00
  0.00000000E+00  0.00000000E+00  0.00000000E+00
  0.00000000E+00  0.00000000E+00  0.00000000E+00
  0.00000000E+00  0.00000000E+00  0.00000000E+00
  0.00000000E+00  0.00000000E+00  0.00000000E+00
  0.00000000E+00  0.00000000E+00  0.00000000E+00
  0.00000000E+00  0.00000000E+00  0.00000000E+00
  0.00000000E+00  0.00000000E+00  0.00000000E+00
  0.00000000E+00  0.00000000E+00  0.00000000E+00
  0.00000000E+00  0.00000000E+00  0.00000000E+00
  0.00000000E+00  0.00000000E+00  0.00000000E+00
  0.00000000E+00  0.00000000E+00  0.00000000E+00
  0.00000000E+00  0.00000000E+00  0.00000000E+00
  0.00000000E+00  0.00000000E+00  0.00000000E+00
  0.00000000E+00  0.00000000E+00  0.00000000E+00
  0.00000000E+00  0.00000000E+00  0.00000000E+00
  0.00000000E+00  0.00000000E+00  0.00000000E+00
  0.00000000E+00  0.00000000E+00  0.00000000E+00
  0.00000000E+00  0.00000000E+00  0.00000000E+00
  0.00000000E+00  0.00000000E+00  0.00000000E+00
  0.00000000E+00  0.00000000E+00  0.00000000E+00
  0.00000000E+00  0.00000000E+00  0.00000000E+00
  0.00000000E+00  0.00000000E+00  0.00000000E+00
  0.00000000E+00  0.00000000E+00  0.00000000E+00
  0.00000000E+00  0.00000000E+00  0.00000000E+00
  0.00000000E+00  0.00000000E+00  0.00000000E+00
  0.00000000E+00  0.00000000E+00  0.00000000E+00
  0.00000000E+00  0.00000000E+00  0.00000000E+00
  0.00000000E+00  0.00000000E+00  0.00000000E+00
  0.00000000E+00  0.00000000E+00  0.00000000E+00
  0.00000000E+00  0.00000000E+00  0.00000000E+00
  0.00000000E+00  0.00000000E+00  0.00000000E+00
  0.00000000E+00  0.00000000E+00  0.00000000E+00
  0.00000000E+00  0.00000000E+00  0.00000000E+00
  0.00000000E+00  0.00000000E+00  0.00000000E+00
  0.00000000E+00  0.00000000E+00  0.00000000E+00
  0.00000000E+00  0.00000000E+00  0.00000000E+00
  0.00000000E+00  0.00000000E+00  0.00000000E+00
  0.00000000E+00  0.00000000E+00  0.00000000E+00
  0.00000000E+00  0.00000000E+00  0.00000000E+00
  0.00000000E+00  0.00000000E+00  0.00000000E+00
  0.00000000E+00  0.00000000E+00  0.00000000E+00
  0.00000000E+00  0.00000000E+00  0.00000000E+00
  0.00000000E+00  0.00000000E+00  0.00000000E+00
  0.00000000E+00  0.00000000E+00  0.00000000E+00
  0.00000000E+00  0.00000000E+00  0.00000000E+00
  0.00000000E+00  0.00000000E+00  0.00000000E+00
  0.00000000E+00  0.00000000E+00  0.00000000E+00
  0.00000000E+00  0.00000000E+00  0.00000000E+00
  0.00000000E+00  0.00000000E+00  0.00000000E+00
  0.00000000E+00  0.00000000E+00  0.00000000E+00
  0.00000000E+00  0.00000000E+00  0.00000000E+00
  0.00000000E+00  0.00000000E+00  0.00000000E+00
  0.00000000E+00  0.00000000E+00  0.00000000E+00
  0.00000000E+00  0.00000000E+00  0.00000000E+00
  0.00000000E+00  0.00000000E+00  0.00000000E+00
  0.00000000E+00  0.00000000E+00  0.00000000E+00
  0.00000000E+00  0.00000000E+00  0.00000000E+00
  0.00000000E+00  0.00000000E+00  0.00000000E+00
  0.00000000E+00  0.00000000E+00  0.00000000E+00
  0.00000000E+00  0.00000000E+00  0.00000000E+00
  0.00000000E+00  0.00000000E+00  0.00000000E+00
  0.00000000E+00  0.00000000E+00  0.00000000E+00
  0.00000000E+00  0.00000000E+00  0.00000000E+00
  0.00000000E+00  0.00000000E+00  0.00000000E+00
  0.00000000E+00  0.00000000E+00  0.00000000E+00
  0.00000000E+00  0.00000000E+00  0.00000000E+00
  0.00000000E+00  0.00000000E+00  0.00000000E+00
  0.00000000E+00  0.00000000E+00  0.00000000E+00
  0.00000000E+00  0.00000000E+00  0.00000000E+00
  0.00000000E+00  0.00000000E+00  0.00000000E+00
  0.00000000E+00  0.00000000E+00  0.00000000E+00
  0.00000000E+00  0.00000000E+00  0.00000000E+00
  0.00000000E+00  0.00000000E+00  0.00000000E+00
