supercell of POSCAR                     
   1.03228000000000     
     6.3970863126299999    5.5387332920799999    4.9397337979799998
   -15.9736979067999982   -5.5365852353599996    9.8547656895600007
     6.4026568282999996  -11.0930079636999999    0.0094448205590600
   Sc   Al   N 
    31    64    96
Direct
  0.3730292712131060  0.0710827671902692  0.3111946698210204
  0.8362125117918140  0.3067438082456704  0.4295577397725197
  0.1903995567111778  0.1516493064414348  0.4383598682561640
  0.0252998385392118  0.2314623141612273  0.0800202046200766
  0.0414466895963628  0.4651342251059631  0.3713529942719163
  0.2291967077296420  0.3903620680153210  0.0035806342404854
  0.6907803520189830  0.1277791841181255  0.1225877965900679
  0.3714866592557371  0.0704620260144040  0.8107017269114962
  0.8343174689161543  0.3079357610769051  0.9350924769287161
  0.0202693955589481  0.2302213605718322  0.8060416875102874
  0.1904985719406582  0.1488838831484784  0.9378829147843746
  0.0220773755805084  0.2308469095148808  0.5643952700570125
  0.0393649749405611  0.4628069112964539  0.8693312820919843
  0.2249581552546758  0.3880994549112344  0.5024256585739408
  0.6924932051202646  0.1292639293532432  0.6183145617850201
  0.3683413091921039  0.5700750948382023  0.3102120467093172
  0.8330263736176562  0.8091087486697859  0.4335535724167698
  0.0212929426806809  0.7311441347680443  0.3045462900589158
  0.1897852932470769  0.6491352755529363  0.4383523045264752
  0.0201848759076171  0.7315290483450312  0.0671246807688632
  0.0430133383540365  0.9657363286571723  0.3703587549023410
  0.2292724267036519  0.8910705201077533  0.0037132597163350
  0.6899746385764729  0.6289572154007246  0.1184792814396403
  0.3677472641302870  0.5685379437725686  0.8094271288111798
  0.8314383027756520  0.8082178110253508  0.9333192107903017
  0.0215520373114657  0.7308945964313409  0.8039636277453255
  0.1884304319458110  0.6475504626619966  0.9373007896445671
  0.0215300850366944  0.7326183072900108  0.5674308562633641
  0.0406712611293401  0.9638861804439500  0.8699121469651132
  0.2331666043805498  0.8931513786075556  0.5045408788854502
  0.6902468144130793  0.6289772246612486  0.6187683817371123
  0.3571006589227892  0.0704179436659444  0.0633967047928508
  0.5322552768627062  0.4840993038218357  0.4354139564222450
  0.5367272636082276  0.4858959754171650  0.1916167706415308
  0.6913862046603469  0.4081563027050308  0.3116522477115922
  0.6879706598087765  0.4025552688569292  0.0639302676947509
  0.8547270462878203  0.3255197113949251  0.1867504756354634
  0.1990998185726625  0.1493298432092658  0.1832574013319999
  0.0493762566860667  0.4710388885506873  0.1226387877813622
  0.2295667383122435  0.3894740981966223  0.2464794371540862
  0.3974057102918422  0.3076935329113581  0.1291343381600285
  0.5583550960455312  0.2296938529854629  0.2468563895886220
  0.3980319562265606  0.3067301789675341  0.3729210407023515
  0.5512365879401742  0.2269178687897337  0.0056092360781719
  0.8805204110826566  0.0511980755495216  0.2457700724527854
  0.7377173370869983  0.1368968193099747  0.3713649705331719
  0.8831822835747758  0.0504638527695818  0.0010916812400836
  0.3591727761989389  0.0726630477528474  0.5641800444997145
  0.5347452335475396  0.4845305295792670  0.9346360642756935
  0.5358235822650244  0.4849238072327324  0.6914680290666766
  0.6919608882070278  0.4069138243762893  0.8113327882486558
  0.6894679143509279  0.4018066749138143  0.5639029363399999
  0.8560517728349382  0.3220367031333211  0.6826905729631605
  0.1969884781037123  0.1492596377734472  0.6859604942966087
  0.0488702420083271  0.4700765837422338  0.6222918375746218
  0.2307387709048498  0.3873079021227497  0.7482441051076165
  0.3982273774362213  0.3072917866169647  0.6293166470109455
  0.5588662355355538  0.2299485701039004  0.7479400473805455
  0.3948834226321409  0.3074716289736159  0.8737105432138819
  0.5539417781902927  0.2277078270563848  0.5044963407370417
  0.8861510333249853  0.0521351951262901  0.7473489629695749
  0.7315041095976724  0.1368059860271984  0.8788507054615167
  0.8845577868159324  0.0510613335314574  0.5007720035991881
  0.3561962377715560  0.5705231161920921  0.0635599260501465
  0.5371624352729327  0.9859936240502947  0.4345265918765762
  0.5321495553565256  0.9831639194980397  0.1916827849260088
  0.6901941480214404  0.9064718888459780  0.3108051970952133
  0.6861501288735710  0.9013201981569736  0.0638125028550292
  0.8529370857877652  0.8218673311194351  0.1839639859529640
  0.1949821850115327  0.6491489860952413  0.1855533299210208
  0.0481220615649036  0.9698398970686881  0.1230423931799649
  0.2292808044116441  0.8880524799603862  0.2489419631602203
  0.3944156694179952  0.8061627739582491  0.1285896149363737
  0.5548219081558443  0.7289433974450290  0.2473801630832995
  0.3942891367640584  0.8080425000010223  0.3740023617095360
  0.5488127234746401  0.7264473576262205  0.0044899240806728
  0.8849255723721043  0.5523478259667414  0.2471146069164831
  0.7264197990924828  0.6358755036930575  0.3752941578694262
  0.8829744756651934  0.5511093439225903  0.0006427379480272
  0.3562800249645477  0.5703848861487799  0.5640031903595144
  0.5346786793797378  0.9846257454307334  0.9356221977569774
  0.5391889993459102  0.9870913959049190  0.6932764012360408
  0.6905057664767043  0.9068937366662837  0.8112288074307514
  0.6880751751145553  0.9025264779063917  0.5641857385759081
  0.8535184704620349  0.8220344347652357  0.6836336156212894
  0.1948399829325425  0.6489646751322624  0.6852769427823375
  0.0502805519421869  0.9706920505636134  0.6229148972703555
  0.2314090102987194  0.8888104159314452  0.7486640674017480
  0.3964736759741925  0.8077560482749462  0.6290997623087904
  0.5547498289657895  0.7288788404400819  0.7471254073756128
  0.3936100241376650  0.8073731706597513  0.8735205100355259
  0.5498575055047610  0.7270669254286943  0.5049546856225007
  0.8845218199504572  0.5517598718623944  0.7467280668133540
  0.7266797887407321  0.6356597606980969  0.8746053123503117
  0.8824358940856314  0.5514642611349032  0.5010696275200814
  0.5855332662707795  0.1814887460139545  0.3658908001807433
  0.5286347764489463  0.1699775238947936  0.1097777726378979
  0.7267598260184016  0.0802893462628163  0.4759367607872704
  0.7190866136959073  0.0749445228891119  0.2424762773884410
  0.8756889307838591  0.0020674337780449  0.3598071937473932
  0.0438603278950467  0.4126676001648377  0.4931304757833388
  0.8788380758193881  0.4952645589841680  0.1102765230071583
  0.0601680734966052  0.4129038257347375  0.2244754820501171
  0.2579124555895831  0.3451663677734587  0.3573585709489890
  0.3973689554400295  0.2579900686728962  0.4873648016058709
  0.2376524985640742  0.3329196140418347  0.1212522179765898
  0.3873888089904796  0.2485574786052993  0.2362841797031834
  0.2392949588364814  0.0645738083723302  0.1639731967635143
  0.2579786917932694  0.0662170494848908  0.4284805554524382
  0.4266445379384507  0.4809296879384064  0.2977584761682692
  0.4439695567421111  0.9990238989928457  0.0572367287547024
  0.5824437520406107  0.4038298322058509  0.1738178850615384
  0.7431349515406893  0.3283796457241408  0.2890866954419735
  0.5862693014095939  0.4029127426837036  0.4242379919994690
  0.7331918295258788  0.3208594606871173  0.0588874075911292
  0.8799393764093253  0.2390954712200184  0.1723743675451317
  0.0802860805220362  0.1343468073557048  0.2807027083408329
  0.9222480062964777  0.2290502474435527  0.4149494527447288
  0.0746804936199794  0.1409562520883227  0.0558081979100962
  0.5833875303461866  0.1812642304477023  0.8677487074177392
  0.5323005308127762  0.1718757466090537  0.6103571379787596
  0.7236653669327353  0.0786341502650743  0.9793847746514359
  0.7287871802024810  0.0815270856730592  0.7463367389954172
  0.8762134522144365  0.0023546195786253  0.8602834183571133
  0.0442536700384082  0.4125691305426216  0.9941109868136877
  0.8791908634359942  0.4951565659262798  0.6100346059125741
  0.0608095742928967  0.4113331815924113  0.7231466302869904
  0.2340646303308915  0.3342030234357907  0.8550789245401234
  0.3950170972715839  0.2574467827231146  0.9878889011014280
  0.2377997745838201  0.3317261073227655  0.6209292453208732
  0.3880803927201910  0.2489105989012188  0.7374473107244697
  0.2408967042516821  0.0655246567674084  0.6638958287555994
  0.2562496009469655  0.0633957901308406  0.9277334560164761
  0.4261317406405993  0.4793780098866378  0.7976102878182445
  0.4495430719101066  0.0017629591891932  0.5580430842547059
  0.5835811531220756  0.4032054193731440  0.6737897358214866
  0.7471343644992530  0.3273604852112939  0.7889955764298193
  0.5855103169906997  0.4022093752158895  0.9238148023372403
  0.7364811277898156  0.3208653487718465  0.5563845650283170
  0.8917753242514266  0.2379130467416957  0.6709935604147432
  0.0795184181753186  0.1415568789756847  0.7849607316402256
  0.9176605361654211  0.2288940352515425  0.9296261965639800
  0.0752924830055974  0.1415935195042408  0.5568962674995390
  0.5789451130785466  0.6802660851906808  0.3666258458814724
  0.5279947411317636  0.6703643318303421  0.1098581996272756
  0.7211644796393983  0.5783086941882374  0.4766924328772362
  0.7250937102701016  0.5799395601544433  0.2442900830603705
  0.8765362508267742  0.5033215597965182  0.3606432008045957
  0.0452062477772586  0.9133157624833075  0.4931843323710154
  0.8775875477763435  0.9939394714130216  0.1095973775886492
  0.0580073603460747  0.9110479812622145  0.2238947856998124
  0.2341656100383034  0.8351941110703365  0.3559085169771379
  0.3938945990396192  0.7576996320933489  0.4877074492982274
  0.2361095505445903  0.8326541327745147  0.1208427205703586
  0.3850268914622319  0.7486739016895498  0.2373351317787353
  0.2387581826274925  0.5654739602356926  0.1633257963236119
  0.2562340026393386  0.5641578568846342  0.4284962158036691
  0.4239848278968239  0.9795583316626733  0.2983494023036712
  0.4453165945742654  0.4994644259274565  0.0571892583895632
  0.5799259882967860  0.9018498350474431  0.1733002134575656
  0.7420650404145732  0.8262171143096353  0.2882361048404007
  0.5853445627876539  0.9028590064634869  0.4240403049478232
  0.7312123416164269  0.8199373741193696  0.0578937559601300
  0.8887292556983013  0.7377348642499868  0.1714105230533391
  0.0782185676684932  0.6415316692940252  0.2849909328804543
  0.9102671961312723  0.7281934314215661  0.4210086225116711
  0.0734652574508061  0.6419426851196377  0.0561726543493606
  0.5785621549313049  0.6797601881761324  0.8661535915401615
  0.5285195696517633  0.6704685845771365  0.6098939487480308
  0.7228367862994105  0.5787062078753351  0.9766472919189866
  0.7246658496046479  0.5792906696886106  0.7438591749317567
  0.8769114330710011  0.5026297774214896  0.8603591704630560
  0.0430933093691905  0.9123046888609849  0.9934930488313114
  0.8796116726161856  0.9952382178977430  0.6104009333030902
  0.0591587425491014  0.9113191556533877  0.7233501145298291
  0.2344334515760167  0.8352593097233481  0.8549369440586574
  0.3920117821475841  0.7564816369325840  0.9867900079145073
  0.2375597498354693  0.8336344639537003  0.6204759399522644
  0.3853610610350700  0.7489398029804377  0.7367075201728213
  0.2383178405797253  0.5652327503070822  0.6633587687078091
  0.2548230891318255  0.5624492441019555  0.9275250813086231
  0.4274953421487808  0.9807085098219090  0.7983394273280737
  0.4428600831275986  0.4985403677434377  0.5573501526297235
  0.5825713613412020  0.9041111144714407  0.6740234928210285
  0.7426694551028206  0.8266129352671641  0.7881549231542664
  0.5843250993676961  0.9020152457115032  0.9238145430512645
  0.7322481599993012  0.8207518902352149  0.5580002282418874
  0.8888945906455135  0.7378256605946305  0.6712800472180831
  0.0778176435878635  0.6411700408013274  0.7845724518633403
  0.9107913861205077  0.7281137183614277  0.9205732159563951
  0.0730927045389222  0.6423911488692866  0.5563065808282914
 
  0.00000000E+00  0.00000000E+00  0.00000000E+00
  0.00000000E+00  0.00000000E+00  0.00000000E+00
  0.00000000E+00  0.00000000E+00  0.00000000E+00
  0.00000000E+00  0.00000000E+00  0.00000000E+00
  0.00000000E+00  0.00000000E+00  0.00000000E+00
  0.00000000E+00  0.00000000E+00  0.00000000E+00
  0.00000000E+00  0.00000000E+00  0.00000000E+00
  0.00000000E+00  0.00000000E+00  0.00000000E+00
  0.00000000E+00  0.00000000E+00  0.00000000E+00
  0.00000000E+00  0.00000000E+00  0.00000000E+00
  0.00000000E+00  0.00000000E+00  0.00000000E+00
  0.00000000E+00  0.00000000E+00  0.00000000E+00
  0.00000000E+00  0.00000000E+00  0.00000000E+00
  0.00000000E+00  0.00000000E+00  0.00000000E+00
  0.00000000E+00  0.00000000E+00  0.00000000E+00
  0.00000000E+00  0.00000000E+00  0.00000000E+00
  0.00000000E+00  0.00000000E+00  0.00000000E+00
  0.00000000E+00  0.00000000E+00  0.00000000E+00
  0.00000000E+00  0.00000000E+00  0.00000000E+00
  0.00000000E+00  0.00000000E+00  0.00000000E+00
  0.00000000E+00  0.00000000E+00  0.00000000E+00
  0.00000000E+00  0.00000000E+00  0.00000000E+00
  0.00000000E+00  0.00000000E+00  0.00000000E+00
  0.00000000E+00  0.00000000E+00  0.00000000E+00
  0.00000000E+00  0.00000000E+00  0.00000000E+00
  0.00000000E+00  0.00000000E+00  0.00000000E+00
  0.00000000E+00  0.00000000E+00  0.00000000E+00
  0.00000000E+00  0.00000000E+00  0.00000000E+00
  0.00000000E+00  0.00000000E+00  0.00000000E+00
  0.00000000E+00  0.00000000E+00  0.00000000E+00
  0.00000000E+00  0.00000000E+00  0.00000000E+00
  0.00000000E+00  0.00000000E+00  0.00000000E+00
  0.00000000E+00  0.00000000E+00  0.00000000E+00
  0.00000000E+00  0.00000000E+00  0.00000000E+00
  0.00000000E+00  0.00000000E+00  0.00000000E+00
  0.00000000E+00  0.00000000E+00  0.00000000E+00
  0.00000000E+00  0.00000000E+00  0.00000000E+00
  0.00000000E+00  0.00000000E+00  0.00000000E+00
  0.00000000E+00  0.00000000E+00  0.00000000E+00
  0.00000000E+00  0.00000000E+00  0.00000000E+00
  0.00000000E+00  0.00000000E+00  0.00000000E+00
  0.00000000E+00  0.00000000E+00  0.00000000E+00
  0.00000000E+00  0.00000000E+00  0.00000000E+00
  0.00000000E+00  0.00000000E+00  0.00000000E+00
  0.00000000E+00  0.00000000E+00  0.00000000E+00
  0.00000000E+00  0.00000000E+00  0.00000000E+00
  0.00000000E+00  0.00000000E+00  0.00000000E+00
  0.00000000E+00  0.00000000E+00  0.00000000E+00
  0.00000000E+00  0.00000000E+00  0.00000000E+00
  0.00000000E+00  0.00000000E+00  0.00000000E+00
  0.00000000E+00  0.00000000E+00  0.00000000E+00
  0.00000000E+00  0.00000000E+00  0.00000000E+00
  0.00000000E+00  0.00000000E+00  0.00000000E+00
  0.00000000E+00  0.00000000E+00  0.00000000E+00
  0.00000000E+00  0.00000000E+00  0.00000000E+00
  0.00000000E+00  0.00000000E+00  0.00000000E+00
  0.00000000E+00  0.00000000E+00  0.00000000E+00
  0.00000000E+00  0.00000000E+00  0.00000000E+00
  0.00000000E+00  0.00000000E+00  0.00000000E+00
  0.00000000E+00  0.00000000E+00  0.00000000E+00
  0.00000000E+00  0.00000000E+00  0.00000000E+00
  0.00000000E+00  0.00000000E+00  0.00000000E+00
  0.00000000E+00  0.00000000E+00  0.00000000E+00
  0.00000000E+00  0.00000000E+00  0.00000000E+00
  0.00000000E+00  0.00000000E+00  0.00000000E+00
  0.00000000E+00  0.00000000E+00  0.00000000E+00
  0.00000000E+00  0.00000000E+00  0.00000000E+00
  0.00000000E+00  0.00000000E+00  0.00000000E+00
  0.00000000E+00  0.00000000E+00  0.00000000E+00
  0.00000000E+00  0.00000000E+00  0.00000000E+00
  0.00000000E+00  0.00000000E+00  0.00000000E+00
  0.00000000E+00  0.00000000E+00  0.00000000E+00
  0.00000000E+00  0.00000000E+00  0.00000000E+00
  0.00000000E+00  0.00000000E+00  0.00000000E+00
  0.00000000E+00  0.00000000E+00  0.00000000E+00
  0.00000000E+00  0.00000000E+00  0.00000000E+00
  0.00000000E+00  0.00000000E+00  0.00000000E+00
  0.00000000E+00  0.00000000E+00  0.00000000E+00
  0.00000000E+00  0.00000000E+00  0.00000000E+00
  0.00000000E+00  0.00000000E+00  0.00000000E+00
  0.00000000E+00  0.00000000E+00  0.00000000E+00
  0.00000000E+00  0.00000000E+00  0.00000000E+00
  0.00000000E+00  0.00000000E+00  0.00000000E+00
  0.00000000E+00  0.00000000E+00  0.00000000E+00
  0.00000000E+00  0.00000000E+00  0.00000000E+00
  0.00000000E+00  0.00000000E+00  0.00000000E+00
  0.00000000E+00  0.00000000E+00  0.00000000E+00
  0.00000000E+00  0.00000000E+00  0.00000000E+00
  0.00000000E+00  0.00000000E+00  0.00000000E+00
  0.00000000E+00  0.00000000E+00  0.00000000E+00
  0.00000000E+00  0.00000000E+00  0.00000000E+00
  0.00000000E+00  0.00000000E+00  0.00000000E+00
  0.00000000E+00  0.00000000E+00  0.00000000E+00
  0.00000000E+00  0.00000000E+00  0.00000000E+00
  0.00000000E+00  0.00000000E+00  0.00000000E+00
  0.00000000E+00  0.00000000E+00  0.00000000E+00
  0.00000000E+00  0.00000000E+00  0.00000000E+00
  0.00000000E+00  0.00000000E+00  0.00000000E+00
  0.00000000E+00  0.00000000E+00  0.00000000E+00
  0.00000000E+00  0.00000000E+00  0.00000000E+00
  0.00000000E+00  0.00000000E+00  0.00000000E+00
  0.00000000E+00  0.00000000E+00  0.00000000E+00
  0.00000000E+00  0.00000000E+00  0.00000000E+00
  0.00000000E+00  0.00000000E+00  0.00000000E+00
  0.00000000E+00  0.00000000E+00  0.00000000E+00
  0.00000000E+00  0.00000000E+00  0.00000000E+00
  0.00000000E+00  0.00000000E+00  0.00000000E+00
  0.00000000E+00  0.00000000E+00  0.00000000E+00
  0.00000000E+00  0.00000000E+00  0.00000000E+00
  0.00000000E+00  0.00000000E+00  0.00000000E+00
  0.00000000E+00  0.00000000E+00  0.00000000E+00
  0.00000000E+00  0.00000000E+00  0.00000000E+00
  0.00000000E+00  0.00000000E+00  0.00000000E+00
  0.00000000E+00  0.00000000E+00  0.00000000E+00
  0.00000000E+00  0.00000000E+00  0.00000000E+00
  0.00000000E+00  0.00000000E+00  0.00000000E+00
  0.00000000E+00  0.00000000E+00  0.00000000E+00
  0.00000000E+00  0.00000000E+00  0.00000000E+00
  0.00000000E+00  0.00000000E+00  0.00000000E+00
  0.00000000E+00  0.00000000E+00  0.00000000E+00
  0.00000000E+00  0.00000000E+00  0.00000000E+00
  0.00000000E+00  0.00000000E+00  0.00000000E+00
  0.00000000E+00  0.00000000E+00  0.00000000E+00
  0.00000000E+00  0.00000000E+00  0.00000000E+00
  0.00000000E+00  0.00000000E+00  0.00000000E+00
  0.00000000E+00  0.00000000E+00  0.00000000E+00
  0.00000000E+00  0.00000000E+00  0.00000000E+00
  0.00000000E+00  0.00000000E+00  0.00000000E+00
  0.00000000E+00  0.00000000E+00  0.00000000E+00
  0.00000000E+00  0.00000000E+00  0.00000000E+00
  0.00000000E+00  0.00000000E+00  0.00000000E+00
  0.00000000E+00  0.00000000E+00  0.00000000E+00
  0.00000000E+00  0.00000000E+00  0.00000000E+00
  0.00000000E+00  0.00000000E+00  0.00000000E+00
  0.00000000E+00  0.00000000E+00  0.00000000E+00
  0.00000000E+00  0.00000000E+00  0.00000000E+00
  0.00000000E+00  0.00000000E+00  0.00000000E+00
  0.00000000E+00  0.00000000E+00  0.00000000E+00
  0.00000000E+00  0.00000000E+00  0.00000000E+00
  0.00000000E+00  0.00000000E+00  0.00000000E+00
  0.00000000E+00  0.00000000E+00  0.00000000E+00
  0.00000000E+00  0.00000000E+00  0.00000000E+00
  0.00000000E+00  0.00000000E+00  0.00000000E+00
  0.00000000E+00  0.00000000E+00  0.00000000E+00
  0.00000000E+00  0.00000000E+00  0.00000000E+00
  0.00000000E+00  0.00000000E+00  0.00000000E+00
  0.00000000E+00  0.00000000E+00  0.00000000E+00
  0.00000000E+00  0.00000000E+00  0.00000000E+00
  0.00000000E+00  0.00000000E+00  0.00000000E+00
  0.00000000E+00  0.00000000E+00  0.00000000E+00
  0.00000000E+00  0.00000000E+00  0.00000000E+00
  0.00000000E+00  0.00000000E+00  0.00000000E+00
  0.00000000E+00  0.00000000E+00  0.00000000E+00
  0.00000000E+00  0.00000000E+00  0.00000000E+00
  0.00000000E+00  0.00000000E+00  0.00000000E+00
  0.00000000E+00  0.00000000E+00  0.00000000E+00
  0.00000000E+00  0.00000000E+00  0.00000000E+00
  0.00000000E+00  0.00000000E+00  0.00000000E+00
  0.00000000E+00  0.00000000E+00  0.00000000E+00
  0.00000000E+00  0.00000000E+00  0.00000000E+00
  0.00000000E+00  0.00000000E+00  0.00000000E+00
  0.00000000E+00  0.00000000E+00  0.00000000E+00
  0.00000000E+00  0.00000000E+00  0.00000000E+00
  0.00000000E+00  0.00000000E+00  0.00000000E+00
  0.00000000E+00  0.00000000E+00  0.00000000E+00
  0.00000000E+00  0.00000000E+00  0.00000000E+00
  0.00000000E+00  0.00000000E+00  0.00000000E+00
  0.00000000E+00  0.00000000E+00  0.00000000E+00
  0.00000000E+00  0.00000000E+00  0.00000000E+00
  0.00000000E+00  0.00000000E+00  0.00000000E+00
  0.00000000E+00  0.00000000E+00  0.00000000E+00
  0.00000000E+00  0.00000000E+00  0.00000000E+00
  0.00000000E+00  0.00000000E+00  0.00000000E+00
  0.00000000E+00  0.00000000E+00  0.00000000E+00
  0.00000000E+00  0.00000000E+00  0.00000000E+00
  0.00000000E+00  0.00000000E+00  0.00000000E+00
  0.00000000E+00  0.00000000E+00  0.00000000E+00
  0.00000000E+00  0.00000000E+00  0.00000000E+00
  0.00000000E+00  0.00000000E+00  0.00000000E+00
  0.00000000E+00  0.00000000E+00  0.00000000E+00
  0.00000000E+00  0.00000000E+00  0.00000000E+00
  0.00000000E+00  0.00000000E+00  0.00000000E+00
  0.00000000E+00  0.00000000E+00  0.00000000E+00
  0.00000000E+00  0.00000000E+00  0.00000000E+00
  0.00000000E+00  0.00000000E+00  0.00000000E+00
  0.00000000E+00  0.00000000E+00  0.00000000E+00
  0.00000000E+00  0.00000000E+00  0.00000000E+00
  0.00000000E+00  0.00000000E+00  0.00000000E+00
  0.00000000E+00  0.00000000E+00  0.00000000E+00
  0.00000000E+00  0.00000000E+00  0.00000000E+00
  0.00000000E+00  0.00000000E+00  0.00000000E+00
