supercell of POSCAR                     
   1.03228000000000     
     6.3970863126299999    5.5387332920799999    4.9397337979799998
   -15.9736979067999982   -5.5365852353599996    9.8547656895600007
     6.4026568282999996  -11.0930079636999999    0.0094448205590600
   Sc   Al   N    O 
    32    64    95     1
Direct
  0.3696038701621447  0.0694795151006815  0.3101951418560134
  0.8307660942314854  0.3077951152654634  0.4338532107068431
  0.0205656424873126  0.2301065201168981  0.3039171566958103
  0.1894978940846954  0.1478918188965963  0.4377364661069478
  0.0196643492822162  0.2305046032031584  0.0659984089793184
  0.0368493198245616  0.4623721189948924  0.3688135570323823
  0.2307877660314617  0.3915983395827780  0.0030100289610147
  0.6899709167934205  0.1282644063882969  0.1181931237954998
  0.3696594608543151  0.0694997507488893  0.8097354850700214
  0.8301911805797886  0.3071998898596036  0.9322587081611502
  0.0213182015243873  0.2305092627913723  0.8033065970530728
  0.1892528275124832  0.1479592689293767  0.9372047333035098
  0.0205286941248630  0.2312651095214022  0.5670558580897023
  0.0386913996648417  0.4627489715789324  0.8694333199575865
  0.2300159867168503  0.3919439006037990  0.5049566494597286
  0.6900683316245733  0.1286291532019845  0.6183697587443149
  0.3745913967502617  0.5723188218532016  0.3118811475786529
  0.8337443095670025  0.8087374644891057  0.4339558768683105
  0.0243786559618755  0.7319352234860617  0.3047130568720178
  0.1906156508856043  0.6480160800153456  0.4381403464784128
  0.0221198154972271  0.7319417414615259  0.0673286636584436
  0.0409958162223489  0.9635259589268017  0.3699468067687945
  0.2330643109726225  0.8924700013382889  0.0047175692161119
  0.6913922111858355  0.6294671196383348  0.1189827492502715
  0.3678645050257643  0.5692929582937012  0.8100567254044222
  0.8333677701034787  0.8085574878908730  0.9337321518826371
  0.0230779291764378  0.7313676808692477  0.8046534620985568
  0.1899117291060790  0.6481283034478906  0.9380195573936376
  0.0230984973835859  0.7323940907015682  0.5678032842433325
  0.0418871885832033  0.9639001736590203  0.8702102744925497
  0.2326896956986317  0.8923633228890822  0.5046443254101334
  0.6912160241627276  0.6293519441008186  0.6189058374612131
  0.3583569586527489  0.0715714442023696  0.0642690011545994
  0.5347849981750841  0.4850582107835493  0.4356573750211581
  0.5367869112083810  0.4860993325697862  0.1915888376912918
  0.6893620613226830  0.4072349714300216  0.3112583414720049
  0.6857556533708760  0.4021734361817551  0.0635405730829319
  0.8413514629350374  0.3169799241556319  0.1803614351589715
  0.1956090970712765  0.1487882065905453  0.1853443178821124
  0.0465999227535292  0.4717971079715184  0.1184822623659514
  0.2388317758715459  0.3867041646894123  0.2490281717534018
  0.3956260235054643  0.3067015787347316  0.1282766014992589
  0.5544382763149045  0.2289185957107591  0.2477809499990258
  0.3940836696217502  0.3074146832439126  0.3742314470535817
  0.5480388783930223  0.2265038951676601  0.0034425244924137
  0.8862542531959647  0.0518248010485607  0.2469289015450329
  0.7280575086262573  0.1359638199396400  0.3751051999450610
  0.8840259792427361  0.0506363785726265  0.0006818739268866
  0.3574877281542541  0.0711194239832551  0.5640105371080750
  0.5347402847335374  0.4849305735469684  0.9345452190312074
  0.5369033403621728  0.4859276084342454  0.6923346286959813
  0.6901934061774924  0.4069958576796182  0.8109431009947130
  0.6872515467899873  0.4023993782354935  0.5643214393587144
  0.8533284404910404  0.3218244074364449  0.6831943508237615
  0.1957068149131302  0.1488733802681139  0.6852767230713468
  0.0482637605346170  0.4705027008818448  0.6225112658382486
  0.2302946342613694  0.3883180310587164  0.7482016100216029
  0.3954405322606505  0.3071369998542011  0.6288472169880421
  0.5553915001898986  0.2293658382619199  0.7468412452330782
  0.3937567461541676  0.3076478580703252  0.8731814272390110
  0.5493543970004140  0.2271137478069889  0.5050456577774796
  0.8858372813767730  0.0518208112021128  0.7468292896326787
  0.7279073382038277  0.1356742330360916  0.8745795473290130
  0.8839236872652378  0.0510248094581840  0.5008414819744331
  0.3568862767636247  0.5706471507895614  0.0643712181594935
  0.5360898078363405  0.9849006829382319  0.4349056687791517
  0.5387709616462075  0.9861630956526710  0.1926180689254124
  0.6920848274076263  0.9073064369189368  0.3113937142443675
  0.6888486357548942  0.9022317221594420  0.0642330231309458
  0.8553187079610467  0.8222746451189948  0.1837389638551201
  0.1959840677472400  0.6492289483412677  0.1863285306548121
  0.0502890370760412  0.9703369945660256  0.1228440048490071
  0.2323763647972754  0.8886775000923919  0.2486748114130393
  0.3969923671459128  0.8072782774355289  0.1290007479120092
  0.5576690286511337  0.7302303691493677  0.2476150756907813
  0.3958176117435528  0.8080094253239665  0.3742278023642740
  0.5503851322928170  0.7270136626817987  0.0050081834058417
  0.8853164963326705  0.5525596772446804  0.2477906921317867
  0.7301428414638593  0.6367870300985103  0.3756789690298419
  0.8828769203366278  0.5513398086850287  0.0003838360850210
  0.3564866789472987  0.5705843674257878  0.5632121714537845
  0.5365450001387018  0.9849762840534950  0.9348350559745029
  0.5381811458922385  0.9858794065707031  0.6923479624141535
  0.6917844659006178  0.9068750210817171  0.8112007987728020
  0.6891921122009137  0.9026301810202213  0.5643914748469001
  0.8552643810715850  0.8222761124215054  0.6841715010104110
  0.1958681502193187  0.6491014180647525  0.6855410722365818
  0.0498442736619964  0.9703233460777341  0.6228802517874215
  0.2322981887712174  0.8886673633954771  0.7489877256461099
  0.3971693529416243  0.8073425012482289  0.6292412622767714
  0.5557899157280985  0.7290530386493259  0.7473981124528208
  0.3953365594806755  0.8078067555143420  0.8740654039731410
  0.5520598351184134  0.7281584055571884  0.5059718209118955
  0.8851780336308153  0.5521345330404941  0.7471267387088858
  0.7272958560707750  0.6359629810071468  0.8749803039769972
  0.8833732211144749  0.5513407753353476  0.5013888908600279
  0.5804242436420566  0.1810264664784000  0.3664578415734283
  0.5310291293272300  0.1718913568866114  0.1104745755320593
  0.7243142974307304  0.0791195049729652  0.4767649687107252
  0.7279453699612120  0.0805563947653027  0.2444272588171188
  0.8776704268188666  0.0027667345158164  0.3603385951080114
  0.0422449228083082  0.4126966170049968  0.4921251313147152
  0.8784178930384527  0.4946210394342856  0.1110035181656883
  0.2332576279191798  0.3354280965633478  0.3553607463625781
  0.3926995866345493  0.2572008707903208  0.4871926252912075
  0.2353825514336023  0.3325195014178064  0.1199588340988527
  0.3858451967044019  0.2493414987585609  0.2371005595947366
  0.2403452932066159  0.0655572983207904  0.1636231353717079
  0.2564372687271970  0.0631086518472301  0.4279363727880252
  0.4239378802915965  0.4799990271046823  0.2972561272006402
  0.4491243480702778  0.0013189512879705  0.0582555742524491
  0.5807585447980941  0.4033497793783170  0.1737621323119001
  0.7450075177753490  0.3278987766696702  0.2885187217676091
  0.5839180912343878  0.4023347091828953  0.4235602319450820
  0.7309080388116556  0.3207735801347766  0.0571843983443259
  0.8905657940808283  0.2389853636074903  0.1712725419566254
  0.0792972626964499  0.1415457467351615  0.2847610128415852
  0.9117090606968290  0.2286919693149301  0.4208416152644006
  0.0745250193049714  0.1418339003248548  0.0561247152459998
  0.5805020783092658  0.1808283223186180  0.8666069667754641
  0.5291438563151090  0.1709951797150211  0.6098942402888525
  0.7252502231860944  0.0793548807348898  0.9771334102586167
  0.7269281696622372  0.0799824545015397  0.7442542162505816
  0.8775889389878841  0.0024757830491637  0.8602368890571626
  0.0426858333906850  0.4115506546705419  0.9949573772926072
  0.8783555745131437  0.4950607667496811  0.6100691595728236
  0.0587122347494642  0.4113017647370469  0.7228352823780568
  0.2341435619405132  0.3352154910089524  0.8548638440001426
  0.3927348161116839  0.2572675952138042  0.9870741140206434
  0.2360733906924537  0.3327169367512823  0.6202906742984666
  0.3858547293565380  0.2490604253441617  0.7369221452543471
  0.2396145545348034  0.0652870746278253  0.6634916665345685
  0.2575989553435960  0.0637149208761727  0.9283028916209872
  0.4258617625153533  0.4801822760460510  0.7976796105580206
  0.4480710551557223  0.0007302730603698  0.5579594662970564
  0.5812769146062280  0.4033578389749835  0.6737020215239724
  0.7439349636594059  0.3271935171917804  0.7883825059912226
  0.5845635150265664  0.4024227229255857  0.9238852919423266
  0.7315450183194869  0.3207455292367740  0.5580297220221695
  0.8888851346089979  0.2378183015659729  0.6709477920683682
  0.0789637036155000  0.1413439217393417  0.7845922947554342
  0.9116617233305178  0.2282923886939443  0.9204442859533373
  0.0743494145015546  0.1420007130091960  0.5561572307215314
  0.5826759976977840  0.6815535550977927  0.3674062354425445
  0.5282585624255631  0.6703791550355831  0.1104711186337752
  0.7226440082248260  0.5786007481161093  0.4762950632809080
  0.7251572863275015  0.5795411809588558  0.2445284020361242
  0.8766289291020399  0.5022021448835048  0.3604703372787981
  0.0451074314357172  0.9125086042526149  0.4938301385260573
  0.8801904388467250  0.9950463820702495  0.1102806086232135
  0.0607009241333429  0.9114607497039344  0.2235681510895873
  0.2368542177543276  0.8359569062764791  0.3558082951643726
  0.3939044074445164  0.7569380193441191  0.4873275438925404
  0.2379100702653503  0.8329208820625666  0.1206792528857648
  0.3863802060465602  0.7486487988612325  0.2373327865761325
  0.2375004219755326  0.5635660241116440  0.1651872885598920
  0.2527923398791785  0.5603581019499799  0.4253483381055645
  0.4281240926643406  0.9806245662068633  0.2979184995033108
  0.4457228646737192  0.4997840473622404  0.0576003181773572
  0.5830536008738960  0.9035692327178992  0.1739355830069726
  0.7451600431571066  0.8272936457734517  0.2886182337974361
  0.5864080185013876  0.9025450298912574  0.4241151968022194
  0.7328539855196610  0.8203903878637107  0.0582463557786710
  0.8902350282534641  0.7378471006534113  0.1716331333859387
  0.0788135577027305  0.6412293128811015  0.2854681894506754
  0.9134800155544767  0.7286461174752006  0.4211690789265035
  0.0741315224000729  0.6414688735019354  0.0567808746395855
  0.5791005147505146  0.6798130981026844  0.8665195322237125
  0.5280766616566765  0.6703577729752439  0.6091861087219996
  0.7230124997703484  0.5787210019906581  0.9769874139628243
  0.7254838855990116  0.5797096172513534  0.7442087736153340
  0.8762513709892588  0.5023446310902884  0.8603824324477998
  0.0452193819167519  0.9124661405883998  0.9937160310388364
  0.8800655893216103  0.9952499873514498  0.6102144260475626
  0.0606454180834675  0.9115198985026254  0.7238784314248292
  0.2361344503233553  0.8356949426445723  0.8559097904857396
  0.3937090362351583  0.7569363458529139  0.9874612702931529
  0.2384832366102998  0.8332568417044257  0.6209801315676202
  0.3861680194879611  0.7488049194441402  0.7371270967181758
  0.2385268926049378  0.5648600570882181  0.6626596949628905
  0.2541194945354093  0.5620061254022346  0.9285060863760606
  0.4281052989932377  0.9806075757997164  0.7981695462230434
  0.4456595916483224  0.4997865142242048  0.5572486706219593
  0.5830855100168861  0.9034923178600707  0.6738940655737693
  0.7438804125170293  0.8265153409346269  0.7884314719834364
  0.5862747588866029  0.9025025708529810  0.9241559630263723
  0.7340055882398175  0.8211435363531976  0.5587124787131756
  0.8900701172872161  0.7378159390665431  0.6713835961389236
  0.0788699534602983  0.6411932272538508  0.7849446249123417
  0.9115984267393529  0.7279847219946660  0.9209354995926233
  0.0741542325894571  0.6418164872152801  0.5559153704549757
  0.0516170833153282  0.4090909005941867  0.2193370106520973
 
  0.00000000E+00  0.00000000E+00  0.00000000E+00
  0.00000000E+00  0.00000000E+00  0.00000000E+00
  0.00000000E+00  0.00000000E+00  0.00000000E+00
  0.00000000E+00  0.00000000E+00  0.00000000E+00
  0.00000000E+00  0.00000000E+00  0.00000000E+00
  0.00000000E+00  0.00000000E+00  0.00000000E+00
  0.00000000E+00  0.00000000E+00  0.00000000E+00
  0.00000000E+00  0.00000000E+00  0.00000000E+00
  0.00000000E+00  0.00000000E+00  0.00000000E+00
  0.00000000E+00  0.00000000E+00  0.00000000E+00
  0.00000000E+00  0.00000000E+00  0.00000000E+00
  0.00000000E+00  0.00000000E+00  0.00000000E+00
  0.00000000E+00  0.00000000E+00  0.00000000E+00
  0.00000000E+00  0.00000000E+00  0.00000000E+00
  0.00000000E+00  0.00000000E+00  0.00000000E+00
  0.00000000E+00  0.00000000E+00  0.00000000E+00
  0.00000000E+00  0.00000000E+00  0.00000000E+00
  0.00000000E+00  0.00000000E+00  0.00000000E+00
  0.00000000E+00  0.00000000E+00  0.00000000E+00
  0.00000000E+00  0.00000000E+00  0.00000000E+00
  0.00000000E+00  0.00000000E+00  0.00000000E+00
  0.00000000E+00  0.00000000E+00  0.00000000E+00
  0.00000000E+00  0.00000000E+00  0.00000000E+00
  0.00000000E+00  0.00000000E+00  0.00000000E+00
  0.00000000E+00  0.00000000E+00  0.00000000E+00
  0.00000000E+00  0.00000000E+00  0.00000000E+00
  0.00000000E+00  0.00000000E+00  0.00000000E+00
  0.00000000E+00  0.00000000E+00  0.00000000E+00
  0.00000000E+00  0.00000000E+00  0.00000000E+00
  0.00000000E+00  0.00000000E+00  0.00000000E+00
  0.00000000E+00  0.00000000E+00  0.00000000E+00
  0.00000000E+00  0.00000000E+00  0.00000000E+00
  0.00000000E+00  0.00000000E+00  0.00000000E+00
  0.00000000E+00  0.00000000E+00  0.00000000E+00
  0.00000000E+00  0.00000000E+00  0.00000000E+00
  0.00000000E+00  0.00000000E+00  0.00000000E+00
  0.00000000E+00  0.00000000E+00  0.00000000E+00
  0.00000000E+00  0.00000000E+00  0.00000000E+00
  0.00000000E+00  0.00000000E+00  0.00000000E+00
  0.00000000E+00  0.00000000E+00  0.00000000E+00
  0.00000000E+00  0.00000000E+00  0.00000000E+00
  0.00000000E+00  0.00000000E+00  0.00000000E+00
  0.00000000E+00  0.00000000E+00  0.00000000E+00
  0.00000000E+00  0.00000000E+00  0.00000000E+00
  0.00000000E+00  0.00000000E+00  0.00000000E+00
  0.00000000E+00  0.00000000E+00  0.00000000E+00
  0.00000000E+00  0.00000000E+00  0.00000000E+00
  0.00000000E+00  0.00000000E+00  0.00000000E+00
  0.00000000E+00  0.00000000E+00  0.00000000E+00
  0.00000000E+00  0.00000000E+00  0.00000000E+00
  0.00000000E+00  0.00000000E+00  0.00000000E+00
  0.00000000E+00  0.00000000E+00  0.00000000E+00
  0.00000000E+00  0.00000000E+00  0.00000000E+00
  0.00000000E+00  0.00000000E+00  0.00000000E+00
  0.00000000E+00  0.00000000E+00  0.00000000E+00
  0.00000000E+00  0.00000000E+00  0.00000000E+00
  0.00000000E+00  0.00000000E+00  0.00000000E+00
  0.00000000E+00  0.00000000E+00  0.00000000E+00
  0.00000000E+00  0.00000000E+00  0.00000000E+00
  0.00000000E+00  0.00000000E+00  0.00000000E+00
  0.00000000E+00  0.00000000E+00  0.00000000E+00
  0.00000000E+00  0.00000000E+00  0.00000000E+00
  0.00000000E+00  0.00000000E+00  0.00000000E+00
  0.00000000E+00  0.00000000E+00  0.00000000E+00
  0.00000000E+00  0.00000000E+00  0.00000000E+00
  0.00000000E+00  0.00000000E+00  0.00000000E+00
  0.00000000E+00  0.00000000E+00  0.00000000E+00
  0.00000000E+00  0.00000000E+00  0.00000000E+00
  0.00000000E+00  0.00000000E+00  0.00000000E+00
  0.00000000E+00  0.00000000E+00  0.00000000E+00
  0.00000000E+00  0.00000000E+00  0.00000000E+00
  0.00000000E+00  0.00000000E+00  0.00000000E+00
  0.00000000E+00  0.00000000E+00  0.00000000E+00
  0.00000000E+00  0.00000000E+00  0.00000000E+00
  0.00000000E+00  0.00000000E+00  0.00000000E+00
  0.00000000E+00  0.00000000E+00  0.00000000E+00
  0.00000000E+00  0.00000000E+00  0.00000000E+00
  0.00000000E+00  0.00000000E+00  0.00000000E+00
  0.00000000E+00  0.00000000E+00  0.00000000E+00
  0.00000000E+00  0.00000000E+00  0.00000000E+00
  0.00000000E+00  0.00000000E+00  0.00000000E+00
  0.00000000E+00  0.00000000E+00  0.00000000E+00
  0.00000000E+00  0.00000000E+00  0.00000000E+00
  0.00000000E+00  0.00000000E+00  0.00000000E+00
  0.00000000E+00  0.00000000E+00  0.00000000E+00
  0.00000000E+00  0.00000000E+00  0.00000000E+00
  0.00000000E+00  0.00000000E+00  0.00000000E+00
  0.00000000E+00  0.00000000E+00  0.00000000E+00
  0.00000000E+00  0.00000000E+00  0.00000000E+00
  0.00000000E+00  0.00000000E+00  0.00000000E+00
  0.00000000E+00  0.00000000E+00  0.00000000E+00
  0.00000000E+00  0.00000000E+00  0.00000000E+00
  0.00000000E+00  0.00000000E+00  0.00000000E+00
  0.00000000E+00  0.00000000E+00  0.00000000E+00
  0.00000000E+00  0.00000000E+00  0.00000000E+00
  0.00000000E+00  0.00000000E+00  0.00000000E+00
  0.00000000E+00  0.00000000E+00  0.00000000E+00
  0.00000000E+00  0.00000000E+00  0.00000000E+00
  0.00000000E+00  0.00000000E+00  0.00000000E+00
  0.00000000E+00  0.00000000E+00  0.00000000E+00
  0.00000000E+00  0.00000000E+00  0.00000000E+00
  0.00000000E+00  0.00000000E+00  0.00000000E+00
  0.00000000E+00  0.00000000E+00  0.00000000E+00
  0.00000000E+00  0.00000000E+00  0.00000000E+00
  0.00000000E+00  0.00000000E+00  0.00000000E+00
  0.00000000E+00  0.00000000E+00  0.00000000E+00
  0.00000000E+00  0.00000000E+00  0.00000000E+00
  0.00000000E+00  0.00000000E+00  0.00000000E+00
  0.00000000E+00  0.00000000E+00  0.00000000E+00
  0.00000000E+00  0.00000000E+00  0.00000000E+00
  0.00000000E+00  0.00000000E+00  0.00000000E+00
  0.00000000E+00  0.00000000E+00  0.00000000E+00
  0.00000000E+00  0.00000000E+00  0.00000000E+00
  0.00000000E+00  0.00000000E+00  0.00000000E+00
  0.00000000E+00  0.00000000E+00  0.00000000E+00
  0.00000000E+00  0.00000000E+00  0.00000000E+00
  0.00000000E+00  0.00000000E+00  0.00000000E+00
  0.00000000E+00  0.00000000E+00  0.00000000E+00
  0.00000000E+00  0.00000000E+00  0.00000000E+00
  0.00000000E+00  0.00000000E+00  0.00000000E+00
  0.00000000E+00  0.00000000E+00  0.00000000E+00
  0.00000000E+00  0.00000000E+00  0.00000000E+00
  0.00000000E+00  0.00000000E+00  0.00000000E+00
  0.00000000E+00  0.00000000E+00  0.00000000E+00
  0.00000000E+00  0.00000000E+00  0.00000000E+00
  0.00000000E+00  0.00000000E+00  0.00000000E+00
  0.00000000E+00  0.00000000E+00  0.00000000E+00
  0.00000000E+00  0.00000000E+00  0.00000000E+00
  0.00000000E+00  0.00000000E+00  0.00000000E+00
  0.00000000E+00  0.00000000E+00  0.00000000E+00
  0.00000000E+00  0.00000000E+00  0.00000000E+00
  0.00000000E+00  0.00000000E+00  0.00000000E+00
  0.00000000E+00  0.00000000E+00  0.00000000E+00
  0.00000000E+00  0.00000000E+00  0.00000000E+00
  0.00000000E+00  0.00000000E+00  0.00000000E+00
  0.00000000E+00  0.00000000E+00  0.00000000E+00
  0.00000000E+00  0.00000000E+00  0.00000000E+00
  0.00000000E+00  0.00000000E+00  0.00000000E+00
  0.00000000E+00  0.00000000E+00  0.00000000E+00
  0.00000000E+00  0.00000000E+00  0.00000000E+00
  0.00000000E+00  0.00000000E+00  0.00000000E+00
  0.00000000E+00  0.00000000E+00  0.00000000E+00
  0.00000000E+00  0.00000000E+00  0.00000000E+00
  0.00000000E+00  0.00000000E+00  0.00000000E+00
  0.00000000E+00  0.00000000E+00  0.00000000E+00
  0.00000000E+00  0.00000000E+00  0.00000000E+00
  0.00000000E+00  0.00000000E+00  0.00000000E+00
  0.00000000E+00  0.00000000E+00  0.00000000E+00
  0.00000000E+00  0.00000000E+00  0.00000000E+00
  0.00000000E+00  0.00000000E+00  0.00000000E+00
  0.00000000E+00  0.00000000E+00  0.00000000E+00
  0.00000000E+00  0.00000000E+00  0.00000000E+00
  0.00000000E+00  0.00000000E+00  0.00000000E+00
  0.00000000E+00  0.00000000E+00  0.00000000E+00
  0.00000000E+00  0.00000000E+00  0.00000000E+00
  0.00000000E+00  0.00000000E+00  0.00000000E+00
  0.00000000E+00  0.00000000E+00  0.00000000E+00
  0.00000000E+00  0.00000000E+00  0.00000000E+00
  0.00000000E+00  0.00000000E+00  0.00000000E+00
  0.00000000E+00  0.00000000E+00  0.00000000E+00
  0.00000000E+00  0.00000000E+00  0.00000000E+00
  0.00000000E+00  0.00000000E+00  0.00000000E+00
  0.00000000E+00  0.00000000E+00  0.00000000E+00
  0.00000000E+00  0.00000000E+00  0.00000000E+00
  0.00000000E+00  0.00000000E+00  0.00000000E+00
  0.00000000E+00  0.00000000E+00  0.00000000E+00
  0.00000000E+00  0.00000000E+00  0.00000000E+00
  0.00000000E+00  0.00000000E+00  0.00000000E+00
  0.00000000E+00  0.00000000E+00  0.00000000E+00
  0.00000000E+00  0.00000000E+00  0.00000000E+00
  0.00000000E+00  0.00000000E+00  0.00000000E+00
  0.00000000E+00  0.00000000E+00  0.00000000E+00
  0.00000000E+00  0.00000000E+00  0.00000000E+00
  0.00000000E+00  0.00000000E+00  0.00000000E+00
  0.00000000E+00  0.00000000E+00  0.00000000E+00
  0.00000000E+00  0.00000000E+00  0.00000000E+00
  0.00000000E+00  0.00000000E+00  0.00000000E+00
  0.00000000E+00  0.00000000E+00  0.00000000E+00
  0.00000000E+00  0.00000000E+00  0.00000000E+00
  0.00000000E+00  0.00000000E+00  0.00000000E+00
  0.00000000E+00  0.00000000E+00  0.00000000E+00
  0.00000000E+00  0.00000000E+00  0.00000000E+00
  0.00000000E+00  0.00000000E+00  0.00000000E+00
  0.00000000E+00  0.00000000E+00  0.00000000E+00
  0.00000000E+00  0.00000000E+00  0.00000000E+00
  0.00000000E+00  0.00000000E+00  0.00000000E+00
  0.00000000E+00  0.00000000E+00  0.00000000E+00
  0.00000000E+00  0.00000000E+00  0.00000000E+00
  0.00000000E+00  0.00000000E+00  0.00000000E+00
  0.00000000E+00  0.00000000E+00  0.00000000E+00
  0.00000000E+00  0.00000000E+00  0.00000000E+00
  0.00000000E+00  0.00000000E+00  0.00000000E+00
