supercell of POSCAR                     
   1.03228000000000     
     6.3970863126299999    5.5387332920799999    4.9397337979799998
   -15.9736979067999982   -5.5365852353599996    9.8547656895600007
     6.4026568282999996  -11.0930079636999999    0.0094448205590600
   Sc   Al   N 
    32    64    95
Direct
  0.3578489103302402  0.0688026294444768  0.3190911578851612
  0.8303561678832310  0.3082023657267356  0.4335316190278959
  0.0205096287047439  0.2333103166963824  0.3046635091073640
  0.1902451558517626  0.1510492775577035  0.4313323908311801
  0.0216490613882669  0.2306124670356837  0.0674761863150266
  0.0388959614380155  0.4634568306011744  0.3696647504943371
  0.2284543027269166  0.3906332929584906  0.0030009876683508
  0.6913494628038634  0.1289219612755161  0.1192009645854029
  0.3706863549249917  0.0693349726124808  0.8082815531001515
  0.8315984840632638  0.3078872838877871  0.9325214982332852
  0.0208823751340645  0.2293666743018363  0.8029087046318182
  0.1922771939482644  0.1479898776045232  0.9371814634482050
  0.0189241227560260  0.2288055361929722  0.5652625550049635
  0.0388114856227659  0.4634244077480290  0.8690729034361837
  0.2294050726154424  0.3913934921222975  0.5047128925523197
  0.6879467253537257  0.1269074616964332  0.6183055666702089
  0.3667664923426770  0.5692302355544996  0.3096700636279763
  0.8322493130984299  0.8089274201493240  0.4329826305791542
  0.0234926094100345  0.7325308291498374  0.3054998846906756
  0.1889518467203288  0.6485948906077965  0.4379677442611012
  0.0229915030489423  0.7331870401616456  0.0683786816664238
  0.0560222104613075  0.9703783469925753  0.3770463521846779
  0.2341420004778740  0.8930265745750177  0.0058848712480994
  0.6911737404970992  0.6296811813123639  0.1188476227702751
  0.3682761882557060  0.5695255791002793  0.8100396413521125
  0.8343965507371394  0.8091519696299656  0.9354994161752117
  0.0231142122960790  0.7317133629382440  0.8045260102293668
  0.1899371104237488  0.6487468261391953  0.9382497249623825
  0.0232862576750179  0.7340478756781792  0.5667808546079343
  0.0436835893997980  0.9639336151078908  0.8718198774429311
  0.2367425461051340  0.8973831192272002  0.5040048872846654
  0.6909347572071241  0.6291596645640993  0.6185182414341810
  0.3597730133987085  0.0715347839859817  0.0654002852445643
  0.5332255133006925  0.4845827931637388  0.4342969165854242
  0.5356069309494131  0.4856534793326901  0.1912963968745771
  0.6900718155636625  0.4070203534660948  0.3106558932519476
  0.6868638256747772  0.4022938301254939  0.0633353922862270
  0.8528059228570157  0.3221357523331676  0.1829220494021442
  0.1971325090870124  0.1488911578642700  0.1862909872292846
  0.0477510777555352  0.4703039543289478  0.1219830151611276
  0.2300410772451826  0.3886962460639012  0.2477480114472570
  0.3958934857435992  0.3070181581880433  0.1285021383908287
  0.5543844449784459  0.2282359886194527  0.2475010511895164
  0.3940781515508291  0.3085816166621953  0.3730176532373974
  0.5506948450063618  0.2271087864092252  0.0045201928408432
  0.8877402478339746  0.0526951126400022  0.2479536526221366
  0.7248599436949448  0.1355801120893148  0.3742746144712825
  0.8861025941016294  0.0511273513334771  0.0013906529256289
  0.3535257466535811  0.0667705010126198  0.5546301708827244
  0.5334557121564529  0.4845072498721024  0.9343811035378593
  0.5360919271726203  0.4858760751508626  0.6922260874904467
  0.6894528010690166  0.4065095044684952  0.8104289564424008
  0.6858199930348050  0.4017503458902780  0.5635321088010983
  0.8525947300469099  0.3209579545830934  0.6823839320626988
  0.1972654646276837  0.1478282197657848  0.6830011301545866
  0.0477275145378968  0.4701626020314507  0.6225131704533027
  0.2285493273346049  0.3873696763056671  0.7478394708303640
  0.3944479189231274  0.3069238249473827  0.6280238453727804
  0.5548660179828460  0.2283201636519649  0.7449334806195438
  0.3936492692230331  0.3071186222084776  0.8727325487161366
  0.5461629872454097  0.2258637494656384  0.5019817932384498
  0.8884036825859027  0.0518446034716575  0.7475894816527031
  0.7303417096206886  0.1364588528626669  0.8760324573329896
  0.8853292675531605  0.0505776420271218  0.5003308966472844
  0.3559106672331964  0.5705885047162695  0.0634638929143492
  0.5385759611154697  0.9854953726473141  0.4357058350044909
  0.5386769175537225  0.9869280866082661  0.1941046608007824
  0.6941066256222683  0.9072438499633577  0.3117532509975973
  0.6898575912386988  0.9030197783394698  0.0655040626632157
  0.8560577748234479  0.8237434552129344  0.1866175057602248
  0.1944475219952579  0.6492345598177280  0.1854020094416455
  0.0526224165185454  0.9719272135371000  0.1263556132530823
  0.2346171814783062  0.8905567194332136  0.2522776032283645
  0.3974203800180476  0.8081251248685746  0.1303068660044460
  0.5540104952273950  0.7286810961019796  0.2473251948816113
  0.3957418704839526  0.8082997503844283  0.3746812412904603
  0.5509028119054591  0.7276263103888851  0.0060295218216382
  0.8842264350766484  0.5522929960274752  0.2467490545777338
  0.7256328398515777  0.6355695736216589  0.3745385885786803
  0.8822356235973672  0.5512555398920185  0.0004029599668058
  0.3563561203939116  0.5710078966254812  0.5641569427143907
  0.5378048227009842  0.9854613110807620  0.9360079735179525
  0.5432481311239101  0.9861770130579472  0.6948522507806842
  0.6932666464731483  0.9067444166079852  0.8123337545629283
  0.6891393337841336  0.9021391424845788  0.5647266949298597
  0.8547924545178276  0.8220229565126544  0.6842464863987061
  0.1948431207690220  0.6493208220229718  0.6855118867382757
  0.0489988225752853  0.9694949847953964  0.6231280799840633
  0.2334334848324104  0.8890290650271098  0.7487669661492049
  0.3968093864043709  0.8079424639599679  0.6291857565479262
  0.5561108841763911  0.7293701064281350  0.7481474958636696
  0.3957841439620822  0.8082766711089775  0.8745888776400932
  0.5497981523068063  0.7268639129508045  0.5052129958318332
  0.8843189617218030  0.5519986438530253  0.7469210435450506
  0.7274977439996135  0.6362656578035697  0.8753124122869096
  0.8821357980325217  0.5514142789081120  0.5006382320662439
  0.5779939983314222  0.1794636997260071  0.3654470362045856
  0.5306498023084742  0.1714358472323596  0.1097477389506807
  0.7273850758377662  0.0797708283824790  0.4772362921649460
  0.7275854863789277  0.0802677062125809  0.2446936212387101
  0.8792955581806723  0.0024657072167500  0.3604701290412748
  0.0426383796452399  0.4123908119905764  0.4934341594347984
  0.8779743077363378  0.4952721828113624  0.1097430717756254
  0.0586266731013438  0.4117477089423716  0.2230087611232534
  0.2353779838527146  0.3369683176400571  0.3554598294063638
  0.3936490066907083  0.2592715077726382  0.4868933501482857
  0.2364034598481553  0.3326273719008412  0.1203210695941408
  0.3864721979125889  0.2495373956728102  0.2368409760118482
  0.2431199508102182  0.0658855895600965  0.1648431639766130
  0.4255161752773517  0.4804311036857456  0.2970698280371664
  0.4496016811739807  0.0008745255876619  0.0581556132291681
  0.5813433578180494  0.4034939359764493  0.1731681830856218
  0.7430993854880228  0.3270100541315486  0.2880605543020209
  0.5848686439336390  0.4028619053611919  0.4233084820967079
  0.7322720887125911  0.3210520678596893  0.0572252768943642
  0.8887967545333950  0.2383897062965019  0.1699278286853882
  0.0757471251033337  0.1446520986562660  0.2818600120804646
  0.9093144461208098  0.2284854143499331  0.4209837351367014
  0.0770401548096729  0.1415436962502525  0.0552410587444498
  0.5814279061993020  0.1804302879975737  0.8657250923025046
  0.5256294630776139  0.1690320167645467  0.6062630758898138
  0.7267367635467821  0.0794541500595045  0.9778499053217686
  0.7318201219660878  0.0809989956265653  0.7468970196173856
  0.8789494818792321  0.0021279691679652  0.8608990871646185
  0.0426794371918575  0.4123984046529330  0.9928451928712292
  0.8776381523940131  0.4949886719600727  0.6099249787204712
  0.0577307803472209  0.4108586341578402  0.7228700636124046
  0.2336704889290715  0.3344617295791181  0.8545934104523738
  0.3942410679812127  0.2573299352771983  0.9868911311767405
  0.2340294359894557  0.3316174434445429  0.6203379890339278
  0.3861828491770467  0.2485438592951965  0.7359963603180972
  0.2400891722996548  0.0636753949437860  0.6605039782999498
  0.2594127469088434  0.0630783207900407  0.9279697882975313
  0.4245055174244143  0.4797476496358755  0.7973133487574344
  0.4605091891791773  0.0011441113181121  0.5630136455667625
  0.5806293870992434  0.4034447418931890  0.6736122999136640
  0.7425565266592287  0.3263915902111378  0.7872642863241666
  0.5839284497759607  0.4021715304945914  0.9231481757942959
  0.7297629761312692  0.3199551955974300  0.5575860134796145
  0.8885906445624556  0.2369578286214846  0.6706719780005699
  0.0818431389334080  0.1409000812195629  0.7838793860373912
  0.9141671399241744  0.2291462014011287  0.9216300776317041
  0.0769209550572540  0.1401526526974237  0.5537139191679543
  0.5769214011802148  0.6793103332906085  0.3663883701112951
  0.5278062715388572  0.6702091308442135  0.1097984994431798
  0.7212343756016324  0.5783402000825433  0.4762052703419855
  0.7240122431291809  0.5794776464398979  0.2435313057201114
  0.8758057494016711  0.5027984879534770  0.3600279390337633
  0.0397356936845554  0.9107489818013406  0.4944458354229155
  0.8810847818829401  0.9956119321880763  0.1109633696364298
  0.0624023331457337  0.9132520699669939  0.2275743940746864
  0.2367736047378131  0.8358399036219097  0.3570005333654009
  0.3934874493825831  0.7570697107634388  0.4877919496565468
  0.2385395461289619  0.8341094261887108  0.1225518483440595
  0.3846513440211652  0.7486844345409054  0.2371757612655614
  0.2375275680894902  0.5651947763030307  0.1627996576498418
  0.2543715215719402  0.5630849986360076  0.4282908921317414
  0.4297721444104852  0.9815971970161996  0.2996119075913981
  0.4441647162561964  0.4993571222525262  0.0566731589282199
  0.5834943653937685  0.9040505706237099  0.1746975328632061
  0.7397999185979245  0.8251081661362178  0.2874354047323635
  0.5876042898651548  0.9023333474236210  0.4243626553079665
  0.7336100180775205  0.8210602553859871  0.0596110832169998
  0.8900963158229516  0.7386799099487220  0.1718669271240785
  0.0775765903020513  0.6416345789712139  0.2848238675903332
  0.9088555490078249  0.7273920118017472  0.4199815571570582
  0.0728557922716746  0.6422082843680528  0.0559466260167980
  0.5793873916461081  0.6803100534203921  0.8672967089454957
  0.5287801346715639  0.6705850388731491  0.6106460228031381
  0.7217265723757009  0.5785924702587621  0.9764950976412692
  0.7248829693999710  0.5798594959190382  0.7443507003408314
  0.8749617275740675  0.5022461416457773  0.8598866330573571
  0.0460190084058638  0.9128588947567593  0.9962831819699431
  0.8798681807270228  0.9947974428607793  0.6107768804012252
  0.0604472746044635  0.9112697746965992  0.7249434394581797
  0.2362994340993509  0.8359576166183018  0.8561565474229340
  0.3938909647148421  0.7575522583737069  0.9881552066792665
  0.2391635542127091  0.8346849634716946  0.6199523428156724
  0.3859039731830052  0.7490521740016760  0.7374846620874962
  0.2377682444762428  0.5651989711550627  0.6634628689295710
  0.2543417631348248  0.5628999437500966  0.9275253026097019
  0.4299745655947262  0.9807008908574204  0.7989382307905686
  0.4450980714800323  0.4999477347807257  0.5576617031507851
  0.5848764165003999  0.9028680874064108  0.6755710666275263
  0.7448609410142879  0.8263205578258450  0.7896143762994186
  0.5870821965264952  0.9026051113168663  0.9248332644983108
  0.7322656869416093  0.8200185612282525  0.5587697322551577
  0.8901894413576272  0.7377743321757464  0.6712291590526718
  0.0780425695397611  0.6413127723242766  0.7851200866470762
  0.9119110483925823  0.7282777558563822  0.9212032190349717
  0.0728863891267011  0.6427021651057814  0.5564462477713761
 
  0.00000000E+00  0.00000000E+00  0.00000000E+00
  0.00000000E+00  0.00000000E+00  0.00000000E+00
  0.00000000E+00  0.00000000E+00  0.00000000E+00
  0.00000000E+00  0.00000000E+00  0.00000000E+00
  0.00000000E+00  0.00000000E+00  0.00000000E+00
  0.00000000E+00  0.00000000E+00  0.00000000E+00
  0.00000000E+00  0.00000000E+00  0.00000000E+00
  0.00000000E+00  0.00000000E+00  0.00000000E+00
  0.00000000E+00  0.00000000E+00  0.00000000E+00
  0.00000000E+00  0.00000000E+00  0.00000000E+00
  0.00000000E+00  0.00000000E+00  0.00000000E+00
  0.00000000E+00  0.00000000E+00  0.00000000E+00
  0.00000000E+00  0.00000000E+00  0.00000000E+00
  0.00000000E+00  0.00000000E+00  0.00000000E+00
  0.00000000E+00  0.00000000E+00  0.00000000E+00
  0.00000000E+00  0.00000000E+00  0.00000000E+00
  0.00000000E+00  0.00000000E+00  0.00000000E+00
  0.00000000E+00  0.00000000E+00  0.00000000E+00
  0.00000000E+00  0.00000000E+00  0.00000000E+00
  0.00000000E+00  0.00000000E+00  0.00000000E+00
  0.00000000E+00  0.00000000E+00  0.00000000E+00
  0.00000000E+00  0.00000000E+00  0.00000000E+00
  0.00000000E+00  0.00000000E+00  0.00000000E+00
  0.00000000E+00  0.00000000E+00  0.00000000E+00
  0.00000000E+00  0.00000000E+00  0.00000000E+00
  0.00000000E+00  0.00000000E+00  0.00000000E+00
  0.00000000E+00  0.00000000E+00  0.00000000E+00
  0.00000000E+00  0.00000000E+00  0.00000000E+00
  0.00000000E+00  0.00000000E+00  0.00000000E+00
  0.00000000E+00  0.00000000E+00  0.00000000E+00
  0.00000000E+00  0.00000000E+00  0.00000000E+00
  0.00000000E+00  0.00000000E+00  0.00000000E+00
  0.00000000E+00  0.00000000E+00  0.00000000E+00
  0.00000000E+00  0.00000000E+00  0.00000000E+00
  0.00000000E+00  0.00000000E+00  0.00000000E+00
  0.00000000E+00  0.00000000E+00  0.00000000E+00
  0.00000000E+00  0.00000000E+00  0.00000000E+00
  0.00000000E+00  0.00000000E+00  0.00000000E+00
  0.00000000E+00  0.00000000E+00  0.00000000E+00
  0.00000000E+00  0.00000000E+00  0.00000000E+00
  0.00000000E+00  0.00000000E+00  0.00000000E+00
  0.00000000E+00  0.00000000E+00  0.00000000E+00
  0.00000000E+00  0.00000000E+00  0.00000000E+00
  0.00000000E+00  0.00000000E+00  0.00000000E+00
  0.00000000E+00  0.00000000E+00  0.00000000E+00
  0.00000000E+00  0.00000000E+00  0.00000000E+00
  0.00000000E+00  0.00000000E+00  0.00000000E+00
  0.00000000E+00  0.00000000E+00  0.00000000E+00
  0.00000000E+00  0.00000000E+00  0.00000000E+00
  0.00000000E+00  0.00000000E+00  0.00000000E+00
  0.00000000E+00  0.00000000E+00  0.00000000E+00
  0.00000000E+00  0.00000000E+00  0.00000000E+00
  0.00000000E+00  0.00000000E+00  0.00000000E+00
  0.00000000E+00  0.00000000E+00  0.00000000E+00
  0.00000000E+00  0.00000000E+00  0.00000000E+00
  0.00000000E+00  0.00000000E+00  0.00000000E+00
  0.00000000E+00  0.00000000E+00  0.00000000E+00
  0.00000000E+00  0.00000000E+00  0.00000000E+00
  0.00000000E+00  0.00000000E+00  0.00000000E+00
  0.00000000E+00  0.00000000E+00  0.00000000E+00
  0.00000000E+00  0.00000000E+00  0.00000000E+00
  0.00000000E+00  0.00000000E+00  0.00000000E+00
  0.00000000E+00  0.00000000E+00  0.00000000E+00
  0.00000000E+00  0.00000000E+00  0.00000000E+00
  0.00000000E+00  0.00000000E+00  0.00000000E+00
  0.00000000E+00  0.00000000E+00  0.00000000E+00
  0.00000000E+00  0.00000000E+00  0.00000000E+00
  0.00000000E+00  0.00000000E+00  0.00000000E+00
  0.00000000E+00  0.00000000E+00  0.00000000E+00
  0.00000000E+00  0.00000000E+00  0.00000000E+00
  0.00000000E+00  0.00000000E+00  0.00000000E+00
  0.00000000E+00  0.00000000E+00  0.00000000E+00
  0.00000000E+00  0.00000000E+00  0.00000000E+00
  0.00000000E+00  0.00000000E+00  0.00000000E+00
  0.00000000E+00  0.00000000E+00  0.00000000E+00
  0.00000000E+00  0.00000000E+00  0.00000000E+00
  0.00000000E+00  0.00000000E+00  0.00000000E+00
  0.00000000E+00  0.00000000E+00  0.00000000E+00
  0.00000000E+00  0.00000000E+00  0.00000000E+00
  0.00000000E+00  0.00000000E+00  0.00000000E+00
  0.00000000E+00  0.00000000E+00  0.00000000E+00
  0.00000000E+00  0.00000000E+00  0.00000000E+00
  0.00000000E+00  0.00000000E+00  0.00000000E+00
  0.00000000E+00  0.00000000E+00  0.00000000E+00
  0.00000000E+00  0.00000000E+00  0.00000000E+00
  0.00000000E+00  0.00000000E+00  0.00000000E+00
  0.00000000E+00  0.00000000E+00  0.00000000E+00
  0.00000000E+00  0.00000000E+00  0.00000000E+00
  0.00000000E+00  0.00000000E+00  0.00000000E+00
  0.00000000E+00  0.00000000E+00  0.00000000E+00
  0.00000000E+00  0.00000000E+00  0.00000000E+00
  0.00000000E+00  0.00000000E+00  0.00000000E+00
  0.00000000E+00  0.00000000E+00  0.00000000E+00
  0.00000000E+00  0.00000000E+00  0.00000000E+00
  0.00000000E+00  0.00000000E+00  0.00000000E+00
  0.00000000E+00  0.00000000E+00  0.00000000E+00
  0.00000000E+00  0.00000000E+00  0.00000000E+00
  0.00000000E+00  0.00000000E+00  0.00000000E+00
  0.00000000E+00  0.00000000E+00  0.00000000E+00
  0.00000000E+00  0.00000000E+00  0.00000000E+00
  0.00000000E+00  0.00000000E+00  0.00000000E+00
  0.00000000E+00  0.00000000E+00  0.00000000E+00
  0.00000000E+00  0.00000000E+00  0.00000000E+00
  0.00000000E+00  0.00000000E+00  0.00000000E+00
  0.00000000E+00  0.00000000E+00  0.00000000E+00
  0.00000000E+00  0.00000000E+00  0.00000000E+00
  0.00000000E+00  0.00000000E+00  0.00000000E+00
  0.00000000E+00  0.00000000E+00  0.00000000E+00
  0.00000000E+00  0.00000000E+00  0.00000000E+00
  0.00000000E+00  0.00000000E+00  0.00000000E+00
  0.00000000E+00  0.00000000E+00  0.00000000E+00
  0.00000000E+00  0.00000000E+00  0.00000000E+00
  0.00000000E+00  0.00000000E+00  0.00000000E+00
  0.00000000E+00  0.00000000E+00  0.00000000E+00
  0.00000000E+00  0.00000000E+00  0.00000000E+00
  0.00000000E+00  0.00000000E+00  0.00000000E+00
  0.00000000E+00  0.00000000E+00  0.00000000E+00
  0.00000000E+00  0.00000000E+00  0.00000000E+00
  0.00000000E+00  0.00000000E+00  0.00000000E+00
  0.00000000E+00  0.00000000E+00  0.00000000E+00
  0.00000000E+00  0.00000000E+00  0.00000000E+00
  0.00000000E+00  0.00000000E+00  0.00000000E+00
  0.00000000E+00  0.00000000E+00  0.00000000E+00
  0.00000000E+00  0.00000000E+00  0.00000000E+00
  0.00000000E+00  0.00000000E+00  0.00000000E+00
  0.00000000E+00  0.00000000E+00  0.00000000E+00
  0.00000000E+00  0.00000000E+00  0.00000000E+00
  0.00000000E+00  0.00000000E+00  0.00000000E+00
  0.00000000E+00  0.00000000E+00  0.00000000E+00
  0.00000000E+00  0.00000000E+00  0.00000000E+00
  0.00000000E+00  0.00000000E+00  0.00000000E+00
  0.00000000E+00  0.00000000E+00  0.00000000E+00
  0.00000000E+00  0.00000000E+00  0.00000000E+00
  0.00000000E+00  0.00000000E+00  0.00000000E+00
  0.00000000E+00  0.00000000E+00  0.00000000E+00
  0.00000000E+00  0.00000000E+00  0.00000000E+00
  0.00000000E+00  0.00000000E+00  0.00000000E+00
  0.00000000E+00  0.00000000E+00  0.00000000E+00
  0.00000000E+00  0.00000000E+00  0.00000000E+00
  0.00000000E+00  0.00000000E+00  0.00000000E+00
  0.00000000E+00  0.00000000E+00  0.00000000E+00
  0.00000000E+00  0.00000000E+00  0.00000000E+00
  0.00000000E+00  0.00000000E+00  0.00000000E+00
  0.00000000E+00  0.00000000E+00  0.00000000E+00
  0.00000000E+00  0.00000000E+00  0.00000000E+00
  0.00000000E+00  0.00000000E+00  0.00000000E+00
  0.00000000E+00  0.00000000E+00  0.00000000E+00
  0.00000000E+00  0.00000000E+00  0.00000000E+00
  0.00000000E+00  0.00000000E+00  0.00000000E+00
  0.00000000E+00  0.00000000E+00  0.00000000E+00
  0.00000000E+00  0.00000000E+00  0.00000000E+00
  0.00000000E+00  0.00000000E+00  0.00000000E+00
  0.00000000E+00  0.00000000E+00  0.00000000E+00
  0.00000000E+00  0.00000000E+00  0.00000000E+00
  0.00000000E+00  0.00000000E+00  0.00000000E+00
  0.00000000E+00  0.00000000E+00  0.00000000E+00
  0.00000000E+00  0.00000000E+00  0.00000000E+00
  0.00000000E+00  0.00000000E+00  0.00000000E+00
  0.00000000E+00  0.00000000E+00  0.00000000E+00
  0.00000000E+00  0.00000000E+00  0.00000000E+00
  0.00000000E+00  0.00000000E+00  0.00000000E+00
  0.00000000E+00  0.00000000E+00  0.00000000E+00
  0.00000000E+00  0.00000000E+00  0.00000000E+00
  0.00000000E+00  0.00000000E+00  0.00000000E+00
  0.00000000E+00  0.00000000E+00  0.00000000E+00
  0.00000000E+00  0.00000000E+00  0.00000000E+00
  0.00000000E+00  0.00000000E+00  0.00000000E+00
  0.00000000E+00  0.00000000E+00  0.00000000E+00
  0.00000000E+00  0.00000000E+00  0.00000000E+00
  0.00000000E+00  0.00000000E+00  0.00000000E+00
  0.00000000E+00  0.00000000E+00  0.00000000E+00
  0.00000000E+00  0.00000000E+00  0.00000000E+00
  0.00000000E+00  0.00000000E+00  0.00000000E+00
  0.00000000E+00  0.00000000E+00  0.00000000E+00
  0.00000000E+00  0.00000000E+00  0.00000000E+00
  0.00000000E+00  0.00000000E+00  0.00000000E+00
  0.00000000E+00  0.00000000E+00  0.00000000E+00
  0.00000000E+00  0.00000000E+00  0.00000000E+00
  0.00000000E+00  0.00000000E+00  0.00000000E+00
  0.00000000E+00  0.00000000E+00  0.00000000E+00
  0.00000000E+00  0.00000000E+00  0.00000000E+00
  0.00000000E+00  0.00000000E+00  0.00000000E+00
  0.00000000E+00  0.00000000E+00  0.00000000E+00
  0.00000000E+00  0.00000000E+00  0.00000000E+00
  0.00000000E+00  0.00000000E+00  0.00000000E+00
  0.00000000E+00  0.00000000E+00  0.00000000E+00
  0.00000000E+00  0.00000000E+00  0.00000000E+00
  0.00000000E+00  0.00000000E+00  0.00000000E+00
  0.00000000E+00  0.00000000E+00  0.00000000E+00
  0.00000000E+00  0.00000000E+00  0.00000000E+00
  0.00000000E+00  0.00000000E+00  0.00000000E+00
