supercell of POSCAR                     
   1.03228000000000     
     6.3970863126299999    5.5387332920799999    4.9397337979799998
   -15.9736979067999982   -5.5365852353599996    9.8547656895600007
     6.4026568282999996  -11.0930079636999999    0.0094448205590600
   Sc   Al   N 
    32    64    95
Direct
  0.3589802869504126  0.0642263831855985  0.3036589754311763
  0.8380012287042717  0.3114700644825987  0.4332935202302437
  0.0222776096014528  0.2296687606407701  0.3050168752155216
  0.1925415169438693  0.1490344203025131  0.4460739571893058
  0.0218160882776530  0.2343026272503508  0.0674030287558764
  0.0458357432460517  0.4654633914489921  0.3695708283092785
  0.2357159952675971  0.3944468216365919  0.0048756925647666
  0.6919116447397755  0.1300775906940643  0.1185924859193292
  0.3624922882676174  0.0683512314645398  0.8143865716515606
  0.8333150516727557  0.3097466712606405  0.9324156615988883
  0.0220502485395002  0.2332237034445228  0.8051937902149575
  0.1856510813995556  0.1488542617245230  0.9398694836344959
  0.0203934075422723  0.2341169228983730  0.5667746671666904
  0.0463588403924291  0.4657922144926090  0.8702952240619553
  0.2356794011621872  0.3937730580191072  0.5039929039531970
  0.6927512441727544  0.1304638285119069  0.6175417069929097
  0.3757469325264893  0.5714426719417602  0.3108458389876461
  0.8264254053874680  0.8024437737720334  0.4371639098531332
  0.0236532958167075  0.7295457784078607  0.3025141081157017
  0.1923915767385793  0.6485183226334996  0.4379094774382963
  0.0229206167469513  0.7304486575533531  0.0655966092704290
  0.9864917622252278  0.9398669037075322  0.3569267085113239
  0.2287866816885753  0.8912360866608537  0.0037208789318584
  0.6923769220019764  0.6281330299688008  0.1176296744759355
  0.3741232678478568  0.5708533456108000  0.8102237810835504
  0.8317334112472139  0.8075241101861792  0.9328533778144035
  0.0229535596549084  0.7306156689887047  0.8037024453500834
  0.1925836311812077  0.6488532147846229  0.9370797236234907
  0.0228352875042717  0.7298172580008213  0.5686365450137387
  0.0350343188002000  0.9626797514555463  0.8708464962926854
  0.2240810743473602  0.8875673158450041  0.5018372509644564
  0.6921943273758018  0.6291139138725867  0.6187194150320394
  0.3579724892679508  0.0714300001373545  0.0633683468965387
  0.5387890268518092  0.4858109599436204  0.4349949957897934
  0.5407238347974186  0.4865306168805148  0.1926983340432997
  0.6920663681441894  0.4066659150023497  0.3106929879425877
  0.6900312831380901  0.4025144840856854  0.0637961745111113
  0.8542506709346895  0.3219002377825930  0.1836088601314998
  0.1979728665143696  0.1509402855218198  0.1875813352133093
  0.0518416891021545  0.4705232890253725  0.1225575595179365
  0.2322330058227209  0.3890384984051707  0.2485226021933897
  0.3969945956942453  0.3081944138246939  0.1284732154968538
  0.5532984684793050  0.2286522334378844  0.2457838572234010
  0.3941579878774419  0.3084105755964046  0.3725931484106297
  0.5487216662102909  0.2275042424803360  0.0042616068788917
  0.8862024329278384  0.0521746145953017  0.2483978814886640
  0.7233853668888486  0.1348255413616499  0.3740011321532748
  0.8812622495092626  0.0523325957484602  0.0019483170989503
  0.3674329663789067  0.0669334935273795  0.5865394822861916
  0.5388176754429992  0.4855166556632113  0.9343453943785960
  0.5401705816422364  0.4866925533116628  0.6922319323042103
  0.6915338735118510  0.4067299271494704  0.8102414808692657
  0.6892923099813473  0.4028194635931612  0.5634718132259806
  0.8538422574299247  0.3230421056103552  0.6829378240853501
  0.1934090682861509  0.1514239368023809  0.6881398299725419
  0.0521010416886654  0.4711262560021368  0.6229519023619261
  0.2328692208943011  0.3895922120095321  0.7486349151443363
  0.3963503435164384  0.3085681060392673  0.6296186481243211
  0.5505589412413343  0.2289062809084825  0.7471660964530855
  0.3945089926154637  0.3085335001408964  0.8745551551729562
  0.5496837250160382  0.2277755819528764  0.5000342052083937
  0.8829562457967057  0.0527411472501811  0.7478724350676913
  0.7238204281396250  0.1357805626470920  0.8736868944814731
  0.8804643603363331  0.0514599209244508  0.5026282718089021
  0.3621543511170486  0.5727603523466911  0.0649061247057574
  0.5340291703459172  0.9845546986520972  0.4345630978153778
  0.5376935054406431  0.9865220687895544  0.1900702968277628
  0.6814027421788609  0.9073990518193114  0.3109716098329898
  0.6876342255491252  0.9029633953227076  0.0638113518608847
  0.8487497815145559  0.8177806676215269  0.1773773520100619
  0.1985744969240741  0.6486077317599594  0.1850554522074432
  0.0487519239594079  0.9719211461543154  0.1218539683820055
  0.2327552589972655  0.8874018159372028  0.2481305158979765
  0.3957576307508859  0.8068093917525658  0.1278144166873716
  0.5584444595694080  0.7299835111557584  0.2478656199225853
  0.3940204623087169  0.8069134170358438  0.3741840310769575
  0.5502641141884581  0.7271352431780329  0.0038187306668647
  0.8885379970473366  0.5514688915101473  0.2464444630431899
  0.7343058778525560  0.6359423147150878  0.3754730972264539
  0.8862746247039084  0.5505824660744310  0.0001999209958399
  0.3602846350721194  0.5719435857964186  0.5645330373274788
  0.5333399214942460  0.9848543559412803  0.9351022818093782
  0.5355689113174691  0.9848708544364513  0.6947291554879840
  0.6904031704779214  0.9077233255381287  0.8125005840818176
  0.6863669645765711  0.9025717246111640  0.5654337205808844
  0.8545818107451737  0.8222799447707629  0.6855242336886462
  0.1979804636966307  0.6488155799241895  0.6857899932258675
  0.0425577935838177  0.9691773736923182  0.6234215511068797
  0.2285159047292851  0.8878679536838234  0.7485902848463581
  0.3956142155230893  0.8069904092399156  0.6300095706938222
  0.5574113326223582  0.7302397035930355  0.7482329348114547
  0.3945774133087170  0.8081028150956300  0.8738891738411994
  0.5502836363422148  0.7280350914728189  0.5077376849052229
  0.8874018762589273  0.5517920815044519  0.7466022486362149
  0.7310409003845422  0.6363707254248041  0.8748841767218707
  0.8861596002265628  0.5504647124081714  0.5005220520648876
  0.5648058028394942  0.1740834615408033  0.3634122863242837
  0.5285836523293028  0.1706717759226706  0.1087447607766450
  0.7203104037551782  0.0782217224513246  0.4770514040091030
  0.7270303032638310  0.0799537350237784  0.2442165282617452
  0.8745439869832339  0.0038498746497169  0.3628090702872484
  0.0475231295737544  0.4135111293445064  0.4932538628620335
  0.8817253744147280  0.4949886811112307  0.1096743251136232
  0.0596810954965434  0.4110739298214909  0.2228745654388504
  0.2333742682878892  0.3345856733130859  0.3546173859956525
  0.3894669121708034  0.2556388883320651  0.4861456176419381
  0.2387420605745305  0.3342728655963754  0.1200766436726894
  0.3854267243083385  0.2493430363316236  0.2367146846885291
  0.2410451281723383  0.0663150924236504  0.1637541540581680
  0.4295492294626015  0.4810204636191671  0.2981632562957941
  0.4447469753368694  0.0001313630770028  0.0577242174923143
  0.5840726542778185  0.4036798748934274  0.1734135789335767
  0.7412766082204172  0.3250808397761489  0.2877045747515083
  0.5855557728434988  0.4021890091333660  0.4236572810179524
  0.7324428054122336  0.3198757651338795  0.0570383529024312
  0.8913329928602636  0.2379488390462186  0.1732811768689686
  0.0862698811296312  0.1390144210479463  0.2926528801988013
  0.9063052233932467  0.2271556837006941  0.4193896033895044
  0.0717363858884212  0.1432534903614808  0.0605882988419708
  0.5728990597037154  0.1781674315604889  0.8624043009912725
  0.5130446534359265  0.1655724842341257  0.5990224148205243
  0.7201816649485053  0.0789253542372066  0.9757841555691016
  0.7209490095265139  0.0793450297059337  0.7416262673212728
  0.8753040363177931  0.0040175582994166  0.8614525089805625
  0.0453872856823949  0.4127404341325374  0.9923851058952522
  0.8808363377957491  0.4946397498262769  0.6097684255929181
  0.0589477796925024  0.4110351391790914  0.7228137996451238
  0.2356138377358477  0.3363660568286591  0.8554806590648809
  0.3914196077819838  0.2567197308370623  0.9867002475983000
  0.2367606793398807  0.3334339268762179  0.6197631846184066
  0.3827711498776694  0.2487100395445836  0.7358567841318120
  0.2323415014849743  0.0650062053805485  0.6627420085752931
  0.2497813713039392  0.0628296785302354  0.9300517843402432
  0.4292036709012592  0.4807664971846393  0.7975986051081989
  0.4400232716582622  0.9976485874962506  0.5548370931689988
  0.5826284926433942  0.4032913695616003  0.6726681794439244
  0.7378559693138200  0.3239861122487397  0.7845677402136459
  0.5864224972144996  0.4022090907976690  0.9233538177445837
  0.7305656684744761  0.3194145877190877  0.5555499522123668
  0.8865053502855460  0.2377938502246337  0.6701651183726085
  0.0759716367674415  0.1422716282955179  0.7855968474943751
  0.9075660535844605  0.2276745060094783  0.9197638968183384
  0.0721733338472461  0.1428299112631208  0.5563835898852290
  0.5892626993257650  0.6846309406629985  0.3682057215312255
  0.5355767561238522  0.6733336875593494  0.1117973598691293
  0.7278933610808593  0.5796953837803400  0.4772841807355306
  0.7312001664472874  0.5809812321435359  0.2444933781068315
  0.8784474765822239  0.5018878511331550  0.3596517560195025
  0.0451453241353263  0.9147946375325446  0.4942011636582038
  0.8794725074573009  0.9958995999331037  0.1119110431060335
  0.0740098772906208  0.9193007712767098  0.2292707148136941
  0.2357382930121830  0.8350269610831305  0.3544477627355391
  0.3949266492406451  0.7581068776312776  0.4883540401645163
  0.2372787214565264  0.8327268375892771  0.1205733963438362
  0.3911597741631425  0.7505153479223026  0.2379853813760420
  0.2437762292682990  0.5656244460953559  0.1641391289387713
  0.2616589242325205  0.5646112634506153  0.4279023860965481
  0.4271030575642385  0.9813826461591333  0.2976484937791000
  0.4527124275508854  0.5025897353267155  0.0584830478020777
  0.5811695334000575  0.9037726206516936  0.1737271921091406
  0.7578981253339023  0.8334064500082974  0.2927192216268111
  0.5831440569467432  0.9026225383335245  0.4246630197566859
  0.7325006817584594  0.8215568612186246  0.0579153297630484
  0.8931875779132170  0.7388507436817449  0.1706057329517776
  0.0823585313607538  0.6412164141263830  0.2844713495673830
  0.9188736407006459  0.7293509491552825  0.4221176960789919
  0.0776107600006597  0.6416461070736048  0.0558505986874920
  0.5839322902863628  0.6819728542017174  0.8674958020889605
  0.5317472479603040  0.6718796540749779  0.6113649067745612
  0.7278551548211638  0.5795311763665509  0.9766399224035283
  0.7291411795337979  0.5804366804725660  0.7443100221983414
  0.8780143386106474  0.5015379981138324  0.8592908169970883
  0.0421856989803615  0.9122853624400449  0.9953583738831995
  0.8771987069227762  0.9958034237197211  0.6108241432526142
  0.0591619453619998  0.9125161816476961  0.7244755674873034
  0.2350146709443663  0.8357116943490297  0.8556000525458458
  0.3952795254010582  0.7579531411729263  0.9876015343864921
  0.2362812881162029  0.8326746020519664  0.6210811332001285
  0.3872884600644824  0.7494466614441677  0.7377729046852934
  0.2421450086645294  0.5653881451041158  0.6639077723635296
  0.2619830274867141  0.5649434619843845  0.9287984009352073
  0.4234503923931143  0.9806321345156590  0.7978982227016544
  0.4508469372973494  0.5016349710344699  0.5577861059330615
  0.5809740242856094  0.9035957633766003  0.6745842800762176
  0.7457508676791704  0.8286129509678446  0.7898863841847898
  0.5848902786697110  0.9031371168147615  0.9246696068226896
  0.7334179489590582  0.8219954556862419  0.5604268750224151
  0.8909534447161533  0.7386914957602357  0.6710777542390289
  0.0803623203712505  0.6412908295029069  0.7844426667497046
  0.9144183630873215  0.7291090561241447  0.9208960704103788
  0.0769690550366349  0.6410123294636776  0.5559850638146813
 
  0.00000000E+00  0.00000000E+00  0.00000000E+00
  0.00000000E+00  0.00000000E+00  0.00000000E+00
  0.00000000E+00  0.00000000E+00  0.00000000E+00
  0.00000000E+00  0.00000000E+00  0.00000000E+00
  0.00000000E+00  0.00000000E+00  0.00000000E+00
  0.00000000E+00  0.00000000E+00  0.00000000E+00
  0.00000000E+00  0.00000000E+00  0.00000000E+00
  0.00000000E+00  0.00000000E+00  0.00000000E+00
  0.00000000E+00  0.00000000E+00  0.00000000E+00
  0.00000000E+00  0.00000000E+00  0.00000000E+00
  0.00000000E+00  0.00000000E+00  0.00000000E+00
  0.00000000E+00  0.00000000E+00  0.00000000E+00
  0.00000000E+00  0.00000000E+00  0.00000000E+00
  0.00000000E+00  0.00000000E+00  0.00000000E+00
  0.00000000E+00  0.00000000E+00  0.00000000E+00
  0.00000000E+00  0.00000000E+00  0.00000000E+00
  0.00000000E+00  0.00000000E+00  0.00000000E+00
  0.00000000E+00  0.00000000E+00  0.00000000E+00
  0.00000000E+00  0.00000000E+00  0.00000000E+00
  0.00000000E+00  0.00000000E+00  0.00000000E+00
  0.00000000E+00  0.00000000E+00  0.00000000E+00
  0.00000000E+00  0.00000000E+00  0.00000000E+00
  0.00000000E+00  0.00000000E+00  0.00000000E+00
  0.00000000E+00  0.00000000E+00  0.00000000E+00
  0.00000000E+00  0.00000000E+00  0.00000000E+00
  0.00000000E+00  0.00000000E+00  0.00000000E+00
  0.00000000E+00  0.00000000E+00  0.00000000E+00
  0.00000000E+00  0.00000000E+00  0.00000000E+00
  0.00000000E+00  0.00000000E+00  0.00000000E+00
  0.00000000E+00  0.00000000E+00  0.00000000E+00
  0.00000000E+00  0.00000000E+00  0.00000000E+00
  0.00000000E+00  0.00000000E+00  0.00000000E+00
  0.00000000E+00  0.00000000E+00  0.00000000E+00
  0.00000000E+00  0.00000000E+00  0.00000000E+00
  0.00000000E+00  0.00000000E+00  0.00000000E+00
  0.00000000E+00  0.00000000E+00  0.00000000E+00
  0.00000000E+00  0.00000000E+00  0.00000000E+00
  0.00000000E+00  0.00000000E+00  0.00000000E+00
  0.00000000E+00  0.00000000E+00  0.00000000E+00
  0.00000000E+00  0.00000000E+00  0.00000000E+00
  0.00000000E+00  0.00000000E+00  0.00000000E+00
  0.00000000E+00  0.00000000E+00  0.00000000E+00
  0.00000000E+00  0.00000000E+00  0.00000000E+00
  0.00000000E+00  0.00000000E+00  0.00000000E+00
  0.00000000E+00  0.00000000E+00  0.00000000E+00
  0.00000000E+00  0.00000000E+00  0.00000000E+00
  0.00000000E+00  0.00000000E+00  0.00000000E+00
  0.00000000E+00  0.00000000E+00  0.00000000E+00
  0.00000000E+00  0.00000000E+00  0.00000000E+00
  0.00000000E+00  0.00000000E+00  0.00000000E+00
  0.00000000E+00  0.00000000E+00  0.00000000E+00
  0.00000000E+00  0.00000000E+00  0.00000000E+00
  0.00000000E+00  0.00000000E+00  0.00000000E+00
  0.00000000E+00  0.00000000E+00  0.00000000E+00
  0.00000000E+00  0.00000000E+00  0.00000000E+00
  0.00000000E+00  0.00000000E+00  0.00000000E+00
  0.00000000E+00  0.00000000E+00  0.00000000E+00
  0.00000000E+00  0.00000000E+00  0.00000000E+00
  0.00000000E+00  0.00000000E+00  0.00000000E+00
  0.00000000E+00  0.00000000E+00  0.00000000E+00
  0.00000000E+00  0.00000000E+00  0.00000000E+00
  0.00000000E+00  0.00000000E+00  0.00000000E+00
  0.00000000E+00  0.00000000E+00  0.00000000E+00
  0.00000000E+00  0.00000000E+00  0.00000000E+00
  0.00000000E+00  0.00000000E+00  0.00000000E+00
  0.00000000E+00  0.00000000E+00  0.00000000E+00
  0.00000000E+00  0.00000000E+00  0.00000000E+00
  0.00000000E+00  0.00000000E+00  0.00000000E+00
  0.00000000E+00  0.00000000E+00  0.00000000E+00
  0.00000000E+00  0.00000000E+00  0.00000000E+00
  0.00000000E+00  0.00000000E+00  0.00000000E+00
  0.00000000E+00  0.00000000E+00  0.00000000E+00
  0.00000000E+00  0.00000000E+00  0.00000000E+00
  0.00000000E+00  0.00000000E+00  0.00000000E+00
  0.00000000E+00  0.00000000E+00  0.00000000E+00
  0.00000000E+00  0.00000000E+00  0.00000000E+00
  0.00000000E+00  0.00000000E+00  0.00000000E+00
  0.00000000E+00  0.00000000E+00  0.00000000E+00
  0.00000000E+00  0.00000000E+00  0.00000000E+00
  0.00000000E+00  0.00000000E+00  0.00000000E+00
  0.00000000E+00  0.00000000E+00  0.00000000E+00
  0.00000000E+00  0.00000000E+00  0.00000000E+00
  0.00000000E+00  0.00000000E+00  0.00000000E+00
  0.00000000E+00  0.00000000E+00  0.00000000E+00
  0.00000000E+00  0.00000000E+00  0.00000000E+00
  0.00000000E+00  0.00000000E+00  0.00000000E+00
  0.00000000E+00  0.00000000E+00  0.00000000E+00
  0.00000000E+00  0.00000000E+00  0.00000000E+00
  0.00000000E+00  0.00000000E+00  0.00000000E+00
  0.00000000E+00  0.00000000E+00  0.00000000E+00
  0.00000000E+00  0.00000000E+00  0.00000000E+00
  0.00000000E+00  0.00000000E+00  0.00000000E+00
  0.00000000E+00  0.00000000E+00  0.00000000E+00
  0.00000000E+00  0.00000000E+00  0.00000000E+00
  0.00000000E+00  0.00000000E+00  0.00000000E+00
  0.00000000E+00  0.00000000E+00  0.00000000E+00
  0.00000000E+00  0.00000000E+00  0.00000000E+00
  0.00000000E+00  0.00000000E+00  0.00000000E+00
  0.00000000E+00  0.00000000E+00  0.00000000E+00
  0.00000000E+00  0.00000000E+00  0.00000000E+00
  0.00000000E+00  0.00000000E+00  0.00000000E+00
  0.00000000E+00  0.00000000E+00  0.00000000E+00
  0.00000000E+00  0.00000000E+00  0.00000000E+00
  0.00000000E+00  0.00000000E+00  0.00000000E+00
  0.00000000E+00  0.00000000E+00  0.00000000E+00
  0.00000000E+00  0.00000000E+00  0.00000000E+00
  0.00000000E+00  0.00000000E+00  0.00000000E+00
  0.00000000E+00  0.00000000E+00  0.00000000E+00
  0.00000000E+00  0.00000000E+00  0.00000000E+00
  0.00000000E+00  0.00000000E+00  0.00000000E+00
  0.00000000E+00  0.00000000E+00  0.00000000E+00
  0.00000000E+00  0.00000000E+00  0.00000000E+00
  0.00000000E+00  0.00000000E+00  0.00000000E+00
  0.00000000E+00  0.00000000E+00  0.00000000E+00
  0.00000000E+00  0.00000000E+00  0.00000000E+00
  0.00000000E+00  0.00000000E+00  0.00000000E+00
  0.00000000E+00  0.00000000E+00  0.00000000E+00
  0.00000000E+00  0.00000000E+00  0.00000000E+00
  0.00000000E+00  0.00000000E+00  0.00000000E+00
  0.00000000E+00  0.00000000E+00  0.00000000E+00
  0.00000000E+00  0.00000000E+00  0.00000000E+00
  0.00000000E+00  0.00000000E+00  0.00000000E+00
  0.00000000E+00  0.00000000E+00  0.00000000E+00
  0.00000000E+00  0.00000000E+00  0.00000000E+00
  0.00000000E+00  0.00000000E+00  0.00000000E+00
  0.00000000E+00  0.00000000E+00  0.00000000E+00
  0.00000000E+00  0.00000000E+00  0.00000000E+00
  0.00000000E+00  0.00000000E+00  0.00000000E+00
  0.00000000E+00  0.00000000E+00  0.00000000E+00
  0.00000000E+00  0.00000000E+00  0.00000000E+00
  0.00000000E+00  0.00000000E+00  0.00000000E+00
  0.00000000E+00  0.00000000E+00  0.00000000E+00
  0.00000000E+00  0.00000000E+00  0.00000000E+00
  0.00000000E+00  0.00000000E+00  0.00000000E+00
  0.00000000E+00  0.00000000E+00  0.00000000E+00
  0.00000000E+00  0.00000000E+00  0.00000000E+00
  0.00000000E+00  0.00000000E+00  0.00000000E+00
  0.00000000E+00  0.00000000E+00  0.00000000E+00
  0.00000000E+00  0.00000000E+00  0.00000000E+00
  0.00000000E+00  0.00000000E+00  0.00000000E+00
  0.00000000E+00  0.00000000E+00  0.00000000E+00
  0.00000000E+00  0.00000000E+00  0.00000000E+00
  0.00000000E+00  0.00000000E+00  0.00000000E+00
  0.00000000E+00  0.00000000E+00  0.00000000E+00
  0.00000000E+00  0.00000000E+00  0.00000000E+00
  0.00000000E+00  0.00000000E+00  0.00000000E+00
  0.00000000E+00  0.00000000E+00  0.00000000E+00
  0.00000000E+00  0.00000000E+00  0.00000000E+00
  0.00000000E+00  0.00000000E+00  0.00000000E+00
  0.00000000E+00  0.00000000E+00  0.00000000E+00
  0.00000000E+00  0.00000000E+00  0.00000000E+00
  0.00000000E+00  0.00000000E+00  0.00000000E+00
  0.00000000E+00  0.00000000E+00  0.00000000E+00
  0.00000000E+00  0.00000000E+00  0.00000000E+00
  0.00000000E+00  0.00000000E+00  0.00000000E+00
  0.00000000E+00  0.00000000E+00  0.00000000E+00
  0.00000000E+00  0.00000000E+00  0.00000000E+00
  0.00000000E+00  0.00000000E+00  0.00000000E+00
  0.00000000E+00  0.00000000E+00  0.00000000E+00
  0.00000000E+00  0.00000000E+00  0.00000000E+00
  0.00000000E+00  0.00000000E+00  0.00000000E+00
  0.00000000E+00  0.00000000E+00  0.00000000E+00
  0.00000000E+00  0.00000000E+00  0.00000000E+00
  0.00000000E+00  0.00000000E+00  0.00000000E+00
  0.00000000E+00  0.00000000E+00  0.00000000E+00
  0.00000000E+00  0.00000000E+00  0.00000000E+00
  0.00000000E+00  0.00000000E+00  0.00000000E+00
  0.00000000E+00  0.00000000E+00  0.00000000E+00
  0.00000000E+00  0.00000000E+00  0.00000000E+00
  0.00000000E+00  0.00000000E+00  0.00000000E+00
  0.00000000E+00  0.00000000E+00  0.00000000E+00
  0.00000000E+00  0.00000000E+00  0.00000000E+00
  0.00000000E+00  0.00000000E+00  0.00000000E+00
  0.00000000E+00  0.00000000E+00  0.00000000E+00
  0.00000000E+00  0.00000000E+00  0.00000000E+00
  0.00000000E+00  0.00000000E+00  0.00000000E+00
  0.00000000E+00  0.00000000E+00  0.00000000E+00
  0.00000000E+00  0.00000000E+00  0.00000000E+00
  0.00000000E+00  0.00000000E+00  0.00000000E+00
  0.00000000E+00  0.00000000E+00  0.00000000E+00
  0.00000000E+00  0.00000000E+00  0.00000000E+00
  0.00000000E+00  0.00000000E+00  0.00000000E+00
  0.00000000E+00  0.00000000E+00  0.00000000E+00
  0.00000000E+00  0.00000000E+00  0.00000000E+00
  0.00000000E+00  0.00000000E+00  0.00000000E+00
  0.00000000E+00  0.00000000E+00  0.00000000E+00
  0.00000000E+00  0.00000000E+00  0.00000000E+00
  0.00000000E+00  0.00000000E+00  0.00000000E+00
  0.00000000E+00  0.00000000E+00  0.00000000E+00
  0.00000000E+00  0.00000000E+00  0.00000000E+00
  0.00000000E+00  0.00000000E+00  0.00000000E+00
