supercell of POSCAR                     
   1.03228000000000     
     6.3970863126299999    5.5387332920799999    4.9397337979799998
   -15.9736979067999982   -5.5365852353599996    9.8547656895600007
     6.4026568282999996  -11.0930079636999999    0.0094448205590600
   Sc   Al   N 
    32    63    96
Direct
  0.3693454163352925  0.0693743352661755  0.3099120417360837
  0.8328331021720174  0.3080243194340042  0.4341546289507860
  0.0234639636293323  0.2304668916142347  0.3046463152163454
  0.1889810409973407  0.1472895281756834  0.4375304959767163
  0.0166349648256272  0.2304432468019684  0.0659434953739648
  0.0433957133931315  0.4655385729227035  0.3719116201703798
  0.2300423243932528  0.3904367329668332  0.0031717237558624
  0.6879014290498873  0.1281689176616254  0.1187769232852531
  0.3671640692188376  0.0687462587327232  0.8091945495692485
  0.8322823439943576  0.3104848705196019  0.9323546677723726
  0.0171669093853097  0.2292461706574613  0.8028995834647077
  0.1900126732910579  0.1484910047765950  0.9378919007360622
  0.0211137877198482  0.2312677230060771  0.5669500178960973
  0.0426344138317276  0.4647265401170770  0.8701310711789034
  0.2309438794454408  0.3918421741361513  0.5040713483205508
  0.6896897686294707  0.1285258152451121  0.6176126146224377
  0.3716100969166334  0.5706574149829891  0.3115559480156378
  0.8331616460756237  0.8086453531968019  0.4336710992069541
  0.0242015618194316  0.7320509628169631  0.3045985014319328
  0.1920261427802785  0.6496995169533193  0.4390440509600921
  0.0228091986352581  0.7324146835875354  0.0672221405833184
  0.0405986071352231  0.9633483408109456  0.3697667189253622
  0.2323450160799894  0.8921631619549757  0.0043090192261701
  0.6940023678903913  0.6308967273235666  0.1192050692403583
  0.3698772258398222  0.5706426306062156  0.8094684328960611
  0.8337668179563664  0.8089485839185002  0.9337067584406427
  0.0239324214197296  0.7320252674690977  0.8043075369352621
  0.1918430305919117  0.6492679444471960  0.9377040933697103
  0.0229184689621604  0.7329592151692808  0.5676324502587846
  0.0402285389941426  0.9636943341567843  0.8698751044733086
  0.2327967337425392  0.8926090852551951  0.5044732145785247
  0.6916469479679179  0.6296847756500270  0.6188179000580902
  0.3550409066354163  0.0700677481772374  0.0640555258278681
  0.5354411422206198  0.4849459488274448  0.4357926508395025
  0.5375848972769717  0.4889048246386594  0.1918489418438725
  0.6930906013500575  0.4075549750701128  0.3188225585320268
  0.8596218520238565  0.3231762247608998  0.1907964356126257
  0.1943888853462852  0.1479958138126776  0.1854494840128709
  0.0555655374769941  0.4703388538001860  0.1243349568793732
  0.2311737759252139  0.3875939551154346  0.2486385329686200
  0.3915044067673179  0.3046556808281693  0.1294228139697822
  0.5542475674576863  0.2284709369303286  0.2476270043497522
  0.3938888977276633  0.3069900020802336  0.3742183730523863
  0.5465338298423674  0.2245777670858828  0.0043346312363752
  0.8849394351439557  0.0515653644551151  0.2468242151672158
  0.7280954314706065  0.1359199498430499  0.3748635754091580
  0.8833894685673087  0.0510841422930639  0.0007411479003920
  0.3573696986018717  0.0709850911917869  0.5637161286953685
  0.5340226324373205  0.4882502661812467  0.9350063535848463
  0.5366817565783890  0.4859831616113297  0.6909163483551950
  0.6922493030401640  0.4073585045767274  0.8032488897018553
  0.6889475962103404  0.4025506095136322  0.5636738904006364
  0.8537829901386331  0.3218186788709474  0.6827812946024778
  0.1941607753162486  0.1479859309278666  0.6844073672312092
  0.0495193094729984  0.4706802747072700  0.6228399342468620
  0.2285649387360849  0.3874482297032529  0.7476769500100744
  0.3946433583095583  0.3064044431744009  0.6274229351921363
  0.5538304538238421  0.2285309262275703  0.7463041226218010
  0.3884617482429107  0.3053472006040252  0.8698419326545945
  0.5497347908428338  0.2268777130370765  0.5045678828100080
  0.8856626717696940  0.0519305551343265  0.7470450295693709
  0.7260149447273534  0.1363682738135878  0.8747322095970844
  0.8830395038699663  0.0507103193797747  0.5004188184406075
  0.3592024650647687  0.5718043398158130  0.0639319627041530
  0.5358093033269995  0.9848763540741956  0.4345513025482077
  0.5375960214181532  0.9857369706379444  0.1924002997706324
  0.6917575978757000  0.9071217452449503  0.3112309223000835
  0.6885593705000232  0.9025261866678491  0.0640820193443830
  0.8547770526406566  0.8224054450099203  0.1837550182831365
  0.1963964414376207  0.6487963147812863  0.1854678548141209
  0.0487462956770059  0.9698930632278220  0.1227499208614660
  0.2316112537972046  0.8885521245135521  0.2485369205119099
  0.3974344424837355  0.8075501071756506  0.1292144399117916
  0.5567185194970108  0.7296753191734524  0.2475352320002884
  0.3960519811991361  0.8082946896349341  0.3739638315465470
  0.5514352495747374  0.7276824918559228  0.0049250654918040
  0.8845133629197264  0.5527291064785160  0.2506751195642636
  0.7289132673375178  0.6368016182941574  0.3758734996197148
  0.8824430828499672  0.5516337493253474  0.9970429694861878
  0.3584246989593751  0.5718450507667896  0.5645942146377294
  0.5362236292699976  0.9853249656043417  0.9349646065713415
  0.5386587597336217  0.9864719182548640  0.6924915729359924
  0.6917229018881272  0.9074384244887526  0.8113679009224768
  0.6887744622737770  0.9026065152071396  0.5642557252164266
  0.8551710694744230  0.8225296374993718  0.6839032745531100
  0.1968865216051938  0.6498815691222362  0.6857303826289183
  0.0491059469059891  0.9700448261155117  0.6223921284009748
  0.2324032940906235  0.8889473428344132  0.7487790488301940
  0.3976660578938152  0.8080312471347213  0.6293917255497945
  0.5573036758977423  0.7301747876562033  0.7476221952749356
  0.3959479033151041  0.8084475955514492  0.8739867994076604
  0.5514551966145618  0.7278011464998926  0.5055663277762363
  0.8864742791675155  0.5529877174474365  0.7462912427874215
  0.7286716843617995  0.6369483397389359  0.8743275950665250
  0.8846861188227138  0.5522990132757499  0.5022505096995999
  0.5806053457371334  0.1804576785173495  0.3666795789521302
  0.5255606671080599  0.1694749480390456  0.1105204230055250
  0.7238095883974154  0.0788196834123269  0.4763195785859935
  0.7261631709637655  0.0797896743916908  0.2441853528351956
  0.8771150420177065  0.0023907778618621  0.3601285818434690
  0.0438968662515862  0.4125980376385172  0.4935696559943921
  0.9036631702188131  0.5065414991302788  0.1159654802764294
  0.0618255961544492  0.4119674906472142  0.2259498917668665
  0.2356495798177107  0.3352948798247226  0.3555903841924462
  0.3922553879219208  0.2561620693473685  0.4867431366629802
  0.2329237183956323  0.3311298960645459  0.1196125245208819
  0.3838570856510515  0.2473421017035662  0.2374683863829503
  0.2377896510799218  0.0644109125975802  0.1635529283896133
  0.2560399908124964  0.0625513534754987  0.4276314472825860
  0.4263773166122036  0.4800599148259863  0.2977576738125691
  0.4474890455240015  0.0004794370324106  0.0577175225818962
  0.5634639226893086  0.4025326574717383  0.1937012647042451
  0.7424285688768748  0.3271391957232979  0.2894484073863666
  0.5841364973738550  0.4022201349850008  0.4267230978717791
  0.7378458445016207  0.3104225803414025  0.0610386946303905
  0.8889326452870421  0.2375382736754545  0.1732108208060410
  0.0781511234804029  0.1407176863542290  0.2847214185628530
  0.9123817985251961  0.2283393178517414  0.4206399151409670
  0.0743725341045121  0.1423399172211717  0.0560176462180308
  0.5771225567012479  0.1798718568966677  0.8657561880765527
  0.5289626458215793  0.1706836001363143  0.6095336997315641
  0.7247183887827404  0.0800266775808893  0.9774077744417440
  0.7276723748638858  0.0808739137883521  0.7446651312129902
  0.8770150816839575  0.0028801484645555  0.8604789151275014
  0.0454287332755854  0.4130877586744646  0.9938895625650517
  0.8798872970526403  0.4955441846444302  0.6102246098876094
  0.0587768953454031  0.4114514351691838  0.7234825243523630
  0.2296553335568490  0.3334549807908616  0.8537131906091631
  0.3976741640843571  0.2594643268413108  0.9881182782663416
  0.2366142680268126  0.3327800745673173  0.6201996926741060
  0.3832190629770693  0.2472954537317023  0.7348937299332547
  0.2386411098368768  0.0647140223325309  0.6626654071111417
  0.2555969793783746  0.0635274797880072  0.9281270401169763
  0.4243476821901027  0.4801491505090354  0.7963320528055391
  0.4482477699262972  0.0007645955936013  0.5579260996847282
  0.5800875710975930  0.4032310516438287  0.6694669217211953
  0.7420070505346388  0.3267108259749634  0.7866587449108096
  0.5642402483099005  0.4023308418422999  0.8965610391950563
  0.7322440719958081  0.3206966930279762  0.5576780800017289
  0.8884270860438477  0.2377013586873673  0.6700638417484441
  0.0795157532915240  0.1414139463655744  0.7853448203289730
  0.9088519866382327  0.2294745450557585  0.9205034650608823
  0.0732102326398305  0.1414666139286993  0.5557403410609609
  0.5812567339607781  0.6808000982111651  0.3669883314647393
  0.5308974036810028  0.6712799310536184  0.1100961492548507
  0.7233287413720575  0.5789037098456049  0.4766640511288713
  0.7264215694654794  0.5806063169763078  0.2443522699271270
  0.8769163211677480  0.5027870748794854  0.3619194038213038
  0.0444336950379309  0.9121223656631301  0.4935154266646435
  0.8794556203246273  0.9952014852789546  0.1099823858663100
  0.0596952175481746  0.9110780242608030  0.2233915406562232
  0.2364426706645588  0.8357756131213279  0.3556804008427221
  0.3949444430209326  0.7578954294637157  0.4876835257738250
  0.2380043182473131  0.8329268466184772  0.1206114147399120
  0.3861347676244762  0.7487582883256962  0.2370046598006539
  0.2431378228638934  0.5658834647181621  0.1645128258435093
  0.2576418745222711  0.5644668603826659  0.4287326605088850
  0.4270009069462475  0.9802050133898206  0.2976868200548921
  0.4464804844026631  0.4999622245235074  0.0568241625193266
  0.5829448573387594  0.9035327809161160  0.1738895263380371
  0.7442897273015916  0.8269161911456209  0.2884000021788253
  0.5863203862422353  0.9026283814820530  0.4239393058192036
  0.7334978014777604  0.8209959199388734  0.0581474617720872
  0.8915946702141611  0.7385170044107099  0.1715640227159057
  0.0790988091755906  0.6411257614440018  0.2848502580224803
  0.9128365427400382  0.7284974383853395  0.4206972726594529
  0.0743306028089563  0.6415896919610091  0.0558812277853278
  0.5809363633946774  0.6808084958977361  0.8665015391628472
  0.5302190393044341  0.6714027779523732  0.6104903705122808
  0.7238691358140201  0.5797109566555037  0.9764829305348144
  0.7256348960016439  0.5797570028364518  0.7440211030086417
  0.8766412229771348  0.5023474462232258  0.8584919034869287
  0.0451069869988956  0.9125751359825287  0.9935993154028822
  0.8797510384173677  0.9952499153469390  0.6103452172726804
  0.0607355410327557  0.9117375958229417  0.7238338752425975
  0.2364927838627082  0.8359794486458867  0.8555726229569487
  0.3947642987318432  0.7576472392357587  0.9874849424807763
  0.2385244490681231  0.8335645795876516  0.6208193528847588
  0.3871520482853867  0.7494904356303351  0.7373054176243770
  0.2392020018454630  0.5656164148546168  0.6633239443092833
  0.2576228694319056  0.5639431293013786  0.9280860129334769
  0.4281423662209036  0.9808316097862360  0.7980834381236690
  0.4461426607389782  0.5005947944320894  0.5572798031281465
  0.5833971144333674  0.9040404247889668  0.6740763529374547
  0.7450966475222600  0.8275378452723885  0.7887592215273713
  0.5863467269007145  0.9029771962506459  0.9241472014242191
  0.7335689203267961  0.8210817100266183  0.5584237835920618
  0.8903287977246706  0.7382283341994125  0.6714237374274887
  0.0797402686637199  0.6419362241060469  0.7850257536591201
  0.9129265138261999  0.7286498844812996  0.9208510693105296
  0.0750091056839182  0.6428346258895843  0.5566108866415149
 
  0.00000000E+00  0.00000000E+00  0.00000000E+00
  0.00000000E+00  0.00000000E+00  0.00000000E+00
  0.00000000E+00  0.00000000E+00  0.00000000E+00
  0.00000000E+00  0.00000000E+00  0.00000000E+00
  0.00000000E+00  0.00000000E+00  0.00000000E+00
  0.00000000E+00  0.00000000E+00  0.00000000E+00
  0.00000000E+00  0.00000000E+00  0.00000000E+00
  0.00000000E+00  0.00000000E+00  0.00000000E+00
  0.00000000E+00  0.00000000E+00  0.00000000E+00
  0.00000000E+00  0.00000000E+00  0.00000000E+00
  0.00000000E+00  0.00000000E+00  0.00000000E+00
  0.00000000E+00  0.00000000E+00  0.00000000E+00
  0.00000000E+00  0.00000000E+00  0.00000000E+00
  0.00000000E+00  0.00000000E+00  0.00000000E+00
  0.00000000E+00  0.00000000E+00  0.00000000E+00
  0.00000000E+00  0.00000000E+00  0.00000000E+00
  0.00000000E+00  0.00000000E+00  0.00000000E+00
  0.00000000E+00  0.00000000E+00  0.00000000E+00
  0.00000000E+00  0.00000000E+00  0.00000000E+00
  0.00000000E+00  0.00000000E+00  0.00000000E+00
  0.00000000E+00  0.00000000E+00  0.00000000E+00
  0.00000000E+00  0.00000000E+00  0.00000000E+00
  0.00000000E+00  0.00000000E+00  0.00000000E+00
  0.00000000E+00  0.00000000E+00  0.00000000E+00
  0.00000000E+00  0.00000000E+00  0.00000000E+00
  0.00000000E+00  0.00000000E+00  0.00000000E+00
  0.00000000E+00  0.00000000E+00  0.00000000E+00
  0.00000000E+00  0.00000000E+00  0.00000000E+00
  0.00000000E+00  0.00000000E+00  0.00000000E+00
  0.00000000E+00  0.00000000E+00  0.00000000E+00
  0.00000000E+00  0.00000000E+00  0.00000000E+00
  0.00000000E+00  0.00000000E+00  0.00000000E+00
  0.00000000E+00  0.00000000E+00  0.00000000E+00
  0.00000000E+00  0.00000000E+00  0.00000000E+00
  0.00000000E+00  0.00000000E+00  0.00000000E+00
  0.00000000E+00  0.00000000E+00  0.00000000E+00
  0.00000000E+00  0.00000000E+00  0.00000000E+00
  0.00000000E+00  0.00000000E+00  0.00000000E+00
  0.00000000E+00  0.00000000E+00  0.00000000E+00
  0.00000000E+00  0.00000000E+00  0.00000000E+00
  0.00000000E+00  0.00000000E+00  0.00000000E+00
  0.00000000E+00  0.00000000E+00  0.00000000E+00
  0.00000000E+00  0.00000000E+00  0.00000000E+00
  0.00000000E+00  0.00000000E+00  0.00000000E+00
  0.00000000E+00  0.00000000E+00  0.00000000E+00
  0.00000000E+00  0.00000000E+00  0.00000000E+00
  0.00000000E+00  0.00000000E+00  0.00000000E+00
  0.00000000E+00  0.00000000E+00  0.00000000E+00
  0.00000000E+00  0.00000000E+00  0.00000000E+00
  0.00000000E+00  0.00000000E+00  0.00000000E+00
  0.00000000E+00  0.00000000E+00  0.00000000E+00
  0.00000000E+00  0.00000000E+00  0.00000000E+00
  0.00000000E+00  0.00000000E+00  0.00000000E+00
  0.00000000E+00  0.00000000E+00  0.00000000E+00
  0.00000000E+00  0.00000000E+00  0.00000000E+00
  0.00000000E+00  0.00000000E+00  0.00000000E+00
  0.00000000E+00  0.00000000E+00  0.00000000E+00
  0.00000000E+00  0.00000000E+00  0.00000000E+00
  0.00000000E+00  0.00000000E+00  0.00000000E+00
  0.00000000E+00  0.00000000E+00  0.00000000E+00
  0.00000000E+00  0.00000000E+00  0.00000000E+00
  0.00000000E+00  0.00000000E+00  0.00000000E+00
  0.00000000E+00  0.00000000E+00  0.00000000E+00
  0.00000000E+00  0.00000000E+00  0.00000000E+00
  0.00000000E+00  0.00000000E+00  0.00000000E+00
  0.00000000E+00  0.00000000E+00  0.00000000E+00
  0.00000000E+00  0.00000000E+00  0.00000000E+00
  0.00000000E+00  0.00000000E+00  0.00000000E+00
  0.00000000E+00  0.00000000E+00  0.00000000E+00
  0.00000000E+00  0.00000000E+00  0.00000000E+00
  0.00000000E+00  0.00000000E+00  0.00000000E+00
  0.00000000E+00  0.00000000E+00  0.00000000E+00
  0.00000000E+00  0.00000000E+00  0.00000000E+00
  0.00000000E+00  0.00000000E+00  0.00000000E+00
  0.00000000E+00  0.00000000E+00  0.00000000E+00
  0.00000000E+00  0.00000000E+00  0.00000000E+00
  0.00000000E+00  0.00000000E+00  0.00000000E+00
  0.00000000E+00  0.00000000E+00  0.00000000E+00
  0.00000000E+00  0.00000000E+00  0.00000000E+00
  0.00000000E+00  0.00000000E+00  0.00000000E+00
  0.00000000E+00  0.00000000E+00  0.00000000E+00
  0.00000000E+00  0.00000000E+00  0.00000000E+00
  0.00000000E+00  0.00000000E+00  0.00000000E+00
  0.00000000E+00  0.00000000E+00  0.00000000E+00
  0.00000000E+00  0.00000000E+00  0.00000000E+00
  0.00000000E+00  0.00000000E+00  0.00000000E+00
  0.00000000E+00  0.00000000E+00  0.00000000E+00
  0.00000000E+00  0.00000000E+00  0.00000000E+00
  0.00000000E+00  0.00000000E+00  0.00000000E+00
  0.00000000E+00  0.00000000E+00  0.00000000E+00
  0.00000000E+00  0.00000000E+00  0.00000000E+00
  0.00000000E+00  0.00000000E+00  0.00000000E+00
  0.00000000E+00  0.00000000E+00  0.00000000E+00
  0.00000000E+00  0.00000000E+00  0.00000000E+00
  0.00000000E+00  0.00000000E+00  0.00000000E+00
  0.00000000E+00  0.00000000E+00  0.00000000E+00
  0.00000000E+00  0.00000000E+00  0.00000000E+00
  0.00000000E+00  0.00000000E+00  0.00000000E+00
  0.00000000E+00  0.00000000E+00  0.00000000E+00
  0.00000000E+00  0.00000000E+00  0.00000000E+00
  0.00000000E+00  0.00000000E+00  0.00000000E+00
  0.00000000E+00  0.00000000E+00  0.00000000E+00
  0.00000000E+00  0.00000000E+00  0.00000000E+00
  0.00000000E+00  0.00000000E+00  0.00000000E+00
  0.00000000E+00  0.00000000E+00  0.00000000E+00
  0.00000000E+00  0.00000000E+00  0.00000000E+00
  0.00000000E+00  0.00000000E+00  0.00000000E+00
  0.00000000E+00  0.00000000E+00  0.00000000E+00
  0.00000000E+00  0.00000000E+00  0.00000000E+00
  0.00000000E+00  0.00000000E+00  0.00000000E+00
  0.00000000E+00  0.00000000E+00  0.00000000E+00
  0.00000000E+00  0.00000000E+00  0.00000000E+00
  0.00000000E+00  0.00000000E+00  0.00000000E+00
  0.00000000E+00  0.00000000E+00  0.00000000E+00
  0.00000000E+00  0.00000000E+00  0.00000000E+00
  0.00000000E+00  0.00000000E+00  0.00000000E+00
  0.00000000E+00  0.00000000E+00  0.00000000E+00
  0.00000000E+00  0.00000000E+00  0.00000000E+00
  0.00000000E+00  0.00000000E+00  0.00000000E+00
  0.00000000E+00  0.00000000E+00  0.00000000E+00
  0.00000000E+00  0.00000000E+00  0.00000000E+00
  0.00000000E+00  0.00000000E+00  0.00000000E+00
  0.00000000E+00  0.00000000E+00  0.00000000E+00
  0.00000000E+00  0.00000000E+00  0.00000000E+00
  0.00000000E+00  0.00000000E+00  0.00000000E+00
  0.00000000E+00  0.00000000E+00  0.00000000E+00
  0.00000000E+00  0.00000000E+00  0.00000000E+00
  0.00000000E+00  0.00000000E+00  0.00000000E+00
  0.00000000E+00  0.00000000E+00  0.00000000E+00
  0.00000000E+00  0.00000000E+00  0.00000000E+00
  0.00000000E+00  0.00000000E+00  0.00000000E+00
  0.00000000E+00  0.00000000E+00  0.00000000E+00
  0.00000000E+00  0.00000000E+00  0.00000000E+00
  0.00000000E+00  0.00000000E+00  0.00000000E+00
  0.00000000E+00  0.00000000E+00  0.00000000E+00
  0.00000000E+00  0.00000000E+00  0.00000000E+00
  0.00000000E+00  0.00000000E+00  0.00000000E+00
  0.00000000E+00  0.00000000E+00  0.00000000E+00
  0.00000000E+00  0.00000000E+00  0.00000000E+00
  0.00000000E+00  0.00000000E+00  0.00000000E+00
  0.00000000E+00  0.00000000E+00  0.00000000E+00
  0.00000000E+00  0.00000000E+00  0.00000000E+00
  0.00000000E+00  0.00000000E+00  0.00000000E+00
  0.00000000E+00  0.00000000E+00  0.00000000E+00
  0.00000000E+00  0.00000000E+00  0.00000000E+00
  0.00000000E+00  0.00000000E+00  0.00000000E+00
  0.00000000E+00  0.00000000E+00  0.00000000E+00
  0.00000000E+00  0.00000000E+00  0.00000000E+00
  0.00000000E+00  0.00000000E+00  0.00000000E+00
  0.00000000E+00  0.00000000E+00  0.00000000E+00
  0.00000000E+00  0.00000000E+00  0.00000000E+00
  0.00000000E+00  0.00000000E+00  0.00000000E+00
  0.00000000E+00  0.00000000E+00  0.00000000E+00
  0.00000000E+00  0.00000000E+00  0.00000000E+00
  0.00000000E+00  0.00000000E+00  0.00000000E+00
  0.00000000E+00  0.00000000E+00  0.00000000E+00
  0.00000000E+00  0.00000000E+00  0.00000000E+00
  0.00000000E+00  0.00000000E+00  0.00000000E+00
  0.00000000E+00  0.00000000E+00  0.00000000E+00
  0.00000000E+00  0.00000000E+00  0.00000000E+00
  0.00000000E+00  0.00000000E+00  0.00000000E+00
  0.00000000E+00  0.00000000E+00  0.00000000E+00
  0.00000000E+00  0.00000000E+00  0.00000000E+00
  0.00000000E+00  0.00000000E+00  0.00000000E+00
  0.00000000E+00  0.00000000E+00  0.00000000E+00
  0.00000000E+00  0.00000000E+00  0.00000000E+00
  0.00000000E+00  0.00000000E+00  0.00000000E+00
  0.00000000E+00  0.00000000E+00  0.00000000E+00
  0.00000000E+00  0.00000000E+00  0.00000000E+00
  0.00000000E+00  0.00000000E+00  0.00000000E+00
  0.00000000E+00  0.00000000E+00  0.00000000E+00
  0.00000000E+00  0.00000000E+00  0.00000000E+00
  0.00000000E+00  0.00000000E+00  0.00000000E+00
  0.00000000E+00  0.00000000E+00  0.00000000E+00
  0.00000000E+00  0.00000000E+00  0.00000000E+00
  0.00000000E+00  0.00000000E+00  0.00000000E+00
  0.00000000E+00  0.00000000E+00  0.00000000E+00
  0.00000000E+00  0.00000000E+00  0.00000000E+00
  0.00000000E+00  0.00000000E+00  0.00000000E+00
  0.00000000E+00  0.00000000E+00  0.00000000E+00
  0.00000000E+00  0.00000000E+00  0.00000000E+00
  0.00000000E+00  0.00000000E+00  0.00000000E+00
  0.00000000E+00  0.00000000E+00  0.00000000E+00
  0.00000000E+00  0.00000000E+00  0.00000000E+00
  0.00000000E+00  0.00000000E+00  0.00000000E+00
  0.00000000E+00  0.00000000E+00  0.00000000E+00
  0.00000000E+00  0.00000000E+00  0.00000000E+00
  0.00000000E+00  0.00000000E+00  0.00000000E+00
  0.00000000E+00  0.00000000E+00  0.00000000E+00
  0.00000000E+00  0.00000000E+00  0.00000000E+00
  0.00000000E+00  0.00000000E+00  0.00000000E+00
