supercell of POSCAR                     
   1.03228000000000     
     6.3970863126299999    5.5387332920799999    4.9397337979799998
   -15.9736979067999982   -5.5365852353599996    9.8547656895600007
     6.4026568282999996  -11.0930079636999999    0.0094448205590600
   Sc   Al   N 
    32    64    95
Direct
  0.3655292487181399  0.0681580328954112  0.3098972416813197
  0.8366236206503288  0.3109700368865802  0.4327485837427076
  0.0236312398839331  0.2350762291787092  0.3041285170297741
  0.1891769269679031  0.1491503825905127  0.4372968009439617
  0.0220688268564544  0.2335008092423578  0.0681075817059096
  0.0471577954302305  0.4595271585998404  0.3575666497003809
  0.2337452841997845  0.3939325408350101  0.0091312253165370
  0.6889761791995355  0.1287382410017912  0.1179388158212618
  0.3670557206127114  0.0689717082610812  0.8096339985458911
  0.8322824143548715  0.3083871970547776  0.9362063347260943
  0.0238216393138302  0.2325090810152588  0.8051634733499569
  0.1869349423095770  0.1479788601037697  0.9376600422830919
  0.0219760600367565  0.2330562249614374  0.5665714127370194
  0.0409643816202134  0.4627052695267295  0.8727239030008249
  0.2328925175199572  0.3935755013468025  0.5022651948765002
  0.6913131433599844  0.1291346073080177  0.6188605664438356
  0.3639613024374313  0.5647327788939265  0.3065782218994997
  0.8311124455706462  0.8077986287705059  0.4329708514840007
  0.0200398416673337  0.7295183417868074  0.3033829956442702
  0.1897127348712289  0.6462859773564134  0.4362090122690603
  0.0211932584720032  0.7323068492302980  0.0668069816699131
  0.0382940440010415  0.9636012337463669  0.3698640037093455
  0.2292454327964393  0.8914993399146880  0.0034108832712221
  0.6919003764694409  0.6291668925589917  0.1184998094718850
  0.3704452198541759  0.5696946110740697  0.8101875219929582
  0.8318826412974900  0.8087476632653932  0.9332025869125502
  0.0223287878007739  0.7307733918403301  0.8038095399566174
  0.1905074516498075  0.6478801182161291  0.9375711822318564
  0.0194960927386276  0.7297356780684439  0.5661217528211608
  0.0381744608590253  0.9632995222222505  0.8691062764311894
  0.2284913617899136  0.8907264863626807  0.5032955272153927
  0.6918339524675758  0.6289884543276614  0.6188266744261739
  0.3544323591842868  0.0704545128778946  0.0636724088010183
  0.5443242451008743  0.4861782577040969  0.4381521491120424
  0.5453253114824363  0.4873979329520211  0.1935480291476637
  0.6942338163368191  0.4073930732348501  0.3117958756999855
  0.6886799649132413  0.4029258719293480  0.0639165792050349
  0.8435317823475472  0.3207542787260707  0.1855517376591749
  0.1925665200174436  0.1492254869852374  0.1857363961491032
  0.0482778145517599  0.4731415809970301  0.1287945236213446
  0.2470806434110457  0.3919793988707099  0.2588430261458825
  0.3968939212994371  0.3074498280233229  0.1306556513623534
  0.5502640351087607  0.2265940714709416  0.2479710656999998
  0.4006305183970795  0.3072831649744359  0.3762340191481144
  0.5459347861301467  0.2259067280486491  0.0043661535465347
  0.8836457868597449  0.0529811851799096  0.2471849145424017
  0.7258406649089508  0.1360077137076487  0.3746684076892492
  0.8815145456554347  0.0514111960364474  0.0006266524820262
  0.3563562262352065  0.0710274301032570  0.5640194454842273
  0.5361105396273942  0.4852365378699233  0.9349026048464140
  0.5393731489844882  0.4861715025269717  0.6924925179985593
  0.6921347898196188  0.4071006605393990  0.8117730956366600
  0.6915286102344780  0.4022838528196928  0.5652567615375830
  0.8556966197671656  0.3222932301897714  0.6843166652917461
  0.1948834638655512  0.1493735155324316  0.6852325156475274
  0.0514649742339017  0.4708132321085259  0.6223321623867122
  0.2321685967514213  0.3890401449987024  0.7489868152551509
  0.3971824239533746  0.3076616711338005  0.6291037948334193
  0.5559519078909716  0.2293108923952545  0.7482633949344262
  0.3941890327888515  0.3082615390208403  0.8746587162553823
  0.5520517064634092  0.2265404815284953  0.5055288869574071
  0.8841531441283692  0.0522308732361552  0.7465254531490118
  0.7264274214217963  0.1356830169560368  0.8748129513485523
  0.8825611149666912  0.0514623080464958  0.5004992149568892
  0.3596798727454811  0.5724048288575361  0.0638416924877063
  0.5338723660104776  0.9845792340554311  0.4346690019784418
  0.5348965898178619  0.9854704583262972  0.1918105261248897
  0.6895090065487537  0.9068789697345210  0.3108014083204367
  0.6873199262985281  0.9027562063286894  0.0640129336641095
  0.8533783337581085  0.8221848455553484  0.1836191032461727
  0.1971837160865562  0.6502066687294032  0.1845624119731113
  0.0474304482544099  0.9704599383674264  0.1226538348679327
  0.2293707980313613  0.8877737169835029  0.2483499891928886
  0.3958859615633727  0.8072795513278521  0.1285035486122581
  0.5551088884709614  0.7286088002422701  0.2474110893252188
  0.3932546526293308  0.8072154314354520  0.3734374643371581
  0.5510942561697618  0.7278000354947523  0.0047954378823221
  0.8891459558848211  0.5514046762172740  0.2468713200633061
  0.7274575409540205  0.6354264711541262  0.3749519471015645
  0.8835257598890536  0.5522749691750235  0.9996589213563354
  0.3590253708670161  0.5715037005825181  0.5638018192554171
  0.5326959970508298  0.9842129868388056  0.9340258721440549
  0.5352834947289224  0.9853889644618903  0.6914319966828515
  0.6897971244850396  0.9071429086339577  0.8105980239328687
  0.6867116918397969  0.9018731115314012  0.5634796868313643
  0.8533079713155161  0.8217865246507401  0.6827868236244115
  0.1975837725434531  0.6490615981486130  0.6854215545564770
  0.0480379705214915  0.9702726400039623  0.6222796860485715
  0.2291338986807361  0.8875930893876713  0.7474170179258692
  0.3948215967910187  0.8064083222641472  0.6276776630433147
  0.5565117817778216  0.7296715592149283  0.7469482938788019
  0.3941361161033967  0.8075656174808827  0.8733421079259003
  0.5486141067917387  0.7257782952513026  0.5031148500438007
  0.8875287855470546  0.5520543135674814  0.7469672985405609
  0.7285038022700192  0.6368154944361208  0.8745089102456376
  0.8885187930687906  0.5501163321390194  0.5001101191256652
  0.5757049248282371  0.1778154536868755  0.3667194658543380
  0.5260840112603447  0.1696824678303273  0.1096102765174152
  0.7219833281053596  0.0785644424638221  0.4764237091910530
  0.7225460936451498  0.0793533666369441  0.2436663195800506
  0.8748750456228933  0.0026771990592280  0.3598219959429372
  0.0461293112489400  0.4146497842597228  0.4928198308442333
  0.8757010804337000  0.4968942288654858  0.1067880836018844
  0.2442251025638171  0.3340573139075502  0.3594739603820969
  0.3961467051332974  0.2565069332814858  0.4890350761174318
  0.2386274871359646  0.3344955462225769  0.1251836445042969
  0.3833370414088364  0.2477427621594472  0.2371383913424481
  0.2366609693607629  0.0653068948811111  0.1634600968580315
  0.2534986931821450  0.0631199154723774  0.4283979531079680
  0.4434925996277741  0.4826203048537039  0.3017789259551122
  0.4438462403705046  0.9994796917153224  0.0569139227828543
  0.5837113560903759  0.4032713919137336  0.1736896489795754
  0.7314433476987645  0.3228863308438932  0.2885288870032028
  0.5905617797707521  0.4026645139076379  0.4260236391650949
  0.7266978171391187  0.3193094277307296  0.0570116675350079
  0.8859085033207279  0.2379590452278961  0.1683545717719923
  0.0757211258347894  0.1426959774692591  0.2849535379399768
  0.9099240712301224  0.2281136017744529  0.4198937498256612
  0.0716118381624042  0.1423326086075605  0.0561542350413120
  0.5777758048794652  0.1795170843350604  0.8665027112573611
  0.5294859151677827  0.1704536568995678  0.6111573713131406
  0.7202690261559681  0.0779514515346236  0.9757959741221853
  0.7238906302204384  0.0792578064039731  0.7438934007535565
  0.8754853882724873  0.0028568140013761  0.8599891530043493
  0.0437667206300105  0.4123250933403071  0.9999841385244963
  0.8817803190847471  0.4952503589248423  0.6111856845489996
  0.0605269541452813  0.4118299894238433  0.7247204178687596
  0.2361533393607260  0.3372531848313827  0.8580725746143614
  0.3901000897118152  0.2567975903291710  0.9875942978342636
  0.2383919773353114  0.3339012092171885  0.6204895614440176
  0.3858132871976778  0.2491947698492467  0.7376597488232193
  0.2377259384102146  0.0652490188984913  0.6632586631093744
  0.2535373811178445  0.0628250888849493  0.9275443997186485
  0.4282789032788585  0.4806011244321269  0.7978088328798663
  0.4443576792722652  0.9994848540992010  0.5569646574917542
  0.5841601701617805  0.4035717405232830  0.6743278347038100
  0.7453314042834478  0.3269521723763660  0.7899098260351849
  0.5850288876970424  0.4024424354986564  0.9235702818089209
  0.7345563922210872  0.3201326235408146  0.5584780282181896
  0.8904020591870676  0.2378444970305864  0.6716479407936049
  0.0774612798926810  0.1416540299499189  0.7843724270515153
  0.9106339462078381  0.2277661459374301  0.9205949235165107
  0.0733623309846223  0.1424768097659950  0.5559054467764994
  0.5797274291790941  0.6796703555016137  0.3656229219941665
  0.5315814558554521  0.6717976604753915  0.1094728939569549
  0.7315920827065909  0.5805267031422474  0.4792938572470646
  0.7325402232484564  0.5816741440485984  0.2447542833771124
  0.8815939040946219  0.5015781395660142  0.3596541262775474
  0.0425779253724841  0.9122577647632681  0.4932839899752537
  0.8779311011307556  0.9956106657734765  0.1102524424405402
  0.0588451348649812  0.9116771859288022  0.2235733614216144
  0.2331313996737805  0.8345061856686016  0.3546454290477143
  0.3928175429537362  0.7566146629134707  0.4865888056049457
  0.2368455904975377  0.8331351800274831  0.1201734092896913
  0.3869280791645693  0.7497444644215605  0.2365890359668370
  0.2413740165280771  0.5678269311211537  0.1608529498117193
  0.2604673042067631  0.5640989224622714  0.4286815443540490
  0.4246131194576321  0.9794554606999881  0.2976413647796150
  0.4504600959481095  0.5017015428485507  0.0593943428247101
  0.5811246404213151  0.9034949201277698  0.1733100133001741
  0.7432103387652660  0.8270947034771012  0.2882549199109548
  0.5838710904520923  0.9021613532551882  0.4236170974932634
  0.7327448360106601  0.8214797140406915  0.0580773192832993
  0.8898428897382544  0.7384660180757550  0.1709814640558633
  0.0807587195183785  0.6416609991904139  0.2837673708338997
  0.9116916041749548  0.7284948801953703  0.4208568391534229
  0.0744699976908691  0.6430986631004671  0.0551937979970702
  0.5809454186553396  0.6812199250252817  0.8664141712081772
  0.5312209025950949  0.6713927972891156  0.6105122633241677
  0.7235266092788777  0.5797717761590420  0.9755934912114341
  0.7286656377106979  0.5804135340432381  0.7448385623136176
  0.8785189650877783  0.5026137620110873  0.8603362963458849
  0.0429792988743358  0.9127825899035003  0.9935316587293954
  0.8779752311926430  0.9950610004136493  0.6098025883966471
  0.0586245393216629  0.9113386584486989  0.7230069946229989
  0.2347477755928082  0.8353112584494014  0.8550353774969466
  0.3935525173460448  0.7571780690021939  0.9869659445110273
  0.2351762535788424  0.8318473184451349  0.6197915705826347
  0.3867913128855065  0.7492265879757554  0.7369691276317738
  0.2419347085265642  0.5656545551233947  0.6643019645774757
  0.2561620095398851  0.5623138769019107  0.9275418637493189
  0.4244126870194123  0.9795752652796281  0.7968771093748757
  0.4515654419594242  0.5014558385043415  0.5586450164881498
  0.5806430121935549  0.9030939988038114  0.6730963018446090
  0.7443247590941695  0.8276567734484885  0.7882278063765256
  0.5843518434743586  0.9023238440695138  0.9235181804810679
  0.7311183034268609  0.8202201003080773  0.5574326589874943
  0.8904426912850241  0.7382665123708989  0.6715629905288694
  0.0805606542223032  0.6416739978352339  0.7848785560468556
  0.9123046523180705  0.7292948656584954  0.9205038700887087
  0.0772133334925371  0.6417995533456846  0.5562958528806661
 
  0.00000000E+00  0.00000000E+00  0.00000000E+00
  0.00000000E+00  0.00000000E+00  0.00000000E+00
  0.00000000E+00  0.00000000E+00  0.00000000E+00
  0.00000000E+00  0.00000000E+00  0.00000000E+00
  0.00000000E+00  0.00000000E+00  0.00000000E+00
  0.00000000E+00  0.00000000E+00  0.00000000E+00
  0.00000000E+00  0.00000000E+00  0.00000000E+00
  0.00000000E+00  0.00000000E+00  0.00000000E+00
  0.00000000E+00  0.00000000E+00  0.00000000E+00
  0.00000000E+00  0.00000000E+00  0.00000000E+00
  0.00000000E+00  0.00000000E+00  0.00000000E+00
  0.00000000E+00  0.00000000E+00  0.00000000E+00
  0.00000000E+00  0.00000000E+00  0.00000000E+00
  0.00000000E+00  0.00000000E+00  0.00000000E+00
  0.00000000E+00  0.00000000E+00  0.00000000E+00
  0.00000000E+00  0.00000000E+00  0.00000000E+00
  0.00000000E+00  0.00000000E+00  0.00000000E+00
  0.00000000E+00  0.00000000E+00  0.00000000E+00
  0.00000000E+00  0.00000000E+00  0.00000000E+00
  0.00000000E+00  0.00000000E+00  0.00000000E+00
  0.00000000E+00  0.00000000E+00  0.00000000E+00
  0.00000000E+00  0.00000000E+00  0.00000000E+00
  0.00000000E+00  0.00000000E+00  0.00000000E+00
  0.00000000E+00  0.00000000E+00  0.00000000E+00
  0.00000000E+00  0.00000000E+00  0.00000000E+00
  0.00000000E+00  0.00000000E+00  0.00000000E+00
  0.00000000E+00  0.00000000E+00  0.00000000E+00
  0.00000000E+00  0.00000000E+00  0.00000000E+00
  0.00000000E+00  0.00000000E+00  0.00000000E+00
  0.00000000E+00  0.00000000E+00  0.00000000E+00
  0.00000000E+00  0.00000000E+00  0.00000000E+00
  0.00000000E+00  0.00000000E+00  0.00000000E+00
  0.00000000E+00  0.00000000E+00  0.00000000E+00
  0.00000000E+00  0.00000000E+00  0.00000000E+00
  0.00000000E+00  0.00000000E+00  0.00000000E+00
  0.00000000E+00  0.00000000E+00  0.00000000E+00
  0.00000000E+00  0.00000000E+00  0.00000000E+00
  0.00000000E+00  0.00000000E+00  0.00000000E+00
  0.00000000E+00  0.00000000E+00  0.00000000E+00
  0.00000000E+00  0.00000000E+00  0.00000000E+00
  0.00000000E+00  0.00000000E+00  0.00000000E+00
  0.00000000E+00  0.00000000E+00  0.00000000E+00
  0.00000000E+00  0.00000000E+00  0.00000000E+00
  0.00000000E+00  0.00000000E+00  0.00000000E+00
  0.00000000E+00  0.00000000E+00  0.00000000E+00
  0.00000000E+00  0.00000000E+00  0.00000000E+00
  0.00000000E+00  0.00000000E+00  0.00000000E+00
  0.00000000E+00  0.00000000E+00  0.00000000E+00
  0.00000000E+00  0.00000000E+00  0.00000000E+00
  0.00000000E+00  0.00000000E+00  0.00000000E+00
  0.00000000E+00  0.00000000E+00  0.00000000E+00
  0.00000000E+00  0.00000000E+00  0.00000000E+00
  0.00000000E+00  0.00000000E+00  0.00000000E+00
  0.00000000E+00  0.00000000E+00  0.00000000E+00
  0.00000000E+00  0.00000000E+00  0.00000000E+00
  0.00000000E+00  0.00000000E+00  0.00000000E+00
  0.00000000E+00  0.00000000E+00  0.00000000E+00
  0.00000000E+00  0.00000000E+00  0.00000000E+00
  0.00000000E+00  0.00000000E+00  0.00000000E+00
  0.00000000E+00  0.00000000E+00  0.00000000E+00
  0.00000000E+00  0.00000000E+00  0.00000000E+00
  0.00000000E+00  0.00000000E+00  0.00000000E+00
  0.00000000E+00  0.00000000E+00  0.00000000E+00
  0.00000000E+00  0.00000000E+00  0.00000000E+00
  0.00000000E+00  0.00000000E+00  0.00000000E+00
  0.00000000E+00  0.00000000E+00  0.00000000E+00
  0.00000000E+00  0.00000000E+00  0.00000000E+00
  0.00000000E+00  0.00000000E+00  0.00000000E+00
  0.00000000E+00  0.00000000E+00  0.00000000E+00
  0.00000000E+00  0.00000000E+00  0.00000000E+00
  0.00000000E+00  0.00000000E+00  0.00000000E+00
  0.00000000E+00  0.00000000E+00  0.00000000E+00
  0.00000000E+00  0.00000000E+00  0.00000000E+00
  0.00000000E+00  0.00000000E+00  0.00000000E+00
  0.00000000E+00  0.00000000E+00  0.00000000E+00
  0.00000000E+00  0.00000000E+00  0.00000000E+00
  0.00000000E+00  0.00000000E+00  0.00000000E+00
  0.00000000E+00  0.00000000E+00  0.00000000E+00
  0.00000000E+00  0.00000000E+00  0.00000000E+00
  0.00000000E+00  0.00000000E+00  0.00000000E+00
  0.00000000E+00  0.00000000E+00  0.00000000E+00
  0.00000000E+00  0.00000000E+00  0.00000000E+00
  0.00000000E+00  0.00000000E+00  0.00000000E+00
  0.00000000E+00  0.00000000E+00  0.00000000E+00
  0.00000000E+00  0.00000000E+00  0.00000000E+00
  0.00000000E+00  0.00000000E+00  0.00000000E+00
  0.00000000E+00  0.00000000E+00  0.00000000E+00
  0.00000000E+00  0.00000000E+00  0.00000000E+00
  0.00000000E+00  0.00000000E+00  0.00000000E+00
  0.00000000E+00  0.00000000E+00  0.00000000E+00
  0.00000000E+00  0.00000000E+00  0.00000000E+00
  0.00000000E+00  0.00000000E+00  0.00000000E+00
  0.00000000E+00  0.00000000E+00  0.00000000E+00
  0.00000000E+00  0.00000000E+00  0.00000000E+00
  0.00000000E+00  0.00000000E+00  0.00000000E+00
  0.00000000E+00  0.00000000E+00  0.00000000E+00
  0.00000000E+00  0.00000000E+00  0.00000000E+00
  0.00000000E+00  0.00000000E+00  0.00000000E+00
  0.00000000E+00  0.00000000E+00  0.00000000E+00
  0.00000000E+00  0.00000000E+00  0.00000000E+00
  0.00000000E+00  0.00000000E+00  0.00000000E+00
  0.00000000E+00  0.00000000E+00  0.00000000E+00
  0.00000000E+00  0.00000000E+00  0.00000000E+00
  0.00000000E+00  0.00000000E+00  0.00000000E+00
  0.00000000E+00  0.00000000E+00  0.00000000E+00
  0.00000000E+00  0.00000000E+00  0.00000000E+00
  0.00000000E+00  0.00000000E+00  0.00000000E+00
  0.00000000E+00  0.00000000E+00  0.00000000E+00
  0.00000000E+00  0.00000000E+00  0.00000000E+00
  0.00000000E+00  0.00000000E+00  0.00000000E+00
  0.00000000E+00  0.00000000E+00  0.00000000E+00
  0.00000000E+00  0.00000000E+00  0.00000000E+00
  0.00000000E+00  0.00000000E+00  0.00000000E+00
  0.00000000E+00  0.00000000E+00  0.00000000E+00
  0.00000000E+00  0.00000000E+00  0.00000000E+00
  0.00000000E+00  0.00000000E+00  0.00000000E+00
  0.00000000E+00  0.00000000E+00  0.00000000E+00
  0.00000000E+00  0.00000000E+00  0.00000000E+00
  0.00000000E+00  0.00000000E+00  0.00000000E+00
  0.00000000E+00  0.00000000E+00  0.00000000E+00
  0.00000000E+00  0.00000000E+00  0.00000000E+00
  0.00000000E+00  0.00000000E+00  0.00000000E+00
  0.00000000E+00  0.00000000E+00  0.00000000E+00
  0.00000000E+00  0.00000000E+00  0.00000000E+00
  0.00000000E+00  0.00000000E+00  0.00000000E+00
  0.00000000E+00  0.00000000E+00  0.00000000E+00
  0.00000000E+00  0.00000000E+00  0.00000000E+00
  0.00000000E+00  0.00000000E+00  0.00000000E+00
  0.00000000E+00  0.00000000E+00  0.00000000E+00
  0.00000000E+00  0.00000000E+00  0.00000000E+00
  0.00000000E+00  0.00000000E+00  0.00000000E+00
  0.00000000E+00  0.00000000E+00  0.00000000E+00
  0.00000000E+00  0.00000000E+00  0.00000000E+00
  0.00000000E+00  0.00000000E+00  0.00000000E+00
  0.00000000E+00  0.00000000E+00  0.00000000E+00
  0.00000000E+00  0.00000000E+00  0.00000000E+00
  0.00000000E+00  0.00000000E+00  0.00000000E+00
  0.00000000E+00  0.00000000E+00  0.00000000E+00
  0.00000000E+00  0.00000000E+00  0.00000000E+00
  0.00000000E+00  0.00000000E+00  0.00000000E+00
  0.00000000E+00  0.00000000E+00  0.00000000E+00
  0.00000000E+00  0.00000000E+00  0.00000000E+00
  0.00000000E+00  0.00000000E+00  0.00000000E+00
  0.00000000E+00  0.00000000E+00  0.00000000E+00
  0.00000000E+00  0.00000000E+00  0.00000000E+00
  0.00000000E+00  0.00000000E+00  0.00000000E+00
  0.00000000E+00  0.00000000E+00  0.00000000E+00
  0.00000000E+00  0.00000000E+00  0.00000000E+00
  0.00000000E+00  0.00000000E+00  0.00000000E+00
  0.00000000E+00  0.00000000E+00  0.00000000E+00
  0.00000000E+00  0.00000000E+00  0.00000000E+00
  0.00000000E+00  0.00000000E+00  0.00000000E+00
  0.00000000E+00  0.00000000E+00  0.00000000E+00
  0.00000000E+00  0.00000000E+00  0.00000000E+00
  0.00000000E+00  0.00000000E+00  0.00000000E+00
  0.00000000E+00  0.00000000E+00  0.00000000E+00
  0.00000000E+00  0.00000000E+00  0.00000000E+00
  0.00000000E+00  0.00000000E+00  0.00000000E+00
  0.00000000E+00  0.00000000E+00  0.00000000E+00
  0.00000000E+00  0.00000000E+00  0.00000000E+00
  0.00000000E+00  0.00000000E+00  0.00000000E+00
  0.00000000E+00  0.00000000E+00  0.00000000E+00
  0.00000000E+00  0.00000000E+00  0.00000000E+00
  0.00000000E+00  0.00000000E+00  0.00000000E+00
  0.00000000E+00  0.00000000E+00  0.00000000E+00
  0.00000000E+00  0.00000000E+00  0.00000000E+00
  0.00000000E+00  0.00000000E+00  0.00000000E+00
  0.00000000E+00  0.00000000E+00  0.00000000E+00
  0.00000000E+00  0.00000000E+00  0.00000000E+00
  0.00000000E+00  0.00000000E+00  0.00000000E+00
  0.00000000E+00  0.00000000E+00  0.00000000E+00
  0.00000000E+00  0.00000000E+00  0.00000000E+00
  0.00000000E+00  0.00000000E+00  0.00000000E+00
  0.00000000E+00  0.00000000E+00  0.00000000E+00
  0.00000000E+00  0.00000000E+00  0.00000000E+00
  0.00000000E+00  0.00000000E+00  0.00000000E+00
  0.00000000E+00  0.00000000E+00  0.00000000E+00
  0.00000000E+00  0.00000000E+00  0.00000000E+00
  0.00000000E+00  0.00000000E+00  0.00000000E+00
  0.00000000E+00  0.00000000E+00  0.00000000E+00
  0.00000000E+00  0.00000000E+00  0.00000000E+00
  0.00000000E+00  0.00000000E+00  0.00000000E+00
  0.00000000E+00  0.00000000E+00  0.00000000E+00
  0.00000000E+00  0.00000000E+00  0.00000000E+00
  0.00000000E+00  0.00000000E+00  0.00000000E+00
  0.00000000E+00  0.00000000E+00  0.00000000E+00
  0.00000000E+00  0.00000000E+00  0.00000000E+00
  0.00000000E+00  0.00000000E+00  0.00000000E+00
  0.00000000E+00  0.00000000E+00  0.00000000E+00
  0.00000000E+00  0.00000000E+00  0.00000000E+00
  0.00000000E+00  0.00000000E+00  0.00000000E+00
