supercell of POSCAR                     
   1.03228000000000     
     6.3970863126299999    5.5387332920799999    4.9397337979799998
   -15.9736979067999982   -5.5365852353599996    9.8547656895600007
     6.4026568282999996  -11.0930079636999999    0.0094448205590600
   Sc   Al   N 
    32    63    96
Direct
  0.4011078308466409  0.0799276824183792  0.3165919829697899
  0.8187228913774121  0.3030229264774889  0.4303426031610229
  0.0023954372476354  0.2200794723430164  0.3002368608331523
  0.2018991660343801  0.1496375794991778  0.4380668205545817
  0.0238094337444394  0.2315183381636388  0.0686404146615374
  0.0314150965186997  0.4616151140331510  0.3684433676817278
  0.2271591398530006  0.3923784727916555  0.0032553784698734
  0.6921670970975882  0.1291834236937888  0.1185126212934406
  0.3759004146163107  0.0708814800434681  0.8117815644904738
  0.8322713544219411  0.3075735642514914  0.9334263234122204
  0.0246242610430443  0.2314296219561029  0.8026565951512410
  0.1916019033643437  0.1484889403810783  0.9376469865203276
  0.9975442817420159  0.2175645694940442  0.5585191471125199
  0.0350751934362634  0.4635391002040734  0.8693734915159226
  0.1861541024914146  0.3695822672668783  0.4941318324758797
  0.6908483009434292  0.1287639682591788  0.6190937545450339
  0.3614197887597825  0.5670019002601308  0.3093088823669277
  0.8341634745810325  0.8093452701325461  0.4335831095366132
  0.0224668907483192  0.7326315828766639  0.3051350581803192
  0.1856028512259442  0.6475500584353924  0.4378155575867098
  0.0225876078442155  0.7339833221203378  0.0679813858121889
  0.0529090467427906  0.9657118685835897  0.3698787852111209
  0.2405365905218915  0.8945569470086738  0.0067679652958077
  0.6878683409517805  0.6282002701050260  0.1180504929555823
  0.3621565525849775  0.5673701322662055  0.8084728699638575
  0.8345456609724451  0.8091179808678106  0.9337495221470462
  0.0214203630778798  0.7320668523450991  0.8050300638484131
  0.1874320159969471  0.6487217028944912  0.9377684999901135
  0.0201561010485705  0.7330763694838964  0.5671981470309504
  0.0451953937924898  0.9640425500586360  0.8704053370927056
  0.2400754680922503  0.8945329113401357  0.5049034682677558
  0.6850042167312012  0.6272046427902964  0.6178070007136256
  0.3621376110762071  0.0728694899484807  0.0656608980420970
  0.5242685044101378  0.4821230286518130  0.4356603485342347
  0.5325013230686224  0.4855150352645907  0.1919381934776467
  0.6885006455974079  0.4083782126685165  0.3111676284947080
  0.6864725003109200  0.4030693272143395  0.0637701222373721
  0.8542735018658121  0.3229719020834736  0.1826744450731539
  0.2017037494888143  0.1492129255757959  0.1867688161167180
  0.0464849173988995  0.4706313729579463  0.1223697536067121
  0.2257432494159062  0.3860662647145148  0.2473170632911987
  0.3940042704957492  0.3083165488268520  0.1272932794122710
  0.5541954708723793  0.2341388175389696  0.2475590370358205
  0.3888209514331535  0.3073118330131450  0.3714840343314449
  0.5515293605608207  0.2282827311391387  0.0061224330782963
  0.8942220941345767  0.0502770211342707  0.2459345867585014
  0.8871966905073094  0.0505574348767794  0.0022330684488665
  0.3624261205160551  0.0725123366668114  0.5645324409793560
  0.5301793642224126  0.4840327160724200  0.9335413139826230
  0.5266433612596231  0.4835745254353512  0.6885489302798717
  0.6876164077672087  0.4073727820096948  0.8109285781194089
  0.6830026406274143  0.4024815970954450  0.5646186205403296
  0.8544657787639736  0.3228504112963932  0.6843301884777802
  0.1999033007293463  0.1485408257109313  0.6852527732846738
  0.0425988120525247  0.4703177714571254  0.6220951225422482
  0.2247683753518288  0.3858720363748986  0.7472693690768821
  0.3886263247511081  0.3067141150592292  0.6303621620522009
  0.5580957671856623  0.2307488987444799  0.7474439742937946
  0.3937964858902205  0.3079618733884075  0.8741434457139547
  0.5494921922451184  0.2325842625698655  0.5064173381855284
  0.8882811555659984  0.0514715524684632  0.7460746650775079
  0.7340635449871229  0.1367308242299643  0.8760347043610039
  0.8922504339721229  0.0483011891977512  0.5022158965319576
  0.3541622298214264  0.5710610059933856  0.0634849960122708
  0.5566178923238709  0.9912850831468276  0.4380869668520617
  0.5580918948542006  0.9923596107683395  0.1970438311422598
  0.6951845381173740  0.9061060985278431  0.3109838986446931
  0.6933612888067060  0.9026694041509060  0.0649705484520027
  0.8551125410943001  0.8213603831412541  0.1837847559541146
  0.1935154000295825  0.6496747951723165  0.1853988946555560
  0.0587809781784472  0.9705680307173452  0.1245405709190379
  0.2426455351774166  0.8920790661602496  0.2509509759335344
  0.3995559630300463  0.8083207856791859  0.1296391770191221
  0.5535475871572260  0.7277350782923762  0.2473059706139367
  0.3969315205357660  0.8084913447001014  0.3743361780419434
  0.5490509282333491  0.7263005093276789  0.0040373995095990
  0.8822528515142238  0.5528429084780555  0.2470299083294449
  0.7221179192323461  0.6347543953545269  0.3746693086893274
  0.8802749467830751  0.5517559751179206  0.0006349056363462
  0.3482578430284065  0.5656983962745059  0.5616680504217300
  0.5409861180320306  0.9863236819393748  0.9363056510984151
  0.5421899172787192  0.9870145632055127  0.6931673995353975
  0.6932472517579882  0.9069162045920720  0.8113239796062075
  0.6915214108928751  0.9019548438531189  0.5645419723568637
  0.8529541653381827  0.8208814622795586  0.6836367807134138
  0.1920265988810499  0.6489200563826500  0.6852587126382232
  0.0546763413509055  0.9691764880334190  0.6240011918030888
  0.2343890658635175  0.8886038767561644  0.7493585448507787
  0.3969672565734186  0.8070805440134308  0.6286806731943244
  0.5524677341521951  0.7273320418122822  0.7465334096328959
  0.3961543219172228  0.8080119007953428  0.8743436423388005
  0.5468960605765005  0.7250300015177658  0.5039572038648856
  0.8798245262370870  0.5524272236357035  0.7469727166078783
  0.7227166248691645  0.6349842061778617  0.8741694888127824
  0.8778021468652923  0.5512063016142363  0.5008921717053596
  0.5682546612290693  0.1973829142806025  0.3694932150228993
  0.5294867790133537  0.1730741596585759  0.1112309741151378
  0.7453966986667737  0.0789348614921437  0.4972332097949419
  0.7469127404398179  0.0803132781019684  0.2299542820579958
  0.8817396394860708  0.9990354331112172  0.3592803258909640
  0.0338400724874646  0.4155818225035688  0.4933788542744324
  0.8772194980197199  0.4962513809189915  0.1102888312662529
  0.0591808808263892  0.4124542763803944  0.2221355510461862
  0.2266098148881994  0.3302132928845936  0.3467888931018521
  0.3919985384196423  0.2616628768242322  0.4907929780119815
  0.2358310471146297  0.3341440370836679  0.1174994864372039
  0.3829495401943106  0.2515155900940087  0.2326530223459287
  0.2484738856823157  0.0654082183905373  0.1674336668797807
  0.2680859345261979  0.0631767797788854  0.4261466781525982
  0.4218682792469863  0.4791975606737893  0.2970502800283015
  0.4522151173090947  0.0024036729927488  0.0578385968940580
  0.5802521635645448  0.4044903702366369  0.1726678106085870
  0.7468573372349141  0.3311286384951373  0.2861775917796052
  0.5819123761914113  0.4023394190312928  0.4231892427867550
  0.7323832343288714  0.3221898294422516  0.0568965879119858
  0.8888909623880892  0.2392206168998925  0.1681733238421188
  0.0872950715769250  0.1391989482885521  0.2864803576485855
  0.9695163842642955  0.2606863616440975  0.4361888534464526
  0.0774346487464825  0.1411478041990151  0.0568395479129293
  0.5848429257281538  0.1815211607278542  0.8676795080335680
  0.5285436801627341  0.1731497945218337  0.6097639170646261
  0.7286919424806513  0.0791242515594988  0.9760683588346026
  0.7302590124545176  0.0798921747680197  0.7463863978534491
  0.8796480991135951  0.0016488491033542  0.8602795698246055
  0.0405447192772925  0.4132204334783580  0.9931166876874755
  0.8736245057550462  0.4965399169182589  0.6112846717437321
  0.0586024354775532  0.4128656930081149  0.7249941038419365
  0.2355776500520079  0.3361817026029712  0.8579175308090328
  0.3937417848129954  0.2576149668589380  0.9868358358360396
  0.2238725190256758  0.3253644190016871  0.6253969642438690
  0.3875164803438693  0.2489296282639941  0.7395033756415614
  0.2439830555575853  0.0641217010927733  0.6651139743843970
  0.2592313447899102  0.0635234644272700  0.9282692220350910
  0.4208765746182834  0.4790189611574505  0.7971596089544875
  0.4522243362904632  0.0021890178343114  0.5601823101565202
  0.5768563778565508  0.4032588550515541  0.6748767020565438
  0.7449620345845389  0.3288192753613544  0.7907858912280972
  0.5834008414533685  0.4030409655816669  0.9241589028478572
  0.7342558160283019  0.3242134546576736  0.5631090557936034
  0.8881575568836197  0.2387773340070041  0.6737631663551227
  0.0810259531425643  0.1410104667231664  0.7837874327665020
  0.9171501708045824  0.2292494222918009  0.9215177584198742
  0.0834943235998722  0.1382097734191134  0.5535942411368069
  0.5740290079143904  0.6781245165210166  0.3654358211896209
  0.5268129941271056  0.6702177754358729  0.1092483655621947
  0.7157976865318219  0.5773702457629426  0.4758683068967713
  0.7214706581310040  0.5794928220468520  0.2437501254164758
  0.8734594459725784  0.5046893253621718  0.3605301082562775
  0.0484886075112527  0.9119039369606057  0.4931883658071214
  0.8878647047674662  0.9925136753076629  0.1082412360910538
  0.0614290271055467  0.9088629042544056  0.2225657942818131
  0.2373858056499643  0.8358664028122433  0.3554792342537283
  0.3919167176778018  0.7564216303971278  0.4870196179014314
  0.2403946379485760  0.8336157173670884  0.1214299225044044
  0.3853691712259533  0.7487767076510821  0.2368880595777867
  0.2361054032742445  0.5658405904954265  0.1626589160744629
  0.2497369293592442  0.5625325914561898  0.4271610486735398
  0.4405797132499458  0.9826910784892959  0.3000665081080172
  0.4434988286301689  0.5006678767103878  0.0572930600294939
  0.5864850262428121  0.9032872856543719  0.1737481218114283
  0.7415653779856370  0.8237918085883678  0.2869745434728372
  0.5894022364119635  0.9016801406575752  0.4242801235543823
  0.7326267471851295  0.8190864098479125  0.0574484680873866
  0.8878185171534838  0.7363497622236892  0.1708406028722109
  0.0763572779780475  0.6422303168957768  0.2845802882351975
  0.9071410873143151  0.7269235504588067  0.4200238464749475
  0.0714417611512843  0.6428688135398914  0.0561573310488725
  0.5750664351526282  0.6787125920356019  0.8657071903619382
  0.5229866171523128  0.6682890977227771  0.6087843135925866
  0.7187314993152754  0.5780397460137436  0.9759092571209607
  0.7185647618100646  0.5785135914911095  0.7435505639164717
  0.8732302921789525  0.5035231733920043  0.8604196022987409
  0.0490711407677580  0.9116849739950794  0.9931677919934572
  0.8861666578647913  0.9918925883749807  0.6130277372170525
  0.0604280239943762  0.9091402598265788  0.7239435910880871
  0.2367373357917160  0.8354658990093782  0.8562913562528820
  0.3932999438467277  0.7569209241061259  0.9871893658708117
  0.2385047136483891  0.8332017603947435  0.6203623402001668
  0.3846609566883572  0.7487515393021411  0.7370107091760190
  0.2343361723847721  0.5654563229613601  0.6636692593395068
  0.2517457970510932  0.5632659183987982  0.9280248260540631
  0.4297471947303677  0.9800759573558651  0.7985869360319811
  0.4360121737561542  0.4961657373580053  0.5557153951002789
  0.5839004506889012  0.9031271342766445  0.6737260873352184
  0.7417029904121222  0.8252264001333387  0.7878586433676489
  0.5878232635219405  0.9023568732914953  0.9244892287807644
  0.7308520483627916  0.8183564064035380  0.5575411089129574
  0.8866398959802453  0.7363155236299193  0.6711811764185924
  0.0752461092755041  0.6418366727983056  0.7851457961105979
  0.9078352288107752  0.7268936584027514  0.9204850485040623
  0.0699107434961803  0.6426035066970641  0.5565858438650508
 
  0.00000000E+00  0.00000000E+00  0.00000000E+00
  0.00000000E+00  0.00000000E+00  0.00000000E+00
  0.00000000E+00  0.00000000E+00  0.00000000E+00
  0.00000000E+00  0.00000000E+00  0.00000000E+00
  0.00000000E+00  0.00000000E+00  0.00000000E+00
  0.00000000E+00  0.00000000E+00  0.00000000E+00
  0.00000000E+00  0.00000000E+00  0.00000000E+00
  0.00000000E+00  0.00000000E+00  0.00000000E+00
  0.00000000E+00  0.00000000E+00  0.00000000E+00
  0.00000000E+00  0.00000000E+00  0.00000000E+00
  0.00000000E+00  0.00000000E+00  0.00000000E+00
  0.00000000E+00  0.00000000E+00  0.00000000E+00
  0.00000000E+00  0.00000000E+00  0.00000000E+00
  0.00000000E+00  0.00000000E+00  0.00000000E+00
  0.00000000E+00  0.00000000E+00  0.00000000E+00
  0.00000000E+00  0.00000000E+00  0.00000000E+00
  0.00000000E+00  0.00000000E+00  0.00000000E+00
  0.00000000E+00  0.00000000E+00  0.00000000E+00
  0.00000000E+00  0.00000000E+00  0.00000000E+00
  0.00000000E+00  0.00000000E+00  0.00000000E+00
  0.00000000E+00  0.00000000E+00  0.00000000E+00
  0.00000000E+00  0.00000000E+00  0.00000000E+00
  0.00000000E+00  0.00000000E+00  0.00000000E+00
  0.00000000E+00  0.00000000E+00  0.00000000E+00
  0.00000000E+00  0.00000000E+00  0.00000000E+00
  0.00000000E+00  0.00000000E+00  0.00000000E+00
  0.00000000E+00  0.00000000E+00  0.00000000E+00
  0.00000000E+00  0.00000000E+00  0.00000000E+00
  0.00000000E+00  0.00000000E+00  0.00000000E+00
  0.00000000E+00  0.00000000E+00  0.00000000E+00
  0.00000000E+00  0.00000000E+00  0.00000000E+00
  0.00000000E+00  0.00000000E+00  0.00000000E+00
  0.00000000E+00  0.00000000E+00  0.00000000E+00
  0.00000000E+00  0.00000000E+00  0.00000000E+00
  0.00000000E+00  0.00000000E+00  0.00000000E+00
  0.00000000E+00  0.00000000E+00  0.00000000E+00
  0.00000000E+00  0.00000000E+00  0.00000000E+00
  0.00000000E+00  0.00000000E+00  0.00000000E+00
  0.00000000E+00  0.00000000E+00  0.00000000E+00
  0.00000000E+00  0.00000000E+00  0.00000000E+00
  0.00000000E+00  0.00000000E+00  0.00000000E+00
  0.00000000E+00  0.00000000E+00  0.00000000E+00
  0.00000000E+00  0.00000000E+00  0.00000000E+00
  0.00000000E+00  0.00000000E+00  0.00000000E+00
  0.00000000E+00  0.00000000E+00  0.00000000E+00
  0.00000000E+00  0.00000000E+00  0.00000000E+00
  0.00000000E+00  0.00000000E+00  0.00000000E+00
  0.00000000E+00  0.00000000E+00  0.00000000E+00
  0.00000000E+00  0.00000000E+00  0.00000000E+00
  0.00000000E+00  0.00000000E+00  0.00000000E+00
  0.00000000E+00  0.00000000E+00  0.00000000E+00
  0.00000000E+00  0.00000000E+00  0.00000000E+00
  0.00000000E+00  0.00000000E+00  0.00000000E+00
  0.00000000E+00  0.00000000E+00  0.00000000E+00
  0.00000000E+00  0.00000000E+00  0.00000000E+00
  0.00000000E+00  0.00000000E+00  0.00000000E+00
  0.00000000E+00  0.00000000E+00  0.00000000E+00
  0.00000000E+00  0.00000000E+00  0.00000000E+00
  0.00000000E+00  0.00000000E+00  0.00000000E+00
  0.00000000E+00  0.00000000E+00  0.00000000E+00
  0.00000000E+00  0.00000000E+00  0.00000000E+00
  0.00000000E+00  0.00000000E+00  0.00000000E+00
  0.00000000E+00  0.00000000E+00  0.00000000E+00
  0.00000000E+00  0.00000000E+00  0.00000000E+00
  0.00000000E+00  0.00000000E+00  0.00000000E+00
  0.00000000E+00  0.00000000E+00  0.00000000E+00
  0.00000000E+00  0.00000000E+00  0.00000000E+00
  0.00000000E+00  0.00000000E+00  0.00000000E+00
  0.00000000E+00  0.00000000E+00  0.00000000E+00
  0.00000000E+00  0.00000000E+00  0.00000000E+00
  0.00000000E+00  0.00000000E+00  0.00000000E+00
  0.00000000E+00  0.00000000E+00  0.00000000E+00
  0.00000000E+00  0.00000000E+00  0.00000000E+00
  0.00000000E+00  0.00000000E+00  0.00000000E+00
  0.00000000E+00  0.00000000E+00  0.00000000E+00
  0.00000000E+00  0.00000000E+00  0.00000000E+00
  0.00000000E+00  0.00000000E+00  0.00000000E+00
  0.00000000E+00  0.00000000E+00  0.00000000E+00
  0.00000000E+00  0.00000000E+00  0.00000000E+00
  0.00000000E+00  0.00000000E+00  0.00000000E+00
  0.00000000E+00  0.00000000E+00  0.00000000E+00
  0.00000000E+00  0.00000000E+00  0.00000000E+00
  0.00000000E+00  0.00000000E+00  0.00000000E+00
  0.00000000E+00  0.00000000E+00  0.00000000E+00
  0.00000000E+00  0.00000000E+00  0.00000000E+00
  0.00000000E+00  0.00000000E+00  0.00000000E+00
  0.00000000E+00  0.00000000E+00  0.00000000E+00
  0.00000000E+00  0.00000000E+00  0.00000000E+00
  0.00000000E+00  0.00000000E+00  0.00000000E+00
  0.00000000E+00  0.00000000E+00  0.00000000E+00
  0.00000000E+00  0.00000000E+00  0.00000000E+00
  0.00000000E+00  0.00000000E+00  0.00000000E+00
  0.00000000E+00  0.00000000E+00  0.00000000E+00
  0.00000000E+00  0.00000000E+00  0.00000000E+00
  0.00000000E+00  0.00000000E+00  0.00000000E+00
  0.00000000E+00  0.00000000E+00  0.00000000E+00
  0.00000000E+00  0.00000000E+00  0.00000000E+00
  0.00000000E+00  0.00000000E+00  0.00000000E+00
  0.00000000E+00  0.00000000E+00  0.00000000E+00
  0.00000000E+00  0.00000000E+00  0.00000000E+00
  0.00000000E+00  0.00000000E+00  0.00000000E+00
  0.00000000E+00  0.00000000E+00  0.00000000E+00
  0.00000000E+00  0.00000000E+00  0.00000000E+00
  0.00000000E+00  0.00000000E+00  0.00000000E+00
  0.00000000E+00  0.00000000E+00  0.00000000E+00
  0.00000000E+00  0.00000000E+00  0.00000000E+00
  0.00000000E+00  0.00000000E+00  0.00000000E+00
  0.00000000E+00  0.00000000E+00  0.00000000E+00
  0.00000000E+00  0.00000000E+00  0.00000000E+00
  0.00000000E+00  0.00000000E+00  0.00000000E+00
  0.00000000E+00  0.00000000E+00  0.00000000E+00
  0.00000000E+00  0.00000000E+00  0.00000000E+00
  0.00000000E+00  0.00000000E+00  0.00000000E+00
  0.00000000E+00  0.00000000E+00  0.00000000E+00
  0.00000000E+00  0.00000000E+00  0.00000000E+00
  0.00000000E+00  0.00000000E+00  0.00000000E+00
  0.00000000E+00  0.00000000E+00  0.00000000E+00
  0.00000000E+00  0.00000000E+00  0.00000000E+00
  0.00000000E+00  0.00000000E+00  0.00000000E+00
  0.00000000E+00  0.00000000E+00  0.00000000E+00
  0.00000000E+00  0.00000000E+00  0.00000000E+00
  0.00000000E+00  0.00000000E+00  0.00000000E+00
  0.00000000E+00  0.00000000E+00  0.00000000E+00
  0.00000000E+00  0.00000000E+00  0.00000000E+00
  0.00000000E+00  0.00000000E+00  0.00000000E+00
  0.00000000E+00  0.00000000E+00  0.00000000E+00
  0.00000000E+00  0.00000000E+00  0.00000000E+00
  0.00000000E+00  0.00000000E+00  0.00000000E+00
  0.00000000E+00  0.00000000E+00  0.00000000E+00
  0.00000000E+00  0.00000000E+00  0.00000000E+00
  0.00000000E+00  0.00000000E+00  0.00000000E+00
  0.00000000E+00  0.00000000E+00  0.00000000E+00
  0.00000000E+00  0.00000000E+00  0.00000000E+00
  0.00000000E+00  0.00000000E+00  0.00000000E+00
  0.00000000E+00  0.00000000E+00  0.00000000E+00
  0.00000000E+00  0.00000000E+00  0.00000000E+00
  0.00000000E+00  0.00000000E+00  0.00000000E+00
  0.00000000E+00  0.00000000E+00  0.00000000E+00
  0.00000000E+00  0.00000000E+00  0.00000000E+00
  0.00000000E+00  0.00000000E+00  0.00000000E+00
  0.00000000E+00  0.00000000E+00  0.00000000E+00
  0.00000000E+00  0.00000000E+00  0.00000000E+00
  0.00000000E+00  0.00000000E+00  0.00000000E+00
  0.00000000E+00  0.00000000E+00  0.00000000E+00
  0.00000000E+00  0.00000000E+00  0.00000000E+00
  0.00000000E+00  0.00000000E+00  0.00000000E+00
  0.00000000E+00  0.00000000E+00  0.00000000E+00
  0.00000000E+00  0.00000000E+00  0.00000000E+00
  0.00000000E+00  0.00000000E+00  0.00000000E+00
  0.00000000E+00  0.00000000E+00  0.00000000E+00
  0.00000000E+00  0.00000000E+00  0.00000000E+00
  0.00000000E+00  0.00000000E+00  0.00000000E+00
  0.00000000E+00  0.00000000E+00  0.00000000E+00
  0.00000000E+00  0.00000000E+00  0.00000000E+00
  0.00000000E+00  0.00000000E+00  0.00000000E+00
  0.00000000E+00  0.00000000E+00  0.00000000E+00
  0.00000000E+00  0.00000000E+00  0.00000000E+00
  0.00000000E+00  0.00000000E+00  0.00000000E+00
  0.00000000E+00  0.00000000E+00  0.00000000E+00
  0.00000000E+00  0.00000000E+00  0.00000000E+00
  0.00000000E+00  0.00000000E+00  0.00000000E+00
  0.00000000E+00  0.00000000E+00  0.00000000E+00
  0.00000000E+00  0.00000000E+00  0.00000000E+00
  0.00000000E+00  0.00000000E+00  0.00000000E+00
  0.00000000E+00  0.00000000E+00  0.00000000E+00
  0.00000000E+00  0.00000000E+00  0.00000000E+00
  0.00000000E+00  0.00000000E+00  0.00000000E+00
  0.00000000E+00  0.00000000E+00  0.00000000E+00
  0.00000000E+00  0.00000000E+00  0.00000000E+00
  0.00000000E+00  0.00000000E+00  0.00000000E+00
  0.00000000E+00  0.00000000E+00  0.00000000E+00
  0.00000000E+00  0.00000000E+00  0.00000000E+00
  0.00000000E+00  0.00000000E+00  0.00000000E+00
  0.00000000E+00  0.00000000E+00  0.00000000E+00
  0.00000000E+00  0.00000000E+00  0.00000000E+00
  0.00000000E+00  0.00000000E+00  0.00000000E+00
  0.00000000E+00  0.00000000E+00  0.00000000E+00
  0.00000000E+00  0.00000000E+00  0.00000000E+00
  0.00000000E+00  0.00000000E+00  0.00000000E+00
  0.00000000E+00  0.00000000E+00  0.00000000E+00
  0.00000000E+00  0.00000000E+00  0.00000000E+00
  0.00000000E+00  0.00000000E+00  0.00000000E+00
  0.00000000E+00  0.00000000E+00  0.00000000E+00
  0.00000000E+00  0.00000000E+00  0.00000000E+00
  0.00000000E+00  0.00000000E+00  0.00000000E+00
  0.00000000E+00  0.00000000E+00  0.00000000E+00
  0.00000000E+00  0.00000000E+00  0.00000000E+00
  0.00000000E+00  0.00000000E+00  0.00000000E+00
  0.00000000E+00  0.00000000E+00  0.00000000E+00
  0.00000000E+00  0.00000000E+00  0.00000000E+00
  0.00000000E+00  0.00000000E+00  0.00000000E+00
