supercell of POSCAR                     
   1.03228000000000     
     6.3970863126299999    5.5387332920799999    4.9397337979799998
   -15.9736979067999982   -5.5365852353599996    9.8547656895600007
     6.4026568282999996  -11.0930079636999999    0.0094448205590600
   Sc   Al   N 
    31    64    96
Direct
  0.3764581968393159  0.0717660190509690  0.3103722617319704
  0.8313663453522935  0.3085652532638079  0.4329771552260127
  0.0010820750006530  0.2192248682245577  0.2982250373293809
  0.1937845707256542  0.1481986174160426  0.4379844633498351
  0.9977077265995291  0.2183798176318916  0.0622865703644351
  0.0360493915962934  0.4657271000926286  0.3731309229871869
  0.2229389555807586  0.3874963240508436  0.0049693514270501
  0.3771545852058082  0.0716766199841885  0.8118025977061265
  0.8321962590593373  0.3090459087123634  0.9341646459296271
  0.0229247122711485  0.2295552525254507  0.8045710140525557
  0.2011986642738819  0.1489466064493996  0.9412594833897714
  0.0211540484612556  0.2304904070377773  0.5672607847787390
  0.0387822953444115  0.4643005213027536  0.8700733450578113
  0.2242794044592884  0.3880732182951405  0.5003911557761498
  0.6936732299612487  0.1294076524992036  0.6193279503926874
  0.3508921644943896  0.5603587401003836  0.3057244711110627
  0.8311537892336602  0.8085229592510146  0.4327842453315469
  0.0222745930994890  0.7324952506006781  0.3068693701352245
  0.1870799673025374  0.6509278464072921  0.4379297374561304
  0.0209582646032231  0.7333464107502863  0.0668854014126765
  0.0463392991668599  0.9639151920154561  0.3701922928149628
  0.2363655403240230  0.8930543069133137  0.0047843025005747
  0.6885007128583425  0.6284981211742249  0.1186408671427586
  0.3660793328376855  0.5690453558025155  0.8092233779624323
  0.8324947878031566  0.8088581769272949  0.9329698915144462
  0.0214723384842586  0.7317851600572283  0.8045096486603285
  0.1896779612684298  0.6505570277027246  0.9383168586787392
  0.0212615802587948  0.7334802722771343  0.5652372605183160
  0.0496723448975160  0.9651975930279235  0.8721598235595778
  0.2357482301096425  0.8930231337947561  0.5050622179228839
  0.6880992668906174  0.6284577416248780  0.6178270104673445
  0.3830160000621348  0.0753689747936619  0.0674007163033821
  0.5271524183097540  0.4826873989949902  0.4319265889628880
  0.5289325339982014  0.4839732416053764  0.1926358324947657
  0.6860601784573177  0.4070189113862313  0.3109505131020285
  0.6836510032671512  0.4023865831623112  0.0634080098981968
  0.8567131915718917  0.3280836894924306  0.1857276010451656
  0.2039978579414026  0.1481474478721196  0.1854490684084951
  0.0459268241554298  0.4734939088838601  0.1212564768553648
  0.1768729549243560  0.3640415118905409  0.2364405586204938
  0.3915180453470199  0.3054417263207796  0.1284245190262965
  0.5594640805218845  0.2297672613275168  0.2452011357420076
  0.3899854016029849  0.3061178673336613  0.3731138376254037
  0.5557607596854410  0.2279546741066909  0.0088571918453582
  0.8894299061710242  0.0513074460495986  0.2464954053035271
  0.7301051207254687  0.1360193718271105  0.3738275366900368
  0.8878469058071659  0.0504284610521850  0.0010469524526329
  0.3614531989008256  0.0715971084113818  0.5649774510636476
  0.5296169448446193  0.4838464765086457  0.9345535143020314
  0.5323757951499104  0.4849935641040304  0.6905981792939428
  0.6890930417069896  0.4072424987015211  0.8108424884359238
  0.6852632029721093  0.4020296938208645  0.5634787110251978
  0.8546827239024992  0.3223719565779390  0.6842317352927623
  0.1981053736664435  0.1484510860947665  0.6863418770683793
  0.0469412327090311  0.4702505643853385  0.6230090405727111
  0.2286623198317912  0.3876140675197632  0.7484439678367352
  0.3949485915681663  0.3066454458068577  0.6286796384676023
  0.5577394856376046  0.2299429077624353  0.7482399314330266
  0.3938961287262472  0.3074732990795255  0.8737289500314631
  0.5523717677091255  0.2276075840266572  0.5052584636646813
  0.8902723198306859  0.0516408078815331  0.7484931881883270
  0.7305575573547003  0.1362310801134257  0.8764549091169229
  0.8863397652510372  0.0504832915037312  0.5007750496015717
  0.3541337958372779  0.5702364881646247  0.0624793318682748
  0.5402540514784988  0.9863298441338557  0.4341886910488171
  0.5561022219793870  0.9960224939335305  0.1906155514843704
  0.6931706716249906  0.9073149852200828  0.3104432003552873
  0.6917380041891690  0.9031032044121687  0.0645576935119365
  0.8539082753289264  0.8215633562423221  0.1837181793515725
  0.1935453863067167  0.6502472302616553  0.1843854252379984
  0.0559374450481371  0.9707517984055016  0.1227072204758386
  0.2379229509293097  0.8908806103531930  0.2486225494460186
  0.3998960726817700  0.8101637499066712  0.1297904845450901
  0.5508953440113231  0.7267843166813819  0.2471339560995460
  0.3958488497667787  0.8086617164200760  0.3737492897986598
  0.5494432695632412  0.7270697932153212  0.0046813027365005
  0.8807838967595245  0.5523233031526757  0.2461123860900898
  0.7168270960192871  0.6334045258651599  0.3729787004553060
  0.8794143782448529  0.5517418267353520  0.9997751434770024
  0.3533649450659908  0.5702191019169973  0.5637980394424247
  0.5541731796852503  0.9951525233973513  0.9458379237707248
  0.5429616145349314  0.9874153461078947  0.6946912158068557
  0.6938639188853557  0.9074380266467941  0.8123330006128313
  0.6896151911996071  0.9021925837392857  0.5643093429874355
  0.8537733088279538  0.8217308503374738  0.6838482874691891
  0.1931846153268353  0.6494794290467283  0.6855869420426473
  0.0520131695380783  0.9697536927478581  0.6234010975464912
  0.2376651499552338  0.8906549035276115  0.7514667435795772
  0.3974281969723279  0.8081005959461791  0.6294665447563190
  0.5536303825602573  0.7285898067906302  0.7468338259762390
  0.3980123759507777  0.8104396471033368  0.8748823161749186
  0.5467711853191872  0.7251313607955368  0.5025480227782708
  0.8827136645006490  0.5520805882225304  0.7466010257834839
  0.7234407854734002  0.6353342172794214  0.8739565915312610
  0.8788151704967078  0.5516021100672006  0.5007597008335694
  0.5837117927424345  0.1824929069925787  0.3692459608582723
  0.5310361594050192  0.1758091360667891  0.1112037346292141
  0.7287268952620849  0.0798525762116640  0.4791471844640682
  0.7451786522805577  0.0848329819426894  0.2507642881087122
  0.8811699967292199  0.0008209991924488  0.3616954657117759
  0.0424262683302317  0.4128089758800542  0.4948130752682118
  0.8739419582968040  0.4963395304107507  0.1085191393089033
  0.0620386206798003  0.4226964840033958  0.2273354164851824
  0.2271760873614852  0.3288848394164532  0.3568780754470211
  0.3954713431896906  0.2570969333025417  0.4889203689235657
  0.2263516072189233  0.3253509670210448  0.1145702078931663
  0.3886162337461698  0.2495535500440909  0.2389770671292482
  0.2480505669996020  0.0638452376062375  0.1625571349865282
  0.2608367185739908  0.0629244192187528  0.4287472806350721
  0.4205485747021669  0.4775305737594238  0.2969849927288593
  0.4472485946584968  0.9966841484071196  0.0560886000891898
  0.5778737426965534  0.4028493845801293  0.1729762207056709
  0.7456421353448022  0.3298324960028935  0.2900729326160416
  0.5818076640846002  0.4016822633999411  0.4243008719422505
  0.7350546052620501  0.3235473363794625  0.0586830984026534
  0.9537970953280350  0.2707944207414386  0.1881416829826392
  0.0864046941728276  0.1386111045651433  0.2845742194675793
  0.9119748546992739  0.2300263806725553  0.4244733298482544
  0.0820033113180116  0.1391900924232985  0.0560768455228882
  0.5841499851985716  0.1825858912282996  0.8660341061486818
  0.5319840407547716  0.1715843175522025  0.6110261339187346
  0.7428830199571266  0.0838074928591936  0.9768608145244428
  0.7326667841604930  0.0809889656197313  0.7438210879821057
  0.8814714538311534  0.0004682334810511  0.8590051278346849
  0.0424016241327081  0.4140864555835719  0.9939418383920682
  0.8765863450198239  0.4951927358201544  0.6100700046976897
  0.0590131352163183  0.4119283828218059  0.7243151983003742
  0.2340086603562810  0.3349146959541471  0.8549389862301808
  0.3981195674133886  0.2590288121942521  0.9866985179073424
  0.2359293931110642  0.3322854626650837  0.6211417913653037
  0.3868139607382588  0.2489250115957233  0.7368664305984822
  0.2419625182832874  0.0645731209325291  0.6637641721956484
  0.2655753765878686  0.0625017973622164  0.9295823097451716
  0.4234155247314675  0.4798282131952334  0.7971705430142890
  0.4517319444930266  0.0012738491102056  0.5588240226251031
  0.5799793328384339  0.4033864721982923  0.6736151842606546
  0.7443614222274206  0.3281564945618882  0.7885814956331174
  0.5830970283685986  0.4027536317405094  0.9226742251654940
  0.7335133851421958  0.3216996326180848  0.5593502383993609
  0.8919367573683914  0.2387677763156120  0.6725287480403281
  0.0839055418853007  0.1407324127195793  0.7873054876395784
  0.9126944037400335  0.2305506802540336  0.9189610229511089
  0.0768121673090505  0.1413139952865237  0.5567122109918046
  0.5693199903599151  0.6766893824251738  0.3643095982191014
  0.5270536684365297  0.6700896221710479  0.1088174234469861
  0.7173157544713717  0.5775143213029352  0.4762374876312521
  0.7199073664284654  0.5785159516121396  0.2428858303423027
  0.8710425924467771  0.5035832558440347  0.3601403562404570
  0.0451240358398550  0.9111671553749616  0.4934591403790378
  0.8847318986831070  0.9937484531613947  0.1102217389800870
  0.0607739285295352  0.9102616366163687  0.2231421559045117
  0.2381952873628421  0.8373723753968179  0.3556161481055042
  0.3941948763230982  0.7582011249179033  0.4876200601197738
  0.2377758193410457  0.8329076403724329  0.1210352468614033
  0.3850723584189168  0.7497332986965262  0.2363406995523860
  0.2363368205311502  0.5672509656009908  0.1601731841806000
  0.2513018946948335  0.5652886769407388  0.4306428360150534
  0.4348767114680925  0.9828455977920498  0.2970140587028496
  0.4400493479108860  0.4982136897526317  0.0561256976665732
  0.5868573047204180  0.9060313914849019  0.1742134465247105
  0.7403012547796592  0.8248708942042313  0.2871176424520456
  0.5876546278957377  0.9027820768387329  0.4240263333500849
  0.7324857704450949  0.8198350339168243  0.0579539199405801
  0.8884111131079067  0.7370387077705445  0.1717168917311582
  0.0753034688145249  0.6415381250767354  0.2831065360999361
  0.9024771279648292  0.7258765100019673  0.4189494302771593
  0.0704693404955776  0.6425621384084579  0.0548839873077327
  0.5762657141891978  0.6795923420321657  0.8657269669551084
  0.5265881818038949  0.6700276061548962  0.6096135099382494
  0.7180171682481955  0.5781543330019474  0.9754705553838932
  0.7220768895612011  0.5789700100602317  0.7432899982265653
  0.8739538429531493  0.5028509865050239  0.8598383799112028
  0.0442470962943702  0.9105658211800147  0.9928658609078198
  0.8820937925144676  0.9944053315549723  0.6104426937307963
  0.0604643880000282  0.9104937674778952  0.7236888386645006
  0.2349044105964069  0.8348149041081925  0.8547273411157619
  0.3950629167017254  0.7586326379461852  0.9878132245821121
  0.2400512753487192  0.8347292674783517  0.6223736635726738
  0.3850992411806757  0.7492743767105310  0.7371593655937119
  0.2360308148774095  0.5655804568317464  0.6639342699973483
  0.2535246757632663  0.5643287224478399  0.9270080948226322
  0.4347595288544213  0.9825746399155761  0.8013584236607656
  0.4406201010130957  0.4986449427184354  0.5568036081364838
  0.5845474668519515  0.9037838430923060  0.6742567026208945
  0.7408981289889667  0.8251778646732362  0.7871700023792769
  0.5898533765339451  0.9044147261538313  0.9253083989366644
  0.7309570988989122  0.8193339345396282  0.5574679348780265
  0.8882404905505368  0.7371585076931026  0.6703382013134203
  0.0761332389908205  0.6413414319966080  0.7848386337440942
  0.9073728366586806  0.7270794962636487  0.9196682274215249
  0.0703309896337814  0.6423925698873916  0.5569682558462006
 
  0.00000000E+00  0.00000000E+00  0.00000000E+00
  0.00000000E+00  0.00000000E+00  0.00000000E+00
  0.00000000E+00  0.00000000E+00  0.00000000E+00
  0.00000000E+00  0.00000000E+00  0.00000000E+00
  0.00000000E+00  0.00000000E+00  0.00000000E+00
  0.00000000E+00  0.00000000E+00  0.00000000E+00
  0.00000000E+00  0.00000000E+00  0.00000000E+00
  0.00000000E+00  0.00000000E+00  0.00000000E+00
  0.00000000E+00  0.00000000E+00  0.00000000E+00
  0.00000000E+00  0.00000000E+00  0.00000000E+00
  0.00000000E+00  0.00000000E+00  0.00000000E+00
  0.00000000E+00  0.00000000E+00  0.00000000E+00
  0.00000000E+00  0.00000000E+00  0.00000000E+00
  0.00000000E+00  0.00000000E+00  0.00000000E+00
  0.00000000E+00  0.00000000E+00  0.00000000E+00
  0.00000000E+00  0.00000000E+00  0.00000000E+00
  0.00000000E+00  0.00000000E+00  0.00000000E+00
  0.00000000E+00  0.00000000E+00  0.00000000E+00
  0.00000000E+00  0.00000000E+00  0.00000000E+00
  0.00000000E+00  0.00000000E+00  0.00000000E+00
  0.00000000E+00  0.00000000E+00  0.00000000E+00
  0.00000000E+00  0.00000000E+00  0.00000000E+00
  0.00000000E+00  0.00000000E+00  0.00000000E+00
  0.00000000E+00  0.00000000E+00  0.00000000E+00
  0.00000000E+00  0.00000000E+00  0.00000000E+00
  0.00000000E+00  0.00000000E+00  0.00000000E+00
  0.00000000E+00  0.00000000E+00  0.00000000E+00
  0.00000000E+00  0.00000000E+00  0.00000000E+00
  0.00000000E+00  0.00000000E+00  0.00000000E+00
  0.00000000E+00  0.00000000E+00  0.00000000E+00
  0.00000000E+00  0.00000000E+00  0.00000000E+00
  0.00000000E+00  0.00000000E+00  0.00000000E+00
  0.00000000E+00  0.00000000E+00  0.00000000E+00
  0.00000000E+00  0.00000000E+00  0.00000000E+00
  0.00000000E+00  0.00000000E+00  0.00000000E+00
  0.00000000E+00  0.00000000E+00  0.00000000E+00
  0.00000000E+00  0.00000000E+00  0.00000000E+00
  0.00000000E+00  0.00000000E+00  0.00000000E+00
  0.00000000E+00  0.00000000E+00  0.00000000E+00
  0.00000000E+00  0.00000000E+00  0.00000000E+00
  0.00000000E+00  0.00000000E+00  0.00000000E+00
  0.00000000E+00  0.00000000E+00  0.00000000E+00
  0.00000000E+00  0.00000000E+00  0.00000000E+00
  0.00000000E+00  0.00000000E+00  0.00000000E+00
  0.00000000E+00  0.00000000E+00  0.00000000E+00
  0.00000000E+00  0.00000000E+00  0.00000000E+00
  0.00000000E+00  0.00000000E+00  0.00000000E+00
  0.00000000E+00  0.00000000E+00  0.00000000E+00
  0.00000000E+00  0.00000000E+00  0.00000000E+00
  0.00000000E+00  0.00000000E+00  0.00000000E+00
  0.00000000E+00  0.00000000E+00  0.00000000E+00
  0.00000000E+00  0.00000000E+00  0.00000000E+00
  0.00000000E+00  0.00000000E+00  0.00000000E+00
  0.00000000E+00  0.00000000E+00  0.00000000E+00
  0.00000000E+00  0.00000000E+00  0.00000000E+00
  0.00000000E+00  0.00000000E+00  0.00000000E+00
  0.00000000E+00  0.00000000E+00  0.00000000E+00
  0.00000000E+00  0.00000000E+00  0.00000000E+00
  0.00000000E+00  0.00000000E+00  0.00000000E+00
  0.00000000E+00  0.00000000E+00  0.00000000E+00
  0.00000000E+00  0.00000000E+00  0.00000000E+00
  0.00000000E+00  0.00000000E+00  0.00000000E+00
  0.00000000E+00  0.00000000E+00  0.00000000E+00
  0.00000000E+00  0.00000000E+00  0.00000000E+00
  0.00000000E+00  0.00000000E+00  0.00000000E+00
  0.00000000E+00  0.00000000E+00  0.00000000E+00
  0.00000000E+00  0.00000000E+00  0.00000000E+00
  0.00000000E+00  0.00000000E+00  0.00000000E+00
  0.00000000E+00  0.00000000E+00  0.00000000E+00
  0.00000000E+00  0.00000000E+00  0.00000000E+00
  0.00000000E+00  0.00000000E+00  0.00000000E+00
  0.00000000E+00  0.00000000E+00  0.00000000E+00
  0.00000000E+00  0.00000000E+00  0.00000000E+00
  0.00000000E+00  0.00000000E+00  0.00000000E+00
  0.00000000E+00  0.00000000E+00  0.00000000E+00
  0.00000000E+00  0.00000000E+00  0.00000000E+00
  0.00000000E+00  0.00000000E+00  0.00000000E+00
  0.00000000E+00  0.00000000E+00  0.00000000E+00
  0.00000000E+00  0.00000000E+00  0.00000000E+00
  0.00000000E+00  0.00000000E+00  0.00000000E+00
  0.00000000E+00  0.00000000E+00  0.00000000E+00
  0.00000000E+00  0.00000000E+00  0.00000000E+00
  0.00000000E+00  0.00000000E+00  0.00000000E+00
  0.00000000E+00  0.00000000E+00  0.00000000E+00
  0.00000000E+00  0.00000000E+00  0.00000000E+00
  0.00000000E+00  0.00000000E+00  0.00000000E+00
  0.00000000E+00  0.00000000E+00  0.00000000E+00
  0.00000000E+00  0.00000000E+00  0.00000000E+00
  0.00000000E+00  0.00000000E+00  0.00000000E+00
  0.00000000E+00  0.00000000E+00  0.00000000E+00
  0.00000000E+00  0.00000000E+00  0.00000000E+00
  0.00000000E+00  0.00000000E+00  0.00000000E+00
  0.00000000E+00  0.00000000E+00  0.00000000E+00
  0.00000000E+00  0.00000000E+00  0.00000000E+00
  0.00000000E+00  0.00000000E+00  0.00000000E+00
  0.00000000E+00  0.00000000E+00  0.00000000E+00
  0.00000000E+00  0.00000000E+00  0.00000000E+00
  0.00000000E+00  0.00000000E+00  0.00000000E+00
  0.00000000E+00  0.00000000E+00  0.00000000E+00
  0.00000000E+00  0.00000000E+00  0.00000000E+00
  0.00000000E+00  0.00000000E+00  0.00000000E+00
  0.00000000E+00  0.00000000E+00  0.00000000E+00
  0.00000000E+00  0.00000000E+00  0.00000000E+00
  0.00000000E+00  0.00000000E+00  0.00000000E+00
  0.00000000E+00  0.00000000E+00  0.00000000E+00
  0.00000000E+00  0.00000000E+00  0.00000000E+00
  0.00000000E+00  0.00000000E+00  0.00000000E+00
  0.00000000E+00  0.00000000E+00  0.00000000E+00
  0.00000000E+00  0.00000000E+00  0.00000000E+00
  0.00000000E+00  0.00000000E+00  0.00000000E+00
  0.00000000E+00  0.00000000E+00  0.00000000E+00
  0.00000000E+00  0.00000000E+00  0.00000000E+00
  0.00000000E+00  0.00000000E+00  0.00000000E+00
  0.00000000E+00  0.00000000E+00  0.00000000E+00
  0.00000000E+00  0.00000000E+00  0.00000000E+00
  0.00000000E+00  0.00000000E+00  0.00000000E+00
  0.00000000E+00  0.00000000E+00  0.00000000E+00
  0.00000000E+00  0.00000000E+00  0.00000000E+00
  0.00000000E+00  0.00000000E+00  0.00000000E+00
  0.00000000E+00  0.00000000E+00  0.00000000E+00
  0.00000000E+00  0.00000000E+00  0.00000000E+00
  0.00000000E+00  0.00000000E+00  0.00000000E+00
  0.00000000E+00  0.00000000E+00  0.00000000E+00
  0.00000000E+00  0.00000000E+00  0.00000000E+00
  0.00000000E+00  0.00000000E+00  0.00000000E+00
  0.00000000E+00  0.00000000E+00  0.00000000E+00
  0.00000000E+00  0.00000000E+00  0.00000000E+00
  0.00000000E+00  0.00000000E+00  0.00000000E+00
  0.00000000E+00  0.00000000E+00  0.00000000E+00
  0.00000000E+00  0.00000000E+00  0.00000000E+00
  0.00000000E+00  0.00000000E+00  0.00000000E+00
  0.00000000E+00  0.00000000E+00  0.00000000E+00
  0.00000000E+00  0.00000000E+00  0.00000000E+00
  0.00000000E+00  0.00000000E+00  0.00000000E+00
  0.00000000E+00  0.00000000E+00  0.00000000E+00
  0.00000000E+00  0.00000000E+00  0.00000000E+00
  0.00000000E+00  0.00000000E+00  0.00000000E+00
  0.00000000E+00  0.00000000E+00  0.00000000E+00
  0.00000000E+00  0.00000000E+00  0.00000000E+00
  0.00000000E+00  0.00000000E+00  0.00000000E+00
  0.00000000E+00  0.00000000E+00  0.00000000E+00
  0.00000000E+00  0.00000000E+00  0.00000000E+00
  0.00000000E+00  0.00000000E+00  0.00000000E+00
  0.00000000E+00  0.00000000E+00  0.00000000E+00
  0.00000000E+00  0.00000000E+00  0.00000000E+00
  0.00000000E+00  0.00000000E+00  0.00000000E+00
  0.00000000E+00  0.00000000E+00  0.00000000E+00
  0.00000000E+00  0.00000000E+00  0.00000000E+00
  0.00000000E+00  0.00000000E+00  0.00000000E+00
  0.00000000E+00  0.00000000E+00  0.00000000E+00
  0.00000000E+00  0.00000000E+00  0.00000000E+00
  0.00000000E+00  0.00000000E+00  0.00000000E+00
  0.00000000E+00  0.00000000E+00  0.00000000E+00
  0.00000000E+00  0.00000000E+00  0.00000000E+00
  0.00000000E+00  0.00000000E+00  0.00000000E+00
  0.00000000E+00  0.00000000E+00  0.00000000E+00
  0.00000000E+00  0.00000000E+00  0.00000000E+00
  0.00000000E+00  0.00000000E+00  0.00000000E+00
  0.00000000E+00  0.00000000E+00  0.00000000E+00
  0.00000000E+00  0.00000000E+00  0.00000000E+00
  0.00000000E+00  0.00000000E+00  0.00000000E+00
  0.00000000E+00  0.00000000E+00  0.00000000E+00
  0.00000000E+00  0.00000000E+00  0.00000000E+00
  0.00000000E+00  0.00000000E+00  0.00000000E+00
  0.00000000E+00  0.00000000E+00  0.00000000E+00
  0.00000000E+00  0.00000000E+00  0.00000000E+00
  0.00000000E+00  0.00000000E+00  0.00000000E+00
  0.00000000E+00  0.00000000E+00  0.00000000E+00
  0.00000000E+00  0.00000000E+00  0.00000000E+00
  0.00000000E+00  0.00000000E+00  0.00000000E+00
  0.00000000E+00  0.00000000E+00  0.00000000E+00
  0.00000000E+00  0.00000000E+00  0.00000000E+00
  0.00000000E+00  0.00000000E+00  0.00000000E+00
  0.00000000E+00  0.00000000E+00  0.00000000E+00
  0.00000000E+00  0.00000000E+00  0.00000000E+00
  0.00000000E+00  0.00000000E+00  0.00000000E+00
  0.00000000E+00  0.00000000E+00  0.00000000E+00
  0.00000000E+00  0.00000000E+00  0.00000000E+00
  0.00000000E+00  0.00000000E+00  0.00000000E+00
  0.00000000E+00  0.00000000E+00  0.00000000E+00
  0.00000000E+00  0.00000000E+00  0.00000000E+00
  0.00000000E+00  0.00000000E+00  0.00000000E+00
  0.00000000E+00  0.00000000E+00  0.00000000E+00
  0.00000000E+00  0.00000000E+00  0.00000000E+00
  0.00000000E+00  0.00000000E+00  0.00000000E+00
  0.00000000E+00  0.00000000E+00  0.00000000E+00
  0.00000000E+00  0.00000000E+00  0.00000000E+00
  0.00000000E+00  0.00000000E+00  0.00000000E+00
  0.00000000E+00  0.00000000E+00  0.00000000E+00
  0.00000000E+00  0.00000000E+00  0.00000000E+00
  0.00000000E+00  0.00000000E+00  0.00000000E+00
