supercell of POSCAR                     
   1.03228000000000     
     6.3970863126299999    5.5387332920799999    4.9397337979799998
   -15.9736979067999982   -5.5365852353599996    9.8547656895600007
     6.4026568282999996  -11.0930079636999999    0.0094448205590600
   Sc   Al   N    O 
    32    64    95     1
Direct
  0.3665412895124902  0.0684228963724891  0.3097404534963601
  0.8344331039184425  0.3094446120703864  0.4337088293273865
  0.0220415750580685  0.2307259180185994  0.3044408514395585
  0.1898932739754855  0.1485039532785208  0.4398584103275951
  0.0209965712915192  0.2324281513433704  0.0669397164679495
  0.0421546155839536  0.4640008760738965  0.3695844084255739
  0.2329038668137073  0.3927901556755344  0.0045328242896758
  0.6902207533251072  0.1288661930820822  0.1184875923717215
  0.3664671113581761  0.0691431817648080  0.8103037970041029
  0.8317039947944167  0.3083617408131616  0.9329197573793238
  0.0221820751529407  0.2318029300809528  0.8043394152174201
  0.1880726345521211  0.1482526676085385  0.9381093651490247
  0.0209133568680002  0.2324639683141712  0.5670049130715356
  0.0421219860087874  0.4639723924320407  0.8699195747658592
  0.2333455141082084  0.3928734123482656  0.5044133961940958
  0.6904113934604155  0.1294804031758332  0.6182896497215111
  0.3721341477754194  0.5705051482813772  0.3104639426424285
  0.8313874260435412  0.8070618929267752  0.4345870561576106
  0.0227501315243757  0.7304324783650529  0.3035288300991823
  0.1912402075842010  0.6483792123655050  0.4379722844970786
  0.0219922233549354  0.7313561426218342  0.0668087361736198
  0.0293955325761601  0.9587964023242037  0.3683016185164476
  0.2307563950391511  0.8918396062027298  0.0042382359166240
  0.6915779212116675  0.6288850556204153  0.1184916921104531
  0.3713574984260077  0.5701894561290572  0.8104295166754838
  0.8322279467738767  0.8081241916452342  0.9337149249036756
  0.0229085521744921  0.7310416646277957  0.8042439304677487
  0.1914402696950432  0.6484858553696569  0.9378964932941329
  0.0213108331906113  0.7308096593430591  0.5676433107597276
  0.0384387462561051  0.9631596104612612  0.8701548895317686
  0.2285917012913927  0.8895945692630320  0.5038020400541185
  0.6910192623325742  0.6288160659583610  0.6187195071947826
  0.3569937252404429  0.0710713690022047  0.0640260396228456
  0.5368310199192052  0.4853475589245235  0.4349595149355778
  0.5387559378187703  0.4862843666345071  0.1925385842213174
  0.6911809911121196  0.4068649358584793  0.3111349099916723
  0.6881249369380029  0.4022757010565030  0.0638566123306674
  0.8526892584619219  0.3215611410442634  0.1836084521803230
  0.1962125485298927  0.1496974274866503  0.1862052715496034
  0.0500779147947910  0.4704574226520393  0.1224328908387804
  0.2321752348162889  0.3885657278246484  0.2486660931543412
  0.3963411282853713  0.3074245261327917  0.1287309094887590
  0.5546430591389822  0.2290029689079276  0.2472331478674192
  0.3944155585401177  0.3079657882697546  0.3735355820742470
  0.5490158760960142  0.2267639221831672  0.0042167687275523
  0.8850137654446968  0.0519995390095289  0.2473703534034399
  0.7263464031771605  0.1355782756555755  0.3750136392854273
  0.8824990725873221  0.0513898961366053  0.0010330698212044
  0.3573772034662213  0.0694666794596941  0.5673546747367126
  0.5365361237632840  0.4851586989856145  0.9348294885572059
  0.5387269868165347  0.4862654154453949  0.6925094062128707
  0.6911191364601095  0.4067902154412195  0.8107627318226349
  0.6888512194305108  0.4028616839432217  0.5640740783193223
  0.8538827396228967  0.3223402687438792  0.6835972040121518
  0.1948125105488430  0.1495611273616433  0.6858650729477205
  0.0505254439381488  0.4709078575091823  0.6228116003029243
  0.2324192831814216  0.3888510204077562  0.7486226124061375
  0.3961986063668803  0.3074927063159620  0.6290695265897455
  0.5538864296892427  0.2287424100114208  0.7464247511348034
  0.3944175532835956  0.3078952483869557  0.8737419109103044
  0.5516199930612089  0.2282735377370244  0.5047700523591914
  0.8841874273392563  0.0522396557160221  0.7470157676036706
  0.7261171359904921  0.1357671023084777  0.8743319811061099
  0.8818744537359180  0.0511491331267493  0.5014409486172369
  0.3591609927216339  0.5716334996634771  0.0643455345835449
  0.5343330935727550  0.9845910881446471  0.4349155565379874
  0.5369981306791018  0.9860992461983145  0.1919630879428382
  0.6895841890041794  0.9072523934294168  0.3115028741803556
  0.6876490659988619  0.9025644426743469  0.0642687160373114
  0.8544359248595228  0.8217642038732791  0.1830938216200764
  0.1971608146219808  0.6489492079028523  0.1855034427088356
  0.0485452911968096  0.9705003312076315  0.1226172971951058
  0.2309590531658685  0.8877394002749028  0.2482463643494555
  0.3965876154529013  0.8072536099987104  0.1290176782512162
  0.5582681977451642  0.7302271963511657  0.2479747399665797
  0.3947890862499648  0.8075799543908815  0.3738065527862062
  0.5510141601254475  0.7273743376720248  0.0050328223205014
  0.8865734624147237  0.5518595894631346  0.2469885538756600
  0.7302642738782197  0.6363941031348261  0.3753377191496554
  0.8843905550659130  0.5509098077122800  0.0004254369821410
  0.3585716279128164  0.5714873458044067  0.5642278279125108
  0.5343801672297133  0.9849320063603102  0.9347646938809078
  0.5358053148192639  0.9857952681377284  0.6922367225634503
  0.6905437223008661  0.9074398296428328  0.8114754903913308
  0.6871281160663969  0.9024131295047511  0.5643995848209613
  0.8536612167193240  0.8220036070662289  0.6843079675173200
  0.1968936916542390  0.6490863775632576  0.6857935111093241
  0.0470454418537471  0.9698899837742871  0.6229345747246953
  0.2307094435779149  0.8882118894975335  0.7488068616986041
  0.3962872844043517  0.8070826638221718  0.6294594831299420
  0.5567046372380346  0.7297617651915118  0.7479990730289359
  0.3948508092399337  0.8079867746606411  0.8740373970915982
  0.5507590443356705  0.7274527973778788  0.5055094982414943
  0.8865667164492521  0.5521197866500032  0.7471378665425874
  0.7292962851845104  0.6363044205205881  0.8751918864425221
  0.8846477965376920  0.5509535372707788  0.5006409704271917
  0.5743931792776067  0.1782045123159222  0.3661441817327500
  0.5288900120760474  0.1708774927676160  0.1099813307992292
  0.7222322028403312  0.0785907707146904  0.4769866182189801
  0.7262787418631476  0.0799602434189879  0.2445707863039530
  0.8770714220489353  0.0030796112369060  0.3612739776417229
  0.0451970659012062  0.4128604667361273  0.4935898004146111
  0.8802883572847833  0.4950758437279106  0.1100731847153185
  0.0594743319147781  0.4109697818871325  0.2226513782830253
  0.2347047226039578  0.3352670505244646  0.3554512367651839
  0.3918680110189712  0.2561477242689350  0.4865978217042937
  0.2375809261637585  0.3332157711167554  0.1204445703768044
  0.3857788877784856  0.2491713764823658  0.2371138277607372
  0.2401932663748170  0.0656153763053950  0.1652252740528724
  0.4279443744474136  0.4806151032794190  0.2980645319819999
  0.4466712174558154  0.0006271888358853  0.0581131288627645
  0.5829384042573409  0.4036288757853654  0.1737612857023549
  0.7428306883394455  0.3262936342970590  0.2885165782210777
  0.5856065971897380  0.4024499937773953  0.4240804214694904
  0.7318833526106374  0.3203751233040464  0.0579250053220690
  0.8897108580118314  0.2379219277238391  0.1718337652837221
  0.0810414616562056  0.1406832128056834  0.2875619238261038
  0.9098133302322537  0.2279319366102683  0.4203530183631941
  0.0735086001224445  0.1423442917906783  0.0576868350331310
  0.5778210214631585  0.1797788819000274  0.8653513083966615
  0.5236766348073871  0.1692795490330496  0.6065533139802071
  0.7227113545145087  0.0790153248963250  0.9765349840593984
  0.7241568127421516  0.0797162943414165  0.7431574092818636
  0.8765478749454942  0.0032314191601372  0.8606114385706434
  0.0439681457221042  0.4122380038842977  0.9932710132445877
  0.8803840417904780  0.4952807357860110  0.6102389528947612
  0.0598027262038201  0.4112801784567637  0.7228051833520865
  0.2355521078835139  0.3358966903217109  0.8555224176733063
  0.3929979706853572  0.2571358509761410  0.9870889030681411
  0.2371334186174892  0.3330545342581459  0.6201727395349010
  0.3850596337192798  0.2488802875340568  0.7365783459081356
  0.2367305909225692  0.0650217299921962  0.6618864389713082
  0.2541625072162361  0.0630297105613380  0.9285798210693699
  0.4279865772100564  0.4805883978362786  0.7978679450631532
  0.4426462451900690  0.9995681176813491  0.5558412337328136
  0.5824487927425679  0.4034086921188447  0.6733356996868523
  0.7420139774090799  0.3259836928782391  0.7872039434461584
  0.5859327513106649  0.4024368622736461  0.9238235013849447
  0.7327447847758890  0.3209051932689562  0.5576734475699183
  0.8884510168217403  0.2379270698597935  0.6707999606395418
  0.0778942578475537  0.1416435656692414  0.7846818460917717
  0.9102096974364287  0.2280158742996008  0.9202261275337307
  0.0736420832565159  0.1420644219555882  0.5555303019574893
  0.5836543964036309  0.6819821699221293  0.3674026141211684
  0.5314645428381510  0.6717815667307505  0.1108727761492432
  0.7256943365057467  0.5794189500020224  0.4770741867825024
  0.7282687966900312  0.5804237202100779  0.2446216684565954
  0.8774939423033175  0.5022094515944815  0.3600929297723994
  0.0442878436863126  0.9126628282804887  0.4939697479820140
  0.8796269259877860  0.9955932301850225  0.1109000585197037
  0.0621783380750927  0.9129631684169581  0.2250956231002306
  0.2355912968101492  0.8353179102225212  0.3550931617893198
  0.3946863093054915  0.7577351520818141  0.4877685440169373
  0.2376663322126120  0.8330170578660656  0.1207430713232114
  0.3882154153980579  0.7495340595334952  0.2374975145569422
  0.2408450325537075  0.5652581959542005  0.1637485982108799
  0.2578842938402417  0.5633290313907509  0.4278605398471598
  0.4257910520273853  0.9811147360782542  0.2981660340496148
  0.4491811818014639  0.5011505176819782  0.0581168576473630
  0.5824512025521145  0.9039615291764989  0.1744429230356914
  0.7493415968420578  0.8294359252900279  0.2904007111545539
  0.5850854301861261  0.9027496748133714  0.4241462580574762
  0.7333225274611905  0.8214193963382641  0.0589149478180317
  0.8909772949753929  0.7384337089248305  0.1711894958445654
  0.0803795271779535  0.6411778210570063  0.2848279497150727
  0.9147045694582943  0.7289297911876105  0.4213548502873294
  0.0755496530271245  0.6418082746511118  0.0562449959418387
  0.5820923296607035  0.6812979191853543  0.8673131478213421
  0.5305609442669876  0.6714910089492321  0.6106542989626220
  0.7253795987005276  0.5792227520651636  0.9768837865468214
  0.7277233699130008  0.5802327919441339  0.7445864695104802
  0.8773799458173812  0.5021513508079423  0.8599471373536787
  0.0437910091699720  0.9126118856703442  0.9944576768435525
  0.8787239288093929  0.9953691193436924  0.6103293503536946
  0.0597839284104538  0.9117371336315472  0.7236938758842086
  0.2356571412369135  0.8357718960072802  0.8558848294931991
  0.3950643165339827  0.7578403081944103  0.9878381181032054
  0.2367644915798124  0.8323851101785067  0.6212991077604713
  0.3870239724493203  0.7493279309513454  0.7376548057271464
  0.2407361585795940  0.5654557003142671  0.6638215220935990
  0.2577354125693887  0.5633447039619810  0.9282185355308030
  0.4257444234820227  0.9806023962593500  0.7977889107049876
  0.4491064279556127  0.5011260994707598  0.5580158632830674
  0.5816531371096261  0.9038481243500769  0.6739142115618648
  0.7449289780429567  0.8278822314117491  0.7893041342158185
  0.5856584497734545  0.9029836254063213  0.9244554290183231
  0.7329978867084606  0.8213837697525719  0.5590779110506290
  0.8899232343548462  0.7382710693275101  0.6715664978178353
  0.0800051594712983  0.6414775374065513  0.7850753822450400
  0.9130872480604708  0.7287939309677256  0.9210034130886271
  0.0755441294982973  0.6416449283212486  0.5562647225190176
  0.2522137035186276  0.0601965756118119  0.4310885167182690
 
  0.00000000E+00  0.00000000E+00  0.00000000E+00
  0.00000000E+00  0.00000000E+00  0.00000000E+00
  0.00000000E+00  0.00000000E+00  0.00000000E+00
  0.00000000E+00  0.00000000E+00  0.00000000E+00
  0.00000000E+00  0.00000000E+00  0.00000000E+00
  0.00000000E+00  0.00000000E+00  0.00000000E+00
  0.00000000E+00  0.00000000E+00  0.00000000E+00
  0.00000000E+00  0.00000000E+00  0.00000000E+00
  0.00000000E+00  0.00000000E+00  0.00000000E+00
  0.00000000E+00  0.00000000E+00  0.00000000E+00
  0.00000000E+00  0.00000000E+00  0.00000000E+00
  0.00000000E+00  0.00000000E+00  0.00000000E+00
  0.00000000E+00  0.00000000E+00  0.00000000E+00
  0.00000000E+00  0.00000000E+00  0.00000000E+00
  0.00000000E+00  0.00000000E+00  0.00000000E+00
  0.00000000E+00  0.00000000E+00  0.00000000E+00
  0.00000000E+00  0.00000000E+00  0.00000000E+00
  0.00000000E+00  0.00000000E+00  0.00000000E+00
  0.00000000E+00  0.00000000E+00  0.00000000E+00
  0.00000000E+00  0.00000000E+00  0.00000000E+00
  0.00000000E+00  0.00000000E+00  0.00000000E+00
  0.00000000E+00  0.00000000E+00  0.00000000E+00
  0.00000000E+00  0.00000000E+00  0.00000000E+00
  0.00000000E+00  0.00000000E+00  0.00000000E+00
  0.00000000E+00  0.00000000E+00  0.00000000E+00
  0.00000000E+00  0.00000000E+00  0.00000000E+00
  0.00000000E+00  0.00000000E+00  0.00000000E+00
  0.00000000E+00  0.00000000E+00  0.00000000E+00
  0.00000000E+00  0.00000000E+00  0.00000000E+00
  0.00000000E+00  0.00000000E+00  0.00000000E+00
  0.00000000E+00  0.00000000E+00  0.00000000E+00
  0.00000000E+00  0.00000000E+00  0.00000000E+00
  0.00000000E+00  0.00000000E+00  0.00000000E+00
  0.00000000E+00  0.00000000E+00  0.00000000E+00
  0.00000000E+00  0.00000000E+00  0.00000000E+00
  0.00000000E+00  0.00000000E+00  0.00000000E+00
  0.00000000E+00  0.00000000E+00  0.00000000E+00
  0.00000000E+00  0.00000000E+00  0.00000000E+00
  0.00000000E+00  0.00000000E+00  0.00000000E+00
  0.00000000E+00  0.00000000E+00  0.00000000E+00
  0.00000000E+00  0.00000000E+00  0.00000000E+00
  0.00000000E+00  0.00000000E+00  0.00000000E+00
  0.00000000E+00  0.00000000E+00  0.00000000E+00
  0.00000000E+00  0.00000000E+00  0.00000000E+00
  0.00000000E+00  0.00000000E+00  0.00000000E+00
  0.00000000E+00  0.00000000E+00  0.00000000E+00
  0.00000000E+00  0.00000000E+00  0.00000000E+00
  0.00000000E+00  0.00000000E+00  0.00000000E+00
  0.00000000E+00  0.00000000E+00  0.00000000E+00
  0.00000000E+00  0.00000000E+00  0.00000000E+00
  0.00000000E+00  0.00000000E+00  0.00000000E+00
  0.00000000E+00  0.00000000E+00  0.00000000E+00
  0.00000000E+00  0.00000000E+00  0.00000000E+00
  0.00000000E+00  0.00000000E+00  0.00000000E+00
  0.00000000E+00  0.00000000E+00  0.00000000E+00
  0.00000000E+00  0.00000000E+00  0.00000000E+00
  0.00000000E+00  0.00000000E+00  0.00000000E+00
  0.00000000E+00  0.00000000E+00  0.00000000E+00
  0.00000000E+00  0.00000000E+00  0.00000000E+00
  0.00000000E+00  0.00000000E+00  0.00000000E+00
  0.00000000E+00  0.00000000E+00  0.00000000E+00
  0.00000000E+00  0.00000000E+00  0.00000000E+00
  0.00000000E+00  0.00000000E+00  0.00000000E+00
  0.00000000E+00  0.00000000E+00  0.00000000E+00
  0.00000000E+00  0.00000000E+00  0.00000000E+00
  0.00000000E+00  0.00000000E+00  0.00000000E+00
  0.00000000E+00  0.00000000E+00  0.00000000E+00
  0.00000000E+00  0.00000000E+00  0.00000000E+00
  0.00000000E+00  0.00000000E+00  0.00000000E+00
  0.00000000E+00  0.00000000E+00  0.00000000E+00
  0.00000000E+00  0.00000000E+00  0.00000000E+00
  0.00000000E+00  0.00000000E+00  0.00000000E+00
  0.00000000E+00  0.00000000E+00  0.00000000E+00
  0.00000000E+00  0.00000000E+00  0.00000000E+00
  0.00000000E+00  0.00000000E+00  0.00000000E+00
  0.00000000E+00  0.00000000E+00  0.00000000E+00
  0.00000000E+00  0.00000000E+00  0.00000000E+00
  0.00000000E+00  0.00000000E+00  0.00000000E+00
  0.00000000E+00  0.00000000E+00  0.00000000E+00
  0.00000000E+00  0.00000000E+00  0.00000000E+00
  0.00000000E+00  0.00000000E+00  0.00000000E+00
  0.00000000E+00  0.00000000E+00  0.00000000E+00
  0.00000000E+00  0.00000000E+00  0.00000000E+00
  0.00000000E+00  0.00000000E+00  0.00000000E+00
  0.00000000E+00  0.00000000E+00  0.00000000E+00
  0.00000000E+00  0.00000000E+00  0.00000000E+00
  0.00000000E+00  0.00000000E+00  0.00000000E+00
  0.00000000E+00  0.00000000E+00  0.00000000E+00
  0.00000000E+00  0.00000000E+00  0.00000000E+00
  0.00000000E+00  0.00000000E+00  0.00000000E+00
  0.00000000E+00  0.00000000E+00  0.00000000E+00
  0.00000000E+00  0.00000000E+00  0.00000000E+00
  0.00000000E+00  0.00000000E+00  0.00000000E+00
  0.00000000E+00  0.00000000E+00  0.00000000E+00
  0.00000000E+00  0.00000000E+00  0.00000000E+00
  0.00000000E+00  0.00000000E+00  0.00000000E+00
  0.00000000E+00  0.00000000E+00  0.00000000E+00
  0.00000000E+00  0.00000000E+00  0.00000000E+00
  0.00000000E+00  0.00000000E+00  0.00000000E+00
  0.00000000E+00  0.00000000E+00  0.00000000E+00
  0.00000000E+00  0.00000000E+00  0.00000000E+00
  0.00000000E+00  0.00000000E+00  0.00000000E+00
  0.00000000E+00  0.00000000E+00  0.00000000E+00
  0.00000000E+00  0.00000000E+00  0.00000000E+00
  0.00000000E+00  0.00000000E+00  0.00000000E+00
  0.00000000E+00  0.00000000E+00  0.00000000E+00
  0.00000000E+00  0.00000000E+00  0.00000000E+00
  0.00000000E+00  0.00000000E+00  0.00000000E+00
  0.00000000E+00  0.00000000E+00  0.00000000E+00
  0.00000000E+00  0.00000000E+00  0.00000000E+00
  0.00000000E+00  0.00000000E+00  0.00000000E+00
  0.00000000E+00  0.00000000E+00  0.00000000E+00
  0.00000000E+00  0.00000000E+00  0.00000000E+00
  0.00000000E+00  0.00000000E+00  0.00000000E+00
  0.00000000E+00  0.00000000E+00  0.00000000E+00
  0.00000000E+00  0.00000000E+00  0.00000000E+00
  0.00000000E+00  0.00000000E+00  0.00000000E+00
  0.00000000E+00  0.00000000E+00  0.00000000E+00
  0.00000000E+00  0.00000000E+00  0.00000000E+00
  0.00000000E+00  0.00000000E+00  0.00000000E+00
  0.00000000E+00  0.00000000E+00  0.00000000E+00
  0.00000000E+00  0.00000000E+00  0.00000000E+00
  0.00000000E+00  0.00000000E+00  0.00000000E+00
  0.00000000E+00  0.00000000E+00  0.00000000E+00
  0.00000000E+00  0.00000000E+00  0.00000000E+00
  0.00000000E+00  0.00000000E+00  0.00000000E+00
  0.00000000E+00  0.00000000E+00  0.00000000E+00
  0.00000000E+00  0.00000000E+00  0.00000000E+00
  0.00000000E+00  0.00000000E+00  0.00000000E+00
  0.00000000E+00  0.00000000E+00  0.00000000E+00
  0.00000000E+00  0.00000000E+00  0.00000000E+00
  0.00000000E+00  0.00000000E+00  0.00000000E+00
  0.00000000E+00  0.00000000E+00  0.00000000E+00
  0.00000000E+00  0.00000000E+00  0.00000000E+00
  0.00000000E+00  0.00000000E+00  0.00000000E+00
  0.00000000E+00  0.00000000E+00  0.00000000E+00
  0.00000000E+00  0.00000000E+00  0.00000000E+00
  0.00000000E+00  0.00000000E+00  0.00000000E+00
  0.00000000E+00  0.00000000E+00  0.00000000E+00
  0.00000000E+00  0.00000000E+00  0.00000000E+00
  0.00000000E+00  0.00000000E+00  0.00000000E+00
  0.00000000E+00  0.00000000E+00  0.00000000E+00
  0.00000000E+00  0.00000000E+00  0.00000000E+00
  0.00000000E+00  0.00000000E+00  0.00000000E+00
  0.00000000E+00  0.00000000E+00  0.00000000E+00
  0.00000000E+00  0.00000000E+00  0.00000000E+00
  0.00000000E+00  0.00000000E+00  0.00000000E+00
  0.00000000E+00  0.00000000E+00  0.00000000E+00
  0.00000000E+00  0.00000000E+00  0.00000000E+00
  0.00000000E+00  0.00000000E+00  0.00000000E+00
  0.00000000E+00  0.00000000E+00  0.00000000E+00
  0.00000000E+00  0.00000000E+00  0.00000000E+00
  0.00000000E+00  0.00000000E+00  0.00000000E+00
  0.00000000E+00  0.00000000E+00  0.00000000E+00
  0.00000000E+00  0.00000000E+00  0.00000000E+00
  0.00000000E+00  0.00000000E+00  0.00000000E+00
  0.00000000E+00  0.00000000E+00  0.00000000E+00
  0.00000000E+00  0.00000000E+00  0.00000000E+00
  0.00000000E+00  0.00000000E+00  0.00000000E+00
  0.00000000E+00  0.00000000E+00  0.00000000E+00
  0.00000000E+00  0.00000000E+00  0.00000000E+00
  0.00000000E+00  0.00000000E+00  0.00000000E+00
  0.00000000E+00  0.00000000E+00  0.00000000E+00
  0.00000000E+00  0.00000000E+00  0.00000000E+00
  0.00000000E+00  0.00000000E+00  0.00000000E+00
  0.00000000E+00  0.00000000E+00  0.00000000E+00
  0.00000000E+00  0.00000000E+00  0.00000000E+00
  0.00000000E+00  0.00000000E+00  0.00000000E+00
  0.00000000E+00  0.00000000E+00  0.00000000E+00
  0.00000000E+00  0.00000000E+00  0.00000000E+00
  0.00000000E+00  0.00000000E+00  0.00000000E+00
  0.00000000E+00  0.00000000E+00  0.00000000E+00
  0.00000000E+00  0.00000000E+00  0.00000000E+00
  0.00000000E+00  0.00000000E+00  0.00000000E+00
  0.00000000E+00  0.00000000E+00  0.00000000E+00
  0.00000000E+00  0.00000000E+00  0.00000000E+00
  0.00000000E+00  0.00000000E+00  0.00000000E+00
  0.00000000E+00  0.00000000E+00  0.00000000E+00
  0.00000000E+00  0.00000000E+00  0.00000000E+00
  0.00000000E+00  0.00000000E+00  0.00000000E+00
  0.00000000E+00  0.00000000E+00  0.00000000E+00
  0.00000000E+00  0.00000000E+00  0.00000000E+00
  0.00000000E+00  0.00000000E+00  0.00000000E+00
  0.00000000E+00  0.00000000E+00  0.00000000E+00
  0.00000000E+00  0.00000000E+00  0.00000000E+00
  0.00000000E+00  0.00000000E+00  0.00000000E+00
  0.00000000E+00  0.00000000E+00  0.00000000E+00
  0.00000000E+00  0.00000000E+00  0.00000000E+00
  0.00000000E+00  0.00000000E+00  0.00000000E+00
  0.00000000E+00  0.00000000E+00  0.00000000E+00
  0.00000000E+00  0.00000000E+00  0.00000000E+00
  0.00000000E+00  0.00000000E+00  0.00000000E+00
