supercell of POSCAR                     
   1.03228000000000     
     6.3970863126299999    5.5387332920799999    4.9397337979799998
   -15.9736979067999982   -5.5365852353599996    9.8547656895600007
     6.4026568282999996  -11.0930079636999999    0.0094448205590600
   Sc   Al   N 
    32    63    96
Direct
  0.3693320640402362  0.0701371837474909  0.3096852420026366
  0.8368431880884444  0.3082474060364149  0.4342928963855641
  0.0316866530305404  0.2324152315270069  0.3091323577700891
  0.1925236807255004  0.1487032269423025  0.4391611979773131
  0.0211167621403234  0.2330912289102685  0.0682744038996148
  0.0414443314749988  0.4631675617997359  0.3693811033220911
  0.2377932513888368  0.3928918338895429  0.0055336851898886
  0.6941290260713657  0.1316328217944047  0.1207318478897363
  0.3672430153557826  0.0698661164984742  0.8099245714019787
  0.8351884230049933  0.3111700621916285  0.9357674272411813
  0.0240881394717931  0.2321272289964611  0.8056200053532976
  0.1933459026277902  0.1508361688368822  0.9395479334956960
  0.0258258843719830  0.2330522445386478  0.5693496243233369
  0.0431968428702945  0.4636334322199787  0.8707849378982360
  0.2375107480931220  0.3940225283387377  0.5056367754380560
  0.6916703171354754  0.1294093384044288  0.6189084345293239
  0.3691115719297713  0.5704003276504892  0.3108932265906503
  0.8278632715948291  0.8076242562494684  0.4322660504508491
  0.0181364555482588  0.7301404517883086  0.3034216674071430
  0.1871056825350763  0.6477956401304183  0.4379132613212278
  0.0177428470689165  0.7307547498948210  0.0660265423299933
  0.0379011445997293  0.9633838735874249  0.3691183247079621
  0.2272791826262122  0.8909892952932807  0.0032466522374932
  0.6885079796463742  0.6267486785522394  0.1173140387365166
  0.3699590157034081  0.5713745537330013  0.8101557086240945
  0.8297518075915846  0.8083465556271037  0.9328191229117380
  0.0197456479660758  0.7303946230736713  0.8030927353749178
  0.1887294919165541  0.6478090895396136  0.9370525240848906
  0.0186027833660276  0.7316017222643438  0.5669175406382294
  0.0386533576324979  0.9644942170582880  0.8700149083158237
  0.2274729612097701  0.8911851859100395  0.5032854953984014
  0.6889269454065357  0.6283402940336842  0.6178871187645001
  0.3562190959369502  0.0708494473667116  0.0641831461724038
  0.5377187664913095  0.4849845509844997  0.4339388729696978
  0.5418059830107680  0.4856642863727458  0.1946130969638844
  0.6937216320386312  0.4077369113369969  0.3117864349349944
  0.8592103270671885  0.3212803995907336  0.1854617619891528
  0.1964396536682642  0.1491898700345970  0.1857989269083475
  0.0489040838205099  0.4698555294588189  0.1229005481484933
  0.2360670638918876  0.3896267937713276  0.2492214524858198
  0.4056060422750392  0.3114125203659626  0.1307665968406297
  0.5582869374380337  0.2303039926483663  0.2478746238458598
  0.4009537080955710  0.3093063035329919  0.3742448937490437
  0.5560902066067825  0.2304645342798040  0.0078206521216941
  0.8835682240427261  0.0517970671732400  0.2471306364453127
  0.7283015299731517  0.1356405104671126  0.3752637907094822
  0.8823126291321373  0.0521260029663964  0.0009589918695383
  0.3570505751772330  0.0709246100982668  0.5636832239358824
  0.5390504867084331  0.4846375845216997  0.9318583815487571
  0.5395424623270415  0.4865337345926690  0.6925505451431349
  0.6915916770287396  0.4075850429524692  0.8085586204755515
  0.6916989206253206  0.4031871742443442  0.5637339745711571
  0.8550585184256221  0.3221373426514091  0.6839669991718438
  0.1958466862217563  0.1491646784788401  0.6856002658287110
  0.0512825792380198  0.4703543079925936  0.6229802595812401
  0.2347305655758660  0.3897480374041393  0.7496764293910587
  0.4007273105024680  0.3084521500027790  0.6302532570390085
  0.5563913777715612  0.2292492079758119  0.7470260803524624
  0.4034863976696883  0.3115244775454613  0.8747857859030077
  0.5526331252892049  0.2276140184496427  0.5047209336572038
  0.8844190709624939  0.0524324075236180  0.7474160401239587
  0.7258769765569397  0.1371128540076683  0.8745252610743819
  0.8815348024645999  0.0507558386272464  0.5002914194004973
  0.3592049960625374  0.5708420636858875  0.0640832099865492
  0.5320128085329543  0.9839369777405125  0.4342131925950028
  0.5341089036432862  0.9851460846247519  0.1912375826608752
  0.6868496787113614  0.9059286510265423  0.3102275752409085
  0.6849239462939636  0.9021330160081931  0.0638207983945307
  0.8506297083709811  0.8210703975929263  0.1829389898572131
  0.1806092067725302  0.6413947744583481  0.1814535409090183
  0.0463794218720111  0.9699734647428642  0.1223617194200202
  0.2276860952202213  0.8878588853489191  0.2478129038593764
  0.3913709735462376  0.8053795048875898  0.1285271858951660
  0.5511143818543331  0.7280965002632485  0.2458720808498569
  0.3894554149533462  0.8057246180801414  0.3718345489194164
  0.5491418074192396  0.7272298400210957  0.0048020056898466
  0.8853416846088109  0.5495945639602127  0.2437884567245234
  0.7278024972444115  0.6359818932417625  0.3747413842997958
  0.8829969190235545  0.5480042547783128  0.0020383740574204
  0.3575023670194000  0.5717422538461747  0.5640194718114060
  0.5334809029339382  0.9854580721055157  0.9353537824259135
  0.5351558852099103  0.9858871982172275  0.6921295036282160
  0.6884574358453861  0.9072351475368734  0.8110226091982540
  0.6849534788384304  0.9020646693529812  0.5635480848798977
  0.8522020746804060  0.8222634202160322  0.6834089319368317
  0.1952761121931701  0.6494257868537119  0.6852870858933713
  0.0469889881425871  0.9701002709305087  0.6219886466467486
  0.2290792232954502  0.8884174383384220  0.7483752468762219
  0.3938493941246080  0.8070043326658194  0.6283032012506027
  0.5552661466533522  0.7298586530867439  0.7471383078724969
  0.3924897145474802  0.8076403855932668  0.8736211347121170
  0.5483554462188067  0.7271993004714972  0.5047112769178597
  0.8876761441326053  0.5520325732832561  0.7470474948153480
  0.7288196216990528  0.6362312954305693  0.8748431785335953
  0.8851082064295142  0.5512232578819862  0.5008265279565833
  0.5814629685993680  0.1797728731694761  0.3672628132216502
  0.5269204348692895  0.1693610045572456  0.1113775108357586
  0.7204492817819101  0.0774106949873996  0.4762436827893950
  0.7225848304973255  0.0783390285766572  0.2438978427817773
  0.8727329347803092  0.0012562567783903  0.3596199593160208
  0.0482231168866036  0.4126191848599845  0.4944516053310082
  0.9134794216439843  0.5093109570095180  0.1176542269138423
  0.0646867757980729  0.4113820652819413  0.2256365920801784
  0.2425162185503495  0.3375604189755350  0.3579065764255631
  0.3953241532522966  0.2570641685641917  0.4872894140682291
  0.2365267036339347  0.3321515158864656  0.1206279470853673
  0.3859564786483958  0.2473242455386071  0.2383759604263105
  0.2362888768502884  0.0637710425635518  0.1630216894002459
  0.2545751847220359  0.0619504181018229  0.4272872746949403
  0.4280127339305082  0.4833992554599078  0.3007243434835729
  0.4426794181492326  0.9985616256386791  0.0566691981564489
  0.5738515070426118  0.4042692331889484  0.1914665169806469
  0.7481019854573745  0.3270271996296117  0.2916829425293699
  0.5903428114574183  0.4037685328265894  0.4277354927937012
  0.7458367942443118  0.3092412864846352  0.0581525185979856
  0.8970707451215389  0.2365863051782355  0.1797580281667521
  0.0789516374955070  0.1394042861194862  0.2858197374437736
  0.9137471347362975  0.2267863159145378  0.4224832851749341
  0.0733020899180303  0.1420682569772964  0.0566833420088813
  0.5752439178016431  0.1774518076970679  0.8607590848310167
  0.5291346335363940  0.1701858313224491  0.6082972348222171
  0.7211699073585010  0.0792322032454393  0.9768846838516083
  0.7238182687430452  0.0790751316589748  0.7438059789566225
  0.8732564062245984  0.0022499006621004  0.8601583495820080
  0.0523940586748992  0.4139181333846551  0.9945784124524408
  0.8832746597835879  0.4959061777834464  0.6104585518235908
  0.0607571392469239  0.4112818510670380  0.7230868270142281
  0.2341108323193453  0.3354349068041884  0.8548699569464233
  0.3953978229473876  0.2577529249992239  0.9872600500255473
  0.2410219492049990  0.3340533373341472  0.6211036426005876
  0.3841835794486386  0.2470597371240402  0.7346136764195208
  0.2368354950231009  0.0641775767326820  0.6619580947922472
  0.2536236674176777  0.0628775182942434  0.9283710432022545
  0.4262272847641810  0.4835766026805146  0.7951560066494352
  0.4436661878289527  0.9990652824176252  0.5570632231165789
  0.5851764924271876  0.4048078458067010  0.6694056886854156
  0.7428510780899984  0.3265316768968276  0.7852711466224207
  0.5744751609518630  0.4036928957674633  0.9008161085646265
  0.7351022948431165  0.3208838539122780  0.5573365424015932
  0.8902227075601274  0.2374807161654431  0.6708168861442729
  0.0781761513235821  0.1406915372448410  0.7848893661383300
  0.9111291870745006  0.2275234747122497  0.9200858483932279
  0.0725257401423036  0.1409604410837417  0.5555454761347818
  0.5807912718118757  0.6816888521655358  0.3676390581412790
  0.5306060552530383  0.6714979955422109  0.1092507684823687
  0.7261677107251927  0.5798629410069012  0.4775304264468545
  0.7298948682205122  0.5815589364557567  0.2455248699747017
  0.8820040073334781  0.5039840447343380  0.3625325882140942
  0.0403147989567287  0.9118575617284748  0.4926309869972130
  0.8761908277451056  0.9948521824958192  0.1097461549324095
  0.0557636603994283  0.9106174391119097  0.2227377019957331
  0.2322907304169348  0.8353882063109737  0.3549630028655173
  0.3921132010258859  0.7572590709975344  0.4877362782587085
  0.2341540406151168  0.8327483415413397  0.1200080024155241
  0.3820850369861049  0.7477201175869297  0.2359610042644391
  0.2458428318779724  0.5657649146144337  0.1643155305818027
  0.2556913588801706  0.5638635118268169  0.4290975139337974
  0.4235138216996575  0.9796431791422933  0.2971748829101344
  0.4518916660676027  0.5021936204391650  0.0581380807118492
  0.5781574404222809  0.9024030853560063  0.1729808314414925
  0.7403831722303025  0.8263363415322260  0.2873461036802141
  0.5813591532588660  0.9012716350779755  0.4231395971303513
  0.7308453620268125  0.8211204737203772  0.0577159093003701
  0.8869476447759013  0.7376299949177323  0.1704729916915753
  0.0804583777330024  0.6444170435779029  0.2888450405851586
  0.9104364330216228  0.7294086392322683  0.4216040563421188
  0.0752083864373461  0.6442754016170582  0.0531653180567631
  0.5813723035242404  0.6820366428545910  0.8662834152055083
  0.5292652407060459  0.6716542701284496  0.6103502890245309
  0.7269969009042470  0.5803289722353355  0.9762278701320923
  0.7292017922826659  0.5809894884027500  0.7441466448911385
  0.8815834751066944  0.5033404835655304  0.8590633409604607
  0.0409698888074175  0.9123609008333489  0.9928215899212134
  0.8765932327675543  0.9946647547650471  0.6098932521111138
  0.0573179164932682  0.9114046187486764  0.7233495550172719
  0.2326094854013192  0.8349698651610353  0.8545197594423826
  0.3927249537735591  0.7573699731137538  0.9866560202650234
  0.2348474030699919  0.8328448846169465  0.6203815776403019
  0.3855207970334149  0.7494783028054499  0.7369610024368498
  0.2395633159245136  0.5661636314891325  0.6632200537031991
  0.2579556066730220  0.5639755851745605  0.9283148802802756
  0.4242657513709887  0.9799064504618045  0.7976452298621979
  0.4506223943544683  0.5027054695507047  0.5584133396937006
  0.5794324684120582  0.9032249637255347  0.6734419903662214
  0.7420623290649075  0.8275158760397332  0.7879732282915057
  0.5826655870550823  0.9024434042495031  0.9235668953130016
  0.7305235461357071  0.8209650363137371  0.5582224806938498
  0.8873385712110320  0.7382222376792740  0.6710864786885509
  0.0795661470125637  0.6423849695564243  0.7843226088124027
  0.9111850102210397  0.7296538576815905  0.9199022912485688
  0.0739217108679995  0.6432834138878647  0.5575452914223646
 
  0.00000000E+00  0.00000000E+00  0.00000000E+00
  0.00000000E+00  0.00000000E+00  0.00000000E+00
  0.00000000E+00  0.00000000E+00  0.00000000E+00
  0.00000000E+00  0.00000000E+00  0.00000000E+00
  0.00000000E+00  0.00000000E+00  0.00000000E+00
  0.00000000E+00  0.00000000E+00  0.00000000E+00
  0.00000000E+00  0.00000000E+00  0.00000000E+00
  0.00000000E+00  0.00000000E+00  0.00000000E+00
  0.00000000E+00  0.00000000E+00  0.00000000E+00
  0.00000000E+00  0.00000000E+00  0.00000000E+00
  0.00000000E+00  0.00000000E+00  0.00000000E+00
  0.00000000E+00  0.00000000E+00  0.00000000E+00
  0.00000000E+00  0.00000000E+00  0.00000000E+00
  0.00000000E+00  0.00000000E+00  0.00000000E+00
  0.00000000E+00  0.00000000E+00  0.00000000E+00
  0.00000000E+00  0.00000000E+00  0.00000000E+00
  0.00000000E+00  0.00000000E+00  0.00000000E+00
  0.00000000E+00  0.00000000E+00  0.00000000E+00
  0.00000000E+00  0.00000000E+00  0.00000000E+00
  0.00000000E+00  0.00000000E+00  0.00000000E+00
  0.00000000E+00  0.00000000E+00  0.00000000E+00
  0.00000000E+00  0.00000000E+00  0.00000000E+00
  0.00000000E+00  0.00000000E+00  0.00000000E+00
  0.00000000E+00  0.00000000E+00  0.00000000E+00
  0.00000000E+00  0.00000000E+00  0.00000000E+00
  0.00000000E+00  0.00000000E+00  0.00000000E+00
  0.00000000E+00  0.00000000E+00  0.00000000E+00
  0.00000000E+00  0.00000000E+00  0.00000000E+00
  0.00000000E+00  0.00000000E+00  0.00000000E+00
  0.00000000E+00  0.00000000E+00  0.00000000E+00
  0.00000000E+00  0.00000000E+00  0.00000000E+00
  0.00000000E+00  0.00000000E+00  0.00000000E+00
  0.00000000E+00  0.00000000E+00  0.00000000E+00
  0.00000000E+00  0.00000000E+00  0.00000000E+00
  0.00000000E+00  0.00000000E+00  0.00000000E+00
  0.00000000E+00  0.00000000E+00  0.00000000E+00
  0.00000000E+00  0.00000000E+00  0.00000000E+00
  0.00000000E+00  0.00000000E+00  0.00000000E+00
  0.00000000E+00  0.00000000E+00  0.00000000E+00
  0.00000000E+00  0.00000000E+00  0.00000000E+00
  0.00000000E+00  0.00000000E+00  0.00000000E+00
  0.00000000E+00  0.00000000E+00  0.00000000E+00
  0.00000000E+00  0.00000000E+00  0.00000000E+00
  0.00000000E+00  0.00000000E+00  0.00000000E+00
  0.00000000E+00  0.00000000E+00  0.00000000E+00
  0.00000000E+00  0.00000000E+00  0.00000000E+00
  0.00000000E+00  0.00000000E+00  0.00000000E+00
  0.00000000E+00  0.00000000E+00  0.00000000E+00
  0.00000000E+00  0.00000000E+00  0.00000000E+00
  0.00000000E+00  0.00000000E+00  0.00000000E+00
  0.00000000E+00  0.00000000E+00  0.00000000E+00
  0.00000000E+00  0.00000000E+00  0.00000000E+00
  0.00000000E+00  0.00000000E+00  0.00000000E+00
  0.00000000E+00  0.00000000E+00  0.00000000E+00
  0.00000000E+00  0.00000000E+00  0.00000000E+00
  0.00000000E+00  0.00000000E+00  0.00000000E+00
  0.00000000E+00  0.00000000E+00  0.00000000E+00
  0.00000000E+00  0.00000000E+00  0.00000000E+00
  0.00000000E+00  0.00000000E+00  0.00000000E+00
  0.00000000E+00  0.00000000E+00  0.00000000E+00
  0.00000000E+00  0.00000000E+00  0.00000000E+00
  0.00000000E+00  0.00000000E+00  0.00000000E+00
  0.00000000E+00  0.00000000E+00  0.00000000E+00
  0.00000000E+00  0.00000000E+00  0.00000000E+00
  0.00000000E+00  0.00000000E+00  0.00000000E+00
  0.00000000E+00  0.00000000E+00  0.00000000E+00
  0.00000000E+00  0.00000000E+00  0.00000000E+00
  0.00000000E+00  0.00000000E+00  0.00000000E+00
  0.00000000E+00  0.00000000E+00  0.00000000E+00
  0.00000000E+00  0.00000000E+00  0.00000000E+00
  0.00000000E+00  0.00000000E+00  0.00000000E+00
  0.00000000E+00  0.00000000E+00  0.00000000E+00
  0.00000000E+00  0.00000000E+00  0.00000000E+00
  0.00000000E+00  0.00000000E+00  0.00000000E+00
  0.00000000E+00  0.00000000E+00  0.00000000E+00
  0.00000000E+00  0.00000000E+00  0.00000000E+00
  0.00000000E+00  0.00000000E+00  0.00000000E+00
  0.00000000E+00  0.00000000E+00  0.00000000E+00
  0.00000000E+00  0.00000000E+00  0.00000000E+00
  0.00000000E+00  0.00000000E+00  0.00000000E+00
  0.00000000E+00  0.00000000E+00  0.00000000E+00
  0.00000000E+00  0.00000000E+00  0.00000000E+00
  0.00000000E+00  0.00000000E+00  0.00000000E+00
  0.00000000E+00  0.00000000E+00  0.00000000E+00
  0.00000000E+00  0.00000000E+00  0.00000000E+00
  0.00000000E+00  0.00000000E+00  0.00000000E+00
  0.00000000E+00  0.00000000E+00  0.00000000E+00
  0.00000000E+00  0.00000000E+00  0.00000000E+00
  0.00000000E+00  0.00000000E+00  0.00000000E+00
  0.00000000E+00  0.00000000E+00  0.00000000E+00
  0.00000000E+00  0.00000000E+00  0.00000000E+00
  0.00000000E+00  0.00000000E+00  0.00000000E+00
  0.00000000E+00  0.00000000E+00  0.00000000E+00
  0.00000000E+00  0.00000000E+00  0.00000000E+00
  0.00000000E+00  0.00000000E+00  0.00000000E+00
  0.00000000E+00  0.00000000E+00  0.00000000E+00
  0.00000000E+00  0.00000000E+00  0.00000000E+00
  0.00000000E+00  0.00000000E+00  0.00000000E+00
  0.00000000E+00  0.00000000E+00  0.00000000E+00
  0.00000000E+00  0.00000000E+00  0.00000000E+00
  0.00000000E+00  0.00000000E+00  0.00000000E+00
  0.00000000E+00  0.00000000E+00  0.00000000E+00
  0.00000000E+00  0.00000000E+00  0.00000000E+00
  0.00000000E+00  0.00000000E+00  0.00000000E+00
  0.00000000E+00  0.00000000E+00  0.00000000E+00
  0.00000000E+00  0.00000000E+00  0.00000000E+00
  0.00000000E+00  0.00000000E+00  0.00000000E+00
  0.00000000E+00  0.00000000E+00  0.00000000E+00
  0.00000000E+00  0.00000000E+00  0.00000000E+00
  0.00000000E+00  0.00000000E+00  0.00000000E+00
  0.00000000E+00  0.00000000E+00  0.00000000E+00
  0.00000000E+00  0.00000000E+00  0.00000000E+00
  0.00000000E+00  0.00000000E+00  0.00000000E+00
  0.00000000E+00  0.00000000E+00  0.00000000E+00
  0.00000000E+00  0.00000000E+00  0.00000000E+00
  0.00000000E+00  0.00000000E+00  0.00000000E+00
  0.00000000E+00  0.00000000E+00  0.00000000E+00
  0.00000000E+00  0.00000000E+00  0.00000000E+00
  0.00000000E+00  0.00000000E+00  0.00000000E+00
  0.00000000E+00  0.00000000E+00  0.00000000E+00
  0.00000000E+00  0.00000000E+00  0.00000000E+00
  0.00000000E+00  0.00000000E+00  0.00000000E+00
  0.00000000E+00  0.00000000E+00  0.00000000E+00
  0.00000000E+00  0.00000000E+00  0.00000000E+00
  0.00000000E+00  0.00000000E+00  0.00000000E+00
  0.00000000E+00  0.00000000E+00  0.00000000E+00
  0.00000000E+00  0.00000000E+00  0.00000000E+00
  0.00000000E+00  0.00000000E+00  0.00000000E+00
  0.00000000E+00  0.00000000E+00  0.00000000E+00
  0.00000000E+00  0.00000000E+00  0.00000000E+00
  0.00000000E+00  0.00000000E+00  0.00000000E+00
  0.00000000E+00  0.00000000E+00  0.00000000E+00
  0.00000000E+00  0.00000000E+00  0.00000000E+00
  0.00000000E+00  0.00000000E+00  0.00000000E+00
  0.00000000E+00  0.00000000E+00  0.00000000E+00
  0.00000000E+00  0.00000000E+00  0.00000000E+00
  0.00000000E+00  0.00000000E+00  0.00000000E+00
  0.00000000E+00  0.00000000E+00  0.00000000E+00
  0.00000000E+00  0.00000000E+00  0.00000000E+00
  0.00000000E+00  0.00000000E+00  0.00000000E+00
  0.00000000E+00  0.00000000E+00  0.00000000E+00
  0.00000000E+00  0.00000000E+00  0.00000000E+00
  0.00000000E+00  0.00000000E+00  0.00000000E+00
  0.00000000E+00  0.00000000E+00  0.00000000E+00
  0.00000000E+00  0.00000000E+00  0.00000000E+00
  0.00000000E+00  0.00000000E+00  0.00000000E+00
  0.00000000E+00  0.00000000E+00  0.00000000E+00
  0.00000000E+00  0.00000000E+00  0.00000000E+00
  0.00000000E+00  0.00000000E+00  0.00000000E+00
  0.00000000E+00  0.00000000E+00  0.00000000E+00
  0.00000000E+00  0.00000000E+00  0.00000000E+00
  0.00000000E+00  0.00000000E+00  0.00000000E+00
  0.00000000E+00  0.00000000E+00  0.00000000E+00
  0.00000000E+00  0.00000000E+00  0.00000000E+00
  0.00000000E+00  0.00000000E+00  0.00000000E+00
  0.00000000E+00  0.00000000E+00  0.00000000E+00
  0.00000000E+00  0.00000000E+00  0.00000000E+00
  0.00000000E+00  0.00000000E+00  0.00000000E+00
  0.00000000E+00  0.00000000E+00  0.00000000E+00
  0.00000000E+00  0.00000000E+00  0.00000000E+00
  0.00000000E+00  0.00000000E+00  0.00000000E+00
  0.00000000E+00  0.00000000E+00  0.00000000E+00
  0.00000000E+00  0.00000000E+00  0.00000000E+00
  0.00000000E+00  0.00000000E+00  0.00000000E+00
  0.00000000E+00  0.00000000E+00  0.00000000E+00
  0.00000000E+00  0.00000000E+00  0.00000000E+00
  0.00000000E+00  0.00000000E+00  0.00000000E+00
  0.00000000E+00  0.00000000E+00  0.00000000E+00
  0.00000000E+00  0.00000000E+00  0.00000000E+00
  0.00000000E+00  0.00000000E+00  0.00000000E+00
  0.00000000E+00  0.00000000E+00  0.00000000E+00
  0.00000000E+00  0.00000000E+00  0.00000000E+00
  0.00000000E+00  0.00000000E+00  0.00000000E+00
  0.00000000E+00  0.00000000E+00  0.00000000E+00
  0.00000000E+00  0.00000000E+00  0.00000000E+00
  0.00000000E+00  0.00000000E+00  0.00000000E+00
  0.00000000E+00  0.00000000E+00  0.00000000E+00
  0.00000000E+00  0.00000000E+00  0.00000000E+00
  0.00000000E+00  0.00000000E+00  0.00000000E+00
  0.00000000E+00  0.00000000E+00  0.00000000E+00
  0.00000000E+00  0.00000000E+00  0.00000000E+00
  0.00000000E+00  0.00000000E+00  0.00000000E+00
  0.00000000E+00  0.00000000E+00  0.00000000E+00
  0.00000000E+00  0.00000000E+00  0.00000000E+00
  0.00000000E+00  0.00000000E+00  0.00000000E+00
  0.00000000E+00  0.00000000E+00  0.00000000E+00
  0.00000000E+00  0.00000000E+00  0.00000000E+00
  0.00000000E+00  0.00000000E+00  0.00000000E+00
  0.00000000E+00  0.00000000E+00  0.00000000E+00
  0.00000000E+00  0.00000000E+00  0.00000000E+00
  0.00000000E+00  0.00000000E+00  0.00000000E+00
