supercell of POSCAR                     
   1.03228000000000     
     6.3970863126299999    5.5387332920799999    4.9397337979799998
   -15.9736979067999982   -5.5365852353599996    9.8547656895600007
     6.4026568282999996  -11.0930079636999999    0.0094448205590600
   Sc   Al   N 
    32    64    95
Direct
  0.3660709665467508  0.0669278412229559  0.3114191156989818
  0.8266209495537495  0.3061819682596791  0.4344855398027789
  0.0172989391881231  0.2297637306530831  0.3045255492823884
  0.1871377206511724  0.1465607650858232  0.4382948312756270
  0.0174522256583884  0.2315927659875285  0.0679697787797622
  0.0262970179911974  0.4562582911998589  0.3621019443863034
  0.2299762023305263  0.3931412635188991  0.0054788623536979
  0.6891174059155887  0.1231662309211501  0.1174913529702195
  0.3690508589728765  0.0685467588356090  0.8080602672310562
  0.8286714912314181  0.3080796439199034  0.9349272481932616
  0.0201498746892170  0.2314238313295789  0.8042406631866896
  0.1818490720450825  0.1469618290985863  0.9356607726980712
  0.0194531915148488  0.2307993484188273  0.5675825364716189
  0.0353327952541491  0.4612491569926291  0.8641291161527889
  0.2287068812333501  0.3926499958208964  0.5060148641759028
  0.6895952630293607  0.1280830611006039  0.6191148885216649
  0.3760890766355658  0.5715515387630106  0.3110493830781280
  0.8358141859760480  0.8093449008548603  0.4348872284825660
  0.0262192875371952  0.7326419135966304  0.3058920291747498
  0.1926920265918284  0.6461589151194076  0.4376616757207969
  0.0253910147115022  0.7336687027583721  0.0673676753088657
  0.0407522029153569  0.9627740690702851  0.3707900254552925
  0.2371321265242230  0.8944168809039184  0.0057631244023142
  0.6954455135092061  0.6320203573823235  0.1196996942091957
  0.3668698350510340  0.5696810098579022  0.8088591498439328
  0.8367780894427810  0.8102027242934469  0.9336727607516409
  0.0259574503971791  0.7325261578211695  0.8055827062720340
  0.1906538615388271  0.6482244294913500  0.9377225027997156
  0.0244669444375987  0.7319768457363551  0.5677329580684827
  0.0479041404240803  0.9663090725683787  0.8717513380091759
  0.2337207574422209  0.8923439815082403  0.5054246254921040
  0.6934624447806641  0.6311528794195027  0.6199223046735298
  0.3642770466889544  0.0748944735218231  0.0665679817172062
  0.5410901804750807  0.4869869275645300  0.4411128514452614
  0.5425872050808493  0.4880778883628096  0.1901506346034765
  0.6853398203475436  0.4063147181828271  0.3113327909695798
  0.6825350188461670  0.4020844394752956  0.0619978359105673
  0.7626120657257260  0.2829317791408741  0.1655281673686630
  0.1915970008954915  0.1488332481018091  0.1859031473168784
  0.0465763420487590  0.4897606104683945  0.0965465695464971
  0.2846534153566509  0.3820551902212799  0.2569777551673127
  0.3968236459366921  0.3042058880803111  0.1247463928204695
  0.5413098944205501  0.2251250866854591  0.2554516523971060
  0.3958020381169121  0.3052463775330310  0.3798097317406572
  0.5349490257209268  0.2230132744019429  0.9919755703170026
  0.8872671375348418  0.0514397475644301  0.2482101671275245
  0.7270160061569655  0.1348183319947722  0.3763962103816780
  0.8847097073779651  0.0506491813689038  0.0008751799361519
  0.3570958817565923  0.0707189219134534  0.5650085508798526
  0.5321321733751034  0.4853585075954499  0.9336041583670536
  0.5370000442062164  0.4864192255714030  0.6926391374520477
  0.6885801269157952  0.4070499720372922  0.8110218108147080
  0.6873211268052799  0.4022533964375725  0.5657991882484907
  0.8517442100116028  0.3209752957970764  0.6828295940854829
  0.1952811682732474  0.1491706572126006  0.6855394347332648
  0.0466800627353194  0.4705980667410685  0.6203471096009352
  0.2293267622594328  0.3887695095074051  0.7477533289239844
  0.3943690189915259  0.3071846498861177  0.6296980435270711
  0.5550760853803496  0.2296639147993815  0.7469997054746287
  0.3904502788656359  0.3083213988698006  0.8720495396903090
  0.5476918640563966  0.2257502436116141  0.5075979533621719
  0.8858244059650886  0.0520266435629111  0.7462957878620102
  0.7283256889755663  0.1359780758370874  0.8746653818454249
  0.8842520382587722  0.0508444604408282  0.5017164983928808
  0.3612789051117034  0.5722147907874913  0.0630254274568927
  0.5370415638181285  0.9846130854774557  0.4362530504462185
  0.5401639551128454  0.9859210231541766  0.1946575881058550
  0.6936171568593750  0.9075043870742832  0.3121819741362231
  0.6916939012697867  0.9029968123149956  0.0645418596910261
  0.8582557328965876  0.8235178856470071  0.1837569022149736
  0.2005606016218309  0.6540156789880101  0.1888438450507408
  0.0536405647081324  0.9717746121620578  0.1232756842955922
  0.2341503841217261  0.8887104636354124  0.2492717665511464
  0.3999347331174548  0.8083450415548725  0.1286661501437152
  0.5600686797467560  0.7311212675753254  0.2477631752260265
  0.3975729545531337  0.8086323039869114  0.3752693015861581
  0.5527751538990842  0.7281771174557932  0.0042707300190230
  0.8871323292656612  0.5540232324662568  0.2488231088262580
  0.7317081407219916  0.6374478850068570  0.3765076857571756
  0.8775293507538393  0.5541494225922605  0.9961068330797076
  0.3551291212503145  0.5691943507052599  0.5605463399906725
  0.5377159042164763  0.9846429951639166  0.9333189682868195
  0.5390144060164275  0.9857079349049727  0.6926054077224322
  0.6944731271126656  0.9073240001465663  0.8112542800255653
  0.6906036066906509  0.9027754141269000  0.5649846241695329
  0.8578765054300277  0.8233101874177891  0.6850835251376068
  0.1971079928783794  0.6492188197297608  0.6849009201921419
  0.0503482090026708  0.9706152487958875  0.6233876097312887
  0.2334252472871015  0.8885293694730478  0.7491243629499920
  0.3980913114016289  0.8072337260851796  0.6292200474879053
  0.5561096861416814  0.7292276245770068  0.7465908371952210
  0.3972772386220953  0.8081581917548846  0.8741440318369555
  0.5536764565716723  0.7288222342506856  0.5059522380714156
  0.8851699238838009  0.5529320194185843  0.7464646970075961
  0.7264269979618589  0.6374644801866722  0.8738771095738045
  0.8856512552354729  0.5514230805240459  0.5017965484837958
  0.5763081217290420  0.1790399048072402  0.3687031893180759
  0.5478732846547061  0.1803963567818059  0.1157270876327630
  0.7248012809857016  0.0788752682635092  0.4779820661190541
  0.7293628546583832  0.0801854420336525  0.2462980717279564
  0.8792103565262508  0.0029329755754404  0.3614592722466980
  0.0371750835661828  0.4124910098055707  0.4880612044727854
  0.8721887243735083  0.4965680971886357  0.1086850345916019
  0.2357869455957200  0.3335206601936775  0.3595703775661647
  0.3919250601293101  0.2556121052707780  0.4897207929531717
  0.2381870177909349  0.3316525327819235  0.1196098686030496
  0.3812017082052321  0.2493777838315339  0.2381732776143650
  0.2458158187028374  0.0689637461433037  0.1647303050346096
  0.2553632300551314  0.0624834904259828  0.4293102934996824
  0.4339272026528107  0.4814837023829170  0.2995582523915274
  0.4541346463688001  0.0047041299162913  0.0604192322585959
  0.5792069931578538  0.4028044740097698  0.1731836317841839
  0.7345246382733492  0.3250941668745497  0.2902035590297700
  0.5826790139506244  0.4018147227720519  0.4245118652993511
  0.7183048113377311  0.3182545309855769  0.0530804196928472
  0.8862950576514237  0.2390488846095167  0.1721516119109978
  0.0779972702413758  0.1421195919379485  0.2859828326156304
  0.9094613669383307  0.2283740565204866  0.4213802194904872
  0.0725300252426990  0.1431370944176535  0.0573717841231769
  0.5788111895879879  0.1800357237057142  0.8647343929114797
  0.5289875306062868  0.1705116087557670  0.6116850931449633
  0.7262132724286872  0.0791010557035250  0.9763143288813012
  0.7274561694368771  0.0801595063808449  0.7451793695137994
  0.8818064863650719  0.0035926626721263  0.8609695630958640
  0.0408623831161989  0.4142837381181508  0.9977024781310746
  0.8777074169577617  0.4948930358528330  0.6098598417706782
  0.0568986719662306  0.4106762828769419  0.7194037210007380
  0.2324775215973816  0.3372422111768785  0.8566871717805000
  0.3853698918169002  0.2556015494850143  0.9836489851869885
  0.2349583289035309  0.3328919786160682  0.6200919750403457
  0.3855933997158729  0.2497208322249449  0.7376719594524417
  0.2390606347646553  0.0656997604631115  0.6639926699144425
  0.2659146119629625  0.0686490643647488  0.9316113608869401
  0.4242621763447119  0.4805684701630071  0.7968466780857284
  0.4487467445521034  0.0008075039750608  0.5588537770262434
  0.5804347163251791  0.4034655708269312  0.6740180682858323
  0.7454921930728489  0.3281081356527338  0.7899689971317727
  0.5821230484549247  0.4028743903166330  0.9235818298325071
  0.7292081714923881  0.3199053658018158  0.5585913650125818
  0.8880917917862163  0.2376354366090112  0.6714096081454457
  0.0772951022420969  0.1423458310652563  0.7836658992508845
  0.9113133320206401  0.2298461185026994  0.9224600881544589
  0.0739453656321558  0.1421451875336928  0.5566546336039835
  0.5820277647460799  0.6808355933525334  0.3668320714222801
  0.5304555348210442  0.6714110271898690  0.1100441838420139
  0.7265291412308201  0.5796640932066239  0.4779128150800958
  0.7281362362821682  0.5808403363308514  0.2448764015588836
  0.8758099665487720  0.5005303577478628  0.3593453230472150
  0.0463915674946307  0.9124879367377403  0.4951076670282006
  0.8831635664252531  0.9959979889472805  0.1110905583971586
  0.0648201366955803  0.9132736015613006  0.2240193357969744
  0.2381703522626779  0.8361115135184392  0.3562779520178410
  0.3939398365503521  0.7561993116062595  0.4867518912593312
  0.2410357469163316  0.8341017280104097  0.1207374211735086
  0.3894492106957372  0.7502896040951441  0.2376744085370959
  0.2411999894569377  0.5669821460632178  0.1655718513992639
  0.2453085211399397  0.5533413455776497  0.4190041013317085
  0.4298497984271492  0.9804009674101550  0.2991294023438869
  0.4453383484754596  0.5001426933027062  0.0584432053673609
  0.5857531436489296  0.9041616469739111  0.1741338468486262
  0.7479005771707250  0.8278523083689180  0.2889338794827552
  0.5879992660305007  0.9026118090289827  0.4248491455498353
  0.7356056922988046  0.8211674878086939  0.0580620561453600
  0.8942366738766694  0.7393292873957620  0.1720754346898801
  0.0807998463420603  0.6415151248500166  0.2862551601022076
  0.9143822764122547  0.7289481282738706  0.4216454020245948
  0.0735409300731433  0.6409284967346665  0.0571084949089311
  0.5784752984130961  0.6799904830987273  0.8654370340706592
  0.5255008660157827  0.6693687420352603  0.6068875809523746
  0.7188970840563869  0.5797811913372826  0.9754474791548731
  0.7252954281890709  0.5801727113917252  0.7439644741849918
  0.8755113235929528  0.5027456428229229  0.8602061477350986
  0.0493881246226451  0.9143574092253601  0.9942816884349810
  0.8808958228576955  0.9953310432076421  0.6107869474381147
  0.0636961589337588  0.9128708021249210  0.7256067487248501
  0.2390635911605798  0.8368204623856954  0.8574326432562032
  0.3947177782548010  0.7569610536651510  0.9873450178332774
  0.2391607151575101  0.8329224317361934  0.6213205545255178
  0.3866218620582060  0.7487243199647509  0.7369646193719674
  0.2376646760890893  0.5639532456708878  0.6602004539283755
  0.2513164683947977  0.5603968496749161  0.9279232294371909
  0.4288354914862254  0.9804711791095215  0.7981511690396843
  0.4453559782693475  0.4993005614661641  0.5568579404628906
  0.5844253426076236  0.9035716305633201  0.6742861596585641
  0.7446806594453008  0.8264780389688724  0.7881214676114254
  0.5887928821066382  0.9030138350894958  0.9244855746768934
  0.7355813245121396  0.8213096900858616  0.5592526869663672
  0.8926934908518831  0.7387416869875167  0.6721710900768727
  0.0798234461500016  0.6412736367494531  0.7845465871568464
  0.9125556595830489  0.7285449890059539  0.9210863665838360
  0.0759878491555526  0.6412081422116813  0.5544980071829499
 
  0.00000000E+00  0.00000000E+00  0.00000000E+00
  0.00000000E+00  0.00000000E+00  0.00000000E+00
  0.00000000E+00  0.00000000E+00  0.00000000E+00
  0.00000000E+00  0.00000000E+00  0.00000000E+00
  0.00000000E+00  0.00000000E+00  0.00000000E+00
  0.00000000E+00  0.00000000E+00  0.00000000E+00
  0.00000000E+00  0.00000000E+00  0.00000000E+00
  0.00000000E+00  0.00000000E+00  0.00000000E+00
  0.00000000E+00  0.00000000E+00  0.00000000E+00
  0.00000000E+00  0.00000000E+00  0.00000000E+00
  0.00000000E+00  0.00000000E+00  0.00000000E+00
  0.00000000E+00  0.00000000E+00  0.00000000E+00
  0.00000000E+00  0.00000000E+00  0.00000000E+00
  0.00000000E+00  0.00000000E+00  0.00000000E+00
  0.00000000E+00  0.00000000E+00  0.00000000E+00
  0.00000000E+00  0.00000000E+00  0.00000000E+00
  0.00000000E+00  0.00000000E+00  0.00000000E+00
  0.00000000E+00  0.00000000E+00  0.00000000E+00
  0.00000000E+00  0.00000000E+00  0.00000000E+00
  0.00000000E+00  0.00000000E+00  0.00000000E+00
  0.00000000E+00  0.00000000E+00  0.00000000E+00
  0.00000000E+00  0.00000000E+00  0.00000000E+00
  0.00000000E+00  0.00000000E+00  0.00000000E+00
  0.00000000E+00  0.00000000E+00  0.00000000E+00
  0.00000000E+00  0.00000000E+00  0.00000000E+00
  0.00000000E+00  0.00000000E+00  0.00000000E+00
  0.00000000E+00  0.00000000E+00  0.00000000E+00
  0.00000000E+00  0.00000000E+00  0.00000000E+00
  0.00000000E+00  0.00000000E+00  0.00000000E+00
  0.00000000E+00  0.00000000E+00  0.00000000E+00
  0.00000000E+00  0.00000000E+00  0.00000000E+00
  0.00000000E+00  0.00000000E+00  0.00000000E+00
  0.00000000E+00  0.00000000E+00  0.00000000E+00
  0.00000000E+00  0.00000000E+00  0.00000000E+00
  0.00000000E+00  0.00000000E+00  0.00000000E+00
  0.00000000E+00  0.00000000E+00  0.00000000E+00
  0.00000000E+00  0.00000000E+00  0.00000000E+00
  0.00000000E+00  0.00000000E+00  0.00000000E+00
  0.00000000E+00  0.00000000E+00  0.00000000E+00
  0.00000000E+00  0.00000000E+00  0.00000000E+00
  0.00000000E+00  0.00000000E+00  0.00000000E+00
  0.00000000E+00  0.00000000E+00  0.00000000E+00
  0.00000000E+00  0.00000000E+00  0.00000000E+00
  0.00000000E+00  0.00000000E+00  0.00000000E+00
  0.00000000E+00  0.00000000E+00  0.00000000E+00
  0.00000000E+00  0.00000000E+00  0.00000000E+00
  0.00000000E+00  0.00000000E+00  0.00000000E+00
  0.00000000E+00  0.00000000E+00  0.00000000E+00
  0.00000000E+00  0.00000000E+00  0.00000000E+00
  0.00000000E+00  0.00000000E+00  0.00000000E+00
  0.00000000E+00  0.00000000E+00  0.00000000E+00
  0.00000000E+00  0.00000000E+00  0.00000000E+00
  0.00000000E+00  0.00000000E+00  0.00000000E+00
  0.00000000E+00  0.00000000E+00  0.00000000E+00
  0.00000000E+00  0.00000000E+00  0.00000000E+00
  0.00000000E+00  0.00000000E+00  0.00000000E+00
  0.00000000E+00  0.00000000E+00  0.00000000E+00
  0.00000000E+00  0.00000000E+00  0.00000000E+00
  0.00000000E+00  0.00000000E+00  0.00000000E+00
  0.00000000E+00  0.00000000E+00  0.00000000E+00
  0.00000000E+00  0.00000000E+00  0.00000000E+00
  0.00000000E+00  0.00000000E+00  0.00000000E+00
  0.00000000E+00  0.00000000E+00  0.00000000E+00
  0.00000000E+00  0.00000000E+00  0.00000000E+00
  0.00000000E+00  0.00000000E+00  0.00000000E+00
  0.00000000E+00  0.00000000E+00  0.00000000E+00
  0.00000000E+00  0.00000000E+00  0.00000000E+00
  0.00000000E+00  0.00000000E+00  0.00000000E+00
  0.00000000E+00  0.00000000E+00  0.00000000E+00
  0.00000000E+00  0.00000000E+00  0.00000000E+00
  0.00000000E+00  0.00000000E+00  0.00000000E+00
  0.00000000E+00  0.00000000E+00  0.00000000E+00
  0.00000000E+00  0.00000000E+00  0.00000000E+00
  0.00000000E+00  0.00000000E+00  0.00000000E+00
  0.00000000E+00  0.00000000E+00  0.00000000E+00
  0.00000000E+00  0.00000000E+00  0.00000000E+00
  0.00000000E+00  0.00000000E+00  0.00000000E+00
  0.00000000E+00  0.00000000E+00  0.00000000E+00
  0.00000000E+00  0.00000000E+00  0.00000000E+00
  0.00000000E+00  0.00000000E+00  0.00000000E+00
  0.00000000E+00  0.00000000E+00  0.00000000E+00
  0.00000000E+00  0.00000000E+00  0.00000000E+00
  0.00000000E+00  0.00000000E+00  0.00000000E+00
  0.00000000E+00  0.00000000E+00  0.00000000E+00
  0.00000000E+00  0.00000000E+00  0.00000000E+00
  0.00000000E+00  0.00000000E+00  0.00000000E+00
  0.00000000E+00  0.00000000E+00  0.00000000E+00
  0.00000000E+00  0.00000000E+00  0.00000000E+00
  0.00000000E+00  0.00000000E+00  0.00000000E+00
  0.00000000E+00  0.00000000E+00  0.00000000E+00
  0.00000000E+00  0.00000000E+00  0.00000000E+00
  0.00000000E+00  0.00000000E+00  0.00000000E+00
  0.00000000E+00  0.00000000E+00  0.00000000E+00
  0.00000000E+00  0.00000000E+00  0.00000000E+00
  0.00000000E+00  0.00000000E+00  0.00000000E+00
  0.00000000E+00  0.00000000E+00  0.00000000E+00
  0.00000000E+00  0.00000000E+00  0.00000000E+00
  0.00000000E+00  0.00000000E+00  0.00000000E+00
  0.00000000E+00  0.00000000E+00  0.00000000E+00
  0.00000000E+00  0.00000000E+00  0.00000000E+00
  0.00000000E+00  0.00000000E+00  0.00000000E+00
  0.00000000E+00  0.00000000E+00  0.00000000E+00
  0.00000000E+00  0.00000000E+00  0.00000000E+00
  0.00000000E+00  0.00000000E+00  0.00000000E+00
  0.00000000E+00  0.00000000E+00  0.00000000E+00
  0.00000000E+00  0.00000000E+00  0.00000000E+00
  0.00000000E+00  0.00000000E+00  0.00000000E+00
  0.00000000E+00  0.00000000E+00  0.00000000E+00
  0.00000000E+00  0.00000000E+00  0.00000000E+00
  0.00000000E+00  0.00000000E+00  0.00000000E+00
  0.00000000E+00  0.00000000E+00  0.00000000E+00
  0.00000000E+00  0.00000000E+00  0.00000000E+00
  0.00000000E+00  0.00000000E+00  0.00000000E+00
  0.00000000E+00  0.00000000E+00  0.00000000E+00
  0.00000000E+00  0.00000000E+00  0.00000000E+00
  0.00000000E+00  0.00000000E+00  0.00000000E+00
  0.00000000E+00  0.00000000E+00  0.00000000E+00
  0.00000000E+00  0.00000000E+00  0.00000000E+00
  0.00000000E+00  0.00000000E+00  0.00000000E+00
  0.00000000E+00  0.00000000E+00  0.00000000E+00
  0.00000000E+00  0.00000000E+00  0.00000000E+00
  0.00000000E+00  0.00000000E+00  0.00000000E+00
  0.00000000E+00  0.00000000E+00  0.00000000E+00
  0.00000000E+00  0.00000000E+00  0.00000000E+00
  0.00000000E+00  0.00000000E+00  0.00000000E+00
  0.00000000E+00  0.00000000E+00  0.00000000E+00
  0.00000000E+00  0.00000000E+00  0.00000000E+00
  0.00000000E+00  0.00000000E+00  0.00000000E+00
  0.00000000E+00  0.00000000E+00  0.00000000E+00
  0.00000000E+00  0.00000000E+00  0.00000000E+00
  0.00000000E+00  0.00000000E+00  0.00000000E+00
  0.00000000E+00  0.00000000E+00  0.00000000E+00
  0.00000000E+00  0.00000000E+00  0.00000000E+00
  0.00000000E+00  0.00000000E+00  0.00000000E+00
  0.00000000E+00  0.00000000E+00  0.00000000E+00
  0.00000000E+00  0.00000000E+00  0.00000000E+00
  0.00000000E+00  0.00000000E+00  0.00000000E+00
  0.00000000E+00  0.00000000E+00  0.00000000E+00
  0.00000000E+00  0.00000000E+00  0.00000000E+00
  0.00000000E+00  0.00000000E+00  0.00000000E+00
  0.00000000E+00  0.00000000E+00  0.00000000E+00
  0.00000000E+00  0.00000000E+00  0.00000000E+00
  0.00000000E+00  0.00000000E+00  0.00000000E+00
  0.00000000E+00  0.00000000E+00  0.00000000E+00
  0.00000000E+00  0.00000000E+00  0.00000000E+00
  0.00000000E+00  0.00000000E+00  0.00000000E+00
  0.00000000E+00  0.00000000E+00  0.00000000E+00
  0.00000000E+00  0.00000000E+00  0.00000000E+00
  0.00000000E+00  0.00000000E+00  0.00000000E+00
  0.00000000E+00  0.00000000E+00  0.00000000E+00
  0.00000000E+00  0.00000000E+00  0.00000000E+00
  0.00000000E+00  0.00000000E+00  0.00000000E+00
  0.00000000E+00  0.00000000E+00  0.00000000E+00
  0.00000000E+00  0.00000000E+00  0.00000000E+00
  0.00000000E+00  0.00000000E+00  0.00000000E+00
  0.00000000E+00  0.00000000E+00  0.00000000E+00
  0.00000000E+00  0.00000000E+00  0.00000000E+00
  0.00000000E+00  0.00000000E+00  0.00000000E+00
  0.00000000E+00  0.00000000E+00  0.00000000E+00
  0.00000000E+00  0.00000000E+00  0.00000000E+00
  0.00000000E+00  0.00000000E+00  0.00000000E+00
  0.00000000E+00  0.00000000E+00  0.00000000E+00
  0.00000000E+00  0.00000000E+00  0.00000000E+00
  0.00000000E+00  0.00000000E+00  0.00000000E+00
  0.00000000E+00  0.00000000E+00  0.00000000E+00
  0.00000000E+00  0.00000000E+00  0.00000000E+00
  0.00000000E+00  0.00000000E+00  0.00000000E+00
  0.00000000E+00  0.00000000E+00  0.00000000E+00
  0.00000000E+00  0.00000000E+00  0.00000000E+00
  0.00000000E+00  0.00000000E+00  0.00000000E+00
  0.00000000E+00  0.00000000E+00  0.00000000E+00
  0.00000000E+00  0.00000000E+00  0.00000000E+00
  0.00000000E+00  0.00000000E+00  0.00000000E+00
  0.00000000E+00  0.00000000E+00  0.00000000E+00
  0.00000000E+00  0.00000000E+00  0.00000000E+00
  0.00000000E+00  0.00000000E+00  0.00000000E+00
  0.00000000E+00  0.00000000E+00  0.00000000E+00
  0.00000000E+00  0.00000000E+00  0.00000000E+00
  0.00000000E+00  0.00000000E+00  0.00000000E+00
  0.00000000E+00  0.00000000E+00  0.00000000E+00
  0.00000000E+00  0.00000000E+00  0.00000000E+00
  0.00000000E+00  0.00000000E+00  0.00000000E+00
  0.00000000E+00  0.00000000E+00  0.00000000E+00
  0.00000000E+00  0.00000000E+00  0.00000000E+00
  0.00000000E+00  0.00000000E+00  0.00000000E+00
  0.00000000E+00  0.00000000E+00  0.00000000E+00
  0.00000000E+00  0.00000000E+00  0.00000000E+00
  0.00000000E+00  0.00000000E+00  0.00000000E+00
  0.00000000E+00  0.00000000E+00  0.00000000E+00
  0.00000000E+00  0.00000000E+00  0.00000000E+00
  0.00000000E+00  0.00000000E+00  0.00000000E+00
