supercell of POSCAR                     
   1.03228000000000     
     6.3970863126299999    5.5387332920799999    4.9397337979799998
   -15.9736979067999982   -5.5365852353599996    9.8547656895600007
     6.4026568282999996  -11.0930079636999999    0.0094448205590600
   Sc   Al   N 
    32    63    96
Direct
  0.4014297946239864  0.0801635930117826  0.3166234891437085
  0.8183557077557069  0.3031014018016123  0.4302485467986799
  0.0012048564378659  0.2196098333043182  0.3001179320502843
  0.2017462118761912  0.1495244425508631  0.4380177716253968
  0.0232678904974506  0.2312756966582796  0.0684270219376089
  0.0321412636233589  0.4621198118078098  0.3686700825715548
  0.2264293883799269  0.3923201609263813  0.0028979444707886
  0.6918532323172712  0.1291390877034573  0.1183382798669612
  0.3762067444598927  0.0713145030971702  0.8117691239818043
  0.8315935572493061  0.3075224277649014  0.9331674594401562
  0.0239642860427409  0.2312527814451713  0.8026856373141342
  0.1916955710321346  0.1484569236954201  0.9375542266941110
  0.9969480782848095  0.2173868959473424  0.5583681482220229
  0.0358238908616144  0.4640006332689026  0.8696484577399204
  0.1857356343227607  0.3695864232119277  0.4938340571619264
  0.6907114855539973  0.1288146061119448  0.6191813408144711
  0.3615901388227414  0.5670319171028524  0.3094015601723825
  0.8338798366106701  0.8092165243090577  0.4334224926653221
  0.0233690499055683  0.7328221370981822  0.3061004052631020
  0.1862699330121842  0.6486708523578031  0.4381629759082273
  0.0235177988016204  0.7338959358365784  0.0669765074746920
  0.0529079634561569  0.9655227085608686  0.3698890163482247
  0.2400708849557986  0.8940249100482163  0.0065815584731652
  0.6888744601461525  0.6285620833514614  0.1182268891448786
  0.3620045447982037  0.5673670658298278  0.8084916742740305
  0.8340607348947486  0.8089969011689675  0.9335873061578823
  0.0225249290925831  0.7322534250799109  0.8063743390375464
  0.1879021942018753  0.6500657869503073  0.9380643758850695
  0.0210388609742651  0.7330788446976726  0.5665061914916549
  0.0454517737747153  0.9638454260286267  0.8704943065282151
  0.2397063451715908  0.8941144707139728  0.5047129155923642
  0.6862722016019305  0.6276888262391651  0.6180791283718463
  0.3620366882538804  0.0725633837892730  0.0656967723152420
  0.5240145454347598  0.4820322326268851  0.4357117409055320
  0.5322062379469017  0.4855654769255082  0.1917371029096131
  0.6880330392676441  0.4081969519350466  0.3110063623235035
  0.6859993984583497  0.4029824431646176  0.0637313514311302
  0.8540138415952114  0.3230085921631058  0.1827834450384884
  0.2015936232493800  0.1491385786455339  0.1867427320848947
  0.0462135005792987  0.4706003672943879  0.1224448689978246
  0.2252911931290313  0.3859835049226774  0.2474336361174920
  0.3933101173601088  0.3082700440324544  0.1272262405245499
  0.5537336316300809  0.2340228326247029  0.2473599128448072
  0.3882263184457884  0.3070916518536535  0.3713126051144613
  0.5511390995385952  0.2282196499386373  0.0060644525759770
  0.8944547971035490  0.0501725692314565  0.2458707527822952
  0.8872536657137857  0.0504504211649035  0.0022666565150828
  0.3624057922717796  0.0722745843521864  0.5644494676883127
  0.5299473277544990  0.4839710458839335  0.9336087180905253
  0.5263738701367089  0.4836484709345612  0.6883292764982656
  0.6872055002964146  0.4072417940936148  0.8107819712150004
  0.6825381639003112  0.4024059648358573  0.5645085204029670
  0.8542759767407802  0.3229735941067915  0.6844885460389207
  0.1998853010421726  0.1485053296227079  0.6852843442182532
  0.0424200254289744  0.4703176652923275  0.6220122080771873
  0.2244638773132763  0.3858855291362957  0.7473594479692025
  0.3880571224796228  0.3066995697628272  0.6302527737177215
  0.5574977351802133  0.2306361047011052  0.7472392477460303
  0.3933849444765869  0.3077752189701073  0.8739949566119449
  0.5491904091403299  0.2325252120851644  0.5063963552688193
  0.8885586508462353  0.0514034009876099  0.7460500463952968
  0.7334339597199175  0.1365274919825623  0.8758749824574323
  0.8923949633366206  0.0482909956822155  0.5023299013047264
  0.3543823954098357  0.5711220096742409  0.0634891746800221
  0.5570375105769827  0.9915254207138062  0.4383005932775035
  0.5585281075219655  0.9926983292473821  0.1971482191016563
  0.6954418915587794  0.9061144334920357  0.3110318575624618
  0.6935974367839606  0.9026441289937566  0.0650424229524518
  0.8558897279622997  0.8213052992405565  0.1839951110535551
  0.1934887874791897  0.6494619397465939  0.1853968218946491
  0.0588941191815664  0.9704414257563769  0.1246216119765222
  0.2435985790564175  0.8925175074469180  0.2513654825594216
  0.3997913444155614  0.8085881532461698  0.1298139284312612
  0.5533761198102169  0.7275884915597715  0.2473318436884639
  0.3975122468207886  0.8086555841951295  0.3743660058990415
  0.5495078639641662  0.7263517917443849  0.0041140250412965
  0.8822773448659547  0.5527627984138519  0.2469587822982362
  0.7214756821182675  0.6345080352855632  0.3745414890776146
  0.8800900847925632  0.5515755244882641  0.0006614829335447
  0.3487277459157099  0.5657868935363766  0.5616982952635681
  0.5411105325395837  0.9863535572670870  0.9363569941311596
  0.5424358152171465  0.9872419936920593  0.6931976622498794
  0.6935640029410166  0.9069005384546642  0.8113269801437752
  0.6918363220205066  0.9019767937087408  0.5646424959454279
  0.8537139175175383  0.8208364501233589  0.6838716625275012
  0.1919571924434607  0.6486888464604448  0.6851000800606428
  0.0547654338602968  0.9690692577330609  0.6239904050167766
  0.2352329105063191  0.8890246457295277  0.7496482022313984
  0.3972413888719970  0.8073107147963157  0.6288446263990295
  0.5521924153773554  0.7271364049816000  0.7465436049435539
  0.3967098444047892  0.8081465957326159  0.8743147364935737
  0.5475295085441942  0.7251460402729464  0.5040576736437146
  0.8798561452827371  0.5522920037683079  0.7468225261061363
  0.7218102044289623  0.6346671920260576  0.8739070221366134
  0.8776095153938357  0.5510502099401009  0.5008496150500363
  0.5680887269217152  0.1975059610396102  0.3694896394144607
  0.5291360870120982  0.1729460747055782  0.1111433343349901
  0.7460578693398219  0.0793023599678193  0.4974545152663623
  0.7478320652343555  0.0807182471901626  0.2300841075239290
  0.8820458326779743  0.9991349703632437  0.3594069745776451
  0.0331555324849901  0.4154497649794564  0.4931228682617075
  0.8767463947660872  0.4959476408697938  0.1102556837564990
  0.0587700358006842  0.4123875168836193  0.2222874385150035
  0.2257634066204730  0.3297651239780848  0.3465271877588947
  0.3915892821367706  0.2615539607394410  0.4907495239214015
  0.2350581133038290  0.3340668246762277  0.1173767867399604
  0.3824886192258532  0.2513944630744760  0.2324979465984498
  0.2484091420493044  0.0654039806884441  0.1674756142085485
  0.2679922532001058  0.0631104762974033  0.4261257697428249
  0.4215119565955945  0.4789994231930024  0.2970051136884493
  0.4525739541452083  0.0023744553121716  0.0579596720178301
  0.5795736646936831  0.4043119828550346  0.1725651724709394
  0.7460161594366355  0.3308288432181996  0.2859262351353493
  0.5812756342443706  0.4020241372572215  0.4229587516598059
  0.7320244610520348  0.3221058487971291  0.0569206430961628
  0.8885635860568755  0.2391956276117781  0.1681057371869201
  0.0873276864059633  0.1392070718813159  0.2865070146647355
  0.9688339734084579  0.2605611988519883  0.4360976876058942
  0.0774628964025226  0.1411070425100789  0.0567989261186739
  0.5846799401124727  0.1817165854890064  0.8676520718903333
  0.5282434969240484  0.1730646309862607  0.6095716730009570
  0.7291039093968052  0.0792119126800443  0.9762148684806746
  0.7310025112114786  0.0800587207462584  0.7463533028176101
  0.8800964292633324  0.0016818181853537  0.8603504599622696
  0.0397881409262340  0.4131187201005417  0.9930240877581227
  0.8731630443992344  0.4962206005439498  0.6110663705840196
  0.0582938146156309  0.4129047820873737  0.7250137797091085
  0.2350386634124320  0.3358738483117421  0.8577480930772694
  0.3933634279154816  0.2576024812568320  0.9869120948850423
  0.2232460482558949  0.3253341968770442  0.6252316660750168
  0.3870374929718778  0.2488814120970204  0.7392228997209003
  0.2438885290146047  0.0640932661198121  0.6649237338060203
  0.2592535494005688  0.0634187533770927  0.9283651730874780
  0.4206178247426209  0.4789101267304758  0.7971046625585743
  0.4525853240434046  0.0022031238502080  0.5600476784297825
  0.5762592269123346  0.4031171615124904  0.6747121887576526
  0.7441634426744770  0.3285767278280431  0.7904960638926184
  0.5829096151717650  0.4027896843779288  0.9239884619094525
  0.7338723998099823  0.3241223542002558  0.5631014305427442
  0.8879299900391544  0.2388461939843722  0.6737451687220286
  0.0810923360513982  0.1410561077103125  0.7838045155157971
  0.9165181167414005  0.2292053126852664  0.9214731554976012
  0.0835364439159676  0.1382803292835817  0.5536332140588414
  0.5738477998837155  0.6781578522426059  0.3655082237853833
  0.5272995377898368  0.6702219213269700  0.1093498179976606
  0.7154569586873905  0.5771136154950938  0.4758440499220242
  0.7213660743333037  0.5793197862613653  0.2436176288786740
  0.8727526573662487  0.5043378160702900  0.3603293657016522
  0.0483754126673119  0.9117626180164606  0.4931624877213423
  0.8881612991408900  0.9925347335095012  0.1083324913993167
  0.0620033682453212  0.9090510539777767  0.2227989864160591
  0.2385380768057175  0.8363147131189947  0.3556289723519299
  0.3932872470533226  0.7569719571914391  0.4873774946229474
  0.2413347218868012  0.8341859180488242  0.1222420470694630
  0.3853928114255396  0.7487588940764738  0.2367683886433625
  0.2360971176081819  0.5656081209613788  0.1626744920782315
  0.2499193149872525  0.5630257714691353  0.4273584035611364
  0.4416448192402029  0.9833032464568916  0.3004279302493984
  0.4430245872600125  0.5003814101684014  0.0570060434856714
  0.5870944659516724  0.9036345073490324  0.1739954210233350
  0.7416731304993078  0.8237853780017588  0.2869187495035135
  0.5901087713798177  0.9019612343985983  0.4244115143416494
  0.7333024646785518  0.8192186793177854  0.0578478644741978
  0.8892688007465352  0.7364839265564669  0.1709269008109331
  0.0763011283765564  0.6419628253462335  0.2844153752127454
  0.9060675497398520  0.7266594133205544  0.4198381110597040
  0.0711204896562805  0.6423511930083095  0.0563405908800405
  0.5745819182282474  0.6786656909770272  0.8656666284218559
  0.5235693010597089  0.6683010838470196  0.6088194643297484
  0.7184579516706862  0.5778129920396111  0.9758418346276940
  0.7184273153169585  0.5782826016480271  0.7433066879584942
  0.8726023141394350  0.5031871684002382  0.8602407562125052
  0.0489218954042627  0.9115065691744206  0.9932283364065100
  0.8864885542247052  0.9919707758525789  0.6130159396813752
  0.0609255782264455  0.9093198583952287  0.7240542524797391
  0.2380961165250284  0.8360392317179119  0.8563851281517429
  0.3947555613120244  0.7575650663193798  0.9876230731122462
  0.2394122594014902  0.8337155564974523  0.6209128468376619
  0.3845561054271798  0.7486680646731401  0.7367682452275801
  0.2343096193863801  0.5652239629604594  0.6634678176022675
  0.2517895377789188  0.5638613323872050  0.9282502334524025
  0.4306005419670882  0.9806977726209922  0.7988152125287158
  0.4351324354832826  0.4956812209006571  0.5553009085323453
  0.5844517353603962  0.9034040121760967  0.6739093423150706
  0.7417328197888011  0.8251666182958317  0.7877262240227196
  0.5885438071258520  0.9025518587815569  0.9245274544721553
  0.7316481188123092  0.8185403961506310  0.5578875829257655
  0.8881999128185356  0.7364881515430071  0.6714751171214957
  0.0750634063572733  0.6414473397409495  0.7846531544927302
  0.9062763843690007  0.7265999675667842  0.9201985161423565
  0.0696022911744336  0.6421643337249634  0.5565400709462409
 
  0.00000000E+00  0.00000000E+00  0.00000000E+00
  0.00000000E+00  0.00000000E+00  0.00000000E+00
  0.00000000E+00  0.00000000E+00  0.00000000E+00
  0.00000000E+00  0.00000000E+00  0.00000000E+00
  0.00000000E+00  0.00000000E+00  0.00000000E+00
  0.00000000E+00  0.00000000E+00  0.00000000E+00
  0.00000000E+00  0.00000000E+00  0.00000000E+00
  0.00000000E+00  0.00000000E+00  0.00000000E+00
  0.00000000E+00  0.00000000E+00  0.00000000E+00
  0.00000000E+00  0.00000000E+00  0.00000000E+00
  0.00000000E+00  0.00000000E+00  0.00000000E+00
  0.00000000E+00  0.00000000E+00  0.00000000E+00
  0.00000000E+00  0.00000000E+00  0.00000000E+00
  0.00000000E+00  0.00000000E+00  0.00000000E+00
  0.00000000E+00  0.00000000E+00  0.00000000E+00
  0.00000000E+00  0.00000000E+00  0.00000000E+00
  0.00000000E+00  0.00000000E+00  0.00000000E+00
  0.00000000E+00  0.00000000E+00  0.00000000E+00
  0.00000000E+00  0.00000000E+00  0.00000000E+00
  0.00000000E+00  0.00000000E+00  0.00000000E+00
  0.00000000E+00  0.00000000E+00  0.00000000E+00
  0.00000000E+00  0.00000000E+00  0.00000000E+00
  0.00000000E+00  0.00000000E+00  0.00000000E+00
  0.00000000E+00  0.00000000E+00  0.00000000E+00
  0.00000000E+00  0.00000000E+00  0.00000000E+00
  0.00000000E+00  0.00000000E+00  0.00000000E+00
  0.00000000E+00  0.00000000E+00  0.00000000E+00
  0.00000000E+00  0.00000000E+00  0.00000000E+00
  0.00000000E+00  0.00000000E+00  0.00000000E+00
  0.00000000E+00  0.00000000E+00  0.00000000E+00
  0.00000000E+00  0.00000000E+00  0.00000000E+00
  0.00000000E+00  0.00000000E+00  0.00000000E+00
  0.00000000E+00  0.00000000E+00  0.00000000E+00
  0.00000000E+00  0.00000000E+00  0.00000000E+00
  0.00000000E+00  0.00000000E+00  0.00000000E+00
  0.00000000E+00  0.00000000E+00  0.00000000E+00
  0.00000000E+00  0.00000000E+00  0.00000000E+00
  0.00000000E+00  0.00000000E+00  0.00000000E+00
  0.00000000E+00  0.00000000E+00  0.00000000E+00
  0.00000000E+00  0.00000000E+00  0.00000000E+00
  0.00000000E+00  0.00000000E+00  0.00000000E+00
  0.00000000E+00  0.00000000E+00  0.00000000E+00
  0.00000000E+00  0.00000000E+00  0.00000000E+00
  0.00000000E+00  0.00000000E+00  0.00000000E+00
  0.00000000E+00  0.00000000E+00  0.00000000E+00
  0.00000000E+00  0.00000000E+00  0.00000000E+00
  0.00000000E+00  0.00000000E+00  0.00000000E+00
  0.00000000E+00  0.00000000E+00  0.00000000E+00
  0.00000000E+00  0.00000000E+00  0.00000000E+00
  0.00000000E+00  0.00000000E+00  0.00000000E+00
  0.00000000E+00  0.00000000E+00  0.00000000E+00
  0.00000000E+00  0.00000000E+00  0.00000000E+00
  0.00000000E+00  0.00000000E+00  0.00000000E+00
  0.00000000E+00  0.00000000E+00  0.00000000E+00
  0.00000000E+00  0.00000000E+00  0.00000000E+00
  0.00000000E+00  0.00000000E+00  0.00000000E+00
  0.00000000E+00  0.00000000E+00  0.00000000E+00
  0.00000000E+00  0.00000000E+00  0.00000000E+00
  0.00000000E+00  0.00000000E+00  0.00000000E+00
  0.00000000E+00  0.00000000E+00  0.00000000E+00
  0.00000000E+00  0.00000000E+00  0.00000000E+00
  0.00000000E+00  0.00000000E+00  0.00000000E+00
  0.00000000E+00  0.00000000E+00  0.00000000E+00
  0.00000000E+00  0.00000000E+00  0.00000000E+00
  0.00000000E+00  0.00000000E+00  0.00000000E+00
  0.00000000E+00  0.00000000E+00  0.00000000E+00
  0.00000000E+00  0.00000000E+00  0.00000000E+00
  0.00000000E+00  0.00000000E+00  0.00000000E+00
  0.00000000E+00  0.00000000E+00  0.00000000E+00
  0.00000000E+00  0.00000000E+00  0.00000000E+00
  0.00000000E+00  0.00000000E+00  0.00000000E+00
  0.00000000E+00  0.00000000E+00  0.00000000E+00
  0.00000000E+00  0.00000000E+00  0.00000000E+00
  0.00000000E+00  0.00000000E+00  0.00000000E+00
  0.00000000E+00  0.00000000E+00  0.00000000E+00
  0.00000000E+00  0.00000000E+00  0.00000000E+00
  0.00000000E+00  0.00000000E+00  0.00000000E+00
  0.00000000E+00  0.00000000E+00  0.00000000E+00
  0.00000000E+00  0.00000000E+00  0.00000000E+00
  0.00000000E+00  0.00000000E+00  0.00000000E+00
  0.00000000E+00  0.00000000E+00  0.00000000E+00
  0.00000000E+00  0.00000000E+00  0.00000000E+00
  0.00000000E+00  0.00000000E+00  0.00000000E+00
  0.00000000E+00  0.00000000E+00  0.00000000E+00
  0.00000000E+00  0.00000000E+00  0.00000000E+00
  0.00000000E+00  0.00000000E+00  0.00000000E+00
  0.00000000E+00  0.00000000E+00  0.00000000E+00
  0.00000000E+00  0.00000000E+00  0.00000000E+00
  0.00000000E+00  0.00000000E+00  0.00000000E+00
  0.00000000E+00  0.00000000E+00  0.00000000E+00
  0.00000000E+00  0.00000000E+00  0.00000000E+00
  0.00000000E+00  0.00000000E+00  0.00000000E+00
  0.00000000E+00  0.00000000E+00  0.00000000E+00
  0.00000000E+00  0.00000000E+00  0.00000000E+00
  0.00000000E+00  0.00000000E+00  0.00000000E+00
  0.00000000E+00  0.00000000E+00  0.00000000E+00
  0.00000000E+00  0.00000000E+00  0.00000000E+00
  0.00000000E+00  0.00000000E+00  0.00000000E+00
  0.00000000E+00  0.00000000E+00  0.00000000E+00
  0.00000000E+00  0.00000000E+00  0.00000000E+00
  0.00000000E+00  0.00000000E+00  0.00000000E+00
  0.00000000E+00  0.00000000E+00  0.00000000E+00
  0.00000000E+00  0.00000000E+00  0.00000000E+00
  0.00000000E+00  0.00000000E+00  0.00000000E+00
  0.00000000E+00  0.00000000E+00  0.00000000E+00
  0.00000000E+00  0.00000000E+00  0.00000000E+00
  0.00000000E+00  0.00000000E+00  0.00000000E+00
  0.00000000E+00  0.00000000E+00  0.00000000E+00
  0.00000000E+00  0.00000000E+00  0.00000000E+00
  0.00000000E+00  0.00000000E+00  0.00000000E+00
  0.00000000E+00  0.00000000E+00  0.00000000E+00
  0.00000000E+00  0.00000000E+00  0.00000000E+00
  0.00000000E+00  0.00000000E+00  0.00000000E+00
  0.00000000E+00  0.00000000E+00  0.00000000E+00
  0.00000000E+00  0.00000000E+00  0.00000000E+00
  0.00000000E+00  0.00000000E+00  0.00000000E+00
  0.00000000E+00  0.00000000E+00  0.00000000E+00
  0.00000000E+00  0.00000000E+00  0.00000000E+00
  0.00000000E+00  0.00000000E+00  0.00000000E+00
  0.00000000E+00  0.00000000E+00  0.00000000E+00
  0.00000000E+00  0.00000000E+00  0.00000000E+00
  0.00000000E+00  0.00000000E+00  0.00000000E+00
  0.00000000E+00  0.00000000E+00  0.00000000E+00
  0.00000000E+00  0.00000000E+00  0.00000000E+00
  0.00000000E+00  0.00000000E+00  0.00000000E+00
  0.00000000E+00  0.00000000E+00  0.00000000E+00
  0.00000000E+00  0.00000000E+00  0.00000000E+00
  0.00000000E+00  0.00000000E+00  0.00000000E+00
  0.00000000E+00  0.00000000E+00  0.00000000E+00
  0.00000000E+00  0.00000000E+00  0.00000000E+00
  0.00000000E+00  0.00000000E+00  0.00000000E+00
  0.00000000E+00  0.00000000E+00  0.00000000E+00
  0.00000000E+00  0.00000000E+00  0.00000000E+00
  0.00000000E+00  0.00000000E+00  0.00000000E+00
  0.00000000E+00  0.00000000E+00  0.00000000E+00
  0.00000000E+00  0.00000000E+00  0.00000000E+00
  0.00000000E+00  0.00000000E+00  0.00000000E+00
  0.00000000E+00  0.00000000E+00  0.00000000E+00
  0.00000000E+00  0.00000000E+00  0.00000000E+00
  0.00000000E+00  0.00000000E+00  0.00000000E+00
  0.00000000E+00  0.00000000E+00  0.00000000E+00
  0.00000000E+00  0.00000000E+00  0.00000000E+00
  0.00000000E+00  0.00000000E+00  0.00000000E+00
  0.00000000E+00  0.00000000E+00  0.00000000E+00
  0.00000000E+00  0.00000000E+00  0.00000000E+00
  0.00000000E+00  0.00000000E+00  0.00000000E+00
  0.00000000E+00  0.00000000E+00  0.00000000E+00
  0.00000000E+00  0.00000000E+00  0.00000000E+00
  0.00000000E+00  0.00000000E+00  0.00000000E+00
  0.00000000E+00  0.00000000E+00  0.00000000E+00
  0.00000000E+00  0.00000000E+00  0.00000000E+00
  0.00000000E+00  0.00000000E+00  0.00000000E+00
  0.00000000E+00  0.00000000E+00  0.00000000E+00
  0.00000000E+00  0.00000000E+00  0.00000000E+00
  0.00000000E+00  0.00000000E+00  0.00000000E+00
  0.00000000E+00  0.00000000E+00  0.00000000E+00
  0.00000000E+00  0.00000000E+00  0.00000000E+00
  0.00000000E+00  0.00000000E+00  0.00000000E+00
  0.00000000E+00  0.00000000E+00  0.00000000E+00
  0.00000000E+00  0.00000000E+00  0.00000000E+00
  0.00000000E+00  0.00000000E+00  0.00000000E+00
  0.00000000E+00  0.00000000E+00  0.00000000E+00
  0.00000000E+00  0.00000000E+00  0.00000000E+00
  0.00000000E+00  0.00000000E+00  0.00000000E+00
  0.00000000E+00  0.00000000E+00  0.00000000E+00
  0.00000000E+00  0.00000000E+00  0.00000000E+00
  0.00000000E+00  0.00000000E+00  0.00000000E+00
  0.00000000E+00  0.00000000E+00  0.00000000E+00
  0.00000000E+00  0.00000000E+00  0.00000000E+00
  0.00000000E+00  0.00000000E+00  0.00000000E+00
  0.00000000E+00  0.00000000E+00  0.00000000E+00
  0.00000000E+00  0.00000000E+00  0.00000000E+00
  0.00000000E+00  0.00000000E+00  0.00000000E+00
  0.00000000E+00  0.00000000E+00  0.00000000E+00
  0.00000000E+00  0.00000000E+00  0.00000000E+00
  0.00000000E+00  0.00000000E+00  0.00000000E+00
  0.00000000E+00  0.00000000E+00  0.00000000E+00
  0.00000000E+00  0.00000000E+00  0.00000000E+00
  0.00000000E+00  0.00000000E+00  0.00000000E+00
  0.00000000E+00  0.00000000E+00  0.00000000E+00
  0.00000000E+00  0.00000000E+00  0.00000000E+00
  0.00000000E+00  0.00000000E+00  0.00000000E+00
  0.00000000E+00  0.00000000E+00  0.00000000E+00
  0.00000000E+00  0.00000000E+00  0.00000000E+00
  0.00000000E+00  0.00000000E+00  0.00000000E+00
  0.00000000E+00  0.00000000E+00  0.00000000E+00
  0.00000000E+00  0.00000000E+00  0.00000000E+00
  0.00000000E+00  0.00000000E+00  0.00000000E+00
  0.00000000E+00  0.00000000E+00  0.00000000E+00
  0.00000000E+00  0.00000000E+00  0.00000000E+00
  0.00000000E+00  0.00000000E+00  0.00000000E+00
