supercell of POSCAR                     
   1.03228000000000     
     6.3970863126299999    5.5387332920799999    4.9397337979799998
   -15.9736979067999982   -5.5365852353599996    9.8547656895600007
     6.4026568282999996  -11.0930079636999999    0.0094448205590600
   Sc   Al   N    O 
    32    64    95     1
Direct
  0.3821337269291334  0.0817661074567724  0.3194379945265595
  0.8300884322440467  0.3047765913992819  0.4305825839942727
  0.0286024506184432  0.2301580700696064  0.3038566406142991
  0.2125449007470621  0.1514975739358420  0.4373195833853600
  0.0224605883660445  0.2318022702001983  0.0668420464644583
  0.0370891728933742  0.4617643533016107  0.3690559661486290
  0.2302844812535341  0.3923482360482282  0.0039642946065896
  0.6932170599947227  0.1301658253246174  0.1212110391210004
  0.3710772236971991  0.0701741417104884  0.8117930363782335
  0.8317161249038492  0.3081591958652439  0.9313032857097383
  0.0227165872060908  0.2311153427631041  0.8033591972827381
  0.1917277020004775  0.1488427879518142  0.9394444218494939
  0.0255511434422573  0.2291469875309318  0.5672051627119785
  0.0387681821117312  0.4637267280862361  0.8687792817320599
  0.2278768248617524  0.3890212539977611  0.5033001144920277
  0.6906820600818122  0.1298860475334251  0.6178610321965579
  0.3666611250237253  0.5694101743834068  0.3097106574657218
  0.8276535442704898  0.8057776499479630  0.4346541827179351
  0.0208131133126059  0.7311207859165805  0.3039920907100822
  0.1861398985507847  0.6471031236010347  0.4374954403306930
  0.0223772100652511  0.7334052539812035  0.0679459866433803
  0.0296348832286952  0.9570951340054492  0.3695164258332966
  0.2340388195963001  0.8933825844417314  0.0055088050684304
  0.6894575994340713  0.6287536232731341  0.1180444547552000
  0.3678308847098108  0.5698897819728117  0.8097586038857401
  0.8324855239606137  0.8088718498795728  0.9345216453885925
  0.0210765130452373  0.7311664568816170  0.8045936962898637
  0.1881024002034692  0.6483605479187915  0.9375254231258623
  0.0201442025423120  0.7316640374226537  0.5675722243536256
  0.0412996395788099  0.9640509150493770  0.8716299050218552
  0.2302442409014489  0.8911953698101343  0.5043072747676050
  0.6886830865959794  0.6286905115169077  0.6184315457928449
  0.3605981196080634  0.0719941007019500  0.0658042114931803
  0.5333535873899393  0.4848127133076048  0.4344026947743487
  0.5370143104000675  0.4863102870650025  0.1916194724389015
  0.6923785320007170  0.4081843537763845  0.3105534942963999
  0.6886085590093103  0.4028607184746278  0.0634720809252656
  0.8570125282549412  0.3227964111249904  0.1823212817474271
  0.2032531728490383  0.1499927699325241  0.1892211646588535
  0.0486761788427188  0.4707860972877427  0.1216376543904900
  0.2309616628489408  0.3891289435582976  0.2470605729266424
  0.3977163601103939  0.3081226177914402  0.1285061792976165
  0.5626997778156522  0.2312368141564889  0.2444357060246674
  0.3963699286337601  0.3103341930650600  0.3734761785135063
  0.5515434210253503  0.2279911013506322  0.0032826881776131
  0.8907543674833391  0.0514831109230443  0.2484787578560557
  0.7375765397905454  0.1369494893994982  0.3725341600398977
  0.8862048038048300  0.0518223682143315  0.0028936116648026
  0.3572867047188595  0.0680670438891084  0.5677064508610812
  0.5340213070083735  0.4848774486357783  0.9344185788053707
  0.5354235692778886  0.4861424990719954  0.6923579537686351
  0.6906784478609893  0.4073170166650328  0.8111641820012068
  0.6835333872641343  0.4002615141346979  0.5624588694963748
  0.8503090343596043  0.3207727494175714  0.6799647182695239
  0.1967612874410989  0.1484249638347706  0.6853954269368927
  0.0467981595544344  0.4694014351149178  0.6214760306550460
  0.2277591407645190  0.3888296681355143  0.7493834427923076
  0.3952473134933712  0.3101030770818198  0.6315118456665587
  0.5542485105975459  0.2289166592887995  0.7448364275476322
  0.3942638625792867  0.3080302260630887  0.8737388734267668
  0.5355387991199834  0.2243769250743526  0.4952387361771073
  0.8866103795897047  0.0523022707923317  0.7475131004937694
  0.7290047172011640  0.1363830421196894  0.8749684222532466
  0.8884516028004086  0.0516044230624999  0.5009092084788662
  0.3565515854333725  0.5714838844461880  0.0637093597032106
  0.5381258340781159  0.9859348182350018  0.4351455048110111
  0.5391187491333795  0.9874706668420643  0.1952385791521820
  0.6887702709580310  0.9064196775787750  0.3115437388965674
  0.6890899164460720  0.9029847548697632  0.0653970020779227
  0.8527429604325647  0.8212797791578907  0.1828728449575934
  0.1952120993923856  0.6496226519813604  0.1852869014074798
  0.0534480854566581  0.9710386785112135  0.1249625006719910
  0.2342839189411023  0.8912721000794903  0.2508826871350252
  0.3959314961717624  0.8078701047127552  0.1294944221125220
  0.5552123174027770  0.7293840316572755  0.2476304904593576
  0.3931178736558607  0.8076811236175701  0.3744242569122918
  0.5486800527917950  0.7271411119464091  0.0049116193005503
  0.8854178963791313  0.5524474916127247  0.2465538227680284
  0.7260086814615931  0.6350817127967687  0.3746663468520453
  0.8829151519208338  0.5517563641142971  0.0006984330969004
  0.3543057685595059  0.5698215694939748  0.5634808305975270
  0.5379477576407581  0.9860332081137813  0.9366185045743336
  0.5385160985314883  0.9863727783691090  0.6931354912038969
  0.6911730399741600  0.9073499551997628  0.8122266359717472
  0.6876681852554682  0.9023148478250107  0.5648772041053149
  0.8527686890428541  0.8217646806491743  0.6848494815245161
  0.1938406974538225  0.6486767850437118  0.6855409546328843
  0.0474521686674976  0.9688232849415783  0.6240566461406871
  0.2312735495337250  0.8886187444153038  0.7497676715564552
  0.3952772262246640  0.8070659869142034  0.6296076046685073
  0.5545873803721264  0.7291338342024858  0.7479792880407459
  0.3943955600391575  0.8081053113419969  0.8746005691690186
  0.5469659727618534  0.7265099991618058  0.5057927614138222
  0.8828567815748585  0.5513140689270202  0.7461393485985042
  0.7265372647445645  0.6360773903924652  0.8751221601459065
  0.8811752466354434  0.5503990335838438  0.5008350054863655
  0.6022920612770903  0.1828376907237086  0.3550524405295761
  0.5312235523884752  0.1719310453720126  0.1067992435540148
  0.7282081743634663  0.0801270777614675  0.4771858443197345
  0.7330502838234665  0.0790815275147310  0.2433605244950670
  0.8748978914709227  0.0003971775137188  0.3603061698629588
  0.0429882742120853  0.4114634095547558  0.4932254032173873
  0.8793288704651161  0.4958129790661019  0.1097306146162254
  0.0610053464387121  0.4124949663448305  0.2220401199076392
  0.2360123166467503  0.3368852483838722  0.3528145791677275
  0.3924775296614342  0.2670000188381678  0.4919872090642130
  0.2378496031541744  0.3333708990982913  0.1196120332780310
  0.3917250552158009  0.2511562759103114  0.2370459743825251
  0.2445180675844725  0.0654657693850709  0.1662923190477628
  0.4269205980244593  0.4812918251657905  0.2970711743152847
  0.4499584717599490  0.0013267585424401  0.0589734607832213
  0.5832533857037134  0.4044901498040545  0.1730100668191241
  0.7497242648058418  0.3300614865715517  0.2876126190209121
  0.5871646398400188  0.4041603329320367  0.4226273892470971
  0.7341197016687957  0.3214876835487459  0.0569077503765598
  0.8930525261099476  0.2387443667846014  0.1723702775651006
  0.0848269781524635  0.1398663894708037  0.2876532651488120
  0.9234054128825946  0.2295929425631869  0.4219312776484259
  0.0777060338111184  0.1425775634998701  0.0592799453230626
  0.5809882238949697  0.1809922897380218  0.8656720939482696
  0.5213991110921938  0.1684584904048663  0.6058085154316757
  0.7262774910198928  0.0800518866055810  0.9780476972472059
  0.7272620079425778  0.0802569983023176  0.7439841080804399
  0.8771204933324768  0.0028202333644032  0.8612558394384493
  0.0426678864695802  0.4126280895819932  0.9923706022168091
  0.8764108461110354  0.4939008646991923  0.6095685772676944
  0.0556699802386760  0.4109305122219666  0.7226619821391367
  0.2349227319682186  0.3359740892242371  0.8562458164035718
  0.3944926833037030  0.2578558616034528  0.9869603819543968
  0.2345798744548446  0.3336672193265429  0.6241880530688277
  0.3857413367840294  0.2492548087028794  0.7373015583286318
  0.2381265901805634  0.0632118110935025  0.6644960058181155
  0.2566235722884187  0.0629978992785638  0.9293038611054456
  0.4248542212993129  0.4807640063820884  0.7982318293896640
  0.4474603336591443  0.9996006439181571  0.5581909601157804
  0.5831739117133239  0.4051127729277084  0.6756801120539819
  0.7420716671931302  0.3265925159766780  0.7861298793821589
  0.5849516845797353  0.4027686030672939  0.9236808869805202
  0.7254567137119068  0.3173815997277956  0.5534305409191944
  0.8895030496832632  0.2376208319580826  0.6700727152268229
  0.0803687341601460  0.1414645703063897  0.7856471346437743
  0.9127829987382654  0.2286985972106947  0.9204481179151003
  0.0814034061181843  0.1400695346202809  0.5542100683125568
  0.5786367391338274  0.6804039781383295  0.3669819737261477
  0.5285762055877470  0.6711393793797953  0.1102564911335122
  0.7219028376976055  0.5787442540737544  0.4769078238684585
  0.7257842546269160  0.5800845028188917  0.2438172630508291
  0.8781294939743631  0.5039494673898730  0.3603673053836900
  0.0393878356950879  0.9088621032892732  0.4956356782446321
  0.8818952596407570  0.9947332231396331  0.1107378291246945
  0.0571654846420060  0.9101099322733006  0.2237982574176627
  0.2336630922510849  0.8352455223725812  0.3555073329584815
  0.3905398813547762  0.7564573985094540  0.4876468688353270
  0.2382276265243917  0.8344701618429369  0.1221840688660976
  0.3858955202937722  0.7493591035736600  0.2374659152200920
  0.2383596031260637  0.5657991061990586  0.1627672299186571
  0.2533753948596171  0.5623820696044817  0.4276021039661515
  0.4284825775655108  0.9830694799027739  0.3013733869299884
  0.4461951726159441  0.5008192731816834  0.0574326997177934
  0.5816038787975444  0.9036020909020976  0.1744781065632282
  0.7450078329160732  0.8271034431894861  0.2895854585936348
  0.5843678560430234  0.9019350277817111  0.4247802822054254
  0.7307736654489929  0.8203745613250035  0.0583148199379764
  0.8877715248614919  0.7372071883249447  0.1706261075100244
  0.0784994944570272  0.6419120021590459  0.2844437135415987
  0.9100505064506876  0.7271243138685008  0.4207003329670442
  0.0733851558257754  0.6429525005580174  0.0563189902185854
  0.5786662943532832  0.6804110490588471  0.8669366125009716
  0.5265087238529915  0.6700824276057560  0.6104798770682009
  0.7221984190543083  0.5787424933339409  0.9763556874575698
  0.7245867002703861  0.5801443240285025  0.7442789651346686
  0.8762011939945182  0.5030221793824836  0.8606130527231954
  0.0449018623336741  0.9122697810401874  0.9947761917138038
  0.8794046003419140  0.9946503746887032  0.6108603291662078
  0.0582924085977155  0.9105918009751690  0.7253475705270986
  0.2346315490733701  0.8353987904407987  0.8563067899316934
  0.3920382998292524  0.7571712184619486  0.9876829988952025
  0.2363714377585993  0.8328268556745684  0.6215500858114851
  0.3847504972177305  0.7487629108104272  0.7377243020865976
  0.2366739742919606  0.5647259822645267  0.6631580735558700
  0.2547696429189443  0.5633844291973418  0.9277660263814838
  0.4277343664497124  0.9805472757480871  0.7990289520655907
  0.4441384300918116  0.4993992552200055  0.5572096379997902
  0.5816549867216452  0.9033288519521676  0.6746587284904493
  0.7424961291271899  0.8266900648817526  0.7893883620867825
  0.5855954941559887  0.9027077100291407  0.9249672881488635
  0.7295837391988229  0.8198422026654271  0.5595604164098944
  0.8878126429114914  0.7375005069712444  0.6714277369068071
  0.0764854603003258  0.6410467111138587  0.7845453259907558
  0.9103910655448857  0.7282698684706901  0.9211678931605434
  0.0718919066100128  0.6416649625044499  0.5567161923696915
  0.2448810056739248  0.0479063209757840  0.4333286271942356
 
  0.00000000E+00  0.00000000E+00  0.00000000E+00
  0.00000000E+00  0.00000000E+00  0.00000000E+00
  0.00000000E+00  0.00000000E+00  0.00000000E+00
  0.00000000E+00  0.00000000E+00  0.00000000E+00
  0.00000000E+00  0.00000000E+00  0.00000000E+00
  0.00000000E+00  0.00000000E+00  0.00000000E+00
  0.00000000E+00  0.00000000E+00  0.00000000E+00
  0.00000000E+00  0.00000000E+00  0.00000000E+00
  0.00000000E+00  0.00000000E+00  0.00000000E+00
  0.00000000E+00  0.00000000E+00  0.00000000E+00
  0.00000000E+00  0.00000000E+00  0.00000000E+00
  0.00000000E+00  0.00000000E+00  0.00000000E+00
  0.00000000E+00  0.00000000E+00  0.00000000E+00
  0.00000000E+00  0.00000000E+00  0.00000000E+00
  0.00000000E+00  0.00000000E+00  0.00000000E+00
  0.00000000E+00  0.00000000E+00  0.00000000E+00
  0.00000000E+00  0.00000000E+00  0.00000000E+00
  0.00000000E+00  0.00000000E+00  0.00000000E+00
  0.00000000E+00  0.00000000E+00  0.00000000E+00
  0.00000000E+00  0.00000000E+00  0.00000000E+00
  0.00000000E+00  0.00000000E+00  0.00000000E+00
  0.00000000E+00  0.00000000E+00  0.00000000E+00
  0.00000000E+00  0.00000000E+00  0.00000000E+00
  0.00000000E+00  0.00000000E+00  0.00000000E+00
  0.00000000E+00  0.00000000E+00  0.00000000E+00
  0.00000000E+00  0.00000000E+00  0.00000000E+00
  0.00000000E+00  0.00000000E+00  0.00000000E+00
  0.00000000E+00  0.00000000E+00  0.00000000E+00
  0.00000000E+00  0.00000000E+00  0.00000000E+00
  0.00000000E+00  0.00000000E+00  0.00000000E+00
  0.00000000E+00  0.00000000E+00  0.00000000E+00
  0.00000000E+00  0.00000000E+00  0.00000000E+00
  0.00000000E+00  0.00000000E+00  0.00000000E+00
  0.00000000E+00  0.00000000E+00  0.00000000E+00
  0.00000000E+00  0.00000000E+00  0.00000000E+00
  0.00000000E+00  0.00000000E+00  0.00000000E+00
  0.00000000E+00  0.00000000E+00  0.00000000E+00
  0.00000000E+00  0.00000000E+00  0.00000000E+00
  0.00000000E+00  0.00000000E+00  0.00000000E+00
  0.00000000E+00  0.00000000E+00  0.00000000E+00
  0.00000000E+00  0.00000000E+00  0.00000000E+00
  0.00000000E+00  0.00000000E+00  0.00000000E+00
  0.00000000E+00  0.00000000E+00  0.00000000E+00
  0.00000000E+00  0.00000000E+00  0.00000000E+00
  0.00000000E+00  0.00000000E+00  0.00000000E+00
  0.00000000E+00  0.00000000E+00  0.00000000E+00
  0.00000000E+00  0.00000000E+00  0.00000000E+00
  0.00000000E+00  0.00000000E+00  0.00000000E+00
  0.00000000E+00  0.00000000E+00  0.00000000E+00
  0.00000000E+00  0.00000000E+00  0.00000000E+00
  0.00000000E+00  0.00000000E+00  0.00000000E+00
  0.00000000E+00  0.00000000E+00  0.00000000E+00
  0.00000000E+00  0.00000000E+00  0.00000000E+00
  0.00000000E+00  0.00000000E+00  0.00000000E+00
  0.00000000E+00  0.00000000E+00  0.00000000E+00
  0.00000000E+00  0.00000000E+00  0.00000000E+00
  0.00000000E+00  0.00000000E+00  0.00000000E+00
  0.00000000E+00  0.00000000E+00  0.00000000E+00
  0.00000000E+00  0.00000000E+00  0.00000000E+00
  0.00000000E+00  0.00000000E+00  0.00000000E+00
  0.00000000E+00  0.00000000E+00  0.00000000E+00
  0.00000000E+00  0.00000000E+00  0.00000000E+00
  0.00000000E+00  0.00000000E+00  0.00000000E+00
  0.00000000E+00  0.00000000E+00  0.00000000E+00
  0.00000000E+00  0.00000000E+00  0.00000000E+00
  0.00000000E+00  0.00000000E+00  0.00000000E+00
  0.00000000E+00  0.00000000E+00  0.00000000E+00
  0.00000000E+00  0.00000000E+00  0.00000000E+00
  0.00000000E+00  0.00000000E+00  0.00000000E+00
  0.00000000E+00  0.00000000E+00  0.00000000E+00
  0.00000000E+00  0.00000000E+00  0.00000000E+00
  0.00000000E+00  0.00000000E+00  0.00000000E+00
  0.00000000E+00  0.00000000E+00  0.00000000E+00
  0.00000000E+00  0.00000000E+00  0.00000000E+00
  0.00000000E+00  0.00000000E+00  0.00000000E+00
  0.00000000E+00  0.00000000E+00  0.00000000E+00
  0.00000000E+00  0.00000000E+00  0.00000000E+00
  0.00000000E+00  0.00000000E+00  0.00000000E+00
  0.00000000E+00  0.00000000E+00  0.00000000E+00
  0.00000000E+00  0.00000000E+00  0.00000000E+00
  0.00000000E+00  0.00000000E+00  0.00000000E+00
  0.00000000E+00  0.00000000E+00  0.00000000E+00
  0.00000000E+00  0.00000000E+00  0.00000000E+00
  0.00000000E+00  0.00000000E+00  0.00000000E+00
  0.00000000E+00  0.00000000E+00  0.00000000E+00
  0.00000000E+00  0.00000000E+00  0.00000000E+00
  0.00000000E+00  0.00000000E+00  0.00000000E+00
  0.00000000E+00  0.00000000E+00  0.00000000E+00
  0.00000000E+00  0.00000000E+00  0.00000000E+00
  0.00000000E+00  0.00000000E+00  0.00000000E+00
  0.00000000E+00  0.00000000E+00  0.00000000E+00
  0.00000000E+00  0.00000000E+00  0.00000000E+00
  0.00000000E+00  0.00000000E+00  0.00000000E+00
  0.00000000E+00  0.00000000E+00  0.00000000E+00
  0.00000000E+00  0.00000000E+00  0.00000000E+00
  0.00000000E+00  0.00000000E+00  0.00000000E+00
  0.00000000E+00  0.00000000E+00  0.00000000E+00
  0.00000000E+00  0.00000000E+00  0.00000000E+00
  0.00000000E+00  0.00000000E+00  0.00000000E+00
  0.00000000E+00  0.00000000E+00  0.00000000E+00
  0.00000000E+00  0.00000000E+00  0.00000000E+00
  0.00000000E+00  0.00000000E+00  0.00000000E+00
  0.00000000E+00  0.00000000E+00  0.00000000E+00
  0.00000000E+00  0.00000000E+00  0.00000000E+00
  0.00000000E+00  0.00000000E+00  0.00000000E+00
  0.00000000E+00  0.00000000E+00  0.00000000E+00
  0.00000000E+00  0.00000000E+00  0.00000000E+00
  0.00000000E+00  0.00000000E+00  0.00000000E+00
  0.00000000E+00  0.00000000E+00  0.00000000E+00
  0.00000000E+00  0.00000000E+00  0.00000000E+00
  0.00000000E+00  0.00000000E+00  0.00000000E+00
  0.00000000E+00  0.00000000E+00  0.00000000E+00
  0.00000000E+00  0.00000000E+00  0.00000000E+00
  0.00000000E+00  0.00000000E+00  0.00000000E+00
  0.00000000E+00  0.00000000E+00  0.00000000E+00
  0.00000000E+00  0.00000000E+00  0.00000000E+00
  0.00000000E+00  0.00000000E+00  0.00000000E+00
  0.00000000E+00  0.00000000E+00  0.00000000E+00
  0.00000000E+00  0.00000000E+00  0.00000000E+00
  0.00000000E+00  0.00000000E+00  0.00000000E+00
  0.00000000E+00  0.00000000E+00  0.00000000E+00
  0.00000000E+00  0.00000000E+00  0.00000000E+00
  0.00000000E+00  0.00000000E+00  0.00000000E+00
  0.00000000E+00  0.00000000E+00  0.00000000E+00
  0.00000000E+00  0.00000000E+00  0.00000000E+00
  0.00000000E+00  0.00000000E+00  0.00000000E+00
  0.00000000E+00  0.00000000E+00  0.00000000E+00
  0.00000000E+00  0.00000000E+00  0.00000000E+00
  0.00000000E+00  0.00000000E+00  0.00000000E+00
  0.00000000E+00  0.00000000E+00  0.00000000E+00
  0.00000000E+00  0.00000000E+00  0.00000000E+00
  0.00000000E+00  0.00000000E+00  0.00000000E+00
  0.00000000E+00  0.00000000E+00  0.00000000E+00
  0.00000000E+00  0.00000000E+00  0.00000000E+00
  0.00000000E+00  0.00000000E+00  0.00000000E+00
  0.00000000E+00  0.00000000E+00  0.00000000E+00
  0.00000000E+00  0.00000000E+00  0.00000000E+00
  0.00000000E+00  0.00000000E+00  0.00000000E+00
  0.00000000E+00  0.00000000E+00  0.00000000E+00
  0.00000000E+00  0.00000000E+00  0.00000000E+00
  0.00000000E+00  0.00000000E+00  0.00000000E+00
  0.00000000E+00  0.00000000E+00  0.00000000E+00
  0.00000000E+00  0.00000000E+00  0.00000000E+00
  0.00000000E+00  0.00000000E+00  0.00000000E+00
  0.00000000E+00  0.00000000E+00  0.00000000E+00
  0.00000000E+00  0.00000000E+00  0.00000000E+00
  0.00000000E+00  0.00000000E+00  0.00000000E+00
  0.00000000E+00  0.00000000E+00  0.00000000E+00
  0.00000000E+00  0.00000000E+00  0.00000000E+00
  0.00000000E+00  0.00000000E+00  0.00000000E+00
  0.00000000E+00  0.00000000E+00  0.00000000E+00
  0.00000000E+00  0.00000000E+00  0.00000000E+00
  0.00000000E+00  0.00000000E+00  0.00000000E+00
  0.00000000E+00  0.00000000E+00  0.00000000E+00
  0.00000000E+00  0.00000000E+00  0.00000000E+00
  0.00000000E+00  0.00000000E+00  0.00000000E+00
  0.00000000E+00  0.00000000E+00  0.00000000E+00
  0.00000000E+00  0.00000000E+00  0.00000000E+00
  0.00000000E+00  0.00000000E+00  0.00000000E+00
  0.00000000E+00  0.00000000E+00  0.00000000E+00
  0.00000000E+00  0.00000000E+00  0.00000000E+00
  0.00000000E+00  0.00000000E+00  0.00000000E+00
  0.00000000E+00  0.00000000E+00  0.00000000E+00
  0.00000000E+00  0.00000000E+00  0.00000000E+00
  0.00000000E+00  0.00000000E+00  0.00000000E+00
  0.00000000E+00  0.00000000E+00  0.00000000E+00
  0.00000000E+00  0.00000000E+00  0.00000000E+00
  0.00000000E+00  0.00000000E+00  0.00000000E+00
  0.00000000E+00  0.00000000E+00  0.00000000E+00
  0.00000000E+00  0.00000000E+00  0.00000000E+00
  0.00000000E+00  0.00000000E+00  0.00000000E+00
  0.00000000E+00  0.00000000E+00  0.00000000E+00
  0.00000000E+00  0.00000000E+00  0.00000000E+00
  0.00000000E+00  0.00000000E+00  0.00000000E+00
  0.00000000E+00  0.00000000E+00  0.00000000E+00
  0.00000000E+00  0.00000000E+00  0.00000000E+00
  0.00000000E+00  0.00000000E+00  0.00000000E+00
  0.00000000E+00  0.00000000E+00  0.00000000E+00
  0.00000000E+00  0.00000000E+00  0.00000000E+00
  0.00000000E+00  0.00000000E+00  0.00000000E+00
  0.00000000E+00  0.00000000E+00  0.00000000E+00
  0.00000000E+00  0.00000000E+00  0.00000000E+00
  0.00000000E+00  0.00000000E+00  0.00000000E+00
  0.00000000E+00  0.00000000E+00  0.00000000E+00
  0.00000000E+00  0.00000000E+00  0.00000000E+00
  0.00000000E+00  0.00000000E+00  0.00000000E+00
  0.00000000E+00  0.00000000E+00  0.00000000E+00
  0.00000000E+00  0.00000000E+00  0.00000000E+00
  0.00000000E+00  0.00000000E+00  0.00000000E+00
  0.00000000E+00  0.00000000E+00  0.00000000E+00
  0.00000000E+00  0.00000000E+00  0.00000000E+00
  0.00000000E+00  0.00000000E+00  0.00000000E+00
