supercell of POSCAR                     
   1.03228000000000     
     6.3970863126299999    5.5387332920799999    4.9397337979799998
   -15.9736979067999982   -5.5365852353599996    9.8547656895600007
     6.4026568282999996  -11.0930079636999999    0.0094448205590600
   Sc   Al   N 
    32    64    95
Direct
  0.3656697526797430  0.0671014317975960  0.3111298376631098
  0.8291973262196919  0.3075337959585553  0.4346930434501033
  0.0189210707049412  0.2307104394275257  0.3048438881238980
  0.1880159462241267  0.1473602695088800  0.4382204024188496
  0.0185883088050929  0.2321954818074019  0.0679531854222830
  0.0333090920539405  0.4584644308166403  0.3619060967855887
  0.2315765923266326  0.3932310241930850  0.0055768465139394
  0.6886639631186995  0.1236352181506248  0.1174733869577480
  0.3682262089565356  0.0685630860886306  0.8082515409899642
  0.8297747259923156  0.3080483219102206  0.9344596664403966
  0.0206083874085294  0.2315073883334264  0.8042923375574844
  0.1828964075968571  0.1474581504504044  0.9362470337380557
  0.0198028265817598  0.2313277041208863  0.5673937458943783
  0.0381228962982121  0.4624903992934506  0.8674315556425540
  0.2304196798351299  0.3931039623600512  0.5059418604657111
  0.6896600025408404  0.1284456222372086  0.6189571956079121
  0.3726962352685632  0.5701151530577278  0.3097377596231539
  0.8348581001283009  0.8088686794557987  0.4343309993961526
  0.0247610226214618  0.7316308183161127  0.3049539481669612
  0.1924762786914513  0.6468049944820038  0.4375089435178694
  0.0245418665964934  0.7335676023864863  0.0671862038917226
  0.0399959143035389  0.9628877215125300  0.3705757070303548
  0.2356078745846446  0.8939748272087940  0.0052852490979021
  0.6946171941255912  0.6310588772818093  0.1192055811908119
  0.3685263228063747  0.5698710712553066  0.8091554719398175
  0.8357525564284742  0.8098808618426432  0.9335343833836305
  0.0254226227698169  0.7322647888768259  0.8051114391361409
  0.1910883261196048  0.6484990461578590  0.9376731697750103
  0.0232478195786854  0.7314453838021180  0.5671954682352265
  0.0461830667939509  0.9659095648496461  0.8713754704468428
  0.2325170254519975  0.8918725456929835  0.5047763890253449
  0.6933390724502999  0.6305889562442744  0.6196124849694868
  0.3631987681689992  0.0745739606869762  0.0662948227067588
  0.5411978063842326  0.4866876173665844  0.4396678914669465
  0.5425261448804974  0.4876005934577208  0.1910087655821826
  0.6874183582094986  0.4067318684689312  0.3115283473922545
  0.6842986317271382  0.4023967028246247  0.0625820208527870
  0.7733039297261826  0.2874903444679830  0.1681018462727550
  0.1918354516032679  0.1490525611390723  0.1859566913516346
  0.0477460320148211  0.4813029263813391  0.1098767978040343
  0.2658257404614517  0.3862116600287848  0.2554661213448028
  0.3962833400828458  0.3055919475494093  0.1271447726892774
  0.5426492719718894  0.2254575310682796  0.2543387176944307
  0.3956909237270096  0.3066645144026836  0.3778774752368648
  0.5365184613742144  0.2235300197708696  0.9941410512362552
  0.8862890208466609  0.0516337320600471  0.2481256066904791
  0.7263508066185693  0.1350605130899538  0.3760193344861165
  0.8839621413602430  0.0508180772093780  0.0007982100019461
  0.3566715783275569  0.0707554146375386  0.5646411666622981
  0.5342260384205062  0.4855445016978948  0.9340611805880457
  0.5380049604646402  0.4865238579370867  0.6927411163452675
  0.6898491684101415  0.4071987888839388  0.8112094708211544
  0.6880454423264553  0.4023831879107220  0.5654521622819928
  0.8527764038279599  0.3215931991421996  0.6835165750695822
  0.1950977995455077  0.1492601617769509  0.6853992820242141
  0.0479886352916594  0.4705515383265038  0.6208303927332466
  0.2300117301347484  0.3889176431548336  0.7482338098321222
  0.3950079965761333  0.3074353785911583  0.6294652149926918
  0.5548284261803502  0.2295212351202593  0.7470067554751623
  0.3914266880271668  0.3083207671956600  0.8726476502578393
  0.5482097763589024  0.2262258939326145  0.5068770778636704
  0.8853851671786899  0.0520487178554774  0.7462364453584911
  0.7274277280318842  0.1356488864917580  0.8745276145307272
  0.8837985703503435  0.0509996849165688  0.5014145736102549
  0.3606798386185801  0.5722903950282330  0.0630804249337942
  0.5363449383983436  0.9846031891019464  0.4359475622017612
  0.5387394088014901  0.9856059462760669  0.1941785598714674
  0.6925674251887628  0.9072421454599109  0.3118714021512403
  0.6907292142947128  0.9028757175756752  0.0644517058316652
  0.8571493434672561  0.8231304749166242  0.1837288800933266
  0.1991067374151356  0.6523941841752219  0.1868764588908505
  0.0524676832218702  0.9715822978659574  0.1231365453191842
  0.2330142576022709  0.8884443742657240  0.2490696744021932
  0.3989089091525457  0.8079564264864132  0.1286309181473442
  0.5588359004332872  0.7304185835396027  0.2475406044091812
  0.3965636289732402  0.8081821981448343  0.3745922657547069
  0.5526637542452235  0.7280238851523748  0.0044562469627323
  0.8874885754905222  0.5531403960164809  0.2481640592760925
  0.7305471953024636  0.6367597623387979  0.3758604557131662
  0.8815664758357897  0.5533669866848712  0.9980158042061262
  0.3566666611176501  0.5701531201279693  0.5617782622078735
  0.5364432660724106  0.9844001789022556  0.9332525727957943
  0.5381635890758503  0.9856532045251782  0.6921992166039317
  0.6936653881726329  0.9073599952599736  0.8111260075866724
  0.6896742647900140  0.9025156909326100  0.5645376419086858
  0.8570673544253964  0.8230561786543049  0.6846119742739916
  0.1971976113399023  0.6491398210985224  0.6849812535782931
  0.0497317889635980  0.9705111904618704  0.6230424492289686
  0.2325452416591602  0.8883360613047344  0.7486688599174087
  0.3975920718532464  0.8071216755572195  0.6289980251949459
  0.5566810863085365  0.7294378033153350  0.7468471429599646
  0.3968377978355520  0.8080600369488238  0.8739904335664761
  0.5528825345516992  0.7281825756453131  0.5054223782379665
  0.8860483613014623  0.5527044011510611  0.7466406656680036
  0.7278533506337936  0.6372056524736394  0.8743796281049683
  0.8861778402344385  0.5510694863337520  0.5012035724277055
  0.5756418125436227  0.1786911505371123  0.3682501526223732
  0.5453144553837959  0.1789409617715876  0.1149046656125705
  0.7240788552142519  0.0788485710415046  0.4777208866665532
  0.7275179699288472  0.0796996125980840  0.2459754099615523
  0.8780133923051849  0.0027429525244642  0.3611558561807442
  0.0398236680535433  0.4127456578190376  0.4888043322393685
  0.8751338147057908  0.4960728185558594  0.1087880397869796
  0.2361506242033755  0.3346356900736680  0.3588685279400821
  0.3924239946114341  0.2564010275934905  0.4888510158844070
  0.2377878061339160  0.3327529652120944  0.1210094447083065
  0.3811697112759234  0.2490210895346578  0.2379832893036635
  0.2441716633071849  0.0683792144830733  0.1644229227451532
  0.2545790242660502  0.0625723484550704  0.4290272012165630
  0.4356975429727612  0.4819672802776509  0.2999389374141970
  0.4522167261408541  0.0038168090847535  0.0597956864205003
  0.5806886786514767  0.4029565454502375  0.1732855289014310
  0.7332365917142241  0.3243410592628564  0.2902140091108976
  0.5844784015606450  0.4021759250199466  0.4247844017675320
  0.7199048678312607  0.3183203424772003  0.0531082722939189
  0.8858112464999621  0.2376063373714246  0.1715334194058471
  0.0773765050960549  0.1420823355266663  0.2858752217141500
  0.9090731715935334  0.2282839360804800  0.4210173123696208
  0.0720893473170037  0.1430403595357177  0.0572330046571778
  0.5778940854745898  0.1797194933291522  0.8648570803737385
  0.5285209961261401  0.1705615043781279  0.6111211117437136
  0.7245700948477705  0.0785560079462897  0.9759040994768355
  0.7265566025445906  0.0799439994142048  0.7446486186086503
  0.8805802598135628  0.0035035813579185  0.8607489575689229
  0.0420196447687431  0.4130449069692332  0.9971457229532419
  0.8788427955858680  0.4949652385159879  0.6099666294229067
  0.0578273651931624  0.4111760752607623  0.7211669489247541
  0.2330925680427995  0.3368354667379378  0.8564524441290473
  0.3861620987193035  0.2561557044551748  0.9850664190611553
  0.2355076693089657  0.3330726508828050  0.6203226743320442
  0.3853930649796524  0.2495701577347234  0.7375113511781421
  0.2385453045671895  0.0655934343624409  0.6636806210555051
  0.2637681683911950  0.0678185296935325  0.9311428829711588
  0.4256277927456367  0.4805753212596215  0.7972419409817704
  0.4475895900207547  0.0005002131717973  0.5583527252908809
  0.5813403471347556  0.4035594399628479  0.6740831761628669
  0.7446059609954929  0.3275524861595969  0.7896699785508474
  0.5831654808451034  0.4027385226653735  0.9236912394484946
  0.7303153572414587  0.3200874886407874  0.5586679656967419
  0.8883701987454771  0.2377816477025405  0.6714433146445629
  0.0772326662321632  0.1421255745392784  0.7837485068005563
  0.9105350260909404  0.2289538026094746  0.9218508207488441
  0.0736874503341127  0.1422735755291242  0.5563938229303815
  0.5809752534246186  0.6802598253991263  0.3664267417708018
  0.5310572869493697  0.6714818854498930  0.1099072121915015
  0.7275275307300220  0.5797545679955860  0.4779994734658075
  0.7290116080004836  0.5806721999677649  0.2445957108114669
  0.8771663336222488  0.5005961541525110  0.3592106244623423
  0.0455367358353200  0.9123391815998900  0.4946855255801381
  0.8820414128887109  0.9959357405150939  0.1109568265330907
  0.0635835840051655  0.9129877481939488  0.2239324153415083
  0.2368585104697019  0.8355557043040420  0.3557679912342238
  0.3942717718728161  0.7565396202024814  0.4869087526605966
  0.2404837916102878  0.8341497466869967  0.1206105563174376
  0.3886475045233411  0.7499141668728697  0.2372849149017782
  0.2412613148124478  0.5670836402528678  0.1637301162561400
  0.2495016869879478  0.5566431855807039  0.4223285144626416
  0.4285525395898588  0.9801488628116743  0.2989330772297691
  0.4469453536750905  0.5005805415295441  0.0584705682418942
  0.5847001134826471  0.9039148160968082  0.1739793180025799
  0.7468453163210285  0.8276179684704204  0.2888271160373819
  0.5869552963530964  0.9024766079805175  0.4245142938341715
  0.7351969393940436  0.8212858335213866  0.0581183030707422
  0.8931278396026059  0.7390594978474638  0.1718419629768704
  0.0808587951454385  0.6412163667174298  0.2854915540550067
  0.9136628748734026  0.7286457512219471  0.4211408973945225
  0.0745301296017189  0.6422769631102483  0.0564909882419755
  0.5798653009992520  0.6804068639498979  0.8658668233338460
  0.5275379190657148  0.6700822022061388  0.6080856741189038
  0.7217697783955117  0.5796033659846884  0.9759230592094212
  0.7264492223702632  0.5802828359563961  0.7442137502879547
  0.8765992131896070  0.5027149840437843  0.8600926818869894
  0.0480987091884799  0.9141317550964416  0.9941108576718918
  0.8801691660525393  0.9952475577779865  0.6104688132104101
  0.0628535839282947  0.9127240223864916  0.7251885541510390
  0.2385294386151955  0.8366811797179849  0.8569825622540392
  0.3950385333421380  0.7572190520604778  0.9873149842860443
  0.2383041069768126  0.8326537567411876  0.6209240546699704
  0.3869062250277722  0.7488559615139607  0.7369961615246154
  0.2387670199501386  0.5643593249248156  0.6612488126183749
  0.2538200167989189  0.5615627315316658  0.9276267393221502
  0.4278587804951783  0.9803056865381805  0.7977442973968678
  0.4471571846465423  0.5000593486616225  0.5573554836151473
  0.5837419726403894  0.9035389841849337  0.6740486190624537
  0.7448832623671890  0.8268837392083626  0.7881664641612005
  0.5879890886650543  0.9028770931332062  0.9242455172048878
  0.7348626752989631  0.8211190755569788  0.5587813592841115
  0.8923837485623167  0.7387291545477268  0.6719262488850575
  0.0800938133210067  0.6415091564905779  0.7845091867827847
  0.9128384647755112  0.7288979350332170  0.9208080558158329
  0.0762353805342428  0.6413584727502837  0.5548430744476391
 
  0.00000000E+00  0.00000000E+00  0.00000000E+00
  0.00000000E+00  0.00000000E+00  0.00000000E+00
  0.00000000E+00  0.00000000E+00  0.00000000E+00
  0.00000000E+00  0.00000000E+00  0.00000000E+00
  0.00000000E+00  0.00000000E+00  0.00000000E+00
  0.00000000E+00  0.00000000E+00  0.00000000E+00
  0.00000000E+00  0.00000000E+00  0.00000000E+00
  0.00000000E+00  0.00000000E+00  0.00000000E+00
  0.00000000E+00  0.00000000E+00  0.00000000E+00
  0.00000000E+00  0.00000000E+00  0.00000000E+00
  0.00000000E+00  0.00000000E+00  0.00000000E+00
  0.00000000E+00  0.00000000E+00  0.00000000E+00
  0.00000000E+00  0.00000000E+00  0.00000000E+00
  0.00000000E+00  0.00000000E+00  0.00000000E+00
  0.00000000E+00  0.00000000E+00  0.00000000E+00
  0.00000000E+00  0.00000000E+00  0.00000000E+00
  0.00000000E+00  0.00000000E+00  0.00000000E+00
  0.00000000E+00  0.00000000E+00  0.00000000E+00
  0.00000000E+00  0.00000000E+00  0.00000000E+00
  0.00000000E+00  0.00000000E+00  0.00000000E+00
  0.00000000E+00  0.00000000E+00  0.00000000E+00
  0.00000000E+00  0.00000000E+00  0.00000000E+00
  0.00000000E+00  0.00000000E+00  0.00000000E+00
  0.00000000E+00  0.00000000E+00  0.00000000E+00
  0.00000000E+00  0.00000000E+00  0.00000000E+00
  0.00000000E+00  0.00000000E+00  0.00000000E+00
  0.00000000E+00  0.00000000E+00  0.00000000E+00
  0.00000000E+00  0.00000000E+00  0.00000000E+00
  0.00000000E+00  0.00000000E+00  0.00000000E+00
  0.00000000E+00  0.00000000E+00  0.00000000E+00
  0.00000000E+00  0.00000000E+00  0.00000000E+00
  0.00000000E+00  0.00000000E+00  0.00000000E+00
  0.00000000E+00  0.00000000E+00  0.00000000E+00
  0.00000000E+00  0.00000000E+00  0.00000000E+00
  0.00000000E+00  0.00000000E+00  0.00000000E+00
  0.00000000E+00  0.00000000E+00  0.00000000E+00
  0.00000000E+00  0.00000000E+00  0.00000000E+00
  0.00000000E+00  0.00000000E+00  0.00000000E+00
  0.00000000E+00  0.00000000E+00  0.00000000E+00
  0.00000000E+00  0.00000000E+00  0.00000000E+00
  0.00000000E+00  0.00000000E+00  0.00000000E+00
  0.00000000E+00  0.00000000E+00  0.00000000E+00
  0.00000000E+00  0.00000000E+00  0.00000000E+00
  0.00000000E+00  0.00000000E+00  0.00000000E+00
  0.00000000E+00  0.00000000E+00  0.00000000E+00
  0.00000000E+00  0.00000000E+00  0.00000000E+00
  0.00000000E+00  0.00000000E+00  0.00000000E+00
  0.00000000E+00  0.00000000E+00  0.00000000E+00
  0.00000000E+00  0.00000000E+00  0.00000000E+00
  0.00000000E+00  0.00000000E+00  0.00000000E+00
  0.00000000E+00  0.00000000E+00  0.00000000E+00
  0.00000000E+00  0.00000000E+00  0.00000000E+00
  0.00000000E+00  0.00000000E+00  0.00000000E+00
  0.00000000E+00  0.00000000E+00  0.00000000E+00
  0.00000000E+00  0.00000000E+00  0.00000000E+00
  0.00000000E+00  0.00000000E+00  0.00000000E+00
  0.00000000E+00  0.00000000E+00  0.00000000E+00
  0.00000000E+00  0.00000000E+00  0.00000000E+00
  0.00000000E+00  0.00000000E+00  0.00000000E+00
  0.00000000E+00  0.00000000E+00  0.00000000E+00
  0.00000000E+00  0.00000000E+00  0.00000000E+00
  0.00000000E+00  0.00000000E+00  0.00000000E+00
  0.00000000E+00  0.00000000E+00  0.00000000E+00
  0.00000000E+00  0.00000000E+00  0.00000000E+00
  0.00000000E+00  0.00000000E+00  0.00000000E+00
  0.00000000E+00  0.00000000E+00  0.00000000E+00
  0.00000000E+00  0.00000000E+00  0.00000000E+00
  0.00000000E+00  0.00000000E+00  0.00000000E+00
  0.00000000E+00  0.00000000E+00  0.00000000E+00
  0.00000000E+00  0.00000000E+00  0.00000000E+00
  0.00000000E+00  0.00000000E+00  0.00000000E+00
  0.00000000E+00  0.00000000E+00  0.00000000E+00
  0.00000000E+00  0.00000000E+00  0.00000000E+00
  0.00000000E+00  0.00000000E+00  0.00000000E+00
  0.00000000E+00  0.00000000E+00  0.00000000E+00
  0.00000000E+00  0.00000000E+00  0.00000000E+00
  0.00000000E+00  0.00000000E+00  0.00000000E+00
  0.00000000E+00  0.00000000E+00  0.00000000E+00
  0.00000000E+00  0.00000000E+00  0.00000000E+00
  0.00000000E+00  0.00000000E+00  0.00000000E+00
  0.00000000E+00  0.00000000E+00  0.00000000E+00
  0.00000000E+00  0.00000000E+00  0.00000000E+00
  0.00000000E+00  0.00000000E+00  0.00000000E+00
  0.00000000E+00  0.00000000E+00  0.00000000E+00
  0.00000000E+00  0.00000000E+00  0.00000000E+00
  0.00000000E+00  0.00000000E+00  0.00000000E+00
  0.00000000E+00  0.00000000E+00  0.00000000E+00
  0.00000000E+00  0.00000000E+00  0.00000000E+00
  0.00000000E+00  0.00000000E+00  0.00000000E+00
  0.00000000E+00  0.00000000E+00  0.00000000E+00
  0.00000000E+00  0.00000000E+00  0.00000000E+00
  0.00000000E+00  0.00000000E+00  0.00000000E+00
  0.00000000E+00  0.00000000E+00  0.00000000E+00
  0.00000000E+00  0.00000000E+00  0.00000000E+00
  0.00000000E+00  0.00000000E+00  0.00000000E+00
  0.00000000E+00  0.00000000E+00  0.00000000E+00
  0.00000000E+00  0.00000000E+00  0.00000000E+00
  0.00000000E+00  0.00000000E+00  0.00000000E+00
  0.00000000E+00  0.00000000E+00  0.00000000E+00
  0.00000000E+00  0.00000000E+00  0.00000000E+00
  0.00000000E+00  0.00000000E+00  0.00000000E+00
  0.00000000E+00  0.00000000E+00  0.00000000E+00
  0.00000000E+00  0.00000000E+00  0.00000000E+00
  0.00000000E+00  0.00000000E+00  0.00000000E+00
  0.00000000E+00  0.00000000E+00  0.00000000E+00
  0.00000000E+00  0.00000000E+00  0.00000000E+00
  0.00000000E+00  0.00000000E+00  0.00000000E+00
  0.00000000E+00  0.00000000E+00  0.00000000E+00
  0.00000000E+00  0.00000000E+00  0.00000000E+00
  0.00000000E+00  0.00000000E+00  0.00000000E+00
  0.00000000E+00  0.00000000E+00  0.00000000E+00
  0.00000000E+00  0.00000000E+00  0.00000000E+00
  0.00000000E+00  0.00000000E+00  0.00000000E+00
  0.00000000E+00  0.00000000E+00  0.00000000E+00
  0.00000000E+00  0.00000000E+00  0.00000000E+00
  0.00000000E+00  0.00000000E+00  0.00000000E+00
  0.00000000E+00  0.00000000E+00  0.00000000E+00
  0.00000000E+00  0.00000000E+00  0.00000000E+00
  0.00000000E+00  0.00000000E+00  0.00000000E+00
  0.00000000E+00  0.00000000E+00  0.00000000E+00
  0.00000000E+00  0.00000000E+00  0.00000000E+00
  0.00000000E+00  0.00000000E+00  0.00000000E+00
  0.00000000E+00  0.00000000E+00  0.00000000E+00
  0.00000000E+00  0.00000000E+00  0.00000000E+00
  0.00000000E+00  0.00000000E+00  0.00000000E+00
  0.00000000E+00  0.00000000E+00  0.00000000E+00
  0.00000000E+00  0.00000000E+00  0.00000000E+00
  0.00000000E+00  0.00000000E+00  0.00000000E+00
  0.00000000E+00  0.00000000E+00  0.00000000E+00
  0.00000000E+00  0.00000000E+00  0.00000000E+00
  0.00000000E+00  0.00000000E+00  0.00000000E+00
  0.00000000E+00  0.00000000E+00  0.00000000E+00
  0.00000000E+00  0.00000000E+00  0.00000000E+00
  0.00000000E+00  0.00000000E+00  0.00000000E+00
  0.00000000E+00  0.00000000E+00  0.00000000E+00
  0.00000000E+00  0.00000000E+00  0.00000000E+00
  0.00000000E+00  0.00000000E+00  0.00000000E+00
  0.00000000E+00  0.00000000E+00  0.00000000E+00
  0.00000000E+00  0.00000000E+00  0.00000000E+00
  0.00000000E+00  0.00000000E+00  0.00000000E+00
  0.00000000E+00  0.00000000E+00  0.00000000E+00
  0.00000000E+00  0.00000000E+00  0.00000000E+00
  0.00000000E+00  0.00000000E+00  0.00000000E+00
  0.00000000E+00  0.00000000E+00  0.00000000E+00
  0.00000000E+00  0.00000000E+00  0.00000000E+00
  0.00000000E+00  0.00000000E+00  0.00000000E+00
  0.00000000E+00  0.00000000E+00  0.00000000E+00
  0.00000000E+00  0.00000000E+00  0.00000000E+00
  0.00000000E+00  0.00000000E+00  0.00000000E+00
  0.00000000E+00  0.00000000E+00  0.00000000E+00
  0.00000000E+00  0.00000000E+00  0.00000000E+00
  0.00000000E+00  0.00000000E+00  0.00000000E+00
  0.00000000E+00  0.00000000E+00  0.00000000E+00
  0.00000000E+00  0.00000000E+00  0.00000000E+00
  0.00000000E+00  0.00000000E+00  0.00000000E+00
  0.00000000E+00  0.00000000E+00  0.00000000E+00
  0.00000000E+00  0.00000000E+00  0.00000000E+00
  0.00000000E+00  0.00000000E+00  0.00000000E+00
  0.00000000E+00  0.00000000E+00  0.00000000E+00
  0.00000000E+00  0.00000000E+00  0.00000000E+00
  0.00000000E+00  0.00000000E+00  0.00000000E+00
  0.00000000E+00  0.00000000E+00  0.00000000E+00
  0.00000000E+00  0.00000000E+00  0.00000000E+00
  0.00000000E+00  0.00000000E+00  0.00000000E+00
  0.00000000E+00  0.00000000E+00  0.00000000E+00
  0.00000000E+00  0.00000000E+00  0.00000000E+00
  0.00000000E+00  0.00000000E+00  0.00000000E+00
  0.00000000E+00  0.00000000E+00  0.00000000E+00
  0.00000000E+00  0.00000000E+00  0.00000000E+00
  0.00000000E+00  0.00000000E+00  0.00000000E+00
  0.00000000E+00  0.00000000E+00  0.00000000E+00
  0.00000000E+00  0.00000000E+00  0.00000000E+00
  0.00000000E+00  0.00000000E+00  0.00000000E+00
  0.00000000E+00  0.00000000E+00  0.00000000E+00
  0.00000000E+00  0.00000000E+00  0.00000000E+00
  0.00000000E+00  0.00000000E+00  0.00000000E+00
  0.00000000E+00  0.00000000E+00  0.00000000E+00
  0.00000000E+00  0.00000000E+00  0.00000000E+00
  0.00000000E+00  0.00000000E+00  0.00000000E+00
  0.00000000E+00  0.00000000E+00  0.00000000E+00
  0.00000000E+00  0.00000000E+00  0.00000000E+00
  0.00000000E+00  0.00000000E+00  0.00000000E+00
  0.00000000E+00  0.00000000E+00  0.00000000E+00
  0.00000000E+00  0.00000000E+00  0.00000000E+00
  0.00000000E+00  0.00000000E+00  0.00000000E+00
  0.00000000E+00  0.00000000E+00  0.00000000E+00
  0.00000000E+00  0.00000000E+00  0.00000000E+00
  0.00000000E+00  0.00000000E+00  0.00000000E+00
  0.00000000E+00  0.00000000E+00  0.00000000E+00
  0.00000000E+00  0.00000000E+00  0.00000000E+00
  0.00000000E+00  0.00000000E+00  0.00000000E+00
