supercell of POSCAR                     
   1.03228000000000     
     6.3970863126299999    5.5387332920799999    4.9397337979799998
   -15.9736979067999982   -5.5365852353599996    9.8547656895600007
     6.4026568282999996  -11.0930079636999999    0.0094448205590600
   Sc   Al   N 
    31    64    96
Direct
  0.3732317369745033  0.0705610189306256  0.3101953595391151
  0.8327238964534942  0.3090068116744220  0.4335654969479918
  0.0115633643852249  0.2249178236247573  0.3002513857459803
  0.1918152957297394  0.1482547101939673  0.4381487572772826
  0.0119708808113543  0.2260257929395664  0.0655301659848817
  0.0369898231108934  0.4634061883482019  0.3696764609224985
  0.2271197346167781  0.3895021232619484  0.0043698046192091
  0.3734328506905555  0.0704612681404413  0.8110451328306354
  0.8336322080494298  0.3096008565203689  0.9343802217006925
  0.0228459323949934  0.2303081693475022  0.8044449533380273
  0.1968955260115948  0.1485901958771407  0.9401452686687151
  0.0210516509929519  0.2312462205329098  0.5674362224591505
  0.0394196254549897  0.4640297829955529  0.8696595415553290
  0.2268749680860225  0.3894709811419688  0.5018073308356321
  0.6916832127314834  0.1291978576796211  0.6191607560268864
  0.3655872472415069  0.5680536540618917  0.3094647974643436
  0.8328632197344419  0.8090436081486985  0.4336489776709556
  0.0235714832454903  0.7327856832709472  0.3050174957445435
  0.1885832144221098  0.6487255986507989  0.4377517065375969
  0.0196957034000604  0.7316051715161080  0.0671441244557656
  0.0432365707224918  0.9639742665235005  0.3698259902964551
  0.2305317698957836  0.8904672776323324  0.0037289799180016
  0.6892117975518062  0.6288018228436485  0.1188231156952071
  0.3670000850645891  0.5693338720309171  0.8095098042083109
  0.8316641781580358  0.8083313764294644  0.9329670043657998
  0.0205404493334527  0.7307514476639199  0.8035387310603213
  0.1890057090491268  0.6488443764590954  0.9378707103016453
  0.0219817999814751  0.7333313386271101  0.5674665264090066
  0.0465224478726896  0.9650926501541690  0.8719280924028681
  0.2349682388682410  0.8938611659097901  0.5052898751261736
  0.6890179674076293  0.6288464923200152  0.6180520377444054
  0.3779793533386169  0.0733922027683391  0.0662668351613007
  0.5319121810437721  0.4841907168885058  0.4342233232971822
  0.5337194120214122  0.4852163777897474  0.1921276358920281
  0.6882561901014270  0.4075435477223337  0.3114539192265440
  0.6855072005976055  0.4029399385500199  0.0637511220325138
  0.8496458742015136  0.3235860469561302  0.1834534590347445
  0.2020592604208957  0.1485264141873657  0.1854615520442238
  0.0474923387060642  0.4708459641740248  0.1224986192405524
  0.2242711184565920  0.3847567037838928  0.2469920834861554
  0.3942496116744820  0.3060681765738167  0.1288276267455544
  0.5600341818111900  0.2298887292612264  0.2473221700411301
  0.3917340075153319  0.3066476187096399  0.3730982785091044
  0.5546080424682245  0.2279160756691851  0.0063399375803783
  0.8901148636681668  0.0516316121197207  0.2456371341720640
  0.7291258923120552  0.1377520976748912  0.3739411711957388
  0.8887576706193983  0.0505657126331229  0.0031433509949821
  0.3596466340557285  0.0719647127310949  0.5647975655071704
  0.5325064104898090  0.4846277492699187  0.9345827388811685
  0.5346467446872225  0.4854166595117775  0.6913187389453554
  0.6901722823419263  0.4074301599298451  0.8111048605778635
  0.6865629111289095  0.4023389904687278  0.5637867963429812
  0.8544705366134977  0.3223464901585018  0.6839285033816935
  0.1970523046993407  0.1489683635596677  0.6862917821670109
  0.0480750707623727  0.4705329397343831  0.6225684780847800
  0.2299015847433026  0.3881905786336333  0.7482685306355563
  0.3958119491071912  0.3070690283321227  0.6289072065205943
  0.5575550832911205  0.2301511324910166  0.7480293647566327
  0.3944894394184857  0.3078849349356219  0.8738227968164622
  0.5516673426044250  0.2277348817042437  0.5052075902750630
  0.8880513125307417  0.0522479509417266  0.7487049263110990
  0.7292336089367595  0.1383707151261220  0.8770813476945634
  0.8850187864534718  0.0512900683143442  0.5008125690344087
  0.3549777713811011  0.5704377454895493  0.0636716238209374
  0.5380425745185846  0.9859253835963244  0.4337829776745892
  0.5451178487455905  0.9904073542372700  0.1887249934745583
  0.6917229882015334  0.9075057880134807  0.3104377721235281
  0.6896028576394073  0.9022347441593794  0.0641933522958524
  0.8543339199312072  0.8220701671182624  0.1835632049945062
  0.1947812476763602  0.6496181423159939  0.1855378699868808
  0.0549335565053042  0.9706351754472706  0.1225462799161647
  0.2348548714422520  0.8895093862381884  0.2483971996874814
  0.3975824915391541  0.8082626036391147  0.1292060122888969
  0.5549508637862317  0.7290250400507148  0.2473890538364287
  0.3958673654982974  0.8085603194071851  0.3742003547226815
  0.5490509162540960  0.7267475446618192  0.0047711733556426
  0.8834477603532704  0.5526418528001571  0.2470525451420755
  0.7258845427654492  0.6360419308865204  0.3748451318468184
  0.8816884525032123  0.5512691839914652  0.0006105270637491
  0.3546195418574101  0.5703163363246020  0.5631990027679379
  0.5407475090969456  0.9882584587344283  0.9413788393156750
  0.5401899733372488  0.9867990829701583  0.6944945975758330
  0.6917778095822840  0.9070743809393491  0.8122068782364309
  0.6891508504723376  0.9028673437122734  0.5645539948366576
  0.8537791719771306  0.8223024026325874  0.6840752670036281
  0.1944096089358922  0.6494092891021026  0.6852964765101461
  0.0507921458927569  0.9705629946596730  0.6234265996169768
  0.2337303941461144  0.8892720593188841  0.7498717322011998
  0.3971369333179808  0.8078535563551910  0.6292407700499680
  0.5542726660306059  0.7288481715121122  0.7468322230321718
  0.3954232884079190  0.8085153308913320  0.8741070282634595
  0.5493519536774372  0.7269570201919962  0.5045264084460328
  0.8837379406910699  0.5520054305062914  0.7466533920905434
  0.7255885632657737  0.6356426082467976  0.8744949248189613
  0.8815777418958035  0.5516265752448746  0.5006782319842884
  0.5827396589485971  0.1818516819665419  0.3681996097879292
  0.5304143018747070  0.1753671597417181  0.1109336332698447
  0.7262217976308989  0.0800731196676878  0.4769532529713416
  0.7360055198331850  0.0798291829330253  0.2503736550519235
  0.8787997929297404  0.0021931455810673  0.3607119685199294
  0.0438639594537520  0.4130958235378017  0.4939089476939742
  0.8773252509119516  0.4958331022727762  0.1103496792956946
  0.0590737478682541  0.4127675420228343  0.2237730561095432
  0.2288605353850244  0.3317326978091160  0.3536502077375303
  0.3943860646678559  0.2572987051030893  0.4879965878783210
  0.2311069538701105  0.3292576197144541  0.1192273097856429
  0.3884032063087446  0.2492333167558698  0.2381561431609427
  0.2466342262149865  0.0647675144812041  0.1623799116695110
  0.2585367267811804  0.0631085641360585  0.4284228842181363
  0.4214768120558361  0.4781011179734236  0.2969322044112985
  0.4425238975920038  0.9951988406886727  0.0551782284388054
  0.5793992771897223  0.4033314884636212  0.1735673272988620
  0.7450447237006443  0.3295017703168384  0.2903375045986820
  0.5824384412871737  0.4022198469583316  0.4240790118959694
  0.7332364748565325  0.3231097675596004  0.0574388503486603
  0.9009424412058067  0.2469437341710830  0.1748680640239542
  0.0840925480368355  0.1400574770995604  0.2843967554762798
  0.9135474800074022  0.2299409818611906  0.4225407441157998
  0.0789630480953392  0.1407636177779636  0.0567342207922579
  0.5827169659211293  0.1818533467520353  0.8663787860791885
  0.5311754539694249  0.1716794396066135  0.6107368302563216
  0.7321718318689605  0.0777420274436622  0.9713147093975678
  0.7292700331253386  0.0809996897626846  0.7461308167264491
  0.8787016115608495  0.0016748293725541  0.8605945436186389
  0.0445210623581289  0.4137175288775339  0.9937905191667582
  0.8777496952762576  0.4953637169372982  0.6097700165547550
  0.0593514248754161  0.4118016076087798  0.7235310666154859
  0.2345940478914699  0.3353446552362129  0.8550435753933030
  0.3958970153371837  0.2583349145357658  0.9872086772376960
  0.2365529338966255  0.3326659368512708  0.6206685072345195
  0.3868501907666939  0.2491983168406833  0.7372176344798689
  0.2409209560778791  0.0652483756955249  0.6639845195737024
  0.2633796676333660  0.0632184037636421  0.9299560177909854
  0.4250747612712686  0.4802983677611934  0.7974207093568211
  0.4506841854175150  0.0017175319668894  0.5589106749914308
  0.5811906481707467  0.4035678389176667  0.6737092884627955
  0.7447978104384134  0.3279997753187445  0.7888273423784753
  0.5842105749087239  0.4030238527191514  0.9234061379974250
  0.7332937095875991  0.3215064902279039  0.5587248903819884
  0.8903552280596898  0.2382413461395103  0.6721200858942709
  0.0818494280762039  0.1411158770337124  0.7868475708685452
  0.9137917716615860  0.2302426947389975  0.9208001345373802
  0.0755959237959729  0.1419383787836779  0.5568210175279376
  0.5775621892510330  0.6796725696424772  0.3662504051946129
  0.5274800664282466  0.6702973705215811  0.1098805405132310
  0.7201904235136567  0.5783728008078128  0.4760177208760226
  0.7224218211818538  0.5792998384346504  0.2441529803895790
  0.8745806749857152  0.5033245567573843  0.3602848096893183
  0.0450978786307701  0.9124935256707758  0.4938579308936610
  0.8831488979568149  0.9938598510095957  0.1103146341297787
  0.0609727975026146  0.9109516862148794  0.2233889749478237
  0.2373875661798550  0.8368922725954349  0.3564062743926257
  0.3932752488484539  0.7574790562177398  0.4873634277871517
  0.2357624053705010  0.8315486047617711  0.1209315838701670
  0.3860402157684319  0.7493427962104633  0.2373193548060684
  0.2375834608093683  0.5656811631485468  0.1635184580601248
  0.2531488357797329  0.5631304518050868  0.4276333031468482
  0.4308240699248458  0.9813530763459255  0.2964769135394363
  0.4431463787858121  0.4991764634514197  0.0572388042384446
  0.5838248070962493  0.9043061126766787  0.1734209780130769
  0.7432760934377285  0.8266413088572264  0.2881812077704637
  0.5869125452783450  0.9030413139392124  0.4241464817765603
  0.7318409406918889  0.8197578813504407  0.0579421740428856
  0.8882780630873626  0.7374178853598679  0.1717566929512060
  0.0773004061550324  0.6421421095788347  0.2848012274870655
  0.9102400083488362  0.7281133380777689  0.4205207551997177
  0.0726257735666849  0.6419117595008004  0.0559811893728579
  0.5778312474244771  0.6797642602572580  0.8659359267747320
  0.5270818589089501  0.6702384059463284  0.6092547196223919
  0.7212186288527462  0.5787417301152047  0.9765477866315777
  0.7238171208329689  0.5795344587261440  0.7435677841024386
  0.8754644407321024  0.5029294163918223  0.8601617797075249
  0.0429557852723832  0.9110087607290538  0.9926319869312792
  0.8806095221951864  0.9954071078600109  0.6108011864874996
  0.0598931174420088  0.9112133671923743  0.7239379071798879
  0.2334810899167294  0.8340934778592555  0.8540111281881551
  0.3932219515086430  0.7572630364263659  0.9872947280421158
  0.2386347056631735  0.8340014273081024  0.6207413909580239
  0.3852405527247740  0.7490283974654872  0.7367782469499318
  0.2374936632788476  0.5655385251883445  0.6631302415297213
  0.2547503156384181  0.5635806781589707  0.9278583983932478
  0.4298283989289686  0.9809016948066329  0.7999600422329891
  0.4430561563254898  0.4991551282067519  0.5566632540570495
  0.5835331859735078  0.9038970562897219  0.6743461696147364
  0.7414963276133619  0.8258786497017567  0.7875865051459598
  0.5865605210956772  0.9027230844597867  0.9247002024089355
  0.7320725095288338  0.8206141510559917  0.5579947496226154
  0.8879029104521621  0.7375977774641527  0.6705275599545786
  0.0772843254439550  0.6411474015010796  0.7845533764310488
  0.9098622062238775  0.7276925361156188  0.9202957071317428
  0.0724155613619857  0.6426868463538042  0.5562054649408452
 
  0.00000000E+00  0.00000000E+00  0.00000000E+00
  0.00000000E+00  0.00000000E+00  0.00000000E+00
  0.00000000E+00  0.00000000E+00  0.00000000E+00
  0.00000000E+00  0.00000000E+00  0.00000000E+00
  0.00000000E+00  0.00000000E+00  0.00000000E+00
  0.00000000E+00  0.00000000E+00  0.00000000E+00
  0.00000000E+00  0.00000000E+00  0.00000000E+00
  0.00000000E+00  0.00000000E+00  0.00000000E+00
  0.00000000E+00  0.00000000E+00  0.00000000E+00
  0.00000000E+00  0.00000000E+00  0.00000000E+00
  0.00000000E+00  0.00000000E+00  0.00000000E+00
  0.00000000E+00  0.00000000E+00  0.00000000E+00
  0.00000000E+00  0.00000000E+00  0.00000000E+00
  0.00000000E+00  0.00000000E+00  0.00000000E+00
  0.00000000E+00  0.00000000E+00  0.00000000E+00
  0.00000000E+00  0.00000000E+00  0.00000000E+00
  0.00000000E+00  0.00000000E+00  0.00000000E+00
  0.00000000E+00  0.00000000E+00  0.00000000E+00
  0.00000000E+00  0.00000000E+00  0.00000000E+00
  0.00000000E+00  0.00000000E+00  0.00000000E+00
  0.00000000E+00  0.00000000E+00  0.00000000E+00
  0.00000000E+00  0.00000000E+00  0.00000000E+00
  0.00000000E+00  0.00000000E+00  0.00000000E+00
  0.00000000E+00  0.00000000E+00  0.00000000E+00
  0.00000000E+00  0.00000000E+00  0.00000000E+00
  0.00000000E+00  0.00000000E+00  0.00000000E+00
  0.00000000E+00  0.00000000E+00  0.00000000E+00
  0.00000000E+00  0.00000000E+00  0.00000000E+00
  0.00000000E+00  0.00000000E+00  0.00000000E+00
  0.00000000E+00  0.00000000E+00  0.00000000E+00
  0.00000000E+00  0.00000000E+00  0.00000000E+00
  0.00000000E+00  0.00000000E+00  0.00000000E+00
  0.00000000E+00  0.00000000E+00  0.00000000E+00
  0.00000000E+00  0.00000000E+00  0.00000000E+00
  0.00000000E+00  0.00000000E+00  0.00000000E+00
  0.00000000E+00  0.00000000E+00  0.00000000E+00
  0.00000000E+00  0.00000000E+00  0.00000000E+00
  0.00000000E+00  0.00000000E+00  0.00000000E+00
  0.00000000E+00  0.00000000E+00  0.00000000E+00
  0.00000000E+00  0.00000000E+00  0.00000000E+00
  0.00000000E+00  0.00000000E+00  0.00000000E+00
  0.00000000E+00  0.00000000E+00  0.00000000E+00
  0.00000000E+00  0.00000000E+00  0.00000000E+00
  0.00000000E+00  0.00000000E+00  0.00000000E+00
  0.00000000E+00  0.00000000E+00  0.00000000E+00
  0.00000000E+00  0.00000000E+00  0.00000000E+00
  0.00000000E+00  0.00000000E+00  0.00000000E+00
  0.00000000E+00  0.00000000E+00  0.00000000E+00
  0.00000000E+00  0.00000000E+00  0.00000000E+00
  0.00000000E+00  0.00000000E+00  0.00000000E+00
  0.00000000E+00  0.00000000E+00  0.00000000E+00
  0.00000000E+00  0.00000000E+00  0.00000000E+00
  0.00000000E+00  0.00000000E+00  0.00000000E+00
  0.00000000E+00  0.00000000E+00  0.00000000E+00
  0.00000000E+00  0.00000000E+00  0.00000000E+00
  0.00000000E+00  0.00000000E+00  0.00000000E+00
  0.00000000E+00  0.00000000E+00  0.00000000E+00
  0.00000000E+00  0.00000000E+00  0.00000000E+00
  0.00000000E+00  0.00000000E+00  0.00000000E+00
  0.00000000E+00  0.00000000E+00  0.00000000E+00
  0.00000000E+00  0.00000000E+00  0.00000000E+00
  0.00000000E+00  0.00000000E+00  0.00000000E+00
  0.00000000E+00  0.00000000E+00  0.00000000E+00
  0.00000000E+00  0.00000000E+00  0.00000000E+00
  0.00000000E+00  0.00000000E+00  0.00000000E+00
  0.00000000E+00  0.00000000E+00  0.00000000E+00
  0.00000000E+00  0.00000000E+00  0.00000000E+00
  0.00000000E+00  0.00000000E+00  0.00000000E+00
  0.00000000E+00  0.00000000E+00  0.00000000E+00
  0.00000000E+00  0.00000000E+00  0.00000000E+00
  0.00000000E+00  0.00000000E+00  0.00000000E+00
  0.00000000E+00  0.00000000E+00  0.00000000E+00
  0.00000000E+00  0.00000000E+00  0.00000000E+00
  0.00000000E+00  0.00000000E+00  0.00000000E+00
  0.00000000E+00  0.00000000E+00  0.00000000E+00
  0.00000000E+00  0.00000000E+00  0.00000000E+00
  0.00000000E+00  0.00000000E+00  0.00000000E+00
  0.00000000E+00  0.00000000E+00  0.00000000E+00
  0.00000000E+00  0.00000000E+00  0.00000000E+00
  0.00000000E+00  0.00000000E+00  0.00000000E+00
  0.00000000E+00  0.00000000E+00  0.00000000E+00
  0.00000000E+00  0.00000000E+00  0.00000000E+00
  0.00000000E+00  0.00000000E+00  0.00000000E+00
  0.00000000E+00  0.00000000E+00  0.00000000E+00
  0.00000000E+00  0.00000000E+00  0.00000000E+00
  0.00000000E+00  0.00000000E+00  0.00000000E+00
  0.00000000E+00  0.00000000E+00  0.00000000E+00
  0.00000000E+00  0.00000000E+00  0.00000000E+00
  0.00000000E+00  0.00000000E+00  0.00000000E+00
  0.00000000E+00  0.00000000E+00  0.00000000E+00
  0.00000000E+00  0.00000000E+00  0.00000000E+00
  0.00000000E+00  0.00000000E+00  0.00000000E+00
  0.00000000E+00  0.00000000E+00  0.00000000E+00
  0.00000000E+00  0.00000000E+00  0.00000000E+00
  0.00000000E+00  0.00000000E+00  0.00000000E+00
  0.00000000E+00  0.00000000E+00  0.00000000E+00
  0.00000000E+00  0.00000000E+00  0.00000000E+00
  0.00000000E+00  0.00000000E+00  0.00000000E+00
  0.00000000E+00  0.00000000E+00  0.00000000E+00
  0.00000000E+00  0.00000000E+00  0.00000000E+00
  0.00000000E+00  0.00000000E+00  0.00000000E+00
  0.00000000E+00  0.00000000E+00  0.00000000E+00
  0.00000000E+00  0.00000000E+00  0.00000000E+00
  0.00000000E+00  0.00000000E+00  0.00000000E+00
  0.00000000E+00  0.00000000E+00  0.00000000E+00
  0.00000000E+00  0.00000000E+00  0.00000000E+00
  0.00000000E+00  0.00000000E+00  0.00000000E+00
  0.00000000E+00  0.00000000E+00  0.00000000E+00
  0.00000000E+00  0.00000000E+00  0.00000000E+00
  0.00000000E+00  0.00000000E+00  0.00000000E+00
  0.00000000E+00  0.00000000E+00  0.00000000E+00
  0.00000000E+00  0.00000000E+00  0.00000000E+00
  0.00000000E+00  0.00000000E+00  0.00000000E+00
  0.00000000E+00  0.00000000E+00  0.00000000E+00
  0.00000000E+00  0.00000000E+00  0.00000000E+00
  0.00000000E+00  0.00000000E+00  0.00000000E+00
  0.00000000E+00  0.00000000E+00  0.00000000E+00
  0.00000000E+00  0.00000000E+00  0.00000000E+00
  0.00000000E+00  0.00000000E+00  0.00000000E+00
  0.00000000E+00  0.00000000E+00  0.00000000E+00
  0.00000000E+00  0.00000000E+00  0.00000000E+00
  0.00000000E+00  0.00000000E+00  0.00000000E+00
  0.00000000E+00  0.00000000E+00  0.00000000E+00
  0.00000000E+00  0.00000000E+00  0.00000000E+00
  0.00000000E+00  0.00000000E+00  0.00000000E+00
  0.00000000E+00  0.00000000E+00  0.00000000E+00
  0.00000000E+00  0.00000000E+00  0.00000000E+00
  0.00000000E+00  0.00000000E+00  0.00000000E+00
  0.00000000E+00  0.00000000E+00  0.00000000E+00
  0.00000000E+00  0.00000000E+00  0.00000000E+00
  0.00000000E+00  0.00000000E+00  0.00000000E+00
  0.00000000E+00  0.00000000E+00  0.00000000E+00
  0.00000000E+00  0.00000000E+00  0.00000000E+00
  0.00000000E+00  0.00000000E+00  0.00000000E+00
  0.00000000E+00  0.00000000E+00  0.00000000E+00
  0.00000000E+00  0.00000000E+00  0.00000000E+00
  0.00000000E+00  0.00000000E+00  0.00000000E+00
  0.00000000E+00  0.00000000E+00  0.00000000E+00
  0.00000000E+00  0.00000000E+00  0.00000000E+00
  0.00000000E+00  0.00000000E+00  0.00000000E+00
  0.00000000E+00  0.00000000E+00  0.00000000E+00
  0.00000000E+00  0.00000000E+00  0.00000000E+00
  0.00000000E+00  0.00000000E+00  0.00000000E+00
  0.00000000E+00  0.00000000E+00  0.00000000E+00
  0.00000000E+00  0.00000000E+00  0.00000000E+00
  0.00000000E+00  0.00000000E+00  0.00000000E+00
  0.00000000E+00  0.00000000E+00  0.00000000E+00
  0.00000000E+00  0.00000000E+00  0.00000000E+00
  0.00000000E+00  0.00000000E+00  0.00000000E+00
  0.00000000E+00  0.00000000E+00  0.00000000E+00
  0.00000000E+00  0.00000000E+00  0.00000000E+00
  0.00000000E+00  0.00000000E+00  0.00000000E+00
  0.00000000E+00  0.00000000E+00  0.00000000E+00
  0.00000000E+00  0.00000000E+00  0.00000000E+00
  0.00000000E+00  0.00000000E+00  0.00000000E+00
  0.00000000E+00  0.00000000E+00  0.00000000E+00
  0.00000000E+00  0.00000000E+00  0.00000000E+00
  0.00000000E+00  0.00000000E+00  0.00000000E+00
  0.00000000E+00  0.00000000E+00  0.00000000E+00
  0.00000000E+00  0.00000000E+00  0.00000000E+00
  0.00000000E+00  0.00000000E+00  0.00000000E+00
  0.00000000E+00  0.00000000E+00  0.00000000E+00
  0.00000000E+00  0.00000000E+00  0.00000000E+00
  0.00000000E+00  0.00000000E+00  0.00000000E+00
  0.00000000E+00  0.00000000E+00  0.00000000E+00
  0.00000000E+00  0.00000000E+00  0.00000000E+00
  0.00000000E+00  0.00000000E+00  0.00000000E+00
  0.00000000E+00  0.00000000E+00  0.00000000E+00
  0.00000000E+00  0.00000000E+00  0.00000000E+00
  0.00000000E+00  0.00000000E+00  0.00000000E+00
  0.00000000E+00  0.00000000E+00  0.00000000E+00
  0.00000000E+00  0.00000000E+00  0.00000000E+00
  0.00000000E+00  0.00000000E+00  0.00000000E+00
  0.00000000E+00  0.00000000E+00  0.00000000E+00
  0.00000000E+00  0.00000000E+00  0.00000000E+00
  0.00000000E+00  0.00000000E+00  0.00000000E+00
  0.00000000E+00  0.00000000E+00  0.00000000E+00
  0.00000000E+00  0.00000000E+00  0.00000000E+00
  0.00000000E+00  0.00000000E+00  0.00000000E+00
  0.00000000E+00  0.00000000E+00  0.00000000E+00
  0.00000000E+00  0.00000000E+00  0.00000000E+00
  0.00000000E+00  0.00000000E+00  0.00000000E+00
  0.00000000E+00  0.00000000E+00  0.00000000E+00
  0.00000000E+00  0.00000000E+00  0.00000000E+00
  0.00000000E+00  0.00000000E+00  0.00000000E+00
  0.00000000E+00  0.00000000E+00  0.00000000E+00
  0.00000000E+00  0.00000000E+00  0.00000000E+00
  0.00000000E+00  0.00000000E+00  0.00000000E+00
  0.00000000E+00  0.00000000E+00  0.00000000E+00
  0.00000000E+00  0.00000000E+00  0.00000000E+00
  0.00000000E+00  0.00000000E+00  0.00000000E+00
