supercell of POSCAR                     
   1.03228000000000     
     6.3970863126299999    5.5387332920799999    4.9397337979799998
   -15.9736979067999982   -5.5365852353599996    9.8547656895600007
     6.4026568282999996  -11.0930079636999999    0.0094448205590600
   Sc   Al   N 
    32    63    96
Direct
  0.3696909890869904  0.0703163307258023  0.3096242710118275
  0.8360723851376335  0.3080894587747167  0.4340024619304614
  0.0315428130715958  0.2324397739180313  0.3095058543225875
  0.1929748901770623  0.1491240123993620  0.4391511917358599
  0.0209286639810102  0.2327987245807250  0.0679712407213842
  0.0413778371869924  0.4631303395355033  0.3693742896488246
  0.2371283002594353  0.3927269517854270  0.0053433845254105
  0.6943100676787353  0.1316225114753209  0.1208392650488577
  0.3677836016844225  0.0701203341253134  0.8099814865174224
  0.8347080960346034  0.3110933684730668  0.9355892242691013
  0.0238955003321877  0.2320996082537263  0.8057878920612964
  0.1939097876833031  0.1511157018652796  0.9395177731236259
  0.0255896088112451  0.2327220843675306  0.5688399399050965
  0.0431389192214482  0.4636789398013761  0.8707175825863089
  0.2365661830344763  0.3936756859647659  0.5054248239332964
  0.6919266915622018  0.1294299967840473  0.6189500077255730
  0.3692024957094375  0.5705532263997171  0.3108876934192324
  0.8275738480914896  0.8075060850082636  0.4320869871303401
  0.0182107316618598  0.7302004408316947  0.3036903291072832
  0.1876106203159296  0.6480534003212171  0.4380150970535936
  0.0179437259153659  0.7306485785700687  0.0658656122703647
  0.0385076452414381  0.9633808831705224  0.3692207330793735
  0.2269580376323290  0.8910321206454981  0.0030297274202908
  0.6888852044100062  0.6268594354422703  0.1173709804421250
  0.3701812080185505  0.5715865603686652  0.8101948323052071
  0.8294045723911410  0.8081763357479659  0.9325982059632167
  0.0197998072270096  0.7305323955851009  0.8034246089472390
  0.1892215467973557  0.6481134952967338  0.9370780931322287
  0.0188161210457025  0.7315084716492422  0.5667017169274970
  0.0390351651823977  0.9643772195159315  0.8700151847212823
  0.2271458686944214  0.8912405843750264  0.5030586112933975
  0.6893596492634870  0.6284144261271223  0.6178826848932601
  0.3565129793180404  0.0708007989459887  0.0642091385922612
  0.5373173338335633  0.4848567173703771  0.4339522505101669
  0.5415661368052156  0.4857499148371645  0.1945597341873579
  0.6934675421539325  0.4076865842916391  0.3116852495827303
  0.8592397750583984  0.3212906656528105  0.1854885724256405
  0.1965728720750519  0.1491745318479687  0.1857764143519987
  0.0487672482164285  0.4698382468410145  0.1229030600868484
  0.2358827708083169  0.3896733554353204  0.2492372449023819
  0.4051900782090883  0.3114295920746315  0.1307140094551329
  0.5578451543586453  0.2302126850289099  0.2477121697215878
  0.4008434681126047  0.3092201689087233  0.3741207388525183
  0.5561400089581809  0.2305281978094484  0.0077251254006896
  0.8839549078879188  0.0517785063843732  0.2470945181780309
  0.7276781628867610  0.1354387590323824  0.3750801130488099
  0.8824217211833556  0.0520556159797820  0.0010469497104495
  0.3573222047081117  0.0708895747743341  0.5637472576624845
  0.5387922930110420  0.4845953917711299  0.9318723307330288
  0.5391968368965436  0.4865736549641468  0.6924005050872282
  0.6913459167311018  0.4075734268714157  0.8084306373963486
  0.6915276410917031  0.4031828885556195  0.5637399454296670
  0.8550604914472117  0.3221714217041693  0.6840559597983926
  0.1960160504833084  0.1491431643274836  0.6856964902788150
  0.0511062388952865  0.4702633313607905  0.6230160457560387
  0.2345300777838517  0.3897913679118545  0.7498053566384755
  0.4002521475989980  0.3084614230372082  0.6301735534038855
  0.5561085378058763  0.2292362279219304  0.7469283081094176
  0.4033371129035430  0.3114593347426080  0.8747205352750314
  0.5525577504037713  0.2276419906964122  0.5046488106888347
  0.8847384486912517  0.0524130353155456  0.7474016842366282
  0.7255376894174077  0.1370387175549936  0.8744631217425223
  0.8816575699856699  0.0506864005863505  0.5004413164411758
  0.3593575534755900  0.5708254911681152  0.0641044825847104
  0.5323208684130023  0.9839638274956712  0.4343786903412408
  0.5343553608428451  0.9853087821768725  0.1912541013466296
  0.6870894327808017  0.9059363480196865  0.3102744696359920
  0.6852100373713483  0.9022380862639849  0.0639435945717679
  0.8510600408564244  0.8212162425463347  0.1831799070303575
  0.1812929822122342  0.6417039522781849  0.1816160184270714
  0.0465304471468286  0.9699762499965985  0.1224957686532662
  0.2280657656650291  0.8880225720572668  0.2481404029179544
  0.3913083777072117  0.8055341692398414  0.1285731522694320
  0.5508609360656394  0.7280614750626242  0.2458525137797665
  0.3898289673306721  0.8056983752795617  0.3718420577882569
  0.5492895786547365  0.7273098220586931  0.0048481862655052
  0.8854217285053210  0.5495693637186676  0.2436849437640518
  0.7270714010520578  0.6357046234935311  0.3746112868084523
  0.8828953804874544  0.5479152575627708  0.0021476417564301
  0.3576361363008900  0.5716338491047921  0.5640715484795606
  0.5338230201885352  0.9855138558094509  0.9355170842468183
  0.5353845751944490  0.9860539639739514  0.6921349225049909
  0.6885603382767940  0.9071815628082049  0.8110341314297287
  0.6852336400804262  0.9021556049027879  0.5636674632433554
  0.8526115214514931  0.8223685123332132  0.6836420120432294
  0.1953310667292598  0.6493915081454276  0.6853176682777544
  0.0471834832017919  0.9701207758180956  0.6221885992518210
  0.2294792300713056  0.8886056156930522  0.7486941851152693
  0.3936955207075172  0.8071090314055382  0.6283247155460359
  0.5548919942832455  0.7297740149286156  0.7470982879894734
  0.3928174472289996  0.8075996898810587  0.8736115602120336
  0.5485128519425544  0.7272380389743276  0.5047244741116685
  0.8876506224361052  0.5520291569397102  0.7469442455807354
  0.7280768457892748  0.6359180918060261  0.8747553354011615
  0.8848646782980651  0.5511173371429336  0.5008598741902190
  0.5813313455084383  0.1799985407924183  0.3671811976193311
  0.5270913952355656  0.1694295397737946  0.1112281211247392
  0.7207858403996141  0.0774929590618285  0.4763390304505464
  0.7231413602266699  0.0783895816345463  0.2438970110476362
  0.8730487161442966  0.0012375808768397  0.3596944437069141
  0.0475437746431879  0.4124487415604534  0.4943280323743906
  0.9128756144427612  0.5089486517385211  0.1175334306357954
  0.0645713091037052  0.4114155888289162  0.2256104325093773
  0.2425878215310817  0.3376115629991787  0.3578320560251740
  0.3955134639434164  0.2572917867980138  0.4874189349545901
  0.2361454135493517  0.3321848343105458  0.1206075879075001
  0.3857407524621763  0.2474092860622079  0.2380437438758207
  0.2364559342870294  0.0638082345763991  0.1630019486988203
  0.2548735719997879  0.0621260853004202  0.4273762191723165
  0.4278138718751379  0.4834200602449386  0.3006968440592814
  0.4430152503132518  0.9985888058938741  0.0566702999318665
  0.5734992678143485  0.4042927052373528  0.1914599818196692
  0.7477872717553140  0.3270058196790302  0.2914487871415545
  0.5902598779204880  0.4036886862104296  0.4276334749017394
  0.7459562958144659  0.3094198046721957  0.0582595136789692
  0.8973025312854830  0.2366709393974560  0.1797474487049513
  0.0791237578914377  0.1395352861214363  0.2857547732110675
  0.9129714738141956  0.2267085965215969  0.4223551249956827
  0.0735154657570476  0.1419838806713898  0.0565664788074116
  0.5753936038983412  0.1777814728766742  0.8608993657973372
  0.5293456372002652  0.1702583733058418  0.6083085583176953
  0.7215708182859686  0.0793819831274689  0.9770228236745666
  0.7243506450980277  0.0792120747219229  0.7438843192080711
  0.8734526623190604  0.0021963447594118  0.8602035687724339
  0.0519144660554005  0.4138601457708759  0.9944636727407712
  0.8831702417419294  0.4958027676901793  0.6104623501144246
  0.0606284443956611  0.4112764552433745  0.7231683099748452
  0.2340701801059240  0.3354099373594579  0.8549309811255057
  0.3956028739332638  0.2579815585037224  0.9873966048728420
  0.2406488549703880  0.3340937313324588  0.6212759621064237
  0.3840542657143260  0.2471351323886779  0.7345127564891243
  0.2370756811994426  0.0642256718210561  0.6620494617538810
  0.2538333057231341  0.0629042927672288  0.9284020400640287
  0.4260703283866150  0.4835942337866541  0.7952075683988014
  0.4440082023605214  0.9990824285832929  0.5570515516611252
  0.5848689349043639  0.4048081259419547  0.6693545642640188
  0.7425959835579121  0.3265526059204049  0.7851892721865497
  0.5743295107313457  0.4036649463935902  0.9007521555525884
  0.7351335809377773  0.3209622491253157  0.5574692756674580
  0.8904928560983194  0.2375953996742552  0.6708126485556889
  0.0783444879463602  0.1408046597422015  0.7849537296800122
  0.9107843340258341  0.2275702554963033  0.9200784189416211
  0.0727201425022983  0.1408429034114818  0.5555660364833130
  0.5805543101774475  0.6817088968491234  0.3675497104654326
  0.5306912054702480  0.6714493928066432  0.1092544563251892
  0.7258526455158147  0.5796225230806513  0.4774449886955239
  0.7299706421041776  0.5814739162125662  0.2453944370054302
  0.8817552423895094  0.5038627707484622  0.3624452327130356
  0.0398938086507101  0.9117489312952713  0.4926869359351898
  0.8765154847565881  0.9948704218018278  0.1098326038081154
  0.0561053847388493  0.9106832576178618  0.2228490442090134
  0.2325884975956569  0.8352822460705838  0.3550595935730954
  0.3923027113533166  0.7573500411274665  0.4878667553573095
  0.2341100154296001  0.8328969882002397  0.1200731267993049
  0.3816597581909562  0.7475762998645550  0.2356899498293288
  0.2456678416337184  0.5656915730405743  0.1642153797191028
  0.2555553738703367  0.5637902559082022  0.4291307697994782
  0.4239433253960101  0.9797882709017074  0.2973544268165043
  0.4516022139237208  0.5020143187066068  0.0580268741149013
  0.5782955837703483  0.9024713653847414  0.1730898592310126
  0.7401956199056059  0.8262311751163622  0.2872538611736033
  0.5816976913994836  0.9012489428152719  0.4231611896892460
  0.7311387914323575  0.8211903580554392  0.0579028661894014
  0.8872685741488411  0.7376805757843670  0.1705081285084589
  0.0804539730169935  0.6443438299542592  0.2887840022003871
  0.9097674968380645  0.7291059031841343  0.4215058309842945
  0.0751591730962602  0.6440621704341183  0.0531061350230502
  0.5812233462455936  0.6820980272553783  0.8663677766159168
  0.5293515053864155  0.6715593901525736  0.6103122970655761
  0.7269048278424464  0.5801347759200226  0.9763171824050545
  0.7290952512008317  0.5808720822236850  0.7440306487058166
  0.8813069639187887  0.5032618335265653  0.8590176317957656
  0.0405349425681578  0.9122213736460552  0.9928779186969905
  0.8768851671848736  0.9946716417677806  0.6100282654314384
  0.0576234529062063  0.9114377381263452  0.7234221949413779
  0.2329604822553009  0.8349264583097096  0.8546530769088747
  0.3929197064692715  0.7575072068434210  0.9869029841326693
  0.2348373970700521  0.8330300249160132  0.6204284175579673
  0.3851968627516555  0.7494032114896285  0.7367062498537464
  0.2394084574142568  0.5660152549612718  0.6631445379059286
  0.2578571367910527  0.5639582431321983  0.9283530510173108
  0.4247540999606940  0.9800906800971561  0.7978496390476195
  0.4502095814716043  0.5024087935228110  0.5581951664382387
  0.5795349384745734  0.9032819493237056  0.6735013122426636
  0.7418711941800709  0.8273964252059471  0.7878792776043468
  0.5830065271267344  0.9024532061084329  0.9236395162240356
  0.7307755403965288  0.8210040240195866  0.5583829254785542
  0.8876802666223753  0.7382458723595704  0.6710744850587176
  0.0794839966114580  0.6423860440006095  0.7843148763795256
  0.9104981599077959  0.7293198175778315  0.9198857508669960
  0.0737857548777896  0.6430757529262650  0.5574189510142347
 
  0.00000000E+00  0.00000000E+00  0.00000000E+00
  0.00000000E+00  0.00000000E+00  0.00000000E+00
  0.00000000E+00  0.00000000E+00  0.00000000E+00
  0.00000000E+00  0.00000000E+00  0.00000000E+00
  0.00000000E+00  0.00000000E+00  0.00000000E+00
  0.00000000E+00  0.00000000E+00  0.00000000E+00
  0.00000000E+00  0.00000000E+00  0.00000000E+00
  0.00000000E+00  0.00000000E+00  0.00000000E+00
  0.00000000E+00  0.00000000E+00  0.00000000E+00
  0.00000000E+00  0.00000000E+00  0.00000000E+00
  0.00000000E+00  0.00000000E+00  0.00000000E+00
  0.00000000E+00  0.00000000E+00  0.00000000E+00
  0.00000000E+00  0.00000000E+00  0.00000000E+00
  0.00000000E+00  0.00000000E+00  0.00000000E+00
  0.00000000E+00  0.00000000E+00  0.00000000E+00
  0.00000000E+00  0.00000000E+00  0.00000000E+00
  0.00000000E+00  0.00000000E+00  0.00000000E+00
  0.00000000E+00  0.00000000E+00  0.00000000E+00
  0.00000000E+00  0.00000000E+00  0.00000000E+00
  0.00000000E+00  0.00000000E+00  0.00000000E+00
  0.00000000E+00  0.00000000E+00  0.00000000E+00
  0.00000000E+00  0.00000000E+00  0.00000000E+00
  0.00000000E+00  0.00000000E+00  0.00000000E+00
  0.00000000E+00  0.00000000E+00  0.00000000E+00
  0.00000000E+00  0.00000000E+00  0.00000000E+00
  0.00000000E+00  0.00000000E+00  0.00000000E+00
  0.00000000E+00  0.00000000E+00  0.00000000E+00
  0.00000000E+00  0.00000000E+00  0.00000000E+00
  0.00000000E+00  0.00000000E+00  0.00000000E+00
  0.00000000E+00  0.00000000E+00  0.00000000E+00
  0.00000000E+00  0.00000000E+00  0.00000000E+00
  0.00000000E+00  0.00000000E+00  0.00000000E+00
  0.00000000E+00  0.00000000E+00  0.00000000E+00
  0.00000000E+00  0.00000000E+00  0.00000000E+00
  0.00000000E+00  0.00000000E+00  0.00000000E+00
  0.00000000E+00  0.00000000E+00  0.00000000E+00
  0.00000000E+00  0.00000000E+00  0.00000000E+00
  0.00000000E+00  0.00000000E+00  0.00000000E+00
  0.00000000E+00  0.00000000E+00  0.00000000E+00
  0.00000000E+00  0.00000000E+00  0.00000000E+00
  0.00000000E+00  0.00000000E+00  0.00000000E+00
  0.00000000E+00  0.00000000E+00  0.00000000E+00
  0.00000000E+00  0.00000000E+00  0.00000000E+00
  0.00000000E+00  0.00000000E+00  0.00000000E+00
  0.00000000E+00  0.00000000E+00  0.00000000E+00
  0.00000000E+00  0.00000000E+00  0.00000000E+00
  0.00000000E+00  0.00000000E+00  0.00000000E+00
  0.00000000E+00  0.00000000E+00  0.00000000E+00
  0.00000000E+00  0.00000000E+00  0.00000000E+00
  0.00000000E+00  0.00000000E+00  0.00000000E+00
  0.00000000E+00  0.00000000E+00  0.00000000E+00
  0.00000000E+00  0.00000000E+00  0.00000000E+00
  0.00000000E+00  0.00000000E+00  0.00000000E+00
  0.00000000E+00  0.00000000E+00  0.00000000E+00
  0.00000000E+00  0.00000000E+00  0.00000000E+00
  0.00000000E+00  0.00000000E+00  0.00000000E+00
  0.00000000E+00  0.00000000E+00  0.00000000E+00
  0.00000000E+00  0.00000000E+00  0.00000000E+00
  0.00000000E+00  0.00000000E+00  0.00000000E+00
  0.00000000E+00  0.00000000E+00  0.00000000E+00
  0.00000000E+00  0.00000000E+00  0.00000000E+00
  0.00000000E+00  0.00000000E+00  0.00000000E+00
  0.00000000E+00  0.00000000E+00  0.00000000E+00
  0.00000000E+00  0.00000000E+00  0.00000000E+00
  0.00000000E+00  0.00000000E+00  0.00000000E+00
  0.00000000E+00  0.00000000E+00  0.00000000E+00
  0.00000000E+00  0.00000000E+00  0.00000000E+00
  0.00000000E+00  0.00000000E+00  0.00000000E+00
  0.00000000E+00  0.00000000E+00  0.00000000E+00
  0.00000000E+00  0.00000000E+00  0.00000000E+00
  0.00000000E+00  0.00000000E+00  0.00000000E+00
  0.00000000E+00  0.00000000E+00  0.00000000E+00
  0.00000000E+00  0.00000000E+00  0.00000000E+00
  0.00000000E+00  0.00000000E+00  0.00000000E+00
  0.00000000E+00  0.00000000E+00  0.00000000E+00
  0.00000000E+00  0.00000000E+00  0.00000000E+00
  0.00000000E+00  0.00000000E+00  0.00000000E+00
  0.00000000E+00  0.00000000E+00  0.00000000E+00
  0.00000000E+00  0.00000000E+00  0.00000000E+00
  0.00000000E+00  0.00000000E+00  0.00000000E+00
  0.00000000E+00  0.00000000E+00  0.00000000E+00
  0.00000000E+00  0.00000000E+00  0.00000000E+00
  0.00000000E+00  0.00000000E+00  0.00000000E+00
  0.00000000E+00  0.00000000E+00  0.00000000E+00
  0.00000000E+00  0.00000000E+00  0.00000000E+00
  0.00000000E+00  0.00000000E+00  0.00000000E+00
  0.00000000E+00  0.00000000E+00  0.00000000E+00
  0.00000000E+00  0.00000000E+00  0.00000000E+00
  0.00000000E+00  0.00000000E+00  0.00000000E+00
  0.00000000E+00  0.00000000E+00  0.00000000E+00
  0.00000000E+00  0.00000000E+00  0.00000000E+00
  0.00000000E+00  0.00000000E+00  0.00000000E+00
  0.00000000E+00  0.00000000E+00  0.00000000E+00
  0.00000000E+00  0.00000000E+00  0.00000000E+00
  0.00000000E+00  0.00000000E+00  0.00000000E+00
  0.00000000E+00  0.00000000E+00  0.00000000E+00
  0.00000000E+00  0.00000000E+00  0.00000000E+00
  0.00000000E+00  0.00000000E+00  0.00000000E+00
  0.00000000E+00  0.00000000E+00  0.00000000E+00
  0.00000000E+00  0.00000000E+00  0.00000000E+00
  0.00000000E+00  0.00000000E+00  0.00000000E+00
  0.00000000E+00  0.00000000E+00  0.00000000E+00
  0.00000000E+00  0.00000000E+00  0.00000000E+00
  0.00000000E+00  0.00000000E+00  0.00000000E+00
  0.00000000E+00  0.00000000E+00  0.00000000E+00
  0.00000000E+00  0.00000000E+00  0.00000000E+00
  0.00000000E+00  0.00000000E+00  0.00000000E+00
  0.00000000E+00  0.00000000E+00  0.00000000E+00
  0.00000000E+00  0.00000000E+00  0.00000000E+00
  0.00000000E+00  0.00000000E+00  0.00000000E+00
  0.00000000E+00  0.00000000E+00  0.00000000E+00
  0.00000000E+00  0.00000000E+00  0.00000000E+00
  0.00000000E+00  0.00000000E+00  0.00000000E+00
  0.00000000E+00  0.00000000E+00  0.00000000E+00
  0.00000000E+00  0.00000000E+00  0.00000000E+00
  0.00000000E+00  0.00000000E+00  0.00000000E+00
  0.00000000E+00  0.00000000E+00  0.00000000E+00
  0.00000000E+00  0.00000000E+00  0.00000000E+00
  0.00000000E+00  0.00000000E+00  0.00000000E+00
  0.00000000E+00  0.00000000E+00  0.00000000E+00
  0.00000000E+00  0.00000000E+00  0.00000000E+00
  0.00000000E+00  0.00000000E+00  0.00000000E+00
  0.00000000E+00  0.00000000E+00  0.00000000E+00
  0.00000000E+00  0.00000000E+00  0.00000000E+00
  0.00000000E+00  0.00000000E+00  0.00000000E+00
  0.00000000E+00  0.00000000E+00  0.00000000E+00
  0.00000000E+00  0.00000000E+00  0.00000000E+00
  0.00000000E+00  0.00000000E+00  0.00000000E+00
  0.00000000E+00  0.00000000E+00  0.00000000E+00
  0.00000000E+00  0.00000000E+00  0.00000000E+00
  0.00000000E+00  0.00000000E+00  0.00000000E+00
  0.00000000E+00  0.00000000E+00  0.00000000E+00
  0.00000000E+00  0.00000000E+00  0.00000000E+00
  0.00000000E+00  0.00000000E+00  0.00000000E+00
  0.00000000E+00  0.00000000E+00  0.00000000E+00
  0.00000000E+00  0.00000000E+00  0.00000000E+00
  0.00000000E+00  0.00000000E+00  0.00000000E+00
  0.00000000E+00  0.00000000E+00  0.00000000E+00
  0.00000000E+00  0.00000000E+00  0.00000000E+00
  0.00000000E+00  0.00000000E+00  0.00000000E+00
  0.00000000E+00  0.00000000E+00  0.00000000E+00
  0.00000000E+00  0.00000000E+00  0.00000000E+00
  0.00000000E+00  0.00000000E+00  0.00000000E+00
  0.00000000E+00  0.00000000E+00  0.00000000E+00
  0.00000000E+00  0.00000000E+00  0.00000000E+00
  0.00000000E+00  0.00000000E+00  0.00000000E+00
  0.00000000E+00  0.00000000E+00  0.00000000E+00
  0.00000000E+00  0.00000000E+00  0.00000000E+00
  0.00000000E+00  0.00000000E+00  0.00000000E+00
  0.00000000E+00  0.00000000E+00  0.00000000E+00
  0.00000000E+00  0.00000000E+00  0.00000000E+00
  0.00000000E+00  0.00000000E+00  0.00000000E+00
  0.00000000E+00  0.00000000E+00  0.00000000E+00
  0.00000000E+00  0.00000000E+00  0.00000000E+00
  0.00000000E+00  0.00000000E+00  0.00000000E+00
  0.00000000E+00  0.00000000E+00  0.00000000E+00
  0.00000000E+00  0.00000000E+00  0.00000000E+00
  0.00000000E+00  0.00000000E+00  0.00000000E+00
  0.00000000E+00  0.00000000E+00  0.00000000E+00
  0.00000000E+00  0.00000000E+00  0.00000000E+00
  0.00000000E+00  0.00000000E+00  0.00000000E+00
  0.00000000E+00  0.00000000E+00  0.00000000E+00
  0.00000000E+00  0.00000000E+00  0.00000000E+00
  0.00000000E+00  0.00000000E+00  0.00000000E+00
  0.00000000E+00  0.00000000E+00  0.00000000E+00
  0.00000000E+00  0.00000000E+00  0.00000000E+00
  0.00000000E+00  0.00000000E+00  0.00000000E+00
  0.00000000E+00  0.00000000E+00  0.00000000E+00
  0.00000000E+00  0.00000000E+00  0.00000000E+00
  0.00000000E+00  0.00000000E+00  0.00000000E+00
  0.00000000E+00  0.00000000E+00  0.00000000E+00
  0.00000000E+00  0.00000000E+00  0.00000000E+00
  0.00000000E+00  0.00000000E+00  0.00000000E+00
  0.00000000E+00  0.00000000E+00  0.00000000E+00
  0.00000000E+00  0.00000000E+00  0.00000000E+00
  0.00000000E+00  0.00000000E+00  0.00000000E+00
  0.00000000E+00  0.00000000E+00  0.00000000E+00
  0.00000000E+00  0.00000000E+00  0.00000000E+00
  0.00000000E+00  0.00000000E+00  0.00000000E+00
  0.00000000E+00  0.00000000E+00  0.00000000E+00
  0.00000000E+00  0.00000000E+00  0.00000000E+00
  0.00000000E+00  0.00000000E+00  0.00000000E+00
  0.00000000E+00  0.00000000E+00  0.00000000E+00
  0.00000000E+00  0.00000000E+00  0.00000000E+00
  0.00000000E+00  0.00000000E+00  0.00000000E+00
  0.00000000E+00  0.00000000E+00  0.00000000E+00
  0.00000000E+00  0.00000000E+00  0.00000000E+00
  0.00000000E+00  0.00000000E+00  0.00000000E+00
  0.00000000E+00  0.00000000E+00  0.00000000E+00
  0.00000000E+00  0.00000000E+00  0.00000000E+00
  0.00000000E+00  0.00000000E+00  0.00000000E+00
