supercell of POSCAR                     
   1.03228000000000     
     6.3970863126299999    5.5387332920799999    4.9397337979799998
   -15.9736979067999982   -5.5365852353599996    9.8547656895600007
     6.4026568282999996  -11.0930079636999999    0.0094448205590600
   Sc   Al   N 
    31    64    96
Direct
  0.3764366113185957  0.0714985315405130  0.3104269684163725
  0.8320467538080720  0.3085284372194934  0.4332747286016954
  0.0018463399517472  0.2194070209396344  0.2983569442234284
  0.1938701925052726  0.1481782829792166  0.4380441463776563
  0.9983476347887361  0.2184146172669656  0.0623873744233450
  0.0350697916924005  0.4647547226904223  0.3725556650707063
  0.2237520916698159  0.3876967857956899  0.0055201016204833
  0.3769934545388267  0.0713665173146936  0.8118762122869541
  0.8329754185443079  0.3091210121908716  0.9343990907466804
  0.0238502716824414  0.2298278943294889  0.8047521732745935
  0.2011195367058178  0.1489439969461159  0.9413301452132146
  0.0218613007547290  0.2306895990174240  0.5676257500361430
  0.0381738939943261  0.4640421717149010  0.8700735165574898
  0.2250628760492290  0.3880579084252460  0.5007248013558510
  0.6937715826400108  0.1296418929478023  0.6194597595250499
  0.3515589073000669  0.5605300876104238  0.3056813768709787
  0.8318223003093195  0.8084797281356657  0.4328410246878178
  0.0206295311669038  0.7322091612531523  0.3046112922550250
  0.1869391869570620  0.6490548366758873  0.4374420259432625
  0.0201295737339890  0.7333888750882309  0.0670613424909519
  0.0458061758865398  0.9640733683325635  0.3700830843342686
  0.2366166406393120  0.8933259482413831  0.0048391578293234
  0.6870042415349715  0.6279865477394040  0.1181384014682152
  0.3654921713950543  0.5689224612427708  0.8092873242617813
  0.8325239685729215  0.8091752348219430  0.9330791445478042
  0.0205789794865581  0.7317373714286290  0.8040576550649590
  0.1887873116582455  0.6497374404894529  0.9380624421440587
  0.0195628001162405  0.7332024941374584  0.5667880043376883
  0.0496291866184464  0.9653534750180057  0.8721918302052956
  0.2363665503286043  0.8939319388779552  0.5053427547585940
  0.6867074739283154  0.6279725662397126  0.6176393808368772
  0.3833073726649374  0.0755339643544701  0.0675487950028355
  0.5279153128586316  0.4829661140825081  0.4320556074620185
  0.5297697953838636  0.4841584190040464  0.1929949923446017
  0.6865744798252464  0.4071450809720361  0.3111580592097809
  0.6842582545167701  0.4025061721562295  0.0635773483366151
  0.8567325965954140  0.3277712137069386  0.1855872254471507
  0.2041385165064824  0.1481215208953159  0.1854932226809893
  0.0462942031090066  0.4734432487451841  0.1213668261156897
  0.1763628041320118  0.3635551603252054  0.2360652415143676
  0.3922525570060387  0.3054709205563739  0.1286399605795765
  0.5601106030689351  0.2297987546528901  0.2454352711436485
  0.3905167241612304  0.3063348309147926  0.3731864750140588
  0.5560343999993194  0.2278055361453752  0.0088837915056814
  0.8890951680444843  0.0514056848987110  0.2463515468201791
  0.7308087155488892  0.1362183016883733  0.3741579283599563
  0.8876751045608273  0.0503621679284336  0.0009380187672150
  0.3615498222273246  0.0719854752792770  0.5650740133521666
  0.5296649076235411  0.4838605468248431  0.9344564007374387
  0.5326306341857574  0.4848957539801901  0.6908961451017319
  0.6894424219500905  0.4074213980592063  0.8110062604937056
  0.6858448278830096  0.4021866991235399  0.5635556923631597
  0.8548816176761989  0.3223584184675516  0.6842185852659526
  0.1982883953976469  0.1485289047683978  0.6863171987253835
  0.0471244973098806  0.4702454863193992  0.6230125905850414
  0.2289266855566794  0.3876113040999272  0.7484180374548188
  0.3958203276219905  0.3066610400897218  0.6288190403107308
  0.5584720922940818  0.2301147343922381  0.7484685256747028
  0.3943422648010539  0.3076523081449736  0.8740155119421189
  0.5528669088350071  0.2278227141491271  0.5053735022894728
  0.8901237192782858  0.0517223929202615  0.7486220214444685
  0.7313396945190931  0.1364469601359346  0.8765834184760024
  0.8864443189441857  0.0505955056717653  0.5007000858282566
  0.3537008258129077  0.5703170398896589  0.0624779135842317
  0.5404098163543267  0.9864050006462577  0.4341609138099543
  0.5555729663986071  0.9957114912269063  0.1905871207864607
  0.6927022878494284  0.9073064328070970  0.3104090204538323
  0.6912874476055109  0.9031229639195359  0.0644057687661146
  0.8530101399662087  0.8216767987890066  0.1834700027417995
  0.1937586175064467  0.6505313532523189  0.1846300829220553
  0.0559574817637341  0.9708260679620864  0.1226581463407115
  0.2368052640666889  0.8904393269880657  0.2485600780046866
  0.3994948772527209  0.8100019792552473  0.1295446111163869
  0.5511927108035692  0.7270383759476005  0.2470958338548002
  0.3951895717058704  0.8084886993768237  0.3737127252261345
  0.5487069963452669  0.7270060695949923  0.0044269114539262
  0.8811447779423602  0.5525081275270622  0.2463517184441386
  0.7184044541408099  0.6337779823200265  0.3732804941697054
  0.8794704366154704  0.5519090590013889  0.9998672289475437
  0.3529801483958650  0.5699670069250473  0.5637545313673797
  0.5536269000490250  0.9948341920982102  0.9454471191506286
  0.5429355914577556  0.9873101792706649  0.6945669259647858
  0.6934027985578197  0.9074282721530125  0.8122067632110870
  0.6893939092586265  0.9022646911186598  0.5642011029594656
  0.8529157633963962  0.8218604451961156  0.6836513610720090
  0.1932554150785393  0.6497509389755720  0.6855018442065202
  0.0518384735307365  0.9699263278866042  0.6233494025435533
  0.2365402406968400  0.8902067801323597  0.7506453839955753
  0.3969797605041876  0.8077806804552168  0.6291373286087207
  0.5533440236415430  0.7287471998866977  0.7467482967997157
  0.3972985528897368  0.8103342987891224  0.8747888042462364
  0.5463589986252018  0.7250759117765924  0.5023988042296708
  0.8826105350285403  0.5522476346455889  0.7467273575761268
  0.7235436594992066  0.6354970864459233  0.8740533532519379
  0.8793890770277457  0.5517609556328225  0.5007687407972199
  0.5842314840535607  0.1824476022269366  0.3694764737255269
  0.5315591228870318  0.1758337939751655  0.1113482297890940
  0.7286072662281242  0.0798092047490115  0.4792476214036938
  0.7444627908971526  0.0845660639868555  0.2509331078664303
  0.8806613531463086  0.0007788231979191  0.3615340737709900
  0.0433257637591069  0.4128629153338039  0.4950822879230259
  0.8746376256754615  0.4967035214853155  0.1088626221262317
  0.0625761187099201  0.4225030132519123  0.2270684530801930
  0.2279180185339058  0.3292904323764176  0.3569199301711237
  0.3958792664636590  0.2572563450377103  0.4888887197077025
  0.2270602355829894  0.3253700714925287  0.1147880941708408
  0.3891933522428488  0.2496136377360898  0.2392941516330396
  0.2481786149821090  0.0638344547437200  0.1626573563982703
  0.2606807279840595  0.0628891407621452  0.4286683373315370
  0.4221131232459499  0.4782666460153067  0.2974003546584356
  0.4470044670054705  0.9966428493282322  0.0560797095853260
  0.5786615147396006  0.4030836806510791  0.1731880510130992
  0.7467136109838322  0.3301751721968600  0.2905303048188088
  0.5824709817451605  0.4020499688199450  0.4245113813302126
  0.7353453350908339  0.3236192349737976  0.0586902612938829
  0.9541032219920282  0.2706484287692206  0.1881251445518970
  0.0863582604748103  0.1385765638184893  0.2845481312435254
  0.9129317459155288  0.2301567226992063  0.4246923261841360
  0.0819140517950103  0.1390266306820109  0.0560354485853907
  0.5844321873336398  0.1823910260847015  0.8658641948154155
  0.5320640456217518  0.1717980411556184  0.6111688757425071
  0.7422841839137888  0.0834403127344672  0.9764299416311601
  0.7320603171865088  0.0807883016463720  0.7437087971786909
  0.8811894545252059  0.0003711403282196  0.8588254346550315
  0.0431010639227694  0.4142031803739243  0.9941882361831702
  0.8771941700809194  0.4956151965711371  0.6101726257242106
  0.0592942615454675  0.4120231703676325  0.7244043462981296
  0.2347838349704929  0.3353495619512969  0.8553079257637393
  0.3983171375763419  0.2590245347334061  0.9867371464712278
  0.2367936505848363  0.3323426771031635  0.6213825343326391
  0.3874170059558750  0.2490486493796027  0.7372026953510726
  0.2420711093418717  0.0645621728057506  0.6638880262768012
  0.2657155379868286  0.0626386771581906  0.9295493532864114
  0.4234958130565900  0.4799415963223055  0.7972142042332919
  0.4514082289033254  0.0014064237612530  0.5588061549911743
  0.5806239485073164  0.4035066551169351  0.6737347038806121
  0.7451417212389657  0.3284498478231441  0.7888884548248072
  0.5836157161067419  0.4029873589162065  0.9229597403021970
  0.7341626403396688  0.3219944748057699  0.5594767931832649
  0.8923985762560562  0.2388583382216041  0.6726210621934072
  0.0839875789576041  0.1407229450013858  0.7871758176669559
  0.9134778693789585  0.2306451240167320  0.9190343241087504
  0.0770529918864611  0.1413758140306953  0.5567011959411730
  0.5704942437154301  0.6768697099602292  0.3644195648083084
  0.5264556084547536  0.6701257849804207  0.1086925504532132
  0.7184020841861738  0.5779918639491228  0.4765735832103672
  0.7207458771506836  0.5789631340381334  0.2430344866767271
  0.8720304617420780  0.5038991895771190  0.3603039559963648
  0.0452136788593265  0.9113934892286437  0.4935107680784085
  0.8843705043225043  0.9936732630353191  0.1101720312065524
  0.0602070165757738  0.9100539595878558  0.2230276647535234
  0.2360536514651912  0.8364150197689852  0.3557702293423333
  0.3922729874622561  0.7573566556442373  0.4870083297319141
  0.2368382311719657  0.8325424669711907  0.1207135850930854
  0.3850995071551964  0.7498078329417837  0.2365581219886863
  0.2362717543517618  0.5674280040882778  0.1604311334278563
  0.2510798344070508  0.5641868082425816  0.4301638251081314
  0.4337077629897195  0.9821092041325912  0.2970094651672426
  0.4407504937826658  0.4986898797481629  0.0565346917935727
  0.5862030138002581  0.9056858737121090  0.1740262895643738
  0.7403220791218104  0.8249418372099413  0.2874502999390884
  0.5867517151427393  0.9025651863878323  0.4240172325809226
  0.7315857305493054  0.8197339786280367  0.0576418117924220
  0.8865594075866241  0.7368302118971002  0.1709578655272708
  0.0758284841147656  0.6420945745179267  0.2839507887097525
  0.9053667108002443  0.7262388585879549  0.4193660839685620
  0.0705044531044905  0.6429045640059385  0.0551321753040099
  0.5757276899322648  0.6794540606512456  0.8654926440179977
  0.5256943682592237  0.6699498844084104  0.6094006141381314
  0.7180690236862191  0.5782843205873149  0.9754423109035812
  0.7219196634262204  0.5790899924227233  0.7434795561494241
  0.8744257886753033  0.5032335795630161  0.8600621906881329
  0.0443102563338087  0.9106241906887860  0.9927208377382328
  0.8817480751180042  0.9944173836450787  0.6104221119947795
  0.0598560076992172  0.9103413290422324  0.7233898678410569
  0.2338043157383680  0.8345735124842193  0.8542200720906905
  0.3935481283804023  0.7581384287934938  0.9872925850255569
  0.2381091983521699  0.8337129200922959  0.6207448780576144
  0.3847591417919034  0.7493287064465903  0.7371141587298311
  0.2359390480294437  0.5657665969498566  0.6639250084733277
  0.2531395970840720  0.5640667964530479  0.9270067763704759
  0.4334198359640880  0.9818471086699390  0.8005776288568143
  0.4413421734904688  0.4989211221946377  0.5571576566098599
  0.5836856197935063  0.9034326768363670  0.6738742198674927
  0.7404230107232763  0.8251610193672434  0.7870213686681211
  0.5889750572729966  0.9041499353564006  0.9251066732532252
  0.7302454994147070  0.8191928613255541  0.5569445252547069
  0.8863713627339678  0.7369717957512876  0.6705611477138333
  0.0760271511554791  0.6416866356147324  0.7847545427948717
  0.9074408713127298  0.7272756074505580  0.9196964368787235
  0.0711171113380047  0.6429552438007349  0.5564560241649588
 
  0.00000000E+00  0.00000000E+00  0.00000000E+00
  0.00000000E+00  0.00000000E+00  0.00000000E+00
  0.00000000E+00  0.00000000E+00  0.00000000E+00
  0.00000000E+00  0.00000000E+00  0.00000000E+00
  0.00000000E+00  0.00000000E+00  0.00000000E+00
  0.00000000E+00  0.00000000E+00  0.00000000E+00
  0.00000000E+00  0.00000000E+00  0.00000000E+00
  0.00000000E+00  0.00000000E+00  0.00000000E+00
  0.00000000E+00  0.00000000E+00  0.00000000E+00
  0.00000000E+00  0.00000000E+00  0.00000000E+00
  0.00000000E+00  0.00000000E+00  0.00000000E+00
  0.00000000E+00  0.00000000E+00  0.00000000E+00
  0.00000000E+00  0.00000000E+00  0.00000000E+00
  0.00000000E+00  0.00000000E+00  0.00000000E+00
  0.00000000E+00  0.00000000E+00  0.00000000E+00
  0.00000000E+00  0.00000000E+00  0.00000000E+00
  0.00000000E+00  0.00000000E+00  0.00000000E+00
  0.00000000E+00  0.00000000E+00  0.00000000E+00
  0.00000000E+00  0.00000000E+00  0.00000000E+00
  0.00000000E+00  0.00000000E+00  0.00000000E+00
  0.00000000E+00  0.00000000E+00  0.00000000E+00
  0.00000000E+00  0.00000000E+00  0.00000000E+00
  0.00000000E+00  0.00000000E+00  0.00000000E+00
  0.00000000E+00  0.00000000E+00  0.00000000E+00
  0.00000000E+00  0.00000000E+00  0.00000000E+00
  0.00000000E+00  0.00000000E+00  0.00000000E+00
  0.00000000E+00  0.00000000E+00  0.00000000E+00
  0.00000000E+00  0.00000000E+00  0.00000000E+00
  0.00000000E+00  0.00000000E+00  0.00000000E+00
  0.00000000E+00  0.00000000E+00  0.00000000E+00
  0.00000000E+00  0.00000000E+00  0.00000000E+00
  0.00000000E+00  0.00000000E+00  0.00000000E+00
  0.00000000E+00  0.00000000E+00  0.00000000E+00
  0.00000000E+00  0.00000000E+00  0.00000000E+00
  0.00000000E+00  0.00000000E+00  0.00000000E+00
  0.00000000E+00  0.00000000E+00  0.00000000E+00
  0.00000000E+00  0.00000000E+00  0.00000000E+00
  0.00000000E+00  0.00000000E+00  0.00000000E+00
  0.00000000E+00  0.00000000E+00  0.00000000E+00
  0.00000000E+00  0.00000000E+00  0.00000000E+00
  0.00000000E+00  0.00000000E+00  0.00000000E+00
  0.00000000E+00  0.00000000E+00  0.00000000E+00
  0.00000000E+00  0.00000000E+00  0.00000000E+00
  0.00000000E+00  0.00000000E+00  0.00000000E+00
  0.00000000E+00  0.00000000E+00  0.00000000E+00
  0.00000000E+00  0.00000000E+00  0.00000000E+00
  0.00000000E+00  0.00000000E+00  0.00000000E+00
  0.00000000E+00  0.00000000E+00  0.00000000E+00
  0.00000000E+00  0.00000000E+00  0.00000000E+00
  0.00000000E+00  0.00000000E+00  0.00000000E+00
  0.00000000E+00  0.00000000E+00  0.00000000E+00
  0.00000000E+00  0.00000000E+00  0.00000000E+00
  0.00000000E+00  0.00000000E+00  0.00000000E+00
  0.00000000E+00  0.00000000E+00  0.00000000E+00
  0.00000000E+00  0.00000000E+00  0.00000000E+00
  0.00000000E+00  0.00000000E+00  0.00000000E+00
  0.00000000E+00  0.00000000E+00  0.00000000E+00
  0.00000000E+00  0.00000000E+00  0.00000000E+00
  0.00000000E+00  0.00000000E+00  0.00000000E+00
  0.00000000E+00  0.00000000E+00  0.00000000E+00
  0.00000000E+00  0.00000000E+00  0.00000000E+00
  0.00000000E+00  0.00000000E+00  0.00000000E+00
  0.00000000E+00  0.00000000E+00  0.00000000E+00
  0.00000000E+00  0.00000000E+00  0.00000000E+00
  0.00000000E+00  0.00000000E+00  0.00000000E+00
  0.00000000E+00  0.00000000E+00  0.00000000E+00
  0.00000000E+00  0.00000000E+00  0.00000000E+00
  0.00000000E+00  0.00000000E+00  0.00000000E+00
  0.00000000E+00  0.00000000E+00  0.00000000E+00
  0.00000000E+00  0.00000000E+00  0.00000000E+00
  0.00000000E+00  0.00000000E+00  0.00000000E+00
  0.00000000E+00  0.00000000E+00  0.00000000E+00
  0.00000000E+00  0.00000000E+00  0.00000000E+00
  0.00000000E+00  0.00000000E+00  0.00000000E+00
  0.00000000E+00  0.00000000E+00  0.00000000E+00
  0.00000000E+00  0.00000000E+00  0.00000000E+00
  0.00000000E+00  0.00000000E+00  0.00000000E+00
  0.00000000E+00  0.00000000E+00  0.00000000E+00
  0.00000000E+00  0.00000000E+00  0.00000000E+00
  0.00000000E+00  0.00000000E+00  0.00000000E+00
  0.00000000E+00  0.00000000E+00  0.00000000E+00
  0.00000000E+00  0.00000000E+00  0.00000000E+00
  0.00000000E+00  0.00000000E+00  0.00000000E+00
  0.00000000E+00  0.00000000E+00  0.00000000E+00
  0.00000000E+00  0.00000000E+00  0.00000000E+00
  0.00000000E+00  0.00000000E+00  0.00000000E+00
  0.00000000E+00  0.00000000E+00  0.00000000E+00
  0.00000000E+00  0.00000000E+00  0.00000000E+00
  0.00000000E+00  0.00000000E+00  0.00000000E+00
  0.00000000E+00  0.00000000E+00  0.00000000E+00
  0.00000000E+00  0.00000000E+00  0.00000000E+00
  0.00000000E+00  0.00000000E+00  0.00000000E+00
  0.00000000E+00  0.00000000E+00  0.00000000E+00
  0.00000000E+00  0.00000000E+00  0.00000000E+00
  0.00000000E+00  0.00000000E+00  0.00000000E+00
  0.00000000E+00  0.00000000E+00  0.00000000E+00
  0.00000000E+00  0.00000000E+00  0.00000000E+00
  0.00000000E+00  0.00000000E+00  0.00000000E+00
  0.00000000E+00  0.00000000E+00  0.00000000E+00
  0.00000000E+00  0.00000000E+00  0.00000000E+00
  0.00000000E+00  0.00000000E+00  0.00000000E+00
  0.00000000E+00  0.00000000E+00  0.00000000E+00
  0.00000000E+00  0.00000000E+00  0.00000000E+00
  0.00000000E+00  0.00000000E+00  0.00000000E+00
  0.00000000E+00  0.00000000E+00  0.00000000E+00
  0.00000000E+00  0.00000000E+00  0.00000000E+00
  0.00000000E+00  0.00000000E+00  0.00000000E+00
  0.00000000E+00  0.00000000E+00  0.00000000E+00
  0.00000000E+00  0.00000000E+00  0.00000000E+00
  0.00000000E+00  0.00000000E+00  0.00000000E+00
  0.00000000E+00  0.00000000E+00  0.00000000E+00
  0.00000000E+00  0.00000000E+00  0.00000000E+00
  0.00000000E+00  0.00000000E+00  0.00000000E+00
  0.00000000E+00  0.00000000E+00  0.00000000E+00
  0.00000000E+00  0.00000000E+00  0.00000000E+00
  0.00000000E+00  0.00000000E+00  0.00000000E+00
  0.00000000E+00  0.00000000E+00  0.00000000E+00
  0.00000000E+00  0.00000000E+00  0.00000000E+00
  0.00000000E+00  0.00000000E+00  0.00000000E+00
  0.00000000E+00  0.00000000E+00  0.00000000E+00
  0.00000000E+00  0.00000000E+00  0.00000000E+00
  0.00000000E+00  0.00000000E+00  0.00000000E+00
  0.00000000E+00  0.00000000E+00  0.00000000E+00
  0.00000000E+00  0.00000000E+00  0.00000000E+00
  0.00000000E+00  0.00000000E+00  0.00000000E+00
  0.00000000E+00  0.00000000E+00  0.00000000E+00
  0.00000000E+00  0.00000000E+00  0.00000000E+00
  0.00000000E+00  0.00000000E+00  0.00000000E+00
  0.00000000E+00  0.00000000E+00  0.00000000E+00
  0.00000000E+00  0.00000000E+00  0.00000000E+00
  0.00000000E+00  0.00000000E+00  0.00000000E+00
  0.00000000E+00  0.00000000E+00  0.00000000E+00
  0.00000000E+00  0.00000000E+00  0.00000000E+00
  0.00000000E+00  0.00000000E+00  0.00000000E+00
  0.00000000E+00  0.00000000E+00  0.00000000E+00
  0.00000000E+00  0.00000000E+00  0.00000000E+00
  0.00000000E+00  0.00000000E+00  0.00000000E+00
  0.00000000E+00  0.00000000E+00  0.00000000E+00
  0.00000000E+00  0.00000000E+00  0.00000000E+00
  0.00000000E+00  0.00000000E+00  0.00000000E+00
  0.00000000E+00  0.00000000E+00  0.00000000E+00
  0.00000000E+00  0.00000000E+00  0.00000000E+00
  0.00000000E+00  0.00000000E+00  0.00000000E+00
  0.00000000E+00  0.00000000E+00  0.00000000E+00
  0.00000000E+00  0.00000000E+00  0.00000000E+00
  0.00000000E+00  0.00000000E+00  0.00000000E+00
  0.00000000E+00  0.00000000E+00  0.00000000E+00
  0.00000000E+00  0.00000000E+00  0.00000000E+00
  0.00000000E+00  0.00000000E+00  0.00000000E+00
  0.00000000E+00  0.00000000E+00  0.00000000E+00
  0.00000000E+00  0.00000000E+00  0.00000000E+00
  0.00000000E+00  0.00000000E+00  0.00000000E+00
  0.00000000E+00  0.00000000E+00  0.00000000E+00
  0.00000000E+00  0.00000000E+00  0.00000000E+00
  0.00000000E+00  0.00000000E+00  0.00000000E+00
  0.00000000E+00  0.00000000E+00  0.00000000E+00
  0.00000000E+00  0.00000000E+00  0.00000000E+00
  0.00000000E+00  0.00000000E+00  0.00000000E+00
  0.00000000E+00  0.00000000E+00  0.00000000E+00
  0.00000000E+00  0.00000000E+00  0.00000000E+00
  0.00000000E+00  0.00000000E+00  0.00000000E+00
  0.00000000E+00  0.00000000E+00  0.00000000E+00
  0.00000000E+00  0.00000000E+00  0.00000000E+00
  0.00000000E+00  0.00000000E+00  0.00000000E+00
  0.00000000E+00  0.00000000E+00  0.00000000E+00
  0.00000000E+00  0.00000000E+00  0.00000000E+00
  0.00000000E+00  0.00000000E+00  0.00000000E+00
  0.00000000E+00  0.00000000E+00  0.00000000E+00
  0.00000000E+00  0.00000000E+00  0.00000000E+00
  0.00000000E+00  0.00000000E+00  0.00000000E+00
  0.00000000E+00  0.00000000E+00  0.00000000E+00
  0.00000000E+00  0.00000000E+00  0.00000000E+00
  0.00000000E+00  0.00000000E+00  0.00000000E+00
  0.00000000E+00  0.00000000E+00  0.00000000E+00
  0.00000000E+00  0.00000000E+00  0.00000000E+00
  0.00000000E+00  0.00000000E+00  0.00000000E+00
  0.00000000E+00  0.00000000E+00  0.00000000E+00
  0.00000000E+00  0.00000000E+00  0.00000000E+00
  0.00000000E+00  0.00000000E+00  0.00000000E+00
  0.00000000E+00  0.00000000E+00  0.00000000E+00
  0.00000000E+00  0.00000000E+00  0.00000000E+00
  0.00000000E+00  0.00000000E+00  0.00000000E+00
  0.00000000E+00  0.00000000E+00  0.00000000E+00
  0.00000000E+00  0.00000000E+00  0.00000000E+00
  0.00000000E+00  0.00000000E+00  0.00000000E+00
  0.00000000E+00  0.00000000E+00  0.00000000E+00
  0.00000000E+00  0.00000000E+00  0.00000000E+00
  0.00000000E+00  0.00000000E+00  0.00000000E+00
  0.00000000E+00  0.00000000E+00  0.00000000E+00
  0.00000000E+00  0.00000000E+00  0.00000000E+00
  0.00000000E+00  0.00000000E+00  0.00000000E+00
