supercell of POSCAR                     
   1.03228000000000     
     6.3970863126299999    5.5387332920799999    4.9397337979799998
   -15.9736979067999982   -5.5365852353599996    9.8547656895600007
     6.4026568282999996  -11.0930079636999999    0.0094448205590600
   Sc   Al   N 
    32    63    96
Direct
  0.3942543763725013  0.0775077968553504  0.3149485098470848
  0.8169016432463678  0.3038338000672169  0.4298332256500856
  0.0210759580974909  0.2292726790548869  0.3027632380599456
  0.1995712745447662  0.1493962212712461  0.4381729094949876
  0.0208814462002849  0.2311689638210055  0.0672099238987798
  0.0325019374495952  0.4613060157043805  0.3671557114833561
  0.2290982275548856  0.3926452592185896  0.0036684705966152
  0.6908438796300587  0.1304913941653325  0.1195965836694270
  0.3713936615977005  0.0697530968881281  0.8109767993398620
  0.8329660089983193  0.3087379178302641  0.9335288094259440
  0.0222066803635030  0.2309973268256940  0.8035448213113412
  0.1899303786291355  0.1481689626594047  0.9375528837630256
  0.0168190448340724  0.2273325297184812  0.5657653442602353
  0.0381198233969613  0.4644165083414507  0.8702036046776840
  0.2070966436797193  0.3798855306947146  0.4992133075858263
  0.6900796765184793  0.1302752373671723  0.6183728963815369
  0.3648337808004030  0.5684754480365655  0.3098991900596246
  0.8327728459058292  0.8081478083944447  0.4334629984165872
  0.0228531750783318  0.7319430004835255  0.3050616031697899
  0.1861984842895765  0.6467418650495134  0.4377200333399998
  0.0221033655811667  0.7327514523581939  0.0674994336823360
  0.0492245257352266  0.9641860256086687  0.3694062693083850
  0.2357071586331543  0.8928733080680189  0.0049406903004723
  0.6894979743042384  0.6286522564173751  0.1183992065013939
  0.3657595171707939  0.5689278643187166  0.8091996028733277
  0.8332398371894385  0.8081232432294669  0.9334223021344599
  0.0228419694119424  0.7319031082361889  0.8047763509146293
  0.1882314692010709  0.6484896191694531  0.9375126485432403
  0.0215213747117886  0.7326219966941920  0.5674398072427351
  0.0418775329790222  0.9634179487735892  0.8702749260184959
  0.2353281325582444  0.8927184110380111  0.5051528747380161
  0.6889289516587169  0.6287612137343785  0.6186516381536009
  0.3595235266018122  0.0721350228774469  0.0654177713407975
  0.5272255281039833  0.4830604699177172  0.4349814210492440
  0.5350541293327211  0.4863085867039629  0.1917762182663481
  0.6897565660697538  0.4091732602875240  0.3106911871286897
  0.6871523097915642  0.4030760080264173  0.0638039284902732
  0.8539828151852404  0.3227964111342132  0.1821031958201829
  0.1994027649667487  0.1491542173652007  0.1863257217684620
  0.0477842065793226  0.4710340034067784  0.1221730081201571
  0.2289893534963525  0.3882625408496736  0.2467421999640678
  0.3940974635215611  0.3084476390972597  0.1268555485848282
  0.5550727105497089  0.2347714411537538  0.2451914307558667
  0.3938331497326004  0.3086143807160724  0.3727235291358042
  0.5500596282329155  0.2279016191701615  0.0041384720965425
  0.8966878703117871  0.0498811890272464  0.2469917312290448
  0.8853349394042880  0.0509072911775945  0.0012832383921051
  0.3601957055392049  0.0717240512470667  0.5636741990572673
  0.5330291147642612  0.4848929746166917  0.9346089079369193
  0.5296898650777919  0.4844114605441519  0.6903482087498531
  0.6893927911821507  0.4076358740582577  0.8116473453535917
  0.6852243498713904  0.4037108805054714  0.5653440813894051
  0.8547062127215455  0.3229852439128109  0.6847378027997593
  0.1985954707154676  0.1488062571853277  0.6854191517830515
  0.0434019498009661  0.4707024541708620  0.6245379446570283
  0.2281780938123674  0.3880790664566831  0.7498717210312549
  0.3938023263526134  0.3079480982942755  0.6315749599181402
  0.5567119251484769  0.2302813355530091  0.7484599557331961
  0.3935956349527459  0.3080635763027217  0.8741860003386321
  0.5500443520146021  0.2328093002072436  0.5084555006865585
  0.8866731577612157  0.0517560587316908  0.7467220414360227
  0.7296309956757696  0.1364386076925399  0.8752408114453587
  0.8944279418990106  0.0477627489850647  0.5021139455076096
  0.3559393173629175  0.5712981430149782  0.0637803421662966
  0.5382104842830344  0.9825003779777575  0.4342413196064783
  0.5408892671460990  0.9841007127362928  0.1926355295188031
  0.6922980496434477  0.9047579222708748  0.3105224424468602
  0.6902590151786328  0.9014241981284599  0.0641113498854082
  0.8539723471734106  0.8207744794233420  0.1833483711934889
  0.1943468088863938  0.6491228452156363  0.1853196965890547
  0.0564457326451731  0.9701774769634568  0.1242875132516588
  0.2354986845082720  0.8895178870126230  0.2493235091462722
  0.3968744155728601  0.8061612153120876  0.1286626081660955
  0.5544848976439027  0.7279348525368832  0.2473086439559751
  0.3945222048998644  0.8062212444198025  0.3737828147895215
  0.5494273921707205  0.7263027420439983  0.0041653156558752
  0.8841241184841380  0.5530626524321676  0.2469102428107348
  0.7245213351624500  0.6351384422089339  0.3750275926912821
  0.8819134238465907  0.5517775393022646  0.0009445880484904
  0.3513370312818438  0.5673554463795014  0.5622498647972023
  0.5391467190524324  0.9856897189373299  0.9356419913122309
  0.5406285912844382  0.9864118873372476  0.6928060108590515
  0.6919346698646009  0.9066207558477970  0.8111606878765301
  0.6888949928023109  0.9008753237819036  0.5641945788219260
  0.8538711973236843  0.8212544725263129  0.6838453802363631
  0.1929978492326043  0.6488386785964195  0.6851233157503884
  0.0529493127723129  0.9691635597278960  0.6235150163275307
  0.2338285267981846  0.8885915402960194  0.7492304917976611
  0.3966238781163440  0.8065709501612588  0.6287093333731875
  0.5542387911899738  0.7280162455626069  0.7468537761763301
  0.3958149749386166  0.8076763874348245  0.8740485980002717
  0.5482374414365268  0.7254401273285254  0.5044985518252929
  0.8814019583323685  0.5525960037494286  0.7474229055106392
  0.7248572781041887  0.6353454011363695  0.8744291008767036
  0.8796010855372032  0.5514294332809087  0.5009795705847537
  0.5682440767624186  0.1968209937068011  0.3687949341942982
  0.5297733658511063  0.1725201844236608  0.1105352153433543
  0.7328881697024485  0.0714881921684523  0.4904843389060289
  0.7353506089433850  0.0731785968304095  0.2300547802633872
  0.8794357917189188  0.9998756754621922  0.3595119130597411
  0.0366542376132486  0.4146173317020683  0.4947391669680314
  0.8781559215227261  0.4959062538522758  0.1103755940925950
  0.0583104445759304  0.4116343825322204  0.2215723567819339
  0.2340465406583263  0.3345706400558939  0.3505616286953028
  0.3920739317443704  0.2609397157425803  0.4901762477913110
  0.2342161947387424  0.3330573902660419  0.1181963559861430
  0.3827943825792772  0.2509930433887888  0.2339708973798551
  0.2462804440197246  0.0657020333890515  0.1678207420476312
  0.2650996666682133  0.0631135501874382  0.4256815823960807
  0.4239557325357666  0.4800187848712056  0.2967940196635652
  0.4512792242436845  0.0015425091972574  0.0590953645058221
  0.5802306637269012  0.4041846410367143  0.1726472539065966
  0.7467072378765920  0.3309125370184489  0.2861485087647964
  0.5842249261621433  0.4028352292365511  0.4235458376298098
  0.7315330516674479  0.3212805806125019  0.0567439339554596
  0.8886160789804975  0.2383463136585107  0.1712038373090436
  0.0843133823538480  0.1406755912328990  0.2868294638299744
  0.9693561584134116  0.2621175141693826  0.4364560746549344
  0.0756697545254355  0.1414688554939900  0.0571033421666343
  0.5809137805506879  0.1804104666698976  0.8666181058489286
  0.5291411215223647  0.1726151070027697  0.6098038600562887
  0.7264249831810119  0.0799318359911396  0.9778908087198275
  0.7282507865386449  0.0806681482809992  0.7441810995557461
  0.8776864084731884  0.0023592985782415  0.8602582846655622
  0.0420495787665871  0.4131121629672307  0.9931959360939402
  0.8756909836590268  0.4964781360066866  0.6113074418112276
  0.0583625425195677  0.4120672976746036  0.7247151959909033
  0.2338022719725359  0.3353614367941447  0.8567924544155048
  0.3924140387940795  0.2570679282168200  0.9866966384005451
  0.2319063366852276  0.3300549529193049  0.6254903929859310
  0.3862389292798980  0.2488214992426379  0.7383992106846975
  0.2419758873897209  0.0644563175477444  0.6634361287218198
  0.2571460126324112  0.0630407293306021  0.9288952337524634
  0.4231519344058796  0.4799942335731515  0.7982671049128527
  0.4513796904178520  0.0011543187037759  0.5580795804072523
  0.5792283722109275  0.4037603126434632  0.6751341383844078
  0.7435842749918251  0.3277146207178916  0.7896184363274301
  0.5836600425643041  0.4027317448586629  0.9240446056072003
  0.7347850467943644  0.3243629723947876  0.5625727104386158
  0.8880446159929534  0.2380138949364436  0.6708348568993259
  0.0795173029549190  0.1410753223809351  0.7835848339248912
  0.9130366457096670  0.2286326846188231  0.9208760382212162
  0.0797761909319590  0.1397783602843319  0.5537415188504582
  0.5770232609946646  0.6792012870734538  0.3663213349326497
  0.5282794808969555  0.6705520377122767  0.1096380950944535
  0.7173967731575033  0.5775736635616298  0.4764217033743279
  0.7238222902968374  0.5798778132373883  0.2441874074157582
  0.8754993149960697  0.5044100836358822  0.3605233027260084
  0.0465694497309670  0.9121356541146142  0.4930993050065950
  0.8839492030048817  0.9934096759593416  0.1089524508936606
  0.0600255601624866  0.9092743504726783  0.2226479693902874
  0.2381792895921890  0.8363898177878752  0.3563073665177896
  0.3919744172732393  0.7557941886684461  0.4873261426277296
  0.2400924786475187  0.8336458726697629  0.1210777501437761
  0.3852817188116262  0.7481724748699889  0.2367886283324552
  0.2376454169239253  0.5655157861456175  0.1630620747898277
  0.2498060134823135  0.5608772332887355  0.4269220928337276
  0.4341832676083044  0.9811182484591185  0.2989637676235759
  0.4450528371129323  0.5006525168660971  0.0574016339460997
  0.5837464712232290  0.9013191527582407  0.1733573853079591
  0.7430876118952483  0.8246365176537012  0.2875598646772985
  0.5865761106067282  0.8997610829794738  0.4233736190578412
  0.7328189955126945  0.8194114181401275  0.0575580636046524
  0.8895781541856422  0.7368960443944701  0.1713189861088438
  0.0781436965405575  0.6421291197390460  0.2848934063594726
  0.9096133364047674  0.7273542481284139  0.4206886557028398
  0.0731021323269871  0.6425445772911900  0.0562387112325169
  0.5779385788169336  0.6796767136191590  0.8660495207849905
  0.5249587516673202  0.6685462783117728  0.6091848999038234
  0.7213065619943393  0.5786533474918514  0.9763983558801712
  0.7199650642842812  0.5787196314991689  0.7433067183131570
  0.8747353390820578  0.5033040628901162  0.8605239934813156
  0.0470681340378221  0.9120398585517080  0.9937285718591795
  0.8824704116447109  0.9928030471886160  0.6117537968231872
  0.0608828430822754  0.9104416202419117  0.7240952730414563
  0.2371841690449585  0.8358169280049168  0.8560545288537469
  0.3934521202723857  0.7567579587805326  0.9868274452536596
  0.2388672358236121  0.8332302854858966  0.6209160181503890
  0.3855234503909699  0.7485948479956122  0.7370398484166358
  0.2348674815275587  0.5646807207171634  0.6627385670119708
  0.2541375026389048  0.5634596541425125  0.9279332665197231
  0.4295801797505661  0.9806341069948346  0.7984421524465262
  0.4348390683526802  0.4950552030432647  0.5553289707289153
  0.5833297162203337  0.9031812624021995  0.6736485335683753
  0.7433439763731755  0.8261432233943324  0.7882715154934274
  0.5873451397456151  0.9025735195030080  0.9245674651062430
  0.7317648714592977  0.8189483252082255  0.5581511712804215
  0.8887735581323710  0.7371897516143022  0.6714407045826292
  0.0763578795124147  0.6415694405383334  0.7848043078924150
  0.9101188676763385  0.7273281175443174  0.9204060507730603
  0.0712044891890145  0.6422071460414358  0.5563890830790754
 
  0.00000000E+00  0.00000000E+00  0.00000000E+00
  0.00000000E+00  0.00000000E+00  0.00000000E+00
  0.00000000E+00  0.00000000E+00  0.00000000E+00
  0.00000000E+00  0.00000000E+00  0.00000000E+00
  0.00000000E+00  0.00000000E+00  0.00000000E+00
  0.00000000E+00  0.00000000E+00  0.00000000E+00
  0.00000000E+00  0.00000000E+00  0.00000000E+00
  0.00000000E+00  0.00000000E+00  0.00000000E+00
  0.00000000E+00  0.00000000E+00  0.00000000E+00
  0.00000000E+00  0.00000000E+00  0.00000000E+00
  0.00000000E+00  0.00000000E+00  0.00000000E+00
  0.00000000E+00  0.00000000E+00  0.00000000E+00
  0.00000000E+00  0.00000000E+00  0.00000000E+00
  0.00000000E+00  0.00000000E+00  0.00000000E+00
  0.00000000E+00  0.00000000E+00  0.00000000E+00
  0.00000000E+00  0.00000000E+00  0.00000000E+00
  0.00000000E+00  0.00000000E+00  0.00000000E+00
  0.00000000E+00  0.00000000E+00  0.00000000E+00
  0.00000000E+00  0.00000000E+00  0.00000000E+00
  0.00000000E+00  0.00000000E+00  0.00000000E+00
  0.00000000E+00  0.00000000E+00  0.00000000E+00
  0.00000000E+00  0.00000000E+00  0.00000000E+00
  0.00000000E+00  0.00000000E+00  0.00000000E+00
  0.00000000E+00  0.00000000E+00  0.00000000E+00
  0.00000000E+00  0.00000000E+00  0.00000000E+00
  0.00000000E+00  0.00000000E+00  0.00000000E+00
  0.00000000E+00  0.00000000E+00  0.00000000E+00
  0.00000000E+00  0.00000000E+00  0.00000000E+00
  0.00000000E+00  0.00000000E+00  0.00000000E+00
  0.00000000E+00  0.00000000E+00  0.00000000E+00
  0.00000000E+00  0.00000000E+00  0.00000000E+00
  0.00000000E+00  0.00000000E+00  0.00000000E+00
  0.00000000E+00  0.00000000E+00  0.00000000E+00
  0.00000000E+00  0.00000000E+00  0.00000000E+00
  0.00000000E+00  0.00000000E+00  0.00000000E+00
  0.00000000E+00  0.00000000E+00  0.00000000E+00
  0.00000000E+00  0.00000000E+00  0.00000000E+00
  0.00000000E+00  0.00000000E+00  0.00000000E+00
  0.00000000E+00  0.00000000E+00  0.00000000E+00
  0.00000000E+00  0.00000000E+00  0.00000000E+00
  0.00000000E+00  0.00000000E+00  0.00000000E+00
  0.00000000E+00  0.00000000E+00  0.00000000E+00
  0.00000000E+00  0.00000000E+00  0.00000000E+00
  0.00000000E+00  0.00000000E+00  0.00000000E+00
  0.00000000E+00  0.00000000E+00  0.00000000E+00
  0.00000000E+00  0.00000000E+00  0.00000000E+00
  0.00000000E+00  0.00000000E+00  0.00000000E+00
  0.00000000E+00  0.00000000E+00  0.00000000E+00
  0.00000000E+00  0.00000000E+00  0.00000000E+00
  0.00000000E+00  0.00000000E+00  0.00000000E+00
  0.00000000E+00  0.00000000E+00  0.00000000E+00
  0.00000000E+00  0.00000000E+00  0.00000000E+00
  0.00000000E+00  0.00000000E+00  0.00000000E+00
  0.00000000E+00  0.00000000E+00  0.00000000E+00
  0.00000000E+00  0.00000000E+00  0.00000000E+00
  0.00000000E+00  0.00000000E+00  0.00000000E+00
  0.00000000E+00  0.00000000E+00  0.00000000E+00
  0.00000000E+00  0.00000000E+00  0.00000000E+00
  0.00000000E+00  0.00000000E+00  0.00000000E+00
  0.00000000E+00  0.00000000E+00  0.00000000E+00
  0.00000000E+00  0.00000000E+00  0.00000000E+00
  0.00000000E+00  0.00000000E+00  0.00000000E+00
  0.00000000E+00  0.00000000E+00  0.00000000E+00
  0.00000000E+00  0.00000000E+00  0.00000000E+00
  0.00000000E+00  0.00000000E+00  0.00000000E+00
  0.00000000E+00  0.00000000E+00  0.00000000E+00
  0.00000000E+00  0.00000000E+00  0.00000000E+00
  0.00000000E+00  0.00000000E+00  0.00000000E+00
  0.00000000E+00  0.00000000E+00  0.00000000E+00
  0.00000000E+00  0.00000000E+00  0.00000000E+00
  0.00000000E+00  0.00000000E+00  0.00000000E+00
  0.00000000E+00  0.00000000E+00  0.00000000E+00
  0.00000000E+00  0.00000000E+00  0.00000000E+00
  0.00000000E+00  0.00000000E+00  0.00000000E+00
  0.00000000E+00  0.00000000E+00  0.00000000E+00
  0.00000000E+00  0.00000000E+00  0.00000000E+00
  0.00000000E+00  0.00000000E+00  0.00000000E+00
  0.00000000E+00  0.00000000E+00  0.00000000E+00
  0.00000000E+00  0.00000000E+00  0.00000000E+00
  0.00000000E+00  0.00000000E+00  0.00000000E+00
  0.00000000E+00  0.00000000E+00  0.00000000E+00
  0.00000000E+00  0.00000000E+00  0.00000000E+00
  0.00000000E+00  0.00000000E+00  0.00000000E+00
  0.00000000E+00  0.00000000E+00  0.00000000E+00
  0.00000000E+00  0.00000000E+00  0.00000000E+00
  0.00000000E+00  0.00000000E+00  0.00000000E+00
  0.00000000E+00  0.00000000E+00  0.00000000E+00
  0.00000000E+00  0.00000000E+00  0.00000000E+00
  0.00000000E+00  0.00000000E+00  0.00000000E+00
  0.00000000E+00  0.00000000E+00  0.00000000E+00
  0.00000000E+00  0.00000000E+00  0.00000000E+00
  0.00000000E+00  0.00000000E+00  0.00000000E+00
  0.00000000E+00  0.00000000E+00  0.00000000E+00
  0.00000000E+00  0.00000000E+00  0.00000000E+00
  0.00000000E+00  0.00000000E+00  0.00000000E+00
  0.00000000E+00  0.00000000E+00  0.00000000E+00
  0.00000000E+00  0.00000000E+00  0.00000000E+00
  0.00000000E+00  0.00000000E+00  0.00000000E+00
  0.00000000E+00  0.00000000E+00  0.00000000E+00
  0.00000000E+00  0.00000000E+00  0.00000000E+00
  0.00000000E+00  0.00000000E+00  0.00000000E+00
  0.00000000E+00  0.00000000E+00  0.00000000E+00
  0.00000000E+00  0.00000000E+00  0.00000000E+00
  0.00000000E+00  0.00000000E+00  0.00000000E+00
  0.00000000E+00  0.00000000E+00  0.00000000E+00
  0.00000000E+00  0.00000000E+00  0.00000000E+00
  0.00000000E+00  0.00000000E+00  0.00000000E+00
  0.00000000E+00  0.00000000E+00  0.00000000E+00
  0.00000000E+00  0.00000000E+00  0.00000000E+00
  0.00000000E+00  0.00000000E+00  0.00000000E+00
  0.00000000E+00  0.00000000E+00  0.00000000E+00
  0.00000000E+00  0.00000000E+00  0.00000000E+00
  0.00000000E+00  0.00000000E+00  0.00000000E+00
  0.00000000E+00  0.00000000E+00  0.00000000E+00
  0.00000000E+00  0.00000000E+00  0.00000000E+00
  0.00000000E+00  0.00000000E+00  0.00000000E+00
  0.00000000E+00  0.00000000E+00  0.00000000E+00
  0.00000000E+00  0.00000000E+00  0.00000000E+00
  0.00000000E+00  0.00000000E+00  0.00000000E+00
  0.00000000E+00  0.00000000E+00  0.00000000E+00
  0.00000000E+00  0.00000000E+00  0.00000000E+00
  0.00000000E+00  0.00000000E+00  0.00000000E+00
  0.00000000E+00  0.00000000E+00  0.00000000E+00
  0.00000000E+00  0.00000000E+00  0.00000000E+00
  0.00000000E+00  0.00000000E+00  0.00000000E+00
  0.00000000E+00  0.00000000E+00  0.00000000E+00
  0.00000000E+00  0.00000000E+00  0.00000000E+00
  0.00000000E+00  0.00000000E+00  0.00000000E+00
  0.00000000E+00  0.00000000E+00  0.00000000E+00
  0.00000000E+00  0.00000000E+00  0.00000000E+00
  0.00000000E+00  0.00000000E+00  0.00000000E+00
  0.00000000E+00  0.00000000E+00  0.00000000E+00
  0.00000000E+00  0.00000000E+00  0.00000000E+00
  0.00000000E+00  0.00000000E+00  0.00000000E+00
  0.00000000E+00  0.00000000E+00  0.00000000E+00
  0.00000000E+00  0.00000000E+00  0.00000000E+00
  0.00000000E+00  0.00000000E+00  0.00000000E+00
  0.00000000E+00  0.00000000E+00  0.00000000E+00
  0.00000000E+00  0.00000000E+00  0.00000000E+00
  0.00000000E+00  0.00000000E+00  0.00000000E+00
  0.00000000E+00  0.00000000E+00  0.00000000E+00
  0.00000000E+00  0.00000000E+00  0.00000000E+00
  0.00000000E+00  0.00000000E+00  0.00000000E+00
  0.00000000E+00  0.00000000E+00  0.00000000E+00
  0.00000000E+00  0.00000000E+00  0.00000000E+00
  0.00000000E+00  0.00000000E+00  0.00000000E+00
  0.00000000E+00  0.00000000E+00  0.00000000E+00
  0.00000000E+00  0.00000000E+00  0.00000000E+00
  0.00000000E+00  0.00000000E+00  0.00000000E+00
  0.00000000E+00  0.00000000E+00  0.00000000E+00
  0.00000000E+00  0.00000000E+00  0.00000000E+00
  0.00000000E+00  0.00000000E+00  0.00000000E+00
  0.00000000E+00  0.00000000E+00  0.00000000E+00
  0.00000000E+00  0.00000000E+00  0.00000000E+00
  0.00000000E+00  0.00000000E+00  0.00000000E+00
  0.00000000E+00  0.00000000E+00  0.00000000E+00
  0.00000000E+00  0.00000000E+00  0.00000000E+00
  0.00000000E+00  0.00000000E+00  0.00000000E+00
  0.00000000E+00  0.00000000E+00  0.00000000E+00
  0.00000000E+00  0.00000000E+00  0.00000000E+00
  0.00000000E+00  0.00000000E+00  0.00000000E+00
  0.00000000E+00  0.00000000E+00  0.00000000E+00
  0.00000000E+00  0.00000000E+00  0.00000000E+00
  0.00000000E+00  0.00000000E+00  0.00000000E+00
  0.00000000E+00  0.00000000E+00  0.00000000E+00
  0.00000000E+00  0.00000000E+00  0.00000000E+00
  0.00000000E+00  0.00000000E+00  0.00000000E+00
  0.00000000E+00  0.00000000E+00  0.00000000E+00
  0.00000000E+00  0.00000000E+00  0.00000000E+00
  0.00000000E+00  0.00000000E+00  0.00000000E+00
  0.00000000E+00  0.00000000E+00  0.00000000E+00
  0.00000000E+00  0.00000000E+00  0.00000000E+00
  0.00000000E+00  0.00000000E+00  0.00000000E+00
  0.00000000E+00  0.00000000E+00  0.00000000E+00
  0.00000000E+00  0.00000000E+00  0.00000000E+00
  0.00000000E+00  0.00000000E+00  0.00000000E+00
  0.00000000E+00  0.00000000E+00  0.00000000E+00
  0.00000000E+00  0.00000000E+00  0.00000000E+00
  0.00000000E+00  0.00000000E+00  0.00000000E+00
  0.00000000E+00  0.00000000E+00  0.00000000E+00
  0.00000000E+00  0.00000000E+00  0.00000000E+00
  0.00000000E+00  0.00000000E+00  0.00000000E+00
  0.00000000E+00  0.00000000E+00  0.00000000E+00
  0.00000000E+00  0.00000000E+00  0.00000000E+00
  0.00000000E+00  0.00000000E+00  0.00000000E+00
  0.00000000E+00  0.00000000E+00  0.00000000E+00
  0.00000000E+00  0.00000000E+00  0.00000000E+00
  0.00000000E+00  0.00000000E+00  0.00000000E+00
  0.00000000E+00  0.00000000E+00  0.00000000E+00
  0.00000000E+00  0.00000000E+00  0.00000000E+00
  0.00000000E+00  0.00000000E+00  0.00000000E+00
