supercell of POSCAR                     
   1.03228000000000     
     6.3970863126299999    5.5387332920799999    4.9397337979799998
   -15.9736979067999982   -5.5365852353599996    9.8547656895600007
     6.4026568282999996  -11.0930079636999999    0.0094448205590600
   Sc   Al   N 
    31    64    96
Direct
  0.3684427796332699  0.0688646770562471  0.3102039062864677
  0.8355689647268463  0.3105187372478895  0.4350065749473870
  0.0213573119039054  0.2296521687248045  0.3046341559548864
  0.1906849491191807  0.1483678589493707  0.4385376293580023
  0.0187641156170457  0.2299255474666424  0.0657023408900983
  0.0415544589645549  0.4644786515792418  0.3706360794041501
  0.2318841894732557  0.3917837362111669  0.0044556068443100
  0.3680096804286705  0.0687528906103267  0.8095363025291036
  0.8351403528618278  0.3104422384254519  0.9341490342398302
  0.0220168193444863  0.2310788959493379  0.8044682366236842
  0.1916787337566603  0.1478888975135249  0.9384121445874598
  0.0211178710911284  0.2322600812908888  0.5673786867909030
  0.0418519803853314  0.4644942336455884  0.8695537977037517
  0.2323564910997433  0.3921244590809039  0.5041041654967060
  0.6895857073945351  0.1286845701419850  0.6187111134747383
  0.3720081217164548  0.5704800391784843  0.3106991089270608
  0.8326578422979409  0.8086329747781065  0.4338283707618231
  0.0237529894830857  0.7318386955133036  0.3048042752649920
  0.1911699913378300  0.6489404183046048  0.4380762470524218
  0.0200772152803097  0.7306083618660040  0.0673924799455534
  0.0388280657497049  0.9633027338681117  0.3693595863300487
  0.2265646600186670  0.8884771209248399  0.0026763668243674
  0.6910393757414113  0.6291895540799501  0.1191636420875852
  0.3704015013185895  0.5702076709956145  0.8101370248322226
  0.8313670774716044  0.8077868219109590  0.9330533402963823
  0.0212219281604504  0.7301329850717124  0.8032092643952851
  0.1903646788739835  0.6484961062157808  0.9378474474783545
  0.0223562183921047  0.7322794490135323  0.5673723286315919
  0.0412419023678581  0.9638922081543413  0.8707012319089884
  0.2314964833787130  0.8925541698959876  0.5044797260289258
  0.6911560900395841  0.6293365562287931  0.6184891323568920
  0.3672039322005389  0.0694239272791890  0.0642726245865219
  0.5355750311262710  0.4852599301113258  0.4350705242827715
  0.5372725312351534  0.4861885542327329  0.1925015074627581
  0.6900861118297996  0.4080549605826249  0.3118724546179834
  0.6867940477665044  0.4033452430923390  0.0636004702223190
  0.8471367891264947  0.3248902925419372  0.1839416151967939
  0.1990036186380735  0.1486272639974118  0.1851327814715731
  0.0492693734280678  0.4709670398422503  0.1214891404074194
  0.2309054354213842  0.3870466677449258  0.2481791542158689
  0.3965359078873263  0.3070418660647647  0.1286979821019898
  0.5591422593460962  0.2303104665311224  0.2518866893731868
  0.3950536210938296  0.3076180772876640  0.3743914193781066
  0.5522670428344085  0.2280413269488193  0.0015754012232421
  0.8910251871573962  0.0516641726508524  0.2447330701298682
  0.7260992012191565  0.1386484475257816  0.3760840987530827
  0.8882760802824876  0.0504132957800252  0.0037849630231008
  0.3567863565022265  0.0711512542681589  0.5641764253277515
  0.5356138292187964  0.4854361775720477  0.9348043863210904
  0.5379889961097959  0.4863185254746440  0.6923947182504264
  0.6910908378060938  0.4072794859611122  0.8110881671398573
  0.6883135469486987  0.4026710969588478  0.5644473869427316
  0.8542925561898898  0.3221660627586331  0.6840143298787140
  0.1950659044842808  0.1491165348225536  0.6856767564691921
  0.0501365639802529  0.4709703505880398  0.6233109339432019
  0.2314722107392129  0.3887884694516330  0.7486202264104023
  0.3963310454454501  0.3075199003466764  0.6290673242639429
  0.5557610163861071  0.2297348887228807  0.7471956446940453
  0.3943508500987249  0.3079940426438696  0.8732087740569696
  0.5508954253887239  0.2276128705210922  0.5056832821273218
  0.8851193034138660  0.0524127319811214  0.7477264362168015
  0.7256281179527164  0.1387202411060429  0.8750132282085019
  0.8827133884170166  0.0517102609318201  0.5008424224536938
  0.3576599691507596  0.5710833854704589  0.0642188268930823
  0.5342966312985808  0.9846978296135660  0.4337348221663788
  0.5354634669121978  0.9853072313684734  0.1888197481101770
  0.6891803648355292  0.9068414384920942  0.3102277650815566
  0.6873335365126181  0.9013994742004172  0.0637579369192309
  0.8544192048094814  0.8220287289206425  0.1836558702328617
  0.1963707073261531  0.6492894517708550  0.1860585700073614
  0.0523912936406745  0.9699101858783976  0.1222841736535898
  0.2315429536450253  0.8881224072038023  0.2483574185568216
  0.3959032892491123  0.8067230859207442  0.1287742279796404
  0.5569950323763919  0.7298559961308655  0.2477965760686871
  0.3953334066133323  0.8081389862884691  0.3741832173058341
  0.5502645131538983  0.7269396351434807  0.0051313838965470
  0.8859143585486891  0.5525317983592331  0.2473909355284007
  0.7294166466062322  0.6366767950597065  0.3754312880833055
  0.8838532294189463  0.5512091048770671  0.0006480280553802
  0.3578423906878285  0.5713245779298362  0.5639440204294743
  0.5325079096678422  0.9838542462594546  0.9369206049549064
  0.5363574167760063  0.9856659051091015  0.6931849188222046
  0.6895983819676275  0.9066245018685777  0.8116022968769840
  0.6878481882088607  0.9026860887388750  0.5642868426366903
  0.8543082563199320  0.8224008815672121  0.6838765930467190
  0.1962645452676313  0.6492132214107329  0.6853858920806033
  0.0487075414826421  0.9706214731943206  0.6227827842510081
  0.2307067738927984  0.8881503047543617  0.7486553079496687
  0.3966248172735760  0.8075332508182740  0.6290726049342226
  0.5561700209119422  0.7295042022704337  0.7471217773077825
  0.3943431514455753  0.8072624623764710  0.8735632671161468
  0.5512178068638605  0.7277843883308819  0.5053654326635098
  0.8857255760005458  0.5520279869222762  0.7469244646376509
  0.7286506764292966  0.6363406298340450  0.8750996956526507
  0.8841048179074065  0.5515493936804319  0.5010651551678862
  0.5795522926735259  0.1805550882387621  0.3671012261310338
  0.5232418064572428  0.1740440495923536  0.1101711308315032
  0.7222761633454624  0.0794357314259386  0.4753067092108481
  0.7283688083049924  0.0759153196297220  0.2519103139156158
  0.8747455649098015  0.0032032133760609  0.3591420572932051
  0.0459537555858986  0.4134886338542429  0.4939599412415348
  0.8792263605515771  0.4952252513321227  0.1104238626194629
  0.0584913435526815  0.4104993937977639  0.2227134568115829
  0.2338990866067192  0.3338277298892081  0.3549972602714959
  0.3939382383819492  0.2571493018704629  0.4875348272972815
  0.2350431276923786  0.3311310613279304  0.1197340113789807
  0.3872668950211775  0.2484745236703247  0.2364313995013205
  0.2437343106824130  0.0650444910780763  0.1622058240129363
  0.2547160726696376  0.0625903317864882  0.4280477757229590
  0.4251080687203128  0.4793778581830637  0.2975477185731776
  0.4431410596617411  0.9960233281799020  0.0556357531979117
  0.5813841353158651  0.4035233798038789  0.1737324836085534
  0.7425190868331981  0.3279662858838961  0.2901269532305406
  0.5845368123465207  0.4024566154078073  0.4241309837729474
  0.7312947111074735  0.3218465910633270  0.0567751539957797
  0.9053397913123362  0.2500486082184210  0.1767207847719092
  0.0817201387474498  0.1410676822812249  0.2842645767876135
  0.9114579207659190  0.2292421122332655  0.4206830321849111
  0.0756352652511580  0.1415964483269505  0.0568739639946756
  0.5788463477583221  0.1804886030962152  0.8662442754027708
  0.5292253229429420  0.1709347234008831  0.6101482892729422
  0.7251285814959019  0.0746592960148007  0.9674088274502353
  0.7251697516317108  0.0803129468849377  0.7462690282831943
  0.8756628041658274  0.0027729765127802  0.8614170165953254
  0.0457870411963768  0.4132816010109011  0.9935147130579054
  0.8794604749261197  0.4951954572746899  0.6100179003800577
  0.0593927716780271  0.4112545442561100  0.7232678283504370
  0.2347251705059321  0.3353488724428217  0.8552985610862862
  0.3937974802521396  0.2569722834578130  0.9873162435012333
  0.2369980634175022  0.3330589909132584  0.6204503903482390
  0.3856492088598102  0.2490087200023225  0.7369365997694146
  0.2386295884919534  0.0654549596187621  0.6635020086636132
  0.2593252036613976  0.0630980604120808  0.9299897502812016
  0.4270187607150433  0.4805652007020456  0.7977833822330851
  0.4479174879023802  0.0009749610316803  0.5582138824765011
  0.5821775104148230  0.4036071491918136  0.6737731427831406
  0.7435257047869470  0.3269607892984681  0.7884993138181358
  0.5846735536648779  0.4026796853673247  0.9236548132362472
  0.7330211932649249  0.3209614387398929  0.5583437535455360
  0.8887820185799384  0.2375168168816515  0.6714353985702388
  0.0789574004524454  0.1413356436162942  0.7859217756563766
  0.9110327785592105  0.2291971811796145  0.9211622086623592
  0.0734057250788354  0.1423056863094487  0.5562276533960073
  0.5817016042081207  0.6811890638295068  0.3670767108210242
  0.5293175695315426  0.6708668661160786  0.1106137461671466
  0.7237122628328407  0.5789973619449214  0.4765574221087476
  0.7259163639358874  0.5798565449943283  0.2446570601312459
  0.8769205494559813  0.5026253347023228  0.3603316516267725
  0.0438008887018171  0.9129542178785144  0.4936304371073419
  0.8810420351849402  0.9940865205156229  0.1100257656128818
  0.0607791001628541  0.9116725654295266  0.2238022501398476
  0.2365339782119520  0.8362195629940956  0.3562125145785444
  0.3945343104106556  0.7577461981140630  0.4876452180278363
  0.2357606505405556  0.8315398918601744  0.1208473348326109
  0.3867893562225930  0.7490905275397708  0.2375816093665151
  0.2393862794456325  0.5649831221347128  0.1643435307535981
  0.2566335102672284  0.5632005901197132  0.4274039485137209
  0.4267816121161232  0.9801526201667627  0.2964307183136796
  0.4468784139347122  0.5002489819232494  0.0578324261976135
  0.5814979494833210  0.9030472426478866  0.1729119645050972
  0.7451302909783735  0.8278576165309559  0.2888027179178110
  0.5858515457589775  0.9029739877504284  0.4238990649958083
  0.7326971870519685  0.8203006926551524  0.0582592147655632
  0.8897527563748753  0.7379653483181627  0.1720468808975681
  0.0792334080049599  0.6416821196004960  0.2851725726952665
  0.9129138045784586  0.7289001572193285  0.4211280381963860
  0.0748017376266503  0.6414884134953311  0.0563764375950768
  0.5811691887952790  0.6807977835898598  0.8666431717507734
  0.5295351435665623  0.6710536143155608  0.6098243566304831
  0.7243920865905906  0.5793356318085259  0.9771154468323644
  0.7269248411153342  0.5802879075425125  0.7443028793704300
  0.8766790454292490  0.5024680084342208  0.8601933567921662
  0.0432578388287013  0.9117039700168021  0.9927760929614919
  0.8786260876918774  0.9958279804031847  0.6104459816163512
  0.0599978612146899  0.9120265044796341  0.7241054808392491
  0.2341268771980367  0.8342982582695626  0.8542817955510102
  0.3938199295030813  0.7570112212533786  0.9873411955378657
  0.2378179122851947  0.8334769167446865  0.6205039402642782
  0.3864148920363562  0.7490377314095653  0.7368508870824257
  0.2398868582246578  0.5654607426084084  0.6634230271876973
  0.2571186734464348  0.5634925273732421  0.9281971599834762
  0.4261699893423980  0.9799886179161845  0.7987781024907576
  0.4471086249831941  0.5004059203806435  0.5575512218084597
  0.5825978299351746  0.9039037009982422  0.6743232000051265
  0.7440118835176506  0.8272693607827080  0.7884569663743690
  0.5848520156532047  0.9019338420899174  0.9242880423525790
  0.7332032797413177  0.8214204832285432  0.5585108116111002
  0.8897249511776337  0.7382338847441119  0.6709574462451471
  0.0792485013700315  0.6409895791238895  0.7846490594386353
  0.9131523424803802  0.7286826754164153  0.9211085249735689
  0.0747032788081654  0.6422352126944020  0.5560887034035815
 
  0.00000000E+00  0.00000000E+00  0.00000000E+00
  0.00000000E+00  0.00000000E+00  0.00000000E+00
  0.00000000E+00  0.00000000E+00  0.00000000E+00
  0.00000000E+00  0.00000000E+00  0.00000000E+00
  0.00000000E+00  0.00000000E+00  0.00000000E+00
  0.00000000E+00  0.00000000E+00  0.00000000E+00
  0.00000000E+00  0.00000000E+00  0.00000000E+00
  0.00000000E+00  0.00000000E+00  0.00000000E+00
  0.00000000E+00  0.00000000E+00  0.00000000E+00
  0.00000000E+00  0.00000000E+00  0.00000000E+00
  0.00000000E+00  0.00000000E+00  0.00000000E+00
  0.00000000E+00  0.00000000E+00  0.00000000E+00
  0.00000000E+00  0.00000000E+00  0.00000000E+00
  0.00000000E+00  0.00000000E+00  0.00000000E+00
  0.00000000E+00  0.00000000E+00  0.00000000E+00
  0.00000000E+00  0.00000000E+00  0.00000000E+00
  0.00000000E+00  0.00000000E+00  0.00000000E+00
  0.00000000E+00  0.00000000E+00  0.00000000E+00
  0.00000000E+00  0.00000000E+00  0.00000000E+00
  0.00000000E+00  0.00000000E+00  0.00000000E+00
  0.00000000E+00  0.00000000E+00  0.00000000E+00
  0.00000000E+00  0.00000000E+00  0.00000000E+00
  0.00000000E+00  0.00000000E+00  0.00000000E+00
  0.00000000E+00  0.00000000E+00  0.00000000E+00
  0.00000000E+00  0.00000000E+00  0.00000000E+00
  0.00000000E+00  0.00000000E+00  0.00000000E+00
  0.00000000E+00  0.00000000E+00  0.00000000E+00
  0.00000000E+00  0.00000000E+00  0.00000000E+00
  0.00000000E+00  0.00000000E+00  0.00000000E+00
  0.00000000E+00  0.00000000E+00  0.00000000E+00
  0.00000000E+00  0.00000000E+00  0.00000000E+00
  0.00000000E+00  0.00000000E+00  0.00000000E+00
  0.00000000E+00  0.00000000E+00  0.00000000E+00
  0.00000000E+00  0.00000000E+00  0.00000000E+00
  0.00000000E+00  0.00000000E+00  0.00000000E+00
  0.00000000E+00  0.00000000E+00  0.00000000E+00
  0.00000000E+00  0.00000000E+00  0.00000000E+00
  0.00000000E+00  0.00000000E+00  0.00000000E+00
  0.00000000E+00  0.00000000E+00  0.00000000E+00
  0.00000000E+00  0.00000000E+00  0.00000000E+00
  0.00000000E+00  0.00000000E+00  0.00000000E+00
  0.00000000E+00  0.00000000E+00  0.00000000E+00
  0.00000000E+00  0.00000000E+00  0.00000000E+00
  0.00000000E+00  0.00000000E+00  0.00000000E+00
  0.00000000E+00  0.00000000E+00  0.00000000E+00
  0.00000000E+00  0.00000000E+00  0.00000000E+00
  0.00000000E+00  0.00000000E+00  0.00000000E+00
  0.00000000E+00  0.00000000E+00  0.00000000E+00
  0.00000000E+00  0.00000000E+00  0.00000000E+00
  0.00000000E+00  0.00000000E+00  0.00000000E+00
  0.00000000E+00  0.00000000E+00  0.00000000E+00
  0.00000000E+00  0.00000000E+00  0.00000000E+00
  0.00000000E+00  0.00000000E+00  0.00000000E+00
  0.00000000E+00  0.00000000E+00  0.00000000E+00
  0.00000000E+00  0.00000000E+00  0.00000000E+00
  0.00000000E+00  0.00000000E+00  0.00000000E+00
  0.00000000E+00  0.00000000E+00  0.00000000E+00
  0.00000000E+00  0.00000000E+00  0.00000000E+00
  0.00000000E+00  0.00000000E+00  0.00000000E+00
  0.00000000E+00  0.00000000E+00  0.00000000E+00
  0.00000000E+00  0.00000000E+00  0.00000000E+00
  0.00000000E+00  0.00000000E+00  0.00000000E+00
  0.00000000E+00  0.00000000E+00  0.00000000E+00
  0.00000000E+00  0.00000000E+00  0.00000000E+00
  0.00000000E+00  0.00000000E+00  0.00000000E+00
  0.00000000E+00  0.00000000E+00  0.00000000E+00
  0.00000000E+00  0.00000000E+00  0.00000000E+00
  0.00000000E+00  0.00000000E+00  0.00000000E+00
  0.00000000E+00  0.00000000E+00  0.00000000E+00
  0.00000000E+00  0.00000000E+00  0.00000000E+00
  0.00000000E+00  0.00000000E+00  0.00000000E+00
  0.00000000E+00  0.00000000E+00  0.00000000E+00
  0.00000000E+00  0.00000000E+00  0.00000000E+00
  0.00000000E+00  0.00000000E+00  0.00000000E+00
  0.00000000E+00  0.00000000E+00  0.00000000E+00
  0.00000000E+00  0.00000000E+00  0.00000000E+00
  0.00000000E+00  0.00000000E+00  0.00000000E+00
  0.00000000E+00  0.00000000E+00  0.00000000E+00
  0.00000000E+00  0.00000000E+00  0.00000000E+00
  0.00000000E+00  0.00000000E+00  0.00000000E+00
  0.00000000E+00  0.00000000E+00  0.00000000E+00
  0.00000000E+00  0.00000000E+00  0.00000000E+00
  0.00000000E+00  0.00000000E+00  0.00000000E+00
  0.00000000E+00  0.00000000E+00  0.00000000E+00
  0.00000000E+00  0.00000000E+00  0.00000000E+00
  0.00000000E+00  0.00000000E+00  0.00000000E+00
  0.00000000E+00  0.00000000E+00  0.00000000E+00
  0.00000000E+00  0.00000000E+00  0.00000000E+00
  0.00000000E+00  0.00000000E+00  0.00000000E+00
  0.00000000E+00  0.00000000E+00  0.00000000E+00
  0.00000000E+00  0.00000000E+00  0.00000000E+00
  0.00000000E+00  0.00000000E+00  0.00000000E+00
  0.00000000E+00  0.00000000E+00  0.00000000E+00
  0.00000000E+00  0.00000000E+00  0.00000000E+00
  0.00000000E+00  0.00000000E+00  0.00000000E+00
  0.00000000E+00  0.00000000E+00  0.00000000E+00
  0.00000000E+00  0.00000000E+00  0.00000000E+00
  0.00000000E+00  0.00000000E+00  0.00000000E+00
  0.00000000E+00  0.00000000E+00  0.00000000E+00
  0.00000000E+00  0.00000000E+00  0.00000000E+00
  0.00000000E+00  0.00000000E+00  0.00000000E+00
  0.00000000E+00  0.00000000E+00  0.00000000E+00
  0.00000000E+00  0.00000000E+00  0.00000000E+00
  0.00000000E+00  0.00000000E+00  0.00000000E+00
  0.00000000E+00  0.00000000E+00  0.00000000E+00
  0.00000000E+00  0.00000000E+00  0.00000000E+00
  0.00000000E+00  0.00000000E+00  0.00000000E+00
  0.00000000E+00  0.00000000E+00  0.00000000E+00
  0.00000000E+00  0.00000000E+00  0.00000000E+00
  0.00000000E+00  0.00000000E+00  0.00000000E+00
  0.00000000E+00  0.00000000E+00  0.00000000E+00
  0.00000000E+00  0.00000000E+00  0.00000000E+00
  0.00000000E+00  0.00000000E+00  0.00000000E+00
  0.00000000E+00  0.00000000E+00  0.00000000E+00
  0.00000000E+00  0.00000000E+00  0.00000000E+00
  0.00000000E+00  0.00000000E+00  0.00000000E+00
  0.00000000E+00  0.00000000E+00  0.00000000E+00
  0.00000000E+00  0.00000000E+00  0.00000000E+00
  0.00000000E+00  0.00000000E+00  0.00000000E+00
  0.00000000E+00  0.00000000E+00  0.00000000E+00
  0.00000000E+00  0.00000000E+00  0.00000000E+00
  0.00000000E+00  0.00000000E+00  0.00000000E+00
  0.00000000E+00  0.00000000E+00  0.00000000E+00
  0.00000000E+00  0.00000000E+00  0.00000000E+00
  0.00000000E+00  0.00000000E+00  0.00000000E+00
  0.00000000E+00  0.00000000E+00  0.00000000E+00
  0.00000000E+00  0.00000000E+00  0.00000000E+00
  0.00000000E+00  0.00000000E+00  0.00000000E+00
  0.00000000E+00  0.00000000E+00  0.00000000E+00
  0.00000000E+00  0.00000000E+00  0.00000000E+00
  0.00000000E+00  0.00000000E+00  0.00000000E+00
  0.00000000E+00  0.00000000E+00  0.00000000E+00
  0.00000000E+00  0.00000000E+00  0.00000000E+00
  0.00000000E+00  0.00000000E+00  0.00000000E+00
  0.00000000E+00  0.00000000E+00  0.00000000E+00
  0.00000000E+00  0.00000000E+00  0.00000000E+00
  0.00000000E+00  0.00000000E+00  0.00000000E+00
  0.00000000E+00  0.00000000E+00  0.00000000E+00
  0.00000000E+00  0.00000000E+00  0.00000000E+00
  0.00000000E+00  0.00000000E+00  0.00000000E+00
  0.00000000E+00  0.00000000E+00  0.00000000E+00
  0.00000000E+00  0.00000000E+00  0.00000000E+00
  0.00000000E+00  0.00000000E+00  0.00000000E+00
  0.00000000E+00  0.00000000E+00  0.00000000E+00
  0.00000000E+00  0.00000000E+00  0.00000000E+00
  0.00000000E+00  0.00000000E+00  0.00000000E+00
  0.00000000E+00  0.00000000E+00  0.00000000E+00
  0.00000000E+00  0.00000000E+00  0.00000000E+00
  0.00000000E+00  0.00000000E+00  0.00000000E+00
  0.00000000E+00  0.00000000E+00  0.00000000E+00
  0.00000000E+00  0.00000000E+00  0.00000000E+00
  0.00000000E+00  0.00000000E+00  0.00000000E+00
  0.00000000E+00  0.00000000E+00  0.00000000E+00
  0.00000000E+00  0.00000000E+00  0.00000000E+00
  0.00000000E+00  0.00000000E+00  0.00000000E+00
  0.00000000E+00  0.00000000E+00  0.00000000E+00
  0.00000000E+00  0.00000000E+00  0.00000000E+00
  0.00000000E+00  0.00000000E+00  0.00000000E+00
  0.00000000E+00  0.00000000E+00  0.00000000E+00
  0.00000000E+00  0.00000000E+00  0.00000000E+00
  0.00000000E+00  0.00000000E+00  0.00000000E+00
  0.00000000E+00  0.00000000E+00  0.00000000E+00
  0.00000000E+00  0.00000000E+00  0.00000000E+00
  0.00000000E+00  0.00000000E+00  0.00000000E+00
  0.00000000E+00  0.00000000E+00  0.00000000E+00
  0.00000000E+00  0.00000000E+00  0.00000000E+00
  0.00000000E+00  0.00000000E+00  0.00000000E+00
  0.00000000E+00  0.00000000E+00  0.00000000E+00
  0.00000000E+00  0.00000000E+00  0.00000000E+00
  0.00000000E+00  0.00000000E+00  0.00000000E+00
  0.00000000E+00  0.00000000E+00  0.00000000E+00
  0.00000000E+00  0.00000000E+00  0.00000000E+00
  0.00000000E+00  0.00000000E+00  0.00000000E+00
  0.00000000E+00  0.00000000E+00  0.00000000E+00
  0.00000000E+00  0.00000000E+00  0.00000000E+00
  0.00000000E+00  0.00000000E+00  0.00000000E+00
  0.00000000E+00  0.00000000E+00  0.00000000E+00
  0.00000000E+00  0.00000000E+00  0.00000000E+00
  0.00000000E+00  0.00000000E+00  0.00000000E+00
  0.00000000E+00  0.00000000E+00  0.00000000E+00
  0.00000000E+00  0.00000000E+00  0.00000000E+00
  0.00000000E+00  0.00000000E+00  0.00000000E+00
  0.00000000E+00  0.00000000E+00  0.00000000E+00
  0.00000000E+00  0.00000000E+00  0.00000000E+00
  0.00000000E+00  0.00000000E+00  0.00000000E+00
  0.00000000E+00  0.00000000E+00  0.00000000E+00
  0.00000000E+00  0.00000000E+00  0.00000000E+00
  0.00000000E+00  0.00000000E+00  0.00000000E+00
  0.00000000E+00  0.00000000E+00  0.00000000E+00
  0.00000000E+00  0.00000000E+00  0.00000000E+00
  0.00000000E+00  0.00000000E+00  0.00000000E+00
