supercell of POSCAR                     
   1.03228000000000     
     6.3970863126299999    5.5387332920799999    4.9397337979799998
   -15.9736979067999982   -5.5365852353599996    9.8547656895600007
     6.4026568282999996  -11.0930079636999999    0.0094448205590600
   Sc   Al   N    O 
    32    64    95     1
Direct
  0.3661926659418171  0.0682828847825334  0.3095183291441046
  0.8349482250950686  0.3098073895727040  0.4336241852503449
  0.0219334706042602  0.2307688267806682  0.3043929238753904
  0.1898439935605438  0.1486050038982896  0.4397802639851491
  0.0211829959046739  0.2325756967405468  0.0670655416445953
  0.0428336709022190  0.4645374921832044  0.3698479610280998
  0.2329877078977702  0.3928706904591124  0.0044953472472855
  0.6905354416724165  0.1291623157880366  0.1185337973594400
  0.3662583236387960  0.0690491551450449  0.8103325912253609
  0.8323382419065979  0.3087339629055492  0.9330272701069688
  0.0220539867977791  0.2318111274647805  0.8044393283542561
  0.1881885965423464  0.1484477067611749  0.9381720324458556
  0.0207929185735836  0.2324756176815299  0.5670607243705419
  0.0427559448411827  0.4644948210451645  0.8702520361569768
  0.2333006332020133  0.3927997575464772  0.5043249025110512
  0.6904474335098314  0.1295429136930082  0.6183905829624905
  0.3721689965578534  0.5705186053393021  0.3104028792898745
  0.8315680567960655  0.8071274659940926  0.4346342595979706
  0.0228150515640166  0.7304564536474913  0.3036059680946863
  0.1914441778821043  0.6486401013018650  0.4379883064713823
  0.0220475535121238  0.7313339241510093  0.0668759375266461
  0.0292147127686206  0.9588196636234727  0.3682912531375280
  0.2306389266621025  0.8917449102682014  0.0041373839290202
  0.6918178449870922  0.6290111985915203  0.1185462643714175
  0.3714543101022514  0.5702093419882672  0.8103992958891979
  0.8324849923731534  0.8082905247757566  0.9336651125791562
  0.0228920854262284  0.7310304994728085  0.8042704182826910
  0.1916138625967605  0.6487483981544457  0.9379034877268637
  0.0214883813540681  0.7308179130104833  0.5678091858413836
  0.0386327725412414  0.9633963252850464  0.8702403352355930
  0.2285999237830865  0.8895784070556942  0.5038244262511498
  0.6914204022697206  0.6290716587081064  0.6188629821994525
  0.3570370901828284  0.0711360227485542  0.0640519541104254
  0.5369211997696510  0.4853890375723182  0.4349569076505944
  0.5388487478359636  0.4862547953902947  0.1925262282555664
  0.6913684441661587  0.4068687117843552  0.3110351501770481
  0.6886851097505229  0.4023236542691819  0.0640123805738853
  0.8538774737626440  0.3219036329886293  0.1836126091811892
  0.1962292219549298  0.1497745322559894  0.1861209489545459
  0.0501731180447038  0.4703156797521189  0.1227179095451802
  0.2315505926218648  0.3886771771642401  0.2485761416517533
  0.3963837869052469  0.3075270490038307  0.1286696497727675
  0.5547346122870636  0.2290631927071090  0.2469514580508374
  0.3944823781096574  0.3079996172488322  0.3733977001598134
  0.5493118573669378  0.2270037484089613  0.0045077918102265
  0.8849440985137562  0.0520273416716677  0.2472373693177659
  0.7261499298166072  0.1355786581114771  0.3749356947084124
  0.8825533794677938  0.0514858188891907  0.0010816263968891
  0.3572741806892026  0.0694799058507840  0.5673928363927914
  0.5368356992578711  0.4851850185686715  0.9348393733191855
  0.5386939734338512  0.4862603274560087  0.6924537705367086
  0.6912368827204531  0.4068144777465008  0.8108657467870870
  0.6890115465502475  0.4028985624949613  0.5641237029668105
  0.8544982648995614  0.3225631518935117  0.6837370038079413
  0.1948135826570763  0.1496206880111828  0.6859232564757320
  0.0505835200640163  0.4707169247345462  0.6229930473798646
  0.2319146537615424  0.3888477788602884  0.7486372641512915
  0.3961825630123244  0.3075174057396737  0.6292010435961259
  0.5538931711985242  0.2287337455544005  0.7465108125563802
  0.3945861119136396  0.3079378163178887  0.8739527390773887
  0.5517367683951946  0.2283057725073974  0.5047328205189174
  0.8842388873317404  0.0522517869854582  0.7470786573843924
  0.7259262993097266  0.1357832156659313  0.8743836017657500
  0.8819247860881063  0.0511502533885277  0.5015196031978135
  0.3594223279513855  0.5718365598072594  0.0645485248164306
  0.5344180289619089  0.9845617324081815  0.4348642059169947
  0.5369381805711058  0.9860520143090667  0.1917747020269758
  0.6896161788673609  0.9072816390558032  0.3114391913980725
  0.6879395932504764  0.9025642176068231  0.0642543108179012
  0.8547904035629443  0.8218668151207780  0.1829696943287473
  0.1971797126695805  0.6489170763326726  0.1854456079174653
  0.0484714477724211  0.9705234691948021  0.1225944914977148
  0.2308070530765178  0.8877244768141708  0.2482157292508589
  0.3966930943646361  0.8072522503161892  0.1289800713861595
  0.5584909421787074  0.7302657816027605  0.2479340146066349
  0.3950143865562197  0.8075770322829570  0.3738949703058125
  0.5512754047356623  0.7275235354981646  0.0052386091053904
  0.8866822320932783  0.5518455916767735  0.2468829558759396
  0.7304090640606660  0.6363629561932669  0.3753493849885388
  0.8846505816070618  0.5509371661267295  0.0006616377273545
  0.3588187405629952  0.5716336611117541  0.5643676615019046
  0.5344834336949589  0.9848908012265625  0.9347761997501536
  0.5358637408649614  0.9857252786004054  0.6923651637782555
  0.6907860321899548  0.9074517150077810  0.8115412123063379
  0.6874405810100157  0.9023826822653334  0.5645047789400479
  0.8543752719427928  0.8221624845371878  0.6843190300155300
  0.1968659779618775  0.6490266538135003  0.6857458091367405
  0.0470740043431377  0.9698390828744081  0.6231361914595865
  0.2303811964671993  0.8882177422485213  0.7488124331355124
  0.3964219310790398  0.8070994616526335  0.6295074853000813
  0.5569744877344007  0.7298200545145335  0.7479256046120923
  0.3950695758329488  0.8079898690369305  0.8740900395789311
  0.5510163327229378  0.7275932613803064  0.5058376096664929
  0.8865779682093091  0.5520947035259809  0.7471519886162952
  0.7293859678873531  0.6363261785751035  0.8752153294288334
  0.8847552671365619  0.5509645230805589  0.5007220041854552
  0.5738733891007683  0.1779499340265644  0.3659989454936792
  0.5285429661626182  0.1706772559609320  0.1098331123438498
  0.7220986551810924  0.0785691517690239  0.4769819817632310
  0.7259328584839579  0.0798684515227492  0.2445028400685203
  0.8768656309384042  0.0030921275265854  0.3612226476562697
  0.0455200900798047  0.4128918852815531  0.4935094591864768
  0.8800798843234787  0.4949951544420443  0.1100409337394126
  0.0593087487852912  0.4110844464618566  0.2233325456106954
  0.2345280442923894  0.3351439000767158  0.3552811684162123
  0.3917393465452577  0.2560596722084370  0.4865530662486961
  0.2374465068180456  0.3332781046595699  0.1204027842706239
  0.3855477161603531  0.2490332858203672  0.2369762442944037
  0.2398667768077374  0.0655222543768588  0.1651318096390497
  0.4278201992252235  0.4805551371262524  0.2980146391862775
  0.4460635266227868  0.0003229208648250  0.0579519340206645
  0.5827538360174103  0.4034865845234066  0.1737014210943002
  0.7425760149462448  0.3260913002766443  0.2882618760877662
  0.5854119412191849  0.4023366384465632  0.4239899918602674
  0.7321137672463323  0.3202242280656833  0.0577628784416504
  0.8897325045053321  0.2377248677340660  0.1718282811013054
  0.0808631009032368  0.1406715258567743  0.2875042102178469
  0.9095587902576341  0.2278995103971724  0.4203691780906311
  0.0733252885476716  0.1423570857362009  0.0576124734478327
  0.5772187835688811  0.1794784569734986  0.8651162702543544
  0.5234873128615476  0.1692011758654743  0.6064333435308455
  0.7223216158458996  0.0789029068045863  0.9764510395605370
  0.7239092319039528  0.0796361277943660  0.7431205003220569
  0.8762803462733473  0.0031869989606790  0.8605717787564942
  0.0443110641873972  0.4123339395483967  0.9931618191174962
  0.8801972580592619  0.4951679630572343  0.6102255977936295
  0.0595881785311221  0.4112952450910612  0.7233868942312682
  0.2352886927937305  0.3357198542278823  0.8554206082333380
  0.3926044964074435  0.2569363055332801  0.9870606601035945
  0.2368594625274270  0.3329401329586545  0.6201692428292276
  0.3848146848208600  0.2487298111744849  0.7365269352215620
  0.2365752511749335  0.0649883637153010  0.6618461992387594
  0.2540462099144563  0.0631099681965281  0.9286288657937405
  0.4277867949467620  0.4804699707403870  0.7978200781803437
  0.4424507929425729  0.9994855622212953  0.5557874889574776
  0.5822079155311286  0.4032865200365947  0.6732846178926408
  0.7415762335569340  0.3257797370238293  0.7869958242823643
  0.5856820587981346  0.4022963105788122  0.9237282652335423
  0.7328219065193764  0.3208264624859609  0.5575513058536217
  0.8882457886560786  0.2377694505437447  0.6707885968928835
  0.0776568222583762  0.1416286253150361  0.7846023600586491
  0.9099355168718688  0.2279290061388224  0.9202533535490574
  0.0735609115797544  0.1420616097644185  0.5554439898831021
  0.5837057719552945  0.6819531467406819  0.3673246744007130
  0.5316298858975017  0.6717907792755398  0.1109202673888277
  0.7255558731975214  0.5793715755945215  0.4770785539557778
  0.7281594239591911  0.5803860947420247  0.2445682332006527
  0.8772257520792053  0.5021907375632253  0.3600458600268723
  0.0444750338581557  0.9127286838620918  0.4939507018603138
  0.8793199993846486  0.9955119297661881  0.1108421351067861
  0.0622043968256847  0.9130161909950019  0.2252778950688210
  0.2356286315978835  0.8352943973962539  0.3551056555868328
  0.3946253416468863  0.7576867945887784  0.4877980485901290
  0.2375624579752866  0.8329541288953237  0.1207500903823160
  0.3882557069365120  0.7494679216174731  0.2374939755334395
  0.2407762709515566  0.5651947763615865  0.1637162582960201
  0.2584113439621589  0.5637570464488988  0.4280411235149515
  0.4256934059580431  0.9810281258600853  0.2981018267257909
  0.4490642428098042  0.5011042468439015  0.0580531016620256
  0.5822780883890530  0.9038503911212601  0.1743712138281523
  0.7494652028110025  0.8294788726434774  0.2903556216465546
  0.5850008457157472  0.9026893396813094  0.4240820394632578
  0.7334800870047005  0.8213263000011111  0.0587559582973611
  0.8911502896688575  0.7384274463492062  0.1713049619150198
  0.0803436373158135  0.6412312613655757  0.2847863033879747
  0.9147907290685495  0.7289249647963274  0.4214716606360724
  0.0756200267252325  0.6418588142413668  0.0561639475108677
  0.5819427618058697  0.6811762163178656  0.8672121486638673
  0.5305352859560060  0.6714017042281526  0.6106671432077917
  0.7253579121699971  0.5792207066665256  0.9768768096917029
  0.7274987739204875  0.5801484606848746  0.7445408666540487
  0.8771069621844134  0.5021114731989229  0.8599313564785405
  0.0439478690341772  0.9126552614155798  0.9944145801810436
  0.8785552487486754  0.9953097438562608  0.6102883643695520
  0.0596883002537254  0.9117939936682049  0.7239567758630088
  0.2355222081695700  0.8356293988383428  0.8557736138701060
  0.3949183743917573  0.7577294539376140  0.9878283729411805
  0.2367470906813196  0.8323886597514658  0.6212733299126825
  0.3869062839880328  0.7491741232315121  0.7375597749029907
  0.2405911754690493  0.5653181623741190  0.6637819258290421
  0.2582817637847583  0.5637531271362590  0.9284129590810437
  0.4255240668155835  0.9804686068328650  0.7977339974223838
  0.4486933336817600  0.5009237447248154  0.5578869964145525
  0.5815603103124687  0.9037350610031751  0.6738880723136802
  0.7448188661991182  0.8277689416334866  0.7891196924677359
  0.5854155239960477  0.9028232542704799  0.9243061322676027
  0.7332086239452167  0.8212924928015966  0.5589702984701006
  0.8901466429279523  0.7381801778520511  0.6716035362409514
  0.0798606682519960  0.6414468399596416  0.7849746926614714
  0.9131067614671480  0.7288052330626869  0.9210953801865571
  0.0755295963587912  0.6416047271417398  0.5561615992599371
  0.2520908719635742  0.0602373597043737  0.4310803480320118
 
  0.00000000E+00  0.00000000E+00  0.00000000E+00
  0.00000000E+00  0.00000000E+00  0.00000000E+00
  0.00000000E+00  0.00000000E+00  0.00000000E+00
  0.00000000E+00  0.00000000E+00  0.00000000E+00
  0.00000000E+00  0.00000000E+00  0.00000000E+00
  0.00000000E+00  0.00000000E+00  0.00000000E+00
  0.00000000E+00  0.00000000E+00  0.00000000E+00
  0.00000000E+00  0.00000000E+00  0.00000000E+00
  0.00000000E+00  0.00000000E+00  0.00000000E+00
  0.00000000E+00  0.00000000E+00  0.00000000E+00
  0.00000000E+00  0.00000000E+00  0.00000000E+00
  0.00000000E+00  0.00000000E+00  0.00000000E+00
  0.00000000E+00  0.00000000E+00  0.00000000E+00
  0.00000000E+00  0.00000000E+00  0.00000000E+00
  0.00000000E+00  0.00000000E+00  0.00000000E+00
  0.00000000E+00  0.00000000E+00  0.00000000E+00
  0.00000000E+00  0.00000000E+00  0.00000000E+00
  0.00000000E+00  0.00000000E+00  0.00000000E+00
  0.00000000E+00  0.00000000E+00  0.00000000E+00
  0.00000000E+00  0.00000000E+00  0.00000000E+00
  0.00000000E+00  0.00000000E+00  0.00000000E+00
  0.00000000E+00  0.00000000E+00  0.00000000E+00
  0.00000000E+00  0.00000000E+00  0.00000000E+00
  0.00000000E+00  0.00000000E+00  0.00000000E+00
  0.00000000E+00  0.00000000E+00  0.00000000E+00
  0.00000000E+00  0.00000000E+00  0.00000000E+00
  0.00000000E+00  0.00000000E+00  0.00000000E+00
  0.00000000E+00  0.00000000E+00  0.00000000E+00
  0.00000000E+00  0.00000000E+00  0.00000000E+00
  0.00000000E+00  0.00000000E+00  0.00000000E+00
  0.00000000E+00  0.00000000E+00  0.00000000E+00
  0.00000000E+00  0.00000000E+00  0.00000000E+00
  0.00000000E+00  0.00000000E+00  0.00000000E+00
  0.00000000E+00  0.00000000E+00  0.00000000E+00
  0.00000000E+00  0.00000000E+00  0.00000000E+00
  0.00000000E+00  0.00000000E+00  0.00000000E+00
  0.00000000E+00  0.00000000E+00  0.00000000E+00
  0.00000000E+00  0.00000000E+00  0.00000000E+00
  0.00000000E+00  0.00000000E+00  0.00000000E+00
  0.00000000E+00  0.00000000E+00  0.00000000E+00
  0.00000000E+00  0.00000000E+00  0.00000000E+00
  0.00000000E+00  0.00000000E+00  0.00000000E+00
  0.00000000E+00  0.00000000E+00  0.00000000E+00
  0.00000000E+00  0.00000000E+00  0.00000000E+00
  0.00000000E+00  0.00000000E+00  0.00000000E+00
  0.00000000E+00  0.00000000E+00  0.00000000E+00
  0.00000000E+00  0.00000000E+00  0.00000000E+00
  0.00000000E+00  0.00000000E+00  0.00000000E+00
  0.00000000E+00  0.00000000E+00  0.00000000E+00
  0.00000000E+00  0.00000000E+00  0.00000000E+00
  0.00000000E+00  0.00000000E+00  0.00000000E+00
  0.00000000E+00  0.00000000E+00  0.00000000E+00
  0.00000000E+00  0.00000000E+00  0.00000000E+00
  0.00000000E+00  0.00000000E+00  0.00000000E+00
  0.00000000E+00  0.00000000E+00  0.00000000E+00
  0.00000000E+00  0.00000000E+00  0.00000000E+00
  0.00000000E+00  0.00000000E+00  0.00000000E+00
  0.00000000E+00  0.00000000E+00  0.00000000E+00
  0.00000000E+00  0.00000000E+00  0.00000000E+00
  0.00000000E+00  0.00000000E+00  0.00000000E+00
  0.00000000E+00  0.00000000E+00  0.00000000E+00
  0.00000000E+00  0.00000000E+00  0.00000000E+00
  0.00000000E+00  0.00000000E+00  0.00000000E+00
  0.00000000E+00  0.00000000E+00  0.00000000E+00
  0.00000000E+00  0.00000000E+00  0.00000000E+00
  0.00000000E+00  0.00000000E+00  0.00000000E+00
  0.00000000E+00  0.00000000E+00  0.00000000E+00
  0.00000000E+00  0.00000000E+00  0.00000000E+00
  0.00000000E+00  0.00000000E+00  0.00000000E+00
  0.00000000E+00  0.00000000E+00  0.00000000E+00
  0.00000000E+00  0.00000000E+00  0.00000000E+00
  0.00000000E+00  0.00000000E+00  0.00000000E+00
  0.00000000E+00  0.00000000E+00  0.00000000E+00
  0.00000000E+00  0.00000000E+00  0.00000000E+00
  0.00000000E+00  0.00000000E+00  0.00000000E+00
  0.00000000E+00  0.00000000E+00  0.00000000E+00
  0.00000000E+00  0.00000000E+00  0.00000000E+00
  0.00000000E+00  0.00000000E+00  0.00000000E+00
  0.00000000E+00  0.00000000E+00  0.00000000E+00
  0.00000000E+00  0.00000000E+00  0.00000000E+00
  0.00000000E+00  0.00000000E+00  0.00000000E+00
  0.00000000E+00  0.00000000E+00  0.00000000E+00
  0.00000000E+00  0.00000000E+00  0.00000000E+00
  0.00000000E+00  0.00000000E+00  0.00000000E+00
  0.00000000E+00  0.00000000E+00  0.00000000E+00
  0.00000000E+00  0.00000000E+00  0.00000000E+00
  0.00000000E+00  0.00000000E+00  0.00000000E+00
  0.00000000E+00  0.00000000E+00  0.00000000E+00
  0.00000000E+00  0.00000000E+00  0.00000000E+00
  0.00000000E+00  0.00000000E+00  0.00000000E+00
  0.00000000E+00  0.00000000E+00  0.00000000E+00
  0.00000000E+00  0.00000000E+00  0.00000000E+00
  0.00000000E+00  0.00000000E+00  0.00000000E+00
  0.00000000E+00  0.00000000E+00  0.00000000E+00
  0.00000000E+00  0.00000000E+00  0.00000000E+00
  0.00000000E+00  0.00000000E+00  0.00000000E+00
  0.00000000E+00  0.00000000E+00  0.00000000E+00
  0.00000000E+00  0.00000000E+00  0.00000000E+00
  0.00000000E+00  0.00000000E+00  0.00000000E+00
  0.00000000E+00  0.00000000E+00  0.00000000E+00
  0.00000000E+00  0.00000000E+00  0.00000000E+00
  0.00000000E+00  0.00000000E+00  0.00000000E+00
  0.00000000E+00  0.00000000E+00  0.00000000E+00
  0.00000000E+00  0.00000000E+00  0.00000000E+00
  0.00000000E+00  0.00000000E+00  0.00000000E+00
  0.00000000E+00  0.00000000E+00  0.00000000E+00
  0.00000000E+00  0.00000000E+00  0.00000000E+00
  0.00000000E+00  0.00000000E+00  0.00000000E+00
  0.00000000E+00  0.00000000E+00  0.00000000E+00
  0.00000000E+00  0.00000000E+00  0.00000000E+00
  0.00000000E+00  0.00000000E+00  0.00000000E+00
  0.00000000E+00  0.00000000E+00  0.00000000E+00
  0.00000000E+00  0.00000000E+00  0.00000000E+00
  0.00000000E+00  0.00000000E+00  0.00000000E+00
  0.00000000E+00  0.00000000E+00  0.00000000E+00
  0.00000000E+00  0.00000000E+00  0.00000000E+00
  0.00000000E+00  0.00000000E+00  0.00000000E+00
  0.00000000E+00  0.00000000E+00  0.00000000E+00
  0.00000000E+00  0.00000000E+00  0.00000000E+00
  0.00000000E+00  0.00000000E+00  0.00000000E+00
  0.00000000E+00  0.00000000E+00  0.00000000E+00
  0.00000000E+00  0.00000000E+00  0.00000000E+00
  0.00000000E+00  0.00000000E+00  0.00000000E+00
  0.00000000E+00  0.00000000E+00  0.00000000E+00
  0.00000000E+00  0.00000000E+00  0.00000000E+00
  0.00000000E+00  0.00000000E+00  0.00000000E+00
  0.00000000E+00  0.00000000E+00  0.00000000E+00
  0.00000000E+00  0.00000000E+00  0.00000000E+00
  0.00000000E+00  0.00000000E+00  0.00000000E+00
  0.00000000E+00  0.00000000E+00  0.00000000E+00
  0.00000000E+00  0.00000000E+00  0.00000000E+00
  0.00000000E+00  0.00000000E+00  0.00000000E+00
  0.00000000E+00  0.00000000E+00  0.00000000E+00
  0.00000000E+00  0.00000000E+00  0.00000000E+00
  0.00000000E+00  0.00000000E+00  0.00000000E+00
  0.00000000E+00  0.00000000E+00  0.00000000E+00
  0.00000000E+00  0.00000000E+00  0.00000000E+00
  0.00000000E+00  0.00000000E+00  0.00000000E+00
  0.00000000E+00  0.00000000E+00  0.00000000E+00
  0.00000000E+00  0.00000000E+00  0.00000000E+00
  0.00000000E+00  0.00000000E+00  0.00000000E+00
  0.00000000E+00  0.00000000E+00  0.00000000E+00
  0.00000000E+00  0.00000000E+00  0.00000000E+00
  0.00000000E+00  0.00000000E+00  0.00000000E+00
  0.00000000E+00  0.00000000E+00  0.00000000E+00
  0.00000000E+00  0.00000000E+00  0.00000000E+00
  0.00000000E+00  0.00000000E+00  0.00000000E+00
  0.00000000E+00  0.00000000E+00  0.00000000E+00
  0.00000000E+00  0.00000000E+00  0.00000000E+00
  0.00000000E+00  0.00000000E+00  0.00000000E+00
  0.00000000E+00  0.00000000E+00  0.00000000E+00
  0.00000000E+00  0.00000000E+00  0.00000000E+00
  0.00000000E+00  0.00000000E+00  0.00000000E+00
  0.00000000E+00  0.00000000E+00  0.00000000E+00
  0.00000000E+00  0.00000000E+00  0.00000000E+00
  0.00000000E+00  0.00000000E+00  0.00000000E+00
  0.00000000E+00  0.00000000E+00  0.00000000E+00
  0.00000000E+00  0.00000000E+00  0.00000000E+00
  0.00000000E+00  0.00000000E+00  0.00000000E+00
  0.00000000E+00  0.00000000E+00  0.00000000E+00
  0.00000000E+00  0.00000000E+00  0.00000000E+00
  0.00000000E+00  0.00000000E+00  0.00000000E+00
  0.00000000E+00  0.00000000E+00  0.00000000E+00
  0.00000000E+00  0.00000000E+00  0.00000000E+00
  0.00000000E+00  0.00000000E+00  0.00000000E+00
  0.00000000E+00  0.00000000E+00  0.00000000E+00
  0.00000000E+00  0.00000000E+00  0.00000000E+00
  0.00000000E+00  0.00000000E+00  0.00000000E+00
  0.00000000E+00  0.00000000E+00  0.00000000E+00
  0.00000000E+00  0.00000000E+00  0.00000000E+00
  0.00000000E+00  0.00000000E+00  0.00000000E+00
  0.00000000E+00  0.00000000E+00  0.00000000E+00
  0.00000000E+00  0.00000000E+00  0.00000000E+00
  0.00000000E+00  0.00000000E+00  0.00000000E+00
  0.00000000E+00  0.00000000E+00  0.00000000E+00
  0.00000000E+00  0.00000000E+00  0.00000000E+00
  0.00000000E+00  0.00000000E+00  0.00000000E+00
  0.00000000E+00  0.00000000E+00  0.00000000E+00
  0.00000000E+00  0.00000000E+00  0.00000000E+00
  0.00000000E+00  0.00000000E+00  0.00000000E+00
  0.00000000E+00  0.00000000E+00  0.00000000E+00
  0.00000000E+00  0.00000000E+00  0.00000000E+00
  0.00000000E+00  0.00000000E+00  0.00000000E+00
  0.00000000E+00  0.00000000E+00  0.00000000E+00
  0.00000000E+00  0.00000000E+00  0.00000000E+00
  0.00000000E+00  0.00000000E+00  0.00000000E+00
  0.00000000E+00  0.00000000E+00  0.00000000E+00
  0.00000000E+00  0.00000000E+00  0.00000000E+00
  0.00000000E+00  0.00000000E+00  0.00000000E+00
  0.00000000E+00  0.00000000E+00  0.00000000E+00
  0.00000000E+00  0.00000000E+00  0.00000000E+00
  0.00000000E+00  0.00000000E+00  0.00000000E+00
