supercell of POSCAR                     
   1.03228000000000     
     6.3970863126299999    5.5387332920799999    4.9397337979799998
   -15.9736979067999982   -5.5365852353599996    9.8547656895600007
     6.4026568282999996  -11.0930079636999999    0.0094448205590600
   Sc   Al   N 
    32    64    95
Direct
  0.3682159948546513  0.0691168832429199  0.3100008634111120
  0.8336903072089683  0.3092030690938685  0.4336714010334646
  0.0235850780102140  0.2326807213744004  0.3040287616437993
  0.1900110973304976  0.1486726142404322  0.4377551072481296
  0.0225931910561457  0.2337478401807616  0.0681421543237448
  0.0428254412393656  0.4601888091613944  0.3610583416268582
  0.2317641788455234  0.3931074038599149  0.0076088768256213
  0.6913555267403950  0.1299716537905695  0.1185508823075594
  0.3673955694438931  0.0688644198694419  0.8093127275130172
  0.8295186112104815  0.3070253528286599  0.9331170808016154
  0.0226468369814583  0.2317872478167970  0.8045105903368821
  0.1859873318418721  0.1476895549557113  0.9373997578268032
  0.0220632092394482  0.2325138201403121  0.5668663901085225
  0.0388453023749165  0.4623464512236310  0.8714967809453000
  0.2326801282598510  0.3931538182742997  0.5028256879350224
  0.6910235067275536  0.1287816786257920  0.6186515864744493
  0.3707999404952531  0.5675840193255723  0.3098669683751325
  0.8326121903851771  0.8084307295734305  0.4335582028644396
  0.0213450499863654  0.7304736637325462  0.3037056133294200
  0.1898464758368519  0.6468644655679654  0.4365605572820570
  0.0214437645754373  0.7321583965615943  0.0670766347590899
  0.0399518635200877  0.9637789366819902  0.3699159154508678
  0.2310404788267135  0.8920195110987095  0.0041624325383225
  0.6906628982340877  0.6292483739412162  0.1185053783889956
  0.3682565039920931  0.5694006219558219  0.8103893100142727
  0.8324916651851595  0.8087796948485533  0.9336819813943791
  0.0228163572147153  0.7310717438623513  0.8044110782401717
  0.1901511865075705  0.6479003920469992  0.9378686955347462
  0.0209922284782493  0.7307600908389844  0.5669324042496768
  0.0399448195991354  0.9636981392254711  0.8698149677326157
  0.2301840181320784  0.8912897541026297  0.5038302248584188
  0.6920355677202679  0.6295181969188164  0.6191893410462868
  0.3567607968540827  0.0711690702353494  0.0639623653528147
  0.5438250671632545  0.4862327961319508  0.4384594697412183
  0.5430833443214595  0.4869491515388944  0.1928582272904009
  0.6939572423451139  0.4080358410682905  0.3116808546969168
  0.6852515820654830  0.4029220339112811  0.0621762467908624
  0.8388921553827586  0.3207398583610725  0.1790030822101514
  0.1948810774288674  0.1493248262974376  0.1858319982757521
  0.0384414894908929  0.4702403015350640  0.1234902852532898
  0.2496657845529526  0.3904092022281844  0.2590149583197032
  0.3969574508340017  0.3071950243727528  0.1297927830446071
  0.5542519371186998  0.2280670811212033  0.2477670382758816
  0.4001912561826444  0.3069454876630786  0.3762986550350220
  0.5437418469269488  0.2252474517784364  0.0019858529533465
  0.8851595628408120  0.0524077549949453  0.2470434863065734
  0.7277323877234920  0.1361517444621185  0.3748004121566879
  0.8827491914605829  0.0514607577387167  0.0012455324918008
  0.3569987898506994  0.0709162229744607  0.5639074910594886
  0.5344311042186121  0.4852106978224811  0.9343984318011564
  0.5384243070766814  0.4862983366409850  0.6924316698293183
  0.6905752788844381  0.4070708658265971  0.8111577771943033
  0.6906359851327508  0.4024657799229985  0.5651920435639681
  0.8548180464605366  0.3220991249121354  0.6839425312395306
  0.1950091474439049  0.1491423239253464  0.6851020516645292
  0.0500556647296122  0.4704006396872060  0.6218245987090611
  0.2310379428299782  0.3888696558987235  0.7486131213358078
  0.3966023564537124  0.3075902130228201  0.6289215504032413
  0.5548856560184490  0.2290912850016511  0.7471588498252046
  0.3926178790676360  0.3079296385851293  0.8736446964049094
  0.5515799095956382  0.2266850384682755  0.5057689512918273
  0.8847559070833881  0.0520648268241573  0.7465515117877430
  0.7269193534969318  0.1354675468516433  0.8746912265471423
  0.8831981119712751  0.0512772895643963  0.5005112430280434
  0.3561918244451121  0.5706962932616406  0.0650561497609132
  0.5347896112513482  0.9846849519275054  0.4346273603499498
  0.5370904522546240  0.9860977426561135  0.1920071194618984
  0.6904866787553345  0.9069915589131128  0.3110544735626704
  0.6879056100693788  0.9025009564146345  0.0642064759839158
  0.8540640438324161  0.8222532036166470  0.1837865943575139
  0.1955553811842421  0.6489399787157808  0.1854938955983911
  0.0489975738995909  0.9705560754469928  0.1228385385810853
  0.2308060825759455  0.8882824249298338  0.2485029995667603
  0.3960265825916665  0.8071381921435261  0.1288267377269818
  0.5557531557754132  0.7291853444145246  0.2478165514091728
  0.3939573597472403  0.8074020029322071  0.3736900330124868
  0.5501369603573920  0.7272609470825131  0.0051786688041346
  0.8869185376368236  0.5518849672384789  0.2468173094310870
  0.7293008920718052  0.6360214335739656  0.3755697946534937
  0.8820642788196480  0.5523727409984431  0.9990529605870719
  0.3579824635530215  0.5710046424197728  0.5631396260720720
  0.5345009387206758  0.9847924098994696  0.9348274520145381
  0.5363769273018235  0.9854973971704979  0.6918605214234290
  0.6908560703710975  0.9072305967454355  0.8111392282972645
  0.6876460123750334  0.9022028479932160  0.5638588272179987
  0.8544345062861822  0.8222197477020856  0.6835993547275976
  0.1973281720783220  0.6491154236619749  0.6855411876433806
  0.0487883131530964  0.9703706752886347  0.6224598776219068
  0.2305691030160446  0.8880405978724184  0.7482292836680813
  0.3957189536470409  0.8067457207775490  0.6284208952527450
  0.5561467121169983  0.7294668480457389  0.7472322934527256
  0.3947501057116440  0.8077555641535596  0.8738300321859143
  0.5501806973908216  0.7269803012308742  0.5045430890176732
  0.8867156033765582  0.5521514044796803  0.7469110365267326
  0.7273742064045194  0.6366574722911977  0.8744628199094251
  0.8880186858329608  0.5509382875352031  0.5010497562059797
  0.5793435501979332  0.1797223290630683  0.3665464467257209
  0.5290540329397757  0.1710333773137194  0.1096298139788914
  0.7230494169436525  0.0788094492917679  0.4763075870185318
  0.7258614199421203  0.0803904949545071  0.2436107162430190
  0.8760133216346517  0.0026152692876877  0.3599365670586678
  0.0436672918132146  0.4134065422979916  0.4911303122513928
  0.8729609085412946  0.4967159549028821  0.1064408554277563
  0.2417251032834642  0.3330115604708865  0.3594853982710191
  0.3958155662649858  0.2565249603730564  0.4888512324466774
  0.2390878655486262  0.3345585979472858  0.1247541163993660
  0.3865988539428855  0.2486760132366612  0.2374263424083694
  0.2387619427282388  0.0656096050337496  0.1635030081272006
  0.2554252773828480  0.0631897589240396  0.4280304814966840
  0.4407991234537505  0.4821749957277959  0.3016543061271051
  0.4463030778654371  0.0005200747127319  0.0576312431709809
  0.5831629022411065  0.4032465464478676  0.1736443948546196
  0.7409927379642340  0.3261028148700973  0.2886063884900878
  0.5896354956837584  0.4024634262075324  0.4252435733495119
  0.7234587166595148  0.3193719534409567  0.0532165881516491
  0.8902400941028858  0.2418013696700143  0.1711414490091201
  0.0778515953874432  0.1419845989733162  0.2850001317834909
  0.9117624071506185  0.2285456473886356  0.4200535756110497
  0.0725967922393167  0.1429032592642940  0.0572448197830724
  0.5781928017068907  0.1796053192973517  0.8657280703850248
  0.5296029239365083  0.1704544075866110  0.6105988134034419
  0.7225509527682163  0.0789352807999677  0.9770410797822393
  0.7250580021730855  0.0794478181871128  0.7441002978053177
  0.8769211335902014  0.0031330982905189  0.8605905324730045
  0.0409161290025608  0.4111751317394337  0.9981087117470580
  0.8810714338456123  0.4952456171597532  0.6107867764893982
  0.0595082499402650  0.4117073012642152  0.7238377135719034
  0.2344820200748927  0.3367420721622310  0.8571296870026899
  0.3889741141647747  0.2566486482969239  0.9868765633896146
  0.2376795634047753  0.3337461395162578  0.6203299500083830
  0.3853213410276055  0.2491295211942202  0.7371389132551514
  0.2384423129951188  0.0653113947537989  0.6630561670663155
  0.2554737368449764  0.0636518259276002  0.9281352603242325
  0.4266874273298100  0.4806242687247391  0.7974088322158934
  0.4459885994349619  0.9998978080210250  0.5573297146780831
  0.5829569980169538  0.4036559014102892  0.6737928498658263
  0.7440148031967269  0.3269873628097812  0.7887414815778229
  0.5828895435546002  0.4023982561928037  0.9226370359889060
  0.7336296218498077  0.3203814034060741  0.5585303893996141
  0.8898904434789188  0.2378430574609709  0.6712371120610783
  0.0777699330462340  0.1415936908093158  0.7841728625917810
  0.9110245216850146  0.2277929672424648  0.9208512861519580
  0.0737866760468222  0.1422892770670927  0.5557966229256408
  0.5802358985428171  0.6799458456255039  0.3665547272979879
  0.5276890764571647  0.6705059328724516  0.1101993022900061
  0.7303073660539638  0.5804226447218213  0.4791735254736906
  0.7298668909480028  0.5812301134641089  0.2446387782096693
  0.8809322180005594  0.5024085331969630  0.3602684704685970
  0.0438145213429095  0.9124951849689253  0.4934688618803165
  0.8790448221959934  0.9953544514732613  0.1102980459810468
  0.0595501964758185  0.9116009740416473  0.2235707169755727
  0.2344954413718128  0.8350902852787527  0.3549943566654576
  0.3931045703194798  0.7566805887782380  0.4868771347734580
  0.2371469541293081  0.8330270144632195  0.1204508760889382
  0.3858624555594474  0.7487543352327535  0.2368829066366231
  0.2357657462245086  0.5634398842327784  0.1645411348354315
  0.2559828687367798  0.5618077673766777  0.4263534163889986
  0.4264489296940113  0.9801667986768976  0.2976158530004511
  0.4479619850550733  0.5007457952817873  0.0591506967170332
  0.5818194682569526  0.9035715496100138  0.1736511874541122
  0.7434799588371632  0.8269260290728155  0.2884491494956549
  0.5847130572362147  0.9022225639053829  0.4237272752573276
  0.7322597577227015  0.8208011655006047  0.0583099252367134
  0.8892590083063610  0.7380831111630357  0.1709885887288678
  0.0791688003238420  0.6413809926275533  0.2843581213673829
  0.9126088358267381  0.7287728783133716  0.4211465048594434
  0.0743612326755994  0.6423442588479773  0.0558905564993282
  0.5794250174243629  0.6805210177139784  0.8664216193942877
  0.5294971973910805  0.6709364240963609  0.6098037963299703
  0.7219953113986293  0.5795554869031676  0.9756700058023142
  0.7275285362229127  0.5802948578063152  0.7445712491700149
  0.8769449267960852  0.5024616390976462  0.8600607802371272
  0.0440403733990777  0.9127293570873860  0.9937299513876994
  0.8787696424923084  0.9951558114485124  0.6099007606321649
  0.0598488618502984  0.9117240511345770  0.7235631088592527
  0.2354100318322736  0.8355456764895379  0.8556249485554019
  0.3933778340677847  0.7570496255792918  0.9872682407955153
  0.2365421739951756  0.8324456570872982  0.6204099457297332
  0.3866688668464349  0.7491251360796127  0.7372394445975416
  0.2404644619497844  0.5650381928307411  0.6631269462659830
  0.2541994708326314  0.5616521453737846  0.9287217656875058
  0.4261505063935260  0.9800497925698863  0.7976552293003394
  0.4500021044821594  0.5009772014707323  0.5578430853658816
  0.5817789210987812  0.9032551976233165  0.6735720127389584
  0.7443041951155251  0.8273228125321737  0.7884947483773033
  0.5853157238042499  0.9025869420597985  0.9240249379422849
  0.7324798963526291  0.8206775775201862  0.5580450523508276
  0.8907031224073094  0.7383745927356031  0.6718393313911335
  0.0801447049292676  0.6414733125583609  0.7849374490341177
  0.9117952921689536  0.7288014972787025  0.9207418591300396
  0.0771550682516633  0.6421221493989790  0.5563137000485554
 
  0.00000000E+00  0.00000000E+00  0.00000000E+00
  0.00000000E+00  0.00000000E+00  0.00000000E+00
  0.00000000E+00  0.00000000E+00  0.00000000E+00
  0.00000000E+00  0.00000000E+00  0.00000000E+00
  0.00000000E+00  0.00000000E+00  0.00000000E+00
  0.00000000E+00  0.00000000E+00  0.00000000E+00
  0.00000000E+00  0.00000000E+00  0.00000000E+00
  0.00000000E+00  0.00000000E+00  0.00000000E+00
  0.00000000E+00  0.00000000E+00  0.00000000E+00
  0.00000000E+00  0.00000000E+00  0.00000000E+00
  0.00000000E+00  0.00000000E+00  0.00000000E+00
  0.00000000E+00  0.00000000E+00  0.00000000E+00
  0.00000000E+00  0.00000000E+00  0.00000000E+00
  0.00000000E+00  0.00000000E+00  0.00000000E+00
  0.00000000E+00  0.00000000E+00  0.00000000E+00
  0.00000000E+00  0.00000000E+00  0.00000000E+00
  0.00000000E+00  0.00000000E+00  0.00000000E+00
  0.00000000E+00  0.00000000E+00  0.00000000E+00
  0.00000000E+00  0.00000000E+00  0.00000000E+00
  0.00000000E+00  0.00000000E+00  0.00000000E+00
  0.00000000E+00  0.00000000E+00  0.00000000E+00
  0.00000000E+00  0.00000000E+00  0.00000000E+00
  0.00000000E+00  0.00000000E+00  0.00000000E+00
  0.00000000E+00  0.00000000E+00  0.00000000E+00
  0.00000000E+00  0.00000000E+00  0.00000000E+00
  0.00000000E+00  0.00000000E+00  0.00000000E+00
  0.00000000E+00  0.00000000E+00  0.00000000E+00
  0.00000000E+00  0.00000000E+00  0.00000000E+00
  0.00000000E+00  0.00000000E+00  0.00000000E+00
  0.00000000E+00  0.00000000E+00  0.00000000E+00
  0.00000000E+00  0.00000000E+00  0.00000000E+00
  0.00000000E+00  0.00000000E+00  0.00000000E+00
  0.00000000E+00  0.00000000E+00  0.00000000E+00
  0.00000000E+00  0.00000000E+00  0.00000000E+00
  0.00000000E+00  0.00000000E+00  0.00000000E+00
  0.00000000E+00  0.00000000E+00  0.00000000E+00
  0.00000000E+00  0.00000000E+00  0.00000000E+00
  0.00000000E+00  0.00000000E+00  0.00000000E+00
  0.00000000E+00  0.00000000E+00  0.00000000E+00
  0.00000000E+00  0.00000000E+00  0.00000000E+00
  0.00000000E+00  0.00000000E+00  0.00000000E+00
  0.00000000E+00  0.00000000E+00  0.00000000E+00
  0.00000000E+00  0.00000000E+00  0.00000000E+00
  0.00000000E+00  0.00000000E+00  0.00000000E+00
  0.00000000E+00  0.00000000E+00  0.00000000E+00
  0.00000000E+00  0.00000000E+00  0.00000000E+00
  0.00000000E+00  0.00000000E+00  0.00000000E+00
  0.00000000E+00  0.00000000E+00  0.00000000E+00
  0.00000000E+00  0.00000000E+00  0.00000000E+00
  0.00000000E+00  0.00000000E+00  0.00000000E+00
  0.00000000E+00  0.00000000E+00  0.00000000E+00
  0.00000000E+00  0.00000000E+00  0.00000000E+00
  0.00000000E+00  0.00000000E+00  0.00000000E+00
  0.00000000E+00  0.00000000E+00  0.00000000E+00
  0.00000000E+00  0.00000000E+00  0.00000000E+00
  0.00000000E+00  0.00000000E+00  0.00000000E+00
  0.00000000E+00  0.00000000E+00  0.00000000E+00
  0.00000000E+00  0.00000000E+00  0.00000000E+00
  0.00000000E+00  0.00000000E+00  0.00000000E+00
  0.00000000E+00  0.00000000E+00  0.00000000E+00
  0.00000000E+00  0.00000000E+00  0.00000000E+00
  0.00000000E+00  0.00000000E+00  0.00000000E+00
  0.00000000E+00  0.00000000E+00  0.00000000E+00
  0.00000000E+00  0.00000000E+00  0.00000000E+00
  0.00000000E+00  0.00000000E+00  0.00000000E+00
  0.00000000E+00  0.00000000E+00  0.00000000E+00
  0.00000000E+00  0.00000000E+00  0.00000000E+00
  0.00000000E+00  0.00000000E+00  0.00000000E+00
  0.00000000E+00  0.00000000E+00  0.00000000E+00
  0.00000000E+00  0.00000000E+00  0.00000000E+00
  0.00000000E+00  0.00000000E+00  0.00000000E+00
  0.00000000E+00  0.00000000E+00  0.00000000E+00
  0.00000000E+00  0.00000000E+00  0.00000000E+00
  0.00000000E+00  0.00000000E+00  0.00000000E+00
  0.00000000E+00  0.00000000E+00  0.00000000E+00
  0.00000000E+00  0.00000000E+00  0.00000000E+00
  0.00000000E+00  0.00000000E+00  0.00000000E+00
  0.00000000E+00  0.00000000E+00  0.00000000E+00
  0.00000000E+00  0.00000000E+00  0.00000000E+00
  0.00000000E+00  0.00000000E+00  0.00000000E+00
  0.00000000E+00  0.00000000E+00  0.00000000E+00
  0.00000000E+00  0.00000000E+00  0.00000000E+00
  0.00000000E+00  0.00000000E+00  0.00000000E+00
  0.00000000E+00  0.00000000E+00  0.00000000E+00
  0.00000000E+00  0.00000000E+00  0.00000000E+00
  0.00000000E+00  0.00000000E+00  0.00000000E+00
  0.00000000E+00  0.00000000E+00  0.00000000E+00
  0.00000000E+00  0.00000000E+00  0.00000000E+00
  0.00000000E+00  0.00000000E+00  0.00000000E+00
  0.00000000E+00  0.00000000E+00  0.00000000E+00
  0.00000000E+00  0.00000000E+00  0.00000000E+00
  0.00000000E+00  0.00000000E+00  0.00000000E+00
  0.00000000E+00  0.00000000E+00  0.00000000E+00
  0.00000000E+00  0.00000000E+00  0.00000000E+00
  0.00000000E+00  0.00000000E+00  0.00000000E+00
  0.00000000E+00  0.00000000E+00  0.00000000E+00
  0.00000000E+00  0.00000000E+00  0.00000000E+00
  0.00000000E+00  0.00000000E+00  0.00000000E+00
  0.00000000E+00  0.00000000E+00  0.00000000E+00
  0.00000000E+00  0.00000000E+00  0.00000000E+00
  0.00000000E+00  0.00000000E+00  0.00000000E+00
  0.00000000E+00  0.00000000E+00  0.00000000E+00
  0.00000000E+00  0.00000000E+00  0.00000000E+00
  0.00000000E+00  0.00000000E+00  0.00000000E+00
  0.00000000E+00  0.00000000E+00  0.00000000E+00
  0.00000000E+00  0.00000000E+00  0.00000000E+00
  0.00000000E+00  0.00000000E+00  0.00000000E+00
  0.00000000E+00  0.00000000E+00  0.00000000E+00
  0.00000000E+00  0.00000000E+00  0.00000000E+00
  0.00000000E+00  0.00000000E+00  0.00000000E+00
  0.00000000E+00  0.00000000E+00  0.00000000E+00
  0.00000000E+00  0.00000000E+00  0.00000000E+00
  0.00000000E+00  0.00000000E+00  0.00000000E+00
  0.00000000E+00  0.00000000E+00  0.00000000E+00
  0.00000000E+00  0.00000000E+00  0.00000000E+00
  0.00000000E+00  0.00000000E+00  0.00000000E+00
  0.00000000E+00  0.00000000E+00  0.00000000E+00
  0.00000000E+00  0.00000000E+00  0.00000000E+00
  0.00000000E+00  0.00000000E+00  0.00000000E+00
  0.00000000E+00  0.00000000E+00  0.00000000E+00
  0.00000000E+00  0.00000000E+00  0.00000000E+00
  0.00000000E+00  0.00000000E+00  0.00000000E+00
  0.00000000E+00  0.00000000E+00  0.00000000E+00
  0.00000000E+00  0.00000000E+00  0.00000000E+00
  0.00000000E+00  0.00000000E+00  0.00000000E+00
  0.00000000E+00  0.00000000E+00  0.00000000E+00
  0.00000000E+00  0.00000000E+00  0.00000000E+00
  0.00000000E+00  0.00000000E+00  0.00000000E+00
  0.00000000E+00  0.00000000E+00  0.00000000E+00
  0.00000000E+00  0.00000000E+00  0.00000000E+00
  0.00000000E+00  0.00000000E+00  0.00000000E+00
  0.00000000E+00  0.00000000E+00  0.00000000E+00
  0.00000000E+00  0.00000000E+00  0.00000000E+00
  0.00000000E+00  0.00000000E+00  0.00000000E+00
  0.00000000E+00  0.00000000E+00  0.00000000E+00
  0.00000000E+00  0.00000000E+00  0.00000000E+00
  0.00000000E+00  0.00000000E+00  0.00000000E+00
  0.00000000E+00  0.00000000E+00  0.00000000E+00
  0.00000000E+00  0.00000000E+00  0.00000000E+00
  0.00000000E+00  0.00000000E+00  0.00000000E+00
  0.00000000E+00  0.00000000E+00  0.00000000E+00
  0.00000000E+00  0.00000000E+00  0.00000000E+00
  0.00000000E+00  0.00000000E+00  0.00000000E+00
  0.00000000E+00  0.00000000E+00  0.00000000E+00
  0.00000000E+00  0.00000000E+00  0.00000000E+00
  0.00000000E+00  0.00000000E+00  0.00000000E+00
  0.00000000E+00  0.00000000E+00  0.00000000E+00
  0.00000000E+00  0.00000000E+00  0.00000000E+00
  0.00000000E+00  0.00000000E+00  0.00000000E+00
  0.00000000E+00  0.00000000E+00  0.00000000E+00
  0.00000000E+00  0.00000000E+00  0.00000000E+00
  0.00000000E+00  0.00000000E+00  0.00000000E+00
  0.00000000E+00  0.00000000E+00  0.00000000E+00
  0.00000000E+00  0.00000000E+00  0.00000000E+00
  0.00000000E+00  0.00000000E+00  0.00000000E+00
  0.00000000E+00  0.00000000E+00  0.00000000E+00
  0.00000000E+00  0.00000000E+00  0.00000000E+00
  0.00000000E+00  0.00000000E+00  0.00000000E+00
  0.00000000E+00  0.00000000E+00  0.00000000E+00
  0.00000000E+00  0.00000000E+00  0.00000000E+00
  0.00000000E+00  0.00000000E+00  0.00000000E+00
  0.00000000E+00  0.00000000E+00  0.00000000E+00
  0.00000000E+00  0.00000000E+00  0.00000000E+00
  0.00000000E+00  0.00000000E+00  0.00000000E+00
  0.00000000E+00  0.00000000E+00  0.00000000E+00
  0.00000000E+00  0.00000000E+00  0.00000000E+00
  0.00000000E+00  0.00000000E+00  0.00000000E+00
  0.00000000E+00  0.00000000E+00  0.00000000E+00
  0.00000000E+00  0.00000000E+00  0.00000000E+00
  0.00000000E+00  0.00000000E+00  0.00000000E+00
  0.00000000E+00  0.00000000E+00  0.00000000E+00
  0.00000000E+00  0.00000000E+00  0.00000000E+00
  0.00000000E+00  0.00000000E+00  0.00000000E+00
  0.00000000E+00  0.00000000E+00  0.00000000E+00
  0.00000000E+00  0.00000000E+00  0.00000000E+00
  0.00000000E+00  0.00000000E+00  0.00000000E+00
  0.00000000E+00  0.00000000E+00  0.00000000E+00
  0.00000000E+00  0.00000000E+00  0.00000000E+00
  0.00000000E+00  0.00000000E+00  0.00000000E+00
  0.00000000E+00  0.00000000E+00  0.00000000E+00
  0.00000000E+00  0.00000000E+00  0.00000000E+00
  0.00000000E+00  0.00000000E+00  0.00000000E+00
  0.00000000E+00  0.00000000E+00  0.00000000E+00
  0.00000000E+00  0.00000000E+00  0.00000000E+00
  0.00000000E+00  0.00000000E+00  0.00000000E+00
  0.00000000E+00  0.00000000E+00  0.00000000E+00
  0.00000000E+00  0.00000000E+00  0.00000000E+00
  0.00000000E+00  0.00000000E+00  0.00000000E+00
  0.00000000E+00  0.00000000E+00  0.00000000E+00
  0.00000000E+00  0.00000000E+00  0.00000000E+00
  0.00000000E+00  0.00000000E+00  0.00000000E+00
