supercell of POSCAR                     
   1.03228000000000     
     6.3970863126299999    5.5387332920799999    4.9397337979799998
   -15.9736979067999982   -5.5365852353599996    9.8547656895600007
     6.4026568282999996  -11.0930079636999999    0.0094448205590600
   Sc   Al   N 
    31    64    96
Direct
  0.3762219805992757  0.0713520026557006  0.3105022662985846
  0.8313069725297240  0.3084368257736685  0.4332437755872931
  0.0031965266447571  0.2203203651783667  0.2985553788903985
  0.1928716366622041  0.1479014402129835  0.4380317861219964
  0.9988014302627732  0.2190699201662838  0.0629050566575131
  0.0343193457525928  0.4631524306485559  0.3696808814553663
  0.2214981497803876  0.3865527611260831  0.0042767199575380
  0.3771800115886066  0.0714525837376314  0.8115900629164230
  0.8319168809425079  0.3088527299428634  0.9339604633679954
  0.0225344242218739  0.2294538991579103  0.8038066997710089
  0.1985050971852971  0.1483482399757037  0.9401464225360741
  0.0213000742910197  0.2305871335559004  0.5679225629460589
  0.0375944491514559  0.4638652426157464  0.8697153777060294
  0.2228393942155336  0.3876484352375087  0.5004055717701164
  0.6930786419107946  0.1296517268061592  0.6192149628295951
  0.3618313574633447  0.5664459691521770  0.3086284343416850
  0.8332641778802383  0.8091170702850121  0.4334409591517030
  0.0237753685054471  0.7333837372945169  0.3051648316358708
  0.1874137089000314  0.6488190578210222  0.4376689470913959
  0.0204949113457786  0.7328539930254578  0.0671323647636513
  0.0460313112573516  0.9641174944871835  0.3700896886244607
  0.2367570742163636  0.8928573091630128  0.0049483120214546
  0.6882541002933991  0.6286491499581643  0.1186577704590874
  0.3646333280870095  0.5688341457368509  0.8091913366841226
  0.8329575203248183  0.8088743859753151  0.9331788190054695
  0.0211353377249210  0.7316906582739477  0.8042428553525696
  0.1887288044210464  0.6494984790167138  0.9381032543076770
  0.0224413208806240  0.7342042828564530  0.5677411865727677
  0.0504833926251820  0.9654129913179830  0.8724257554215740
  0.2375273036949679  0.8945171824706506  0.5057843732537037
  0.6880255824669206  0.6286128390373733  0.6179325480735400
  0.3823275284967664  0.0747689704182832  0.0671479327443549
  0.5286707412015872  0.4833645763919208  0.4336419406074867
  0.5302778978024705  0.4843635662567038  0.1915342040554151
  0.6856255550259007  0.4074111440546844  0.3112465918661940
  0.6831578113810366  0.4027256376654265  0.0634515201294263
  0.8486631573628571  0.3246048657467568  0.1836911839809474
  0.2028991116325827  0.1479205492632119  0.1852438435386503
  0.0455512122039821  0.4708704287905192  0.1221658765380980
  0.2183865710377120  0.3817248868924992  0.2456430309880560
  0.3903083937918410  0.3048186508064177  0.1284271084766075
  0.5600197212542284  0.2302470537926666  0.2471381675566349
  0.3887972918851119  0.3057968189998448  0.3726131672855288
  0.5547916050825847  0.2281690635884459  0.0068667473732731
  0.8898230953792705  0.0514388275269368  0.2463200318454994
  0.7314316435468555  0.1368392949392003  0.3743992645947429
  0.8877128598311543  0.0503236660159061  0.0008735135979592
  0.3614771416612683  0.0722572793119056  0.5650922901118847
  0.5292880356276868  0.4838628500376885  0.9344443579748898
  0.5319836552147734  0.4848130218350875  0.6906963185029369
  0.6890764772728488  0.4075293779725655  0.8110452503787187
  0.6850415288299558  0.4022418008216562  0.5635153033774500
  0.8544194523242084  0.3225996799133242  0.6838941580660531
  0.1982362477618693  0.1486919083734364  0.6862807768268695
  0.0466313538202812  0.4705472217845355  0.6223778562100151
  0.2283240081531730  0.3877803882306807  0.7481340283112274
  0.3951028579898477  0.3068285838439664  0.6287991627155449
  0.5581183341643339  0.2304213472968044  0.7481141820454766
  0.3934980136994213  0.3076062211165578  0.8736118526392147
  0.5519539322958948  0.2279431350624535  0.5053133563703724
  0.8900399579327143  0.0517734218078942  0.7483944865898664
  0.7318657948131033  0.1368008831603049  0.8767946085114886
  0.8866172689299319  0.0508594586431173  0.5008380023415882
  0.3528501169976934  0.5696032157417577  0.0631011942221349
  0.5406723810438123  0.9865849600797034  0.4342730133356412
  0.5545192902690061  0.9948804432794063  0.1906316787591678
  0.6935871034094419  0.9077726495274590  0.3106230120659674
  0.6916870099862891  0.9029489663058570  0.0644365538357050
  0.8545515841763205  0.8220554930489072  0.1835253188114407
  0.1936673698000320  0.6498672439507800  0.1852445498940298
  0.0563932803322231  0.9708374756929103  0.1225657456744003
  0.2376628334025810  0.8905147514543472  0.2485560243828573
  0.3997231160005725  0.8095839763264436  0.1296308848146879
  0.5537583061752969  0.7283930827772522  0.2470525731954183
  0.3966025044232921  0.8087844453309216  0.3741781114617027
  0.5487477995072894  0.7266910925767789  0.0045334541656032
  0.8814786738327456  0.5526650900237513  0.2468568778931939
  0.7237554513988016  0.6355505277897819  0.3744779297367984
  0.8799057683686726  0.5514833738523564  0.0004508684874622
  0.3526768379806100  0.5697121612157119  0.5628279187409362
  0.5531453688452004  0.9943084883862738  0.9449024300451754
  0.5435245563376938  0.9876290793020175  0.6949143959369124
  0.6942628240996314  0.9074902153816637  0.8123865684431308
  0.6904705002596501  0.9028225826954710  0.5645358592818326
  0.8540912043152815  0.8221933879567516  0.6842020126775807
  0.1935263507326965  0.6497775903488616  0.6854434398111877
  0.0523912598942360  0.9703040109774363  0.6235746583024806
  0.2374458891833839  0.8904257525365153  0.7509638804702377
  0.3982701826721566  0.8081641946839611  0.6294909437029261
  0.5536222613873676  0.7284959318606283  0.7468810535274102
  0.3978224193407272  0.8101024542659445  0.8747817080387108
  0.5485674375995586  0.7263978231077957  0.5040750224992649
  0.8822812282269865  0.5521906701604351  0.7466544710238097
  0.7234425645509859  0.6351547102704629  0.8741994435341738
  0.8797566309561446  0.5517527515024838  0.5005411639904125
  0.5844133992180716  0.1826837304448503  0.3691434054852252
  0.5316387181217053  0.1766141975223832  0.1115305282822092
  0.7288914680483529  0.0802849342309813  0.4790363007374623
  0.7436436745590171  0.0837271354579983  0.2516536514101517
  0.8814256538605605  0.0013631617037433  0.3616173241598162
  0.0423470894904412  0.4131922500815008  0.4939472324133689
  0.8752752927070873  0.4960005389940889  0.1101762132210737
  0.0583407265715792  0.4137920464959137  0.2241004992587534
  0.2247500661504276  0.3297064534780247  0.3530866105088251
  0.3944066987099077  0.2573259190383368  0.4883058759427144
  0.2244371463572818  0.3258510234382683  0.1182105325995977
  0.3881347409216502  0.2491550177985573  0.2386693513800466
  0.2488277144948299  0.0644395961107307  0.1625620664269576
  0.2608487120264158  0.0631076047970467  0.4286015060106720
  0.4174675211645109  0.4764410345677135  0.2960882566919523
  0.4475561091534956  0.9969783505580523  0.0563092086807586
  0.5763015269196003  0.4027042972242825  0.1730644199013653
  0.7447632938523157  0.3304426368977005  0.2908607499199576
  0.5801088655908586  0.4018639536760489  0.4239973340938548
  0.7328442344515622  0.3237578471209304  0.0573922045075506
  0.9049592882979312  0.2503798057310291  0.1775270584124868
  0.0860847504297197  0.1392237286981981  0.2846204815049660
  0.9144876039606586  0.2306765021705175  0.4246069680931157
  0.0813856789585046  0.1395966619381070  0.0561336021008927
  0.5846766929407963  0.1828024805477142  0.8661539972051031
  0.5317825038447452  0.1721222207535362  0.6109474517003548
  0.7416468254503599  0.0828092187400813  0.9753233652318229
  0.7327127872104597  0.0814210650389882  0.7440121406259053
  0.8822892348519744  0.0006716213941544  0.8590464183499051
  0.0427762364635100  0.4137917083669365  0.9937484509158807
  0.8762901179220179  0.4955591091732217  0.6096846685985611
  0.0589855312473730  0.4122967219313480  0.7237098946488132
  0.2336706187772890  0.3350244095351442  0.8547022793205770
  0.3958632315112069  0.2586109410401320  0.9869495461925197
  0.2360285564269375  0.3325021482616819  0.6208754900233799
  0.3871029363823411  0.2492666453492731  0.7371575511882611
  0.2424079225834888  0.0649847826748058  0.6640860543719711
  0.2667839583908176  0.0634511833703755  0.9301083885402193
  0.4231169949911333  0.4800225753669594  0.7971763925097122
  0.4522905771263552  0.0020169016129330  0.5591341189180099
  0.5800533076288659  0.4035182131466541  0.6736495845288317
  0.7450364055463581  0.3286467618455191  0.7888246412671265
  0.5828010687588758  0.4029600430870985  0.9230128689666870
  0.7331961027080709  0.3219846239354780  0.5589665643588830
  0.8913897488444178  0.2390063335745580  0.6723433263875407
  0.0834267246094882  0.1408495596645025  0.7866853789825754
  0.9149232787164436  0.2310916690037388  0.9197458033596391
  0.0770065230927486  0.1415899494149855  0.5568436657799580
  0.5750813913666093  0.6785993329167539  0.3656414236340595
  0.5260073423076861  0.6696902952551085  0.1092930289243128
  0.7172869234996426  0.5777124086845760  0.4754839654395013
  0.7193988573151842  0.5786024910901304  0.2436467883269557
  0.8724199898347962  0.5035001587175643  0.3601396622820161
  0.0462141896692572  0.9118960603919959  0.4938267146917497
  0.8849965930270471  0.9938330995734503  0.1102674395529988
  0.0615342270659838  0.9104937204289314  0.2231794344588067
  0.2382765659194845  0.8372018536483239  0.3563693754623571
  0.3929854777508979  0.7573311072331634  0.4872062071279259
  0.2371770805239635  0.8321726649109991  0.1209095265264040
  0.3857333432051817  0.7494606424458539  0.2370483375215358
  0.2358398660915668  0.5658334036673480  0.1630577780859923
  0.2510340384918024  0.5630599226396882  0.4276123769230082
  0.4341069724411142  0.9822759318378402  0.2969765044241868
  0.4390533845901672  0.4977319267340334  0.0566227654347742
  0.5863779761766850  0.9055497976800098  0.1740199213186457
  0.7422960493380373  0.8257432653297130  0.2877247489516535
  0.5878907298913418  0.9029642799848574  0.4242516747523482
  0.7319329809932924  0.8194884575632742  0.0577692163633614
  0.8877387650510116  0.7370604441494493  0.1715420518904551
  0.0758814961504015  0.6422295073058635  0.2845957462266924
  0.9088268678106957  0.7274160432549479  0.4201548817326213
  0.0711319785146500  0.6423136466573283  0.0557893493714872
  0.5757580659608479  0.6790863741303141  0.8655958103883279
  0.5257298557679633  0.6697061834585369  0.6089767852498511
  0.7182386092086830  0.5780624111541783  0.9761307758402040
  0.7212868056757600  0.5789440562551604  0.7431408623497120
  0.8741591715587660  0.5031985293286283  0.8601675585356219
  0.0451388849892709  0.9106413628003267  0.9929084557572523
  0.8823508281005417  0.9948428194268502  0.6104486997029710
  0.0608746258427288  0.9106814057476882  0.7236984488457239
  0.2344779163640780  0.8345295667159149  0.8543733866382084
  0.3938393709413788  0.7578794239998246  0.9874438137384729
  0.2400252507139200  0.8344235630949157  0.6211616995655618
  0.3852351765069315  0.7492740141046070  0.7370038511533963
  0.2359497925435221  0.5657242058943126  0.6629613600048572
  0.2528845049847206  0.5637375810179108  0.9277139270404504
  0.4339541128856652  0.9821057562791964  0.8008339510322173
  0.4398878654783616  0.4982083909002171  0.5560250360970400
  0.5848920362309400  0.9039197673926083  0.6742137658481369
  0.7408933559166471  0.8250375815478392  0.7872428474580815
  0.5895489253945385  0.9041051967228668  0.9252021123074101
  0.7318994379971002  0.8199733633995763  0.5576691200361950
  0.8873596613405326  0.7371578202269262  0.6704213444964324
  0.0760920782618584  0.6414302977035007  0.7846486646947852
  0.9078096843507666  0.7268849064405458  0.9198481611373523
  0.0710444583370844  0.6429422178695177  0.5562190950758747
 
  0.00000000E+00  0.00000000E+00  0.00000000E+00
  0.00000000E+00  0.00000000E+00  0.00000000E+00
  0.00000000E+00  0.00000000E+00  0.00000000E+00
  0.00000000E+00  0.00000000E+00  0.00000000E+00
  0.00000000E+00  0.00000000E+00  0.00000000E+00
  0.00000000E+00  0.00000000E+00  0.00000000E+00
  0.00000000E+00  0.00000000E+00  0.00000000E+00
  0.00000000E+00  0.00000000E+00  0.00000000E+00
  0.00000000E+00  0.00000000E+00  0.00000000E+00
  0.00000000E+00  0.00000000E+00  0.00000000E+00
  0.00000000E+00  0.00000000E+00  0.00000000E+00
  0.00000000E+00  0.00000000E+00  0.00000000E+00
  0.00000000E+00  0.00000000E+00  0.00000000E+00
  0.00000000E+00  0.00000000E+00  0.00000000E+00
  0.00000000E+00  0.00000000E+00  0.00000000E+00
  0.00000000E+00  0.00000000E+00  0.00000000E+00
  0.00000000E+00  0.00000000E+00  0.00000000E+00
  0.00000000E+00  0.00000000E+00  0.00000000E+00
  0.00000000E+00  0.00000000E+00  0.00000000E+00
  0.00000000E+00  0.00000000E+00  0.00000000E+00
  0.00000000E+00  0.00000000E+00  0.00000000E+00
  0.00000000E+00  0.00000000E+00  0.00000000E+00
  0.00000000E+00  0.00000000E+00  0.00000000E+00
  0.00000000E+00  0.00000000E+00  0.00000000E+00
  0.00000000E+00  0.00000000E+00  0.00000000E+00
  0.00000000E+00  0.00000000E+00  0.00000000E+00
  0.00000000E+00  0.00000000E+00  0.00000000E+00
  0.00000000E+00  0.00000000E+00  0.00000000E+00
  0.00000000E+00  0.00000000E+00  0.00000000E+00
  0.00000000E+00  0.00000000E+00  0.00000000E+00
  0.00000000E+00  0.00000000E+00  0.00000000E+00
  0.00000000E+00  0.00000000E+00  0.00000000E+00
  0.00000000E+00  0.00000000E+00  0.00000000E+00
  0.00000000E+00  0.00000000E+00  0.00000000E+00
  0.00000000E+00  0.00000000E+00  0.00000000E+00
  0.00000000E+00  0.00000000E+00  0.00000000E+00
  0.00000000E+00  0.00000000E+00  0.00000000E+00
  0.00000000E+00  0.00000000E+00  0.00000000E+00
  0.00000000E+00  0.00000000E+00  0.00000000E+00
  0.00000000E+00  0.00000000E+00  0.00000000E+00
  0.00000000E+00  0.00000000E+00  0.00000000E+00
  0.00000000E+00  0.00000000E+00  0.00000000E+00
  0.00000000E+00  0.00000000E+00  0.00000000E+00
  0.00000000E+00  0.00000000E+00  0.00000000E+00
  0.00000000E+00  0.00000000E+00  0.00000000E+00
  0.00000000E+00  0.00000000E+00  0.00000000E+00
  0.00000000E+00  0.00000000E+00  0.00000000E+00
  0.00000000E+00  0.00000000E+00  0.00000000E+00
  0.00000000E+00  0.00000000E+00  0.00000000E+00
  0.00000000E+00  0.00000000E+00  0.00000000E+00
  0.00000000E+00  0.00000000E+00  0.00000000E+00
  0.00000000E+00  0.00000000E+00  0.00000000E+00
  0.00000000E+00  0.00000000E+00  0.00000000E+00
  0.00000000E+00  0.00000000E+00  0.00000000E+00
  0.00000000E+00  0.00000000E+00  0.00000000E+00
  0.00000000E+00  0.00000000E+00  0.00000000E+00
  0.00000000E+00  0.00000000E+00  0.00000000E+00
  0.00000000E+00  0.00000000E+00  0.00000000E+00
  0.00000000E+00  0.00000000E+00  0.00000000E+00
  0.00000000E+00  0.00000000E+00  0.00000000E+00
  0.00000000E+00  0.00000000E+00  0.00000000E+00
  0.00000000E+00  0.00000000E+00  0.00000000E+00
  0.00000000E+00  0.00000000E+00  0.00000000E+00
  0.00000000E+00  0.00000000E+00  0.00000000E+00
  0.00000000E+00  0.00000000E+00  0.00000000E+00
  0.00000000E+00  0.00000000E+00  0.00000000E+00
  0.00000000E+00  0.00000000E+00  0.00000000E+00
  0.00000000E+00  0.00000000E+00  0.00000000E+00
  0.00000000E+00  0.00000000E+00  0.00000000E+00
  0.00000000E+00  0.00000000E+00  0.00000000E+00
  0.00000000E+00  0.00000000E+00  0.00000000E+00
  0.00000000E+00  0.00000000E+00  0.00000000E+00
  0.00000000E+00  0.00000000E+00  0.00000000E+00
  0.00000000E+00  0.00000000E+00  0.00000000E+00
  0.00000000E+00  0.00000000E+00  0.00000000E+00
  0.00000000E+00  0.00000000E+00  0.00000000E+00
  0.00000000E+00  0.00000000E+00  0.00000000E+00
  0.00000000E+00  0.00000000E+00  0.00000000E+00
  0.00000000E+00  0.00000000E+00  0.00000000E+00
  0.00000000E+00  0.00000000E+00  0.00000000E+00
  0.00000000E+00  0.00000000E+00  0.00000000E+00
  0.00000000E+00  0.00000000E+00  0.00000000E+00
  0.00000000E+00  0.00000000E+00  0.00000000E+00
  0.00000000E+00  0.00000000E+00  0.00000000E+00
  0.00000000E+00  0.00000000E+00  0.00000000E+00
  0.00000000E+00  0.00000000E+00  0.00000000E+00
  0.00000000E+00  0.00000000E+00  0.00000000E+00
  0.00000000E+00  0.00000000E+00  0.00000000E+00
  0.00000000E+00  0.00000000E+00  0.00000000E+00
  0.00000000E+00  0.00000000E+00  0.00000000E+00
  0.00000000E+00  0.00000000E+00  0.00000000E+00
  0.00000000E+00  0.00000000E+00  0.00000000E+00
  0.00000000E+00  0.00000000E+00  0.00000000E+00
  0.00000000E+00  0.00000000E+00  0.00000000E+00
  0.00000000E+00  0.00000000E+00  0.00000000E+00
  0.00000000E+00  0.00000000E+00  0.00000000E+00
  0.00000000E+00  0.00000000E+00  0.00000000E+00
  0.00000000E+00  0.00000000E+00  0.00000000E+00
  0.00000000E+00  0.00000000E+00  0.00000000E+00
  0.00000000E+00  0.00000000E+00  0.00000000E+00
  0.00000000E+00  0.00000000E+00  0.00000000E+00
  0.00000000E+00  0.00000000E+00  0.00000000E+00
  0.00000000E+00  0.00000000E+00  0.00000000E+00
  0.00000000E+00  0.00000000E+00  0.00000000E+00
  0.00000000E+00  0.00000000E+00  0.00000000E+00
  0.00000000E+00  0.00000000E+00  0.00000000E+00
  0.00000000E+00  0.00000000E+00  0.00000000E+00
  0.00000000E+00  0.00000000E+00  0.00000000E+00
  0.00000000E+00  0.00000000E+00  0.00000000E+00
  0.00000000E+00  0.00000000E+00  0.00000000E+00
  0.00000000E+00  0.00000000E+00  0.00000000E+00
  0.00000000E+00  0.00000000E+00  0.00000000E+00
  0.00000000E+00  0.00000000E+00  0.00000000E+00
  0.00000000E+00  0.00000000E+00  0.00000000E+00
  0.00000000E+00  0.00000000E+00  0.00000000E+00
  0.00000000E+00  0.00000000E+00  0.00000000E+00
  0.00000000E+00  0.00000000E+00  0.00000000E+00
  0.00000000E+00  0.00000000E+00  0.00000000E+00
  0.00000000E+00  0.00000000E+00  0.00000000E+00
  0.00000000E+00  0.00000000E+00  0.00000000E+00
  0.00000000E+00  0.00000000E+00  0.00000000E+00
  0.00000000E+00  0.00000000E+00  0.00000000E+00
  0.00000000E+00  0.00000000E+00  0.00000000E+00
  0.00000000E+00  0.00000000E+00  0.00000000E+00
  0.00000000E+00  0.00000000E+00  0.00000000E+00
  0.00000000E+00  0.00000000E+00  0.00000000E+00
  0.00000000E+00  0.00000000E+00  0.00000000E+00
  0.00000000E+00  0.00000000E+00  0.00000000E+00
  0.00000000E+00  0.00000000E+00  0.00000000E+00
  0.00000000E+00  0.00000000E+00  0.00000000E+00
  0.00000000E+00  0.00000000E+00  0.00000000E+00
  0.00000000E+00  0.00000000E+00  0.00000000E+00
  0.00000000E+00  0.00000000E+00  0.00000000E+00
  0.00000000E+00  0.00000000E+00  0.00000000E+00
  0.00000000E+00  0.00000000E+00  0.00000000E+00
  0.00000000E+00  0.00000000E+00  0.00000000E+00
  0.00000000E+00  0.00000000E+00  0.00000000E+00
  0.00000000E+00  0.00000000E+00  0.00000000E+00
  0.00000000E+00  0.00000000E+00  0.00000000E+00
  0.00000000E+00  0.00000000E+00  0.00000000E+00
  0.00000000E+00  0.00000000E+00  0.00000000E+00
  0.00000000E+00  0.00000000E+00  0.00000000E+00
  0.00000000E+00  0.00000000E+00  0.00000000E+00
  0.00000000E+00  0.00000000E+00  0.00000000E+00
  0.00000000E+00  0.00000000E+00  0.00000000E+00
  0.00000000E+00  0.00000000E+00  0.00000000E+00
  0.00000000E+00  0.00000000E+00  0.00000000E+00
  0.00000000E+00  0.00000000E+00  0.00000000E+00
  0.00000000E+00  0.00000000E+00  0.00000000E+00
  0.00000000E+00  0.00000000E+00  0.00000000E+00
  0.00000000E+00  0.00000000E+00  0.00000000E+00
  0.00000000E+00  0.00000000E+00  0.00000000E+00
  0.00000000E+00  0.00000000E+00  0.00000000E+00
  0.00000000E+00  0.00000000E+00  0.00000000E+00
  0.00000000E+00  0.00000000E+00  0.00000000E+00
  0.00000000E+00  0.00000000E+00  0.00000000E+00
  0.00000000E+00  0.00000000E+00  0.00000000E+00
  0.00000000E+00  0.00000000E+00  0.00000000E+00
  0.00000000E+00  0.00000000E+00  0.00000000E+00
  0.00000000E+00  0.00000000E+00  0.00000000E+00
  0.00000000E+00  0.00000000E+00  0.00000000E+00
  0.00000000E+00  0.00000000E+00  0.00000000E+00
  0.00000000E+00  0.00000000E+00  0.00000000E+00
  0.00000000E+00  0.00000000E+00  0.00000000E+00
  0.00000000E+00  0.00000000E+00  0.00000000E+00
  0.00000000E+00  0.00000000E+00  0.00000000E+00
  0.00000000E+00  0.00000000E+00  0.00000000E+00
  0.00000000E+00  0.00000000E+00  0.00000000E+00
  0.00000000E+00  0.00000000E+00  0.00000000E+00
  0.00000000E+00  0.00000000E+00  0.00000000E+00
  0.00000000E+00  0.00000000E+00  0.00000000E+00
  0.00000000E+00  0.00000000E+00  0.00000000E+00
  0.00000000E+00  0.00000000E+00  0.00000000E+00
  0.00000000E+00  0.00000000E+00  0.00000000E+00
  0.00000000E+00  0.00000000E+00  0.00000000E+00
  0.00000000E+00  0.00000000E+00  0.00000000E+00
  0.00000000E+00  0.00000000E+00  0.00000000E+00
  0.00000000E+00  0.00000000E+00  0.00000000E+00
  0.00000000E+00  0.00000000E+00  0.00000000E+00
  0.00000000E+00  0.00000000E+00  0.00000000E+00
  0.00000000E+00  0.00000000E+00  0.00000000E+00
  0.00000000E+00  0.00000000E+00  0.00000000E+00
  0.00000000E+00  0.00000000E+00  0.00000000E+00
  0.00000000E+00  0.00000000E+00  0.00000000E+00
  0.00000000E+00  0.00000000E+00  0.00000000E+00
  0.00000000E+00  0.00000000E+00  0.00000000E+00
  0.00000000E+00  0.00000000E+00  0.00000000E+00
  0.00000000E+00  0.00000000E+00  0.00000000E+00
  0.00000000E+00  0.00000000E+00  0.00000000E+00
  0.00000000E+00  0.00000000E+00  0.00000000E+00
  0.00000000E+00  0.00000000E+00  0.00000000E+00
