supercell of POSCAR                     
   1.03228000000000     
     6.3970863126299999    5.5387332920799999    4.9397337979799998
   -15.9736979067999982   -5.5365852353599996    9.8547656895600007
     6.4026568282999996  -11.0930079636999999    0.0094448205590600
   Sc   Al   N 
    31    64    96
Direct
  0.3750220638058721  0.0725982436399022  0.3113221835518871
  0.8365514241962231  0.3063562650734966  0.4307512430468634
  0.1914407534341862  0.1526686304697691  0.4356997452597398
  0.0277103438195141  0.2316352838847706  0.0819541315040766
  0.0391493801968963  0.4629853107106783  0.3695550252247557
  0.2308885861362882  0.3902406231653615  0.0054077618613491
  0.7037284330312232  0.1341561893568368  0.1255801376728698
  0.3760848245017741  0.0715457701141702  0.8116522420231931
  0.8376051997355916  0.3064321711263389  0.9371733524641002
  0.0273108711268506  0.2304277654156905  0.8074589310647440
  0.1951361738560351  0.1493275323423831  0.9405048065051744
  0.0219983151908210  0.2303917739534214  0.5675940662786019
  0.0379470014886678  0.4617250939688731  0.8692166208372285
  0.2184391415675790  0.3834369998623259  0.4993401209495971
  0.6951935090771997  0.1298926880227427  0.6201631115753372
  0.3641495318091117  0.5703707483473934  0.3088230635952485
  0.8297667374864233  0.8083797622897251  0.4320996393960286
  0.0162182158607038  0.7299502841052927  0.3037564207629799
  0.1833933014676248  0.6466906893306188  0.4378065675692397
  0.0176989203131939  0.7319320170684094  0.0662374458023649
  0.0450827614070448  0.9683039596641265  0.3704360407809162
  0.2288693943067628  0.8914685822217123  0.0034724321907689
  0.6884106224883482  0.6292493550025000  0.1171390033847928
  0.3648612172390528  0.5675213122857627  0.8082774584906005
  0.8292624540192932  0.8085694910742873  0.9327473680378233
  0.0160589837590948  0.7298652437704121  0.8021721044093937
  0.1858598974702517  0.6470422960500599  0.9365073758109830
  0.0164353075208865  0.7316164666140992  0.5661012997435932
  0.0422879048847236  0.9644567177613226  0.8697969898697835
  0.2316564672168653  0.8933169554626375  0.5037717494358986
  0.6815792803735619  0.6241444089730805  0.6141808629862311
  0.3622148532442964  0.0709214151064259  0.0638259065207976
  0.5064214419938295  0.4711123926975986  0.4277371371178305
  0.5392161121929746  0.4876665398235573  0.1905755955748347
  0.6956358730991639  0.4084098370778761  0.3116278691209402
  0.6893090543631359  0.4034099855649274  0.0639863366415199
  0.8578640737208119  0.3231786863051198  0.1834843757222941
  0.1974755951683278  0.1477558487210828  0.1871196512211313
  0.0496056486707559  0.4708145881673289  0.1222516702203080
  0.2365094266535834  0.3919221454283530  0.2495172874652951
  0.3999029671754144  0.3085455086483151  0.1312011336197756
  0.5606075774236388  0.2310312036073583  0.2473099400322241
  0.4019457576308270  0.3097146882445401  0.3742843317411797
  0.5562688191748322  0.2287104630761050  0.0077952309602907
  0.8906825172984512  0.0555439542738299  0.2487879089331742
  0.7469633570498857  0.1409262378849050  0.3753281714211383
  0.8849628018937352  0.0505357756327740  0.0018269651008183
  0.3611290017623929  0.0730331990587487  0.5650363464109205
  0.5344222070923408  0.4847393141150178  0.9344120341799709
  0.5332145199875811  0.4841318923410540  0.6908646718872191
  0.6931198269462229  0.4072283762779776  0.8119140861347418
  0.6914822311387852  0.4014167866747087  0.5639162127907085
  0.8577267640702715  0.3213940994676534  0.6843618406041543
  0.1977445339065653  0.1482826951366150  0.6856056578698002
  0.0480172976529332  0.4696974461025931  0.6221863760458390
  0.2326115598429581  0.3872841977978894  0.7488972781405181
  0.3996890720893020  0.3072495906129262  0.6295219070096536
  0.5625290354435108  0.2307963768429104  0.7495724427624779
  0.3980112779691751  0.3080210796121392  0.8748682247277983
  0.5552660566379970  0.2282899840689439  0.5051202820743512
  0.8870513230282739  0.0515442348092350  0.7479649018453074
  0.7373988411521708  0.1373295395931322  0.8802275015416612
  0.8849625845845566  0.0510471834276061  0.5006763070583062
  0.3547535204547358  0.5702811344241425  0.0623983506888521
  0.5376735847093741  0.9865558508192152  0.4345386494575365
  0.5367784683041705  0.9859400151501276  0.1926442541489450
  0.6888229384727467  0.9066798779515750  0.3105248054092513
  0.6861022264416192  0.9021310472240387  0.0641187602963029
  0.8514116721188856  0.8225613698989207  0.1837275772060210
  0.1936929269385672  0.6496899828370246  0.1844268138523830
  0.0499424206718757  0.9713579652836799  0.1231935162913445
  0.2284832096250327  0.8886244935232241  0.2487683143661670
  0.3928421751338149  0.8067921519789465  0.1281141171213207
  0.5520757168480017  0.7286504673721694  0.2465048299115864
  0.3905937135046784  0.8072418044269227  0.3734487266559654
  0.5462955036999162  0.7262873569925574  0.0036778534069697
  0.8859853308020504  0.5527264568429402  0.2460022919381757
  0.7192687259481190  0.6323037098307438  0.3739262602385622
  0.8825753343869778  0.5515178426965974  0.0003769363598636
  0.3518268022420727  0.5684166691476591  0.5636964155976329
  0.5363407010725751  0.9853866863160334  0.9369521920070483
  0.5385655024570042  0.9864795349101385  0.6932854913292203
  0.6884728063347580  0.9059940400123025  0.8107872693494755
  0.6861734616477904  0.9019987415585078  0.5636069857013197
  0.8493697337317130  0.8204189466216647  0.6823918934372131
  0.1904347378647273  0.6482956433913643  0.6844365490818376
  0.0494323800850864  0.9699870315381105  0.6224418953254869
  0.2295633708652431  0.8882886389823668  0.7481443879536869
  0.3928666073051517  0.8067181507972592  0.6278623634995597
  0.5509379929522424  0.7274581310931936  0.7454847880602102
  0.3906834886777730  0.8069242700048491  0.8726987228368088
  0.5456217774107373  0.7258209400293651  0.5036881898237766
  0.8830824132523247  0.5514075145392994  0.7464573397235128
  0.7239745879776294  0.6351924586928277  0.8732208568769195
  0.8744584553559491  0.5489058444832366  0.4991453933598748
  0.5852499136850895  0.1829877620720453  0.3663558559271465
  0.5307524293827441  0.1707724477328156  0.1100637651691443
  0.7264745677467914  0.0798966916086670  0.4773157657267078
  0.7232279784243403  0.0770716404796588  0.2450933685750769
  0.8725684698948371  0.0007151313611971  0.3602830866871045
  0.0439730217989407  0.4138906352982872  0.4936824962313651
  0.8801978937436061  0.4962943625122804  0.1094652491647139
  0.0640504627740839  0.4143371774907578  0.2238180956194711
  0.2922635813879779  0.3633646320987296  0.3687858507493473
  0.4008885501129100  0.2596954918516019  0.4887957023056728
  0.2418392892701888  0.3344089694516299  0.1235439840920023
  0.3892148867941714  0.2495148078518312  0.2369929143590355
  0.2434747340671350  0.0633859912274559  0.1616934394446474
  0.2618951085642180  0.0660461173229407  0.4301330099311755
  0.4309432334842711  0.4869360003077574  0.2924512791014209
  0.4438438588519631  0.9975416541198285  0.0562123591734291
  0.5850846370862612  0.4054892897096494  0.1742450000226796
  0.7479019776783815  0.3290896841223372  0.2870387350728976
  0.5983301180570777  0.4029910212917827  0.4250925289941136
  0.7352373654149957  0.3234310496634833  0.0579075554805328
  0.8836309833754896  0.2396608376793594  0.1644105651690282
  0.0863570805683196  0.1342233552021952  0.2842027599132919
  0.9240858306768729  0.2329314081874756  0.4264177939773006
  0.0770882567089402  0.1392211289745475  0.0557196790278880
  0.5880524248071239  0.1820840644872064  0.8689368927435339
  0.5343917226164336  0.1721551227559104  0.6120828861039129
  0.7246767226566959  0.0778928269867052  0.9788052385548411
  0.7283118951254650  0.0799418201180870  0.7465125501128114
  0.8745461404226020  0.0005516015577669  0.8596178247058575
  0.0463827347547365  0.4127033062547127  0.9942322198415496
  0.8800629171979466  0.4953486957010469  0.6116623438868132
  0.0628200920311528  0.4114681855207465  0.7240911839876247
  0.2388058138026707  0.3355178598840922  0.8571006139008475
  0.3981338009465247  0.2584265955542620  0.9889497730981205
  0.2405329955934832  0.3316937347067821  0.6234564461647025
  0.3903620770937195  0.2487089114464638  0.7387844773864600
  0.2417643673519407  0.0642876844807674  0.6646676827053994
  0.2590308508514241  0.0626588911919157  0.9271686828297163
  0.4267413650724023  0.4799536671382896  0.7985671167841417
  0.4488896632043549  0.0009026308515061  0.5585336009020239
  0.5852066229786885  0.4036677527068377  0.6747825671775374
  0.7505708913346396  0.3285049232109358  0.7919491828339886
  0.5870594404240350  0.4034196378327835  0.9240036141838388
  0.7385213551431846  0.3208606761013471  0.5599299925246299
  0.8930485812152043  0.2377438155747100  0.6769684916321239
  0.0819681903569176  0.1397265314102327  0.7861606403546801
  0.9239192794511126  0.2284490164185442  0.9275573699284010
  0.0757208199902877  0.1401291337920085  0.5571589196850937
  0.5753178882218393  0.6803068400992203  0.3653654948753058
  0.5258417867895275  0.6703357994755024  0.1088854279303817
  0.7113503165108099  0.5736342150337990  0.4733226663071832
  0.7287735175711205  0.5815754262121828  0.2422914037383208
  0.8800923446777702  0.5049517864020316  0.3596692276010884
  0.0426557955123101  0.9126774312669284  0.4917239681510281
  0.8766510182725398  0.9933940037178246  0.1089973237418960
  0.0561473220347466  0.9110692374078795  0.2235079501352928
  0.2301487289719546  0.8342924413950215  0.3548625892662827
  0.3888602998971891  0.7561142963870608  0.4865929865108853
  0.2333758599911206  0.8323838903117036  0.1202072974498307
  0.3829321941816914  0.7488819279733718  0.2362977654648617
  0.2369744388231396  0.5663315856594977  0.1609831287871941
  0.2533046345077707  0.5635022352944148  0.4285986675616655
  0.4237669928220384  0.9794660132017441  0.2980300073834741
  0.4464846979604360  0.5005024558099649  0.0556380844868798
  0.5780948475378977  0.9018977618216297  0.1728143606601478
  0.7383671967634342  0.8253391937790937  0.2869199798056883
  0.5818566669661394  0.9017203479894746  0.4236964877207114
  0.7284643224394074  0.8195381044722296  0.0571652896931454
  0.8866480042609979  0.7381689077248126  0.1705468387485851
  0.0786119830862830  0.6424248811627393  0.2842779880233195
  0.9038047664145452  0.7261520346786057  0.4196680877352534
  0.0719451873560715  0.6428798678661209  0.0555505885616441
  0.5750617310366124  0.6789536787143930  0.8653611131987233
  0.5245415067845656  0.6694031998930470  0.6084740323971474
  0.7228755982782786  0.5792168905990991  0.9761362482677711
  0.7238289190867206  0.5789455639896204  0.7436005513509940
  0.8780023702193915  0.5032827867361718  0.8609363356400976
  0.0409791404056250  0.9116989888179816  0.9924702936260488
  0.8783725260715585  0.9941312425444124  0.6105103732036454
  0.0554819526618004  0.9095381990601652  0.7222447883683785
  0.2302835796259970  0.8339844234480438  0.8537539777821195
  0.3891626013248484  0.7560549066124196  0.9861109569982816
  0.2340571002334570  0.8328246968293769  0.6192637694665493
  0.3818940160572382  0.7481734793617676  0.7357305869946060
  0.2358052321796933  0.5657078328384699  0.6639998828565083
  0.2529440854214116  0.5623395904507902  0.9266634742390281
  0.4261223824566116  0.9796348788053209  0.7981837261544271
  0.4399607797535907  0.4991561850307633  0.5615595937125661
  0.5796840834142785  0.9027002686688945  0.6732181699482425
  0.7382722950170404  0.8249086917948176  0.7866817860439070
  0.5817220780553711  0.9009336959646532  0.9229373745654925
  0.7286009950613774  0.8196328679309204  0.5567527312787490
  0.8823378123833123  0.7355027679629558  0.6690299699634323
  0.0756310445178343  0.6415306108595971  0.7848058241532954
  0.9071156511900043  0.7279997775204023  0.9196901041441805
  0.0670952525962392  0.6414044742937079  0.5560486228518116
 
  0.00000000E+00  0.00000000E+00  0.00000000E+00
  0.00000000E+00  0.00000000E+00  0.00000000E+00
  0.00000000E+00  0.00000000E+00  0.00000000E+00
  0.00000000E+00  0.00000000E+00  0.00000000E+00
  0.00000000E+00  0.00000000E+00  0.00000000E+00
  0.00000000E+00  0.00000000E+00  0.00000000E+00
  0.00000000E+00  0.00000000E+00  0.00000000E+00
  0.00000000E+00  0.00000000E+00  0.00000000E+00
  0.00000000E+00  0.00000000E+00  0.00000000E+00
  0.00000000E+00  0.00000000E+00  0.00000000E+00
  0.00000000E+00  0.00000000E+00  0.00000000E+00
  0.00000000E+00  0.00000000E+00  0.00000000E+00
  0.00000000E+00  0.00000000E+00  0.00000000E+00
  0.00000000E+00  0.00000000E+00  0.00000000E+00
  0.00000000E+00  0.00000000E+00  0.00000000E+00
  0.00000000E+00  0.00000000E+00  0.00000000E+00
  0.00000000E+00  0.00000000E+00  0.00000000E+00
  0.00000000E+00  0.00000000E+00  0.00000000E+00
  0.00000000E+00  0.00000000E+00  0.00000000E+00
  0.00000000E+00  0.00000000E+00  0.00000000E+00
  0.00000000E+00  0.00000000E+00  0.00000000E+00
  0.00000000E+00  0.00000000E+00  0.00000000E+00
  0.00000000E+00  0.00000000E+00  0.00000000E+00
  0.00000000E+00  0.00000000E+00  0.00000000E+00
  0.00000000E+00  0.00000000E+00  0.00000000E+00
  0.00000000E+00  0.00000000E+00  0.00000000E+00
  0.00000000E+00  0.00000000E+00  0.00000000E+00
  0.00000000E+00  0.00000000E+00  0.00000000E+00
  0.00000000E+00  0.00000000E+00  0.00000000E+00
  0.00000000E+00  0.00000000E+00  0.00000000E+00
  0.00000000E+00  0.00000000E+00  0.00000000E+00
  0.00000000E+00  0.00000000E+00  0.00000000E+00
  0.00000000E+00  0.00000000E+00  0.00000000E+00
  0.00000000E+00  0.00000000E+00  0.00000000E+00
  0.00000000E+00  0.00000000E+00  0.00000000E+00
  0.00000000E+00  0.00000000E+00  0.00000000E+00
  0.00000000E+00  0.00000000E+00  0.00000000E+00
  0.00000000E+00  0.00000000E+00  0.00000000E+00
  0.00000000E+00  0.00000000E+00  0.00000000E+00
  0.00000000E+00  0.00000000E+00  0.00000000E+00
  0.00000000E+00  0.00000000E+00  0.00000000E+00
  0.00000000E+00  0.00000000E+00  0.00000000E+00
  0.00000000E+00  0.00000000E+00  0.00000000E+00
  0.00000000E+00  0.00000000E+00  0.00000000E+00
  0.00000000E+00  0.00000000E+00  0.00000000E+00
  0.00000000E+00  0.00000000E+00  0.00000000E+00
  0.00000000E+00  0.00000000E+00  0.00000000E+00
  0.00000000E+00  0.00000000E+00  0.00000000E+00
  0.00000000E+00  0.00000000E+00  0.00000000E+00
  0.00000000E+00  0.00000000E+00  0.00000000E+00
  0.00000000E+00  0.00000000E+00  0.00000000E+00
  0.00000000E+00  0.00000000E+00  0.00000000E+00
  0.00000000E+00  0.00000000E+00  0.00000000E+00
  0.00000000E+00  0.00000000E+00  0.00000000E+00
  0.00000000E+00  0.00000000E+00  0.00000000E+00
  0.00000000E+00  0.00000000E+00  0.00000000E+00
  0.00000000E+00  0.00000000E+00  0.00000000E+00
  0.00000000E+00  0.00000000E+00  0.00000000E+00
  0.00000000E+00  0.00000000E+00  0.00000000E+00
  0.00000000E+00  0.00000000E+00  0.00000000E+00
  0.00000000E+00  0.00000000E+00  0.00000000E+00
  0.00000000E+00  0.00000000E+00  0.00000000E+00
  0.00000000E+00  0.00000000E+00  0.00000000E+00
  0.00000000E+00  0.00000000E+00  0.00000000E+00
  0.00000000E+00  0.00000000E+00  0.00000000E+00
  0.00000000E+00  0.00000000E+00  0.00000000E+00
  0.00000000E+00  0.00000000E+00  0.00000000E+00
  0.00000000E+00  0.00000000E+00  0.00000000E+00
  0.00000000E+00  0.00000000E+00  0.00000000E+00
  0.00000000E+00  0.00000000E+00  0.00000000E+00
  0.00000000E+00  0.00000000E+00  0.00000000E+00
  0.00000000E+00  0.00000000E+00  0.00000000E+00
  0.00000000E+00  0.00000000E+00  0.00000000E+00
  0.00000000E+00  0.00000000E+00  0.00000000E+00
  0.00000000E+00  0.00000000E+00  0.00000000E+00
  0.00000000E+00  0.00000000E+00  0.00000000E+00
  0.00000000E+00  0.00000000E+00  0.00000000E+00
  0.00000000E+00  0.00000000E+00  0.00000000E+00
  0.00000000E+00  0.00000000E+00  0.00000000E+00
  0.00000000E+00  0.00000000E+00  0.00000000E+00
  0.00000000E+00  0.00000000E+00  0.00000000E+00
  0.00000000E+00  0.00000000E+00  0.00000000E+00
  0.00000000E+00  0.00000000E+00  0.00000000E+00
  0.00000000E+00  0.00000000E+00  0.00000000E+00
  0.00000000E+00  0.00000000E+00  0.00000000E+00
  0.00000000E+00  0.00000000E+00  0.00000000E+00
  0.00000000E+00  0.00000000E+00  0.00000000E+00
  0.00000000E+00  0.00000000E+00  0.00000000E+00
  0.00000000E+00  0.00000000E+00  0.00000000E+00
  0.00000000E+00  0.00000000E+00  0.00000000E+00
  0.00000000E+00  0.00000000E+00  0.00000000E+00
  0.00000000E+00  0.00000000E+00  0.00000000E+00
  0.00000000E+00  0.00000000E+00  0.00000000E+00
  0.00000000E+00  0.00000000E+00  0.00000000E+00
  0.00000000E+00  0.00000000E+00  0.00000000E+00
  0.00000000E+00  0.00000000E+00  0.00000000E+00
  0.00000000E+00  0.00000000E+00  0.00000000E+00
  0.00000000E+00  0.00000000E+00  0.00000000E+00
  0.00000000E+00  0.00000000E+00  0.00000000E+00
  0.00000000E+00  0.00000000E+00  0.00000000E+00
  0.00000000E+00  0.00000000E+00  0.00000000E+00
  0.00000000E+00  0.00000000E+00  0.00000000E+00
  0.00000000E+00  0.00000000E+00  0.00000000E+00
  0.00000000E+00  0.00000000E+00  0.00000000E+00
  0.00000000E+00  0.00000000E+00  0.00000000E+00
  0.00000000E+00  0.00000000E+00  0.00000000E+00
  0.00000000E+00  0.00000000E+00  0.00000000E+00
  0.00000000E+00  0.00000000E+00  0.00000000E+00
  0.00000000E+00  0.00000000E+00  0.00000000E+00
  0.00000000E+00  0.00000000E+00  0.00000000E+00
  0.00000000E+00  0.00000000E+00  0.00000000E+00
  0.00000000E+00  0.00000000E+00  0.00000000E+00
  0.00000000E+00  0.00000000E+00  0.00000000E+00
  0.00000000E+00  0.00000000E+00  0.00000000E+00
  0.00000000E+00  0.00000000E+00  0.00000000E+00
  0.00000000E+00  0.00000000E+00  0.00000000E+00
  0.00000000E+00  0.00000000E+00  0.00000000E+00
  0.00000000E+00  0.00000000E+00  0.00000000E+00
  0.00000000E+00  0.00000000E+00  0.00000000E+00
  0.00000000E+00  0.00000000E+00  0.00000000E+00
  0.00000000E+00  0.00000000E+00  0.00000000E+00
  0.00000000E+00  0.00000000E+00  0.00000000E+00
  0.00000000E+00  0.00000000E+00  0.00000000E+00
  0.00000000E+00  0.00000000E+00  0.00000000E+00
  0.00000000E+00  0.00000000E+00  0.00000000E+00
  0.00000000E+00  0.00000000E+00  0.00000000E+00
  0.00000000E+00  0.00000000E+00  0.00000000E+00
  0.00000000E+00  0.00000000E+00  0.00000000E+00
  0.00000000E+00  0.00000000E+00  0.00000000E+00
  0.00000000E+00  0.00000000E+00  0.00000000E+00
  0.00000000E+00  0.00000000E+00  0.00000000E+00
  0.00000000E+00  0.00000000E+00  0.00000000E+00
  0.00000000E+00  0.00000000E+00  0.00000000E+00
  0.00000000E+00  0.00000000E+00  0.00000000E+00
  0.00000000E+00  0.00000000E+00  0.00000000E+00
  0.00000000E+00  0.00000000E+00  0.00000000E+00
  0.00000000E+00  0.00000000E+00  0.00000000E+00
  0.00000000E+00  0.00000000E+00  0.00000000E+00
  0.00000000E+00  0.00000000E+00  0.00000000E+00
  0.00000000E+00  0.00000000E+00  0.00000000E+00
  0.00000000E+00  0.00000000E+00  0.00000000E+00
  0.00000000E+00  0.00000000E+00  0.00000000E+00
  0.00000000E+00  0.00000000E+00  0.00000000E+00
  0.00000000E+00  0.00000000E+00  0.00000000E+00
  0.00000000E+00  0.00000000E+00  0.00000000E+00
  0.00000000E+00  0.00000000E+00  0.00000000E+00
  0.00000000E+00  0.00000000E+00  0.00000000E+00
  0.00000000E+00  0.00000000E+00  0.00000000E+00
  0.00000000E+00  0.00000000E+00  0.00000000E+00
  0.00000000E+00  0.00000000E+00  0.00000000E+00
  0.00000000E+00  0.00000000E+00  0.00000000E+00
  0.00000000E+00  0.00000000E+00  0.00000000E+00
  0.00000000E+00  0.00000000E+00  0.00000000E+00
  0.00000000E+00  0.00000000E+00  0.00000000E+00
  0.00000000E+00  0.00000000E+00  0.00000000E+00
  0.00000000E+00  0.00000000E+00  0.00000000E+00
  0.00000000E+00  0.00000000E+00  0.00000000E+00
  0.00000000E+00  0.00000000E+00  0.00000000E+00
  0.00000000E+00  0.00000000E+00  0.00000000E+00
  0.00000000E+00  0.00000000E+00  0.00000000E+00
  0.00000000E+00  0.00000000E+00  0.00000000E+00
  0.00000000E+00  0.00000000E+00  0.00000000E+00
  0.00000000E+00  0.00000000E+00  0.00000000E+00
  0.00000000E+00  0.00000000E+00  0.00000000E+00
  0.00000000E+00  0.00000000E+00  0.00000000E+00
  0.00000000E+00  0.00000000E+00  0.00000000E+00
  0.00000000E+00  0.00000000E+00  0.00000000E+00
  0.00000000E+00  0.00000000E+00  0.00000000E+00
  0.00000000E+00  0.00000000E+00  0.00000000E+00
  0.00000000E+00  0.00000000E+00  0.00000000E+00
  0.00000000E+00  0.00000000E+00  0.00000000E+00
  0.00000000E+00  0.00000000E+00  0.00000000E+00
  0.00000000E+00  0.00000000E+00  0.00000000E+00
  0.00000000E+00  0.00000000E+00  0.00000000E+00
  0.00000000E+00  0.00000000E+00  0.00000000E+00
  0.00000000E+00  0.00000000E+00  0.00000000E+00
  0.00000000E+00  0.00000000E+00  0.00000000E+00
  0.00000000E+00  0.00000000E+00  0.00000000E+00
  0.00000000E+00  0.00000000E+00  0.00000000E+00
  0.00000000E+00  0.00000000E+00  0.00000000E+00
  0.00000000E+00  0.00000000E+00  0.00000000E+00
  0.00000000E+00  0.00000000E+00  0.00000000E+00
  0.00000000E+00  0.00000000E+00  0.00000000E+00
  0.00000000E+00  0.00000000E+00  0.00000000E+00
  0.00000000E+00  0.00000000E+00  0.00000000E+00
  0.00000000E+00  0.00000000E+00  0.00000000E+00
  0.00000000E+00  0.00000000E+00  0.00000000E+00
  0.00000000E+00  0.00000000E+00  0.00000000E+00
  0.00000000E+00  0.00000000E+00  0.00000000E+00
  0.00000000E+00  0.00000000E+00  0.00000000E+00
  0.00000000E+00  0.00000000E+00  0.00000000E+00
