supercell of POSCAR                     
   1.03228000000000     
     6.3970863126299999    5.5387332920799999    4.9397337979799998
   -15.9736979067999982   -5.5365852353599996    9.8547656895600007
     6.4026568282999996  -11.0930079636999999    0.0094448205590600
   Sc   Al   N 
    32    64    95
Direct
  0.3659707493679889  0.0670231910085306  0.3113336371489126
  0.8269329736153708  0.3063347208165652  0.4344491476391639
  0.0176865387775536  0.2300151801325896  0.3046099361169610
  0.1866920294197385  0.1461474799633322  0.4380621407317165
  0.0179260270097359  0.2318501417356416  0.0680761207296072
  0.0267831251607333  0.4562662621010745  0.3618972632131587
  0.2305565123737665  0.3933419946734631  0.0056546818758534
  0.6893348172947924  0.1233636095193020  0.1175790888112687
  0.3690751579085401  0.0686887608815212  0.8084496983432174
  0.8291442057424305  0.3082702295573441  0.9351935541979159
  0.0202347527115947  0.2315335839045005  0.8044394407224473
  0.1816868802003455  0.1466107865778810  0.9357266566521147
  0.0194816742069719  0.2309554926665314  0.5674454149152979
  0.0356934294139108  0.4612237731215103  0.8642104568946607
  0.2292727436555637  0.3928081146744162  0.5060103775228413
  0.6892352961340009  0.1279524118086002  0.6190514553287869
  0.3765939230102262  0.5716235266810372  0.3109640412103971
  0.8340281833127108  0.8084692302537491  0.4346367569335001
  0.0264368802683919  0.7326288359873416  0.3056987782551914
  0.1926394325235918  0.6459772463113396  0.4374720597697390
  0.0251046937794399  0.7334303896924510  0.0671793723732961
  0.0393823481373090  0.9618188713621549  0.3701865711220620
  0.2367155562603429  0.8943596806033156  0.0059493693712938
  0.6951707736068897  0.6317064562656185  0.1195692792261909
  0.3673182795610686  0.5697645937329554  0.8089521611189596
  0.8350258792566336  0.8094192292318922  0.9335795319261919
  0.0259660330439360  0.7324300206107424  0.8054643780207442
  0.1904790006161932  0.6480208104914382  0.9377337134655193
  0.0241214920634008  0.7316633432903785  0.5674661627882500
  0.0466995849026048  0.9654454760284779  0.8714584928214251
  0.2333771643211264  0.8922928738352880  0.5055546734749328
  0.6930559648519932  0.6307252884052659  0.6196799109549929
  0.3642268874792336  0.0748864319882898  0.0664837393588869
  0.5414509019652769  0.4870130182215249  0.4409344785546168
  0.5429836350358173  0.4880948475973526  0.1902226790554096
  0.6856815058737027  0.4063220006398112  0.3112515529906759
  0.6829142257730680  0.4021915869459747  0.0621399130242679
  0.7631962654030247  0.2831303052137173  0.1656336752947638
  0.1919282993647471  0.1490423593554198  0.1859534247666659
  0.0469427587749038  0.4897383839129930  0.0966949275687625
  0.2850390672895813  0.3822378611905464  0.2569998119136798
  0.3970015237000268  0.3042635569310548  0.1247270189020639
  0.5414674392800762  0.2252146513468176  0.2553305743285605
  0.3959011352690425  0.3052883207879020  0.3796877501772755
  0.5353787941439663  0.2232766413367600  0.9922024048314171
  0.8869486853823005  0.0516208166501073  0.2482176156761327
  0.7267430483817279  0.1349598891514887  0.3762621571785232
  0.8844578112057704  0.0508461870022359  0.0009235693619232
  0.3567023291919540  0.0705456696703308  0.5647635891917275
  0.5323908526518224  0.4853782724892710  0.9337326425098809
  0.5371986122564465  0.4864299541332784  0.6926599341077448
  0.6886851460943362  0.4070921940479408  0.8111565807537033
  0.6872555976278036  0.4023298700240900  0.5656422603917761
  0.8510456419185104  0.3209336253480046  0.6829402338620199
  0.1954828141841531  0.1493233403736767  0.6856225429149347
  0.0468514586050333  0.4705245533798035  0.6200434088484101
  0.2298342937514448  0.3887452360903012  0.7478079876765591
  0.3944394988824982  0.3071470930998288  0.6295975745833360
  0.5550042965531787  0.2296454813687774  0.7473162598795895
  0.3905725255735391  0.3083608180762383  0.8722650010480208
  0.5475546452468905  0.2256963109304948  0.5071661929252400
  0.8854405714601583  0.0520032439501108  0.7466300159077477
  0.7281445280195555  0.1361379736529429  0.8749435523126650
  0.8837279889563092  0.0508532331035667  0.5014960919070504
  0.3613861208242639  0.5721745489444601  0.0630602145720474
  0.5365356584111254  0.9845794707213429  0.4360677893649267
  0.5399300004756995  0.9860235197798346  0.1945321745105986
  0.6931907519520593  0.9075090421488525  0.3120239565851790
  0.6911141928219990  0.9030389239187926  0.0646082715327339
  0.8573549488892382  0.8230978040728019  0.1834554756955882
  0.2007033890745333  0.6539552366013268  0.1888202131987740
  0.0534396874692575  0.9723497324039059  0.1231393490675359
  0.2348700241044597  0.8887333523737553  0.2493765680111153
  0.3997136726957962  0.8082909374029015  0.1286780726246377
  0.5598066796617687  0.7311009212168145  0.2475838566972257
  0.3973044325206132  0.8085706325189008  0.3751009269690257
  0.5521408787600990  0.7279148647046654  0.0042401471381268
  0.8874940573146830  0.5540287040009986  0.2487575621561788
  0.7321345741581311  0.6372936611735796  0.3764236559742216
  0.8777971337869275  0.5540491768968820  0.9962608910321791
  0.3552056546662072  0.5690849968440048  0.5603514924721722
  0.5373038275804021  0.9847033490643895  0.9336863789930874
  0.5387396305571173  0.9857792444495672  0.6928370403393771
  0.6940504484400805  0.9073935751506710  0.8115453297110449
  0.6896754788622417  0.9027092346988539  0.5649091999796312
  0.8568562773413575  0.8228632078533167  0.6850120831991546
  0.1970127139503930  0.6490870635318942  0.6848436565089884
  0.0500895275498010  0.9709330376174421  0.6232758621029078
  0.2341191481755445  0.8884532116033910  0.7492831333972774
  0.3978423864107938  0.8071081249473693  0.6292082623607484
  0.5557459647957685  0.7291106644072443  0.7464941017259861
  0.3969960777743253  0.8080677228905131  0.8742107512015878
  0.5530149709727112  0.7284331524573133  0.5055987432449456
  0.8854102192082394  0.5528198878537651  0.7464917337741142
  0.7266762027938327  0.6373093209839382  0.8739014586936307
  0.8858322834745422  0.5512795001892883  0.5015495605046283
  0.5761296251797319  0.1790088206857163  0.3687532594645972
  0.5475596806624452  0.1802301430626656  0.1155411251865246
  0.7246363995842557  0.0788922899044664  0.4779906951301172
  0.7290614634450563  0.0801224782755909  0.2463775049448600
  0.8794682958716322  0.0029684094706184  0.3615471793968865
  0.0376625952158065  0.4125578658609328  0.4879745308628785
  0.8726457374050227  0.4966763117799999  0.1087332108367960
  0.2361584125771330  0.3336881376222749  0.3596414549374671
  0.3917570361615788  0.2554710543414132  0.4895917853658105
  0.2385414486041171  0.3318000288151381  0.1196302527461626
  0.3812768182379713  0.2494063326278493  0.2381677024617304
  0.2455528006953145  0.0689187618801554  0.1646459234213538
  0.2541310778677257  0.0616204156155931  0.4289692981479334
  0.4344579704085376  0.4816605974199462  0.2996335969825452
  0.4536423907726714  0.0044873059210460  0.0603734784759880
  0.5795544684732832  0.4028477107297732  0.1732117077792168
  0.7347212271349903  0.3250610954407591  0.2902413649696598
  0.5831013087286721  0.4018854507923493  0.4245617178641510
  0.7185986957753485  0.3183441723076825  0.0531685898773802
  0.8864303712262682  0.2389975682990482  0.1721394675548424
  0.0779640859217352  0.1420537991650690  0.2859610983043410
  0.9094017538281278  0.2283592911266865  0.4213566397039372
  0.0724390455784345  0.1430967442168196  0.0573902295891529
  0.5785967209987675  0.1799707935275023  0.8647605778006522
  0.5288780531729032  0.1705682963970716  0.6116243956167224
  0.7257962320773288  0.0789800437302901  0.9761960585114480
  0.7274919813163265  0.0802623584235604  0.7452815548052314
  0.8819133126845458  0.0035218471364686  0.8610659176745727
  0.0413229937078086  0.4143788345713801  0.9976900741487498
  0.8782606672603066  0.4949699796246421  0.6099073922829561
  0.0572672111792372  0.4106257578046097  0.7191835311364017
  0.2326456093647735  0.3372702563278835  0.8566945757790236
  0.3851284900601186  0.2553979050173965  0.9835359984803915
  0.2352085492265346  0.3328961402356256  0.6200766127020358
  0.3856130224922083  0.2497602330792645  0.7377237291811980
  0.2390555981251765  0.0657818028034427  0.6640384843601055
  0.2643302406706383  0.0676236364658038  0.9312601588274845
  0.4247094328721133  0.4807155054057048  0.7969277204535388
  0.4489186500527822  0.0009340874311690  0.5590209110777948
  0.5807340650279755  0.4035530679095913  0.6740396458799438
  0.7454163654077632  0.3281025042476458  0.7900708669239549
  0.5823987840056333  0.4029387222336069  0.9236646094302756
  0.7291583473033043  0.3199915793943973  0.5586652440049420
  0.8878966004541624  0.2377663761949975  0.6714342955368053
  0.0770958934928672  0.1421919977205448  0.7835068922817783
  0.9112839374212598  0.2297962925704482  0.9224350840770299
  0.0737008789700440  0.1420542474345297  0.5567698513715342
  0.5829638623391205  0.6813839922943927  0.3671331144113950
  0.5307207861582413  0.6715245214254182  0.1101603799425774
  0.7271885065586758  0.5798211943885505  0.4780105240105712
  0.7286741021815075  0.5809773081546155  0.2449179512106454
  0.8764210638557302  0.5006160890949118  0.3593326134303254
  0.0451502710214200  0.9122361585929468  0.4953801038686549
  0.8828938243663202  0.9960777701481334  0.1111053430713156
  0.0646076073527695  0.9130954032747951  0.2230623829892551
  0.2384428778873229  0.8364239601182319  0.3566590628074451
  0.3943839635190187  0.7565379407882915  0.4869088457615973
  0.2408404549346983  0.8340534947549969  0.1208232881382472
  0.3896695099621823  0.7504948290207949  0.2378001418355709
  0.2415788474901888  0.5670918917583876  0.1656419371289175
  0.2459196308327591  0.5535403458174102  0.4189660345409294
  0.4297548171073231  0.9804750337191308  0.2991475702341475
  0.4461006399283320  0.5004457912122504  0.0585744797725170
  0.5855922612564015  0.9042428604820003  0.1742527571294303
  0.7484671513064711  0.8281848018519540  0.2890970576223282
  0.5882397396591514  0.9027998633679104  0.4250461596249053
  0.7349105525098025  0.8212063734936663  0.0583363166345237
  0.8942376472639495  0.7394313341078416  0.1719943233219539
  0.0812142265817926  0.6417191456998026  0.2863596156977692
  0.9146783346903575  0.7291923244131411  0.4215465655023181
  0.0737982779769624  0.6410281786074066  0.0571879659233616
  0.5792879912396955  0.6804318203179491  0.8655877212743022
  0.5258017039595799  0.6695279697641610  0.6070133249372986
  0.7194069758436186  0.5798714136075844  0.9754759468175607
  0.7259108504776322  0.5802952928440419  0.7440308233720216
  0.8760271282937424  0.5027985551700240  0.8602758921777962
  0.0479476096047193  0.9140120863943366  0.9945959190185576
  0.8808722651556522  0.9954170230136157  0.6108700988207332
  0.0634163952239035  0.9126237174751921  0.7245621823682171
  0.2390705700072218  0.8369510807245746  0.8576276770632489
  0.3947291980787853  0.7570736444600357  0.9874314929957109
  0.2390867678433253  0.8328824382568669  0.6213248081168388
  0.3867489203318044  0.7488834035001730  0.7370557695749298
  0.2381439676001378  0.5640745454362417  0.6603045514937307
  0.2517877174329470  0.5604966373123972  0.9278658715484625
  0.4286601329212516  0.9805032900599144  0.7982511252583677
  0.4462795620130677  0.4996869725368072  0.5570274905652894
  0.5844411634311726  0.9037773347414060  0.6744881501975186
  0.7447714577749807  0.8267086481220076  0.7881490950502084
  0.5886252056644210  0.9030623953627597  0.9246459405876450
  0.7349650103099350  0.8214403975043965  0.5597000997922166
  0.8926267049712280  0.7388589730873036  0.6720913983530963
  0.0801044905059101  0.6413669729281466  0.7845504759385094
  0.9126565058999034  0.7287107146991687  0.9209301701842421
  0.0762860071834695  0.6412315698712163  0.5545248331503743
 
  0.00000000E+00  0.00000000E+00  0.00000000E+00
  0.00000000E+00  0.00000000E+00  0.00000000E+00
  0.00000000E+00  0.00000000E+00  0.00000000E+00
  0.00000000E+00  0.00000000E+00  0.00000000E+00
  0.00000000E+00  0.00000000E+00  0.00000000E+00
  0.00000000E+00  0.00000000E+00  0.00000000E+00
  0.00000000E+00  0.00000000E+00  0.00000000E+00
  0.00000000E+00  0.00000000E+00  0.00000000E+00
  0.00000000E+00  0.00000000E+00  0.00000000E+00
  0.00000000E+00  0.00000000E+00  0.00000000E+00
  0.00000000E+00  0.00000000E+00  0.00000000E+00
  0.00000000E+00  0.00000000E+00  0.00000000E+00
  0.00000000E+00  0.00000000E+00  0.00000000E+00
  0.00000000E+00  0.00000000E+00  0.00000000E+00
  0.00000000E+00  0.00000000E+00  0.00000000E+00
  0.00000000E+00  0.00000000E+00  0.00000000E+00
  0.00000000E+00  0.00000000E+00  0.00000000E+00
  0.00000000E+00  0.00000000E+00  0.00000000E+00
  0.00000000E+00  0.00000000E+00  0.00000000E+00
  0.00000000E+00  0.00000000E+00  0.00000000E+00
  0.00000000E+00  0.00000000E+00  0.00000000E+00
  0.00000000E+00  0.00000000E+00  0.00000000E+00
  0.00000000E+00  0.00000000E+00  0.00000000E+00
  0.00000000E+00  0.00000000E+00  0.00000000E+00
  0.00000000E+00  0.00000000E+00  0.00000000E+00
  0.00000000E+00  0.00000000E+00  0.00000000E+00
  0.00000000E+00  0.00000000E+00  0.00000000E+00
  0.00000000E+00  0.00000000E+00  0.00000000E+00
  0.00000000E+00  0.00000000E+00  0.00000000E+00
  0.00000000E+00  0.00000000E+00  0.00000000E+00
  0.00000000E+00  0.00000000E+00  0.00000000E+00
  0.00000000E+00  0.00000000E+00  0.00000000E+00
  0.00000000E+00  0.00000000E+00  0.00000000E+00
  0.00000000E+00  0.00000000E+00  0.00000000E+00
  0.00000000E+00  0.00000000E+00  0.00000000E+00
  0.00000000E+00  0.00000000E+00  0.00000000E+00
  0.00000000E+00  0.00000000E+00  0.00000000E+00
  0.00000000E+00  0.00000000E+00  0.00000000E+00
  0.00000000E+00  0.00000000E+00  0.00000000E+00
  0.00000000E+00  0.00000000E+00  0.00000000E+00
  0.00000000E+00  0.00000000E+00  0.00000000E+00
  0.00000000E+00  0.00000000E+00  0.00000000E+00
  0.00000000E+00  0.00000000E+00  0.00000000E+00
  0.00000000E+00  0.00000000E+00  0.00000000E+00
  0.00000000E+00  0.00000000E+00  0.00000000E+00
  0.00000000E+00  0.00000000E+00  0.00000000E+00
  0.00000000E+00  0.00000000E+00  0.00000000E+00
  0.00000000E+00  0.00000000E+00  0.00000000E+00
  0.00000000E+00  0.00000000E+00  0.00000000E+00
  0.00000000E+00  0.00000000E+00  0.00000000E+00
  0.00000000E+00  0.00000000E+00  0.00000000E+00
  0.00000000E+00  0.00000000E+00  0.00000000E+00
  0.00000000E+00  0.00000000E+00  0.00000000E+00
  0.00000000E+00  0.00000000E+00  0.00000000E+00
  0.00000000E+00  0.00000000E+00  0.00000000E+00
  0.00000000E+00  0.00000000E+00  0.00000000E+00
  0.00000000E+00  0.00000000E+00  0.00000000E+00
  0.00000000E+00  0.00000000E+00  0.00000000E+00
  0.00000000E+00  0.00000000E+00  0.00000000E+00
  0.00000000E+00  0.00000000E+00  0.00000000E+00
  0.00000000E+00  0.00000000E+00  0.00000000E+00
  0.00000000E+00  0.00000000E+00  0.00000000E+00
  0.00000000E+00  0.00000000E+00  0.00000000E+00
  0.00000000E+00  0.00000000E+00  0.00000000E+00
  0.00000000E+00  0.00000000E+00  0.00000000E+00
  0.00000000E+00  0.00000000E+00  0.00000000E+00
  0.00000000E+00  0.00000000E+00  0.00000000E+00
  0.00000000E+00  0.00000000E+00  0.00000000E+00
  0.00000000E+00  0.00000000E+00  0.00000000E+00
  0.00000000E+00  0.00000000E+00  0.00000000E+00
  0.00000000E+00  0.00000000E+00  0.00000000E+00
  0.00000000E+00  0.00000000E+00  0.00000000E+00
  0.00000000E+00  0.00000000E+00  0.00000000E+00
  0.00000000E+00  0.00000000E+00  0.00000000E+00
  0.00000000E+00  0.00000000E+00  0.00000000E+00
  0.00000000E+00  0.00000000E+00  0.00000000E+00
  0.00000000E+00  0.00000000E+00  0.00000000E+00
  0.00000000E+00  0.00000000E+00  0.00000000E+00
  0.00000000E+00  0.00000000E+00  0.00000000E+00
  0.00000000E+00  0.00000000E+00  0.00000000E+00
  0.00000000E+00  0.00000000E+00  0.00000000E+00
  0.00000000E+00  0.00000000E+00  0.00000000E+00
  0.00000000E+00  0.00000000E+00  0.00000000E+00
  0.00000000E+00  0.00000000E+00  0.00000000E+00
  0.00000000E+00  0.00000000E+00  0.00000000E+00
  0.00000000E+00  0.00000000E+00  0.00000000E+00
  0.00000000E+00  0.00000000E+00  0.00000000E+00
  0.00000000E+00  0.00000000E+00  0.00000000E+00
  0.00000000E+00  0.00000000E+00  0.00000000E+00
  0.00000000E+00  0.00000000E+00  0.00000000E+00
  0.00000000E+00  0.00000000E+00  0.00000000E+00
  0.00000000E+00  0.00000000E+00  0.00000000E+00
  0.00000000E+00  0.00000000E+00  0.00000000E+00
  0.00000000E+00  0.00000000E+00  0.00000000E+00
  0.00000000E+00  0.00000000E+00  0.00000000E+00
  0.00000000E+00  0.00000000E+00  0.00000000E+00
  0.00000000E+00  0.00000000E+00  0.00000000E+00
  0.00000000E+00  0.00000000E+00  0.00000000E+00
  0.00000000E+00  0.00000000E+00  0.00000000E+00
  0.00000000E+00  0.00000000E+00  0.00000000E+00
  0.00000000E+00  0.00000000E+00  0.00000000E+00
  0.00000000E+00  0.00000000E+00  0.00000000E+00
  0.00000000E+00  0.00000000E+00  0.00000000E+00
  0.00000000E+00  0.00000000E+00  0.00000000E+00
  0.00000000E+00  0.00000000E+00  0.00000000E+00
  0.00000000E+00  0.00000000E+00  0.00000000E+00
  0.00000000E+00  0.00000000E+00  0.00000000E+00
  0.00000000E+00  0.00000000E+00  0.00000000E+00
  0.00000000E+00  0.00000000E+00  0.00000000E+00
  0.00000000E+00  0.00000000E+00  0.00000000E+00
  0.00000000E+00  0.00000000E+00  0.00000000E+00
  0.00000000E+00  0.00000000E+00  0.00000000E+00
  0.00000000E+00  0.00000000E+00  0.00000000E+00
  0.00000000E+00  0.00000000E+00  0.00000000E+00
  0.00000000E+00  0.00000000E+00  0.00000000E+00
  0.00000000E+00  0.00000000E+00  0.00000000E+00
  0.00000000E+00  0.00000000E+00  0.00000000E+00
  0.00000000E+00  0.00000000E+00  0.00000000E+00
  0.00000000E+00  0.00000000E+00  0.00000000E+00
  0.00000000E+00  0.00000000E+00  0.00000000E+00
  0.00000000E+00  0.00000000E+00  0.00000000E+00
  0.00000000E+00  0.00000000E+00  0.00000000E+00
  0.00000000E+00  0.00000000E+00  0.00000000E+00
  0.00000000E+00  0.00000000E+00  0.00000000E+00
  0.00000000E+00  0.00000000E+00  0.00000000E+00
  0.00000000E+00  0.00000000E+00  0.00000000E+00
  0.00000000E+00  0.00000000E+00  0.00000000E+00
  0.00000000E+00  0.00000000E+00  0.00000000E+00
  0.00000000E+00  0.00000000E+00  0.00000000E+00
  0.00000000E+00  0.00000000E+00  0.00000000E+00
  0.00000000E+00  0.00000000E+00  0.00000000E+00
  0.00000000E+00  0.00000000E+00  0.00000000E+00
  0.00000000E+00  0.00000000E+00  0.00000000E+00
  0.00000000E+00  0.00000000E+00  0.00000000E+00
  0.00000000E+00  0.00000000E+00  0.00000000E+00
  0.00000000E+00  0.00000000E+00  0.00000000E+00
  0.00000000E+00  0.00000000E+00  0.00000000E+00
  0.00000000E+00  0.00000000E+00  0.00000000E+00
  0.00000000E+00  0.00000000E+00  0.00000000E+00
  0.00000000E+00  0.00000000E+00  0.00000000E+00
  0.00000000E+00  0.00000000E+00  0.00000000E+00
  0.00000000E+00  0.00000000E+00  0.00000000E+00
  0.00000000E+00  0.00000000E+00  0.00000000E+00
  0.00000000E+00  0.00000000E+00  0.00000000E+00
  0.00000000E+00  0.00000000E+00  0.00000000E+00
  0.00000000E+00  0.00000000E+00  0.00000000E+00
  0.00000000E+00  0.00000000E+00  0.00000000E+00
  0.00000000E+00  0.00000000E+00  0.00000000E+00
  0.00000000E+00  0.00000000E+00  0.00000000E+00
  0.00000000E+00  0.00000000E+00  0.00000000E+00
  0.00000000E+00  0.00000000E+00  0.00000000E+00
  0.00000000E+00  0.00000000E+00  0.00000000E+00
  0.00000000E+00  0.00000000E+00  0.00000000E+00
  0.00000000E+00  0.00000000E+00  0.00000000E+00
  0.00000000E+00  0.00000000E+00  0.00000000E+00
  0.00000000E+00  0.00000000E+00  0.00000000E+00
  0.00000000E+00  0.00000000E+00  0.00000000E+00
  0.00000000E+00  0.00000000E+00  0.00000000E+00
  0.00000000E+00  0.00000000E+00  0.00000000E+00
  0.00000000E+00  0.00000000E+00  0.00000000E+00
  0.00000000E+00  0.00000000E+00  0.00000000E+00
  0.00000000E+00  0.00000000E+00  0.00000000E+00
  0.00000000E+00  0.00000000E+00  0.00000000E+00
  0.00000000E+00  0.00000000E+00  0.00000000E+00
  0.00000000E+00  0.00000000E+00  0.00000000E+00
  0.00000000E+00  0.00000000E+00  0.00000000E+00
  0.00000000E+00  0.00000000E+00  0.00000000E+00
  0.00000000E+00  0.00000000E+00  0.00000000E+00
  0.00000000E+00  0.00000000E+00  0.00000000E+00
  0.00000000E+00  0.00000000E+00  0.00000000E+00
  0.00000000E+00  0.00000000E+00  0.00000000E+00
  0.00000000E+00  0.00000000E+00  0.00000000E+00
  0.00000000E+00  0.00000000E+00  0.00000000E+00
  0.00000000E+00  0.00000000E+00  0.00000000E+00
  0.00000000E+00  0.00000000E+00  0.00000000E+00
  0.00000000E+00  0.00000000E+00  0.00000000E+00
  0.00000000E+00  0.00000000E+00  0.00000000E+00
  0.00000000E+00  0.00000000E+00  0.00000000E+00
  0.00000000E+00  0.00000000E+00  0.00000000E+00
  0.00000000E+00  0.00000000E+00  0.00000000E+00
  0.00000000E+00  0.00000000E+00  0.00000000E+00
  0.00000000E+00  0.00000000E+00  0.00000000E+00
  0.00000000E+00  0.00000000E+00  0.00000000E+00
  0.00000000E+00  0.00000000E+00  0.00000000E+00
  0.00000000E+00  0.00000000E+00  0.00000000E+00
  0.00000000E+00  0.00000000E+00  0.00000000E+00
  0.00000000E+00  0.00000000E+00  0.00000000E+00
  0.00000000E+00  0.00000000E+00  0.00000000E+00
  0.00000000E+00  0.00000000E+00  0.00000000E+00
  0.00000000E+00  0.00000000E+00  0.00000000E+00
  0.00000000E+00  0.00000000E+00  0.00000000E+00
