supercell of POSCAR                     
   1.03228000000000     
     6.3970863126299999    5.5387332920799999    4.9397337979799998
   -15.9736979067999982   -5.5365852353599996    9.8547656895600007
     6.4026568282999996  -11.0930079636999999    0.0094448205590600
   Sc   Al   N 
    31    64    96
Direct
  0.3729169115269855  0.0716157119140135  0.3110218167241925
  0.8360747357353304  0.3069537160816935  0.4303655810380604
  0.1900904751262900  0.1525384150257239  0.4350595076505996
  0.0291706929665168  0.2312716267097983  0.0839933162915969
  0.0417147942880334  0.4642029772089060  0.3705974920943262
  0.2308753721502228  0.3901554536571510  0.0055766175532597
  0.6951307819355179  0.1294386942574519  0.1243666433330901
  0.3739678420671595  0.0710232487811453  0.8107784830944169
  0.8368653445294214  0.3073343966278017  0.9357987677180333
  0.0237100729690809  0.2301864884966989  0.8080506093786610
  0.1939887401784688  0.1492534157116978  0.9393969494944443
  0.0211347543730867  0.2307193291504035  0.5649597212762600
  0.0392838927978687  0.4623245115939056  0.8692520603239871
  0.2234436022103665  0.3865366093503582  0.5011806914492496
  0.6940701925211030  0.1296904208516736  0.6197562953852582
  0.3668582141971655  0.5713322101794063  0.3092918456734353
  0.8302981349991327  0.8081474337024730  0.4323914681859407
  0.0171975558213475  0.7298686119943198  0.3038160525145415
  0.1852720919946620  0.6474361079993685  0.4381236668905686
  0.0188618389376387  0.7318638649278881  0.0664620644364646
  0.0438421215652269  0.9673041718542379  0.3705156743506421
  0.2288785658805850  0.8913513635113617  0.0034486170612666
  0.6895232071897510  0.6294319496514902  0.1172490348956288
  0.3662061011172000  0.5677121648457941  0.8084681813218353
  0.8298841916724911  0.8084169613818162  0.9329113477811433
  0.0172534720505695  0.7300601900268902  0.8024156315829316
  0.1869014840592911  0.6472573524128293  0.9366555084258792
  0.0178328446968692  0.7318091985734156  0.5664514236288127
  0.0412544116100904  0.9640628440557677  0.8695641140060388
  0.2318982534127514  0.8931625599284843  0.5039439045345944
  0.6832149387508863  0.6247245936698036  0.6146556384575348
  0.3594264223282906  0.0705565467029317  0.0633448744241605
  0.5094865115403167  0.4724839562543011  0.4282711880673276
  0.5401193297411382  0.4877715743066418  0.1904467234291047
  0.6953569689343411  0.4086124727032328  0.3120226900547252
  0.6892823876778422  0.4028037975635215  0.0639359496469609
  0.8572155085022075  0.3249565326367190  0.1858603092420097
  0.1976048748939263  0.1480946601810800  0.1866456659132538
  0.0502798397092761  0.4708487073947865  0.1223715979792459
  0.2379482335935279  0.3925511711094387  0.2502350203533297
  0.3997944899522921  0.3083072343059783  0.1311552586570528
  0.5589127680232053  0.2302341839367941  0.2471853080823649
  0.4014057307801906  0.3098650622095249  0.3744425898243051
  0.5543131546826885  0.2277003008503158  0.0067879878574644
  0.8887120796100945  0.0548099142391791  0.2480045151321448
  0.7408227655269641  0.1389810258056983  0.3734668480274053
  0.8845002417064478  0.0503661303990413  0.0015932833022063
  0.3599001365513672  0.0729973041206051  0.5645223002710793
  0.5349044314400189  0.4845986197222558  0.9345183640184374
  0.5346297698361298  0.4845883123134982  0.6915184261368452
  0.6927386475441963  0.4070737512310814  0.8114272872956647
  0.6914557612747245  0.4015948354103003  0.5638375284975510
  0.8573630982242335  0.3216076393185361  0.6837898512505163
  0.1968883069236966  0.1488336039581100  0.6852709618042709
  0.0485074358918709  0.4699239972882694  0.6222643914794332
  0.2316872481354224  0.3868665550961055  0.7486756646020112
  0.3987999986038062  0.3071191361064933  0.6290436341456243
  0.5608555681707941  0.2304173097254818  0.7487568828338667
  0.3967977054284191  0.3076836253495046  0.8744126639069520
  0.5540671906972889  0.2279685887842504  0.5046990302573491
  0.8867517919310188  0.0518365580138749  0.7477948671621206
  0.7348377335557998  0.1370412814523050  0.8804218119121785
  0.8848041106691440  0.0513546520150925  0.5005622677759618
  0.3556584591914529  0.5703456030990708  0.0626065573275412
  0.5372090176350497  0.9863586300359515  0.4347273620567123
  0.5342457119883335  0.9842674707762384  0.1925776614003780
  0.6894787667757356  0.9067922283333161  0.3106872042372473
  0.6861343642620668  0.9018959521228354  0.0640271137002131
  0.8520629422530703  0.8224725536652358  0.1837242370371825
  0.1944930498000872  0.6495528461064310  0.1846011963337375
  0.0491728820487651  0.9708854208333833  0.1230560926948598
  0.2281973184353774  0.8882210055393145  0.2488646322070167
  0.3932874446367762  0.8064676637736099  0.1281501962531166
  0.5534163392617302  0.7290461690781598  0.2467042669734738
  0.3915407635149037  0.8074491074463879  0.3735519648435499
  0.5470969597708901  0.7263130330038337  0.0038162877869681
  0.8866906323638588  0.5525988992892295  0.2460917225275381
  0.7210998338942787  0.6326767748585809  0.3741239097386355
  0.8830131296662458  0.5512803419020642  0.0003293175998635
  0.3538711574839581  0.5695612706597331  0.5643307867998075
  0.5353216625827102  0.9847698089595198  0.9362069309333023
  0.5387813469769753  0.9867887166026890  0.6933592141387166
  0.6889842718490797  0.9062290454459045  0.8108245747396055
  0.6868205397902543  0.9023038259969383  0.5637228809424641
  0.8504009387680114  0.8206944766094821  0.6825950363242228
  0.1914529371316220  0.6484613247462505  0.6846069420143408
  0.0492948151381256  0.9701131146287878  0.6223935255735427
  0.2299183724225600  0.8883719071195770  0.7481930184472176
  0.3939893379084793  0.8070952051189337  0.6282151778710130
  0.5522426889860057  0.7279369592350236  0.7459610527364902
  0.3913417336399050  0.8069432228135511  0.8727888342865811
  0.5470923843797166  0.7264334564670918  0.5042189732016453
  0.8838993475300185  0.5515381383225204  0.7465833830294955
  0.7252582981981632  0.6354012777179250  0.8736215689654685
  0.8756884926102728  0.5491830901125354  0.4993307712740318
  0.5838442180178518  0.1819072514387656  0.3657534559899176
  0.5299395380586631  0.1701831074250606  0.1097733985310043
  0.7261073200067329  0.0802068883613103  0.4769306963443753
  0.7205642925219777  0.0756408360796499  0.2442665638811619
  0.8735689546462808  0.0013891821335861  0.3601520563187464
  0.0436227212453915  0.4134513090131904  0.4934310798589863
  0.8801929649073159  0.4955788584156195  0.1094119192985161
  0.0627309364021400  0.4134094294228206  0.2239126562190989
  0.2898668985356352  0.3625201452225184  0.3686869108188802
  0.3995604378912105  0.2591654541748056  0.4881977401627751
  0.2403607984826692  0.3335075114764692  0.1238312723015724
  0.3884523848416208  0.2492346357849300  0.2369626965848752
  0.2418977104439506  0.0636702970735925  0.1620377050281547
  0.2597959179678213  0.0660803201083553  0.4294923634137504
  0.4313273950361705  0.4867546993006542  0.2923718427952764
  0.4444156301516813  0.9983302055972416  0.0567073137971761
  0.5849010102458010  0.4050105849184149  0.1740567177385941
  0.7456879135931089  0.3284727007567199  0.2874737720314542
  0.5975493148048443  0.4029364165279716  0.4250207962947528
  0.7354909739493252  0.3218291465625214  0.0583721579868595
  0.8807483337005664  0.2389683190189515  0.1701894292550108
  0.0835938078184384  0.1356881791165705  0.2827386808389178
  0.9210055046725998  0.2309419166481135  0.4200620386554164
  0.0767322334434368  0.1397405433169254  0.0554486086220152
  0.5863412029609520  0.1816466752943953  0.8684774448670467
  0.5335696132723342  0.1719968587604015  0.6114513435232283
  0.7241754681282089  0.0780699299208436  0.9796263726708219
  0.7287916467273163  0.0808525205542381  0.7471186471314653
  0.8749048844183704  0.0011993751928259  0.8598031253099521
  0.0461814869701271  0.4125578639846097  0.9940204525277636
  0.8803059785541194  0.4952859045002995  0.6115337964894465
  0.0622284396118502  0.4113153564152086  0.7237862189511048
  0.2363814843407184  0.3345738701421368  0.8567716172591560
  0.3977457959514723  0.2581599810354334  0.9888415744258126
  0.2387529521895999  0.3312306981858129  0.6223905146530058
  0.3893607215393970  0.2486988975117725  0.7382993880094801
  0.2407739449079571  0.0647959142699648  0.6641737565935912
  0.2577927020028881  0.0627961859713082  0.9269155342696536
  0.4264287557620889  0.4793382353254785  0.7984408096257809
  0.4490494894583676  0.0012987663127291  0.5586030491431302
  0.5845428463870945  0.4034217961105426  0.6742765355502058
  0.7490921409017020  0.3279260070629704  0.7906401667298084
  0.5867965305494920  0.4027218505300425  0.9239696809606102
  0.7377900812901359  0.3205116787849889  0.5587781600370079
  0.8932031594349539  0.2377914204361957  0.6751778621054783
  0.0809091787892058  0.1406697136193742  0.7858160230704598
  0.9215953548293427  0.2286809646969488  0.9316314740668616
  0.0751793399885727  0.1411776348783178  0.5566620412601821
  0.5773561310410571  0.6809328256874068  0.3658282617568602
  0.5267599217358310  0.6704117769796554  0.1091958372787971
  0.7121863477029891  0.5737482570564651  0.4733368148148998
  0.7294490812243808  0.5814749685590641  0.2423278107002886
  0.8802220094789064  0.5045250879320520  0.3596566851692273
  0.0431478568496928  0.9126508059687808  0.4921833316056237
  0.8767736956033332  0.9935759673269402  0.1090715720632218
  0.0568064788773981  0.9112190997204834  0.2236379466735485
  0.2308729752302199  0.8343156467280011  0.3550955582100315
  0.3903592888536593  0.7566853452294211  0.4869582449283243
  0.2345241902205046  0.8326483999117471  0.1203828292426650
  0.3837744554026585  0.7488725471314979  0.2365263440729848
  0.2377169715906362  0.5660060458981775  0.1613931435061531
  0.2552933413899225  0.5640423513538977  0.4288008249658617
  0.4233196508018153  0.9792773907777246  0.2983454932093963
  0.4464762025780047  0.5000573031867575  0.0556036317679656
  0.5784925626224222  0.9016287695329481  0.1729096085080997
  0.7400342773746402  0.8258979288304573  0.2873927348851524
  0.5828534005934287  0.9021711381896438  0.4237888495975994
  0.7292938849636670  0.8196904869246779  0.0573445489847160
  0.8877223692465819  0.7382662242963463  0.1706633199344907
  0.0792906394178132  0.6421563635205416  0.2843999187204602
  0.9053830769616837  0.7263150471844426  0.4199628816580088
  0.0725598343714822  0.6425447828968771  0.0556412125624632
  0.5763598285799461  0.6792028686856000  0.8656135462919821
  0.5262506407471008  0.6700565456165677  0.6089810303977998
  0.7232373925041102  0.5789710006871900  0.9761515272050048
  0.7247090193958385  0.5791326700264676  0.7438770393521992
  0.8778769025655464  0.5028944030918865  0.8606805484417990
  0.0416694548013155  0.9119333725202097  0.9927217516580598
  0.8787182153235165  0.9947680271659891  0.6104347073044565
  0.0565389834542245  0.9100662865205820  0.7224902678356742
  0.2314692924559765  0.8344157851201999  0.8540998083417577
  0.3900962026853563  0.7561978104375626  0.9862388937615449
  0.2351063724422175  0.8330892799343346  0.6196308295832935
  0.3829573507483275  0.7484407244710951  0.7359398000403701
  0.2366702677593864  0.5657104662685200  0.6640032570320713
  0.2540957730930700  0.5625160554342585  0.9268172288551142
  0.4265592758944337  0.9800341002614203  0.7982574166777283
  0.4418258957961427  0.4999876012599387  0.5618943998801598
  0.5806811138057313  0.9033205195080143  0.6734829260082194
  0.7398206807144874  0.8255586542684625  0.7871997981517893
  0.5823764944911076  0.9012157984927285  0.9231123168867370
  0.7298798394978121  0.8202164170343096  0.5571733638156715
  0.8837329337617135  0.7358990282983768  0.6693156740569606
  0.0764534616482422  0.6415561995256382  0.7848761889018263
  0.9085157645629920  0.7281613312798996  0.9200666818245296
  0.0681978279966131  0.6414337046874579  0.5559859923744241
 
  0.00000000E+00  0.00000000E+00  0.00000000E+00
  0.00000000E+00  0.00000000E+00  0.00000000E+00
  0.00000000E+00  0.00000000E+00  0.00000000E+00
  0.00000000E+00  0.00000000E+00  0.00000000E+00
  0.00000000E+00  0.00000000E+00  0.00000000E+00
  0.00000000E+00  0.00000000E+00  0.00000000E+00
  0.00000000E+00  0.00000000E+00  0.00000000E+00
  0.00000000E+00  0.00000000E+00  0.00000000E+00
  0.00000000E+00  0.00000000E+00  0.00000000E+00
  0.00000000E+00  0.00000000E+00  0.00000000E+00
  0.00000000E+00  0.00000000E+00  0.00000000E+00
  0.00000000E+00  0.00000000E+00  0.00000000E+00
  0.00000000E+00  0.00000000E+00  0.00000000E+00
  0.00000000E+00  0.00000000E+00  0.00000000E+00
  0.00000000E+00  0.00000000E+00  0.00000000E+00
  0.00000000E+00  0.00000000E+00  0.00000000E+00
  0.00000000E+00  0.00000000E+00  0.00000000E+00
  0.00000000E+00  0.00000000E+00  0.00000000E+00
  0.00000000E+00  0.00000000E+00  0.00000000E+00
  0.00000000E+00  0.00000000E+00  0.00000000E+00
  0.00000000E+00  0.00000000E+00  0.00000000E+00
  0.00000000E+00  0.00000000E+00  0.00000000E+00
  0.00000000E+00  0.00000000E+00  0.00000000E+00
  0.00000000E+00  0.00000000E+00  0.00000000E+00
  0.00000000E+00  0.00000000E+00  0.00000000E+00
  0.00000000E+00  0.00000000E+00  0.00000000E+00
  0.00000000E+00  0.00000000E+00  0.00000000E+00
  0.00000000E+00  0.00000000E+00  0.00000000E+00
  0.00000000E+00  0.00000000E+00  0.00000000E+00
  0.00000000E+00  0.00000000E+00  0.00000000E+00
  0.00000000E+00  0.00000000E+00  0.00000000E+00
  0.00000000E+00  0.00000000E+00  0.00000000E+00
  0.00000000E+00  0.00000000E+00  0.00000000E+00
  0.00000000E+00  0.00000000E+00  0.00000000E+00
  0.00000000E+00  0.00000000E+00  0.00000000E+00
  0.00000000E+00  0.00000000E+00  0.00000000E+00
  0.00000000E+00  0.00000000E+00  0.00000000E+00
  0.00000000E+00  0.00000000E+00  0.00000000E+00
  0.00000000E+00  0.00000000E+00  0.00000000E+00
  0.00000000E+00  0.00000000E+00  0.00000000E+00
  0.00000000E+00  0.00000000E+00  0.00000000E+00
  0.00000000E+00  0.00000000E+00  0.00000000E+00
  0.00000000E+00  0.00000000E+00  0.00000000E+00
  0.00000000E+00  0.00000000E+00  0.00000000E+00
  0.00000000E+00  0.00000000E+00  0.00000000E+00
  0.00000000E+00  0.00000000E+00  0.00000000E+00
  0.00000000E+00  0.00000000E+00  0.00000000E+00
  0.00000000E+00  0.00000000E+00  0.00000000E+00
  0.00000000E+00  0.00000000E+00  0.00000000E+00
  0.00000000E+00  0.00000000E+00  0.00000000E+00
  0.00000000E+00  0.00000000E+00  0.00000000E+00
  0.00000000E+00  0.00000000E+00  0.00000000E+00
  0.00000000E+00  0.00000000E+00  0.00000000E+00
  0.00000000E+00  0.00000000E+00  0.00000000E+00
  0.00000000E+00  0.00000000E+00  0.00000000E+00
  0.00000000E+00  0.00000000E+00  0.00000000E+00
  0.00000000E+00  0.00000000E+00  0.00000000E+00
  0.00000000E+00  0.00000000E+00  0.00000000E+00
  0.00000000E+00  0.00000000E+00  0.00000000E+00
  0.00000000E+00  0.00000000E+00  0.00000000E+00
  0.00000000E+00  0.00000000E+00  0.00000000E+00
  0.00000000E+00  0.00000000E+00  0.00000000E+00
  0.00000000E+00  0.00000000E+00  0.00000000E+00
  0.00000000E+00  0.00000000E+00  0.00000000E+00
  0.00000000E+00  0.00000000E+00  0.00000000E+00
  0.00000000E+00  0.00000000E+00  0.00000000E+00
  0.00000000E+00  0.00000000E+00  0.00000000E+00
  0.00000000E+00  0.00000000E+00  0.00000000E+00
  0.00000000E+00  0.00000000E+00  0.00000000E+00
  0.00000000E+00  0.00000000E+00  0.00000000E+00
  0.00000000E+00  0.00000000E+00  0.00000000E+00
  0.00000000E+00  0.00000000E+00  0.00000000E+00
  0.00000000E+00  0.00000000E+00  0.00000000E+00
  0.00000000E+00  0.00000000E+00  0.00000000E+00
  0.00000000E+00  0.00000000E+00  0.00000000E+00
  0.00000000E+00  0.00000000E+00  0.00000000E+00
  0.00000000E+00  0.00000000E+00  0.00000000E+00
  0.00000000E+00  0.00000000E+00  0.00000000E+00
  0.00000000E+00  0.00000000E+00  0.00000000E+00
  0.00000000E+00  0.00000000E+00  0.00000000E+00
  0.00000000E+00  0.00000000E+00  0.00000000E+00
  0.00000000E+00  0.00000000E+00  0.00000000E+00
  0.00000000E+00  0.00000000E+00  0.00000000E+00
  0.00000000E+00  0.00000000E+00  0.00000000E+00
  0.00000000E+00  0.00000000E+00  0.00000000E+00
  0.00000000E+00  0.00000000E+00  0.00000000E+00
  0.00000000E+00  0.00000000E+00  0.00000000E+00
  0.00000000E+00  0.00000000E+00  0.00000000E+00
  0.00000000E+00  0.00000000E+00  0.00000000E+00
  0.00000000E+00  0.00000000E+00  0.00000000E+00
  0.00000000E+00  0.00000000E+00  0.00000000E+00
  0.00000000E+00  0.00000000E+00  0.00000000E+00
  0.00000000E+00  0.00000000E+00  0.00000000E+00
  0.00000000E+00  0.00000000E+00  0.00000000E+00
  0.00000000E+00  0.00000000E+00  0.00000000E+00
  0.00000000E+00  0.00000000E+00  0.00000000E+00
  0.00000000E+00  0.00000000E+00  0.00000000E+00
  0.00000000E+00  0.00000000E+00  0.00000000E+00
  0.00000000E+00  0.00000000E+00  0.00000000E+00
  0.00000000E+00  0.00000000E+00  0.00000000E+00
  0.00000000E+00  0.00000000E+00  0.00000000E+00
  0.00000000E+00  0.00000000E+00  0.00000000E+00
  0.00000000E+00  0.00000000E+00  0.00000000E+00
  0.00000000E+00  0.00000000E+00  0.00000000E+00
  0.00000000E+00  0.00000000E+00  0.00000000E+00
  0.00000000E+00  0.00000000E+00  0.00000000E+00
  0.00000000E+00  0.00000000E+00  0.00000000E+00
  0.00000000E+00  0.00000000E+00  0.00000000E+00
  0.00000000E+00  0.00000000E+00  0.00000000E+00
  0.00000000E+00  0.00000000E+00  0.00000000E+00
  0.00000000E+00  0.00000000E+00  0.00000000E+00
  0.00000000E+00  0.00000000E+00  0.00000000E+00
  0.00000000E+00  0.00000000E+00  0.00000000E+00
  0.00000000E+00  0.00000000E+00  0.00000000E+00
  0.00000000E+00  0.00000000E+00  0.00000000E+00
  0.00000000E+00  0.00000000E+00  0.00000000E+00
  0.00000000E+00  0.00000000E+00  0.00000000E+00
  0.00000000E+00  0.00000000E+00  0.00000000E+00
  0.00000000E+00  0.00000000E+00  0.00000000E+00
  0.00000000E+00  0.00000000E+00  0.00000000E+00
  0.00000000E+00  0.00000000E+00  0.00000000E+00
  0.00000000E+00  0.00000000E+00  0.00000000E+00
  0.00000000E+00  0.00000000E+00  0.00000000E+00
  0.00000000E+00  0.00000000E+00  0.00000000E+00
  0.00000000E+00  0.00000000E+00  0.00000000E+00
  0.00000000E+00  0.00000000E+00  0.00000000E+00
  0.00000000E+00  0.00000000E+00  0.00000000E+00
  0.00000000E+00  0.00000000E+00  0.00000000E+00
  0.00000000E+00  0.00000000E+00  0.00000000E+00
  0.00000000E+00  0.00000000E+00  0.00000000E+00
  0.00000000E+00  0.00000000E+00  0.00000000E+00
  0.00000000E+00  0.00000000E+00  0.00000000E+00
  0.00000000E+00  0.00000000E+00  0.00000000E+00
  0.00000000E+00  0.00000000E+00  0.00000000E+00
  0.00000000E+00  0.00000000E+00  0.00000000E+00
  0.00000000E+00  0.00000000E+00  0.00000000E+00
  0.00000000E+00  0.00000000E+00  0.00000000E+00
  0.00000000E+00  0.00000000E+00  0.00000000E+00
  0.00000000E+00  0.00000000E+00  0.00000000E+00
  0.00000000E+00  0.00000000E+00  0.00000000E+00
  0.00000000E+00  0.00000000E+00  0.00000000E+00
  0.00000000E+00  0.00000000E+00  0.00000000E+00
  0.00000000E+00  0.00000000E+00  0.00000000E+00
  0.00000000E+00  0.00000000E+00  0.00000000E+00
  0.00000000E+00  0.00000000E+00  0.00000000E+00
  0.00000000E+00  0.00000000E+00  0.00000000E+00
  0.00000000E+00  0.00000000E+00  0.00000000E+00
  0.00000000E+00  0.00000000E+00  0.00000000E+00
  0.00000000E+00  0.00000000E+00  0.00000000E+00
  0.00000000E+00  0.00000000E+00  0.00000000E+00
  0.00000000E+00  0.00000000E+00  0.00000000E+00
  0.00000000E+00  0.00000000E+00  0.00000000E+00
  0.00000000E+00  0.00000000E+00  0.00000000E+00
  0.00000000E+00  0.00000000E+00  0.00000000E+00
  0.00000000E+00  0.00000000E+00  0.00000000E+00
  0.00000000E+00  0.00000000E+00  0.00000000E+00
  0.00000000E+00  0.00000000E+00  0.00000000E+00
  0.00000000E+00  0.00000000E+00  0.00000000E+00
  0.00000000E+00  0.00000000E+00  0.00000000E+00
  0.00000000E+00  0.00000000E+00  0.00000000E+00
  0.00000000E+00  0.00000000E+00  0.00000000E+00
  0.00000000E+00  0.00000000E+00  0.00000000E+00
  0.00000000E+00  0.00000000E+00  0.00000000E+00
  0.00000000E+00  0.00000000E+00  0.00000000E+00
  0.00000000E+00  0.00000000E+00  0.00000000E+00
  0.00000000E+00  0.00000000E+00  0.00000000E+00
  0.00000000E+00  0.00000000E+00  0.00000000E+00
  0.00000000E+00  0.00000000E+00  0.00000000E+00
  0.00000000E+00  0.00000000E+00  0.00000000E+00
  0.00000000E+00  0.00000000E+00  0.00000000E+00
  0.00000000E+00  0.00000000E+00  0.00000000E+00
  0.00000000E+00  0.00000000E+00  0.00000000E+00
  0.00000000E+00  0.00000000E+00  0.00000000E+00
  0.00000000E+00  0.00000000E+00  0.00000000E+00
  0.00000000E+00  0.00000000E+00  0.00000000E+00
  0.00000000E+00  0.00000000E+00  0.00000000E+00
  0.00000000E+00  0.00000000E+00  0.00000000E+00
  0.00000000E+00  0.00000000E+00  0.00000000E+00
  0.00000000E+00  0.00000000E+00  0.00000000E+00
  0.00000000E+00  0.00000000E+00  0.00000000E+00
  0.00000000E+00  0.00000000E+00  0.00000000E+00
  0.00000000E+00  0.00000000E+00  0.00000000E+00
  0.00000000E+00  0.00000000E+00  0.00000000E+00
  0.00000000E+00  0.00000000E+00  0.00000000E+00
  0.00000000E+00  0.00000000E+00  0.00000000E+00
  0.00000000E+00  0.00000000E+00  0.00000000E+00
  0.00000000E+00  0.00000000E+00  0.00000000E+00
  0.00000000E+00  0.00000000E+00  0.00000000E+00
  0.00000000E+00  0.00000000E+00  0.00000000E+00
  0.00000000E+00  0.00000000E+00  0.00000000E+00
  0.00000000E+00  0.00000000E+00  0.00000000E+00
