Al   Hf   Mg   N                        
   1.00000000000000     
    -9.6919049398679160    0.0109934967486690    0.0019898060580175
    -4.8565637420333818    8.3664746566848631    0.0039700107411985
     0.0027477343651219   -0.0050487928525045  -10.1272624419056232
   Al   Hf   Mg   N 
    28     4     4    36
Direct
  0.1113448243923796  0.0887251339451475  0.3101311014961947
  0.7768415334422698  0.0869364866596527  0.8069791498677498
  0.4506908495095304  0.0860046265266270  0.3141675093149391
  0.2311252966655359  0.2037737059895363  0.5510145337199515
  0.7804526894970761  0.0902512987585192  0.3081515010668169
  0.8903480720683774  0.1994526502208796  0.0468400831533159
  0.4449153846941612  0.0930433212804177  0.7975823947825500
  0.5483107177269210  0.2080162081883662  0.5553984119709635
  0.1115324138789098  0.4339313648825018  0.3058041609602832
  0.2192020261898281  0.5489190260184941  0.0524303872939023
  0.4418199617026146  0.4336495570797050  0.3113038449617647
  0.5499436648596584  0.5470396375815966  0.0539706740393969
  0.1201892797440719  0.4295629885037265  0.8085512222357393
  0.2256230330061749  0.5435094936441065  0.5556586348618612
  0.7744094249767276  0.4294127659982733  0.2981461740829888
  0.8870478466452921  0.5452937846039794  0.0501810798157172
  0.4413164310572215  0.4339001176777509  0.8023410144320775
  0.5439440230357232  0.5454390843526956  0.5549855689335051
  0.1114666233430589  0.7609089092603789  0.3079572473727694
  0.2248494006134355  0.8639252142218593  0.0551877732103141
  0.7775122167412829  0.7674040317735332  0.8126238851856482
  0.8906390226251688  0.8693536104645873  0.5535973676623092
  0.4466622589952879  0.7615185104570806  0.3051822381182324
  0.5596087734773086  0.8611069242655169  0.0525916635277704
  0.2280181444537118  0.8644746977268221  0.5530829296034261
  0.7731874548844649  0.7652344883428990  0.2999346820643691
  0.8938779353767193  0.8668878125132807  0.0556720209986688
  0.4392045927403099  0.7585694272321332  0.8077711612743358
  0.2183889979678681  0.2047259691884304  0.0636521614561906
  0.8882164519096259  0.2018918747946171  0.5679651893131938
  0.5590051389115555  0.2081123513583044  0.0578066933490985
  0.8887370927728337  0.5442376150251357  0.5640561378606137
  0.1193773135346755  0.0860255490051314  0.8071594256991368
  0.7712022359697713  0.4319334286493228  0.8214598387353816
  0.1109003227276353  0.7641191430130294  0.8079883921557179
  0.5496045637599147  0.8730873415348703  0.5609820491165320
  0.2222974304601793  0.2073117801458101  0.3533530408027060
  0.1013511513846654  0.0849267924756777  0.1199512534857366
  0.8824100039348558  0.1939264140248703  0.8603429744642629
  0.7661088226867193  0.0850970561606669  0.6142415236709218
  0.5560566873289561  0.2062785611441428  0.3590000583835595
  0.4560698324952839  0.0772113008264504  0.1220067808105522
  0.2313687091947483  0.2119979974390912  0.8631669284881340
  0.1300770588644845  0.0876889851848360  0.5984115483001469
  0.8863786887636258  0.2070163718841782  0.3590794839077612
  0.7928040319840407  0.0859943714845765  0.1205420036856926
  0.5539499752945504  0.2062239460156163  0.8535591319733512
  0.4382773246867374  0.1081982032257551  0.6113585113644538
  0.2222856888730742  0.5388752791043430  0.3651373208806994
  0.1036028053305788  0.4458016537129985  0.1178013279280193
  0.9005514327310467  0.5454032512926266  0.8613777328539953
  0.7580148418159980  0.4392401286593491  0.6129642893900724
  0.5564654594147481  0.5390218205977478  0.3627905704649442
  0.4356875257731769  0.4445765027732425  0.1223972874633222
  0.2326548843822262  0.5254822488020841  0.8684024448237391
  0.1290788653253585  0.4211012894732583  0.6148866562966775
  0.8879553784067553  0.5397822818786470  0.3549553876359355
  0.7792141200298283  0.4264834209298607  0.1066643164680624
  0.5389019553703753  0.5444325794579257  0.8706999282726461
  0.4446437783768349  0.4278648730064500  0.6097239440733936
  0.2251618779292114  0.8690060244933259  0.3609692080848648
  0.1100340205379447  0.7609682667756360  0.1173191191675118
  0.8734553864512307  0.8804811865841267  0.8728183296558736
  0.7827335531259791  0.7726159436220775  0.6242248749200532
  0.5582452686234682  0.8680952429876951  0.3557449563945612
  0.4459084520464440  0.7611361445516758  0.1170390136934880
  0.2362353067033451  0.8654146270306271  0.8756055358027196
  0.1084790800132823  0.7645225992960651  0.5990362268508850
  0.8870881906302093  0.8709933815475591  0.3619238098039813
  0.7776229681135409  0.7610670779842341  0.1113572828536323
  0.5542231961046394  0.8721459300150229  0.8620899571138361
  0.4356215357221221  0.7528080991020276  0.6184925905448625
 
             NaN             NaN             NaN
             NaN             NaN             NaN
             NaN             NaN             NaN
             NaN             NaN             NaN
             NaN             NaN             NaN
             NaN             NaN             NaN
             NaN             NaN             NaN
             NaN             NaN             NaN
             NaN             NaN             NaN
             NaN             NaN             NaN
             NaN             NaN             NaN
             NaN             NaN             NaN
             NaN             NaN             NaN
             NaN             NaN             NaN
             NaN             NaN             NaN
             NaN             NaN             NaN
             NaN             NaN             NaN
             NaN             NaN             NaN
             NaN             NaN             NaN
             NaN             NaN             NaN
             NaN             NaN             NaN
             NaN             NaN             NaN
             NaN             NaN             NaN
             NaN             NaN             NaN
             NaN             NaN             NaN
             NaN             NaN             NaN
             NaN             NaN             NaN
             NaN             NaN             NaN
             NaN             NaN             NaN
             NaN             NaN             NaN
             NaN             NaN             NaN
             NaN             NaN             NaN
             NaN             NaN             NaN
             NaN             NaN             NaN
             NaN             NaN             NaN
             NaN             NaN             NaN
             NaN             NaN             NaN
             NaN             NaN             NaN
             NaN             NaN             NaN
             NaN             NaN             NaN
             NaN             NaN             NaN
             NaN             NaN             NaN
             NaN             NaN             NaN
             NaN             NaN             NaN
             NaN             NaN             NaN
             NaN             NaN             NaN
             NaN             NaN             NaN
             NaN             NaN             NaN
             NaN             NaN             NaN
             NaN             NaN             NaN
             NaN             NaN             NaN
             NaN             NaN             NaN
             NaN             NaN             NaN
             NaN             NaN             NaN
             NaN             NaN             NaN
             NaN             NaN             NaN
             NaN             NaN             NaN
             NaN             NaN             NaN
             NaN             NaN             NaN
             NaN             NaN             NaN
             NaN             NaN             NaN
             NaN             NaN             NaN
             NaN             NaN             NaN
             NaN             NaN             NaN
             NaN             NaN             NaN
             NaN             NaN             NaN
             NaN             NaN             NaN
             NaN             NaN             NaN
             NaN             NaN             NaN
             NaN             NaN             NaN
             NaN             NaN             NaN
             NaN             NaN             NaN
