Al   Hf   Mg   N                        
   1.00000000000000     
    -9.6899817935323664    0.0085801505125191   -0.0004943140931387
    -4.8505968573490303    8.3781181368127982   -0.0021156253854575
    -0.0018382831601760    0.0049510356399373  -10.1147020301197443
   Al   Hf   Mg   N 
    28     4     4    36
Direct
  0.1197631006380670  0.0869982460384855  0.3852662119380130
  0.7810531881316324  0.0891327886363570  0.8812787462345645
  0.4455021944061016  0.0925705411282751  0.3947213051628334
  0.2313853053479550  0.2043514997783004  0.6435909569461732
  0.7761674366848970  0.0876336389558484  0.3861137546978177
  0.8906042548358146  0.2023745801146918  0.1448813863996242
  0.4494972938719512  0.0858551273588715  0.8766383961408425
  0.5484111665315137  0.2082009910557384  0.6413841611369744
  0.1163233474656363  0.4280963933194850  0.3860200119274846
  0.2174591036078792  0.5514047629314400  0.1387467135168703
  0.4429872466719117  0.4312212727542590  0.3909885147112727
  0.5529779376859758  0.5453207352183482  0.1368306025702001
  0.1148979463088081  0.4357589266399581  0.8831978061711931
  0.2269080031333693  0.5401385190237846  0.6368832154686836
  0.7709174540849441  0.4315833398256816  0.3727091898833312
  0.8853222559275777  0.5443226280255604  0.1401720885563576
  0.4392942814395349  0.4374251007883846  0.8784078040811220
  0.5424860537901562  0.5458931019024800  0.6382287839101954
  0.1106856243197172  0.7625040402847398  0.3867754601383193
  0.2224930882365179  0.8648196771777991  0.1386217680699742
  0.7750298401057248  0.7667001486578106  0.8908513595352273
  0.8872419108107312  0.8708452734803556  0.6391573129516440
  0.4429282517238395  0.7590058837484206  0.3863534921878204
  0.5597653535244854  0.8609837973081566  0.1358953153293251
  0.2324451914285874  0.8627497739586666  0.6382581614351415
  0.7764564673589563  0.7664955485862667  0.3809402412311514
  0.8974792500701151  0.8654552989458101  0.1369346807697223
  0.4437836877015982  0.7607878488317247  0.8841824478900180
  0.2174879516744365  0.2060762734280742  0.1232560023268935
  0.8881665988685740  0.2005782097010669  0.6241140125018696
  0.5587766307427608  0.2079483618831024  0.1242937849578247
  0.8872551486554058  0.5444545370256211  0.6306326204980597
  0.1115770612412387  0.0867318752101991  0.8805000108836574
  0.7746283637922631  0.4287593091575339  0.8934814891936448
  0.1126428720418784  0.7622003578500758  0.8819978091894908
  0.5495698551025432  0.8730699441152313  0.6356350135799915
  0.2245504793424545  0.2055679592575134  0.3310260212378484
  0.1024870556962436  0.0844014159305120  0.0905312181305650
  0.8788978906506558  0.2004064381123715  0.8222973491416646
  0.7639212477240065  0.0862500458263876  0.5735449507389976
  0.5541826756873744  0.2063315389583645  0.3314516218242998
  0.4553196029580521  0.0753460959250237  0.0708609998565753
  0.2277127169442474  0.2141408018700766  0.8367303746690581
  0.1319959222935054  0.0872262602324938  0.5749542066627041
  0.8898087798583022  0.2004838079066832  0.3407210085450862
  0.7960193285080821  0.0848288939628809  0.0762421285707897
  0.5554784531621680  0.2067004114268366  0.8384882476091908
  0.4388110073197267  0.1085985809677784  0.5799242017540540
  0.2243160443104742  0.5380629658041455  0.3299567165724784
  0.1024046052944032  0.4485096714417738  0.0774562631559616
  0.8957515151313379  0.5480515339626676  0.8341719499258186
  0.7569251156826911  0.4388699879583574  0.5649282264603314
  0.5503401708961371  0.5389154587631462  0.3251449536473093
  0.4338886750617181  0.4474932420221266  0.0728264171745137
  0.2293732518861545  0.5275689533120906  0.8209693432993515
  0.1264005644548527  0.4208174490813250  0.5742052788664870
  0.8918434356441214  0.5388512563629534  0.3339302861104221
  0.7798503622012727  0.4252374063864530  0.1021469552074550
  0.5453932823664883  0.5447918493488435  0.8247307911022628
  0.4458688691970943  0.4256318188864755  0.5791099331944698
  0.2234111603873211  0.8701523133626634  0.3291416760285374
  0.1110452523739785  0.7622305709412387  0.0897242885423325
  0.8730260642977815  0.8784770685298517  0.8250834685611224
  0.7821149187459093  0.7716064209173353  0.5660230435190415
  0.5535422542354688  0.8735668156324093  0.3280377495583516
  0.4434320472084417  0.7610728065544392  0.0807679131132648
  0.2389562027339338  0.8636521942371085  0.8196686422468066
  0.1078499819285010  0.7636420409351447  0.5777676274592721
  0.8889676509060681  0.8729745708841001  0.3261218111642821
  0.7789761150139499  0.7616222081304296  0.0846870877723195
  0.5591578858400482  0.8666443684725013  0.8404275240477644
  0.4392917043314886  0.7514593878783593  0.5692395846310145
 
             NaN             NaN             NaN
             NaN             NaN             NaN
             NaN             NaN             NaN
             NaN             NaN             NaN
             NaN             NaN             NaN
             NaN             NaN             NaN
             NaN             NaN             NaN
             NaN             NaN             NaN
             NaN             NaN             NaN
             NaN             NaN             NaN
             NaN             NaN             NaN
             NaN             NaN             NaN
             NaN             NaN             NaN
             NaN             NaN             NaN
             NaN             NaN             NaN
             NaN             NaN             NaN
             NaN             NaN             NaN
             NaN             NaN             NaN
             NaN             NaN             NaN
             NaN             NaN             NaN
             NaN             NaN             NaN
             NaN             NaN             NaN
             NaN             NaN             NaN
             NaN             NaN             NaN
             NaN             NaN             NaN
             NaN             NaN             NaN
             NaN             NaN             NaN
             NaN             NaN             NaN
             NaN             NaN             NaN
             NaN             NaN             NaN
             NaN             NaN             NaN
             NaN             NaN             NaN
             NaN             NaN             NaN
             NaN             NaN             NaN
             NaN             NaN             NaN
             NaN             NaN             NaN
             NaN             NaN             NaN
             NaN             NaN             NaN
             NaN             NaN             NaN
             NaN             NaN             NaN
             NaN             NaN             NaN
             NaN             NaN             NaN
             NaN             NaN             NaN
             NaN             NaN             NaN
             NaN             NaN             NaN
             NaN             NaN             NaN
             NaN             NaN             NaN
             NaN             NaN             NaN
             NaN             NaN             NaN
             NaN             NaN             NaN
             NaN             NaN             NaN
             NaN             NaN             NaN
             NaN             NaN             NaN
             NaN             NaN             NaN
             NaN             NaN             NaN
             NaN             NaN             NaN
             NaN             NaN             NaN
             NaN             NaN             NaN
             NaN             NaN             NaN
             NaN             NaN             NaN
             NaN             NaN             NaN
             NaN             NaN             NaN
             NaN             NaN             NaN
             NaN             NaN             NaN
             NaN             NaN             NaN
             NaN             NaN             NaN
             NaN             NaN             NaN
             NaN             NaN             NaN
             NaN             NaN             NaN
             NaN             NaN             NaN
             NaN             NaN             NaN
             NaN             NaN             NaN
