Sc   Al   N                             
   1.00000000000000     
    -9.8301598207599614    0.0157872058261415   -0.0063162864308068
    -4.9273913875912987    8.5094822775508661   -0.0047523400419509
    -0.0085490734678284    0.0022720692575304  -10.1560580419607742
   Sc   Al   N 
    10    26    36
Direct
  0.1134293362895633  0.0922557675943310  0.4034431877143874
  0.2217690578127360  0.2139794276623093  0.1359731157292785
  0.7721123785613031  0.0933246242465557  0.8909880102040333
  0.1113158798704816  0.0957700519197004  0.8714820623913297
  0.5519955435215280  0.5348887365260993  0.1337015671017241
  0.7819747691327095  0.4313757605283826  0.3815958154174126
  0.5558353303527070  0.5341571091910069  0.6389733822487358
  0.2154361267717491  0.8704039685901108  0.1357956447279491
  0.8910136781530085  0.8687087554497523  0.6264149139459931
  0.5616458428066551  0.8740468583809076  0.1377569083980390
  0.8832075469281619  0.2132886343626481  0.6466745054236611
  0.4467506986865217  0.0962156127959659  0.4006289344523921
  0.5542851431324820  0.2061178248390902  0.1469958429152811
  0.2263920317580244  0.2122306891843166  0.6460255181433325
  0.7708719320259121  0.0984499955907197  0.3908493392637524
  0.8870431603436941  0.2032504382251119  0.1439068177230638
  0.4460245678075765  0.1004910409401276  0.8864793235015114
  0.5477653805201896  0.2095964997730633  0.6400751456366010
  0.1144318656947760  0.4351268375030770  0.3970625609081750
  0.2156811686717219  0.5384075953019618  0.1423835898857959
  0.7803958579619987  0.4321901151960006  0.8989089223484754
  0.8915683274544293  0.5357550121108545  0.6461872431875477
  0.4360794843241038  0.4267834746695272  0.3936953384879871
  0.1102913443514950  0.4359081718516151  0.8895893126904042
  0.2233288414186703  0.5346120470620548  0.6440965707458588
  0.8981568860362970  0.5435586668036478  0.1397321227607975
  0.4362079548860649  0.4261591534172169  0.8938599858086249
  0.1203474027241711  0.7515635924790658  0.3938261735033564
  0.7838727632988522  0.7555626783319127  0.8911754771992619
  0.4413189811177389  0.7642456607672088  0.4017706323089172
  0.1123172309325966  0.7486159270273660  0.8929330783227059
  0.2272379488633902  0.8630404754591794  0.6487457673588395
  0.7772303657556279  0.7597490758885712  0.3953850982914275
  0.8902908187511969  0.8682745525566702  0.1491703404700004
  0.4476637039352980  0.7573243972496613  0.8882588805848357
  0.5534578866200519  0.8738602282533350  0.6438255507560839
  0.2302159903622183  0.2165174122188844  0.3483007628821468
  0.0938165644532205  0.1048841009246715  0.0830054695905815
  0.8706889316589113  0.2275883846732185  0.8318703621327757
  0.7655341480131739  0.1167187715870668  0.5837815627261378
  0.5524107834714442  0.2057500797950382  0.3371020345502700
  0.4564452151896532  0.1036204878758724  0.0724446611429670
  0.2309218518267429  0.2203021623948658  0.8349319623176967
  0.1122048776392859  0.0924522216590589  0.6183949231241002
  0.8833022046838153  0.1944154996477252  0.3305054131795657
  0.7759756315205806  0.0930539296316439  0.1014618287453999
  0.5386275545253127  0.2172875056412948  0.8262033868752710
  0.4462162231636455  0.0931617121742718  0.5895859832828947
  0.2221149507068745  0.5382560638148348  0.3325049094823385
  0.1035420618260048  0.4460305218481935  0.0756856390217209
  0.8888992237814577  0.5386581729537880  0.8360778891941649
  0.7978296736506820  0.4204158548643804  0.5879182323762109
  0.5366217125218142  0.5471030006909956  0.3509481262891043
  0.4302050243827154  0.4176169417012758  0.0828234657892395
  0.2227249238658118  0.5376716776194499  0.8323146021054626
  0.1091024296990710  0.4319563978489427  0.5879611289827693
  0.9037591173332729  0.5510933626116454  0.3283172913989389
  0.7974090355828736  0.4225660944470704  0.0927940859287730
  0.5575240816908433  0.5340240934649003  0.8551170614603549
  0.4313365686387982  0.4183536746544334  0.5803907847557710
  0.2295764699205876  0.8574685198055292  0.3444461707773101
  0.1000220173533890  0.7503413015217220  0.0828543237836854
  0.8992537588623435  0.8529800225174213  0.8338296737947672
  0.7678105398191803  0.7481996276853167  0.5830558042374960
  0.5539164493233102  0.8737380723922499  0.3491147115527866
  0.4445220940646593  0.7640622764726857  0.0722030307506145
  0.2315183035903061  0.8459712576356395  0.8372970618993989
  0.1343717945006944  0.7464480195147374  0.5813014352044874
  0.8892245630734621  0.8715015395828587  0.3481815136259314
  0.7958322229334911  0.7546501130441712  0.0802149012397564
  0.5574552884059898  0.8730331194356182  0.8365983821843983
  0.4365376959399327  0.7782216434737705  0.5902073213880996
 
  0.00000000E+00  0.00000000E+00  0.00000000E+00
  0.00000000E+00  0.00000000E+00  0.00000000E+00
  0.00000000E+00  0.00000000E+00  0.00000000E+00
  0.00000000E+00  0.00000000E+00  0.00000000E+00
  0.00000000E+00  0.00000000E+00  0.00000000E+00
  0.00000000E+00  0.00000000E+00  0.00000000E+00
  0.00000000E+00  0.00000000E+00  0.00000000E+00
  0.00000000E+00  0.00000000E+00  0.00000000E+00
  0.00000000E+00  0.00000000E+00  0.00000000E+00
  0.00000000E+00  0.00000000E+00  0.00000000E+00
  0.00000000E+00  0.00000000E+00  0.00000000E+00
  0.00000000E+00  0.00000000E+00  0.00000000E+00
  0.00000000E+00  0.00000000E+00  0.00000000E+00
  0.00000000E+00  0.00000000E+00  0.00000000E+00
  0.00000000E+00  0.00000000E+00  0.00000000E+00
  0.00000000E+00  0.00000000E+00  0.00000000E+00
  0.00000000E+00  0.00000000E+00  0.00000000E+00
  0.00000000E+00  0.00000000E+00  0.00000000E+00
  0.00000000E+00  0.00000000E+00  0.00000000E+00
  0.00000000E+00  0.00000000E+00  0.00000000E+00
  0.00000000E+00  0.00000000E+00  0.00000000E+00
  0.00000000E+00  0.00000000E+00  0.00000000E+00
  0.00000000E+00  0.00000000E+00  0.00000000E+00
  0.00000000E+00  0.00000000E+00  0.00000000E+00
  0.00000000E+00  0.00000000E+00  0.00000000E+00
  0.00000000E+00  0.00000000E+00  0.00000000E+00
  0.00000000E+00  0.00000000E+00  0.00000000E+00
  0.00000000E+00  0.00000000E+00  0.00000000E+00
  0.00000000E+00  0.00000000E+00  0.00000000E+00
  0.00000000E+00  0.00000000E+00  0.00000000E+00
  0.00000000E+00  0.00000000E+00  0.00000000E+00
  0.00000000E+00  0.00000000E+00  0.00000000E+00
  0.00000000E+00  0.00000000E+00  0.00000000E+00
  0.00000000E+00  0.00000000E+00  0.00000000E+00
  0.00000000E+00  0.00000000E+00  0.00000000E+00
  0.00000000E+00  0.00000000E+00  0.00000000E+00
  0.00000000E+00  0.00000000E+00  0.00000000E+00
  0.00000000E+00  0.00000000E+00  0.00000000E+00
  0.00000000E+00  0.00000000E+00  0.00000000E+00
  0.00000000E+00  0.00000000E+00  0.00000000E+00
  0.00000000E+00  0.00000000E+00  0.00000000E+00
  0.00000000E+00  0.00000000E+00  0.00000000E+00
  0.00000000E+00  0.00000000E+00  0.00000000E+00
  0.00000000E+00  0.00000000E+00  0.00000000E+00
  0.00000000E+00  0.00000000E+00  0.00000000E+00
  0.00000000E+00  0.00000000E+00  0.00000000E+00
  0.00000000E+00  0.00000000E+00  0.00000000E+00
  0.00000000E+00  0.00000000E+00  0.00000000E+00
  0.00000000E+00  0.00000000E+00  0.00000000E+00
  0.00000000E+00  0.00000000E+00  0.00000000E+00
  0.00000000E+00  0.00000000E+00  0.00000000E+00
  0.00000000E+00  0.00000000E+00  0.00000000E+00
  0.00000000E+00  0.00000000E+00  0.00000000E+00
  0.00000000E+00  0.00000000E+00  0.00000000E+00
  0.00000000E+00  0.00000000E+00  0.00000000E+00
  0.00000000E+00  0.00000000E+00  0.00000000E+00
  0.00000000E+00  0.00000000E+00  0.00000000E+00
  0.00000000E+00  0.00000000E+00  0.00000000E+00
  0.00000000E+00  0.00000000E+00  0.00000000E+00
  0.00000000E+00  0.00000000E+00  0.00000000E+00
  0.00000000E+00  0.00000000E+00  0.00000000E+00
  0.00000000E+00  0.00000000E+00  0.00000000E+00
  0.00000000E+00  0.00000000E+00  0.00000000E+00
  0.00000000E+00  0.00000000E+00  0.00000000E+00
  0.00000000E+00  0.00000000E+00  0.00000000E+00
  0.00000000E+00  0.00000000E+00  0.00000000E+00
  0.00000000E+00  0.00000000E+00  0.00000000E+00
  0.00000000E+00  0.00000000E+00  0.00000000E+00
  0.00000000E+00  0.00000000E+00  0.00000000E+00
  0.00000000E+00  0.00000000E+00  0.00000000E+00
  0.00000000E+00  0.00000000E+00  0.00000000E+00
  0.00000000E+00  0.00000000E+00  0.00000000E+00
