POSCAR                                  
   1.01600000000000     
     4.7324586657600003   -2.7246290613399999   -5.0133545699499997
     4.7317880862599999    2.7169650412399999   -5.0098166280500003
    19.0919382957000003    0.0139665607637000   25.2117896387999991
   Al   Gd   N 
    48     6    54
Direct
  0.3983682926559879  0.7327491149152010  0.1201807438020737
  0.7858875171981268  0.1167675358812872  0.2843393683489737
  0.8084684300695670  0.1437631887095350  0.0871197153277521
  0.9904608939819255  0.3367076988451956  0.1570998582522520
  0.3711512966188053  0.7088482050375191  0.3224777730557520
  0.5553337600429700  0.8899977403213839  0.3932928524198900
  0.7293068166094159  0.0878715145076754  0.4641101190127088
  0.9644742089660454  0.3007497841814697  0.3550974059680101
  0.1495649210012004  0.4788249911506810  0.4266874625548880
  0.3490037789273615  0.6651322535161981  0.5025997993753322
  0.4985517382186941  0.8708715333354107  0.5767613377110550
  0.7061385636543562  0.0287710967172714  0.6499998654178114
  0.9298971845188717  0.2423484393229671  0.5365740534604484
  0.1240261234503919  0.4390981737969781  0.6160644052877444
  0.2886029052019978  0.6320939444363702  0.6869582765524882
  0.4721195600999408  0.8164539916570135  0.7578423070704545
  0.8839529177590748  0.2192058661717979  0.7255524898838104
  0.0783355923782878  0.3993377856351046  0.7947887870426911
  0.2678036512643374  0.5934756168673374  0.8719143416013750
  0.4458061374197655  0.7789140634846987  0.9424739281358185
  0.6291543144097886  0.9584803483028850  0.0150012347094233
  0.8519066424321053  0.1940670629540975  0.9093209101255511
  0.0361955792864492  0.3693795244165088  0.9800484662450160
  0.2186810106859554  0.5504599259097276  0.0491344570212462
  0.2546549099664546  0.9231782046373951  0.0323317605186091
  0.4338797276882502  0.1094186288466190  0.1036809387354580
  0.6334260583272666  0.3086704520814507  0.1795629233757694
  0.6636565860847838  0.3315516170750143  0.9969461859431590
  0.8476770758189005  0.5130878591182793  0.0682329691993928
  0.0520368415507306  0.6851298676168938  0.1377388561637858
  0.4095680801218933  0.0708809688470637  0.3041324057308330
  0.5903877269189621  0.2607203046623141  0.3732501082889570
  0.7987129947540481  0.4983186188904867  0.2643488403851038
  0.9931581858892073  0.6731199981456086  0.3376749346972758
  0.1799693027411777  0.8526739317112941  0.4107604776634375
  0.3601755576952357  0.0394055662973827  0.4801120464900634
  0.5600176259258802  0.2159918113669832  0.5556028621571869
  0.7754882617256413  0.4393290767271196  0.4435375681474198
  0.1563089200149008  0.8106681237614026  0.5946323979097059
  0.3331351515421872  0.0097520862740623  0.6717276769241920
  0.5145897789943419  0.1925362124861678  0.7385374093266392
  0.9318492336214845  0.5958405464709173  0.7084640304445671
  0.1294841403218712  0.7680152382303760  0.7793486593174705
  0.2914400204990812  0.9642810408268829  0.8530458878313425
  0.4775738546172832  0.1473004310752586  0.9263330170733539
  0.7057411785331524  0.3852760676300093  0.8168275607248248
  0.8920788250329252  0.5503344897418643  0.8896785982046538
  0.0724274505756242  0.7403879650405116  0.9603934881346277
  0.6138188933540434  0.9156103764655299  0.1959663960579050
  0.2044435244355114  0.4953257130993407  0.2428285631255918
  0.6680425922733306  0.0094147597014924  0.8309920064296747
  0.2037811275135155  0.9089983711483995  0.2204041716274361
  0.9690457083332902  0.6305925926078046  0.5207653824010734
  0.7512517775017713  0.4065917955196383  0.6277612083683053
  0.3259732819070251  0.6387521691389466  0.1609851340357906
  0.5246649863886859  0.8544913785718293  0.2543867364136361
  0.6871680562435429  0.0353042159047803  0.3240082972757179
  0.7264532706452300  0.0559430419212248  0.1311554846951921
  0.8672106746916697  0.3325306333510056  0.2049393636821151
  0.0907739988857514  0.4201382615222755  0.2926375070984051
  0.2813112167032159  0.6187843632745000  0.3622958705707902
  0.4691953456491760  0.7974568171827698  0.4330576808680746
  0.6050045407946243  0.0381201455088700  0.5033084148125511
  0.8762322906739684  0.2065234049814038  0.3954427147056521
  0.0632098569419028  0.3767824723575330  0.4628428173216435
  0.3035939037191682  0.5699768885477923  0.5483228820013650
  0.3803857238509067  0.8345196005758098  0.6192561919225241
  0.6303206665527554  0.9402435909223357  0.6918963702365275
  0.8625469957269019  0.1227062627907785  0.5719750536991910
  0.0638624737568207  0.3623696746509282  0.6616114534822302
  0.2089221676745581  0.5558275240124075  0.7299836501269823
  0.3990350681875157  0.7382542008936284  0.8024830526447460
  0.5736723690536749  0.9048739050649530  0.8800921935778376
  0.8017199728800009  0.1341423660055696  0.7694636071916250
  0.9976032351898070  0.3233404850189245  0.8389610596617914
  0.1767978093617799  0.5047226961861071  0.9117498889539846
  0.3588457348515988  0.6891729148946624  0.9836494825925968
  0.5436009317161776  0.8704933301158917  0.0557867252420010
  0.7639679730703648  0.0987540415462291  0.9482111556143948
  0.9490592289452593  0.2801114231375905  0.0200639060212495
  0.1343471163964480  0.4618814568251253  0.0891902711297234
  0.1620198901816252  0.8370278283572716  0.0724880234447625
  0.3284347947492705  0.0248884873395738  0.1411212109120896
  0.6243290410559510  0.1964702931308224  0.2281776933944428
  0.5777986818721246  0.2445344423081295  0.0382420945103803
  0.7567275712240544  0.4307609997954813  0.1091558507666832
  0.0100936441506221  0.5666410872334353  0.1777752669303609
  0.1359453235709580  0.8204197937007081  0.2761633417428584
  0.3247524168800240  0.9890780989467700  0.3454059888037193
  0.5079452864478782  0.1754152037612471  0.4145771123817710
  0.7227686972016940  0.4070234369639820  0.3068318822038876
  0.9083033816059185  0.5902325673765674  0.3793367368875593
  0.0968958159920490  0.7652039492141611  0.4548232328077830
  0.2907389133638958  0.9564200301748400  0.5244553861010317
  0.4754409711851650  0.1390717371214691  0.5989135592005468
  0.6981200405860193  0.3604997865139836  0.4869754903913304
  0.8634766061212389  0.5271718477467431  0.5706342192172045
  0.0656290434495972  0.7308929343502371  0.6358888326165371
  0.2378657804169180  0.9160840320218142  0.7095999356442633
  0.4062656905342692  0.1077951961621082  0.7739742707512249
  0.6455425547302411  0.3115995981454276  0.6784404717227588
  0.8314509169269400  0.5105318789504096  0.7473505152257047
  0.0865411860100309  0.6409392465318007  0.8192829152998726
  0.1999550759599131  0.8874450246235170  0.8946877357271248
  0.3909398660743477  0.0650971911883573  0.9675291291535331
  0.6218054013642416  0.3264750177115658  0.8618516191988945
  0.8073332214446225  0.4714424662490373  0.9321710511498722
  0.9843883472176884  0.6558484432987655  0.0013301784550706
 
  0.00000000E+00  0.00000000E+00  0.00000000E+00
  0.00000000E+00  0.00000000E+00  0.00000000E+00
  0.00000000E+00  0.00000000E+00  0.00000000E+00
  0.00000000E+00  0.00000000E+00  0.00000000E+00
  0.00000000E+00  0.00000000E+00  0.00000000E+00
  0.00000000E+00  0.00000000E+00  0.00000000E+00
  0.00000000E+00  0.00000000E+00  0.00000000E+00
  0.00000000E+00  0.00000000E+00  0.00000000E+00
  0.00000000E+00  0.00000000E+00  0.00000000E+00
  0.00000000E+00  0.00000000E+00  0.00000000E+00
  0.00000000E+00  0.00000000E+00  0.00000000E+00
  0.00000000E+00  0.00000000E+00  0.00000000E+00
  0.00000000E+00  0.00000000E+00  0.00000000E+00
  0.00000000E+00  0.00000000E+00  0.00000000E+00
  0.00000000E+00  0.00000000E+00  0.00000000E+00
  0.00000000E+00  0.00000000E+00  0.00000000E+00
  0.00000000E+00  0.00000000E+00  0.00000000E+00
  0.00000000E+00  0.00000000E+00  0.00000000E+00
  0.00000000E+00  0.00000000E+00  0.00000000E+00
  0.00000000E+00  0.00000000E+00  0.00000000E+00
  0.00000000E+00  0.00000000E+00  0.00000000E+00
  0.00000000E+00  0.00000000E+00  0.00000000E+00
  0.00000000E+00  0.00000000E+00  0.00000000E+00
  0.00000000E+00  0.00000000E+00  0.00000000E+00
  0.00000000E+00  0.00000000E+00  0.00000000E+00
  0.00000000E+00  0.00000000E+00  0.00000000E+00
  0.00000000E+00  0.00000000E+00  0.00000000E+00
  0.00000000E+00  0.00000000E+00  0.00000000E+00
  0.00000000E+00  0.00000000E+00  0.00000000E+00
  0.00000000E+00  0.00000000E+00  0.00000000E+00
  0.00000000E+00  0.00000000E+00  0.00000000E+00
  0.00000000E+00  0.00000000E+00  0.00000000E+00
  0.00000000E+00  0.00000000E+00  0.00000000E+00
  0.00000000E+00  0.00000000E+00  0.00000000E+00
  0.00000000E+00  0.00000000E+00  0.00000000E+00
  0.00000000E+00  0.00000000E+00  0.00000000E+00
  0.00000000E+00  0.00000000E+00  0.00000000E+00
  0.00000000E+00  0.00000000E+00  0.00000000E+00
  0.00000000E+00  0.00000000E+00  0.00000000E+00
  0.00000000E+00  0.00000000E+00  0.00000000E+00
  0.00000000E+00  0.00000000E+00  0.00000000E+00
  0.00000000E+00  0.00000000E+00  0.00000000E+00
  0.00000000E+00  0.00000000E+00  0.00000000E+00
  0.00000000E+00  0.00000000E+00  0.00000000E+00
  0.00000000E+00  0.00000000E+00  0.00000000E+00
  0.00000000E+00  0.00000000E+00  0.00000000E+00
  0.00000000E+00  0.00000000E+00  0.00000000E+00
  0.00000000E+00  0.00000000E+00  0.00000000E+00
  0.00000000E+00  0.00000000E+00  0.00000000E+00
  0.00000000E+00  0.00000000E+00  0.00000000E+00
  0.00000000E+00  0.00000000E+00  0.00000000E+00
  0.00000000E+00  0.00000000E+00  0.00000000E+00
  0.00000000E+00  0.00000000E+00  0.00000000E+00
  0.00000000E+00  0.00000000E+00  0.00000000E+00
  0.00000000E+00  0.00000000E+00  0.00000000E+00
  0.00000000E+00  0.00000000E+00  0.00000000E+00
  0.00000000E+00  0.00000000E+00  0.00000000E+00
  0.00000000E+00  0.00000000E+00  0.00000000E+00
  0.00000000E+00  0.00000000E+00  0.00000000E+00
  0.00000000E+00  0.00000000E+00  0.00000000E+00
  0.00000000E+00  0.00000000E+00  0.00000000E+00
  0.00000000E+00  0.00000000E+00  0.00000000E+00
  0.00000000E+00  0.00000000E+00  0.00000000E+00
  0.00000000E+00  0.00000000E+00  0.00000000E+00
  0.00000000E+00  0.00000000E+00  0.00000000E+00
  0.00000000E+00  0.00000000E+00  0.00000000E+00
  0.00000000E+00  0.00000000E+00  0.00000000E+00
  0.00000000E+00  0.00000000E+00  0.00000000E+00
  0.00000000E+00  0.00000000E+00  0.00000000E+00
  0.00000000E+00  0.00000000E+00  0.00000000E+00
  0.00000000E+00  0.00000000E+00  0.00000000E+00
  0.00000000E+00  0.00000000E+00  0.00000000E+00
  0.00000000E+00  0.00000000E+00  0.00000000E+00
  0.00000000E+00  0.00000000E+00  0.00000000E+00
  0.00000000E+00  0.00000000E+00  0.00000000E+00
  0.00000000E+00  0.00000000E+00  0.00000000E+00
  0.00000000E+00  0.00000000E+00  0.00000000E+00
  0.00000000E+00  0.00000000E+00  0.00000000E+00
  0.00000000E+00  0.00000000E+00  0.00000000E+00
  0.00000000E+00  0.00000000E+00  0.00000000E+00
  0.00000000E+00  0.00000000E+00  0.00000000E+00
  0.00000000E+00  0.00000000E+00  0.00000000E+00
  0.00000000E+00  0.00000000E+00  0.00000000E+00
  0.00000000E+00  0.00000000E+00  0.00000000E+00
  0.00000000E+00  0.00000000E+00  0.00000000E+00
  0.00000000E+00  0.00000000E+00  0.00000000E+00
  0.00000000E+00  0.00000000E+00  0.00000000E+00
  0.00000000E+00  0.00000000E+00  0.00000000E+00
  0.00000000E+00  0.00000000E+00  0.00000000E+00
  0.00000000E+00  0.00000000E+00  0.00000000E+00
  0.00000000E+00  0.00000000E+00  0.00000000E+00
  0.00000000E+00  0.00000000E+00  0.00000000E+00
  0.00000000E+00  0.00000000E+00  0.00000000E+00
  0.00000000E+00  0.00000000E+00  0.00000000E+00
  0.00000000E+00  0.00000000E+00  0.00000000E+00
  0.00000000E+00  0.00000000E+00  0.00000000E+00
  0.00000000E+00  0.00000000E+00  0.00000000E+00
  0.00000000E+00  0.00000000E+00  0.00000000E+00
  0.00000000E+00  0.00000000E+00  0.00000000E+00
  0.00000000E+00  0.00000000E+00  0.00000000E+00
  0.00000000E+00  0.00000000E+00  0.00000000E+00
  0.00000000E+00  0.00000000E+00  0.00000000E+00
  0.00000000E+00  0.00000000E+00  0.00000000E+00
  0.00000000E+00  0.00000000E+00  0.00000000E+00
  0.00000000E+00  0.00000000E+00  0.00000000E+00
  0.00000000E+00  0.00000000E+00  0.00000000E+00
  0.00000000E+00  0.00000000E+00  0.00000000E+00
  0.00000000E+00  0.00000000E+00  0.00000000E+00
