supercell of icsd_608626.cif            
   1.09760854154722     
     9.2527508913990832    0.0137251183910463    0.0090367131237078
    -4.6143685221685367    8.0519714637539170    0.0015617838026578
     0.0093251959827248    0.0082431817695228    9.4698747909606507
   Al   Y    N 
    22    14    36
Direct
  0.2219184187211383  0.1193144543950879  0.2488561849008946
  0.0961457444735245  0.2379975983363067  0.4918936928299402
  0.8824750158272536  0.1067761217742031  0.7633774194621452
  0.7766067169179323  0.2128579295889921  0.9952950990510772
  0.5558318161159548  0.1014464557808381  0.2463815510063085
  0.1096257408534100  0.2235073286004621  0.9942156630127670
  0.7819420406671043  0.2175310255210476  0.5055285342429627
  0.5610447419996873  0.0982098773028071  0.7567902884658650
  0.2260445896442036  0.4525081205103234  0.2434712924084508
  0.1132754917077534  0.5517383026785936  0.4999764131046263
  0.2184221653634495  0.4459161879365965  0.7508911726546472
  0.1081188712043257  0.5432615383927768  0.9937627349402689
  0.5573644964956941  0.4458038301827401  0.7730877023887999
  0.2264899482022145  0.7684783110304281  0.2282898878345776
  0.8925222021020645  0.7845040111599602  0.7665721483469596
  0.7792549111792511  0.8918719677980178  0.9916831646083040
  0.5520352422203416  0.7775281793324140  0.2414397598086921
  0.2271420436930427  0.7753746067465386  0.7578861408495925
  0.1072322885531776  0.8967095321792016  0.0064312457135003
  0.8859084735216669  0.7807173072418649  0.2369664585926330
  0.5618638942353442  0.7886352383424224  0.7645604540292581
  0.4553185758322584  0.8931419241194689  0.9987074909180720
  0.4526823098973196  0.2236395695913700  0.4904861469151740
  0.2081691210635555  0.1075424264259439  0.7348227211001657
  0.8924040196413827  0.1065097608824530  0.2213663754914137
  0.4352575910409300  0.1961384362393019  0.9963359276862676
  0.9013747299929022  0.4310328659905807  0.7314981038808241
  0.7989801565288417  0.5647688107268323  0.9852976578956643
  0.5565319985823720  0.4482829823862389  0.2314861504531081
  0.4234493763086604  0.5534750363821459  0.5031075845407358
  0.9060372627876347  0.4401024718254760  0.2603353982466601
  0.7813576591908244  0.5734440606610747  0.5141216053718907
  0.4271615881851645  0.5624568328782331  0.9872553096095231
  0.1075510542373124  0.8838026601402333  0.4689220669355549
  0.4340054240946714  0.8842090298543184  0.4903750362424830
  0.7811881386933308  0.9125709439533054  0.5042487352318759
  0.2042722534497159  0.1342675003289457  0.4411444066688546
  0.1486872933103669  0.2473694551121497  0.1761084785922264
  0.8915820822174894  0.1105701821939604  0.9545155527325306
  0.7586685119990193  0.1774172265104923  0.6880733173202600
  0.5894464820977703  0.1201551998486394  0.4272922426722019
  0.4289980522831485  0.1884843933506630  0.2199806761597785
  0.1927209346375705  0.0987706740050385  0.9454124201218264
  0.0884371933705594  0.2420612775106221  0.6824898290498993
  0.8992227281055918  0.1450101699745545  0.4315862231771916
  0.7504341949097721  0.2105614784197911  0.1737789593016927
  0.5737023935329404  0.0942357879667099  0.9356857026961052
  0.4702403752713522  0.2305961851460196  0.7206101090220258
  0.1874304704783825  0.4344479812654569  0.4234723500726147
  0.1381135267196356  0.5645047694674687  0.1694868942102943
  0.9017795822744006  0.4208987919492841  0.9490343032476360
  0.7700174237240986  0.5688142704656087  0.7365488334170038
  0.5558360240774221  0.4532059576087093  0.4431955515680102
  0.4316171495193615  0.5718601636889176  0.2057368587990069
  0.1867567986472594  0.4223558548103412  0.9265860558924359
  0.1577226338776256  0.5793558180817868  0.6805454598984468
  0.8954114914110178  0.4344878673682331  0.4913829842475295
  0.8065743327384567  0.5766981399030016  0.2025286338500294
  0.5509229772771249  0.4387911528406860  0.9609760983101268
  0.4456885072951309  0.5543612266787292  0.7313762240566319
  0.2000858709197288  0.7367823085978600  0.4088532808683638
  0.1111192469802162  0.8969078139035460  0.1957830520232591
  0.9077427642162519  0.8117482451466813  0.9451725636144133
  0.7837573473479793  0.8906036421297827  0.7219876601634283
  0.5559415425239180  0.7804180780038479  0.4236396891755021
  0.4448075516591459  0.8891527605500613  0.1880581003988269
  0.2219383752397093  0.7780591304176028  0.9454913968768821
  0.0946842290079530  0.8534778959456872  0.6923971804083777
  0.8801180277800427  0.7906263674401188  0.4158103995672846
  0.7579652551354172  0.8585752299362994  0.1761327670136410
  0.5719780512793236  0.8063461379426542  0.9416992269612336
  0.4428444649094558  0.8862151286014850  0.7097031990727629
 
  0.00000000E+00  0.00000000E+00  0.00000000E+00
  0.00000000E+00  0.00000000E+00  0.00000000E+00
  0.00000000E+00  0.00000000E+00  0.00000000E+00
  0.00000000E+00  0.00000000E+00  0.00000000E+00
  0.00000000E+00  0.00000000E+00  0.00000000E+00
  0.00000000E+00  0.00000000E+00  0.00000000E+00
  0.00000000E+00  0.00000000E+00  0.00000000E+00
  0.00000000E+00  0.00000000E+00  0.00000000E+00
  0.00000000E+00  0.00000000E+00  0.00000000E+00
  0.00000000E+00  0.00000000E+00  0.00000000E+00
  0.00000000E+00  0.00000000E+00  0.00000000E+00
  0.00000000E+00  0.00000000E+00  0.00000000E+00
  0.00000000E+00  0.00000000E+00  0.00000000E+00
  0.00000000E+00  0.00000000E+00  0.00000000E+00
  0.00000000E+00  0.00000000E+00  0.00000000E+00
  0.00000000E+00  0.00000000E+00  0.00000000E+00
  0.00000000E+00  0.00000000E+00  0.00000000E+00
  0.00000000E+00  0.00000000E+00  0.00000000E+00
  0.00000000E+00  0.00000000E+00  0.00000000E+00
  0.00000000E+00  0.00000000E+00  0.00000000E+00
  0.00000000E+00  0.00000000E+00  0.00000000E+00
  0.00000000E+00  0.00000000E+00  0.00000000E+00
  0.00000000E+00  0.00000000E+00  0.00000000E+00
  0.00000000E+00  0.00000000E+00  0.00000000E+00
  0.00000000E+00  0.00000000E+00  0.00000000E+00
  0.00000000E+00  0.00000000E+00  0.00000000E+00
  0.00000000E+00  0.00000000E+00  0.00000000E+00
  0.00000000E+00  0.00000000E+00  0.00000000E+00
  0.00000000E+00  0.00000000E+00  0.00000000E+00
  0.00000000E+00  0.00000000E+00  0.00000000E+00
  0.00000000E+00  0.00000000E+00  0.00000000E+00
  0.00000000E+00  0.00000000E+00  0.00000000E+00
  0.00000000E+00  0.00000000E+00  0.00000000E+00
  0.00000000E+00  0.00000000E+00  0.00000000E+00
  0.00000000E+00  0.00000000E+00  0.00000000E+00
  0.00000000E+00  0.00000000E+00  0.00000000E+00
  0.00000000E+00  0.00000000E+00  0.00000000E+00
  0.00000000E+00  0.00000000E+00  0.00000000E+00
  0.00000000E+00  0.00000000E+00  0.00000000E+00
  0.00000000E+00  0.00000000E+00  0.00000000E+00
  0.00000000E+00  0.00000000E+00  0.00000000E+00
  0.00000000E+00  0.00000000E+00  0.00000000E+00
  0.00000000E+00  0.00000000E+00  0.00000000E+00
  0.00000000E+00  0.00000000E+00  0.00000000E+00
  0.00000000E+00  0.00000000E+00  0.00000000E+00
  0.00000000E+00  0.00000000E+00  0.00000000E+00
  0.00000000E+00  0.00000000E+00  0.00000000E+00
  0.00000000E+00  0.00000000E+00  0.00000000E+00
  0.00000000E+00  0.00000000E+00  0.00000000E+00
  0.00000000E+00  0.00000000E+00  0.00000000E+00
  0.00000000E+00  0.00000000E+00  0.00000000E+00
  0.00000000E+00  0.00000000E+00  0.00000000E+00
  0.00000000E+00  0.00000000E+00  0.00000000E+00
  0.00000000E+00  0.00000000E+00  0.00000000E+00
  0.00000000E+00  0.00000000E+00  0.00000000E+00
  0.00000000E+00  0.00000000E+00  0.00000000E+00
  0.00000000E+00  0.00000000E+00  0.00000000E+00
  0.00000000E+00  0.00000000E+00  0.00000000E+00
  0.00000000E+00  0.00000000E+00  0.00000000E+00
  0.00000000E+00  0.00000000E+00  0.00000000E+00
  0.00000000E+00  0.00000000E+00  0.00000000E+00
  0.00000000E+00  0.00000000E+00  0.00000000E+00
  0.00000000E+00  0.00000000E+00  0.00000000E+00
  0.00000000E+00  0.00000000E+00  0.00000000E+00
  0.00000000E+00  0.00000000E+00  0.00000000E+00
  0.00000000E+00  0.00000000E+00  0.00000000E+00
  0.00000000E+00  0.00000000E+00  0.00000000E+00
  0.00000000E+00  0.00000000E+00  0.00000000E+00
  0.00000000E+00  0.00000000E+00  0.00000000E+00
  0.00000000E+00  0.00000000E+00  0.00000000E+00
  0.00000000E+00  0.00000000E+00  0.00000000E+00
  0.00000000E+00  0.00000000E+00  0.00000000E+00
