supercell of icsd_181358.cif            
   1.00000000000000     
     9.8775083615825494   -0.0095115597959614    0.0017221662109161
    -4.9469742828627661    8.5534248750478490   -0.0186819603687214
     0.0019263319150010   -0.0222276650813829   10.4869323724598722
   N    Ga   Y 
    36    30     6
Direct
  0.2198791722018640  0.1062394623940790  0.4405018154421043
  0.1082807050388297  0.2214508634875685  0.2108379903172590
  0.8879893586865677  0.0842042379308481  0.9269522548365217
  0.8025503659346853  0.2337526449505987  0.7033255988534179
  0.5564912909626543  0.1116508530697047  0.4763102481338066
  0.4250135403616540  0.2345441304807352  0.1824458776167219
  0.2297339088295374  0.0929722581053554  0.9265515998810727
  0.1147467366048716  0.2246683698949212  0.6896703116703264
  0.8893101587328331  0.1116043615132014  0.4459322147726681
  0.7885492202635618  0.2165825543851838  0.1954996825515778
  0.5347682408777388  0.0973101009908035  0.9537763906897752
  0.4252226832317163  0.2342097251452273  0.6820959976938354
  0.2200355348761178  0.4453361660680173  0.4413257473879284
  0.1345126904317979  0.5630542292184586  0.1795423662183140
  0.9052327943365910  0.4779824386668352  0.9360823796754616
  0.7715245979151746  0.5563250540284983  0.6917072057988349
  0.5561980024161315  0.4429923906790094  0.4338256073487656
  0.4397806576548291  0.5540608404598046  0.1927679746024538
  0.2388229353137419  0.4726409635752731  0.9274943748541986
  0.1116325944708905  0.5571647887739317  0.6898481282327324
  0.8882875928729703  0.4455615364620655  0.4627168573406877
  0.7601877712673044  0.5691011720037835  0.1784701735782690
  0.5506899288437737  0.4429102453605012  0.9359811944027356
  0.4322011438720637  0.5345409906240803  0.6765016953921474
  0.2179614521597486  0.7737150423867476  0.4345423502061365
  0.1105847768638739  0.8862379749678340  0.1875411777580354
  0.8896746780821232  0.7800954307050603  0.9369555942235266
  0.8053553882992475  0.8989398390325860  0.6762752452932048
  0.5576690227591499  0.7758689586839083  0.4401654480773232
  0.4361822681170793  0.8686648663887908  0.1919260788642490
  0.2255177247515618  0.7814725160931459  0.9373424450759273
  0.1102507279865890  0.8841026480796259  0.6853297294363969
  0.8896764250627811  0.7733081330377871  0.4352961750126738
  0.7811916699320705  0.8928170748837729  0.1958819354193508
  0.5603261931886863  0.7790025730119794  0.9624941334568859
  0.4172554287009120  0.8621381290049470  0.6795921447056443
  0.2147277314538130  0.1093335076470012  0.2540430616528013
  0.9006088812091591  0.1082380366256857  0.7437541975176813
  0.7869696707137308  0.2261877015725204  0.5128019519405740
  0.4384511628150918  0.2187791326509085  0.9974718788282928
  0.2157405279969993  0.1058349516319410  0.7431907218233320
  0.1121451084999805  0.2226060152315625  0.4994614726285178
  0.8906098084175298  0.1103922541314262  0.2593522177167173
  0.4382637802488247  0.2274748150757162  0.5013404639391652
  0.2243121571700399  0.4459201754047655  0.2545683791319320
  0.1238930426523481  0.5695039193880689  0.9938212842834844
  0.8967903927601526  0.4573972274174025  0.7477786957062946
  0.7743498523567425  0.5557046547623727  0.5048806289909393
  0.5484808059083832  0.4492675890092030  0.2454642209541475
  0.4467663808019253  0.5604367600133102  0.0055185064325016
  0.2231200503173270  0.4471073824132006  0.7425598630117989
  0.1125293916086818  0.5571089350364034  0.5055404021798608
  0.7748922965217204  0.5645462729333062  0.9931482380915000
  0.5466321355154307  0.4420751837517187  0.7483000181672210
  0.4422895048031634  0.5505476361525297  0.4941377258898143
  0.2228494474611580  0.7736914291751944  0.2473660275040928
  0.1122356886951295  0.8841328266470541  0.9967242560751615
  0.8951196370261343  0.7810332164381180  0.7486044186430689
  0.7846037421749799  0.8891625572175315  0.4941107828661586
  0.5556438084902950  0.7733707799361014  0.2486881219935668
  0.4389392031908130  0.8812715129925053  0.0064692097515433
  0.2144396462739948  0.7725190512453395  0.7502861123279132
  0.1093147995674286  0.8840992040115268  0.4979017129098011
  0.8866350091752935  0.7805582827962709  0.2477311234793760
  0.7805717350241537  0.8847874698813669  0.0072300093976594
  0.4361287217721426  0.8769851227640046  0.4987518677860052
  0.1260175802921069  0.2274760628588766  0.9975801956212251
  0.5465162984098839  0.1106241600958526  0.2560101482686719
  0.7843282612940072  0.2244591869886392  0.9834581643617213
  0.5438486391427872  0.1081391992631353  0.7328618702096819
  0.8953460218935518  0.4602522454791682  0.2501202878164861
  0.5626016964433518  0.7717519768156293  0.7494656172803715
 
  0.00000000E+00  0.00000000E+00  0.00000000E+00
  0.00000000E+00  0.00000000E+00  0.00000000E+00
  0.00000000E+00  0.00000000E+00  0.00000000E+00
  0.00000000E+00  0.00000000E+00  0.00000000E+00
  0.00000000E+00  0.00000000E+00  0.00000000E+00
  0.00000000E+00  0.00000000E+00  0.00000000E+00
  0.00000000E+00  0.00000000E+00  0.00000000E+00
  0.00000000E+00  0.00000000E+00  0.00000000E+00
  0.00000000E+00  0.00000000E+00  0.00000000E+00
  0.00000000E+00  0.00000000E+00  0.00000000E+00
  0.00000000E+00  0.00000000E+00  0.00000000E+00
  0.00000000E+00  0.00000000E+00  0.00000000E+00
  0.00000000E+00  0.00000000E+00  0.00000000E+00
  0.00000000E+00  0.00000000E+00  0.00000000E+00
  0.00000000E+00  0.00000000E+00  0.00000000E+00
  0.00000000E+00  0.00000000E+00  0.00000000E+00
  0.00000000E+00  0.00000000E+00  0.00000000E+00
  0.00000000E+00  0.00000000E+00  0.00000000E+00
  0.00000000E+00  0.00000000E+00  0.00000000E+00
  0.00000000E+00  0.00000000E+00  0.00000000E+00
  0.00000000E+00  0.00000000E+00  0.00000000E+00
  0.00000000E+00  0.00000000E+00  0.00000000E+00
  0.00000000E+00  0.00000000E+00  0.00000000E+00
  0.00000000E+00  0.00000000E+00  0.00000000E+00
  0.00000000E+00  0.00000000E+00  0.00000000E+00
  0.00000000E+00  0.00000000E+00  0.00000000E+00
  0.00000000E+00  0.00000000E+00  0.00000000E+00
  0.00000000E+00  0.00000000E+00  0.00000000E+00
  0.00000000E+00  0.00000000E+00  0.00000000E+00
  0.00000000E+00  0.00000000E+00  0.00000000E+00
  0.00000000E+00  0.00000000E+00  0.00000000E+00
  0.00000000E+00  0.00000000E+00  0.00000000E+00
  0.00000000E+00  0.00000000E+00  0.00000000E+00
  0.00000000E+00  0.00000000E+00  0.00000000E+00
  0.00000000E+00  0.00000000E+00  0.00000000E+00
  0.00000000E+00  0.00000000E+00  0.00000000E+00
  0.00000000E+00  0.00000000E+00  0.00000000E+00
  0.00000000E+00  0.00000000E+00  0.00000000E+00
  0.00000000E+00  0.00000000E+00  0.00000000E+00
  0.00000000E+00  0.00000000E+00  0.00000000E+00
  0.00000000E+00  0.00000000E+00  0.00000000E+00
  0.00000000E+00  0.00000000E+00  0.00000000E+00
  0.00000000E+00  0.00000000E+00  0.00000000E+00
  0.00000000E+00  0.00000000E+00  0.00000000E+00
  0.00000000E+00  0.00000000E+00  0.00000000E+00
  0.00000000E+00  0.00000000E+00  0.00000000E+00
  0.00000000E+00  0.00000000E+00  0.00000000E+00
  0.00000000E+00  0.00000000E+00  0.00000000E+00
  0.00000000E+00  0.00000000E+00  0.00000000E+00
  0.00000000E+00  0.00000000E+00  0.00000000E+00
  0.00000000E+00  0.00000000E+00  0.00000000E+00
  0.00000000E+00  0.00000000E+00  0.00000000E+00
  0.00000000E+00  0.00000000E+00  0.00000000E+00
  0.00000000E+00  0.00000000E+00  0.00000000E+00
  0.00000000E+00  0.00000000E+00  0.00000000E+00
  0.00000000E+00  0.00000000E+00  0.00000000E+00
  0.00000000E+00  0.00000000E+00  0.00000000E+00
  0.00000000E+00  0.00000000E+00  0.00000000E+00
  0.00000000E+00  0.00000000E+00  0.00000000E+00
  0.00000000E+00  0.00000000E+00  0.00000000E+00
  0.00000000E+00  0.00000000E+00  0.00000000E+00
  0.00000000E+00  0.00000000E+00  0.00000000E+00
  0.00000000E+00  0.00000000E+00  0.00000000E+00
  0.00000000E+00  0.00000000E+00  0.00000000E+00
  0.00000000E+00  0.00000000E+00  0.00000000E+00
  0.00000000E+00  0.00000000E+00  0.00000000E+00
  0.00000000E+00  0.00000000E+00  0.00000000E+00
  0.00000000E+00  0.00000000E+00  0.00000000E+00
  0.00000000E+00  0.00000000E+00  0.00000000E+00
  0.00000000E+00  0.00000000E+00  0.00000000E+00
  0.00000000E+00  0.00000000E+00  0.00000000E+00
  0.00000000E+00  0.00000000E+00  0.00000000E+00
