generated by phonopy                    
   1.00000000000000     
    10.0351470768999995   -0.0000022330999784   -0.0000001056124209
    -5.0175765436399997    8.6906901959899994    0.0000001395531216
    -0.0000001735893656    0.0000001431815548   14.9533752540999991
   Pb   P    O 
    20    12    49
Direct
  0.9942892007794484  0.7716999457102105  0.1128580539410180
  0.9944489660612632  0.7717430158101592  0.6345829740836209
  0.9690601750471117  0.2422394404535311  0.3738076459288990
  0.9996195161500552  0.2612303306712533  0.8738927915318371
  0.2226284085850807  0.2187907811318226  0.1099708529026913
  0.2227208950742607  0.2189753765826978  0.6376464535505235
  0.7528296584870589  0.7379094212464850  0.3738989652640825
  0.7390016808978075  0.7424750264931745  0.8738975622928393
  0.7727976073769796  0.0009987589105762  0.1156958294068176
  0.7727340093561565  0.0009892618139986  0.6320213705777320
  0.2529607827160305  0.9785680799951209  0.3737801920858246
  0.2570484443901719  0.9929313485135509  0.8737639207257715
  0.6660917407339682  0.3342290533292811  0.9996956911926773
  0.6692995915391577  0.3368407219483345  0.5068662516621103
  0.3344247901267607  0.6629587525218810  0.0012066748427628
  0.3318552441315674  0.6798405431961427  0.5104905556285715
  0.3312063385020352  0.6792700204825266  0.2370914871528811
  0.3338991829567419  0.6624307157332296  0.7464063627091306
  0.6685501435632091  0.3372082798702110  0.2412440603580421
  0.6660239517474906  0.3348413649873976  0.7483484023558375
  0.6234175954512580  0.5947216259617747  0.1242293728287578
  0.6236222741888255  0.5948498375740883  0.6237254726312074
  0.3515229986735875  0.3862271867457849  0.3740651768532715
  0.3683802524702458  0.3943094348615190  0.8739418867860422
  0.4058066928990058  0.0298911153220729  0.1269377148023949
  0.4059154195348711  0.0299588532548896  0.6208690747337684
  0.6044758123225762  0.9596892180871919  0.3738113376340451
  0.6041198642071137  0.9729779757756205  0.8738523107302214
  0.9703028358583765  0.3763025546657630  0.1267338204472850
  0.9703999209198031  0.3764485789730116  0.6211053034758578
  0.0347778296533434  0.6257926806611778  0.3738578106242869
  0.0252587206760637  0.6299491283553706  0.8738959351972753
  0.5002165581113687  0.6458374084544616  0.1207410285053498
  0.5003527149598170  0.6459060042599987  0.6270611027092627
  0.5246281056441262  0.4786715815306266  0.3743380366253035
  0.4697380349732398  0.3178729960912747  0.8740296269671788
  0.3575791318727184  0.8549947907361997  0.1241158706527159
  0.3577133899807521  0.8550493969630324  0.6235738413161585
  0.6887233494683613  0.1396112262557665  0.3739442482601802
  0.6802439145012542  0.1511196893445543  0.8740335778114172
  0.1436467236964063  0.5034409782601372  0.1249411368574940
  0.1438236901244565  0.5034040939383502  0.6225933152064371
  0.8566764007540115  0.5404165253951163  0.3739408672214921
  0.8473885471129350  0.5272085826592701  0.8740652312738106
  0.7286605071505079  0.6497787495168339  0.0384341287349343
  0.7321366082393013  0.6630141893777264  0.5405741009433314
  0.2650611488760930  0.3402246488330292  0.4604724628725521
  0.2600303840489389  0.3489917554801494  0.9576067180591039
  0.3433855879912926  0.0721165073034200  0.0415500008328138
  0.3413487715707788  0.0691073127221458  0.5361330437234315
  0.6432721490517466  0.8927144722912246  0.4577790645431961
  0.6494479691328223  0.9105046900280129  0.9577373468964012
  0.9257433811256135  0.2738339254329247  0.0405584463360071
  0.9279914279141508  0.2685292757909394  0.5375726241263763
  0.1055038610163876  0.7354472923279332  0.4573448366228661
  0.0870765154013782  0.7384204776168133  0.9575111344222194
  0.2659125289970348  0.3410719556398192  0.2873066123147083
  0.2598800437600275  0.3485235999191261  0.7903236014905559
  0.7316919699267004  0.6626584418459061  0.2075106034785748
  0.7286898966869160  0.6498579020040864  0.7096147221893503
  0.6444373958469427  0.8932389511465431  0.2900730389287247
  0.6510712687297868  0.9112690906300145  0.7903059924877383
  0.3402804501026608  0.0686760863797815  0.2113927371050224
  0.3425319567092657  0.0716894872838054  0.7060184237613072
  0.1053123457842347  0.7356739539146702  0.2904466441972460
  0.0865333075842329  0.7387215410521293  0.7903983247075885
  0.9290392293760661  0.2676014046252604  0.2098079661677517
  0.9266698366712944  0.2732504663841056  0.7069175822768798
  0.5439835489460307  0.4139454383305292  0.1277519455916973
  0.5442645023965582  0.4140749572879585  0.6202070345537365
  0.4730320856540970  0.5760366131173171  0.8737829877109533
  0.5861369062039046  0.1324345615588598  0.1275563043535968
  0.5862489151830346  0.1325548291049614  0.6208846009130156
  0.4241721995672663  0.8937257844482005  0.3734722718171994
  0.4223518948769538  0.8954277491162159  0.8733403139638014
  0.8655887685509356  0.4527158247927616  0.1304497085400982
  0.8657457200509739  0.4529945384765313  0.6183855484211236
  0.0950699845415741  0.5082080026042561  0.3736502978887728
  0.1028199181599589  0.5258283648088877  0.8736032361630208
  0.9958996714213129  0.9970744360516406  0.0929615061336904
  0.9960168554867934  0.9972233993639321  0.6536592207421990
 
  0.00000000E+00  0.00000000E+00  0.00000000E+00
  0.00000000E+00  0.00000000E+00  0.00000000E+00
  0.00000000E+00  0.00000000E+00  0.00000000E+00
  0.00000000E+00  0.00000000E+00  0.00000000E+00
  0.00000000E+00  0.00000000E+00  0.00000000E+00
  0.00000000E+00  0.00000000E+00  0.00000000E+00
  0.00000000E+00  0.00000000E+00  0.00000000E+00
  0.00000000E+00  0.00000000E+00  0.00000000E+00
  0.00000000E+00  0.00000000E+00  0.00000000E+00
  0.00000000E+00  0.00000000E+00  0.00000000E+00
  0.00000000E+00  0.00000000E+00  0.00000000E+00
  0.00000000E+00  0.00000000E+00  0.00000000E+00
  0.00000000E+00  0.00000000E+00  0.00000000E+00
  0.00000000E+00  0.00000000E+00  0.00000000E+00
  0.00000000E+00  0.00000000E+00  0.00000000E+00
  0.00000000E+00  0.00000000E+00  0.00000000E+00
  0.00000000E+00  0.00000000E+00  0.00000000E+00
  0.00000000E+00  0.00000000E+00  0.00000000E+00
  0.00000000E+00  0.00000000E+00  0.00000000E+00
  0.00000000E+00  0.00000000E+00  0.00000000E+00
  0.00000000E+00  0.00000000E+00  0.00000000E+00
  0.00000000E+00  0.00000000E+00  0.00000000E+00
  0.00000000E+00  0.00000000E+00  0.00000000E+00
  0.00000000E+00  0.00000000E+00  0.00000000E+00
  0.00000000E+00  0.00000000E+00  0.00000000E+00
  0.00000000E+00  0.00000000E+00  0.00000000E+00
  0.00000000E+00  0.00000000E+00  0.00000000E+00
  0.00000000E+00  0.00000000E+00  0.00000000E+00
  0.00000000E+00  0.00000000E+00  0.00000000E+00
  0.00000000E+00  0.00000000E+00  0.00000000E+00
  0.00000000E+00  0.00000000E+00  0.00000000E+00
  0.00000000E+00  0.00000000E+00  0.00000000E+00
  0.00000000E+00  0.00000000E+00  0.00000000E+00
  0.00000000E+00  0.00000000E+00  0.00000000E+00
  0.00000000E+00  0.00000000E+00  0.00000000E+00
  0.00000000E+00  0.00000000E+00  0.00000000E+00
  0.00000000E+00  0.00000000E+00  0.00000000E+00
  0.00000000E+00  0.00000000E+00  0.00000000E+00
  0.00000000E+00  0.00000000E+00  0.00000000E+00
  0.00000000E+00  0.00000000E+00  0.00000000E+00
  0.00000000E+00  0.00000000E+00  0.00000000E+00
  0.00000000E+00  0.00000000E+00  0.00000000E+00
  0.00000000E+00  0.00000000E+00  0.00000000E+00
  0.00000000E+00  0.00000000E+00  0.00000000E+00
  0.00000000E+00  0.00000000E+00  0.00000000E+00
  0.00000000E+00  0.00000000E+00  0.00000000E+00
  0.00000000E+00  0.00000000E+00  0.00000000E+00
  0.00000000E+00  0.00000000E+00  0.00000000E+00
  0.00000000E+00  0.00000000E+00  0.00000000E+00
  0.00000000E+00  0.00000000E+00  0.00000000E+00
  0.00000000E+00  0.00000000E+00  0.00000000E+00
  0.00000000E+00  0.00000000E+00  0.00000000E+00
  0.00000000E+00  0.00000000E+00  0.00000000E+00
  0.00000000E+00  0.00000000E+00  0.00000000E+00
  0.00000000E+00  0.00000000E+00  0.00000000E+00
  0.00000000E+00  0.00000000E+00  0.00000000E+00
  0.00000000E+00  0.00000000E+00  0.00000000E+00
  0.00000000E+00  0.00000000E+00  0.00000000E+00
  0.00000000E+00  0.00000000E+00  0.00000000E+00
  0.00000000E+00  0.00000000E+00  0.00000000E+00
  0.00000000E+00  0.00000000E+00  0.00000000E+00
  0.00000000E+00  0.00000000E+00  0.00000000E+00
  0.00000000E+00  0.00000000E+00  0.00000000E+00
  0.00000000E+00  0.00000000E+00  0.00000000E+00
  0.00000000E+00  0.00000000E+00  0.00000000E+00
  0.00000000E+00  0.00000000E+00  0.00000000E+00
  0.00000000E+00  0.00000000E+00  0.00000000E+00
  0.00000000E+00  0.00000000E+00  0.00000000E+00
  0.00000000E+00  0.00000000E+00  0.00000000E+00
  0.00000000E+00  0.00000000E+00  0.00000000E+00
  0.00000000E+00  0.00000000E+00  0.00000000E+00
  0.00000000E+00  0.00000000E+00  0.00000000E+00
  0.00000000E+00  0.00000000E+00  0.00000000E+00
  0.00000000E+00  0.00000000E+00  0.00000000E+00
  0.00000000E+00  0.00000000E+00  0.00000000E+00
  0.00000000E+00  0.00000000E+00  0.00000000E+00
  0.00000000E+00  0.00000000E+00  0.00000000E+00
  0.00000000E+00  0.00000000E+00  0.00000000E+00
  0.00000000E+00  0.00000000E+00  0.00000000E+00
  0.00000000E+00  0.00000000E+00  0.00000000E+00
  0.00000000E+00  0.00000000E+00  0.00000000E+00
