supercell of icsd_191774.cif            
   1.00000000000000     
    10.4314597129381461   -0.0000046376448095    0.0000023092636128
    -5.2157336197111839    9.2614633586468145    0.0426188646688566
     0.0000023756652404    0.0556445289282759   11.2070441634858220
   N    In   B 
    36    34     2
Direct
  0.2258480774628353  0.1181746113783788  0.4420174532945538
  0.1160008821824761  0.2320026033030942  0.1901712194304181
  0.8880407623484530  0.1107295301016435  0.9440323844484482
  0.7802293402698126  0.2294358209681704  0.6920148426358494
  0.5549775300754973  0.1099549118681580  0.4430862712321471
  0.4345156606724530  0.2089335684981108  0.1907478076759404
  0.2226862209241744  0.1107291130414652  0.9440323306327016
  0.1140856770465533  0.2281686888036702  0.6941007165194080
  0.8923270212772962  0.1181743782553468  0.4420170399676380
  0.7744184279505077  0.2089352840799492  0.1907485920869476
  0.5492207996906657  0.0984429146213301  0.9397208572331905
  0.4492085587931953  0.2294344711276963  0.6920150965386753
  0.2251791515716803  0.4503588411640465  0.4418033021683598
  0.1076661178726255  0.5579759727719917  0.1881867831490212
  0.8518401584185540  0.4440016179452755  0.9466775681121646
  0.7850610437129930  0.5701220234726563  0.6725634589195408
  0.5604308438195247  0.4486826077997179  0.4300744767546902
  0.4503082402926921  0.5579746422659824  0.1881874653088644
  0.2257614233323935  0.4515224486140852  0.9439259511943163
  0.1068538392917091  0.5576547599682868  0.6960544877903416
  0.8882507488485700  0.4486821058579125  0.4300744843497384
  0.7450199005789599  0.4900421039713123  0.1368616581649249
  0.5921610184158581  0.4440008597571392  0.9466771035822390
  0.4508028180626127  0.5576547655634982  0.6960541806875398
  0.2201923822295697  0.7776133143501980  0.4415963200851323
  0.0673191391018264  0.8795211392214881  0.2100368053200938
  0.8908887365107319  0.7817806615385550  0.9350834405843429
  0.7814914771557966  0.8952245274480859  0.6833764239261271
  0.5574221232094345  0.7776135430364306  0.4415955715708080
  0.4401313285044139  0.8802607252714196  0.1951916663466307
  0.2142347403517633  0.7776280156661812  0.9464731626052227
  0.1137314311751751  0.8952234265428700  0.6833769708010493
  0.8987792212302352  0.7975572153704960  0.3993444771617902
  0.8122023474732529  0.8795211129592957  0.2100370405823710
  0.5633912239570904  0.7776262190473631  0.9464738319614909
  0.4434969395902542  0.8869929035994346  0.6929687157368818
  0.2160843239839707  0.1111419688685871  0.2516342706162860
  0.1148092007604404  0.2296179671325618  0.5028338854918744
  0.8887533424268028  0.1116561113143177  0.7512749330644652
  0.7708079952286084  0.2166476507682731  0.9997602388223541
  0.5512434847570731  0.1024867321560166  0.2513244698366677
  0.4501093684616890  0.2295249251009963  0.4994766433229429
  0.2229046399120023  0.1116550619901133  0.7512747986790558
  0.1136841302394771  0.2273709581343297  0.9986590178740400
  0.8950560627331186  0.1111413349481012  0.2516341444714598
  0.7794159505263707  0.2295235376756821  0.4994763049900754
  0.5543164951692461  0.1086290763356317  0.7486853196443377
  0.4458373600555134  0.2166473350709452  0.9997591234319216
  0.2257982387468687  0.4515986380432508  0.2484718150206433
  0.1080822679140212  0.5571290396884621  0.5018450643842414
  0.8797769327827965  0.4496823621527781  0.7524756732350966
  0.5558417309095987  0.4369128580581148  0.2378814367345115
  0.4490465089279425  0.5571300983345822  0.5018447779672499
  0.2239830009582491  0.4479636011779959  0.7523223474610248
  0.0948824467274534  0.5548371977450870  0.9978466261163561
  0.8810703931008845  0.4369156753263042  0.2378809003906355
  0.7857983211744539  0.5715972194206884  0.4814389164101556
  0.5699048442820214  0.4496803487604311  0.7524754873568895
  0.4599553722470802  0.5548352549930016  0.9978478317244779
  0.2077161169836756  0.7743387673643625  0.2516551508266076
  0.1128571622353576  0.8953823004335248  0.4933736606797154
  0.8911258946186962  0.7822548910937499  0.7517965076609059
  0.7890046039318221  0.8854909345111253  0.0093190871924449
  0.5666242520290581  0.7743377852661268  0.2516543505867972
  0.4441403042008787  0.8882783210009890  0.5008260414003161
  0.2185501134306875  0.7802407224299515  0.7524410820118419
  0.0964832990469802  0.8854900841402085  0.0093190431515922
  0.7825264262747567  0.8953825805150117  0.4933728403342101
  0.5616908110877077  0.7802404658732556  0.7524420355804864
  0.4398538074276601  0.8797081024627005  0.0026946132354055
  0.7362350604769361  0.4724705898170285  0.0103469509026795
  0.9218543828285348  0.8437080526450131  0.2690346508306831
 
  0.00000000E+00  0.00000000E+00  0.00000000E+00
  0.00000000E+00  0.00000000E+00  0.00000000E+00
  0.00000000E+00  0.00000000E+00  0.00000000E+00
  0.00000000E+00  0.00000000E+00  0.00000000E+00
  0.00000000E+00  0.00000000E+00  0.00000000E+00
  0.00000000E+00  0.00000000E+00  0.00000000E+00
  0.00000000E+00  0.00000000E+00  0.00000000E+00
  0.00000000E+00  0.00000000E+00  0.00000000E+00
  0.00000000E+00  0.00000000E+00  0.00000000E+00
  0.00000000E+00  0.00000000E+00  0.00000000E+00
  0.00000000E+00  0.00000000E+00  0.00000000E+00
  0.00000000E+00  0.00000000E+00  0.00000000E+00
  0.00000000E+00  0.00000000E+00  0.00000000E+00
  0.00000000E+00  0.00000000E+00  0.00000000E+00
  0.00000000E+00  0.00000000E+00  0.00000000E+00
  0.00000000E+00  0.00000000E+00  0.00000000E+00
  0.00000000E+00  0.00000000E+00  0.00000000E+00
  0.00000000E+00  0.00000000E+00  0.00000000E+00
  0.00000000E+00  0.00000000E+00  0.00000000E+00
  0.00000000E+00  0.00000000E+00  0.00000000E+00
  0.00000000E+00  0.00000000E+00  0.00000000E+00
  0.00000000E+00  0.00000000E+00  0.00000000E+00
  0.00000000E+00  0.00000000E+00  0.00000000E+00
  0.00000000E+00  0.00000000E+00  0.00000000E+00
  0.00000000E+00  0.00000000E+00  0.00000000E+00
  0.00000000E+00  0.00000000E+00  0.00000000E+00
  0.00000000E+00  0.00000000E+00  0.00000000E+00
  0.00000000E+00  0.00000000E+00  0.00000000E+00
  0.00000000E+00  0.00000000E+00  0.00000000E+00
  0.00000000E+00  0.00000000E+00  0.00000000E+00
  0.00000000E+00  0.00000000E+00  0.00000000E+00
  0.00000000E+00  0.00000000E+00  0.00000000E+00
  0.00000000E+00  0.00000000E+00  0.00000000E+00
  0.00000000E+00  0.00000000E+00  0.00000000E+00
  0.00000000E+00  0.00000000E+00  0.00000000E+00
  0.00000000E+00  0.00000000E+00  0.00000000E+00
  0.00000000E+00  0.00000000E+00  0.00000000E+00
  0.00000000E+00  0.00000000E+00  0.00000000E+00
  0.00000000E+00  0.00000000E+00  0.00000000E+00
  0.00000000E+00  0.00000000E+00  0.00000000E+00
  0.00000000E+00  0.00000000E+00  0.00000000E+00
  0.00000000E+00  0.00000000E+00  0.00000000E+00
  0.00000000E+00  0.00000000E+00  0.00000000E+00
  0.00000000E+00  0.00000000E+00  0.00000000E+00
  0.00000000E+00  0.00000000E+00  0.00000000E+00
  0.00000000E+00  0.00000000E+00  0.00000000E+00
  0.00000000E+00  0.00000000E+00  0.00000000E+00
  0.00000000E+00  0.00000000E+00  0.00000000E+00
  0.00000000E+00  0.00000000E+00  0.00000000E+00
  0.00000000E+00  0.00000000E+00  0.00000000E+00
  0.00000000E+00  0.00000000E+00  0.00000000E+00
  0.00000000E+00  0.00000000E+00  0.00000000E+00
  0.00000000E+00  0.00000000E+00  0.00000000E+00
  0.00000000E+00  0.00000000E+00  0.00000000E+00
  0.00000000E+00  0.00000000E+00  0.00000000E+00
  0.00000000E+00  0.00000000E+00  0.00000000E+00
  0.00000000E+00  0.00000000E+00  0.00000000E+00
  0.00000000E+00  0.00000000E+00  0.00000000E+00
  0.00000000E+00  0.00000000E+00  0.00000000E+00
  0.00000000E+00  0.00000000E+00  0.00000000E+00
  0.00000000E+00  0.00000000E+00  0.00000000E+00
  0.00000000E+00  0.00000000E+00  0.00000000E+00
  0.00000000E+00  0.00000000E+00  0.00000000E+00
  0.00000000E+00  0.00000000E+00  0.00000000E+00
  0.00000000E+00  0.00000000E+00  0.00000000E+00
  0.00000000E+00  0.00000000E+00  0.00000000E+00
  0.00000000E+00  0.00000000E+00  0.00000000E+00
  0.00000000E+00  0.00000000E+00  0.00000000E+00
  0.00000000E+00  0.00000000E+00  0.00000000E+00
  0.00000000E+00  0.00000000E+00  0.00000000E+00
  0.00000000E+00  0.00000000E+00  0.00000000E+00
  0.00000000E+00  0.00000000E+00  0.00000000E+00
