S    Ga   Li
1.0
  -6.659906156445905 0.0074495953365759 1.1357345418e-06
  -0.0092154829170781 8.068367722491022 -0.0885312226471475
  0.0034623655598416 4.3898512431e-06 -6.29889745892
 S  Ga  Li 
8 4 4 
direct
   -0.0710548450174144   0.1231573947705655  -0.0456932119267535
   -0.5919700675839010   0.8760503618860582  -0.1233747825803491
   -0.0998916235437619   0.6383652111559498  -0.1203885384295731
   -0.9362790028396191   0.9001780563416516  -0.5478881825857869
   -0.5677773934579804   0.3970149706266212  -0.1463015693074325
   -0.4183625989092619   0.1521454787087179  -0.6228916893648203
   -0.9070056275687648   0.3876957163861404  -0.6222325168828604
   -0.4416739762668769   0.6284747123149257  -0.6500140889523108
   -0.9384965510964777   0.8872011846940352  -0.1757748410639977
   -0.0737723745282466   0.1424635478373659  -0.6545880263808923
   -0.4331991373785513   0.6375348616558510  -0.0181385412663886
   -0.5745494700266320   0.3896635832262376  -0.5118624322341957
   -0.4294180216565806   0.1322623498327715  -0.0170814943929614
   -0.9082857450634236   0.3900846238318039  -0.0200866403200379
   -0.5707921986966724   0.8907295564862493  -0.5129755807930890
   -0.1047899016712037   0.6276349180626893  -0.5141007505660439
