S    Ga   Li                            
   1.00000000000000     
    -0.0034110865069043   -0.0000043898512438    6.2988974589200000
     6.6198708397368167   -0.0011947802015835   -0.0000011357345451
     0.0011965804074247    8.1375814177800514    0.0040765889706815
   S    Ga   Li
     8     4     4
Direct
  0.0295509786769514  0.0647119258681315  0.1249590522673643
  0.1164124594088989  0.5896970303518572  0.8763253050999467
  0.0529296517771698  0.0905191661257874  0.6496725317769076
  0.5304675119574114  0.9461425927263889  0.8988719955058997
  0.1388366455071903  0.5574442057321107  0.3977093531236875
  0.6154159330888334  0.4200248379007476  0.1481708560919088
  0.5536279280868257  0.9203273191439436  0.3776644465448058
  0.6381914468771086  0.4481544099283639  0.6261726539801842
  0.1630926811231888  0.9387281661872819  0.8860647149843501
  0.6611008303547621  0.0704048435038729  0.1393995621685207
  0.0054080552255158  0.4392783247598757  0.6392969414880199
  0.5070221352912156  0.5726225807766596  0.3853777723393534
  0.0056390584004760  0.4339441971738012  0.1345576453200081
  0.1182293244941661  0.9214055341366461  0.3899211140541539
  0.5072893021906566  0.5756833550808835  0.8891372907488559
  0.6601789445867396  0.0782300459091019  0.6373552923238250
 
             NaN             NaN             NaN
             NaN             NaN             NaN
             NaN             NaN             NaN
             NaN             NaN             NaN
             NaN             NaN             NaN
             NaN             NaN             NaN
             NaN             NaN             NaN
             NaN             NaN             NaN
             NaN             NaN             NaN
             NaN             NaN             NaN
             NaN             NaN             NaN
             NaN             NaN             NaN
             NaN             NaN             NaN
             NaN             NaN             NaN
             NaN             NaN             NaN
             NaN             NaN             NaN
