S    Ga   Li
1.0
  -6.629526590369622 -0.0007142406328376 1.1357345444e-06
  0.0035215234157539 8.147121779592728 -0.0002482485043871
  0.0040580837415863 4.3898512437e-06 -6.29889745892
 S  Ga  Li 
8 4 4 
direct
   -0.0677667278065215   0.1230762255374813  -0.0336944705820557
   -0.5910690803694649   0.8760153756900663  -0.1170225870384627
   -0.0928635111577094   0.6494565423146810  -0.0579455066939190
   -0.9447791901980837   0.8990709165231719  -0.5328494559368125
   -0.5591775518273180   0.3976064946394331  -0.1410549434587480
   -0.4192069234605569   0.1482700642550796  -0.6158405254576493
   -0.9160163094960793   0.3790905577419181  -0.5793716605144469
   -0.4484066935757411   0.6261678143451305  -0.6395195041323162
   -0.9393641106735727   0.8854885863330890  -0.1652644742325862
   -0.0708562656564169   0.1380345966378442  -0.6640536420165120
   -0.4402336420980788   0.6391356296670380  -0.0068469177235784
   -0.5735765345822088   0.3852184382093142  -0.5090637495793616
   -0.4350803620280174   0.1343909651438437  -0.0066244801063249
   -0.9133199658260337   0.3909867936750259  -0.0650344261772560
   -0.5751409424601093   0.8892686510763212  -0.5080297749523554
   -0.0804607240895336   0.6393788760283314  -0.6611767684447828
