S    Ga   Li
1.0
  -6.610373140239431 0.001746042837921 1.1357345379e-06
  -0.0024513248277277 7.976280745549664 -0.0798141498703456
  -0.0039939995794708 4.3898512423e-06 -6.29889745892
 S  Ga  Li 
8 4 4 
direct
   -0.0739097186758784   0.1278258226831284  -0.1489436691541073
   -0.5909144307156993   0.8776245479273683  -0.1367543450502993
   -0.0990943215857314   0.6377078426450352  -0.1325092323999684
   -0.9384130081015628   0.8984899711792806  -0.6508227168395209
   -0.5697489904235553   0.3962313433488092  -0.1483194778432448
   -0.4095980294795681   0.1545115250652174  -0.6279961582424818
   -0.9113911535475123   0.3798228426996459  -0.6258086451071492
   -0.4411349939370197   0.6319908183065053  -0.6502593913761601
   -0.9296773615989906   0.8794737800637477  -0.0562307696480104
   -0.0758657917392540   0.1379929560639681  -0.5172701546281218
   -0.4326136469776928   0.6368201241885671  -0.0154375747953921
   -0.5794316567895946   0.3891254872386654  -0.5158259352493743
   -0.4205923299776657   0.1363377618192700  -0.0121097531057330
   -0.9118181642890305   0.3827677946805608  -0.0112532084772283
   -0.5898192560002684   0.8960326740042673  -0.5289145700204330
   -0.0932956814663584   0.6379012359036267  -0.5249372851109086
