S    Ga   Li
1.0
  -6.6412344878499425 0.0016901837225383 1.135734547e-06
  -0.0016479539200732 8.133295177390698 0.002401287506158
  0.0036967754133428 4.3898512442e-06 -6.29889745892
 S  Ga  Li 
8 4 4 
direct
   -0.0594401923246792   0.1268579399094918  -0.0211332262694413
   -0.5976522690508616   0.8797119920821855  -0.0598439766435561
   -0.0899196312232959   0.6486240746082217  -0.0461471114097094
   -0.9442105038296446   0.8978915195500221  -0.5200489306666966
   -0.5653722943210581   0.3992154272823498  -0.1278218583101491
   -0.4140228990283461   0.1464777533551072  -0.5977351577117034
   -0.9155285721426906   0.3761352005692088  -0.5454125337888412
   -0.4385744053243456   0.6230869563390512  -0.6244234669365197
   -0.9349522415147150   0.8859149359125736  -0.1530464459896095
   -0.0684773391435840   0.1389477127311167  -0.6530430938947164
   -0.4364466897086957   0.6362217487818143  -0.9946673133318241
   -0.5675303072279263   0.3844811666697368  -0.4963910857924602
   -0.4245406368821421   0.1405445915856092  -0.0047004917820530
   -0.9338786814667229   0.3898790581246843  -0.1550484967092913
   -0.6043037344369891   0.8917330634258887  -0.6494710035739503
   -0.0724681376795715   0.6349333868906015  -0.6544586942320691
