S    Ga   Li
1.0
  -6.59202531795 3.762590819e-07 1.1357345535e-06
  -3.393192713e-07 7.93417734203 -5.1727342605e-06
  1.1009557284e-06 4.3898512455e-06 -6.29889745892
 S  Ga  Li 
8 4 4 
direct
   -0.0705019722819884   0.1292561185263068  -0.0042778133641193
   -0.5981231927136934   0.8768207415698512  -0.0234320769212104
   -0.0981250668427265   0.6481781911780901  -0.0234317921412526
   -0.9378318900897966   0.8957444877429522  -0.5042800028286791
   -0.5705014704686135   0.3957446068059696  -0.0042801509923436
   -0.4102079212838348   0.1481781543350849  -0.5234316058201856
   -0.9102097417305401   0.3768208801686653  -0.5234318510125746
   -0.4378314276559720   0.6292562450748065  -0.5042778446628090
   -0.9306967982172054   0.8865379231352009  -0.1376889620810857
   -0.0776356437965191   0.1384621629077074  -0.6376885164920125
   -0.4306972375058394   0.6384620555704998  -0.1376886311250587
   -0.5776361270305516   0.3865379196397498  -0.6376888881465562
   -0.4178812585811116   0.1350417034765670  -0.1346002469232559
   -0.9178816936256949   0.3899584880746120  -0.1346015046963558
   -0.5904524109519684   0.8899585385269972  -0.6345988740701144
   -0.0904528138906713   0.6350417832669778  -0.6346003415190182
