S    Ga   Li
1.0
  -6.644799350446819 0.0020011405639384 1.1357345425e-06
  0.0041200057266889 8.12722123764746 0.0376202954333065
  -0.0096269032806601 4.3898512433e-06 -6.29889745892
 S  Ga  Li 
8 4 4 
direct
   -0.0718708252812519   0.1236772214151571  -0.0432620421867398
   -0.5940268926197446   0.8758145902698118  -0.1170809371504760
   -0.1016070386144108   0.6408461053467178  -0.1175670966778384
   -0.9360877168663392   0.9022628517093594  -0.5421727281452675
   -0.5676090031679876   0.3985132600083716  -0.1463632504055852
   -0.4156972063553540   0.1484586255270770  -0.6177468310878211
   -0.9063546615083098   0.3812421859308515  -0.6159363047974935
   -0.4439691182132676   0.6266374519103621  -0.6471672125098493
   -0.9403010984517051   0.8858773991930348  -0.1712391606907815
   -0.0700493385635426   0.1366241393377123  -0.6736499165112946
   -0.4361228467577901   0.6386360952751602  -0.0148780560241519
   -0.5718740350199950   0.3864293484434072  -0.5132159418541135
   -0.4387685731259906   0.1358998047834419  -0.0094790674607381
   -0.9074313468939722   0.3980995287329492  -0.0138906654309494
   -0.5706879562888787   0.8899361626939424  -0.5081207711856237
   -0.0948608775770907   0.6317017572404922  -0.5516229049268516
