S    Ga   Li
1.0
  -6.647048270981774 0.0008113309194814 1.1357345483e-06
  -0.0003472287737729 8.125344391582178 -0.030341956477931
  -0.0062610217006027 4.3898512444e-06 -6.29889745892
 S  Ga  Li 
8 4 4 
direct
   -0.0644171386069274   0.1268526624962263  -0.0160048111444198
   -0.6025421408244114   0.8813065267347113  -0.0462941632657490
   -0.0930255631884833   0.6485511529974772  -0.0456283647143039
   -0.9408094694268385   0.8984728521922918  -0.5167128492260176
   -0.5724944470667025   0.4023105092627687  -0.1209627130646993
   -0.4066559928554128   0.1408585525918156  -0.5462916042664361
   -0.9140547513948931   0.3759226743251531  -0.5463031336305804
   -0.4360853754490961   0.6235056201091141  -0.6197112541107117
   -0.9367779453901192   0.8865073026964865  -0.1498744508466032
   -0.0721217633902782   0.1386566557914293  -0.6482524247097672
   -0.4384722740277738   0.6367802319460765  -0.9894399834023417
   -0.5678525111192202   0.3857901014711799  -0.4918533288130362
   -0.4140338456418036   0.1318337145539630  -0.1088524846091303
   -0.9377977879570806   0.3900588224323016  -0.1556321950930553
   -0.6007252838370363   0.8974654290346110  -0.6474885509825724
   -0.0694522451291206   0.6357837191819443  -0.6540905751643036
