S    Ga   Li
1.0
  -6.640720211410611 -0.0076663689981894 1.1357345509e-06
  0.0093031801730999 8.058830027534421 0.1312828432506036
  0.0085243981412767 4.389851245e-06 -6.29889745892
 S  Ga  Li 
8 4 4 
direct
   -0.0657911402701572   0.1281208478838565  -0.0122822978862018
   -0.5997902386349239   0.8813390333993495  -0.0342591340624807
   -0.0975760301180770   0.6555129296143817  -0.0355252685587004
   -0.9397397747425272   0.8964241535496170  -0.5162177159639824
   -0.5721095660456044   0.3998601897915818  -0.0926167708288475
   -0.4089896165457035   0.1364231832177012  -0.5423430235168850
   -0.9167151398995513   0.3778208746187559  -0.5399946256020201
   -0.4330027489008187   0.6310776270171914  -0.5299603864265379
   -0.9302283436230852   0.8884817772749755  -0.1499887441743439
   -0.0741535565326714   0.1371844762320649  -0.6445035543354151
   -0.4259891347688267   0.6526156678726522  -0.1548684130086784
   -0.5749844356429462   0.3787872948080632  -0.4648021526642054
   -0.4059439144335498   0.1259677203934118  -0.1457387596525095
   -0.9388830754018470   0.3929550602309674  -0.1479761338233843
   -0.5974129708294315   0.8845929081964740  -0.6454656691309141
   -0.0860088489156041   0.6334927837167610  -0.6468502374073494
