S    Ga   Li
   1.00000000000000     
  -0.0000011009557284  -0.0000043898512455   6.2988974589200000
   6.5920253179500001  -0.0000003762590819  -0.0000011357345535
  -0.0000003393192713   7.9341773420299999  -0.0000051727342605
S    Ga   Li
8  4  4  
Direct
  0.0042778133641193  0.0705019722819884  0.1292561185263068  
  0.0234320769212104  0.5981231927136932  0.8768207415698512  
  0.0234317921412526  0.0981250668427265  0.6481781911780899  
  0.5042800028286791  0.9378318900897966  0.8957444877429523  
  0.0042801509923436  0.5705014704686135  0.3957446068059696  
  0.5234316058201856  0.4102079212838348  0.1481781543350849  
  0.5234318510125746  0.9102097417305400  0.3768208801686654  
  0.5042778446628091  0.4378314276559720  0.6292562450748065  
  0.1376889620810857  0.9306967982172054  0.8865379231352009  
  0.6376885164920125  0.0776356437965191  0.1384621629077074  
  0.1376886311250587  0.4306972375058393  0.6384620555704998  
  0.6376888881465561  0.5776361270305514  0.3865379196397498  
  0.1346002469232559  0.4178812585811116  0.1350417034765670  
  0.1346015046963558  0.9178816936256950  0.3899584880746119  
  0.6345988740701145  0.5904524109519684  0.8899585385269972  
  0.6346003415190182  0.0904528138906713  0.6350417832669777  
