S    Ga   Li
1.0
  -6.660135980736836 -0.0070781400123035 1.135734549e-06
  0.0087553033454873 8.068696787571584 0.0885644534515108
  0.002430355006497 4.3898512446e-06 -6.29889745892
 S  Ga  Li 
8 4 4 
direct
   -0.0667487020390638   0.1284978592184558  -0.0128826885615538
   -0.6014017115427990   0.8876365314236024  -0.0410141362257193
   -0.0900823588737580   0.6521660646367238  -0.0401601621593812
   -0.9406419409411980   0.8970082267265695  -0.5166881550221518
   -0.5719560556200989   0.4002778565578423  -0.1153379290938901
   -0.4085295051472642   0.1383043945546731  -0.5423845348224319
   -0.9165597168953424   0.3760098420478428  -0.5392732784899437
   -0.4374590724789796   0.6230854047966902  -0.6177077581198774
   -0.9339034072551371   0.8896568761924967  -0.1510907577804588
   -0.0752485653219921   0.1375230710804729  -0.6447848710805317
   -0.4346989516234813   0.6423869027920830  -0.0076562940040787
   -0.5700059001046469   0.3871305366024345  -0.4873770284346222
   -0.4037457293268716   0.1277260943585148  -0.1482937468921719
   -0.9372554768370805   0.3907356749770586  -0.1492947658534476
   -0.6002032518870948   0.8902515042970193  -0.6434167885683805
   -0.0788781894105313   0.6322596875552762  -0.6460299919336522
