S    Ga   Li
1.0
  -6.653457188198293 0.0028280184875574 1.1357345477e-06
  -0.0030733456486139 8.131309185513553 -0.0017434634357489
  0.00016136049659 4.3898512443e-06 -6.29889745892
 S  Ga  Li 
8 4 4 
direct
   -0.0598537973064808   0.1273605206703010  -0.0184314053109276
   -0.6013598879619337   0.8795086716938130  -0.0520004526240783
   -0.0917081292723196   0.6490508585962546  -0.0452574531127468
   -0.9426358981473441   0.8983312414465346  -0.5186086693564249
   -0.5694098034081776   0.4013626377221939  -0.1247537293571952
   -0.4107100959816847   0.1434447875222062  -0.5745826289019433
   -0.9144870929785682   0.3761549982763484  -0.5453916724406581
   -0.4372425172774683   0.6232738913940851  -0.6216627415072082
   -0.9363151917154794   0.8861738869654446  -0.1520803338283940
   -0.0707991716599778   0.1392756597575442  -0.6500613010708278
   -0.4370563412769428   0.6364136049223531  -0.9916356758341749
   -0.5673825461283571   0.3848995778463475  -0.4947478647400771
   -0.4183802042695958   0.1354186027895068  -0.0580002622158844
   -0.9357149533491977   0.3906062217915860  -0.1551487023219451
   -0.6028078870605925   0.8941902022031556  -0.6478131669884916
   -0.0714550175111412   0.6351911642199823  -0.6532168274316491
