S    Ga   Li
1.0
  -6.627173278854137 -0.0020979223453699 1.1357345516e-06
  0.002835949799291 8.001424218553396 0.1003392605080801
  0.0008216100968164 4.3898512451e-06 -6.29889745892
 S  Ga  Li 
8 4 4 
direct
   -0.0662497854859154   0.1315215706703725  -0.0132067269534062
   -0.5972251537224835   0.8802847724538193  -0.0381526259947478
   -0.0991119864151955   0.6560573465949416  -0.0363646668357731
   -0.9385493065984890   0.8964813033357614  -0.5152740671055015
   -0.5709707909305238   0.3983940574138315  -0.0713482122562468
   -0.4079387193085538   0.1326043622935060  -0.5355006549656451
   -0.9222933649459292   0.3789201416943014  -0.5307737505944344
   -0.4323080913309810   0.6302650361969312  -0.5260878107564507
   -0.9285451708957524   0.8890944236760133  -0.1474392986994104
   -0.0739493260439801   0.1362465423696619  -0.6483603300719520
   -0.4294282642005244   0.6437472212510613  -0.1549667350167852
   -0.5792520100340965   0.3760919419248125  -0.5060525507468440
   -0.4118712637739533   0.1343651363153242  -0.1384466718823205
   -0.9242856364968901   0.3972200719053447  -0.1351843009835676
   -0.5984076247946249   0.8822994787132145  -0.6535830867609037
   -0.0869320403274969   0.6370631210087864  -0.6526513974181256
