S    Ga   Li                            
   1.00000000000000     
    -0.0040580837415863   -0.0000043898512437    6.2988974589200000
     6.6295265903696219    0.0007142406328376   -0.0000011357345444
     0.0035215234157539    8.1471217795927284   -0.0002482485043871
   S    Ga   Li
     8     4     4
Direct
  0.0336944705820557  0.0677667278065215  0.1230762255374813
  0.1170225870384627  0.5910690803694649  0.8760153756900664
  0.0579455066939190  0.0928635111577094  0.6494565423146810
  0.5328494559368124  0.9447791901980835  0.8990709165231721
  0.1410549434587480  0.5591775518273181  0.3976064946394331
  0.6158405254576493  0.4192069234605569  0.1482700642550796
  0.5793716605144468  0.9160163094960794  0.3790905577419181
  0.6395195041323163  0.4484066935757411  0.6261678143451306
  0.1652644742325862  0.9393641106735728  0.8854885863330892
  0.6640536420165120  0.0708562656564169  0.1380345966378442
  0.0068469177235784  0.4402336420980788  0.6391356296670381
  0.5090637495793615  0.5735765345822088  0.3852184382093142
  0.0066244801063249  0.4350803620280175  0.1343909651438437
  0.0650344261772560  0.9133199658260338  0.3909867936750260
  0.5080297749523552  0.5751409424601093  0.8892686510763212
  0.6611767684447827  0.0804607240895336  0.6393788760283314
 
             NaN             NaN             NaN
             NaN             NaN             NaN
             NaN             NaN             NaN
             NaN             NaN             NaN
             NaN             NaN             NaN
             NaN             NaN             NaN
             NaN             NaN             NaN
             NaN             NaN             NaN
             NaN             NaN             NaN
             NaN             NaN             NaN
             NaN             NaN             NaN
             NaN             NaN             NaN
             NaN             NaN             NaN
             NaN             NaN             NaN
             NaN             NaN             NaN
             NaN             NaN             NaN
