S    Ga   Li                            
   1.00000000000000     
    -0.0080157430676384   -0.0000043898512429    6.2988974589200000
     6.6523873312881561   -0.0072435546539924   -0.0000011357345405
    -0.0088888585381648    8.0615185652847465   -0.1150370484703252
   S    Ga   Li
     8     4     4
Direct
  0.1080563362532558  0.0750132135166908  0.1290671612099104
  0.1238376173595839  0.5919664034547907  0.8764566327837571
  0.1210779364863299  0.0991349141812421  0.6369500939815893
  0.5639538181952233  0.9342335514655389  0.8973741908222337
  0.1455441076551054  0.5681379881581847  0.3964029978757750
  0.6270275691863461  0.4158939747593848  0.1535540752827700
  0.6274620767108843  0.9066422550338586  0.3857818810551947
  0.6506204783136695  0.4423282450788193  0.6282966997871426
  0.1841467676621633  0.9374141917094292  0.8848327410280135
  0.5564782305088585  0.0792538011891963  0.1489996610978537
  0.0194918919073643  0.4327454888048550  0.6376840858830377
  0.5099609699535392  0.5752299015942626  0.3899899659157313
  0.0183774424339873  0.4235204481940045  0.1315747026576588
  0.0201107005010144  0.9105302118933949  0.3847705192761950
  0.5130071425943257  0.5705070848719274  0.8911936132202030
  0.5142398013258145  0.1047668613997885  0.6277275059405838
 
             NaN             NaN             NaN
             NaN             NaN             NaN
             NaN             NaN             NaN
             NaN             NaN             NaN
             NaN             NaN             NaN
             NaN             NaN             NaN
             NaN             NaN             NaN
             NaN             NaN             NaN
             NaN             NaN             NaN
             NaN             NaN             NaN
             NaN             NaN             NaN
             NaN             NaN             NaN
             NaN             NaN             NaN
             NaN             NaN             NaN
             NaN             NaN             NaN
             NaN             NaN             NaN
