S    Ga   Li
1.0
  -6.6525196864475715 -0.0018640907035062 1.1357345431e-06
  0.0047061913994413 8.13199164604039 -0.0005285593465473
  -0.0009343989958461 4.3898512434e-06 -6.29889745892
 S  Ga  Li 
8 4 4 
direct
   -0.0707610060588166   0.1233098653440834  -0.0411994441027943
   -0.5935757030033174   0.8760924833029123  -0.1180911898765942
   -0.0975750168449210   0.6432173905514489  -0.0896016611167738
   -0.9392329626377034   0.9014417296785524  -0.5382022742471407
   -0.5656961289284084   0.3983312484530259  -0.1443719407043247
   -0.4170454217687265   0.1491674712372060  -0.6181364595364157
   -0.9074093220753099   0.3795377486063956  -0.6105274196080828
   -0.4486936473382029   0.6273559455155749  -0.6447792942743079
   -0.9407650499920236   0.8849150415285721  -0.1681396917804818
   -0.0716078884900213   0.1364498463971628  -0.6712381545839250
   -0.4372980380027442   0.6392412679390277  -0.0131200899677424
   -0.5723188289996129   0.3862046757615474  -0.5108609802823736
   -0.4365451694713016   0.1351573133673512  -0.0103587593233172
   -0.9052960228939850   0.3943637518578527  -0.0140076824027702
   -0.5729806097573231   0.8906233089535647  -0.5086168803246380
   -0.0905177190430209   0.6352474393234216  -0.6021409649159750
