S    Ga   Li                            
   1.00000000000000     
    -0.0008216100968164   -0.0000043898512451    6.2988974589200000
     6.6271732788541371    0.0020979223453699   -0.0000011357345516
     0.0028359497992910    8.0014242185533959    0.1003392605080801
   S    Ga   Li
     8     4     4
Direct
  0.0132067269534062  0.0662497854859154  0.1315215706703725
  0.0381526259947478  0.5972251537224835  0.8802847724538196
  0.0363646668357731  0.0991119864151955  0.6560573465949417
  0.5152740671055014  0.9385493065984889  0.8964813033357615
  0.0713482122562468  0.5709707909305237  0.3983940574138316
  0.5355006549656451  0.4079387193085537  0.1326043622935060
  0.5307737505944345  0.9222933649459293  0.3789201416943015
  0.5260878107564508  0.4323080913309809  0.6302650361969313
  0.1474392986994104  0.9285451708957524  0.8890944236760134
  0.6483603300719523  0.0739493260439801  0.1362465423696619
  0.1549667350167852  0.4294282642005243  0.6437472212510613
  0.5060525507468441  0.5792520100340965  0.3760919419248125
  0.1384466718823205  0.4118712637739534  0.1343651363153242
  0.1351843009835676  0.9242856364968901  0.3972200719053447
  0.6535830867609036  0.5984076247946248  0.8822994787132146
  0.6526513974181256  0.0869320403274969  0.6370631210087865
 
             NaN             NaN             NaN
             NaN             NaN             NaN
             NaN             NaN             NaN
             NaN             NaN             NaN
             NaN             NaN             NaN
             NaN             NaN             NaN
             NaN             NaN             NaN
             NaN             NaN             NaN
             NaN             NaN             NaN
             NaN             NaN             NaN
             NaN             NaN             NaN
             NaN             NaN             NaN
             NaN             NaN             NaN
             NaN             NaN             NaN
             NaN             NaN             NaN
             NaN             NaN             NaN
