S    Ga   Li                            
   1.00000000000000     
     0.0045548844196701   -0.0000043898512454    6.2988974589200000
     6.6104547967868879    0.0016502684956726   -0.0000011357345529
     0.0023729074231577    7.9764700670098971    0.0801554292950216
   S    Ga   Li
     8     4     4
Direct
  0.0126952765732042  0.0673005773347981  0.1319966091648226
  0.0371727424142847  0.5970714946986249  0.8798042231588923
  0.0349495476998030  0.0988517658525154  0.6545532507503609
  0.5146956204352904  0.9386176612887169  0.8962380404404726
  0.0121162500648921  0.5700391894325776  0.3985309025744215
  0.5303265609047898  0.4093044429138502  0.1377057292680703
  0.5261598407819363  0.9174848416267949  0.3775997721813482
  0.5140578139678880  0.4344817341617002  0.6277892589512035
  0.1472034729333700  0.9290055237101171  0.8891361893807215
  0.6475120513647212  0.0758135856035054  0.1368210886714110
  0.1457500265090275  0.4325445429541261  0.6380002017713977
  0.6067633038261491  0.5787287285950313  0.3794400661672981
  0.1376607485581118  0.4152046397122504  0.1379131643744103
  0.1339379286365840  0.9186221778279275  0.3960471928546525
  0.6516671196607007  0.5965065164693542  0.8827568934802130
  0.6507245827113621  0.0877411131234851  0.6363239446279962
 
             NaN             NaN             NaN
             NaN             NaN             NaN
             NaN             NaN             NaN
             NaN             NaN             NaN
             NaN             NaN             NaN
             NaN             NaN             NaN
             NaN             NaN             NaN
             NaN             NaN             NaN
             NaN             NaN             NaN
             NaN             NaN             NaN
             NaN             NaN             NaN
             NaN             NaN             NaN
             NaN             NaN             NaN
             NaN             NaN             NaN
             NaN             NaN             NaN
             NaN             NaN             NaN
