S    Ga   Li                            
   1.00000000000000     
    -0.0085243981412767   -0.0000043898512450    6.2988974589200000
     6.6407202114106108    0.0076663689981894   -0.0000011357345509
     0.0093031801730999    8.0588300275344213    0.1312828432506036
   S    Ga   Li
     8     4     4
Direct
  0.0122822978862018  0.0657911402701572  0.1281208478838565
  0.0342591340624807  0.5997902386349239  0.8813390333993496
  0.0355252685587004  0.0975760301180770  0.6555129296143818
  0.5162177159639825  0.9397397747425273  0.8964241535496171
  0.0926167708288475  0.5721095660456044  0.3998601897915819
  0.5423430235168851  0.4089896165457034  0.1364231832177012
  0.5399946256020201  0.9167151398995514  0.3778208746187559
  0.5299603864265379  0.4330027489008188  0.6310776270171914
  0.1499887441743439  0.9302283436230852  0.8884817772749756
  0.6445035543354152  0.0741535565326714  0.1371844762320649
  0.1548684130086784  0.4259891347688267  0.6526156678726522
  0.4648021526642054  0.5749844356429463  0.3787872948080633
  0.1457387596525095  0.4059439144335499  0.1259677203934118
  0.1479761338233843  0.9388830754018471  0.3929550602309675
  0.6454656691309140  0.5974129708294313  0.8845929081964741
  0.6468502374073495  0.0860088489156041  0.6334927837167612
 
             NaN             NaN             NaN
             NaN             NaN             NaN
             NaN             NaN             NaN
             NaN             NaN             NaN
             NaN             NaN             NaN
             NaN             NaN             NaN
             NaN             NaN             NaN
             NaN             NaN             NaN
             NaN             NaN             NaN
             NaN             NaN             NaN
             NaN             NaN             NaN
             NaN             NaN             NaN
             NaN             NaN             NaN
             NaN             NaN             NaN
             NaN             NaN             NaN
             NaN             NaN             NaN
