S    Ga   Li
1.0
  -6.652645172370563 -0.0069712359493106 1.1357345503e-06
  0.0085469322887185 8.061718047564113 0.1158363524404079
  0.0070905582710755 4.3898512448e-06 -6.29889745892
 S  Ga  Li 
8 4 4 
direct
   -0.0660730047824032   0.1283203864254929  -0.0122313027832135
   -0.6018266615217768   0.8858208620328653  -0.0357180610892840
   -0.0924732866703195   0.6536061218734730  -0.0360542316201702
   -0.9402900014639001   0.8963727859743995  -0.5175078568856152
   -0.5740510876166240   0.3974345460405501  -0.0990657065238167
   -0.4093116260658717   0.1368557375876804  -0.5416317886451765
   -0.9165497903555743   0.3764145354275428  -0.5387542141888915
   -0.4334943284820056   0.6289585146431378  -0.5555195558249011
   -0.9332503580912430   0.8900449993417467  -0.1531364234185020
   -0.0757351668352513   0.1376904880636900  -0.6433334739051801
   -0.4291399907393014   0.6490077900659941  -0.1059217160949260
   -0.5710034849201689   0.3848425911128929  -0.4789525897545133
   -0.4037067123008953   0.1278221434620761  -0.1481847600256714
   -0.9375842288027627   0.3911836295414730  -0.1492871218325718
   -0.5979289648697659   0.8847748835239813  -0.6432912058876994
   -0.0848998417874753   0.6315065127007529  -0.6448028785622172
