S    Ga   Li                            
   1.00000000000000     
     0.0096269032806601   -0.0000043898512433    6.2988974589200000
     6.6447993504468190   -0.0020011405639384   -0.0000011357345425
     0.0041200057266889    8.1272212376474595    0.0376202954333065
   S    Ga   Li
     8     4     4
Direct
  0.0432620421867398  0.0718708252812519  0.1236772214151571
  0.1170809371504760  0.5940268926197447  0.8758145902698118
  0.1175670966778384  0.1016070386144108  0.6408461053467178
  0.5421727281452675  0.9360877168663393  0.9022628517093594
  0.1463632504055852  0.5676090031679877  0.3985132600083716
  0.6177468310878211  0.4156972063553539  0.1484586255270770
  0.6159363047974935  0.9063546615083098  0.3812421859308515
  0.6471672125098493  0.4439691182132677  0.6266374519103621
  0.1712391606907815  0.9403010984517053  0.8858773991930349
  0.6736499165112946  0.0700493385635426  0.1366241393377123
  0.0148780560241519  0.4361228467577902  0.6386360952751602
  0.5132159418541136  0.5718740350199951  0.3864293484434072
  0.0094790674607381  0.4387685731259907  0.1358998047834419
  0.0138906654309494  0.9074313468939721  0.3980995287329492
  0.5081207711856237  0.5706879562888787  0.8899361626939424
  0.5516229049268517  0.0948608775770907  0.6317017572404922
 
             NaN             NaN             NaN
             NaN             NaN             NaN
             NaN             NaN             NaN
             NaN             NaN             NaN
             NaN             NaN             NaN
             NaN             NaN             NaN
             NaN             NaN             NaN
             NaN             NaN             NaN
             NaN             NaN             NaN
             NaN             NaN             NaN
             NaN             NaN             NaN
             NaN             NaN             NaN
             NaN             NaN             NaN
             NaN             NaN             NaN
             NaN             NaN             NaN
             NaN             NaN             NaN
