S    Ga   Li
1.0
  -6.627086908511399 0.0021954330581221 1.1357345392e-06
  -0.0029164498486281 8.001215963262693 -0.099886579405972
  0.001397508512114 4.3898512426e-06 -6.29889745892
 S  Ga  Li 
8 4 4 
direct
   -0.0760880421769343   0.1303170054910225  -0.1369248623138475
   -0.5861254642311735   0.8789421381859555  -0.1320857239640603
   -0.1004559141817296   0.6326365866215085  -0.1273369359511847
   -0.9374724631046262   0.8983433983393070  -0.5916011673617447
   -0.5698058728399289   0.3964810002868475  -0.1477421932965726
   -0.4093426313939830   0.1560021897647417  -0.6265962659413516
   -0.9112267442744795   0.3802925802366985  -0.6248619070110593
   -0.4421826856715186   0.6315176214456174  -0.6497273210566448
   -0.9291667874613266   0.8761290272473800  -0.1568693761146633
   -0.0789820953283566   0.1437342977385185  -0.5080653090913784
   -0.4344715806668020   0.6362480483446191  -0.0145632149779118
   -0.5798855528517066   0.3890782327961446  -0.5155905108651595
   -0.4214296008959622   0.1370777537332302  -0.0102624570471050
   -0.9098972779304618   0.3823299623441513  -0.0094469496267706
   -0.5841725968824675   0.8971923469135277  -0.5275136962934184
   -0.0966132254139325   0.6343343383283867  -0.5242049961352394
