S    Ga   Li                            
   1.00000000000000     
    -0.0038987134804152   -0.0000043898512439    6.2988974589200000
     6.6199680434404149    0.0002299183444958   -0.0000011357345457
     0.0006642091659699    8.1359091466400528   -0.0054534361862165
   S    Ga   Li
     8     4     4
Direct
  0.0249622130326728  0.0604914930253528  0.1261849847229399
  0.1093397379339294  0.5882214733312097  0.8777505185818839
  0.0479043380063260  0.0886250560601383  0.6480790607215070
  0.5242894732156529  0.9508217915404344  0.8976347810107370
  0.1322133433903048  0.5626375368014962  0.3988683459376645
  0.6094251673451794  0.4175380393649846  0.1496037878072727
  0.5471074986344320  0.9183251677177324  0.3763791228243178
  0.6332391226630918  0.4434774374974921  0.6250525925869752
  0.1560763498576065  0.9359589769265142  0.8853791907780462
  0.6577458766151736  0.0688588394223260  0.1392824745795807
  0.0017073683648476  0.4382033600663320  0.6394326101257377
  0.4995926196890679  0.5693615626065096  0.3860879736021161
  0.0018040819073732  0.4303981201841154  0.1374014969326964
  0.1567300238688745  0.9332382014616130  0.3891134241477303
  0.5433827309273767  0.5868151965076649  0.8898700688168688
  0.6578729415910161  0.0743462827913604  0.6345360946415823
 
             NaN             NaN             NaN
             NaN             NaN             NaN
             NaN             NaN             NaN
             NaN             NaN             NaN
             NaN             NaN             NaN
             NaN             NaN             NaN
             NaN             NaN             NaN
             NaN             NaN             NaN
             NaN             NaN             NaN
             NaN             NaN             NaN
             NaN             NaN             NaN
             NaN             NaN             NaN
             NaN             NaN             NaN
             NaN             NaN             NaN
             NaN             NaN             NaN
             NaN             NaN             NaN
