S    Ga   Li
1.0
  -6.6425335422194856 -0.0007305447466782 1.1357345438e-06
  0.0034133503224559 8.133404021668577 -0.0033859352330988
  0.0024135722317371 4.3898512435e-06 -6.29889745892
 S  Ga  Li 
8 4 4 
direct
   -0.0695809845382129   0.1231477288302614  -0.0386643146986714
   -0.5926918871139790   0.8761196230583010  -0.1179627974298469
   -0.0942479742069082   0.6464244412162897  -0.0653009811350245
   -0.9430784485885085   0.8992538868609612  -0.5351372036746652
   -0.5642144578722254   0.3979640102566435  -0.1430038613007625
   -0.4185536439777807   0.1487209006916075  -0.6172686351619916
   -0.9106851293519255   0.3795450589410477  -0.6032627812626642
   -0.4493862325809062   0.6269117687849856  -0.6420555162221929
   -0.9406908299865649   0.8844710825246195  -0.1665063620973797
   -0.0720741534014024   0.1361436209226952  -0.6684708943964707
   -0.4396302785676483   0.6390046179585980  -0.0101827026818171
   -0.5735059074470641   0.3858891749788781  -0.5099336970489716
   -0.4356491713891515   0.1349745725881206  -0.0092271274208215
   -0.9038933152968909   0.3919480334905003  -0.0127305791805625
   -0.5748014805563032   0.8900086057943639  -0.5085481180964776
   -0.0846346404299538   0.6401294009198110  -0.6551373152391802
