S    Ga   Li
1.0
  -6.64007399310191 0.0078162701775891 1.1357345399e-06
  -0.0095553880291378 8.05778038297235 -0.1306026315293035
  0.0088035405607303 4.3898512427e-06 -6.29889745892
 S  Ga  Li 
8 4 4 
direct
   -0.0754856669679498   0.1309615314526837  -0.1330777814978248
   -0.5917296936942692   0.8779419510495077  -0.1226971126974377
   -0.0995242286636326   0.6363256789824377  -0.1207054176922639
   -0.9361802588111773   0.8998852483060632  -0.5704779517097265
   -0.5688189875793128   0.3964836472760355  -0.1468188175500629
   -0.4106973099358626   0.1555582597632537  -0.6273766660628511
   -0.9086816664329262   0.3811815938680213  -0.6288449565935963
   -0.4426172604948704   0.6281766127474812  -0.6506116809625340
   -0.9333518574392914   0.8785828429433381  -0.1982980685942053
   -0.0824114878470681   0.1526008490139006  -0.5075253386947551
   -0.4343711015426096   0.6371995645804774  -0.0183658116015053
   -0.5782758405428085   0.3884873586791856  -0.5130833314262730
   -0.4224633181791901   0.1337102080010482  -0.0158798774227691
   -0.9111301056234283   0.3845077989313667  -0.0177219797900534
   -0.5692888213158654   0.8931183944158647  -0.5145367858503604
   -0.1022909302350854   0.6259349878069571  -0.5173713089007563
