supercell of 100% icsd_608626.cif, 0% i 
   1.00000000000000     
    -9.3977024279417130    0.0137647730886189   -0.0228003195208037
    -4.7107877267359237    8.1730128398391386   -0.0103442238956221
    -0.0246035960490469   -0.0012944907974128   -9.9011878908307924
   Al   Ti   Be   N 
    26     5     5    36
Direct
  0.1047222764619988  0.0922111182992182  0.2950894321219906
  0.8812352980960156  0.2038144932763828  0.5510698479623599
  0.4514922862548900  0.0913473617004996  0.2995169743738160
  0.5702279577505536  0.1995752008269847  0.0382431347146408
  0.2218480874131501  0.2044538044882955  0.5489491046499353
  0.7813470009696459  0.0915364378115271  0.2966106809903764
  0.4531158314726440  0.0955647960155375  0.7923269485352407
  0.5652907784870607  0.1990204491082537  0.5505376902254042
  0.2174295036918750  0.5474493403319158  0.0375381703609747
  0.7849086782661487  0.4242774963974654  0.7906305632386648
  0.4453941309054841  0.4243872994923166  0.3002739053764358
  0.1049176977016657  0.4391671446151904  0.7855118620864161
  0.2154904135897340  0.5491169610723432  0.5554752653871304
  0.7814264081964026  0.4229236085618950  0.3000435314603465
  0.8857715308144165  0.5446412294123348  0.0447831506038696
  0.4427266721512382  0.4215609722471427  0.7923112767337130
  0.5612940138428328  0.5340584979208600  0.5439157091196876
  0.1038127143542198  0.7677107219443826  0.3005105799092291
  0.2165882804637320  0.8699776678209048  0.0483338828689313
  0.7914906495902585  0.7631815858953246  0.7839226287796563
  0.4430545318167560  0.7642808045207943  0.3001010223421332
  0.5642077748862988  0.8712546814413997  0.0464697588842711
  0.2112790969609648  0.8705124071401542  0.5483679612752042
  0.7798323037283126  0.7665576880803613  0.3027361015041379
  0.8905197572765076  0.8790170899376051  0.0374165582450061
  0.5677643901602352  0.8680934731040111  0.5456867568107029
  0.2204755677708974  0.2080827768704268  0.0522924418441733
  0.0987107547922008  0.0944162005252096  0.8048234699227876
  0.1057901114316806  0.4335965153137593  0.3172426118867193
  0.5620871223459929  0.5319970900084598  0.0552345681904569
  0.4437873601859224  0.7607897029477115  0.7966608640682367
  0.7811216764046236  0.0790817107459532  0.7839303893724008
  0.8812078439904667  0.2012166573275636  0.0399062758513367
  0.8817555556964791  0.5470036992204328  0.5476599669516204
  0.8892944683655628  0.8721378185289339  0.5476897145452995
  0.0911642254171667  0.7632257135700087  0.7821528537163260
  0.2249630027882503  0.1961466122858084  0.3505310332285134
  0.1045601771997866  0.0941824897577419  0.0986482130439441
  0.8793136125433492  0.2081835724827386  0.8597398958599101
  0.7821103112189007  0.0849777404396050  0.6078114612607024
  0.5560414776233102  0.2053436511260927  0.3554815882219700
  0.4520526208954649  0.0924324051167318  0.1045707048070170
  0.2233503980222267  0.2116152460823386  0.8535889452390037
  0.1096035251684526  0.0944774730753011  0.6060600216980276
  0.8888445556882587  0.2051448255467108  0.3576714735867768
  0.7843944119092825  0.0982344800138080  0.1042241156750876
  0.5626576131155119  0.2020174703443374  0.8494275472116612
  0.4442536468438121  0.0924381404651911  0.6020620628625863
  0.2249214377373647  0.5458181632972838  0.3586742727119159
  0.1072199678412034  0.4375320306833004  0.1114875630365972
  0.8882468117480116  0.5408487301249991  0.8541995901032422
  0.7807726500926577  0.4304455506440590  0.6007156013750645
  0.5550198927233012  0.5392807486091513  0.3478518768151915
  0.4402312345297403  0.4227743461953395  0.1045557385775382
  0.2182869219902344  0.5437870435717755  0.8474116831700158
  0.1057459386189095  0.4288949812016085  0.5922095264439378
  0.8790799838581833  0.5441981024436657  0.3585234913251512
  0.7889222497812014  0.4185501881092719  0.1049928962726483
  0.5598421412898773  0.5308311589595931  0.8560109253631438
  0.4452314856187343  0.4277679846221929  0.6011827060586370
  0.2210457066503153  0.8736461968748657  0.3541426233290323
  0.1108950026568678  0.7603961302538380  0.1078902007894129
  0.8933560723727823  0.8757918792953063  0.8489164782960401
  0.7863628937659470  0.7537902280528499  0.5962453697190071
  0.5549431572433718  0.8723435945621247  0.3532641784772679
  0.4430118376372008  0.7671410588481820  0.1026735311018783
  0.2195774747582675  0.8638133977660019  0.8569043200459063
  0.1010769232265218  0.7664219482217760  0.6078428637126478
  0.8878683302390868  0.8751197167634075  0.3600852490506270
  0.7808043163036587  0.7630351651987084  0.1065903409580642
  0.5598418811159576  0.8741124938521736  0.8535911355742840
  0.4429675834799696  0.7612248385905787  0.6002551200878230
 
  0.00000000E+00  0.00000000E+00  0.00000000E+00
  0.00000000E+00  0.00000000E+00  0.00000000E+00
  0.00000000E+00  0.00000000E+00  0.00000000E+00
  0.00000000E+00  0.00000000E+00  0.00000000E+00
  0.00000000E+00  0.00000000E+00  0.00000000E+00
  0.00000000E+00  0.00000000E+00  0.00000000E+00
  0.00000000E+00  0.00000000E+00  0.00000000E+00
  0.00000000E+00  0.00000000E+00  0.00000000E+00
  0.00000000E+00  0.00000000E+00  0.00000000E+00
  0.00000000E+00  0.00000000E+00  0.00000000E+00
  0.00000000E+00  0.00000000E+00  0.00000000E+00
  0.00000000E+00  0.00000000E+00  0.00000000E+00
  0.00000000E+00  0.00000000E+00  0.00000000E+00
  0.00000000E+00  0.00000000E+00  0.00000000E+00
  0.00000000E+00  0.00000000E+00  0.00000000E+00
  0.00000000E+00  0.00000000E+00  0.00000000E+00
  0.00000000E+00  0.00000000E+00  0.00000000E+00
  0.00000000E+00  0.00000000E+00  0.00000000E+00
  0.00000000E+00  0.00000000E+00  0.00000000E+00
  0.00000000E+00  0.00000000E+00  0.00000000E+00
  0.00000000E+00  0.00000000E+00  0.00000000E+00
  0.00000000E+00  0.00000000E+00  0.00000000E+00
  0.00000000E+00  0.00000000E+00  0.00000000E+00
  0.00000000E+00  0.00000000E+00  0.00000000E+00
  0.00000000E+00  0.00000000E+00  0.00000000E+00
  0.00000000E+00  0.00000000E+00  0.00000000E+00
  0.00000000E+00  0.00000000E+00  0.00000000E+00
  0.00000000E+00  0.00000000E+00  0.00000000E+00
  0.00000000E+00  0.00000000E+00  0.00000000E+00
  0.00000000E+00  0.00000000E+00  0.00000000E+00
  0.00000000E+00  0.00000000E+00  0.00000000E+00
  0.00000000E+00  0.00000000E+00  0.00000000E+00
  0.00000000E+00  0.00000000E+00  0.00000000E+00
  0.00000000E+00  0.00000000E+00  0.00000000E+00
  0.00000000E+00  0.00000000E+00  0.00000000E+00
  0.00000000E+00  0.00000000E+00  0.00000000E+00
  0.00000000E+00  0.00000000E+00  0.00000000E+00
  0.00000000E+00  0.00000000E+00  0.00000000E+00
  0.00000000E+00  0.00000000E+00  0.00000000E+00
  0.00000000E+00  0.00000000E+00  0.00000000E+00
  0.00000000E+00  0.00000000E+00  0.00000000E+00
  0.00000000E+00  0.00000000E+00  0.00000000E+00
  0.00000000E+00  0.00000000E+00  0.00000000E+00
  0.00000000E+00  0.00000000E+00  0.00000000E+00
  0.00000000E+00  0.00000000E+00  0.00000000E+00
  0.00000000E+00  0.00000000E+00  0.00000000E+00
  0.00000000E+00  0.00000000E+00  0.00000000E+00
  0.00000000E+00  0.00000000E+00  0.00000000E+00
  0.00000000E+00  0.00000000E+00  0.00000000E+00
  0.00000000E+00  0.00000000E+00  0.00000000E+00
  0.00000000E+00  0.00000000E+00  0.00000000E+00
  0.00000000E+00  0.00000000E+00  0.00000000E+00
  0.00000000E+00  0.00000000E+00  0.00000000E+00
  0.00000000E+00  0.00000000E+00  0.00000000E+00
  0.00000000E+00  0.00000000E+00  0.00000000E+00
  0.00000000E+00  0.00000000E+00  0.00000000E+00
  0.00000000E+00  0.00000000E+00  0.00000000E+00
  0.00000000E+00  0.00000000E+00  0.00000000E+00
  0.00000000E+00  0.00000000E+00  0.00000000E+00
  0.00000000E+00  0.00000000E+00  0.00000000E+00
  0.00000000E+00  0.00000000E+00  0.00000000E+00
  0.00000000E+00  0.00000000E+00  0.00000000E+00
  0.00000000E+00  0.00000000E+00  0.00000000E+00
  0.00000000E+00  0.00000000E+00  0.00000000E+00
  0.00000000E+00  0.00000000E+00  0.00000000E+00
  0.00000000E+00  0.00000000E+00  0.00000000E+00
  0.00000000E+00  0.00000000E+00  0.00000000E+00
  0.00000000E+00  0.00000000E+00  0.00000000E+00
  0.00000000E+00  0.00000000E+00  0.00000000E+00
  0.00000000E+00  0.00000000E+00  0.00000000E+00
  0.00000000E+00  0.00000000E+00  0.00000000E+00
  0.00000000E+00  0.00000000E+00  0.00000000E+00
