supercell of 100% icsd_608626.cif, 0% i 
   1.00000000000000     
    -9.4322163750579548   -0.0100791058154326    0.0038005608418146
    -4.7073841115964949    8.1489978689623506   -0.0034607835054980
     0.0040897584878806    0.0066703545609110   -9.8912845901331803
   Be   Al   Ti   N 
     5    26     5    36
Direct
  0.1306630281419032  0.0794719654177669  0.2816789322464857
  0.5518520771526596  0.5506683299890511  0.0409960936633738
  0.2314323430449576  0.8716593999529607  0.0430005484208280
  0.7666601020768979  0.7636961363275816  0.7948323084561721
  0.5440639315524010  0.8684581860187848  0.0362125568488523
  0.2242841072021662  0.1941334357687197  0.0529179799415687
  0.8948108276570537  0.2086083706425654  0.5444904404694171
  0.4356804693210705  0.0902331282701709  0.2875866591497171
  0.5474982616595270  0.2091547509710807  0.0478116814641609
  0.1176561757136767  0.0860355118408904  0.7994929566139106
  0.2171996898952315  0.2024893270073207  0.5385345496624225
  0.8996573676022663  0.2069066468267735  0.0525295941565531
  0.4486561281180457  0.0810923361488136  0.8055577759427166
  0.1129061357445877  0.4220057229767775  0.2893612430784529
  0.2256631315704496  0.5435959460979447  0.0503952092240567
  0.7705940967212754  0.4351332588559629  0.8004462897720046
  0.8847440999670866  0.5407005977772457  0.5515290111323310
  0.4408837964468901  0.4379599487874160  0.2886065928525596
  0.2181583776241496  0.5440265500391561  0.5424956837569042
  0.7708684566812067  0.4313532627980976  0.2884495919231327
  0.8797813146147533  0.5427114868523688  0.0448069032428222
  0.4455850629667424  0.4358325394533153  0.8036556449603296
  0.5537558777653828  0.5465932968685223  0.5460226980689811
  0.1207861751085773  0.7652622174869776  0.2883723676348779
  0.8943447345387199  0.8632419350430354  0.5553024628390517
  0.4371308344969975  0.7650819066722931  0.2772767492373589
  0.1168492346311538  0.7644788356798173  0.8000507599132121
  0.2249896284277497  0.8733595313691822  0.5425907055992027
  0.8953710899857938  0.8633564681646462  0.0442184919859301
  0.4478339681554786  0.7611034812718032  0.8140510528210996
  0.5545851270791857  0.8663064150412296  0.5539418543042061
  0.7815304560343463  0.0906619512651474  0.8087686257560733
  0.7813131507522755  0.0967266564583085  0.2939867013786852
  0.5507513252502889  0.2073610386243132  0.5532213668014876
  0.1081023724233816  0.4299174487799888  0.8048607850251912
  0.7742454829463483  0.7609339344252319  0.2980974085994106
  0.2182616835176461  0.2017831527033209  0.3483082792909542
  0.1166960732524487  0.0840003305377479  0.1078761399152626
  0.8943396429579877  0.2088081613885464  0.8558414803835177
  0.7844382988714074  0.0916844180193195  0.6048701869896007
  0.5476064721784866  0.2086292697459200  0.3539794312332916
  0.4488823986191406  0.0869313881816751  0.0987626876082217
  0.2257123070638514  0.1990443805653541  0.8564973512510576
  0.1106474054087059  0.0944208185718409  0.6065658334457140
  0.8873741622132130  0.2096164061741916  0.3526878975416068
  0.7781378528637077  0.0940303649157670  0.0943743624022773
  0.5482462106545753  0.2090748601322687  0.8498064036231838
  0.4381378820381840  0.0931533258538693  0.6074395540579047
  0.2200247674679616  0.5400725056474158  0.3508284779342503
  0.1097516865280355  0.4278662185931239  0.0955233271910174
  0.8796555248862816  0.5501401027481521  0.8508092209205387
  0.7758978117358737  0.4275035618175309  0.6058485717170612
  0.5524644250117632  0.5434777794068566  0.3544401040362573
  0.4476691791782059  0.4292257472385614  0.1002006697569300
  0.2251969226011141  0.5424504305045943  0.8552073548946453
  0.1114461772226889  0.4267814840509558  0.6033143596547887
  0.8915356590990271  0.5313808047136277  0.3561198312055325
  0.7722842558190592  0.4306088850155021  0.0998257726821450
  0.5571552671998390  0.5373950538598677  0.8598715262364962
  0.4394690649192654  0.4349525787689856  0.6065642780827929
  0.2220677339293147  0.8794270208740400  0.3519798847167621
  0.1131516128038328  0.7644433807324091  0.1000650015371392
  0.8907308139574397  0.8624597052783187  0.8506574762451891
  0.7763900526749055  0.7614234552514461  0.6060685364837894
  0.5477606816420817  0.8745107877903564  0.3588518787684762
  0.4463058407023155  0.7609543456545325  0.0896027966356741
  0.2233136710017334  0.8724667501830368  0.8601750220710684
  0.1138621887399864  0.7610292171863691  0.6059114700832069
  0.8975326643899777  0.8703827303109435  0.3592596382259643
  0.7765010542415780  0.7627219858967038  0.1070840944932101
  0.5684727818771620  0.8652178817888299  0.8567379828701149
  0.4419913336605177  0.7616187539268182  0.6118928388707658
 
  0.00000000E+00  0.00000000E+00  0.00000000E+00
  0.00000000E+00  0.00000000E+00  0.00000000E+00
  0.00000000E+00  0.00000000E+00  0.00000000E+00
  0.00000000E+00  0.00000000E+00  0.00000000E+00
  0.00000000E+00  0.00000000E+00  0.00000000E+00
  0.00000000E+00  0.00000000E+00  0.00000000E+00
  0.00000000E+00  0.00000000E+00  0.00000000E+00
  0.00000000E+00  0.00000000E+00  0.00000000E+00
  0.00000000E+00  0.00000000E+00  0.00000000E+00
  0.00000000E+00  0.00000000E+00  0.00000000E+00
  0.00000000E+00  0.00000000E+00  0.00000000E+00
  0.00000000E+00  0.00000000E+00  0.00000000E+00
  0.00000000E+00  0.00000000E+00  0.00000000E+00
  0.00000000E+00  0.00000000E+00  0.00000000E+00
  0.00000000E+00  0.00000000E+00  0.00000000E+00
  0.00000000E+00  0.00000000E+00  0.00000000E+00
  0.00000000E+00  0.00000000E+00  0.00000000E+00
  0.00000000E+00  0.00000000E+00  0.00000000E+00
  0.00000000E+00  0.00000000E+00  0.00000000E+00
  0.00000000E+00  0.00000000E+00  0.00000000E+00
  0.00000000E+00  0.00000000E+00  0.00000000E+00
  0.00000000E+00  0.00000000E+00  0.00000000E+00
  0.00000000E+00  0.00000000E+00  0.00000000E+00
  0.00000000E+00  0.00000000E+00  0.00000000E+00
  0.00000000E+00  0.00000000E+00  0.00000000E+00
  0.00000000E+00  0.00000000E+00  0.00000000E+00
  0.00000000E+00  0.00000000E+00  0.00000000E+00
  0.00000000E+00  0.00000000E+00  0.00000000E+00
  0.00000000E+00  0.00000000E+00  0.00000000E+00
  0.00000000E+00  0.00000000E+00  0.00000000E+00
  0.00000000E+00  0.00000000E+00  0.00000000E+00
  0.00000000E+00  0.00000000E+00  0.00000000E+00
  0.00000000E+00  0.00000000E+00  0.00000000E+00
  0.00000000E+00  0.00000000E+00  0.00000000E+00
  0.00000000E+00  0.00000000E+00  0.00000000E+00
  0.00000000E+00  0.00000000E+00  0.00000000E+00
  0.00000000E+00  0.00000000E+00  0.00000000E+00
  0.00000000E+00  0.00000000E+00  0.00000000E+00
  0.00000000E+00  0.00000000E+00  0.00000000E+00
  0.00000000E+00  0.00000000E+00  0.00000000E+00
  0.00000000E+00  0.00000000E+00  0.00000000E+00
  0.00000000E+00  0.00000000E+00  0.00000000E+00
  0.00000000E+00  0.00000000E+00  0.00000000E+00
  0.00000000E+00  0.00000000E+00  0.00000000E+00
  0.00000000E+00  0.00000000E+00  0.00000000E+00
  0.00000000E+00  0.00000000E+00  0.00000000E+00
  0.00000000E+00  0.00000000E+00  0.00000000E+00
  0.00000000E+00  0.00000000E+00  0.00000000E+00
  0.00000000E+00  0.00000000E+00  0.00000000E+00
  0.00000000E+00  0.00000000E+00  0.00000000E+00
  0.00000000E+00  0.00000000E+00  0.00000000E+00
  0.00000000E+00  0.00000000E+00  0.00000000E+00
  0.00000000E+00  0.00000000E+00  0.00000000E+00
  0.00000000E+00  0.00000000E+00  0.00000000E+00
  0.00000000E+00  0.00000000E+00  0.00000000E+00
  0.00000000E+00  0.00000000E+00  0.00000000E+00
  0.00000000E+00  0.00000000E+00  0.00000000E+00
  0.00000000E+00  0.00000000E+00  0.00000000E+00
  0.00000000E+00  0.00000000E+00  0.00000000E+00
  0.00000000E+00  0.00000000E+00  0.00000000E+00
  0.00000000E+00  0.00000000E+00  0.00000000E+00
  0.00000000E+00  0.00000000E+00  0.00000000E+00
  0.00000000E+00  0.00000000E+00  0.00000000E+00
  0.00000000E+00  0.00000000E+00  0.00000000E+00
  0.00000000E+00  0.00000000E+00  0.00000000E+00
  0.00000000E+00  0.00000000E+00  0.00000000E+00
  0.00000000E+00  0.00000000E+00  0.00000000E+00
  0.00000000E+00  0.00000000E+00  0.00000000E+00
  0.00000000E+00  0.00000000E+00  0.00000000E+00
  0.00000000E+00  0.00000000E+00  0.00000000E+00
  0.00000000E+00  0.00000000E+00  0.00000000E+00
  0.00000000E+00  0.00000000E+00  0.00000000E+00
