generated by phonopy                    
   1.00000000000000     
    10.0351470768999995   -0.0000022330999784   -0.0000001056124209
    -5.0175765436399997    8.6906901959899994    0.0000001395531216
    -0.0000001735893656    0.0000001431815548   14.9533752540999991
   P    Pb   O 
    13    19    50
Direct
  0.9209132371001374  0.7699443042634400  0.1232817254857466
  0.6204946078257407  0.6043618528879620  0.1239373052339090
  0.6249374387410924  0.5950696228712999  0.6238952480269191
  0.3733193549475260  0.3979873579149498  0.3739448430743408
  0.3732260908927003  0.3975922823129707  0.8739440103568938
  0.3993472047328552  0.0298624364266900  0.1239055624902576
  0.4059332264130262  0.0232779988121266  0.6239848997672226
  0.6059640202079279  0.9767138804842546  0.3749748966547273
  0.6056872724891278  0.9765319758326783  0.8728021099606806
  0.9701099724586371  0.3738768377569599  0.1240614896525969
  0.9804158994432797  0.3813890825278961  0.6240023962368468
  0.0231504932374804  0.6274004424262074  0.3880086306333226
  0.0232160257506493  0.6277384842671765  0.8597185487156551
  0.9849097120156074  0.7326431923627936  0.6239782978770805
  0.0090993622204962  0.2626484688382860  0.3773876416598512
  0.0091471991046888  0.2630195236582082  0.8697051113111058
  0.2496358194535020  0.2433071711417867  0.1237483890017330
  0.2410265435164263  0.2157216397011226  0.6239698074087912
  0.7381670798773357  0.7478619468675731  0.3816874532208487
  0.7381150386995330  0.7476246721135382  0.8659335139712780
  0.7434808489317746  0.0052684818769322  0.1238977924791627
  0.7638328333672106  0.0040850669804300  0.6237135796911701
  0.2616216235494733  0.0019397052384491  0.3687085799685050
  0.2612491969514181  0.0018679766801952  0.8790789511266368
  0.6846862563647491  0.3365116109213631  0.9988759703837005
  0.6533661171281651  0.3235857846561032  0.4961865745178997
  0.3114972588065257  0.6713277656032304  0.0014545854662700
  0.3356426657268301  0.6625183961162833  0.5029550529214717
  0.3113250794985234  0.6715184077075946  0.2462158967744301
  0.3366903326389661  0.6639380071569718  0.7447273014348283
  0.6832149774547389  0.3363480687808789  0.2492529805949601
  0.6527008611722991  0.3232706130129017  0.7518747172103417
  0.5121857426762162  0.6699028246288279  0.1236773733401719
  0.5251469870902241  0.6743194024758949  0.6237683272848713
  0.4777820742981618  0.3237396649112441  0.3751971445518052
  0.4777424096064209  0.3233842825002284  0.8730989193673153
  0.3501447743256776  0.8561116927359791  0.1237967909982132
  0.3164853305852304  0.8438556530931294  0.6240313905962012
  0.6796324588787002  0.1554155176298764  0.3764643479285823
  0.6794875449373592  0.1552534753388599  0.8715252186521738
  0.1471093440932734  0.4914477839517630  0.1237771145267743
  0.1566185086711087  0.4928894351169077  0.6239435626995373
  0.8459246797994666  0.5239999478387247  0.3798785303390133
  0.8460346989258767  0.5240104970262465  0.8679639934340102
  0.7478900656296332  0.6727418584718663  0.0452958443878728
  0.7360129914187965  0.6456312029071825  0.5403736019549257
  0.2665302181108160  0.3535208260707066  0.4585767047946234
  0.2656201323730656  0.3478284285826518  0.9580364456018486
  0.3414225153230603  0.0786731691686313  0.0394654116914452
  0.3659135049847322  0.0906753232476092  0.5394482788835120
  0.6517315273032409  0.9154603495993001  0.4599698145854703
  0.6564206456327284  0.9190170836120402  0.9558874273590234
  0.9222562469343103  0.2679915508227140  0.0385319639966184
  0.9219760162093706  0.2753254481344598  0.5400022799977577
  0.0745913116855021  0.7259397593240635  0.4767823753454223
  0.0955325582132289  0.7429458769223913  0.9392603883180399
  0.2646916860541779  0.3462442462575055  0.2902591240656989
  0.2654011720113871  0.3511129310813530  0.7896873213536537
  0.7486621581696440  0.6744886576137930  0.2019849689254016
  0.7364979185539653  0.6466236359379991  0.7072366070506462
  0.6578162832612691  0.9198205827761257  0.2920691263148427
  0.6521017461026872  0.9156148370042771  0.7879070121550740
  0.3410655497850783  0.0783462714754819  0.2083408150149069
  0.3656586832220370  0.0907117660995880  0.7084523043672846
  0.0952733162263470  0.7434050497153777  0.3088326822213716
  0.0741694384997800  0.7275804338137561  0.7714187016317737
  0.9237259196153289  0.2668690867863930  0.2090152520815138
  0.9224831346540796  0.2746803222175558  0.7077768850065667
  0.5367653945588273  0.4265712791658061  0.1244657103584075
  0.5239240981080826  0.4155737592767821  0.6242526569810920
  0.4765361003489019  0.5799517952460107  0.3723415966144685
  0.4764355290690361  0.5795768619116899  0.8741442451520953
  0.5813973786266189  0.1292769951104731  0.1240717822490183
  0.5850400076266737  0.0929410902938415  0.6241400925930023
  0.4241797117289252  0.8987629751546464  0.3734947921866407
  0.4238649135963257  0.8987218551216216  0.8735923114244315
  0.8724808698759290  0.4561177958172209  0.1247729374898512
  0.8940061498824434  0.4811620979052620  0.6244670516437267
  0.1032012398289552  0.5249988698514301  0.3860732165306473
  0.1034042690759733  0.5254258651536645  0.8606422474386051
  0.9621640920381651  0.9389171210699487  0.1227054956714682
  0.0248620763351397  0.9533168217171095  0.6235764676836197
 
  0.00000000E+00  0.00000000E+00  0.00000000E+00
  0.00000000E+00  0.00000000E+00  0.00000000E+00
  0.00000000E+00  0.00000000E+00  0.00000000E+00
  0.00000000E+00  0.00000000E+00  0.00000000E+00
  0.00000000E+00  0.00000000E+00  0.00000000E+00
  0.00000000E+00  0.00000000E+00  0.00000000E+00
  0.00000000E+00  0.00000000E+00  0.00000000E+00
  0.00000000E+00  0.00000000E+00  0.00000000E+00
  0.00000000E+00  0.00000000E+00  0.00000000E+00
  0.00000000E+00  0.00000000E+00  0.00000000E+00
  0.00000000E+00  0.00000000E+00  0.00000000E+00
  0.00000000E+00  0.00000000E+00  0.00000000E+00
  0.00000000E+00  0.00000000E+00  0.00000000E+00
  0.00000000E+00  0.00000000E+00  0.00000000E+00
  0.00000000E+00  0.00000000E+00  0.00000000E+00
  0.00000000E+00  0.00000000E+00  0.00000000E+00
  0.00000000E+00  0.00000000E+00  0.00000000E+00
  0.00000000E+00  0.00000000E+00  0.00000000E+00
  0.00000000E+00  0.00000000E+00  0.00000000E+00
  0.00000000E+00  0.00000000E+00  0.00000000E+00
  0.00000000E+00  0.00000000E+00  0.00000000E+00
  0.00000000E+00  0.00000000E+00  0.00000000E+00
  0.00000000E+00  0.00000000E+00  0.00000000E+00
  0.00000000E+00  0.00000000E+00  0.00000000E+00
  0.00000000E+00  0.00000000E+00  0.00000000E+00
  0.00000000E+00  0.00000000E+00  0.00000000E+00
  0.00000000E+00  0.00000000E+00  0.00000000E+00
  0.00000000E+00  0.00000000E+00  0.00000000E+00
  0.00000000E+00  0.00000000E+00  0.00000000E+00
  0.00000000E+00  0.00000000E+00  0.00000000E+00
  0.00000000E+00  0.00000000E+00  0.00000000E+00
  0.00000000E+00  0.00000000E+00  0.00000000E+00
  0.00000000E+00  0.00000000E+00  0.00000000E+00
  0.00000000E+00  0.00000000E+00  0.00000000E+00
  0.00000000E+00  0.00000000E+00  0.00000000E+00
  0.00000000E+00  0.00000000E+00  0.00000000E+00
  0.00000000E+00  0.00000000E+00  0.00000000E+00
  0.00000000E+00  0.00000000E+00  0.00000000E+00
  0.00000000E+00  0.00000000E+00  0.00000000E+00
  0.00000000E+00  0.00000000E+00  0.00000000E+00
  0.00000000E+00  0.00000000E+00  0.00000000E+00
  0.00000000E+00  0.00000000E+00  0.00000000E+00
  0.00000000E+00  0.00000000E+00  0.00000000E+00
  0.00000000E+00  0.00000000E+00  0.00000000E+00
  0.00000000E+00  0.00000000E+00  0.00000000E+00
  0.00000000E+00  0.00000000E+00  0.00000000E+00
  0.00000000E+00  0.00000000E+00  0.00000000E+00
  0.00000000E+00  0.00000000E+00  0.00000000E+00
  0.00000000E+00  0.00000000E+00  0.00000000E+00
  0.00000000E+00  0.00000000E+00  0.00000000E+00
  0.00000000E+00  0.00000000E+00  0.00000000E+00
  0.00000000E+00  0.00000000E+00  0.00000000E+00
  0.00000000E+00  0.00000000E+00  0.00000000E+00
  0.00000000E+00  0.00000000E+00  0.00000000E+00
  0.00000000E+00  0.00000000E+00  0.00000000E+00
  0.00000000E+00  0.00000000E+00  0.00000000E+00
  0.00000000E+00  0.00000000E+00  0.00000000E+00
  0.00000000E+00  0.00000000E+00  0.00000000E+00
  0.00000000E+00  0.00000000E+00  0.00000000E+00
  0.00000000E+00  0.00000000E+00  0.00000000E+00
  0.00000000E+00  0.00000000E+00  0.00000000E+00
  0.00000000E+00  0.00000000E+00  0.00000000E+00
  0.00000000E+00  0.00000000E+00  0.00000000E+00
  0.00000000E+00  0.00000000E+00  0.00000000E+00
  0.00000000E+00  0.00000000E+00  0.00000000E+00
  0.00000000E+00  0.00000000E+00  0.00000000E+00
  0.00000000E+00  0.00000000E+00  0.00000000E+00
  0.00000000E+00  0.00000000E+00  0.00000000E+00
  0.00000000E+00  0.00000000E+00  0.00000000E+00
  0.00000000E+00  0.00000000E+00  0.00000000E+00
  0.00000000E+00  0.00000000E+00  0.00000000E+00
  0.00000000E+00  0.00000000E+00  0.00000000E+00
  0.00000000E+00  0.00000000E+00  0.00000000E+00
  0.00000000E+00  0.00000000E+00  0.00000000E+00
  0.00000000E+00  0.00000000E+00  0.00000000E+00
  0.00000000E+00  0.00000000E+00  0.00000000E+00
  0.00000000E+00  0.00000000E+00  0.00000000E+00
  0.00000000E+00  0.00000000E+00  0.00000000E+00
  0.00000000E+00  0.00000000E+00  0.00000000E+00
  0.00000000E+00  0.00000000E+00  0.00000000E+00
  0.00000000E+00  0.00000000E+00  0.00000000E+00
  0.00000000E+00  0.00000000E+00  0.00000000E+00
