supercell of 100% icsd_608626.cif, 0% i 
   1.00000000000000     
    -9.3528430964227365   -0.0002454648072431   -0.0004396589902778
    -4.6762089427938500    8.0991899536487875   -0.0002974781247712
    -0.0004702883694227    0.0000958192814990   -9.9950750847458707
   Al   Si   Be   N 
    34     1     1    36
Direct
  0.1117595202861494  0.0944738912817868  0.2965529471001247
  0.2215889388335128  0.2067203288651598  0.0444040721001997
  0.7778483844643702  0.0938483444432308  0.7936380315483191
  0.8887087987462721  0.2056985852365827  0.5456319812158412
  0.4437333174879896  0.0951638204805292  0.2962873489440909
  0.5570731787878600  0.2050788468912970  0.0446114496764238
  0.1115072352423780  0.0943404367466911  0.7938412914658031
  0.2217311140738829  0.2097028776968415  0.5457998811748581
  0.7776724685474719  0.0940251791442819  0.2963801856865373
  0.8885005874302152  0.2038810164880545  0.0444830607269395
  0.4440650097258043  0.0949455504511008  0.7943164059288961
  0.5520328963298198  0.2097901328392950  0.5458925695428860
  0.1130476652201011  0.4290469459442434  0.3002249916795137
  0.2205382023468303  0.5409600770216230  0.0463456184763444
  0.7797895499169982  0.4270207244265336  0.7953265681257164
  0.8928294725752153  0.5384490207448778  0.5458416143075482
  0.4417050841308807  0.4304045812885136  0.3016660701333436
  0.1128088854827638  0.4292723107362875  0.7901691747249657
  0.7759848981915951  0.4289621865635240  0.2977395440121100
  0.8896849092762054  0.5403521392541037  0.0446244011884076
  0.4401283122874631  0.4281406663659055  0.7917007224398844
  0.5520327488457397  0.5383508904131276  0.5465187740007380
  0.1125384370413727  0.7578299055202322  0.3000383025007167
  0.2198636559978908  0.8713155576107923  0.0446087035575502
  0.7784184352812744  0.7610960860458960  0.7941306707753242
  0.8930248879160203  0.8685679150939762  0.5456828006417496
  0.4449991609005224  0.7593154628105836  0.2974416407863103
  0.5576013795504764  0.8718557431437119  0.0445949421475973
  0.1123988462013585  0.7579011240278177  0.7899812350078648
  0.2219255789551440  0.8683299606624146  0.5458563097950773
  0.7783442736814834  0.7610133303578763  0.2961269849090513
  0.8900098646843659  0.8717008319954047  0.0451688470062521
  0.4431715342607205  0.7629881468121056  0.7958261314372308
  0.5555730401959522  0.8720095431676924  0.5453260201364785
  0.5551253715469002  0.5383454070762141  0.0444268977589601
  0.2217304354668883  0.5394231588420269  0.5431888659810582
  0.2224539802720429  0.2051059200192782  0.3545012941523069
  0.1112109665698284  0.0944831736509499  0.1044330962998998
  0.8887465027215740  0.2055597052886071  0.8547681755540850
  0.7774083022299010  0.0941865881709631  0.6033459326877875
  0.5551758298809375  0.2062008365253760  0.3534385382208924
  0.4442439739414326  0.0946449279205837  0.1043763913899411
  0.2218078652719768  0.2063851880017538  0.8538522768186567
  0.1117031597058755  0.0939101828543016  0.6034430651865677
  0.8884419087627009  0.2065625135929707  0.3533369649691593
  0.7777390449960464  0.0943892436372522  0.1047832725082785
  0.5552884024104756  0.2063375343431844  0.8546828279480678
  0.4449445224011725  0.0938311980553905  0.6041290849538896
  0.2230048641894271  0.5384745585878647  0.3584304438854389
  0.1111234456707209  0.4276097209965428  0.1065791425182709
  0.8895658188570295  0.5386447921641491  0.8547076877873039
  0.7763942536514818  0.4289854266372117  0.6056047388182151
  0.5557772554280973  0.5391454501878670  0.3558917916233639
  0.4510172939061690  0.4341973938592147  0.1030994076004106
  0.2222293901668735  0.5389606956570745  0.8576038356917195
  0.1145173265589818  0.4316328258382143  0.6014245537733487
  0.8879805299586891  0.5385790053922364  0.3534897092668956
  0.7649774475650872  0.4342007287524652  0.1013229686859560
  0.5552443996816905  0.5385949657534184  0.8652003233751984
  0.4383716513508773  0.4315643829905369  0.6036541534170610
  0.2234731709734277  0.8719795236700350  0.3534858976365101
  0.1109814896581369  0.7612210028310287  0.1069516396705552
  0.8897674903728330  0.8717510488026079  0.8542326562952098
  0.7772012158348289  0.7612645328395615  0.6040522803459396
  0.5549859118988252  0.8717789392818460  0.3530419136984833
  0.4508131509217179  0.7482441996835760  0.1012705429477450
  0.2218307830045134  0.8716182901865395  0.8546845800618783
  0.1148922739644505  0.7537384675514787  0.6012846627884088
  0.8883760093613802  0.8724796354847086  0.3544124003797648
  0.7778824583691843  0.7610810296689436  0.1047239376932723
  0.5556757716260137  0.8720823627939041  0.8550481584980574
  0.4452560579557741  0.7602532818380752  0.6063165962107178
 
  0.00000000E+00  0.00000000E+00  0.00000000E+00
  0.00000000E+00  0.00000000E+00  0.00000000E+00
  0.00000000E+00  0.00000000E+00  0.00000000E+00
  0.00000000E+00  0.00000000E+00  0.00000000E+00
  0.00000000E+00  0.00000000E+00  0.00000000E+00
  0.00000000E+00  0.00000000E+00  0.00000000E+00
  0.00000000E+00  0.00000000E+00  0.00000000E+00
  0.00000000E+00  0.00000000E+00  0.00000000E+00
  0.00000000E+00  0.00000000E+00  0.00000000E+00
  0.00000000E+00  0.00000000E+00  0.00000000E+00
  0.00000000E+00  0.00000000E+00  0.00000000E+00
  0.00000000E+00  0.00000000E+00  0.00000000E+00
  0.00000000E+00  0.00000000E+00  0.00000000E+00
  0.00000000E+00  0.00000000E+00  0.00000000E+00
  0.00000000E+00  0.00000000E+00  0.00000000E+00
  0.00000000E+00  0.00000000E+00  0.00000000E+00
  0.00000000E+00  0.00000000E+00  0.00000000E+00
  0.00000000E+00  0.00000000E+00  0.00000000E+00
  0.00000000E+00  0.00000000E+00  0.00000000E+00
  0.00000000E+00  0.00000000E+00  0.00000000E+00
  0.00000000E+00  0.00000000E+00  0.00000000E+00
  0.00000000E+00  0.00000000E+00  0.00000000E+00
  0.00000000E+00  0.00000000E+00  0.00000000E+00
  0.00000000E+00  0.00000000E+00  0.00000000E+00
  0.00000000E+00  0.00000000E+00  0.00000000E+00
  0.00000000E+00  0.00000000E+00  0.00000000E+00
  0.00000000E+00  0.00000000E+00  0.00000000E+00
  0.00000000E+00  0.00000000E+00  0.00000000E+00
  0.00000000E+00  0.00000000E+00  0.00000000E+00
  0.00000000E+00  0.00000000E+00  0.00000000E+00
  0.00000000E+00  0.00000000E+00  0.00000000E+00
  0.00000000E+00  0.00000000E+00  0.00000000E+00
  0.00000000E+00  0.00000000E+00  0.00000000E+00
  0.00000000E+00  0.00000000E+00  0.00000000E+00
  0.00000000E+00  0.00000000E+00  0.00000000E+00
  0.00000000E+00  0.00000000E+00  0.00000000E+00
  0.00000000E+00  0.00000000E+00  0.00000000E+00
  0.00000000E+00  0.00000000E+00  0.00000000E+00
  0.00000000E+00  0.00000000E+00  0.00000000E+00
  0.00000000E+00  0.00000000E+00  0.00000000E+00
  0.00000000E+00  0.00000000E+00  0.00000000E+00
  0.00000000E+00  0.00000000E+00  0.00000000E+00
  0.00000000E+00  0.00000000E+00  0.00000000E+00
  0.00000000E+00  0.00000000E+00  0.00000000E+00
  0.00000000E+00  0.00000000E+00  0.00000000E+00
  0.00000000E+00  0.00000000E+00  0.00000000E+00
  0.00000000E+00  0.00000000E+00  0.00000000E+00
  0.00000000E+00  0.00000000E+00  0.00000000E+00
  0.00000000E+00  0.00000000E+00  0.00000000E+00
  0.00000000E+00  0.00000000E+00  0.00000000E+00
  0.00000000E+00  0.00000000E+00  0.00000000E+00
  0.00000000E+00  0.00000000E+00  0.00000000E+00
  0.00000000E+00  0.00000000E+00  0.00000000E+00
  0.00000000E+00  0.00000000E+00  0.00000000E+00
  0.00000000E+00  0.00000000E+00  0.00000000E+00
  0.00000000E+00  0.00000000E+00  0.00000000E+00
  0.00000000E+00  0.00000000E+00  0.00000000E+00
  0.00000000E+00  0.00000000E+00  0.00000000E+00
  0.00000000E+00  0.00000000E+00  0.00000000E+00
  0.00000000E+00  0.00000000E+00  0.00000000E+00
  0.00000000E+00  0.00000000E+00  0.00000000E+00
  0.00000000E+00  0.00000000E+00  0.00000000E+00
  0.00000000E+00  0.00000000E+00  0.00000000E+00
  0.00000000E+00  0.00000000E+00  0.00000000E+00
  0.00000000E+00  0.00000000E+00  0.00000000E+00
  0.00000000E+00  0.00000000E+00  0.00000000E+00
  0.00000000E+00  0.00000000E+00  0.00000000E+00
  0.00000000E+00  0.00000000E+00  0.00000000E+00
  0.00000000E+00  0.00000000E+00  0.00000000E+00
  0.00000000E+00  0.00000000E+00  0.00000000E+00
  0.00000000E+00  0.00000000E+00  0.00000000E+00
  0.00000000E+00  0.00000000E+00  0.00000000E+00
