supercell of 100% icsd_608626.cif, 0% i 
   1.00000000000000     
    -9.3538403398055348   -0.0036262168344341    0.0025080245117665
    -4.6737801214550956    8.0973765583159913    0.0006968300246611
     0.0026820262900792    0.0006876840022120   -9.9949582577435869
   Al   Be   Si   N 
    34     1     1    36
Direct
  0.1073588987285135  0.0998559310501932  0.2950029174244975
  0.2218086439383171  0.2060662854451536  0.0447971567818044
  0.7784271329807453  0.0950168646929299  0.7953342762183055
  0.8870127867149264  0.2086608892626458  0.5412528748680998
  0.4425631917697288  0.0959838368498183  0.2946370916603627
  0.5560083445203574  0.2057047835126795  0.0451536799302374
  0.1101666915807371  0.0948171609882067  0.7954284909884137
  0.2216961551182237  0.2059439332545665  0.5454077066350536
  0.7782185930665904  0.0981444686412800  0.2949264459639167
  0.8873885874680454  0.2087174227557895  0.0489111086228178
  0.4445056030714341  0.0942172661936382  0.7953162614703260
  0.5562331059220540  0.2056132352021223  0.5456101351508522
  0.1072417286039169  0.4280412909822857  0.2954834034672444
  0.2224537790056615  0.5382742830697183  0.0450975064284833
  0.7775306671923659  0.4280199340763531  0.7967632862168230
  0.8874225135563449  0.5368085780598335  0.5410293354701707
  0.4451600519017802  0.4292178888720741  0.2953015201993026
  0.5605153594341559  0.5349346631050764  0.0509177357133765
  0.1099879380071300  0.4283558411526656  0.7952216883661762
  0.2221284239986616  0.5384436856109929  0.5449914651000043
  0.8879198957754326  0.5369543302826401  0.0484925616679774
  0.4450857036624214  0.4286315662842597  0.7955603172931021
  0.5573090322475949  0.5393784415168668  0.5424016506733693
  0.1112079251230327  0.7591633168021161  0.2949659652505616
  0.2205812495708983  0.8732805439158184  0.0467872418230399
  0.7782272031832349  0.7598596863220877  0.7952831085934520
  0.8883128578870796  0.8727987177026080  0.5450351253462529
  0.5568438802645375  0.8726778585355746  0.0465885270995656
  0.1113320828501898  0.7610872942262645  0.7952200684161852
  0.2238210862489964  0.8716745171309981  0.5461668695709250
  0.7796813194405487  0.7546228825996479  0.2949858818548208
  0.8884600848194353  0.8725379209892310  0.0453109829245903
  0.4450385422204377  0.7599193168982268  0.7960892506699153
  0.5549434799029527  0.8709177648712796  0.5465877218569162
  0.7853804481751894  0.4264201064119817  0.2895330816752590
  0.4465034909697962  0.7578878487848684  0.2952007590388845
  0.2228584641346671  0.2052431608591689  0.3549285288753907
  0.1119382615898061  0.0941413664999331  0.1048367446240022
  0.8890774754640987  0.2057615789192297  0.8562965982701201
  0.7782346770203716  0.0948959545300099  0.6042138195960618
  0.5554184572304379  0.2054956791491165  0.3546449104191964
  0.4444346960043930  0.0943469274605633  0.1045147921329104
  0.2223772944734677  0.2053728422139187  0.8538111539622903
  0.1105915445474182  0.0939661555647078  0.6033955979566343
  0.8856566010012301  0.2125102421101985  0.3517417680145769
  0.7776133949868509  0.0942306981153465  0.1041017452048578
  0.5554878160135956  0.2057069656893873  0.8539955997934996
  0.4450625131226573  0.0933676002529182  0.6036458929595696
  0.2219286810494765  0.5381882828946800  0.3543199925491223
  0.1118080621012467  0.4274423041505102  0.1043223472078054
  0.8888222235165770  0.5388932060758123  0.8560800943122260
  0.7763118777012181  0.4283724453420419  0.6061804983104366
  0.5511818426337740  0.5508660774058498  0.3499488744364143
  0.4442404698833613  0.4276754673830325  0.1050550519862696
  0.2224742618148667  0.5388865896197998  0.8539096595596760
  0.1100419769914822  0.4281742645199316  0.6041719527466967
  0.8854245317891767  0.5343267311566962  0.3517171145386087
  0.7786904255161247  0.4276258124680226  0.1108984916339466
  0.5552979326326266  0.5399129035479362  0.8588249552530556
  0.4453066761337396  0.4286763548188475  0.6034802263184105
  0.2345190633784924  0.8666266675272993  0.3510476464360153
  0.1112693845038777  0.7609546476188029  0.1047826973928352
  0.8890262519307157  0.8719540408308077  0.8539490683920405
  0.7771922345548106  0.7606064299340716  0.6030856711329378
  0.5487805726490578  0.8662181952436256  0.3515108593913752
  0.4442277896886324  0.7616252156185723  0.1154154840266628
  0.2234211601817080  0.8716776865744222  0.8561991366294137
  0.1114642014044449  0.7616822679724180  0.6034067776639702
  0.8878679823094089  0.8725642697862099  0.3538899125527379
  0.7776011967095755  0.7613285878783174  0.1048645102457044
  0.5552090825577167  0.8715476224195484  0.8561291992495512
  0.4446644438574481  0.7604844017958072  0.6058894257937908
 
  0.00000000E+00  0.00000000E+00  0.00000000E+00
  0.00000000E+00  0.00000000E+00  0.00000000E+00
  0.00000000E+00  0.00000000E+00  0.00000000E+00
  0.00000000E+00  0.00000000E+00  0.00000000E+00
  0.00000000E+00  0.00000000E+00  0.00000000E+00
  0.00000000E+00  0.00000000E+00  0.00000000E+00
  0.00000000E+00  0.00000000E+00  0.00000000E+00
  0.00000000E+00  0.00000000E+00  0.00000000E+00
  0.00000000E+00  0.00000000E+00  0.00000000E+00
  0.00000000E+00  0.00000000E+00  0.00000000E+00
  0.00000000E+00  0.00000000E+00  0.00000000E+00
  0.00000000E+00  0.00000000E+00  0.00000000E+00
  0.00000000E+00  0.00000000E+00  0.00000000E+00
  0.00000000E+00  0.00000000E+00  0.00000000E+00
  0.00000000E+00  0.00000000E+00  0.00000000E+00
  0.00000000E+00  0.00000000E+00  0.00000000E+00
  0.00000000E+00  0.00000000E+00  0.00000000E+00
  0.00000000E+00  0.00000000E+00  0.00000000E+00
  0.00000000E+00  0.00000000E+00  0.00000000E+00
  0.00000000E+00  0.00000000E+00  0.00000000E+00
  0.00000000E+00  0.00000000E+00  0.00000000E+00
  0.00000000E+00  0.00000000E+00  0.00000000E+00
  0.00000000E+00  0.00000000E+00  0.00000000E+00
  0.00000000E+00  0.00000000E+00  0.00000000E+00
  0.00000000E+00  0.00000000E+00  0.00000000E+00
  0.00000000E+00  0.00000000E+00  0.00000000E+00
  0.00000000E+00  0.00000000E+00  0.00000000E+00
  0.00000000E+00  0.00000000E+00  0.00000000E+00
  0.00000000E+00  0.00000000E+00  0.00000000E+00
  0.00000000E+00  0.00000000E+00  0.00000000E+00
  0.00000000E+00  0.00000000E+00  0.00000000E+00
  0.00000000E+00  0.00000000E+00  0.00000000E+00
  0.00000000E+00  0.00000000E+00  0.00000000E+00
  0.00000000E+00  0.00000000E+00  0.00000000E+00
  0.00000000E+00  0.00000000E+00  0.00000000E+00
  0.00000000E+00  0.00000000E+00  0.00000000E+00
  0.00000000E+00  0.00000000E+00  0.00000000E+00
  0.00000000E+00  0.00000000E+00  0.00000000E+00
  0.00000000E+00  0.00000000E+00  0.00000000E+00
  0.00000000E+00  0.00000000E+00  0.00000000E+00
  0.00000000E+00  0.00000000E+00  0.00000000E+00
  0.00000000E+00  0.00000000E+00  0.00000000E+00
  0.00000000E+00  0.00000000E+00  0.00000000E+00
  0.00000000E+00  0.00000000E+00  0.00000000E+00
  0.00000000E+00  0.00000000E+00  0.00000000E+00
  0.00000000E+00  0.00000000E+00  0.00000000E+00
  0.00000000E+00  0.00000000E+00  0.00000000E+00
  0.00000000E+00  0.00000000E+00  0.00000000E+00
  0.00000000E+00  0.00000000E+00  0.00000000E+00
  0.00000000E+00  0.00000000E+00  0.00000000E+00
  0.00000000E+00  0.00000000E+00  0.00000000E+00
  0.00000000E+00  0.00000000E+00  0.00000000E+00
  0.00000000E+00  0.00000000E+00  0.00000000E+00
  0.00000000E+00  0.00000000E+00  0.00000000E+00
  0.00000000E+00  0.00000000E+00  0.00000000E+00
  0.00000000E+00  0.00000000E+00  0.00000000E+00
  0.00000000E+00  0.00000000E+00  0.00000000E+00
  0.00000000E+00  0.00000000E+00  0.00000000E+00
  0.00000000E+00  0.00000000E+00  0.00000000E+00
  0.00000000E+00  0.00000000E+00  0.00000000E+00
  0.00000000E+00  0.00000000E+00  0.00000000E+00
  0.00000000E+00  0.00000000E+00  0.00000000E+00
  0.00000000E+00  0.00000000E+00  0.00000000E+00
  0.00000000E+00  0.00000000E+00  0.00000000E+00
  0.00000000E+00  0.00000000E+00  0.00000000E+00
  0.00000000E+00  0.00000000E+00  0.00000000E+00
  0.00000000E+00  0.00000000E+00  0.00000000E+00
  0.00000000E+00  0.00000000E+00  0.00000000E+00
  0.00000000E+00  0.00000000E+00  0.00000000E+00
  0.00000000E+00  0.00000000E+00  0.00000000E+00
  0.00000000E+00  0.00000000E+00  0.00000000E+00
  0.00000000E+00  0.00000000E+00  0.00000000E+00
