supercell of 100% icsd_608626.cif, 0% i 
   1.00000000000000     
    -9.3522062550506551    0.0001720565793514    0.0003392359208238
    -4.6762521278533757    8.0995064649700996   -0.0000005590207621
     0.0003626784864944    0.0002100815272047   -9.9965583739957644
   Si   Al   Be   N 
     1    34     1    36
Direct
  0.1114575706405461  0.0942710285800317  0.2936047056149320
  0.2229512687271722  0.2109752537614966  0.0465719742657882
  0.7778005932117438  0.0942154012198841  0.7959402004740355
  0.8904699245869097  0.2047646486948551  0.5468777337006259
  0.4458994698131846  0.0928077696328771  0.2941842943068167
  0.5518903620679154  0.2098402934265948  0.0451897364618716
  0.1115256469293158  0.0942369868294648  0.7964204400091077
  0.2208086479646383  0.2059060279269502  0.5471246920949326
  0.7779918268652253  0.0921782462740097  0.2937101902785102
  0.8867684033186407  0.2066163768889524  0.0464880299046797
  0.4440419133573030  0.0948750025636045  0.7956734178276719
  0.5547553361665223  0.2072000892561832  0.5460209806929228
  0.1104555151273843  0.4313815025067527  0.2899319448674760
  0.7778007161285103  0.4279835421050819  0.7959402009063297
  0.8899463573907340  0.5385193053003903  0.5458990994200832
  0.4411302489135309  0.4294347376693608  0.2897230664892945
  0.5518900154991897  0.5382701272027077  0.0451897637047267
  0.1128511550105458  0.4293967544192512  0.7997014456725680
  0.2226743964424784  0.5386628449546293  0.5475497824428004
  0.7779919773417276  0.4298300890453604  0.2937100870943965
  0.8927569194929461  0.5388424231496671  0.0449891290682558
  0.4409392711872826  0.4295303959704242  0.7996059356395691
  0.5547554601651754  0.5380451979489109  0.5460208293496223
  0.1104559739541457  0.7581620645617022  0.2899317323533595
  0.2229506248558053  0.8660739813842326  0.0465719163854033
  0.7782029197591598  0.7608987326279930  0.7955303202089610
  0.8899467392737961  0.8715340053947997  0.5458990628907472
  0.4458994887879300  0.7612934176861330  0.2941842057391426
  0.5559145508759613  0.8720424994569385  0.0444831243955193
  0.1128513958124060  0.7577510608377622  0.7997016410360374
  0.2208089230839860  0.8732845076766438  0.5471246970926558
  0.7782093604262528  0.7608956793401944  0.2947449220833533
  0.8927567208501799  0.8684019225142237  0.0449892092134192
  0.4440416240862746  0.7610833376877224  0.7956735807671009
  0.5557894315270389  0.8721050768004659  0.5457510770725378
  0.2227453635587011  0.5386271353563004  0.0418580997587696
  0.2155729162933397  0.1996869072896175  0.3512604320675052
  0.1116553447827897  0.0941724078338666  0.1149183167498578
  0.8900165639934201  0.2049915779807066  0.8561183982773599
  0.7782144746118291  0.0949877609874861  0.6034264159015592
  0.5550255145397927  0.2065306731411241  0.3543288326795988
  0.4446863736896134  0.0938579096587091  0.1049449439677446
  0.2219468645423035  0.2045430924360261  0.8562421512607088
  0.1111586308623913  0.0944202914752452  0.6057555114087094
  0.9017252687137827  0.1991373118219855  0.3512834240714682
  0.7775629355287208  0.0939800306866871  0.1042965198915482
  0.5559262719604234  0.2048168526077845  0.8540606914803206
  0.4433636332168192  0.0951056744537837  0.6033722803663650
  0.2223099341706174  0.5388446990293687  0.3571726669059885
  0.1142682993414041  0.4313474347976012  0.1022663943223137
  0.8885129019136073  0.5389663741465824  0.8539798961716869
  0.7782145711974238  0.4267972762407126  0.6034263887098632
  0.5550253521083022  0.5384440975711016  0.3543286225789828
  0.4373652879621019  0.4313174673430140  0.1013495850685757
  0.2220435529611748  0.5389777645261944  0.8596554210091369
  0.1116794546665503  0.4267772878626488  0.6056950181654628
  0.8897753622304450  0.5385042578636998  0.3546984929383115
  0.7775628235848018  0.4284579646310434  0.1042964299712565
  0.5559261674042659  0.5392570191631165  0.8540607000004670
  0.4444229992356199  0.4277887614481699  0.6066903549513469
  0.2155730145889407  0.8847397561038761  0.3512604191605888
  0.1142681988174274  0.7543841819198747  0.1022662550935252
  0.8885130874182749  0.8725206536718275  0.8539799957637157
  0.7778589629321715  0.7610705304890502  0.6043091531881970
  0.5556376862881365  0.8721813320948897  0.3549884574829605
  0.4446858197396182  0.7614561882468607  0.1049449662545641
  0.2219466955829930  0.8735096404613785  0.8562421177587964
  0.1116795181163326  0.7615428613388744  0.6056951962279271
  0.8897757354340854  0.8717204558731311  0.3546984540128122
  0.7772515830682849  0.7613746031904967  0.1045500560471666
  0.5553585170676953  0.8723206864573783  0.8535532716317960
  0.4433635682342612  0.7615307485035814  0.6033724991777163
 
  0.00000000E+00  0.00000000E+00  0.00000000E+00
  0.00000000E+00  0.00000000E+00  0.00000000E+00
  0.00000000E+00  0.00000000E+00  0.00000000E+00
  0.00000000E+00  0.00000000E+00  0.00000000E+00
  0.00000000E+00  0.00000000E+00  0.00000000E+00
  0.00000000E+00  0.00000000E+00  0.00000000E+00
  0.00000000E+00  0.00000000E+00  0.00000000E+00
  0.00000000E+00  0.00000000E+00  0.00000000E+00
  0.00000000E+00  0.00000000E+00  0.00000000E+00
  0.00000000E+00  0.00000000E+00  0.00000000E+00
  0.00000000E+00  0.00000000E+00  0.00000000E+00
  0.00000000E+00  0.00000000E+00  0.00000000E+00
  0.00000000E+00  0.00000000E+00  0.00000000E+00
  0.00000000E+00  0.00000000E+00  0.00000000E+00
  0.00000000E+00  0.00000000E+00  0.00000000E+00
  0.00000000E+00  0.00000000E+00  0.00000000E+00
  0.00000000E+00  0.00000000E+00  0.00000000E+00
  0.00000000E+00  0.00000000E+00  0.00000000E+00
  0.00000000E+00  0.00000000E+00  0.00000000E+00
  0.00000000E+00  0.00000000E+00  0.00000000E+00
  0.00000000E+00  0.00000000E+00  0.00000000E+00
  0.00000000E+00  0.00000000E+00  0.00000000E+00
  0.00000000E+00  0.00000000E+00  0.00000000E+00
  0.00000000E+00  0.00000000E+00  0.00000000E+00
  0.00000000E+00  0.00000000E+00  0.00000000E+00
  0.00000000E+00  0.00000000E+00  0.00000000E+00
  0.00000000E+00  0.00000000E+00  0.00000000E+00
  0.00000000E+00  0.00000000E+00  0.00000000E+00
  0.00000000E+00  0.00000000E+00  0.00000000E+00
  0.00000000E+00  0.00000000E+00  0.00000000E+00
  0.00000000E+00  0.00000000E+00  0.00000000E+00
  0.00000000E+00  0.00000000E+00  0.00000000E+00
  0.00000000E+00  0.00000000E+00  0.00000000E+00
  0.00000000E+00  0.00000000E+00  0.00000000E+00
  0.00000000E+00  0.00000000E+00  0.00000000E+00
  0.00000000E+00  0.00000000E+00  0.00000000E+00
  0.00000000E+00  0.00000000E+00  0.00000000E+00
  0.00000000E+00  0.00000000E+00  0.00000000E+00
  0.00000000E+00  0.00000000E+00  0.00000000E+00
  0.00000000E+00  0.00000000E+00  0.00000000E+00
  0.00000000E+00  0.00000000E+00  0.00000000E+00
  0.00000000E+00  0.00000000E+00  0.00000000E+00
  0.00000000E+00  0.00000000E+00  0.00000000E+00
  0.00000000E+00  0.00000000E+00  0.00000000E+00
  0.00000000E+00  0.00000000E+00  0.00000000E+00
  0.00000000E+00  0.00000000E+00  0.00000000E+00
  0.00000000E+00  0.00000000E+00  0.00000000E+00
  0.00000000E+00  0.00000000E+00  0.00000000E+00
  0.00000000E+00  0.00000000E+00  0.00000000E+00
  0.00000000E+00  0.00000000E+00  0.00000000E+00
  0.00000000E+00  0.00000000E+00  0.00000000E+00
  0.00000000E+00  0.00000000E+00  0.00000000E+00
  0.00000000E+00  0.00000000E+00  0.00000000E+00
  0.00000000E+00  0.00000000E+00  0.00000000E+00
  0.00000000E+00  0.00000000E+00  0.00000000E+00
  0.00000000E+00  0.00000000E+00  0.00000000E+00
  0.00000000E+00  0.00000000E+00  0.00000000E+00
  0.00000000E+00  0.00000000E+00  0.00000000E+00
  0.00000000E+00  0.00000000E+00  0.00000000E+00
  0.00000000E+00  0.00000000E+00  0.00000000E+00
  0.00000000E+00  0.00000000E+00  0.00000000E+00
  0.00000000E+00  0.00000000E+00  0.00000000E+00
  0.00000000E+00  0.00000000E+00  0.00000000E+00
  0.00000000E+00  0.00000000E+00  0.00000000E+00
  0.00000000E+00  0.00000000E+00  0.00000000E+00
  0.00000000E+00  0.00000000E+00  0.00000000E+00
  0.00000000E+00  0.00000000E+00  0.00000000E+00
  0.00000000E+00  0.00000000E+00  0.00000000E+00
  0.00000000E+00  0.00000000E+00  0.00000000E+00
  0.00000000E+00  0.00000000E+00  0.00000000E+00
  0.00000000E+00  0.00000000E+00  0.00000000E+00
  0.00000000E+00  0.00000000E+00  0.00000000E+00
