supercell of POSCAR                     
   1.07329600000000     
     9.1016125577399993   -5.3128209557800004   -9.4184911254399992
     9.0821131104399999    5.2871675818400004    9.4140884809200003
    -1.5053809694200000   -7.9210976524300012    4.6939078171600004
   Al   Sc   N 
    71    24    96
Direct
  0.3043613508446938  0.2879089602626266  0.5402528329827234
  0.1445393308553022  0.2452484361813916  0.3078910708295552
  0.3087897278418907  0.4092544417844692  0.3017871971418487
  0.4680936887618046  0.3265624836857768  0.7906719072714878
  0.1413093033667963  0.4991247697695655  0.7879652755289044
  0.2989132348877774  0.1642780010167328  0.7820740943369557
  0.4715177830992090  0.4477976928083933  0.5349461460566545
  0.1417352828728653  0.1220483314150584  0.5391431012724226
  0.4746355145324372  0.0735379747958191  0.2961262849890929
  0.2772303611163167  0.1100556498310539  0.3341067439407368
  0.1126600806436500  0.2010527203901447  0.8142487457841980
  0.2764966897487895  0.3598668369321842  0.8203648789094586
  0.1130010405956554  0.3286011115440672  0.5858052307942003
  0.2742713626880828  0.4870369916150494  0.5779022200062229
  0.4470956907546864  0.2774987581873418  0.3350099234253818
  0.1131368973246012  0.4474018355734088  0.3361580409609104
  0.4479049768574015  0.4015772637241497  0.0943204289711730
  0.8066668555934484  0.2838222205403156  0.5351181303322790
  0.6429818820662661  0.2408913272589857  0.3024266922505277
  0.8113837571996925  0.4039112286429116  0.3014118328665631
  0.9675648251524009  0.3267288868766229  0.7902652261123322
  0.6408503288146221  0.4957060725179616  0.7866445950417642
  0.8008597021339270  0.1620789040043675  0.7836853175968699
  0.9711954769448496  0.4453096347274865  0.5309846036655799
  0.6408835018521017  0.1183781543042528  0.5403219815569358
  0.9760690772969980  0.0713423581344301  0.2978922592566491
  0.7755533690063032  0.1059046852998762  0.3361983707967298
  0.6134362932604702  0.0683586929899818  0.0934929373702218
  0.6138070408632359  0.1956604292369022  0.8247238445155602
  0.7765936863736442  0.3569240912694909  0.8181235676546592
  0.6126354479848573  0.3219367122405714  0.5857345662930626
  0.7739480210367589  0.4828694601720542  0.5765628394471705
  0.9600032463440087  0.2638301417830959  0.3208479640488804
  0.6126944631165401  0.4427096473741656  0.3350952483369980
  0.9489351032231568  0.3999672291140968  0.0932278761963019
  0.3026221804654767  0.7876983161698234  0.5395609708068463
  0.1413088263581059  0.7448507225262446  0.3045059358796038
  0.3063889960156203  0.9100311686968254  0.3026495485834531
  0.4661367149936737  0.8262326024485418  0.7894341092198545
  0.1358406370473446  0.0026915446366544  0.7870583913848677
  0.3007060863156781  0.6643773430382609  0.7814989669894956
  0.4694275995968127  0.9476384460253158  0.5363034662327664
  0.1421625687661532  0.6207427579903211  0.5404170915294770
  0.4765923849797318  0.5729172966284040  0.2941666945809089
  0.2775813604871971  0.6104653156185407  0.3336163688816853
  0.1145858819529835  0.5708688777784445  0.0930458740900590
  0.1145270262343629  0.6997622090464617  0.8269056092717477
  0.2726370871838597  0.8615882153915280  0.8221554574258718
  0.1100437925689093  0.8239434774794105  0.5905159645423623
  0.2716483411471557  0.9862021076120087  0.5796156596532640
  0.4460189934527108  0.7785923348270600  0.3339538238630269
  0.1090769860687146  0.9447784491806672  0.3398646358955588
  0.4452704944959081  0.9028635668102112  0.0937996463605373
  0.8029997623173983  0.7848844220873090  0.5394524903039652
  0.6413598156192037  0.7407951713214658  0.3036097685465435
  0.8058340774810731  0.9064853255633949  0.3033033706795720
  0.9667790126509175  0.8259295573079015  0.7919810149360558
  0.6389539675635092  0.9960488357534913  0.7879605818693918
  0.8007480873393362  0.6613712919644641  0.7813701592350313
  0.9685939666664751  0.9471916665967299  0.5383303060932576
  0.6422351792322161  0.6176068198099927  0.5389831037223942
  0.9764925313328021  0.5730939454815100  0.2937602384143005
  0.7777507338891780  0.6057584283211810  0.3330221604361441
  0.6146273245274472  0.5663806285153967  0.0921161237357992
  0.6132830924619057  0.6953640196156385  0.8225676030170561
  0.7749585770557346  0.8565585108194327  0.8210044818337252
  0.6104622470673107  0.8221420555770749  0.5870264503320755
  0.7703943244937861  0.9832696726830790  0.5787683482965917
  0.9461572806954024  0.7773808031390814  0.3356494478613854
  0.6094310370485445  0.9432066626809927  0.3363671051082164
  0.9445492396035888  0.8996077363387869  0.0998766112645910
  0.4786273837887691  0.1973132127106325  0.0399533477962990
  0.1412139817224727  0.3673313215690328  0.0367824414672384
  0.3046632778569318  0.0297519439918119  0.0407561911433518
  0.2799320986976426  0.2310958012160071  0.0815833803313311
  0.4448667569130222  0.0222123712317952  0.8251185249711597
  0.4445722435629591  0.1521560738096852  0.5781120076247035
  0.9922468844346071  0.1880762229477426  0.0363232924503976
  0.6432292721778623  0.3628337221573048  0.0363240599476597
  0.8086662588289499  0.0232218351519435  0.0394624655995131
  0.7889851354573665  0.2275043415430531  0.0797884358757912
  0.9438654120313714  0.0197836066277830  0.8224227923056944
  0.9471357387508590  0.1495498428371462  0.5777349316801619
  0.4805020358204146  0.6972581027852272  0.0386065402170743
  0.1361610531848783  0.8772453955646498  0.0437580707761427
  0.3101178245648555  0.5270982895307128  0.0385473620883303
  0.2812166296363330  0.7346606566679128  0.0807911939230408
  0.4478258671013577  0.5221306062215874  0.8220092126605962
  0.4451205418871425  0.6527168813462580  0.5723933473201726
  0.9807878713988956  0.6995509160545907  0.0396299457431937
  0.6392124334526557  0.8650578286169548  0.0367176553480135
  0.8116941384081358  0.5229245446149662  0.0357677496026696
  0.7801738833822043  0.7281206193897276  0.0802332478584020
  0.9496947907229938  0.5217919598884038  0.8201586091229629
  0.9461751274023769  0.6511954682212817  0.5731713811001171
  0.2415091090256496  0.3702337813058634  0.6319738583752539
  0.0802764555428510  0.3328931635099153  0.3989987364076413
  0.2419612403999096  0.4921395472437737  0.3889540287958866
  0.4200431044910786  0.2882381582763855  0.1506255363952533
  0.0731003162398167  0.4549478106072087  0.1453313383964812
  0.2483746914576770  0.1129986309619113  0.1539484433691101
  0.4034504317749068  0.4001489133961513  0.9016952623929058
  0.0729995241815686  0.0877132176910180  0.8623858879691255
  0.2362491101960345  0.2455213361796709  0.8711977636504571
  0.3986629186737431  0.0205545871234207  0.6215716828150448
  0.0854338868154727  0.2099030410862781  0.6277024337791488
  0.4081827166356007  0.1569102742269877  0.3741080753648518
  0.2195387224036267  0.1925193512635843  0.4357951210021582
  0.0415596914910736  0.1674743084083730  0.2300561119592857
  0.2166346224508260  0.3199029455803100  0.2002392373935891
  0.3719874204701128  0.1152461787477677  0.9126325741346406
  0.0465860094066883  0.2776658264933332  0.9041341287497033
  0.2123897666108405  0.4413433175810866  0.9042351700753670
  0.3742685200242306  0.2423109933610803  0.6807599847746388
  0.0423101519029814  0.4086817715825219  0.6846646572271808
  0.2124286716996480  0.0697402354644225  0.6725529937591546
  0.3823153448525574  0.3556248556781583  0.4318216208564394
  0.0466887926059059  0.0265409641761849  0.4438276925650158
  0.3883093963716533  0.4778283575205080  0.1970983597823022
  0.7402292887255939  0.3648401653471822  0.6289480536183589
  0.5761062143121052  0.3237843146815251  0.3945728120308729
  0.7407176205979482  0.4864378232724462  0.3873748829129582
  0.9236759881536969  0.2849365397924544  0.1412429540585975
  0.5732932802576087  0.4501299139026500  0.1445265889211242
  0.7365512536157439  0.1029194096079067  0.1496351468027797
  0.9018422756734097  0.4006734657932824  0.9003417035339396
  0.5844364663071886  0.0801303402529641  0.8979014515124319
  0.7367623014087457  0.2429652378742091  0.8750705313984000
  0.8944727888894946  0.0188778574501143  0.6195860286858235
  0.5842197902802724  0.2024228263084140  0.6368406772594213
  0.9000204699170311  0.1514803235218594  0.3757201438239690
  0.7152863064450941  0.1888882741529301  0.4335249805824617
  0.5553629363691925  0.1454346051077664  0.1974871925430151
  0.7187659992167283  0.3129633001568664  0.1974089500838261
  0.8704320759720545  0.1145176502514715  0.9200538404811667
  0.5448850096452418  0.2730786867484909  0.9051000664595321
  0.7112682934119405  0.4374793315005121  0.9024491928221678
  0.8739754454048736  0.2396319298027407  0.6811478590741018
  0.5427640971313750  0.4048131678799649  0.6818922728402796
  0.7105943000109107  0.0667991132582628  0.6754879565589746
  0.8848462572980580  0.3506206111796217  0.4281837773977486
  0.5468378023688700  0.0247947309018883  0.4367783007589310
  0.8886888081871902  0.4757350156734930  0.1972079276945493
  0.2383808746063849  0.8672218497730881  0.6313481795880023
  0.0738393705390976  0.8225630739922352  0.4004842312654588
  0.2390591567651441  0.9898275773659932  0.3911382932946097
  0.4197073773319886  0.7874407941140902  0.1486035632572325
  0.0631793043150566  0.9413346380202867  0.1614222371690701
  0.2384929041854207  0.6076518541042972  0.1479044606393245
  0.4013591697092664  0.8979401970557674  0.9006020040619021
  0.0869765268275344  0.5834381186558062  0.8988013344865706
  0.2382270679388725  0.7443789200124371  0.8726636239884513
  0.4008271334586695  0.5225913980814880  0.6190841560555498
  0.0847038736602386  0.7029354247540809  0.6385180298883455
  0.4059610402934553  0.6561625986571755  0.3657369794400367
  0.2171177035770384  0.6917057239048603  0.4327777503217831
  0.0564332199961655  0.6476378465717119  0.1977368419785392
  0.2156112567802069  0.8181200273978320  0.1987401345206479
  0.3730879633500166  0.6144035817410511  0.9130712576685198
  0.0460695044215242  0.7761573327037325  0.9075241420325497
  0.2080609539198406  0.9424908995614985  0.9009550063894878
  0.3739918526828205  0.7402689382003729  0.6772177527637737
  0.0396143879331561  0.9033988396890464  0.6831445577358366
  0.2131102438057582  0.5689433434630971  0.6737826175315291
  0.3807488999639830  0.8547700255574782  0.4312362825427698
  0.0485340358817723  0.5284182679783314  0.4364582620659618
  0.3863285753529127  0.9774773020116925  0.1980389690319342
  0.7374352813820551  0.8644666021564475  0.6312318796397989
  0.5740877965446955  0.8226578897563996  0.3951253517732738
  0.7362013387953041  0.9861735299930032  0.3898661273385144
  0.9135966581031951  0.7827058555850783  0.1510819205659999
  0.5706023596470331  0.9513831836614415  0.1453825381893523
  0.7380693388330926  0.6015083636963823  0.1471249755824999
  0.8994764483454389  0.8954799049513014  0.9042839110573553
  0.5859994467160874  0.5801611613993458  0.8973189577407794
  0.7359300911948452  0.7409045697826500  0.8724708576343545
  0.8995421708159981  0.5204893280233662  0.6174488452949234
  0.5842039235737815  0.7011405508569268  0.6344975877790304
  0.9047896481380917  0.6543603957904907  0.3674623350118864
  0.7168136671026488  0.6885125265799772  0.4318850894861157
  0.5566392276253040  0.6445425633322017  0.1958022904408523
  0.7141291876562192  0.8142366789598299  0.1981461057075649
  0.8735599352075099  0.6134067417610609  0.9135157761463901
  0.5442661621271725  0.7725961262333954  0.9026750314691299
  0.7092625486505071  0.9370492629826757  0.9035106789344169
  0.8734992148006171  0.7387705365494028  0.6790240892133923
  0.5414950213297232  0.9038193058799209  0.6817476230231989
  0.7123986158526492  0.5658519775694160  0.6729756887857832
  0.8798172383390792  0.8532277469388205  0.4324662675093691
  0.5486815901319630  0.5250152363689651  0.4347902351302153
  0.8833290557012106  0.9756678317059411  0.2008242012101746
 
  0.00000000E+00  0.00000000E+00  0.00000000E+00
  0.00000000E+00  0.00000000E+00  0.00000000E+00
  0.00000000E+00  0.00000000E+00  0.00000000E+00
  0.00000000E+00  0.00000000E+00  0.00000000E+00
  0.00000000E+00  0.00000000E+00  0.00000000E+00
  0.00000000E+00  0.00000000E+00  0.00000000E+00
  0.00000000E+00  0.00000000E+00  0.00000000E+00
  0.00000000E+00  0.00000000E+00  0.00000000E+00
  0.00000000E+00  0.00000000E+00  0.00000000E+00
  0.00000000E+00  0.00000000E+00  0.00000000E+00
  0.00000000E+00  0.00000000E+00  0.00000000E+00
  0.00000000E+00  0.00000000E+00  0.00000000E+00
  0.00000000E+00  0.00000000E+00  0.00000000E+00
  0.00000000E+00  0.00000000E+00  0.00000000E+00
  0.00000000E+00  0.00000000E+00  0.00000000E+00
  0.00000000E+00  0.00000000E+00  0.00000000E+00
  0.00000000E+00  0.00000000E+00  0.00000000E+00
  0.00000000E+00  0.00000000E+00  0.00000000E+00
  0.00000000E+00  0.00000000E+00  0.00000000E+00
  0.00000000E+00  0.00000000E+00  0.00000000E+00
  0.00000000E+00  0.00000000E+00  0.00000000E+00
  0.00000000E+00  0.00000000E+00  0.00000000E+00
  0.00000000E+00  0.00000000E+00  0.00000000E+00
  0.00000000E+00  0.00000000E+00  0.00000000E+00
  0.00000000E+00  0.00000000E+00  0.00000000E+00
  0.00000000E+00  0.00000000E+00  0.00000000E+00
  0.00000000E+00  0.00000000E+00  0.00000000E+00
  0.00000000E+00  0.00000000E+00  0.00000000E+00
  0.00000000E+00  0.00000000E+00  0.00000000E+00
  0.00000000E+00  0.00000000E+00  0.00000000E+00
  0.00000000E+00  0.00000000E+00  0.00000000E+00
  0.00000000E+00  0.00000000E+00  0.00000000E+00
  0.00000000E+00  0.00000000E+00  0.00000000E+00
  0.00000000E+00  0.00000000E+00  0.00000000E+00
  0.00000000E+00  0.00000000E+00  0.00000000E+00
  0.00000000E+00  0.00000000E+00  0.00000000E+00
  0.00000000E+00  0.00000000E+00  0.00000000E+00
  0.00000000E+00  0.00000000E+00  0.00000000E+00
  0.00000000E+00  0.00000000E+00  0.00000000E+00
  0.00000000E+00  0.00000000E+00  0.00000000E+00
  0.00000000E+00  0.00000000E+00  0.00000000E+00
  0.00000000E+00  0.00000000E+00  0.00000000E+00
  0.00000000E+00  0.00000000E+00  0.00000000E+00
  0.00000000E+00  0.00000000E+00  0.00000000E+00
  0.00000000E+00  0.00000000E+00  0.00000000E+00
  0.00000000E+00  0.00000000E+00  0.00000000E+00
  0.00000000E+00  0.00000000E+00  0.00000000E+00
  0.00000000E+00  0.00000000E+00  0.00000000E+00
  0.00000000E+00  0.00000000E+00  0.00000000E+00
  0.00000000E+00  0.00000000E+00  0.00000000E+00
  0.00000000E+00  0.00000000E+00  0.00000000E+00
  0.00000000E+00  0.00000000E+00  0.00000000E+00
  0.00000000E+00  0.00000000E+00  0.00000000E+00
  0.00000000E+00  0.00000000E+00  0.00000000E+00
  0.00000000E+00  0.00000000E+00  0.00000000E+00
  0.00000000E+00  0.00000000E+00  0.00000000E+00
  0.00000000E+00  0.00000000E+00  0.00000000E+00
  0.00000000E+00  0.00000000E+00  0.00000000E+00
  0.00000000E+00  0.00000000E+00  0.00000000E+00
  0.00000000E+00  0.00000000E+00  0.00000000E+00
  0.00000000E+00  0.00000000E+00  0.00000000E+00
  0.00000000E+00  0.00000000E+00  0.00000000E+00
  0.00000000E+00  0.00000000E+00  0.00000000E+00
  0.00000000E+00  0.00000000E+00  0.00000000E+00
  0.00000000E+00  0.00000000E+00  0.00000000E+00
  0.00000000E+00  0.00000000E+00  0.00000000E+00
  0.00000000E+00  0.00000000E+00  0.00000000E+00
  0.00000000E+00  0.00000000E+00  0.00000000E+00
  0.00000000E+00  0.00000000E+00  0.00000000E+00
  0.00000000E+00  0.00000000E+00  0.00000000E+00
  0.00000000E+00  0.00000000E+00  0.00000000E+00
  0.00000000E+00  0.00000000E+00  0.00000000E+00
  0.00000000E+00  0.00000000E+00  0.00000000E+00
  0.00000000E+00  0.00000000E+00  0.00000000E+00
  0.00000000E+00  0.00000000E+00  0.00000000E+00
  0.00000000E+00  0.00000000E+00  0.00000000E+00
  0.00000000E+00  0.00000000E+00  0.00000000E+00
  0.00000000E+00  0.00000000E+00  0.00000000E+00
  0.00000000E+00  0.00000000E+00  0.00000000E+00
  0.00000000E+00  0.00000000E+00  0.00000000E+00
  0.00000000E+00  0.00000000E+00  0.00000000E+00
  0.00000000E+00  0.00000000E+00  0.00000000E+00
  0.00000000E+00  0.00000000E+00  0.00000000E+00
  0.00000000E+00  0.00000000E+00  0.00000000E+00
  0.00000000E+00  0.00000000E+00  0.00000000E+00
  0.00000000E+00  0.00000000E+00  0.00000000E+00
  0.00000000E+00  0.00000000E+00  0.00000000E+00
  0.00000000E+00  0.00000000E+00  0.00000000E+00
  0.00000000E+00  0.00000000E+00  0.00000000E+00
  0.00000000E+00  0.00000000E+00  0.00000000E+00
  0.00000000E+00  0.00000000E+00  0.00000000E+00
  0.00000000E+00  0.00000000E+00  0.00000000E+00
  0.00000000E+00  0.00000000E+00  0.00000000E+00
  0.00000000E+00  0.00000000E+00  0.00000000E+00
  0.00000000E+00  0.00000000E+00  0.00000000E+00
  0.00000000E+00  0.00000000E+00  0.00000000E+00
  0.00000000E+00  0.00000000E+00  0.00000000E+00
  0.00000000E+00  0.00000000E+00  0.00000000E+00
  0.00000000E+00  0.00000000E+00  0.00000000E+00
  0.00000000E+00  0.00000000E+00  0.00000000E+00
  0.00000000E+00  0.00000000E+00  0.00000000E+00
  0.00000000E+00  0.00000000E+00  0.00000000E+00
  0.00000000E+00  0.00000000E+00  0.00000000E+00
  0.00000000E+00  0.00000000E+00  0.00000000E+00
  0.00000000E+00  0.00000000E+00  0.00000000E+00
  0.00000000E+00  0.00000000E+00  0.00000000E+00
  0.00000000E+00  0.00000000E+00  0.00000000E+00
  0.00000000E+00  0.00000000E+00  0.00000000E+00
  0.00000000E+00  0.00000000E+00  0.00000000E+00
  0.00000000E+00  0.00000000E+00  0.00000000E+00
  0.00000000E+00  0.00000000E+00  0.00000000E+00
  0.00000000E+00  0.00000000E+00  0.00000000E+00
  0.00000000E+00  0.00000000E+00  0.00000000E+00
  0.00000000E+00  0.00000000E+00  0.00000000E+00
  0.00000000E+00  0.00000000E+00  0.00000000E+00
  0.00000000E+00  0.00000000E+00  0.00000000E+00
  0.00000000E+00  0.00000000E+00  0.00000000E+00
  0.00000000E+00  0.00000000E+00  0.00000000E+00
  0.00000000E+00  0.00000000E+00  0.00000000E+00
  0.00000000E+00  0.00000000E+00  0.00000000E+00
  0.00000000E+00  0.00000000E+00  0.00000000E+00
  0.00000000E+00  0.00000000E+00  0.00000000E+00
  0.00000000E+00  0.00000000E+00  0.00000000E+00
  0.00000000E+00  0.00000000E+00  0.00000000E+00
  0.00000000E+00  0.00000000E+00  0.00000000E+00
  0.00000000E+00  0.00000000E+00  0.00000000E+00
  0.00000000E+00  0.00000000E+00  0.00000000E+00
  0.00000000E+00  0.00000000E+00  0.00000000E+00
  0.00000000E+00  0.00000000E+00  0.00000000E+00
  0.00000000E+00  0.00000000E+00  0.00000000E+00
  0.00000000E+00  0.00000000E+00  0.00000000E+00
  0.00000000E+00  0.00000000E+00  0.00000000E+00
  0.00000000E+00  0.00000000E+00  0.00000000E+00
  0.00000000E+00  0.00000000E+00  0.00000000E+00
  0.00000000E+00  0.00000000E+00  0.00000000E+00
  0.00000000E+00  0.00000000E+00  0.00000000E+00
  0.00000000E+00  0.00000000E+00  0.00000000E+00
  0.00000000E+00  0.00000000E+00  0.00000000E+00
  0.00000000E+00  0.00000000E+00  0.00000000E+00
  0.00000000E+00  0.00000000E+00  0.00000000E+00
  0.00000000E+00  0.00000000E+00  0.00000000E+00
  0.00000000E+00  0.00000000E+00  0.00000000E+00
  0.00000000E+00  0.00000000E+00  0.00000000E+00
  0.00000000E+00  0.00000000E+00  0.00000000E+00
  0.00000000E+00  0.00000000E+00  0.00000000E+00
  0.00000000E+00  0.00000000E+00  0.00000000E+00
  0.00000000E+00  0.00000000E+00  0.00000000E+00
  0.00000000E+00  0.00000000E+00  0.00000000E+00
  0.00000000E+00  0.00000000E+00  0.00000000E+00
  0.00000000E+00  0.00000000E+00  0.00000000E+00
  0.00000000E+00  0.00000000E+00  0.00000000E+00
  0.00000000E+00  0.00000000E+00  0.00000000E+00
  0.00000000E+00  0.00000000E+00  0.00000000E+00
  0.00000000E+00  0.00000000E+00  0.00000000E+00
  0.00000000E+00  0.00000000E+00  0.00000000E+00
  0.00000000E+00  0.00000000E+00  0.00000000E+00
  0.00000000E+00  0.00000000E+00  0.00000000E+00
  0.00000000E+00  0.00000000E+00  0.00000000E+00
  0.00000000E+00  0.00000000E+00  0.00000000E+00
  0.00000000E+00  0.00000000E+00  0.00000000E+00
  0.00000000E+00  0.00000000E+00  0.00000000E+00
  0.00000000E+00  0.00000000E+00  0.00000000E+00
  0.00000000E+00  0.00000000E+00  0.00000000E+00
  0.00000000E+00  0.00000000E+00  0.00000000E+00
  0.00000000E+00  0.00000000E+00  0.00000000E+00
  0.00000000E+00  0.00000000E+00  0.00000000E+00
  0.00000000E+00  0.00000000E+00  0.00000000E+00
  0.00000000E+00  0.00000000E+00  0.00000000E+00
  0.00000000E+00  0.00000000E+00  0.00000000E+00
  0.00000000E+00  0.00000000E+00  0.00000000E+00
  0.00000000E+00  0.00000000E+00  0.00000000E+00
  0.00000000E+00  0.00000000E+00  0.00000000E+00
  0.00000000E+00  0.00000000E+00  0.00000000E+00
  0.00000000E+00  0.00000000E+00  0.00000000E+00
  0.00000000E+00  0.00000000E+00  0.00000000E+00
  0.00000000E+00  0.00000000E+00  0.00000000E+00
  0.00000000E+00  0.00000000E+00  0.00000000E+00
  0.00000000E+00  0.00000000E+00  0.00000000E+00
  0.00000000E+00  0.00000000E+00  0.00000000E+00
  0.00000000E+00  0.00000000E+00  0.00000000E+00
  0.00000000E+00  0.00000000E+00  0.00000000E+00
  0.00000000E+00  0.00000000E+00  0.00000000E+00
  0.00000000E+00  0.00000000E+00  0.00000000E+00
  0.00000000E+00  0.00000000E+00  0.00000000E+00
  0.00000000E+00  0.00000000E+00  0.00000000E+00
  0.00000000E+00  0.00000000E+00  0.00000000E+00
  0.00000000E+00  0.00000000E+00  0.00000000E+00
  0.00000000E+00  0.00000000E+00  0.00000000E+00
  0.00000000E+00  0.00000000E+00  0.00000000E+00
  0.00000000E+00  0.00000000E+00  0.00000000E+00
  0.00000000E+00  0.00000000E+00  0.00000000E+00
