supercell of POSCAR                     
   1.07329600000000     
     9.1016125577399993   -5.3128209557800004   -9.4184911254399992
     9.0821131104399999    5.2871675818400004    9.4140884809200003
    -1.5053809694200000   -7.9210976524300012    4.6939078171600004
   Al   Sc   N 
    72    24    95
Direct
  0.3052829584330752  0.2837015738785595  0.5341398178872154
  0.1417320393757535  0.2415832867208962  0.3017925598288684
  0.3053442921481206  0.4072373009508325  0.3030826094762062
  0.4947658018436485  0.2962523199098470  0.7424342815764575
  0.1395857990236209  0.4989002209767648  0.7858187859952963
  0.3033026872715539  0.1604333941225065  0.7781998630139952
  0.4715857069997540  0.4477093653982394  0.5322922313798202
  0.1418340809286605  0.1190284970889408  0.5390813770456546
  0.4751955298830808  0.0712074029454968  0.2887561624975916
  0.2743858621596900  0.1066434815917745  0.3310317814583854
  0.1126117466963734  0.0684817966141935  0.0935283116631140
  0.1124337219349840  0.1929785065569547  0.8229798681789617
  0.2421606270729129  0.3461193545063352  0.7973080910303594
  0.1064752908213720  0.3227561641113752  0.5773075394769904
  0.2727873075438723  0.4859285544295560  0.5772993403236910
  0.4477123338019737  0.2746977993760567  0.3361507484281532
  0.1105928827641662  0.4461429729933073  0.3364073737482158
  0.4600820338801839  0.4039132497580695  0.1465431108521074
  0.8063166472900036  0.2874208528984212  0.5389110385024694
  0.6436278767348611  0.2422909199237182  0.3003201058220597
  0.8100004223623003  0.4091357032366076  0.3020872070556919
  0.9688237340497565  0.3271133486103466  0.7893164942544928
  0.6425100939575046  0.4975658675610362  0.7867037262509200
  0.8018956711751812  0.1638091150071546  0.7826357636957226
  0.9709165343221713  0.4497404010573405  0.5358553305260045
  0.6404564356724762  0.1215168007998741  0.5416681199764781
  0.9748525478730556  0.0739926739506274  0.2951729064022288
  0.7763271789974411  0.1092531827091960  0.3362001569213007
  0.6142157573446809  0.0685748105374415  0.0947219768138368
  0.6180125394180038  0.1941539713543676  0.8287774649424406
  0.7781359735016125  0.3595192362959523  0.8203539036269234
  0.6189430050536799  0.3261709511003019  0.5773369889018412
  0.7758542458280786  0.4876746114595747  0.5801544989381640
  0.9468213963319840  0.2787598597475309  0.3325237617287513
  0.6177763058414598  0.4474629844021791  0.3417425078441738
  0.9476250066613972  0.4032274707145760  0.0937167905092551
  0.3018216311981519  0.7860243288694306  0.5407540645341058
  0.1403053538933676  0.7436123433599349  0.3063428365014857
  0.3062117585547597  0.9083369614561008  0.3041503857310772
  0.4659626143052407  0.8259726531349258  0.7914708844781586
  0.1391275072300786  0.9963323012904084  0.7879840578609532
  0.3004083277157150  0.6609508543123752  0.7832901859842352
  0.4683377762409151  0.9447592344158693  0.5373403769084106
  0.1409147140910676  0.6200851811986752  0.5408012402559734
  0.4775920048143121  0.5787096195039965  0.2984797539329236
  0.2763321139727850  0.6101269964258975  0.3368056119979812
  0.1128952137876809  0.5706958296763887  0.0945784028545305
  0.1139522842005789  0.6971669162439511  0.8254800558624638
  0.2744757479027129  0.8568762841170425  0.8211635224608429
  0.1095467664254173  0.8236252964149458  0.5893296645973649
  0.2696881114858272  0.9829621884852600  0.5794793885577718
  0.4460659677521903  0.7784453937894327  0.3351445914439566
  0.1094293957917358  0.9448012060380933  0.3381277119635016
  0.4458976375778718  0.9003389645372266  0.0950672447755565
  0.8023294129486942  0.7882379079839907  0.5410213561133546
  0.6418797806091021  0.7446634171842348  0.3051057723935955
  0.8066567234858368  0.9096584782645252  0.3045564576240167
  0.9659815841963564  0.8268654262472808  0.7919782532534754
  0.6391195705535111  0.9966322009966149  0.7892181368745455
  0.7999303711484416  0.6643873635260178  0.7838831755545499
  0.9687416682066115  0.9488199545394593  0.5372846787104493
  0.6423986851954879  0.6210143822196628  0.5408227969242816
  0.9756247302394883  0.5747774062276818  0.2960093636513079
  0.7778065937944518  0.6109085736085262  0.3350781587678426
  0.6150094282767213  0.5713996547595599  0.0941417781564482
  0.6124201836603689  0.6967645150702566  0.8235175837418538
  0.7739753663474573  0.8584862564843903  0.8221986225202045
  0.6103511154830059  0.8240957256330006  0.5888216413769740
  0.7709573840234469  0.9866097942471725  0.5807596011002261
  0.9459132664953103  0.7798138005376032  0.3368890772765951
  0.6101192805198963  0.9457415118842007  0.3391053719506729
  0.9456628946715782  0.9032361431680513  0.0967482074736097
  0.4821592348435857  0.1963068636837519  0.0356854966493856
  0.1400120639864468  0.3668338224074574  0.0401744156997097
  0.3086297987573161  0.0234550894266903  0.0371173810298515
  0.2832498157537771  0.2291041069208717  0.0794717395442319
  0.4466898010735108  0.0200531239537725  0.8239528157775737
  0.4437107170844783  0.1386752726978386  0.5590955032739942
  0.9818381041627404  0.1975372595771105  0.0371829032899811
  0.6435522904583308  0.3660354293579431  0.0355833379794461
  0.8083645721118984  0.0252338017766220  0.0396537803217996
  0.7853945720480198  0.2307959423327759  0.0815337469084341
  0.9457304127572854  0.0211903267319116  0.8238260309611718
  0.9458489522182560  0.1518918605641417  0.5733748207152090
  0.4789546215643057  0.6945734764383715  0.0359909487690544
  0.1382936599348241  0.8670696128866950  0.0384016044639779
  0.3065338895129486  0.5284511781564305  0.0423784470574873
  0.2808358210390267  0.7345874291979300  0.0857324570739308
  0.4483044376434009  0.5137102056995033  0.8195853955178976
  0.4445357093436257  0.6525226132150266  0.5775438286639982
  0.9800487660544732  0.6993376488913796  0.0411255130526698
  0.6384660824167909  0.8656178135989663  0.0386773872041957
  0.8098622860432201  0.5270560419646486  0.0394580626387508
  0.7831358831924717  0.7333818954018554  0.0831318293952990
  0.9475686013860027  0.5242720975485256  0.8250227033856206
  0.9445904912799321  0.6545405463298195  0.5756632535953230
  0.2372011957299023  0.3648363207888465  0.6195829302386429
  0.0749058117492538  0.3248038941229581  0.3898792395627524
  0.2402758609443225  0.4894967223304008  0.3885464559125396
  0.4207728804063606  0.2863692144872800  0.1492182956129895
  0.0728401113111872  0.4537256823567546  0.1460008556424057
  0.2364519010210273  0.1044711629302810  0.1457857014996833
  0.0843689433250034  0.0811607358835928  0.8984841205895506
  0.2391966304558579  0.2408625717465682  0.8703090386127457
  0.3956010164227521  0.0168678855607993  0.6223894267431973
  0.0859761113205053  0.2048754458150626  0.6357676428750736
  0.4028161052808699  0.1537589371340644  0.3598207517842127
  0.2169087915513401  0.1898952922598198  0.4311789392207572
  0.0555391667295027  0.1465243888498193  0.1974761892471975
  0.2174434900617257  0.3152982175557568  0.1965883825311465
  0.3723475603952693  0.1143193848693969  0.9159314143099238
  0.0483839234746029  0.2749730813032656  0.9035410784320206
  0.2141112865038508  0.4381626695626721  0.9019201740814680
  0.3777769697243940  0.2364145077663267  0.6718672869840034
  0.0438235127518141  0.4053758437880006  0.6811176261487475
  0.2112088931858978  0.0676318759414443  0.6748533469855502
  0.3826504058659737  0.3544700826893319  0.4287381828685639
  0.0461530585779215  0.0274745830720562  0.4384204914367658
  0.3873776735859025  0.4793589699390495  0.1983294332058634
  0.7425539687087053  0.3686259642990350  0.6306275229125049
  0.5761784939213754  0.3255820339326192  0.3909707845303103
  0.7428950465225128  0.4909491635373655  0.3908884286820538
  0.9216792350285772  0.2882910439162458  0.1476074063323409
  0.5771926033322430  0.4544488258388597  0.1494394525205678
  0.7370706280140595  0.1062226451426724  0.1506161587069030
  0.9038863599884195  0.3999075895024546  0.9005413405103226
  0.5844896255212717  0.0815960699654923  0.8999593603216880
  0.7387517142224951  0.2447512902961719  0.8747400138348951
  0.8969862590717597  0.0230911430556588  0.6218706270127541
  0.5766609577572908  0.2116667838832029  0.6426580932401720
  0.9041341781702528  0.1574799206145627  0.3678850762118131
  0.7151719236391898  0.1927909291646017  0.4365650349689929
  0.5560346932958709  0.1469037604567092  0.1970993172200650
  0.7182659584363407  0.3168992135206992  0.1982259124895336
  0.8715772763043717  0.1148372689661414  0.9168547312073514
  0.5474731755894808  0.2742405613536221  0.9057352632518487
  0.7121076282969412  0.4396065433886065  0.9033490762120806
  0.8750707361616961  0.2408692468459179  0.6795164158084361
  0.5444966754123683  0.4055521898931502  0.6782788719278798
  0.7089573243907168  0.0707743993483732  0.6770612859891827
  0.8829025317137322  0.3557768404118349  0.4315959642474994
  0.5435932506554195  0.0302485562301058  0.4418504367566385
  0.8879760009661979  0.4781633157740544  0.1977093610853089
  0.2370765866259461  0.8655764888770747  0.6325482024035196
  0.0738171718915552  0.8253839399369340  0.3980676791202242
  0.2381789229452309  0.9892913468899778  0.3903668415560801
  0.4191967068471101  0.7848854090157289  0.1486875332711577
  0.0702716150419676  0.9532938140299763  0.1477785659569690
  0.2370461230236955  0.6070597584747830  0.1504615271593721
  0.4007888653479483  0.8985130626568534  0.9031519721194172
  0.0868957729906441  0.5807410550619636  0.8989862277833041
  0.2380646743402579  0.7412545779632396  0.8766118512627017
  0.4003490067311901  0.5191745484420309  0.6226955540226200
  0.0839308020346152  0.7029639912647809  0.6377725400223113
  0.4046889687790340  0.6561968945877652  0.3703914326963584
  0.2159042308534183  0.6907227610077769  0.4341528386054279
  0.0557559525200233  0.6474091217034399  0.1986902640259203
  0.2140408939347083  0.8176082033501046  0.2009847230363420
  0.3740906217129520  0.6038605555850936  0.9092163131649755
  0.0445614624326680  0.7738865193892082  0.9050859466352605
  0.2096162734986322  0.9377777506657168  0.9041562584800857
  0.3726511682437845  0.7396246185918613  0.6812386200989735
  0.0401067021935617  0.9061869646194225  0.6845745138137787
  0.2124260545894572  0.5670414248193367  0.6736300671146793
  0.3796128799349532  0.8534290495820187  0.4320865599238530
  0.0480902116759410  0.5267818030262674  0.4365365045019090
  0.3854781052747995  0.9751012119164031  0.1980145327322589
  0.7372971427341923  0.8684110558887923  0.6333067717430652
  0.5735510071175369  0.8261285633137732  0.3973561312450542
  0.7374499524671947  0.9909014942130554  0.3919788015253687
  0.9195987415287163  0.7888405273646626  0.1518234781070049
  0.5700635846987012  0.9532216141321683  0.1492175307403372
  0.7375773292197536  0.6066807130106469  0.1487469853156256
  0.9001353356564294  0.8993281938076692  0.9038576195033770
  0.5818025517869074  0.5784285716864304  0.8954869563768213
  0.7349506778541084  0.7430416741984018  0.8760139099205730
  0.9010040257755065  0.5235326271868317  0.6220148469329700
  0.5831309670823899  0.7030655406312505  0.6357635122607164
  0.9050360409586844  0.6572284024470889  0.3684968509254247
  0.7162528710266685  0.6919111999456078  0.4337441971593705
  0.5561521227038924  0.6477203464020747  0.1974075960577792
  0.7155494200807482  0.8178515889273399  0.2003356566240697
  0.8720871535462464  0.6156829123465002  0.9163853724997608
  0.5432049636111529  0.7726529086673608  0.9050878961553224
  0.7088754900208585  0.9389416490218068  0.9063692649182400
  0.8721817383669759  0.7418073835938230  0.6810037525264505
  0.5405292421052721  0.9054313361831277  0.6850455877868740
  0.7122706945486073  0.5685851312880175  0.6744228443024411
  0.8798843360326032  0.8559956679353817  0.4336906324514800
  0.5483923072788670  0.5263420466819753  0.4351887426276164
  0.8856437367205885  0.9781877681607085  0.2003481162783132
 
  0.00000000E+00  0.00000000E+00  0.00000000E+00
  0.00000000E+00  0.00000000E+00  0.00000000E+00
  0.00000000E+00  0.00000000E+00  0.00000000E+00
  0.00000000E+00  0.00000000E+00  0.00000000E+00
  0.00000000E+00  0.00000000E+00  0.00000000E+00
  0.00000000E+00  0.00000000E+00  0.00000000E+00
  0.00000000E+00  0.00000000E+00  0.00000000E+00
  0.00000000E+00  0.00000000E+00  0.00000000E+00
  0.00000000E+00  0.00000000E+00  0.00000000E+00
  0.00000000E+00  0.00000000E+00  0.00000000E+00
  0.00000000E+00  0.00000000E+00  0.00000000E+00
  0.00000000E+00  0.00000000E+00  0.00000000E+00
  0.00000000E+00  0.00000000E+00  0.00000000E+00
  0.00000000E+00  0.00000000E+00  0.00000000E+00
  0.00000000E+00  0.00000000E+00  0.00000000E+00
  0.00000000E+00  0.00000000E+00  0.00000000E+00
  0.00000000E+00  0.00000000E+00  0.00000000E+00
  0.00000000E+00  0.00000000E+00  0.00000000E+00
  0.00000000E+00  0.00000000E+00  0.00000000E+00
  0.00000000E+00  0.00000000E+00  0.00000000E+00
  0.00000000E+00  0.00000000E+00  0.00000000E+00
  0.00000000E+00  0.00000000E+00  0.00000000E+00
  0.00000000E+00  0.00000000E+00  0.00000000E+00
  0.00000000E+00  0.00000000E+00  0.00000000E+00
  0.00000000E+00  0.00000000E+00  0.00000000E+00
  0.00000000E+00  0.00000000E+00  0.00000000E+00
  0.00000000E+00  0.00000000E+00  0.00000000E+00
  0.00000000E+00  0.00000000E+00  0.00000000E+00
  0.00000000E+00  0.00000000E+00  0.00000000E+00
  0.00000000E+00  0.00000000E+00  0.00000000E+00
  0.00000000E+00  0.00000000E+00  0.00000000E+00
  0.00000000E+00  0.00000000E+00  0.00000000E+00
  0.00000000E+00  0.00000000E+00  0.00000000E+00
  0.00000000E+00  0.00000000E+00  0.00000000E+00
  0.00000000E+00  0.00000000E+00  0.00000000E+00
  0.00000000E+00  0.00000000E+00  0.00000000E+00
  0.00000000E+00  0.00000000E+00  0.00000000E+00
  0.00000000E+00  0.00000000E+00  0.00000000E+00
  0.00000000E+00  0.00000000E+00  0.00000000E+00
  0.00000000E+00  0.00000000E+00  0.00000000E+00
  0.00000000E+00  0.00000000E+00  0.00000000E+00
  0.00000000E+00  0.00000000E+00  0.00000000E+00
  0.00000000E+00  0.00000000E+00  0.00000000E+00
  0.00000000E+00  0.00000000E+00  0.00000000E+00
  0.00000000E+00  0.00000000E+00  0.00000000E+00
  0.00000000E+00  0.00000000E+00  0.00000000E+00
  0.00000000E+00  0.00000000E+00  0.00000000E+00
  0.00000000E+00  0.00000000E+00  0.00000000E+00
  0.00000000E+00  0.00000000E+00  0.00000000E+00
  0.00000000E+00  0.00000000E+00  0.00000000E+00
  0.00000000E+00  0.00000000E+00  0.00000000E+00
  0.00000000E+00  0.00000000E+00  0.00000000E+00
  0.00000000E+00  0.00000000E+00  0.00000000E+00
  0.00000000E+00  0.00000000E+00  0.00000000E+00
  0.00000000E+00  0.00000000E+00  0.00000000E+00
  0.00000000E+00  0.00000000E+00  0.00000000E+00
  0.00000000E+00  0.00000000E+00  0.00000000E+00
  0.00000000E+00  0.00000000E+00  0.00000000E+00
  0.00000000E+00  0.00000000E+00  0.00000000E+00
  0.00000000E+00  0.00000000E+00  0.00000000E+00
  0.00000000E+00  0.00000000E+00  0.00000000E+00
  0.00000000E+00  0.00000000E+00  0.00000000E+00
  0.00000000E+00  0.00000000E+00  0.00000000E+00
  0.00000000E+00  0.00000000E+00  0.00000000E+00
  0.00000000E+00  0.00000000E+00  0.00000000E+00
  0.00000000E+00  0.00000000E+00  0.00000000E+00
  0.00000000E+00  0.00000000E+00  0.00000000E+00
  0.00000000E+00  0.00000000E+00  0.00000000E+00
  0.00000000E+00  0.00000000E+00  0.00000000E+00
  0.00000000E+00  0.00000000E+00  0.00000000E+00
  0.00000000E+00  0.00000000E+00  0.00000000E+00
  0.00000000E+00  0.00000000E+00  0.00000000E+00
  0.00000000E+00  0.00000000E+00  0.00000000E+00
  0.00000000E+00  0.00000000E+00  0.00000000E+00
  0.00000000E+00  0.00000000E+00  0.00000000E+00
  0.00000000E+00  0.00000000E+00  0.00000000E+00
  0.00000000E+00  0.00000000E+00  0.00000000E+00
  0.00000000E+00  0.00000000E+00  0.00000000E+00
  0.00000000E+00  0.00000000E+00  0.00000000E+00
  0.00000000E+00  0.00000000E+00  0.00000000E+00
  0.00000000E+00  0.00000000E+00  0.00000000E+00
  0.00000000E+00  0.00000000E+00  0.00000000E+00
  0.00000000E+00  0.00000000E+00  0.00000000E+00
  0.00000000E+00  0.00000000E+00  0.00000000E+00
  0.00000000E+00  0.00000000E+00  0.00000000E+00
  0.00000000E+00  0.00000000E+00  0.00000000E+00
  0.00000000E+00  0.00000000E+00  0.00000000E+00
  0.00000000E+00  0.00000000E+00  0.00000000E+00
  0.00000000E+00  0.00000000E+00  0.00000000E+00
  0.00000000E+00  0.00000000E+00  0.00000000E+00
  0.00000000E+00  0.00000000E+00  0.00000000E+00
  0.00000000E+00  0.00000000E+00  0.00000000E+00
  0.00000000E+00  0.00000000E+00  0.00000000E+00
  0.00000000E+00  0.00000000E+00  0.00000000E+00
  0.00000000E+00  0.00000000E+00  0.00000000E+00
  0.00000000E+00  0.00000000E+00  0.00000000E+00
  0.00000000E+00  0.00000000E+00  0.00000000E+00
  0.00000000E+00  0.00000000E+00  0.00000000E+00
  0.00000000E+00  0.00000000E+00  0.00000000E+00
  0.00000000E+00  0.00000000E+00  0.00000000E+00
  0.00000000E+00  0.00000000E+00  0.00000000E+00
  0.00000000E+00  0.00000000E+00  0.00000000E+00
  0.00000000E+00  0.00000000E+00  0.00000000E+00
  0.00000000E+00  0.00000000E+00  0.00000000E+00
  0.00000000E+00  0.00000000E+00  0.00000000E+00
  0.00000000E+00  0.00000000E+00  0.00000000E+00
  0.00000000E+00  0.00000000E+00  0.00000000E+00
  0.00000000E+00  0.00000000E+00  0.00000000E+00
  0.00000000E+00  0.00000000E+00  0.00000000E+00
  0.00000000E+00  0.00000000E+00  0.00000000E+00
  0.00000000E+00  0.00000000E+00  0.00000000E+00
  0.00000000E+00  0.00000000E+00  0.00000000E+00
  0.00000000E+00  0.00000000E+00  0.00000000E+00
  0.00000000E+00  0.00000000E+00  0.00000000E+00
  0.00000000E+00  0.00000000E+00  0.00000000E+00
  0.00000000E+00  0.00000000E+00  0.00000000E+00
  0.00000000E+00  0.00000000E+00  0.00000000E+00
  0.00000000E+00  0.00000000E+00  0.00000000E+00
  0.00000000E+00  0.00000000E+00  0.00000000E+00
  0.00000000E+00  0.00000000E+00  0.00000000E+00
  0.00000000E+00  0.00000000E+00  0.00000000E+00
  0.00000000E+00  0.00000000E+00  0.00000000E+00
  0.00000000E+00  0.00000000E+00  0.00000000E+00
  0.00000000E+00  0.00000000E+00  0.00000000E+00
  0.00000000E+00  0.00000000E+00  0.00000000E+00
  0.00000000E+00  0.00000000E+00  0.00000000E+00
  0.00000000E+00  0.00000000E+00  0.00000000E+00
  0.00000000E+00  0.00000000E+00  0.00000000E+00
  0.00000000E+00  0.00000000E+00  0.00000000E+00
  0.00000000E+00  0.00000000E+00  0.00000000E+00
  0.00000000E+00  0.00000000E+00  0.00000000E+00
  0.00000000E+00  0.00000000E+00  0.00000000E+00
  0.00000000E+00  0.00000000E+00  0.00000000E+00
  0.00000000E+00  0.00000000E+00  0.00000000E+00
  0.00000000E+00  0.00000000E+00  0.00000000E+00
  0.00000000E+00  0.00000000E+00  0.00000000E+00
  0.00000000E+00  0.00000000E+00  0.00000000E+00
  0.00000000E+00  0.00000000E+00  0.00000000E+00
  0.00000000E+00  0.00000000E+00  0.00000000E+00
  0.00000000E+00  0.00000000E+00  0.00000000E+00
  0.00000000E+00  0.00000000E+00  0.00000000E+00
  0.00000000E+00  0.00000000E+00  0.00000000E+00
  0.00000000E+00  0.00000000E+00  0.00000000E+00
  0.00000000E+00  0.00000000E+00  0.00000000E+00
  0.00000000E+00  0.00000000E+00  0.00000000E+00
  0.00000000E+00  0.00000000E+00  0.00000000E+00
  0.00000000E+00  0.00000000E+00  0.00000000E+00
  0.00000000E+00  0.00000000E+00  0.00000000E+00
  0.00000000E+00  0.00000000E+00  0.00000000E+00
  0.00000000E+00  0.00000000E+00  0.00000000E+00
  0.00000000E+00  0.00000000E+00  0.00000000E+00
  0.00000000E+00  0.00000000E+00  0.00000000E+00
  0.00000000E+00  0.00000000E+00  0.00000000E+00
  0.00000000E+00  0.00000000E+00  0.00000000E+00
  0.00000000E+00  0.00000000E+00  0.00000000E+00
  0.00000000E+00  0.00000000E+00  0.00000000E+00
  0.00000000E+00  0.00000000E+00  0.00000000E+00
  0.00000000E+00  0.00000000E+00  0.00000000E+00
  0.00000000E+00  0.00000000E+00  0.00000000E+00
  0.00000000E+00  0.00000000E+00  0.00000000E+00
  0.00000000E+00  0.00000000E+00  0.00000000E+00
  0.00000000E+00  0.00000000E+00  0.00000000E+00
  0.00000000E+00  0.00000000E+00  0.00000000E+00
  0.00000000E+00  0.00000000E+00  0.00000000E+00
  0.00000000E+00  0.00000000E+00  0.00000000E+00
  0.00000000E+00  0.00000000E+00  0.00000000E+00
  0.00000000E+00  0.00000000E+00  0.00000000E+00
  0.00000000E+00  0.00000000E+00  0.00000000E+00
  0.00000000E+00  0.00000000E+00  0.00000000E+00
  0.00000000E+00  0.00000000E+00  0.00000000E+00
  0.00000000E+00  0.00000000E+00  0.00000000E+00
  0.00000000E+00  0.00000000E+00  0.00000000E+00
  0.00000000E+00  0.00000000E+00  0.00000000E+00
  0.00000000E+00  0.00000000E+00  0.00000000E+00
  0.00000000E+00  0.00000000E+00  0.00000000E+00
  0.00000000E+00  0.00000000E+00  0.00000000E+00
  0.00000000E+00  0.00000000E+00  0.00000000E+00
  0.00000000E+00  0.00000000E+00  0.00000000E+00
  0.00000000E+00  0.00000000E+00  0.00000000E+00
  0.00000000E+00  0.00000000E+00  0.00000000E+00
  0.00000000E+00  0.00000000E+00  0.00000000E+00
  0.00000000E+00  0.00000000E+00  0.00000000E+00
  0.00000000E+00  0.00000000E+00  0.00000000E+00
  0.00000000E+00  0.00000000E+00  0.00000000E+00
  0.00000000E+00  0.00000000E+00  0.00000000E+00
  0.00000000E+00  0.00000000E+00  0.00000000E+00
  0.00000000E+00  0.00000000E+00  0.00000000E+00
  0.00000000E+00  0.00000000E+00  0.00000000E+00
  0.00000000E+00  0.00000000E+00  0.00000000E+00
  0.00000000E+00  0.00000000E+00  0.00000000E+00
  0.00000000E+00  0.00000000E+00  0.00000000E+00
