supercell of POSCAR                     
   1.07329600000000     
     9.1016125577399993   -5.3128209557800004   -9.4184911254399992
     9.0821131104399999    5.2871675818400004    9.4140884809200003
    -1.5053809694200000   -7.9210976524300012    4.6939078171600004
   Al   Sc   N 
    71    24    96
Direct
  0.3038043597321192  0.2887801444211675  0.5399123399881631
  0.1441018966455516  0.2414603421861230  0.3027910245200047
  0.3077698398792776  0.4069608056215017  0.2989354163126094
  0.4678235131918314  0.3295479023608721  0.7913214247107732
  0.1401763751340681  0.4983949207923644  0.7854683924996095
  0.4697414939481206  0.4482673304038300  0.5360945197948155
  0.1422792724309119  0.1182264213578179  0.5432831785671297
  0.4747513998881843  0.0741390159890827  0.2997987945081846
  0.2762963965195766  0.1087933965548302  0.3369135285438887
  0.1131688505221362  0.0686849453131160  0.0944767001829803
  0.1155480869094205  0.1961419566526814  0.8237463681676118
  0.2775448194253656  0.3570263699811775  0.8184294304181918
  0.1111720856089633  0.3232863697194475  0.5866203776955885
  0.2721787547081576  0.4853460161961110  0.5767732343657315
  0.4456025563599724  0.2788747241456164  0.3373770070711331
  0.1126659416164415  0.4419864405346701  0.3308247827594641
  0.4477901700080338  0.4031552696226299  0.0960397247281009
  0.8025123584728604  0.2859633036550662  0.5387069022053197
  0.6417419805395781  0.2424998710085120  0.3065806846175718
  0.8085003120859255  0.4071380666169873  0.3008904919150339
  0.9655838268890022  0.3260381642607086  0.7883950855559334
  0.6412099631382873  0.4987937354748340  0.7878311297284952
  0.7991656633916193  0.1624887109635367  0.7812010144722166
  0.9706209671246242  0.4476383361480387  0.5331965652012727
  0.6385848597014316  0.1193570836801712  0.5407759645316546
  0.9745078506755362  0.0729584574594142  0.2935009146771463
  0.7759800920911033  0.1080679117851773  0.3346028164853365
  0.6128403027792899  0.0685935212821889  0.0945921741758582
  0.6121342001086845  0.1970279839016484  0.8235887977622767
  0.7748244461213432  0.3581484383076941  0.8196171224080331
  0.6092350911838125  0.3239354616495618  0.5892887872390205
  0.7726704506916633  0.4847087299380419  0.5776283742207582
  0.9471851792030606  0.2773879213764801  0.3332656797363995
  0.6111241505428140  0.4443301708333323  0.3370330424384136
  0.9504129836342230  0.4002581618214478  0.0921734989044580
  0.3033257277235251  0.7862454134829093  0.5397135473168788
  0.1428222236012289  0.7418441016830926  0.3028600434687263
  0.3079659196029070  0.9079444822511391  0.3052420104985174
  0.4667733617890732  0.8283687355763192  0.7899587158742634
  0.1395427535786169  0.9968628465467901  0.7875255077343084
  0.3004917098486501  0.6632171457322187  0.7810646238925472
  0.4683706546118387  0.9499188717755302  0.5400448432024518
  0.1417855103337615  0.6190780037024481  0.5373293035327791
  0.4762241446858297  0.5735218280307137  0.2945585954116368
  0.2776432969050546  0.6078663113619598  0.3322422438146049
  0.1158468660132712  0.5652087231792251  0.0908745535772582
  0.1136667053061657  0.6967294956111445  0.8221151432828435
  0.2749212975551671  0.8584925705862148  0.8205994174504099
  0.1110797594496944  0.8246391103277020  0.5881884063424963
  0.2692611794630650  0.9862110120459349  0.5828234933956367
  0.4474287647431510  0.7789226747544618  0.3352859018957801
  0.1112387372010915  0.9458642066230780  0.3385814001763023
  0.4473032741224756  0.9026436061940259  0.0954288953838969
  0.8033255227056557  0.7863153519478772  0.5384222408002444
  0.6425985613691978  0.7421342234904458  0.3033538577095030
  0.8074919954392428  0.9076531588070225  0.3017970347181205
  0.9658282470350059  0.8254634791161024  0.7894665933511575
  0.6370786302866236  0.9973977920651080  0.7878304671678364
  0.8004361803645637  0.6628006589266704  0.7813454928039221
  0.9701284509908987  0.9481260577537896  0.5356189455088938
  0.6420298252255563  0.6191952335866802  0.5392586090954410
  0.9771240699451056  0.5721195028333739  0.2934448247280130
  0.7778343428789753  0.6077146045754134  0.3332998381455852
  0.6153013212454042  0.5689556154741169  0.0934735153927022
  0.6140779794719364  0.6975929631494253  0.8233025081949279
  0.7749268034870411  0.8585731581057914  0.8196168352169764
  0.6109491264738907  0.8238807566793795  0.5869003035251765
  0.7717627466876635  0.9854741984210875  0.5787725552881895
  0.9477316567403165  0.7781065099713729  0.3338989759436473
  0.6102558580212687  0.9445576274439418  0.3375843371254916
  0.9468327165853268  0.9012585677461047  0.0942058938884216
  0.4845892438671129  0.1995188862964739  0.0457954933369678
  0.1490858426833270  0.3561014646252332  0.0228079326115136
  0.3072047813720147  0.0225536075493977  0.0465289154878263
  0.2876055332526803  0.2253311231326052  0.0724940081980421
  0.4400496410362820  0.0283433802300976  0.8325292066016985
  0.4366562548413171  0.1571167083831995  0.5857126291719510
  0.9806201438915281  0.1962855506340944  0.0368555311733516
  0.6409338979396821  0.3662776689951883  0.0368211339327615
  0.8083303203541661  0.0244912172666147  0.0368854231799887
  0.7825544945859804  0.2299030948673320  0.0806338141237504
  0.9471403814798833  0.0212599673916003  0.8223630435823139
  0.9456244488020147  0.1521177275442369  0.5733446233967356
  0.4823368397982222  0.6976833057585097  0.0381168518604085
  0.1396189829719674  0.8650275063188957  0.0370973901780971
  0.3110446972149177  0.5254185103277180  0.0353187864510218
  0.2845062079989802  0.7312197839517509  0.0803217380280472
  0.4484609809934668  0.5231287734249292  0.8219003157107281
  0.4453834950481834  0.6529292969351204  0.5733796505949869
  0.9825556765820878  0.6950202629095728  0.0371889924696092
  0.6409238902244709  0.8655600760671192  0.0366853170720987
  0.8113935513924062  0.5236352354976006  0.0370148098474345
  0.7844421115919431  0.7298931322886446  0.0800447346147450
  0.9476562965799289  0.5209443439230270  0.8198588653694472
  0.9451220709316530  0.6523892423793995  0.5723560199937765
  0.2370879400236916  0.3686139250461054  0.6296520100574554
  0.0745884125052925  0.3238686652126859  0.3944172801704369
  0.2398129727803138  0.4892849679036786  0.3871900874947656
  0.4228277796871538  0.2902297800773255  0.1530373876552247
  0.0749876510830347  0.4483686359514678  0.1404912402990419
  0.2350091297361274  0.1038762228035424  0.1524911223611625
  0.4037954559435235  0.4037731932217525  0.9052590835121634
  0.0832778235254565  0.0808626925571048  0.9001974365202514
  0.2237671614761325  0.2629566760548059  0.9012406844025094
  0.3968498062542167  0.0213440158003522  0.6248244106219616
  0.0836459939834455  0.2035672804976869  0.6357991875394262
  0.4045594135423514  0.1565547840285930  0.3716225953971843
  0.2165686216985279  0.1905899864502700  0.4355587974148278
  0.0548554956851319  0.1460815458930753  0.1980203162856569
  0.2188862086507797  0.3137681042024738  0.2006106335414799
  0.3782445718005363  0.1124808711920906  0.9478287734213708
  0.0390096088169258  0.2716207322259621  0.9006130887325838
  0.2130086573268883  0.4450876681047546  0.8998374304398027
  0.3810081431796561  0.2568409984520414  0.6728478776968672
  0.0402983053598973  0.4064748678488144  0.6822588316385065
  0.1967948426703998  0.0540102956870427  0.6625218410939340
  0.3811517875357922  0.3579533494043758  0.4295802604024956
  0.0438889349408882  0.0259358270908479  0.4332134147125331
  0.3877419277119216  0.4787948580714385  0.1980716366902442
  0.7383916589265027  0.3668409505568633  0.6307541265783811
  0.5754218321469295  0.3254303212989953  0.3975149909774203
  0.7400731361174877  0.4886300862678112  0.3882061547634734
  0.9188390900267436  0.2863406859852233  0.1483526625018285
  0.5733170776009899  0.4533560933051461  0.1468734069762192
  0.7371675990938655  0.1040972527619175  0.1484117098265401
  0.9006467643198803  0.3998801452110001  0.9004844945526997
  0.5842545060952773  0.0816935909239334  0.8989643722494165
  0.7362748542517537  0.2432813902560653  0.8738889234690959
  0.8978020976630674  0.0218517350796361  0.6197710316868665
  0.5816962937211940  0.2029668611421798  0.6359138766384191
  0.9036586494929679  0.1556229892362566  0.3666612667740381
  0.7163115378436729  0.1898918635539033  0.4347467348091172
  0.5582673247995018  0.1453501076194428  0.2045117238529954
  0.7162729355874262  0.3152316538139175  0.1991300561014171
  0.8703688937731400  0.1132125531977266  0.9141037601733757
  0.5461563607132405  0.2760566274255964  0.9045514558274732
  0.7111860456730668  0.4396282694292140  0.9038249469857220
  0.8721428725990137  0.2399413880690915  0.6779140853920893
  0.5446240704333576  0.4107621679085582  0.6845917443839511
  0.7102372019792966  0.0674197242177001  0.6743903987895123
  0.8810184272909609  0.3539361076680407  0.4312533254853079
  0.5475517254332800  0.0243836221882319  0.4380725708003581
  0.8888946084983971  0.4754057332657808  0.1970726823981934
  0.2387582810204023  0.8641967007018252  0.6313685964031066
  0.0752504577373827  0.8240298734693354  0.3951954154024619
  0.2395606509088637  0.9879156258462913  0.3889289100506730
  0.4217119387948358  0.7871369211861960  0.1496947887557738
  0.0707683282005007  0.9514514045085249  0.1462054140019475
  0.2389701365575050  0.6057793927177144  0.1467658102895726
  0.4015134229667368  0.8983314987790862  0.9023464408085431
  0.0840416276650728  0.5821830760283504  0.8968539437796466
  0.2365761429640827  0.7425671266617755  0.8738322533904892
  0.3984525023654584  0.5231595139182943  0.6196385093672987
  0.0837254765964914  0.7024546231344075  0.6339747994820470
  0.4057937074690230  0.6564357170814716  0.3669261724108495
  0.2175152867520467  0.6900311318833587  0.4317401054312384
  0.0578185257056063  0.6441591173531265  0.1964397957449648
  0.2172332858811643  0.8153248158432618  0.1982672903593539
  0.3737903169706698  0.6164506704308153  0.9140694914101815
  0.0440045031060521  0.7729829679544196  0.9030948072285696
  0.2087995196892507  0.9366400551552161  0.9044766153756143
  0.3743031295879433  0.7403794328980595  0.6792232810484364
  0.0374552252961990  0.9025066929920627  0.6833810794246986
  0.2116895542735335  0.5690605292290627  0.6721689987738770
  0.3819161241332623  0.8540360940525460  0.4336944632327899
  0.0482733622116740  0.5250031645578446  0.4341945948761108
  0.3887046767804350  0.9751938120642336  0.2041765492581433
  0.7390296460533534  0.8665365233470581  0.6302550044794799
  0.5761210796885194  0.8236228343931415  0.3947850787875424
  0.7391192072077999  0.9882196293788894  0.3888626051926636
  0.9212883982366051  0.7858556256547402  0.1480978041523144
  0.5726126029542655  0.9513821312283284  0.1459525298501561
  0.7392991454484132  0.6040504987643658  0.1474725178514902
  0.9006725578712746  0.8984065230265941  0.9016205869388472
  0.5868509618198985  0.5832913761332179  0.8993479375742908
  0.7373212092587806  0.7434219436232610  0.8739092719383947
  0.8987480105685961  0.5218694879076864  0.6173315706449642
  0.5850811206980566  0.7029432675234446  0.6352233684402293
  0.9058284820105484  0.6552942482255446  0.3653918212382479
  0.7175989721985161  0.6898800815819754  0.4322201341036163
  0.5574583449796648  0.6461791549432192  0.1976302389655231
  0.7173514908989702  0.8146340270511274  0.1975747937463694
  0.8722570646843195  0.6138274242443487  0.9138232565859425
  0.5453646332536692  0.7747241446968189  0.9031656866686006
  0.7094859196259904  0.9385621136156672  0.9024486033297165
  0.8726797506396125  0.7394613859000572  0.6783093263057438
  0.5423900884888795  0.9040254818991755  0.6812803205532276
  0.7128648174131271  0.5682835035721538  0.6736865690705613
  0.8810478892007438  0.8539537963948547  0.4307790194622996
  0.5481067740877066  0.5267871497799987  0.4365684395014284
  0.8855490208600401  0.9757984503645574  0.1963795152480543
 
  0.00000000E+00  0.00000000E+00  0.00000000E+00
  0.00000000E+00  0.00000000E+00  0.00000000E+00
  0.00000000E+00  0.00000000E+00  0.00000000E+00
  0.00000000E+00  0.00000000E+00  0.00000000E+00
  0.00000000E+00  0.00000000E+00  0.00000000E+00
  0.00000000E+00  0.00000000E+00  0.00000000E+00
  0.00000000E+00  0.00000000E+00  0.00000000E+00
  0.00000000E+00  0.00000000E+00  0.00000000E+00
  0.00000000E+00  0.00000000E+00  0.00000000E+00
  0.00000000E+00  0.00000000E+00  0.00000000E+00
  0.00000000E+00  0.00000000E+00  0.00000000E+00
  0.00000000E+00  0.00000000E+00  0.00000000E+00
  0.00000000E+00  0.00000000E+00  0.00000000E+00
  0.00000000E+00  0.00000000E+00  0.00000000E+00
  0.00000000E+00  0.00000000E+00  0.00000000E+00
  0.00000000E+00  0.00000000E+00  0.00000000E+00
  0.00000000E+00  0.00000000E+00  0.00000000E+00
  0.00000000E+00  0.00000000E+00  0.00000000E+00
  0.00000000E+00  0.00000000E+00  0.00000000E+00
  0.00000000E+00  0.00000000E+00  0.00000000E+00
  0.00000000E+00  0.00000000E+00  0.00000000E+00
  0.00000000E+00  0.00000000E+00  0.00000000E+00
  0.00000000E+00  0.00000000E+00  0.00000000E+00
  0.00000000E+00  0.00000000E+00  0.00000000E+00
  0.00000000E+00  0.00000000E+00  0.00000000E+00
  0.00000000E+00  0.00000000E+00  0.00000000E+00
  0.00000000E+00  0.00000000E+00  0.00000000E+00
  0.00000000E+00  0.00000000E+00  0.00000000E+00
  0.00000000E+00  0.00000000E+00  0.00000000E+00
  0.00000000E+00  0.00000000E+00  0.00000000E+00
  0.00000000E+00  0.00000000E+00  0.00000000E+00
  0.00000000E+00  0.00000000E+00  0.00000000E+00
  0.00000000E+00  0.00000000E+00  0.00000000E+00
  0.00000000E+00  0.00000000E+00  0.00000000E+00
  0.00000000E+00  0.00000000E+00  0.00000000E+00
  0.00000000E+00  0.00000000E+00  0.00000000E+00
  0.00000000E+00  0.00000000E+00  0.00000000E+00
  0.00000000E+00  0.00000000E+00  0.00000000E+00
  0.00000000E+00  0.00000000E+00  0.00000000E+00
  0.00000000E+00  0.00000000E+00  0.00000000E+00
  0.00000000E+00  0.00000000E+00  0.00000000E+00
  0.00000000E+00  0.00000000E+00  0.00000000E+00
  0.00000000E+00  0.00000000E+00  0.00000000E+00
  0.00000000E+00  0.00000000E+00  0.00000000E+00
  0.00000000E+00  0.00000000E+00  0.00000000E+00
  0.00000000E+00  0.00000000E+00  0.00000000E+00
  0.00000000E+00  0.00000000E+00  0.00000000E+00
  0.00000000E+00  0.00000000E+00  0.00000000E+00
  0.00000000E+00  0.00000000E+00  0.00000000E+00
  0.00000000E+00  0.00000000E+00  0.00000000E+00
  0.00000000E+00  0.00000000E+00  0.00000000E+00
  0.00000000E+00  0.00000000E+00  0.00000000E+00
  0.00000000E+00  0.00000000E+00  0.00000000E+00
  0.00000000E+00  0.00000000E+00  0.00000000E+00
  0.00000000E+00  0.00000000E+00  0.00000000E+00
  0.00000000E+00  0.00000000E+00  0.00000000E+00
  0.00000000E+00  0.00000000E+00  0.00000000E+00
  0.00000000E+00  0.00000000E+00  0.00000000E+00
  0.00000000E+00  0.00000000E+00  0.00000000E+00
  0.00000000E+00  0.00000000E+00  0.00000000E+00
  0.00000000E+00  0.00000000E+00  0.00000000E+00
  0.00000000E+00  0.00000000E+00  0.00000000E+00
  0.00000000E+00  0.00000000E+00  0.00000000E+00
  0.00000000E+00  0.00000000E+00  0.00000000E+00
  0.00000000E+00  0.00000000E+00  0.00000000E+00
  0.00000000E+00  0.00000000E+00  0.00000000E+00
  0.00000000E+00  0.00000000E+00  0.00000000E+00
  0.00000000E+00  0.00000000E+00  0.00000000E+00
  0.00000000E+00  0.00000000E+00  0.00000000E+00
  0.00000000E+00  0.00000000E+00  0.00000000E+00
  0.00000000E+00  0.00000000E+00  0.00000000E+00
  0.00000000E+00  0.00000000E+00  0.00000000E+00
  0.00000000E+00  0.00000000E+00  0.00000000E+00
  0.00000000E+00  0.00000000E+00  0.00000000E+00
  0.00000000E+00  0.00000000E+00  0.00000000E+00
  0.00000000E+00  0.00000000E+00  0.00000000E+00
  0.00000000E+00  0.00000000E+00  0.00000000E+00
  0.00000000E+00  0.00000000E+00  0.00000000E+00
  0.00000000E+00  0.00000000E+00  0.00000000E+00
  0.00000000E+00  0.00000000E+00  0.00000000E+00
  0.00000000E+00  0.00000000E+00  0.00000000E+00
  0.00000000E+00  0.00000000E+00  0.00000000E+00
  0.00000000E+00  0.00000000E+00  0.00000000E+00
  0.00000000E+00  0.00000000E+00  0.00000000E+00
  0.00000000E+00  0.00000000E+00  0.00000000E+00
  0.00000000E+00  0.00000000E+00  0.00000000E+00
  0.00000000E+00  0.00000000E+00  0.00000000E+00
  0.00000000E+00  0.00000000E+00  0.00000000E+00
  0.00000000E+00  0.00000000E+00  0.00000000E+00
  0.00000000E+00  0.00000000E+00  0.00000000E+00
  0.00000000E+00  0.00000000E+00  0.00000000E+00
  0.00000000E+00  0.00000000E+00  0.00000000E+00
  0.00000000E+00  0.00000000E+00  0.00000000E+00
  0.00000000E+00  0.00000000E+00  0.00000000E+00
  0.00000000E+00  0.00000000E+00  0.00000000E+00
  0.00000000E+00  0.00000000E+00  0.00000000E+00
  0.00000000E+00  0.00000000E+00  0.00000000E+00
  0.00000000E+00  0.00000000E+00  0.00000000E+00
  0.00000000E+00  0.00000000E+00  0.00000000E+00
  0.00000000E+00  0.00000000E+00  0.00000000E+00
  0.00000000E+00  0.00000000E+00  0.00000000E+00
  0.00000000E+00  0.00000000E+00  0.00000000E+00
  0.00000000E+00  0.00000000E+00  0.00000000E+00
  0.00000000E+00  0.00000000E+00  0.00000000E+00
  0.00000000E+00  0.00000000E+00  0.00000000E+00
  0.00000000E+00  0.00000000E+00  0.00000000E+00
  0.00000000E+00  0.00000000E+00  0.00000000E+00
  0.00000000E+00  0.00000000E+00  0.00000000E+00
  0.00000000E+00  0.00000000E+00  0.00000000E+00
  0.00000000E+00  0.00000000E+00  0.00000000E+00
  0.00000000E+00  0.00000000E+00  0.00000000E+00
  0.00000000E+00  0.00000000E+00  0.00000000E+00
  0.00000000E+00  0.00000000E+00  0.00000000E+00
  0.00000000E+00  0.00000000E+00  0.00000000E+00
  0.00000000E+00  0.00000000E+00  0.00000000E+00
  0.00000000E+00  0.00000000E+00  0.00000000E+00
  0.00000000E+00  0.00000000E+00  0.00000000E+00
  0.00000000E+00  0.00000000E+00  0.00000000E+00
  0.00000000E+00  0.00000000E+00  0.00000000E+00
  0.00000000E+00  0.00000000E+00  0.00000000E+00
  0.00000000E+00  0.00000000E+00  0.00000000E+00
  0.00000000E+00  0.00000000E+00  0.00000000E+00
  0.00000000E+00  0.00000000E+00  0.00000000E+00
  0.00000000E+00  0.00000000E+00  0.00000000E+00
  0.00000000E+00  0.00000000E+00  0.00000000E+00
  0.00000000E+00  0.00000000E+00  0.00000000E+00
  0.00000000E+00  0.00000000E+00  0.00000000E+00
  0.00000000E+00  0.00000000E+00  0.00000000E+00
  0.00000000E+00  0.00000000E+00  0.00000000E+00
  0.00000000E+00  0.00000000E+00  0.00000000E+00
  0.00000000E+00  0.00000000E+00  0.00000000E+00
  0.00000000E+00  0.00000000E+00  0.00000000E+00
  0.00000000E+00  0.00000000E+00  0.00000000E+00
  0.00000000E+00  0.00000000E+00  0.00000000E+00
  0.00000000E+00  0.00000000E+00  0.00000000E+00
  0.00000000E+00  0.00000000E+00  0.00000000E+00
  0.00000000E+00  0.00000000E+00  0.00000000E+00
  0.00000000E+00  0.00000000E+00  0.00000000E+00
  0.00000000E+00  0.00000000E+00  0.00000000E+00
  0.00000000E+00  0.00000000E+00  0.00000000E+00
  0.00000000E+00  0.00000000E+00  0.00000000E+00
  0.00000000E+00  0.00000000E+00  0.00000000E+00
  0.00000000E+00  0.00000000E+00  0.00000000E+00
  0.00000000E+00  0.00000000E+00  0.00000000E+00
  0.00000000E+00  0.00000000E+00  0.00000000E+00
  0.00000000E+00  0.00000000E+00  0.00000000E+00
  0.00000000E+00  0.00000000E+00  0.00000000E+00
  0.00000000E+00  0.00000000E+00  0.00000000E+00
  0.00000000E+00  0.00000000E+00  0.00000000E+00
  0.00000000E+00  0.00000000E+00  0.00000000E+00
  0.00000000E+00  0.00000000E+00  0.00000000E+00
  0.00000000E+00  0.00000000E+00  0.00000000E+00
  0.00000000E+00  0.00000000E+00  0.00000000E+00
  0.00000000E+00  0.00000000E+00  0.00000000E+00
  0.00000000E+00  0.00000000E+00  0.00000000E+00
  0.00000000E+00  0.00000000E+00  0.00000000E+00
  0.00000000E+00  0.00000000E+00  0.00000000E+00
  0.00000000E+00  0.00000000E+00  0.00000000E+00
  0.00000000E+00  0.00000000E+00  0.00000000E+00
  0.00000000E+00  0.00000000E+00  0.00000000E+00
  0.00000000E+00  0.00000000E+00  0.00000000E+00
  0.00000000E+00  0.00000000E+00  0.00000000E+00
  0.00000000E+00  0.00000000E+00  0.00000000E+00
  0.00000000E+00  0.00000000E+00  0.00000000E+00
  0.00000000E+00  0.00000000E+00  0.00000000E+00
  0.00000000E+00  0.00000000E+00  0.00000000E+00
  0.00000000E+00  0.00000000E+00  0.00000000E+00
  0.00000000E+00  0.00000000E+00  0.00000000E+00
  0.00000000E+00  0.00000000E+00  0.00000000E+00
  0.00000000E+00  0.00000000E+00  0.00000000E+00
  0.00000000E+00  0.00000000E+00  0.00000000E+00
  0.00000000E+00  0.00000000E+00  0.00000000E+00
  0.00000000E+00  0.00000000E+00  0.00000000E+00
  0.00000000E+00  0.00000000E+00  0.00000000E+00
  0.00000000E+00  0.00000000E+00  0.00000000E+00
  0.00000000E+00  0.00000000E+00  0.00000000E+00
  0.00000000E+00  0.00000000E+00  0.00000000E+00
  0.00000000E+00  0.00000000E+00  0.00000000E+00
  0.00000000E+00  0.00000000E+00  0.00000000E+00
  0.00000000E+00  0.00000000E+00  0.00000000E+00
  0.00000000E+00  0.00000000E+00  0.00000000E+00
  0.00000000E+00  0.00000000E+00  0.00000000E+00
  0.00000000E+00  0.00000000E+00  0.00000000E+00
  0.00000000E+00  0.00000000E+00  0.00000000E+00
  0.00000000E+00  0.00000000E+00  0.00000000E+00
  0.00000000E+00  0.00000000E+00  0.00000000E+00
  0.00000000E+00  0.00000000E+00  0.00000000E+00
  0.00000000E+00  0.00000000E+00  0.00000000E+00
  0.00000000E+00  0.00000000E+00  0.00000000E+00
  0.00000000E+00  0.00000000E+00  0.00000000E+00
  0.00000000E+00  0.00000000E+00  0.00000000E+00
