supercell of POSCAR                     
   1.07329600000000     
     9.1016125577399993   -5.3128209557800004   -9.4184911254399992
     9.0821131104399999    5.2871675818400004    9.4140884809200003
    -1.5053809694200000   -7.9210976524300012    4.6939078171600004
   Al   Sc   N 
    71    24    96
Direct
  0.3038006870120000  0.2875271558804258  0.5376123521761329
  0.1363158161002218  0.2391895658509071  0.3040506358214188
  0.4659713909721219  0.3255426954028522  0.7867609494023924
  0.1402763694715574  0.4977674108227461  0.7893907620209717
  0.2998848998101451  0.1625737804130267  0.7854117439001058
  0.4678249568079238  0.4461880636832518  0.5351245469657613
  0.1419116441256350  0.1195247873864673  0.5405336070417448
  0.4761638127504924  0.0727391643087003  0.2925408830837739
  0.2767574178904084  0.1090998580112057  0.3330350462020135
  0.1140251321486048  0.0682433963670448  0.0958444323626324
  0.1140602543979341  0.1980427756524961  0.8251869778719652
  0.2754394869573886  0.3571120065262505  0.8191684679775761
  0.1107696174377182  0.3241051114397777  0.5884619399802347
  0.2709272862157377  0.4853597659538451  0.5772327879242951
  0.4465865049510001  0.2804142253359316  0.3352846030410888
  0.1082666959735192  0.4448575671120949  0.3372520679662259
  0.4487948764751835  0.4058789621210792  0.0918298861520768
  0.8010807449933992  0.2857179010727009  0.5383865989541476
  0.6423365609683671  0.2418558311145773  0.3017219973448704
  0.8063641085799915  0.4073116931384675  0.3019274474554905
  0.9648341518703845  0.3266833436544303  0.7880960329709907
  0.6384745725795398  0.4969580791555686  0.7889624528500221
  0.8001751433048057  0.1630653867366689  0.7833759473108159
  0.9671236136783179  0.4475907508619841  0.5365209537794229
  0.6408700082932128  0.1192013303671402  0.5396030104702518
  0.9734635642375196  0.0704723846308113  0.2981874807437492
  0.7764782330759985  0.1077019335321765  0.3348790546516511
  0.6143332019135599  0.0686271250304955  0.0913911242650371
  0.6124608716245490  0.1959755242537682  0.8224930099290120
  0.7741922797419392  0.3582161966208801  0.8192709122211568
  0.6093290163870364  0.3242616341498987  0.5852591538260086
  0.7711350741979572  0.4849223086874304  0.5795596355679606
  0.9458085757276464  0.2778346327693342  0.3363316577910922
  0.6107295464374474  0.4442026276394131  0.3358181065899899
  0.9455898232321402  0.4020381025688593  0.0952427962168159
  0.3043548053011591  0.7886598072185009  0.5390719766360448
  0.1431917590107190  0.7442889881101138  0.3037441962494114
  0.3087175989750719  0.9087459379436638  0.3016723357006157
  0.4673631233051339  0.8257996365799158  0.7904843288640819
  0.1399222291570084  0.9974401435244360  0.7880738507421086
  0.2990828892955903  0.6644125485681940  0.7827334783774873
  0.4710580730393659  0.9497650278767793  0.5353660445451212
  0.1486612141132042  0.6093868383057242  0.5269268492951866
  0.4783099217484832  0.5772169545313162  0.2943144935269828
  0.2760884693013068  0.6100614101318698  0.3354861964972997
  0.1136346226752778  0.5705699360793588  0.0964343191269847
  0.1147916085123200  0.6957074471987923  0.8195933098456791
  0.2765474666227306  0.8600141386093441  0.8205272250014843
  0.1132358825922708  0.8213817327023634  0.5862380830849716
  0.2735348405417355  0.9867178445273623  0.5788981165122138
  0.4482822425605093  0.7789350198063971  0.3357550341532800
  0.1116800522013293  0.9445240278872120  0.3366555339682407
  0.4481990291566973  0.9010287394267706  0.0931443187960141
  0.8050874271112534  0.7853854432110694  0.5405878162482907
  0.6452043676352517  0.7439880251319693  0.3060017243918907
  0.8086698427334440  0.9073184243041226  0.3034165515186444
  0.9681095827081521  0.8257824710885231  0.7886391300400177
  0.6405882231135180  0.9965528524060829  0.7877460282612532
  0.8009866419387421  0.6623684517135970  0.7812301867500935
  0.9712188436072182  0.9473880146598574  0.5378406473445168
  0.6409828812644278  0.6188645261544394  0.5401528869629431
  0.9739234402031869  0.5729811205572304  0.2934701555002874
  0.7771664188567726  0.6084053828711475  0.3351131164571015
  0.6148688222101271  0.5682353467462420  0.0960239812243415
  0.6133520080087536  0.6960642942611699  0.8244114553510684
  0.7761303685355614  0.8579892695561000  0.8208770181788410
  0.6116917018137045  0.8233573024513419  0.5877384636214202
  0.7732704660598628  0.9847883322807292  0.5792924843195166
  0.9478888640737253  0.7781039089350443  0.3346019951203090
  0.6120585633332922  0.9444467693933944  0.3364337919225306
  0.9484886301832702  0.9012575469935555  0.0947165003341652
  0.4778310527913590  0.1997059937139696  0.0402819194223412
  0.1351960083038577  0.3682082912464537  0.0326042824795039
  0.3097757400269572  0.0270876556443866  0.0394983478642601
  0.2785350008531253  0.2377656556732006  0.0892246387107747
  0.4480317437712102  0.0229205716941223  0.8217943919026496
  0.4426408983007093  0.1565632404990609  0.5698127571960399
  0.9877941680108933  0.1990364984094555  0.0428198580653927
  0.6416205041832086  0.3626057852314588  0.0348685793674406
  0.8105463075356596  0.0245196418584754  0.0394595804713518
  0.7859017807724626  0.2289398347630751  0.0794715237246635
  0.9470960733648468  0.0233404632576892  0.8254534768108144
  0.9450758889712318  0.1527165667295733  0.5758012079863803
  0.4815109042885055  0.6925232596795396  0.0411338861954818
  0.1424112664835562  0.8645379150657817  0.0341842740848364
  0.3071217923815155  0.5261679917239306  0.0387701921775161
  0.2854010662026099  0.7311435445615970  0.0809785088043640
  0.4441114491875027  0.5217193775178472  0.8253797835761887
  0.4440847971876991  0.6512476644012679  0.5748543638705854
  0.9824579132495685  0.6968849979671177  0.0369951893311864
  0.6410618950169038  0.8642203676373725  0.0371597268443153
  0.8083219126882142  0.5247034171456377  0.0376457548759959
  0.7846745404258755  0.7302930682428368  0.0810737919458404
  0.9471846647426077  0.5215392072915677  0.8242263021801008
  0.9493189468451106  0.6490406202197576  0.5709944061565366
  0.2376342966090945  0.3665608377588683  0.6297559929484606
  0.0720201683196962  0.3238166304017511  0.3987247698297338
  0.2200267221648460  0.5109303823966229  0.4111648075735630
  0.4202133794449381  0.2913793043304693  0.1497195913739375
  0.0681565163055993  0.4553605845884263  0.1471583415156204
  0.2372673959407194  0.1051568484621797  0.1480128522509290
  0.4019454877160697  0.3963533122219118  0.8954691135132578
  0.0844649195117810  0.0816548342103545  0.8996005444816362
  0.2369002984258017  0.2423082919284525  0.8754461707966996
  0.4000556770911956  0.0242786294272221  0.6185459460753151
  0.0838827988641739  0.2026798746412553  0.6359557180806732
  0.4049482860388309  0.1534994371259515  0.3606725717945238
  0.2156566354325591  0.1897514249402263  0.4325113253710526
  0.0514698892399394  0.1388433356566168  0.2019860100614395
  0.1862765979785905  0.2981824927913834  0.1734113370776811
  0.3735340788355046  0.1123118142447055  0.9142151710051607
  0.0411641389846693  0.2733470499231245  0.8976995797640583
  0.2105371243445191  0.4375117222539728  0.9006245422053425
  0.3706652078165718  0.2376370209256535  0.6822503940428390
  0.0396307068330586  0.4066548809657036  0.6834961880899044
  0.2113197317279472  0.0675061516087467  0.6751806009345955
  0.3925235428150202  0.3450448442050629  0.4513973595803336
  0.0472858422311973  0.0248701276618277  0.4387172121798599
  0.4029745418473496  0.4962578067156826  0.1717366715435062
  0.7376430281876480  0.3662438492476809  0.6306173801743000
  0.5783029062551606  0.3239460564852337  0.3925389140532758
  0.7395099736987660  0.4891071949573984  0.3899575800017985
  0.9217164982461910  0.2870400849332100  0.1505696597261021
  0.5776588578955710  0.4504706367040896  0.1447277626375367
  0.7381271589282932  0.1036619086324535  0.1486337010892456
  0.8999323791984253  0.3988502024645584  0.9017572719841880
  0.5868179095769506  0.0802953164212283  0.8966207196460729
  0.7358593891260554  0.2431388057013066  0.8741809800662139
  0.8993100365553914  0.0217421982168347  0.6219842167446643
  0.5832692402804938  0.2027690895061056  0.6343122702290316
  0.9036520374860757  0.1549559060919989  0.3694724478468174
  0.7159915792823455  0.1891712704244597  0.4323352634687581
  0.5565453553076054  0.1457558411645294  0.1946608930130225
  0.7187486941563606  0.3133531649477135  0.1968294624735947
  0.8728908727869324  0.1166961004859246  0.9195905891574725
  0.5437712426149588  0.2722429757483980  0.9027512603284151
  0.7103643093447687  0.4387038120520899  0.9035430337669297
  0.8714440536886912  0.2401585152657262  0.6783733032522079
  0.5437606239595638  0.4064040874814410  0.6848031512117387
  0.7121433297020729  0.0674539636657272  0.6744993619330657
  0.8789570438250252  0.3537517017448906  0.4321859869811533
  0.5487812650374480  0.0257428386839962  0.4348032247171858
  0.8844327758973165  0.4763813248282389  0.1974164130748477
  0.2403740773224783  0.8690004318331930  0.6320947688802008
  0.0753905716431618  0.8254345117862911  0.3954469323493512
  0.2398510516122982  0.9892095706358575  0.3890509283574559
  0.4229321686948779  0.7868308794467893  0.1499338695210142
  0.0730604710384171  0.9500538973499744  0.1451735945724053
  0.2363904347053349  0.6080614190598652  0.1500014534435508
  0.4032074552077987  0.8994373231353308  0.9007209413147166
  0.0841702443376562  0.5825705867078241  0.9005377551210501
  0.2366135623347176  0.7461775978798642  0.8761079415338031
  0.3976610962743194  0.5215969620527758  0.6213484859262763
  0.0870887858695752  0.7010094802731430  0.6318353453680174
  0.4058548854527260  0.6581375213381477  0.3699568310088139
  0.2185035704256677  0.6974084325322565  0.4324228095708520
  0.0555324883956843  0.6480277302081277  0.1998880762833579
  0.2179137005883192  0.8170838843008070  0.1974965185514748
  0.3701370790523413  0.6174008659405530  0.9146149261848251
  0.0455972173603527  0.7733168730454452  0.9020593221734359
  0.2116799640612328  0.9404846238742692  0.9041268332302081
  0.3733638092592813  0.7415318628825460  0.6793177755483057
  0.0425653867224369  0.9048659463798003  0.6834388361329289
  0.2115176331085493  0.5693279534862015  0.6823047674252081
  0.3829942401542041  0.8566059179707466  0.4318345447449303
  0.0386798428283512  0.5262575410720132  0.4374269293031361
  0.3880890402975297  0.9757034740805537  0.1962076246856626
  0.7399599666482075  0.8664322491767109  0.6318658506118382
  0.5770414514940114  0.8254349083449100  0.3966030187853278
  0.7403501657549327  0.9883689948421761  0.3899816777896419
  0.9213222218907262  0.7867367084567576  0.1489965001238716
  0.5732164409240852  0.9519080935039170  0.1451987981676837
  0.7390009507661048  0.6056652267257618  0.1491466838904287
  0.9024024435293256  0.8991232581300395  0.9016779743478835
  0.5842014408589691  0.5818355974639857  0.9003350112237740
  0.7371478544537027  0.7429995700203236  0.8742351266874095
  0.8964138496471321  0.5212861640726985  0.6235078015383522
  0.5840576435114428  0.7033006831878410  0.6364452786070842
  0.9043207209283111  0.6567089164190065  0.3666099416153159
  0.7181840626512397  0.6907051258929968  0.4358139602701101
  0.5630131761935004  0.6500127058966285  0.2023290617903726
  0.7188483760625886  0.8163912417948538  0.1992715991541942
  0.8718734671333266  0.6146249404146147  0.9164016742827457
  0.5445307581794907  0.7729664108071788  0.9058881057141619
  0.7114147276863463  0.9384431030675557  0.9045260654117655
  0.8755014073387386  0.7388754754539022  0.6788687526692812
  0.5423749411364724  0.9055139249525226  0.6826012051775621
  0.7110123528417773  0.5679416501962820  0.6759168667290112
  0.8821537580192356  0.8544768986567064  0.4332576476939707
  0.5477302888332574  0.5263731702484478  0.4370961851074711
  0.8868948916370769  0.9747116822221074  0.1989606521745060
 
  0.00000000E+00  0.00000000E+00  0.00000000E+00
  0.00000000E+00  0.00000000E+00  0.00000000E+00
  0.00000000E+00  0.00000000E+00  0.00000000E+00
  0.00000000E+00  0.00000000E+00  0.00000000E+00
  0.00000000E+00  0.00000000E+00  0.00000000E+00
  0.00000000E+00  0.00000000E+00  0.00000000E+00
  0.00000000E+00  0.00000000E+00  0.00000000E+00
  0.00000000E+00  0.00000000E+00  0.00000000E+00
  0.00000000E+00  0.00000000E+00  0.00000000E+00
  0.00000000E+00  0.00000000E+00  0.00000000E+00
  0.00000000E+00  0.00000000E+00  0.00000000E+00
  0.00000000E+00  0.00000000E+00  0.00000000E+00
  0.00000000E+00  0.00000000E+00  0.00000000E+00
  0.00000000E+00  0.00000000E+00  0.00000000E+00
  0.00000000E+00  0.00000000E+00  0.00000000E+00
  0.00000000E+00  0.00000000E+00  0.00000000E+00
  0.00000000E+00  0.00000000E+00  0.00000000E+00
  0.00000000E+00  0.00000000E+00  0.00000000E+00
  0.00000000E+00  0.00000000E+00  0.00000000E+00
  0.00000000E+00  0.00000000E+00  0.00000000E+00
  0.00000000E+00  0.00000000E+00  0.00000000E+00
  0.00000000E+00  0.00000000E+00  0.00000000E+00
  0.00000000E+00  0.00000000E+00  0.00000000E+00
  0.00000000E+00  0.00000000E+00  0.00000000E+00
  0.00000000E+00  0.00000000E+00  0.00000000E+00
  0.00000000E+00  0.00000000E+00  0.00000000E+00
  0.00000000E+00  0.00000000E+00  0.00000000E+00
  0.00000000E+00  0.00000000E+00  0.00000000E+00
  0.00000000E+00  0.00000000E+00  0.00000000E+00
  0.00000000E+00  0.00000000E+00  0.00000000E+00
  0.00000000E+00  0.00000000E+00  0.00000000E+00
  0.00000000E+00  0.00000000E+00  0.00000000E+00
  0.00000000E+00  0.00000000E+00  0.00000000E+00
  0.00000000E+00  0.00000000E+00  0.00000000E+00
  0.00000000E+00  0.00000000E+00  0.00000000E+00
  0.00000000E+00  0.00000000E+00  0.00000000E+00
  0.00000000E+00  0.00000000E+00  0.00000000E+00
  0.00000000E+00  0.00000000E+00  0.00000000E+00
  0.00000000E+00  0.00000000E+00  0.00000000E+00
  0.00000000E+00  0.00000000E+00  0.00000000E+00
  0.00000000E+00  0.00000000E+00  0.00000000E+00
  0.00000000E+00  0.00000000E+00  0.00000000E+00
  0.00000000E+00  0.00000000E+00  0.00000000E+00
  0.00000000E+00  0.00000000E+00  0.00000000E+00
  0.00000000E+00  0.00000000E+00  0.00000000E+00
  0.00000000E+00  0.00000000E+00  0.00000000E+00
  0.00000000E+00  0.00000000E+00  0.00000000E+00
  0.00000000E+00  0.00000000E+00  0.00000000E+00
  0.00000000E+00  0.00000000E+00  0.00000000E+00
  0.00000000E+00  0.00000000E+00  0.00000000E+00
  0.00000000E+00  0.00000000E+00  0.00000000E+00
  0.00000000E+00  0.00000000E+00  0.00000000E+00
  0.00000000E+00  0.00000000E+00  0.00000000E+00
  0.00000000E+00  0.00000000E+00  0.00000000E+00
  0.00000000E+00  0.00000000E+00  0.00000000E+00
  0.00000000E+00  0.00000000E+00  0.00000000E+00
  0.00000000E+00  0.00000000E+00  0.00000000E+00
  0.00000000E+00  0.00000000E+00  0.00000000E+00
  0.00000000E+00  0.00000000E+00  0.00000000E+00
  0.00000000E+00  0.00000000E+00  0.00000000E+00
  0.00000000E+00  0.00000000E+00  0.00000000E+00
  0.00000000E+00  0.00000000E+00  0.00000000E+00
  0.00000000E+00  0.00000000E+00  0.00000000E+00
  0.00000000E+00  0.00000000E+00  0.00000000E+00
  0.00000000E+00  0.00000000E+00  0.00000000E+00
  0.00000000E+00  0.00000000E+00  0.00000000E+00
  0.00000000E+00  0.00000000E+00  0.00000000E+00
  0.00000000E+00  0.00000000E+00  0.00000000E+00
  0.00000000E+00  0.00000000E+00  0.00000000E+00
  0.00000000E+00  0.00000000E+00  0.00000000E+00
  0.00000000E+00  0.00000000E+00  0.00000000E+00
  0.00000000E+00  0.00000000E+00  0.00000000E+00
  0.00000000E+00  0.00000000E+00  0.00000000E+00
  0.00000000E+00  0.00000000E+00  0.00000000E+00
  0.00000000E+00  0.00000000E+00  0.00000000E+00
  0.00000000E+00  0.00000000E+00  0.00000000E+00
  0.00000000E+00  0.00000000E+00  0.00000000E+00
  0.00000000E+00  0.00000000E+00  0.00000000E+00
  0.00000000E+00  0.00000000E+00  0.00000000E+00
  0.00000000E+00  0.00000000E+00  0.00000000E+00
  0.00000000E+00  0.00000000E+00  0.00000000E+00
  0.00000000E+00  0.00000000E+00  0.00000000E+00
  0.00000000E+00  0.00000000E+00  0.00000000E+00
  0.00000000E+00  0.00000000E+00  0.00000000E+00
  0.00000000E+00  0.00000000E+00  0.00000000E+00
  0.00000000E+00  0.00000000E+00  0.00000000E+00
  0.00000000E+00  0.00000000E+00  0.00000000E+00
  0.00000000E+00  0.00000000E+00  0.00000000E+00
  0.00000000E+00  0.00000000E+00  0.00000000E+00
  0.00000000E+00  0.00000000E+00  0.00000000E+00
  0.00000000E+00  0.00000000E+00  0.00000000E+00
  0.00000000E+00  0.00000000E+00  0.00000000E+00
  0.00000000E+00  0.00000000E+00  0.00000000E+00
  0.00000000E+00  0.00000000E+00  0.00000000E+00
  0.00000000E+00  0.00000000E+00  0.00000000E+00
  0.00000000E+00  0.00000000E+00  0.00000000E+00
  0.00000000E+00  0.00000000E+00  0.00000000E+00
  0.00000000E+00  0.00000000E+00  0.00000000E+00
  0.00000000E+00  0.00000000E+00  0.00000000E+00
  0.00000000E+00  0.00000000E+00  0.00000000E+00
  0.00000000E+00  0.00000000E+00  0.00000000E+00
  0.00000000E+00  0.00000000E+00  0.00000000E+00
  0.00000000E+00  0.00000000E+00  0.00000000E+00
  0.00000000E+00  0.00000000E+00  0.00000000E+00
  0.00000000E+00  0.00000000E+00  0.00000000E+00
  0.00000000E+00  0.00000000E+00  0.00000000E+00
  0.00000000E+00  0.00000000E+00  0.00000000E+00
  0.00000000E+00  0.00000000E+00  0.00000000E+00
  0.00000000E+00  0.00000000E+00  0.00000000E+00
  0.00000000E+00  0.00000000E+00  0.00000000E+00
  0.00000000E+00  0.00000000E+00  0.00000000E+00
  0.00000000E+00  0.00000000E+00  0.00000000E+00
  0.00000000E+00  0.00000000E+00  0.00000000E+00
  0.00000000E+00  0.00000000E+00  0.00000000E+00
  0.00000000E+00  0.00000000E+00  0.00000000E+00
  0.00000000E+00  0.00000000E+00  0.00000000E+00
  0.00000000E+00  0.00000000E+00  0.00000000E+00
  0.00000000E+00  0.00000000E+00  0.00000000E+00
  0.00000000E+00  0.00000000E+00  0.00000000E+00
  0.00000000E+00  0.00000000E+00  0.00000000E+00
  0.00000000E+00  0.00000000E+00  0.00000000E+00
  0.00000000E+00  0.00000000E+00  0.00000000E+00
  0.00000000E+00  0.00000000E+00  0.00000000E+00
  0.00000000E+00  0.00000000E+00  0.00000000E+00
  0.00000000E+00  0.00000000E+00  0.00000000E+00
  0.00000000E+00  0.00000000E+00  0.00000000E+00
  0.00000000E+00  0.00000000E+00  0.00000000E+00
  0.00000000E+00  0.00000000E+00  0.00000000E+00
  0.00000000E+00  0.00000000E+00  0.00000000E+00
  0.00000000E+00  0.00000000E+00  0.00000000E+00
  0.00000000E+00  0.00000000E+00  0.00000000E+00
  0.00000000E+00  0.00000000E+00  0.00000000E+00
  0.00000000E+00  0.00000000E+00  0.00000000E+00
  0.00000000E+00  0.00000000E+00  0.00000000E+00
  0.00000000E+00  0.00000000E+00  0.00000000E+00
  0.00000000E+00  0.00000000E+00  0.00000000E+00
  0.00000000E+00  0.00000000E+00  0.00000000E+00
  0.00000000E+00  0.00000000E+00  0.00000000E+00
  0.00000000E+00  0.00000000E+00  0.00000000E+00
  0.00000000E+00  0.00000000E+00  0.00000000E+00
  0.00000000E+00  0.00000000E+00  0.00000000E+00
  0.00000000E+00  0.00000000E+00  0.00000000E+00
  0.00000000E+00  0.00000000E+00  0.00000000E+00
  0.00000000E+00  0.00000000E+00  0.00000000E+00
  0.00000000E+00  0.00000000E+00  0.00000000E+00
  0.00000000E+00  0.00000000E+00  0.00000000E+00
  0.00000000E+00  0.00000000E+00  0.00000000E+00
  0.00000000E+00  0.00000000E+00  0.00000000E+00
  0.00000000E+00  0.00000000E+00  0.00000000E+00
  0.00000000E+00  0.00000000E+00  0.00000000E+00
  0.00000000E+00  0.00000000E+00  0.00000000E+00
  0.00000000E+00  0.00000000E+00  0.00000000E+00
  0.00000000E+00  0.00000000E+00  0.00000000E+00
  0.00000000E+00  0.00000000E+00  0.00000000E+00
  0.00000000E+00  0.00000000E+00  0.00000000E+00
  0.00000000E+00  0.00000000E+00  0.00000000E+00
  0.00000000E+00  0.00000000E+00  0.00000000E+00
  0.00000000E+00  0.00000000E+00  0.00000000E+00
  0.00000000E+00  0.00000000E+00  0.00000000E+00
  0.00000000E+00  0.00000000E+00  0.00000000E+00
  0.00000000E+00  0.00000000E+00  0.00000000E+00
  0.00000000E+00  0.00000000E+00  0.00000000E+00
  0.00000000E+00  0.00000000E+00  0.00000000E+00
  0.00000000E+00  0.00000000E+00  0.00000000E+00
  0.00000000E+00  0.00000000E+00  0.00000000E+00
  0.00000000E+00  0.00000000E+00  0.00000000E+00
  0.00000000E+00  0.00000000E+00  0.00000000E+00
  0.00000000E+00  0.00000000E+00  0.00000000E+00
  0.00000000E+00  0.00000000E+00  0.00000000E+00
  0.00000000E+00  0.00000000E+00  0.00000000E+00
  0.00000000E+00  0.00000000E+00  0.00000000E+00
  0.00000000E+00  0.00000000E+00  0.00000000E+00
  0.00000000E+00  0.00000000E+00  0.00000000E+00
  0.00000000E+00  0.00000000E+00  0.00000000E+00
  0.00000000E+00  0.00000000E+00  0.00000000E+00
  0.00000000E+00  0.00000000E+00  0.00000000E+00
  0.00000000E+00  0.00000000E+00  0.00000000E+00
  0.00000000E+00  0.00000000E+00  0.00000000E+00
  0.00000000E+00  0.00000000E+00  0.00000000E+00
  0.00000000E+00  0.00000000E+00  0.00000000E+00
  0.00000000E+00  0.00000000E+00  0.00000000E+00
  0.00000000E+00  0.00000000E+00  0.00000000E+00
  0.00000000E+00  0.00000000E+00  0.00000000E+00
  0.00000000E+00  0.00000000E+00  0.00000000E+00
  0.00000000E+00  0.00000000E+00  0.00000000E+00
  0.00000000E+00  0.00000000E+00  0.00000000E+00
  0.00000000E+00  0.00000000E+00  0.00000000E+00
  0.00000000E+00  0.00000000E+00  0.00000000E+00
  0.00000000E+00  0.00000000E+00  0.00000000E+00
  0.00000000E+00  0.00000000E+00  0.00000000E+00
  0.00000000E+00  0.00000000E+00  0.00000000E+00
