supercell of POSCAR                     
   1.07329600000000     
     9.1016125577399993   -5.3128209557800004   -9.4184911254399992
     9.0821131104399999    5.2871675818400004    9.4140884809200003
    -1.5053809694200000   -7.9210976524300012    4.6939078171600004
   Al   Sc   N 
    71    24    96
Direct
  0.3011887550877645  0.2879857968585071  0.5400877819886389
  0.1410975449699734  0.2422566637489041  0.3057655876521750
  0.3082444210917430  0.4076371806244623  0.3034833166739119
  0.4652994407185815  0.3279135750869386  0.7926057127340016
  0.1413123649117196  0.4967150288550286  0.7855865323646256
  0.3001673002032845  0.1649659499775353  0.7870160708802914
  0.4685587704264904  0.4467749488408472  0.5343721791630500
  0.1408333963207085  0.1192080866347140  0.5412608830065864
  0.4735438341930305  0.0736010209474287  0.2968259953246459
  0.2752053513660115  0.1058683628437720  0.3367471591390441
  0.1130113412513225  0.0677274922416231  0.0941129990544098
  0.1131590976350267  0.1966429000774781  0.8251131135767551
  0.2748651309144421  0.3583624803630130  0.8222275185874324
  0.1092227062484810  0.3233630766147328  0.5893221094437564
  0.2773516913997582  0.4796236018820750  0.5720648147821592
  0.1114620956357157  0.4443652501437469  0.3361648785229150
  0.4458610856214733  0.4029432270451707  0.0955664472005679
  0.8014832403218151  0.2868591311532498  0.5405528271717941
  0.6390114762419543  0.2458267102602889  0.3089020406863625
  0.8061934475703936  0.4082922116369687  0.3026057737291907
  0.9657307581105243  0.3260821031779031  0.7909542998660015
  0.6396661768896621  0.4971665090290927  0.7886290630315571
  0.7990786278879654  0.1630132551782566  0.7824245730485160
  0.9692856272535479  0.4480716374644018  0.5353276821006148
  0.6408893891087288  0.1200481456584725  0.5396497445098234
  0.9752566648092653  0.0727429275160887  0.2950342496434359
  0.7761356725713355  0.1085719675449752  0.3343911779143696
  0.6134576839547279  0.0699950772560030  0.0944776971109675
  0.6121390995814977  0.1973166150178969  0.8239420179191939
  0.7750433229399221  0.3586116859590120  0.8239711937589362
  0.6125664244511952  0.3252958664959351  0.5871998183855638
  0.7723031279835268  0.4847093970271601  0.5784222287147571
  0.9458919546533835  0.2782613671502574  0.3354752137631678
  0.6113311562785242  0.4440085429581586  0.3398761859515460
  0.9472418795727577  0.4016840983147674  0.0956348983496298
  0.3041300839688432  0.7875272281200338  0.5384214018339506
  0.1430966221476098  0.7420479401831059  0.3026229645566545
  0.3082581703286564  0.9089284743697590  0.3019084900953644
  0.4680259091595502  0.8279427898092280  0.7882523215873363
  0.1406778499190580  0.9972125021211298  0.7883491724292355
  0.3014386622599829  0.6620867057783855  0.7794401099504356
  0.4702612332343392  0.9509096183794767  0.5365788177708168
  0.1437401221848802  0.6178518655639564  0.5388222810300505
  0.4762043024755727  0.5736389111146494  0.2949895728860952
  0.2773415964550026  0.6087368680032057  0.3327461146365351
  0.1150314943380337  0.5680638102132320  0.0921918289437258
  0.1150627441858632  0.6964880034716288  0.8223602971070036
  0.2770718367442555  0.8588935530220638  0.8198053608918130
  0.1124326159520166  0.8231749127085095  0.5863976059616007
  0.2738588637797932  0.9864500319533249  0.5793723224274459
  0.4478501421727614  0.7793683077702056  0.3338941394521981
  0.1103990714515106  0.9432479926538377  0.3368429913954216
  0.4483766380803118  0.9015119826715292  0.0918637893852932
  0.8040061065404771  0.7863529972810284  0.5385358252450345
  0.6429147456768618  0.7425184450176303  0.3035288102455027
  0.8081115996018013  0.9077004773290867  0.3015236246159674
  0.9680804854237621  0.8262246220664267  0.7889779538455528
  0.6400170504043601  0.9975184238173256  0.7871530152353401
  0.8009253536204639  0.6623934052376299  0.7812023087765212
  0.9703172366493149  0.9476922658620452  0.5355443157860407
  0.6419142896880388  0.6192499054358933  0.5393274579649301
  0.9764128485447117  0.5729039945367518  0.2943797130484214
  0.7783553117519162  0.6090782958647267  0.3343959896740856
  0.6151373363950938  0.5689669067914664  0.0945816611620458
  0.6150374619610730  0.6975750044390665  0.8229070463353381
  0.7763688012417447  0.8584119076188728  0.8190319782210480
  0.6119899304403589  0.8244539010659651  0.5863150373264432
  0.7725502975480723  0.9853361739046704  0.5778405136115481
  0.9477142750008696  0.7778122537377570  0.3335737029084953
  0.6113370927851207  0.9449969786350962  0.3361466559017003
  0.9473751824444889  0.9010561726452835  0.0933702343037410
  0.4778316819341484  0.2010569864414080  0.0478684281596031
  0.1406962619821712  0.3646791513307335  0.0369924496029128
  0.3093038640640415  0.0258490064219004  0.0414068521787812
  0.2834083746262692  0.2310944997171092  0.0895857529466184
  0.4471888796627255  0.0260209576194157  0.8257418500760991
  0.4431482843727181  0.1575396393718904  0.5682759742972650
  0.9805169836645860  0.1969087411047283  0.0392285114051845
  0.6381206324363546  0.3653136112836179  0.0385445855716497
  0.8092191585297570  0.0250868184285977  0.0379147646996429
  0.7821845498672175  0.2307740541547929  0.0822845081660262
  0.9468849090291087  0.0220023665202262  0.8225536042447104
  0.9434648083972519  0.1521349466593733  0.5738118967247985
  0.4833447463944225  0.6973497842410055  0.0378720629861462
  0.1419439012616053  0.8653328204528563  0.0365652211935839
  0.3103940101581557  0.5247474490268473  0.0367775230761183
  0.2858206632370042  0.7303009858087464  0.0789668181673520
  0.4489529817861708  0.5246467870235136  0.8226066685185600
  0.4467815626951435  0.6544129846711897  0.5723459749228184
  0.9824014918426585  0.6961277141978570  0.0368160243118325
  0.6417578182295571  0.8659819633168340  0.0357740149194683
  0.8097487776982533  0.5242564723435166  0.0386601714288872
  0.7841955067442186  0.7301441874395707  0.0798315479022378
  0.9477227946763733  0.5206615857976686  0.8218542006526377
  0.9464977760755389  0.6519929772383293  0.5725673116263152
  0.2338439096843032  0.3665846905672296  0.6363097781348870
  0.0732637271839494  0.3245900213336412  0.3973479710275996
  0.2369720372736239  0.4919237167252817  0.3867483528775537
  0.4126114736247928  0.2891608347486709  0.1299427917433107
  0.0714827390693600  0.4521843165981707  0.1454259015989265
  0.2346592447726152  0.1014404786988621  0.1506062474984020
  0.4002419261655774  0.4046548894968609  0.8994797905835412
  0.0840835903027326  0.0805639853603992  0.8984705905143073
  0.2347711953667613  0.2440996366685440  0.8788306085178732
  0.3995026634259276  0.0233276813199410  0.6237300559873660
  0.0817957998396324  0.2020753533534076  0.6369724422918850
  0.3970520881275377  0.1379303855768157  0.3723804547064020
  0.2140682214891996  0.1896861972057948  0.4346347832078692
  0.0548421026502126  0.1452825829531577  0.1980125462937536
  0.2127860770662195  0.3171877743797538  0.2015982761591886
  0.3708933223899180  0.1139038272006587  0.9179703265147339
  0.0432354701921085  0.2734503648570907  0.9044860460234361
  0.2093204560412616  0.4395672653484226  0.9060457460630218
  0.3706268595557916  0.2427731222300551  0.6833039868426809
  0.0393262193981272  0.4060836151908163  0.6843501123497688
  0.2113991784826581  0.0684121289199524  0.6761011689270120
  0.3674892888034762  0.3693425553495118  0.4502837677058977
  0.0466865646020977  0.0252710782390437  0.4364938949876134
  0.3867117486889953  0.4795238792873704  0.1988388161120227
  0.7422804456475447  0.3685704968096388  0.6383189885760174
  0.5936489245880097  0.3337953554601469  0.4058010364886826
  0.7420634467168199  0.4924217802091064  0.3896586228933216
  0.9199758057409824  0.2869400842251011  0.1500543651198498
  0.5719110928455180  0.4541066735866082  0.1471278496124100
  0.7380916381660825  0.1039050515405719  0.1482396294064969
  0.9015156943436509  0.3993888463373025  0.9040489841205712
  0.5871991300285586  0.0809333392072489  0.8977694368021076
  0.7365459907027656  0.2430015365181077  0.8756051196254404
  0.8987851588972688  0.0211882652567041  0.6196998253922104
  0.5854136538240340  0.2039520946438316  0.6362034077554028
  0.9046398580484549  0.1554349748658410  0.3668579132655552
  0.7177450901569031  0.1897952699436019  0.4337870529189516
  0.5571702578351463  0.1456006431590140  0.2008077087666038
  0.7171898012685176  0.3161025395001147  0.1966054865651898
  0.8719185061929053  0.1138734980759395  0.9146399702960295
  0.5435429690604394  0.2736009831186976  0.9049043864506174
  0.7098882066665197  0.4392489287985626  0.9068251871201625
  0.8729910657289182  0.2401126231802877  0.6800977612787733
  0.5411835664320463  0.4074828987623320  0.6862249509942870
  0.7122371733288588  0.0674526522368737  0.6737968037078375
  0.8801083657224709  0.3546440040745225  0.4325574063393773
  0.5494124488823147  0.0248151907660628  0.4362853748277828
  0.8874740460678723  0.4767831466887316  0.1991994491984315
  0.2393994788472753  0.8673507970258925  0.6311107175889603
  0.0749026259423786  0.8232469310510950  0.3947881851871813
  0.2361559011485070  0.9852873606855184  0.3903165253715102
  0.4226110026019398  0.7869738690843420  0.1482141419970944
  0.0712405195671622  0.9505527501321467  0.1455061247227007
  0.2380531385470519  0.6056529441683693  0.1466989219373289
  0.4033102567907036  0.8994719466411212  0.8992431779603152
  0.0851334021827697  0.5818781107063558  0.8972671378929959
  0.2378261709698037  0.7434598157199872  0.8729432457768027
  0.4008863854513720  0.5286985702132014  0.6246056809302445
  0.0854327014897507  0.7026178004352843  0.6345584181548105
  0.4051910732139916  0.6575004890125200  0.3656889339865614
  0.2175463766059380  0.6914664565129911  0.4326941427396136
  0.0569121260069281  0.6455589899110450  0.1970812270010640
  0.2175713778252586  0.8148228833564204  0.1973311561344389
  0.3724117885106963  0.6170816992643751  0.9173816008532185
  0.0457591379974787  0.7737378069865031  0.9030265309187371
  0.2112195072457368  0.9385370394633341  0.9038336290930431
  0.3742363098430275  0.7418048248287405  0.6784218650721527
  0.0421643068386501  0.9050819037843283  0.6820316387182999
  0.2131762334728293  0.5665471767919001  0.6729205774240157
  0.3822835495762504  0.8558591170908372  0.4317510871856953
  0.0468807403598319  0.5261209569407725  0.4369005369250019
  0.3875873517624768  0.9733850794014174  0.1945618685769475
  0.7400903923500692  0.8669677663499584  0.6301059729417631
  0.5764427446284373  0.8243839943733065  0.3944924809822297
  0.7403446931662074  0.9882252911723981  0.3882305484271953
  0.9211236236856095  0.7862421811977285  0.1479704521720251
  0.5733695512257171  0.9515677243040983  0.1444165937075681
  0.7391294854564379  0.6055287772579021  0.1486290253309406
  0.9026628548132791  0.8986385239412797  0.9004679887871916
  0.5875098261593834  0.5840460637058911  0.9003401153717121
  0.7384471447808423  0.7437202526781732  0.8735086233486271
  0.8989638468179777  0.5228874431802950  0.6202159227607424
  0.5863813778284097  0.7044907760290329  0.6356060695247692
  0.9062652927295716  0.6564648092935528  0.3664368287171058
  0.7179520903323464  0.6910155420669994  0.4330582840197366
  0.5576817223047712  0.6468989618809218  0.1984553875364767
  0.7177463353759990  0.8153157515648530  0.1974563325323189
  0.8724605708854227  0.6137500510264076  0.9148700798064837
  0.5460383440472754  0.7749542026004050  0.9026059261669204
  0.7117744957024215  0.9386243161719321  0.9022694209858031
  0.8744801378478471  0.7402000861036839  0.6785251014105143
  0.5431088633126038  0.9054476669323321  0.6808505405231600
  0.7119270169460563  0.5679331244958448  0.6749744044653099
  0.8819345712637769  0.8542463537158511  0.4309306278618479
  0.5473684376182959  0.5281640059082022  0.4377476018512709
  0.8872398977297919  0.9759650370682422  0.1970628221241881
 
  0.00000000E+00  0.00000000E+00  0.00000000E+00
  0.00000000E+00  0.00000000E+00  0.00000000E+00
  0.00000000E+00  0.00000000E+00  0.00000000E+00
  0.00000000E+00  0.00000000E+00  0.00000000E+00
  0.00000000E+00  0.00000000E+00  0.00000000E+00
  0.00000000E+00  0.00000000E+00  0.00000000E+00
  0.00000000E+00  0.00000000E+00  0.00000000E+00
  0.00000000E+00  0.00000000E+00  0.00000000E+00
  0.00000000E+00  0.00000000E+00  0.00000000E+00
  0.00000000E+00  0.00000000E+00  0.00000000E+00
  0.00000000E+00  0.00000000E+00  0.00000000E+00
  0.00000000E+00  0.00000000E+00  0.00000000E+00
  0.00000000E+00  0.00000000E+00  0.00000000E+00
  0.00000000E+00  0.00000000E+00  0.00000000E+00
  0.00000000E+00  0.00000000E+00  0.00000000E+00
  0.00000000E+00  0.00000000E+00  0.00000000E+00
  0.00000000E+00  0.00000000E+00  0.00000000E+00
  0.00000000E+00  0.00000000E+00  0.00000000E+00
  0.00000000E+00  0.00000000E+00  0.00000000E+00
  0.00000000E+00  0.00000000E+00  0.00000000E+00
  0.00000000E+00  0.00000000E+00  0.00000000E+00
  0.00000000E+00  0.00000000E+00  0.00000000E+00
  0.00000000E+00  0.00000000E+00  0.00000000E+00
  0.00000000E+00  0.00000000E+00  0.00000000E+00
  0.00000000E+00  0.00000000E+00  0.00000000E+00
  0.00000000E+00  0.00000000E+00  0.00000000E+00
  0.00000000E+00  0.00000000E+00  0.00000000E+00
  0.00000000E+00  0.00000000E+00  0.00000000E+00
  0.00000000E+00  0.00000000E+00  0.00000000E+00
  0.00000000E+00  0.00000000E+00  0.00000000E+00
  0.00000000E+00  0.00000000E+00  0.00000000E+00
  0.00000000E+00  0.00000000E+00  0.00000000E+00
  0.00000000E+00  0.00000000E+00  0.00000000E+00
  0.00000000E+00  0.00000000E+00  0.00000000E+00
  0.00000000E+00  0.00000000E+00  0.00000000E+00
  0.00000000E+00  0.00000000E+00  0.00000000E+00
  0.00000000E+00  0.00000000E+00  0.00000000E+00
  0.00000000E+00  0.00000000E+00  0.00000000E+00
  0.00000000E+00  0.00000000E+00  0.00000000E+00
  0.00000000E+00  0.00000000E+00  0.00000000E+00
  0.00000000E+00  0.00000000E+00  0.00000000E+00
  0.00000000E+00  0.00000000E+00  0.00000000E+00
  0.00000000E+00  0.00000000E+00  0.00000000E+00
  0.00000000E+00  0.00000000E+00  0.00000000E+00
  0.00000000E+00  0.00000000E+00  0.00000000E+00
  0.00000000E+00  0.00000000E+00  0.00000000E+00
  0.00000000E+00  0.00000000E+00  0.00000000E+00
  0.00000000E+00  0.00000000E+00  0.00000000E+00
  0.00000000E+00  0.00000000E+00  0.00000000E+00
  0.00000000E+00  0.00000000E+00  0.00000000E+00
  0.00000000E+00  0.00000000E+00  0.00000000E+00
  0.00000000E+00  0.00000000E+00  0.00000000E+00
  0.00000000E+00  0.00000000E+00  0.00000000E+00
  0.00000000E+00  0.00000000E+00  0.00000000E+00
  0.00000000E+00  0.00000000E+00  0.00000000E+00
  0.00000000E+00  0.00000000E+00  0.00000000E+00
  0.00000000E+00  0.00000000E+00  0.00000000E+00
  0.00000000E+00  0.00000000E+00  0.00000000E+00
  0.00000000E+00  0.00000000E+00  0.00000000E+00
  0.00000000E+00  0.00000000E+00  0.00000000E+00
  0.00000000E+00  0.00000000E+00  0.00000000E+00
  0.00000000E+00  0.00000000E+00  0.00000000E+00
  0.00000000E+00  0.00000000E+00  0.00000000E+00
  0.00000000E+00  0.00000000E+00  0.00000000E+00
  0.00000000E+00  0.00000000E+00  0.00000000E+00
  0.00000000E+00  0.00000000E+00  0.00000000E+00
  0.00000000E+00  0.00000000E+00  0.00000000E+00
  0.00000000E+00  0.00000000E+00  0.00000000E+00
  0.00000000E+00  0.00000000E+00  0.00000000E+00
  0.00000000E+00  0.00000000E+00  0.00000000E+00
  0.00000000E+00  0.00000000E+00  0.00000000E+00
  0.00000000E+00  0.00000000E+00  0.00000000E+00
  0.00000000E+00  0.00000000E+00  0.00000000E+00
  0.00000000E+00  0.00000000E+00  0.00000000E+00
  0.00000000E+00  0.00000000E+00  0.00000000E+00
  0.00000000E+00  0.00000000E+00  0.00000000E+00
  0.00000000E+00  0.00000000E+00  0.00000000E+00
  0.00000000E+00  0.00000000E+00  0.00000000E+00
  0.00000000E+00  0.00000000E+00  0.00000000E+00
  0.00000000E+00  0.00000000E+00  0.00000000E+00
  0.00000000E+00  0.00000000E+00  0.00000000E+00
  0.00000000E+00  0.00000000E+00  0.00000000E+00
  0.00000000E+00  0.00000000E+00  0.00000000E+00
  0.00000000E+00  0.00000000E+00  0.00000000E+00
  0.00000000E+00  0.00000000E+00  0.00000000E+00
  0.00000000E+00  0.00000000E+00  0.00000000E+00
  0.00000000E+00  0.00000000E+00  0.00000000E+00
  0.00000000E+00  0.00000000E+00  0.00000000E+00
  0.00000000E+00  0.00000000E+00  0.00000000E+00
  0.00000000E+00  0.00000000E+00  0.00000000E+00
  0.00000000E+00  0.00000000E+00  0.00000000E+00
  0.00000000E+00  0.00000000E+00  0.00000000E+00
  0.00000000E+00  0.00000000E+00  0.00000000E+00
  0.00000000E+00  0.00000000E+00  0.00000000E+00
  0.00000000E+00  0.00000000E+00  0.00000000E+00
  0.00000000E+00  0.00000000E+00  0.00000000E+00
  0.00000000E+00  0.00000000E+00  0.00000000E+00
  0.00000000E+00  0.00000000E+00  0.00000000E+00
  0.00000000E+00  0.00000000E+00  0.00000000E+00
  0.00000000E+00  0.00000000E+00  0.00000000E+00
  0.00000000E+00  0.00000000E+00  0.00000000E+00
  0.00000000E+00  0.00000000E+00  0.00000000E+00
  0.00000000E+00  0.00000000E+00  0.00000000E+00
  0.00000000E+00  0.00000000E+00  0.00000000E+00
  0.00000000E+00  0.00000000E+00  0.00000000E+00
  0.00000000E+00  0.00000000E+00  0.00000000E+00
  0.00000000E+00  0.00000000E+00  0.00000000E+00
  0.00000000E+00  0.00000000E+00  0.00000000E+00
  0.00000000E+00  0.00000000E+00  0.00000000E+00
  0.00000000E+00  0.00000000E+00  0.00000000E+00
  0.00000000E+00  0.00000000E+00  0.00000000E+00
  0.00000000E+00  0.00000000E+00  0.00000000E+00
  0.00000000E+00  0.00000000E+00  0.00000000E+00
  0.00000000E+00  0.00000000E+00  0.00000000E+00
  0.00000000E+00  0.00000000E+00  0.00000000E+00
  0.00000000E+00  0.00000000E+00  0.00000000E+00
  0.00000000E+00  0.00000000E+00  0.00000000E+00
  0.00000000E+00  0.00000000E+00  0.00000000E+00
  0.00000000E+00  0.00000000E+00  0.00000000E+00
  0.00000000E+00  0.00000000E+00  0.00000000E+00
  0.00000000E+00  0.00000000E+00  0.00000000E+00
  0.00000000E+00  0.00000000E+00  0.00000000E+00
  0.00000000E+00  0.00000000E+00  0.00000000E+00
  0.00000000E+00  0.00000000E+00  0.00000000E+00
  0.00000000E+00  0.00000000E+00  0.00000000E+00
  0.00000000E+00  0.00000000E+00  0.00000000E+00
  0.00000000E+00  0.00000000E+00  0.00000000E+00
  0.00000000E+00  0.00000000E+00  0.00000000E+00
  0.00000000E+00  0.00000000E+00  0.00000000E+00
  0.00000000E+00  0.00000000E+00  0.00000000E+00
  0.00000000E+00  0.00000000E+00  0.00000000E+00
  0.00000000E+00  0.00000000E+00  0.00000000E+00
  0.00000000E+00  0.00000000E+00  0.00000000E+00
  0.00000000E+00  0.00000000E+00  0.00000000E+00
  0.00000000E+00  0.00000000E+00  0.00000000E+00
  0.00000000E+00  0.00000000E+00  0.00000000E+00
  0.00000000E+00  0.00000000E+00  0.00000000E+00
  0.00000000E+00  0.00000000E+00  0.00000000E+00
  0.00000000E+00  0.00000000E+00  0.00000000E+00
  0.00000000E+00  0.00000000E+00  0.00000000E+00
  0.00000000E+00  0.00000000E+00  0.00000000E+00
  0.00000000E+00  0.00000000E+00  0.00000000E+00
  0.00000000E+00  0.00000000E+00  0.00000000E+00
  0.00000000E+00  0.00000000E+00  0.00000000E+00
  0.00000000E+00  0.00000000E+00  0.00000000E+00
  0.00000000E+00  0.00000000E+00  0.00000000E+00
  0.00000000E+00  0.00000000E+00  0.00000000E+00
  0.00000000E+00  0.00000000E+00  0.00000000E+00
  0.00000000E+00  0.00000000E+00  0.00000000E+00
  0.00000000E+00  0.00000000E+00  0.00000000E+00
  0.00000000E+00  0.00000000E+00  0.00000000E+00
  0.00000000E+00  0.00000000E+00  0.00000000E+00
  0.00000000E+00  0.00000000E+00  0.00000000E+00
  0.00000000E+00  0.00000000E+00  0.00000000E+00
  0.00000000E+00  0.00000000E+00  0.00000000E+00
  0.00000000E+00  0.00000000E+00  0.00000000E+00
  0.00000000E+00  0.00000000E+00  0.00000000E+00
  0.00000000E+00  0.00000000E+00  0.00000000E+00
  0.00000000E+00  0.00000000E+00  0.00000000E+00
  0.00000000E+00  0.00000000E+00  0.00000000E+00
  0.00000000E+00  0.00000000E+00  0.00000000E+00
  0.00000000E+00  0.00000000E+00  0.00000000E+00
  0.00000000E+00  0.00000000E+00  0.00000000E+00
  0.00000000E+00  0.00000000E+00  0.00000000E+00
  0.00000000E+00  0.00000000E+00  0.00000000E+00
  0.00000000E+00  0.00000000E+00  0.00000000E+00
  0.00000000E+00  0.00000000E+00  0.00000000E+00
  0.00000000E+00  0.00000000E+00  0.00000000E+00
  0.00000000E+00  0.00000000E+00  0.00000000E+00
  0.00000000E+00  0.00000000E+00  0.00000000E+00
  0.00000000E+00  0.00000000E+00  0.00000000E+00
  0.00000000E+00  0.00000000E+00  0.00000000E+00
  0.00000000E+00  0.00000000E+00  0.00000000E+00
  0.00000000E+00  0.00000000E+00  0.00000000E+00
  0.00000000E+00  0.00000000E+00  0.00000000E+00
  0.00000000E+00  0.00000000E+00  0.00000000E+00
  0.00000000E+00  0.00000000E+00  0.00000000E+00
  0.00000000E+00  0.00000000E+00  0.00000000E+00
  0.00000000E+00  0.00000000E+00  0.00000000E+00
  0.00000000E+00  0.00000000E+00  0.00000000E+00
  0.00000000E+00  0.00000000E+00  0.00000000E+00
  0.00000000E+00  0.00000000E+00  0.00000000E+00
  0.00000000E+00  0.00000000E+00  0.00000000E+00
  0.00000000E+00  0.00000000E+00  0.00000000E+00
  0.00000000E+00  0.00000000E+00  0.00000000E+00
  0.00000000E+00  0.00000000E+00  0.00000000E+00
  0.00000000E+00  0.00000000E+00  0.00000000E+00
  0.00000000E+00  0.00000000E+00  0.00000000E+00
  0.00000000E+00  0.00000000E+00  0.00000000E+00
  0.00000000E+00  0.00000000E+00  0.00000000E+00
  0.00000000E+00  0.00000000E+00  0.00000000E+00
