supercell of POSCAR                     
   1.07329600000000     
     9.1016125577399993   -5.3128209557800004   -9.4184911254399992
     9.0821131104399999    5.2871675818400004    9.4140884809200003
    -1.5053809694200000   -7.9210976524300012    4.6939078171600004
   Al   Sc   N 
    71    24    96
Direct
  0.3012167113905875  0.2858928280323454  0.5383611543042264
  0.1417529521029692  0.2414639281516742  0.3036487325658683
  0.3075780286028689  0.4075230178811395  0.3057451373431093
  0.4667941586869588  0.3241453530720264  0.7955932721092651
  0.1367459028519349  0.4965423987915685  0.7878804962320416
  0.2995233716824757  0.1621204361645994  0.7831966210833770
  0.1404791243957817  0.1175090466026276  0.5395882397620326
  0.4759954322329847  0.0736248925391436  0.2955751210919786
  0.2773691427723648  0.1085510279703783  0.3344225541724413
  0.1148666274761325  0.0673195110153770  0.0925624758988306
  0.1130694956328639  0.1957871623021461  0.8240784900694109
  0.2737945769722288  0.3574884293586464  0.8199768032237671
  0.1095222756731573  0.3223952625975954  0.5879252482846482
  0.2669363132113745  0.4839540348016911  0.5786639974708478
  0.4431162243678344  0.2836543746401077  0.3416076932746321
  0.1103510217944361  0.4435880221012880  0.3358212303095911
  0.4463907268594269  0.4024198755427122  0.0967969752334170
  0.8000755780346580  0.2880617931888878  0.5416574767909808
  0.6393200441472402  0.2459117287885420  0.3088332350502583
  0.8050484519315617  0.4088792719203340  0.3047708339831701
  0.9653396963499645  0.3261170067620895  0.7903195841954016
  0.6422233754117599  0.4982684406223683  0.7936614535656048
  0.7993009960540647  0.1635664362636220  0.7834890584149150
  0.9687816638793052  0.4478536644485871  0.5357741256347026
  0.6402655137496112  0.1215579086464444  0.5416353144597394
  0.9760959833668608  0.0728893626170120  0.2950968525433311
  0.7761878712018273  0.1095506547994560  0.3352831485358365
  0.6148276769835590  0.0693928144537708  0.0946325071161098
  0.6126917518355626  0.1970691366183530  0.8262523620268283
  0.7741434168989869  0.3590460464219447  0.8232864334363086
  0.6037941836805558  0.3314230531790301  0.5956825655386027
  0.7713051278252152  0.4863088953564443  0.5807186916992322
  0.9455759884703099  0.2783585938292390  0.3357420075183839
  0.6045723720354133  0.4518363833548591  0.3478401135627891
  0.9455840067032710  0.4015089908756480  0.0956273865415511
  0.3061815431148105  0.7845152019045543  0.5371125964088961
  0.1446614995756619  0.7413604915769625  0.3009304271262394
  0.3090010326130539  0.9059437264484131  0.2983517401567326
  0.4680479067058414  0.8253345661211355  0.7852061278905751
  0.1409059544618856  0.9960454575550202  0.7867213141511940
  0.3149624033068577  0.6438788900973762  0.7595664395795652
  0.4706486312857976  0.9483972032135952  0.5344693255056825
  0.1396908990907733  0.6190046233925415  0.5377142612566388
  0.4771723974925166  0.5747692400118254  0.2920674567025401
  0.2768530206408215  0.6070641083130681  0.3318239843712902
  0.1138190818908242  0.5677297487972268  0.0930693108231040
  0.1168788603577866  0.6948155693332865  0.8195364733536792
  0.2774871500072038  0.8551194066516885  0.8171843192568389
  0.1127687991502384  0.8230014335672777  0.5845534869401448
  0.2734231716749562  0.9840008665166451  0.5765148699158331
  0.4474212066611898  0.7778237395604535  0.3312404276287424
  0.1127814583580644  0.9433749526347768  0.3337319519705488
  0.4485031961589172  0.9015702202528146  0.0918038983644536
  0.8051398589919572  0.7888333609196323  0.5394328477865002
  0.6430983117002143  0.7428925009050147  0.3038614281695047
  0.8092362721412130  0.9086154235018995  0.3020198199190389
  0.9689327568958248  0.8265802090655896  0.7888785997661216
  0.6405029109449814  0.9976068742092608  0.7878802292642106
  0.8008785438488815  0.6644804685030294  0.7836009171979796
  0.9713361300104779  0.9484354263631829  0.5347530119794328
  0.6442268823731894  0.6232158534073449  0.5405619677602260
  0.9756011886787093  0.5727632534756992  0.2946809197772353
  0.7765596398899675  0.6092782625335857  0.3364642130049731
  0.6140611761996055  0.5705024364912745  0.0944950553692081
  0.6154614601765402  0.6986787501055076  0.8242915345809578
  0.7770376491483404  0.8594840916727762  0.8202805181978050
  0.6122373505315508  0.8249628498435158  0.5875495310368066
  0.7730517070967977  0.9867144756538835  0.5785609616212852
  0.9487881855036022  0.7780390593547466  0.3334652162978031
  0.6117717226107118  0.9448824782841996  0.3365714985067285
  0.9497642086498672  0.9015388793346801  0.0931949585039078
  0.4795212557020321  0.1959879614217144  0.0440623901143908
  0.1382102733548152  0.3661027151510368  0.0348656180846589
  0.3092816053518348  0.0247107576666963  0.0371196449592972
  0.2830663696654057  0.2331897684857793  0.0846593413454428
  0.4479264625247765  0.0221020126206142  0.8219924023932492
  0.4437282850165900  0.1538977683882052  0.5738200249442755
  0.9808011563436168  0.1969754378548672  0.0395317734549110
  0.6383579326093525  0.3673697873756510  0.0406644534374507
  0.8104552022479794  0.0255011618289203  0.0386612091018534
  0.7816316421474596  0.2318856305398143  0.0835134181832800
  0.9479173903953964  0.0222781660659948  0.8219300503531173
  0.9433629535338994  0.1535535902721747  0.5744715131889606
  0.4832391199256989  0.6957967486351180  0.0329349837871149
  0.1450784403984784  0.8612243050303547  0.0320009904517775
  0.3107965969914446  0.5213569230633510  0.0349482927160238
  0.2881532240652902  0.7237681297144647  0.0695791648737512
  0.4553867279186150  0.5098716843889761  0.8057357151051150
  0.4524677120670972  0.6433633533544665  0.5628294954710427
  0.9833608627155286  0.6967718683638040  0.0363003679243334
  0.6417157985950723  0.8659564507500406  0.0366154351817443
  0.8103927050656097  0.5269961699412278  0.0427179486173799
  0.7847125554007093  0.7312836226962673  0.0824573319930408
  0.9451134948133486  0.5216048599031211  0.8234453502306209
  0.9441532100394454  0.6524920737572302  0.5735375755701781
  0.2358136836997460  0.3650575387417447  0.6318786041263209
  0.0734398852582245  0.3233396998796607  0.3959796216051856
  0.2371837694755712  0.4884679580542226  0.3887172859761066
  0.4207617504650756  0.2876433045591611  0.1512814808446947
  0.0694420846961421  0.4516896605295599  0.1459061271990123
  0.2380632445276234  0.1055397917612737  0.1480636315264121
  0.3984974754745778  0.3975987618385446  0.9041055972078809
  0.0855101576277448  0.0802301978971229  0.8976656703558064
  0.2355895303230966  0.2420042992294853  0.8755277106444339
  0.3992392802749052  0.0222220591887421  0.6190748201181435
  0.0824285064917305  0.2011548837010508  0.6358934335198612
  0.4053648451146401  0.1552036357795430  0.3670017018977845
  0.2135891611212060  0.1870774862209004  0.4332898251859021
  0.0557425839184802  0.1441908515918300  0.1967006612700786
  0.2109734805122727  0.3158505507203273  0.1944656647391909
  0.3721735865244113  0.1132670186465106  0.9148915473421795
  0.0427981220204217  0.2722763937865693  0.9027252172074469
  0.2077557715478875  0.4376330836556903  0.9014573953109348
  0.3718874103641525  0.2394803741080196  0.6818849095255786
  0.0385616342105664  0.4037913815454672  0.6825644974840159
  0.2116009024119236  0.0664795552331796  0.6733820402646842
  0.3666178120001220  0.3450504064292659  0.4232849918512755
  0.0478720688829952  0.0244356798784082  0.4345017156834317
  0.3867882520367587  0.4768493333612298  0.1999317526752620
  0.7364047429456448  0.3685737108060323  0.6346684190892447
  0.5731751792089455  0.3277728430651763  0.4007233051547843
  0.7382924876769863  0.4902353910374728  0.3919231732347370
  0.9191891642852283  0.2865469965992702  0.1501552648013060
  0.5707671964969450  0.4544891438251781  0.1482421599973165
  0.7387574953279739  0.1050847260060408  0.1490076529571667
  0.9012737453358355  0.3985610624744638  0.9028370875773390
  0.5863784157630292  0.0809021627829054  0.8993387699364206
  0.7363568674112315  0.2433292888728005  0.8761223956834314
  0.8995757694797035  0.0225276539777965  0.6190054661666693
  0.5827211810597888  0.2050191680594722  0.6384452780206473
  0.9047459824546067  0.1555704070364428  0.3672360565873589
  0.7159686018520262  0.1914536749222719  0.4344659144800715
  0.5579753872262216  0.1463708679595683  0.2006800775502313
  0.7153080593501002  0.3161272140862224  0.2008845230223315
  0.8724406547393500  0.1140823817172532  0.9142612261815728
  0.5443095843741546  0.2709573414840278  0.9116260212791545
  0.7137111529343798  0.4402363369884839  0.9119218149714570
  0.8713613957753097  0.2409432322419249  0.6799459881962022
  0.5446109504690639  0.4072937712578835  0.7120591382357304
  0.7117767691674004  0.0689354714150809  0.6744763256054540
  0.8792437716335826  0.3543143218553197  0.4331176022980046
  0.5485727047339211  0.0266111051833704  0.4367023906230756
  0.8859981794002039  0.4759932441686914  0.2006173744024480
  0.2401189258090355  0.8658057906197882  0.6280638989579259
  0.0767683859254191  0.8240147587776576  0.3928415137774479
  0.2405157413570436  0.9876265930455119  0.3866114183508103
  0.4233409536929642  0.7878716753557455  0.1465116354348552
  0.0748479407122034  0.9497921661586162  0.1426357244361753
  0.2364589755809163  0.6011399959087314  0.1460006221142294
  0.4035495685708810  0.8993415461548437  0.8989081572995232
  0.0820225841838891  0.5809721966822536  0.8989499442732836
  0.2374729733304903  0.7428041234819247  0.8714692099516199
  0.3759292564451826  0.5502869737649476  0.6549570905956870
  0.0823988161327378  0.7035524101921595  0.6321792151506145
  0.4034351904964950  0.6564858793421777  0.3613015625550773
  0.2168196148610448  0.6893665436416256  0.4321710074633458
  0.0561439029619279  0.6454270665109760  0.1976983731371362
  0.2198417358473392  0.8123192060960491  0.1949415578644533
  0.3701854389640928  0.6170279457942556  0.9261457863151961
  0.0458363138774303  0.7725860248133145  0.9005647870181193
  0.2124238755687884  0.9382187688806525  0.9009199879223715
  0.3786444971506242  0.7410974871202711  0.6726303457437410
  0.0424978674523828  0.9056012805726539  0.6811250016667998
  0.2015398777638282  0.5654075080472580  0.6725669209039751
  0.3827079955272623  0.8552317123957636  0.4293636966552654
  0.0454948242233826  0.5249029197835924  0.4352622665494010
  0.3884613623610917  0.9770204296755551  0.1958538506662322
  0.7407333329934360  0.8691640610903306  0.6315032272877730
  0.5764118012909876  0.8252880260282751  0.3955625816268977
  0.7405737686562901  0.9897266590634430  0.3890408714580715
  0.9221010097856919  0.7869992969319739  0.1481657652443715
  0.5735278577159661  0.9529029638764541  0.1459260522741133
  0.7380324192014314  0.6062180428753905  0.1509500591495510
  0.9037566777938935  0.8998589638533190  0.9008577883329210
  0.5874335804430331  0.5852408056942338  0.9007379343185491
  0.7391196516860603  0.7456316935883294  0.8768561906686685
  0.8981294377810656  0.5221284168698688  0.6205334295637428
  0.5887124304786511  0.7071054884635970  0.6389899556993939
  0.9054871835052580  0.6561700970707278  0.3666105269169861
  0.7208189843490302  0.6945622240448870  0.4343365677494049
  0.5579568828653620  0.6499453545238367  0.1948659356117304
  0.7185443610915883  0.8171700155378971  0.1990326988665245
  0.8720693079663491  0.6152495526109760  0.9167526348642951
  0.5470628583240611  0.7767185088695996  0.9024502629052122
  0.7122790636578245  0.9399854432608876  0.9039020018795298
  0.8740991440247257  0.7418473418964453  0.6799595713582391
  0.5433339220221782  0.9075422590330859  0.6816453110892695
  0.7132319470320425  0.5697386435869447  0.6778424102294522
  0.8833829379955276  0.8554125984140981  0.4311450645929611
  0.5528593139758868  0.5433065145062557  0.4329690057997837
  0.8888753100617208  0.9763834275079546  0.1970686078826986
 
  0.00000000E+00  0.00000000E+00  0.00000000E+00
  0.00000000E+00  0.00000000E+00  0.00000000E+00
  0.00000000E+00  0.00000000E+00  0.00000000E+00
  0.00000000E+00  0.00000000E+00  0.00000000E+00
  0.00000000E+00  0.00000000E+00  0.00000000E+00
  0.00000000E+00  0.00000000E+00  0.00000000E+00
  0.00000000E+00  0.00000000E+00  0.00000000E+00
  0.00000000E+00  0.00000000E+00  0.00000000E+00
  0.00000000E+00  0.00000000E+00  0.00000000E+00
  0.00000000E+00  0.00000000E+00  0.00000000E+00
  0.00000000E+00  0.00000000E+00  0.00000000E+00
  0.00000000E+00  0.00000000E+00  0.00000000E+00
  0.00000000E+00  0.00000000E+00  0.00000000E+00
  0.00000000E+00  0.00000000E+00  0.00000000E+00
  0.00000000E+00  0.00000000E+00  0.00000000E+00
  0.00000000E+00  0.00000000E+00  0.00000000E+00
  0.00000000E+00  0.00000000E+00  0.00000000E+00
  0.00000000E+00  0.00000000E+00  0.00000000E+00
  0.00000000E+00  0.00000000E+00  0.00000000E+00
  0.00000000E+00  0.00000000E+00  0.00000000E+00
  0.00000000E+00  0.00000000E+00  0.00000000E+00
  0.00000000E+00  0.00000000E+00  0.00000000E+00
  0.00000000E+00  0.00000000E+00  0.00000000E+00
  0.00000000E+00  0.00000000E+00  0.00000000E+00
  0.00000000E+00  0.00000000E+00  0.00000000E+00
  0.00000000E+00  0.00000000E+00  0.00000000E+00
  0.00000000E+00  0.00000000E+00  0.00000000E+00
  0.00000000E+00  0.00000000E+00  0.00000000E+00
  0.00000000E+00  0.00000000E+00  0.00000000E+00
  0.00000000E+00  0.00000000E+00  0.00000000E+00
  0.00000000E+00  0.00000000E+00  0.00000000E+00
  0.00000000E+00  0.00000000E+00  0.00000000E+00
  0.00000000E+00  0.00000000E+00  0.00000000E+00
  0.00000000E+00  0.00000000E+00  0.00000000E+00
  0.00000000E+00  0.00000000E+00  0.00000000E+00
  0.00000000E+00  0.00000000E+00  0.00000000E+00
  0.00000000E+00  0.00000000E+00  0.00000000E+00
  0.00000000E+00  0.00000000E+00  0.00000000E+00
  0.00000000E+00  0.00000000E+00  0.00000000E+00
  0.00000000E+00  0.00000000E+00  0.00000000E+00
  0.00000000E+00  0.00000000E+00  0.00000000E+00
  0.00000000E+00  0.00000000E+00  0.00000000E+00
  0.00000000E+00  0.00000000E+00  0.00000000E+00
  0.00000000E+00  0.00000000E+00  0.00000000E+00
  0.00000000E+00  0.00000000E+00  0.00000000E+00
  0.00000000E+00  0.00000000E+00  0.00000000E+00
  0.00000000E+00  0.00000000E+00  0.00000000E+00
  0.00000000E+00  0.00000000E+00  0.00000000E+00
  0.00000000E+00  0.00000000E+00  0.00000000E+00
  0.00000000E+00  0.00000000E+00  0.00000000E+00
  0.00000000E+00  0.00000000E+00  0.00000000E+00
  0.00000000E+00  0.00000000E+00  0.00000000E+00
  0.00000000E+00  0.00000000E+00  0.00000000E+00
  0.00000000E+00  0.00000000E+00  0.00000000E+00
  0.00000000E+00  0.00000000E+00  0.00000000E+00
  0.00000000E+00  0.00000000E+00  0.00000000E+00
  0.00000000E+00  0.00000000E+00  0.00000000E+00
  0.00000000E+00  0.00000000E+00  0.00000000E+00
  0.00000000E+00  0.00000000E+00  0.00000000E+00
  0.00000000E+00  0.00000000E+00  0.00000000E+00
  0.00000000E+00  0.00000000E+00  0.00000000E+00
  0.00000000E+00  0.00000000E+00  0.00000000E+00
  0.00000000E+00  0.00000000E+00  0.00000000E+00
  0.00000000E+00  0.00000000E+00  0.00000000E+00
  0.00000000E+00  0.00000000E+00  0.00000000E+00
  0.00000000E+00  0.00000000E+00  0.00000000E+00
  0.00000000E+00  0.00000000E+00  0.00000000E+00
  0.00000000E+00  0.00000000E+00  0.00000000E+00
  0.00000000E+00  0.00000000E+00  0.00000000E+00
  0.00000000E+00  0.00000000E+00  0.00000000E+00
  0.00000000E+00  0.00000000E+00  0.00000000E+00
  0.00000000E+00  0.00000000E+00  0.00000000E+00
  0.00000000E+00  0.00000000E+00  0.00000000E+00
  0.00000000E+00  0.00000000E+00  0.00000000E+00
  0.00000000E+00  0.00000000E+00  0.00000000E+00
  0.00000000E+00  0.00000000E+00  0.00000000E+00
  0.00000000E+00  0.00000000E+00  0.00000000E+00
  0.00000000E+00  0.00000000E+00  0.00000000E+00
  0.00000000E+00  0.00000000E+00  0.00000000E+00
  0.00000000E+00  0.00000000E+00  0.00000000E+00
  0.00000000E+00  0.00000000E+00  0.00000000E+00
  0.00000000E+00  0.00000000E+00  0.00000000E+00
  0.00000000E+00  0.00000000E+00  0.00000000E+00
  0.00000000E+00  0.00000000E+00  0.00000000E+00
  0.00000000E+00  0.00000000E+00  0.00000000E+00
  0.00000000E+00  0.00000000E+00  0.00000000E+00
  0.00000000E+00  0.00000000E+00  0.00000000E+00
  0.00000000E+00  0.00000000E+00  0.00000000E+00
  0.00000000E+00  0.00000000E+00  0.00000000E+00
  0.00000000E+00  0.00000000E+00  0.00000000E+00
  0.00000000E+00  0.00000000E+00  0.00000000E+00
  0.00000000E+00  0.00000000E+00  0.00000000E+00
  0.00000000E+00  0.00000000E+00  0.00000000E+00
  0.00000000E+00  0.00000000E+00  0.00000000E+00
  0.00000000E+00  0.00000000E+00  0.00000000E+00
  0.00000000E+00  0.00000000E+00  0.00000000E+00
  0.00000000E+00  0.00000000E+00  0.00000000E+00
  0.00000000E+00  0.00000000E+00  0.00000000E+00
  0.00000000E+00  0.00000000E+00  0.00000000E+00
  0.00000000E+00  0.00000000E+00  0.00000000E+00
  0.00000000E+00  0.00000000E+00  0.00000000E+00
  0.00000000E+00  0.00000000E+00  0.00000000E+00
  0.00000000E+00  0.00000000E+00  0.00000000E+00
  0.00000000E+00  0.00000000E+00  0.00000000E+00
  0.00000000E+00  0.00000000E+00  0.00000000E+00
  0.00000000E+00  0.00000000E+00  0.00000000E+00
  0.00000000E+00  0.00000000E+00  0.00000000E+00
  0.00000000E+00  0.00000000E+00  0.00000000E+00
  0.00000000E+00  0.00000000E+00  0.00000000E+00
  0.00000000E+00  0.00000000E+00  0.00000000E+00
  0.00000000E+00  0.00000000E+00  0.00000000E+00
  0.00000000E+00  0.00000000E+00  0.00000000E+00
  0.00000000E+00  0.00000000E+00  0.00000000E+00
  0.00000000E+00  0.00000000E+00  0.00000000E+00
  0.00000000E+00  0.00000000E+00  0.00000000E+00
  0.00000000E+00  0.00000000E+00  0.00000000E+00
  0.00000000E+00  0.00000000E+00  0.00000000E+00
  0.00000000E+00  0.00000000E+00  0.00000000E+00
  0.00000000E+00  0.00000000E+00  0.00000000E+00
  0.00000000E+00  0.00000000E+00  0.00000000E+00
  0.00000000E+00  0.00000000E+00  0.00000000E+00
  0.00000000E+00  0.00000000E+00  0.00000000E+00
  0.00000000E+00  0.00000000E+00  0.00000000E+00
  0.00000000E+00  0.00000000E+00  0.00000000E+00
  0.00000000E+00  0.00000000E+00  0.00000000E+00
  0.00000000E+00  0.00000000E+00  0.00000000E+00
  0.00000000E+00  0.00000000E+00  0.00000000E+00
  0.00000000E+00  0.00000000E+00  0.00000000E+00
  0.00000000E+00  0.00000000E+00  0.00000000E+00
  0.00000000E+00  0.00000000E+00  0.00000000E+00
  0.00000000E+00  0.00000000E+00  0.00000000E+00
  0.00000000E+00  0.00000000E+00  0.00000000E+00
  0.00000000E+00  0.00000000E+00  0.00000000E+00
  0.00000000E+00  0.00000000E+00  0.00000000E+00
  0.00000000E+00  0.00000000E+00  0.00000000E+00
  0.00000000E+00  0.00000000E+00  0.00000000E+00
  0.00000000E+00  0.00000000E+00  0.00000000E+00
  0.00000000E+00  0.00000000E+00  0.00000000E+00
  0.00000000E+00  0.00000000E+00  0.00000000E+00
  0.00000000E+00  0.00000000E+00  0.00000000E+00
  0.00000000E+00  0.00000000E+00  0.00000000E+00
  0.00000000E+00  0.00000000E+00  0.00000000E+00
  0.00000000E+00  0.00000000E+00  0.00000000E+00
  0.00000000E+00  0.00000000E+00  0.00000000E+00
  0.00000000E+00  0.00000000E+00  0.00000000E+00
  0.00000000E+00  0.00000000E+00  0.00000000E+00
  0.00000000E+00  0.00000000E+00  0.00000000E+00
  0.00000000E+00  0.00000000E+00  0.00000000E+00
  0.00000000E+00  0.00000000E+00  0.00000000E+00
  0.00000000E+00  0.00000000E+00  0.00000000E+00
  0.00000000E+00  0.00000000E+00  0.00000000E+00
  0.00000000E+00  0.00000000E+00  0.00000000E+00
  0.00000000E+00  0.00000000E+00  0.00000000E+00
  0.00000000E+00  0.00000000E+00  0.00000000E+00
  0.00000000E+00  0.00000000E+00  0.00000000E+00
  0.00000000E+00  0.00000000E+00  0.00000000E+00
  0.00000000E+00  0.00000000E+00  0.00000000E+00
  0.00000000E+00  0.00000000E+00  0.00000000E+00
  0.00000000E+00  0.00000000E+00  0.00000000E+00
  0.00000000E+00  0.00000000E+00  0.00000000E+00
  0.00000000E+00  0.00000000E+00  0.00000000E+00
  0.00000000E+00  0.00000000E+00  0.00000000E+00
  0.00000000E+00  0.00000000E+00  0.00000000E+00
  0.00000000E+00  0.00000000E+00  0.00000000E+00
  0.00000000E+00  0.00000000E+00  0.00000000E+00
  0.00000000E+00  0.00000000E+00  0.00000000E+00
  0.00000000E+00  0.00000000E+00  0.00000000E+00
  0.00000000E+00  0.00000000E+00  0.00000000E+00
  0.00000000E+00  0.00000000E+00  0.00000000E+00
  0.00000000E+00  0.00000000E+00  0.00000000E+00
  0.00000000E+00  0.00000000E+00  0.00000000E+00
  0.00000000E+00  0.00000000E+00  0.00000000E+00
  0.00000000E+00  0.00000000E+00  0.00000000E+00
  0.00000000E+00  0.00000000E+00  0.00000000E+00
  0.00000000E+00  0.00000000E+00  0.00000000E+00
  0.00000000E+00  0.00000000E+00  0.00000000E+00
  0.00000000E+00  0.00000000E+00  0.00000000E+00
  0.00000000E+00  0.00000000E+00  0.00000000E+00
  0.00000000E+00  0.00000000E+00  0.00000000E+00
  0.00000000E+00  0.00000000E+00  0.00000000E+00
  0.00000000E+00  0.00000000E+00  0.00000000E+00
  0.00000000E+00  0.00000000E+00  0.00000000E+00
  0.00000000E+00  0.00000000E+00  0.00000000E+00
  0.00000000E+00  0.00000000E+00  0.00000000E+00
  0.00000000E+00  0.00000000E+00  0.00000000E+00
  0.00000000E+00  0.00000000E+00  0.00000000E+00
  0.00000000E+00  0.00000000E+00  0.00000000E+00
  0.00000000E+00  0.00000000E+00  0.00000000E+00
  0.00000000E+00  0.00000000E+00  0.00000000E+00
  0.00000000E+00  0.00000000E+00  0.00000000E+00
  0.00000000E+00  0.00000000E+00  0.00000000E+00
