supercell of POSCAR                     
   1.07329600000000     
     9.1016125577399993   -5.3128209557800004   -9.4184911254399992
     9.0821131104399999    5.2871675818400004    9.4140884809200003
    -1.5053809694200000   -7.9210976524300012    4.6939078171600004
   Al   Sc   N 
    72    24    95
Direct
  0.3279527307521946  0.2555875560500596  0.5003011959239529
  0.1425729372692146  0.2413369978608557  0.3010233274882737
  0.3084834037964157  0.4067357204869069  0.2973308457647619
  0.4717848303105043  0.3254202638070325  0.7859417858379558
  0.1399092412114271  0.4959629102111265  0.7833924892936892
  0.3018224606339643  0.1586694244874067  0.7786773038831143
  0.4716803428193757  0.4473748803896811  0.5334661997633816
  0.1417717236821829  0.1180554265746849  0.5381328944417447
  0.4751855569017138  0.0740311288129618  0.2973285389613238
  0.2734259723118413  0.1003338421202642  0.3289147829000640
  0.1130341848168612  0.0673840121047107  0.0923830708687348
  0.1142866891229204  0.1964524620729620  0.8236038630793416
  0.2891087987066570  0.3522291202429528  0.8510333046655774
  0.0824040853818033  0.3159627706606756  0.5768063800664152
  0.2788591524402193  0.5111930441785759  0.5637860725497248
  0.4538743427563787  0.2800294006144739  0.3284751994237283
  0.1096090207146432  0.4456929805566787  0.3334753785050566
  0.4507432426834583  0.4020595868473222  0.0969401397028022
  0.8044133903671522  0.2870943660714644  0.5400287568949622
  0.6443432944162666  0.2431279938499742  0.3047291576258573
  0.8079597322695875  0.4089341607461989  0.3020054548818436
  0.9649477411727005  0.3260824936239288  0.7928935699421302
  0.6407836622442176  0.4982925724492659  0.7884638889170006
  0.8010805949674022  0.1632077662268472  0.7836638629417720
  0.9676311326267424  0.4515105158626653  0.5330262964510979
  0.6443587191077498  0.1205128838426859  0.5419328059381385
  0.9756201694184057  0.0729902966149538  0.2947565080684527
  0.7767650538982878  0.1085055775539772  0.3354048127880489
  0.6134941811408368  0.0697199255560577  0.0973783966308304
  0.6166989160086374  0.1972507414909970  0.8254538824516757
  0.7757028035058795  0.3596212639843444  0.8210980226583189
  0.6137197654955386  0.3247076988671580  0.5875448457944472
  0.7728383609525622  0.4864136712872025  0.5797606636421548
  0.9443991419556710  0.2774841317853856  0.3315287732868271
  0.6133593432775015  0.4463966931058039  0.3377617780723057
  0.9473219845807250  0.4025788376696724  0.0935260190255534
  0.3022502471689421  0.7856933110073783  0.5394924910243262
  0.1404764850171958  0.7428544378578650  0.3033311178603029
  0.3066679445859464  0.9064773328699332  0.3035488265969093
  0.4660567489976017  0.8258113447046398  0.7924101238004226
  0.1383474064483607  0.9966041153483403  0.7874508408181029
  0.3008440305088129  0.6646189153883384  0.7840498208308873
  0.4688213465232423  0.9459973505632391  0.5378791925336017
  0.1377302587627796  0.6213379099980472  0.5367603728369303
  0.4760672053123614  0.5733893594559518  0.2938258291126346
  0.2769631581873639  0.6110949645742565  0.3285715669952936
  0.1127421577935124  0.5693560721630533  0.0913854953475806
  0.1125396571927837  0.6959903022715324  0.8236855906304967
  0.2733326135819496  0.8575811377356075  0.8201120053427715
  0.1096640519074796  0.8236020369058394  0.5882447860362277
  0.2711107899794811  0.9831202877915004  0.5795979907199325
  0.4465757798515995  0.7785662743223369  0.3355998686466037
  0.1089318518394862  0.9432546398766277  0.3374229014765291
  0.4464870280008668  0.9027055987207575  0.0984499809826005
  0.8017862753461031  0.7875215557071016  0.5411043728281797
  0.6413902328197452  0.7434868845919880  0.3059841723459016
  0.8065727683670048  0.9088434851798226  0.3045562513088740
  0.9659095428998299  0.8265275880434686  0.7918185932434199
  0.6401146581934469  0.9979693842779227  0.7908562515524409
  0.7992677034811706  0.6640266808238451  0.7843166787979712
  0.9689234475125801  0.9471175426394325  0.5371682762325634
  0.6422681274291406  0.6202986520468627  0.5410937121400892
  0.9745229136799409  0.5744724675867303  0.2941753630966062
  0.7766607345686936  0.6095964772627767  0.3352768822112608
  0.6143121803241698  0.5696544773352201  0.0946610967021115
  0.6136312553411400  0.6977052498428122  0.8260004260946729
  0.7747022815622202  0.8586510211904184  0.8226909443766814
  0.6108428716326415  0.8247817947027727  0.5904186555452569
  0.7713044277527459  0.9849389182724479  0.5812793739040885
  0.9453557417364991  0.7788717554330304  0.3362396814074629
  0.6102631975344721  0.9455740478035537  0.3397483258770677
  0.9454857621783219  0.9025902229488452  0.0963409114470224
  0.4831550119117409  0.1952552127784699  0.0341396695740812
  0.1416677918266984  0.3665576833376534  0.0336123759226652
  0.3096241159056135  0.0214431209611163  0.0345029155709398
  0.2848736237794611  0.2260878129691903  0.0836596882922507
  0.4482859123610936  0.0187469570296130  0.8243722984099264
  0.4534357879700224  0.1450970053281750  0.5781679897505043
  0.9825888429932448  0.1971321574226010  0.0378159986202036
  0.6418365387702423  0.3659910020591610  0.0374692038967908
  0.8085990136540460  0.0256327593385208  0.0401778770697447
  0.7844735632966930  0.2307669031831949  0.0814616127004086
  0.9459946234218393  0.0213469200047669  0.8250450104911167
  0.9431119093326927  0.1478708834496132  0.5735210885189943
  0.4807706595542385  0.6975297106893592  0.0398707293275038
  0.1384829102178884  0.8653754619967771  0.0371981402381252
  0.3090409413828539  0.5259634997397242  0.0348722767594296
  0.2826661461492890  0.7322016086494827  0.0807994088738226
  0.4486016243317437  0.5219413065997784  0.8226188626351174
  0.4482069059453053  0.6540826861214128  0.5732271543568714
  0.9787221799816592  0.6989459361909311  0.0410025692401561
  0.6392797303091697  0.8669507027721224  0.0393744829369638
  0.8087793604574713  0.5263493396225982  0.0396348926883334
  0.7817776533532950  0.7324793808372618  0.0841029848336206
  0.9462602607314210  0.5239538008815572  0.8241488879912211
  0.9425925291228694  0.6548148396858906  0.5752151172071649
  0.0767418324129352  0.3249800619603391  0.3930351369003873
  0.2389609213816328  0.4879115960920544  0.3826809794265955
  0.4216223771223326  0.2859337146562595  0.1456296645237742
  0.0731064547143134  0.4518364221011595  0.1429325848642122
  0.2372845011363367  0.1008927887017990  0.1457576151881455
  0.4093805754004336  0.3979703328192556  0.9031234601926172
  0.0846102465880776  0.0824546110180364  0.8977096468072219
  0.2390343825744310  0.2386032223087682  0.8741345591356904
  0.3968073265417971  0.0191812099733824  0.6230532091819896
  0.0856522020887098  0.2045467070281077  0.6341842019624906
  0.3990424612530745  0.1636523600923354  0.3797694864582439
  0.2159267966766834  0.1873530978065148  0.4283539038363173
  0.0566365282880099  0.1458154658827624  0.1978842813766519
  0.2168575188494373  0.3146690032686195  0.1948467847476891
  0.3726592212111512  0.1125302835509103  0.9141904612173946
  0.0468989777493576  0.2752189997875405  0.9029192874407173
  0.2158572697508205  0.4333442477800489  0.8864079930782935
  0.3750526657344224  0.2394432103902417  0.6759573008713744
  0.0402608057036389  0.4054589519175309  0.6797722246109004
  0.2105823306034722  0.0672086192265553  0.6736817546732112
  0.3837170079796337  0.3551477046351366  0.4257535281868314
  0.0463402269678781  0.0264975003426784  0.4384758006910872
  0.3868111946141752  0.4768732481189275  0.1940018090979834
  0.7406564747363120  0.3680146666051058  0.6318853246090441
  0.5778294410159290  0.3260075265129743  0.3960378274000149
  0.7405505403735759  0.4900820106501058  0.3903157688631893
  0.9219609792371983  0.2876628098934191  0.1480649661783318
  0.5736084350762241  0.4529928675667705  0.1480393647341813
  0.7367876604467511  0.1059097753693266  0.1505363388608316
  0.9024950934746911  0.4000206761009011  0.9010728552580360
  0.5847821583579744  0.0831296892260980  0.9017838298654226
  0.7390565713011981  0.2445542941869050  0.8757402024935104
  0.8974210873328659  0.0203868967518517  0.6224108237360539
  0.5879394805227278  0.2051273956050963  0.6379584873797910
  0.9054373811655978  0.1564433453204828  0.3682143367906860
  0.7181048702144963  0.1913123031453594  0.4345516513445062
  0.5543491523107349  0.1479438372207440  0.2024596527482174
  0.7177765565041483  0.3160666774164085  0.1988495229102440
  0.8723399258247895  0.1150253820444362  0.9175827221557640
  0.5469334234537655  0.2740435550184301  0.9031657744248349
  0.7107649983288269  0.4396914580882978  0.9045018998764291
  0.8751323192953819  0.2397307976859366  0.6788714455390235
  0.5421920929308541  0.4064520785012746  0.6813496867084723
  0.7117185707413114  0.0683790545977487  0.6775266075726591
  0.8822759701020360  0.3551812906972955  0.4317319279873502
  0.5448794292262988  0.0294925972944924  0.4425346052094525
  0.8876013993636533  0.4771177843872820  0.1978123482162246
  0.2374375826801156  0.8652871607504480  0.6313608171130980
  0.0737902714228014  0.8240580114117790  0.3964311970944507
  0.2375463263892073  0.9862517422508787  0.3904083603050452
  0.4193288831826933  0.7875969473550128  0.1508379979548593
  0.0704610197468227  0.9521228181108512  0.1471054990305447
  0.2369474595616410  0.6040220900486375  0.1439198117686118
  0.3993377234705520  0.8983626765528925  0.9052421475250441
  0.0871249447148941  0.5781486834639935  0.8948957422323787
  0.2358198466336461  0.7422096860690459  0.8737647941138533
  0.3979614736415726  0.5201725893936739  0.6179979238316378
  0.0825463771137791  0.7028291447835073  0.6358935020377032
  0.4043177208334470  0.6553457641572464  0.3670271972622388
  0.2160775908741002  0.6895099297562268  0.4316483377792224
  0.0557897556121318  0.6460433419492801  0.1964966762067633
  0.2155844735492352  0.8155924963368477  0.1983553297837091
  0.3724959090722635  0.6132916811851175  0.9133004001057969
  0.0437476474637819  0.7724136345688493  0.9045019379426549
  0.2082989313629326  0.9376794931861951  0.9031620793662896
  0.3734588649153068  0.7392246405514769  0.6788482024522935
  0.0405845956664734  0.9052706622451083  0.6839358239963076
  0.2106094709717752  0.5681865816880034  0.6710250028023381
  0.3801970079065882  0.8536897650976130  0.4329604297479150
  0.0473233212403770  0.5260254712340569  0.4343630996083618
  0.3859274438295941  0.9790939020426634  0.2028967513930411
  0.7376117642603504  0.8675256640830611  0.6337641565524663
  0.5737470769616806  0.8258195523117209  0.3988422440582013
  0.7381341761595266  0.9902228551667704  0.3923151717720756
  0.9187618687954142  0.7883561847778466  0.1516282412529293
  0.5704383601075946  0.9538766481178911  0.1500242132086740
  0.7373883502935712  0.6059878310871696  0.1497119980061967
  0.9011114869486789  0.8993397430584267  0.9038779240939476
  0.5844725719499451  0.5816975029672804  0.8988307044889297
  0.7361631843238001  0.7439010917620053  0.8772139056185893
  0.8989874628908581  0.5236891097812659  0.6211189934299171
  0.5847213757181322  0.7039461436461920  0.6377295534106366
  0.9046161750036958  0.6564388904743055  0.3677370198160261
  0.7163357004600570  0.6913089620915400  0.4343551781927601
  0.5559893990914873  0.6469687433540727  0.1986981798486624
  0.7148387566907957  0.8174682684869552  0.2011134936499843
  0.8717215405844314  0.6148195846794948  0.9161950152082241
  0.5441370085412416  0.7742592362417966  0.9061953803524574
  0.7099435698449597  0.9393516237013699  0.9066542918536342
  0.8718153601824099  0.7417638978793946  0.6815558402093416
  0.5403043340552500  0.9064495481504409  0.6869169565411823
  0.7116776939382845  0.5685278466228070  0.6754360793306233
  0.8799095138165995  0.8549221331387145  0.4335409543047533
  0.5472065985330019  0.5270874080880148  0.4370234382764266
  0.8858718600672546  0.9777037923568628  0.2004370346282300
 
  0.00000000E+00  0.00000000E+00  0.00000000E+00
  0.00000000E+00  0.00000000E+00  0.00000000E+00
  0.00000000E+00  0.00000000E+00  0.00000000E+00
  0.00000000E+00  0.00000000E+00  0.00000000E+00
  0.00000000E+00  0.00000000E+00  0.00000000E+00
  0.00000000E+00  0.00000000E+00  0.00000000E+00
  0.00000000E+00  0.00000000E+00  0.00000000E+00
  0.00000000E+00  0.00000000E+00  0.00000000E+00
  0.00000000E+00  0.00000000E+00  0.00000000E+00
  0.00000000E+00  0.00000000E+00  0.00000000E+00
  0.00000000E+00  0.00000000E+00  0.00000000E+00
  0.00000000E+00  0.00000000E+00  0.00000000E+00
  0.00000000E+00  0.00000000E+00  0.00000000E+00
  0.00000000E+00  0.00000000E+00  0.00000000E+00
  0.00000000E+00  0.00000000E+00  0.00000000E+00
  0.00000000E+00  0.00000000E+00  0.00000000E+00
  0.00000000E+00  0.00000000E+00  0.00000000E+00
  0.00000000E+00  0.00000000E+00  0.00000000E+00
  0.00000000E+00  0.00000000E+00  0.00000000E+00
  0.00000000E+00  0.00000000E+00  0.00000000E+00
  0.00000000E+00  0.00000000E+00  0.00000000E+00
  0.00000000E+00  0.00000000E+00  0.00000000E+00
  0.00000000E+00  0.00000000E+00  0.00000000E+00
  0.00000000E+00  0.00000000E+00  0.00000000E+00
  0.00000000E+00  0.00000000E+00  0.00000000E+00
  0.00000000E+00  0.00000000E+00  0.00000000E+00
  0.00000000E+00  0.00000000E+00  0.00000000E+00
  0.00000000E+00  0.00000000E+00  0.00000000E+00
  0.00000000E+00  0.00000000E+00  0.00000000E+00
  0.00000000E+00  0.00000000E+00  0.00000000E+00
  0.00000000E+00  0.00000000E+00  0.00000000E+00
  0.00000000E+00  0.00000000E+00  0.00000000E+00
  0.00000000E+00  0.00000000E+00  0.00000000E+00
  0.00000000E+00  0.00000000E+00  0.00000000E+00
  0.00000000E+00  0.00000000E+00  0.00000000E+00
  0.00000000E+00  0.00000000E+00  0.00000000E+00
  0.00000000E+00  0.00000000E+00  0.00000000E+00
  0.00000000E+00  0.00000000E+00  0.00000000E+00
  0.00000000E+00  0.00000000E+00  0.00000000E+00
  0.00000000E+00  0.00000000E+00  0.00000000E+00
  0.00000000E+00  0.00000000E+00  0.00000000E+00
  0.00000000E+00  0.00000000E+00  0.00000000E+00
  0.00000000E+00  0.00000000E+00  0.00000000E+00
  0.00000000E+00  0.00000000E+00  0.00000000E+00
  0.00000000E+00  0.00000000E+00  0.00000000E+00
  0.00000000E+00  0.00000000E+00  0.00000000E+00
  0.00000000E+00  0.00000000E+00  0.00000000E+00
  0.00000000E+00  0.00000000E+00  0.00000000E+00
  0.00000000E+00  0.00000000E+00  0.00000000E+00
  0.00000000E+00  0.00000000E+00  0.00000000E+00
  0.00000000E+00  0.00000000E+00  0.00000000E+00
  0.00000000E+00  0.00000000E+00  0.00000000E+00
  0.00000000E+00  0.00000000E+00  0.00000000E+00
  0.00000000E+00  0.00000000E+00  0.00000000E+00
  0.00000000E+00  0.00000000E+00  0.00000000E+00
  0.00000000E+00  0.00000000E+00  0.00000000E+00
  0.00000000E+00  0.00000000E+00  0.00000000E+00
  0.00000000E+00  0.00000000E+00  0.00000000E+00
  0.00000000E+00  0.00000000E+00  0.00000000E+00
  0.00000000E+00  0.00000000E+00  0.00000000E+00
  0.00000000E+00  0.00000000E+00  0.00000000E+00
  0.00000000E+00  0.00000000E+00  0.00000000E+00
  0.00000000E+00  0.00000000E+00  0.00000000E+00
  0.00000000E+00  0.00000000E+00  0.00000000E+00
  0.00000000E+00  0.00000000E+00  0.00000000E+00
  0.00000000E+00  0.00000000E+00  0.00000000E+00
  0.00000000E+00  0.00000000E+00  0.00000000E+00
  0.00000000E+00  0.00000000E+00  0.00000000E+00
  0.00000000E+00  0.00000000E+00  0.00000000E+00
  0.00000000E+00  0.00000000E+00  0.00000000E+00
  0.00000000E+00  0.00000000E+00  0.00000000E+00
  0.00000000E+00  0.00000000E+00  0.00000000E+00
  0.00000000E+00  0.00000000E+00  0.00000000E+00
  0.00000000E+00  0.00000000E+00  0.00000000E+00
  0.00000000E+00  0.00000000E+00  0.00000000E+00
  0.00000000E+00  0.00000000E+00  0.00000000E+00
  0.00000000E+00  0.00000000E+00  0.00000000E+00
  0.00000000E+00  0.00000000E+00  0.00000000E+00
  0.00000000E+00  0.00000000E+00  0.00000000E+00
  0.00000000E+00  0.00000000E+00  0.00000000E+00
  0.00000000E+00  0.00000000E+00  0.00000000E+00
  0.00000000E+00  0.00000000E+00  0.00000000E+00
  0.00000000E+00  0.00000000E+00  0.00000000E+00
  0.00000000E+00  0.00000000E+00  0.00000000E+00
  0.00000000E+00  0.00000000E+00  0.00000000E+00
  0.00000000E+00  0.00000000E+00  0.00000000E+00
  0.00000000E+00  0.00000000E+00  0.00000000E+00
  0.00000000E+00  0.00000000E+00  0.00000000E+00
  0.00000000E+00  0.00000000E+00  0.00000000E+00
  0.00000000E+00  0.00000000E+00  0.00000000E+00
  0.00000000E+00  0.00000000E+00  0.00000000E+00
  0.00000000E+00  0.00000000E+00  0.00000000E+00
  0.00000000E+00  0.00000000E+00  0.00000000E+00
  0.00000000E+00  0.00000000E+00  0.00000000E+00
  0.00000000E+00  0.00000000E+00  0.00000000E+00
  0.00000000E+00  0.00000000E+00  0.00000000E+00
  0.00000000E+00  0.00000000E+00  0.00000000E+00
  0.00000000E+00  0.00000000E+00  0.00000000E+00
  0.00000000E+00  0.00000000E+00  0.00000000E+00
  0.00000000E+00  0.00000000E+00  0.00000000E+00
  0.00000000E+00  0.00000000E+00  0.00000000E+00
  0.00000000E+00  0.00000000E+00  0.00000000E+00
  0.00000000E+00  0.00000000E+00  0.00000000E+00
  0.00000000E+00  0.00000000E+00  0.00000000E+00
  0.00000000E+00  0.00000000E+00  0.00000000E+00
  0.00000000E+00  0.00000000E+00  0.00000000E+00
  0.00000000E+00  0.00000000E+00  0.00000000E+00
  0.00000000E+00  0.00000000E+00  0.00000000E+00
  0.00000000E+00  0.00000000E+00  0.00000000E+00
  0.00000000E+00  0.00000000E+00  0.00000000E+00
  0.00000000E+00  0.00000000E+00  0.00000000E+00
  0.00000000E+00  0.00000000E+00  0.00000000E+00
  0.00000000E+00  0.00000000E+00  0.00000000E+00
  0.00000000E+00  0.00000000E+00  0.00000000E+00
  0.00000000E+00  0.00000000E+00  0.00000000E+00
  0.00000000E+00  0.00000000E+00  0.00000000E+00
  0.00000000E+00  0.00000000E+00  0.00000000E+00
  0.00000000E+00  0.00000000E+00  0.00000000E+00
  0.00000000E+00  0.00000000E+00  0.00000000E+00
  0.00000000E+00  0.00000000E+00  0.00000000E+00
  0.00000000E+00  0.00000000E+00  0.00000000E+00
  0.00000000E+00  0.00000000E+00  0.00000000E+00
  0.00000000E+00  0.00000000E+00  0.00000000E+00
  0.00000000E+00  0.00000000E+00  0.00000000E+00
  0.00000000E+00  0.00000000E+00  0.00000000E+00
  0.00000000E+00  0.00000000E+00  0.00000000E+00
  0.00000000E+00  0.00000000E+00  0.00000000E+00
  0.00000000E+00  0.00000000E+00  0.00000000E+00
  0.00000000E+00  0.00000000E+00  0.00000000E+00
  0.00000000E+00  0.00000000E+00  0.00000000E+00
  0.00000000E+00  0.00000000E+00  0.00000000E+00
  0.00000000E+00  0.00000000E+00  0.00000000E+00
  0.00000000E+00  0.00000000E+00  0.00000000E+00
  0.00000000E+00  0.00000000E+00  0.00000000E+00
  0.00000000E+00  0.00000000E+00  0.00000000E+00
  0.00000000E+00  0.00000000E+00  0.00000000E+00
  0.00000000E+00  0.00000000E+00  0.00000000E+00
  0.00000000E+00  0.00000000E+00  0.00000000E+00
  0.00000000E+00  0.00000000E+00  0.00000000E+00
  0.00000000E+00  0.00000000E+00  0.00000000E+00
  0.00000000E+00  0.00000000E+00  0.00000000E+00
  0.00000000E+00  0.00000000E+00  0.00000000E+00
  0.00000000E+00  0.00000000E+00  0.00000000E+00
  0.00000000E+00  0.00000000E+00  0.00000000E+00
  0.00000000E+00  0.00000000E+00  0.00000000E+00
  0.00000000E+00  0.00000000E+00  0.00000000E+00
  0.00000000E+00  0.00000000E+00  0.00000000E+00
  0.00000000E+00  0.00000000E+00  0.00000000E+00
  0.00000000E+00  0.00000000E+00  0.00000000E+00
  0.00000000E+00  0.00000000E+00  0.00000000E+00
  0.00000000E+00  0.00000000E+00  0.00000000E+00
  0.00000000E+00  0.00000000E+00  0.00000000E+00
  0.00000000E+00  0.00000000E+00  0.00000000E+00
  0.00000000E+00  0.00000000E+00  0.00000000E+00
  0.00000000E+00  0.00000000E+00  0.00000000E+00
  0.00000000E+00  0.00000000E+00  0.00000000E+00
  0.00000000E+00  0.00000000E+00  0.00000000E+00
  0.00000000E+00  0.00000000E+00  0.00000000E+00
  0.00000000E+00  0.00000000E+00  0.00000000E+00
  0.00000000E+00  0.00000000E+00  0.00000000E+00
  0.00000000E+00  0.00000000E+00  0.00000000E+00
  0.00000000E+00  0.00000000E+00  0.00000000E+00
  0.00000000E+00  0.00000000E+00  0.00000000E+00
  0.00000000E+00  0.00000000E+00  0.00000000E+00
  0.00000000E+00  0.00000000E+00  0.00000000E+00
  0.00000000E+00  0.00000000E+00  0.00000000E+00
  0.00000000E+00  0.00000000E+00  0.00000000E+00
  0.00000000E+00  0.00000000E+00  0.00000000E+00
  0.00000000E+00  0.00000000E+00  0.00000000E+00
  0.00000000E+00  0.00000000E+00  0.00000000E+00
  0.00000000E+00  0.00000000E+00  0.00000000E+00
  0.00000000E+00  0.00000000E+00  0.00000000E+00
  0.00000000E+00  0.00000000E+00  0.00000000E+00
  0.00000000E+00  0.00000000E+00  0.00000000E+00
  0.00000000E+00  0.00000000E+00  0.00000000E+00
  0.00000000E+00  0.00000000E+00  0.00000000E+00
  0.00000000E+00  0.00000000E+00  0.00000000E+00
  0.00000000E+00  0.00000000E+00  0.00000000E+00
  0.00000000E+00  0.00000000E+00  0.00000000E+00
  0.00000000E+00  0.00000000E+00  0.00000000E+00
  0.00000000E+00  0.00000000E+00  0.00000000E+00
  0.00000000E+00  0.00000000E+00  0.00000000E+00
  0.00000000E+00  0.00000000E+00  0.00000000E+00
  0.00000000E+00  0.00000000E+00  0.00000000E+00
  0.00000000E+00  0.00000000E+00  0.00000000E+00
  0.00000000E+00  0.00000000E+00  0.00000000E+00
  0.00000000E+00  0.00000000E+00  0.00000000E+00
  0.00000000E+00  0.00000000E+00  0.00000000E+00
  0.00000000E+00  0.00000000E+00  0.00000000E+00
  0.00000000E+00  0.00000000E+00  0.00000000E+00
  0.00000000E+00  0.00000000E+00  0.00000000E+00
