supercell of POSCAR                     
   1.07329600000000     
     9.1016125577399993   -5.3128209557800004   -9.4184911254399992
     9.0821131104399999    5.2871675818400004    9.4140884809200003
    -1.5053809694200000   -7.9210976524300012    4.6939078171600004
   Al   Sc   N 
    72    23    96
Direct
  0.3016304232324956  0.2877853045500700  0.5397586089221633
  0.1429008571203809  0.2368114980627354  0.3041303493913290
  0.3127446604774136  0.4071587428247483  0.3028657260486867
  0.4662923340830574  0.3277852972621105  0.7921076248046788
  0.1401650802018608  0.4976529222124668  0.7884646781083688
  0.2961549758221409  0.1690619753699565  0.7943545546363140
  0.4703628172249381  0.4483006312588600  0.5376544781526178
  0.1410584092204346  0.1191398821281027  0.5409813071762102
  0.4745222959965218  0.0745164007226151  0.2954229754069999
  0.2766800071056466  0.1093547981342553  0.3337446615109201
  0.1141243732628539  0.0701134809361363  0.0942835956461252
  0.1120751015363055  0.1940299980013194  0.8199373737242226
  0.2768623780442212  0.3586865995078696  0.8163175968233602
  0.1097768587799663  0.3236206986742189  0.5865654017629183
  0.2719387708272833  0.4869879361576395  0.5778504556022952
  0.4457398642157315  0.2782933286427607  0.3346361604048624
  0.1338894655293572  0.4155678097517921  0.3017712511919299
  0.4457171429530717  0.4023872024044124  0.0954171314701426
  0.8017384942287151  0.2863841463262347  0.5391696349142592
  0.6394349165241451  0.2425639956334678  0.3029491100410411
  0.8085846221726030  0.4078807938008921  0.3023248072671194
  0.9666660035669921  0.3262089109867219  0.7909617458399225
  0.6398164976125855  0.4966705418150354  0.7891686255079478
  0.7986540133986679  0.1624080176278966  0.7818334596184187
  0.9696507899531639  0.4493237629323019  0.5369764614939498
  0.6398171147741678  0.1189450843693152  0.5395475901399394
  0.9744578782267013  0.0723034394826385  0.2938597045076463
  0.7752906537528759  0.1080673817792785  0.3333633625105250
  0.6114903600711088  0.0700858126083901  0.0910265706530424
  0.6111999379662549  0.1956620041923571  0.8256862130744906
  0.7744676912520276  0.3575422214058932  0.8214034192584947
  0.6101711476817471  0.3227693023707729  0.5886502156926952
  0.7711197856976142  0.4840381523012169  0.5795407043974663
  0.9465133859949262  0.2780195483930399  0.3352531119851818
  0.6102855898627766  0.4437054147530759  0.3361292136047851
  0.9521509272414974  0.4007257944805929  0.0946095711215946
  0.3034534428992046  0.7879427982898903  0.5394216205501436
  0.1422531332387607  0.7415540391420876  0.3039210865294990
  0.3074542093457637  0.9104381151006109  0.3024330215252675
  0.4680362747816034  0.8265220300629039  0.7881408815607713
  0.1398968898643886  0.9976879055600918  0.7891973442769924
  0.3002469137880439  0.6645427131894834  0.7824509886115081
  0.4703771482973877  0.9486844350866264  0.5351938484862089
  0.1407770596462541  0.6206576769583947  0.5412893298865384
  0.4762344011594024  0.5741601688393203  0.2939542805955213
  0.2771295156332911  0.6092949277934281  0.3348223523151574
  0.1152036611959915  0.5638437069179503  0.0931313337252604
  0.1151604515267621  0.6989375956187516  0.8260579642958277
  0.2768271329143133  0.8611627592173221  0.8231620308747409
  0.1121860744129606  0.8250327394433086  0.5882907827302617
  0.2729842906476989  0.9873363933165606  0.5822961102253785
  0.4473760377703044  0.7794825228855018  0.3340633708267475
  0.1116688310386635  0.9449761406792874  0.3363681173090782
  0.4456137430771463  0.9042704093678680  0.0924160185211846
  0.8053836774523546  0.7843565743438390  0.5386189441224190
  0.6427416611321632  0.7424248472430790  0.3027222702338221
  0.8074793730401453  0.9071969052249074  0.3006828586803891
  0.9683083788987048  0.8243943079703371  0.7879780098890592
  0.6398547581798937  0.9960545640023426  0.7858964828322641
  0.8025733127435757  0.6613240311532991  0.7799289063888679
  0.9702360122467155  0.9480569229234916  0.5353037618447019
  0.6415734476774873  0.6187789015277119  0.5395038529972425
  0.9766409097027946  0.5731077228697430  0.2969600500348974
  0.7769368383711637  0.6081955055928248  0.3338230979872847
  0.6147166035753386  0.5693592323513528  0.0929914667253726
  0.6149397688257139  0.6963223719280691  0.8223861921411810
  0.7762429421301320  0.8572014114050646  0.8189392535301039
  0.6120404720020929  0.8229990590890353  0.5853146368120079
  0.7724445826159396  0.9841476523835269  0.5769322638667091
  0.9469024798850043  0.7781686026834578  0.3342063943087936
  0.6106442714278089  0.9446991884000013  0.3347021878382748
  0.9466881026760916  0.9008509979729524  0.0928380399820696
  0.4695339676283936  0.2019735772996540  0.0425264956531493
  0.1586975920461526  0.3449892342642045  0.0217497052264690
  0.3054880084620279  0.0373631657730584  0.0421742568482060
  0.4464596259004594  0.0231024821523889  0.8243611385258305
  0.4412689620720087  0.1544780227182301  0.5794940738215502
  0.9798760379744067  0.1971527322545441  0.0381450907092287
  0.6368343558868261  0.3645278682227016  0.0385890423333635
  0.8077140833339271  0.0252666800482686  0.0376946498204163
  0.7823070224745408  0.2314833548583337  0.0816923193236789
  0.9462105952512374  0.0209145744599866  0.8222509602880450
  0.9430271044867879  0.1523500730377734  0.5729026930426997
  0.4813766857132578  0.6989749247633270  0.0385618734381836
  0.1423884440058387  0.8696032341698583  0.0393836573621655
  0.3087734483129836  0.5262528975344338  0.0382867555979232
  0.2834954591484475  0.7321232531779103  0.0825543722458733
  0.4470939067081403  0.5239705863901207  0.8242222245302600
  0.4449858989889535  0.6523776977925522  0.5727085752169074
  0.9836300572831860  0.6961710445558040  0.0394730585862249
  0.6406448818522748  0.8657904553693925  0.0358043599592648
  0.8103587477484808  0.5225711804801279  0.0394326452637515
  0.7848556208345556  0.7288322449366333  0.0787038895337702
  0.9477435507160195  0.5209559445759737  0.8251169676828951
  0.9509746390119957  0.6452121077165529  0.5669932479078525
  0.2371478453217080  0.3689328473611795  0.6277646169443187
  0.0723196342077301  0.3203210324212051  0.3971795583818860
  0.2441984736503429  0.4925263536247897  0.3907718450749869
  0.4262261780545771  0.2944116889654822  0.1580250685565971
  0.0771189084858150  0.4451084400699443  0.1335922275607615
  0.2323112393461670  0.1013211462767032  0.1564027445061882
  0.4029702982189320  0.4019886016952157  0.9012143479583727
  0.0827259654531005  0.0797637210398321  0.8970864093676170
  0.2301210910064029  0.2494426858114878  0.8735774166211172
  0.3997220411313904  0.0217578980421820  0.6198083983191580
  0.0809899829797729  0.2019882266420368  0.6323667536920752
  0.4055296736829277  0.1561461787175986  0.3720064199379891
  0.2172200544434375  0.1896399957599542  0.4369698587287800
  0.0531613032684675  0.1453686107201264  0.1970285533410703
  0.2045586381069029  0.3316698290182813  0.2249181182767401
  0.3725963879597032  0.1125413816323899  0.9059101292416969
  0.0423657263980317  0.2707780446712036  0.9014871017375299
  0.2131327850943876  0.4409027647186434  0.9016469690503257
  0.3705046531195251  0.2441114178696608  0.6837625448402207
  0.0407923800725172  0.4060316565109829  0.6844875495368328
  0.2106952506056956  0.0696657892766339  0.6776131705178443
  0.3825645378656759  0.3548645108222814  0.4360579094866992
  0.0467782360402964  0.0256593524948272  0.4359237275294632
  0.3873105406678121  0.4797422064489254  0.1976767258344623
  0.7373740673479432  0.3659213763212463  0.6325052940621987
  0.5759457870363676  0.3249260035986197  0.3989775243037883
  0.7394674433146733  0.4888755583381084  0.3893960549101507
  0.9186933062002964  0.2865302588213297  0.1498509293857637
  0.5723014049349757  0.4550597736083759  0.1464077355386166
  0.7356869737353335  0.1050493961460290  0.1476971679306942
  0.9004755983658015  0.3982860091405556  0.9025877409921108
  0.5866336337649614  0.0792051054593514  0.8955529763520218
  0.7351117722845828  0.2423099049855324  0.8744628653364188
  0.8981621326508105  0.0214189855444360  0.6191262464258074
  0.5822565115685094  0.2019333009141775  0.6366325261083787
  0.9027557199318679  0.1548317057564077  0.3661055983055661
  0.7151159135085621  0.1900170119843736  0.4325196462196885
  0.5534908797055849  0.1469281548653996  0.1949957586016353
  0.7158581020618584  0.3164261917664248  0.1994991607942538
  0.8704167905162308  0.1134506613081143  0.9145596079002232
  0.5424222872766222  0.2726581617758015  0.9049565226296892
  0.7094342516997116  0.4377101158059062  0.9060660216984360
  0.8717101950826560  0.2404310966576233  0.6795736016332654
  0.5419447792654850  0.4058203426516656  0.6842930193698962
  0.7113726845230488  0.0667248892173689  0.6723270593973893
  0.8804158868196623  0.3544968384550344  0.4331586192736836
  0.5476903429489894  0.0253190521033488  0.4344504686711659
  0.8899371505184988  0.4755408745927951  0.1986868942068512
  0.2399703050484092  0.8684589262372882  0.6330824859532527
  0.0750306001174152  0.8241216779727765  0.3956849592027467
  0.2393993992586658  0.9888943657687861  0.3935137558005550
  0.4208775454600655  0.7892963098879946  0.1491166215868773
  0.0694080808942417  0.9519348812123027  0.1465280563773703
  0.2381937116392194  0.6068247959983850  0.1491383927413636
  0.4039653597241610  0.8976618046758773  0.8990126943634209
  0.0856940864641231  0.5829952425717124  0.8985692771849330
  0.2383834329619319  0.7454051213101778  0.8763419289063279
  0.3991246869739982  0.5228152242000590  0.6216438626811822
  0.0867414344759680  0.7074914094533895  0.6404830131196348
  0.4059988294349139  0.6576236654477299  0.3665900338785661
  0.2173043945853479  0.6916991523611387  0.4344395816591131
  0.0576403343614658  0.6434452657136163  0.1979936602949053
  0.2163886109428077  0.8166831735509916  0.2002327861952011
  0.3723268057390996  0.6166451284646755  0.9164393159102318
  0.0464835456252146  0.7759065704703190  0.9077336522585711
  0.2121722544331135  0.9413771488294955  0.9056158989267260
  0.3740373260985663  0.7405869074552243  0.6780891070912531
  0.0416400578187464  0.9059470820858948  0.6825535311310205
  0.2118143351586781  0.5694580097085904  0.6756040384094391
  0.3816735007119334  0.8554602698158362  0.4309795022000529
  0.0367992780044375  0.5404712698608591  0.4545603548621600
  0.3856645541589714  0.9791382572136271  0.1958006990892187
  0.7400067418950655  0.8654804427552136  0.6294798685334584
  0.5760360404322071  0.8245240448896141  0.3937598992504263
  0.7390223898507386  0.9880586587824780  0.3874284112404425
  0.9208940772368592  0.7863142877345268  0.1485048978966788
  0.5716419949106069  0.9524634321650254  0.1440170179345657
  0.7383206531891986  0.6040260053466824  0.1477103179207830
  0.9018524339970284  0.8974191944677798  0.8995255165377500
  0.5859306703990725  0.5821730141295305  0.8982899402398630
  0.7382621615042737  0.7419801946583604  0.8718653724446597
  0.8952212125902506  0.5198199416491960  0.6262107732952771
  0.5843860535876289  0.7028420311010066  0.6345919833694964
  0.9030940266527949  0.6569854216661355  0.3640089353011646
  0.7165776924485527  0.6900098166777155  0.4326438606640437
  0.5568355557299043  0.6472282647734815  0.1969234045964896
  0.7171570250256849  0.8146647071361173  0.1962117142065907
  0.8722403882201633  0.6140517701471921  0.9181257368600058
  0.5461610848182659  0.7736172282664242  0.9024090295682754
  0.7110530618829998  0.9374979807175023  0.9019319457109489
  0.8762295137746889  0.7373401055684781  0.6764776568443125
  0.5430182954954290  0.9040666162364772  0.6795259230548893
  0.7108036631464927  0.5671185254970226  0.6749406501786908
  0.8812469684215500  0.8547904969772375  0.4309221344562957
  0.5471658175013232  0.5263618038959095  0.4367914109025577
  0.8855770518654751  0.9759289384807630  0.1960107874534387
 
  0.00000000E+00  0.00000000E+00  0.00000000E+00
  0.00000000E+00  0.00000000E+00  0.00000000E+00
  0.00000000E+00  0.00000000E+00  0.00000000E+00
  0.00000000E+00  0.00000000E+00  0.00000000E+00
  0.00000000E+00  0.00000000E+00  0.00000000E+00
  0.00000000E+00  0.00000000E+00  0.00000000E+00
  0.00000000E+00  0.00000000E+00  0.00000000E+00
  0.00000000E+00  0.00000000E+00  0.00000000E+00
  0.00000000E+00  0.00000000E+00  0.00000000E+00
  0.00000000E+00  0.00000000E+00  0.00000000E+00
  0.00000000E+00  0.00000000E+00  0.00000000E+00
  0.00000000E+00  0.00000000E+00  0.00000000E+00
  0.00000000E+00  0.00000000E+00  0.00000000E+00
  0.00000000E+00  0.00000000E+00  0.00000000E+00
  0.00000000E+00  0.00000000E+00  0.00000000E+00
  0.00000000E+00  0.00000000E+00  0.00000000E+00
  0.00000000E+00  0.00000000E+00  0.00000000E+00
  0.00000000E+00  0.00000000E+00  0.00000000E+00
  0.00000000E+00  0.00000000E+00  0.00000000E+00
  0.00000000E+00  0.00000000E+00  0.00000000E+00
  0.00000000E+00  0.00000000E+00  0.00000000E+00
  0.00000000E+00  0.00000000E+00  0.00000000E+00
  0.00000000E+00  0.00000000E+00  0.00000000E+00
  0.00000000E+00  0.00000000E+00  0.00000000E+00
  0.00000000E+00  0.00000000E+00  0.00000000E+00
  0.00000000E+00  0.00000000E+00  0.00000000E+00
  0.00000000E+00  0.00000000E+00  0.00000000E+00
  0.00000000E+00  0.00000000E+00  0.00000000E+00
  0.00000000E+00  0.00000000E+00  0.00000000E+00
  0.00000000E+00  0.00000000E+00  0.00000000E+00
  0.00000000E+00  0.00000000E+00  0.00000000E+00
  0.00000000E+00  0.00000000E+00  0.00000000E+00
  0.00000000E+00  0.00000000E+00  0.00000000E+00
  0.00000000E+00  0.00000000E+00  0.00000000E+00
  0.00000000E+00  0.00000000E+00  0.00000000E+00
  0.00000000E+00  0.00000000E+00  0.00000000E+00
  0.00000000E+00  0.00000000E+00  0.00000000E+00
  0.00000000E+00  0.00000000E+00  0.00000000E+00
  0.00000000E+00  0.00000000E+00  0.00000000E+00
  0.00000000E+00  0.00000000E+00  0.00000000E+00
  0.00000000E+00  0.00000000E+00  0.00000000E+00
  0.00000000E+00  0.00000000E+00  0.00000000E+00
  0.00000000E+00  0.00000000E+00  0.00000000E+00
  0.00000000E+00  0.00000000E+00  0.00000000E+00
  0.00000000E+00  0.00000000E+00  0.00000000E+00
  0.00000000E+00  0.00000000E+00  0.00000000E+00
  0.00000000E+00  0.00000000E+00  0.00000000E+00
  0.00000000E+00  0.00000000E+00  0.00000000E+00
  0.00000000E+00  0.00000000E+00  0.00000000E+00
  0.00000000E+00  0.00000000E+00  0.00000000E+00
  0.00000000E+00  0.00000000E+00  0.00000000E+00
  0.00000000E+00  0.00000000E+00  0.00000000E+00
  0.00000000E+00  0.00000000E+00  0.00000000E+00
  0.00000000E+00  0.00000000E+00  0.00000000E+00
  0.00000000E+00  0.00000000E+00  0.00000000E+00
  0.00000000E+00  0.00000000E+00  0.00000000E+00
  0.00000000E+00  0.00000000E+00  0.00000000E+00
  0.00000000E+00  0.00000000E+00  0.00000000E+00
  0.00000000E+00  0.00000000E+00  0.00000000E+00
  0.00000000E+00  0.00000000E+00  0.00000000E+00
  0.00000000E+00  0.00000000E+00  0.00000000E+00
  0.00000000E+00  0.00000000E+00  0.00000000E+00
  0.00000000E+00  0.00000000E+00  0.00000000E+00
  0.00000000E+00  0.00000000E+00  0.00000000E+00
  0.00000000E+00  0.00000000E+00  0.00000000E+00
  0.00000000E+00  0.00000000E+00  0.00000000E+00
  0.00000000E+00  0.00000000E+00  0.00000000E+00
  0.00000000E+00  0.00000000E+00  0.00000000E+00
  0.00000000E+00  0.00000000E+00  0.00000000E+00
  0.00000000E+00  0.00000000E+00  0.00000000E+00
  0.00000000E+00  0.00000000E+00  0.00000000E+00
  0.00000000E+00  0.00000000E+00  0.00000000E+00
  0.00000000E+00  0.00000000E+00  0.00000000E+00
  0.00000000E+00  0.00000000E+00  0.00000000E+00
  0.00000000E+00  0.00000000E+00  0.00000000E+00
  0.00000000E+00  0.00000000E+00  0.00000000E+00
  0.00000000E+00  0.00000000E+00  0.00000000E+00
  0.00000000E+00  0.00000000E+00  0.00000000E+00
  0.00000000E+00  0.00000000E+00  0.00000000E+00
  0.00000000E+00  0.00000000E+00  0.00000000E+00
  0.00000000E+00  0.00000000E+00  0.00000000E+00
  0.00000000E+00  0.00000000E+00  0.00000000E+00
  0.00000000E+00  0.00000000E+00  0.00000000E+00
  0.00000000E+00  0.00000000E+00  0.00000000E+00
  0.00000000E+00  0.00000000E+00  0.00000000E+00
  0.00000000E+00  0.00000000E+00  0.00000000E+00
  0.00000000E+00  0.00000000E+00  0.00000000E+00
  0.00000000E+00  0.00000000E+00  0.00000000E+00
  0.00000000E+00  0.00000000E+00  0.00000000E+00
  0.00000000E+00  0.00000000E+00  0.00000000E+00
  0.00000000E+00  0.00000000E+00  0.00000000E+00
  0.00000000E+00  0.00000000E+00  0.00000000E+00
  0.00000000E+00  0.00000000E+00  0.00000000E+00
  0.00000000E+00  0.00000000E+00  0.00000000E+00
  0.00000000E+00  0.00000000E+00  0.00000000E+00
  0.00000000E+00  0.00000000E+00  0.00000000E+00
  0.00000000E+00  0.00000000E+00  0.00000000E+00
  0.00000000E+00  0.00000000E+00  0.00000000E+00
  0.00000000E+00  0.00000000E+00  0.00000000E+00
  0.00000000E+00  0.00000000E+00  0.00000000E+00
  0.00000000E+00  0.00000000E+00  0.00000000E+00
  0.00000000E+00  0.00000000E+00  0.00000000E+00
  0.00000000E+00  0.00000000E+00  0.00000000E+00
  0.00000000E+00  0.00000000E+00  0.00000000E+00
  0.00000000E+00  0.00000000E+00  0.00000000E+00
  0.00000000E+00  0.00000000E+00  0.00000000E+00
  0.00000000E+00  0.00000000E+00  0.00000000E+00
  0.00000000E+00  0.00000000E+00  0.00000000E+00
  0.00000000E+00  0.00000000E+00  0.00000000E+00
  0.00000000E+00  0.00000000E+00  0.00000000E+00
  0.00000000E+00  0.00000000E+00  0.00000000E+00
  0.00000000E+00  0.00000000E+00  0.00000000E+00
  0.00000000E+00  0.00000000E+00  0.00000000E+00
  0.00000000E+00  0.00000000E+00  0.00000000E+00
  0.00000000E+00  0.00000000E+00  0.00000000E+00
  0.00000000E+00  0.00000000E+00  0.00000000E+00
  0.00000000E+00  0.00000000E+00  0.00000000E+00
  0.00000000E+00  0.00000000E+00  0.00000000E+00
  0.00000000E+00  0.00000000E+00  0.00000000E+00
  0.00000000E+00  0.00000000E+00  0.00000000E+00
  0.00000000E+00  0.00000000E+00  0.00000000E+00
  0.00000000E+00  0.00000000E+00  0.00000000E+00
  0.00000000E+00  0.00000000E+00  0.00000000E+00
  0.00000000E+00  0.00000000E+00  0.00000000E+00
  0.00000000E+00  0.00000000E+00  0.00000000E+00
  0.00000000E+00  0.00000000E+00  0.00000000E+00
  0.00000000E+00  0.00000000E+00  0.00000000E+00
  0.00000000E+00  0.00000000E+00  0.00000000E+00
  0.00000000E+00  0.00000000E+00  0.00000000E+00
  0.00000000E+00  0.00000000E+00  0.00000000E+00
  0.00000000E+00  0.00000000E+00  0.00000000E+00
  0.00000000E+00  0.00000000E+00  0.00000000E+00
  0.00000000E+00  0.00000000E+00  0.00000000E+00
  0.00000000E+00  0.00000000E+00  0.00000000E+00
  0.00000000E+00  0.00000000E+00  0.00000000E+00
  0.00000000E+00  0.00000000E+00  0.00000000E+00
  0.00000000E+00  0.00000000E+00  0.00000000E+00
  0.00000000E+00  0.00000000E+00  0.00000000E+00
  0.00000000E+00  0.00000000E+00  0.00000000E+00
  0.00000000E+00  0.00000000E+00  0.00000000E+00
  0.00000000E+00  0.00000000E+00  0.00000000E+00
  0.00000000E+00  0.00000000E+00  0.00000000E+00
  0.00000000E+00  0.00000000E+00  0.00000000E+00
  0.00000000E+00  0.00000000E+00  0.00000000E+00
  0.00000000E+00  0.00000000E+00  0.00000000E+00
  0.00000000E+00  0.00000000E+00  0.00000000E+00
  0.00000000E+00  0.00000000E+00  0.00000000E+00
  0.00000000E+00  0.00000000E+00  0.00000000E+00
  0.00000000E+00  0.00000000E+00  0.00000000E+00
  0.00000000E+00  0.00000000E+00  0.00000000E+00
  0.00000000E+00  0.00000000E+00  0.00000000E+00
  0.00000000E+00  0.00000000E+00  0.00000000E+00
  0.00000000E+00  0.00000000E+00  0.00000000E+00
  0.00000000E+00  0.00000000E+00  0.00000000E+00
  0.00000000E+00  0.00000000E+00  0.00000000E+00
  0.00000000E+00  0.00000000E+00  0.00000000E+00
  0.00000000E+00  0.00000000E+00  0.00000000E+00
  0.00000000E+00  0.00000000E+00  0.00000000E+00
  0.00000000E+00  0.00000000E+00  0.00000000E+00
  0.00000000E+00  0.00000000E+00  0.00000000E+00
  0.00000000E+00  0.00000000E+00  0.00000000E+00
  0.00000000E+00  0.00000000E+00  0.00000000E+00
  0.00000000E+00  0.00000000E+00  0.00000000E+00
  0.00000000E+00  0.00000000E+00  0.00000000E+00
  0.00000000E+00  0.00000000E+00  0.00000000E+00
  0.00000000E+00  0.00000000E+00  0.00000000E+00
  0.00000000E+00  0.00000000E+00  0.00000000E+00
  0.00000000E+00  0.00000000E+00  0.00000000E+00
  0.00000000E+00  0.00000000E+00  0.00000000E+00
  0.00000000E+00  0.00000000E+00  0.00000000E+00
  0.00000000E+00  0.00000000E+00  0.00000000E+00
  0.00000000E+00  0.00000000E+00  0.00000000E+00
  0.00000000E+00  0.00000000E+00  0.00000000E+00
  0.00000000E+00  0.00000000E+00  0.00000000E+00
  0.00000000E+00  0.00000000E+00  0.00000000E+00
  0.00000000E+00  0.00000000E+00  0.00000000E+00
  0.00000000E+00  0.00000000E+00  0.00000000E+00
  0.00000000E+00  0.00000000E+00  0.00000000E+00
  0.00000000E+00  0.00000000E+00  0.00000000E+00
  0.00000000E+00  0.00000000E+00  0.00000000E+00
  0.00000000E+00  0.00000000E+00  0.00000000E+00
  0.00000000E+00  0.00000000E+00  0.00000000E+00
  0.00000000E+00  0.00000000E+00  0.00000000E+00
  0.00000000E+00  0.00000000E+00  0.00000000E+00
  0.00000000E+00  0.00000000E+00  0.00000000E+00
  0.00000000E+00  0.00000000E+00  0.00000000E+00
  0.00000000E+00  0.00000000E+00  0.00000000E+00
  0.00000000E+00  0.00000000E+00  0.00000000E+00
  0.00000000E+00  0.00000000E+00  0.00000000E+00
  0.00000000E+00  0.00000000E+00  0.00000000E+00
  0.00000000E+00  0.00000000E+00  0.00000000E+00
