supercell of POSCAR                     
   1.07329600000000     
     9.1016125577399993   -5.3128209557800004   -9.4184911254399992
     9.0821131104399999    5.2871675818400004    9.4140884809200003
    -1.5053809694200000   -7.9210976524300012    4.6939078171600004
   Al   Sc   N 
    72    24    95
Direct
  0.3027531737571394  0.2869052718292551  0.5364274957618491
  0.1405193627163754  0.2442183942493017  0.3039675251259908
  0.3065821394112760  0.4090883900694706  0.3030167057821984
  0.4666174390384086  0.3260229283026987  0.7882067342352670
  0.1389270171429686  0.4971990238401673  0.7889720009615786
  0.3006936477916042  0.1623324787103897  0.7771451776279150
  0.4691199241760060  0.4472556462231410  0.5355763045231896
  0.1393628223972527  0.1226640059403010  0.5362087230612360
  0.4757718504286998  0.0737040360921526  0.2919892229111198
  0.2771948719790558  0.1106695491013099  0.3303567352662000
  0.1159749498528697  0.0698856238980170  0.0921891712445273
  0.1139239714398741  0.1976170308869030  0.8237397845207894
  0.2743981235684316  0.3577574681040403  0.8202513782145147
  0.1104940525889972  0.3249255618134796  0.5883330897231858
  0.2714804556280725  0.4846921967885152  0.5797488182542239
  0.4471671249137970  0.2785584883111412  0.3319367002520508
  0.1097998529449384  0.4453537681425246  0.3382959510117232
  0.4463134790082179  0.3998143029740362  0.0931795289040593
  0.8024275049481417  0.2878085516132813  0.5401728427246439
  0.6415617260633368  0.2429748192981904  0.3027128497944460
  0.8070807451398494  0.4090609507157765  0.3040857994265664
  0.9664583098587727  0.3274064641361107  0.7912213309385194
  0.6389817528368056  0.4968729851313824  0.7896543185975347
  0.8005481815184226  0.1646971247697806  0.7833465631448888
  0.9691691402898854  0.4486852179064726  0.5377169010306702
  0.6426040253190521  0.1204446184551173  0.5398795170927357
  0.9762450165461942  0.0746972857267636  0.2945929401372211
  0.7783390942052790  0.1106558063690599  0.3349357424300194
  0.6152351769730728  0.0694235122784690  0.0943061397686549
  0.6133435131596627  0.1974666919705044  0.8234282811603464
  0.7744904722134436  0.3590765069044508  0.8216488089911564
  0.6100801055920257  0.3247295453350887  0.5866773501680669
  0.7716843886861540  0.4854886617510346  0.5810935584224879
  0.9464907689832600  0.2798827123199459  0.3360647446604759
  0.6107508151307499  0.4447113886142589  0.3375856965404793
  0.9456943609641897  0.4033540361328747  0.0963527773903934
  0.3041823133296546  0.7848873733997550  0.5381671920168571
  0.1428063240142734  0.7425196791023012  0.3043492932396390
  0.3096324956849372  0.9079377349894102  0.2991392426683248
  0.4660644222111259  0.8214772840713138  0.7905848397587363
  0.1378180183022693  0.9973841770580592  0.7911814678204863
  0.2991771653660678  0.6615852557861430  0.7822010294591664
  0.4962595513915034  0.9207383294625302  0.5049936558925410
  0.1411349494756067  0.6188208210042916  0.5406716208708104
  0.4751058422935870  0.5710673157830470  0.2948625420297759
  0.2751976547446588  0.6072708255185546  0.3348948478744163
  0.1130153542744452  0.5697817552797773  0.0950913675661340
  0.1134144462237217  0.6965973682270672  0.8250976026179160
  0.2755578794891989  0.8579128400434968  0.8217137766829197
  0.1080446289502959  0.8209820540223660  0.5883885491304923
  0.2419819789751969  0.9760981003532052  0.5663252424650693
  0.4431160596120378  0.7723572593040160  0.3294724832774492
  0.1080920164577179  0.9441420663075561  0.3310588219304194
  0.4485963203987495  0.9013400797490974  0.0955240538823290
  0.8052294580451544  0.7870282504999651  0.5407277808406619
  0.6436737566233788  0.7404192232691713  0.3034970175432434
  0.8100274885483998  0.9091668036082154  0.3037364945614414
  0.9675375733580154  0.8269585203734167  0.7915374635561747
  0.6446498477886706  0.9992213458635533  0.7895733702606265
  0.8000612400621634  0.6633809037319693  0.7849327016078220
  0.9709489685145556  0.9493033364442240  0.5365141390676627
  0.6414343280792707  0.6179573048695133  0.5414367800733046
  0.9752964669642878  0.5739915309155208  0.2962964187169277
  0.7768336091384995  0.6087780277608772  0.3366098967687847
  0.6132846464781494  0.5686676513581972  0.0955025467829813
  0.6142928870660782  0.6951221823331295  0.8261435136728181
  0.7779492846264304  0.8586363664330179  0.8227528766446781
  0.6175916163054893  0.8188661754729409  0.5927962272627738
  0.7742976599136426  0.9865671323724854  0.5795359809434970
  0.9474228108932223  0.7787387341579333  0.3360996833664842
  0.6176203103154023  0.9464039378862381  0.3293483323592312
  0.9480941627994071  0.9028570596859495  0.0941162691112609
  0.4793472419378020  0.1923663889940812  0.0286446369233815
  0.1375668164199553  0.3681710856775950  0.0383397537065022
  0.3133506708018459  0.0259905438994039  0.0281238919828866
  0.2806332564631191  0.2347303508308087  0.0826588754328128
  0.4573331463631760  0.0098670980958460  0.8142870505115312
  0.4453154117211469  0.1514578036472471  0.5718960608003201
  0.9812164705531998  0.1984884049521867  0.0398805273896912
  0.6391477323683930  0.3652521105322464  0.0381718895983383
  0.8100969531922075  0.0262657112334850  0.0401123307906559
  0.7837792926178722  0.2323180295376090  0.0818617504607388
  0.9465254290621132  0.0240221206705371  0.8242486250071579
  0.9442778797095954  0.1545108239475184  0.5750596012046429
  0.4813349672937690  0.6953557496369172  0.0375382555935673
  0.1425859018754849  0.8657425869819306  0.0368532997093922
  0.3081023741725559  0.5239710160882538  0.0387327564202309
  0.2829576065546391  0.7290330296836913  0.0802393911090888
  0.4457371283481706  0.5206217896534611  0.8233646948345736
  0.4447439738680785  0.6497376089220026  0.5735533324726845
  0.9813312657555286  0.6982455195053561  0.0400258841217962
  0.6420320196632829  0.8644813664181896  0.0347180407256147
  0.8077070884911350  0.5257613820193470  0.0405763909364083
  0.7842271251343789  0.7315995264963462  0.0845555833939571
  0.9461105948844519  0.5226707330685443  0.8258324244331945
  0.9444344910403757  0.6516699684666563  0.5757378688847012
  0.2387550995742629  0.3659668669429053  0.6310846734901361
  0.0744523842704865  0.3253493915086025  0.3968330221470922
  0.2383687679530340  0.4891591536135920  0.3906340742626710
  0.4195748203895349  0.2827312567653664  0.1444172175080993
  0.0701283770346208  0.4541152225274843  0.1481808920969527
  0.2415330747232431  0.1052137672649849  0.1430455022407386
  0.4008651527811509  0.3971034425903071  0.9001281860212558
  0.0855364720386333  0.0820837953113198  0.8979440967395433
  0.2387622035726267  0.2405134937752891  0.8719367686309525
  0.0838998882018558  0.2038607157984487  0.6357998712844832
  0.4059959612367763  0.1556039166732290  0.3704221576938096
  0.2166637612618345  0.1906972586131843  0.4303133863166906
  0.0577087434934072  0.1462810254860401  0.1973132261703014
  0.2145265495454112  0.3178593045430489  0.1988603972290974
  0.3789336263477026  0.1028583402924852  0.8841727086252362
  0.0450300756093114  0.2741393575997719  0.9041915115617414
  0.2096792726574890  0.4377440105880908  0.9041512271506420
  0.3745535098292123  0.2379873689282590  0.6729774355375113
  0.0410471953032712  0.4060342145836344  0.6841011784160713
  0.2095878493452403  0.0676657197164161  0.6712145626431791
  0.3808141940699201  0.3541326365281918  0.4294090816659235
  0.0487747009686501  0.0261095862134368  0.4354677954440476
  0.3865953250730243  0.4752855012491963  0.1974364195675165
  0.7370567131007988  0.3669471967213127  0.6323283703305691
  0.5741907633395300  0.3242719837310162  0.3949087656308663
  0.7384198609625372  0.4900917031656178  0.3917019466250480
  0.9204948072068646  0.2883281914725941  0.1506319625123282
  0.5705680269299478  0.4523783154098098  0.1472638854036319
  0.7379309197360868  0.1060374288020967  0.1494641057657944
  0.9006763713295953  0.3994858797229881  0.9031462763467601
  0.5855441759917142  0.0803923064031267  0.8987745561043141
  0.7354872441614049  0.2433514131203083  0.8744475011053510
  0.8999108924332688  0.0232421142567460  0.6208245252809164
  0.5809186523194256  0.2019112209176299  0.6340404344815624
  0.9058095359140026  0.1570024920815740  0.3676902288858912
  0.7161414616746455  0.1911106008139711  0.4332318085160836
  0.5550656601881627  0.1462025585685680  0.1947917177165834
  0.7162869999403085  0.3166953497337772  0.1993955237055616
  0.8715786958133833  0.1156449144412548  0.9166492636939694
  0.5439472628853537  0.2732958266330741  0.9028838196297286
  0.7092475263252425  0.4389458832312698  0.9062529816257410
  0.8726405973594851  0.2417189780893025  0.6803219881858027
  0.5407227548866231  0.4053094475738135  0.6829242961939741
  0.7120635486956530  0.0687692971734464  0.6741704184375408
  0.8804078624617304  0.3555147689526308  0.4333661403261004
  0.5463039949958883  0.0277288561067053  0.4374440418946222
  0.8857829079791841  0.4782982645991041  0.2001951332239074
  0.2411040479969628  0.8668406531719342  0.6314703267281416
  0.0770466487370456  0.8262270008334553  0.3969922503580463
  0.2425315376796249  0.9902997179251614  0.3869763403548063
  0.4205306332184904  0.7866852842889855  0.1483308321713253
  0.0735567969986803  0.9529507602599026  0.1437813011742435
  0.2369475208603617  0.6044709509740471  0.1493112490291395
  0.4035011002919688  0.8983128952753745  0.9021233007667320
  0.0848110328809852  0.5822610299400921  0.8999551018546299
  0.2371028861790805  0.7438348392504039  0.8744274551097249
  0.3977182019959997  0.5207849751461424  0.6206549389467924
  0.0841475045745810  0.7029647284828826  0.6370125569027820
  0.4036228336581615  0.6540672669140832  0.3674087979199285
  0.2168849739578249  0.6907825864101085  0.4344320302802842
  0.0560375042600327  0.6476838536840575  0.2000338297725932
  0.2181108197372765  0.8160076862677386  0.1996586837477210
  0.3709620490008518  0.6140060308518613  0.9163259242178725
  0.0457560750200230  0.7750260046364374  0.9054751559754379
  0.2118251956814632  0.9396276755849726  0.9026665866012493
  0.3731305788559567  0.7393139831128508  0.6787308201453399
  0.0428573250175575  0.9056988830568784  0.6827847656090285
  0.2108522950057363  0.5674198188707535  0.6755631874942480
  0.3817337282769060  0.8557080059460631  0.4325403734629134
  0.0464182918213183  0.5269543456534009  0.4386030668363219
  0.3874505739751370  0.9776805418481089  0.1946033914675240
  0.7407066844373915  0.8682209558128164  0.6333019802691524
  0.5686289068266603  0.8338438730292239  0.4081587645938569
  0.7415545090993163  0.9908138649220604  0.3903104142743459
  0.9209140968189331  0.7889537721078241  0.1514269853450685
  0.5732089690735336  0.9520920825116832  0.1446217546478792
  0.7363212712858811  0.6068189197290934  0.1516588078781140
  0.9030748703231168  0.9004410580160993  0.9021723988773758
  0.5834362352668876  0.5814922362969810  0.9009133849390736
  0.7366536492954836  0.7446203795443012  0.8781813196041881
  0.8975861734374604  0.5221309159784226  0.6230480435655465
  0.5837918695029316  0.7022585551064324  0.6381981247223862
  0.9045305004781738  0.6572714265096593  0.3695736259936098
  0.7158730929213206  0.6922345443698887  0.4368380862068548
  0.5554168248280504  0.6475198486086668  0.2015954909592708
  0.7150194379232815  0.8179579148051062  0.2035180172155293
  0.8712048787791602  0.6155407225199525  0.9190477859809931
  0.5451585957623237  0.7731834187323230  0.9044175293094057
  0.7120505340925405  0.9392355751180048  0.9043083642648853
  0.8734656694815897  0.7410681986385583  0.6818894651153400
  0.5377308114100998  0.9105940659967189  0.6886407754672348
  0.7108594455615886  0.5683834004295605  0.6776879034617878
  0.8822886996477948  0.8556288342334213  0.4336575403422032
  0.5466081285286819  0.5262801736750831  0.4382740459261996
  0.8882159316200102  0.9776211618854944  0.1987358585715810
 
  0.00000000E+00  0.00000000E+00  0.00000000E+00
  0.00000000E+00  0.00000000E+00  0.00000000E+00
  0.00000000E+00  0.00000000E+00  0.00000000E+00
  0.00000000E+00  0.00000000E+00  0.00000000E+00
  0.00000000E+00  0.00000000E+00  0.00000000E+00
  0.00000000E+00  0.00000000E+00  0.00000000E+00
  0.00000000E+00  0.00000000E+00  0.00000000E+00
  0.00000000E+00  0.00000000E+00  0.00000000E+00
  0.00000000E+00  0.00000000E+00  0.00000000E+00
  0.00000000E+00  0.00000000E+00  0.00000000E+00
  0.00000000E+00  0.00000000E+00  0.00000000E+00
  0.00000000E+00  0.00000000E+00  0.00000000E+00
  0.00000000E+00  0.00000000E+00  0.00000000E+00
  0.00000000E+00  0.00000000E+00  0.00000000E+00
  0.00000000E+00  0.00000000E+00  0.00000000E+00
  0.00000000E+00  0.00000000E+00  0.00000000E+00
  0.00000000E+00  0.00000000E+00  0.00000000E+00
  0.00000000E+00  0.00000000E+00  0.00000000E+00
  0.00000000E+00  0.00000000E+00  0.00000000E+00
  0.00000000E+00  0.00000000E+00  0.00000000E+00
  0.00000000E+00  0.00000000E+00  0.00000000E+00
  0.00000000E+00  0.00000000E+00  0.00000000E+00
  0.00000000E+00  0.00000000E+00  0.00000000E+00
  0.00000000E+00  0.00000000E+00  0.00000000E+00
  0.00000000E+00  0.00000000E+00  0.00000000E+00
  0.00000000E+00  0.00000000E+00  0.00000000E+00
  0.00000000E+00  0.00000000E+00  0.00000000E+00
  0.00000000E+00  0.00000000E+00  0.00000000E+00
  0.00000000E+00  0.00000000E+00  0.00000000E+00
  0.00000000E+00  0.00000000E+00  0.00000000E+00
  0.00000000E+00  0.00000000E+00  0.00000000E+00
  0.00000000E+00  0.00000000E+00  0.00000000E+00
  0.00000000E+00  0.00000000E+00  0.00000000E+00
  0.00000000E+00  0.00000000E+00  0.00000000E+00
  0.00000000E+00  0.00000000E+00  0.00000000E+00
  0.00000000E+00  0.00000000E+00  0.00000000E+00
  0.00000000E+00  0.00000000E+00  0.00000000E+00
  0.00000000E+00  0.00000000E+00  0.00000000E+00
  0.00000000E+00  0.00000000E+00  0.00000000E+00
  0.00000000E+00  0.00000000E+00  0.00000000E+00
  0.00000000E+00  0.00000000E+00  0.00000000E+00
  0.00000000E+00  0.00000000E+00  0.00000000E+00
  0.00000000E+00  0.00000000E+00  0.00000000E+00
  0.00000000E+00  0.00000000E+00  0.00000000E+00
  0.00000000E+00  0.00000000E+00  0.00000000E+00
  0.00000000E+00  0.00000000E+00  0.00000000E+00
  0.00000000E+00  0.00000000E+00  0.00000000E+00
  0.00000000E+00  0.00000000E+00  0.00000000E+00
  0.00000000E+00  0.00000000E+00  0.00000000E+00
  0.00000000E+00  0.00000000E+00  0.00000000E+00
  0.00000000E+00  0.00000000E+00  0.00000000E+00
  0.00000000E+00  0.00000000E+00  0.00000000E+00
  0.00000000E+00  0.00000000E+00  0.00000000E+00
  0.00000000E+00  0.00000000E+00  0.00000000E+00
  0.00000000E+00  0.00000000E+00  0.00000000E+00
  0.00000000E+00  0.00000000E+00  0.00000000E+00
  0.00000000E+00  0.00000000E+00  0.00000000E+00
  0.00000000E+00  0.00000000E+00  0.00000000E+00
  0.00000000E+00  0.00000000E+00  0.00000000E+00
  0.00000000E+00  0.00000000E+00  0.00000000E+00
  0.00000000E+00  0.00000000E+00  0.00000000E+00
  0.00000000E+00  0.00000000E+00  0.00000000E+00
  0.00000000E+00  0.00000000E+00  0.00000000E+00
  0.00000000E+00  0.00000000E+00  0.00000000E+00
  0.00000000E+00  0.00000000E+00  0.00000000E+00
  0.00000000E+00  0.00000000E+00  0.00000000E+00
  0.00000000E+00  0.00000000E+00  0.00000000E+00
  0.00000000E+00  0.00000000E+00  0.00000000E+00
  0.00000000E+00  0.00000000E+00  0.00000000E+00
  0.00000000E+00  0.00000000E+00  0.00000000E+00
  0.00000000E+00  0.00000000E+00  0.00000000E+00
  0.00000000E+00  0.00000000E+00  0.00000000E+00
  0.00000000E+00  0.00000000E+00  0.00000000E+00
  0.00000000E+00  0.00000000E+00  0.00000000E+00
  0.00000000E+00  0.00000000E+00  0.00000000E+00
  0.00000000E+00  0.00000000E+00  0.00000000E+00
  0.00000000E+00  0.00000000E+00  0.00000000E+00
  0.00000000E+00  0.00000000E+00  0.00000000E+00
  0.00000000E+00  0.00000000E+00  0.00000000E+00
  0.00000000E+00  0.00000000E+00  0.00000000E+00
  0.00000000E+00  0.00000000E+00  0.00000000E+00
  0.00000000E+00  0.00000000E+00  0.00000000E+00
  0.00000000E+00  0.00000000E+00  0.00000000E+00
  0.00000000E+00  0.00000000E+00  0.00000000E+00
  0.00000000E+00  0.00000000E+00  0.00000000E+00
  0.00000000E+00  0.00000000E+00  0.00000000E+00
  0.00000000E+00  0.00000000E+00  0.00000000E+00
  0.00000000E+00  0.00000000E+00  0.00000000E+00
  0.00000000E+00  0.00000000E+00  0.00000000E+00
  0.00000000E+00  0.00000000E+00  0.00000000E+00
  0.00000000E+00  0.00000000E+00  0.00000000E+00
  0.00000000E+00  0.00000000E+00  0.00000000E+00
  0.00000000E+00  0.00000000E+00  0.00000000E+00
  0.00000000E+00  0.00000000E+00  0.00000000E+00
  0.00000000E+00  0.00000000E+00  0.00000000E+00
  0.00000000E+00  0.00000000E+00  0.00000000E+00
  0.00000000E+00  0.00000000E+00  0.00000000E+00
  0.00000000E+00  0.00000000E+00  0.00000000E+00
  0.00000000E+00  0.00000000E+00  0.00000000E+00
  0.00000000E+00  0.00000000E+00  0.00000000E+00
  0.00000000E+00  0.00000000E+00  0.00000000E+00
  0.00000000E+00  0.00000000E+00  0.00000000E+00
  0.00000000E+00  0.00000000E+00  0.00000000E+00
  0.00000000E+00  0.00000000E+00  0.00000000E+00
  0.00000000E+00  0.00000000E+00  0.00000000E+00
  0.00000000E+00  0.00000000E+00  0.00000000E+00
  0.00000000E+00  0.00000000E+00  0.00000000E+00
  0.00000000E+00  0.00000000E+00  0.00000000E+00
  0.00000000E+00  0.00000000E+00  0.00000000E+00
  0.00000000E+00  0.00000000E+00  0.00000000E+00
  0.00000000E+00  0.00000000E+00  0.00000000E+00
  0.00000000E+00  0.00000000E+00  0.00000000E+00
  0.00000000E+00  0.00000000E+00  0.00000000E+00
  0.00000000E+00  0.00000000E+00  0.00000000E+00
  0.00000000E+00  0.00000000E+00  0.00000000E+00
  0.00000000E+00  0.00000000E+00  0.00000000E+00
  0.00000000E+00  0.00000000E+00  0.00000000E+00
  0.00000000E+00  0.00000000E+00  0.00000000E+00
  0.00000000E+00  0.00000000E+00  0.00000000E+00
  0.00000000E+00  0.00000000E+00  0.00000000E+00
  0.00000000E+00  0.00000000E+00  0.00000000E+00
  0.00000000E+00  0.00000000E+00  0.00000000E+00
  0.00000000E+00  0.00000000E+00  0.00000000E+00
  0.00000000E+00  0.00000000E+00  0.00000000E+00
  0.00000000E+00  0.00000000E+00  0.00000000E+00
  0.00000000E+00  0.00000000E+00  0.00000000E+00
  0.00000000E+00  0.00000000E+00  0.00000000E+00
  0.00000000E+00  0.00000000E+00  0.00000000E+00
  0.00000000E+00  0.00000000E+00  0.00000000E+00
  0.00000000E+00  0.00000000E+00  0.00000000E+00
  0.00000000E+00  0.00000000E+00  0.00000000E+00
  0.00000000E+00  0.00000000E+00  0.00000000E+00
  0.00000000E+00  0.00000000E+00  0.00000000E+00
  0.00000000E+00  0.00000000E+00  0.00000000E+00
  0.00000000E+00  0.00000000E+00  0.00000000E+00
  0.00000000E+00  0.00000000E+00  0.00000000E+00
  0.00000000E+00  0.00000000E+00  0.00000000E+00
  0.00000000E+00  0.00000000E+00  0.00000000E+00
  0.00000000E+00  0.00000000E+00  0.00000000E+00
  0.00000000E+00  0.00000000E+00  0.00000000E+00
  0.00000000E+00  0.00000000E+00  0.00000000E+00
  0.00000000E+00  0.00000000E+00  0.00000000E+00
  0.00000000E+00  0.00000000E+00  0.00000000E+00
  0.00000000E+00  0.00000000E+00  0.00000000E+00
  0.00000000E+00  0.00000000E+00  0.00000000E+00
  0.00000000E+00  0.00000000E+00  0.00000000E+00
  0.00000000E+00  0.00000000E+00  0.00000000E+00
  0.00000000E+00  0.00000000E+00  0.00000000E+00
  0.00000000E+00  0.00000000E+00  0.00000000E+00
  0.00000000E+00  0.00000000E+00  0.00000000E+00
  0.00000000E+00  0.00000000E+00  0.00000000E+00
  0.00000000E+00  0.00000000E+00  0.00000000E+00
  0.00000000E+00  0.00000000E+00  0.00000000E+00
  0.00000000E+00  0.00000000E+00  0.00000000E+00
  0.00000000E+00  0.00000000E+00  0.00000000E+00
  0.00000000E+00  0.00000000E+00  0.00000000E+00
  0.00000000E+00  0.00000000E+00  0.00000000E+00
  0.00000000E+00  0.00000000E+00  0.00000000E+00
  0.00000000E+00  0.00000000E+00  0.00000000E+00
  0.00000000E+00  0.00000000E+00  0.00000000E+00
  0.00000000E+00  0.00000000E+00  0.00000000E+00
  0.00000000E+00  0.00000000E+00  0.00000000E+00
  0.00000000E+00  0.00000000E+00  0.00000000E+00
  0.00000000E+00  0.00000000E+00  0.00000000E+00
  0.00000000E+00  0.00000000E+00  0.00000000E+00
  0.00000000E+00  0.00000000E+00  0.00000000E+00
  0.00000000E+00  0.00000000E+00  0.00000000E+00
  0.00000000E+00  0.00000000E+00  0.00000000E+00
  0.00000000E+00  0.00000000E+00  0.00000000E+00
  0.00000000E+00  0.00000000E+00  0.00000000E+00
  0.00000000E+00  0.00000000E+00  0.00000000E+00
  0.00000000E+00  0.00000000E+00  0.00000000E+00
  0.00000000E+00  0.00000000E+00  0.00000000E+00
  0.00000000E+00  0.00000000E+00  0.00000000E+00
  0.00000000E+00  0.00000000E+00  0.00000000E+00
  0.00000000E+00  0.00000000E+00  0.00000000E+00
  0.00000000E+00  0.00000000E+00  0.00000000E+00
  0.00000000E+00  0.00000000E+00  0.00000000E+00
  0.00000000E+00  0.00000000E+00  0.00000000E+00
  0.00000000E+00  0.00000000E+00  0.00000000E+00
  0.00000000E+00  0.00000000E+00  0.00000000E+00
  0.00000000E+00  0.00000000E+00  0.00000000E+00
  0.00000000E+00  0.00000000E+00  0.00000000E+00
  0.00000000E+00  0.00000000E+00  0.00000000E+00
  0.00000000E+00  0.00000000E+00  0.00000000E+00
  0.00000000E+00  0.00000000E+00  0.00000000E+00
  0.00000000E+00  0.00000000E+00  0.00000000E+00
  0.00000000E+00  0.00000000E+00  0.00000000E+00
  0.00000000E+00  0.00000000E+00  0.00000000E+00
  0.00000000E+00  0.00000000E+00  0.00000000E+00
  0.00000000E+00  0.00000000E+00  0.00000000E+00
