supercell of POSCAR                     
   1.07329600000000     
     9.1016125577399993   -5.3128209557800004   -9.4184911254399992
     9.0821131104399999    5.2871675818400004    9.4140884809200003
    -1.5053809694200000   -7.9210976524300012    4.6939078171600004
   Al   Sc   N 
    71    24    96
Direct
  0.3083289193290497  0.2871856936860766  0.5380641179955461
  0.1448057249633976  0.2380053331982666  0.2924128981998138
  0.3082641928073357  0.4090459578227126  0.3025646463814837
  0.4660620612492394  0.3255366300223201  0.7900070936169854
  0.1371316295164249  0.4982781206236524  0.7894957288564655
  0.2990579476618436  0.1634555471539514  0.7841815757834851
  0.4704299168547905  0.4495281779387810  0.5351195562502227
  0.1428199673017900  0.1140672677051455  0.5372168033138607
  0.4765955118696681  0.0756141756021975  0.2970937331621712
  0.1127925230217031  0.0686087655184693  0.0915394866698449
  0.1118506359525355  0.1964503348984863  0.8242640707767919
  0.2739658861786651  0.3592238963568093  0.8202797718181500
  0.1348520062579652  0.2932463472781492  0.5510907716041373
  0.2720701985267766  0.4863157719288225  0.5805378292186063
  0.4514194643646405  0.2802031555689837  0.3357702531834192
  0.1107144609268929  0.4437815487596239  0.3378198611762713
  0.4482127097888338  0.4031475992348277  0.0944266670788139
  0.8024074601479327  0.2871103530892114  0.5400334268645537
  0.6418765063892735  0.2424488701151049  0.3038149563111361
  0.8080426554780615  0.4081529389563556  0.3033806910591892
  0.9654949331694738  0.3293268072252786  0.7923316211767428
  0.6386578089798789  0.4969104618168458  0.7869866469329097
  0.7982204281721863  0.1632884410975137  0.7820710426999398
  0.9690953899718693  0.4499100425192708  0.5399231209895774
  0.6396664067577262  0.1192726679065856  0.5392716745007249
  0.9754495558774039  0.0724778172657068  0.2950718209026491
  0.7768913721875350  0.1079631796703993  0.3338233348432951
  0.6149759073592378  0.0673222919863647  0.0911784512632323
  0.6116760344853063  0.1959914112477819  0.8228796335676591
  0.7735409664946573  0.3581396851950416  0.8209532157776707
  0.6101799666957106  0.3227995256780645  0.5861022996020040
  0.7710387399369623  0.4859999450756050  0.5779603535762945
  0.9474133657663941  0.2786248868061563  0.3354605462605420
  0.6122698418124557  0.4458816272219863  0.3358076497143330
  0.9466370349720847  0.4018153812257950  0.0967380934418500
  0.3030122308681769  0.7875567886202148  0.5410550665754812
  0.1419053796973415  0.7429608497152600  0.3054428817607544
  0.3058588853691475  0.9107599121122973  0.3069875611884569
  0.4673053978543464  0.8266545255255622  0.7893627299858466
  0.1401281287898968  0.9981872699173451  0.7906504220346022
  0.2999346018364406  0.6638363459862191  0.7832374282403975
  0.4697903262928023  0.9472916944947869  0.5363351628577817
  0.1412660071694631  0.6196540415345666  0.5414636134951394
  0.4763259617393203  0.5739431721699120  0.2938854819094274
  0.2770087285473650  0.6086569559003436  0.3355984571966317
  0.1143621641762351  0.5693566102832222  0.0960109868204313
  0.1144303341876736  0.6986636993471009  0.8258015035554678
  0.2762204970021358  0.8601417923551438  0.8256422107546797
  0.1117398250353716  0.8237405897308463  0.5882319736870230
  0.2715891547679448  0.9824951151148156  0.5784184458221659
  0.4471670066922400  0.7786782669989378  0.3340978774697945
  0.1121092579437573  0.9427438868802795  0.3377466833990184
  0.4466685114095981  0.9029145546564834  0.0952761612941302
  0.8030588447895397  0.7865255132696731  0.5378985220819175
  0.6427965889735034  0.7419950975001797  0.3020880108500350
  0.8077185210715498  0.9071639316391185  0.3009759824975262
  0.9669719208387022  0.8274387270144956  0.7900685015515165
  0.6386066757996147  0.9963509019541519  0.7860399281343717
  0.8006394719616381  0.6621175559963106  0.7811477597333294
  0.9700063458938359  0.9478557202796978  0.5345138023299612
  0.6415699564268778  0.6196691827137215  0.5386502901405876
  0.9759496462346391  0.5731626403910113  0.2966288471598233
  0.7775038033967121  0.6076980009722774  0.3324108142684636
  0.6153365935311044  0.5687007707610832  0.0917189414543955
  0.6137677047004644  0.6961878808124524  0.8219290544774722
  0.7750658898859371  0.8576261671933025  0.8187668112360953
  0.6111125284343828  0.8234266921118163  0.5855858384326567
  0.7716976913045670  0.9851335267634411  0.5770064471139449
  0.9466347095548997  0.7769867838706830  0.3331994754625072
  0.6107775759998830  0.9441072180097478  0.3357039776114874
  0.9477309854888034  0.9008442039093865  0.0941460210160798
  0.4814923669422058  0.1972108954152674  0.0416148474306581
  0.1399274190684636  0.3658999995856007  0.0357743619039255
  0.3059809746854398  0.0318727060680573  0.0517497629671837
  0.2855824171585297  0.2330412803367139  0.0824051859021679
  0.4436978595293297  0.0232798173141973  0.8264208166005602
  0.4416303258622065  0.1499074536055289  0.5690318646504480
  0.9797709433999913  0.1966733247417096  0.0371516721716034
  0.6402577334408051  0.3648338509349287  0.0371428473646134
  0.8096598954871581  0.0234908059642720  0.0367508420696012
  0.7830509023233745  0.2300110597456424  0.0810582200940928
  0.9448993449019554  0.0216363511873254  0.8202018280909797
  0.9434501270649065  0.1535852095100765  0.5753771152675071
  0.4813993159323928  0.6968908921498240  0.0373927729879071
  0.1416276268654357  0.8663795632918649  0.0386570109231599
  0.3090904186079513  0.5247961993586543  0.0382095970091356
  0.2839228022422091  0.7306902169289771  0.0832746931852881
  0.4464118365789460  0.5217980765771486  0.8219127758088121
  0.4450612903777724  0.6535399853243291  0.5728871405028286
  0.9835259269820043  0.6947905939062835  0.0356605077719223
  0.6410174451580204  0.8640980948372317  0.0354558972179149
  0.8114477897380681  0.5224470046003518  0.0346332330686678
  0.7854125943838994  0.7287034699457280  0.0784205615606339
  0.9502047721821327  0.5183676283157510  0.8173916273385586
  0.9448578152982279  0.6544404524235290  0.5732769842413745
  0.2438079092331478  0.3698865156983828  0.6337234968274572
  0.0737243347547931  0.3245311088607679  0.3889442038755817
  0.2394570555759898  0.4896406506674822  0.3907867274239720
  0.4249124123043515  0.2902305536306287  0.1506381463546802
  0.0714352227573301  0.4525056348249876  0.1464717283574259
  0.2313149353004391  0.1132430231780361  0.1316894023363133
  0.4013176853080509  0.3999752426151204  0.9020920815479059
  0.0798097034805423  0.0807752958915415  0.8943581575474653
  0.2348140668885179  0.2447512892193302  0.8732953395532590
  0.3984852050347598  0.0184795872584544  0.6229947989387767
  0.0805251704048473  0.1965429013785496  0.6381598328213585
  0.4249661641733198  0.1648075766523931  0.3738119922736587
  0.2011142386563307  0.2113629329963373  0.4555707186945526
  0.0529623728283184  0.1445453215195371  0.1951469825309715
  0.2172291245712756  0.3194586118214886  0.1969883354318895
  0.3714709293653371  0.1163156454275907  0.9192977575851486
  0.0428542895964696  0.2747723770931003  0.9044426480390868
  0.2095126983144837  0.4404366470883900  0.9042163164301158
  0.3733923518019182  0.2402259603195063  0.6806095656775781
  0.0282921407999339  0.4221465305855148  0.7040184513761290
  0.2124175653758229  0.0669187423096247  0.6767871528480782
  0.3834228800067407  0.3568622946615605  0.4305825692708254
  0.0463573687912415  0.0241193767704431  0.4346464773638203
  0.3879037177727938  0.4780963418131279  0.1981122105352711
  0.7381167668421611  0.3676974575639775  0.6319133677797524
  0.5796547455078596  0.3288696538420695  0.3955218973108074
  0.7394633495381768  0.4897203301977555  0.3883510069030649
  0.9192150626175533  0.2867830309519590  0.1497810195857738
  0.5730100755491847  0.4534361753545539  0.1450818906465230
  0.7388771807389247  0.1034803248314589  0.1474070305673294
  0.8971784612283713  0.4006492555657104  0.9076296522983824
  0.5845346620805927  0.0800881465790368  0.8963022071486435
  0.7348660868980517  0.2431327481331920  0.8752206777688301
  0.8973704253010339  0.0215824393270196  0.6173150361654720
  0.5836042651552802  0.2030516272285041  0.6363785461902509
  0.9046336035707441  0.1558858048617040  0.3676368220471673
  0.7167788467855729  0.1902543841964928  0.4334712248532711
  0.5600738498142803  0.1451228951312018  0.1950792851003129
  0.7175895494713274  0.3159140629028769  0.1988156825779512
  0.8699836444037246  0.1142597741783291  0.9141581803798360
  0.5442421986525758  0.2738907609170198  0.9047470136535836
  0.7083701653051477  0.4388236037971751  0.9035886851752295
  0.8717773767306767  0.2420781229617077  0.6818053855266584
  0.5405423487012939  0.4059026647039587  0.6825901031493942
  0.7110152137180918  0.0674989604464926  0.6735343344350611
  0.8811918815812021  0.3551800375690704  0.4340728935540241
  0.5486533249155769  0.0237815652085160  0.4368772981600557
  0.8873283869344846  0.4771327117553383  0.2008183813233657
  0.2388617805565829  0.8647408929789577  0.6382393776568236
  0.0720611909332689  0.8210223322305978  0.3969515328870159
  0.2326285939743045  0.9728572068269727  0.3980890476004433
  0.4216899928840618  0.7869258946161040  0.1486076336833335
  0.0711518603541990  0.9514260089445159  0.1455135876126619
  0.2381204250416644  0.6042436654630805  0.1500872259160175
  0.4035522046214126  0.8978042990374533  0.9013574231292480
  0.0852276770848164  0.5866343530298295  0.9051988567948257
  0.2376423299188914  0.7441239572465363  0.8772924650564491
  0.3990629439804749  0.5237560984150349  0.6194694646804706
  0.0840851068384296  0.7029928021935490  0.6379266059519395
  0.4054049241525064  0.6560227446388538  0.3660196224113079
  0.2169989916183965  0.6905856504629426  0.4348942590595826
  0.0563088906367284  0.6457538014858883  0.2007210884575628
  0.2162306408808732  0.8135126368472783  0.1974074662089720
  0.3718777089650871  0.6140915900034329  0.9152924339770365
  0.0449215364776165  0.7759994272313691  0.9040507572575578
  0.2118510231514037  0.9410936639203769  0.9083733986977265
  0.3737743116440839  0.7397968438089251  0.6797558881632781
  0.0411469760772718  0.9058528530718206  0.6829669315809497
  0.2109674621252395  0.5686092762524027  0.6767336437793503
  0.3822145454484271  0.8530845567418055  0.4326257723881568
  0.0473920851208476  0.5263193212234043  0.4387559986266467
  0.3884122962997480  0.9767466391816200  0.2012178708352295
  0.7386539984186697  0.8666909460224304  0.6296739361823995
  0.5761232241832133  0.8233572559926827  0.3935741915707069
  0.7392834080473207  0.9880648715925489  0.3874465210130964
  0.9214982545140913  0.7855479635889679  0.1474270804136921
  0.5730479861513942  0.9507478169815684  0.1442747512491138
  0.7389399013406148  0.6033762804898970  0.1461005404946505
  0.9005064951562645  0.8991535056146276  0.9014586017089812
  0.5845371599629203  0.5816266491764637  0.8973003873381558
  0.7366473790595762  0.7427502364762120  0.8730128359970308
  0.8950111045561755  0.5262781779189751  0.6172352963450436
  0.5844886654767549  0.7031134404258381  0.6342492023096753
  0.9041663713390591  0.6556110484273105  0.3664549496362000
  0.7171863109222514  0.6900410789189877  0.4318793387876241
  0.5573380500628318  0.6459552984000112  0.1963478645436538
  0.7178791539768952  0.8141146775913413  0.1965201665909788
  0.8719214605619854  0.6145424021354771  0.9146565182518742
  0.5451617908788151  0.7729305586622601  0.9024312727907216
  0.7100029294629167  0.9381200731230876  0.9023268679028149
  0.8727554298837745  0.7416503584527874  0.6794465281262632
  0.5427293563211464  0.9034623120702037  0.6809790090893628
  0.7100453193362597  0.5679742173962552  0.6742706091333304
  0.8808257996383588  0.8539577161328680  0.4306910396482522
  0.5479369858906793  0.5271749956573615  0.4357202276941763
  0.8867790243317373  0.9756762215282180  0.1975617307265054
 
  0.00000000E+00  0.00000000E+00  0.00000000E+00
  0.00000000E+00  0.00000000E+00  0.00000000E+00
  0.00000000E+00  0.00000000E+00  0.00000000E+00
  0.00000000E+00  0.00000000E+00  0.00000000E+00
  0.00000000E+00  0.00000000E+00  0.00000000E+00
  0.00000000E+00  0.00000000E+00  0.00000000E+00
  0.00000000E+00  0.00000000E+00  0.00000000E+00
  0.00000000E+00  0.00000000E+00  0.00000000E+00
  0.00000000E+00  0.00000000E+00  0.00000000E+00
  0.00000000E+00  0.00000000E+00  0.00000000E+00
  0.00000000E+00  0.00000000E+00  0.00000000E+00
  0.00000000E+00  0.00000000E+00  0.00000000E+00
  0.00000000E+00  0.00000000E+00  0.00000000E+00
  0.00000000E+00  0.00000000E+00  0.00000000E+00
  0.00000000E+00  0.00000000E+00  0.00000000E+00
  0.00000000E+00  0.00000000E+00  0.00000000E+00
  0.00000000E+00  0.00000000E+00  0.00000000E+00
  0.00000000E+00  0.00000000E+00  0.00000000E+00
  0.00000000E+00  0.00000000E+00  0.00000000E+00
  0.00000000E+00  0.00000000E+00  0.00000000E+00
  0.00000000E+00  0.00000000E+00  0.00000000E+00
  0.00000000E+00  0.00000000E+00  0.00000000E+00
  0.00000000E+00  0.00000000E+00  0.00000000E+00
  0.00000000E+00  0.00000000E+00  0.00000000E+00
  0.00000000E+00  0.00000000E+00  0.00000000E+00
  0.00000000E+00  0.00000000E+00  0.00000000E+00
  0.00000000E+00  0.00000000E+00  0.00000000E+00
  0.00000000E+00  0.00000000E+00  0.00000000E+00
  0.00000000E+00  0.00000000E+00  0.00000000E+00
  0.00000000E+00  0.00000000E+00  0.00000000E+00
  0.00000000E+00  0.00000000E+00  0.00000000E+00
  0.00000000E+00  0.00000000E+00  0.00000000E+00
  0.00000000E+00  0.00000000E+00  0.00000000E+00
  0.00000000E+00  0.00000000E+00  0.00000000E+00
  0.00000000E+00  0.00000000E+00  0.00000000E+00
  0.00000000E+00  0.00000000E+00  0.00000000E+00
  0.00000000E+00  0.00000000E+00  0.00000000E+00
  0.00000000E+00  0.00000000E+00  0.00000000E+00
  0.00000000E+00  0.00000000E+00  0.00000000E+00
  0.00000000E+00  0.00000000E+00  0.00000000E+00
  0.00000000E+00  0.00000000E+00  0.00000000E+00
  0.00000000E+00  0.00000000E+00  0.00000000E+00
  0.00000000E+00  0.00000000E+00  0.00000000E+00
  0.00000000E+00  0.00000000E+00  0.00000000E+00
  0.00000000E+00  0.00000000E+00  0.00000000E+00
  0.00000000E+00  0.00000000E+00  0.00000000E+00
  0.00000000E+00  0.00000000E+00  0.00000000E+00
  0.00000000E+00  0.00000000E+00  0.00000000E+00
  0.00000000E+00  0.00000000E+00  0.00000000E+00
  0.00000000E+00  0.00000000E+00  0.00000000E+00
  0.00000000E+00  0.00000000E+00  0.00000000E+00
  0.00000000E+00  0.00000000E+00  0.00000000E+00
  0.00000000E+00  0.00000000E+00  0.00000000E+00
  0.00000000E+00  0.00000000E+00  0.00000000E+00
  0.00000000E+00  0.00000000E+00  0.00000000E+00
  0.00000000E+00  0.00000000E+00  0.00000000E+00
  0.00000000E+00  0.00000000E+00  0.00000000E+00
  0.00000000E+00  0.00000000E+00  0.00000000E+00
  0.00000000E+00  0.00000000E+00  0.00000000E+00
  0.00000000E+00  0.00000000E+00  0.00000000E+00
  0.00000000E+00  0.00000000E+00  0.00000000E+00
  0.00000000E+00  0.00000000E+00  0.00000000E+00
  0.00000000E+00  0.00000000E+00  0.00000000E+00
  0.00000000E+00  0.00000000E+00  0.00000000E+00
  0.00000000E+00  0.00000000E+00  0.00000000E+00
  0.00000000E+00  0.00000000E+00  0.00000000E+00
  0.00000000E+00  0.00000000E+00  0.00000000E+00
  0.00000000E+00  0.00000000E+00  0.00000000E+00
  0.00000000E+00  0.00000000E+00  0.00000000E+00
  0.00000000E+00  0.00000000E+00  0.00000000E+00
  0.00000000E+00  0.00000000E+00  0.00000000E+00
  0.00000000E+00  0.00000000E+00  0.00000000E+00
  0.00000000E+00  0.00000000E+00  0.00000000E+00
  0.00000000E+00  0.00000000E+00  0.00000000E+00
  0.00000000E+00  0.00000000E+00  0.00000000E+00
  0.00000000E+00  0.00000000E+00  0.00000000E+00
  0.00000000E+00  0.00000000E+00  0.00000000E+00
  0.00000000E+00  0.00000000E+00  0.00000000E+00
  0.00000000E+00  0.00000000E+00  0.00000000E+00
  0.00000000E+00  0.00000000E+00  0.00000000E+00
  0.00000000E+00  0.00000000E+00  0.00000000E+00
  0.00000000E+00  0.00000000E+00  0.00000000E+00
  0.00000000E+00  0.00000000E+00  0.00000000E+00
  0.00000000E+00  0.00000000E+00  0.00000000E+00
  0.00000000E+00  0.00000000E+00  0.00000000E+00
  0.00000000E+00  0.00000000E+00  0.00000000E+00
  0.00000000E+00  0.00000000E+00  0.00000000E+00
  0.00000000E+00  0.00000000E+00  0.00000000E+00
  0.00000000E+00  0.00000000E+00  0.00000000E+00
  0.00000000E+00  0.00000000E+00  0.00000000E+00
  0.00000000E+00  0.00000000E+00  0.00000000E+00
  0.00000000E+00  0.00000000E+00  0.00000000E+00
  0.00000000E+00  0.00000000E+00  0.00000000E+00
  0.00000000E+00  0.00000000E+00  0.00000000E+00
  0.00000000E+00  0.00000000E+00  0.00000000E+00
  0.00000000E+00  0.00000000E+00  0.00000000E+00
  0.00000000E+00  0.00000000E+00  0.00000000E+00
  0.00000000E+00  0.00000000E+00  0.00000000E+00
  0.00000000E+00  0.00000000E+00  0.00000000E+00
  0.00000000E+00  0.00000000E+00  0.00000000E+00
  0.00000000E+00  0.00000000E+00  0.00000000E+00
  0.00000000E+00  0.00000000E+00  0.00000000E+00
  0.00000000E+00  0.00000000E+00  0.00000000E+00
  0.00000000E+00  0.00000000E+00  0.00000000E+00
  0.00000000E+00  0.00000000E+00  0.00000000E+00
  0.00000000E+00  0.00000000E+00  0.00000000E+00
  0.00000000E+00  0.00000000E+00  0.00000000E+00
  0.00000000E+00  0.00000000E+00  0.00000000E+00
  0.00000000E+00  0.00000000E+00  0.00000000E+00
  0.00000000E+00  0.00000000E+00  0.00000000E+00
  0.00000000E+00  0.00000000E+00  0.00000000E+00
  0.00000000E+00  0.00000000E+00  0.00000000E+00
  0.00000000E+00  0.00000000E+00  0.00000000E+00
  0.00000000E+00  0.00000000E+00  0.00000000E+00
  0.00000000E+00  0.00000000E+00  0.00000000E+00
  0.00000000E+00  0.00000000E+00  0.00000000E+00
  0.00000000E+00  0.00000000E+00  0.00000000E+00
  0.00000000E+00  0.00000000E+00  0.00000000E+00
  0.00000000E+00  0.00000000E+00  0.00000000E+00
  0.00000000E+00  0.00000000E+00  0.00000000E+00
  0.00000000E+00  0.00000000E+00  0.00000000E+00
  0.00000000E+00  0.00000000E+00  0.00000000E+00
  0.00000000E+00  0.00000000E+00  0.00000000E+00
  0.00000000E+00  0.00000000E+00  0.00000000E+00
  0.00000000E+00  0.00000000E+00  0.00000000E+00
  0.00000000E+00  0.00000000E+00  0.00000000E+00
  0.00000000E+00  0.00000000E+00  0.00000000E+00
  0.00000000E+00  0.00000000E+00  0.00000000E+00
  0.00000000E+00  0.00000000E+00  0.00000000E+00
  0.00000000E+00  0.00000000E+00  0.00000000E+00
  0.00000000E+00  0.00000000E+00  0.00000000E+00
  0.00000000E+00  0.00000000E+00  0.00000000E+00
  0.00000000E+00  0.00000000E+00  0.00000000E+00
  0.00000000E+00  0.00000000E+00  0.00000000E+00
  0.00000000E+00  0.00000000E+00  0.00000000E+00
  0.00000000E+00  0.00000000E+00  0.00000000E+00
  0.00000000E+00  0.00000000E+00  0.00000000E+00
  0.00000000E+00  0.00000000E+00  0.00000000E+00
  0.00000000E+00  0.00000000E+00  0.00000000E+00
  0.00000000E+00  0.00000000E+00  0.00000000E+00
  0.00000000E+00  0.00000000E+00  0.00000000E+00
  0.00000000E+00  0.00000000E+00  0.00000000E+00
  0.00000000E+00  0.00000000E+00  0.00000000E+00
  0.00000000E+00  0.00000000E+00  0.00000000E+00
  0.00000000E+00  0.00000000E+00  0.00000000E+00
  0.00000000E+00  0.00000000E+00  0.00000000E+00
  0.00000000E+00  0.00000000E+00  0.00000000E+00
  0.00000000E+00  0.00000000E+00  0.00000000E+00
  0.00000000E+00  0.00000000E+00  0.00000000E+00
  0.00000000E+00  0.00000000E+00  0.00000000E+00
  0.00000000E+00  0.00000000E+00  0.00000000E+00
  0.00000000E+00  0.00000000E+00  0.00000000E+00
  0.00000000E+00  0.00000000E+00  0.00000000E+00
  0.00000000E+00  0.00000000E+00  0.00000000E+00
  0.00000000E+00  0.00000000E+00  0.00000000E+00
  0.00000000E+00  0.00000000E+00  0.00000000E+00
  0.00000000E+00  0.00000000E+00  0.00000000E+00
  0.00000000E+00  0.00000000E+00  0.00000000E+00
  0.00000000E+00  0.00000000E+00  0.00000000E+00
  0.00000000E+00  0.00000000E+00  0.00000000E+00
  0.00000000E+00  0.00000000E+00  0.00000000E+00
  0.00000000E+00  0.00000000E+00  0.00000000E+00
  0.00000000E+00  0.00000000E+00  0.00000000E+00
  0.00000000E+00  0.00000000E+00  0.00000000E+00
  0.00000000E+00  0.00000000E+00  0.00000000E+00
  0.00000000E+00  0.00000000E+00  0.00000000E+00
  0.00000000E+00  0.00000000E+00  0.00000000E+00
  0.00000000E+00  0.00000000E+00  0.00000000E+00
  0.00000000E+00  0.00000000E+00  0.00000000E+00
  0.00000000E+00  0.00000000E+00  0.00000000E+00
  0.00000000E+00  0.00000000E+00  0.00000000E+00
  0.00000000E+00  0.00000000E+00  0.00000000E+00
  0.00000000E+00  0.00000000E+00  0.00000000E+00
  0.00000000E+00  0.00000000E+00  0.00000000E+00
  0.00000000E+00  0.00000000E+00  0.00000000E+00
  0.00000000E+00  0.00000000E+00  0.00000000E+00
  0.00000000E+00  0.00000000E+00  0.00000000E+00
  0.00000000E+00  0.00000000E+00  0.00000000E+00
  0.00000000E+00  0.00000000E+00  0.00000000E+00
  0.00000000E+00  0.00000000E+00  0.00000000E+00
  0.00000000E+00  0.00000000E+00  0.00000000E+00
  0.00000000E+00  0.00000000E+00  0.00000000E+00
  0.00000000E+00  0.00000000E+00  0.00000000E+00
  0.00000000E+00  0.00000000E+00  0.00000000E+00
  0.00000000E+00  0.00000000E+00  0.00000000E+00
  0.00000000E+00  0.00000000E+00  0.00000000E+00
  0.00000000E+00  0.00000000E+00  0.00000000E+00
  0.00000000E+00  0.00000000E+00  0.00000000E+00
  0.00000000E+00  0.00000000E+00  0.00000000E+00
  0.00000000E+00  0.00000000E+00  0.00000000E+00
  0.00000000E+00  0.00000000E+00  0.00000000E+00
