supercell of POSCAR                     
   1.07329600000000     
     9.1016125577399993   -5.3128209557800004   -9.4184911254399992
     9.0821131104399999    5.2871675818400004    9.4140884809200003
    -1.5053809694200000   -7.9210976524300012    4.6939078171600004
   Al   Sc   N 
    72    23    96
Direct
  0.3021702572559946  0.2873339074647490  0.5383871591500551
  0.1436428848936657  0.2415754590811403  0.2996050910846151
  0.3124748970653854  0.4012452759361267  0.2935612643017222
  0.4638709655353779  0.3234336141583967  0.7941290493256190
  0.1395960013910553  0.4976831599633869  0.7861071355392966
  0.2957163097735247  0.1653810820071016  0.7821905966503024
  0.4697143556519805  0.4486409714623747  0.5358448304605687
  0.1400800953025438  0.1193733461673361  0.5382716813430051
  0.4768060523614395  0.0765096654038189  0.2949768155152768
  0.2775758345980961  0.1094156915123534  0.3365156014217945
  0.1153056132810661  0.0692042563719539  0.0941896055500280
  0.1118285592240653  0.1971308002884768  0.8222529580245705
  0.2742806179858448  0.3603957912598119  0.8181876196272313
  0.1103992041630733  0.3233865059750514  0.5852168254441921
  0.2730916894141089  0.4853914025541286  0.5747694275009536
  0.4480469084486458  0.2775327481763270  0.3339650663149740
  0.1135044437530439  0.4429475402255889  0.3335007084968851
  0.4462346527145016  0.4028967024255081  0.0963385790476252
  0.8022503295205254  0.2863400160313816  0.5399797710238659
  0.6393826277812096  0.2406092482257520  0.3030519972392156
  0.8070123889576095  0.4067278179643452  0.3016344141152487
  0.9652810485781345  0.3262397762818736  0.7898497616476376
  0.6386799168147874  0.4951431700742788  0.7899407951310025
  0.7983898171879318  0.1619700328127038  0.7821603083233342
  0.9702111168394580  0.4478443134265646  0.5344073542447845
  0.6414420319019101  0.1189715596518042  0.5387866246481678
  0.9753992446490543  0.0725232590646669  0.2936049411956887
  0.7757796389809783  0.1086667845141065  0.3330232950057521
  0.6105447189157829  0.0742376815336385  0.0941220137488799
  0.6103913398043801  0.1950261051017108  0.8255551808028301
  0.7716005794187808  0.3569615732271885  0.8228593944782858
  0.6099958961560290  0.3234136460196027  0.5895482220227919
  0.7720470754901925  0.4843250414385309  0.5787611307598866
  0.9470913826417444  0.2776979887774118  0.3339870788049168
  0.6103221857745211  0.4431240632020348  0.3354415132952866
  0.9483891815484640  0.4011227664235832  0.0941122948521311
  0.3040349102014659  0.7878650892697578  0.5402101688631404
  0.1436295004067460  0.7418451772288464  0.3034895633097037
  0.3096326017662747  0.9098037120356111  0.3049501330527065
  0.4683045012219011  0.8332996499973007  0.7916391587598781
  0.1407193508227209  0.9981171135996334  0.7891093937020273
  0.3012465739630272  0.6644826563241679  0.7824089844402948
  0.4709760389993889  0.9507483109547792  0.5436627818824320
  0.1427000504611655  0.6193099055224209  0.5385776225460290
  0.4766581105646637  0.5750585949732638  0.2952563628639098
  0.2789775408813711  0.6069189179536423  0.3326360626347693
  0.1153893614705268  0.5672569249269941  0.0920120564106384
  0.1149203149157216  0.6972671327772346  0.8232585277769360
  0.2778720321451615  0.8617024775176532  0.8219059312608152
  0.1122223136363445  0.8242242917158009  0.5874850681675028
  0.2744794788224780  0.9873309378471191  0.5832868661693880
  0.4483253963909348  0.7805723094709123  0.3357896230606698
  0.1127429270346099  0.9445826993747133  0.3369386682779378
  0.4484675226133632  0.9046539606781820  0.0956495858806576
  0.8039783403466174  0.7854868090438032  0.5383218066251416
  0.6430131690532335  0.7422406266552670  0.3029069005950902
  0.8077252669549608  0.9076227914530790  0.3010643489835161
  0.9677147299203739  0.8256999622209307  0.7892101646178133
  0.6392624307486727  0.9959778631555949  0.7869251200435841
  0.7999421902393919  0.6612391430741553  0.7818561488058577
  0.9705045973577242  0.9476044036943918  0.5348604973193432
  0.6416656774398959  0.6181270202691351  0.5398079015642878
  0.9766113695458998  0.5723492188882986  0.2940615165884140
  0.7773743125688810  0.6073611650096495  0.3340647800705341
  0.6144597891196284  0.5670365782478086  0.0934461603965104
  0.6138010675993257  0.6976514240717364  0.8235579000434257
  0.7762447849118175  0.8573893213578074  0.8193275660311343
  0.6120617564304212  0.8232700438178995  0.5859573565109955
  0.7725625730186394  0.9845788906440092  0.5775914755367069
  0.9479658518277532  0.7776895738664393  0.3335814076991213
  0.6101209233196840  0.9460762433901380  0.3367648490908266
  0.9476430859243621  0.9011716028409396  0.0935642070199805
  0.1442368125571676  0.3610310688309966  0.0336495928656930
  0.3092558015983542  0.0257923598423702  0.0424002063847624
  0.2975995983744326  0.2243133551861263  0.0700162291518254
  0.4455395705904053  0.0448035125543242  0.8451173166424013
  0.4452154047105594  0.1544646719627423  0.5785450518344888
  0.9804430883046251  0.1962747934903888  0.0378449007515513
  0.6275333281551525  0.3522374768898828  0.0358021586623138
  0.8080890751250820  0.0253644021857795  0.0372224263310770
  0.7819811988029315  0.2312586881757994  0.0822595373483281
  0.9470133045534155  0.0212026636810947  0.8221733304546888
  0.9428356045284545  0.1521083828038599  0.5730657454989370
  0.4826350624260414  0.6977862651808451  0.0378157819506981
  0.1409986962871770  0.8649408259938767  0.0371010366448488
  0.3100470647083142  0.5258046544214281  0.0357398599437460
  0.2851978923339402  0.7322497282155993  0.0822488585981489
  0.4480877056446104  0.5213893375424092  0.8212902286897972
  0.4454326896141581  0.6551928540029692  0.5758285605085049
  0.9812599150796544  0.6946781564463365  0.0371984290365290
  0.6411653238116628  0.8673597288368313  0.0372167739254508
  0.8061305608192271  0.5200221706858414  0.0383943042844876
  0.7839472055312484  0.7291004797240817  0.0798518751699007
  0.9461777683391546  0.5208252786127403  0.8224245428637786
  0.9460437461930056  0.6518050406373561  0.5730361715707843
  0.2371078630951899  0.3685024652891613  0.6293138628037553
  0.0750037191381523  0.3240365985444456  0.3937126377370106
  0.2409278449650856  0.4876986642022487  0.3855551950997267
  0.4141087647348982  0.2986413368084442  0.1634569232028582
  0.0735750179609340  0.4503974432652527  0.1427413575121292
  0.2370126274966253  0.1040016982290481  0.1530385914551289
  0.3994832118982430  0.4013085972399821  0.9016916051741148
  0.0843805655828973  0.0816946662125417  0.8980644876756188
  0.2325139791401298  0.2477738051786815  0.8717542699341863
  0.4006232808158501  0.0245169118549526  0.6327757618933632
  0.0816003077953269  0.2029031060785371  0.6335480229332617
  0.4045083148101156  0.1561488421760160  0.3726523657522520
  0.2153820617126030  0.1907475555223641  0.4335830857438765
  0.0552408291811872  0.1451575496837805  0.1969531435783622
  0.2168583255423044  0.3126524273833553  0.1948011491525250
  0.3558719124066911  0.1196545022634510  0.9231183548392465
  0.0423161747163263  0.2734446038419165  0.9029835351112894
  0.2097255344538240  0.4410315962384104  0.9029183958596079
  0.3693549109982683  0.2413510386355995  0.6787269046266076
  0.0405432010692763  0.4058544097475689  0.6826005682385059
  0.2087475590981356  0.0681986018615248  0.6728197105902538
  0.3816989062675873  0.3552407794443155  0.4365246265656211
  0.0470396051285178  0.0250457399476005  0.4348864830574541
  0.3872906129535849  0.4827822095558929  0.1973774178140530
  0.7386060122259366  0.3671439962715937  0.6333222947011876
  0.5762185176082824  0.3255565180797220  0.3988495398992029
  0.7397107888235084  0.4887156896905154  0.3895116788690984
  0.9200772832526738  0.2866738186542932  0.1489180505733714
  0.5715947645785775  0.4523079031352140  0.1456226865980170
  0.7376822198596074  0.1048653193601510  0.1472564637056024
  0.8997929332191603  0.3991131873781057  0.9020702038434720
  0.5894137674746318  0.0782684721246198  0.8958382550915687
  0.7357620944376606  0.2415623816070536  0.8750135551828464
  0.8990500807155755  0.0209497150882214  0.6189825608180044
  0.5853939705574760  0.2023747456644500  0.6337416898441433
  0.9048802416755208  0.1552059802554524  0.3660623524614124
  0.7185232368145762  0.1905412196991776  0.4346457052645860
  0.5584034174609158  0.1454407957866053  0.2070202845713993
  0.7165839177956812  0.3154892178477624  0.2004474268113512
  0.8721473470272230  0.1129983397242285  0.9134190757314329
  0.5393814809316524  0.2678253975903573  0.8953303235301178
  0.7053250577290910  0.4347922694203561  0.9085483936648799
  0.8725380110001879  0.2402233977533328  0.6799820720857994
  0.5396359808112550  0.4070950906595598  0.6842457714954122
  0.7123961225489310  0.0663561147109561  0.6728794079125606
  0.8813859591811450  0.3542233962573249  0.4324562386918132
  0.5469959669701367  0.0249784248448393  0.4398713244980641
  0.8881976506063083  0.4760222119379094  0.1988527264417002
  0.2392428488357794  0.8679052072443199  0.6321006320251854
  0.0759841222909259  0.8238992487831922  0.3951961028822026
  0.2405792013385550  0.9893756472239019  0.3929558101085107
  0.4218518570704788  0.7884058092119801  0.1493336115195092
  0.0721780405605656  0.9515923970379632  0.1459199406121598
  0.2384601025994257  0.6064267402143315  0.1473152072298802
  0.4037399242033430  0.9071725681656204  0.9030163395021162
  0.0843434188391470  0.5820732901942094  0.8971328229605717
  0.2379735255288509  0.7451635555879292  0.8754968927322722
  0.3986968781471205  0.5245631108207505  0.6195659662491408
  0.0851012399924258  0.7032877361351382  0.6350306726791075
  0.4063736475307280  0.6584357278708382  0.3689376171583945
  0.2184996472958147  0.6904182920974620  0.4330854989335648
  0.0575041634553344  0.6451921995550407  0.1973200620967859
  0.2179809144081020  0.8166831782892103  0.2003936042619685
  0.3733412558571061  0.6157258098934975  0.9141256719484119
  0.0447104799246958  0.7727944811932872  0.9038311228303257
  0.2090936551464253  0.9381721057748322  0.9049838849152252
  0.3742378099758525  0.7438882336806145  0.6822627164252069
  0.0417243995186283  0.9050454726580099  0.6822979064587784
  0.2122776238643524  0.5687658031347738  0.6738773127519764
  0.3826336238934260  0.8565852478788827  0.4353496436144724
  0.0485300245384437  0.5256667696721493  0.4357495131821025
  0.3885141733783541  0.9770719139929511  0.2023084553165546
  0.7403579550825867  0.8657435202267365  0.6296933460944771
  0.5768178238733839  0.8242066347176689  0.3940605154328267
  0.7397579888279608  0.9884352786196970  0.3880284090234909
  0.9213888083755961  0.7859776782321788  0.1480297325050017
  0.5730835568946091  0.9527833954475327  0.1457205562778299
  0.7383005808947445  0.6043282840117996  0.1487761078985486
  0.9028747141325866  0.8977638353044881  0.9003601595717470
  0.5855603116514629  0.5827990389068844  0.8992137163357441
  0.7375892631098608  0.7423447124881832  0.8732974565006586
  0.8986777307094584  0.5219073012604269  0.6193654046197352
  0.5853624046084960  0.7025571360052965  0.6352388992720250
  0.9058838100850721  0.6554613092113826  0.3665972730856026
  0.7176178115619507  0.6895908518693545  0.4331051905923644
  0.5577057136274348  0.6465778197581997  0.1973962673801850
  0.7178877329435451  0.8147791628675378  0.1971221881420391
  0.8703439513755740  0.6118303025628933  0.9164137108605388
  0.5451260703351721  0.7758646204135573  0.9034265748359616
  0.7121293212719522  0.9372204455794986  0.9020014801893339
  0.8740507425311677  0.7390045642506493  0.6789594960496288
  0.5447195121241180  0.9027522363578058  0.6798599249246848
  0.7113847824959834  0.5663229824592477  0.6755077188457079
  0.8819286843012577  0.8537792472711132  0.4306742615255885
  0.5477334079935829  0.5264061922996675  0.4360895867611632
  0.8869021359151859  0.9758746978358559  0.1963630596657069
 
  0.00000000E+00  0.00000000E+00  0.00000000E+00
  0.00000000E+00  0.00000000E+00  0.00000000E+00
  0.00000000E+00  0.00000000E+00  0.00000000E+00
  0.00000000E+00  0.00000000E+00  0.00000000E+00
  0.00000000E+00  0.00000000E+00  0.00000000E+00
  0.00000000E+00  0.00000000E+00  0.00000000E+00
  0.00000000E+00  0.00000000E+00  0.00000000E+00
  0.00000000E+00  0.00000000E+00  0.00000000E+00
  0.00000000E+00  0.00000000E+00  0.00000000E+00
  0.00000000E+00  0.00000000E+00  0.00000000E+00
  0.00000000E+00  0.00000000E+00  0.00000000E+00
  0.00000000E+00  0.00000000E+00  0.00000000E+00
  0.00000000E+00  0.00000000E+00  0.00000000E+00
  0.00000000E+00  0.00000000E+00  0.00000000E+00
  0.00000000E+00  0.00000000E+00  0.00000000E+00
  0.00000000E+00  0.00000000E+00  0.00000000E+00
  0.00000000E+00  0.00000000E+00  0.00000000E+00
  0.00000000E+00  0.00000000E+00  0.00000000E+00
  0.00000000E+00  0.00000000E+00  0.00000000E+00
  0.00000000E+00  0.00000000E+00  0.00000000E+00
  0.00000000E+00  0.00000000E+00  0.00000000E+00
  0.00000000E+00  0.00000000E+00  0.00000000E+00
  0.00000000E+00  0.00000000E+00  0.00000000E+00
  0.00000000E+00  0.00000000E+00  0.00000000E+00
  0.00000000E+00  0.00000000E+00  0.00000000E+00
  0.00000000E+00  0.00000000E+00  0.00000000E+00
  0.00000000E+00  0.00000000E+00  0.00000000E+00
  0.00000000E+00  0.00000000E+00  0.00000000E+00
  0.00000000E+00  0.00000000E+00  0.00000000E+00
  0.00000000E+00  0.00000000E+00  0.00000000E+00
  0.00000000E+00  0.00000000E+00  0.00000000E+00
  0.00000000E+00  0.00000000E+00  0.00000000E+00
  0.00000000E+00  0.00000000E+00  0.00000000E+00
  0.00000000E+00  0.00000000E+00  0.00000000E+00
  0.00000000E+00  0.00000000E+00  0.00000000E+00
  0.00000000E+00  0.00000000E+00  0.00000000E+00
  0.00000000E+00  0.00000000E+00  0.00000000E+00
  0.00000000E+00  0.00000000E+00  0.00000000E+00
  0.00000000E+00  0.00000000E+00  0.00000000E+00
  0.00000000E+00  0.00000000E+00  0.00000000E+00
  0.00000000E+00  0.00000000E+00  0.00000000E+00
  0.00000000E+00  0.00000000E+00  0.00000000E+00
  0.00000000E+00  0.00000000E+00  0.00000000E+00
  0.00000000E+00  0.00000000E+00  0.00000000E+00
  0.00000000E+00  0.00000000E+00  0.00000000E+00
  0.00000000E+00  0.00000000E+00  0.00000000E+00
  0.00000000E+00  0.00000000E+00  0.00000000E+00
  0.00000000E+00  0.00000000E+00  0.00000000E+00
  0.00000000E+00  0.00000000E+00  0.00000000E+00
  0.00000000E+00  0.00000000E+00  0.00000000E+00
  0.00000000E+00  0.00000000E+00  0.00000000E+00
  0.00000000E+00  0.00000000E+00  0.00000000E+00
  0.00000000E+00  0.00000000E+00  0.00000000E+00
  0.00000000E+00  0.00000000E+00  0.00000000E+00
  0.00000000E+00  0.00000000E+00  0.00000000E+00
  0.00000000E+00  0.00000000E+00  0.00000000E+00
  0.00000000E+00  0.00000000E+00  0.00000000E+00
  0.00000000E+00  0.00000000E+00  0.00000000E+00
  0.00000000E+00  0.00000000E+00  0.00000000E+00
  0.00000000E+00  0.00000000E+00  0.00000000E+00
  0.00000000E+00  0.00000000E+00  0.00000000E+00
  0.00000000E+00  0.00000000E+00  0.00000000E+00
  0.00000000E+00  0.00000000E+00  0.00000000E+00
  0.00000000E+00  0.00000000E+00  0.00000000E+00
  0.00000000E+00  0.00000000E+00  0.00000000E+00
  0.00000000E+00  0.00000000E+00  0.00000000E+00
  0.00000000E+00  0.00000000E+00  0.00000000E+00
  0.00000000E+00  0.00000000E+00  0.00000000E+00
  0.00000000E+00  0.00000000E+00  0.00000000E+00
  0.00000000E+00  0.00000000E+00  0.00000000E+00
  0.00000000E+00  0.00000000E+00  0.00000000E+00
  0.00000000E+00  0.00000000E+00  0.00000000E+00
  0.00000000E+00  0.00000000E+00  0.00000000E+00
  0.00000000E+00  0.00000000E+00  0.00000000E+00
  0.00000000E+00  0.00000000E+00  0.00000000E+00
  0.00000000E+00  0.00000000E+00  0.00000000E+00
  0.00000000E+00  0.00000000E+00  0.00000000E+00
  0.00000000E+00  0.00000000E+00  0.00000000E+00
  0.00000000E+00  0.00000000E+00  0.00000000E+00
  0.00000000E+00  0.00000000E+00  0.00000000E+00
  0.00000000E+00  0.00000000E+00  0.00000000E+00
  0.00000000E+00  0.00000000E+00  0.00000000E+00
  0.00000000E+00  0.00000000E+00  0.00000000E+00
  0.00000000E+00  0.00000000E+00  0.00000000E+00
  0.00000000E+00  0.00000000E+00  0.00000000E+00
  0.00000000E+00  0.00000000E+00  0.00000000E+00
  0.00000000E+00  0.00000000E+00  0.00000000E+00
  0.00000000E+00  0.00000000E+00  0.00000000E+00
  0.00000000E+00  0.00000000E+00  0.00000000E+00
  0.00000000E+00  0.00000000E+00  0.00000000E+00
  0.00000000E+00  0.00000000E+00  0.00000000E+00
  0.00000000E+00  0.00000000E+00  0.00000000E+00
  0.00000000E+00  0.00000000E+00  0.00000000E+00
  0.00000000E+00  0.00000000E+00  0.00000000E+00
  0.00000000E+00  0.00000000E+00  0.00000000E+00
  0.00000000E+00  0.00000000E+00  0.00000000E+00
  0.00000000E+00  0.00000000E+00  0.00000000E+00
  0.00000000E+00  0.00000000E+00  0.00000000E+00
  0.00000000E+00  0.00000000E+00  0.00000000E+00
  0.00000000E+00  0.00000000E+00  0.00000000E+00
  0.00000000E+00  0.00000000E+00  0.00000000E+00
  0.00000000E+00  0.00000000E+00  0.00000000E+00
  0.00000000E+00  0.00000000E+00  0.00000000E+00
  0.00000000E+00  0.00000000E+00  0.00000000E+00
  0.00000000E+00  0.00000000E+00  0.00000000E+00
  0.00000000E+00  0.00000000E+00  0.00000000E+00
  0.00000000E+00  0.00000000E+00  0.00000000E+00
  0.00000000E+00  0.00000000E+00  0.00000000E+00
  0.00000000E+00  0.00000000E+00  0.00000000E+00
  0.00000000E+00  0.00000000E+00  0.00000000E+00
  0.00000000E+00  0.00000000E+00  0.00000000E+00
  0.00000000E+00  0.00000000E+00  0.00000000E+00
  0.00000000E+00  0.00000000E+00  0.00000000E+00
  0.00000000E+00  0.00000000E+00  0.00000000E+00
  0.00000000E+00  0.00000000E+00  0.00000000E+00
  0.00000000E+00  0.00000000E+00  0.00000000E+00
  0.00000000E+00  0.00000000E+00  0.00000000E+00
  0.00000000E+00  0.00000000E+00  0.00000000E+00
  0.00000000E+00  0.00000000E+00  0.00000000E+00
  0.00000000E+00  0.00000000E+00  0.00000000E+00
  0.00000000E+00  0.00000000E+00  0.00000000E+00
  0.00000000E+00  0.00000000E+00  0.00000000E+00
  0.00000000E+00  0.00000000E+00  0.00000000E+00
  0.00000000E+00  0.00000000E+00  0.00000000E+00
  0.00000000E+00  0.00000000E+00  0.00000000E+00
  0.00000000E+00  0.00000000E+00  0.00000000E+00
  0.00000000E+00  0.00000000E+00  0.00000000E+00
  0.00000000E+00  0.00000000E+00  0.00000000E+00
  0.00000000E+00  0.00000000E+00  0.00000000E+00
  0.00000000E+00  0.00000000E+00  0.00000000E+00
  0.00000000E+00  0.00000000E+00  0.00000000E+00
  0.00000000E+00  0.00000000E+00  0.00000000E+00
  0.00000000E+00  0.00000000E+00  0.00000000E+00
  0.00000000E+00  0.00000000E+00  0.00000000E+00
  0.00000000E+00  0.00000000E+00  0.00000000E+00
  0.00000000E+00  0.00000000E+00  0.00000000E+00
  0.00000000E+00  0.00000000E+00  0.00000000E+00
  0.00000000E+00  0.00000000E+00  0.00000000E+00
  0.00000000E+00  0.00000000E+00  0.00000000E+00
  0.00000000E+00  0.00000000E+00  0.00000000E+00
  0.00000000E+00  0.00000000E+00  0.00000000E+00
  0.00000000E+00  0.00000000E+00  0.00000000E+00
  0.00000000E+00  0.00000000E+00  0.00000000E+00
  0.00000000E+00  0.00000000E+00  0.00000000E+00
  0.00000000E+00  0.00000000E+00  0.00000000E+00
  0.00000000E+00  0.00000000E+00  0.00000000E+00
  0.00000000E+00  0.00000000E+00  0.00000000E+00
  0.00000000E+00  0.00000000E+00  0.00000000E+00
  0.00000000E+00  0.00000000E+00  0.00000000E+00
  0.00000000E+00  0.00000000E+00  0.00000000E+00
  0.00000000E+00  0.00000000E+00  0.00000000E+00
  0.00000000E+00  0.00000000E+00  0.00000000E+00
  0.00000000E+00  0.00000000E+00  0.00000000E+00
  0.00000000E+00  0.00000000E+00  0.00000000E+00
  0.00000000E+00  0.00000000E+00  0.00000000E+00
  0.00000000E+00  0.00000000E+00  0.00000000E+00
  0.00000000E+00  0.00000000E+00  0.00000000E+00
  0.00000000E+00  0.00000000E+00  0.00000000E+00
  0.00000000E+00  0.00000000E+00  0.00000000E+00
  0.00000000E+00  0.00000000E+00  0.00000000E+00
  0.00000000E+00  0.00000000E+00  0.00000000E+00
  0.00000000E+00  0.00000000E+00  0.00000000E+00
  0.00000000E+00  0.00000000E+00  0.00000000E+00
  0.00000000E+00  0.00000000E+00  0.00000000E+00
  0.00000000E+00  0.00000000E+00  0.00000000E+00
  0.00000000E+00  0.00000000E+00  0.00000000E+00
  0.00000000E+00  0.00000000E+00  0.00000000E+00
  0.00000000E+00  0.00000000E+00  0.00000000E+00
  0.00000000E+00  0.00000000E+00  0.00000000E+00
  0.00000000E+00  0.00000000E+00  0.00000000E+00
  0.00000000E+00  0.00000000E+00  0.00000000E+00
  0.00000000E+00  0.00000000E+00  0.00000000E+00
  0.00000000E+00  0.00000000E+00  0.00000000E+00
  0.00000000E+00  0.00000000E+00  0.00000000E+00
  0.00000000E+00  0.00000000E+00  0.00000000E+00
  0.00000000E+00  0.00000000E+00  0.00000000E+00
  0.00000000E+00  0.00000000E+00  0.00000000E+00
  0.00000000E+00  0.00000000E+00  0.00000000E+00
  0.00000000E+00  0.00000000E+00  0.00000000E+00
  0.00000000E+00  0.00000000E+00  0.00000000E+00
  0.00000000E+00  0.00000000E+00  0.00000000E+00
  0.00000000E+00  0.00000000E+00  0.00000000E+00
  0.00000000E+00  0.00000000E+00  0.00000000E+00
  0.00000000E+00  0.00000000E+00  0.00000000E+00
  0.00000000E+00  0.00000000E+00  0.00000000E+00
  0.00000000E+00  0.00000000E+00  0.00000000E+00
  0.00000000E+00  0.00000000E+00  0.00000000E+00
  0.00000000E+00  0.00000000E+00  0.00000000E+00
  0.00000000E+00  0.00000000E+00  0.00000000E+00
  0.00000000E+00  0.00000000E+00  0.00000000E+00
  0.00000000E+00  0.00000000E+00  0.00000000E+00
