supercell of POSCAR                     
   1.07329600000000     
     9.1016125577399993   -5.3128209557800004   -9.4184911254399992
     9.0821131104399999    5.2871675818400004    9.4140884809200003
    -1.5053809694200000   -7.9210976524300012    4.6939078171600004
   Al   Sc   N 
    72    23    96
Direct
  0.3032743294492164  0.2860207068257949  0.5408677858783051
  0.1423181887531229  0.2411603373375968  0.3046447364404088
  0.3091804370643985  0.4075173832530652  0.3036209923621058
  0.4663260119684622  0.3256683347796567  0.7912949923555246
  0.1421293424781638  0.4954909646732446  0.7860992842987571
  0.2980863534947602  0.1656930976076509  0.7874890974366124
  0.4699234468088918  0.4484849238463156  0.5362875328366528
  0.1412870363205769  0.1195211856298926  0.5412031188337849
  0.4730869172657535  0.0770123265933407  0.3053769056767663
  0.2792770538405378  0.1086833021035005  0.3386719374966631
  0.1121201343506257  0.0672563498842536  0.0934530968903431
  0.1112871144962781  0.1956383234236370  0.8251557849556832
  0.2829348237492297  0.3495167956220797  0.8106068898643457
  0.1101255123296880  0.3238183851233245  0.5863408260739931
  0.2720182902402044  0.4856345012679526  0.5771365418664018
  0.4466233312591470  0.2758833886218994  0.3409049213606892
  0.1124903030648738  0.4423901188620860  0.3330332252954165
  0.4494366656274096  0.4045761821193778  0.0979387399251976
  0.8006062292260197  0.2860297961999905  0.5396391389715873
  0.6412607250000733  0.2419811850250682  0.3064654251770023
  0.8081375911260125  0.4073399973773064  0.3019786957898560
  0.9651741513494727  0.3263960774964687  0.7897597430473766
  0.6398029229865543  0.4972552318628090  0.7872189870932687
  0.7965881831501491  0.1631812286680585  0.7826092639346527
  0.9700681420970909  0.4476367674629316  0.5339651749395387
  0.6347500787066735  0.1213167443712067  0.5433711272353676
  0.9750569623597229  0.0725551993303668  0.2954114936790120
  0.7752068867264583  0.1077048532631721  0.3356982613651240
  0.6130664237255274  0.0684860868678001  0.0936061535445987
  0.6107385735969331  0.1975067625320364  0.8216105724043317
  0.7738440094172816  0.3578407969768733  0.8194869027857266
  0.6082003753890959  0.3201371863823468  0.5888411565153149
  0.7726908547039102  0.4850586551629590  0.5782399474703510
  0.9461607635142144  0.2773267153480532  0.3343171127256070
  0.6117143822295859  0.4437267774167992  0.3376679084358472
  0.9491117376784715  0.4005327951754438  0.0931373183754047
  0.3035805808956908  0.7886381445749251  0.5387497915495061
  0.1431702991363011  0.7414814384153701  0.3024392795894855
  0.3085598731148593  0.9083883490006173  0.3038549870963934
  0.4673462052918183  0.8313176977505208  0.7890772307563481
  0.1394017099584559  0.9972893329669645  0.7885599412315329
  0.3009053353905529  0.6645758490634179  0.7814708803186718
  0.4683879587885187  0.9534067263697210  0.5385299048769241
  0.1423784513318012  0.6189315699776543  0.5377827108837963
  0.4767069195155642  0.5740333477498183  0.2955947195745949
  0.2784272312299620  0.6076981438536180  0.3314676531415870
  0.1164891428785495  0.5658491770783840  0.0912402905791652
  0.1150659885896559  0.6964294243129103  0.8220462733889065
  0.2772387877178915  0.8609818433300944  0.8192855728911255
  0.1110392315411559  0.8232082662138964  0.5861217358787627
  0.2741479452668472  0.9874330185688720  0.5805359148340514
  0.4479058294435063  0.7795652552586176  0.3340511161468953
  0.1117624650958078  0.9441730755236151  0.3364709554139793
  0.4478249168332482  0.9032295057252924  0.0938993073914176
  0.8034341718695472  0.7863124441092211  0.5382309684096924
  0.6427234383951870  0.7422810843557812  0.3029429528485110
  0.8076343585387846  0.9073801058585147  0.3016640890128528
  0.9673604703684120  0.8261484598630560  0.7891958366622305
  0.6384639956823506  0.9979072271457738  0.7877305815573550
  0.8006212653999398  0.6626066601269613  0.7811241105557798
  0.9698455660743761  0.9479146179765578  0.5352676427887104
  0.6418638359270545  0.6193514461098033  0.5391212663757798
  0.9770234620257554  0.5722158169424389  0.2936455538582905
  0.7778593749402773  0.6076628773834614  0.3330515596629624
  0.6155922600653909  0.5687029593121977  0.0932620308148060
  0.6138528469691664  0.6977329164822876  0.8222194218848458
  0.7751225990492756  0.8582770258154255  0.8190331130924022
  0.6108917835693148  0.8247231750266906  0.5860318185435176
  0.7710754496227707  0.9856598328028454  0.5781315296605811
  0.9476110253677774  0.7775702062650680  0.3331573567080710
  0.6101923642516311  0.9453032450515337  0.3367904257272585
  0.9472591099713128  0.9006607305173944  0.0935933972469982
  0.4809153865404170  0.1989839339912365  0.0470529936473056
  0.1460193348465140  0.3599631495780997  0.0295331758181163
  0.3099243353444407  0.0257500184478019  0.0437802871070190
  0.2869506935691959  0.2279229125860738  0.0899421206541717
  0.4444011425532679  0.0314753304635502  0.8198497329639807
  0.9797114025970970  0.1963969663906440  0.0385297105704723
  0.6406991724380617  0.3649475890426928  0.0370614691386493
  0.8084455442559033  0.0244758557275873  0.0385823852624156
  0.7818912088982657  0.2296906338469071  0.0829316961104851
  0.9445907282369035  0.0215509693875546  0.8221711563819554
  0.9433051918678643  0.1527836757748346  0.5747764054096436
  0.4824160959909136  0.6971639049244516  0.0366594758302057
  0.1421151096958226  0.8650696083643865  0.0359127384801852
  0.3121735688824927  0.5210707062085334  0.0320675780321054
  0.2852558265976768  0.7295755234713539  0.0799593692901652
  0.4488236841677917  0.5225555548070275  0.8209878021471866
  0.4447863514358943  0.6545291034754541  0.5740754238177601
  0.9830388499443572  0.6955592011538769  0.0369275757507168
  0.6408999653722347  0.8652875089734806  0.0359040940088065
  0.8111315261823862  0.5233797924291466  0.0362794425278565
  0.7843266102670441  0.7296614398305081  0.0792956676836241
  0.9488788887157966  0.5210174863333492  0.8202177148307115
  0.9452975941583119  0.6523648965028741  0.5722992579287336
  0.2345700547299430  0.3692821276198472  0.6258031470621717
  0.0735245303017535  0.3234847306165207  0.3941848318167231
  0.2396771482984761  0.4894935837296188  0.3876081359299803
  0.4231594388958939  0.2921000912912390  0.1542627924971214
  0.0744563690901501  0.4486490479626752  0.1414099736879351
  0.2334453426316401  0.1015953595577344  0.1506997535806605
  0.4044521005424997  0.4068136919498642  0.9102289597351430
  0.0813989635216785  0.0797782145264989  0.8980312821196677
  0.2310581415988437  0.2442285212504771  0.8888269991127586
  0.3954771262437475  0.0164360935681742  0.6256590716039270
  0.0825360419587398  0.2031451440473262  0.6366012724387033
  0.4001105391543405  0.1569940520214601  0.3520970388553124
  0.2155597326716645  0.1900089941671581  0.4350876722207744
  0.0545579317449238  0.1453051294424768  0.1979100344989746
  0.2175586591012362  0.3151503210193383  0.2022773493055041
  0.3685463095654029  0.1199227645364971  0.9248395890831489
  0.0413869221873640  0.2730915061977939  0.9032816986250864
  0.2130989027321846  0.4361516999936086  0.8981918010694230
  0.3567728813062416  0.2604638094594662  0.7056972716494840
  0.0398029541930498  0.4059658965092865  0.6830175265748792
  0.2100281795112267  0.0691112857786251  0.6775028677860675
  0.3815075901967688  0.3554324683000019  0.4349456105758023
  0.0471036327090886  0.0253710442458512  0.4364994665079607
  0.3878743049999898  0.4785884114056884  0.2013145677079535
  0.7386992301942286  0.3684769608287510  0.6313461049661839
  0.5759443517357496  0.3256440550671158  0.3971846558563570
  0.7406174165400614  0.4892206182164003  0.3888859485803025
  0.9191495100546092  0.2865153279707258  0.1492549307347417
  0.5746302309429083  0.4535602030175170  0.1478470016140676
  0.7375939104924427  0.1033166149837896  0.1494453786743080
  0.9010274706798498  0.4002766112951548  0.9015797529957794
  0.5863540071860811  0.0820938921200778  0.8996968110734045
  0.7363228354808982  0.2446361331476083  0.8791152915308587
  0.8980087426779377  0.0215255789137814  0.6187771430429194
  0.5883064188565825  0.2064459928810791  0.6409093953951484
  0.9041510777100683  0.1550872247853903  0.3676847772237863
  0.7162278068354695  0.1895720201950724  0.4340262489775810
  0.5577227085314007  0.1453921907261133  0.2011027462026362
  0.7165442666433322  0.3157971473559584  0.2002980344367131
  0.8701242839744410  0.1139189166996104  0.9150556298358197
  0.5433532414246258  0.2743645962866381  0.9086360639367186
  0.7102672659382208  0.4394243889307958  0.9040551877044933
  0.8713654624178488  0.2406039204315960  0.6803166689911961
  0.5405977389795851  0.4077109351177057  0.6854427250297235
  0.7108498641115730  0.0672078034338952  0.6741113228248352
  0.8807588064723788  0.3538471422830654  0.4323614762304828
  0.5484198001087179  0.0240965251615677  0.4353016199690316
  0.8886815248884403  0.4756990367950849  0.1977183531610365
  0.2365707426090111  0.8665448362133503  0.6302803212912238
  0.0750016705503072  0.8231410553073104  0.3938883293665754
  0.2382430578380053  0.9878250623132558  0.3900460333300089
  0.4219584113857877  0.7870648332895129  0.1475795664885098
  0.0711877209783580  0.9500898103708195  0.1451463871095555
  0.2399245058715636  0.6030204910247150  0.1450866868907994
  0.4028396971220829  0.9031281102067439  0.9014828432042563
  0.0864145339046161  0.5811526633830155  0.8969796598666022
  0.2375135170386358  0.7450358584905814  0.8743727699267225
  0.3982745401928085  0.5238588141095804  0.6185279375135408
  0.0840159652014236  0.7021723269009712  0.6340334721651431
  0.4061943235510554  0.6569931821738493  0.3670381036264061
  0.2179199544792070  0.6901963467536874  0.4318385328228587
  0.0580012988320817  0.6438408627829162  0.1961317750506950
  0.2174019715953364  0.8146454542803738  0.1976861306716771
  0.3726782399689696  0.6158255241887574  0.9137380826253576
  0.0454397627497656  0.7733589787273942  0.9025800903441308
  0.2109801692480175  0.9399101621314472  0.9045879295265351
  0.3735858073227689  0.7428575926365113  0.6796946680579197
  0.0410060777688344  0.9048209373484184  0.6819330821748224
  0.2120300127623267  0.5692887389921495  0.6739194764301573
  0.3821780877850856  0.8543497597606446  0.4312007787279839
  0.0483324503890969  0.5248655058726399  0.4347185272080907
  0.3880070190707912  0.9755358727197105  0.2004938426595615
  0.7395002489761424  0.8664187683802851  0.6298306225754047
  0.5765438194081725  0.8235360056665897  0.3936463558678938
  0.7397949267220341  0.9875033497638483  0.3882316443596778
  0.9212781187162165  0.7854482703543866  0.1474965363155576
  0.5732050778737161  0.9509648904600709  0.1445394339657327
  0.7396956725525072  0.6041036223161598  0.1470800632149860
  0.9016420549656843  0.8980323828351544  0.9007541975777187
  0.5866619706701073  0.5833487955306822  0.8988289502342113
  0.7373994353760338  0.7431602685155454  0.8730859414316470
  0.8991676551238257  0.5224521701750220  0.6182179829811574
  0.5848145029359628  0.7032933489494226  0.6342564968734052
  0.9060560885515372  0.6552076207707671  0.3653558357688027
  0.7179086056574633  0.6898682771653029  0.4320858430398573
  0.5575695682477431  0.6460521847207374  0.1971747200817831
  0.7179626343914975  0.8143967526285252  0.1969022259426652
  0.8731307461827171  0.6137901459326400  0.9135024565530543
  0.5447274909270448  0.7749605563706226  0.9016330377438280
  0.7107575802655717  0.9384678289690456  0.9028518475817719
  0.8737927637820135  0.7401298453546516  0.6783555139832131
  0.5436536128515144  0.9052609973739933  0.6804767597982391
  0.7121367773483414  0.5680758645573150  0.6740578859934985
  0.8818054007380027  0.8537273830951193  0.4307136049612055
  0.5484141104065401  0.5263902367281688  0.4370475908115381
  0.8872323933694375  0.9755656480730863  0.1974681534031077
 
  0.00000000E+00  0.00000000E+00  0.00000000E+00
  0.00000000E+00  0.00000000E+00  0.00000000E+00
  0.00000000E+00  0.00000000E+00  0.00000000E+00
  0.00000000E+00  0.00000000E+00  0.00000000E+00
  0.00000000E+00  0.00000000E+00  0.00000000E+00
  0.00000000E+00  0.00000000E+00  0.00000000E+00
  0.00000000E+00  0.00000000E+00  0.00000000E+00
  0.00000000E+00  0.00000000E+00  0.00000000E+00
  0.00000000E+00  0.00000000E+00  0.00000000E+00
  0.00000000E+00  0.00000000E+00  0.00000000E+00
  0.00000000E+00  0.00000000E+00  0.00000000E+00
  0.00000000E+00  0.00000000E+00  0.00000000E+00
  0.00000000E+00  0.00000000E+00  0.00000000E+00
  0.00000000E+00  0.00000000E+00  0.00000000E+00
  0.00000000E+00  0.00000000E+00  0.00000000E+00
  0.00000000E+00  0.00000000E+00  0.00000000E+00
  0.00000000E+00  0.00000000E+00  0.00000000E+00
  0.00000000E+00  0.00000000E+00  0.00000000E+00
  0.00000000E+00  0.00000000E+00  0.00000000E+00
  0.00000000E+00  0.00000000E+00  0.00000000E+00
  0.00000000E+00  0.00000000E+00  0.00000000E+00
  0.00000000E+00  0.00000000E+00  0.00000000E+00
  0.00000000E+00  0.00000000E+00  0.00000000E+00
  0.00000000E+00  0.00000000E+00  0.00000000E+00
  0.00000000E+00  0.00000000E+00  0.00000000E+00
  0.00000000E+00  0.00000000E+00  0.00000000E+00
  0.00000000E+00  0.00000000E+00  0.00000000E+00
  0.00000000E+00  0.00000000E+00  0.00000000E+00
  0.00000000E+00  0.00000000E+00  0.00000000E+00
  0.00000000E+00  0.00000000E+00  0.00000000E+00
  0.00000000E+00  0.00000000E+00  0.00000000E+00
  0.00000000E+00  0.00000000E+00  0.00000000E+00
  0.00000000E+00  0.00000000E+00  0.00000000E+00
  0.00000000E+00  0.00000000E+00  0.00000000E+00
  0.00000000E+00  0.00000000E+00  0.00000000E+00
  0.00000000E+00  0.00000000E+00  0.00000000E+00
  0.00000000E+00  0.00000000E+00  0.00000000E+00
  0.00000000E+00  0.00000000E+00  0.00000000E+00
  0.00000000E+00  0.00000000E+00  0.00000000E+00
  0.00000000E+00  0.00000000E+00  0.00000000E+00
  0.00000000E+00  0.00000000E+00  0.00000000E+00
  0.00000000E+00  0.00000000E+00  0.00000000E+00
  0.00000000E+00  0.00000000E+00  0.00000000E+00
  0.00000000E+00  0.00000000E+00  0.00000000E+00
  0.00000000E+00  0.00000000E+00  0.00000000E+00
  0.00000000E+00  0.00000000E+00  0.00000000E+00
  0.00000000E+00  0.00000000E+00  0.00000000E+00
  0.00000000E+00  0.00000000E+00  0.00000000E+00
  0.00000000E+00  0.00000000E+00  0.00000000E+00
  0.00000000E+00  0.00000000E+00  0.00000000E+00
  0.00000000E+00  0.00000000E+00  0.00000000E+00
  0.00000000E+00  0.00000000E+00  0.00000000E+00
  0.00000000E+00  0.00000000E+00  0.00000000E+00
  0.00000000E+00  0.00000000E+00  0.00000000E+00
  0.00000000E+00  0.00000000E+00  0.00000000E+00
  0.00000000E+00  0.00000000E+00  0.00000000E+00
  0.00000000E+00  0.00000000E+00  0.00000000E+00
  0.00000000E+00  0.00000000E+00  0.00000000E+00
  0.00000000E+00  0.00000000E+00  0.00000000E+00
  0.00000000E+00  0.00000000E+00  0.00000000E+00
  0.00000000E+00  0.00000000E+00  0.00000000E+00
  0.00000000E+00  0.00000000E+00  0.00000000E+00
  0.00000000E+00  0.00000000E+00  0.00000000E+00
  0.00000000E+00  0.00000000E+00  0.00000000E+00
  0.00000000E+00  0.00000000E+00  0.00000000E+00
  0.00000000E+00  0.00000000E+00  0.00000000E+00
  0.00000000E+00  0.00000000E+00  0.00000000E+00
  0.00000000E+00  0.00000000E+00  0.00000000E+00
  0.00000000E+00  0.00000000E+00  0.00000000E+00
  0.00000000E+00  0.00000000E+00  0.00000000E+00
  0.00000000E+00  0.00000000E+00  0.00000000E+00
  0.00000000E+00  0.00000000E+00  0.00000000E+00
  0.00000000E+00  0.00000000E+00  0.00000000E+00
  0.00000000E+00  0.00000000E+00  0.00000000E+00
  0.00000000E+00  0.00000000E+00  0.00000000E+00
  0.00000000E+00  0.00000000E+00  0.00000000E+00
  0.00000000E+00  0.00000000E+00  0.00000000E+00
  0.00000000E+00  0.00000000E+00  0.00000000E+00
  0.00000000E+00  0.00000000E+00  0.00000000E+00
  0.00000000E+00  0.00000000E+00  0.00000000E+00
  0.00000000E+00  0.00000000E+00  0.00000000E+00
  0.00000000E+00  0.00000000E+00  0.00000000E+00
  0.00000000E+00  0.00000000E+00  0.00000000E+00
  0.00000000E+00  0.00000000E+00  0.00000000E+00
  0.00000000E+00  0.00000000E+00  0.00000000E+00
  0.00000000E+00  0.00000000E+00  0.00000000E+00
  0.00000000E+00  0.00000000E+00  0.00000000E+00
  0.00000000E+00  0.00000000E+00  0.00000000E+00
  0.00000000E+00  0.00000000E+00  0.00000000E+00
  0.00000000E+00  0.00000000E+00  0.00000000E+00
  0.00000000E+00  0.00000000E+00  0.00000000E+00
  0.00000000E+00  0.00000000E+00  0.00000000E+00
  0.00000000E+00  0.00000000E+00  0.00000000E+00
  0.00000000E+00  0.00000000E+00  0.00000000E+00
  0.00000000E+00  0.00000000E+00  0.00000000E+00
  0.00000000E+00  0.00000000E+00  0.00000000E+00
  0.00000000E+00  0.00000000E+00  0.00000000E+00
  0.00000000E+00  0.00000000E+00  0.00000000E+00
  0.00000000E+00  0.00000000E+00  0.00000000E+00
  0.00000000E+00  0.00000000E+00  0.00000000E+00
  0.00000000E+00  0.00000000E+00  0.00000000E+00
  0.00000000E+00  0.00000000E+00  0.00000000E+00
  0.00000000E+00  0.00000000E+00  0.00000000E+00
  0.00000000E+00  0.00000000E+00  0.00000000E+00
  0.00000000E+00  0.00000000E+00  0.00000000E+00
  0.00000000E+00  0.00000000E+00  0.00000000E+00
  0.00000000E+00  0.00000000E+00  0.00000000E+00
  0.00000000E+00  0.00000000E+00  0.00000000E+00
  0.00000000E+00  0.00000000E+00  0.00000000E+00
  0.00000000E+00  0.00000000E+00  0.00000000E+00
  0.00000000E+00  0.00000000E+00  0.00000000E+00
  0.00000000E+00  0.00000000E+00  0.00000000E+00
  0.00000000E+00  0.00000000E+00  0.00000000E+00
  0.00000000E+00  0.00000000E+00  0.00000000E+00
  0.00000000E+00  0.00000000E+00  0.00000000E+00
  0.00000000E+00  0.00000000E+00  0.00000000E+00
  0.00000000E+00  0.00000000E+00  0.00000000E+00
  0.00000000E+00  0.00000000E+00  0.00000000E+00
  0.00000000E+00  0.00000000E+00  0.00000000E+00
  0.00000000E+00  0.00000000E+00  0.00000000E+00
  0.00000000E+00  0.00000000E+00  0.00000000E+00
  0.00000000E+00  0.00000000E+00  0.00000000E+00
  0.00000000E+00  0.00000000E+00  0.00000000E+00
  0.00000000E+00  0.00000000E+00  0.00000000E+00
  0.00000000E+00  0.00000000E+00  0.00000000E+00
  0.00000000E+00  0.00000000E+00  0.00000000E+00
  0.00000000E+00  0.00000000E+00  0.00000000E+00
  0.00000000E+00  0.00000000E+00  0.00000000E+00
  0.00000000E+00  0.00000000E+00  0.00000000E+00
  0.00000000E+00  0.00000000E+00  0.00000000E+00
  0.00000000E+00  0.00000000E+00  0.00000000E+00
  0.00000000E+00  0.00000000E+00  0.00000000E+00
  0.00000000E+00  0.00000000E+00  0.00000000E+00
  0.00000000E+00  0.00000000E+00  0.00000000E+00
  0.00000000E+00  0.00000000E+00  0.00000000E+00
  0.00000000E+00  0.00000000E+00  0.00000000E+00
  0.00000000E+00  0.00000000E+00  0.00000000E+00
  0.00000000E+00  0.00000000E+00  0.00000000E+00
  0.00000000E+00  0.00000000E+00  0.00000000E+00
  0.00000000E+00  0.00000000E+00  0.00000000E+00
  0.00000000E+00  0.00000000E+00  0.00000000E+00
  0.00000000E+00  0.00000000E+00  0.00000000E+00
  0.00000000E+00  0.00000000E+00  0.00000000E+00
  0.00000000E+00  0.00000000E+00  0.00000000E+00
  0.00000000E+00  0.00000000E+00  0.00000000E+00
  0.00000000E+00  0.00000000E+00  0.00000000E+00
  0.00000000E+00  0.00000000E+00  0.00000000E+00
  0.00000000E+00  0.00000000E+00  0.00000000E+00
  0.00000000E+00  0.00000000E+00  0.00000000E+00
  0.00000000E+00  0.00000000E+00  0.00000000E+00
  0.00000000E+00  0.00000000E+00  0.00000000E+00
  0.00000000E+00  0.00000000E+00  0.00000000E+00
  0.00000000E+00  0.00000000E+00  0.00000000E+00
  0.00000000E+00  0.00000000E+00  0.00000000E+00
  0.00000000E+00  0.00000000E+00  0.00000000E+00
  0.00000000E+00  0.00000000E+00  0.00000000E+00
  0.00000000E+00  0.00000000E+00  0.00000000E+00
  0.00000000E+00  0.00000000E+00  0.00000000E+00
  0.00000000E+00  0.00000000E+00  0.00000000E+00
  0.00000000E+00  0.00000000E+00  0.00000000E+00
  0.00000000E+00  0.00000000E+00  0.00000000E+00
  0.00000000E+00  0.00000000E+00  0.00000000E+00
  0.00000000E+00  0.00000000E+00  0.00000000E+00
  0.00000000E+00  0.00000000E+00  0.00000000E+00
  0.00000000E+00  0.00000000E+00  0.00000000E+00
  0.00000000E+00  0.00000000E+00  0.00000000E+00
  0.00000000E+00  0.00000000E+00  0.00000000E+00
  0.00000000E+00  0.00000000E+00  0.00000000E+00
  0.00000000E+00  0.00000000E+00  0.00000000E+00
  0.00000000E+00  0.00000000E+00  0.00000000E+00
  0.00000000E+00  0.00000000E+00  0.00000000E+00
  0.00000000E+00  0.00000000E+00  0.00000000E+00
  0.00000000E+00  0.00000000E+00  0.00000000E+00
  0.00000000E+00  0.00000000E+00  0.00000000E+00
  0.00000000E+00  0.00000000E+00  0.00000000E+00
  0.00000000E+00  0.00000000E+00  0.00000000E+00
  0.00000000E+00  0.00000000E+00  0.00000000E+00
  0.00000000E+00  0.00000000E+00  0.00000000E+00
  0.00000000E+00  0.00000000E+00  0.00000000E+00
  0.00000000E+00  0.00000000E+00  0.00000000E+00
  0.00000000E+00  0.00000000E+00  0.00000000E+00
  0.00000000E+00  0.00000000E+00  0.00000000E+00
  0.00000000E+00  0.00000000E+00  0.00000000E+00
  0.00000000E+00  0.00000000E+00  0.00000000E+00
  0.00000000E+00  0.00000000E+00  0.00000000E+00
  0.00000000E+00  0.00000000E+00  0.00000000E+00
  0.00000000E+00  0.00000000E+00  0.00000000E+00
  0.00000000E+00  0.00000000E+00  0.00000000E+00
  0.00000000E+00  0.00000000E+00  0.00000000E+00
  0.00000000E+00  0.00000000E+00  0.00000000E+00
  0.00000000E+00  0.00000000E+00  0.00000000E+00
