supercell of POSCAR                     
   1.07329600000000     
     9.1016125577399993   -5.3128209557800004   -9.4184911254399992
     9.0821131104399999    5.2871675818400004    9.4140884809200003
    -1.5053809694200000   -7.9210976524300012    4.6939078171600004
   Al   Sc   N 
    71    24    96
Direct
  0.3017026631768687  0.2910073476201447  0.5452076059961684
  0.1428857187432016  0.2423520928216334  0.3059992446367090
  0.3059429216442453  0.4122274569366127  0.3103600188255484
  0.4666683695731706  0.3268228790523864  0.7897030976156785
  0.1390199703704127  0.4976205691647095  0.7918262567752237
  0.3003874292025586  0.1651630976749630  0.7837712299381110
  0.4708453759495370  0.4502041942348995  0.5393039919734051
  0.1416483413722531  0.1205237971857755  0.5400283109032031
  0.4765698470534261  0.0736619077006253  0.2944054977514625
  0.2773928236111587  0.1094382528587090  0.3347497758589313
  0.1153911462244608  0.0671414326714270  0.0921417823602368
  0.1140632710196812  0.1979566832582620  0.8245970241211396
  0.2733590993824322  0.3586391932755078  0.8226476517178156
  0.1137420437910563  0.3244453306331181  0.5901355665076053
  0.4466494692546306  0.2802581727488374  0.3366143070768786
  0.1137019058873818  0.4459313890937437  0.3405278737698723
  0.4470230849110877  0.4021206008476810  0.0937694442564663
  0.8034249403964324  0.2859284074202364  0.5385341205122742
  0.6424505714823852  0.2414452703253502  0.3028270215506481
  0.8078726815368711  0.4070568453640107  0.3022989051657561
  0.9670389475629690  0.3262628608687450  0.7909623672163519
  0.6361846898453223  0.4960131485037778  0.7866892825891725
  0.8003603516789397  0.1620127622552872  0.7811619396978742
  0.9701020540948733  0.4480212959507597  0.5369472194184794
  0.6419626864287906  0.1182380497988404  0.5382765289132081
  0.9768015064590827  0.0724582741667206  0.2934515378962246
  0.7778558686579231  0.1072153439008972  0.3320340779371520
  0.6155282221276366  0.0675275208115309  0.0913042360568141
  0.6136477264270539  0.1959012248908394  0.8222960702380249
  0.7743394495681883  0.3573877697224503  0.8192550560668508
  0.6110136981314582  0.3225291930925707  0.5863930062488407
  0.7712399166420738  0.4845685538625943  0.5782394464170224
  0.9482007761747937  0.2779151504617516  0.3343987027898550
  0.6110788928838815  0.4435837950511825  0.3351042545963452
  0.9464270698161101  0.4009616732784593  0.0946028968045383
  0.3020500107361599  0.7877028254049705  0.5402764543522949
  0.1428301067614441  0.7427752263459482  0.3045633623353865
  0.3085649392626522  0.9085337176323804  0.3024908498050038
  0.4662934998493142  0.8275375108160858  0.7902000601639898
  0.1399909536462829  0.9995780006711570  0.7871707482365053
  0.2968031656540902  0.6676357058732947  0.7891195609607280
  0.4704567491105820  0.9483490718691954  0.5348487945996538
  0.1404594683628915  0.6206024612982191  0.5418801468462107
  0.4753902190033585  0.5727074800213714  0.2960460919725207
  0.2750313836763993  0.6078535931249291  0.3348950763187020
  0.1124154381127980  0.5684387052949376  0.0980595805031328
  0.1194096522045953  0.6867297013394165  0.8114942260845908
  0.2759921493120459  0.8617879494010907  0.8197525317328740
  0.1097935787798789  0.8260865709374485  0.5853101557952556
  0.2726807271474883  0.9869548283072902  0.5782733429292222
  0.4477748767912573  0.7778840474616686  0.3351088576407406
  0.1127413613350257  0.9439893439386040  0.3321391638580451
  0.4491093426437729  0.9029598161422001  0.0941060911786309
  0.8029038249970100  0.7856616017055771  0.5367474748121737
  0.6426102519370005  0.7411610306500336  0.3021644474721015
  0.8088987469507032  0.9064374877038688  0.2995523068792565
  0.9681397833969285  0.8243637154527264  0.7873531013834452
  0.6403429482256158  0.9962410505049561  0.7860439613140642
  0.7980275461741684  0.6620339728871869  0.7807558891690363
  0.9705087446605987  0.9481749236882706  0.5323257365305167
  0.6391144921172582  0.6184797330271010  0.5384334188423594
  0.9756121354028338  0.5724184131788661  0.2957886232260947
  0.7763576421172758  0.6071530252310424  0.3331312270976525
  0.6133311543541922  0.5676523924097694  0.0918529149150373
  0.6110943873393566  0.6945710029337704  0.8205522152322615
  0.7759500355294406  0.8567378666341412  0.8175208487916024
  0.6111041816502194  0.8229416463547565  0.5855630318459646
  0.7728072602363341  0.9842993846966834  0.5761431073118999
  0.9483146383248950  0.7768047575956203  0.3310570440485421
  0.6119507267977511  0.9434854062073796  0.3342317428530492
  0.9498250106285155  0.8996326511307871  0.0916359120947448
  0.4815628334174207  0.1974620340318651  0.0393416600235099
  0.1408242803973252  0.3665131029533555  0.0435856353087587
  0.3103308418049622  0.0255655156026080  0.0384981357966225
  0.2845776946531302  0.2319276460729895  0.0856325594403629
  0.4477595566951820  0.0239107488422405  0.8218995760037089
  0.4446278014520857  0.1536696231585211  0.5729330380193858
  0.9825299681201898  0.1954033335326741  0.0373343641228345
  0.6406131611869270  0.3642552598466793  0.0355869669867843
  0.8111646282771758  0.0228936240018527  0.0355526017618999
  0.7843833485123639  0.2295499756914197  0.0799963339933214
  0.9482686019777873  0.0201319849570183  0.8189343264357518
  0.9440253600555124  0.1522988117875670  0.5722648927212077
  0.4813938056081781  0.6970860746579604  0.0395784659103668
  0.1435784251831294  0.8599205821142277  0.0274676517841073
  0.3068057869280665  0.5272704444954499  0.0463867520976180
  0.2861104852471072  0.7329096258820869  0.0839224434724173
  0.4400284674715778  0.5240234116427871  0.8246723290850753
  0.4410005461832540  0.6532997841002697  0.5756842873903736
  0.9847136033978146  0.6929278808824506  0.0315758181960817
  0.6420512735054587  0.8629766414779354  0.0336327642693135
  0.8084059103291992  0.5234185981289201  0.0373826744498089
  0.7858039882018701  0.7282115150947703  0.0781512964422504
  0.9446954411057931  0.5199272760244753  0.8224988019145485
  0.9431509956987156  0.6520867272581157  0.5723169994882937
  0.2347485279233439  0.3557124933289018  0.6424848466445567
  0.0745255785285792  0.3235039381018936  0.3970754077245857
  0.2350022687834681  0.4914585780347238  0.3672455187446175
  0.4227093817093746  0.2873894861005510  0.1506238080912752
  0.0687281873622325  0.4516975465952484  0.1474517346690831
  0.2386134397321058  0.1044606892305211  0.1486563588465870
  0.4016341389730798  0.3970876578962077  0.9023020679137161
  0.0841874324674592  0.0821707453087583  0.8987461067198552
  0.2367198828921744  0.2420900074216377  0.8810283546193460
  0.3993050145527519  0.0225308379915390  0.6187233041723701
  0.0807718346611139  0.2002447828857825  0.6368863333926313
  0.4060163885545904  0.1561658313247207  0.3655895918916841
  0.2176001167754933  0.1900893881781514  0.4338149005153440
  0.0573420122405821  0.1447106456914042  0.1972823417118619
  0.2172543244901490  0.3139691277260823  0.2015785812925941
  0.3730875952572177  0.1146510928715756  0.9153820066915515
  0.0451829486855644  0.2749490560059726  0.9060383851536002
  0.2096978987237961  0.4403437630298441  0.9108937926234120
  0.3750849600327015  0.2392160230294991  0.6801556119294787
  0.0396646292042107  0.4060173387048351  0.6857320491884593
  0.2121550668913201  0.0693654671802548  0.6746315604273221
  0.3821259668440291  0.3556240563260218  0.4347797994902720
  0.0485802463733194  0.0255760698979230  0.4341405360812587
  0.3886207951772249  0.4763983629013708  0.1988630362486461
  0.7388674588913489  0.3656732783410988  0.6299616068861198
  0.5763389979148812  0.3229556260763857  0.3942317740343313
  0.7395289761700070  0.4876471496389954  0.3883744442369093
  0.9206989236170102  0.2854823815636109  0.1484566705810195
  0.5730434061396821  0.4508088701039838  0.1440209743127454
  0.7392435380602294  0.1031593604172443  0.1459862449880447
  0.8993279067284448  0.3974825852062693  0.9021991075248792
  0.5865494474659627  0.0805997864538739  0.8968025209039752
  0.7366985950083134  0.2420543212013655  0.8735078840499568
  0.8982814015898768  0.0213597646080288  0.6166860307524615
  0.5848534047650418  0.2012535087178549  0.6341074540963447
  0.9052244348502754  0.1548166522538210  0.3645890558177314
  0.7176887429584227  0.1890768417660311  0.4317355559624616
  0.5579188052276223  0.1445755908701827  0.1962320787855418
  0.7174273310423516  0.3142397937860721  0.1975846546681552
  0.8726866224831795  0.1129548342599733  0.9129276333459231
  0.5451645873278821  0.2725267247990573  0.9031682294392027
  0.7093372843927526  0.4380376335659406  0.9022559229860931
  0.8730256091196154  0.2400815589390888  0.6794823579544627
  0.5435537724546506  0.4014176201950761  0.6810411291501879
  0.7121602623120893  0.0667036001124899  0.6726989194908697
  0.8814391860936510  0.3536870310876736  0.4317019287108508
  0.5485531469013054  0.0250815265764786  0.4346199764730514
  0.8859818942617466  0.4759275924683024  0.1982300174761207
  0.2379835134322263  0.8693639379624400  0.6306139645210749
  0.0753313990546971  0.8263563900382280  0.3933888458689765
  0.2406260576825545  0.9897647812708072  0.3888472011131370
  0.4239563862199205  0.7895014739514821  0.1507493138647220
  0.0744832653709864  0.9496127684004776  0.1407399275126764
  0.2352625162999757  0.6104489994048166  0.1479989517150315
  0.4031710226498149  0.9023554247963759  0.9021138810124754
  0.0766079419069641  0.5810701696199061  0.9089560470427784
  0.2357776127375431  0.7529824493956525  0.8855149040623118
  0.4160478353542203  0.5301825621307472  0.6293976247773756
  0.0784001085107491  0.7082985401229394  0.6285779742947213
  0.4048001825745828  0.6564700282814044  0.3647066318871381
  0.2167795021409589  0.6921927302506390  0.4355347793935849
  0.0555402042642683  0.6470829161191887  0.2022792416561998
  0.2173196430564985  0.8173955248933567  0.2006790495469772
  0.3676183452893724  0.6190590771847297  0.9235161170356605
  0.0457287520590199  0.7703283214346186  0.8968012528271743
  0.2112031484254544  0.9427551949863471  0.9024249580360646
  0.3701924757886204  0.7440219930373502  0.6843480661260699
  0.0407804276979675  0.9084367300908411  0.6826757569547510
  0.1910087566477898  0.5926525570045555  0.7068210631056147
  0.3819287914208402  0.8548027868253669  0.4325953692597082
  0.0460744046179329  0.5262649684343401  0.4387761726136290
  0.3886938572244034  0.9770963202943719  0.1983839328849655
  0.7389557240178988  0.8666196743620418  0.6288591862352177
  0.5765016648632795  0.8245333266763595  0.3940377788335780
  0.7402528574125071  0.9877852808962615  0.3864506632067588
  0.9225278243560950  0.7847913887195332  0.1451954472468202
  0.5743768486853327  0.9511937057994828  0.1433821911345490
  0.7371741899759527  0.6036659474851547  0.1474944716555910
  0.9019327564732436  0.8982411458797444  0.8994959230719459
  0.5832074570306176  0.5808421261116408  0.8989951172598580
  0.7347974209219714  0.7428823837089027  0.8735031109386497
  0.8969680006207170  0.5213835076766387  0.6195209906464214
  0.5836218697068958  0.7040867011317857  0.6332943501878034
  0.9035961979031129  0.6554396173656940  0.3654870784979920
  0.7165372096897471  0.6894327041601187  0.4323445241333701
  0.5568170437697475  0.6453722242857509  0.1978814371266537
  0.7181492993901983  0.8139378758489784  0.1964890118905132
  0.8688614766700056  0.6140861354004912  0.9151309465352995
  0.5437984018116993  0.7735260539218984  0.9023665607149809
  0.7112892375535793  0.9378783482493844  0.9015950563104198
  0.8712291513061885  0.7403845233021542  0.6786992412317190
  0.5419001810916058  0.9056346871106484  0.6816143291316905
  0.7095047393904395  0.5668899818370576  0.6737335234352173
  0.8818858779720955  0.8534940425942708  0.4297148118487684
  0.5494581186778262  0.5243602367702778  0.4329213265760430
  0.8889978405330368  0.9749772566577235  0.1960570707736196
 
  0.00000000E+00  0.00000000E+00  0.00000000E+00
  0.00000000E+00  0.00000000E+00  0.00000000E+00
  0.00000000E+00  0.00000000E+00  0.00000000E+00
  0.00000000E+00  0.00000000E+00  0.00000000E+00
  0.00000000E+00  0.00000000E+00  0.00000000E+00
  0.00000000E+00  0.00000000E+00  0.00000000E+00
  0.00000000E+00  0.00000000E+00  0.00000000E+00
  0.00000000E+00  0.00000000E+00  0.00000000E+00
  0.00000000E+00  0.00000000E+00  0.00000000E+00
  0.00000000E+00  0.00000000E+00  0.00000000E+00
  0.00000000E+00  0.00000000E+00  0.00000000E+00
  0.00000000E+00  0.00000000E+00  0.00000000E+00
  0.00000000E+00  0.00000000E+00  0.00000000E+00
  0.00000000E+00  0.00000000E+00  0.00000000E+00
  0.00000000E+00  0.00000000E+00  0.00000000E+00
  0.00000000E+00  0.00000000E+00  0.00000000E+00
  0.00000000E+00  0.00000000E+00  0.00000000E+00
  0.00000000E+00  0.00000000E+00  0.00000000E+00
  0.00000000E+00  0.00000000E+00  0.00000000E+00
  0.00000000E+00  0.00000000E+00  0.00000000E+00
  0.00000000E+00  0.00000000E+00  0.00000000E+00
  0.00000000E+00  0.00000000E+00  0.00000000E+00
  0.00000000E+00  0.00000000E+00  0.00000000E+00
  0.00000000E+00  0.00000000E+00  0.00000000E+00
  0.00000000E+00  0.00000000E+00  0.00000000E+00
  0.00000000E+00  0.00000000E+00  0.00000000E+00
  0.00000000E+00  0.00000000E+00  0.00000000E+00
  0.00000000E+00  0.00000000E+00  0.00000000E+00
  0.00000000E+00  0.00000000E+00  0.00000000E+00
  0.00000000E+00  0.00000000E+00  0.00000000E+00
  0.00000000E+00  0.00000000E+00  0.00000000E+00
  0.00000000E+00  0.00000000E+00  0.00000000E+00
  0.00000000E+00  0.00000000E+00  0.00000000E+00
  0.00000000E+00  0.00000000E+00  0.00000000E+00
  0.00000000E+00  0.00000000E+00  0.00000000E+00
  0.00000000E+00  0.00000000E+00  0.00000000E+00
  0.00000000E+00  0.00000000E+00  0.00000000E+00
  0.00000000E+00  0.00000000E+00  0.00000000E+00
  0.00000000E+00  0.00000000E+00  0.00000000E+00
  0.00000000E+00  0.00000000E+00  0.00000000E+00
  0.00000000E+00  0.00000000E+00  0.00000000E+00
  0.00000000E+00  0.00000000E+00  0.00000000E+00
  0.00000000E+00  0.00000000E+00  0.00000000E+00
  0.00000000E+00  0.00000000E+00  0.00000000E+00
  0.00000000E+00  0.00000000E+00  0.00000000E+00
  0.00000000E+00  0.00000000E+00  0.00000000E+00
  0.00000000E+00  0.00000000E+00  0.00000000E+00
  0.00000000E+00  0.00000000E+00  0.00000000E+00
  0.00000000E+00  0.00000000E+00  0.00000000E+00
  0.00000000E+00  0.00000000E+00  0.00000000E+00
  0.00000000E+00  0.00000000E+00  0.00000000E+00
  0.00000000E+00  0.00000000E+00  0.00000000E+00
  0.00000000E+00  0.00000000E+00  0.00000000E+00
  0.00000000E+00  0.00000000E+00  0.00000000E+00
  0.00000000E+00  0.00000000E+00  0.00000000E+00
  0.00000000E+00  0.00000000E+00  0.00000000E+00
  0.00000000E+00  0.00000000E+00  0.00000000E+00
  0.00000000E+00  0.00000000E+00  0.00000000E+00
  0.00000000E+00  0.00000000E+00  0.00000000E+00
  0.00000000E+00  0.00000000E+00  0.00000000E+00
  0.00000000E+00  0.00000000E+00  0.00000000E+00
  0.00000000E+00  0.00000000E+00  0.00000000E+00
  0.00000000E+00  0.00000000E+00  0.00000000E+00
  0.00000000E+00  0.00000000E+00  0.00000000E+00
  0.00000000E+00  0.00000000E+00  0.00000000E+00
  0.00000000E+00  0.00000000E+00  0.00000000E+00
  0.00000000E+00  0.00000000E+00  0.00000000E+00
  0.00000000E+00  0.00000000E+00  0.00000000E+00
  0.00000000E+00  0.00000000E+00  0.00000000E+00
  0.00000000E+00  0.00000000E+00  0.00000000E+00
  0.00000000E+00  0.00000000E+00  0.00000000E+00
  0.00000000E+00  0.00000000E+00  0.00000000E+00
  0.00000000E+00  0.00000000E+00  0.00000000E+00
  0.00000000E+00  0.00000000E+00  0.00000000E+00
  0.00000000E+00  0.00000000E+00  0.00000000E+00
  0.00000000E+00  0.00000000E+00  0.00000000E+00
  0.00000000E+00  0.00000000E+00  0.00000000E+00
  0.00000000E+00  0.00000000E+00  0.00000000E+00
  0.00000000E+00  0.00000000E+00  0.00000000E+00
  0.00000000E+00  0.00000000E+00  0.00000000E+00
  0.00000000E+00  0.00000000E+00  0.00000000E+00
  0.00000000E+00  0.00000000E+00  0.00000000E+00
  0.00000000E+00  0.00000000E+00  0.00000000E+00
  0.00000000E+00  0.00000000E+00  0.00000000E+00
  0.00000000E+00  0.00000000E+00  0.00000000E+00
  0.00000000E+00  0.00000000E+00  0.00000000E+00
  0.00000000E+00  0.00000000E+00  0.00000000E+00
  0.00000000E+00  0.00000000E+00  0.00000000E+00
  0.00000000E+00  0.00000000E+00  0.00000000E+00
  0.00000000E+00  0.00000000E+00  0.00000000E+00
  0.00000000E+00  0.00000000E+00  0.00000000E+00
  0.00000000E+00  0.00000000E+00  0.00000000E+00
  0.00000000E+00  0.00000000E+00  0.00000000E+00
  0.00000000E+00  0.00000000E+00  0.00000000E+00
  0.00000000E+00  0.00000000E+00  0.00000000E+00
  0.00000000E+00  0.00000000E+00  0.00000000E+00
  0.00000000E+00  0.00000000E+00  0.00000000E+00
  0.00000000E+00  0.00000000E+00  0.00000000E+00
  0.00000000E+00  0.00000000E+00  0.00000000E+00
  0.00000000E+00  0.00000000E+00  0.00000000E+00
  0.00000000E+00  0.00000000E+00  0.00000000E+00
  0.00000000E+00  0.00000000E+00  0.00000000E+00
  0.00000000E+00  0.00000000E+00  0.00000000E+00
  0.00000000E+00  0.00000000E+00  0.00000000E+00
  0.00000000E+00  0.00000000E+00  0.00000000E+00
  0.00000000E+00  0.00000000E+00  0.00000000E+00
  0.00000000E+00  0.00000000E+00  0.00000000E+00
  0.00000000E+00  0.00000000E+00  0.00000000E+00
  0.00000000E+00  0.00000000E+00  0.00000000E+00
  0.00000000E+00  0.00000000E+00  0.00000000E+00
  0.00000000E+00  0.00000000E+00  0.00000000E+00
  0.00000000E+00  0.00000000E+00  0.00000000E+00
  0.00000000E+00  0.00000000E+00  0.00000000E+00
  0.00000000E+00  0.00000000E+00  0.00000000E+00
  0.00000000E+00  0.00000000E+00  0.00000000E+00
  0.00000000E+00  0.00000000E+00  0.00000000E+00
  0.00000000E+00  0.00000000E+00  0.00000000E+00
  0.00000000E+00  0.00000000E+00  0.00000000E+00
  0.00000000E+00  0.00000000E+00  0.00000000E+00
  0.00000000E+00  0.00000000E+00  0.00000000E+00
  0.00000000E+00  0.00000000E+00  0.00000000E+00
  0.00000000E+00  0.00000000E+00  0.00000000E+00
  0.00000000E+00  0.00000000E+00  0.00000000E+00
  0.00000000E+00  0.00000000E+00  0.00000000E+00
  0.00000000E+00  0.00000000E+00  0.00000000E+00
  0.00000000E+00  0.00000000E+00  0.00000000E+00
  0.00000000E+00  0.00000000E+00  0.00000000E+00
  0.00000000E+00  0.00000000E+00  0.00000000E+00
  0.00000000E+00  0.00000000E+00  0.00000000E+00
  0.00000000E+00  0.00000000E+00  0.00000000E+00
  0.00000000E+00  0.00000000E+00  0.00000000E+00
  0.00000000E+00  0.00000000E+00  0.00000000E+00
  0.00000000E+00  0.00000000E+00  0.00000000E+00
  0.00000000E+00  0.00000000E+00  0.00000000E+00
  0.00000000E+00  0.00000000E+00  0.00000000E+00
  0.00000000E+00  0.00000000E+00  0.00000000E+00
  0.00000000E+00  0.00000000E+00  0.00000000E+00
  0.00000000E+00  0.00000000E+00  0.00000000E+00
  0.00000000E+00  0.00000000E+00  0.00000000E+00
  0.00000000E+00  0.00000000E+00  0.00000000E+00
  0.00000000E+00  0.00000000E+00  0.00000000E+00
  0.00000000E+00  0.00000000E+00  0.00000000E+00
  0.00000000E+00  0.00000000E+00  0.00000000E+00
  0.00000000E+00  0.00000000E+00  0.00000000E+00
  0.00000000E+00  0.00000000E+00  0.00000000E+00
  0.00000000E+00  0.00000000E+00  0.00000000E+00
  0.00000000E+00  0.00000000E+00  0.00000000E+00
  0.00000000E+00  0.00000000E+00  0.00000000E+00
  0.00000000E+00  0.00000000E+00  0.00000000E+00
  0.00000000E+00  0.00000000E+00  0.00000000E+00
  0.00000000E+00  0.00000000E+00  0.00000000E+00
  0.00000000E+00  0.00000000E+00  0.00000000E+00
  0.00000000E+00  0.00000000E+00  0.00000000E+00
  0.00000000E+00  0.00000000E+00  0.00000000E+00
  0.00000000E+00  0.00000000E+00  0.00000000E+00
  0.00000000E+00  0.00000000E+00  0.00000000E+00
  0.00000000E+00  0.00000000E+00  0.00000000E+00
  0.00000000E+00  0.00000000E+00  0.00000000E+00
  0.00000000E+00  0.00000000E+00  0.00000000E+00
  0.00000000E+00  0.00000000E+00  0.00000000E+00
  0.00000000E+00  0.00000000E+00  0.00000000E+00
  0.00000000E+00  0.00000000E+00  0.00000000E+00
  0.00000000E+00  0.00000000E+00  0.00000000E+00
  0.00000000E+00  0.00000000E+00  0.00000000E+00
  0.00000000E+00  0.00000000E+00  0.00000000E+00
  0.00000000E+00  0.00000000E+00  0.00000000E+00
  0.00000000E+00  0.00000000E+00  0.00000000E+00
  0.00000000E+00  0.00000000E+00  0.00000000E+00
  0.00000000E+00  0.00000000E+00  0.00000000E+00
  0.00000000E+00  0.00000000E+00  0.00000000E+00
  0.00000000E+00  0.00000000E+00  0.00000000E+00
  0.00000000E+00  0.00000000E+00  0.00000000E+00
  0.00000000E+00  0.00000000E+00  0.00000000E+00
  0.00000000E+00  0.00000000E+00  0.00000000E+00
  0.00000000E+00  0.00000000E+00  0.00000000E+00
  0.00000000E+00  0.00000000E+00  0.00000000E+00
  0.00000000E+00  0.00000000E+00  0.00000000E+00
  0.00000000E+00  0.00000000E+00  0.00000000E+00
  0.00000000E+00  0.00000000E+00  0.00000000E+00
  0.00000000E+00  0.00000000E+00  0.00000000E+00
  0.00000000E+00  0.00000000E+00  0.00000000E+00
  0.00000000E+00  0.00000000E+00  0.00000000E+00
  0.00000000E+00  0.00000000E+00  0.00000000E+00
  0.00000000E+00  0.00000000E+00  0.00000000E+00
  0.00000000E+00  0.00000000E+00  0.00000000E+00
  0.00000000E+00  0.00000000E+00  0.00000000E+00
  0.00000000E+00  0.00000000E+00  0.00000000E+00
  0.00000000E+00  0.00000000E+00  0.00000000E+00
  0.00000000E+00  0.00000000E+00  0.00000000E+00
  0.00000000E+00  0.00000000E+00  0.00000000E+00
  0.00000000E+00  0.00000000E+00  0.00000000E+00
