supercell of POSCAR                     
   1.07329600000000     
     9.1016125577399993   -5.3128209557800004   -9.4184911254399992
     9.0821131104399999    5.2871675818400004    9.4140884809200003
    -1.5053809694200000   -7.9210976524300012    4.6939078171600004
   Al   Sc   N 
    72    23    96
Direct
  0.3037080192814443  0.2859747876549363  0.5367362057116125
  0.1446177929710899  0.2412034553861062  0.3004572506711227
  0.3088341929233067  0.4056347177880539  0.2991375706311672
  0.4653600621981866  0.3270608330085025  0.7898942724437390
  0.1400078037010104  0.4981282754715792  0.7860520287969379
  0.2963267347689467  0.1661370472595678  0.7834362263847652
  0.4702481446548603  0.4487056438676191  0.5342801349761501
  0.1412539736652292  0.1190560077174965  0.5377923382733485
  0.4754318643386881  0.0736292530823093  0.3008179775547859
  0.2787686465524715  0.1057973380453987  0.3330247204551284
  0.1169985211769742  0.0677587639921597  0.0937320787414322
  0.1111200435402111  0.1970679230218124  0.8210586715111390
  0.2751851666264571  0.3600624906590184  0.8173342585433119
  0.1113251390455403  0.3235488679595662  0.5841560374829555
  0.2730710634010833  0.4859567358904116  0.5759920324317847
  0.4486089706490688  0.2761096171022928  0.3334445907171641
  0.1127120368730559  0.4431934542546188  0.3327094458340980
  0.4483876061659871  0.3993904317892998  0.0947594084147312
  0.8027402117157720  0.2863394131535131  0.5388074835839589
  0.6411698083189563  0.2407185774159117  0.3037583167604438
  0.8082979989936732  0.4065171526074707  0.3001833207747282
  0.9662731033659497  0.3270311628338405  0.7885770260168883
  0.6395144550071308  0.4976155054214857  0.7872372332898010
  0.7984191239623328  0.1631875166171994  0.7825638720694741
  0.9705939481591557  0.4479236438496130  0.5335201858433649
  0.6406871175072695  0.1191998871590272  0.5417923506178113
  0.9761296122677479  0.0724818532665168  0.2937762596414686
  0.7770958346560377  0.1075248394764898  0.3367894747438527
  0.6138665480752152  0.0682476407271722  0.0949474048436585
  0.6138716817836638  0.1956648064750652  0.8243965548952872
  0.7753286898882621  0.3595608723285224  0.8195422511670785
  0.6107720942733721  0.3229332087945664  0.5877426545234101
  0.7726508883334660  0.4851104027432740  0.5770158097236262
  0.9474247274156085  0.2773511146838956  0.3328839102630141
  0.6117151348100265  0.4432039199562610  0.3352681569422060
  0.9491104609328431  0.4005360111440908  0.0922060341178650
  0.3029121148857712  0.7884863148884094  0.5403978940411633
  0.1432922361597022  0.7422191415796391  0.3026538248789876
  0.3093487735148841  0.9099347161972346  0.3057556646391362
  0.4641087712937590  0.8380546417988626  0.7976841509971209
  0.1390771420270056  0.9983743793088635  0.7873828766058963
  0.2997549822489205  0.6651908453693025  0.7826098342007555
  0.4677299272354318  0.9515999223406908  0.5481378304669704
  0.1418112962338753  0.6194711598673166  0.5383473815048134
  0.4764562754194586  0.5731201830740744  0.2955171846220708
  0.2783327012858408  0.6086914914641213  0.3332364656922948
  0.1159897549965123  0.5672546236604603  0.0913279751574692
  0.1127677512692173  0.6973616823867204  0.8226923794464867
  0.2772695165256991  0.8596957485318271  0.8203437098336863
  0.1108530521465809  0.8239579701069673  0.5870198951439605
  0.2743315083842504  0.9867926253685226  0.5832056539527883
  0.4479481938483545  0.7792995950658650  0.3385373481909042
  0.1115553938045437  0.9439361187090043  0.3362842452027550
  0.4474042935217284  0.9024523469952541  0.0965461342419829
  0.8026322530296994  0.7864261010360281  0.5393864504558934
  0.6420390275207311  0.7423357740512060  0.3044419664147213
  0.8071537410993699  0.9078137132646660  0.3030402309368725
  0.9662728606731790  0.8267354302156917  0.7897723516020747
  0.6313472694899573  0.0009702673597545  0.7949321001840346
  0.7995091199547346  0.6632048261671954  0.7817111483337982
  0.9691289189266783  0.9480852428727573  0.5355853427204877
  0.6412501551459471  0.6190644889702455  0.5393958107432226
  0.9767178502520579  0.5725513984796180  0.2933619162188066
  0.7771951944933164  0.6077227013479884  0.3330958462576774
  0.6144623306328256  0.5683947979160209  0.0928026207809083
  0.6124012961700771  0.6987239601159700  0.8236662171026410
  0.7732356146579065  0.8593343748816125  0.8208982518577628
  0.6100711228875042  0.8250686842544042  0.5902594672885542
  0.7705440827788621  0.9853322101402924  0.5819683200055792
  0.9470968191006222  0.7779728708722828  0.3338629737553234
  0.6100276013026615  0.9447801092535357  0.3402702305322478
  0.9469316854573506  0.9014249517206281  0.0941056538329619
  0.4836728155598422  0.1861827645388487  0.0245086249190862
  0.1457121604276068  0.3603481699656044  0.0315719613164873
  0.3185101605271825  0.0196417940089972  0.0230379019005866
  0.2913542347297664  0.2212312718160874  0.0722163425593081
  0.4438451068702065  0.1494342331541390  0.5848459626727234
  0.9811303869760408  0.1959487069501478  0.0379956292286252
  0.6395036100886600  0.3633461884511533  0.0351920335470837
  0.8075141411437130  0.0243059780959030  0.0384265108385264
  0.7812521304808229  0.2277904910445230  0.0794057566664108
  0.9456660156786825  0.0219225348294145  0.8234550817124386
  0.9439374062942889  0.1520515679716610  0.5734544465294462
  0.4816572886593278  0.6985260411760805  0.0385554360377611
  0.1425148459355867  0.8670481509024555  0.0362932360820807
  0.3110548616273334  0.5254514475936318  0.0374622465316676
  0.2859562467799250  0.7338233487474923  0.0800499938366173
  0.4473879585086422  0.5230480343427502  0.8218099659554667
  0.4441813174614779  0.6566457227692979  0.5780458535546416
  0.9821451346736296  0.6967455983095832  0.0380035922506323
  0.6397774721685323  0.8659534178111983  0.0381843502398098
  0.8100093324422986  0.5240295912132353  0.0374099082205461
  0.7834413512852691  0.7303959915650253  0.0803553415634752
  0.9470344504279566  0.5226565999197135  0.8209668300439361
  0.9443982291940358  0.6526281682958341  0.5721195238157861
  0.2384780265218822  0.3680468450664094  0.6277659380537202
  0.0756676249479824  0.3239613575206377  0.3923092934594123
  0.2403767076983527  0.4886204088125439  0.3862478074727491
  0.4275039527281805  0.2853275605603756  0.1486179012873592
  0.0746616113071639  0.4495072327487435  0.1414969828009660
  0.2396090954960286  0.0978619093109359  0.1475798218005693
  0.4012928159273415  0.4013226903589739  0.9016651236898667
  0.0830576546924462  0.0822639805455978  0.8978215877459945
  0.2307915871035604  0.2491020364942287  0.8738439119920614
  0.3956356400843504  0.0234963387697178  0.6191589308634349
  0.0825223511272597  0.2034094786088545  0.6324572083478373
  0.4056727262128703  0.1566765735057274  0.3737029417555533
  0.2169349654419648  0.1896606636945535  0.4319658565039717
  0.0569639404281759  0.1450176203860707  0.1969057240641874
  0.2196925033093535  0.3129283925831743  0.1962052910442011
  0.3558086536641767  0.1342150132885678  0.9360998251378021
  0.0420016741344824  0.2737780273695378  0.9027521995950565
  0.2112075216023257  0.4417393005852261  0.9023729123168280
  0.3704854132413260  0.2430981320013643  0.6814619793470627
  0.0415512877950022  0.4058990854716953  0.6811535509311923
  0.2090159798860043  0.0694193827922760  0.6749821102612188
  0.3824566731840804  0.3547475698228197  0.4309759823471850
  0.0464679691342056  0.0252138780951867  0.4359553344623208
  0.3884960126110428  0.4764544899567795  0.1974879660698221
  0.7392579364720220  0.3678093691739051  0.6305726750881178
  0.5768812259458045  0.3247301385668848  0.3966458654722018
  0.7405182809016679  0.4883524370188468  0.3874108199387294
  0.9191739180974139  0.2861166540767215  0.1476579878697706
  0.5733834991379538  0.4522894222495637  0.1446859369788811
  0.7387790438238540  0.1034403500697252  0.1530467743050821
  0.9020222311456934  0.4008518070662461  0.9003086385005119
  0.5920270285490545  0.0896157234630692  0.9107435775174650
  0.7379868428458636  0.2462303130372163  0.8742489970088414
  0.8976378742890390  0.0217148098438997  0.6205920258581230
  0.5856591720808026  0.2040662828376014  0.6367592449931081
  0.9057341288102450  0.1554707241047453  0.3670082669780044
  0.7174551482596456  0.1901006951599697  0.4345818858901893
  0.5560811876242653  0.1446026544050341  0.2020608229980425
  0.7166702783573911  0.3146515109451187  0.1982308660950949
  0.8705896368278516  0.1142947308272682  0.9160330360137934
  0.5443239497462358  0.2751500623090877  0.9000076736590756
  0.7101883131276594  0.4396121310394676  0.9038440448036908
  0.8729297619349552  0.2406565338738247  0.6791217441207351
  0.5411290527593806  0.4069156743211906  0.6826312962679921
  0.7102356304796729  0.0678084298121817  0.6774331154475277
  0.8817769015979877  0.3539633845896830  0.4311062880839955
  0.5482079161617648  0.0254721036733940  0.4410798123502033
  0.8887303384968348  0.4756832121221990  0.1968282894400701
  0.2367245948793482  0.8667391260773130  0.6309214295151762
  0.0745929767238067  0.8232871492240221  0.3944760873709825
  0.2376299679619507  0.9878606478911536  0.3912215807434194
  0.4226455255152572  0.7867002979684443  0.1540236403673489
  0.0708999923402445  0.9511470648616367  0.1451980524225363
  0.2394215098950241  0.6065636396366330  0.1470537045954998
  0.3957563623911113  0.8970182243095977  0.9139459484576875
  0.0842637288382875  0.5817076527738365  0.8968489754779725
  0.2344020583763182  0.7431201057875541  0.8739296475172580
  0.3991671301992525  0.5237581883262337  0.6187299289936021
  0.0829704561192059  0.7024548361588430  0.6341016803078858
  0.4062195360640288  0.6555952611012259  0.3695635360483536
  0.2173798759141903  0.6903214720334248  0.4326968325715939
  0.0575370702746980  0.6446732319049815  0.1963829974170750
  0.2175375748660784  0.8163582887215028  0.1990815521271472
  0.3723845051106665  0.6155566628520646  0.9143610757682765
  0.0442257700767570  0.7745882525721797  0.9040188487922691
  0.2081707525479857  0.9386997968229309  0.9002248948919700
  0.3724686109924562  0.7441638789926159  0.6825955826611221
  0.0399764738630637  0.9054286886830383  0.6820996642927142
  0.2119440970182893  0.5685150971296906  0.6729435091310236
  0.3820616733137925  0.8545526443814779  0.4348094569262386
  0.0484417477299814  0.5252126456987796  0.4342531225790864
  0.3885209479269278  0.9776916274397465  0.2027745551350151
  0.7390376201818682  0.8661507715724994  0.6316685930804340
  0.5765678838173187  0.8234810502141841  0.3971430368457476
  0.7396970432017440  0.9881824336136447  0.3918211946463757
  0.9204544156404069  0.7863005089267148  0.1484837192153705
  0.5731884687149460  0.9512493101176460  0.1497004055704849
  0.7384779320410857  0.6043481579350214  0.1473709294910535
  0.9004502091449496  0.8988198219872956  0.9015019675094891
  0.5854311732186162  0.5826273029868076  0.8980756152822380
  0.7363423459124760  0.7433917440191635  0.8740356997390393
  0.8990339408810044  0.5220098284640358  0.6176849587159339
  0.5845385701671049  0.7023932996929432  0.6352783584592956
  0.9054244597615835  0.6551472348484566  0.3650387448935959
  0.7175184070630394  0.6895291676683684  0.4328052522815327
  0.5570286621430824  0.6457312019698875  0.1974863455908249
  0.7173888266689374  0.8147599958634189  0.1988125391726143
  0.8719114741358212  0.6145663991936203  0.9147259478057208
  0.5436519106989195  0.7759398274033487  0.9034837532634228
  0.7084335059632778  0.9392384439770893  0.9041594334636329
  0.8732695893316134  0.7399629463287170  0.6789440354722061
  0.5430580176790656  0.9040413329545913  0.6836111116221062
  0.7120896999699653  0.5675294696224782  0.6736708220390781
  0.8811526116399548  0.8538067376154004  0.4316908383040143
  0.5489177351344807  0.5252583235011841  0.4352514726607026
  0.8866264162596451  0.9759552871090804  0.1981129199568628
 
  0.00000000E+00  0.00000000E+00  0.00000000E+00
  0.00000000E+00  0.00000000E+00  0.00000000E+00
  0.00000000E+00  0.00000000E+00  0.00000000E+00
  0.00000000E+00  0.00000000E+00  0.00000000E+00
  0.00000000E+00  0.00000000E+00  0.00000000E+00
  0.00000000E+00  0.00000000E+00  0.00000000E+00
  0.00000000E+00  0.00000000E+00  0.00000000E+00
  0.00000000E+00  0.00000000E+00  0.00000000E+00
  0.00000000E+00  0.00000000E+00  0.00000000E+00
  0.00000000E+00  0.00000000E+00  0.00000000E+00
  0.00000000E+00  0.00000000E+00  0.00000000E+00
  0.00000000E+00  0.00000000E+00  0.00000000E+00
  0.00000000E+00  0.00000000E+00  0.00000000E+00
  0.00000000E+00  0.00000000E+00  0.00000000E+00
  0.00000000E+00  0.00000000E+00  0.00000000E+00
  0.00000000E+00  0.00000000E+00  0.00000000E+00
  0.00000000E+00  0.00000000E+00  0.00000000E+00
  0.00000000E+00  0.00000000E+00  0.00000000E+00
  0.00000000E+00  0.00000000E+00  0.00000000E+00
  0.00000000E+00  0.00000000E+00  0.00000000E+00
  0.00000000E+00  0.00000000E+00  0.00000000E+00
  0.00000000E+00  0.00000000E+00  0.00000000E+00
  0.00000000E+00  0.00000000E+00  0.00000000E+00
  0.00000000E+00  0.00000000E+00  0.00000000E+00
  0.00000000E+00  0.00000000E+00  0.00000000E+00
  0.00000000E+00  0.00000000E+00  0.00000000E+00
  0.00000000E+00  0.00000000E+00  0.00000000E+00
  0.00000000E+00  0.00000000E+00  0.00000000E+00
  0.00000000E+00  0.00000000E+00  0.00000000E+00
  0.00000000E+00  0.00000000E+00  0.00000000E+00
  0.00000000E+00  0.00000000E+00  0.00000000E+00
  0.00000000E+00  0.00000000E+00  0.00000000E+00
  0.00000000E+00  0.00000000E+00  0.00000000E+00
  0.00000000E+00  0.00000000E+00  0.00000000E+00
  0.00000000E+00  0.00000000E+00  0.00000000E+00
  0.00000000E+00  0.00000000E+00  0.00000000E+00
  0.00000000E+00  0.00000000E+00  0.00000000E+00
  0.00000000E+00  0.00000000E+00  0.00000000E+00
  0.00000000E+00  0.00000000E+00  0.00000000E+00
  0.00000000E+00  0.00000000E+00  0.00000000E+00
  0.00000000E+00  0.00000000E+00  0.00000000E+00
  0.00000000E+00  0.00000000E+00  0.00000000E+00
  0.00000000E+00  0.00000000E+00  0.00000000E+00
  0.00000000E+00  0.00000000E+00  0.00000000E+00
  0.00000000E+00  0.00000000E+00  0.00000000E+00
  0.00000000E+00  0.00000000E+00  0.00000000E+00
  0.00000000E+00  0.00000000E+00  0.00000000E+00
  0.00000000E+00  0.00000000E+00  0.00000000E+00
  0.00000000E+00  0.00000000E+00  0.00000000E+00
  0.00000000E+00  0.00000000E+00  0.00000000E+00
  0.00000000E+00  0.00000000E+00  0.00000000E+00
  0.00000000E+00  0.00000000E+00  0.00000000E+00
  0.00000000E+00  0.00000000E+00  0.00000000E+00
  0.00000000E+00  0.00000000E+00  0.00000000E+00
  0.00000000E+00  0.00000000E+00  0.00000000E+00
  0.00000000E+00  0.00000000E+00  0.00000000E+00
  0.00000000E+00  0.00000000E+00  0.00000000E+00
  0.00000000E+00  0.00000000E+00  0.00000000E+00
  0.00000000E+00  0.00000000E+00  0.00000000E+00
  0.00000000E+00  0.00000000E+00  0.00000000E+00
  0.00000000E+00  0.00000000E+00  0.00000000E+00
  0.00000000E+00  0.00000000E+00  0.00000000E+00
  0.00000000E+00  0.00000000E+00  0.00000000E+00
  0.00000000E+00  0.00000000E+00  0.00000000E+00
  0.00000000E+00  0.00000000E+00  0.00000000E+00
  0.00000000E+00  0.00000000E+00  0.00000000E+00
  0.00000000E+00  0.00000000E+00  0.00000000E+00
  0.00000000E+00  0.00000000E+00  0.00000000E+00
  0.00000000E+00  0.00000000E+00  0.00000000E+00
  0.00000000E+00  0.00000000E+00  0.00000000E+00
  0.00000000E+00  0.00000000E+00  0.00000000E+00
  0.00000000E+00  0.00000000E+00  0.00000000E+00
  0.00000000E+00  0.00000000E+00  0.00000000E+00
  0.00000000E+00  0.00000000E+00  0.00000000E+00
  0.00000000E+00  0.00000000E+00  0.00000000E+00
  0.00000000E+00  0.00000000E+00  0.00000000E+00
  0.00000000E+00  0.00000000E+00  0.00000000E+00
  0.00000000E+00  0.00000000E+00  0.00000000E+00
  0.00000000E+00  0.00000000E+00  0.00000000E+00
  0.00000000E+00  0.00000000E+00  0.00000000E+00
  0.00000000E+00  0.00000000E+00  0.00000000E+00
  0.00000000E+00  0.00000000E+00  0.00000000E+00
  0.00000000E+00  0.00000000E+00  0.00000000E+00
  0.00000000E+00  0.00000000E+00  0.00000000E+00
  0.00000000E+00  0.00000000E+00  0.00000000E+00
  0.00000000E+00  0.00000000E+00  0.00000000E+00
  0.00000000E+00  0.00000000E+00  0.00000000E+00
  0.00000000E+00  0.00000000E+00  0.00000000E+00
  0.00000000E+00  0.00000000E+00  0.00000000E+00
  0.00000000E+00  0.00000000E+00  0.00000000E+00
  0.00000000E+00  0.00000000E+00  0.00000000E+00
  0.00000000E+00  0.00000000E+00  0.00000000E+00
  0.00000000E+00  0.00000000E+00  0.00000000E+00
  0.00000000E+00  0.00000000E+00  0.00000000E+00
  0.00000000E+00  0.00000000E+00  0.00000000E+00
  0.00000000E+00  0.00000000E+00  0.00000000E+00
  0.00000000E+00  0.00000000E+00  0.00000000E+00
  0.00000000E+00  0.00000000E+00  0.00000000E+00
  0.00000000E+00  0.00000000E+00  0.00000000E+00
  0.00000000E+00  0.00000000E+00  0.00000000E+00
  0.00000000E+00  0.00000000E+00  0.00000000E+00
  0.00000000E+00  0.00000000E+00  0.00000000E+00
  0.00000000E+00  0.00000000E+00  0.00000000E+00
  0.00000000E+00  0.00000000E+00  0.00000000E+00
  0.00000000E+00  0.00000000E+00  0.00000000E+00
  0.00000000E+00  0.00000000E+00  0.00000000E+00
  0.00000000E+00  0.00000000E+00  0.00000000E+00
  0.00000000E+00  0.00000000E+00  0.00000000E+00
  0.00000000E+00  0.00000000E+00  0.00000000E+00
  0.00000000E+00  0.00000000E+00  0.00000000E+00
  0.00000000E+00  0.00000000E+00  0.00000000E+00
  0.00000000E+00  0.00000000E+00  0.00000000E+00
  0.00000000E+00  0.00000000E+00  0.00000000E+00
  0.00000000E+00  0.00000000E+00  0.00000000E+00
  0.00000000E+00  0.00000000E+00  0.00000000E+00
  0.00000000E+00  0.00000000E+00  0.00000000E+00
  0.00000000E+00  0.00000000E+00  0.00000000E+00
  0.00000000E+00  0.00000000E+00  0.00000000E+00
  0.00000000E+00  0.00000000E+00  0.00000000E+00
  0.00000000E+00  0.00000000E+00  0.00000000E+00
  0.00000000E+00  0.00000000E+00  0.00000000E+00
  0.00000000E+00  0.00000000E+00  0.00000000E+00
  0.00000000E+00  0.00000000E+00  0.00000000E+00
  0.00000000E+00  0.00000000E+00  0.00000000E+00
  0.00000000E+00  0.00000000E+00  0.00000000E+00
  0.00000000E+00  0.00000000E+00  0.00000000E+00
  0.00000000E+00  0.00000000E+00  0.00000000E+00
  0.00000000E+00  0.00000000E+00  0.00000000E+00
  0.00000000E+00  0.00000000E+00  0.00000000E+00
  0.00000000E+00  0.00000000E+00  0.00000000E+00
  0.00000000E+00  0.00000000E+00  0.00000000E+00
  0.00000000E+00  0.00000000E+00  0.00000000E+00
  0.00000000E+00  0.00000000E+00  0.00000000E+00
  0.00000000E+00  0.00000000E+00  0.00000000E+00
  0.00000000E+00  0.00000000E+00  0.00000000E+00
  0.00000000E+00  0.00000000E+00  0.00000000E+00
  0.00000000E+00  0.00000000E+00  0.00000000E+00
  0.00000000E+00  0.00000000E+00  0.00000000E+00
  0.00000000E+00  0.00000000E+00  0.00000000E+00
  0.00000000E+00  0.00000000E+00  0.00000000E+00
  0.00000000E+00  0.00000000E+00  0.00000000E+00
  0.00000000E+00  0.00000000E+00  0.00000000E+00
  0.00000000E+00  0.00000000E+00  0.00000000E+00
  0.00000000E+00  0.00000000E+00  0.00000000E+00
  0.00000000E+00  0.00000000E+00  0.00000000E+00
  0.00000000E+00  0.00000000E+00  0.00000000E+00
  0.00000000E+00  0.00000000E+00  0.00000000E+00
  0.00000000E+00  0.00000000E+00  0.00000000E+00
  0.00000000E+00  0.00000000E+00  0.00000000E+00
  0.00000000E+00  0.00000000E+00  0.00000000E+00
  0.00000000E+00  0.00000000E+00  0.00000000E+00
  0.00000000E+00  0.00000000E+00  0.00000000E+00
  0.00000000E+00  0.00000000E+00  0.00000000E+00
  0.00000000E+00  0.00000000E+00  0.00000000E+00
  0.00000000E+00  0.00000000E+00  0.00000000E+00
  0.00000000E+00  0.00000000E+00  0.00000000E+00
  0.00000000E+00  0.00000000E+00  0.00000000E+00
  0.00000000E+00  0.00000000E+00  0.00000000E+00
  0.00000000E+00  0.00000000E+00  0.00000000E+00
  0.00000000E+00  0.00000000E+00  0.00000000E+00
  0.00000000E+00  0.00000000E+00  0.00000000E+00
  0.00000000E+00  0.00000000E+00  0.00000000E+00
  0.00000000E+00  0.00000000E+00  0.00000000E+00
  0.00000000E+00  0.00000000E+00  0.00000000E+00
  0.00000000E+00  0.00000000E+00  0.00000000E+00
  0.00000000E+00  0.00000000E+00  0.00000000E+00
  0.00000000E+00  0.00000000E+00  0.00000000E+00
  0.00000000E+00  0.00000000E+00  0.00000000E+00
  0.00000000E+00  0.00000000E+00  0.00000000E+00
  0.00000000E+00  0.00000000E+00  0.00000000E+00
  0.00000000E+00  0.00000000E+00  0.00000000E+00
  0.00000000E+00  0.00000000E+00  0.00000000E+00
  0.00000000E+00  0.00000000E+00  0.00000000E+00
  0.00000000E+00  0.00000000E+00  0.00000000E+00
  0.00000000E+00  0.00000000E+00  0.00000000E+00
  0.00000000E+00  0.00000000E+00  0.00000000E+00
  0.00000000E+00  0.00000000E+00  0.00000000E+00
  0.00000000E+00  0.00000000E+00  0.00000000E+00
  0.00000000E+00  0.00000000E+00  0.00000000E+00
  0.00000000E+00  0.00000000E+00  0.00000000E+00
  0.00000000E+00  0.00000000E+00  0.00000000E+00
  0.00000000E+00  0.00000000E+00  0.00000000E+00
  0.00000000E+00  0.00000000E+00  0.00000000E+00
  0.00000000E+00  0.00000000E+00  0.00000000E+00
  0.00000000E+00  0.00000000E+00  0.00000000E+00
  0.00000000E+00  0.00000000E+00  0.00000000E+00
  0.00000000E+00  0.00000000E+00  0.00000000E+00
  0.00000000E+00  0.00000000E+00  0.00000000E+00
  0.00000000E+00  0.00000000E+00  0.00000000E+00
  0.00000000E+00  0.00000000E+00  0.00000000E+00
  0.00000000E+00  0.00000000E+00  0.00000000E+00
