supercell of POSCAR                     
   1.07329600000000     
     9.1016125577399993   -5.3128209557800004   -9.4184911254399992
     9.0821131104399999    5.2871675818400004    9.4140884809200003
    -1.5053809694200000   -7.9210976524300012    4.6939078171600004
   Al   Sc   N 
    71    24    96
Direct
  0.3011315135688477  0.2856857503043955  0.5394939106674741
  0.1404468123571974  0.2413618321282485  0.3028362300096035
  0.3062465832702514  0.4058323001728041  0.3062409881389812
  0.4602979403026168  0.3298569645888136  0.7935405703757610
  0.1387885442459122  0.4967876859335689  0.7887457119534034
  0.2985376695320596  0.1628536172430515  0.7818799643061496
  0.4683343114506826  0.4491129829986349  0.5353943690793912
  0.1409507547036952  0.1181383687055231  0.5388456302361391
  0.4754435949235685  0.0745289212747053  0.2962116548706817
  0.2775685159685821  0.1083189262752313  0.3340007337754827
  0.1146384282555744  0.0682273736661188  0.0923117192677765
  0.1121059331945915  0.1957507461443839  0.8229513077913566
  0.2703354783302814  0.3574604524946920  0.8133477568272482
  0.1077129612869001  0.3221273761459074  0.5848754962134919
  0.2704337868793942  0.4839862429864894  0.5791477967203988
  0.4452930516482425  0.2780187090183688  0.3351969818330645
  0.1089762312556886  0.4428326307543244  0.3369948190004948
  0.8012981055394874  0.2871084637808963  0.5404157141495318
  0.6396249901905122  0.2438980368362209  0.3051298220439520
  0.8051332470100903  0.4089212821880039  0.3033020225610059
  0.9651177741596157  0.3257436687616817  0.7898482128719309
  0.6392129074787221  0.4981169445279150  0.7908156869872869
  0.7989940844702303  0.1627486812753958  0.7817501294279907
  0.9686440991551066  0.4476320576070947  0.5361568138435757
  0.6412010611783430  0.1202007145892381  0.5402331360758907
  0.9758514747119946  0.0726027153317901  0.2939457006573818
  0.7762276986022272  0.1092891882190941  0.3335832233724432
  0.6131758180030573  0.0702110299276555  0.0929469921755270
  0.6113637086356221  0.1993950642510356  0.8254172796638031
  0.7721027344786364  0.3585376097756594  0.8236892344262330
  0.6091496978216568  0.3253500080396492  0.5900568192425553
  0.7726618946419563  0.4859285212715605  0.5820345138549072
  0.9441101297158312  0.2776305573307880  0.3339707818402218
  0.6115189656094557  0.4469058166687816  0.3393418186134269
  0.9448410997438472  0.4016127936567173  0.0947358511657228
  0.3044246890044775  0.7833958234339562  0.5351461335102741
  0.1465136367726458  0.7387219428077714  0.3031898195549587
  0.3090504371070466  0.9068639025268368  0.3003734506136055
  0.4679743774665042  0.8269964713570417  0.7894985077627297
  0.1407820780829425  0.9959418909174005  0.7866731620815841
  0.3012115236124728  0.6618214712523667  0.7830730002962127
  0.4709613989484467  0.9488669872426598  0.5359161325240365
  0.1449003518955720  0.6178629384285372  0.5356106845398330
  0.4795480898715994  0.5726721985492276  0.2956889488533747
  0.2920593443843842  0.5898775126522864  0.3158479136268326
  0.1162385610735939  0.5667100181154296  0.0926149403531156
  0.1148889095396228  0.6954757660468189  0.8216928053499473
  0.2773055642824147  0.8575543977053712  0.8191457733718721
  0.1134980673981474  0.8219013559233801  0.5848271259029261
  0.2736540578503295  0.9841422192638092  0.5775361201561608
  0.4498603052724661  0.7803161700741086  0.3345422412689274
  0.1127628959487339  0.9429675317940109  0.3347127401811250
  0.4477372940338284  0.9022707351985275  0.0935486929287919
  0.8050093059644041  0.7864365456807292  0.5392835627303043
  0.6439604216617951  0.7441973600890535  0.3045222434768888
  0.8093830982173031  0.9086552372800156  0.3018384426374965
  0.9687388704999407  0.8257395799253544  0.7887939457118591
  0.6403121548956463  0.9979713759002635  0.7874689469869480
  0.8011947322143840  0.6632899801332499  0.7831387640648089
  0.9715522930816576  0.9473268203772562  0.5346089227662816
  0.6425171986845228  0.6200869011237629  0.5420200984036754
  0.9762665373094919  0.5725126034868993  0.2941586357579169
  0.7781099189394354  0.6092554717440279  0.3360412716318919
  0.6166957242515849  0.5719533947103628  0.0985256425129677
  0.6152133111371683  0.6976587764601163  0.8246189070945249
  0.7767728405857071  0.8591910801957638  0.8199590430313606
  0.6126677399269553  0.8244646615880598  0.5873529278984506
  0.7733516074606541  0.9853737725102789  0.5777406879899871
  0.9495543119293401  0.7776339649563369  0.3339987650862142
  0.6122959220497606  0.9458899280307520  0.3363630973870642
  0.9495560099851872  0.9016262698096611  0.0930959451091624
  0.4770637164880895  0.2011824565735765  0.0415299028625356
  0.1386767026053377  0.3649264230239595  0.0371496643166580
  0.3093812756704253  0.0272072376551691  0.0387414940404582
  0.2839804405233863  0.2344952231220176  0.0812784761973191
  0.4473674926676665  0.0236688774734120  0.8244625151451928
  0.4446783469982449  0.1537076672218589  0.5784426920905332
  0.9786286040495753  0.1969602171555209  0.0386428484027093
  0.6286607748305002  0.3711368168654161  0.0439039455264094
  0.8093916786954907  0.0262209849687878  0.0382975060373028
  0.7786437527869978  0.2335401092325142  0.0813006084449128
  0.9476362080647363  0.0214423769500200  0.8217514942946309
  0.9432355268157337  0.1519326624920723  0.5728520006107019
  0.4828867721666654  0.6965948132376241  0.0377133151305173
  0.1439448558578391  0.8631280926435068  0.0353673586884682
  0.3193910413439554  0.5111907739056889  0.0334734721242000
  0.2864106857464606  0.7243104552021080  0.0796757529167778
  0.4479352048960408  0.5225174265437929  0.8186314688649290
  0.4463219764721700  0.6535122073928648  0.5734481760531409
  0.9833271090245361  0.6954942249822054  0.0378459944862470
  0.6414673407143425  0.8664154224575995  0.0368829487663547
  0.8061101998028946  0.5253465167936753  0.0407130748409656
  0.7863287061600346  0.7333910512046771  0.0807853572735837
  0.9456407254007928  0.5209812197894834  0.8249800922572419
  0.9472149323693557  0.6509745577801098  0.5736123519099010
  0.2331328087876798  0.3647440633917824  0.6257658220644657
  0.0709208195911373  0.3220770727541975  0.3938288952639368
  0.2334947110433987  0.4845740395002736  0.3933370763486508
  0.4140055053501470  0.2776325563105999  0.1549931078178659
  0.0690834426272673  0.4510053433146695  0.1458846395672282
  0.2371197257823638  0.1054915468563564  0.1488075958531070
  0.3902259061449058  0.4046863123862536  0.8773192485390737
  0.0850504139763899  0.0798020778993234  0.8968081093262725
  0.2339539058127116  0.2423389393703630  0.8709108212277101
  0.3995272106389578  0.0216726273834453  0.6212127212052749
  0.0817188216018749  0.2010358243535180  0.6341600677525392
  0.4049758598707811  0.1541086022933271  0.3737697039096233
  0.2150750609876084  0.1891605784715011  0.4320113321606982
  0.0548110968204654  0.1447685350881969  0.1955521738788661
  0.2131895507007613  0.3159262694331915  0.2000118573424032
  0.3709239409297851  0.1133993508635527  0.9123986162746647
  0.0422076360403167  0.2721869969966377  0.9034241103059628
  0.2060178794616263  0.4364750445256789  0.9033789195819395
  0.3704580631682717  0.2392682411739386  0.6785713461271712
  0.0392774846635078  0.4043898576986109  0.6825009522840162
  0.2110739583848158  0.0662426366205509  0.6724833922573836
  0.3803470071400525  0.3533617276172620  0.4358000332333205
  0.0478464300172377  0.0245778751702588  0.4341452278451001
  0.3712957408536397  0.4970213348187258  0.2297638041177592
  0.7379441094755634  0.3675798073538701  0.6338502641092987
  0.5745156401076699  0.3254788393359433  0.3989845569438231
  0.7417421265941755  0.4910293501308729  0.3948791851148883
  0.9166766646397093  0.2865295647376627  0.1487290405791413
  0.5835123627819598  0.4635105419461283  0.1609854983756520
  0.7374302399525448  0.1059674940066415  0.1477632719106481
  0.8996568651786419  0.3978521831107500  0.9020482829989120
  0.5863164216443693  0.0817639111871102  0.8974873978773914
  0.7358692966739397  0.2420485160027113  0.8728588908729051
  0.8997034788158302  0.0209977753759318  0.6186070920771343
  0.5847068072589536  0.2036589279785517  0.6361819838600269
  0.9042497851746276  0.1549011706939183  0.3658801618759426
  0.7163217697866102  0.1909467555953483  0.4329065108987535
  0.5559577075007525  0.1465446309041099  0.1982942312724489
  0.7132905345711436  0.3174960933733502  0.1993429780011411
  0.8719548815829867  0.1128720395836069  0.9124109868255488
  0.5407325181359965  0.2748044586384211  0.9011893057663798
  0.7077581447387686  0.4382467271789423  0.9077792957641435
  0.8721795217958359  0.2398120605617819  0.6784266377214081
  0.5405619151194259  0.4079256874540036  0.6844247564241286
  0.7121298993820488  0.0672898754677291  0.6728762096338201
  0.8791721300437985  0.3543606984262695  0.4321084746138553
  0.5485690308511906  0.0264059441262816  0.4363517273030482
  0.8854702487782689  0.4769139595339098  0.1989180642078665
  0.2404605488897928  0.8658777103732049  0.6297862362248736
  0.0773456527330154  0.8233074547627695  0.3937326467731523
  0.2402673018706452  0.9878598707852575  0.3878667728464436
  0.4226679838971634  0.7880824487721938  0.1487081244425781
  0.0741562512441334  0.9508410872086657  0.1438304904658025
  0.2390748206800595  0.5988503646650400  0.1385304074160842
  0.4032417314697057  0.8996085341000253  0.9007238597792977
  0.0829699922847880  0.5813435064403834  0.8974579707981931
  0.2374364452311895  0.7431390260555162  0.8750237434531769
  0.3960672051221295  0.5237209928328852  0.6157460857473680
  0.0858787390279048  0.7020771587808738  0.6337865658467692
  0.4117901760408103  0.6621664184132499  0.3714468920018490
  0.2201055768948805  0.6874590914873622  0.4303952729229295
  0.0576589511107954  0.6443302245899432  0.1972492694647769
  0.2192595724257984  0.8132799701988347  0.1967933002685882
  0.3726202892843560  0.6148669026553009  0.9176830755994914
  0.0460076444750541  0.7730791731178428  0.9027676234290354
  0.2120887398149023  0.9384897467305393  0.9030420607806207
  0.3741163455381837  0.7411040745622586  0.6807944145125475
  0.0427431980854678  0.9043673397340655  0.6811237178630520
  0.2108413993351945  0.5673613029193021  0.6767754292436194
  0.3829684055156761  0.8560040732095402  0.4315014168297964
  0.0456578399368368  0.5252957195142756  0.4372615831792785
  0.3878440449620228  0.9775358851453930  0.1971990775808976
  0.7408989009740168  0.8674821596207209  0.6308877249181748
  0.5782525869077588  0.8272804023065063  0.3962480086448394
  0.7409973455567709  0.9898420111039457  0.3883899741802210
  0.9237268299543118  0.7872723447715089  0.1488644519259879
  0.5729683741550957  0.9531012757510595  0.1453217233659103
  0.7418396544808701  0.6114267388007306  0.1513110802849056
  0.9034272249865936  0.8986129031705659  0.9004454038169030
  0.5875959426865620  0.5844714682007819  0.9012754840483552
  0.7386029803434369  0.7448462786070493  0.8740595947306815
  0.8988234842634100  0.5218646084669629  0.6227959054590642
  0.5862744456953237  0.7049307694404803  0.6371802955718877
  0.9068340984285399  0.6562769802239643  0.3680677711428473
  0.7181231614213672  0.6914811655398339  0.4348897371942968
  0.5584835320660133  0.6505938553286441  0.1996865692105345
  0.7185435076136315  0.8177205225004869  0.1986731129056807
  0.8716308613438102  0.6140857975063554  0.9173649707430727
  0.5463791038122139  0.7754330519617270  0.9040187042090579
  0.7118108388088018  0.9395925602380117  0.9033725940672639
  0.8750724432710655  0.7397875886553678  0.6789859337957296
  0.5431032498282633  0.9059080544414257  0.6822650828511598
  0.7124538477275877  0.5686702384442839  0.6776938918868396
  0.8828007252577947  0.8542582991033427  0.4307743381393649
  0.5490178084950514  0.5277268956801819  0.4425119003205538
  0.8882118094259965  0.9763535288888860  0.1959986537646614
 
  0.00000000E+00  0.00000000E+00  0.00000000E+00
  0.00000000E+00  0.00000000E+00  0.00000000E+00
  0.00000000E+00  0.00000000E+00  0.00000000E+00
  0.00000000E+00  0.00000000E+00  0.00000000E+00
  0.00000000E+00  0.00000000E+00  0.00000000E+00
  0.00000000E+00  0.00000000E+00  0.00000000E+00
  0.00000000E+00  0.00000000E+00  0.00000000E+00
  0.00000000E+00  0.00000000E+00  0.00000000E+00
  0.00000000E+00  0.00000000E+00  0.00000000E+00
  0.00000000E+00  0.00000000E+00  0.00000000E+00
  0.00000000E+00  0.00000000E+00  0.00000000E+00
  0.00000000E+00  0.00000000E+00  0.00000000E+00
  0.00000000E+00  0.00000000E+00  0.00000000E+00
  0.00000000E+00  0.00000000E+00  0.00000000E+00
  0.00000000E+00  0.00000000E+00  0.00000000E+00
  0.00000000E+00  0.00000000E+00  0.00000000E+00
  0.00000000E+00  0.00000000E+00  0.00000000E+00
  0.00000000E+00  0.00000000E+00  0.00000000E+00
  0.00000000E+00  0.00000000E+00  0.00000000E+00
  0.00000000E+00  0.00000000E+00  0.00000000E+00
  0.00000000E+00  0.00000000E+00  0.00000000E+00
  0.00000000E+00  0.00000000E+00  0.00000000E+00
  0.00000000E+00  0.00000000E+00  0.00000000E+00
  0.00000000E+00  0.00000000E+00  0.00000000E+00
  0.00000000E+00  0.00000000E+00  0.00000000E+00
  0.00000000E+00  0.00000000E+00  0.00000000E+00
  0.00000000E+00  0.00000000E+00  0.00000000E+00
  0.00000000E+00  0.00000000E+00  0.00000000E+00
  0.00000000E+00  0.00000000E+00  0.00000000E+00
  0.00000000E+00  0.00000000E+00  0.00000000E+00
  0.00000000E+00  0.00000000E+00  0.00000000E+00
  0.00000000E+00  0.00000000E+00  0.00000000E+00
  0.00000000E+00  0.00000000E+00  0.00000000E+00
  0.00000000E+00  0.00000000E+00  0.00000000E+00
  0.00000000E+00  0.00000000E+00  0.00000000E+00
  0.00000000E+00  0.00000000E+00  0.00000000E+00
  0.00000000E+00  0.00000000E+00  0.00000000E+00
  0.00000000E+00  0.00000000E+00  0.00000000E+00
  0.00000000E+00  0.00000000E+00  0.00000000E+00
  0.00000000E+00  0.00000000E+00  0.00000000E+00
  0.00000000E+00  0.00000000E+00  0.00000000E+00
  0.00000000E+00  0.00000000E+00  0.00000000E+00
  0.00000000E+00  0.00000000E+00  0.00000000E+00
  0.00000000E+00  0.00000000E+00  0.00000000E+00
  0.00000000E+00  0.00000000E+00  0.00000000E+00
  0.00000000E+00  0.00000000E+00  0.00000000E+00
  0.00000000E+00  0.00000000E+00  0.00000000E+00
  0.00000000E+00  0.00000000E+00  0.00000000E+00
  0.00000000E+00  0.00000000E+00  0.00000000E+00
  0.00000000E+00  0.00000000E+00  0.00000000E+00
  0.00000000E+00  0.00000000E+00  0.00000000E+00
  0.00000000E+00  0.00000000E+00  0.00000000E+00
  0.00000000E+00  0.00000000E+00  0.00000000E+00
  0.00000000E+00  0.00000000E+00  0.00000000E+00
  0.00000000E+00  0.00000000E+00  0.00000000E+00
  0.00000000E+00  0.00000000E+00  0.00000000E+00
  0.00000000E+00  0.00000000E+00  0.00000000E+00
  0.00000000E+00  0.00000000E+00  0.00000000E+00
  0.00000000E+00  0.00000000E+00  0.00000000E+00
  0.00000000E+00  0.00000000E+00  0.00000000E+00
  0.00000000E+00  0.00000000E+00  0.00000000E+00
  0.00000000E+00  0.00000000E+00  0.00000000E+00
  0.00000000E+00  0.00000000E+00  0.00000000E+00
  0.00000000E+00  0.00000000E+00  0.00000000E+00
  0.00000000E+00  0.00000000E+00  0.00000000E+00
  0.00000000E+00  0.00000000E+00  0.00000000E+00
  0.00000000E+00  0.00000000E+00  0.00000000E+00
  0.00000000E+00  0.00000000E+00  0.00000000E+00
  0.00000000E+00  0.00000000E+00  0.00000000E+00
  0.00000000E+00  0.00000000E+00  0.00000000E+00
  0.00000000E+00  0.00000000E+00  0.00000000E+00
  0.00000000E+00  0.00000000E+00  0.00000000E+00
  0.00000000E+00  0.00000000E+00  0.00000000E+00
  0.00000000E+00  0.00000000E+00  0.00000000E+00
  0.00000000E+00  0.00000000E+00  0.00000000E+00
  0.00000000E+00  0.00000000E+00  0.00000000E+00
  0.00000000E+00  0.00000000E+00  0.00000000E+00
  0.00000000E+00  0.00000000E+00  0.00000000E+00
  0.00000000E+00  0.00000000E+00  0.00000000E+00
  0.00000000E+00  0.00000000E+00  0.00000000E+00
  0.00000000E+00  0.00000000E+00  0.00000000E+00
  0.00000000E+00  0.00000000E+00  0.00000000E+00
  0.00000000E+00  0.00000000E+00  0.00000000E+00
  0.00000000E+00  0.00000000E+00  0.00000000E+00
  0.00000000E+00  0.00000000E+00  0.00000000E+00
  0.00000000E+00  0.00000000E+00  0.00000000E+00
  0.00000000E+00  0.00000000E+00  0.00000000E+00
  0.00000000E+00  0.00000000E+00  0.00000000E+00
  0.00000000E+00  0.00000000E+00  0.00000000E+00
  0.00000000E+00  0.00000000E+00  0.00000000E+00
  0.00000000E+00  0.00000000E+00  0.00000000E+00
  0.00000000E+00  0.00000000E+00  0.00000000E+00
  0.00000000E+00  0.00000000E+00  0.00000000E+00
  0.00000000E+00  0.00000000E+00  0.00000000E+00
  0.00000000E+00  0.00000000E+00  0.00000000E+00
  0.00000000E+00  0.00000000E+00  0.00000000E+00
  0.00000000E+00  0.00000000E+00  0.00000000E+00
  0.00000000E+00  0.00000000E+00  0.00000000E+00
  0.00000000E+00  0.00000000E+00  0.00000000E+00
  0.00000000E+00  0.00000000E+00  0.00000000E+00
  0.00000000E+00  0.00000000E+00  0.00000000E+00
  0.00000000E+00  0.00000000E+00  0.00000000E+00
  0.00000000E+00  0.00000000E+00  0.00000000E+00
  0.00000000E+00  0.00000000E+00  0.00000000E+00
  0.00000000E+00  0.00000000E+00  0.00000000E+00
  0.00000000E+00  0.00000000E+00  0.00000000E+00
  0.00000000E+00  0.00000000E+00  0.00000000E+00
  0.00000000E+00  0.00000000E+00  0.00000000E+00
  0.00000000E+00  0.00000000E+00  0.00000000E+00
  0.00000000E+00  0.00000000E+00  0.00000000E+00
  0.00000000E+00  0.00000000E+00  0.00000000E+00
  0.00000000E+00  0.00000000E+00  0.00000000E+00
  0.00000000E+00  0.00000000E+00  0.00000000E+00
  0.00000000E+00  0.00000000E+00  0.00000000E+00
  0.00000000E+00  0.00000000E+00  0.00000000E+00
  0.00000000E+00  0.00000000E+00  0.00000000E+00
  0.00000000E+00  0.00000000E+00  0.00000000E+00
  0.00000000E+00  0.00000000E+00  0.00000000E+00
  0.00000000E+00  0.00000000E+00  0.00000000E+00
  0.00000000E+00  0.00000000E+00  0.00000000E+00
  0.00000000E+00  0.00000000E+00  0.00000000E+00
  0.00000000E+00  0.00000000E+00  0.00000000E+00
  0.00000000E+00  0.00000000E+00  0.00000000E+00
  0.00000000E+00  0.00000000E+00  0.00000000E+00
  0.00000000E+00  0.00000000E+00  0.00000000E+00
  0.00000000E+00  0.00000000E+00  0.00000000E+00
  0.00000000E+00  0.00000000E+00  0.00000000E+00
  0.00000000E+00  0.00000000E+00  0.00000000E+00
  0.00000000E+00  0.00000000E+00  0.00000000E+00
  0.00000000E+00  0.00000000E+00  0.00000000E+00
  0.00000000E+00  0.00000000E+00  0.00000000E+00
  0.00000000E+00  0.00000000E+00  0.00000000E+00
  0.00000000E+00  0.00000000E+00  0.00000000E+00
  0.00000000E+00  0.00000000E+00  0.00000000E+00
  0.00000000E+00  0.00000000E+00  0.00000000E+00
  0.00000000E+00  0.00000000E+00  0.00000000E+00
  0.00000000E+00  0.00000000E+00  0.00000000E+00
  0.00000000E+00  0.00000000E+00  0.00000000E+00
  0.00000000E+00  0.00000000E+00  0.00000000E+00
  0.00000000E+00  0.00000000E+00  0.00000000E+00
  0.00000000E+00  0.00000000E+00  0.00000000E+00
  0.00000000E+00  0.00000000E+00  0.00000000E+00
  0.00000000E+00  0.00000000E+00  0.00000000E+00
  0.00000000E+00  0.00000000E+00  0.00000000E+00
  0.00000000E+00  0.00000000E+00  0.00000000E+00
  0.00000000E+00  0.00000000E+00  0.00000000E+00
  0.00000000E+00  0.00000000E+00  0.00000000E+00
  0.00000000E+00  0.00000000E+00  0.00000000E+00
  0.00000000E+00  0.00000000E+00  0.00000000E+00
  0.00000000E+00  0.00000000E+00  0.00000000E+00
  0.00000000E+00  0.00000000E+00  0.00000000E+00
  0.00000000E+00  0.00000000E+00  0.00000000E+00
  0.00000000E+00  0.00000000E+00  0.00000000E+00
  0.00000000E+00  0.00000000E+00  0.00000000E+00
  0.00000000E+00  0.00000000E+00  0.00000000E+00
  0.00000000E+00  0.00000000E+00  0.00000000E+00
  0.00000000E+00  0.00000000E+00  0.00000000E+00
  0.00000000E+00  0.00000000E+00  0.00000000E+00
  0.00000000E+00  0.00000000E+00  0.00000000E+00
  0.00000000E+00  0.00000000E+00  0.00000000E+00
  0.00000000E+00  0.00000000E+00  0.00000000E+00
  0.00000000E+00  0.00000000E+00  0.00000000E+00
  0.00000000E+00  0.00000000E+00  0.00000000E+00
  0.00000000E+00  0.00000000E+00  0.00000000E+00
  0.00000000E+00  0.00000000E+00  0.00000000E+00
  0.00000000E+00  0.00000000E+00  0.00000000E+00
  0.00000000E+00  0.00000000E+00  0.00000000E+00
  0.00000000E+00  0.00000000E+00  0.00000000E+00
  0.00000000E+00  0.00000000E+00  0.00000000E+00
  0.00000000E+00  0.00000000E+00  0.00000000E+00
  0.00000000E+00  0.00000000E+00  0.00000000E+00
  0.00000000E+00  0.00000000E+00  0.00000000E+00
  0.00000000E+00  0.00000000E+00  0.00000000E+00
  0.00000000E+00  0.00000000E+00  0.00000000E+00
  0.00000000E+00  0.00000000E+00  0.00000000E+00
  0.00000000E+00  0.00000000E+00  0.00000000E+00
  0.00000000E+00  0.00000000E+00  0.00000000E+00
  0.00000000E+00  0.00000000E+00  0.00000000E+00
  0.00000000E+00  0.00000000E+00  0.00000000E+00
  0.00000000E+00  0.00000000E+00  0.00000000E+00
  0.00000000E+00  0.00000000E+00  0.00000000E+00
  0.00000000E+00  0.00000000E+00  0.00000000E+00
  0.00000000E+00  0.00000000E+00  0.00000000E+00
  0.00000000E+00  0.00000000E+00  0.00000000E+00
  0.00000000E+00  0.00000000E+00  0.00000000E+00
  0.00000000E+00  0.00000000E+00  0.00000000E+00
  0.00000000E+00  0.00000000E+00  0.00000000E+00
  0.00000000E+00  0.00000000E+00  0.00000000E+00
  0.00000000E+00  0.00000000E+00  0.00000000E+00
  0.00000000E+00  0.00000000E+00  0.00000000E+00
  0.00000000E+00  0.00000000E+00  0.00000000E+00
