supercell of POSCAR                     
   1.07329600000000     
     9.1016125577399993   -5.3128209557800004   -9.4184911254399992
     9.0821131104399999    5.2871675818400004    9.4140884809200003
    -1.5053809694200000   -7.9210976524300012    4.6939078171600004
   Al   Sc   N 
    72    24    95
Direct
  0.2807191052445503  0.2684139296250123  0.5648518978278929
  0.1402427111641984  0.2422307840078872  0.3044147624701239
  0.2912314264422946  0.4211871649638752  0.2776813515457590
  0.4667658111391475  0.3281831364846965  0.7880887976590358
  0.1395887738245634  0.4981761761368233  0.7883019445698096
  0.2986037099543211  0.1590516029770228  0.7851169664520867
  0.4931703996725645  0.4650804302467506  0.5503475252255186
  0.1372646022739445  0.1142819634926795  0.5388374040052639
  0.4752311067597006  0.0645574963890923  0.2958959476609166
  0.2768802359322109  0.1052772577611876  0.3317185040160595
  0.1140301314954968  0.0685901076521205  0.0930906645465583
  0.1138466299576280  0.1959442586395923  0.8234038145562579
  0.2759802919196304  0.3591667516414887  0.8254376479630636
  0.1067990732477497  0.3248750418755080  0.5878602477975292
  0.2721625632586466  0.4845316602405561  0.5775916527611500
  0.4772580455496254  0.2445852154537178  0.2959707969332115
  0.1067939540484915  0.4453721792042202  0.3372247423226185
  0.4498670862399550  0.3992581101120933  0.0945106663354451
  0.8056131329048526  0.2873631549910485  0.5412181817401773
  0.6535055775508383  0.2431961837492764  0.3046879405744534
  0.8107952037734236  0.4095299959764205  0.3026777501819922
  0.9667347419174277  0.3271934534252523  0.7908771296822650
  0.6435825635505381  0.4995575494180784  0.7912513331107647
  0.8002249056332147  0.1637395478402937  0.7827987308989535
  0.9695691438481333  0.4496203337907829  0.5372097220501928
  0.6421184756654981  0.1184676841147763  0.5396586961846381
  0.9754379467020939  0.0731244489825116  0.2944293335834089
  0.7786432767918186  0.1078027311634884  0.3365183597322527
  0.6125056476339878  0.0713666118618264  0.0979608302599217
  0.6149430049070759  0.1979012702041700  0.8196488295895605
  0.7768729837269106  0.3596477700502945  0.8204792846420972
  0.6142979571376515  0.3219230319357109  0.5855394976624879
  0.7734457910371120  0.4860255674541207  0.5786220523745840
  0.9470112559201880  0.2783667224020832  0.3348095596357510
  0.6154348484398398  0.4440664631108078  0.3323088463306760
  0.9479617353133278  0.4025898355137016  0.0943791236278670
  0.3019159589036846  0.7872815148370975  0.5400318990871753
  0.1403946885557161  0.7427755025167642  0.3048852254182464
  0.3057589157400145  0.9063521641035237  0.3030775507670143
  0.4654883961736545  0.8257331709023461  0.7911764199918778
  0.1377028745976574  0.9962528188022546  0.7883491639867373
  0.2983237833362509  0.6639337802855465  0.7822531349458117
  0.4690186698493406  0.9473746455642882  0.5353827730190446
  0.1409911486171609  0.6198775819428448  0.5408078579169668
  0.4767751865869911  0.5743196437530855  0.2946700346135813
  0.2764017405463690  0.6125682838876259  0.3349387730623477
  0.1145060871688912  0.5687038911642119  0.0933404926387880
  0.1123286918574493  0.6973192782713653  0.8248328554199134
  0.2733465802943158  0.8580201503920364  0.8207729216104909
  0.1099170831057705  0.8237633572226670  0.5881897630781765
  0.2712691749977481  0.9845813308472273  0.5781010494566132
  0.4468139623287328  0.7783475195143552  0.3346831457933348
  0.1095032104287554  0.9434152275578001  0.3363456795946931
  0.4454213367705862  0.9005776250668518  0.0941233695564350
  0.8027760978557268  0.7880213604002932  0.5406021655667814
  0.6417029686194269  0.7428153268743145  0.3038098028933334
  0.8072544738418870  0.9084487779963126  0.3034276846391606
  0.9656841260079858  0.8271410081942534  0.7912110891627151
  0.6390903503521059  0.9985077927961470  0.7905119500018500
  0.8004440757317397  0.6644810456772348  0.7836736255119803
  0.9682998897970947  0.9478802196195630  0.5372897155115623
  0.6450488773920853  0.6232983999040513  0.5406072370320629
  0.9758927614138386  0.5748522938052787  0.2957309622075286
  0.7777247098846232  0.6095344887920291  0.3343229787148800
  0.6143380348313485  0.5687291232279605  0.0930048201240723
  0.6131759869865903  0.6975638016552139  0.8238456572032291
  0.7740460680710939  0.8592935578776348  0.8221522885273629
  0.6100729927081616  0.8244279221735269  0.5885896141891180
  0.7717283413825342  0.9855782747634336  0.5809439958125964
  0.9459778825654297  0.7791731775256281  0.3358497735111499
  0.6119824816476296  0.9435706143538667  0.3386279323175572
  0.9458892234822116  0.9028076645399068  0.0949985405951352
  0.4843240366873687  0.1916106742115744  0.0196865904425394
  0.1391612140337344  0.3643907752951492  0.0339563415454975
  0.3089991648335442  0.0230752187099910  0.0365955369232580
  0.2867118016892789  0.2299289457537483  0.0833659219986203
  0.4465772488044450  0.0173410898461910  0.8177060484414085
  0.4448338006452204  0.1522895749634117  0.5720691816440819
  0.9816858440389424  0.1968130128505763  0.0384339100061126
  0.6423262987132077  0.3647712281494861  0.0345094329548203
  0.8071309629028889  0.0261116468813896  0.0411970141690574
  0.7860583835515342  0.2310524104170213  0.0790870880243730
  0.9451908315922850  0.0227010057684964  0.8251035826009527
  0.9452916268280092  0.1524063926447070  0.5745763684431964
  0.4809804567270959  0.6970327405881420  0.0374280699658769
  0.1389758460303057  0.8655641569312422  0.0376995764372339
  0.3112711299818471  0.5260424115865732  0.0344872363905040
  0.2821801221610656  0.7311705165122930  0.0821147200239807
  0.4467922668002728  0.5223342235683219  0.8212263948893295
  0.4427569080674303  0.6535477035075772  0.5738547677323496
  0.9803548574294609  0.6982134516404486  0.0408153909345046
  0.6383010547951500  0.8674284648975927  0.0386650037111522
  0.8101836744506130  0.5264513112510798  0.0405131306341531
  0.7825162109386810  0.7323639452783866  0.0819721776361746
  0.9469198848440072  0.5236764990194089  0.8245269802485495
  0.9444058298762315  0.6538026520339741  0.5747790752377284
  0.2376273906211637  0.3669218171567010  0.6320125794978040
  0.0756664976232599  0.3251685603829273  0.3959922498532009
  0.2369941439350853  0.4912855531176064  0.3902343402113289
  0.4254111687704238  0.2825281316537840  0.1416378635376319
  0.0734314952889292  0.4516886157424125  0.1457875528510044
  0.2382674585085809  0.1050360304327498  0.1472018462095122
  0.4024670390729241  0.4005166537387552  0.9019273583352216
  0.0841322484401488  0.0819413211420681  0.8985117163275049
  0.2379295175575322  0.2430787635466132  0.8760711587412686
  0.3973925099629483  0.0225596316775878  0.6169240294536849
  0.0861677129404583  0.2035912266531668  0.6346213405102858
  0.4050567371229548  0.1522340271529146  0.3651805943681055
  0.2143525673498701  0.1863542882978564  0.4306126368380632
  0.0570023160271873  0.1465033577109551  0.1983056143914865
  0.2184335061072318  0.3157121001774215  0.2010210385475801
  0.3716140115714239  0.1104541076572900  0.9107838276102385
  0.0450232170074116  0.2734658805728571  0.9024293095289053
  0.2110377488919326  0.4393968585146339  0.9048041184612146
  0.3723445640242602  0.2404817913369826  0.6797263599945325
  0.0416846884040609  0.4063126412914571  0.6835934200466909
  0.2101347570059389  0.0672711602205140  0.6743964912921214
  0.0452228474801473  0.0246202489551806  0.4363197033718365
  0.3882202697904873  0.4735673947780867  0.2004322931824376
  0.7401268887253565  0.3675404949877645  0.6311656737353601
  0.5789111583370783  0.3243496159395747  0.3937919092223723
  0.7414788096122820  0.4895260252274198  0.3888208606908847
  0.9223231106226422  0.2878836730716969  0.1496436765247822
  0.5730177837628290  0.4514772747633060  0.1443472579799447
  0.7349845554764656  0.1078998317907534  0.1524836562783634
  0.9026035347355261  0.3999370822315811  0.9020931561073411
  0.5814957252228012  0.0858258677377606  0.9038670175245187
  0.7367598672328057  0.2448625353889540  0.8741549659365049
  0.8977470871337729  0.0228975879605215  0.6222216126674098
  0.5836577067723283  0.2025554308230681  0.6323289239898031
  0.9058541508796409  0.1563499389319389  0.3678237777425721
  0.7197056540209132  0.1901683199682225  0.4365376820277618
  0.5514096471745660  0.1542078130033957  0.2072241100810430
  0.7201032458057739  0.3172951065759833  0.1972705682576219
  0.8699236741311154  0.1158367222402745  0.9192044779604771
  0.5457410052753104  0.2762423438815844  0.8968707208874207
  0.7120887325392076  0.4399366263447817  0.9049802274282897
  0.8743557736102261  0.2407129692438801  0.6807660371212236
  0.5448380588473469  0.4046418018829456  0.6817715642695177
  0.7104111120046355  0.0686277362527292  0.6774140686268382
  0.8824969203507962  0.3552250581109817  0.4328899763794425
  0.5481158917504700  0.0245592724880126  0.4382632661664090
  0.8889787959528448  0.4778885427453901  0.1985608924308835
  0.2379095949748589  0.8671628677238488  0.6319719624445241
  0.0741448347301343  0.8244556938621770  0.3965051910893109
  0.2379752966296635  0.9882136353568995  0.3889482449994190
  0.4198931700902335  0.7859768266823224  0.1491082924910572
  0.0709410227149689  0.9528387608791178  0.1464536161026118
  0.2393586726459489  0.6029116803450449  0.1481394978403330
  0.3997902348407933  0.8981156740982428  0.9024386884748310
  0.0859059909193292  0.5815557936726066  0.8987403619390406
  0.2358324686493987  0.7430675751687232  0.8755373755035478
  0.4002028847538597  0.5138558185211082  0.6083547941349678
  0.0839977429585801  0.7030713156072181  0.6367976134701152
  0.4050353746505664  0.6551062308005768  0.3675067571238770
  0.2161348737390369  0.6911912769912476  0.4341184517955270
  0.0569836935751837  0.6458515481844813  0.1979881611399321
  0.2152210853251262  0.8149554255167999  0.1991505305424610
  0.3726647669138146  0.6134384098515184  0.9101334637847529
  0.0434635186102099  0.7741105221520641  0.9049302777617143
  0.2088690784583278  0.9386129170869495  0.9044487603891795
  0.3721897618989090  0.7401422331586787  0.6794012156353446
  0.0403250742138539  0.9056066380156835  0.6835168915847945
  0.2129282502987238  0.5668113637286751  0.6735992849692494
  0.3804870992642435  0.8537934385596913  0.4322481206000930
  0.0470442627294290  0.5268667473609980  0.4377745832723008
  0.3846813011666512  0.9743158501242917  0.1980281217864572
  0.7371584378365696  0.8675567231050749  0.6330513273507705
  0.5742696163990288  0.8242308997071390  0.3966907521895990
  0.7392331779080408  0.9894148002501808  0.3913166452080930
  0.9193632059348076  0.7883846660549025  0.1507565875054624
  0.5692773185410758  0.9559199841495811  0.1493394792942695
  0.7372573702108056  0.6060046127902936  0.1488131075813257
  0.9001655573183385  0.8999729443456062  0.9026585380704475
  0.5839053906343281  0.5810089583129212  0.8968897177297208
  0.7356778077313351  0.7438520338110948  0.8749286506120271
  0.8989430903238329  0.5232019930079943  0.6217245304355643
  0.5818768019135234  0.7025467800909269  0.6349969958855652
  0.9051193099147881  0.6567992291066105  0.3676223919896913
  0.7175455300851610  0.6921447607580831  0.4327492465674041
  0.5555781830838527  0.6457246296494077  0.1966485920869800
  0.7146311357515884  0.8175335771680992  0.1989810511055055
  0.8716201804322239  0.6153784805634430  0.9166532546547970
  0.5442721854975190  0.7744689263111155  0.9045333675751053
  0.7087349746505396  0.9401144881890460  0.9065538298349907
  0.8725424318848596  0.7414987788867720  0.6801768017630465
  0.5393399682849704  0.9074725453529737  0.6862951733266840
  0.7117415128213764  0.5687300172938947  0.6744239723866770
  0.8801531794038056  0.8553005018228390  0.4329936841204827
  0.5534647690580741  0.5282780781872418  0.4315212054360913
  0.8857312454910797  0.9779092626639212  0.1989107142077771
 
  0.00000000E+00  0.00000000E+00  0.00000000E+00
  0.00000000E+00  0.00000000E+00  0.00000000E+00
  0.00000000E+00  0.00000000E+00  0.00000000E+00
  0.00000000E+00  0.00000000E+00  0.00000000E+00
  0.00000000E+00  0.00000000E+00  0.00000000E+00
  0.00000000E+00  0.00000000E+00  0.00000000E+00
  0.00000000E+00  0.00000000E+00  0.00000000E+00
  0.00000000E+00  0.00000000E+00  0.00000000E+00
  0.00000000E+00  0.00000000E+00  0.00000000E+00
  0.00000000E+00  0.00000000E+00  0.00000000E+00
  0.00000000E+00  0.00000000E+00  0.00000000E+00
  0.00000000E+00  0.00000000E+00  0.00000000E+00
  0.00000000E+00  0.00000000E+00  0.00000000E+00
  0.00000000E+00  0.00000000E+00  0.00000000E+00
  0.00000000E+00  0.00000000E+00  0.00000000E+00
  0.00000000E+00  0.00000000E+00  0.00000000E+00
  0.00000000E+00  0.00000000E+00  0.00000000E+00
  0.00000000E+00  0.00000000E+00  0.00000000E+00
  0.00000000E+00  0.00000000E+00  0.00000000E+00
  0.00000000E+00  0.00000000E+00  0.00000000E+00
  0.00000000E+00  0.00000000E+00  0.00000000E+00
  0.00000000E+00  0.00000000E+00  0.00000000E+00
  0.00000000E+00  0.00000000E+00  0.00000000E+00
  0.00000000E+00  0.00000000E+00  0.00000000E+00
  0.00000000E+00  0.00000000E+00  0.00000000E+00
  0.00000000E+00  0.00000000E+00  0.00000000E+00
  0.00000000E+00  0.00000000E+00  0.00000000E+00
  0.00000000E+00  0.00000000E+00  0.00000000E+00
  0.00000000E+00  0.00000000E+00  0.00000000E+00
  0.00000000E+00  0.00000000E+00  0.00000000E+00
  0.00000000E+00  0.00000000E+00  0.00000000E+00
  0.00000000E+00  0.00000000E+00  0.00000000E+00
  0.00000000E+00  0.00000000E+00  0.00000000E+00
  0.00000000E+00  0.00000000E+00  0.00000000E+00
  0.00000000E+00  0.00000000E+00  0.00000000E+00
  0.00000000E+00  0.00000000E+00  0.00000000E+00
  0.00000000E+00  0.00000000E+00  0.00000000E+00
  0.00000000E+00  0.00000000E+00  0.00000000E+00
  0.00000000E+00  0.00000000E+00  0.00000000E+00
  0.00000000E+00  0.00000000E+00  0.00000000E+00
  0.00000000E+00  0.00000000E+00  0.00000000E+00
  0.00000000E+00  0.00000000E+00  0.00000000E+00
  0.00000000E+00  0.00000000E+00  0.00000000E+00
  0.00000000E+00  0.00000000E+00  0.00000000E+00
  0.00000000E+00  0.00000000E+00  0.00000000E+00
  0.00000000E+00  0.00000000E+00  0.00000000E+00
  0.00000000E+00  0.00000000E+00  0.00000000E+00
  0.00000000E+00  0.00000000E+00  0.00000000E+00
  0.00000000E+00  0.00000000E+00  0.00000000E+00
  0.00000000E+00  0.00000000E+00  0.00000000E+00
  0.00000000E+00  0.00000000E+00  0.00000000E+00
  0.00000000E+00  0.00000000E+00  0.00000000E+00
  0.00000000E+00  0.00000000E+00  0.00000000E+00
  0.00000000E+00  0.00000000E+00  0.00000000E+00
  0.00000000E+00  0.00000000E+00  0.00000000E+00
  0.00000000E+00  0.00000000E+00  0.00000000E+00
  0.00000000E+00  0.00000000E+00  0.00000000E+00
  0.00000000E+00  0.00000000E+00  0.00000000E+00
  0.00000000E+00  0.00000000E+00  0.00000000E+00
  0.00000000E+00  0.00000000E+00  0.00000000E+00
  0.00000000E+00  0.00000000E+00  0.00000000E+00
  0.00000000E+00  0.00000000E+00  0.00000000E+00
  0.00000000E+00  0.00000000E+00  0.00000000E+00
  0.00000000E+00  0.00000000E+00  0.00000000E+00
  0.00000000E+00  0.00000000E+00  0.00000000E+00
  0.00000000E+00  0.00000000E+00  0.00000000E+00
  0.00000000E+00  0.00000000E+00  0.00000000E+00
  0.00000000E+00  0.00000000E+00  0.00000000E+00
  0.00000000E+00  0.00000000E+00  0.00000000E+00
  0.00000000E+00  0.00000000E+00  0.00000000E+00
  0.00000000E+00  0.00000000E+00  0.00000000E+00
  0.00000000E+00  0.00000000E+00  0.00000000E+00
  0.00000000E+00  0.00000000E+00  0.00000000E+00
  0.00000000E+00  0.00000000E+00  0.00000000E+00
  0.00000000E+00  0.00000000E+00  0.00000000E+00
  0.00000000E+00  0.00000000E+00  0.00000000E+00
  0.00000000E+00  0.00000000E+00  0.00000000E+00
  0.00000000E+00  0.00000000E+00  0.00000000E+00
  0.00000000E+00  0.00000000E+00  0.00000000E+00
  0.00000000E+00  0.00000000E+00  0.00000000E+00
  0.00000000E+00  0.00000000E+00  0.00000000E+00
  0.00000000E+00  0.00000000E+00  0.00000000E+00
  0.00000000E+00  0.00000000E+00  0.00000000E+00
  0.00000000E+00  0.00000000E+00  0.00000000E+00
  0.00000000E+00  0.00000000E+00  0.00000000E+00
  0.00000000E+00  0.00000000E+00  0.00000000E+00
  0.00000000E+00  0.00000000E+00  0.00000000E+00
  0.00000000E+00  0.00000000E+00  0.00000000E+00
  0.00000000E+00  0.00000000E+00  0.00000000E+00
  0.00000000E+00  0.00000000E+00  0.00000000E+00
  0.00000000E+00  0.00000000E+00  0.00000000E+00
  0.00000000E+00  0.00000000E+00  0.00000000E+00
  0.00000000E+00  0.00000000E+00  0.00000000E+00
  0.00000000E+00  0.00000000E+00  0.00000000E+00
  0.00000000E+00  0.00000000E+00  0.00000000E+00
  0.00000000E+00  0.00000000E+00  0.00000000E+00
  0.00000000E+00  0.00000000E+00  0.00000000E+00
  0.00000000E+00  0.00000000E+00  0.00000000E+00
  0.00000000E+00  0.00000000E+00  0.00000000E+00
  0.00000000E+00  0.00000000E+00  0.00000000E+00
  0.00000000E+00  0.00000000E+00  0.00000000E+00
  0.00000000E+00  0.00000000E+00  0.00000000E+00
  0.00000000E+00  0.00000000E+00  0.00000000E+00
  0.00000000E+00  0.00000000E+00  0.00000000E+00
  0.00000000E+00  0.00000000E+00  0.00000000E+00
  0.00000000E+00  0.00000000E+00  0.00000000E+00
  0.00000000E+00  0.00000000E+00  0.00000000E+00
  0.00000000E+00  0.00000000E+00  0.00000000E+00
  0.00000000E+00  0.00000000E+00  0.00000000E+00
  0.00000000E+00  0.00000000E+00  0.00000000E+00
  0.00000000E+00  0.00000000E+00  0.00000000E+00
  0.00000000E+00  0.00000000E+00  0.00000000E+00
  0.00000000E+00  0.00000000E+00  0.00000000E+00
  0.00000000E+00  0.00000000E+00  0.00000000E+00
  0.00000000E+00  0.00000000E+00  0.00000000E+00
  0.00000000E+00  0.00000000E+00  0.00000000E+00
  0.00000000E+00  0.00000000E+00  0.00000000E+00
  0.00000000E+00  0.00000000E+00  0.00000000E+00
  0.00000000E+00  0.00000000E+00  0.00000000E+00
  0.00000000E+00  0.00000000E+00  0.00000000E+00
  0.00000000E+00  0.00000000E+00  0.00000000E+00
  0.00000000E+00  0.00000000E+00  0.00000000E+00
  0.00000000E+00  0.00000000E+00  0.00000000E+00
  0.00000000E+00  0.00000000E+00  0.00000000E+00
  0.00000000E+00  0.00000000E+00  0.00000000E+00
  0.00000000E+00  0.00000000E+00  0.00000000E+00
  0.00000000E+00  0.00000000E+00  0.00000000E+00
  0.00000000E+00  0.00000000E+00  0.00000000E+00
  0.00000000E+00  0.00000000E+00  0.00000000E+00
  0.00000000E+00  0.00000000E+00  0.00000000E+00
  0.00000000E+00  0.00000000E+00  0.00000000E+00
  0.00000000E+00  0.00000000E+00  0.00000000E+00
  0.00000000E+00  0.00000000E+00  0.00000000E+00
  0.00000000E+00  0.00000000E+00  0.00000000E+00
  0.00000000E+00  0.00000000E+00  0.00000000E+00
  0.00000000E+00  0.00000000E+00  0.00000000E+00
  0.00000000E+00  0.00000000E+00  0.00000000E+00
  0.00000000E+00  0.00000000E+00  0.00000000E+00
  0.00000000E+00  0.00000000E+00  0.00000000E+00
  0.00000000E+00  0.00000000E+00  0.00000000E+00
  0.00000000E+00  0.00000000E+00  0.00000000E+00
  0.00000000E+00  0.00000000E+00  0.00000000E+00
  0.00000000E+00  0.00000000E+00  0.00000000E+00
  0.00000000E+00  0.00000000E+00  0.00000000E+00
  0.00000000E+00  0.00000000E+00  0.00000000E+00
  0.00000000E+00  0.00000000E+00  0.00000000E+00
  0.00000000E+00  0.00000000E+00  0.00000000E+00
  0.00000000E+00  0.00000000E+00  0.00000000E+00
  0.00000000E+00  0.00000000E+00  0.00000000E+00
  0.00000000E+00  0.00000000E+00  0.00000000E+00
  0.00000000E+00  0.00000000E+00  0.00000000E+00
  0.00000000E+00  0.00000000E+00  0.00000000E+00
  0.00000000E+00  0.00000000E+00  0.00000000E+00
  0.00000000E+00  0.00000000E+00  0.00000000E+00
  0.00000000E+00  0.00000000E+00  0.00000000E+00
  0.00000000E+00  0.00000000E+00  0.00000000E+00
  0.00000000E+00  0.00000000E+00  0.00000000E+00
  0.00000000E+00  0.00000000E+00  0.00000000E+00
  0.00000000E+00  0.00000000E+00  0.00000000E+00
  0.00000000E+00  0.00000000E+00  0.00000000E+00
  0.00000000E+00  0.00000000E+00  0.00000000E+00
  0.00000000E+00  0.00000000E+00  0.00000000E+00
  0.00000000E+00  0.00000000E+00  0.00000000E+00
  0.00000000E+00  0.00000000E+00  0.00000000E+00
  0.00000000E+00  0.00000000E+00  0.00000000E+00
  0.00000000E+00  0.00000000E+00  0.00000000E+00
  0.00000000E+00  0.00000000E+00  0.00000000E+00
  0.00000000E+00  0.00000000E+00  0.00000000E+00
  0.00000000E+00  0.00000000E+00  0.00000000E+00
  0.00000000E+00  0.00000000E+00  0.00000000E+00
  0.00000000E+00  0.00000000E+00  0.00000000E+00
  0.00000000E+00  0.00000000E+00  0.00000000E+00
  0.00000000E+00  0.00000000E+00  0.00000000E+00
  0.00000000E+00  0.00000000E+00  0.00000000E+00
  0.00000000E+00  0.00000000E+00  0.00000000E+00
  0.00000000E+00  0.00000000E+00  0.00000000E+00
  0.00000000E+00  0.00000000E+00  0.00000000E+00
  0.00000000E+00  0.00000000E+00  0.00000000E+00
  0.00000000E+00  0.00000000E+00  0.00000000E+00
  0.00000000E+00  0.00000000E+00  0.00000000E+00
  0.00000000E+00  0.00000000E+00  0.00000000E+00
  0.00000000E+00  0.00000000E+00  0.00000000E+00
  0.00000000E+00  0.00000000E+00  0.00000000E+00
  0.00000000E+00  0.00000000E+00  0.00000000E+00
  0.00000000E+00  0.00000000E+00  0.00000000E+00
  0.00000000E+00  0.00000000E+00  0.00000000E+00
  0.00000000E+00  0.00000000E+00  0.00000000E+00
  0.00000000E+00  0.00000000E+00  0.00000000E+00
  0.00000000E+00  0.00000000E+00  0.00000000E+00
  0.00000000E+00  0.00000000E+00  0.00000000E+00
  0.00000000E+00  0.00000000E+00  0.00000000E+00
