supercell of POSCAR                     
   1.07329600000000     
     9.1016125577399993   -5.3128209557800004   -9.4184911254399992
     9.0821131104399999    5.2871675818400004    9.4140884809200003
    -1.5053809694200000   -7.9210976524300012    4.6939078171600004
   Al   Sc   N 
    71    24    96
Direct
  0.2989815316711102  0.2921437944365977  0.5499553173969431
  0.1424140133331591  0.2436752820589732  0.3082936906569387
  0.3077205868263277  0.4094240100161173  0.3090761279617311
  0.4613532953585491  0.3314078466504853  0.8016813264172598
  0.1354467967186537  0.5002146644125958  0.7837572417573995
  0.2953869363861870  0.1716405412060666  0.7939374343164403
  0.4689876928996242  0.4489142878680568  0.5379405607977716
  0.1417347095061956  0.1200153802403392  0.5417559854559144
  0.4755088986754146  0.0737013278988670  0.2972631109794008
  0.2767397469111756  0.1092429697951971  0.3375261092145365
  0.1144625988473535  0.0691790894067807  0.0928489540311688
  0.1117547057966135  0.1953705511461905  0.8250089447680509
  0.1103803450250922  0.3246499188614962  0.5872898649206277
  0.2698318342191186  0.4856121438030243  0.5774572523876884
  0.4473919583217096  0.2793337446748367  0.3400547132707814
  0.1120420403933551  0.4419935728785234  0.3341752878176223
  0.4518080999103518  0.4050516785618399  0.1046882529483639
  0.8014929307390162  0.2861518512819643  0.5389617558710427
  0.6412257002032860  0.2422418381609006  0.3047665445786549
  0.8073164389239622  0.4070680630007004  0.3010144711215332
  0.9649970742661793  0.3267015122222787  0.7893849334701244
  0.6385556392852365  0.4976792715143503  0.7892259045477843
  0.7987357325906501  0.1625497513243204  0.7809226666348863
  0.9690719253818330  0.4474005260330429  0.5327320684668777
  0.6398278313048777  0.1189505298133184  0.5393468216761050
  0.9767345790809614  0.0725026125475452  0.2937684694682829
  0.7766144714359271  0.1073351533878792  0.3336874598080541
  0.6137172889542555  0.0676070308465953  0.0932980489765569
  0.6117311251012367  0.1967155135666303  0.8234042429570181
  0.7738202570493371  0.3578812110575242  0.8210421783767643
  0.6091489711702920  0.3242863448585567  0.5908939854344695
  0.7719737795664301  0.4849216061277133  0.5786856489076939
  0.9449268798618462  0.2768031838931222  0.3327194356188627
  0.6126566790761956  0.4450934615905027  0.3414443441990258
  0.9483613284196437  0.3995996183146815  0.0944423178797962
  0.3036251779064045  0.7874564712941847  0.5378618157615520
  0.1438276260335414  0.7387197232227791  0.2974922219766327
  0.3084441020771322  0.9080888169970649  0.3017097772856445
  0.4670940378960111  0.8273042161784119  0.7893587168373983
  0.1390529302480346  0.9978247961218116  0.7879984628563577
  0.2990646927022382  0.6635068909491864  0.7813717055059968
  0.4703430891578222  0.9493438026368963  0.5357861191472040
  0.1422369830805010  0.6196169961373457  0.5362536067795176
  0.4764167534794765  0.5736371706402394  0.2975696752884858
  0.2787867835419959  0.6091314234229230  0.3314179143750380
  0.1247248214958461  0.5535012985026810  0.0733951086410585
  0.1127659250310771  0.6998002339926899  0.8183046599764054
  0.2757615008495122  0.8594090554872835  0.8193048259105353
  0.1120169993380813  0.8243267766264282  0.5828736617209174
  0.2728629258640041  0.9875907084495026  0.5808302209008431
  0.4483886436832378  0.7785066230687647  0.3339979469194247
  0.1125634379010947  0.9440387031097401  0.3351578749282851
  0.4478073607893265  0.9020040665452598  0.0938017280773522
  0.8044656045283958  0.7858457390089626  0.5371543800617218
  0.6437014697581631  0.7414114632723781  0.3021884107428150
  0.8090304926038385  0.9066053570227126  0.3001682687953320
  0.9673731356847384  0.8269529404227640  0.7871775409370798
  0.6393349452055830  0.9967492501943269  0.7870217457978015
  0.8006260739649207  0.6628202585840768  0.7807896798314502
  0.9706443918350303  0.9480192559175720  0.5333348382413021
  0.6420672447828863  0.6194659584493820  0.5402308571879075
  0.9797084448684004  0.5712312563866107  0.2893777853679964
  0.7787987861565284  0.6073427798994118  0.3329647126513038
  0.6149275959195890  0.5684896662371699  0.0944565528233241
  0.6142373504471834  0.6969275824475005  0.8232145853537460
  0.7756714950818377  0.8581504471927772  0.8186028728526438
  0.6117333899642858  0.8234598597819911  0.5858296818178417
  0.7724133093263603  0.9848099680835745  0.5764995811665727
  0.9494488776754224  0.7768309422148860  0.3302298173466696
  0.6116020476559498  0.9437266894579110  0.3353107363748791
  0.9493066630947169  0.8998567374001354  0.0918680582400313
  0.4812692232498534  0.1981354273619047  0.0413028425023114
  0.1449422941628953  0.3573917174493744  0.0279358142703714
  0.3089813941820267  0.0268760041620695  0.0393154072774990
  0.2858594201142779  0.2331786561812876  0.0908369256390102
  0.4457797908998202  0.0244853619820447  0.8242655995124508
  0.4406184725112539  0.1572626837393258  0.5805694173505032
  0.9796705945270361  0.1961767245989776  0.0383200159844819
  0.6378013960431517  0.3662066611589907  0.0377246867091543
  0.8093696089688294  0.0235777400110990  0.0378571717078486
  0.7808164439730660  0.2293270896090078  0.0792510853221629
  0.9446983056202711  0.0216680936404785  0.8207079016758385
  0.9445165081156262  0.1530260982908231  0.5730540594913052
  0.4815311593228628  0.6955465276386903  0.0370238416699209
  0.1424287201148502  0.8656607346377925  0.0357754154622398
  0.3121645374466908  0.5175694631872858  0.0310001691244111
  0.2854429571367234  0.7289307319838656  0.0780074665474686
  0.4464864402611326  0.5220206118045638  0.8221597206617446
  0.4447819562918269  0.6531117541269253  0.5752290129443125
  0.9877927662821477  0.6910967024089700  0.0321747018571230
  0.6417950485119235  0.8636796100634214  0.0357733458542810
  0.8101042647278121  0.5230542087883592  0.0376968389334849
  0.7877719244915866  0.7284088731797667  0.0777323398194483
  0.9440911073074005  0.5204920802053081  0.8188666888954614
  0.9463012875798569  0.6513834071258700  0.5695460012255111
  0.2298450489964097  0.3711111015430077  0.6114388773701123
  0.0699513449834015  0.3224514921699750  0.3939396687053431
  0.2390412138662512  0.4928958622784734  0.3874394341303855
  0.4257615554317269  0.2888311694739798  0.1557226928693893
  0.0715029685824220  0.4452411011299091  0.1463990257357537
  0.2376251595365062  0.1040317222980178  0.1520304776944315
  0.4192342467607517  0.4127133941033705  0.9227769662756842
  0.0800313861896313  0.0772602118888983  0.8981939214724051
  0.2285135336471527  0.2364442762200483  0.8980786394582623
  0.3996354858681741  0.0234443601921654  0.6204057297670857
  0.0824880132319379  0.2022201233990444  0.6361461524085499
  0.4055957864600614  0.1559045001652279  0.3706854174891276
  0.2171261018105923  0.1900931218432689  0.4367300098437283
  0.0565732558151026  0.1463966552383411  0.1978172561249849
  0.2177470531466312  0.3173293308758218  0.2071193467219885
  0.3725426174559345  0.1159034210867702  0.9175279924444837
  0.0393861103388176  0.2710673102298315  0.9005608675369530
  0.1862477626652250  0.4666181325226475  0.9383465624358109
  0.3706114835480818  0.2438603362631966  0.6878079054911339
  0.0374148275283517  0.4062935561761165  0.6823808202901489
  0.2116062142582251  0.0695515648421576  0.6775665796665820
  0.3820981627898803  0.3542269649676939  0.4373274057868315
  0.0483057673720282  0.0254070198561678  0.4353718470771781
  0.3882788900193859  0.4773063698953735  0.2064434616957058
  0.7376927423201991  0.3667541825817580  0.6320859657984599
  0.5764211072031387  0.3245859149096901  0.3991693947204809
  0.7406466049432652  0.4887817231082110  0.3900608319831775
  0.9161809091759778  0.2845721893411408  0.1475810327595752
  0.5768971372727876  0.4542811554992383  0.1554798966950486
  0.7373594575280720  0.1031614736160975  0.1479288964418544
  0.8993532014396024  0.3986513109843912  0.9020459916670092
  0.5852658045597607  0.0807020576139053  0.8980195728277920
  0.7351268441056575  0.2423601296828934  0.8725139429822164
  0.8982839065910682  0.0216190599345580  0.6165769577854263
  0.5822803666992797  0.2021849352291269  0.6351658244360223
  0.9040940876122789  0.1540072056578623  0.3656471304303253
  0.7161575993844878  0.1892894568066694  0.4328989750552523
  0.5567479121196683  0.1448023763115032  0.1990235398327300
  0.7151419851939451  0.3148478920992090  0.1978174908300332
  0.8694927302125635  0.1133331343340132  0.9144362754332889
  0.5437789142993736  0.2731214392110175  0.9040442281683809
  0.7091258396528843  0.4384454600928720  0.9047006247608422
  0.8713924187786901  0.2399873703953048  0.6782318156798297
  0.5405772755648997  0.4066448353702583  0.6852381960896281
  0.7108985011996225  0.0668273923224021  0.6727872267245729
  0.8791379753523856  0.3532417035610393  0.4309595006151881
  0.5484649150709302  0.0245843083172943  0.4351323644173419
  0.8873359957904157  0.4750301678549604  0.1977771429427619
  0.2395272009738463  0.8683979709050291  0.6302071505678626
  0.0768336004975581  0.8235705777436948  0.3912416943658670
  0.2404425738705172  0.9887940480388693  0.3904504683928565
  0.4227079015593702  0.7874832570435473  0.1486552848259421
  0.0732287576848165  0.9520249270305001  0.1451618105854280
  0.2442223297702810  0.6071996658692598  0.1477738594783276
  0.4024763289796454  0.9001227303178467  0.9008555650592243
  0.0758876683999503  0.5888203019096707  0.8902537737522707
  0.2359010748947910  0.7448931471782814  0.8724988215997485
  0.3972144343280846  0.5235740768607400  0.6174391332725264
  0.0844043159134102  0.7049057972086601  0.6305109208464259
  0.4074445804110098  0.6578914643829421  0.3695312389217165
  0.2184396980975336  0.6915442784437005  0.4320946723446610
  0.0615794783442354  0.6402410530206808  0.1915466969596835
  0.2187559819513112  0.8158527661389599  0.1967867224570128
  0.3711806734398309  0.6160955988982835  0.9140090052498238
  0.0456018425616449  0.7774495350865323  0.9018920350185979
  0.2113983122998846  0.9402387711737461  0.9031738832780434
  0.3731346294323004  0.7421604760671059  0.6794007746519455
  0.0417806496403941  0.9054811329552663  0.6795059081327608
  0.2101672524339122  0.5703916055299700  0.6740340043988269
  0.3827153332629223  0.8554564701547136  0.4313813147972567
  0.0474468951664377  0.5256078809860441  0.4362275450172106
  0.3880913448954999  0.9772546258967409  0.1978526487055277
  0.7397789069437124  0.8665270194260515  0.6292401762923987
  0.5771039635828288  0.8241198739161746  0.3940926778864409
  0.7399488512828114  0.9874300626873662  0.3869248026392498
  0.9247876150811862  0.7843060448840689  0.1444337709198180
  0.5731221248726470  0.9507579695988611  0.1443691734755461
  0.7391066606258079  0.6043491015220255  0.1478087711850975
  0.9012895634511082  0.8987834455255026  0.8994650119366625
  0.5864225386940234  0.5838864813592153  0.8996812848164382
  0.7374898671777359  0.7437843225173566  0.8730309244316174
  0.8973260978874933  0.5220594225991135  0.6163434202952800
  0.5851566294405757  0.7037458570968482  0.6353607679434816
  0.9070093589651265  0.6548313691776499  0.3629016653640349
  0.7182096763497228  0.6895916732431147  0.4325085063459824
  0.5570861391211963  0.6460582338065919  0.1984440443627378
  0.7191618942184235  0.8137374962082546  0.1962829481362149
  0.8703377757864672  0.6142874849046152  0.9154319254833467
  0.5449255174340308  0.7741967932339335  0.9028768319643845
  0.7104022940551715  0.9381621693246061  0.9024429796268478
  0.8742035019201566  0.7397202581663649  0.6771900585537267
  0.5422376204265476  0.9052110852087480  0.6811297722482905
  0.7115615380948839  0.5676591169670004  0.6751080396950826
  0.8827442447252807  0.8533149868226317  0.4292053472256043
  0.5487421288591321  0.5266381891873451  0.4397932023064968
  0.8885209154435074  0.9749860103711185  0.1961776290061508
 
  0.00000000E+00  0.00000000E+00  0.00000000E+00
  0.00000000E+00  0.00000000E+00  0.00000000E+00
  0.00000000E+00  0.00000000E+00  0.00000000E+00
  0.00000000E+00  0.00000000E+00  0.00000000E+00
  0.00000000E+00  0.00000000E+00  0.00000000E+00
  0.00000000E+00  0.00000000E+00  0.00000000E+00
  0.00000000E+00  0.00000000E+00  0.00000000E+00
  0.00000000E+00  0.00000000E+00  0.00000000E+00
  0.00000000E+00  0.00000000E+00  0.00000000E+00
  0.00000000E+00  0.00000000E+00  0.00000000E+00
  0.00000000E+00  0.00000000E+00  0.00000000E+00
  0.00000000E+00  0.00000000E+00  0.00000000E+00
  0.00000000E+00  0.00000000E+00  0.00000000E+00
  0.00000000E+00  0.00000000E+00  0.00000000E+00
  0.00000000E+00  0.00000000E+00  0.00000000E+00
  0.00000000E+00  0.00000000E+00  0.00000000E+00
  0.00000000E+00  0.00000000E+00  0.00000000E+00
  0.00000000E+00  0.00000000E+00  0.00000000E+00
  0.00000000E+00  0.00000000E+00  0.00000000E+00
  0.00000000E+00  0.00000000E+00  0.00000000E+00
  0.00000000E+00  0.00000000E+00  0.00000000E+00
  0.00000000E+00  0.00000000E+00  0.00000000E+00
  0.00000000E+00  0.00000000E+00  0.00000000E+00
  0.00000000E+00  0.00000000E+00  0.00000000E+00
  0.00000000E+00  0.00000000E+00  0.00000000E+00
  0.00000000E+00  0.00000000E+00  0.00000000E+00
  0.00000000E+00  0.00000000E+00  0.00000000E+00
  0.00000000E+00  0.00000000E+00  0.00000000E+00
  0.00000000E+00  0.00000000E+00  0.00000000E+00
  0.00000000E+00  0.00000000E+00  0.00000000E+00
  0.00000000E+00  0.00000000E+00  0.00000000E+00
  0.00000000E+00  0.00000000E+00  0.00000000E+00
  0.00000000E+00  0.00000000E+00  0.00000000E+00
  0.00000000E+00  0.00000000E+00  0.00000000E+00
  0.00000000E+00  0.00000000E+00  0.00000000E+00
  0.00000000E+00  0.00000000E+00  0.00000000E+00
  0.00000000E+00  0.00000000E+00  0.00000000E+00
  0.00000000E+00  0.00000000E+00  0.00000000E+00
  0.00000000E+00  0.00000000E+00  0.00000000E+00
  0.00000000E+00  0.00000000E+00  0.00000000E+00
  0.00000000E+00  0.00000000E+00  0.00000000E+00
  0.00000000E+00  0.00000000E+00  0.00000000E+00
  0.00000000E+00  0.00000000E+00  0.00000000E+00
  0.00000000E+00  0.00000000E+00  0.00000000E+00
  0.00000000E+00  0.00000000E+00  0.00000000E+00
  0.00000000E+00  0.00000000E+00  0.00000000E+00
  0.00000000E+00  0.00000000E+00  0.00000000E+00
  0.00000000E+00  0.00000000E+00  0.00000000E+00
  0.00000000E+00  0.00000000E+00  0.00000000E+00
  0.00000000E+00  0.00000000E+00  0.00000000E+00
  0.00000000E+00  0.00000000E+00  0.00000000E+00
  0.00000000E+00  0.00000000E+00  0.00000000E+00
  0.00000000E+00  0.00000000E+00  0.00000000E+00
  0.00000000E+00  0.00000000E+00  0.00000000E+00
  0.00000000E+00  0.00000000E+00  0.00000000E+00
  0.00000000E+00  0.00000000E+00  0.00000000E+00
  0.00000000E+00  0.00000000E+00  0.00000000E+00
  0.00000000E+00  0.00000000E+00  0.00000000E+00
  0.00000000E+00  0.00000000E+00  0.00000000E+00
  0.00000000E+00  0.00000000E+00  0.00000000E+00
  0.00000000E+00  0.00000000E+00  0.00000000E+00
  0.00000000E+00  0.00000000E+00  0.00000000E+00
  0.00000000E+00  0.00000000E+00  0.00000000E+00
  0.00000000E+00  0.00000000E+00  0.00000000E+00
  0.00000000E+00  0.00000000E+00  0.00000000E+00
  0.00000000E+00  0.00000000E+00  0.00000000E+00
  0.00000000E+00  0.00000000E+00  0.00000000E+00
  0.00000000E+00  0.00000000E+00  0.00000000E+00
  0.00000000E+00  0.00000000E+00  0.00000000E+00
  0.00000000E+00  0.00000000E+00  0.00000000E+00
  0.00000000E+00  0.00000000E+00  0.00000000E+00
  0.00000000E+00  0.00000000E+00  0.00000000E+00
  0.00000000E+00  0.00000000E+00  0.00000000E+00
  0.00000000E+00  0.00000000E+00  0.00000000E+00
  0.00000000E+00  0.00000000E+00  0.00000000E+00
  0.00000000E+00  0.00000000E+00  0.00000000E+00
  0.00000000E+00  0.00000000E+00  0.00000000E+00
  0.00000000E+00  0.00000000E+00  0.00000000E+00
  0.00000000E+00  0.00000000E+00  0.00000000E+00
  0.00000000E+00  0.00000000E+00  0.00000000E+00
  0.00000000E+00  0.00000000E+00  0.00000000E+00
  0.00000000E+00  0.00000000E+00  0.00000000E+00
  0.00000000E+00  0.00000000E+00  0.00000000E+00
  0.00000000E+00  0.00000000E+00  0.00000000E+00
  0.00000000E+00  0.00000000E+00  0.00000000E+00
  0.00000000E+00  0.00000000E+00  0.00000000E+00
  0.00000000E+00  0.00000000E+00  0.00000000E+00
  0.00000000E+00  0.00000000E+00  0.00000000E+00
  0.00000000E+00  0.00000000E+00  0.00000000E+00
  0.00000000E+00  0.00000000E+00  0.00000000E+00
  0.00000000E+00  0.00000000E+00  0.00000000E+00
  0.00000000E+00  0.00000000E+00  0.00000000E+00
  0.00000000E+00  0.00000000E+00  0.00000000E+00
  0.00000000E+00  0.00000000E+00  0.00000000E+00
  0.00000000E+00  0.00000000E+00  0.00000000E+00
  0.00000000E+00  0.00000000E+00  0.00000000E+00
  0.00000000E+00  0.00000000E+00  0.00000000E+00
  0.00000000E+00  0.00000000E+00  0.00000000E+00
  0.00000000E+00  0.00000000E+00  0.00000000E+00
  0.00000000E+00  0.00000000E+00  0.00000000E+00
  0.00000000E+00  0.00000000E+00  0.00000000E+00
  0.00000000E+00  0.00000000E+00  0.00000000E+00
  0.00000000E+00  0.00000000E+00  0.00000000E+00
  0.00000000E+00  0.00000000E+00  0.00000000E+00
  0.00000000E+00  0.00000000E+00  0.00000000E+00
  0.00000000E+00  0.00000000E+00  0.00000000E+00
  0.00000000E+00  0.00000000E+00  0.00000000E+00
  0.00000000E+00  0.00000000E+00  0.00000000E+00
  0.00000000E+00  0.00000000E+00  0.00000000E+00
  0.00000000E+00  0.00000000E+00  0.00000000E+00
  0.00000000E+00  0.00000000E+00  0.00000000E+00
  0.00000000E+00  0.00000000E+00  0.00000000E+00
  0.00000000E+00  0.00000000E+00  0.00000000E+00
  0.00000000E+00  0.00000000E+00  0.00000000E+00
  0.00000000E+00  0.00000000E+00  0.00000000E+00
  0.00000000E+00  0.00000000E+00  0.00000000E+00
  0.00000000E+00  0.00000000E+00  0.00000000E+00
  0.00000000E+00  0.00000000E+00  0.00000000E+00
  0.00000000E+00  0.00000000E+00  0.00000000E+00
  0.00000000E+00  0.00000000E+00  0.00000000E+00
  0.00000000E+00  0.00000000E+00  0.00000000E+00
  0.00000000E+00  0.00000000E+00  0.00000000E+00
  0.00000000E+00  0.00000000E+00  0.00000000E+00
  0.00000000E+00  0.00000000E+00  0.00000000E+00
  0.00000000E+00  0.00000000E+00  0.00000000E+00
  0.00000000E+00  0.00000000E+00  0.00000000E+00
  0.00000000E+00  0.00000000E+00  0.00000000E+00
  0.00000000E+00  0.00000000E+00  0.00000000E+00
  0.00000000E+00  0.00000000E+00  0.00000000E+00
  0.00000000E+00  0.00000000E+00  0.00000000E+00
  0.00000000E+00  0.00000000E+00  0.00000000E+00
  0.00000000E+00  0.00000000E+00  0.00000000E+00
  0.00000000E+00  0.00000000E+00  0.00000000E+00
  0.00000000E+00  0.00000000E+00  0.00000000E+00
  0.00000000E+00  0.00000000E+00  0.00000000E+00
  0.00000000E+00  0.00000000E+00  0.00000000E+00
  0.00000000E+00  0.00000000E+00  0.00000000E+00
  0.00000000E+00  0.00000000E+00  0.00000000E+00
  0.00000000E+00  0.00000000E+00  0.00000000E+00
  0.00000000E+00  0.00000000E+00  0.00000000E+00
  0.00000000E+00  0.00000000E+00  0.00000000E+00
  0.00000000E+00  0.00000000E+00  0.00000000E+00
  0.00000000E+00  0.00000000E+00  0.00000000E+00
  0.00000000E+00  0.00000000E+00  0.00000000E+00
  0.00000000E+00  0.00000000E+00  0.00000000E+00
  0.00000000E+00  0.00000000E+00  0.00000000E+00
  0.00000000E+00  0.00000000E+00  0.00000000E+00
  0.00000000E+00  0.00000000E+00  0.00000000E+00
  0.00000000E+00  0.00000000E+00  0.00000000E+00
  0.00000000E+00  0.00000000E+00  0.00000000E+00
  0.00000000E+00  0.00000000E+00  0.00000000E+00
  0.00000000E+00  0.00000000E+00  0.00000000E+00
  0.00000000E+00  0.00000000E+00  0.00000000E+00
  0.00000000E+00  0.00000000E+00  0.00000000E+00
  0.00000000E+00  0.00000000E+00  0.00000000E+00
  0.00000000E+00  0.00000000E+00  0.00000000E+00
  0.00000000E+00  0.00000000E+00  0.00000000E+00
  0.00000000E+00  0.00000000E+00  0.00000000E+00
  0.00000000E+00  0.00000000E+00  0.00000000E+00
  0.00000000E+00  0.00000000E+00  0.00000000E+00
  0.00000000E+00  0.00000000E+00  0.00000000E+00
  0.00000000E+00  0.00000000E+00  0.00000000E+00
  0.00000000E+00  0.00000000E+00  0.00000000E+00
  0.00000000E+00  0.00000000E+00  0.00000000E+00
  0.00000000E+00  0.00000000E+00  0.00000000E+00
  0.00000000E+00  0.00000000E+00  0.00000000E+00
  0.00000000E+00  0.00000000E+00  0.00000000E+00
  0.00000000E+00  0.00000000E+00  0.00000000E+00
  0.00000000E+00  0.00000000E+00  0.00000000E+00
  0.00000000E+00  0.00000000E+00  0.00000000E+00
  0.00000000E+00  0.00000000E+00  0.00000000E+00
  0.00000000E+00  0.00000000E+00  0.00000000E+00
  0.00000000E+00  0.00000000E+00  0.00000000E+00
  0.00000000E+00  0.00000000E+00  0.00000000E+00
  0.00000000E+00  0.00000000E+00  0.00000000E+00
  0.00000000E+00  0.00000000E+00  0.00000000E+00
  0.00000000E+00  0.00000000E+00  0.00000000E+00
  0.00000000E+00  0.00000000E+00  0.00000000E+00
  0.00000000E+00  0.00000000E+00  0.00000000E+00
  0.00000000E+00  0.00000000E+00  0.00000000E+00
  0.00000000E+00  0.00000000E+00  0.00000000E+00
  0.00000000E+00  0.00000000E+00  0.00000000E+00
  0.00000000E+00  0.00000000E+00  0.00000000E+00
  0.00000000E+00  0.00000000E+00  0.00000000E+00
  0.00000000E+00  0.00000000E+00  0.00000000E+00
  0.00000000E+00  0.00000000E+00  0.00000000E+00
  0.00000000E+00  0.00000000E+00  0.00000000E+00
  0.00000000E+00  0.00000000E+00  0.00000000E+00
  0.00000000E+00  0.00000000E+00  0.00000000E+00
  0.00000000E+00  0.00000000E+00  0.00000000E+00
  0.00000000E+00  0.00000000E+00  0.00000000E+00
