supercell of POSCAR                     
   1.07329600000000     
     9.1016125577399993   -5.3128209557800004   -9.4184911254399992
     9.0821131104399999    5.2871675818400004    9.4140884809200003
    -1.5053809694200000   -7.9210976524300012    4.6939078171600004
   Al   Sc   N 
    71    24    96
Direct
  0.3005887198467079  0.2855792654704672  0.5378740611148203
  0.3100524143454990  0.4127344585423316  0.3022144465215533
  0.4662703831230530  0.3278673862385588  0.7933624118706604
  0.1395845059011691  0.4991973912423475  0.7884173016243494
  0.2989628877467112  0.1628857898692644  0.7812430522305718
  0.4692642222785395  0.4482290789889518  0.5371577190789409
  0.1436834399057290  0.1207066047032797  0.5373773650837705
  0.4758381660637454  0.0726772350969753  0.2929770260448308
  0.2748057606902492  0.1090473977182995  0.3343232417947917
  0.1099505948511919  0.0658289532036918  0.0901240870350151
  0.1135041222662849  0.1957032318373138  0.8216593256868094
  0.2738042134989129  0.3575156579161884  0.8200209939549481
  0.1097804553068187  0.3249360914207742  0.5871610569984611
  0.2715841989136720  0.4854201185553038  0.5799559043520333
  0.4456602026750218  0.2783768172554204  0.3338880763164269
  0.1099699328942521  0.4476270125900683  0.3385984894030685
  0.4474703403563751  0.4028143861023850  0.0982908497928605
  0.7998472280967022  0.2860469267554748  0.5391356133959277
  0.6406612583762339  0.2417222039036915  0.3031454839687910
  0.8053219571500918  0.4076335022811719  0.3022097305398646
  0.9653352339435131  0.3256272011103576  0.7916530698134352
  0.6394447862557868  0.4972388757897335  0.7874612035698476
  0.7981067653290879  0.1636647250265568  0.7808362875106170
  0.9770992858174807  0.4388628686431701  0.5243442773753131
  0.6386598744510152  0.1183899707458309  0.5392937531779793
  0.9718217978601871  0.0700670489053437  0.2937166172339545
  0.7762853235387084  0.1078922912948101  0.3357329890443452
  0.6148176570174329  0.0681562455706626  0.0923987540439839
  0.6110116571199242  0.1962725507335819  0.8224681464308929
  0.7735106004571364  0.3582530559211605  0.8204132282525620
  0.6087371138912445  0.3228845471789299  0.5875876811023062
  0.7738654628041530  0.4838976478380204  0.5778750777447996
  0.9440434753515348  0.2797944077044576  0.3377080720650198
  0.6105516284067107  0.4446483210103480  0.3377301705713904
  0.9455407985214421  0.4026972450320443  0.0978828593997179
  0.3046815500849149  0.7871201663672878  0.5393902224273077
  0.1433653206815819  0.7427514958136214  0.3032109843123578
  0.3084435322118253  0.9069157972368913  0.3005624112553207
  0.4685086407495405  0.8263855433528420  0.7899452133942688
  0.1406538118037872  0.9961094364880481  0.7863259321418923
  0.3006018080884516  0.6628024833545396  0.7838394322744477
  0.4706852921050739  0.9488186057901373  0.5353914924396221
  0.1428385406148962  0.6219693954330197  0.5401608685345067
  0.4790889712631596  0.5761056561242484  0.2980633406098576
  0.2778673708654011  0.6088580274477025  0.3356919836371333
  0.1143029263427024  0.5695083105741503  0.0945665200242232
  0.1147606267504386  0.6977703996334483  0.8238166907273055
  0.2769238416142201  0.8589253066133793  0.8203943761777879
  0.1121437489528603  0.8239192728401861  0.5868898022835580
  0.2722416787578297  0.9857980658679892  0.5763797503638628
  0.4483575884746784  0.7789369736816028  0.3352905758107383
  0.1114795866276168  0.9441425334668310  0.3355214133309303
  0.4476192095131708  0.9016051197952066  0.0926333016923238
  0.8051748401845984  0.7851791239953059  0.5405579199989674
  0.6432671938921786  0.7420540701778222  0.3052433874797416
  0.8069317692217268  0.9054789698930819  0.3044956671893431
  0.9683721108148617  0.8265357742935890  0.7883180823209699
  0.6409889719013151  0.9972486563090754  0.7889456062251696
  0.8024822438433787  0.6619088861970255  0.7814484794119210
  0.9709993842652338  0.9483405866552559  0.5365835222672217
  0.6431249605679881  0.6190702486621120  0.5413413450670532
  0.9759092203002240  0.5751534396641276  0.2938418589022618
  0.7774275270052087  0.6077197387304238  0.3335623576237481
  0.6152683986296736  0.5681404627551956  0.0940306662909904
  0.6153003722486758  0.6968630440766077  0.8242608441955781
  0.7773183381967996  0.8589613112850074  0.8217209655915241
  0.6125210650311885  0.8236869551637440  0.5878993342856660
  0.7733509524720859  0.9851972436378205  0.5799615059680292
  0.9477128353304494  0.7779792170527671  0.3342471540025898
  0.6116751297384013  0.9439299314566370  0.3365229785683184
  0.9486523369588866  0.9005089035892979  0.0956410052387326
  0.4790004002538240  0.1968147582330815  0.0388898501268287
  0.1370382831351407  0.3684618817307737  0.0316677208057641
  0.3073503017076860  0.0280011128141098  0.0396451951164991
  0.2787554843643036  0.2357334766598598  0.0858419778411488
  0.4466325302128169  0.0221789803043393  0.8217401462166478
  0.4381447365077946  0.1543819603011443  0.5710179303643983
  0.9788568110194404  0.1993143576806204  0.0399004498062965
  0.6399388203339882  0.3648982587598724  0.0368229975433536
  0.8142643649561379  0.0260884634464844  0.0415821720987068
  0.7822245994792638  0.2297514000027121  0.0799267827064085
  0.9478836603208762  0.0251290434577314  0.8271552412341876
  0.9454214042762032  0.1529753950746056  0.5748427039284962
  0.4828138519029537  0.6962071850232192  0.0393237846629901
  0.1438950690934107  0.8631599312189948  0.0364081326434658
  0.3083319615483333  0.5179374144904045  0.0424690180882763
  0.2860333769809031  0.7268873076995277  0.0800834127031962
  0.4455179196671892  0.5228634598078656  0.8255732480828897
  0.4460459809072503  0.6522379518008279  0.5749961866174615
  0.9822242770352219  0.6954700151732212  0.0344448391205603
  0.6426899242928670  0.8657783867306321  0.0375142743843995
  0.8107329390498847  0.5237605309131155  0.0351705314879851
  0.7845110069253280  0.7299792986930242  0.0818196661211061
  0.9498479988142705  0.5171286714896155  0.8160613760768953
  0.9480542244789376  0.6479265599981687  0.5706092615182001
  0.2376524201909191  0.3676312475517776  0.6307270608377138
  0.0546536551143149  0.3499616351164150  0.4218833925008454
  0.2398220250149876  0.4914159611537841  0.3924032841074805
  0.4206858786258891  0.2875327695856953  0.1491801139293116
  0.0691404440616097  0.4548166596401018  0.1475148370014807
  0.2338024213862511  0.1048725984621797  0.1479703719229519
  0.4011394232844410  0.4013490257378294  0.9054893906342798
  0.0868616837128542  0.0791654542913776  0.8913170127184884
  0.2364004441232268  0.2422618476163265  0.8728753307174841
  0.3991039909358420  0.0223384162648372  0.6184367908803878
  0.0839638010481991  0.2038017414150346  0.6332727789436277
  0.4065353744507050  0.1551365605730126  0.3616796732030068
  0.2294814640958336  0.1828478594842977  0.4507297474137388
  0.0320905194590466  0.1243140952514068  0.1693833397677906
  0.2307431736381176  0.3401893928515278  0.1712777626170023
  0.3724673283430775  0.1128347130166034  0.9127305399831158
  0.0434331142455662  0.2713993772373939  0.8998023000711086
  0.2100065357746885  0.4405701894823366  0.8988542131424353
  0.3743313821267762  0.2445055027695915  0.6849507614787598
  0.0386566213899613  0.4098976942358306  0.6945682966339959
  0.2115341990859889  0.0655067936583009  0.6749709234194228
  0.3813273491673854  0.3556340743292452  0.4325709163775073
  0.0471953367858404  0.0251095640714709  0.4359286959329651
  0.3943114736525644  0.4820760420569314  0.2043438350884443
  0.7357802709339012  0.3664040301862457  0.6322209260310316
  0.5743961552358243  0.3245919661155199  0.3956870377103243
  0.7378399212279447  0.4893384205851845  0.3891284373835475
  0.9168639250185748  0.2887350642828608  0.1524317933440500
  0.5731034983591670  0.4522483354729232  0.1468353262602662
  0.7382527333538178  0.1036775629097164  0.1492413641470733
  0.8987808581265142  0.3987464431455763  0.9042019907174819
  0.5852711930985990  0.0807554566200963  0.8976787436071092
  0.7338110186596580  0.2434590023698249  0.8731635341670483
  0.8993194505470612  0.0218520498467996  0.6223263017193617
  0.5797960313836370  0.2015931670147353  0.6342254793138054
  0.9032428647610544  0.1554386832194155  0.3695889948444133
  0.7139384120654029  0.1890767485463698  0.4333140653426923
  0.5566580690006546  0.1450804230272240  0.1956092938141438
  0.7145990096895574  0.3147421578564433  0.1973940359078199
  0.8683156211913641  0.1163582222275039  0.9130955976745696
  0.5437613735078202  0.2737108743003063  0.9052252277510036
  0.7090370022805530  0.4390648275724303  0.9043274913884218
  0.8712832483525190  0.2410023636722514  0.6785363281422718
  0.5409139171248682  0.4061923341988631  0.6844099081675807
  0.7103153599582157  0.0674416712657830  0.6732585366754975
  0.8726168514870380  0.3532923994911954  0.4312579937499876
  0.5474794656801905  0.0244143854541718  0.4341824642188215
  0.8855652338677586  0.4781602889435348  0.2004527130661842
  0.2404142306392529  0.8669940031510563  0.6310062591971644
  0.0758916482437186  0.8236405454511058  0.3951469422068712
  0.2397827917168982  0.9854961774002575  0.3861622661026587
  0.4227379905114006  0.7870045303345208  0.1494991771102718
  0.0738941347478885  0.9457111160490683  0.1446494506103448
  0.2382545471788262  0.6026989968145813  0.1498561120873205
  0.4037688327946327  0.8982510757386493  0.8998123910253071
  0.0856334264744802  0.5842156086916219  0.9003304008425559
  0.2381009061559496  0.7441326625720777  0.8755894553160104
  0.3983331176301306  0.5226152877436689  0.6224399881725162
  0.0860250959565860  0.7048402323776202  0.6373336255681608
  0.4065522832504556  0.6576512843659401  0.3693485314287699
  0.2186526755640585  0.6919889979322420  0.4335020565820713
  0.0569819255448323  0.6479171243831843  0.1970694764148249
  0.2199744473876351  0.8124647563289500  0.1975368900791921
  0.3704328610699648  0.6143805928792432  0.9210498090519010
  0.0457432768928783  0.7745652462185575  0.9032674033767734
  0.2122207881095193  0.9384820342254088  0.9039383820986870
  0.3745748433533507  0.7400847971245597  0.6802831652597163
  0.0426182736401088  0.9040499805245332  0.6810616175620581
  0.2116754403037362  0.5694517028018566  0.6751538973630673
  0.3829264560617744  0.8548865832449337  0.4319988314307110
  0.0474359915647682  0.5351416706274890  0.4379072766142613
  0.3872410456525088  0.9760380296784703  0.1953907871936451
  0.7401442504133229  0.8663808720151494  0.6321817583436200
  0.5764596706613148  0.8241266598595161  0.3963352727439968
  0.7393501033369105  0.9878117468104932  0.3904851401780505
  0.9208079066342876  0.7846595478769416  0.1480621117796090
  0.5728177146686875  0.9514378350157244  0.1452283985800094
  0.7387506151113570  0.6039251348347250  0.1471721597027695
  0.9031695599625138  0.8995699813138813  0.9015248627564105
  0.5846486788252179  0.5821039508143713  0.8990454369833145
  0.7386247410937941  0.7430917006578142  0.8746077474926608
  0.8995015587668078  0.5186708675346026  0.6153106190035018
  0.5854024086718184  0.7032820934054627  0.6365735627187092
  0.9041876564107909  0.6566551728237755  0.3662822705439908
  0.7176854058443070  0.6900527216716341  0.4341663394387894
  0.5588678999392016  0.6466770369202024  0.1992682775690326
  0.7163745472465521  0.8139508187130957  0.1994192473967971
  0.8736063878776861  0.6117870010586159  0.9119403143440721
  0.5463573516408786  0.7739454672593453  0.9046540058620209
  0.7127930461267837  0.9398976058399526  0.9057954315676326
  0.8755611860930514  0.7386076819449556  0.6786028579604633
  0.5428359527310036  0.9053393694568896  0.6824589353974844
  0.7124657182840437  0.5673445092082900  0.6753834219698049
  0.8818700712664409  0.8536929297131621  0.4336248933885329
  0.5484280346286212  0.5270965523448297  0.4402018798561329
  0.8840176299254807  0.9702095433926772  0.2009357542238419
 
  0.00000000E+00  0.00000000E+00  0.00000000E+00
  0.00000000E+00  0.00000000E+00  0.00000000E+00
  0.00000000E+00  0.00000000E+00  0.00000000E+00
  0.00000000E+00  0.00000000E+00  0.00000000E+00
  0.00000000E+00  0.00000000E+00  0.00000000E+00
  0.00000000E+00  0.00000000E+00  0.00000000E+00
  0.00000000E+00  0.00000000E+00  0.00000000E+00
  0.00000000E+00  0.00000000E+00  0.00000000E+00
  0.00000000E+00  0.00000000E+00  0.00000000E+00
  0.00000000E+00  0.00000000E+00  0.00000000E+00
  0.00000000E+00  0.00000000E+00  0.00000000E+00
  0.00000000E+00  0.00000000E+00  0.00000000E+00
  0.00000000E+00  0.00000000E+00  0.00000000E+00
  0.00000000E+00  0.00000000E+00  0.00000000E+00
  0.00000000E+00  0.00000000E+00  0.00000000E+00
  0.00000000E+00  0.00000000E+00  0.00000000E+00
  0.00000000E+00  0.00000000E+00  0.00000000E+00
  0.00000000E+00  0.00000000E+00  0.00000000E+00
  0.00000000E+00  0.00000000E+00  0.00000000E+00
  0.00000000E+00  0.00000000E+00  0.00000000E+00
  0.00000000E+00  0.00000000E+00  0.00000000E+00
  0.00000000E+00  0.00000000E+00  0.00000000E+00
  0.00000000E+00  0.00000000E+00  0.00000000E+00
  0.00000000E+00  0.00000000E+00  0.00000000E+00
  0.00000000E+00  0.00000000E+00  0.00000000E+00
  0.00000000E+00  0.00000000E+00  0.00000000E+00
  0.00000000E+00  0.00000000E+00  0.00000000E+00
  0.00000000E+00  0.00000000E+00  0.00000000E+00
  0.00000000E+00  0.00000000E+00  0.00000000E+00
  0.00000000E+00  0.00000000E+00  0.00000000E+00
  0.00000000E+00  0.00000000E+00  0.00000000E+00
  0.00000000E+00  0.00000000E+00  0.00000000E+00
  0.00000000E+00  0.00000000E+00  0.00000000E+00
  0.00000000E+00  0.00000000E+00  0.00000000E+00
  0.00000000E+00  0.00000000E+00  0.00000000E+00
  0.00000000E+00  0.00000000E+00  0.00000000E+00
  0.00000000E+00  0.00000000E+00  0.00000000E+00
  0.00000000E+00  0.00000000E+00  0.00000000E+00
  0.00000000E+00  0.00000000E+00  0.00000000E+00
  0.00000000E+00  0.00000000E+00  0.00000000E+00
  0.00000000E+00  0.00000000E+00  0.00000000E+00
  0.00000000E+00  0.00000000E+00  0.00000000E+00
  0.00000000E+00  0.00000000E+00  0.00000000E+00
  0.00000000E+00  0.00000000E+00  0.00000000E+00
  0.00000000E+00  0.00000000E+00  0.00000000E+00
  0.00000000E+00  0.00000000E+00  0.00000000E+00
  0.00000000E+00  0.00000000E+00  0.00000000E+00
  0.00000000E+00  0.00000000E+00  0.00000000E+00
  0.00000000E+00  0.00000000E+00  0.00000000E+00
  0.00000000E+00  0.00000000E+00  0.00000000E+00
  0.00000000E+00  0.00000000E+00  0.00000000E+00
  0.00000000E+00  0.00000000E+00  0.00000000E+00
  0.00000000E+00  0.00000000E+00  0.00000000E+00
  0.00000000E+00  0.00000000E+00  0.00000000E+00
  0.00000000E+00  0.00000000E+00  0.00000000E+00
  0.00000000E+00  0.00000000E+00  0.00000000E+00
  0.00000000E+00  0.00000000E+00  0.00000000E+00
  0.00000000E+00  0.00000000E+00  0.00000000E+00
  0.00000000E+00  0.00000000E+00  0.00000000E+00
  0.00000000E+00  0.00000000E+00  0.00000000E+00
  0.00000000E+00  0.00000000E+00  0.00000000E+00
  0.00000000E+00  0.00000000E+00  0.00000000E+00
  0.00000000E+00  0.00000000E+00  0.00000000E+00
  0.00000000E+00  0.00000000E+00  0.00000000E+00
  0.00000000E+00  0.00000000E+00  0.00000000E+00
  0.00000000E+00  0.00000000E+00  0.00000000E+00
  0.00000000E+00  0.00000000E+00  0.00000000E+00
  0.00000000E+00  0.00000000E+00  0.00000000E+00
  0.00000000E+00  0.00000000E+00  0.00000000E+00
  0.00000000E+00  0.00000000E+00  0.00000000E+00
  0.00000000E+00  0.00000000E+00  0.00000000E+00
  0.00000000E+00  0.00000000E+00  0.00000000E+00
  0.00000000E+00  0.00000000E+00  0.00000000E+00
  0.00000000E+00  0.00000000E+00  0.00000000E+00
  0.00000000E+00  0.00000000E+00  0.00000000E+00
  0.00000000E+00  0.00000000E+00  0.00000000E+00
  0.00000000E+00  0.00000000E+00  0.00000000E+00
  0.00000000E+00  0.00000000E+00  0.00000000E+00
  0.00000000E+00  0.00000000E+00  0.00000000E+00
  0.00000000E+00  0.00000000E+00  0.00000000E+00
  0.00000000E+00  0.00000000E+00  0.00000000E+00
  0.00000000E+00  0.00000000E+00  0.00000000E+00
  0.00000000E+00  0.00000000E+00  0.00000000E+00
  0.00000000E+00  0.00000000E+00  0.00000000E+00
  0.00000000E+00  0.00000000E+00  0.00000000E+00
  0.00000000E+00  0.00000000E+00  0.00000000E+00
  0.00000000E+00  0.00000000E+00  0.00000000E+00
  0.00000000E+00  0.00000000E+00  0.00000000E+00
  0.00000000E+00  0.00000000E+00  0.00000000E+00
  0.00000000E+00  0.00000000E+00  0.00000000E+00
  0.00000000E+00  0.00000000E+00  0.00000000E+00
  0.00000000E+00  0.00000000E+00  0.00000000E+00
  0.00000000E+00  0.00000000E+00  0.00000000E+00
  0.00000000E+00  0.00000000E+00  0.00000000E+00
  0.00000000E+00  0.00000000E+00  0.00000000E+00
  0.00000000E+00  0.00000000E+00  0.00000000E+00
  0.00000000E+00  0.00000000E+00  0.00000000E+00
  0.00000000E+00  0.00000000E+00  0.00000000E+00
  0.00000000E+00  0.00000000E+00  0.00000000E+00
  0.00000000E+00  0.00000000E+00  0.00000000E+00
  0.00000000E+00  0.00000000E+00  0.00000000E+00
  0.00000000E+00  0.00000000E+00  0.00000000E+00
  0.00000000E+00  0.00000000E+00  0.00000000E+00
  0.00000000E+00  0.00000000E+00  0.00000000E+00
  0.00000000E+00  0.00000000E+00  0.00000000E+00
  0.00000000E+00  0.00000000E+00  0.00000000E+00
  0.00000000E+00  0.00000000E+00  0.00000000E+00
  0.00000000E+00  0.00000000E+00  0.00000000E+00
  0.00000000E+00  0.00000000E+00  0.00000000E+00
  0.00000000E+00  0.00000000E+00  0.00000000E+00
  0.00000000E+00  0.00000000E+00  0.00000000E+00
  0.00000000E+00  0.00000000E+00  0.00000000E+00
  0.00000000E+00  0.00000000E+00  0.00000000E+00
  0.00000000E+00  0.00000000E+00  0.00000000E+00
  0.00000000E+00  0.00000000E+00  0.00000000E+00
  0.00000000E+00  0.00000000E+00  0.00000000E+00
  0.00000000E+00  0.00000000E+00  0.00000000E+00
  0.00000000E+00  0.00000000E+00  0.00000000E+00
  0.00000000E+00  0.00000000E+00  0.00000000E+00
  0.00000000E+00  0.00000000E+00  0.00000000E+00
  0.00000000E+00  0.00000000E+00  0.00000000E+00
  0.00000000E+00  0.00000000E+00  0.00000000E+00
  0.00000000E+00  0.00000000E+00  0.00000000E+00
  0.00000000E+00  0.00000000E+00  0.00000000E+00
  0.00000000E+00  0.00000000E+00  0.00000000E+00
  0.00000000E+00  0.00000000E+00  0.00000000E+00
  0.00000000E+00  0.00000000E+00  0.00000000E+00
  0.00000000E+00  0.00000000E+00  0.00000000E+00
  0.00000000E+00  0.00000000E+00  0.00000000E+00
  0.00000000E+00  0.00000000E+00  0.00000000E+00
  0.00000000E+00  0.00000000E+00  0.00000000E+00
  0.00000000E+00  0.00000000E+00  0.00000000E+00
  0.00000000E+00  0.00000000E+00  0.00000000E+00
  0.00000000E+00  0.00000000E+00  0.00000000E+00
  0.00000000E+00  0.00000000E+00  0.00000000E+00
  0.00000000E+00  0.00000000E+00  0.00000000E+00
  0.00000000E+00  0.00000000E+00  0.00000000E+00
  0.00000000E+00  0.00000000E+00  0.00000000E+00
  0.00000000E+00  0.00000000E+00  0.00000000E+00
  0.00000000E+00  0.00000000E+00  0.00000000E+00
  0.00000000E+00  0.00000000E+00  0.00000000E+00
  0.00000000E+00  0.00000000E+00  0.00000000E+00
  0.00000000E+00  0.00000000E+00  0.00000000E+00
  0.00000000E+00  0.00000000E+00  0.00000000E+00
  0.00000000E+00  0.00000000E+00  0.00000000E+00
  0.00000000E+00  0.00000000E+00  0.00000000E+00
  0.00000000E+00  0.00000000E+00  0.00000000E+00
  0.00000000E+00  0.00000000E+00  0.00000000E+00
  0.00000000E+00  0.00000000E+00  0.00000000E+00
  0.00000000E+00  0.00000000E+00  0.00000000E+00
  0.00000000E+00  0.00000000E+00  0.00000000E+00
  0.00000000E+00  0.00000000E+00  0.00000000E+00
  0.00000000E+00  0.00000000E+00  0.00000000E+00
  0.00000000E+00  0.00000000E+00  0.00000000E+00
  0.00000000E+00  0.00000000E+00  0.00000000E+00
  0.00000000E+00  0.00000000E+00  0.00000000E+00
  0.00000000E+00  0.00000000E+00  0.00000000E+00
  0.00000000E+00  0.00000000E+00  0.00000000E+00
  0.00000000E+00  0.00000000E+00  0.00000000E+00
  0.00000000E+00  0.00000000E+00  0.00000000E+00
  0.00000000E+00  0.00000000E+00  0.00000000E+00
  0.00000000E+00  0.00000000E+00  0.00000000E+00
  0.00000000E+00  0.00000000E+00  0.00000000E+00
  0.00000000E+00  0.00000000E+00  0.00000000E+00
  0.00000000E+00  0.00000000E+00  0.00000000E+00
  0.00000000E+00  0.00000000E+00  0.00000000E+00
  0.00000000E+00  0.00000000E+00  0.00000000E+00
  0.00000000E+00  0.00000000E+00  0.00000000E+00
  0.00000000E+00  0.00000000E+00  0.00000000E+00
  0.00000000E+00  0.00000000E+00  0.00000000E+00
  0.00000000E+00  0.00000000E+00  0.00000000E+00
  0.00000000E+00  0.00000000E+00  0.00000000E+00
  0.00000000E+00  0.00000000E+00  0.00000000E+00
  0.00000000E+00  0.00000000E+00  0.00000000E+00
  0.00000000E+00  0.00000000E+00  0.00000000E+00
  0.00000000E+00  0.00000000E+00  0.00000000E+00
  0.00000000E+00  0.00000000E+00  0.00000000E+00
  0.00000000E+00  0.00000000E+00  0.00000000E+00
  0.00000000E+00  0.00000000E+00  0.00000000E+00
  0.00000000E+00  0.00000000E+00  0.00000000E+00
  0.00000000E+00  0.00000000E+00  0.00000000E+00
  0.00000000E+00  0.00000000E+00  0.00000000E+00
  0.00000000E+00  0.00000000E+00  0.00000000E+00
  0.00000000E+00  0.00000000E+00  0.00000000E+00
  0.00000000E+00  0.00000000E+00  0.00000000E+00
  0.00000000E+00  0.00000000E+00  0.00000000E+00
  0.00000000E+00  0.00000000E+00  0.00000000E+00
  0.00000000E+00  0.00000000E+00  0.00000000E+00
  0.00000000E+00  0.00000000E+00  0.00000000E+00
  0.00000000E+00  0.00000000E+00  0.00000000E+00
  0.00000000E+00  0.00000000E+00  0.00000000E+00
