supercell of POSCAR                     
   1.07329600000000     
     9.1016125577399993   -5.3128209557800004   -9.4184911254399992
     9.0821131104399999    5.2871675818400004    9.4140884809200003
    -1.5053809694200000   -7.9210976524300012    4.6939078171600004
   Al   Sc   N 
    72    24    95
Direct
  0.3133192874494668  0.2873741220575141  0.5391308512960649
  0.1439035392056027  0.2391739675868081  0.2889028680452199
  0.3097743925065828  0.4077696897967300  0.3012096694822901
  0.4682325273338748  0.3270833137674742  0.7905560214567231
  0.1659339860353626  0.5238069075280976  0.8147424661488429
  0.3001965580048420  0.1627755739742653  0.7813724119576122
  0.4719178731533944  0.4497633044759937  0.5358456534205729
  0.1405920676389627  0.1103563292713758  0.5389436174773579
  0.4749308914345463  0.0733867885946395  0.2953580808078868
  0.2769033364458124  0.1093086267346663  0.3357526228600705
  0.1141398712424930  0.0663814270403620  0.0923262401577034
  0.1137112537113083  0.1951733290465043  0.8209425427801307
  0.2772486452224143  0.3581935032627470  0.8178957321362006
  0.1382257909196767  0.2906169018970530  0.5480839947908862
  0.2745120680778825  0.4849275024021011  0.5765757333646349
  0.4490794613434304  0.2784331066876007  0.3334280282755770
  0.1141510892163780  0.4424658434829709  0.3344799014241673
  0.4492431088916859  0.4018845000348534  0.0950911580716038
  0.8006248336463102  0.2856943523559323  0.5387224881060035
  0.6417434886405005  0.2415985908725560  0.3037908843653625
  0.8031584416134976  0.4062365661032388  0.2978704431673549
  0.9432842760158024  0.3058783123951230  0.8197724095931775
  0.6392911683395397  0.4986537230859156  0.7887808010868937
  0.7941147208333277  0.1586409493330834  0.7811141173067284
  0.9545400515553553  0.4572546796720403  0.4987936648953166
  0.6407407361334734  0.1189767855457049  0.5390355423138899
  0.9751263954453719  0.0710463432113215  0.2954085739546883
  0.7763674073687454  0.1074888302051278  0.3339220078637055
  0.6134812632304829  0.0686142758518358  0.0944539631512455
  0.6126567316231899  0.1967363205184824  0.8236952288063719
  0.7698621318027676  0.3591044793714673  0.8198321538445512
  0.6103527127310002  0.3238944568665332  0.5868362254463975
  0.7711926882277922  0.4850588199337409  0.5801307887895959
  0.9483198519239124  0.2751477988127675  0.3321708505843830
  0.6113529309134051  0.4451638727789202  0.3375884924624089
  0.9482659458665026  0.4022372165162338  0.1001698737883245
  0.3031443944480898  0.7872131104766638  0.5386304225698879
  0.1425432907528901  0.7432761805772472  0.3044850956647949
  0.3076095289264984  0.9088485604025180  0.3030319964832202
  0.4673485897598937  0.8282524440444092  0.7906289081599169
  0.1391326832575928  0.9966453643678292  0.7888066858743912
  0.3045347243216128  0.6686956995030542  0.7820248973053054
  0.4696248030936445  0.9479755885479477  0.5368381266610243
  0.1421348240819782  0.6210059131755088  0.5391105212026019
  0.4774594023786349  0.5741940251002688  0.2962767722631980
  0.2779452309398209  0.6083804653320186  0.3342148578839144
  0.1146778988660131  0.5687627580430217  0.0972181564894328
  0.1126950110903522  0.7009287992516917  0.8218280681546588
  0.2751421135455061  0.8597584041986366  0.8210139630977835
  0.1106207569608202  0.8245523739609482  0.5868697031740879
  0.2729604702325119  0.9842640661563991  0.5798824225691135
  0.4466700199387148  0.7790112652758623  0.3350667228720781
  0.1106276260090837  0.9427730171588564  0.3353160682902399
  0.4463804424005176  0.9026041947404124  0.0951739776070255
  0.8018635739715165  0.7871990741647323  0.5402771849932719
  0.6413843726380577  0.7430926441660617  0.3053360381247785
  0.8066990991192000  0.9081723639859902  0.3031742239186812
  0.9655924711546504  0.8280268541102700  0.7913062900845418
  0.6376480221763927  0.9966358521426386  0.7884261365967120
  0.7986931198103022  0.6645639470351554  0.7847296895280422
  0.9686193829436647  0.9474061669843081  0.5360628390403761
  0.6421112477867368  0.6204572702862876  0.5413273082869310
  0.9761459752205113  0.5767208537033497  0.2926754185068887
  0.7767327233355275  0.6091813926280309  0.3359090757215100
  0.6141673044135842  0.5693866961299889  0.0942258262605833
  0.6129398721045192  0.6979467171681648  0.8248560019851041
  0.7739957520694247  0.8589579298994465  0.8210914565249254
  0.6105672813745215  0.8241935677197390  0.5882829645882097
  0.7711980834106456  0.9846846052906173  0.5783909543029466
  0.9464225482382673  0.7791756936066605  0.3361840713813677
  0.6100972313245734  0.9447285458602792  0.3373518404763018
  0.9463999332839634  0.9020964234218951  0.0948790802333619
  0.4822867423198147  0.1966663731143754  0.0384238067543450
  0.1405703498653637  0.3654844593541640  0.0317144891267844
  0.3080832525767860  0.0258008909238541  0.0405820710007987
  0.2860594292385485  0.2305062289441864  0.0766994574197923
  0.4454743365020377  0.0228836530443459  0.8250408646104432
  0.4469682406932165  0.1505927702988785  0.5741115618930834
  0.9829828804684837  0.1930181330807201  0.0403963902815860
  0.6399989679514775  0.3654637459070358  0.0371238485040379
  0.8087634899262284  0.0244240980475539  0.0379107929299778
  0.7838294412420481  0.2291828311013120  0.0800859520204398
  0.9459503230102229  0.0219350401288381  0.8217125164763246
  0.9442849548129786  0.1521210405426814  0.5730285849602552
  0.4809402449130644  0.6977099983339770  0.0393652650219423
  0.1406277460420355  0.8648264839430624  0.0372091343188998
  0.3136121200055015  0.5240467568503036  0.0431337455043845
  0.2838703023298379  0.7307894473744057  0.0818960710190737
  0.4473064275796261  0.5229000573764537  0.8226984185614015
  0.4459038959004786  0.6535422324520042  0.5732758103080329
  0.9798290177402080  0.6994601401840441  0.0403703722186890
  0.6394698798391971  0.8662852573009943  0.0380019217076537
  0.8084131116622899  0.5257763163161115  0.0413301525088343
  0.7816673931748781  0.7322266713711798  0.0838655411874356
  0.9451509457627125  0.5242474791887588  0.8273033452618535
  0.9438044335028124  0.6556840249511211  0.5774810967096755
  0.2441832679452531  0.3660655872941661  0.6286128393841324
  0.0770845628209855  0.3217363213523967  0.3896085894285548
  0.2404232668321100  0.4881448548241210  0.3882419524537610
  0.4218104180058901  0.2872963142006952  0.1487563764853803
  0.0728471780905764  0.4513811131906635  0.1444632749246892
  0.2365639493828837  0.1077930676477692  0.1516119790893029
  0.4019082825538902  0.4000312934495085  0.9020691634252742
  0.0840007717299471  0.0821983338649730  0.8988987307464953
  0.2355581828381119  0.2445020058453125  0.8716239214307819
  0.3982270944760984  0.0216325865138600  0.6221170877183937
  0.0842823074811037  0.1967375134124225  0.6331816074322418
  0.4035653417864822  0.1574470994417894  0.3691164375781142
  0.2125050157272810  0.1970270400722711  0.4398017671991852
  0.0562242270295599  0.1428231343021693  0.1978653553445469
  0.2178861904340437  0.3167990963141278  0.1926028425917394
  0.3698439850158906  0.1161632945054691  0.9186041120041821
  0.0431897185450580  0.2726933850778153  0.9003327922047717
  0.2124134274831206  0.4398278625163883  0.9015151149775349
  0.3758008783545534  0.2394328057901163  0.6804506841038460
  0.2120555596539901  0.0663524675159621  0.6761449382542892
  0.3843442142441020  0.3557754741045187  0.4301018764005136
  0.0463876748896155  0.0229564677060097  0.4351584892070903
  0.3898893747232535  0.4766908909466352  0.2005081975423408
  0.7387479489243418  0.3673571269917346  0.6312486658916043
  0.5763820072531303  0.3249501059147946  0.3954542689196998
  0.7407456699705151  0.4888962868317108  0.3906425384039238
  0.9224097097001902  0.2859886048868603  0.1471355777325343
  0.5733835532344074  0.4528251226097524  0.1470151742829913
  0.7374359204639731  0.1045798071137156  0.1482547631313622
  0.8996324256838051  0.3997360310627514  0.9040323989007746
  0.5837638149135316  0.0823752230894783  0.8993669954061545
  0.7362977106162916  0.2436963395449681  0.8743792904703014
  0.8977220163972532  0.0225942160007619  0.6195250735255016
  0.5850777543255390  0.2038973833300517  0.6358815692324882
  0.9052868686098350  0.1551105768009649  0.3669319041504835
  0.7167629970590781  0.1900504895183772  0.4329339215473169
  0.5557506396669396  0.1461190872724387  0.1994316796258957
  0.7161151311188974  0.3141407340008016  0.1966674723032966
  0.8712767674034581  0.1168981243964993  0.9153676548430383
  0.5450183637233081  0.2744829942288689  0.9043494986607215
  0.7100108704171220  0.4406597976806026  0.9057334241225021
  0.8688192737908480  0.2374416873784639  0.6781404663511026
  0.5420060887352918  0.4064436508517559  0.6833301989134029
  0.7089265692866888  0.0660660580614731  0.6738509918557227
  0.8799432296729321  0.3513607951359532  0.4278113523029887
  0.5459513685059392  0.0268283985557858  0.4376946311338301
  0.8879315373351702  0.4769140711211008  0.2025757305942051
  0.2379172890305981  0.8664709056644568  0.6315231589618264
  0.0747547285328167  0.8239028149482692  0.3954874622338309
  0.2382501972102915  0.9909753210191781  0.3909586750594158
  0.4198999109557278  0.7876937492869729  0.1496606012071808
  0.0716502375272654  0.9508545243234536  0.1452946419833339
  0.2380383426446144  0.6032888596011361  0.1472433273959197
  0.4007343592826942  0.8998560771163895  0.9023761870152640
  0.0851251927934058  0.5820232819100895  0.8967188280940164
  0.2360232247553711  0.7437464401320284  0.8742710775461902
  0.3995787810192297  0.5228567264857276  0.6199238991058849
  0.0830841246440599  0.7030186564125884  0.6340880096350006
  0.4051186311569026  0.6561590816352094  0.3666147862336544
  0.2169146505242665  0.6901504389947135  0.4323533498691319
  0.0564889393848276  0.6468222075505992  0.1965154571079140
  0.2166643296337796  0.8161009202088749  0.1995567819092798
  0.3694444891374360  0.6145791980589124  0.9160476513843179
  0.0431945741319737  0.7742033800331001  0.9040214558557338
  0.2097130620644307  0.9394133653529977  0.9056623382000666
  0.3748143525341661  0.7426824145643565  0.6782946717475227
  0.0405400841107308  0.9059007975642643  0.6836952520552444
  0.2152309418760296  0.5707715797582935  0.6718770960261864
  0.3805187322958474  0.8553694516991541  0.4320954124401410
  0.0498064941438159  0.5252213038709357  0.4333737868041325
  0.3859921745527615  0.9777380304881262  0.1989967404269137
  0.7381532886656004  0.8672415165770815  0.6321597250311797
  0.5743689950497313  0.8249680728341531  0.3968495520623989
  0.7385113385589150  0.9891880165928413  0.3897003038699012
  0.9190947082372887  0.7875945356677363  0.1509363842089755
  0.5708704208676352  0.9526938080498013  0.1470209990028408
  0.7380473894013946  0.6054623740478888  0.1502608679312232
  0.9006433016355260  0.9004976513036809  0.9026318521917460
  0.5847762330678918  0.5824910589937105  0.8992631065637156
  0.7361668556915006  0.7442088746866986  0.8769270278334389
  0.9018135552896354  0.5195518179700827  0.6214985998678344
  0.5845473637762097  0.7035867073443143  0.6368856958155860
  0.9057234107213858  0.6559903454414382  0.3698750554337238
  0.7169475104600735  0.6907536425720409  0.4341818775596593
  0.5564933163740591  0.6467590958571847  0.1981418060107103
  0.7153602920724538  0.8166030775976125  0.2001303966986328
  0.8719148163252157  0.6139723886304509  0.9162376943068651
  0.5437400434234121  0.7745244920657512  0.9048686130724803
  0.7093910025002543  0.9395074771732297  0.9046562951980803
  0.8722695426896294  0.7413661805533209  0.6817479813433636
  0.5409973568735538  0.9058323034377480  0.6834947048953239
  0.7128522097481778  0.5683689638906273  0.6759056304214539
  0.8802768840055890  0.8543932427751884  0.4330191575958438
  0.5490822161987978  0.5271593828897849  0.4377730369917003
  0.8862131615690672  0.9766061499121363  0.1984930367898556
 
  0.00000000E+00  0.00000000E+00  0.00000000E+00
  0.00000000E+00  0.00000000E+00  0.00000000E+00
  0.00000000E+00  0.00000000E+00  0.00000000E+00
  0.00000000E+00  0.00000000E+00  0.00000000E+00
  0.00000000E+00  0.00000000E+00  0.00000000E+00
  0.00000000E+00  0.00000000E+00  0.00000000E+00
  0.00000000E+00  0.00000000E+00  0.00000000E+00
  0.00000000E+00  0.00000000E+00  0.00000000E+00
  0.00000000E+00  0.00000000E+00  0.00000000E+00
  0.00000000E+00  0.00000000E+00  0.00000000E+00
  0.00000000E+00  0.00000000E+00  0.00000000E+00
  0.00000000E+00  0.00000000E+00  0.00000000E+00
  0.00000000E+00  0.00000000E+00  0.00000000E+00
  0.00000000E+00  0.00000000E+00  0.00000000E+00
  0.00000000E+00  0.00000000E+00  0.00000000E+00
  0.00000000E+00  0.00000000E+00  0.00000000E+00
  0.00000000E+00  0.00000000E+00  0.00000000E+00
  0.00000000E+00  0.00000000E+00  0.00000000E+00
  0.00000000E+00  0.00000000E+00  0.00000000E+00
  0.00000000E+00  0.00000000E+00  0.00000000E+00
  0.00000000E+00  0.00000000E+00  0.00000000E+00
  0.00000000E+00  0.00000000E+00  0.00000000E+00
  0.00000000E+00  0.00000000E+00  0.00000000E+00
  0.00000000E+00  0.00000000E+00  0.00000000E+00
  0.00000000E+00  0.00000000E+00  0.00000000E+00
  0.00000000E+00  0.00000000E+00  0.00000000E+00
  0.00000000E+00  0.00000000E+00  0.00000000E+00
  0.00000000E+00  0.00000000E+00  0.00000000E+00
  0.00000000E+00  0.00000000E+00  0.00000000E+00
  0.00000000E+00  0.00000000E+00  0.00000000E+00
  0.00000000E+00  0.00000000E+00  0.00000000E+00
  0.00000000E+00  0.00000000E+00  0.00000000E+00
  0.00000000E+00  0.00000000E+00  0.00000000E+00
  0.00000000E+00  0.00000000E+00  0.00000000E+00
  0.00000000E+00  0.00000000E+00  0.00000000E+00
  0.00000000E+00  0.00000000E+00  0.00000000E+00
  0.00000000E+00  0.00000000E+00  0.00000000E+00
  0.00000000E+00  0.00000000E+00  0.00000000E+00
  0.00000000E+00  0.00000000E+00  0.00000000E+00
  0.00000000E+00  0.00000000E+00  0.00000000E+00
  0.00000000E+00  0.00000000E+00  0.00000000E+00
  0.00000000E+00  0.00000000E+00  0.00000000E+00
  0.00000000E+00  0.00000000E+00  0.00000000E+00
  0.00000000E+00  0.00000000E+00  0.00000000E+00
  0.00000000E+00  0.00000000E+00  0.00000000E+00
  0.00000000E+00  0.00000000E+00  0.00000000E+00
  0.00000000E+00  0.00000000E+00  0.00000000E+00
  0.00000000E+00  0.00000000E+00  0.00000000E+00
  0.00000000E+00  0.00000000E+00  0.00000000E+00
  0.00000000E+00  0.00000000E+00  0.00000000E+00
  0.00000000E+00  0.00000000E+00  0.00000000E+00
  0.00000000E+00  0.00000000E+00  0.00000000E+00
  0.00000000E+00  0.00000000E+00  0.00000000E+00
  0.00000000E+00  0.00000000E+00  0.00000000E+00
  0.00000000E+00  0.00000000E+00  0.00000000E+00
  0.00000000E+00  0.00000000E+00  0.00000000E+00
  0.00000000E+00  0.00000000E+00  0.00000000E+00
  0.00000000E+00  0.00000000E+00  0.00000000E+00
  0.00000000E+00  0.00000000E+00  0.00000000E+00
  0.00000000E+00  0.00000000E+00  0.00000000E+00
  0.00000000E+00  0.00000000E+00  0.00000000E+00
  0.00000000E+00  0.00000000E+00  0.00000000E+00
  0.00000000E+00  0.00000000E+00  0.00000000E+00
  0.00000000E+00  0.00000000E+00  0.00000000E+00
  0.00000000E+00  0.00000000E+00  0.00000000E+00
  0.00000000E+00  0.00000000E+00  0.00000000E+00
  0.00000000E+00  0.00000000E+00  0.00000000E+00
  0.00000000E+00  0.00000000E+00  0.00000000E+00
  0.00000000E+00  0.00000000E+00  0.00000000E+00
  0.00000000E+00  0.00000000E+00  0.00000000E+00
  0.00000000E+00  0.00000000E+00  0.00000000E+00
  0.00000000E+00  0.00000000E+00  0.00000000E+00
  0.00000000E+00  0.00000000E+00  0.00000000E+00
  0.00000000E+00  0.00000000E+00  0.00000000E+00
  0.00000000E+00  0.00000000E+00  0.00000000E+00
  0.00000000E+00  0.00000000E+00  0.00000000E+00
  0.00000000E+00  0.00000000E+00  0.00000000E+00
  0.00000000E+00  0.00000000E+00  0.00000000E+00
  0.00000000E+00  0.00000000E+00  0.00000000E+00
  0.00000000E+00  0.00000000E+00  0.00000000E+00
  0.00000000E+00  0.00000000E+00  0.00000000E+00
  0.00000000E+00  0.00000000E+00  0.00000000E+00
  0.00000000E+00  0.00000000E+00  0.00000000E+00
  0.00000000E+00  0.00000000E+00  0.00000000E+00
  0.00000000E+00  0.00000000E+00  0.00000000E+00
  0.00000000E+00  0.00000000E+00  0.00000000E+00
  0.00000000E+00  0.00000000E+00  0.00000000E+00
  0.00000000E+00  0.00000000E+00  0.00000000E+00
  0.00000000E+00  0.00000000E+00  0.00000000E+00
  0.00000000E+00  0.00000000E+00  0.00000000E+00
  0.00000000E+00  0.00000000E+00  0.00000000E+00
  0.00000000E+00  0.00000000E+00  0.00000000E+00
  0.00000000E+00  0.00000000E+00  0.00000000E+00
  0.00000000E+00  0.00000000E+00  0.00000000E+00
  0.00000000E+00  0.00000000E+00  0.00000000E+00
  0.00000000E+00  0.00000000E+00  0.00000000E+00
  0.00000000E+00  0.00000000E+00  0.00000000E+00
  0.00000000E+00  0.00000000E+00  0.00000000E+00
  0.00000000E+00  0.00000000E+00  0.00000000E+00
  0.00000000E+00  0.00000000E+00  0.00000000E+00
  0.00000000E+00  0.00000000E+00  0.00000000E+00
  0.00000000E+00  0.00000000E+00  0.00000000E+00
  0.00000000E+00  0.00000000E+00  0.00000000E+00
  0.00000000E+00  0.00000000E+00  0.00000000E+00
  0.00000000E+00  0.00000000E+00  0.00000000E+00
  0.00000000E+00  0.00000000E+00  0.00000000E+00
  0.00000000E+00  0.00000000E+00  0.00000000E+00
  0.00000000E+00  0.00000000E+00  0.00000000E+00
  0.00000000E+00  0.00000000E+00  0.00000000E+00
  0.00000000E+00  0.00000000E+00  0.00000000E+00
  0.00000000E+00  0.00000000E+00  0.00000000E+00
  0.00000000E+00  0.00000000E+00  0.00000000E+00
  0.00000000E+00  0.00000000E+00  0.00000000E+00
  0.00000000E+00  0.00000000E+00  0.00000000E+00
  0.00000000E+00  0.00000000E+00  0.00000000E+00
  0.00000000E+00  0.00000000E+00  0.00000000E+00
  0.00000000E+00  0.00000000E+00  0.00000000E+00
  0.00000000E+00  0.00000000E+00  0.00000000E+00
  0.00000000E+00  0.00000000E+00  0.00000000E+00
  0.00000000E+00  0.00000000E+00  0.00000000E+00
  0.00000000E+00  0.00000000E+00  0.00000000E+00
  0.00000000E+00  0.00000000E+00  0.00000000E+00
  0.00000000E+00  0.00000000E+00  0.00000000E+00
  0.00000000E+00  0.00000000E+00  0.00000000E+00
  0.00000000E+00  0.00000000E+00  0.00000000E+00
  0.00000000E+00  0.00000000E+00  0.00000000E+00
  0.00000000E+00  0.00000000E+00  0.00000000E+00
  0.00000000E+00  0.00000000E+00  0.00000000E+00
  0.00000000E+00  0.00000000E+00  0.00000000E+00
  0.00000000E+00  0.00000000E+00  0.00000000E+00
  0.00000000E+00  0.00000000E+00  0.00000000E+00
  0.00000000E+00  0.00000000E+00  0.00000000E+00
  0.00000000E+00  0.00000000E+00  0.00000000E+00
  0.00000000E+00  0.00000000E+00  0.00000000E+00
  0.00000000E+00  0.00000000E+00  0.00000000E+00
  0.00000000E+00  0.00000000E+00  0.00000000E+00
  0.00000000E+00  0.00000000E+00  0.00000000E+00
  0.00000000E+00  0.00000000E+00  0.00000000E+00
  0.00000000E+00  0.00000000E+00  0.00000000E+00
  0.00000000E+00  0.00000000E+00  0.00000000E+00
  0.00000000E+00  0.00000000E+00  0.00000000E+00
  0.00000000E+00  0.00000000E+00  0.00000000E+00
  0.00000000E+00  0.00000000E+00  0.00000000E+00
  0.00000000E+00  0.00000000E+00  0.00000000E+00
  0.00000000E+00  0.00000000E+00  0.00000000E+00
  0.00000000E+00  0.00000000E+00  0.00000000E+00
  0.00000000E+00  0.00000000E+00  0.00000000E+00
  0.00000000E+00  0.00000000E+00  0.00000000E+00
  0.00000000E+00  0.00000000E+00  0.00000000E+00
  0.00000000E+00  0.00000000E+00  0.00000000E+00
  0.00000000E+00  0.00000000E+00  0.00000000E+00
  0.00000000E+00  0.00000000E+00  0.00000000E+00
  0.00000000E+00  0.00000000E+00  0.00000000E+00
  0.00000000E+00  0.00000000E+00  0.00000000E+00
  0.00000000E+00  0.00000000E+00  0.00000000E+00
  0.00000000E+00  0.00000000E+00  0.00000000E+00
  0.00000000E+00  0.00000000E+00  0.00000000E+00
  0.00000000E+00  0.00000000E+00  0.00000000E+00
  0.00000000E+00  0.00000000E+00  0.00000000E+00
  0.00000000E+00  0.00000000E+00  0.00000000E+00
  0.00000000E+00  0.00000000E+00  0.00000000E+00
  0.00000000E+00  0.00000000E+00  0.00000000E+00
  0.00000000E+00  0.00000000E+00  0.00000000E+00
  0.00000000E+00  0.00000000E+00  0.00000000E+00
  0.00000000E+00  0.00000000E+00  0.00000000E+00
  0.00000000E+00  0.00000000E+00  0.00000000E+00
  0.00000000E+00  0.00000000E+00  0.00000000E+00
  0.00000000E+00  0.00000000E+00  0.00000000E+00
  0.00000000E+00  0.00000000E+00  0.00000000E+00
  0.00000000E+00  0.00000000E+00  0.00000000E+00
  0.00000000E+00  0.00000000E+00  0.00000000E+00
  0.00000000E+00  0.00000000E+00  0.00000000E+00
  0.00000000E+00  0.00000000E+00  0.00000000E+00
  0.00000000E+00  0.00000000E+00  0.00000000E+00
  0.00000000E+00  0.00000000E+00  0.00000000E+00
  0.00000000E+00  0.00000000E+00  0.00000000E+00
  0.00000000E+00  0.00000000E+00  0.00000000E+00
  0.00000000E+00  0.00000000E+00  0.00000000E+00
  0.00000000E+00  0.00000000E+00  0.00000000E+00
  0.00000000E+00  0.00000000E+00  0.00000000E+00
  0.00000000E+00  0.00000000E+00  0.00000000E+00
  0.00000000E+00  0.00000000E+00  0.00000000E+00
  0.00000000E+00  0.00000000E+00  0.00000000E+00
  0.00000000E+00  0.00000000E+00  0.00000000E+00
  0.00000000E+00  0.00000000E+00  0.00000000E+00
  0.00000000E+00  0.00000000E+00  0.00000000E+00
  0.00000000E+00  0.00000000E+00  0.00000000E+00
  0.00000000E+00  0.00000000E+00  0.00000000E+00
  0.00000000E+00  0.00000000E+00  0.00000000E+00
  0.00000000E+00  0.00000000E+00  0.00000000E+00
  0.00000000E+00  0.00000000E+00  0.00000000E+00
