supercell of POSCAR                     
   1.07329600000000     
     9.1016125577399993   -5.3128209557800004   -9.4184911254399992
     9.0821131104399999    5.2871675818400004    9.4140884809200003
    -1.5053809694200000   -7.9210976524300012    4.6939078171600004
   Al   Sc   N 
    72    24    95
Direct
  0.3041839578893786  0.2887978117019259  0.5381426324977241
  0.1419690049257696  0.2458648053574208  0.2995144768681257
  0.3083696563283098  0.4096377921962002  0.3034011025623897
  0.4723166491962871  0.3323650190985390  0.7896271453030437
  0.1383904813301982  0.4974708414680507  0.7884851825334493
  0.3253933656915464  0.1882836236973375  0.8067920314895645
  0.4703687337573683  0.4489934118372929  0.5365614984446481
  0.1267022509784539  0.1291562780891411  0.5056405581932424
  0.4774090886922764  0.0737031081851569  0.2936806510088772
  0.2798481313508319  0.1067754152977827  0.3316633455605853
  0.1150130018023603  0.0677145073888141  0.0964773198527453
  0.1143347169310687  0.1949793960645678  0.8224456302611216
  0.2745777582869451  0.3616507213837323  0.8194965185445753
  0.1111547854852049  0.3257111098753782  0.5880399197184261
  0.2721887814161335  0.4854669438399952  0.5794234193365995
  0.4481390772876210  0.2793146780342184  0.3347417965232324
  0.1105222945784803  0.4449493807402831  0.3372951098936525
  0.4477304118413059  0.4027367625928733  0.0953402287527041
  0.8028370215247733  0.2882350117206016  0.5407441268657607
  0.6431948191123098  0.2435627382046732  0.3054168674192894
  0.8071935503050440  0.4089752730098652  0.3040454524530034
  0.9664955247506057  0.3270645218026402  0.7919446825655569
  0.6402276201211237  0.4990568391600547  0.7891172827104285
  0.7984068299875275  0.1651450251698776  0.7841921415688091
  0.9691245733324507  0.4482241679534624  0.5369927147627536
  0.6429930610457575  0.1207431707529594  0.5404923802966337
  0.9729443719188282  0.0727568265911032  0.2922059650690443
  0.7768834836643350  0.1091533399158209  0.3357701943554972
  0.6153088088310454  0.0690933422553783  0.0943207634242924
  0.6136197086406554  0.1982312475143004  0.8241783885973177
  0.7751961571702282  0.3598248932058823  0.8215724062148837
  0.6121302828420667  0.3249989929245558  0.5874216007756274
  0.7720984238865398  0.4863184136072221  0.5801625282854417
  0.9464572305039596  0.2790551463836906  0.3362786539978586
  0.6110190822729109  0.4458900772613106  0.3378191094474801
  0.9459143313279128  0.4028711990171274  0.0961983166811820
  0.3022764630843611  0.7771123030776721  0.5391711351430217
  0.1415010428713757  0.7395930993202100  0.3031980810928872
  0.3092114602098306  0.9042046071718843  0.2864461087559675
  0.4674870882147744  0.8255467071321902  0.7896929377284749
  0.1204236191891610  0.9776454420339391  0.8109511526895687
  0.2992536465912821  0.6616191078547544  0.7830335323099575
  0.4777007474072761  0.9493916262972490  0.5360175046334135
  0.1398088359799559  0.6172001423501712  0.5403346152763788
  0.4755620365524962  0.5744950703230813  0.2957248928010827
  0.2760257592006568  0.6065626173100824  0.3340695131752511
  0.1126996201699413  0.5681409868141927  0.0936212197051915
  0.1125856482189675  0.6960728799014149  0.8225716269822740
  0.2768766814342882  0.8561294574978930  0.8184695936898692
  0.1113479863201476  0.8207831734802724  0.5840453225508284
  0.2973797529625983  0.9531663348790929  0.5412063422085893
  0.4460987537096415  0.7793655099278425  0.3367716495828361
  0.1124489837518183  0.9413321253271576  0.3344173390745411
  0.4485284173597037  0.9023162567382457  0.0919845278742528
  0.8026082140433175  0.7867753218144102  0.5392704168492344
  0.6414402867592059  0.7430770228623089  0.3053673908677936
  0.8078416858457231  0.9079248771182620  0.3029165601745305
  0.9632281165083683  0.8240195744614951  0.7905160757854119
  0.6416344541373533  0.9985835470799600  0.7893875369341217
  0.7987092100212081  0.6635505336471681  0.7839222749435564
  0.9687254300010224  0.9476701526560021  0.5353106033804096
  0.6417327669914030  0.6203572475709578  0.5413204646496936
  0.9747500275677154  0.5730403816535414  0.2958161833240354
  0.7762077160635172  0.6090467830795063  0.3355037583451548
  0.6134198476388022  0.5697722530176748  0.0947559678576155
  0.6133392003349485  0.6973657858068378  0.8255811976083010
  0.7749623444070082  0.8586659348479415  0.8206456750218649
  0.6119461869541212  0.8238467047438505  0.5892384451000723
  0.7720166267958817  0.9855984609065942  0.5784227395890653
  0.9468529171649180  0.7777580976946012  0.3344745402729856
  0.6125600476748758  0.9449055825138828  0.3352680659780702
  0.9478091543165874  0.9014785059699193  0.0934357498176865
  0.4846024866341452  0.1978056755817619  0.0418474759932081
  0.1381221674476123  0.3664713694524409  0.0364333119942799
  0.3098740981595896  0.0256693550748963  0.0338473622745425
  0.2834533175958498  0.2326905840240840  0.0864776956869662
  0.4504505203425779  0.0207756132164363  0.8213040537402776
  0.4473192818896976  0.1532480774984535  0.5713673910481489
  0.9802876789300328  0.1985364721753129  0.0407869533060321
  0.6413018700908424  0.3669506550112303  0.0380603769024290
  0.8084603292515453  0.0257390363823404  0.0409106320188926
  0.7832736000120448  0.2318493298482522  0.0824581040870811
  0.9406139650823278  0.0248559425278216  0.8237252182682511
  0.9416030010024201  0.1542194751427814  0.5767432242531783
  0.4807938117202184  0.6989302099786912  0.0417962019050861
  0.1421151772400719  0.8609714149795877  0.0385455304398974
  0.3083867226768646  0.5236503444186482  0.0399099596413990
  0.2838117678297749  0.7263649905292056  0.0783140355398686
  0.4461382597753456  0.5245070474203075  0.8260073432978317
  0.4465649476944265  0.6505054292860777  0.5740744727561804
  0.9805119804427633  0.6968733746849480  0.0388275053587819
  0.6415929145311026  0.8654045231879763  0.0364572585965348
  0.8083859225089398  0.5262870590096043  0.0405372118713174
  0.7832447662401165  0.7312952711173892  0.0833916340348893
  0.9452103801049745  0.5227677655932723  0.8246508773965004
  0.9435671289230072  0.6521374786555114  0.5743043555943714
  0.2384675804034515  0.3662675174255057  0.6307232149014084
  0.0754472692363990  0.3236527993915459  0.3962385141384885
  0.2390033307541515  0.4882636590762317  0.3903012230115408
  0.4202648498183734  0.2870870614995695  0.1485816838606340
  0.0708516004808217  0.4519081034270300  0.1467664220239229
  0.2386571146857719  0.1046675779005426  0.1464272028064499
  0.4010899695032819  0.3992876936770102  0.9009580206055787
  0.0845210450914493  0.0781628063145448  0.8947440965849651
  0.2381373868573959  0.2425013712332955  0.8725655616205543
  0.4031740571597950  0.0233035073944023  0.6193817698607589
  0.0857191503763062  0.2002194930158510  0.6336580658159647
  0.4058608160807324  0.1561053285198071  0.3657092506188491
  0.2193229602540399  0.1907016102059202  0.4292335712390383
  0.0572226358039458  0.1456935814160403  0.1991653560372200
  0.2164163467412195  0.3178706076616535  0.1974565472180103
  0.3752463146941238  0.1147167238347819  0.9134897371882857
  0.0454284639261928  0.2709525610633463  0.9018935910940371
  0.2090034059805035  0.4383967501545598  0.9041516786929122
  0.3782990607582732  0.2450414730516428  0.6761251954741496
  0.0414221443849812  0.4042858057534744  0.6831035061990818
  0.3815500033255077  0.3551949130153105  0.4313133784579009
  0.0484753008273344  0.0235702068132824  0.4339550398640881
  0.3873845655019679  0.4775530798287377  0.1995209193066430
  0.7389540951111826  0.3681425310146480  0.6324972134180626
  0.5752358822014543  0.3253558943497126  0.3960714449706728
  0.7389201270895853  0.4899789059566473  0.3909230837809332
  0.9208312129592713  0.2878402767461523  0.1511336231589766
  0.5717356308634791  0.4530511582104779  0.1469092102768386
  0.7383385036030887  0.1060376892340074  0.1505238835892229
  0.9021002493851427  0.3991967300861958  0.9031652397084713
  0.5859416882168276  0.0829032130724059  0.8996137321193203
  0.7359822930061313  0.2452171407218557  0.8764834274554119
  0.8990729516724087  0.0227099250241523  0.6194924184585702
  0.5847756829399771  0.2040971590887963  0.6360065221990112
  0.9060289912690607  0.1559500953882065  0.3690632806482199
  0.7178671596497068  0.1915782390010321  0.4346884185310884
  0.5580275249711093  0.1466133241593539  0.1993769685988624
  0.7165724943228540  0.3166758240944674  0.1997117729037754
  0.8703335569429314  0.1168104183157510  0.9186347727739417
  0.5440187147085780  0.2751217756589952  0.9047478387476033
  0.7104159365948064  0.4402540741286458  0.9050668246483298
  0.8725205215158951  0.2417405323364079  0.6817911966949168
  0.5433807582211330  0.4076875136060352  0.6822468069415564
  0.7122307981843150  0.0687906383738977  0.6753884735207620
  0.8810952268140610  0.3548201822530288  0.4331025663800787
  0.5492704840531815  0.0272876453109561  0.4353219317905825
  0.8860474215635890  0.4772531879878059  0.1995187131503755
  0.2394359259833152  0.8629131717476639  0.6295330186285568
  0.0760707503590652  0.8236380970813997  0.3942658595043795
  0.2411065169433613  0.9868390382919614  0.3836598239630575
  0.4183708074116979  0.7898086715441934  0.1529626235392314
  0.0738762416429424  0.9506166212024780  0.1440307223115482
  0.2363068385033884  0.6027224564013309  0.1490062325559336
  0.4013782327484350  0.8994771858120885  0.8997943686040770
  0.0839444656736532  0.5816846042985304  0.8986158116736362
  0.2357882334611148  0.7430993111271462  0.8740643991676933
  0.3980539204702396  0.5213344236620543  0.6226797520890983
  0.0833649911750385  0.7022274558166046  0.6349422969164422
  0.4033399754139424  0.6580087646798489  0.3690156578667612
  0.2150738033569795  0.6872679366726331  0.4326282654057181
  0.0552055771530036  0.6454040803136749  0.1979189087949749
  0.2170613148328329  0.8116084588038106  0.1972216039695169
  0.3701494683617881  0.6161538154105273  0.9206307492293462
  0.0444131614827654  0.7747866703902275  0.9034916063051526
  0.2110656302765008  0.9365750155071950  0.9022749118285276
  0.3741001638207635  0.7383066100201532  0.6805117393311093
  0.0400930815430272  0.9016882661281329  0.6787690724795610
  0.2108062472387786  0.5670256139974654  0.6755647175813948
  0.3758337376667882  0.8607160764946897  0.4383854724912979
  0.0465488837580708  0.5250373473892296  0.4371340537893076
  0.3878549629100050  0.9785158580764204  0.1932045567776655
  0.7390980631579538  0.8679294971550036  0.6317078868790276
  0.5730045313766610  0.8265112476687690  0.3983041372548470
  0.7401857608156774  0.9896136152813142  0.3895041594735318
  0.9207932193529942  0.7876579779838480  0.1495498190916038
  0.5725588753263082  0.9524313548595913  0.1451221763033601
  0.7366746420344796  0.6059451645102172  0.1501199088644753
  0.9023326090129018  0.9004487089494333  0.9007055188894881
  0.5841452087908579  0.5824834066115159  0.8996914546538122
  0.7362542663947877  0.7448044563025107  0.8772411941860980
  0.8984301630369060  0.5220455543617177  0.6216522763575014
  0.5842637585910211  0.7042279831679963  0.6377561321500238
  0.9045118560498722  0.6562843998954335  0.3678876390804788
  0.7160718668680417  0.6915076455911944  0.4342605927682186
  0.5554551150424984  0.6474639854630340  0.1994968030133322
  0.7159177532859928  0.8167105518236042  0.2008169653921783
  0.8708772826116302  0.6153329675529164  0.9169006070427059
  0.5440184674827293  0.7744537101901798  0.9060630540726464
  0.7114450331920068  0.9399635774791406  0.9048362981960096
  0.8715622514373749  0.7401715485412268  0.6798304764447636
  0.5425019496257306  0.9064960976988132  0.6853772984210806
  0.7113222589650334  0.5689882040016769  0.6759038835609346
  0.8816339914634099  0.8547218460374140  0.4322454796984516
  0.5465132881872563  0.5279380963337204  0.4382416079648479
  0.8877061606088006  0.9762452796181265  0.1977841007326973
 
  0.00000000E+00  0.00000000E+00  0.00000000E+00
  0.00000000E+00  0.00000000E+00  0.00000000E+00
  0.00000000E+00  0.00000000E+00  0.00000000E+00
  0.00000000E+00  0.00000000E+00  0.00000000E+00
  0.00000000E+00  0.00000000E+00  0.00000000E+00
  0.00000000E+00  0.00000000E+00  0.00000000E+00
  0.00000000E+00  0.00000000E+00  0.00000000E+00
  0.00000000E+00  0.00000000E+00  0.00000000E+00
  0.00000000E+00  0.00000000E+00  0.00000000E+00
  0.00000000E+00  0.00000000E+00  0.00000000E+00
  0.00000000E+00  0.00000000E+00  0.00000000E+00
  0.00000000E+00  0.00000000E+00  0.00000000E+00
  0.00000000E+00  0.00000000E+00  0.00000000E+00
  0.00000000E+00  0.00000000E+00  0.00000000E+00
  0.00000000E+00  0.00000000E+00  0.00000000E+00
  0.00000000E+00  0.00000000E+00  0.00000000E+00
  0.00000000E+00  0.00000000E+00  0.00000000E+00
  0.00000000E+00  0.00000000E+00  0.00000000E+00
  0.00000000E+00  0.00000000E+00  0.00000000E+00
  0.00000000E+00  0.00000000E+00  0.00000000E+00
  0.00000000E+00  0.00000000E+00  0.00000000E+00
  0.00000000E+00  0.00000000E+00  0.00000000E+00
  0.00000000E+00  0.00000000E+00  0.00000000E+00
  0.00000000E+00  0.00000000E+00  0.00000000E+00
  0.00000000E+00  0.00000000E+00  0.00000000E+00
  0.00000000E+00  0.00000000E+00  0.00000000E+00
  0.00000000E+00  0.00000000E+00  0.00000000E+00
  0.00000000E+00  0.00000000E+00  0.00000000E+00
  0.00000000E+00  0.00000000E+00  0.00000000E+00
  0.00000000E+00  0.00000000E+00  0.00000000E+00
  0.00000000E+00  0.00000000E+00  0.00000000E+00
  0.00000000E+00  0.00000000E+00  0.00000000E+00
  0.00000000E+00  0.00000000E+00  0.00000000E+00
  0.00000000E+00  0.00000000E+00  0.00000000E+00
  0.00000000E+00  0.00000000E+00  0.00000000E+00
  0.00000000E+00  0.00000000E+00  0.00000000E+00
  0.00000000E+00  0.00000000E+00  0.00000000E+00
  0.00000000E+00  0.00000000E+00  0.00000000E+00
  0.00000000E+00  0.00000000E+00  0.00000000E+00
  0.00000000E+00  0.00000000E+00  0.00000000E+00
  0.00000000E+00  0.00000000E+00  0.00000000E+00
  0.00000000E+00  0.00000000E+00  0.00000000E+00
  0.00000000E+00  0.00000000E+00  0.00000000E+00
  0.00000000E+00  0.00000000E+00  0.00000000E+00
  0.00000000E+00  0.00000000E+00  0.00000000E+00
  0.00000000E+00  0.00000000E+00  0.00000000E+00
  0.00000000E+00  0.00000000E+00  0.00000000E+00
  0.00000000E+00  0.00000000E+00  0.00000000E+00
  0.00000000E+00  0.00000000E+00  0.00000000E+00
  0.00000000E+00  0.00000000E+00  0.00000000E+00
  0.00000000E+00  0.00000000E+00  0.00000000E+00
  0.00000000E+00  0.00000000E+00  0.00000000E+00
  0.00000000E+00  0.00000000E+00  0.00000000E+00
  0.00000000E+00  0.00000000E+00  0.00000000E+00
  0.00000000E+00  0.00000000E+00  0.00000000E+00
  0.00000000E+00  0.00000000E+00  0.00000000E+00
  0.00000000E+00  0.00000000E+00  0.00000000E+00
  0.00000000E+00  0.00000000E+00  0.00000000E+00
  0.00000000E+00  0.00000000E+00  0.00000000E+00
  0.00000000E+00  0.00000000E+00  0.00000000E+00
  0.00000000E+00  0.00000000E+00  0.00000000E+00
  0.00000000E+00  0.00000000E+00  0.00000000E+00
  0.00000000E+00  0.00000000E+00  0.00000000E+00
  0.00000000E+00  0.00000000E+00  0.00000000E+00
  0.00000000E+00  0.00000000E+00  0.00000000E+00
  0.00000000E+00  0.00000000E+00  0.00000000E+00
  0.00000000E+00  0.00000000E+00  0.00000000E+00
  0.00000000E+00  0.00000000E+00  0.00000000E+00
  0.00000000E+00  0.00000000E+00  0.00000000E+00
  0.00000000E+00  0.00000000E+00  0.00000000E+00
  0.00000000E+00  0.00000000E+00  0.00000000E+00
  0.00000000E+00  0.00000000E+00  0.00000000E+00
  0.00000000E+00  0.00000000E+00  0.00000000E+00
  0.00000000E+00  0.00000000E+00  0.00000000E+00
  0.00000000E+00  0.00000000E+00  0.00000000E+00
  0.00000000E+00  0.00000000E+00  0.00000000E+00
  0.00000000E+00  0.00000000E+00  0.00000000E+00
  0.00000000E+00  0.00000000E+00  0.00000000E+00
  0.00000000E+00  0.00000000E+00  0.00000000E+00
  0.00000000E+00  0.00000000E+00  0.00000000E+00
  0.00000000E+00  0.00000000E+00  0.00000000E+00
  0.00000000E+00  0.00000000E+00  0.00000000E+00
  0.00000000E+00  0.00000000E+00  0.00000000E+00
  0.00000000E+00  0.00000000E+00  0.00000000E+00
  0.00000000E+00  0.00000000E+00  0.00000000E+00
  0.00000000E+00  0.00000000E+00  0.00000000E+00
  0.00000000E+00  0.00000000E+00  0.00000000E+00
  0.00000000E+00  0.00000000E+00  0.00000000E+00
  0.00000000E+00  0.00000000E+00  0.00000000E+00
  0.00000000E+00  0.00000000E+00  0.00000000E+00
  0.00000000E+00  0.00000000E+00  0.00000000E+00
  0.00000000E+00  0.00000000E+00  0.00000000E+00
  0.00000000E+00  0.00000000E+00  0.00000000E+00
  0.00000000E+00  0.00000000E+00  0.00000000E+00
  0.00000000E+00  0.00000000E+00  0.00000000E+00
  0.00000000E+00  0.00000000E+00  0.00000000E+00
  0.00000000E+00  0.00000000E+00  0.00000000E+00
  0.00000000E+00  0.00000000E+00  0.00000000E+00
  0.00000000E+00  0.00000000E+00  0.00000000E+00
  0.00000000E+00  0.00000000E+00  0.00000000E+00
  0.00000000E+00  0.00000000E+00  0.00000000E+00
  0.00000000E+00  0.00000000E+00  0.00000000E+00
  0.00000000E+00  0.00000000E+00  0.00000000E+00
  0.00000000E+00  0.00000000E+00  0.00000000E+00
  0.00000000E+00  0.00000000E+00  0.00000000E+00
  0.00000000E+00  0.00000000E+00  0.00000000E+00
  0.00000000E+00  0.00000000E+00  0.00000000E+00
  0.00000000E+00  0.00000000E+00  0.00000000E+00
  0.00000000E+00  0.00000000E+00  0.00000000E+00
  0.00000000E+00  0.00000000E+00  0.00000000E+00
  0.00000000E+00  0.00000000E+00  0.00000000E+00
  0.00000000E+00  0.00000000E+00  0.00000000E+00
  0.00000000E+00  0.00000000E+00  0.00000000E+00
  0.00000000E+00  0.00000000E+00  0.00000000E+00
  0.00000000E+00  0.00000000E+00  0.00000000E+00
  0.00000000E+00  0.00000000E+00  0.00000000E+00
  0.00000000E+00  0.00000000E+00  0.00000000E+00
  0.00000000E+00  0.00000000E+00  0.00000000E+00
  0.00000000E+00  0.00000000E+00  0.00000000E+00
  0.00000000E+00  0.00000000E+00  0.00000000E+00
  0.00000000E+00  0.00000000E+00  0.00000000E+00
  0.00000000E+00  0.00000000E+00  0.00000000E+00
  0.00000000E+00  0.00000000E+00  0.00000000E+00
  0.00000000E+00  0.00000000E+00  0.00000000E+00
  0.00000000E+00  0.00000000E+00  0.00000000E+00
  0.00000000E+00  0.00000000E+00  0.00000000E+00
  0.00000000E+00  0.00000000E+00  0.00000000E+00
  0.00000000E+00  0.00000000E+00  0.00000000E+00
  0.00000000E+00  0.00000000E+00  0.00000000E+00
  0.00000000E+00  0.00000000E+00  0.00000000E+00
  0.00000000E+00  0.00000000E+00  0.00000000E+00
  0.00000000E+00  0.00000000E+00  0.00000000E+00
  0.00000000E+00  0.00000000E+00  0.00000000E+00
  0.00000000E+00  0.00000000E+00  0.00000000E+00
  0.00000000E+00  0.00000000E+00  0.00000000E+00
  0.00000000E+00  0.00000000E+00  0.00000000E+00
  0.00000000E+00  0.00000000E+00  0.00000000E+00
  0.00000000E+00  0.00000000E+00  0.00000000E+00
  0.00000000E+00  0.00000000E+00  0.00000000E+00
  0.00000000E+00  0.00000000E+00  0.00000000E+00
  0.00000000E+00  0.00000000E+00  0.00000000E+00
  0.00000000E+00  0.00000000E+00  0.00000000E+00
  0.00000000E+00  0.00000000E+00  0.00000000E+00
  0.00000000E+00  0.00000000E+00  0.00000000E+00
  0.00000000E+00  0.00000000E+00  0.00000000E+00
  0.00000000E+00  0.00000000E+00  0.00000000E+00
  0.00000000E+00  0.00000000E+00  0.00000000E+00
  0.00000000E+00  0.00000000E+00  0.00000000E+00
  0.00000000E+00  0.00000000E+00  0.00000000E+00
  0.00000000E+00  0.00000000E+00  0.00000000E+00
  0.00000000E+00  0.00000000E+00  0.00000000E+00
  0.00000000E+00  0.00000000E+00  0.00000000E+00
  0.00000000E+00  0.00000000E+00  0.00000000E+00
  0.00000000E+00  0.00000000E+00  0.00000000E+00
  0.00000000E+00  0.00000000E+00  0.00000000E+00
  0.00000000E+00  0.00000000E+00  0.00000000E+00
  0.00000000E+00  0.00000000E+00  0.00000000E+00
  0.00000000E+00  0.00000000E+00  0.00000000E+00
  0.00000000E+00  0.00000000E+00  0.00000000E+00
  0.00000000E+00  0.00000000E+00  0.00000000E+00
  0.00000000E+00  0.00000000E+00  0.00000000E+00
  0.00000000E+00  0.00000000E+00  0.00000000E+00
  0.00000000E+00  0.00000000E+00  0.00000000E+00
  0.00000000E+00  0.00000000E+00  0.00000000E+00
  0.00000000E+00  0.00000000E+00  0.00000000E+00
  0.00000000E+00  0.00000000E+00  0.00000000E+00
  0.00000000E+00  0.00000000E+00  0.00000000E+00
  0.00000000E+00  0.00000000E+00  0.00000000E+00
  0.00000000E+00  0.00000000E+00  0.00000000E+00
  0.00000000E+00  0.00000000E+00  0.00000000E+00
  0.00000000E+00  0.00000000E+00  0.00000000E+00
  0.00000000E+00  0.00000000E+00  0.00000000E+00
  0.00000000E+00  0.00000000E+00  0.00000000E+00
  0.00000000E+00  0.00000000E+00  0.00000000E+00
  0.00000000E+00  0.00000000E+00  0.00000000E+00
  0.00000000E+00  0.00000000E+00  0.00000000E+00
  0.00000000E+00  0.00000000E+00  0.00000000E+00
  0.00000000E+00  0.00000000E+00  0.00000000E+00
  0.00000000E+00  0.00000000E+00  0.00000000E+00
  0.00000000E+00  0.00000000E+00  0.00000000E+00
  0.00000000E+00  0.00000000E+00  0.00000000E+00
  0.00000000E+00  0.00000000E+00  0.00000000E+00
  0.00000000E+00  0.00000000E+00  0.00000000E+00
  0.00000000E+00  0.00000000E+00  0.00000000E+00
  0.00000000E+00  0.00000000E+00  0.00000000E+00
  0.00000000E+00  0.00000000E+00  0.00000000E+00
  0.00000000E+00  0.00000000E+00  0.00000000E+00
  0.00000000E+00  0.00000000E+00  0.00000000E+00
  0.00000000E+00  0.00000000E+00  0.00000000E+00
  0.00000000E+00  0.00000000E+00  0.00000000E+00
  0.00000000E+00  0.00000000E+00  0.00000000E+00
