supercell of POSCAR                     
   1.07329600000000     
     9.1016125577399993   -5.3128209557800004   -9.4184911254399992
     9.0821131104399999    5.2871675818400004    9.4140884809200003
    -1.5053809694200000   -7.9210976524300012    4.6939078171600004
   Al   Sc   N 
    72    23    96
Direct
  0.3024843778724957  0.2861335808891852  0.5392260699244957
  0.1422524135989605  0.2438883159777703  0.3076069547790397
  0.3060540505360336  0.4080404633606065  0.3062229971792618
  0.4653890108587362  0.3258790132738199  0.7903939296931171
  0.1386771231882022  0.4959804981590636  0.7906196641275187
  0.3005825439744854  0.1619997321741735  0.7806889523371723
  0.4693656826347308  0.4479408346592635  0.5389633514124412
  0.1421480421404837  0.1188224229985835  0.5403765203717015
  0.4758629390084081  0.0731551240512758  0.2936786360258736
  0.2768675792520909  0.1098246105663776  0.3328364057277753
  0.1147056055136488  0.0699957311540658  0.0941319582336106
  0.1140618300430205  0.2013678422009235  0.8244693798725393
  0.2696625130258994  0.3579315385966808  0.8222534822438945
  0.1101273713276001  0.3242808312338354  0.5892169527370683
  0.2709890981726346  0.4852023329112072  0.5818585556375666
  0.4444217747597534  0.2784731962196005  0.3341530201994303
  0.1127181766011489  0.4419703585026440  0.3326192638447836
  0.4452252086427961  0.4014025704779485  0.0955682441261061
  0.8015727342220487  0.2868142214819827  0.5385666279078833
  0.6408177899684873  0.2413085524774488  0.3021593834898084
  0.8056469743047288  0.4069764596771535  0.3011762650432104
  0.9674865891143511  0.3278991903163160  0.7921833647155907
  0.6372769763234061  0.4964667230252360  0.7875745387958304
  0.8008729097110674  0.1645691427431473  0.7843105352651847
  0.9690928691794340  0.4485078714232102  0.5354824592782634
  0.6420167248809818  0.1188326127930779  0.5400412980058320
  0.9766915375265484  0.0746445708260879  0.2960723927973916
  0.7775648703230615  0.1083467812647640  0.3350756126461008
  0.6142220672097096  0.0687008012783821  0.0920589637235949
  0.6128624075367881  0.1960366399111351  0.8241728396843939
  0.7745392354718490  0.3584595705501599  0.8194712048038468
  0.6096504780039567  0.3228415280167951  0.5865973627834649
  0.7709988061257818  0.4849992061263961  0.5784671948854552
  0.9464137919647442  0.2791255653251881  0.3359931279481003
  0.6096176090433616  0.4437961420010694  0.3369148397284789
  0.9477806101223578  0.4030460951366095  0.0955780494077558
  0.3039934519007232  0.7859768118602304  0.5393078118106018
  0.1436933375160265  0.7433705924416003  0.3024773673519974
  0.3090231981904168  0.9079540498100869  0.3005747604144062
  0.4677730825182280  0.8250771067377656  0.7894583463591545
  0.1407684552900079  0.9979777260049616  0.7882767667825092
  0.2989589142728448  0.6619927082266841  0.7844156618669089
  0.4712477632961196  0.9475455114740186  0.5346400481813234
  0.1416550640202985  0.6193177187957062  0.5402760584739710
  0.4743284062156690  0.5723380008943906  0.2948914634171587
  0.2761626607552827  0.6084969226571886  0.3354880214008205
  0.1128643366867905  0.5674543268197425  0.0940746000610417
  0.1134943760309284  0.6973198406854095  0.8228447488752053
  0.2766090011089091  0.8589086747116994  0.8205522065987054
  0.1123265103665361  0.8240654370999394  0.5864903966776041
  0.2734558316011189  0.9848411442582403  0.5771819907026696
  0.4479049750318183  0.7777893055824521  0.3346728174114304
  0.1120865889970233  0.9449091532756881  0.3360637471283567
  0.4475669867841603  0.9016796542267329  0.0930614741869604
  0.8049515438003283  0.7855304932115175  0.5379773990715293
  0.6432123249563944  0.7411654869483257  0.3031151093977371
  0.8096107600431139  0.9074147112769353  0.3016500776883291
  0.9682422169668143  0.8275596709452770  0.7875682974204281
  0.6415451375935604  0.9967994170893704  0.7874763428161273
  0.8011830752902327  0.6627060604541199  0.7804008627584977
  0.9714151054676989  0.9486725020961373  0.5361787365712516
  0.6417391446575209  0.6189210524872593  0.5389067533224079
  0.9830448998094710  0.5644354476009497  0.2838072348790774
  0.7788520951941464  0.6066066412664952  0.3315958078456376
  0.6131220419991692  0.5672765562429802  0.0933298867474619
  0.6138099753277473  0.6956542776853922  0.8231419629148888
  0.7771808928916926  0.8587630190103397  0.8200017123971222
  0.6124582039394468  0.8231640140536669  0.5866189289101982
  0.7744505542552460  0.9852953087210494  0.5789614932472134
  0.9488680476373546  0.7764388604073318  0.3321938077454547
  0.6124713197045821  0.9439235736587861  0.3355302412341246
  0.9490199465262208  0.9027830052367349  0.0934662173141163
  0.4762389164059755  0.1977142471104330  0.0385041486755355
  0.3091111369389523  0.0292976491270096  0.0379022724447751
  0.2721085657189164  0.2418865926575364  0.0834623176115841
  0.4487364000215450  0.0204185700082462  0.8211987565029020
  0.4447643714106206  0.1519417227189663  0.5730782454994454
  0.9891136812534072  0.2069081120063814  0.0403775000078568
  0.6399940260950245  0.3636967031229261  0.0363326201999001
  0.8109397404474663  0.0261732721090482  0.0395564210677861
  0.7854034704548596  0.2299449468804511  0.0804809108141384
  0.9484024737037231  0.0277470306388636  0.8269912786380331
  0.9456467153079444  0.1554360252526337  0.5783612944036634
  0.4807328060027700  0.6955725527148005  0.0394974754441861
  0.1432126691599223  0.8652610437769965  0.0362228997176572
  0.2985274203181874  0.5162188563122285  0.0408015197845302
  0.2848550491666515  0.7275363608224836  0.0798306490434229
  0.4408945569429861  0.5218568698324759  0.8288592308663212
  0.4450243138445558  0.6509423687101048  0.5745006670909873
  0.9821829058811673  0.6976193841608236  0.0361760300060041
  0.6416913988162207  0.8647222436023796  0.0357302753871593
  0.8084554294021800  0.5237943431756875  0.0357259018467815
  0.7847936754926153  0.7295918926491183  0.0801436950286671
  0.9472263229825941  0.5218144450291504  0.8219228847372619
  0.9471193313700326  0.6495464495794323  0.5665204660137917
  0.2380048362462048  0.3658976038557711  0.6288225528772173
  0.0728160226570438  0.3245421616904167  0.3989417819505618
  0.2401442462456700  0.4915363089749150  0.3936571000993538
  0.4155333510013222  0.2866394476079890  0.1491698195981073
  0.0601874975840389  0.4668013895650276  0.1653033077019401
  0.2382899605704054  0.1089531789229738  0.1474316007138512
  0.4012146730844108  0.3971445086823664  0.9027772384328046
  0.0871316256772232  0.0811853910851497  0.8991262340887971
  0.2381958533036226  0.2402596703506603  0.8680453129252967
  0.3999320601731284  0.0208198926635532  0.6182297694181997
  0.0848587715962239  0.2023231195911279  0.6325693954973488
  0.4055873192724704  0.1553620482927300  0.3665697528951881
  0.2174585785931455  0.1886109393477255  0.4355133730417080
  0.0571190682714757  0.1460847909612397  0.2003392570652878
  0.2169102514436929  0.3178711801396190  0.2162796639754490
  0.3745081532098240  0.1107370559078618  0.9087436227609871
  0.0396901624392854  0.2696128110206431  0.8928596227207706
  0.2102045130345829  0.4398067395335019  0.8968333849185868
  0.3745280758670830  0.2393150357818499  0.6774177301621052
  0.0388430396598380  0.4071175285921171  0.6824118899435661
  0.2124712275382592  0.0657868477763586  0.6729146657267222
  0.3826448233501480  0.3551736455746877  0.4359041967826585
  0.0481825915419094  0.0253252521064624  0.4360096310387291
  0.3868761452430292  0.4762511091048438  0.2012785437708970
  0.7366949622039058  0.3668442270213745  0.6302717308793717
  0.5739081687326220  0.3233282393185561  0.3943084797151712
  0.7373846161094804  0.4883459335704075  0.3892132592746904
  0.9192925738873541  0.2889434535361559  0.1518634026608154
  0.5711340580579432  0.4507157271240629  0.1459928293781445
  0.7375355235183392  0.1042772826803215  0.1495152076819153
  0.8993448237888373  0.4007665597983348  0.9019181045920561
  0.5868812930798484  0.0801108141356082  0.8968839406370037
  0.7354611327785889  0.2439300925154839  0.8751163457280171
  0.9002650922014297  0.0229402312794491  0.6218976198224553
  0.5841386794858110  0.2019871268417646  0.6356249393777915
  0.9048416986933603  0.1561687881665748  0.3698520044974458
  0.7156787389573864  0.1897694981877081  0.4322380063601656
  0.5550383432327450  0.1455543677994058  0.1947673393881431
  0.7154237296996726  0.3137147051184641  0.1979480090166419
  0.8721910042294638  0.1185234591821143  0.9217140612245629
  0.5433458112853913  0.2723510480671862  0.9043633053629350
  0.7080518041982984  0.4381529550271637  0.9029195369861256
  0.8704316408502493  0.2422890347567943  0.6790164148680233
  0.5413370485646141  0.4041885646095125  0.6829458097097358
  0.7129221041639582  0.0676116815901509  0.6746059571718632
  0.8792031413982286  0.3549822463945986  0.4320592844744837
  0.5485293569750809  0.0253174946103698  0.4350629988525228
  0.8805854272274516  0.4756729945459028  0.1964630496394832
  0.2404185277758586  0.8668522687621660  0.6309095505041284
  0.0767135121177844  0.8253142251959176  0.3949723638445448
  0.2407885624207751  0.9888655419389067  0.3872529775707676
  0.4219596197077422  0.7875383478937152  0.1499124701290242
  0.0739443580899675  0.9520328817694974  0.1450752035590028
  0.2358944338136340  0.6057914394139488  0.1514109462210627
  0.4034741840264928  0.8975916272732150  0.9001028419210542
  0.0836448478596452  0.5836811429955802  0.8984902356932523
  0.2366009257826036  0.7445334880193712  0.8749666125673841
  0.3982000720983265  0.5219066053537915  0.6243908066109825
  0.0847606837480441  0.7045710745990021  0.6354421695312311
  0.4051641060180060  0.6563261725722853  0.3684228186073497
  0.2171239910029996  0.6915094007010296  0.4339894763511793
  0.0574690847911157  0.6519320720837598  0.1958227230253868
  0.2195146050467471  0.8157301311082747  0.1977660538681079
  0.3679138256852852  0.6150729886455579  0.9239345535417911
  0.0456709135447753  0.7760361660896038  0.9031830099119986
  0.2125837768239549  0.9398443158625085  0.9041504374352769
  0.3738228207434915  0.7392510904052187  0.6801346024129558
  0.0432787402424424  0.9056696827933735  0.6815442230819642
  0.2107302677502645  0.5690684497203264  0.6757605686385872
  0.3824840331043760  0.8543511462014095  0.4315740563831625
  0.0469576496964521  0.5276823929571037  0.4426934014018329
  0.3875618105035059  0.9772958111437191  0.1956600523326841
  0.7402216324998108  0.8665165392389298  0.6304074538423023
  0.5765075918083369  0.8240291022441610  0.3949724169634408
  0.7406723908310440  0.9882927228151388  0.3892242908447088
  0.9207677991069545  0.7882505216993323  0.1475737841065339
  0.5729153283558190  0.9516132140259970  0.1447033798761339
  0.7364092122125783  0.6044117571925511  0.1465658216563099
  0.9031334630751644  0.9012728179372047  0.8999739552917845
  0.5820147143269665  0.5808676091194158  0.8980247716345531
  0.7372799124923404  0.7433646592900445  0.8735824696542238
  0.8962222982818773  0.5221685956908502  0.6199638630312663
  0.5845309361289139  0.7030970559983274  0.6350755504998986
  0.9062365924906004  0.6540357973684223  0.3614592435949007
  0.7179484290343794  0.6895049805199420  0.4324727189873201
  0.5564289192037108  0.6451209728052660  0.1992473127098577
  0.7176146295692760  0.8152059638471556  0.1981012713238641
  0.8714580975599659  0.6148622093504272  0.9151520503952639
  0.5452379563381839  0.7727510836850158  0.9042481331034224
  0.7121175049402524  0.9388002921173140  0.9040573476363107
  0.8750929778345764  0.7396039122444762  0.6775458533678105
  0.5429343466743575  0.9047916678617014  0.6820822197438048
  0.7102959651133460  0.5677716154363068  0.6753455560015809
  0.8828873440905554  0.8542665879836164  0.4314549739207862
  0.5465881204053531  0.5260453569049872  0.4382473935087958
  0.8885602362481109  0.9771133111158647  0.1986355179579036
 
  0.00000000E+00  0.00000000E+00  0.00000000E+00
  0.00000000E+00  0.00000000E+00  0.00000000E+00
  0.00000000E+00  0.00000000E+00  0.00000000E+00
  0.00000000E+00  0.00000000E+00  0.00000000E+00
  0.00000000E+00  0.00000000E+00  0.00000000E+00
  0.00000000E+00  0.00000000E+00  0.00000000E+00
  0.00000000E+00  0.00000000E+00  0.00000000E+00
  0.00000000E+00  0.00000000E+00  0.00000000E+00
  0.00000000E+00  0.00000000E+00  0.00000000E+00
  0.00000000E+00  0.00000000E+00  0.00000000E+00
  0.00000000E+00  0.00000000E+00  0.00000000E+00
  0.00000000E+00  0.00000000E+00  0.00000000E+00
  0.00000000E+00  0.00000000E+00  0.00000000E+00
  0.00000000E+00  0.00000000E+00  0.00000000E+00
  0.00000000E+00  0.00000000E+00  0.00000000E+00
  0.00000000E+00  0.00000000E+00  0.00000000E+00
  0.00000000E+00  0.00000000E+00  0.00000000E+00
  0.00000000E+00  0.00000000E+00  0.00000000E+00
  0.00000000E+00  0.00000000E+00  0.00000000E+00
  0.00000000E+00  0.00000000E+00  0.00000000E+00
  0.00000000E+00  0.00000000E+00  0.00000000E+00
  0.00000000E+00  0.00000000E+00  0.00000000E+00
  0.00000000E+00  0.00000000E+00  0.00000000E+00
  0.00000000E+00  0.00000000E+00  0.00000000E+00
  0.00000000E+00  0.00000000E+00  0.00000000E+00
  0.00000000E+00  0.00000000E+00  0.00000000E+00
  0.00000000E+00  0.00000000E+00  0.00000000E+00
  0.00000000E+00  0.00000000E+00  0.00000000E+00
  0.00000000E+00  0.00000000E+00  0.00000000E+00
  0.00000000E+00  0.00000000E+00  0.00000000E+00
  0.00000000E+00  0.00000000E+00  0.00000000E+00
  0.00000000E+00  0.00000000E+00  0.00000000E+00
  0.00000000E+00  0.00000000E+00  0.00000000E+00
  0.00000000E+00  0.00000000E+00  0.00000000E+00
  0.00000000E+00  0.00000000E+00  0.00000000E+00
  0.00000000E+00  0.00000000E+00  0.00000000E+00
  0.00000000E+00  0.00000000E+00  0.00000000E+00
  0.00000000E+00  0.00000000E+00  0.00000000E+00
  0.00000000E+00  0.00000000E+00  0.00000000E+00
  0.00000000E+00  0.00000000E+00  0.00000000E+00
  0.00000000E+00  0.00000000E+00  0.00000000E+00
  0.00000000E+00  0.00000000E+00  0.00000000E+00
  0.00000000E+00  0.00000000E+00  0.00000000E+00
  0.00000000E+00  0.00000000E+00  0.00000000E+00
  0.00000000E+00  0.00000000E+00  0.00000000E+00
  0.00000000E+00  0.00000000E+00  0.00000000E+00
  0.00000000E+00  0.00000000E+00  0.00000000E+00
  0.00000000E+00  0.00000000E+00  0.00000000E+00
  0.00000000E+00  0.00000000E+00  0.00000000E+00
  0.00000000E+00  0.00000000E+00  0.00000000E+00
  0.00000000E+00  0.00000000E+00  0.00000000E+00
  0.00000000E+00  0.00000000E+00  0.00000000E+00
  0.00000000E+00  0.00000000E+00  0.00000000E+00
  0.00000000E+00  0.00000000E+00  0.00000000E+00
  0.00000000E+00  0.00000000E+00  0.00000000E+00
  0.00000000E+00  0.00000000E+00  0.00000000E+00
  0.00000000E+00  0.00000000E+00  0.00000000E+00
  0.00000000E+00  0.00000000E+00  0.00000000E+00
  0.00000000E+00  0.00000000E+00  0.00000000E+00
  0.00000000E+00  0.00000000E+00  0.00000000E+00
  0.00000000E+00  0.00000000E+00  0.00000000E+00
  0.00000000E+00  0.00000000E+00  0.00000000E+00
  0.00000000E+00  0.00000000E+00  0.00000000E+00
  0.00000000E+00  0.00000000E+00  0.00000000E+00
  0.00000000E+00  0.00000000E+00  0.00000000E+00
  0.00000000E+00  0.00000000E+00  0.00000000E+00
  0.00000000E+00  0.00000000E+00  0.00000000E+00
  0.00000000E+00  0.00000000E+00  0.00000000E+00
  0.00000000E+00  0.00000000E+00  0.00000000E+00
  0.00000000E+00  0.00000000E+00  0.00000000E+00
  0.00000000E+00  0.00000000E+00  0.00000000E+00
  0.00000000E+00  0.00000000E+00  0.00000000E+00
  0.00000000E+00  0.00000000E+00  0.00000000E+00
  0.00000000E+00  0.00000000E+00  0.00000000E+00
  0.00000000E+00  0.00000000E+00  0.00000000E+00
  0.00000000E+00  0.00000000E+00  0.00000000E+00
  0.00000000E+00  0.00000000E+00  0.00000000E+00
  0.00000000E+00  0.00000000E+00  0.00000000E+00
  0.00000000E+00  0.00000000E+00  0.00000000E+00
  0.00000000E+00  0.00000000E+00  0.00000000E+00
  0.00000000E+00  0.00000000E+00  0.00000000E+00
  0.00000000E+00  0.00000000E+00  0.00000000E+00
  0.00000000E+00  0.00000000E+00  0.00000000E+00
  0.00000000E+00  0.00000000E+00  0.00000000E+00
  0.00000000E+00  0.00000000E+00  0.00000000E+00
  0.00000000E+00  0.00000000E+00  0.00000000E+00
  0.00000000E+00  0.00000000E+00  0.00000000E+00
  0.00000000E+00  0.00000000E+00  0.00000000E+00
  0.00000000E+00  0.00000000E+00  0.00000000E+00
  0.00000000E+00  0.00000000E+00  0.00000000E+00
  0.00000000E+00  0.00000000E+00  0.00000000E+00
  0.00000000E+00  0.00000000E+00  0.00000000E+00
  0.00000000E+00  0.00000000E+00  0.00000000E+00
  0.00000000E+00  0.00000000E+00  0.00000000E+00
  0.00000000E+00  0.00000000E+00  0.00000000E+00
  0.00000000E+00  0.00000000E+00  0.00000000E+00
  0.00000000E+00  0.00000000E+00  0.00000000E+00
  0.00000000E+00  0.00000000E+00  0.00000000E+00
  0.00000000E+00  0.00000000E+00  0.00000000E+00
  0.00000000E+00  0.00000000E+00  0.00000000E+00
  0.00000000E+00  0.00000000E+00  0.00000000E+00
  0.00000000E+00  0.00000000E+00  0.00000000E+00
  0.00000000E+00  0.00000000E+00  0.00000000E+00
  0.00000000E+00  0.00000000E+00  0.00000000E+00
  0.00000000E+00  0.00000000E+00  0.00000000E+00
  0.00000000E+00  0.00000000E+00  0.00000000E+00
  0.00000000E+00  0.00000000E+00  0.00000000E+00
  0.00000000E+00  0.00000000E+00  0.00000000E+00
  0.00000000E+00  0.00000000E+00  0.00000000E+00
  0.00000000E+00  0.00000000E+00  0.00000000E+00
  0.00000000E+00  0.00000000E+00  0.00000000E+00
  0.00000000E+00  0.00000000E+00  0.00000000E+00
  0.00000000E+00  0.00000000E+00  0.00000000E+00
  0.00000000E+00  0.00000000E+00  0.00000000E+00
  0.00000000E+00  0.00000000E+00  0.00000000E+00
  0.00000000E+00  0.00000000E+00  0.00000000E+00
  0.00000000E+00  0.00000000E+00  0.00000000E+00
  0.00000000E+00  0.00000000E+00  0.00000000E+00
  0.00000000E+00  0.00000000E+00  0.00000000E+00
  0.00000000E+00  0.00000000E+00  0.00000000E+00
  0.00000000E+00  0.00000000E+00  0.00000000E+00
  0.00000000E+00  0.00000000E+00  0.00000000E+00
  0.00000000E+00  0.00000000E+00  0.00000000E+00
  0.00000000E+00  0.00000000E+00  0.00000000E+00
  0.00000000E+00  0.00000000E+00  0.00000000E+00
  0.00000000E+00  0.00000000E+00  0.00000000E+00
  0.00000000E+00  0.00000000E+00  0.00000000E+00
  0.00000000E+00  0.00000000E+00  0.00000000E+00
  0.00000000E+00  0.00000000E+00  0.00000000E+00
  0.00000000E+00  0.00000000E+00  0.00000000E+00
  0.00000000E+00  0.00000000E+00  0.00000000E+00
  0.00000000E+00  0.00000000E+00  0.00000000E+00
  0.00000000E+00  0.00000000E+00  0.00000000E+00
  0.00000000E+00  0.00000000E+00  0.00000000E+00
  0.00000000E+00  0.00000000E+00  0.00000000E+00
  0.00000000E+00  0.00000000E+00  0.00000000E+00
  0.00000000E+00  0.00000000E+00  0.00000000E+00
  0.00000000E+00  0.00000000E+00  0.00000000E+00
  0.00000000E+00  0.00000000E+00  0.00000000E+00
  0.00000000E+00  0.00000000E+00  0.00000000E+00
  0.00000000E+00  0.00000000E+00  0.00000000E+00
  0.00000000E+00  0.00000000E+00  0.00000000E+00
  0.00000000E+00  0.00000000E+00  0.00000000E+00
  0.00000000E+00  0.00000000E+00  0.00000000E+00
  0.00000000E+00  0.00000000E+00  0.00000000E+00
  0.00000000E+00  0.00000000E+00  0.00000000E+00
  0.00000000E+00  0.00000000E+00  0.00000000E+00
  0.00000000E+00  0.00000000E+00  0.00000000E+00
  0.00000000E+00  0.00000000E+00  0.00000000E+00
  0.00000000E+00  0.00000000E+00  0.00000000E+00
  0.00000000E+00  0.00000000E+00  0.00000000E+00
  0.00000000E+00  0.00000000E+00  0.00000000E+00
  0.00000000E+00  0.00000000E+00  0.00000000E+00
  0.00000000E+00  0.00000000E+00  0.00000000E+00
  0.00000000E+00  0.00000000E+00  0.00000000E+00
  0.00000000E+00  0.00000000E+00  0.00000000E+00
  0.00000000E+00  0.00000000E+00  0.00000000E+00
  0.00000000E+00  0.00000000E+00  0.00000000E+00
  0.00000000E+00  0.00000000E+00  0.00000000E+00
  0.00000000E+00  0.00000000E+00  0.00000000E+00
  0.00000000E+00  0.00000000E+00  0.00000000E+00
  0.00000000E+00  0.00000000E+00  0.00000000E+00
  0.00000000E+00  0.00000000E+00  0.00000000E+00
  0.00000000E+00  0.00000000E+00  0.00000000E+00
  0.00000000E+00  0.00000000E+00  0.00000000E+00
  0.00000000E+00  0.00000000E+00  0.00000000E+00
  0.00000000E+00  0.00000000E+00  0.00000000E+00
  0.00000000E+00  0.00000000E+00  0.00000000E+00
  0.00000000E+00  0.00000000E+00  0.00000000E+00
  0.00000000E+00  0.00000000E+00  0.00000000E+00
  0.00000000E+00  0.00000000E+00  0.00000000E+00
  0.00000000E+00  0.00000000E+00  0.00000000E+00
  0.00000000E+00  0.00000000E+00  0.00000000E+00
  0.00000000E+00  0.00000000E+00  0.00000000E+00
  0.00000000E+00  0.00000000E+00  0.00000000E+00
  0.00000000E+00  0.00000000E+00  0.00000000E+00
  0.00000000E+00  0.00000000E+00  0.00000000E+00
  0.00000000E+00  0.00000000E+00  0.00000000E+00
  0.00000000E+00  0.00000000E+00  0.00000000E+00
  0.00000000E+00  0.00000000E+00  0.00000000E+00
  0.00000000E+00  0.00000000E+00  0.00000000E+00
  0.00000000E+00  0.00000000E+00  0.00000000E+00
  0.00000000E+00  0.00000000E+00  0.00000000E+00
  0.00000000E+00  0.00000000E+00  0.00000000E+00
  0.00000000E+00  0.00000000E+00  0.00000000E+00
  0.00000000E+00  0.00000000E+00  0.00000000E+00
  0.00000000E+00  0.00000000E+00  0.00000000E+00
  0.00000000E+00  0.00000000E+00  0.00000000E+00
  0.00000000E+00  0.00000000E+00  0.00000000E+00
  0.00000000E+00  0.00000000E+00  0.00000000E+00
  0.00000000E+00  0.00000000E+00  0.00000000E+00
