supercell of POSCAR                     
   1.07329600000000     
     9.1016125577399993   -5.3128209557800004   -9.4184911254399992
     9.0821131104399999    5.2871675818400004    9.4140884809200003
    -1.5053809694200000   -7.9210976524300012    4.6939078171600004
   Al   Sc   N 
    72    24    95
Direct
  0.3016609845550065  0.2865113103051513  0.5285387365631280
  0.1403716403408595  0.2406950117886666  0.3026032923980893
  0.3082542020718293  0.4084179731985245  0.3005919570357989
  0.4747130349060811  0.3296203501903676  0.7911264637887072
  0.1229583740207190  0.5083353535953705  0.7536196625876883
  0.2973774713200470  0.1561517074207259  0.7853220006424735
  0.4712737161922433  0.4493237988872281  0.5333676989428113
  0.1402763262414908  0.1183543490033969  0.5395823466295724
  0.4755032100117589  0.0731033457149337  0.2975150689184431
  0.2767546547531907  0.1062851389485076  0.3339233524123415
  0.1137268719657740  0.0679112957326140  0.0936193752177843
  0.1130412334931279  0.1968373907908045  0.8236294371970558
  0.2991517984139094  0.3319914509299622  0.7896428368568706
  0.1113546835010553  0.3216537274553986  0.5857605671553188
  0.2743779415934213  0.4851369701656338  0.5762531334115195
  0.4487718966002703  0.2776173364944512  0.3343634243455043
  0.1112343754131047  0.4428307952528385  0.3366049334785828
  0.4505588560626634  0.4007342534312244  0.0969914461033099
  0.8030306334242852  0.2865300721027424  0.5403167930822548
  0.6426407543431409  0.2423820235104515  0.3052290091299241
  0.8079116450749453  0.4080094266485332  0.3028995899155689
  0.9658309377144860  0.3272072240043471  0.7913074768297363
  0.6423388680695723  0.4994999160188343  0.7894391029013548
  0.7996475808440238  0.1637339690606083  0.7835963484754132
  0.9677411681527630  0.4478816671242001  0.5320825184692808
  0.6401814846794878  0.1197870828666581  0.5411285026322190
  0.9747509175406321  0.0731345672243933  0.2956518859945021
  0.7761950209195518  0.1084146792795337  0.3361401279219152
  0.6135507577404624  0.0686922407627435  0.0961208318904951
  0.6138579300222702  0.1969214779146427  0.8246354986911300
  0.7750959484804341  0.3588168006933117  0.8210505879253134
  0.6122603810865712  0.3241484195471926  0.5867366436903012
  0.7726510790902594  0.4859313890014292  0.5792131053227365
  0.9466099218468926  0.2773939919562665  0.3347007497253358
  0.6127446526235474  0.4452928283875863  0.3371961195713880
  0.9463071117179780  0.4009515860417707  0.0940759682969841
  0.3030373182023567  0.7862833361617660  0.5378097863688396
  0.1413772057670855  0.7428570011152971  0.3028267243711227
  0.3072477456178149  0.9068536065846686  0.3018498126744973
  0.4662827605143605  0.8269438219575633  0.7903238720698198
  0.1379765155396555  0.9961185959003132  0.7882875762387300
  0.3011167297304667  0.6641973672963957  0.7819767831852786
  0.4693268390476177  0.9493509514237246  0.5361106732236820
  0.1417541974445058  0.6213155543993381  0.5327414947419626
  0.4777961726233642  0.5747983614252732  0.2947675963071390
  0.2773129132654901  0.6052575887961567  0.3297625111722269
  0.1131118951284336  0.5662089683877980  0.0922658906148470
  0.1144267153752025  0.6993194384407531  0.8226137100477473
  0.2749956034519840  0.8582365743013227  0.8204838423672172
  0.1106350203545574  0.8241653166945753  0.5870612970433911
  0.2716983933048240  0.9839073835180159  0.5777588325010328
  0.4465749493867719  0.7789544141314195  0.3338462226546852
  0.1099816935898588  0.9443778623811667  0.3369626068236471
  0.4464411985156431  0.9017372497769500  0.0951432340474128
  0.8022717232869496  0.7877460105119738  0.5407636464050540
  0.6421625764677898  0.7433805546573780  0.3049569135184456
  0.8070960337558262  0.9087902536183776  0.3038579005985866
  0.9659290937389926  0.8268480759739703  0.7911034070432024
  0.6392997814475407  0.9983838208449356  0.7896464738757984
  0.7992080749651365  0.6651421915304709  0.7836925069202678
  0.9688619736483730  0.9484787626139592  0.5371212279513387
  0.6419967861299014  0.6206257809826639  0.5407221263124597
  0.9754375586119650  0.5734941287175772  0.2951926354754377
  0.7771064768002987  0.6095201683884710  0.3360895635299528
  0.6148499680701036  0.5695141111632438  0.0939574443472893
  0.6134914999563250  0.6984119087098861  0.8238408319223822
  0.7745721551303149  0.8598082886155254  0.8215451751824929
  0.6102986861852884  0.8247729061395148  0.5881867727421124
  0.7713688706810089  0.9861197863502369  0.5802628201695654
  0.9460598005377250  0.7793414586344696  0.3368525550370762
  0.6107497976607590  0.9447601096070315  0.3378302663348407
  0.9464915523256607  0.9029144635545308  0.0957506061723805
  0.4825346859047528  0.1955286353858483  0.0387967738811383
  0.1422753629688671  0.3658954679300450  0.0394663812567160
  0.3089455188152996  0.0229047516542238  0.0384826678772114
  0.2845443415578757  0.2288830819206424  0.0827562425919552
  0.4473974488761812  0.0208287069839557  0.8224422756289016
  0.4422451745351736  0.1552629280168460  0.5778573821285917
  0.9821314390266238  0.1976209132695743  0.0384447987857968
  0.6430682779962140  0.3655874519523081  0.0383285586107363
  0.8088429714839691  0.0257305904490508  0.0400591046592780
  0.7837834426762953  0.2300331418037302  0.0823343821387752
  0.9458164694336020  0.0225408689694007  0.8243469718926733
  0.9441914982282853  0.1522176170342178  0.5744435198435696
  0.4813849664782452  0.6972016075715786  0.0383910519078938
  0.1401200700228173  0.8645871644466183  0.0373889108878842
  0.3175713183146698  0.5189468468425034  0.0325380697700126
  0.2829175725065127  0.7264355883855487  0.0810914345978446
  0.4509155781292762  0.5234171917139605  0.8181181048954542
  0.4449230109937901  0.6537654980420129  0.5707296407904323
  0.9793972928695212  0.6992972727688951  0.0426032307145690
  0.6399797416521693  0.8662511024271708  0.0375719451550438
  0.8087252146122026  0.5263995561650390  0.0422199762811246
  0.7824671475680987  0.7321873318684808  0.0826259174524395
  0.9415945588855266  0.5241854352386994  0.8263413091551683
  0.9442680947981472  0.6536963548730412  0.5751025599995145
  0.2387782386300898  0.3682400138593636  0.6331009633317422
  0.0757916032273869  0.3237301931025627  0.3953287756616675
  0.2395411338460178  0.4873764283839819  0.3876943483630768
  0.4207009290363004  0.2865093380648602  0.1492348650279780
  0.0725510201982118  0.4490973632506368  0.1433693237506972
  0.2376045173111265  0.1042570823834765  0.1486809574206376
  0.3991891556931648  0.4035508223329529  0.9046033071067825
  0.0848054827933638  0.0829943675068421  0.8986595460769493
  0.2359592490975686  0.2453441185686529  0.8774918525913620
  0.3973469003615406  0.0246298556311544  0.6205025811564369
  0.0843815077929904  0.2032336452930608  0.6366653284611203
  0.4042825058252859  0.1569088888395669  0.3712010484026962
  0.2161545124929845  0.1898206624111367  0.4322454214469715
  0.0556737809157681  0.1455050168789640  0.1975366464867534
  0.2154584594988478  0.3161332866781379  0.1962388296085038
  0.3713596402624972  0.1140837724557286  0.9169984055253764
  0.0487701124557987  0.2789479689189278  0.9059836888733273
  0.3672054963393236  0.2496437057757745  0.6895807233896249
  0.0426866346335828  0.4035590170754517  0.6803273585496115
  0.2102355379622907  0.0667881834963353  0.6744989996826263
  0.3816983692663314  0.3552287633756492  0.4296319048868611
  0.0467382860478125  0.0260347560636234  0.4374261475823147
  0.3889318565295170  0.4771066336099423  0.1967572004633737
  0.7391168772506447  0.3677714676126129  0.6321305832300794
  0.5754197360967837  0.3256380410000759  0.3964061321514123
  0.7405529123738575  0.4896269156007804  0.3900939072715985
  0.9212020431952439  0.2867963284523540  0.1495280704077047
  0.5734580996779925  0.4524054683658747  0.1459341343981322
  0.7369310614098623  0.1052388338401471  0.1504485888354807
  0.9020898189665090  0.3998099350302340  0.9015270064277843
  0.5836329606237598  0.0833163316106749  0.9011134723585101
  0.7363614115864934  0.2445055637965510  0.8761447691971043
  0.8978493496380224  0.0225578123849743  0.6219163304257762
  0.5813118470693937  0.2044980102179537  0.6370566998467524
  0.9045818620339716  0.1561527345015534  0.3682859003438068
  0.7163249775873552  0.1909663680796498  0.4358541360276718
  0.5556259388826419  0.1465795590503873  0.2008380330326744
  0.7172955641625762  0.3156871426689563  0.2002567911262787
  0.8720827184907307  0.1160858372694733  0.9173684584851642
  0.5452071234341958  0.2751318912341532  0.9062898306184408
  0.7114703563928231  0.4401253177214315  0.9053120142992910
  0.8739069738476601  0.2413285586399709  0.6812670184939122
  0.5418826785424713  0.4082578718302941  0.6837893370828354
  0.7104953441802664  0.0693240689214889  0.6766823882861459
  0.8812139014963591  0.3540553956895991  0.4321382349203873
  0.5469818609376773  0.0264853041374451  0.4382642609806311
  0.8881481568381204  0.4765930591684935  0.1989814836267456
  0.2383920462662630  0.8659506296779824  0.6309334521946468
  0.0748776084659113  0.8238946093463824  0.3952784550034991
  0.2383504599202624  0.9878542536145076  0.3889099320517388
  0.4185076586918512  0.7861433679407455  0.1477763605890701
  0.0718286700579540  0.9516072649922691  0.1459670079424740
  0.2381992037926253  0.5918053465156845  0.1376157039924308
  0.4003781582662214  0.8994708113941527  0.9022411390858167
  0.0866344702970565  0.5769574491423271  0.8933768192472655
  0.2373088452470711  0.7423356690164624  0.8755842492562635
  0.3991580711798193  0.5227576990975251  0.6175929658218777
  0.0850745032329812  0.7021105181055063  0.6343777143673037
  0.4038062501883957  0.6553676627561416  0.3630497875108105
  0.2178111386894059  0.6892818103696783  0.4275297149444270
  0.0573794834931292  0.6441731357861542  0.1955821617246514
  0.2170140957085849  0.8130480379703755  0.1968304838063801
  0.3711305308797819  0.6110962992898195  0.9137449582883548
  0.0438478120989600  0.7718517933080236  0.9039806752776656
  0.2091001966897394  0.9379768272581259  0.9039303903926310
  0.3729479071652548  0.7401702954981317  0.6788446109473156
  0.0409030290150767  0.9050571174530333  0.6833637897940079
  0.2133689165420307  0.5681424822002441  0.6705194496563536
  0.3809803293783389  0.8549763293690233  0.4325184591123588
  0.0483964311658838  0.5251224514402537  0.4362470554514246
  0.3865413424138140  0.9769915278978729  0.1998325261038261
  0.7377125191901754  0.8679361290863383  0.6326017043148724
  0.5740441075230578  0.8245917311881854  0.3962831354655805
  0.7387372918696400  0.9895314544501801  0.3909877634517045
  0.9196772965836288  0.7885049898748093  0.1517978117239664
  0.5708576228736533  0.9521774337806264  0.1471068813680105
  0.7377718757620357  0.6061750149591063  0.1507172496975429
  0.9014826232121464  0.8996401779543746  0.9028619798397628
  0.5861404276180835  0.5827975596253978  0.8990854364275975
  0.7360739327356853  0.7449612216076957  0.8759064664069172
  0.8999086711524811  0.5220338110113332  0.6218281429483383
  0.5832628248781830  0.7036510541212593  0.6359197353208117
  0.9058451295952281  0.6561563892839928  0.3679133901869704
  0.7168911680360921  0.6913132163729472  0.4343340081523408
  0.5566290080613570  0.6468595100973999  0.1971767571512260
  0.7158824218945057  0.8169205514153077  0.1998061871886634
  0.8706578049044040  0.6164228181834162  0.9188673330898709
  0.5435640114170894  0.7741877732684372  0.9043732642264999
  0.7098937121533453  0.9402596900256270  0.9054971777950342
  0.8729178901364065  0.7410871512195527  0.6804873554993591
  0.5398558621275384  0.9073848075628419  0.6848738843537916
  0.7124451923424715  0.5689679737819375  0.6751639561999525
  0.8806174985061901  0.8551754929275290  0.4336261348613277
  0.5481981654296035  0.5269257988163787  0.4359613683693624
  0.8865096626224584  0.9773608532627520  0.1994803719741753
 
  0.00000000E+00  0.00000000E+00  0.00000000E+00
  0.00000000E+00  0.00000000E+00  0.00000000E+00
  0.00000000E+00  0.00000000E+00  0.00000000E+00
  0.00000000E+00  0.00000000E+00  0.00000000E+00
  0.00000000E+00  0.00000000E+00  0.00000000E+00
  0.00000000E+00  0.00000000E+00  0.00000000E+00
  0.00000000E+00  0.00000000E+00  0.00000000E+00
  0.00000000E+00  0.00000000E+00  0.00000000E+00
  0.00000000E+00  0.00000000E+00  0.00000000E+00
  0.00000000E+00  0.00000000E+00  0.00000000E+00
  0.00000000E+00  0.00000000E+00  0.00000000E+00
  0.00000000E+00  0.00000000E+00  0.00000000E+00
  0.00000000E+00  0.00000000E+00  0.00000000E+00
  0.00000000E+00  0.00000000E+00  0.00000000E+00
  0.00000000E+00  0.00000000E+00  0.00000000E+00
  0.00000000E+00  0.00000000E+00  0.00000000E+00
  0.00000000E+00  0.00000000E+00  0.00000000E+00
  0.00000000E+00  0.00000000E+00  0.00000000E+00
  0.00000000E+00  0.00000000E+00  0.00000000E+00
  0.00000000E+00  0.00000000E+00  0.00000000E+00
  0.00000000E+00  0.00000000E+00  0.00000000E+00
  0.00000000E+00  0.00000000E+00  0.00000000E+00
  0.00000000E+00  0.00000000E+00  0.00000000E+00
  0.00000000E+00  0.00000000E+00  0.00000000E+00
  0.00000000E+00  0.00000000E+00  0.00000000E+00
  0.00000000E+00  0.00000000E+00  0.00000000E+00
  0.00000000E+00  0.00000000E+00  0.00000000E+00
  0.00000000E+00  0.00000000E+00  0.00000000E+00
  0.00000000E+00  0.00000000E+00  0.00000000E+00
  0.00000000E+00  0.00000000E+00  0.00000000E+00
  0.00000000E+00  0.00000000E+00  0.00000000E+00
  0.00000000E+00  0.00000000E+00  0.00000000E+00
  0.00000000E+00  0.00000000E+00  0.00000000E+00
  0.00000000E+00  0.00000000E+00  0.00000000E+00
  0.00000000E+00  0.00000000E+00  0.00000000E+00
  0.00000000E+00  0.00000000E+00  0.00000000E+00
  0.00000000E+00  0.00000000E+00  0.00000000E+00
  0.00000000E+00  0.00000000E+00  0.00000000E+00
  0.00000000E+00  0.00000000E+00  0.00000000E+00
  0.00000000E+00  0.00000000E+00  0.00000000E+00
  0.00000000E+00  0.00000000E+00  0.00000000E+00
  0.00000000E+00  0.00000000E+00  0.00000000E+00
  0.00000000E+00  0.00000000E+00  0.00000000E+00
  0.00000000E+00  0.00000000E+00  0.00000000E+00
  0.00000000E+00  0.00000000E+00  0.00000000E+00
  0.00000000E+00  0.00000000E+00  0.00000000E+00
  0.00000000E+00  0.00000000E+00  0.00000000E+00
  0.00000000E+00  0.00000000E+00  0.00000000E+00
  0.00000000E+00  0.00000000E+00  0.00000000E+00
  0.00000000E+00  0.00000000E+00  0.00000000E+00
  0.00000000E+00  0.00000000E+00  0.00000000E+00
  0.00000000E+00  0.00000000E+00  0.00000000E+00
  0.00000000E+00  0.00000000E+00  0.00000000E+00
  0.00000000E+00  0.00000000E+00  0.00000000E+00
  0.00000000E+00  0.00000000E+00  0.00000000E+00
  0.00000000E+00  0.00000000E+00  0.00000000E+00
  0.00000000E+00  0.00000000E+00  0.00000000E+00
  0.00000000E+00  0.00000000E+00  0.00000000E+00
  0.00000000E+00  0.00000000E+00  0.00000000E+00
  0.00000000E+00  0.00000000E+00  0.00000000E+00
  0.00000000E+00  0.00000000E+00  0.00000000E+00
  0.00000000E+00  0.00000000E+00  0.00000000E+00
  0.00000000E+00  0.00000000E+00  0.00000000E+00
  0.00000000E+00  0.00000000E+00  0.00000000E+00
  0.00000000E+00  0.00000000E+00  0.00000000E+00
  0.00000000E+00  0.00000000E+00  0.00000000E+00
  0.00000000E+00  0.00000000E+00  0.00000000E+00
  0.00000000E+00  0.00000000E+00  0.00000000E+00
  0.00000000E+00  0.00000000E+00  0.00000000E+00
  0.00000000E+00  0.00000000E+00  0.00000000E+00
  0.00000000E+00  0.00000000E+00  0.00000000E+00
  0.00000000E+00  0.00000000E+00  0.00000000E+00
  0.00000000E+00  0.00000000E+00  0.00000000E+00
  0.00000000E+00  0.00000000E+00  0.00000000E+00
  0.00000000E+00  0.00000000E+00  0.00000000E+00
  0.00000000E+00  0.00000000E+00  0.00000000E+00
  0.00000000E+00  0.00000000E+00  0.00000000E+00
  0.00000000E+00  0.00000000E+00  0.00000000E+00
  0.00000000E+00  0.00000000E+00  0.00000000E+00
  0.00000000E+00  0.00000000E+00  0.00000000E+00
  0.00000000E+00  0.00000000E+00  0.00000000E+00
  0.00000000E+00  0.00000000E+00  0.00000000E+00
  0.00000000E+00  0.00000000E+00  0.00000000E+00
  0.00000000E+00  0.00000000E+00  0.00000000E+00
  0.00000000E+00  0.00000000E+00  0.00000000E+00
  0.00000000E+00  0.00000000E+00  0.00000000E+00
  0.00000000E+00  0.00000000E+00  0.00000000E+00
  0.00000000E+00  0.00000000E+00  0.00000000E+00
  0.00000000E+00  0.00000000E+00  0.00000000E+00
  0.00000000E+00  0.00000000E+00  0.00000000E+00
  0.00000000E+00  0.00000000E+00  0.00000000E+00
  0.00000000E+00  0.00000000E+00  0.00000000E+00
  0.00000000E+00  0.00000000E+00  0.00000000E+00
  0.00000000E+00  0.00000000E+00  0.00000000E+00
  0.00000000E+00  0.00000000E+00  0.00000000E+00
  0.00000000E+00  0.00000000E+00  0.00000000E+00
  0.00000000E+00  0.00000000E+00  0.00000000E+00
  0.00000000E+00  0.00000000E+00  0.00000000E+00
  0.00000000E+00  0.00000000E+00  0.00000000E+00
  0.00000000E+00  0.00000000E+00  0.00000000E+00
  0.00000000E+00  0.00000000E+00  0.00000000E+00
  0.00000000E+00  0.00000000E+00  0.00000000E+00
  0.00000000E+00  0.00000000E+00  0.00000000E+00
  0.00000000E+00  0.00000000E+00  0.00000000E+00
  0.00000000E+00  0.00000000E+00  0.00000000E+00
  0.00000000E+00  0.00000000E+00  0.00000000E+00
  0.00000000E+00  0.00000000E+00  0.00000000E+00
  0.00000000E+00  0.00000000E+00  0.00000000E+00
  0.00000000E+00  0.00000000E+00  0.00000000E+00
  0.00000000E+00  0.00000000E+00  0.00000000E+00
  0.00000000E+00  0.00000000E+00  0.00000000E+00
  0.00000000E+00  0.00000000E+00  0.00000000E+00
  0.00000000E+00  0.00000000E+00  0.00000000E+00
  0.00000000E+00  0.00000000E+00  0.00000000E+00
  0.00000000E+00  0.00000000E+00  0.00000000E+00
  0.00000000E+00  0.00000000E+00  0.00000000E+00
  0.00000000E+00  0.00000000E+00  0.00000000E+00
  0.00000000E+00  0.00000000E+00  0.00000000E+00
  0.00000000E+00  0.00000000E+00  0.00000000E+00
  0.00000000E+00  0.00000000E+00  0.00000000E+00
  0.00000000E+00  0.00000000E+00  0.00000000E+00
  0.00000000E+00  0.00000000E+00  0.00000000E+00
  0.00000000E+00  0.00000000E+00  0.00000000E+00
  0.00000000E+00  0.00000000E+00  0.00000000E+00
  0.00000000E+00  0.00000000E+00  0.00000000E+00
  0.00000000E+00  0.00000000E+00  0.00000000E+00
  0.00000000E+00  0.00000000E+00  0.00000000E+00
  0.00000000E+00  0.00000000E+00  0.00000000E+00
  0.00000000E+00  0.00000000E+00  0.00000000E+00
  0.00000000E+00  0.00000000E+00  0.00000000E+00
  0.00000000E+00  0.00000000E+00  0.00000000E+00
  0.00000000E+00  0.00000000E+00  0.00000000E+00
  0.00000000E+00  0.00000000E+00  0.00000000E+00
  0.00000000E+00  0.00000000E+00  0.00000000E+00
  0.00000000E+00  0.00000000E+00  0.00000000E+00
  0.00000000E+00  0.00000000E+00  0.00000000E+00
  0.00000000E+00  0.00000000E+00  0.00000000E+00
  0.00000000E+00  0.00000000E+00  0.00000000E+00
  0.00000000E+00  0.00000000E+00  0.00000000E+00
  0.00000000E+00  0.00000000E+00  0.00000000E+00
  0.00000000E+00  0.00000000E+00  0.00000000E+00
  0.00000000E+00  0.00000000E+00  0.00000000E+00
  0.00000000E+00  0.00000000E+00  0.00000000E+00
  0.00000000E+00  0.00000000E+00  0.00000000E+00
  0.00000000E+00  0.00000000E+00  0.00000000E+00
  0.00000000E+00  0.00000000E+00  0.00000000E+00
  0.00000000E+00  0.00000000E+00  0.00000000E+00
  0.00000000E+00  0.00000000E+00  0.00000000E+00
  0.00000000E+00  0.00000000E+00  0.00000000E+00
  0.00000000E+00  0.00000000E+00  0.00000000E+00
  0.00000000E+00  0.00000000E+00  0.00000000E+00
  0.00000000E+00  0.00000000E+00  0.00000000E+00
  0.00000000E+00  0.00000000E+00  0.00000000E+00
  0.00000000E+00  0.00000000E+00  0.00000000E+00
  0.00000000E+00  0.00000000E+00  0.00000000E+00
  0.00000000E+00  0.00000000E+00  0.00000000E+00
  0.00000000E+00  0.00000000E+00  0.00000000E+00
  0.00000000E+00  0.00000000E+00  0.00000000E+00
  0.00000000E+00  0.00000000E+00  0.00000000E+00
  0.00000000E+00  0.00000000E+00  0.00000000E+00
  0.00000000E+00  0.00000000E+00  0.00000000E+00
  0.00000000E+00  0.00000000E+00  0.00000000E+00
  0.00000000E+00  0.00000000E+00  0.00000000E+00
  0.00000000E+00  0.00000000E+00  0.00000000E+00
  0.00000000E+00  0.00000000E+00  0.00000000E+00
  0.00000000E+00  0.00000000E+00  0.00000000E+00
  0.00000000E+00  0.00000000E+00  0.00000000E+00
  0.00000000E+00  0.00000000E+00  0.00000000E+00
  0.00000000E+00  0.00000000E+00  0.00000000E+00
  0.00000000E+00  0.00000000E+00  0.00000000E+00
  0.00000000E+00  0.00000000E+00  0.00000000E+00
  0.00000000E+00  0.00000000E+00  0.00000000E+00
  0.00000000E+00  0.00000000E+00  0.00000000E+00
  0.00000000E+00  0.00000000E+00  0.00000000E+00
  0.00000000E+00  0.00000000E+00  0.00000000E+00
  0.00000000E+00  0.00000000E+00  0.00000000E+00
  0.00000000E+00  0.00000000E+00  0.00000000E+00
  0.00000000E+00  0.00000000E+00  0.00000000E+00
  0.00000000E+00  0.00000000E+00  0.00000000E+00
  0.00000000E+00  0.00000000E+00  0.00000000E+00
  0.00000000E+00  0.00000000E+00  0.00000000E+00
  0.00000000E+00  0.00000000E+00  0.00000000E+00
  0.00000000E+00  0.00000000E+00  0.00000000E+00
  0.00000000E+00  0.00000000E+00  0.00000000E+00
  0.00000000E+00  0.00000000E+00  0.00000000E+00
  0.00000000E+00  0.00000000E+00  0.00000000E+00
  0.00000000E+00  0.00000000E+00  0.00000000E+00
  0.00000000E+00  0.00000000E+00  0.00000000E+00
  0.00000000E+00  0.00000000E+00  0.00000000E+00
  0.00000000E+00  0.00000000E+00  0.00000000E+00
  0.00000000E+00  0.00000000E+00  0.00000000E+00
