supercell of POSCAR                     
   1.07329600000000     
     9.1016125577399993   -5.3128209557800004   -9.4184911254399992
     9.0821131104399999    5.2871675818400004    9.4140884809200003
    -1.5053809694200000   -7.9210976524300012    4.6939078171600004
   Al   Sc   N 
    71    24    96
Direct
  0.3023336066886557  0.2872685691942181  0.5409777795973412
  0.1381295025194618  0.2439675959715402  0.3124190832785629
  0.3061843496832424  0.4119933650435996  0.3087777183669900
  0.4666385830002113  0.3262995083901856  0.7900799990458012
  0.1404534717106642  0.4995857386872942  0.7916219363362771
  0.3004955752768126  0.1633504507620103  0.7843694272439592
  0.4690525696925789  0.4475439342500849  0.5393886048087566
  0.1426587278451379  0.1209992654268319  0.5434488627045440
  0.4761494605080117  0.0730945961500709  0.2937592158675173
  0.2769948695757378  0.1091072794871835  0.3351202756625256
  0.1146043614395467  0.0688583590532730  0.0942634375055960
  0.1152775782351085  0.1973947327171288  0.8324831498136120
  0.2746336139650509  0.3584338666909943  0.8240051396305006
  0.1100270822243843  0.3218146262523263  0.5933821268729531
  0.2730037109767451  0.4862419265348947  0.5805172506328518
  0.4463140806007431  0.2786344709604123  0.3355109365200803
  0.4466683730263412  0.4014992571148213  0.0948318081888289
  0.8028034264656299  0.2858216018735575  0.5389864354614957
  0.6417313734568282  0.2416684338867370  0.3026443782082353
  0.8075069888142750  0.4080122976217098  0.3038847335542840
  0.9658765407578898  0.3257082127930744  0.7942059134186579
  0.6380947704371280  0.4963463539172892  0.7874973626926476
  0.8007839576344153  0.1623333348695368  0.7798426123839235
  0.9699270476719732  0.4495058828709659  0.5394526038004628
  0.6412150025130856  0.1182599175928800  0.5385121026567248
  0.9749535363410615  0.0741510649299570  0.2929758482457956
  0.7751108482779543  0.1065837459350263  0.3316918508006452
  0.6138365201984755  0.0677747952939640  0.0903581874756441
  0.6124596858998359  0.1948058498598044  0.8224384434686698
  0.7711020940804616  0.3564168429789305  0.8178097881239097
  0.6096485100731570  0.3219741110584735  0.5858303477472759
  0.7716980384525840  0.4839300754286597  0.5820451452349218
  0.9459255003938623  0.2776120200666696  0.3372868562186326
  0.6105260292214396  0.4443079639363319  0.3377922238354572
  0.9425279872367653  0.4019021308260307  0.0899292990817102
  0.3035906987515347  0.7866873482599672  0.5385543978382614
  0.1426726154575846  0.7433163464544279  0.3044426404167524
  0.3085733654098064  0.9082900841567465  0.3014284578916886
  0.4680435597593586  0.8252381172354291  0.7876704885532604
  0.1408157553102996  0.9983201396566770  0.7880904827782373
  0.2994275057268396  0.6639815525892487  0.7831104009323440
  0.4710984364549375  0.9480466800419904  0.5340444630745935
  0.1405340954005325  0.6195863588350363  0.5396973990563083
  0.4746095099949201  0.5732680813040147  0.2944150764486935
  0.2770696048949048  0.6087755462255728  0.3365483704363186
  0.1128497172207830  0.5733744076650495  0.0880508183711939
  0.1152097662713913  0.7020980524987763  0.8217910282969783
  0.2770687221656161  0.8602427063904443  0.8195585061526742
  0.1122552061380446  0.8263205681940846  0.5863815586170631
  0.2738073943310155  0.9861090129037464  0.5779804399258666
  0.4485032514373799  0.7793366484713786  0.3341381627464060
  0.1114804207083253  0.9459485486928685  0.3364325037802161
  0.4481368453103016  0.9023088414080220  0.0921556147608200
  0.8058108071175170  0.7842640196996840  0.5382137459075977
  0.6428614602333695  0.7414920744852864  0.3028462583611500
  0.8085669119793621  0.9071444512180165  0.3000110149271791
  0.9677787238426916  0.8260116153449957  0.7857212020160702
  0.6406936957017493  0.9960014016316094  0.7855003759877448
  0.8030282669054145  0.6611261423895129  0.7800253053925559
  0.9703918215132390  0.9502120874102431  0.5344150527583267
  0.6407618183879435  0.6187539124378958  0.5398093237780515
  0.9764012488019631  0.5730333436468555  0.2956392583935425
  0.7769650143767493  0.6080854257880404  0.3342416034639228
  0.6138751956998760  0.5676390567489662  0.0934142301551688
  0.6143884462272524  0.6957041246209812  0.8218966859442887
  0.7769441815826639  0.8574817372917991  0.8180093674336746
  0.6122040725562172  0.8224910266534167  0.5851940497481039
  0.7740205955989126  0.9849181817968926  0.5761408603885840
  0.9472400320148040  0.7784999986251790  0.3336382116895180
  0.6118056756227617  0.9435833591838048  0.3344173640001529
  0.9485088823624608  0.9018775560960464  0.0915354117660243
  0.4792716202931402  0.1969964552863246  0.0384347142834542
  0.1358267017634844  0.3721894481008619  0.0463437354722842
  0.3099149618658785  0.0270234242793279  0.0382027894438011
  0.2803386491405533  0.2350356098188513  0.0892804383445736
  0.4479044185963517  0.0212883853403767  0.8206098124270937
  0.4435846051495602  0.1530338492140046  0.5732273567528665
  0.9812209544577755  0.1978198521556820  0.0415755448194162
  0.6396008916826830  0.3639865760271093  0.0370236226864549
  0.8101766810812308  0.0245400821492083  0.0359850534300534
  0.7838803013479563  0.2303634854157082  0.0800245262928598
  0.9486674834836535  0.0238724846616591  0.8201643470706017
  0.9497575667880298  0.1565938489537899  0.5672883416479522
  0.4820737422618677  0.6979622276823250  0.0396979260768617
  0.1428503217634471  0.8666107438502522  0.0369240325277929
  0.3076105249392924  0.5258219821323920  0.0425040841749720
  0.2847489503917160  0.7306982429339115  0.0809924728810429
  0.4457779354718312  0.5232172578301615  0.8313129768931304
  0.4423468223029019  0.6484880698606403  0.5710467363937752
  0.9825436421112741  0.6979264615404261  0.0370652325739869
  0.6423365537138324  0.8644453812597206  0.0347623609381031
  0.8081691465276393  0.5231388964652339  0.0376858127563438
  0.7850859512500890  0.7282546312939999  0.0792458574110739
  0.9510455102691679  0.5179773344447156  0.8323734753847560
  0.9520646233211210  0.6429584997707423  0.5667573538688941
  0.2386734558695025  0.3669037257310421  0.6347467195857206
  0.0640786260471771  0.2994388726359816  0.4145087865851593
  0.2601504190893209  0.4995341936355260  0.4015278786702865
  0.4196959411039174  0.2868269687965395  0.1501680516074515
  0.0561165472884255  0.4596797459591215  0.0912529033735012
  0.2384249960313056  0.1055271241186020  0.1492349315036066
  0.4024792833231672  0.3976054024480291  0.9026138175785761
  0.0864982053292778  0.0806305558767022  0.9010697146125253
  0.2391887867087945  0.2427970631214649  0.8796655312696302
  0.4001562875738855  0.0221094761328189  0.6178429369695806
  0.0872149867854048  0.2003161584584063  0.6482373798941907
  0.4057157968577840  0.1553864735297736  0.3659249400014914
  0.2184823778270655  0.1895993304108003  0.4357676551346330
  0.0565233134350223  0.1448189142967777  0.1967011166983070
  0.2144978883519428  0.3176361452032381  0.2070262009963173
  0.3738526657085259  0.1123183189776569  0.9124611020775433
  0.0452279106003743  0.2740213781908523  0.9089597504103040
  0.2111053603351394  0.4393218545331621  0.9071341117303930
  0.3732909849121455  0.2402343618734051  0.6805462098514994
  0.0407771512452086  0.4070791953249611  0.6900949823532372
  0.2134769117726378  0.0675043463816607  0.6751276436990779
  0.3820844683457594  0.3537868241770852  0.4344587279791270
  0.0479284248334295  0.0282040748709989  0.4362321484214604
  0.3879523882407199  0.4764738951887750  0.1969111281936833
  0.7357350953620099  0.3643439873396090  0.6293933735437705
  0.5746797022081580  0.3234363053504552  0.3941628449948169
  0.7385656907196321  0.4888750442243719  0.3914575052632259
  0.9195942274043674  0.2878567715110734  0.1507321823123036
  0.5719954761192554  0.4511577908373567  0.1464743914001545
  0.7367336998479814  0.1036333939996510  0.1451668233900634
  0.8922601381800561  0.3938316319439963  0.8976329991675627
  0.5854056136622532  0.0794426115825360  0.8957711724311466
  0.7348103264483825  0.2406817531728223  0.8724600619718501
  0.8995172855880682  0.0253248353938531  0.6174826816768686
  0.5828238471996272  0.2010443656449752  0.6342604174676651
  0.8995484574331059  0.1525287098338879  0.3613556360298915
  0.7156121132708648  0.1892557879217591  0.4318148172378216
  0.5561853324810784  0.1451626529674854  0.1953343651496269
  0.7164563280682614  0.3149546968087193  0.1984135024518423
  0.8722824291789451  0.1147336770951242  0.9146809909273657
  0.5440291274082369  0.2721150591148174  0.9035287323551131
  0.7073166821503989  0.4374655831716510  0.9037125834448645
  0.8740394016922153  0.2390924466676552  0.6773953314995538
  0.5420731483535235  0.4032159203026282  0.6822686796131237
  0.7118087540594829  0.0665916808807978  0.6722712046325725
  0.8796701768158499  0.3552752123723479  0.4338453976138155
  0.5481537002694381  0.0250289756851743  0.4339347284950534
  0.8847656641900770  0.4768086764932278  0.1994804140861746
  0.2408499490899061  0.8688385113258548  0.6306530797064198
  0.0756658244960420  0.8268253923279900  0.3949193459663292
  0.2403355482453691  0.9892261568678791  0.3885067494625787
  0.4219903882714462  0.7887581160822847  0.1489758620822244
  0.0731504629334196  0.9520792169795627  0.1458301123162684
  0.2366529898600973  0.6068231813675027  0.1496527390770552
  0.4038576362635808  0.8989619326399847  0.8994969519911962
  0.0878500613714408  0.5906219548537024  0.8932489194322102
  0.2388627670696835  0.7470828752043843  0.8759091978784923
  0.4021192338120301  0.5208452583975145  0.6320045793813449
  0.0875743998740646  0.7100754199504422  0.6377065320882380
  0.4074160129616757  0.6592750759353621  0.3649183292912994
  0.2170245543467004  0.6924626135601173  0.4338655165091652
  0.0563558677793807  0.6491982543893684  0.1991448737709760
  0.2180822783606331  0.8163758533052885  0.1987283330008509
  0.3704439482233752  0.6171601090439083  0.9207065079631533
  0.0457131512396884  0.7781461507144343  0.9053102382307259
  0.2123520566452726  0.9404221435029498  0.9036217761077410
  0.3739127586073110  0.7398881010908624  0.6784721691610898
  0.0421128346906556  0.9084419158689698  0.6819009847431161
  0.2119923588311252  0.5691189370441236  0.6769734212378964
  0.3822579529228065  0.8553015058117879  0.4311723454036738
  0.0316338868919459  0.5453607013187565  0.4601665841343987
  0.3878992746394161  0.9769688443680522  0.1963173391318875
  0.7402521509304023  0.8661124223790111  0.6290320161047092
  0.5765887042331173  0.8247092394604891  0.3938814772039834
  0.7390745966092140  0.9873451065602836  0.3865986324730031
  0.9208764329469048  0.7880448889560583  0.1477014140991528
  0.5730159506199470  0.9512653049966246  0.1434667139922254
  0.7367071152721820  0.6035679296516250  0.1481830547377996
  0.9025328558490457  0.9004993469006166  0.8983805089446122
  0.5850557867681516  0.5815662835808837  0.8989861764883429
  0.7378595207364711  0.7425527109539090  0.8725708612540970
  0.8950481510570683  0.5191231505946661  0.6335890843945009
  0.5824684529315434  0.7026063091793873  0.6342914203663881
  0.9021536424451071  0.6581844130429246  0.3638745548869267
  0.7161006612155276  0.6898902472169368  0.4333520410672733
  0.5567004722100890  0.6453484311122963  0.1976969646461484
  0.7175437166054266  0.8141517543391430  0.1967700226645732
  0.8718274630190166  0.6142031349729962  0.9192271035877582
  0.5457816726673101  0.7733689360066478  0.9030275671422743
  0.7113952292735419  0.9379010772638452  0.9016038204003962
  0.8758377678987870  0.7382156123823691  0.6770726751102103
  0.5424988027813527  0.9047909721037399  0.6805675679505114
  0.7098598605901074  0.5673182030241648  0.6754504077626535
  0.8819464662191123  0.8558322409008241  0.4313716509978889
  0.5459591469957417  0.5256409871127019  0.4375764267792377
  0.8875809290345131  0.9759214897905366  0.1955873621559761
 
  0.00000000E+00  0.00000000E+00  0.00000000E+00
  0.00000000E+00  0.00000000E+00  0.00000000E+00
  0.00000000E+00  0.00000000E+00  0.00000000E+00
  0.00000000E+00  0.00000000E+00  0.00000000E+00
  0.00000000E+00  0.00000000E+00  0.00000000E+00
  0.00000000E+00  0.00000000E+00  0.00000000E+00
  0.00000000E+00  0.00000000E+00  0.00000000E+00
  0.00000000E+00  0.00000000E+00  0.00000000E+00
  0.00000000E+00  0.00000000E+00  0.00000000E+00
  0.00000000E+00  0.00000000E+00  0.00000000E+00
  0.00000000E+00  0.00000000E+00  0.00000000E+00
  0.00000000E+00  0.00000000E+00  0.00000000E+00
  0.00000000E+00  0.00000000E+00  0.00000000E+00
  0.00000000E+00  0.00000000E+00  0.00000000E+00
  0.00000000E+00  0.00000000E+00  0.00000000E+00
  0.00000000E+00  0.00000000E+00  0.00000000E+00
  0.00000000E+00  0.00000000E+00  0.00000000E+00
  0.00000000E+00  0.00000000E+00  0.00000000E+00
  0.00000000E+00  0.00000000E+00  0.00000000E+00
  0.00000000E+00  0.00000000E+00  0.00000000E+00
  0.00000000E+00  0.00000000E+00  0.00000000E+00
  0.00000000E+00  0.00000000E+00  0.00000000E+00
  0.00000000E+00  0.00000000E+00  0.00000000E+00
  0.00000000E+00  0.00000000E+00  0.00000000E+00
  0.00000000E+00  0.00000000E+00  0.00000000E+00
  0.00000000E+00  0.00000000E+00  0.00000000E+00
  0.00000000E+00  0.00000000E+00  0.00000000E+00
  0.00000000E+00  0.00000000E+00  0.00000000E+00
  0.00000000E+00  0.00000000E+00  0.00000000E+00
  0.00000000E+00  0.00000000E+00  0.00000000E+00
  0.00000000E+00  0.00000000E+00  0.00000000E+00
  0.00000000E+00  0.00000000E+00  0.00000000E+00
  0.00000000E+00  0.00000000E+00  0.00000000E+00
  0.00000000E+00  0.00000000E+00  0.00000000E+00
  0.00000000E+00  0.00000000E+00  0.00000000E+00
  0.00000000E+00  0.00000000E+00  0.00000000E+00
  0.00000000E+00  0.00000000E+00  0.00000000E+00
  0.00000000E+00  0.00000000E+00  0.00000000E+00
  0.00000000E+00  0.00000000E+00  0.00000000E+00
  0.00000000E+00  0.00000000E+00  0.00000000E+00
  0.00000000E+00  0.00000000E+00  0.00000000E+00
  0.00000000E+00  0.00000000E+00  0.00000000E+00
  0.00000000E+00  0.00000000E+00  0.00000000E+00
  0.00000000E+00  0.00000000E+00  0.00000000E+00
  0.00000000E+00  0.00000000E+00  0.00000000E+00
  0.00000000E+00  0.00000000E+00  0.00000000E+00
  0.00000000E+00  0.00000000E+00  0.00000000E+00
  0.00000000E+00  0.00000000E+00  0.00000000E+00
  0.00000000E+00  0.00000000E+00  0.00000000E+00
  0.00000000E+00  0.00000000E+00  0.00000000E+00
  0.00000000E+00  0.00000000E+00  0.00000000E+00
  0.00000000E+00  0.00000000E+00  0.00000000E+00
  0.00000000E+00  0.00000000E+00  0.00000000E+00
  0.00000000E+00  0.00000000E+00  0.00000000E+00
  0.00000000E+00  0.00000000E+00  0.00000000E+00
  0.00000000E+00  0.00000000E+00  0.00000000E+00
  0.00000000E+00  0.00000000E+00  0.00000000E+00
  0.00000000E+00  0.00000000E+00  0.00000000E+00
  0.00000000E+00  0.00000000E+00  0.00000000E+00
  0.00000000E+00  0.00000000E+00  0.00000000E+00
  0.00000000E+00  0.00000000E+00  0.00000000E+00
  0.00000000E+00  0.00000000E+00  0.00000000E+00
  0.00000000E+00  0.00000000E+00  0.00000000E+00
  0.00000000E+00  0.00000000E+00  0.00000000E+00
  0.00000000E+00  0.00000000E+00  0.00000000E+00
  0.00000000E+00  0.00000000E+00  0.00000000E+00
  0.00000000E+00  0.00000000E+00  0.00000000E+00
  0.00000000E+00  0.00000000E+00  0.00000000E+00
  0.00000000E+00  0.00000000E+00  0.00000000E+00
  0.00000000E+00  0.00000000E+00  0.00000000E+00
  0.00000000E+00  0.00000000E+00  0.00000000E+00
  0.00000000E+00  0.00000000E+00  0.00000000E+00
  0.00000000E+00  0.00000000E+00  0.00000000E+00
  0.00000000E+00  0.00000000E+00  0.00000000E+00
  0.00000000E+00  0.00000000E+00  0.00000000E+00
  0.00000000E+00  0.00000000E+00  0.00000000E+00
  0.00000000E+00  0.00000000E+00  0.00000000E+00
  0.00000000E+00  0.00000000E+00  0.00000000E+00
  0.00000000E+00  0.00000000E+00  0.00000000E+00
  0.00000000E+00  0.00000000E+00  0.00000000E+00
  0.00000000E+00  0.00000000E+00  0.00000000E+00
  0.00000000E+00  0.00000000E+00  0.00000000E+00
  0.00000000E+00  0.00000000E+00  0.00000000E+00
  0.00000000E+00  0.00000000E+00  0.00000000E+00
  0.00000000E+00  0.00000000E+00  0.00000000E+00
  0.00000000E+00  0.00000000E+00  0.00000000E+00
  0.00000000E+00  0.00000000E+00  0.00000000E+00
  0.00000000E+00  0.00000000E+00  0.00000000E+00
  0.00000000E+00  0.00000000E+00  0.00000000E+00
  0.00000000E+00  0.00000000E+00  0.00000000E+00
  0.00000000E+00  0.00000000E+00  0.00000000E+00
  0.00000000E+00  0.00000000E+00  0.00000000E+00
  0.00000000E+00  0.00000000E+00  0.00000000E+00
  0.00000000E+00  0.00000000E+00  0.00000000E+00
  0.00000000E+00  0.00000000E+00  0.00000000E+00
  0.00000000E+00  0.00000000E+00  0.00000000E+00
  0.00000000E+00  0.00000000E+00  0.00000000E+00
  0.00000000E+00  0.00000000E+00  0.00000000E+00
  0.00000000E+00  0.00000000E+00  0.00000000E+00
  0.00000000E+00  0.00000000E+00  0.00000000E+00
  0.00000000E+00  0.00000000E+00  0.00000000E+00
  0.00000000E+00  0.00000000E+00  0.00000000E+00
  0.00000000E+00  0.00000000E+00  0.00000000E+00
  0.00000000E+00  0.00000000E+00  0.00000000E+00
  0.00000000E+00  0.00000000E+00  0.00000000E+00
  0.00000000E+00  0.00000000E+00  0.00000000E+00
  0.00000000E+00  0.00000000E+00  0.00000000E+00
  0.00000000E+00  0.00000000E+00  0.00000000E+00
  0.00000000E+00  0.00000000E+00  0.00000000E+00
  0.00000000E+00  0.00000000E+00  0.00000000E+00
  0.00000000E+00  0.00000000E+00  0.00000000E+00
  0.00000000E+00  0.00000000E+00  0.00000000E+00
  0.00000000E+00  0.00000000E+00  0.00000000E+00
  0.00000000E+00  0.00000000E+00  0.00000000E+00
  0.00000000E+00  0.00000000E+00  0.00000000E+00
  0.00000000E+00  0.00000000E+00  0.00000000E+00
  0.00000000E+00  0.00000000E+00  0.00000000E+00
  0.00000000E+00  0.00000000E+00  0.00000000E+00
  0.00000000E+00  0.00000000E+00  0.00000000E+00
  0.00000000E+00  0.00000000E+00  0.00000000E+00
  0.00000000E+00  0.00000000E+00  0.00000000E+00
  0.00000000E+00  0.00000000E+00  0.00000000E+00
  0.00000000E+00  0.00000000E+00  0.00000000E+00
  0.00000000E+00  0.00000000E+00  0.00000000E+00
  0.00000000E+00  0.00000000E+00  0.00000000E+00
  0.00000000E+00  0.00000000E+00  0.00000000E+00
  0.00000000E+00  0.00000000E+00  0.00000000E+00
  0.00000000E+00  0.00000000E+00  0.00000000E+00
  0.00000000E+00  0.00000000E+00  0.00000000E+00
  0.00000000E+00  0.00000000E+00  0.00000000E+00
  0.00000000E+00  0.00000000E+00  0.00000000E+00
  0.00000000E+00  0.00000000E+00  0.00000000E+00
  0.00000000E+00  0.00000000E+00  0.00000000E+00
  0.00000000E+00  0.00000000E+00  0.00000000E+00
  0.00000000E+00  0.00000000E+00  0.00000000E+00
  0.00000000E+00  0.00000000E+00  0.00000000E+00
  0.00000000E+00  0.00000000E+00  0.00000000E+00
  0.00000000E+00  0.00000000E+00  0.00000000E+00
  0.00000000E+00  0.00000000E+00  0.00000000E+00
  0.00000000E+00  0.00000000E+00  0.00000000E+00
  0.00000000E+00  0.00000000E+00  0.00000000E+00
  0.00000000E+00  0.00000000E+00  0.00000000E+00
  0.00000000E+00  0.00000000E+00  0.00000000E+00
  0.00000000E+00  0.00000000E+00  0.00000000E+00
  0.00000000E+00  0.00000000E+00  0.00000000E+00
  0.00000000E+00  0.00000000E+00  0.00000000E+00
  0.00000000E+00  0.00000000E+00  0.00000000E+00
  0.00000000E+00  0.00000000E+00  0.00000000E+00
  0.00000000E+00  0.00000000E+00  0.00000000E+00
  0.00000000E+00  0.00000000E+00  0.00000000E+00
  0.00000000E+00  0.00000000E+00  0.00000000E+00
  0.00000000E+00  0.00000000E+00  0.00000000E+00
  0.00000000E+00  0.00000000E+00  0.00000000E+00
  0.00000000E+00  0.00000000E+00  0.00000000E+00
  0.00000000E+00  0.00000000E+00  0.00000000E+00
  0.00000000E+00  0.00000000E+00  0.00000000E+00
  0.00000000E+00  0.00000000E+00  0.00000000E+00
  0.00000000E+00  0.00000000E+00  0.00000000E+00
  0.00000000E+00  0.00000000E+00  0.00000000E+00
  0.00000000E+00  0.00000000E+00  0.00000000E+00
  0.00000000E+00  0.00000000E+00  0.00000000E+00
  0.00000000E+00  0.00000000E+00  0.00000000E+00
  0.00000000E+00  0.00000000E+00  0.00000000E+00
  0.00000000E+00  0.00000000E+00  0.00000000E+00
  0.00000000E+00  0.00000000E+00  0.00000000E+00
  0.00000000E+00  0.00000000E+00  0.00000000E+00
  0.00000000E+00  0.00000000E+00  0.00000000E+00
  0.00000000E+00  0.00000000E+00  0.00000000E+00
  0.00000000E+00  0.00000000E+00  0.00000000E+00
  0.00000000E+00  0.00000000E+00  0.00000000E+00
  0.00000000E+00  0.00000000E+00  0.00000000E+00
  0.00000000E+00  0.00000000E+00  0.00000000E+00
  0.00000000E+00  0.00000000E+00  0.00000000E+00
  0.00000000E+00  0.00000000E+00  0.00000000E+00
  0.00000000E+00  0.00000000E+00  0.00000000E+00
  0.00000000E+00  0.00000000E+00  0.00000000E+00
  0.00000000E+00  0.00000000E+00  0.00000000E+00
  0.00000000E+00  0.00000000E+00  0.00000000E+00
  0.00000000E+00  0.00000000E+00  0.00000000E+00
  0.00000000E+00  0.00000000E+00  0.00000000E+00
  0.00000000E+00  0.00000000E+00  0.00000000E+00
  0.00000000E+00  0.00000000E+00  0.00000000E+00
  0.00000000E+00  0.00000000E+00  0.00000000E+00
  0.00000000E+00  0.00000000E+00  0.00000000E+00
  0.00000000E+00  0.00000000E+00  0.00000000E+00
  0.00000000E+00  0.00000000E+00  0.00000000E+00
  0.00000000E+00  0.00000000E+00  0.00000000E+00
  0.00000000E+00  0.00000000E+00  0.00000000E+00
  0.00000000E+00  0.00000000E+00  0.00000000E+00
  0.00000000E+00  0.00000000E+00  0.00000000E+00
  0.00000000E+00  0.00000000E+00  0.00000000E+00
