supercell of POSCAR                     
   1.07329600000000     
     9.1016125577399993   -5.3128209557800004   -9.4184911254399992
     9.0821131104399999    5.2871675818400004    9.4140884809200003
    -1.5053809694200000   -7.9210976524300012    4.6939078171600004
   Al   Sc   N 
    72    24    95
Direct
  0.3016828961065130  0.2852743609524495  0.5395086857330185
  0.1432246430675477  0.2417629132998300  0.3024634030249160
  0.3068282792836996  0.4071446668120728  0.3015532515915353
  0.4681179351847007  0.3248006906732357  0.7845281700513951
  0.1388510486333345  0.4972484496667136  0.7874303225702874
  0.2996584004972789  0.1622151883867744  0.7793850967602438
  0.4716958193028447  0.4515570740793393  0.5365682152915880
  0.1408903428108417  0.1191000735802845  0.5393791856227281
  0.4767056457121441  0.0717385606182361  0.2919950221847145
  0.2743181337711391  0.1077241032517833  0.3317770435879552
  0.1130602243124557  0.0680823697221342  0.0918328948882206
  0.1127989866480874  0.1964220920406063  0.8223510612875771
  0.2731460193427040  0.3580918944302951  0.8193638465174402
  0.1110078099380374  0.3239967389410907  0.5859945864787406
  0.2715962371463405  0.4855952630157034  0.5778503793130625
  0.4548951463735804  0.2787539010661533  0.3707278913185945
  0.1105239974426411  0.4451777061580273  0.3367536994665556
  0.4559393318258245  0.4231204453887258  0.0791777214365865
  0.8048602757786441  0.2871437086011426  0.5390201967071562
  0.6457570910345893  0.2419679262426584  0.3026701047043971
  0.8098651939608459  0.4084007469528927  0.3025652376223320
  0.9679582330612462  0.3275351958277994  0.7899502295516569
  0.6403477382625482  0.4978244322054479  0.7878091545459753
  0.8012850351531924  0.1640272497209025  0.7827589663961447
  0.9704134015679671  0.4490644163128437  0.5362791409783512
  0.6418500542122700  0.1194061129544721  0.5382433637968020
  0.9762718348436863  0.0736967206963115  0.2955335363553715
  0.7787943292295409  0.1082599246840559  0.3360186313798792
  0.6178660774137157  0.0654759780021763  0.1001453706262936
  0.6169987572875968  0.1990598974525497  0.8169935509085207
  0.7778731101779570  0.3598525224885023  0.8197953535811777
  0.6139365462598221  0.3253048112942452  0.5892294274404293
  0.7733274503057288  0.4865717498074247  0.5792082315903215
  0.9484880577973911  0.2787316645616045  0.3345170636924095
  0.6139113320930107  0.4465385612743304  0.3377020739919843
  0.9485218041219881  0.4022793865742216  0.0944334227298356
  0.3010156220909650  0.7863295132852173  0.5396964244244558
  0.1408120805174136  0.7423740166751358  0.3046807749502989
  0.3064843134357105  0.9073866147812240  0.3025871316211308
  0.4646146927434529  0.8243357915125031  0.7921244618638070
  0.1384729322289431  0.9971806259803415  0.7876837216297616
  0.2979290059149733  0.6623951789704350  0.7825035299131997
  0.4684057521627949  0.9464694228294022  0.5332625509227427
  0.1400815347055158  0.6196649579856341  0.5406300269124245
  0.4770982986625469  0.5739611103408109  0.2975113084327674
  0.2753318299421821  0.6086587395931744  0.3352056362804632
  0.1129552355846641  0.5684577565113784  0.0936689444512879
  0.1119613746968682  0.6967532006036166  0.8241993285248910
  0.2723530470620048  0.8568424044684377  0.8197749716760825
  0.1090561832756762  0.8237277086551202  0.5880407894608624
  0.2692457045235628  0.9841683930140874  0.5771034118682508
  0.4456620261349826  0.7774124065553565  0.3344616596879320
  0.1098130875946168  0.9442486561651720  0.3365599340612420
  0.4464961383111827  0.9007405107500190  0.0962399612365985
  0.8020489679379921  0.7876880428606512  0.5407207697812524
  0.6418422327328415  0.7423774235812388  0.3052460675728170
  0.8074208533708287  0.9084199161067374  0.3042253438201996
  0.9652242464146354  0.8273940611548340  0.7915963076339949
  0.6390341636279260  0.9978295852906456  0.7888036399524054
  0.7990834240213260  0.6643310135941149  0.7840857934865468
  0.9689352564608882  0.9488736166462601  0.5365439819008913
  0.6416904432184722  0.6205996769319384  0.5411667973329486
  0.9756183586716176  0.5739894683114102  0.2962252375073291
  0.7774979200050467  0.6092549652623376  0.3354615910617369
  0.6165942257557901  0.5706738121062926  0.0918729693118792
  0.6122041919634214  0.6966967179124168  0.8241828579064574
  0.7736920842183252  0.8590979145604507  0.8217878605537763
  0.6100021566845371  0.8237266507647831  0.5889379230971912
  0.7715652657711658  0.9860868045230262  0.5806295385252511
  0.9463527726236194  0.7789741164129182  0.3363369791538915
  0.6111029594944952  0.9435082543182887  0.3387373948283852
  0.9467220105093759  0.9025095880947518  0.0962267835272357
  0.4989307762507167  0.1767329151502040  0.0128080409996514
  0.1418075270993384  0.3641403785718822  0.0372064463759401
  0.3097531254897490  0.0221549163136103  0.0367085039927062
  0.2844984505636248  0.2247837018026857  0.0734805524520752
  0.4451108568631597  0.0133130045628462  0.8145025114591746
  0.4442305350724070  0.1476940585471453  0.5717172024228034
  0.9821678237947822  0.1970521024570147  0.0381083344061395
  0.6453161090422768  0.3640477233904349  0.0346052754462107
  0.8103755808477686  0.0237986001366650  0.0386775470755154
  0.7863719096747985  0.2298618956539613  0.0811150585315588
  0.9463216453489025  0.0224256319292948  0.8230198387603167
  0.9454611433608804  0.1531910552674560  0.5742320798963902
  0.4796134315371461  0.6957583694567049  0.0393290551549867
  0.1391792029384646  0.8655086862107737  0.0367057315235684
  0.3058860828531706  0.5262208495378857  0.0392278609273262
  0.2816788665848478  0.7315123739449518  0.0823448330318683
  0.4451426866586417  0.5226238314318010  0.8198223200386465
  0.4429881268714624  0.6540451714371045  0.5735421112639543
  0.9807429476686167  0.6979094566060837  0.0402110282407833
  0.6398621295822693  0.8637820385798562  0.0375514081860970
  0.8105925193543797  0.5256176049065147  0.0388839099054721
  0.7840397116312019  0.7317497826689845  0.0829848019245674
  0.9467287397172512  0.5237327741792015  0.8236333158319056
  0.9434434348204945  0.6540549266053191  0.5756541187606956
  0.2400125154307773  0.3668500608857101  0.6308561715481886
  0.0774502853059857  0.3245967860057561  0.3936153026032301
  0.2401668491101532  0.4876535497836443  0.3872342062948704
  0.0737599179334580  0.4511971151708423  0.1455841499346207
  0.2379134482590075  0.1049264473798246  0.1448902699528887
  0.4025308927414670  0.3952819730911585  0.9005483165008528
  0.0846979213835937  0.0822958265413547  0.8981907350430234
  0.2371461834241657  0.2427561540413166  0.8745054586531253
  0.3956604611871910  0.0202334147829859  0.6172015717766968
  0.0850938403883461  0.2038270719014150  0.6351039573538770
  0.4050284012451186  0.1584334385724020  0.3596345305198270
  0.2174933900228098  0.1900503724247713  0.4325398203811943
  0.0575084210212964  0.1462374616950939  0.1977937756043104
  0.2235253480029371  0.3114693112726883  0.1949627416411985
  0.3716564559221567  0.1191882974162937  0.9206692084673662
  0.0458029197721288  0.2744897195049063  0.9038461417186312
  0.2107026407776473  0.4387277775529554  0.9038422861258510
  0.3744838031689710  0.2386362211026594  0.6759963399801450
  0.0422992399818440  0.4054821268621467  0.6819040455377063
  0.2112259024089553  0.0677843089951367  0.6746807835443747
  0.3825900660947354  0.3554250942208910  0.4310427040576812
  0.0472208277209702  0.0263427909371927  0.4375072573911822
  0.3890567698180121  0.4716229950971780  0.1958966545060008
  0.7397731377867416  0.3676597803362114  0.6305772519887469
  0.5774157215736722  0.3252736010264528  0.3931317455755163
  0.7403614092768009  0.4891718230462843  0.3891999165449604
  0.9220732628630444  0.2875163424681020  0.1492055576232829
  0.5754177255792996  0.4504185343426670  0.1451577550392571
  0.7392489082559308  0.1047030832239244  0.1501706553550477
  0.9028414452905906  0.4002709409826011  0.9016903866031285
  0.5792949291893734  0.0863429082185903  0.9036517440589975
  0.7374536414681643  0.2450987791043460  0.8751005643561030
  0.8973418862173190  0.0232826013488392  0.6209841841714052
  0.5823319052096281  0.2039948741890427  0.6318699805675720
  0.9059721446933366  0.1567917255126332  0.3677296093150559
  0.7176935960417481  0.1907364287581075  0.4339857236009763
  0.5571872394614275  0.1471702169364519  0.1994465643477099
  0.7186041611686775  0.3153381195274534  0.1984020392716346
  0.8711729324039439  0.1153107723158868  0.9170989267678848
  0.5459532666556939  0.2757029070129278  0.9020606939293643
  0.7114719728376855  0.4396820276683755  0.9028801484284585
  0.8737783357426565  0.2413639573032427  0.6802669177157554
  0.5416110622229411  0.4055030050711395  0.6805577932558222
  0.7094583909792433  0.0696365867233624  0.6774074887965824
  0.8826491711552364  0.3549687806206450  0.4321486861238526
  0.5458379776270377  0.0269225058239115  0.4376186456830169
  0.8881862252723067  0.4771119691301564  0.1981961053017898
  0.2370845398088193  0.8668224749175266  0.6311999386854268
  0.0744995989944854  0.8249270677260796  0.3964662776481660
  0.2388562784438903  0.9896243485053660  0.3878966479960937
  0.4194499131994149  0.7862433942434279  0.1496693029467693
  0.0715948949012954  0.9526755540174747  0.1460097969023622
  0.2368218918781935  0.6052847143738944  0.1496315011518945
  0.3989734720683487  0.8983339818797731  0.9039792115780187
  0.0850479138460756  0.5813789039346346  0.8987814489166226
  0.2353330300085048  0.7426375383392241  0.8754068635056953
  0.3983070598746679  0.5224486590857325  0.6180607326275620
  0.0829073360240358  0.7032499151903338  0.6363423622512983
  0.4040374134785836  0.6539059343802052  0.3650743142524249
  0.2159826445135806  0.6900654078995530  0.4339453576757606
  0.0559213094646296  0.6459183731731741  0.1984109786343495
  0.2153676807688498  0.8162027183179532  0.1992040939794322
  0.3706106477634066  0.6121619335039625  0.9148887710814577
  0.0433887895378575  0.7743394738707607  0.9043475856400534
  0.2096701300881421  0.9390618553141294  0.9035712204694946
  0.3714272707514823  0.7404188128268245  0.6804340450837003
  0.0399482566142666  0.9064458340931552  0.6842223643132286
  0.2109959092552813  0.5672184495487969  0.6739164525934953
  0.3798334977923687  0.8532963316765887  0.4318936042717496
  0.0477986342980543  0.5260357831856695  0.4365391994394656
  0.3868172621953079  0.9768244993731230  0.1994041150222898
  0.7366330743627856  0.8681652793996690  0.6331696560609217
  0.5733907436088401  0.8243337476153414  0.3976590212919646
  0.7383302075796934  0.9896341226761578  0.3913958555354355
  0.9203131611486057  0.7880811588041396  0.1511044014030389
  0.5711941430846679  0.9513241594654431  0.1483696354368078
  0.7384229723161013  0.6052416998116783  0.1492447513901354
  0.8994959222837409  0.9008228087818324  0.9038581043690570
  0.5828964995928629  0.5801822450951946  0.8980773809841054
  0.7345758380263874  0.7443102852756454  0.8770113891471922
  0.8989595287979029  0.5228309298505707  0.6206151259490866
  0.5820653456984246  0.7032367057142963  0.6363429817871591
  0.9048076924331880  0.6565538890434865  0.3684120398441735
  0.7162510851293860  0.6909234994103528  0.4343365105970562
  0.5562002981875267  0.6443693766560799  0.1976235375471589
  0.7157281577598908  0.8161083915567104  0.2006079522796611
  0.8712689397695215  0.6157804784265579  0.9164431379905764
  0.5427035577096504  0.7728396285973815  0.9052827896567663
  0.7077592929120229  0.9402451362575022  0.9061428252610781
  0.8714034352405378  0.7420143794890421  0.6814919987465800
  0.5377835925483794  0.9085404616681743  0.6877189569611772
  0.7110444138776515  0.5686025559740671  0.6751550588304269
  0.8803005215832584  0.8551910589031593  0.4338152843488032
  0.5485344148878184  0.5258944845184033  0.4357733093475602
  0.8869210906763243  0.9773622512069409  0.2006990001902480
 
  0.00000000E+00  0.00000000E+00  0.00000000E+00
  0.00000000E+00  0.00000000E+00  0.00000000E+00
  0.00000000E+00  0.00000000E+00  0.00000000E+00
  0.00000000E+00  0.00000000E+00  0.00000000E+00
  0.00000000E+00  0.00000000E+00  0.00000000E+00
  0.00000000E+00  0.00000000E+00  0.00000000E+00
  0.00000000E+00  0.00000000E+00  0.00000000E+00
  0.00000000E+00  0.00000000E+00  0.00000000E+00
  0.00000000E+00  0.00000000E+00  0.00000000E+00
  0.00000000E+00  0.00000000E+00  0.00000000E+00
  0.00000000E+00  0.00000000E+00  0.00000000E+00
  0.00000000E+00  0.00000000E+00  0.00000000E+00
  0.00000000E+00  0.00000000E+00  0.00000000E+00
  0.00000000E+00  0.00000000E+00  0.00000000E+00
  0.00000000E+00  0.00000000E+00  0.00000000E+00
  0.00000000E+00  0.00000000E+00  0.00000000E+00
  0.00000000E+00  0.00000000E+00  0.00000000E+00
  0.00000000E+00  0.00000000E+00  0.00000000E+00
  0.00000000E+00  0.00000000E+00  0.00000000E+00
  0.00000000E+00  0.00000000E+00  0.00000000E+00
  0.00000000E+00  0.00000000E+00  0.00000000E+00
  0.00000000E+00  0.00000000E+00  0.00000000E+00
  0.00000000E+00  0.00000000E+00  0.00000000E+00
  0.00000000E+00  0.00000000E+00  0.00000000E+00
  0.00000000E+00  0.00000000E+00  0.00000000E+00
  0.00000000E+00  0.00000000E+00  0.00000000E+00
  0.00000000E+00  0.00000000E+00  0.00000000E+00
  0.00000000E+00  0.00000000E+00  0.00000000E+00
  0.00000000E+00  0.00000000E+00  0.00000000E+00
  0.00000000E+00  0.00000000E+00  0.00000000E+00
  0.00000000E+00  0.00000000E+00  0.00000000E+00
  0.00000000E+00  0.00000000E+00  0.00000000E+00
  0.00000000E+00  0.00000000E+00  0.00000000E+00
  0.00000000E+00  0.00000000E+00  0.00000000E+00
  0.00000000E+00  0.00000000E+00  0.00000000E+00
  0.00000000E+00  0.00000000E+00  0.00000000E+00
  0.00000000E+00  0.00000000E+00  0.00000000E+00
  0.00000000E+00  0.00000000E+00  0.00000000E+00
  0.00000000E+00  0.00000000E+00  0.00000000E+00
  0.00000000E+00  0.00000000E+00  0.00000000E+00
  0.00000000E+00  0.00000000E+00  0.00000000E+00
  0.00000000E+00  0.00000000E+00  0.00000000E+00
  0.00000000E+00  0.00000000E+00  0.00000000E+00
  0.00000000E+00  0.00000000E+00  0.00000000E+00
  0.00000000E+00  0.00000000E+00  0.00000000E+00
  0.00000000E+00  0.00000000E+00  0.00000000E+00
  0.00000000E+00  0.00000000E+00  0.00000000E+00
  0.00000000E+00  0.00000000E+00  0.00000000E+00
  0.00000000E+00  0.00000000E+00  0.00000000E+00
  0.00000000E+00  0.00000000E+00  0.00000000E+00
  0.00000000E+00  0.00000000E+00  0.00000000E+00
  0.00000000E+00  0.00000000E+00  0.00000000E+00
  0.00000000E+00  0.00000000E+00  0.00000000E+00
  0.00000000E+00  0.00000000E+00  0.00000000E+00
  0.00000000E+00  0.00000000E+00  0.00000000E+00
  0.00000000E+00  0.00000000E+00  0.00000000E+00
  0.00000000E+00  0.00000000E+00  0.00000000E+00
  0.00000000E+00  0.00000000E+00  0.00000000E+00
  0.00000000E+00  0.00000000E+00  0.00000000E+00
  0.00000000E+00  0.00000000E+00  0.00000000E+00
  0.00000000E+00  0.00000000E+00  0.00000000E+00
  0.00000000E+00  0.00000000E+00  0.00000000E+00
  0.00000000E+00  0.00000000E+00  0.00000000E+00
  0.00000000E+00  0.00000000E+00  0.00000000E+00
  0.00000000E+00  0.00000000E+00  0.00000000E+00
  0.00000000E+00  0.00000000E+00  0.00000000E+00
  0.00000000E+00  0.00000000E+00  0.00000000E+00
  0.00000000E+00  0.00000000E+00  0.00000000E+00
  0.00000000E+00  0.00000000E+00  0.00000000E+00
  0.00000000E+00  0.00000000E+00  0.00000000E+00
  0.00000000E+00  0.00000000E+00  0.00000000E+00
  0.00000000E+00  0.00000000E+00  0.00000000E+00
  0.00000000E+00  0.00000000E+00  0.00000000E+00
  0.00000000E+00  0.00000000E+00  0.00000000E+00
  0.00000000E+00  0.00000000E+00  0.00000000E+00
  0.00000000E+00  0.00000000E+00  0.00000000E+00
  0.00000000E+00  0.00000000E+00  0.00000000E+00
  0.00000000E+00  0.00000000E+00  0.00000000E+00
  0.00000000E+00  0.00000000E+00  0.00000000E+00
  0.00000000E+00  0.00000000E+00  0.00000000E+00
  0.00000000E+00  0.00000000E+00  0.00000000E+00
  0.00000000E+00  0.00000000E+00  0.00000000E+00
  0.00000000E+00  0.00000000E+00  0.00000000E+00
  0.00000000E+00  0.00000000E+00  0.00000000E+00
  0.00000000E+00  0.00000000E+00  0.00000000E+00
  0.00000000E+00  0.00000000E+00  0.00000000E+00
  0.00000000E+00  0.00000000E+00  0.00000000E+00
  0.00000000E+00  0.00000000E+00  0.00000000E+00
  0.00000000E+00  0.00000000E+00  0.00000000E+00
  0.00000000E+00  0.00000000E+00  0.00000000E+00
  0.00000000E+00  0.00000000E+00  0.00000000E+00
  0.00000000E+00  0.00000000E+00  0.00000000E+00
  0.00000000E+00  0.00000000E+00  0.00000000E+00
  0.00000000E+00  0.00000000E+00  0.00000000E+00
  0.00000000E+00  0.00000000E+00  0.00000000E+00
  0.00000000E+00  0.00000000E+00  0.00000000E+00
  0.00000000E+00  0.00000000E+00  0.00000000E+00
  0.00000000E+00  0.00000000E+00  0.00000000E+00
  0.00000000E+00  0.00000000E+00  0.00000000E+00
  0.00000000E+00  0.00000000E+00  0.00000000E+00
  0.00000000E+00  0.00000000E+00  0.00000000E+00
  0.00000000E+00  0.00000000E+00  0.00000000E+00
  0.00000000E+00  0.00000000E+00  0.00000000E+00
  0.00000000E+00  0.00000000E+00  0.00000000E+00
  0.00000000E+00  0.00000000E+00  0.00000000E+00
  0.00000000E+00  0.00000000E+00  0.00000000E+00
  0.00000000E+00  0.00000000E+00  0.00000000E+00
  0.00000000E+00  0.00000000E+00  0.00000000E+00
  0.00000000E+00  0.00000000E+00  0.00000000E+00
  0.00000000E+00  0.00000000E+00  0.00000000E+00
  0.00000000E+00  0.00000000E+00  0.00000000E+00
  0.00000000E+00  0.00000000E+00  0.00000000E+00
  0.00000000E+00  0.00000000E+00  0.00000000E+00
  0.00000000E+00  0.00000000E+00  0.00000000E+00
  0.00000000E+00  0.00000000E+00  0.00000000E+00
  0.00000000E+00  0.00000000E+00  0.00000000E+00
  0.00000000E+00  0.00000000E+00  0.00000000E+00
  0.00000000E+00  0.00000000E+00  0.00000000E+00
  0.00000000E+00  0.00000000E+00  0.00000000E+00
  0.00000000E+00  0.00000000E+00  0.00000000E+00
  0.00000000E+00  0.00000000E+00  0.00000000E+00
  0.00000000E+00  0.00000000E+00  0.00000000E+00
  0.00000000E+00  0.00000000E+00  0.00000000E+00
  0.00000000E+00  0.00000000E+00  0.00000000E+00
  0.00000000E+00  0.00000000E+00  0.00000000E+00
  0.00000000E+00  0.00000000E+00  0.00000000E+00
  0.00000000E+00  0.00000000E+00  0.00000000E+00
  0.00000000E+00  0.00000000E+00  0.00000000E+00
  0.00000000E+00  0.00000000E+00  0.00000000E+00
  0.00000000E+00  0.00000000E+00  0.00000000E+00
  0.00000000E+00  0.00000000E+00  0.00000000E+00
  0.00000000E+00  0.00000000E+00  0.00000000E+00
  0.00000000E+00  0.00000000E+00  0.00000000E+00
  0.00000000E+00  0.00000000E+00  0.00000000E+00
  0.00000000E+00  0.00000000E+00  0.00000000E+00
  0.00000000E+00  0.00000000E+00  0.00000000E+00
  0.00000000E+00  0.00000000E+00  0.00000000E+00
  0.00000000E+00  0.00000000E+00  0.00000000E+00
  0.00000000E+00  0.00000000E+00  0.00000000E+00
  0.00000000E+00  0.00000000E+00  0.00000000E+00
  0.00000000E+00  0.00000000E+00  0.00000000E+00
  0.00000000E+00  0.00000000E+00  0.00000000E+00
  0.00000000E+00  0.00000000E+00  0.00000000E+00
  0.00000000E+00  0.00000000E+00  0.00000000E+00
  0.00000000E+00  0.00000000E+00  0.00000000E+00
  0.00000000E+00  0.00000000E+00  0.00000000E+00
  0.00000000E+00  0.00000000E+00  0.00000000E+00
  0.00000000E+00  0.00000000E+00  0.00000000E+00
  0.00000000E+00  0.00000000E+00  0.00000000E+00
  0.00000000E+00  0.00000000E+00  0.00000000E+00
  0.00000000E+00  0.00000000E+00  0.00000000E+00
  0.00000000E+00  0.00000000E+00  0.00000000E+00
  0.00000000E+00  0.00000000E+00  0.00000000E+00
  0.00000000E+00  0.00000000E+00  0.00000000E+00
  0.00000000E+00  0.00000000E+00  0.00000000E+00
  0.00000000E+00  0.00000000E+00  0.00000000E+00
  0.00000000E+00  0.00000000E+00  0.00000000E+00
  0.00000000E+00  0.00000000E+00  0.00000000E+00
  0.00000000E+00  0.00000000E+00  0.00000000E+00
  0.00000000E+00  0.00000000E+00  0.00000000E+00
  0.00000000E+00  0.00000000E+00  0.00000000E+00
  0.00000000E+00  0.00000000E+00  0.00000000E+00
  0.00000000E+00  0.00000000E+00  0.00000000E+00
  0.00000000E+00  0.00000000E+00  0.00000000E+00
  0.00000000E+00  0.00000000E+00  0.00000000E+00
  0.00000000E+00  0.00000000E+00  0.00000000E+00
  0.00000000E+00  0.00000000E+00  0.00000000E+00
  0.00000000E+00  0.00000000E+00  0.00000000E+00
  0.00000000E+00  0.00000000E+00  0.00000000E+00
  0.00000000E+00  0.00000000E+00  0.00000000E+00
  0.00000000E+00  0.00000000E+00  0.00000000E+00
  0.00000000E+00  0.00000000E+00  0.00000000E+00
  0.00000000E+00  0.00000000E+00  0.00000000E+00
  0.00000000E+00  0.00000000E+00  0.00000000E+00
  0.00000000E+00  0.00000000E+00  0.00000000E+00
  0.00000000E+00  0.00000000E+00  0.00000000E+00
  0.00000000E+00  0.00000000E+00  0.00000000E+00
  0.00000000E+00  0.00000000E+00  0.00000000E+00
  0.00000000E+00  0.00000000E+00  0.00000000E+00
  0.00000000E+00  0.00000000E+00  0.00000000E+00
  0.00000000E+00  0.00000000E+00  0.00000000E+00
  0.00000000E+00  0.00000000E+00  0.00000000E+00
  0.00000000E+00  0.00000000E+00  0.00000000E+00
  0.00000000E+00  0.00000000E+00  0.00000000E+00
  0.00000000E+00  0.00000000E+00  0.00000000E+00
  0.00000000E+00  0.00000000E+00  0.00000000E+00
  0.00000000E+00  0.00000000E+00  0.00000000E+00
  0.00000000E+00  0.00000000E+00  0.00000000E+00
  0.00000000E+00  0.00000000E+00  0.00000000E+00
  0.00000000E+00  0.00000000E+00  0.00000000E+00
  0.00000000E+00  0.00000000E+00  0.00000000E+00
