supercell of POSCAR                     
   1.07329600000000     
     9.1016125577399993   -5.3128209557800004   -9.4184911254399992
     9.0821131104399999    5.2871675818400004    9.4140884809200003
    -1.5053809694200000   -7.9210976524300012    4.6939078171600004
   Al   Sc   N 
    71    24    96
Direct
  0.3014428473433313  0.2873581399779042  0.5409995529981657
  0.1413446838862882  0.2427160280024339  0.3095444922333073
  0.3072294248589245  0.4071123760541937  0.3021963459420860
  0.4654606977199052  0.3281512020644470  0.7911014801592842
  0.1393845719719735  0.4990936678986841  0.7864698703089061
  0.2913429901792526  0.1693154518705882  0.7926311130204269
  0.4698684185123838  0.4483335006313141  0.5344188454340468
  0.1378259671953472  0.1237593833187702  0.5485926454175853
  0.4752964042922088  0.0733706893386810  0.2966841469100885
  0.2756350768569789  0.1076544458625861  0.3394686810693415
  0.1118407216374848  0.0649232324336069  0.1032750019571651
  0.2756161551678602  0.3598724560777526  0.8201784556316483
  0.1092852306407863  0.3248418213292013  0.5864094395564479
  0.2725090922783124  0.4862131964335745  0.5776408417974963
  0.4464526741006125  0.2780354899661788  0.3355409117757375
  0.1130266898370564  0.4444367207157995  0.3312204160398267
  0.4467519552038368  0.4014341730580711  0.0933348151375455
  0.8021238451514918  0.2863781240397856  0.5367956178475666
  0.6420105849458579  0.2414444496850123  0.3019169076026813
  0.8113593682029574  0.4058028076600948  0.2962924379629897
  0.9624527917994214  0.3315039866113096  0.7869149878555390
  0.6390225910244354  0.4971160023588013  0.7855451104938709
  0.7991516078367980  0.1641446172653929  0.7825208123115317
  0.9704068598238962  0.4487855625137129  0.5314789544602334
  0.6401382059045204  0.1190547179537376  0.5393739253852132
  0.9760522978609529  0.0738710162669776  0.3011979325812817
  0.7772292953858795  0.1074489589314567  0.3346787948221959
  0.6136950196896720  0.0681914671149926  0.0929443424676180
  0.6119713226280155  0.1964979742308941  0.8229162656472937
  0.7720265468682328  0.3587625696035914  0.8157628093985352
  0.6094627922526925  0.3232072959084320  0.5850377279783032
  0.7722708213160132  0.4845522247519085  0.5741782617580213
  0.9480271960605435  0.2763895005000236  0.3347216170098264
  0.6120880069014660  0.4430217489906809  0.3338277953553970
  0.9589271069184377  0.3890548497933750  0.0757992793956745
  0.3032507546478911  0.7875864550629643  0.5396385374215171
  0.1428588749162927  0.7420973544543870  0.3035875878690248
  0.3076632148453413  0.9086203366366519  0.3047979651500654
  0.4674390697695543  0.8272717849478752  0.7895801960401343
  0.1362042644236894  0.0018768533337195  0.7987993558106510
  0.3003118156500619  0.6638006310676658  0.7814306956569510
  0.4696830717923746  0.9486965322570882  0.5367022687506164
  0.1420264730384844  0.6198104390987069  0.5383523565414805
  0.4767594191972435  0.5722561774377368  0.2930631227332370
  0.2782643939642142  0.6087247126973026  0.3330556726381673
  0.1165716675639175  0.5671414749683379  0.0922132210949798
  0.1143252347557677  0.6979687815435156  0.8239657655253438
  0.2752513607468146  0.8592676387435745  0.8212845566482727
  0.1109293665326589  0.8245988331932637  0.5902742791928759
  0.2704350613919289  0.9878124995082231  0.5853263825051513
  0.4479106809001436  0.7784172375211753  0.3341058040728271
  0.1109428288346521  0.9438306831611882  0.3437745710945421
  0.4479267264865499  0.9021178529969518  0.0948202918110539
  0.8035836095955062  0.7857269036142753  0.5379827212413062
  0.6434112373284151  0.7410211044915300  0.3017386355001648
  0.8084382664084373  0.9067481303800378  0.3018029824980175
  0.9668443103881899  0.8267568564136738  0.7907443924637931
  0.6392114916198395  0.9971081861570852  0.7872491786711038
  0.8003787177100321  0.6625128754779297  0.7797806696380221
  0.9696514900309978  0.9480564480084936  0.5380466380376916
  0.6419729501649485  0.6184839346486797  0.5372625664813953
  0.9772314727688354  0.5695497491621069  0.2890937759207688
  0.7782270882001541  0.6058351656893066  0.3294991318730283
  0.6161761513924233  0.5664751850081231  0.0905525061627444
  0.6138145980750309  0.6965789163209877  0.8215233882011148
  0.7753417070332418  0.8579706534969986  0.8199639809005674
  0.6114470561591716  0.8232242790697981  0.5857318272738183
  0.7727715841221112  0.9850556577158613  0.5786554393629970
  0.9478140598076621  0.7769629908264477  0.3335460955890994
  0.6113877909794994  0.9439005930510191  0.3361707493131618
  0.9475669655496191  0.9013291779377326  0.0965623404052565
  0.4788283301929965  0.1976254069288359  0.0390834499441368
  0.1470261577965033  0.3573602379769909  0.0240646139100065
  0.3080686312048613  0.0246617302411423  0.0413278218696149
  0.2812850293629054  0.2281047767255799  0.0868052514227600
  0.4442456585744239  0.0239504154523900  0.8255333187825187
  0.4409511009276486  0.1541620472521146  0.5786460957878816
  0.9867615876088678  0.1933749256032655  0.0324188400228280
  0.6407541418824323  0.3633983139711248  0.0351749788403737
  0.8101748468622674  0.0247842228260069  0.0386291337807378
  0.7857982895191782  0.2287842592977682  0.0794451114314114
  0.9462253434014585  0.0209817709610292  0.8246615177048540
  0.9450944484319379  0.1541893168862813  0.5796312563703907
  0.4827289854270589  0.6969829654575221  0.0380128955873005
  0.1398627403066399  0.8676371925888731  0.0390769863827458
  0.3100407008835688  0.5255157377917286  0.0370976523417283
  0.2845474583765792  0.7321708234425159  0.0804292383797645
  0.4472401444224374  0.5243063257803726  0.8211161120898822
  0.4449497105482365  0.6533359495150890  0.5721654245053642
  0.9828888045060538  0.6959773300642240  0.0377221068635123
  0.6421049939008014  0.8646635743482420  0.0361857982392877
  0.8147039247280432  0.5177711584963092  0.0316479485531005
  0.7852870897633224  0.7266060627546196  0.0774411174140042
  0.9479704376871183  0.5246233543449108  0.8171314779266012
  0.9459102072421857  0.6527440902070794  0.5688993148954538
  0.2384974946120337  0.3693629662368636  0.6304600685057054
  0.0753264393924340  0.3286419125548576  0.3938077812721161
  0.2413070816612546  0.4905899941168599  0.3888409412223055
  0.4205206846094924  0.2876519614210693  0.1512446461646562
  0.0794266910769039  0.4523894915826716  0.1440404599508440
  0.2364484944526311  0.0999693030938289  0.1547236821351348
  0.4048256171232225  0.4043171845577902  0.9018302305468282
  0.0750012937790743  0.0651064694848600  0.9193098201704970
  0.2431778170228611  0.2546608183445898  0.8942998434001979
  0.3983269614748792  0.0219511231133396  0.6218259359559113
  0.0766228259813033  0.2080789883675038  0.6173303160000501
  0.4051044408716962  0.1556773505876876  0.3701803527131489
  0.2177016759427133  0.1899808415895450  0.4377637461130206
  0.0567849269387963  0.1459363462715046  0.2061518050869893
  0.2166821306366060  0.3146150032865336  0.2046414145591058
  0.3691541263334059  0.1147206039240913  0.9180163373861205
  0.0226659798316149  0.3021479951080437  0.9366698522856183
  0.2123335330021163  0.4436459010207443  0.8998123737077108
  0.3703747352604907  0.2425753436831855  0.6839348979137796
  0.0398093158493324  0.4101944285144157  0.6824383964647041
  0.2092096500291376  0.0697978571761766  0.6815517194725373
  0.3815193991470522  0.3545947496036987  0.4333426474055244
  0.0476379487806611  0.0244196981373079  0.4410428314586525
  0.3872431391127265  0.4765612374542982  0.1980377428781566
  0.7363196764661595  0.3669195109180592  0.6269401907334071
  0.5748684846628720  0.3237205415736852  0.3936976615138406
  0.7402803675397251  0.4871471019159728  0.3846012768851281
  0.9191596306077301  0.2816847999958156  0.1509261577134708
  0.5721992090161336  0.4508124778176992  0.1442152982708578
  0.7368390955112076  0.1032032207813529  0.1485289057024559
  0.8934159692608432  0.4079643548629761  0.8957337870755424
  0.5838155517752099  0.0808959444712585  0.8973698873698126
  0.7344809741237910  0.2442671480440666  0.8736179143018319
  0.8973935747053403  0.0202623040496235  0.6199651494283316
  0.5816743243510913  0.2025716916575746  0.6344612539544983
  0.9031644220685351  0.1548695935302504  0.3702527288958350
  0.7153200437105980  0.1894110335431520  0.4323428079518621
  0.5551351247183121  0.1450650979362393  0.1970546345142523
  0.7168631316490846  0.3139412446142416  0.1970170563768292
  0.8695189278733864  0.1150184103851331  0.9152058208890637
  0.5426248634503850  0.2731712670115840  0.9029668207169195
  0.7067948034226887  0.4381225874269177  0.9018035376540183
  0.8699463280392479  0.2432011729446444  0.6804265338912572
  0.5407517635155088  0.4055497259988812  0.6809867912426739
  0.7104922141839651  0.0677644116472962  0.6738744370883865
  0.8813189008261020  0.3540115200078091  0.4316276292798165
  0.5474941387825609  0.0247819698485259  0.4360839695361847
  0.8925807347347003  0.4712268671799436  0.1919967516472525
  0.2391563017213016  0.8673053580405465  0.6324259805680086
  0.0756430939954029  0.8223595788390483  0.3979845542555722
  0.2399569954813785  0.9879956803388978  0.3947692853092519
  0.4221453115820211  0.7871850309530473  0.1489518425591640
  0.0715158907894775  0.9481739259117106  0.1567140558782896
  0.2402850261910245  0.6073968936871097  0.1477670359783829
  0.4026301641410939  0.8991810430119074  0.9017904596037098
  0.0857375177946693  0.5838012766593792  0.8984217952221059
  0.2375965700370557  0.7438710670865021  0.8738407371869670
  0.3992225282789335  0.5234027053173591  0.6178565302136860
  0.0847154438984816  0.7031638112708123  0.6361003965315390
  0.4067927222271877  0.6560788022996036  0.3654309890347918
  0.2184476197564678  0.6910085520597704  0.4329613115022113
  0.0586163031784537  0.6457402524011542  0.1965975184471915
  0.2176977523715706  0.8163814964932712  0.1990448224964325
  0.3728909074565863  0.6164252210727383  0.9150259697621195
  0.0454791542796684  0.7748467618818040  0.9047592816923000
  0.2112314451565638  0.9385452546692790  0.9050428839111007
  0.3740739870927570  0.7412513926130515  0.6789704383590518
  0.0410262952614531  0.9047670452867962  0.6840829904491343
  0.2122717032210062  0.5694743859497748  0.6732834278746296
  0.3823022845005610  0.8543693726465875  0.4322982761395764
  0.0488163265182209  0.5271992691426917  0.4349228547347224
  0.3879331661476257  0.9761355573088792  0.1999611550990537
  0.7385737569241897  0.8658827690684561  0.6301624722998369
  0.5761942225000283  0.8233126674712281  0.3937279837549355
  0.7389296925185391  0.9872484037077385  0.3885905181065539
  0.9209053365019173  0.7855376612094176  0.1487215135120792
  0.5727456878834971  0.9511105091942724  0.1450458051284826
  0.7400804884860719  0.6003420830421433  0.1433456400196107
  0.8996398422967147  0.8967501141418879  0.9032932219207055
  0.5853022638583099  0.5822245102047745  0.8963875190020971
  0.7363503888911467  0.7425614856723399  0.8722421391677386
  0.8977121809913413  0.5233342485703432  0.6144525072741516
  0.5843956441748759  0.7024241972878045  0.6332814944679939
  0.9057161235632520  0.6537705287634239  0.3621949080740521
  0.7179376880568853  0.6888151973296459  0.4306950366902100
  0.5581587315005834  0.6444008710233859  0.1957779945369609
  0.7181804988405815  0.8133688705664568  0.1963242474839078
  0.8720411869726732  0.6158943050693750  0.9142033110807333
  0.5454352598087127  0.7740419299167911  0.9025952008072977
  0.7102301017004748  0.9387935400150269  0.9031260150284979
  0.8738397797938404  0.7398206598362691  0.6777324825990974
  0.5420708474480591  0.9047314406274864  0.6811591306355353
  0.7114841635735019  0.5671764326918947  0.6720904392918143
  0.8817134330434726  0.8530935348163240  0.4312783226804342
  0.5483604291572632  0.5250841794605634  0.4346548035793631
  0.8872738089069117  0.9766410078674710  0.1996710479048147
 
  0.00000000E+00  0.00000000E+00  0.00000000E+00
  0.00000000E+00  0.00000000E+00  0.00000000E+00
  0.00000000E+00  0.00000000E+00  0.00000000E+00
  0.00000000E+00  0.00000000E+00  0.00000000E+00
  0.00000000E+00  0.00000000E+00  0.00000000E+00
  0.00000000E+00  0.00000000E+00  0.00000000E+00
  0.00000000E+00  0.00000000E+00  0.00000000E+00
  0.00000000E+00  0.00000000E+00  0.00000000E+00
  0.00000000E+00  0.00000000E+00  0.00000000E+00
  0.00000000E+00  0.00000000E+00  0.00000000E+00
  0.00000000E+00  0.00000000E+00  0.00000000E+00
  0.00000000E+00  0.00000000E+00  0.00000000E+00
  0.00000000E+00  0.00000000E+00  0.00000000E+00
  0.00000000E+00  0.00000000E+00  0.00000000E+00
  0.00000000E+00  0.00000000E+00  0.00000000E+00
  0.00000000E+00  0.00000000E+00  0.00000000E+00
  0.00000000E+00  0.00000000E+00  0.00000000E+00
  0.00000000E+00  0.00000000E+00  0.00000000E+00
  0.00000000E+00  0.00000000E+00  0.00000000E+00
  0.00000000E+00  0.00000000E+00  0.00000000E+00
  0.00000000E+00  0.00000000E+00  0.00000000E+00
  0.00000000E+00  0.00000000E+00  0.00000000E+00
  0.00000000E+00  0.00000000E+00  0.00000000E+00
  0.00000000E+00  0.00000000E+00  0.00000000E+00
  0.00000000E+00  0.00000000E+00  0.00000000E+00
  0.00000000E+00  0.00000000E+00  0.00000000E+00
  0.00000000E+00  0.00000000E+00  0.00000000E+00
  0.00000000E+00  0.00000000E+00  0.00000000E+00
  0.00000000E+00  0.00000000E+00  0.00000000E+00
  0.00000000E+00  0.00000000E+00  0.00000000E+00
  0.00000000E+00  0.00000000E+00  0.00000000E+00
  0.00000000E+00  0.00000000E+00  0.00000000E+00
  0.00000000E+00  0.00000000E+00  0.00000000E+00
  0.00000000E+00  0.00000000E+00  0.00000000E+00
  0.00000000E+00  0.00000000E+00  0.00000000E+00
  0.00000000E+00  0.00000000E+00  0.00000000E+00
  0.00000000E+00  0.00000000E+00  0.00000000E+00
  0.00000000E+00  0.00000000E+00  0.00000000E+00
  0.00000000E+00  0.00000000E+00  0.00000000E+00
  0.00000000E+00  0.00000000E+00  0.00000000E+00
  0.00000000E+00  0.00000000E+00  0.00000000E+00
  0.00000000E+00  0.00000000E+00  0.00000000E+00
  0.00000000E+00  0.00000000E+00  0.00000000E+00
  0.00000000E+00  0.00000000E+00  0.00000000E+00
  0.00000000E+00  0.00000000E+00  0.00000000E+00
  0.00000000E+00  0.00000000E+00  0.00000000E+00
  0.00000000E+00  0.00000000E+00  0.00000000E+00
  0.00000000E+00  0.00000000E+00  0.00000000E+00
  0.00000000E+00  0.00000000E+00  0.00000000E+00
  0.00000000E+00  0.00000000E+00  0.00000000E+00
  0.00000000E+00  0.00000000E+00  0.00000000E+00
  0.00000000E+00  0.00000000E+00  0.00000000E+00
  0.00000000E+00  0.00000000E+00  0.00000000E+00
  0.00000000E+00  0.00000000E+00  0.00000000E+00
  0.00000000E+00  0.00000000E+00  0.00000000E+00
  0.00000000E+00  0.00000000E+00  0.00000000E+00
  0.00000000E+00  0.00000000E+00  0.00000000E+00
  0.00000000E+00  0.00000000E+00  0.00000000E+00
  0.00000000E+00  0.00000000E+00  0.00000000E+00
  0.00000000E+00  0.00000000E+00  0.00000000E+00
  0.00000000E+00  0.00000000E+00  0.00000000E+00
  0.00000000E+00  0.00000000E+00  0.00000000E+00
  0.00000000E+00  0.00000000E+00  0.00000000E+00
  0.00000000E+00  0.00000000E+00  0.00000000E+00
  0.00000000E+00  0.00000000E+00  0.00000000E+00
  0.00000000E+00  0.00000000E+00  0.00000000E+00
  0.00000000E+00  0.00000000E+00  0.00000000E+00
  0.00000000E+00  0.00000000E+00  0.00000000E+00
  0.00000000E+00  0.00000000E+00  0.00000000E+00
  0.00000000E+00  0.00000000E+00  0.00000000E+00
  0.00000000E+00  0.00000000E+00  0.00000000E+00
  0.00000000E+00  0.00000000E+00  0.00000000E+00
  0.00000000E+00  0.00000000E+00  0.00000000E+00
  0.00000000E+00  0.00000000E+00  0.00000000E+00
  0.00000000E+00  0.00000000E+00  0.00000000E+00
  0.00000000E+00  0.00000000E+00  0.00000000E+00
  0.00000000E+00  0.00000000E+00  0.00000000E+00
  0.00000000E+00  0.00000000E+00  0.00000000E+00
  0.00000000E+00  0.00000000E+00  0.00000000E+00
  0.00000000E+00  0.00000000E+00  0.00000000E+00
  0.00000000E+00  0.00000000E+00  0.00000000E+00
  0.00000000E+00  0.00000000E+00  0.00000000E+00
  0.00000000E+00  0.00000000E+00  0.00000000E+00
  0.00000000E+00  0.00000000E+00  0.00000000E+00
  0.00000000E+00  0.00000000E+00  0.00000000E+00
  0.00000000E+00  0.00000000E+00  0.00000000E+00
  0.00000000E+00  0.00000000E+00  0.00000000E+00
  0.00000000E+00  0.00000000E+00  0.00000000E+00
  0.00000000E+00  0.00000000E+00  0.00000000E+00
  0.00000000E+00  0.00000000E+00  0.00000000E+00
  0.00000000E+00  0.00000000E+00  0.00000000E+00
  0.00000000E+00  0.00000000E+00  0.00000000E+00
  0.00000000E+00  0.00000000E+00  0.00000000E+00
  0.00000000E+00  0.00000000E+00  0.00000000E+00
  0.00000000E+00  0.00000000E+00  0.00000000E+00
  0.00000000E+00  0.00000000E+00  0.00000000E+00
  0.00000000E+00  0.00000000E+00  0.00000000E+00
  0.00000000E+00  0.00000000E+00  0.00000000E+00
  0.00000000E+00  0.00000000E+00  0.00000000E+00
  0.00000000E+00  0.00000000E+00  0.00000000E+00
  0.00000000E+00  0.00000000E+00  0.00000000E+00
  0.00000000E+00  0.00000000E+00  0.00000000E+00
  0.00000000E+00  0.00000000E+00  0.00000000E+00
  0.00000000E+00  0.00000000E+00  0.00000000E+00
  0.00000000E+00  0.00000000E+00  0.00000000E+00
  0.00000000E+00  0.00000000E+00  0.00000000E+00
  0.00000000E+00  0.00000000E+00  0.00000000E+00
  0.00000000E+00  0.00000000E+00  0.00000000E+00
  0.00000000E+00  0.00000000E+00  0.00000000E+00
  0.00000000E+00  0.00000000E+00  0.00000000E+00
  0.00000000E+00  0.00000000E+00  0.00000000E+00
  0.00000000E+00  0.00000000E+00  0.00000000E+00
  0.00000000E+00  0.00000000E+00  0.00000000E+00
  0.00000000E+00  0.00000000E+00  0.00000000E+00
  0.00000000E+00  0.00000000E+00  0.00000000E+00
  0.00000000E+00  0.00000000E+00  0.00000000E+00
  0.00000000E+00  0.00000000E+00  0.00000000E+00
  0.00000000E+00  0.00000000E+00  0.00000000E+00
  0.00000000E+00  0.00000000E+00  0.00000000E+00
  0.00000000E+00  0.00000000E+00  0.00000000E+00
  0.00000000E+00  0.00000000E+00  0.00000000E+00
  0.00000000E+00  0.00000000E+00  0.00000000E+00
  0.00000000E+00  0.00000000E+00  0.00000000E+00
  0.00000000E+00  0.00000000E+00  0.00000000E+00
  0.00000000E+00  0.00000000E+00  0.00000000E+00
  0.00000000E+00  0.00000000E+00  0.00000000E+00
  0.00000000E+00  0.00000000E+00  0.00000000E+00
  0.00000000E+00  0.00000000E+00  0.00000000E+00
  0.00000000E+00  0.00000000E+00  0.00000000E+00
  0.00000000E+00  0.00000000E+00  0.00000000E+00
  0.00000000E+00  0.00000000E+00  0.00000000E+00
  0.00000000E+00  0.00000000E+00  0.00000000E+00
  0.00000000E+00  0.00000000E+00  0.00000000E+00
  0.00000000E+00  0.00000000E+00  0.00000000E+00
  0.00000000E+00  0.00000000E+00  0.00000000E+00
  0.00000000E+00  0.00000000E+00  0.00000000E+00
  0.00000000E+00  0.00000000E+00  0.00000000E+00
  0.00000000E+00  0.00000000E+00  0.00000000E+00
  0.00000000E+00  0.00000000E+00  0.00000000E+00
  0.00000000E+00  0.00000000E+00  0.00000000E+00
  0.00000000E+00  0.00000000E+00  0.00000000E+00
  0.00000000E+00  0.00000000E+00  0.00000000E+00
  0.00000000E+00  0.00000000E+00  0.00000000E+00
  0.00000000E+00  0.00000000E+00  0.00000000E+00
  0.00000000E+00  0.00000000E+00  0.00000000E+00
  0.00000000E+00  0.00000000E+00  0.00000000E+00
  0.00000000E+00  0.00000000E+00  0.00000000E+00
  0.00000000E+00  0.00000000E+00  0.00000000E+00
  0.00000000E+00  0.00000000E+00  0.00000000E+00
  0.00000000E+00  0.00000000E+00  0.00000000E+00
  0.00000000E+00  0.00000000E+00  0.00000000E+00
  0.00000000E+00  0.00000000E+00  0.00000000E+00
  0.00000000E+00  0.00000000E+00  0.00000000E+00
  0.00000000E+00  0.00000000E+00  0.00000000E+00
  0.00000000E+00  0.00000000E+00  0.00000000E+00
  0.00000000E+00  0.00000000E+00  0.00000000E+00
  0.00000000E+00  0.00000000E+00  0.00000000E+00
  0.00000000E+00  0.00000000E+00  0.00000000E+00
  0.00000000E+00  0.00000000E+00  0.00000000E+00
  0.00000000E+00  0.00000000E+00  0.00000000E+00
  0.00000000E+00  0.00000000E+00  0.00000000E+00
  0.00000000E+00  0.00000000E+00  0.00000000E+00
  0.00000000E+00  0.00000000E+00  0.00000000E+00
  0.00000000E+00  0.00000000E+00  0.00000000E+00
  0.00000000E+00  0.00000000E+00  0.00000000E+00
  0.00000000E+00  0.00000000E+00  0.00000000E+00
  0.00000000E+00  0.00000000E+00  0.00000000E+00
  0.00000000E+00  0.00000000E+00  0.00000000E+00
  0.00000000E+00  0.00000000E+00  0.00000000E+00
  0.00000000E+00  0.00000000E+00  0.00000000E+00
  0.00000000E+00  0.00000000E+00  0.00000000E+00
  0.00000000E+00  0.00000000E+00  0.00000000E+00
  0.00000000E+00  0.00000000E+00  0.00000000E+00
  0.00000000E+00  0.00000000E+00  0.00000000E+00
  0.00000000E+00  0.00000000E+00  0.00000000E+00
  0.00000000E+00  0.00000000E+00  0.00000000E+00
  0.00000000E+00  0.00000000E+00  0.00000000E+00
  0.00000000E+00  0.00000000E+00  0.00000000E+00
  0.00000000E+00  0.00000000E+00  0.00000000E+00
  0.00000000E+00  0.00000000E+00  0.00000000E+00
  0.00000000E+00  0.00000000E+00  0.00000000E+00
  0.00000000E+00  0.00000000E+00  0.00000000E+00
  0.00000000E+00  0.00000000E+00  0.00000000E+00
  0.00000000E+00  0.00000000E+00  0.00000000E+00
  0.00000000E+00  0.00000000E+00  0.00000000E+00
  0.00000000E+00  0.00000000E+00  0.00000000E+00
  0.00000000E+00  0.00000000E+00  0.00000000E+00
  0.00000000E+00  0.00000000E+00  0.00000000E+00
  0.00000000E+00  0.00000000E+00  0.00000000E+00
  0.00000000E+00  0.00000000E+00  0.00000000E+00
  0.00000000E+00  0.00000000E+00  0.00000000E+00
