supercell of POSCAR                     
   1.07329600000000     
     9.1016125577399993   -5.3128209557800004   -9.4184911254399992
     9.0821131104399999    5.2871675818400004    9.4140884809200003
    -1.5053809694200000   -7.9210976524300012    4.6939078171600004
   Al   Sc   N 
    72    24    95
Direct
  0.3048587779914627  0.2874063752677500  0.5388829322451301
  0.1428721851465724  0.2429169277063110  0.3022496788867031
  0.3095603216771750  0.4096822243325846  0.3031887424250641
  0.4690903207882329  0.3282715473706403  0.7903871233179771
  0.1396162362604301  0.4979947704496297  0.7886945575397135
  0.3095206623207787  0.1649406098050363  0.7845307870226748
  0.4707152164225405  0.4493591878735756  0.5366952206550053
  0.1402182638106098  0.1179788881731270  0.5290232646709399
  0.4765101729130450  0.0738513780833614  0.2953871059055331
  0.2787322368070306  0.1084996168329369  0.3345257351682420
  0.1160420469724173  0.0658954383845867  0.0960262322663397
  0.1372321596962323  0.1658861665425420  0.7918338672067975
  0.2763908959690298  0.3587297912785772  0.8200899337123531
  0.1135274959758021  0.3227258447928989  0.5852140408552273
  0.2732123427443511  0.4857674974720183  0.5796446061954725
  0.4484967338131085  0.2792751236087696  0.3349782140219091
  0.1131555656911516  0.4448794664067606  0.3367193592481925
  0.4481839572303201  0.4027052205968360  0.0949258346651689
  0.8009830847940265  0.2854744608263076  0.5312633967677414
  0.6427803467136854  0.2425804245779659  0.3024845273218872
  0.8080293290076668  0.4088423169457513  0.3015690703917997
  0.9507114748510475  0.3381647396471479  0.7550691248784247
  0.6400782821403652  0.4981066442374669  0.7887429574362486
  0.7994264867737400  0.1620108729267855  0.7814306063698808
  0.9706892666838769  0.4493551416799164  0.5303013392793900
  0.6418825285938041  0.1195880973207508  0.5400052252286400
  0.9740203779635479  0.0714577374753063  0.2924589037340581
  0.7765570085137057  0.1075837096026291  0.3315844508568659
  0.6149427580898035  0.0693400431717635  0.0933739393122721
  0.6145767260249642  0.1973552559025862  0.8243888687015044
  0.7728117121010385  0.3576357596976081  0.8194430618397988
  0.6116382994550520  0.3242437644587852  0.5867989035593624
  0.7726569514683561  0.4854944519041879  0.5791989742829458
  0.9504008368233698  0.2777485502618973  0.3302247077005944
  0.6113580616359613  0.4454886707526597  0.3375391951007742
  0.9498345654889562  0.4025483799834859  0.0926660502481980
  0.3017894700312382  0.7876804578382774  0.5414987563465559
  0.1416218711247765  0.7420280088193749  0.3056548340039456
  0.3072762562885885  0.9086634418833341  0.3054791028626553
  0.4655841610573148  0.8272823417453594  0.7927087397921611
  0.1377705732778765  0.9885379428960732  0.7879768652112134
  0.2989324254136108  0.6634233903305571  0.7847895003240879
  0.4685468961386192  0.9493858914993893  0.5378421931049218
  0.1413945331303594  0.6193752297132775  0.5408991285518141
  0.4755929265963559  0.5743932882345320  0.2968593888552533
  0.2771786092360671  0.6091839730400253  0.3359130697816823
  0.1149258150137342  0.5696680514310160  0.0929659345521117
  0.1126386136555908  0.6967080276141147  0.8243935292029860
  0.2751993214929982  0.8577916286620351  0.8226910170636614
  0.1093138510550702  0.8220232923437223  0.5870786919979309
  0.2713505338332567  0.9862038218608049  0.5812819461650705
  0.4462937363125050  0.7792489596693883  0.3374741014562730
  0.1102852672750245  0.9426729606339990  0.3363839830503466
  0.4469898893928530  0.9026092506620955  0.0977221016139538
  0.8013626223196013  0.7864750981849227  0.5402278700818783
  0.6407504379956777  0.7428730910820249  0.3054216111047126
  0.8061394528733459  0.9074779116155867  0.3022653068864827
  0.9643469449784448  0.8242401191717619  0.7916997150700240
  0.6392969699218085  0.9979173879928709  0.7884751711265992
  0.7977799007638069  0.6637573727435253  0.7834409723214861
  0.9681585854389496  0.9467532080657577  0.5337604539580809
  0.6404508839076186  0.6199299078818612  0.5413378647193525
  0.9758416145530902  0.5735663949063792  0.2945626700772053
  0.7757039186150649  0.6093053696883288  0.3364314801463806
  0.6129412769599654  0.5693859894661628  0.0949447215226087
  0.6120521013561699  0.6973656725201707  0.8251138697461400
  0.7732227638311215  0.8582304349732652  0.8206466401824386
  0.6096232582195640  0.8242263016317324  0.5888637283225364
  0.7709622637471654  0.9847817949380797  0.5776387610179157
  0.9453717622216899  0.7777088125611229  0.3357651860717041
  0.6101498568038224  0.9449125300651957  0.3379412138381355
  0.9461537337188020  0.9012213625118974  0.0947088718984403
  0.4835807411276463  0.1979929252037635  0.0395522858457653
  0.1412752604390874  0.3646243433308527  0.0389307840495476
  0.3107087279807175  0.0237373883228287  0.0394050843537883
  0.2861028163897927  0.2301815862827752  0.0825653193794551
  0.4485307021179565  0.0217078086217697  0.8243065592845227
  0.4476086084075845  0.1529064669055415  0.5726924726058300
  0.9874455205685067  0.1888900133750511  0.0317464319923744
  0.6421455891925092  0.3660086706569246  0.0381529279253101
  0.8097796206005654  0.0243612958486210  0.0362712462886918
  0.7883841891873971  0.2310207985395394  0.0809296268416091
  0.9458027889568115  0.0176646310448376  0.8176409295622165
  0.9448340552898458  0.1501740222837711  0.5688053582406312
  0.4800635530473869  0.6976883921824424  0.0408340845827482
  0.1401654827582490  0.8631059480523007  0.0385601078655355
  0.3086541476852815  0.5244356446648482  0.0391698413102972
  0.2836159322531060  0.7313588809364120  0.0843144164130294
  0.4470306851269186  0.5232188067970611  0.8243315059312124
  0.4434412486377610  0.6540180585420359  0.5764851934896171
  0.9797480215810950  0.6982894901788796  0.0422991984158969
  0.6394080306201033  0.8662654446254692  0.0378022546184624
  0.8074356104505327  0.5274408409555775  0.0427978031501226
  0.7815784516265154  0.7316454804527837  0.0823348689072816
  0.9453563814268975  0.5279782507712270  0.8270431574581139
  0.9433196209799064  0.6520877900565125  0.5741396733232662
  0.2395736831838633  0.3667760151785942  0.6319579250636096
  0.0770242835359056  0.3240332285262824  0.3942461510851274
  0.2400750630749684  0.4890579502737680  0.3899273840218598
  0.4214093308276716  0.2878201747309816  0.1496152568304225
  0.0748399609368136  0.4512736801951647  0.1429973748616788
  0.2383872802902260  0.1048584664435523  0.1490244753678240
  0.4012226657236369  0.3994693304360339  0.9016523275090620
  0.0822176085411783  0.0839414993528109  0.9015172390840149
  0.2373714115063308  0.2439505425987960  0.8760122669560602
  0.3960068434087134  0.0246525639312551  0.6233194280489016
  0.0835519721641802  0.2029861873641963  0.6358520131828129
  0.4055257050274079  0.1571168138737278  0.3672525052248830
  0.2172781982994181  0.1914408811699317  0.4316257753613044
  0.0562670741562528  0.1444883923336633  0.1962651347093001
  0.2163992248794600  0.3169998876456503  0.1954769657899718
  0.3733132845266880  0.1148139777524690  0.9186762247648446
  0.2067144542616433  0.4351007184841436  0.9052220140758678
  0.3754309100399524  0.2415447768361716  0.6789862947574292
  0.0439070559295587  0.4033008481893461  0.6789450149098002
  0.2049167633146425  0.0751133462767868  0.6849418871522204
  0.3818902749932676  0.3553172925632992  0.4318230712159661
  0.0458652032483045  0.0255740626807750  0.4352874306251380
  0.3874992706080747  0.4776596762605436  0.1981307606485245
  0.7405754816872303  0.3662706636106776  0.6300840721384091
  0.5765863475992603  0.3249681189072646  0.3951463579905976
  0.7405540091653293  0.4889887444433256  0.3895674162606184
  0.9321563937627886  0.2848183925841568  0.1388359165423481
  0.5729163755386466  0.4521613874688200  0.1463064959543559
  0.7391878352941603  0.1057541194197356  0.1455318604466953
  0.9063255556203202  0.3966585480442149  0.8963571428196460
  0.5854765629676848  0.0829980972055537  0.8991035213688505
  0.7388082125157283  0.2431358356335949  0.8756026709207205
  0.8975757085152338  0.0218269446825445  0.6175325920192236
  0.5860611593584011  0.2042814095758985  0.6365872584675500
  0.9054443210222018  0.1565335191164294  0.3629248454736214
  0.7166974273683167  0.1893462105796502  0.4309071506300768
  0.5572634853860947  0.1464483132132912  0.1984369912106203
  0.7200152091941163  0.3149053351007680  0.1976192853344756
  0.8759636105255595  0.1153370180836006  0.9133576784058235
  0.5463169867876871  0.2752999416733459  0.9046369516189259
  0.7126932617537349  0.4396119764088269  0.9044222260976724
  0.8722689154320662  0.2377141926596096  0.6737413370861489
  0.5427283656690776  0.4062390189052181  0.6830438714501952
  0.7118416801939915  0.0679954759878854  0.6751336479386367
  0.8831820857717645  0.3537188715098694  0.4281356707948518
  0.5464180041888724  0.0272976467923485  0.4393931259070953
  0.8888120486775222  0.4752433356649419  0.1953424762157994
  0.2359905861275564  0.8693018670626032  0.6345031605919260
  0.0736128693925551  0.8241255857667724  0.3967827369283299
  0.2374800188998307  0.9910292431625933  0.3935904443778995
  0.4198778013714772  0.7881160401967477  0.1521379713759572
  0.0714226329672627  0.9509308321135492  0.1461905925681890
  0.2378892499284788  0.6048651024447551  0.1496091642276198
  0.4001366673667022  0.9008414113425047  0.9051472326335954
  0.0844103837704395  0.5806010692867645  0.8977406717140326
  0.2351653611765343  0.7436493701577760  0.8776444404621628
  0.3988410318093543  0.5226274368254167  0.6214470167683714
  0.0825206991325587  0.7023068575858602  0.6362580630161716
  0.4045105818796415  0.6567961192527108  0.3694819989059610
  0.2162797390793401  0.6909411970905879  0.4354594736409823
  0.0564391964026143  0.6455869443332034  0.1979303266398205
  0.2160938017799907  0.8165924016178963  0.2023772365669103
  0.3704683080714801  0.6140817856009519  0.9171518372552683
  0.0431280684445596  0.7729464535188910  0.9051844781382243
  0.2096067990295225  0.9383923003841517  0.9075407312980133
  0.3710164638886155  0.7422504072925946  0.6827341950084218
  0.0385754128277966  0.9051694976422908  0.6842208893304900
  0.2109701022376740  0.5672921511176767  0.6759475764154317
  0.3799583324578464  0.8558691609810225  0.4354409341324015
  0.0484334773496116  0.5256900568121381  0.4346506981358047
  0.3864467568337489  0.9775568166676649  0.2018484928518376
  0.7375939973750079  0.8674121901904712  0.6319829750187438
  0.5741211273215256  0.8255434121352749  0.3976643755571132
  0.7387349052936187  0.9895303886248925  0.3887495943724844
  0.9189262528984159  0.7875491919782505  0.1512509333768861
  0.5715169738132033  0.9535413321705661  0.1474558981580643
  0.7364143906368881  0.6060047285846792  0.1511066165270378
  0.9001728003974208  0.8987070557628556  0.9022722522587614
  0.5851731658365935  0.5817173468633285  0.8996136507699930
  0.7351397978942131  0.7439505118752123  0.8756923016523359
  0.9001791078658385  0.5198581253926946  0.6220665909133842
  0.5827666308076545  0.7036409940700850  0.6371534129615739
  0.9044557870395451  0.6548160613500542  0.3671512909826689
  0.7157258456029609  0.6907374290580890  0.4347285438315893
  0.5553920955531595  0.6466072904300404  0.1992162317189212
  0.7148706638073179  0.8161582685579916  0.1995555780363603
  0.8699504801038955  0.6158852784867719  0.9188145448525376
  0.5432120999902565  0.7744101987898446  0.9057857386096799
  0.7098599439233624  0.9397265952778326  0.9045746914349593
  0.8718431153125863  0.7396684114369236  0.6799742953376153
  0.5394925105798052  0.9074661175750904  0.6858039119440136
  0.7117495191718604  0.5677309149030876  0.6749432421995891
  0.8796760696168704  0.8539307017082294  0.4323336220755252
  0.5476597716910092  0.5263866681588780  0.4371494473451492
  0.8858435126225146  0.9762658142682454  0.1974805854942403
 
  0.00000000E+00  0.00000000E+00  0.00000000E+00
  0.00000000E+00  0.00000000E+00  0.00000000E+00
  0.00000000E+00  0.00000000E+00  0.00000000E+00
  0.00000000E+00  0.00000000E+00  0.00000000E+00
  0.00000000E+00  0.00000000E+00  0.00000000E+00
  0.00000000E+00  0.00000000E+00  0.00000000E+00
  0.00000000E+00  0.00000000E+00  0.00000000E+00
  0.00000000E+00  0.00000000E+00  0.00000000E+00
  0.00000000E+00  0.00000000E+00  0.00000000E+00
  0.00000000E+00  0.00000000E+00  0.00000000E+00
  0.00000000E+00  0.00000000E+00  0.00000000E+00
  0.00000000E+00  0.00000000E+00  0.00000000E+00
  0.00000000E+00  0.00000000E+00  0.00000000E+00
  0.00000000E+00  0.00000000E+00  0.00000000E+00
  0.00000000E+00  0.00000000E+00  0.00000000E+00
  0.00000000E+00  0.00000000E+00  0.00000000E+00
  0.00000000E+00  0.00000000E+00  0.00000000E+00
  0.00000000E+00  0.00000000E+00  0.00000000E+00
  0.00000000E+00  0.00000000E+00  0.00000000E+00
  0.00000000E+00  0.00000000E+00  0.00000000E+00
  0.00000000E+00  0.00000000E+00  0.00000000E+00
  0.00000000E+00  0.00000000E+00  0.00000000E+00
  0.00000000E+00  0.00000000E+00  0.00000000E+00
  0.00000000E+00  0.00000000E+00  0.00000000E+00
  0.00000000E+00  0.00000000E+00  0.00000000E+00
  0.00000000E+00  0.00000000E+00  0.00000000E+00
  0.00000000E+00  0.00000000E+00  0.00000000E+00
  0.00000000E+00  0.00000000E+00  0.00000000E+00
  0.00000000E+00  0.00000000E+00  0.00000000E+00
  0.00000000E+00  0.00000000E+00  0.00000000E+00
  0.00000000E+00  0.00000000E+00  0.00000000E+00
  0.00000000E+00  0.00000000E+00  0.00000000E+00
  0.00000000E+00  0.00000000E+00  0.00000000E+00
  0.00000000E+00  0.00000000E+00  0.00000000E+00
  0.00000000E+00  0.00000000E+00  0.00000000E+00
  0.00000000E+00  0.00000000E+00  0.00000000E+00
  0.00000000E+00  0.00000000E+00  0.00000000E+00
  0.00000000E+00  0.00000000E+00  0.00000000E+00
  0.00000000E+00  0.00000000E+00  0.00000000E+00
  0.00000000E+00  0.00000000E+00  0.00000000E+00
  0.00000000E+00  0.00000000E+00  0.00000000E+00
  0.00000000E+00  0.00000000E+00  0.00000000E+00
  0.00000000E+00  0.00000000E+00  0.00000000E+00
  0.00000000E+00  0.00000000E+00  0.00000000E+00
  0.00000000E+00  0.00000000E+00  0.00000000E+00
  0.00000000E+00  0.00000000E+00  0.00000000E+00
  0.00000000E+00  0.00000000E+00  0.00000000E+00
  0.00000000E+00  0.00000000E+00  0.00000000E+00
  0.00000000E+00  0.00000000E+00  0.00000000E+00
  0.00000000E+00  0.00000000E+00  0.00000000E+00
  0.00000000E+00  0.00000000E+00  0.00000000E+00
  0.00000000E+00  0.00000000E+00  0.00000000E+00
  0.00000000E+00  0.00000000E+00  0.00000000E+00
  0.00000000E+00  0.00000000E+00  0.00000000E+00
  0.00000000E+00  0.00000000E+00  0.00000000E+00
  0.00000000E+00  0.00000000E+00  0.00000000E+00
  0.00000000E+00  0.00000000E+00  0.00000000E+00
  0.00000000E+00  0.00000000E+00  0.00000000E+00
  0.00000000E+00  0.00000000E+00  0.00000000E+00
  0.00000000E+00  0.00000000E+00  0.00000000E+00
  0.00000000E+00  0.00000000E+00  0.00000000E+00
  0.00000000E+00  0.00000000E+00  0.00000000E+00
  0.00000000E+00  0.00000000E+00  0.00000000E+00
  0.00000000E+00  0.00000000E+00  0.00000000E+00
  0.00000000E+00  0.00000000E+00  0.00000000E+00
  0.00000000E+00  0.00000000E+00  0.00000000E+00
  0.00000000E+00  0.00000000E+00  0.00000000E+00
  0.00000000E+00  0.00000000E+00  0.00000000E+00
  0.00000000E+00  0.00000000E+00  0.00000000E+00
  0.00000000E+00  0.00000000E+00  0.00000000E+00
  0.00000000E+00  0.00000000E+00  0.00000000E+00
  0.00000000E+00  0.00000000E+00  0.00000000E+00
  0.00000000E+00  0.00000000E+00  0.00000000E+00
  0.00000000E+00  0.00000000E+00  0.00000000E+00
  0.00000000E+00  0.00000000E+00  0.00000000E+00
  0.00000000E+00  0.00000000E+00  0.00000000E+00
  0.00000000E+00  0.00000000E+00  0.00000000E+00
  0.00000000E+00  0.00000000E+00  0.00000000E+00
  0.00000000E+00  0.00000000E+00  0.00000000E+00
  0.00000000E+00  0.00000000E+00  0.00000000E+00
  0.00000000E+00  0.00000000E+00  0.00000000E+00
  0.00000000E+00  0.00000000E+00  0.00000000E+00
  0.00000000E+00  0.00000000E+00  0.00000000E+00
  0.00000000E+00  0.00000000E+00  0.00000000E+00
  0.00000000E+00  0.00000000E+00  0.00000000E+00
  0.00000000E+00  0.00000000E+00  0.00000000E+00
  0.00000000E+00  0.00000000E+00  0.00000000E+00
  0.00000000E+00  0.00000000E+00  0.00000000E+00
  0.00000000E+00  0.00000000E+00  0.00000000E+00
  0.00000000E+00  0.00000000E+00  0.00000000E+00
  0.00000000E+00  0.00000000E+00  0.00000000E+00
  0.00000000E+00  0.00000000E+00  0.00000000E+00
  0.00000000E+00  0.00000000E+00  0.00000000E+00
  0.00000000E+00  0.00000000E+00  0.00000000E+00
  0.00000000E+00  0.00000000E+00  0.00000000E+00
  0.00000000E+00  0.00000000E+00  0.00000000E+00
  0.00000000E+00  0.00000000E+00  0.00000000E+00
  0.00000000E+00  0.00000000E+00  0.00000000E+00
  0.00000000E+00  0.00000000E+00  0.00000000E+00
  0.00000000E+00  0.00000000E+00  0.00000000E+00
  0.00000000E+00  0.00000000E+00  0.00000000E+00
  0.00000000E+00  0.00000000E+00  0.00000000E+00
  0.00000000E+00  0.00000000E+00  0.00000000E+00
  0.00000000E+00  0.00000000E+00  0.00000000E+00
  0.00000000E+00  0.00000000E+00  0.00000000E+00
  0.00000000E+00  0.00000000E+00  0.00000000E+00
  0.00000000E+00  0.00000000E+00  0.00000000E+00
  0.00000000E+00  0.00000000E+00  0.00000000E+00
  0.00000000E+00  0.00000000E+00  0.00000000E+00
  0.00000000E+00  0.00000000E+00  0.00000000E+00
  0.00000000E+00  0.00000000E+00  0.00000000E+00
  0.00000000E+00  0.00000000E+00  0.00000000E+00
  0.00000000E+00  0.00000000E+00  0.00000000E+00
  0.00000000E+00  0.00000000E+00  0.00000000E+00
  0.00000000E+00  0.00000000E+00  0.00000000E+00
  0.00000000E+00  0.00000000E+00  0.00000000E+00
  0.00000000E+00  0.00000000E+00  0.00000000E+00
  0.00000000E+00  0.00000000E+00  0.00000000E+00
  0.00000000E+00  0.00000000E+00  0.00000000E+00
  0.00000000E+00  0.00000000E+00  0.00000000E+00
  0.00000000E+00  0.00000000E+00  0.00000000E+00
  0.00000000E+00  0.00000000E+00  0.00000000E+00
  0.00000000E+00  0.00000000E+00  0.00000000E+00
  0.00000000E+00  0.00000000E+00  0.00000000E+00
  0.00000000E+00  0.00000000E+00  0.00000000E+00
  0.00000000E+00  0.00000000E+00  0.00000000E+00
  0.00000000E+00  0.00000000E+00  0.00000000E+00
  0.00000000E+00  0.00000000E+00  0.00000000E+00
  0.00000000E+00  0.00000000E+00  0.00000000E+00
  0.00000000E+00  0.00000000E+00  0.00000000E+00
  0.00000000E+00  0.00000000E+00  0.00000000E+00
  0.00000000E+00  0.00000000E+00  0.00000000E+00
  0.00000000E+00  0.00000000E+00  0.00000000E+00
  0.00000000E+00  0.00000000E+00  0.00000000E+00
  0.00000000E+00  0.00000000E+00  0.00000000E+00
  0.00000000E+00  0.00000000E+00  0.00000000E+00
  0.00000000E+00  0.00000000E+00  0.00000000E+00
  0.00000000E+00  0.00000000E+00  0.00000000E+00
  0.00000000E+00  0.00000000E+00  0.00000000E+00
  0.00000000E+00  0.00000000E+00  0.00000000E+00
  0.00000000E+00  0.00000000E+00  0.00000000E+00
  0.00000000E+00  0.00000000E+00  0.00000000E+00
  0.00000000E+00  0.00000000E+00  0.00000000E+00
  0.00000000E+00  0.00000000E+00  0.00000000E+00
  0.00000000E+00  0.00000000E+00  0.00000000E+00
  0.00000000E+00  0.00000000E+00  0.00000000E+00
  0.00000000E+00  0.00000000E+00  0.00000000E+00
  0.00000000E+00  0.00000000E+00  0.00000000E+00
  0.00000000E+00  0.00000000E+00  0.00000000E+00
  0.00000000E+00  0.00000000E+00  0.00000000E+00
  0.00000000E+00  0.00000000E+00  0.00000000E+00
  0.00000000E+00  0.00000000E+00  0.00000000E+00
  0.00000000E+00  0.00000000E+00  0.00000000E+00
  0.00000000E+00  0.00000000E+00  0.00000000E+00
  0.00000000E+00  0.00000000E+00  0.00000000E+00
  0.00000000E+00  0.00000000E+00  0.00000000E+00
  0.00000000E+00  0.00000000E+00  0.00000000E+00
  0.00000000E+00  0.00000000E+00  0.00000000E+00
  0.00000000E+00  0.00000000E+00  0.00000000E+00
  0.00000000E+00  0.00000000E+00  0.00000000E+00
  0.00000000E+00  0.00000000E+00  0.00000000E+00
  0.00000000E+00  0.00000000E+00  0.00000000E+00
  0.00000000E+00  0.00000000E+00  0.00000000E+00
  0.00000000E+00  0.00000000E+00  0.00000000E+00
  0.00000000E+00  0.00000000E+00  0.00000000E+00
  0.00000000E+00  0.00000000E+00  0.00000000E+00
  0.00000000E+00  0.00000000E+00  0.00000000E+00
  0.00000000E+00  0.00000000E+00  0.00000000E+00
  0.00000000E+00  0.00000000E+00  0.00000000E+00
  0.00000000E+00  0.00000000E+00  0.00000000E+00
  0.00000000E+00  0.00000000E+00  0.00000000E+00
  0.00000000E+00  0.00000000E+00  0.00000000E+00
  0.00000000E+00  0.00000000E+00  0.00000000E+00
  0.00000000E+00  0.00000000E+00  0.00000000E+00
  0.00000000E+00  0.00000000E+00  0.00000000E+00
  0.00000000E+00  0.00000000E+00  0.00000000E+00
  0.00000000E+00  0.00000000E+00  0.00000000E+00
  0.00000000E+00  0.00000000E+00  0.00000000E+00
  0.00000000E+00  0.00000000E+00  0.00000000E+00
  0.00000000E+00  0.00000000E+00  0.00000000E+00
  0.00000000E+00  0.00000000E+00  0.00000000E+00
  0.00000000E+00  0.00000000E+00  0.00000000E+00
  0.00000000E+00  0.00000000E+00  0.00000000E+00
  0.00000000E+00  0.00000000E+00  0.00000000E+00
  0.00000000E+00  0.00000000E+00  0.00000000E+00
  0.00000000E+00  0.00000000E+00  0.00000000E+00
  0.00000000E+00  0.00000000E+00  0.00000000E+00
  0.00000000E+00  0.00000000E+00  0.00000000E+00
  0.00000000E+00  0.00000000E+00  0.00000000E+00
  0.00000000E+00  0.00000000E+00  0.00000000E+00
  0.00000000E+00  0.00000000E+00  0.00000000E+00
