supercell of POSCAR                     
   1.07329600000000     
     9.1016125577399993   -5.3128209557800004   -9.4184911254399992
     9.0821131104399999    5.2871675818400004    9.4140884809200003
    -1.5053809694200000   -7.9210976524300012    4.6939078171600004
   Al   Sc   N 
    72    24    95
Direct
  0.2871366679966769  0.2963041480489039  0.5040707351188800
  0.1379781770015640  0.2410851894141857  0.2986185051797534
  0.3083244473216453  0.4116103543468199  0.2973217920937046
  0.4931583846947731  0.3494301679941714  0.8129400254074071
  0.1400081101718911  0.4972864769489433  0.7888284741079659
  0.2812063957798827  0.1399770808177294  0.8032143478875113
  0.4712475662298345  0.4499668266423313  0.5354549240246556
  0.1391772550429806  0.1178428698437344  0.5379012411257591
  0.4767259481118984  0.0710994739379984  0.2836495275670927
  0.2775036361402101  0.1057905826625145  0.3316159126106868
  0.1142569742439434  0.0673421267001686  0.0913106669273773
  0.1122672557767146  0.1974592170549556  0.8212016709785033
  0.2768560040588284  0.3581944994787563  0.8190926476221492
  0.1089930281180500  0.3235850262663007  0.5876919893660641
  0.2731975183477502  0.4880373204669439  0.5789709572996600
  0.4494598002731891  0.2773340074566022  0.3325940549211239
  0.1108828898590630  0.4452742469056901  0.3370729898015483
  0.4489972703461831  0.4018301463584564  0.0952485988874230
  0.8054060466249169  0.2879635631808171  0.5399919039902343
  0.6441940832181103  0.2426495653186365  0.3038903626353076
  0.8096643479841816  0.4090315158824609  0.3044244116483981
  0.9675691518384468  0.3275510965803434  0.7905908904417771
  0.6432156100701008  0.5014105587571720  0.7891481874011319
  0.8020273458952474  0.1642237158942095  0.7842100368912028
  0.9708046703122619  0.4492673785513048  0.5368244194964902
  0.6484900063853587  0.1211528480905315  0.5418331196234263
  0.9751806618409020  0.0726638523178451  0.2942237398396017
  0.7781351195042490  0.1085633375203088  0.3337033001580494
  0.6154626359711770  0.0694643204120382  0.0924741761725869
  0.6170397844716717  0.1962693021421700  0.8239194702578629
  0.7765328973383134  0.3593557712289055  0.8208073254056742
  0.6143766921434164  0.3239353713249926  0.5848810186554445
  0.7734920048827689  0.4862367504220089  0.5790936765430601
  0.9475120076041890  0.2788714133381589  0.3351392921720162
  0.6123596271665903  0.4451201117567152  0.3370906738350499
  0.9473854527291437  0.4028513321297069  0.0948999206148144
  0.3010925293916387  0.7850433142441915  0.5396139256132955
  0.1407747369141745  0.7420684597177498  0.3040143368038741
  0.3064425580151422  0.9062322736723019  0.3019176063706652
  0.4656646906800077  0.8252965569051014  0.7915002870715071
  0.1342428013606778  0.9914403971055634  0.7856237706499343
  0.2981056634280890  0.6641636921944212  0.7828124010412978
  0.4682738061694423  0.9422344476226883  0.5366816567936041
  0.1401743445031940  0.6191037057748190  0.5402777308696685
  0.4762882313164951  0.5740469790646685  0.2948208023803289
  0.2761647577606539  0.6093309019346691  0.3350857052038165
  0.1127787827359015  0.5698224728677133  0.0942114100501925
  0.1119929191444413  0.6964650355806015  0.8238228129068261
  0.2739338005939089  0.8578110109308099  0.8193376494602091
  0.1092420222217498  0.8219443361416197  0.5862417644119446
  0.2707679422609743  0.9815701342021939  0.5753125092423801
  0.4459059280579183  0.7776137699299426  0.3347214596152526
  0.1099446996603035  0.9434005985065284  0.3352455408085149
  0.4465744733599095  0.9007626938566702  0.0944206976502855
  0.8021154359880498  0.7870005892806802  0.5397584354708300
  0.6414734010391854  0.7430633256671229  0.3048979683635835
  0.8068514415109647  0.9084579401799431  0.3031480427168631
  0.9647792681810614  0.8261553637287449  0.7906805134069614
  0.6405076238925602  0.9974476228189459  0.7886010625954256
  0.7997062292096402  0.6643526850772830  0.7833898159784027
  0.9687300358411264  0.9476674118422892  0.5348208265118330
  0.6414692352757783  0.6201627435335766  0.5399989459983843
  0.9752946545685717  0.5738070246595868  0.2958164310127671
  0.7765802863245099  0.6090069971814387  0.3346896815890474
  0.6141429135519516  0.5688690426638274  0.0934862541584636
  0.6130151257322609  0.6978497261248506  0.8243074554223213
  0.7745785680624167  0.8585723959470926  0.8212847154810419
  0.6109840159965643  0.8237530691188155  0.5890018294157287
  0.7728622178049349  0.9851773634056684  0.5801650780038869
  0.9457286408853491  0.7783845274071552  0.3351195103445050
  0.6112491013155577  0.9446290748438813  0.3376019441515368
  0.9464437708304985  0.9020877154633595  0.0948925011306514
  0.4816437011407615  0.1967016227445697  0.0356373213294319
  0.1401477381369460  0.3678700672387905  0.0383528698377802
  0.3091725352119568  0.0214891919338669  0.0388175598921450
  0.2838250979220405  0.2314432427122313  0.0838738153839671
  0.4487404448541170  0.0188789866588337  0.8213852722774959
  0.4633160216312149  0.1304625278121065  0.5485066642432415
  0.9821604262088144  0.1976519916559099  0.0378958965567193
  0.6465535381077814  0.3654658030170026  0.0429919836142929
  0.8098806253282334  0.0243580153761584  0.0381029259650774
  0.7864799811800651  0.2302610642034821  0.0827594916280603
  0.9464027002058657  0.0224530692646354  0.8228625120851660
  0.9444798375392054  0.1524372484803393  0.5731614575145443
  0.4809411271896451  0.6979512896589100  0.0410070961962106
  0.1394466005777986  0.8640620872833793  0.0358770077546779
  0.3075046707310207  0.5271616351095716  0.0397785256628964
  0.2825682272924368  0.7307916559383756  0.0811090482256631
  0.4442749035640645  0.5279796435209434  0.8236129625307242
  0.4443684502032852  0.6535638209340249  0.5731685812784093
  0.9795402626566130  0.6980233882517766  0.0399841407929102
  0.6394905188434734  0.8667459242684714  0.0381765506132155
  0.8096701183172641  0.5263027500781305  0.0393264490086125
  0.7821329531858012  0.7318849268985232  0.0828746104480445
  0.9468614396655752  0.5235226180299861  0.8240523771488597
  0.9434270657859116  0.6532764997099463  0.5747028215412655
  0.2407777229289465  0.3657180760028211  0.6294423278352212
  0.0766945513990436  0.3242626631363379  0.3956544820002890
  0.2402616363856467  0.4887005331319685  0.3892127102655394
  0.4207452221892183  0.2866009015624442  0.1472171479337021
  0.0722716438682056  0.4530430673738621  0.1466686930501453
  0.2384379746875425  0.1047860511672312  0.1459915966392842
  0.4050720814343833  0.3974186359649607  0.8947099482603562
  0.0865073647535723  0.0819719616417487  0.8956142835564691
  0.2402580982123084  0.2406526001941884  0.8675976549274793
  0.3962080795857261  0.0194647726334338  0.6204885641090883
  0.0846781677832738  0.2030641312511747  0.6341024042030270
  0.4048318294154782  0.1556655125463351  0.3632041720999837
  0.2164789700756629  0.1881657605475269  0.4305895071179933
  0.0563299027055493  0.1445586326295114  0.1958435629247148
  0.2172045269522087  0.3160688576234847  0.2001881582496523
  0.3725587848133998  0.1113361436626192  0.9142134300840965
  0.0470751268971341  0.2752598863629245  0.9042703519495774
  0.2128792929269920  0.4372146674706627  0.9026912632283413
  0.0430181893361592  0.4054748942765869  0.6829408252068632
  0.2072418679546288  0.0620721072914492  0.6699209835935065
  0.3830629257156417  0.3546539271084725  0.4296486378341555
  0.0468506817272143  0.0256053318382428  0.4356881496446050
  0.3880376120416074  0.4772463625238927  0.1946142375475262
  0.7404301586078574  0.3678035713796106  0.6314723130132265
  0.5759124541302114  0.3241879275560748  0.3945866458568048
  0.7398131375179275  0.4893376111193959  0.3896742821831509
  0.9230625259690441  0.2879569494279934  0.1498636439723455
  0.5730273898566480  0.4511449428653691  0.1446515948453424
  0.7382145898861197  0.1046448696380367  0.1484639392029479
  0.9025734866233535  0.4000301487408962  0.9019426898439136
  0.5847743014094391  0.0825806454303404  0.8981640836589904
  0.7386403579832859  0.2446173986508668  0.8770817204117876
  0.8985991563754823  0.0224654903655690  0.6203153212536421
  0.5871763915675174  0.2049848918768760  0.6372975722497358
  0.9057181099418443  0.1564530771367032  0.3665430380972765
  0.7189027251064886  0.1915092569041192  0.4333824836006031
  0.5570836854415901  0.1477111252515755  0.1952566344599305
  0.7200055069543865  0.3152093657324926  0.2017750229438136
  0.8727333166030746  0.1151633921215520  0.9169011845077506
  0.5487687278425213  0.2742368702762690  0.9053952789893032
  0.7098582805976577  0.4392435046325218  0.9045886790657462
  0.8744758971662634  0.2410885842472723  0.6803895599867715
  0.5454466643337099  0.4069256767849367  0.6785836142160733
  0.7128637363229799  0.0685716124886966  0.6772275008161444
  0.8831554201593264  0.3554130596379537  0.4331262515015908
  0.5432560639699986  0.0320380988433300  0.4430253934147785
  0.8871386327390951  0.4772834852598535  0.1984447463958787
  0.2369380160105337  0.8654875809439488  0.6306346008647168
  0.0741145913847419  0.8243701108460186  0.3953707782449030
  0.2387956118887757  0.9883724399433333  0.3877003982560296
  0.4196337699298596  0.7872206981973164  0.1504188537924449
  0.0717043321129012  0.9517719071157771  0.1446362420459124
  0.2364686692774356  0.6051108432335113  0.1497332373334217
  0.4003266409397810  0.8990085316728198  0.9027054470616989
  0.0858080050783840  0.5809234175102773  0.8988767174809595
  0.2349928567197566  0.7439399662450867  0.8752041182504158
  0.3992248833692074  0.5221087289943327  0.6198433494522178
  0.0828869356668065  0.7022349729755319  0.6359410877223652
  0.4043950167730017  0.6553607071454124  0.3664777230010827
  0.2155943266938536  0.6897792006130601  0.4336477556587113
  0.0551414678549449  0.6465124891510428  0.1981287314387004
  0.2156092313126052  0.8153269530168359  0.1984962691482224
  0.3699325132886884  0.6163922069565473  0.9177051536149108
  0.0430487727516820  0.7735573242915521  0.9038538172940562
  0.2094172010684261  0.9392411995685421  0.9030202087774342
  0.3722501175906672  0.7403570061843396  0.6801722064583871
  0.0388325193297447  0.9036207994264132  0.6816213432368201
  0.2114855903485378  0.5674462087738732  0.6749990065490010
  0.3792689722983056  0.8528911853692236  0.4320403030070494
  0.0477586707037290  0.5257974301275752  0.4365328914874951
  0.3862894343521006  0.9753821945179126  0.1984988277558699
  0.7377931716895390  0.8676167149944121  0.6323645166106857
  0.5733198677166200  0.8264724254729643  0.3978713500078683
  0.7379595883003418  0.9904968264068614  0.3914031460370495
  0.9189381412505426  0.7878988660176702  0.1502032277453580
  0.5703034961068880  0.9545922651627023  0.1492696634890365
  0.7371581685493140  0.6053540799970492  0.1487451730269811
  0.9006778275502825  0.9003973321515701  0.9024387525285178
  0.5834529670165409  0.5812893499583680  0.8975292109193234
  0.7356913575370783  0.7439032231503688  0.8760801867733861
  0.8993702643530099  0.5224759083323889  0.6210578259970703
  0.5830564229676654  0.7033588171643430  0.6361535416350108
  0.9043124540571483  0.6562151582923192  0.3677966152150702
  0.7158859567792177  0.6911593723019962  0.4335030062161422
  0.5563080990167037  0.6462126952481668  0.1984186499722540
  0.7146040257817106  0.8173387212931829  0.2000562818615350
  0.8712174054940078  0.6149449231663269  0.9156549684698376
  0.5438692366065538  0.7742508173150000  0.9058127427816700
  0.7095288230477976  0.9391903318982742  0.9052703554270991
  0.8717305720606774  0.7412449838152284  0.6801828418652534
  0.5403888196732467  0.9060868629880829  0.6855606004100494
  0.7121838866527952  0.5691485341060130  0.6742130939572775
  0.8797702488164703  0.8548765102767319  0.4322454545633931
  0.5474651151780066  0.5259737055421354  0.4357521303745600
  0.8863875406401576  0.9769117589490577  0.1993543415545957
 
  0.00000000E+00  0.00000000E+00  0.00000000E+00
  0.00000000E+00  0.00000000E+00  0.00000000E+00
  0.00000000E+00  0.00000000E+00  0.00000000E+00
  0.00000000E+00  0.00000000E+00  0.00000000E+00
  0.00000000E+00  0.00000000E+00  0.00000000E+00
  0.00000000E+00  0.00000000E+00  0.00000000E+00
  0.00000000E+00  0.00000000E+00  0.00000000E+00
  0.00000000E+00  0.00000000E+00  0.00000000E+00
  0.00000000E+00  0.00000000E+00  0.00000000E+00
  0.00000000E+00  0.00000000E+00  0.00000000E+00
  0.00000000E+00  0.00000000E+00  0.00000000E+00
  0.00000000E+00  0.00000000E+00  0.00000000E+00
  0.00000000E+00  0.00000000E+00  0.00000000E+00
  0.00000000E+00  0.00000000E+00  0.00000000E+00
  0.00000000E+00  0.00000000E+00  0.00000000E+00
  0.00000000E+00  0.00000000E+00  0.00000000E+00
  0.00000000E+00  0.00000000E+00  0.00000000E+00
  0.00000000E+00  0.00000000E+00  0.00000000E+00
  0.00000000E+00  0.00000000E+00  0.00000000E+00
  0.00000000E+00  0.00000000E+00  0.00000000E+00
  0.00000000E+00  0.00000000E+00  0.00000000E+00
  0.00000000E+00  0.00000000E+00  0.00000000E+00
  0.00000000E+00  0.00000000E+00  0.00000000E+00
  0.00000000E+00  0.00000000E+00  0.00000000E+00
  0.00000000E+00  0.00000000E+00  0.00000000E+00
  0.00000000E+00  0.00000000E+00  0.00000000E+00
  0.00000000E+00  0.00000000E+00  0.00000000E+00
  0.00000000E+00  0.00000000E+00  0.00000000E+00
  0.00000000E+00  0.00000000E+00  0.00000000E+00
  0.00000000E+00  0.00000000E+00  0.00000000E+00
  0.00000000E+00  0.00000000E+00  0.00000000E+00
  0.00000000E+00  0.00000000E+00  0.00000000E+00
  0.00000000E+00  0.00000000E+00  0.00000000E+00
  0.00000000E+00  0.00000000E+00  0.00000000E+00
  0.00000000E+00  0.00000000E+00  0.00000000E+00
  0.00000000E+00  0.00000000E+00  0.00000000E+00
  0.00000000E+00  0.00000000E+00  0.00000000E+00
  0.00000000E+00  0.00000000E+00  0.00000000E+00
  0.00000000E+00  0.00000000E+00  0.00000000E+00
  0.00000000E+00  0.00000000E+00  0.00000000E+00
  0.00000000E+00  0.00000000E+00  0.00000000E+00
  0.00000000E+00  0.00000000E+00  0.00000000E+00
  0.00000000E+00  0.00000000E+00  0.00000000E+00
  0.00000000E+00  0.00000000E+00  0.00000000E+00
  0.00000000E+00  0.00000000E+00  0.00000000E+00
  0.00000000E+00  0.00000000E+00  0.00000000E+00
  0.00000000E+00  0.00000000E+00  0.00000000E+00
  0.00000000E+00  0.00000000E+00  0.00000000E+00
  0.00000000E+00  0.00000000E+00  0.00000000E+00
  0.00000000E+00  0.00000000E+00  0.00000000E+00
  0.00000000E+00  0.00000000E+00  0.00000000E+00
  0.00000000E+00  0.00000000E+00  0.00000000E+00
  0.00000000E+00  0.00000000E+00  0.00000000E+00
  0.00000000E+00  0.00000000E+00  0.00000000E+00
  0.00000000E+00  0.00000000E+00  0.00000000E+00
  0.00000000E+00  0.00000000E+00  0.00000000E+00
  0.00000000E+00  0.00000000E+00  0.00000000E+00
  0.00000000E+00  0.00000000E+00  0.00000000E+00
  0.00000000E+00  0.00000000E+00  0.00000000E+00
  0.00000000E+00  0.00000000E+00  0.00000000E+00
  0.00000000E+00  0.00000000E+00  0.00000000E+00
  0.00000000E+00  0.00000000E+00  0.00000000E+00
  0.00000000E+00  0.00000000E+00  0.00000000E+00
  0.00000000E+00  0.00000000E+00  0.00000000E+00
  0.00000000E+00  0.00000000E+00  0.00000000E+00
  0.00000000E+00  0.00000000E+00  0.00000000E+00
  0.00000000E+00  0.00000000E+00  0.00000000E+00
  0.00000000E+00  0.00000000E+00  0.00000000E+00
  0.00000000E+00  0.00000000E+00  0.00000000E+00
  0.00000000E+00  0.00000000E+00  0.00000000E+00
  0.00000000E+00  0.00000000E+00  0.00000000E+00
  0.00000000E+00  0.00000000E+00  0.00000000E+00
  0.00000000E+00  0.00000000E+00  0.00000000E+00
  0.00000000E+00  0.00000000E+00  0.00000000E+00
  0.00000000E+00  0.00000000E+00  0.00000000E+00
  0.00000000E+00  0.00000000E+00  0.00000000E+00
  0.00000000E+00  0.00000000E+00  0.00000000E+00
  0.00000000E+00  0.00000000E+00  0.00000000E+00
  0.00000000E+00  0.00000000E+00  0.00000000E+00
  0.00000000E+00  0.00000000E+00  0.00000000E+00
  0.00000000E+00  0.00000000E+00  0.00000000E+00
  0.00000000E+00  0.00000000E+00  0.00000000E+00
  0.00000000E+00  0.00000000E+00  0.00000000E+00
  0.00000000E+00  0.00000000E+00  0.00000000E+00
  0.00000000E+00  0.00000000E+00  0.00000000E+00
  0.00000000E+00  0.00000000E+00  0.00000000E+00
  0.00000000E+00  0.00000000E+00  0.00000000E+00
  0.00000000E+00  0.00000000E+00  0.00000000E+00
  0.00000000E+00  0.00000000E+00  0.00000000E+00
  0.00000000E+00  0.00000000E+00  0.00000000E+00
  0.00000000E+00  0.00000000E+00  0.00000000E+00
  0.00000000E+00  0.00000000E+00  0.00000000E+00
  0.00000000E+00  0.00000000E+00  0.00000000E+00
  0.00000000E+00  0.00000000E+00  0.00000000E+00
  0.00000000E+00  0.00000000E+00  0.00000000E+00
  0.00000000E+00  0.00000000E+00  0.00000000E+00
  0.00000000E+00  0.00000000E+00  0.00000000E+00
  0.00000000E+00  0.00000000E+00  0.00000000E+00
  0.00000000E+00  0.00000000E+00  0.00000000E+00
  0.00000000E+00  0.00000000E+00  0.00000000E+00
  0.00000000E+00  0.00000000E+00  0.00000000E+00
  0.00000000E+00  0.00000000E+00  0.00000000E+00
  0.00000000E+00  0.00000000E+00  0.00000000E+00
  0.00000000E+00  0.00000000E+00  0.00000000E+00
  0.00000000E+00  0.00000000E+00  0.00000000E+00
  0.00000000E+00  0.00000000E+00  0.00000000E+00
  0.00000000E+00  0.00000000E+00  0.00000000E+00
  0.00000000E+00  0.00000000E+00  0.00000000E+00
  0.00000000E+00  0.00000000E+00  0.00000000E+00
  0.00000000E+00  0.00000000E+00  0.00000000E+00
  0.00000000E+00  0.00000000E+00  0.00000000E+00
  0.00000000E+00  0.00000000E+00  0.00000000E+00
  0.00000000E+00  0.00000000E+00  0.00000000E+00
  0.00000000E+00  0.00000000E+00  0.00000000E+00
  0.00000000E+00  0.00000000E+00  0.00000000E+00
  0.00000000E+00  0.00000000E+00  0.00000000E+00
  0.00000000E+00  0.00000000E+00  0.00000000E+00
  0.00000000E+00  0.00000000E+00  0.00000000E+00
  0.00000000E+00  0.00000000E+00  0.00000000E+00
  0.00000000E+00  0.00000000E+00  0.00000000E+00
  0.00000000E+00  0.00000000E+00  0.00000000E+00
  0.00000000E+00  0.00000000E+00  0.00000000E+00
  0.00000000E+00  0.00000000E+00  0.00000000E+00
  0.00000000E+00  0.00000000E+00  0.00000000E+00
  0.00000000E+00  0.00000000E+00  0.00000000E+00
  0.00000000E+00  0.00000000E+00  0.00000000E+00
  0.00000000E+00  0.00000000E+00  0.00000000E+00
  0.00000000E+00  0.00000000E+00  0.00000000E+00
  0.00000000E+00  0.00000000E+00  0.00000000E+00
  0.00000000E+00  0.00000000E+00  0.00000000E+00
  0.00000000E+00  0.00000000E+00  0.00000000E+00
  0.00000000E+00  0.00000000E+00  0.00000000E+00
  0.00000000E+00  0.00000000E+00  0.00000000E+00
  0.00000000E+00  0.00000000E+00  0.00000000E+00
  0.00000000E+00  0.00000000E+00  0.00000000E+00
  0.00000000E+00  0.00000000E+00  0.00000000E+00
  0.00000000E+00  0.00000000E+00  0.00000000E+00
  0.00000000E+00  0.00000000E+00  0.00000000E+00
  0.00000000E+00  0.00000000E+00  0.00000000E+00
  0.00000000E+00  0.00000000E+00  0.00000000E+00
  0.00000000E+00  0.00000000E+00  0.00000000E+00
  0.00000000E+00  0.00000000E+00  0.00000000E+00
  0.00000000E+00  0.00000000E+00  0.00000000E+00
  0.00000000E+00  0.00000000E+00  0.00000000E+00
  0.00000000E+00  0.00000000E+00  0.00000000E+00
  0.00000000E+00  0.00000000E+00  0.00000000E+00
  0.00000000E+00  0.00000000E+00  0.00000000E+00
  0.00000000E+00  0.00000000E+00  0.00000000E+00
  0.00000000E+00  0.00000000E+00  0.00000000E+00
  0.00000000E+00  0.00000000E+00  0.00000000E+00
  0.00000000E+00  0.00000000E+00  0.00000000E+00
  0.00000000E+00  0.00000000E+00  0.00000000E+00
  0.00000000E+00  0.00000000E+00  0.00000000E+00
  0.00000000E+00  0.00000000E+00  0.00000000E+00
  0.00000000E+00  0.00000000E+00  0.00000000E+00
  0.00000000E+00  0.00000000E+00  0.00000000E+00
  0.00000000E+00  0.00000000E+00  0.00000000E+00
  0.00000000E+00  0.00000000E+00  0.00000000E+00
  0.00000000E+00  0.00000000E+00  0.00000000E+00
  0.00000000E+00  0.00000000E+00  0.00000000E+00
  0.00000000E+00  0.00000000E+00  0.00000000E+00
  0.00000000E+00  0.00000000E+00  0.00000000E+00
  0.00000000E+00  0.00000000E+00  0.00000000E+00
  0.00000000E+00  0.00000000E+00  0.00000000E+00
  0.00000000E+00  0.00000000E+00  0.00000000E+00
  0.00000000E+00  0.00000000E+00  0.00000000E+00
  0.00000000E+00  0.00000000E+00  0.00000000E+00
  0.00000000E+00  0.00000000E+00  0.00000000E+00
  0.00000000E+00  0.00000000E+00  0.00000000E+00
  0.00000000E+00  0.00000000E+00  0.00000000E+00
  0.00000000E+00  0.00000000E+00  0.00000000E+00
  0.00000000E+00  0.00000000E+00  0.00000000E+00
  0.00000000E+00  0.00000000E+00  0.00000000E+00
  0.00000000E+00  0.00000000E+00  0.00000000E+00
  0.00000000E+00  0.00000000E+00  0.00000000E+00
  0.00000000E+00  0.00000000E+00  0.00000000E+00
  0.00000000E+00  0.00000000E+00  0.00000000E+00
  0.00000000E+00  0.00000000E+00  0.00000000E+00
  0.00000000E+00  0.00000000E+00  0.00000000E+00
  0.00000000E+00  0.00000000E+00  0.00000000E+00
  0.00000000E+00  0.00000000E+00  0.00000000E+00
  0.00000000E+00  0.00000000E+00  0.00000000E+00
  0.00000000E+00  0.00000000E+00  0.00000000E+00
  0.00000000E+00  0.00000000E+00  0.00000000E+00
  0.00000000E+00  0.00000000E+00  0.00000000E+00
  0.00000000E+00  0.00000000E+00  0.00000000E+00
  0.00000000E+00  0.00000000E+00  0.00000000E+00
  0.00000000E+00  0.00000000E+00  0.00000000E+00
  0.00000000E+00  0.00000000E+00  0.00000000E+00
  0.00000000E+00  0.00000000E+00  0.00000000E+00
  0.00000000E+00  0.00000000E+00  0.00000000E+00
