supercell of POSCAR                     
   1.07329600000000     
     9.1016125577399993   -5.3128209557800004   -9.4184911254399992
     9.0821131104399999    5.2871675818400004    9.4140884809200003
    -1.5053809694200000   -7.9210976524300012    4.6939078171600004
   Al   Sc   N 
    72    24    95
Direct
  0.3044761717539188  0.2858685517657094  0.5372953071163593
  0.1423733794486139  0.2408430436163371  0.3003664505633168
  0.3079888328137983  0.4079928858412742  0.3009725695941938
  0.4678502212173470  0.3268390678339941  0.7893754754252100
  0.1404857143007021  0.5008014725172458  0.7922695110795175
  0.3034338721973242  0.1614548086946996  0.7792506339747547
  0.4708371612952078  0.4486608273649111  0.5360359990711032
  0.1638730171467415  0.0873987320041394  0.5026272175631021
  0.4777349431048918  0.0737957259831674  0.2950674644901738
  0.2831564541541027  0.1109432236787882  0.3269310152143632
  0.1146300133250904  0.0659866466484402  0.0972556416112269
  0.1229158223014224  0.1872879274387955  0.8562709391415453
  0.2759364686103396  0.3589239064821044  0.8197592695286744
  0.1178078742582969  0.3556787446311063  0.5738706875441437
  0.2759360948153926  0.4887827822802322  0.5783776732043648
  0.4493813292946527  0.2800923039949694  0.3350704373485556
  0.1110307624130158  0.4473758770943874  0.3298899765454308
  0.4478170616761830  0.4030812863144888  0.0948004515173650
  0.8032269238449459  0.2862419350108851  0.5374780833514237
  0.6424957343481736  0.2432788634398619  0.3041978790362165
  0.8063031862495933  0.4088619172518548  0.3012396430562916
  0.9663089466374046  0.3256927576028659  0.7838562387602366
  0.6397802305380651  0.4977810422236359  0.7886712167262360
  0.8011820248572192  0.1626088472965392  0.7799628102447826
  0.9662059517316948  0.4506299609478077  0.5323971975604778
  0.6422279488391780  0.1200584141919236  0.5402317488974759
  0.9749445677566158  0.0726741007765952  0.2927579736690049
  0.7763385271560423  0.1082987883747748  0.3352061721623301
  0.6150618752163695  0.0693267581917851  0.0948388262975328
  0.6153429676091591  0.1979297135689038  0.8234150901977060
  0.7756091232563520  0.3590747317227638  0.8203827004361912
  0.6121167486239329  0.3244714114474689  0.5879611087164918
  0.7714732147092676  0.4856565424417667  0.5791243962386332
  0.9451231388139476  0.2787798870246760  0.3333047408737926
  0.6110311661017960  0.4458619453465715  0.3373637254079469
  0.9456382380829353  0.4022640792035475  0.0926585467475789
  0.3024475635217954  0.7849929160941755  0.5402926979110632
  0.1408211902708913  0.7406082515607437  0.3051721374569354
  0.3077103840092761  0.9084618074092035  0.3043308532245135
  0.4666142194585561  0.8269944625795631  0.7921811699645573
  0.1391690544834248  0.9921507767801359  0.7859062641354129
  0.2998336604604575  0.6632321692139911  0.7849116525757793
  0.4709900014184143  0.9485807866345937  0.5370170969579959
  0.1405003277916919  0.6188656097834837  0.5401860931809708
  0.4753625760513387  0.5741134599574167  0.2961491721915834
  0.2768168906970985  0.6086440068022014  0.3348742497938915
  0.1130977209385264  0.5689746251619283  0.0925271159225716
  0.1122905297564145  0.6966273471503399  0.8239855687572941
  0.2759702160251578  0.8565842346255224  0.8219755660846957
  0.1096766470101542  0.8216926028022584  0.5880129428539007
  0.2767419242008131  0.9807570239907832  0.5856641231974891
  0.4462602072746833  0.7790818612461621  0.3368441324533009
  0.1078953513068299  0.9358240276677705  0.3293105386078636
  0.4463996171351923  0.9028451388119976  0.0975086083285532
  0.8015701330785632  0.7870097731712846  0.5403449773875053
  0.6408792840125415  0.7432091103308522  0.3055251712239482
  0.8067586120396868  0.9082463687811568  0.3029128676911839
  0.9649925028982764  0.8255396944983673  0.7908004125233461
  0.6406037871957935  0.9982919853001633  0.7890284255982962
  0.7983074279853852  0.6633653860969346  0.7834555217379204
  0.9690717307882011  0.9468284733370211  0.5353183223363374
  0.6408438850535845  0.6201828297316965  0.5412799462337716
  0.9741092849427062  0.5737147492222974  0.2945323969442057
  0.7754089214282232  0.6092318769016671  0.3359660722090823
  0.6128767834368247  0.5702184353464403  0.0948227367006638
  0.6126639157134832  0.6972609645981294  0.8254346167753681
  0.7737960464343772  0.8582132170080783  0.8212353334762810
  0.6108122548088062  0.8247075064091050  0.5894003399866463
  0.7717995147045826  0.9860300844665062  0.5784323384615959
  0.9444807226235383  0.7772887942612883  0.3353544371746224
  0.6109342933490964  0.9449357671021943  0.3380628567950694
  0.9456637687333043  0.9011687538206914  0.0940831590082993
  0.4837646559819788  0.1972471422984583  0.0376797707152505
  0.1382936113604813  0.3639045676673405  0.0319841297526082
  0.3104182119015348  0.0236493320079063  0.0348286943235792
  0.2882607088111939  0.2319319649106149  0.0812047394326498
  0.4500160286657433  0.0218121734416385  0.8241208696493132
  0.4472484896938269  0.1527873913149662  0.5734086887560039
  0.9792699682018480  0.1963849691275357  0.0357930962316857
  0.6403692662509570  0.3673100262285587  0.0371867517311983
  0.8088248331189831  0.0245526739243900  0.0384286621842733
  0.7823610599733755  0.2309966079633199  0.0800475701516064
  0.9451053700603254  0.0200160509803240  0.8219207622336739
  0.9495784786276644  0.1513673191280205  0.5711443077156702
  0.4795411573053840  0.6979903503033853  0.0405628519130516
  0.1403615134286795  0.8637430567519928  0.0346482188566739
  0.3083154330480937  0.5247830529324773  0.0393908924075888
  0.2823069758671863  0.7315289334335304  0.0851993009109151
  0.4473914923695403  0.5224291937406775  0.8248019711346686
  0.4453505262184763  0.6537112991300660  0.5757408055845019
  0.9795008190098713  0.6974499104399854  0.0398363271155020
  0.6391642553305203  0.8662547721797580  0.0380892952329788
  0.8071217399868331  0.5273385559647252  0.0408232233620964
  0.7815947040332603  0.7320102386468150  0.0828945228811264
  0.9446965775176537  0.5231987694014677  0.8243432560389365
  0.9428397381257554  0.6536790713084741  0.5752307943408894
  0.2394679065739140  0.3669195401706702  0.6295897095016514
  0.0748262776036484  0.3226273683324834  0.3928152375227967
  0.2385498289581207  0.4879855057932687  0.3889238160550477
  0.4226815446331784  0.2880081816919642  0.1495431107441831
  0.0713825147329317  0.4506994987922752  0.1412318514992847
  0.2383140217788409  0.1055122843924678  0.1450552094283211
  0.4006223338395216  0.3983943988214591  0.9011478033093496
  0.0848645768588625  0.0740379088534908  0.9009415898420698
  0.2386947875007834  0.2415722638922517  0.8699279088236551
  0.3994900407108304  0.0229886014849328  0.6218939044830805
  0.4073158119758418  0.1576586933300206  0.3668578372300857
  0.2173964112113822  0.1900969224942770  0.4306559956832317
  0.0556068319548331  0.1452883256631807  0.1953572653513049
  0.2156236576612045  0.3151951962510111  0.1940347650577223
  0.3731668747953449  0.1147333410780007  0.9150858003252438
  0.0459294459632318  0.2648218792051367  0.8840826020505261
  0.2090138128423860  0.4372976196758245  0.9031060569710831
  0.3735891867036045  0.2405220469754781  0.6776657172730864
  0.0418005579908183  0.4072617973939785  0.6793234732102391
  0.2109843358265664  0.0667314390947098  0.6761437194615070
  0.3810193498896979  0.3549705851119356  0.4311153101823777
  0.0462338112003522  0.0263459052553969  0.4365243895967126
  0.3866763505504665  0.4773866872673054  0.1983571520155891
  0.7402744647870350  0.3668638943858582  0.6313317783185184
  0.5761780513167665  0.3257709439236294  0.3964708148326537
  0.7392452168835391  0.4895855906690088  0.3896496790917396
  0.9213314299787783  0.2867706778540580  0.1473971242159635
  0.5717830681640166  0.4535125110839573  0.1465254867126475
  0.7389925220416487  0.1055523665448703  0.1494085231565663
  0.9046132269360783  0.3964793619239302  0.8979836088993451
  0.5865874768091999  0.0834628146240490  0.9002395814587842
  0.7391403498144271  0.2434613890364901  0.8724022855005558
  0.8998238702950587  0.0253562480009606  0.6175294204487045
  0.5851681327070537  0.2039703545715312  0.6358740703209591
  0.9063744768882458  0.1562427217994227  0.3706407656580097
  0.7172304442989059  0.1908172272165700  0.4329821358395876
  0.5572865467463188  0.1467786592042017  0.1985866386193038
  0.7164911952404438  0.3161566078964597  0.1975822486031547
  0.8725416757254365  0.1133666522605523  0.9142302655561423
  0.5460021803726605  0.2749116603904014  0.9034402076722969
  0.7117202774179106  0.4395220423105073  0.9042376045073581
  0.8767365113404821  0.2374660995665394  0.6728010351361888
  0.5417540110960672  0.4059670119081105  0.6831720031378694
  0.7121177528962761  0.0683083740760537  0.6748871806648253
  0.8808835467068050  0.3550991416762628  0.4301319618057633
  0.5474172530908206  0.0270588975989625  0.4383744949482846
  0.8866311296018452  0.4768095170788271  0.1967181982454136
  0.2374062842333586  0.8649640400877203  0.6327404940117205
  0.0731914695255327  0.8223923112878282  0.3967823718061823
  0.2329900940544292  0.9966899722835265  0.3990192696574653
  0.4184655475869121  0.7884562462316325  0.1520277010702600
  0.0712873429975929  0.9500742831407081  0.1453342136589271
  0.2363825459867144  0.6048636525723410  0.1493472636775834
  0.4008964209369950  0.9006249242517868  0.9045533545100710
  0.0837267857710486  0.5813572098397302  0.8983609197775664
  0.2353836432354370  0.7428020073877732  0.8779708220291980
  0.3998132527809943  0.5227072933458956  0.6214093332152260
  0.0828022132367252  0.7018534410827328  0.6360820511050775
  0.4039501635138905  0.6567460157232929  0.3690722234313029
  0.2159208900500573  0.6896219411798796  0.4341935854628289
  0.0554210001884456  0.6454070514099328  0.1977914681842563
  0.2145743765300097  0.8187524297822364  0.2039937440471178
  0.3708800521845816  0.6137378442858648  0.9169750301318658
  0.0432210364010857  0.7733594779540880  0.9040585383068134
  0.2105289709464557  0.9374314763679124  0.9034756680453455
  0.3723477803644641  0.7410849844507013  0.6821706609863654
  0.0399636743639249  0.9047796832526060  0.6824438434021687
  0.2112413186687832  0.5671920413332927  0.6748486434932204
  0.3794642685263909  0.8561854016741890  0.4349284240117797
  0.0472705867489651  0.5247866428363253  0.4345816192513681
  0.3850832183769839  0.9786601840386666  0.2019235154447472
  0.7388007831566981  0.8685657232866930  0.6325010364506127
  0.5738887347013488  0.8257473027174598  0.3980325164323659
  0.7393669429435832  0.9896671685300191  0.3898628395855894
  0.9192098820961832  0.7874465362011307  0.1507170318898403
  0.5707609768515738  0.9534526922587716  0.1479581114928479
  0.7362395366642787  0.6065448008792842  0.1506094588876223
  0.9006866474086834  0.8992592888573938  0.9020807055804028
  0.5847738801635600  0.5818381863713711  0.8995300324322599
  0.7356902334223534  0.7438684497482555  0.8762050024387236
  0.8980060624743160  0.5228438091323895  0.6210800109557866
  0.5838283654747443  0.7043624389138827  0.6374962196814025
  0.9038765279567613  0.6555269217867021  0.3679871993508499
  0.7158050632384274  0.6913485203083738  0.4346640742101187
  0.5549781221782055  0.6474121187797834  0.1992224568058987
  0.7151562697247584  0.8170542650571804  0.2003112784351728
  0.8707745855404454  0.6146360287584329  0.9164623617775973
  0.5435154854124349  0.7741511797012492  0.9061015088898117
  0.7098338556930628  0.9391922416488114  0.9053606986647793
  0.8715905652348610  0.7409655256698500  0.6806199952466940
  0.5408630762468150  0.9070865960608572  0.6858340613120433
  0.7109375325569047  0.5680512654501086  0.6751908734943939
  0.8802545096126337  0.8548883759772821  0.4329586216207062
  0.5470631869956861  0.5269847979859250  0.4373276036565201
  0.8870537996095322  0.9769851568914092  0.1989050036421673
 
  0.00000000E+00  0.00000000E+00  0.00000000E+00
  0.00000000E+00  0.00000000E+00  0.00000000E+00
  0.00000000E+00  0.00000000E+00  0.00000000E+00
  0.00000000E+00  0.00000000E+00  0.00000000E+00
  0.00000000E+00  0.00000000E+00  0.00000000E+00
  0.00000000E+00  0.00000000E+00  0.00000000E+00
  0.00000000E+00  0.00000000E+00  0.00000000E+00
  0.00000000E+00  0.00000000E+00  0.00000000E+00
  0.00000000E+00  0.00000000E+00  0.00000000E+00
  0.00000000E+00  0.00000000E+00  0.00000000E+00
  0.00000000E+00  0.00000000E+00  0.00000000E+00
  0.00000000E+00  0.00000000E+00  0.00000000E+00
  0.00000000E+00  0.00000000E+00  0.00000000E+00
  0.00000000E+00  0.00000000E+00  0.00000000E+00
  0.00000000E+00  0.00000000E+00  0.00000000E+00
  0.00000000E+00  0.00000000E+00  0.00000000E+00
  0.00000000E+00  0.00000000E+00  0.00000000E+00
  0.00000000E+00  0.00000000E+00  0.00000000E+00
  0.00000000E+00  0.00000000E+00  0.00000000E+00
  0.00000000E+00  0.00000000E+00  0.00000000E+00
  0.00000000E+00  0.00000000E+00  0.00000000E+00
  0.00000000E+00  0.00000000E+00  0.00000000E+00
  0.00000000E+00  0.00000000E+00  0.00000000E+00
  0.00000000E+00  0.00000000E+00  0.00000000E+00
  0.00000000E+00  0.00000000E+00  0.00000000E+00
  0.00000000E+00  0.00000000E+00  0.00000000E+00
  0.00000000E+00  0.00000000E+00  0.00000000E+00
  0.00000000E+00  0.00000000E+00  0.00000000E+00
  0.00000000E+00  0.00000000E+00  0.00000000E+00
  0.00000000E+00  0.00000000E+00  0.00000000E+00
  0.00000000E+00  0.00000000E+00  0.00000000E+00
  0.00000000E+00  0.00000000E+00  0.00000000E+00
  0.00000000E+00  0.00000000E+00  0.00000000E+00
  0.00000000E+00  0.00000000E+00  0.00000000E+00
  0.00000000E+00  0.00000000E+00  0.00000000E+00
  0.00000000E+00  0.00000000E+00  0.00000000E+00
  0.00000000E+00  0.00000000E+00  0.00000000E+00
  0.00000000E+00  0.00000000E+00  0.00000000E+00
  0.00000000E+00  0.00000000E+00  0.00000000E+00
  0.00000000E+00  0.00000000E+00  0.00000000E+00
  0.00000000E+00  0.00000000E+00  0.00000000E+00
  0.00000000E+00  0.00000000E+00  0.00000000E+00
  0.00000000E+00  0.00000000E+00  0.00000000E+00
  0.00000000E+00  0.00000000E+00  0.00000000E+00
  0.00000000E+00  0.00000000E+00  0.00000000E+00
  0.00000000E+00  0.00000000E+00  0.00000000E+00
  0.00000000E+00  0.00000000E+00  0.00000000E+00
  0.00000000E+00  0.00000000E+00  0.00000000E+00
  0.00000000E+00  0.00000000E+00  0.00000000E+00
  0.00000000E+00  0.00000000E+00  0.00000000E+00
  0.00000000E+00  0.00000000E+00  0.00000000E+00
  0.00000000E+00  0.00000000E+00  0.00000000E+00
  0.00000000E+00  0.00000000E+00  0.00000000E+00
  0.00000000E+00  0.00000000E+00  0.00000000E+00
  0.00000000E+00  0.00000000E+00  0.00000000E+00
  0.00000000E+00  0.00000000E+00  0.00000000E+00
  0.00000000E+00  0.00000000E+00  0.00000000E+00
  0.00000000E+00  0.00000000E+00  0.00000000E+00
  0.00000000E+00  0.00000000E+00  0.00000000E+00
  0.00000000E+00  0.00000000E+00  0.00000000E+00
  0.00000000E+00  0.00000000E+00  0.00000000E+00
  0.00000000E+00  0.00000000E+00  0.00000000E+00
  0.00000000E+00  0.00000000E+00  0.00000000E+00
  0.00000000E+00  0.00000000E+00  0.00000000E+00
  0.00000000E+00  0.00000000E+00  0.00000000E+00
  0.00000000E+00  0.00000000E+00  0.00000000E+00
  0.00000000E+00  0.00000000E+00  0.00000000E+00
  0.00000000E+00  0.00000000E+00  0.00000000E+00
  0.00000000E+00  0.00000000E+00  0.00000000E+00
  0.00000000E+00  0.00000000E+00  0.00000000E+00
  0.00000000E+00  0.00000000E+00  0.00000000E+00
  0.00000000E+00  0.00000000E+00  0.00000000E+00
  0.00000000E+00  0.00000000E+00  0.00000000E+00
  0.00000000E+00  0.00000000E+00  0.00000000E+00
  0.00000000E+00  0.00000000E+00  0.00000000E+00
  0.00000000E+00  0.00000000E+00  0.00000000E+00
  0.00000000E+00  0.00000000E+00  0.00000000E+00
  0.00000000E+00  0.00000000E+00  0.00000000E+00
  0.00000000E+00  0.00000000E+00  0.00000000E+00
  0.00000000E+00  0.00000000E+00  0.00000000E+00
  0.00000000E+00  0.00000000E+00  0.00000000E+00
  0.00000000E+00  0.00000000E+00  0.00000000E+00
  0.00000000E+00  0.00000000E+00  0.00000000E+00
  0.00000000E+00  0.00000000E+00  0.00000000E+00
  0.00000000E+00  0.00000000E+00  0.00000000E+00
  0.00000000E+00  0.00000000E+00  0.00000000E+00
  0.00000000E+00  0.00000000E+00  0.00000000E+00
  0.00000000E+00  0.00000000E+00  0.00000000E+00
  0.00000000E+00  0.00000000E+00  0.00000000E+00
  0.00000000E+00  0.00000000E+00  0.00000000E+00
  0.00000000E+00  0.00000000E+00  0.00000000E+00
  0.00000000E+00  0.00000000E+00  0.00000000E+00
  0.00000000E+00  0.00000000E+00  0.00000000E+00
  0.00000000E+00  0.00000000E+00  0.00000000E+00
  0.00000000E+00  0.00000000E+00  0.00000000E+00
  0.00000000E+00  0.00000000E+00  0.00000000E+00
  0.00000000E+00  0.00000000E+00  0.00000000E+00
  0.00000000E+00  0.00000000E+00  0.00000000E+00
  0.00000000E+00  0.00000000E+00  0.00000000E+00
  0.00000000E+00  0.00000000E+00  0.00000000E+00
  0.00000000E+00  0.00000000E+00  0.00000000E+00
  0.00000000E+00  0.00000000E+00  0.00000000E+00
  0.00000000E+00  0.00000000E+00  0.00000000E+00
  0.00000000E+00  0.00000000E+00  0.00000000E+00
  0.00000000E+00  0.00000000E+00  0.00000000E+00
  0.00000000E+00  0.00000000E+00  0.00000000E+00
  0.00000000E+00  0.00000000E+00  0.00000000E+00
  0.00000000E+00  0.00000000E+00  0.00000000E+00
  0.00000000E+00  0.00000000E+00  0.00000000E+00
  0.00000000E+00  0.00000000E+00  0.00000000E+00
  0.00000000E+00  0.00000000E+00  0.00000000E+00
  0.00000000E+00  0.00000000E+00  0.00000000E+00
  0.00000000E+00  0.00000000E+00  0.00000000E+00
  0.00000000E+00  0.00000000E+00  0.00000000E+00
  0.00000000E+00  0.00000000E+00  0.00000000E+00
  0.00000000E+00  0.00000000E+00  0.00000000E+00
  0.00000000E+00  0.00000000E+00  0.00000000E+00
  0.00000000E+00  0.00000000E+00  0.00000000E+00
  0.00000000E+00  0.00000000E+00  0.00000000E+00
  0.00000000E+00  0.00000000E+00  0.00000000E+00
  0.00000000E+00  0.00000000E+00  0.00000000E+00
  0.00000000E+00  0.00000000E+00  0.00000000E+00
  0.00000000E+00  0.00000000E+00  0.00000000E+00
  0.00000000E+00  0.00000000E+00  0.00000000E+00
  0.00000000E+00  0.00000000E+00  0.00000000E+00
  0.00000000E+00  0.00000000E+00  0.00000000E+00
  0.00000000E+00  0.00000000E+00  0.00000000E+00
  0.00000000E+00  0.00000000E+00  0.00000000E+00
  0.00000000E+00  0.00000000E+00  0.00000000E+00
  0.00000000E+00  0.00000000E+00  0.00000000E+00
  0.00000000E+00  0.00000000E+00  0.00000000E+00
  0.00000000E+00  0.00000000E+00  0.00000000E+00
  0.00000000E+00  0.00000000E+00  0.00000000E+00
  0.00000000E+00  0.00000000E+00  0.00000000E+00
  0.00000000E+00  0.00000000E+00  0.00000000E+00
  0.00000000E+00  0.00000000E+00  0.00000000E+00
  0.00000000E+00  0.00000000E+00  0.00000000E+00
  0.00000000E+00  0.00000000E+00  0.00000000E+00
  0.00000000E+00  0.00000000E+00  0.00000000E+00
  0.00000000E+00  0.00000000E+00  0.00000000E+00
  0.00000000E+00  0.00000000E+00  0.00000000E+00
  0.00000000E+00  0.00000000E+00  0.00000000E+00
  0.00000000E+00  0.00000000E+00  0.00000000E+00
  0.00000000E+00  0.00000000E+00  0.00000000E+00
  0.00000000E+00  0.00000000E+00  0.00000000E+00
  0.00000000E+00  0.00000000E+00  0.00000000E+00
  0.00000000E+00  0.00000000E+00  0.00000000E+00
  0.00000000E+00  0.00000000E+00  0.00000000E+00
  0.00000000E+00  0.00000000E+00  0.00000000E+00
  0.00000000E+00  0.00000000E+00  0.00000000E+00
  0.00000000E+00  0.00000000E+00  0.00000000E+00
  0.00000000E+00  0.00000000E+00  0.00000000E+00
  0.00000000E+00  0.00000000E+00  0.00000000E+00
  0.00000000E+00  0.00000000E+00  0.00000000E+00
  0.00000000E+00  0.00000000E+00  0.00000000E+00
  0.00000000E+00  0.00000000E+00  0.00000000E+00
  0.00000000E+00  0.00000000E+00  0.00000000E+00
  0.00000000E+00  0.00000000E+00  0.00000000E+00
  0.00000000E+00  0.00000000E+00  0.00000000E+00
  0.00000000E+00  0.00000000E+00  0.00000000E+00
  0.00000000E+00  0.00000000E+00  0.00000000E+00
  0.00000000E+00  0.00000000E+00  0.00000000E+00
  0.00000000E+00  0.00000000E+00  0.00000000E+00
  0.00000000E+00  0.00000000E+00  0.00000000E+00
  0.00000000E+00  0.00000000E+00  0.00000000E+00
  0.00000000E+00  0.00000000E+00  0.00000000E+00
  0.00000000E+00  0.00000000E+00  0.00000000E+00
  0.00000000E+00  0.00000000E+00  0.00000000E+00
  0.00000000E+00  0.00000000E+00  0.00000000E+00
  0.00000000E+00  0.00000000E+00  0.00000000E+00
  0.00000000E+00  0.00000000E+00  0.00000000E+00
  0.00000000E+00  0.00000000E+00  0.00000000E+00
  0.00000000E+00  0.00000000E+00  0.00000000E+00
  0.00000000E+00  0.00000000E+00  0.00000000E+00
  0.00000000E+00  0.00000000E+00  0.00000000E+00
  0.00000000E+00  0.00000000E+00  0.00000000E+00
  0.00000000E+00  0.00000000E+00  0.00000000E+00
  0.00000000E+00  0.00000000E+00  0.00000000E+00
  0.00000000E+00  0.00000000E+00  0.00000000E+00
  0.00000000E+00  0.00000000E+00  0.00000000E+00
  0.00000000E+00  0.00000000E+00  0.00000000E+00
  0.00000000E+00  0.00000000E+00  0.00000000E+00
  0.00000000E+00  0.00000000E+00  0.00000000E+00
  0.00000000E+00  0.00000000E+00  0.00000000E+00
  0.00000000E+00  0.00000000E+00  0.00000000E+00
  0.00000000E+00  0.00000000E+00  0.00000000E+00
  0.00000000E+00  0.00000000E+00  0.00000000E+00
  0.00000000E+00  0.00000000E+00  0.00000000E+00
  0.00000000E+00  0.00000000E+00  0.00000000E+00
  0.00000000E+00  0.00000000E+00  0.00000000E+00
  0.00000000E+00  0.00000000E+00  0.00000000E+00
