supercell of POSCAR                     
   1.07329600000000     
     9.1016125577399993   -5.3128209557800004   -9.4184911254399992
     9.0821131104399999    5.2871675818400004    9.4140884809200003
    -1.5053809694200000   -7.9210976524300012    4.6939078171600004
   Al   Sc   N 
    72    23    96
Direct
  0.3031743335860497  0.2869695553542471  0.5380210631834643
  0.1490289510725091  0.2349521804835319  0.2925554978960889
  0.3085595097219027  0.4057999331738813  0.2982815209763245
  0.4662111139025242  0.3259406115015793  0.7916130359387026
  0.1403493004284329  0.4980935876888708  0.7864908495896969
  0.2973874126401910  0.1669336962225287  0.7813304472694682
  0.4704161161476961  0.4479691664520260  0.5353197164607906
  0.1407815203227329  0.1198565389516020  0.5388607669486518
  0.4718743631919367  0.0717752580420949  0.2951995991568666
  0.2776843272846534  0.1070121743712633  0.3337478072625260
  0.1134427357833090  0.0698073184687473  0.0945718907335689
  0.1110183705380123  0.1972802409679062  0.8210681631831704
  0.2747990131374394  0.3596024420604493  0.8186951354200787
  0.1116573997163428  0.3225605964472109  0.5822743181978041
  0.2731424040503541  0.4854153421767435  0.5768593063725760
  0.4466834980717707  0.2773716812363389  0.3368160424056654
  0.1129282290839058  0.4418817237886117  0.3334905992141586
  0.4473114513629426  0.4005910130906756  0.0953669014736676
  0.8028406309704579  0.2859292373612021  0.5385040848690110
  0.6409523368369747  0.2412932687627034  0.3053987594522738
  0.8088041178590544  0.4069242610637005  0.3015700793747413
  0.9666754873008472  0.3270001968267522  0.7884656742343878
  0.6408933969760113  0.4967334644777921  0.7875582350758350
  0.7981240442164932  0.1619140251514111  0.7827682982110034
  0.9710396160197590  0.4476565885571873  0.5340628494652577
  0.6396781869271067  0.1189076565942386  0.5415949733854788
  0.9739480616063148  0.0726308780113172  0.2939484065696192
  0.7749958946446469  0.1072252757262291  0.3339302041460428
  0.6109755611144649  0.0673634349073140  0.0945617461486847
  0.6104240069803453  0.1951396028774752  0.8256595596937686
  0.7753347805216748  0.3572370852352691  0.8202453470817304
  0.6106553932440519  0.3232873545291994  0.5885209983370672
  0.7734439564826445  0.4846746272020255  0.5781507439435032
  0.9489441246919625  0.2767864163725946  0.3325039885975372
  0.6116160877095353  0.4436103462477519  0.3362596135874014
  0.9487678470450618  0.4010385348512244  0.0930821068189047
  0.3034589248524426  0.7861082330169324  0.5396548050472489
  0.1432141909936675  0.7429847186399954  0.3039172640901739
  0.3093945616800298  0.9103451019736539  0.3017211288563146
  0.4677629792294198  0.8266880442066196  0.7892975084868965
  0.1436667182411711  0.0000427131423848  0.7919987867339486
  0.3012553807209031  0.6635384531892612  0.7821126379207826
  0.4685672363971420  0.9481432162042722  0.5427435875272124
  0.1422178997771582  0.6193751519832986  0.5394277855885363
  0.4766228280148326  0.5733677478647081  0.2940363313706058
  0.2776801552890689  0.6077857392525203  0.3334146045742870
  0.1152304542567180  0.5675147127484195  0.0925231430734357
  0.1153884121216535  0.7002235244014372  0.8253401895040184
  0.2764902167527978  0.8609865575162914  0.8239109396862290
  0.1118589115384410  0.8251146728504679  0.5892943122792147
  0.2716590931837004  0.9846939533294190  0.5811891175371642
  0.4465236098632204  0.7796119982751222  0.3350569853389018
  0.1120236407473385  0.9451772778683889  0.3361100715288501
  0.4412983084340141  0.9051066983019282  0.0953622347243837
  0.8040916579456692  0.7863607803052517  0.5394350732441282
  0.6423178694936524  0.7421443889304697  0.3029833693960029
  0.8065883578728261  0.9074969108579438  0.3020919948721499
  0.9693882286526971  0.8278059255027301  0.7914230845397370
  0.6329370907624821  0.9960355380682273  0.7889426053095505
  0.8019280787298868  0.6632970973053105  0.7819987517233429
  0.9696391287933892  0.9484690684178503  0.5352328797706036
  0.6426918938147281  0.6186408122227647  0.5392611899508850
  0.9771693186410388  0.5728569248505480  0.2940993256238116
  0.7780529755866326  0.6078405695408051  0.3333806387945586
  0.6150932065536949  0.5683625246093911  0.0926156119537467
  0.6147503186468128  0.6960172756826495  0.8230342496122702
  0.7743754912690406  0.8586877327357314  0.8203640909668408
  0.6112577825973773  0.8227573505967385  0.5862769677372057
  0.7704643053526894  0.9848840961685568  0.5796656259342470
  0.9477191190090366  0.7785114051727220  0.3345845338462752
  0.6077886541389503  0.9448156341375693  0.3377042618951265
  0.9484169472039454  0.9018504900627065  0.0946520756245945
  0.4809080704501127  0.1968532299420360  0.0419254129826356
  0.1446587816195759  0.3617597872085838  0.0334364011709027
  0.2881663470567375  0.2154681459014185  0.0693945589340998
  0.4254803004533514  0.0262595470933960  0.8452838263643372
  0.4436808483217263  0.1503116031909641  0.5795015356880029
  0.9798113094706054  0.1964970184702466  0.0358376466884494
  0.6414819671123055  0.3652971681756867  0.0370527862306531
  0.8081416903874441  0.0235001818036977  0.0369845034905794
  0.7823811316012481  0.2293421264066211  0.0823907182020278
  0.9472859948017458  0.0211692218475719  0.8214346933093637
  0.9429260785715670  0.1521687525130559  0.5728931765396368
  0.4807050493805889  0.6980754187070701  0.0383884664745224
  0.1526774776710482  0.8772549195640380  0.0369734309604937
  0.3105703187766125  0.5249407983882861  0.0375331335738451
  0.2833369015418725  0.7319576002356314  0.0825496942831023
  0.4483492095879100  0.5218281469208534  0.8224166385769038
  0.4459150524363267  0.6524571676909758  0.5729666687235166
  0.9857865171862770  0.7002503321622555  0.0385597997603853
  0.6383379656136299  0.8653714461553292  0.0375525962022252
  0.8117003120693411  0.5250877029142416  0.0370222543958221
  0.7846444433694302  0.7306491231210046  0.0802057607131275
  0.9483891038625885  0.5227249429967031  0.8220845386869939
  0.9461143536480137  0.6526175460592043  0.5732460530945289
  0.2386010233955531  0.3680704031363504  0.6296686790693116
  0.0763513453668665  0.3229709706644428  0.3914801880402408
  0.2406545454936690  0.4883895751394292  0.3874822346606166
  0.4225597848616260  0.2880726397753151  0.1537002892691817
  0.0735920115145703  0.4502672940185590  0.1426955541242521
  0.2277035753062577  0.1157443489154701  0.1643034770127159
  0.4015657789005829  0.3999436160738981  0.9020016789014207
  0.0830536927776606  0.0832714078900025  0.8976882102873134
  0.2318150555060257  0.2466782732464665  0.8706566689959132
  0.3976629424251428  0.0207078505768550  0.6321671448869992
  0.0811318294498449  0.2032701682214011  0.6330246062940788
  0.4056318698613168  0.1567280486149727  0.3739624726935702
  0.2174030138011886  0.1908547895430814  0.4376755095283400
  0.0501633177975265  0.1458136986847691  0.1958947065065431
  0.2199651938970817  0.3155468807653605  0.1938206953420121
  0.3670014865113842  0.1314653231535559  0.9229811956962166
  0.0427042629129630  0.2744998175654132  0.9026641775320456
  0.2110579642233290  0.4410587820026919  0.9027260091174085
  0.3731466092027915  0.2429851870672337  0.6783986303641427
  0.0415933145274821  0.4059673014002456  0.6817786347042656
  0.2105752547068818  0.0697770499818375  0.6732427651407278
  0.3817865145398116  0.3554937692809403  0.4322072712024365
  0.0461874444232677  0.0262041483379036  0.4356681395280617
  0.3886502055908494  0.4775638725663356  0.1978197800258741
  0.7389364826795770  0.3667295345198127  0.6311899545094377
  0.5758957020371938  0.3248784733967085  0.3975499702069456
  0.7404420032006058  0.4884766561084462  0.3886015339476003
  0.9188482650882719  0.2868407811084168  0.1478480737205530
  0.5730161261368849  0.4522204867981330  0.1457131690391407
  0.7359289617831166  0.1032504158438456  0.1474418055210265
  0.9014981172591661  0.4000548986315309  0.9006648456808080
  0.5762885901315897  0.0798384740261184  0.8992649194781634
  0.7349766228491390  0.2424192922153452  0.8759602370602408
  0.8967896600992020  0.0218257705389107  0.6190648614698020
  0.5834938951887807  0.2036315503358566  0.6376245657969122
  0.9026919426170181  0.1553197305137317  0.3667190965594855
  0.7162413573189852  0.1897129285029422  0.4348309688969394
  0.5566190776612245  0.1451424586946430  0.2028103551630807
  0.7165227178386147  0.3149803231317989  0.2002610664065614
  0.8703412432365241  0.1129263023114078  0.9140631961584660
  0.5454359877880606  0.2757178081206959  0.9059451715307318
  0.7119542389327691  0.4390413750971192  0.9041066167923404
  0.8717248868217311  0.2405075803883321  0.6803879645759707
  0.5420036695877428  0.4061378485873490  0.6836776033333507
  0.7090909429571894  0.0669540668734072  0.6770290943708375
  0.8819928876691279  0.3536348843010941  0.4315173969756430
  0.5463545175487354  0.0261320684141353  0.4419535575297004
  0.8882970235625010  0.4761634277600493  0.1976578303741832
  0.2389264893342258  0.8652998449120233  0.6299384892374604
  0.0750139619679473  0.8244008872771289  0.3962148625628075
  0.2393359931369048  0.9885141496784726  0.3925312861037114
  0.4202906825894104  0.7869149380602636  0.1494741602972880
  0.0715171003933506  0.9527869799746753  0.1461470342496511
  0.2385769911042317  0.6046186737696218  0.1476698438101280
  0.4040296673747505  0.8932143329829216  0.8997693805920761
  0.0854876823467023  0.5830167897930778  0.8977897999093756
  0.2384998048359250  0.7431592774905127  0.8748363920808231
  0.3994427878581561  0.5221229712351914  0.6198176960269919
  0.0844866486569771  0.7032940435551254  0.6361800105147637
  0.4058411968840971  0.6558379322479269  0.3663872904887242
  0.2172049259968887  0.6894776975238557  0.4326612093740749
  0.0574474512031244  0.6452403309271872  0.1976242322178550
  0.2174362999375461  0.8156922430357483  0.2009317083584037
  0.3733688707909764  0.6135462392742568  0.9139663577842256
  0.0492278147269900  0.7791788919835341  0.9076826458965712
  0.2140547418130510  0.9415725233915992  0.8972481518455595
  0.3743627997462298  0.7385713593651388  0.6776528700045361
  0.0404873148728413  0.9072080709520733  0.6824559091230569
  0.2123187059911800  0.5680236887883083  0.6735442740960877
  0.3816117041287086  0.8542904659752750  0.4352018598570666
  0.0485163528151560  0.5253629786733143  0.4352929970199639
  0.3885288188315030  0.9763616119443910  0.2065218998261358
  0.7392715959938059  0.8659340707977705  0.6307613070539375
  0.5756657314196616  0.8232706417180609  0.3944130674931188
  0.7376357549087302  0.9881163534249424  0.3896299631762119
  0.9208553891909048  0.7869327168743325  0.1494106292657946
  0.5706993195798589  0.9510842900349772  0.1465930984259174
  0.7390764345518761  0.6042622012816352  0.1474300742483123
  0.9008229997858095  0.8992250090259120  0.9019196145294472
  0.5869730151193480  0.5807166710488403  0.8976742563381137
  0.7379862854790531  0.7428239915358219  0.8733597901884380
  0.8994657967701869  0.5218932799792313  0.6189090777832433
  0.5856535943969021  0.7017041412208584  0.6347578287751361
  0.9059035651843885  0.6555918422337967  0.3664843539538225
  0.7179611088093694  0.6898795549889982  0.4324883546225635
  0.5573463733826003  0.6457438991673143  0.1965296197963440
  0.7168906215958799  0.8147708909915679  0.1972849144718509
  0.8747249762483804  0.6159535768942703  0.9157840615831745
  0.5459978161834513  0.7719374847594480  0.9025578255582687
  0.7080251199207055  0.9384958144126188  0.9033007922408913
  0.8752327887553832  0.7406540238789958  0.6795689591558869
  0.5432516967059655  0.9013316866593115  0.6797939775629374
  0.7132442284737976  0.5674413303305812  0.6743948911864095
  0.8809619438626939  0.8543252115274029  0.4312511548306972
  0.5485903359363391  0.5258106305133978  0.4361445126740620
  0.8856199985649411  0.9755654390183253  0.1977905667082425
 
  0.00000000E+00  0.00000000E+00  0.00000000E+00
  0.00000000E+00  0.00000000E+00  0.00000000E+00
  0.00000000E+00  0.00000000E+00  0.00000000E+00
  0.00000000E+00  0.00000000E+00  0.00000000E+00
  0.00000000E+00  0.00000000E+00  0.00000000E+00
  0.00000000E+00  0.00000000E+00  0.00000000E+00
  0.00000000E+00  0.00000000E+00  0.00000000E+00
  0.00000000E+00  0.00000000E+00  0.00000000E+00
  0.00000000E+00  0.00000000E+00  0.00000000E+00
  0.00000000E+00  0.00000000E+00  0.00000000E+00
  0.00000000E+00  0.00000000E+00  0.00000000E+00
  0.00000000E+00  0.00000000E+00  0.00000000E+00
  0.00000000E+00  0.00000000E+00  0.00000000E+00
  0.00000000E+00  0.00000000E+00  0.00000000E+00
  0.00000000E+00  0.00000000E+00  0.00000000E+00
  0.00000000E+00  0.00000000E+00  0.00000000E+00
  0.00000000E+00  0.00000000E+00  0.00000000E+00
  0.00000000E+00  0.00000000E+00  0.00000000E+00
  0.00000000E+00  0.00000000E+00  0.00000000E+00
  0.00000000E+00  0.00000000E+00  0.00000000E+00
  0.00000000E+00  0.00000000E+00  0.00000000E+00
  0.00000000E+00  0.00000000E+00  0.00000000E+00
  0.00000000E+00  0.00000000E+00  0.00000000E+00
  0.00000000E+00  0.00000000E+00  0.00000000E+00
  0.00000000E+00  0.00000000E+00  0.00000000E+00
  0.00000000E+00  0.00000000E+00  0.00000000E+00
  0.00000000E+00  0.00000000E+00  0.00000000E+00
  0.00000000E+00  0.00000000E+00  0.00000000E+00
  0.00000000E+00  0.00000000E+00  0.00000000E+00
  0.00000000E+00  0.00000000E+00  0.00000000E+00
  0.00000000E+00  0.00000000E+00  0.00000000E+00
  0.00000000E+00  0.00000000E+00  0.00000000E+00
  0.00000000E+00  0.00000000E+00  0.00000000E+00
  0.00000000E+00  0.00000000E+00  0.00000000E+00
  0.00000000E+00  0.00000000E+00  0.00000000E+00
  0.00000000E+00  0.00000000E+00  0.00000000E+00
  0.00000000E+00  0.00000000E+00  0.00000000E+00
  0.00000000E+00  0.00000000E+00  0.00000000E+00
  0.00000000E+00  0.00000000E+00  0.00000000E+00
  0.00000000E+00  0.00000000E+00  0.00000000E+00
  0.00000000E+00  0.00000000E+00  0.00000000E+00
  0.00000000E+00  0.00000000E+00  0.00000000E+00
  0.00000000E+00  0.00000000E+00  0.00000000E+00
  0.00000000E+00  0.00000000E+00  0.00000000E+00
  0.00000000E+00  0.00000000E+00  0.00000000E+00
  0.00000000E+00  0.00000000E+00  0.00000000E+00
  0.00000000E+00  0.00000000E+00  0.00000000E+00
  0.00000000E+00  0.00000000E+00  0.00000000E+00
  0.00000000E+00  0.00000000E+00  0.00000000E+00
  0.00000000E+00  0.00000000E+00  0.00000000E+00
  0.00000000E+00  0.00000000E+00  0.00000000E+00
  0.00000000E+00  0.00000000E+00  0.00000000E+00
  0.00000000E+00  0.00000000E+00  0.00000000E+00
  0.00000000E+00  0.00000000E+00  0.00000000E+00
  0.00000000E+00  0.00000000E+00  0.00000000E+00
  0.00000000E+00  0.00000000E+00  0.00000000E+00
  0.00000000E+00  0.00000000E+00  0.00000000E+00
  0.00000000E+00  0.00000000E+00  0.00000000E+00
  0.00000000E+00  0.00000000E+00  0.00000000E+00
  0.00000000E+00  0.00000000E+00  0.00000000E+00
  0.00000000E+00  0.00000000E+00  0.00000000E+00
  0.00000000E+00  0.00000000E+00  0.00000000E+00
  0.00000000E+00  0.00000000E+00  0.00000000E+00
  0.00000000E+00  0.00000000E+00  0.00000000E+00
  0.00000000E+00  0.00000000E+00  0.00000000E+00
  0.00000000E+00  0.00000000E+00  0.00000000E+00
  0.00000000E+00  0.00000000E+00  0.00000000E+00
  0.00000000E+00  0.00000000E+00  0.00000000E+00
  0.00000000E+00  0.00000000E+00  0.00000000E+00
  0.00000000E+00  0.00000000E+00  0.00000000E+00
  0.00000000E+00  0.00000000E+00  0.00000000E+00
  0.00000000E+00  0.00000000E+00  0.00000000E+00
  0.00000000E+00  0.00000000E+00  0.00000000E+00
  0.00000000E+00  0.00000000E+00  0.00000000E+00
  0.00000000E+00  0.00000000E+00  0.00000000E+00
  0.00000000E+00  0.00000000E+00  0.00000000E+00
  0.00000000E+00  0.00000000E+00  0.00000000E+00
  0.00000000E+00  0.00000000E+00  0.00000000E+00
  0.00000000E+00  0.00000000E+00  0.00000000E+00
  0.00000000E+00  0.00000000E+00  0.00000000E+00
  0.00000000E+00  0.00000000E+00  0.00000000E+00
  0.00000000E+00  0.00000000E+00  0.00000000E+00
  0.00000000E+00  0.00000000E+00  0.00000000E+00
  0.00000000E+00  0.00000000E+00  0.00000000E+00
  0.00000000E+00  0.00000000E+00  0.00000000E+00
  0.00000000E+00  0.00000000E+00  0.00000000E+00
  0.00000000E+00  0.00000000E+00  0.00000000E+00
  0.00000000E+00  0.00000000E+00  0.00000000E+00
  0.00000000E+00  0.00000000E+00  0.00000000E+00
  0.00000000E+00  0.00000000E+00  0.00000000E+00
  0.00000000E+00  0.00000000E+00  0.00000000E+00
  0.00000000E+00  0.00000000E+00  0.00000000E+00
  0.00000000E+00  0.00000000E+00  0.00000000E+00
  0.00000000E+00  0.00000000E+00  0.00000000E+00
  0.00000000E+00  0.00000000E+00  0.00000000E+00
  0.00000000E+00  0.00000000E+00  0.00000000E+00
  0.00000000E+00  0.00000000E+00  0.00000000E+00
  0.00000000E+00  0.00000000E+00  0.00000000E+00
  0.00000000E+00  0.00000000E+00  0.00000000E+00
  0.00000000E+00  0.00000000E+00  0.00000000E+00
  0.00000000E+00  0.00000000E+00  0.00000000E+00
  0.00000000E+00  0.00000000E+00  0.00000000E+00
  0.00000000E+00  0.00000000E+00  0.00000000E+00
  0.00000000E+00  0.00000000E+00  0.00000000E+00
  0.00000000E+00  0.00000000E+00  0.00000000E+00
  0.00000000E+00  0.00000000E+00  0.00000000E+00
  0.00000000E+00  0.00000000E+00  0.00000000E+00
  0.00000000E+00  0.00000000E+00  0.00000000E+00
  0.00000000E+00  0.00000000E+00  0.00000000E+00
  0.00000000E+00  0.00000000E+00  0.00000000E+00
  0.00000000E+00  0.00000000E+00  0.00000000E+00
  0.00000000E+00  0.00000000E+00  0.00000000E+00
  0.00000000E+00  0.00000000E+00  0.00000000E+00
  0.00000000E+00  0.00000000E+00  0.00000000E+00
  0.00000000E+00  0.00000000E+00  0.00000000E+00
  0.00000000E+00  0.00000000E+00  0.00000000E+00
  0.00000000E+00  0.00000000E+00  0.00000000E+00
  0.00000000E+00  0.00000000E+00  0.00000000E+00
  0.00000000E+00  0.00000000E+00  0.00000000E+00
  0.00000000E+00  0.00000000E+00  0.00000000E+00
  0.00000000E+00  0.00000000E+00  0.00000000E+00
  0.00000000E+00  0.00000000E+00  0.00000000E+00
  0.00000000E+00  0.00000000E+00  0.00000000E+00
  0.00000000E+00  0.00000000E+00  0.00000000E+00
  0.00000000E+00  0.00000000E+00  0.00000000E+00
  0.00000000E+00  0.00000000E+00  0.00000000E+00
  0.00000000E+00  0.00000000E+00  0.00000000E+00
  0.00000000E+00  0.00000000E+00  0.00000000E+00
  0.00000000E+00  0.00000000E+00  0.00000000E+00
  0.00000000E+00  0.00000000E+00  0.00000000E+00
  0.00000000E+00  0.00000000E+00  0.00000000E+00
  0.00000000E+00  0.00000000E+00  0.00000000E+00
  0.00000000E+00  0.00000000E+00  0.00000000E+00
  0.00000000E+00  0.00000000E+00  0.00000000E+00
  0.00000000E+00  0.00000000E+00  0.00000000E+00
  0.00000000E+00  0.00000000E+00  0.00000000E+00
  0.00000000E+00  0.00000000E+00  0.00000000E+00
  0.00000000E+00  0.00000000E+00  0.00000000E+00
  0.00000000E+00  0.00000000E+00  0.00000000E+00
  0.00000000E+00  0.00000000E+00  0.00000000E+00
  0.00000000E+00  0.00000000E+00  0.00000000E+00
  0.00000000E+00  0.00000000E+00  0.00000000E+00
  0.00000000E+00  0.00000000E+00  0.00000000E+00
  0.00000000E+00  0.00000000E+00  0.00000000E+00
  0.00000000E+00  0.00000000E+00  0.00000000E+00
  0.00000000E+00  0.00000000E+00  0.00000000E+00
  0.00000000E+00  0.00000000E+00  0.00000000E+00
  0.00000000E+00  0.00000000E+00  0.00000000E+00
  0.00000000E+00  0.00000000E+00  0.00000000E+00
  0.00000000E+00  0.00000000E+00  0.00000000E+00
  0.00000000E+00  0.00000000E+00  0.00000000E+00
  0.00000000E+00  0.00000000E+00  0.00000000E+00
  0.00000000E+00  0.00000000E+00  0.00000000E+00
  0.00000000E+00  0.00000000E+00  0.00000000E+00
  0.00000000E+00  0.00000000E+00  0.00000000E+00
  0.00000000E+00  0.00000000E+00  0.00000000E+00
  0.00000000E+00  0.00000000E+00  0.00000000E+00
  0.00000000E+00  0.00000000E+00  0.00000000E+00
  0.00000000E+00  0.00000000E+00  0.00000000E+00
  0.00000000E+00  0.00000000E+00  0.00000000E+00
  0.00000000E+00  0.00000000E+00  0.00000000E+00
  0.00000000E+00  0.00000000E+00  0.00000000E+00
  0.00000000E+00  0.00000000E+00  0.00000000E+00
  0.00000000E+00  0.00000000E+00  0.00000000E+00
  0.00000000E+00  0.00000000E+00  0.00000000E+00
  0.00000000E+00  0.00000000E+00  0.00000000E+00
  0.00000000E+00  0.00000000E+00  0.00000000E+00
  0.00000000E+00  0.00000000E+00  0.00000000E+00
  0.00000000E+00  0.00000000E+00  0.00000000E+00
  0.00000000E+00  0.00000000E+00  0.00000000E+00
  0.00000000E+00  0.00000000E+00  0.00000000E+00
  0.00000000E+00  0.00000000E+00  0.00000000E+00
  0.00000000E+00  0.00000000E+00  0.00000000E+00
  0.00000000E+00  0.00000000E+00  0.00000000E+00
  0.00000000E+00  0.00000000E+00  0.00000000E+00
  0.00000000E+00  0.00000000E+00  0.00000000E+00
  0.00000000E+00  0.00000000E+00  0.00000000E+00
  0.00000000E+00  0.00000000E+00  0.00000000E+00
  0.00000000E+00  0.00000000E+00  0.00000000E+00
  0.00000000E+00  0.00000000E+00  0.00000000E+00
  0.00000000E+00  0.00000000E+00  0.00000000E+00
  0.00000000E+00  0.00000000E+00  0.00000000E+00
  0.00000000E+00  0.00000000E+00  0.00000000E+00
  0.00000000E+00  0.00000000E+00  0.00000000E+00
  0.00000000E+00  0.00000000E+00  0.00000000E+00
  0.00000000E+00  0.00000000E+00  0.00000000E+00
  0.00000000E+00  0.00000000E+00  0.00000000E+00
  0.00000000E+00  0.00000000E+00  0.00000000E+00
  0.00000000E+00  0.00000000E+00  0.00000000E+00
  0.00000000E+00  0.00000000E+00  0.00000000E+00
  0.00000000E+00  0.00000000E+00  0.00000000E+00
