supercell of icsd_191774.cif            
   1.00000000000000     
    10.8301990167317062   -0.0049082061827671   -0.0047617519225055
    -5.4193495755192371    9.3838991901195392    0.0121968255119223
    -0.0052361010538918    0.0124370046174634   11.3429322571109061
   N    In   Y 
    36    28     8
Direct
  0.2228528812419341  0.1125570606880331  0.4387873830578712
  0.1191282448858786  0.2258714530076489  0.1891922816971672
  0.8943586800336121  0.1174217910517825  0.9409450963597408
  0.7764933441473190  0.2225724868178176  0.6963165553996902
  0.5560058883996604  0.1121066868929148  0.4428831177783437
  0.4451503031988224  0.2226940434372437  0.1909313100371932
  0.2216470532453911  0.1121553056842259  0.9402920536756199
  0.1122440493026389  0.2211771184257643  0.6903682862025846
  0.8889353232493917  0.1130152067149979  0.4482836024861356
  0.7733504645327685  0.2261881913271466  0.1895031152629727
  0.5429370930703001  0.1053523996137216  0.9361941338950359
  0.4426043240188235  0.2214031231730473  0.6878932696276721
  0.2236602851033069  0.4438983623743269  0.4423450701060290
  0.1067712756440997  0.5448866954547427  0.1924039404402720
  0.8947229388735494  0.4552433730916334  0.9368959851952496
  0.7728236943983759  0.5445740336925269  0.6846849172483402
  0.5540319693229634  0.4438098617244179  0.4394465684357272
  0.4424297212877448  0.5493715103579078  0.1879788918162433
  0.2122482281712195  0.4401352464903709  0.9365175103806962
  0.1081438570332622  0.5493832388715632  0.6876245092079856
  0.8886550148177861  0.4431029314474912  0.4404422132832408
  0.7792589579677127  0.5580561791445788  0.1935474617256219
  0.5627544802985014  0.4383432863666528  0.9392496667726462
  0.4449312346689851  0.5539515452562895  0.6980427939580522
  0.2223644374918550  0.7767506198197438  0.4430433575596382
  0.1068311046085881  0.8953763474155849  0.1917001319763187
  0.8946073606855620  0.7737264351203947  0.9356071135795361
  0.7764728211597642  0.8939779533243524  0.6966286143135108
  0.5552854987899565  0.7759256475611096  0.4502191967945777
  0.4501881725947499  0.8978774321536491  0.1929654173760227
  0.2213994027931321  0.7768010451101404  0.9534055008207716
  0.1201377354944029  0.8971066783773196  0.6882140316270124
  0.8887480435620461  0.7785246756316155  0.4477230857032737
  0.7814029384525725  0.8888668923208698  0.1912786166869651
  0.5503853577818703  0.7804194326144227  0.9406372643686254
  0.4496914700387933  0.8930249132643837  0.6890149658942164
  0.2245083725779580  0.1148284755306577  0.2474380414254398
  0.1124899948987803  0.2219336067426170  0.5003900635986227
  0.8917453216390072  0.1152187649679561  0.7482022783034665
  0.5565361859656051  0.1156969380775266  0.2509245630573957
  0.4436317905982108  0.2223242227372424  0.4975064798365807
  0.2240041234912766  0.1131096651915158  0.7486355950969141
  0.1121527512596359  0.2230110561926324  0.9978569181241568
  0.7770339923010354  0.2231169080039592  0.5033704510069228
  0.5521895083772250  0.1105973885887934  0.7459306467736653
  0.4417558200321707  0.2187263637550245  0.9990465900473922
  0.2245583257872354  0.4417809645565995  0.2500464692371409
  0.1103215268858762  0.5529929058407035  0.4971450267444126
  0.8892776209457551  0.4444072012537177  0.7463438114348264
  0.7824739127065357  0.5574863544409681  0.0003149422629889
  0.5544100749264373  0.4429150351086406  0.2477313852283842
  0.4444743603098615  0.5533855712782696  0.5043277980379344
  0.2171629428277981  0.4399833114442799  0.7465611072282883
  0.1083325808649391  0.5517359203554690  0.0006114437763713
  0.8860355483961087  0.4425343804345800  0.2494801522130530
  0.7752228706351261  0.5510312916881048  0.4948659354014779
  0.5570369742889199  0.4384362030596378  0.7478417040515239
  0.1155105470888529  0.8926945702550810  0.4977381642480623
  0.4452170734719303  0.8899866306832465  0.4995826764314302
  0.1103612497927315  0.8905410886614575  0.0002590047880844
  0.8883335316054257  0.7796919506596609  0.2527197741651577
  0.7771393182900965  0.8917205147679610  0.5039576240901980
  0.5548427737183985  0.7809770492228623  0.7474315680157559
  0.4442287933793736  0.8915666501035275  0.0014197484826965
  0.7729070228024639  0.2265053935097256  0.9903122682001282
  0.8915224580747889  0.1162519852341930  0.2491761816928957
  0.4408960892596667  0.5484587664750080  0.9891724625018909
  0.2188475369141116  0.7771648250541006  0.2428599700644227
  0.8897116776348710  0.7742188856582786  0.7379674039729522
  0.7814128284275625  0.8877958919395681  0.9926102640559549
  0.5553545965184767  0.7749978806270050  0.2514048047331343
  0.2247062529384678  0.7765261840790174  0.7514096509196406
 
  0.00000000E+00  0.00000000E+00  0.00000000E+00
  0.00000000E+00  0.00000000E+00  0.00000000E+00
  0.00000000E+00  0.00000000E+00  0.00000000E+00
  0.00000000E+00  0.00000000E+00  0.00000000E+00
  0.00000000E+00  0.00000000E+00  0.00000000E+00
  0.00000000E+00  0.00000000E+00  0.00000000E+00
  0.00000000E+00  0.00000000E+00  0.00000000E+00
  0.00000000E+00  0.00000000E+00  0.00000000E+00
  0.00000000E+00  0.00000000E+00  0.00000000E+00
  0.00000000E+00  0.00000000E+00  0.00000000E+00
  0.00000000E+00  0.00000000E+00  0.00000000E+00
  0.00000000E+00  0.00000000E+00  0.00000000E+00
  0.00000000E+00  0.00000000E+00  0.00000000E+00
  0.00000000E+00  0.00000000E+00  0.00000000E+00
  0.00000000E+00  0.00000000E+00  0.00000000E+00
  0.00000000E+00  0.00000000E+00  0.00000000E+00
  0.00000000E+00  0.00000000E+00  0.00000000E+00
  0.00000000E+00  0.00000000E+00  0.00000000E+00
  0.00000000E+00  0.00000000E+00  0.00000000E+00
  0.00000000E+00  0.00000000E+00  0.00000000E+00
  0.00000000E+00  0.00000000E+00  0.00000000E+00
  0.00000000E+00  0.00000000E+00  0.00000000E+00
  0.00000000E+00  0.00000000E+00  0.00000000E+00
  0.00000000E+00  0.00000000E+00  0.00000000E+00
  0.00000000E+00  0.00000000E+00  0.00000000E+00
  0.00000000E+00  0.00000000E+00  0.00000000E+00
  0.00000000E+00  0.00000000E+00  0.00000000E+00
  0.00000000E+00  0.00000000E+00  0.00000000E+00
  0.00000000E+00  0.00000000E+00  0.00000000E+00
  0.00000000E+00  0.00000000E+00  0.00000000E+00
  0.00000000E+00  0.00000000E+00  0.00000000E+00
  0.00000000E+00  0.00000000E+00  0.00000000E+00
  0.00000000E+00  0.00000000E+00  0.00000000E+00
  0.00000000E+00  0.00000000E+00  0.00000000E+00
  0.00000000E+00  0.00000000E+00  0.00000000E+00
  0.00000000E+00  0.00000000E+00  0.00000000E+00
  0.00000000E+00  0.00000000E+00  0.00000000E+00
  0.00000000E+00  0.00000000E+00  0.00000000E+00
  0.00000000E+00  0.00000000E+00  0.00000000E+00
  0.00000000E+00  0.00000000E+00  0.00000000E+00
  0.00000000E+00  0.00000000E+00  0.00000000E+00
  0.00000000E+00  0.00000000E+00  0.00000000E+00
  0.00000000E+00  0.00000000E+00  0.00000000E+00
  0.00000000E+00  0.00000000E+00  0.00000000E+00
  0.00000000E+00  0.00000000E+00  0.00000000E+00
  0.00000000E+00  0.00000000E+00  0.00000000E+00
  0.00000000E+00  0.00000000E+00  0.00000000E+00
  0.00000000E+00  0.00000000E+00  0.00000000E+00
  0.00000000E+00  0.00000000E+00  0.00000000E+00
  0.00000000E+00  0.00000000E+00  0.00000000E+00
  0.00000000E+00  0.00000000E+00  0.00000000E+00
  0.00000000E+00  0.00000000E+00  0.00000000E+00
  0.00000000E+00  0.00000000E+00  0.00000000E+00
  0.00000000E+00  0.00000000E+00  0.00000000E+00
  0.00000000E+00  0.00000000E+00  0.00000000E+00
  0.00000000E+00  0.00000000E+00  0.00000000E+00
  0.00000000E+00  0.00000000E+00  0.00000000E+00
  0.00000000E+00  0.00000000E+00  0.00000000E+00
  0.00000000E+00  0.00000000E+00  0.00000000E+00
  0.00000000E+00  0.00000000E+00  0.00000000E+00
  0.00000000E+00  0.00000000E+00  0.00000000E+00
  0.00000000E+00  0.00000000E+00  0.00000000E+00
  0.00000000E+00  0.00000000E+00  0.00000000E+00
  0.00000000E+00  0.00000000E+00  0.00000000E+00
  0.00000000E+00  0.00000000E+00  0.00000000E+00
  0.00000000E+00  0.00000000E+00  0.00000000E+00
  0.00000000E+00  0.00000000E+00  0.00000000E+00
  0.00000000E+00  0.00000000E+00  0.00000000E+00
  0.00000000E+00  0.00000000E+00  0.00000000E+00
  0.00000000E+00  0.00000000E+00  0.00000000E+00
  0.00000000E+00  0.00000000E+00  0.00000000E+00
  0.00000000E+00  0.00000000E+00  0.00000000E+00
