Sc   Al   N                             
   1.00000000000000     
   -10.3983557559783755    0.0053203477531011   -0.0030097590749750
    -5.1947558333035655    8.9992302214541304   -0.0022476730499056
     0.0003820188578555    0.0046103563947954   -8.6982395499540477
   Sc   Al   N 
    11    25    36
Direct
  0.1131293787230447  0.0918814772708458  0.3574981446595942
  0.2192673033779400  0.2187908328044443  0.1034086198374595
  0.7766051200958515  0.0940641117233696  0.8523995250592549
  0.5529459447712952  0.2090287773295572  0.1075717897854247
  0.1129446049793046  0.0955286032390106  0.8472310488948196
  0.5540316634398508  0.5354007230986682  0.0993386442010902
  0.7843239013739307  0.4305685485711024  0.3516353900870755
  0.5542848547774142  0.5354334283666518  0.6066735358730568
  0.2193110213302916  0.8635929367890469  0.1016553399037079
  0.8910890293383460  0.8671816805787387  0.5987846010359306
  0.5607304462328457  0.8708114150425956  0.1020601868019497
  0.8862433912626599  0.2090452083887726  0.6022615495160011
  0.4452577925525176  0.0964857032981286  0.3589239449854773
  0.2230300189969867  0.2142994877953512  0.6006928338479156
  0.7774131449359984  0.0930389421192004  0.3528190459352842
  0.8903183590307435  0.2054027886052054  0.1022410510698180
  0.4441508635510090  0.0974676206816696  0.8268773355512380
  0.5517040009655645  0.2089004123699070  0.5960636887152120
  0.1112903111696184  0.4370690393799919  0.3696358352128613
  0.2113002562875863  0.5426890096818937  0.1104233442935296
  0.7833357544641046  0.4307222450365487  0.8530366510596323
  0.8915693907810081  0.5385752980455862  0.6096677652132101
  0.4340164004615872  0.4312673941920977  0.3607672333420808
  0.1103642518277894  0.4360306849238214  0.8500300935486180
  0.2216527112808535  0.5368348784511738  0.6078336086084377
  0.8961569205563720  0.5418863875933724  0.0985316531563427
  0.4320321441360804  0.4287126830188512  0.8519848821388578
  0.1151123284964299  0.7520621642686791  0.3566739453632479
  0.7808343129314750  0.7562917323260052  0.8495247789789957
  0.4432158799851464  0.7608238267102720  0.3688406981603265
  0.1140720440565985  0.7496233257013145  0.8511389458893461
  0.2247332045870749  0.8647779593082916  0.6055312094187428
  0.7811718741201332  0.7580040451815933  0.3540289698012486
  0.8944253677527243  0.8633541358085708  0.1067908781122000
  0.4441434672837090  0.7613295785320133  0.8493850172029411
  0.5556849225842555  0.8712525669801181  0.6010755139534396
  0.2253019830312439  0.2219785129503364  0.3667448515483684
  0.1006864239322880  0.1007290936545289  0.1021782251947556
  0.8803698438840684  0.2215351379753230  0.8502308496549205
  0.7698383193251956  0.1082184891074860  0.5964989045232230
  0.5555244450457195  0.2086004073710797  0.3625646391592809
  0.4437127913309098  0.0951712738101236  0.1258468847439360
  0.2314677519476547  0.2165305419476340  0.8392313313905291
  0.1110012429752061  0.0930070463110937  0.6023921782446777
  0.8806849228535256  0.1992065075786016  0.3544683393286476
  0.7940593367845281  0.0844643443018001  0.1088108550555091
  0.5390932545186189  0.2131199854361867  0.8455175128169685
  0.4470508319919091  0.0930573988551870  0.5969334911545019
  0.2204786621756227  0.5378295942812628  0.3528803837196364
  0.1019146075297854  0.4475556700525161  0.0886907437807736
  0.8893759447777398  0.5409968140176105  0.8483374276136502
  0.7947817584740164  0.4223232201400364  0.6070779867669955
  0.5407694323628860  0.5449305773710194  0.3542176690158030
  0.4183587640220736  0.4393654604940593  0.0980329237000532
  0.2200771593712787  0.5397872021486663  0.8417447300713832
  0.1074670546165635  0.4344436661018278  0.6045602952821270
  0.9021857946405376  0.5475630870082071  0.3521771997771168
  0.7966733169698230  0.4227923044236377  0.0954087842641371
  0.5567011437190814  0.5344803524115775  0.8501830185376349
  0.4323422878394538  0.4203400340788690  0.5998767235314943
  0.2309956876983321  0.8532815622906540  0.3593096358080459
  0.1027037242693396  0.7495937180281729  0.1048258886891134
  0.8990443179354699  0.8535663675015925  0.8541020064044744
  0.7703994311791789  0.7513976306089987  0.6022103270531929
  0.5574233507051076  0.8669134686724647  0.3635565663190405
  0.4453377467786765  0.7607930403447511  0.0853667945487970
  0.2259116981826637  0.8535038288997825  0.8419505284917719
  0.1264864756978739  0.7493776903479841  0.5957255996882225
  0.8883703885065870  0.8704325835927236  0.3464333603896321
  0.7931335103820274  0.7526430703448597  0.1008990199402717
  0.5559559027141816  0.8774325841853496  0.8408200093713063
  0.4376261124340957  0.7754662413218014  0.6055531757786667
 
  0.00000000E+00  0.00000000E+00  0.00000000E+00
  0.00000000E+00  0.00000000E+00  0.00000000E+00
  0.00000000E+00  0.00000000E+00  0.00000000E+00
  0.00000000E+00  0.00000000E+00  0.00000000E+00
  0.00000000E+00  0.00000000E+00  0.00000000E+00
  0.00000000E+00  0.00000000E+00  0.00000000E+00
  0.00000000E+00  0.00000000E+00  0.00000000E+00
  0.00000000E+00  0.00000000E+00  0.00000000E+00
  0.00000000E+00  0.00000000E+00  0.00000000E+00
  0.00000000E+00  0.00000000E+00  0.00000000E+00
  0.00000000E+00  0.00000000E+00  0.00000000E+00
  0.00000000E+00  0.00000000E+00  0.00000000E+00
  0.00000000E+00  0.00000000E+00  0.00000000E+00
  0.00000000E+00  0.00000000E+00  0.00000000E+00
  0.00000000E+00  0.00000000E+00  0.00000000E+00
  0.00000000E+00  0.00000000E+00  0.00000000E+00
  0.00000000E+00  0.00000000E+00  0.00000000E+00
  0.00000000E+00  0.00000000E+00  0.00000000E+00
  0.00000000E+00  0.00000000E+00  0.00000000E+00
  0.00000000E+00  0.00000000E+00  0.00000000E+00
  0.00000000E+00  0.00000000E+00  0.00000000E+00
  0.00000000E+00  0.00000000E+00  0.00000000E+00
  0.00000000E+00  0.00000000E+00  0.00000000E+00
  0.00000000E+00  0.00000000E+00  0.00000000E+00
  0.00000000E+00  0.00000000E+00  0.00000000E+00
  0.00000000E+00  0.00000000E+00  0.00000000E+00
  0.00000000E+00  0.00000000E+00  0.00000000E+00
  0.00000000E+00  0.00000000E+00  0.00000000E+00
  0.00000000E+00  0.00000000E+00  0.00000000E+00
  0.00000000E+00  0.00000000E+00  0.00000000E+00
  0.00000000E+00  0.00000000E+00  0.00000000E+00
  0.00000000E+00  0.00000000E+00  0.00000000E+00
  0.00000000E+00  0.00000000E+00  0.00000000E+00
  0.00000000E+00  0.00000000E+00  0.00000000E+00
  0.00000000E+00  0.00000000E+00  0.00000000E+00
  0.00000000E+00  0.00000000E+00  0.00000000E+00
  0.00000000E+00  0.00000000E+00  0.00000000E+00
  0.00000000E+00  0.00000000E+00  0.00000000E+00
  0.00000000E+00  0.00000000E+00  0.00000000E+00
  0.00000000E+00  0.00000000E+00  0.00000000E+00
  0.00000000E+00  0.00000000E+00  0.00000000E+00
  0.00000000E+00  0.00000000E+00  0.00000000E+00
  0.00000000E+00  0.00000000E+00  0.00000000E+00
  0.00000000E+00  0.00000000E+00  0.00000000E+00
  0.00000000E+00  0.00000000E+00  0.00000000E+00
  0.00000000E+00  0.00000000E+00  0.00000000E+00
  0.00000000E+00  0.00000000E+00  0.00000000E+00
  0.00000000E+00  0.00000000E+00  0.00000000E+00
  0.00000000E+00  0.00000000E+00  0.00000000E+00
  0.00000000E+00  0.00000000E+00  0.00000000E+00
  0.00000000E+00  0.00000000E+00  0.00000000E+00
  0.00000000E+00  0.00000000E+00  0.00000000E+00
  0.00000000E+00  0.00000000E+00  0.00000000E+00
  0.00000000E+00  0.00000000E+00  0.00000000E+00
  0.00000000E+00  0.00000000E+00  0.00000000E+00
  0.00000000E+00  0.00000000E+00  0.00000000E+00
  0.00000000E+00  0.00000000E+00  0.00000000E+00
  0.00000000E+00  0.00000000E+00  0.00000000E+00
  0.00000000E+00  0.00000000E+00  0.00000000E+00
  0.00000000E+00  0.00000000E+00  0.00000000E+00
  0.00000000E+00  0.00000000E+00  0.00000000E+00
  0.00000000E+00  0.00000000E+00  0.00000000E+00
  0.00000000E+00  0.00000000E+00  0.00000000E+00
  0.00000000E+00  0.00000000E+00  0.00000000E+00
  0.00000000E+00  0.00000000E+00  0.00000000E+00
  0.00000000E+00  0.00000000E+00  0.00000000E+00
  0.00000000E+00  0.00000000E+00  0.00000000E+00
  0.00000000E+00  0.00000000E+00  0.00000000E+00
  0.00000000E+00  0.00000000E+00  0.00000000E+00
  0.00000000E+00  0.00000000E+00  0.00000000E+00
  0.00000000E+00  0.00000000E+00  0.00000000E+00
  0.00000000E+00  0.00000000E+00  0.00000000E+00
