O    Ga   Cu                            
   1.00000000000000     
    -0.0180238702730704   -0.0000084407422790   -5.3271141042199996
     5.5595103513017854    0.0121522835555985   -0.0000016880840729
    -0.0145778176286243   -6.7480777658173619    0.1265680760386136
   O    Ga   Cu
     8     4     4
Direct
  0.0774744248551542  0.9312895485082748  0.1008964237829488
  0.4691860709589974  0.0704952207375200  0.8847293349533771
  0.9955548199917814  0.8965931383552856  0.6431851219156428
  0.9985964319553275  0.4012715957416191  0.8311096148252943
  0.5523617472917977  0.0905828323338440  0.3501081058123461
  0.4988895119255758  0.5879227057812244  0.1390810214768123
  0.9512453797867551  0.4443392425390797  0.3857605951992937
  0.4540084296057216  0.5565972262046799  0.5930789337508244
  0.1083176833482042  0.0858999739933211  0.8547492964970118
  0.4423265623762447  0.9157112624980499  0.1328225475442437
  0.1047526147868183  0.5786703814537333  0.6101491875936915
  0.5981304579126316  0.4232907743090806  0.3671837469224926
  0.9962542043418452  0.0295411413505136  0.3701652412499143
  0.0298313568935100  0.5369713896163901  0.1062806606244280
  0.5763184938786807  0.9399292442241745  0.6246845195029422
  0.5959630801255926  0.4442780584142838  0.8725143561400728
 
             NaN             NaN             NaN
             NaN             NaN             NaN
             NaN             NaN             NaN
             NaN             NaN             NaN
             NaN             NaN             NaN
             NaN             NaN             NaN
             NaN             NaN             NaN
             NaN             NaN             NaN
             NaN             NaN             NaN
             NaN             NaN             NaN
             NaN             NaN             NaN
             NaN             NaN             NaN
             NaN             NaN             NaN
             NaN             NaN             NaN
             NaN             NaN             NaN
             NaN             NaN             NaN
