O    Ga   Cu                            
   1.00000000000000     
    -0.0443168592572536   -0.0000084407422786   -5.3271141042199996
     5.5578902736067901    0.0082186075350872   -0.0000016880840718
    -0.0094011410540622   -6.7329521424599523    0.0545125590989502
   O    Ga   Cu
     8     4     4
Direct
  0.0992324930179365  0.9396160653194130  0.0938964269188176
  0.5994954804451496  0.0518710190550280  0.8928114873712545
  0.0398138111398865  0.8968195506183534  0.6396177061725226
  0.0038058505449996  0.3990103261065840  0.8397531286841087
  0.5521529696343563  0.0935475535650170  0.3425700719252944
  0.4970052139433392  0.5902720800747190  0.1408021801028525
  0.9547028491287861  0.4424521051570593  0.3891552856749811
  0.4576099680661514  0.5549296939926620  0.5938617113278468
  0.9545635821313141  0.0667152937113613  0.8660235273495616
  0.4503065852948467  0.9220294567298595  0.1181181911559364
  0.1073955620186595  0.5691832449421454  0.6166486065616610
  0.6028597065271342  0.4270211915089774  0.3665794240444740
  0.9976294398060048  0.0288077331379952  0.3690757535344886
  0.0530578027900503  0.5188878502757248  0.1131837087455736
  0.5164292575852372  0.9750448847179314  0.6138071450815943
  0.5631506979579228  0.4571756871482364  0.8705943531403832
 
             NaN             NaN             NaN
             NaN             NaN             NaN
             NaN             NaN             NaN
             NaN             NaN             NaN
             NaN             NaN             NaN
             NaN             NaN             NaN
             NaN             NaN             NaN
             NaN             NaN             NaN
             NaN             NaN             NaN
             NaN             NaN             NaN
             NaN             NaN             NaN
             NaN             NaN             NaN
             NaN             NaN             NaN
             NaN             NaN             NaN
             NaN             NaN             NaN
             NaN             NaN             NaN
