O    Ga   Cu                            
   1.00000000000000     
    -0.0469224072837064   -0.0000084407422795   -5.3271141042199996
     5.5038701496073879   -0.0225488090296398   -0.0000016880840742
     0.0277490538039497   -6.6507837833009669    0.0375085375761148
   O    Ga   Cu
     8     4     4
Direct
  0.9405650751805297  0.9363073707656682  0.0940776479068646
  0.4438502342295862  0.0604172286985900  0.8889736033089051
  0.9943730691343688  0.8985390063927881  0.6385580313054078
  0.9912101162410565  0.3977279081426772  0.8397641682390926
  0.4895136226282943  0.0908413791272125  0.3475765093081122
  0.4835886861535172  0.5945167042627517  0.1396532183325832
  0.9412805637015254  0.4376140988931212  0.3864048305937189
  0.4449855062025492  0.5543397349086163  0.5944730222372954
  0.0937236117224600  0.0744312478982181  0.8675036475480553
  0.5889308252791565  0.9197047569849204  0.1180418726909735
  0.0952630429164074  0.5751447016799176  0.6118245765938326
  0.5897567666230472  0.4163550311881252  0.3672742366331008
  0.0832372413227134  0.0557203170540816  0.3629920908309003
  0.0756094450922404  0.5542826844637858  0.1129673558755044
  0.5970324227177528  0.9242862543859971  0.6265719743690354
  0.5962890592418830  0.4431553008277760  0.8698419199049496
 
             NaN             NaN             NaN
             NaN             NaN             NaN
             NaN             NaN             NaN
             NaN             NaN             NaN
             NaN             NaN             NaN
             NaN             NaN             NaN
             NaN             NaN             NaN
             NaN             NaN             NaN
             NaN             NaN             NaN
             NaN             NaN             NaN
             NaN             NaN             NaN
             NaN             NaN             NaN
             NaN             NaN             NaN
             NaN             NaN             NaN
             NaN             NaN             NaN
             NaN             NaN             NaN
