O    Ga   Cu                            
   1.00000000000000     
    -0.0480372348850479   -0.0000084407422779   -5.3271141042199996
     5.5454351146641461    0.0277861093160442   -0.0000016880840699
    -0.0340116659033691   -6.7202875323687437   -0.0755566926158277
   O    Ga   Cu
     8     4     4
Direct
  0.1042928536006187  0.9357467623215925  0.0924758805118557
  0.6085863315333526  0.0510284685516709  0.8845835324464204
  0.0676278819809042  0.9021749052915098  0.6391482442908156
  0.0449692787634888  0.3988713062187443  0.8583461064186082
  0.5592636435956777  0.0919537153532346  0.3306575626787023
  0.5533043405122555  0.5918902468424037  0.1400346865554383
  0.0960281581956579  0.4204009818804195  0.3854885215929684
  0.5501190532931872  0.5616862344417726  0.5956437163059363
  0.9601576958313274  0.0723912278028536  0.8680225755489417
  0.4539694283839921  0.9137203925427926  0.1069483093190087
  0.0428016140845102  0.5718754829235380  0.6282066250209297
  0.4550777205105874  0.4104371999365526  0.3628339763628361
  0.9531042595845420  0.0395061705076287  0.3717478809799317
  0.9558720182386509  0.5755540379426307  0.1333645150559235
  0.5197341225104424  0.9385690574477508  0.6019399622894852
  0.5243028694555889  0.4575775460558873  0.8670566124136556
 
             NaN             NaN             NaN
             NaN             NaN             NaN
             NaN             NaN             NaN
             NaN             NaN             NaN
             NaN             NaN             NaN
             NaN             NaN             NaN
             NaN             NaN             NaN
             NaN             NaN             NaN
             NaN             NaN             NaN
             NaN             NaN             NaN
             NaN             NaN             NaN
             NaN             NaN             NaN
             NaN             NaN             NaN
             NaN             NaN             NaN
             NaN             NaN             NaN
             NaN             NaN             NaN
