generated by phonopy                    
   1.00000000000000     
    10.0351470768999995   -0.0000022330999784   -0.0000001056124209
    -5.0175765436399997    8.6906901959899994    0.0000001395531216
    -0.0000001735893656    0.0000001431815548   14.9533752540999991
   Pb   O    P 
    19    51    12
Direct
  0.9972150601988474  0.7761713275298519  0.1230043369407738
  0.9967898974214293  0.7755904833985454  0.6246953199054133
  0.0000461068968534  0.2604093576002171  0.8737176009949010
  0.2320808882336820  0.2275232114203760  0.1238303433300985
  0.2319047312787674  0.2275086147498513  0.6227423768594775
  0.7399851982540468  0.7485892809197168  0.3741331420134486
  0.7361565487667860  0.7418423253760267  0.8738598535303552
  0.7730485982819317  0.0034739384911759  0.1272824728466730
  0.7730664684018578  0.0036879793679674  0.6201835674967668
  0.2643695172275997  0.9982126567715923  0.3736067238171188
  0.2553243234069313  0.9942125369902470  0.8737989093063803
  0.6659132100803689  0.3348099202773511  0.0013591708806260
  0.6868901658110147  0.3272971341310367  0.4995515880830084
  0.3345715239709861  0.6661069273030407  0.0040694580406893
  0.3231448295523265  0.6551647612082903  0.5023800150063877
  0.3259238247762752  0.6540018787849036  0.2447242568807297
  0.3353177241175942  0.6654271553481834  0.7432041281179451
  0.6871379894220624  0.3274708375301998  0.2486026158610670
  0.6645648297039202  0.3342123974314575  0.7467873708214086
  0.0705036839580870  0.3078210070378162  0.3732559178707433
  0.4971123222190030  0.6399257103403357  0.1215301324846862
  0.4968551973398263  0.6404391279843651  0.6253624882911240
  0.4785770285950761  0.3236468524991096  0.3737379190253449
  0.4684512720127287  0.3177277337549356  0.8741674543500437
  0.3505359975652240  0.8510063052162735  0.1223911630780492
  0.3502117120035848  0.8510291002817851  0.6253865674750614
  0.6560375856788099  0.1401495946341669  0.3741732782338545
  0.6782904631940454  0.1478206161789331  0.8739580017561437
  0.1433583553215030  0.4893655169744235  0.1212663888048695
  0.1428441973410912  0.4894181951252534  0.6262058317382397
  0.8551045891973175  0.5259282295208223  0.3747009191184389
  0.8474426168278413  0.5296442555038325  0.8741567405243131
  0.7274681164132701  0.6516594161039961  0.0368609136781757
  0.7345367466725321  0.6694394387496772  0.5421956313373215
  0.2701048951844740  0.3523250746375481  0.4587705686734012
  0.2605566317024355  0.3499410693831351  0.9580446432625394
  0.3432052746627079  0.0729630953947975  0.0386231274110003
  0.3370970794808699  0.0677105286780275  0.5409587461575924
  0.6469336797733831  0.9078153827955688  0.4576615309037919
  0.6435303643264518  0.9060451355039234  0.9578747718660026
  0.9193305725112708  0.2757976318672917  0.0300359621788644
  0.9078123150978854  0.2641599042477978  0.5483809730136642
  0.0861867900015767  0.7448174043796811  0.4589673463788557
  0.0880287215324671  0.7388029386585870  0.9578132788591134
  0.2705939217384170  0.3529347867395032  0.2885536545955958
  0.2604248489684124  0.3493236494226295  0.7898814235429654
  0.7352388186499610  0.6713033308129326  0.2051993686422904
  0.7274620812768191  0.6535909052246893  0.7106198264621142
  0.6479631546099256  0.9084682553938137  0.2903871773232964
  0.6443940371849095  0.9063430440753564  0.7901127410231581
  0.3361311841321566  0.0666534333367750  0.2072052242378604
  0.3422547130094884  0.0723760569179106  0.7095803057942689
  0.0824284040529406  0.7485520582638401  0.2909316081754625
  0.0867023630495254  0.7403562899913680  0.7905655156245572
  0.9089081435907076  0.2630365043525202  0.1987538692392192
  0.9201836671252153  0.2737076863850518  0.7170260842499516
  0.5505677602737720  0.4154459223730456  0.1289002972199427
  0.5498341871789378  0.4154744917628932  0.6201202961609269
  0.4772357972343002  0.5801387334440662  0.3737954812051640
  0.4736942198697136  0.5761420635890246  0.8736628568152085
  0.5827005294445229  0.1259112250108032  0.1249489792383400
  0.5825560086659962  0.1258465047761064  0.6239899719246864
  0.4133690004058224  0.8789275318366592  0.3735748620765875
  0.4187071190853615  0.8956609290649737  0.8735712475252555
  0.8759012561659176  0.4661953254627704  0.1189259805362113
  0.8752435239809131  0.4656242831616879  0.6304853822203427
  0.1254675358473420  0.5509385655719754  0.3717602176576165
  0.1013643661040149  0.5255846471279781  0.8729435404460446
  0.0018768793490764  0.0067370201849428  0.1160672979451718
  0.0018434795768272  0.0064637810331547  0.6287144660173354
  0.6249660163940405  0.5945448513930103  0.1234310978564679
  0.6244711769258160  0.5947111113067010  0.6242965029995133
  0.3761859437046624  0.3978827968078278  0.3737828092002076
  0.3669550254649394  0.3942370393039738  0.8739343062710532
  0.4023979541203602  0.0257675036977716  0.1234503966819247
  0.4022255076837098  0.0258514906009282  0.6248181861386257
  0.5967809170522855  0.9656483277868162  0.3739441557778633
  0.6004194222819592  0.9699813202866920  0.8738828232373947
  0.9661924080896753  0.3754324489502565  0.1173380115446037
  0.9657728994800081  0.3751193040139356  0.6304957980854979
  0.0310789392229154  0.6387539365825745  0.3741033460012702
  0.0257309388875129  0.6314044726485619  0.8738838063156322
 
  0.00000000E+00  0.00000000E+00  0.00000000E+00
  0.00000000E+00  0.00000000E+00  0.00000000E+00
  0.00000000E+00  0.00000000E+00  0.00000000E+00
  0.00000000E+00  0.00000000E+00  0.00000000E+00
  0.00000000E+00  0.00000000E+00  0.00000000E+00
  0.00000000E+00  0.00000000E+00  0.00000000E+00
  0.00000000E+00  0.00000000E+00  0.00000000E+00
  0.00000000E+00  0.00000000E+00  0.00000000E+00
  0.00000000E+00  0.00000000E+00  0.00000000E+00
  0.00000000E+00  0.00000000E+00  0.00000000E+00
  0.00000000E+00  0.00000000E+00  0.00000000E+00
  0.00000000E+00  0.00000000E+00  0.00000000E+00
  0.00000000E+00  0.00000000E+00  0.00000000E+00
  0.00000000E+00  0.00000000E+00  0.00000000E+00
  0.00000000E+00  0.00000000E+00  0.00000000E+00
  0.00000000E+00  0.00000000E+00  0.00000000E+00
  0.00000000E+00  0.00000000E+00  0.00000000E+00
  0.00000000E+00  0.00000000E+00  0.00000000E+00
  0.00000000E+00  0.00000000E+00  0.00000000E+00
  0.00000000E+00  0.00000000E+00  0.00000000E+00
  0.00000000E+00  0.00000000E+00  0.00000000E+00
  0.00000000E+00  0.00000000E+00  0.00000000E+00
  0.00000000E+00  0.00000000E+00  0.00000000E+00
  0.00000000E+00  0.00000000E+00  0.00000000E+00
  0.00000000E+00  0.00000000E+00  0.00000000E+00
  0.00000000E+00  0.00000000E+00  0.00000000E+00
  0.00000000E+00  0.00000000E+00  0.00000000E+00
  0.00000000E+00  0.00000000E+00  0.00000000E+00
  0.00000000E+00  0.00000000E+00  0.00000000E+00
  0.00000000E+00  0.00000000E+00  0.00000000E+00
  0.00000000E+00  0.00000000E+00  0.00000000E+00
  0.00000000E+00  0.00000000E+00  0.00000000E+00
  0.00000000E+00  0.00000000E+00  0.00000000E+00
  0.00000000E+00  0.00000000E+00  0.00000000E+00
  0.00000000E+00  0.00000000E+00  0.00000000E+00
  0.00000000E+00  0.00000000E+00  0.00000000E+00
  0.00000000E+00  0.00000000E+00  0.00000000E+00
  0.00000000E+00  0.00000000E+00  0.00000000E+00
  0.00000000E+00  0.00000000E+00  0.00000000E+00
  0.00000000E+00  0.00000000E+00  0.00000000E+00
  0.00000000E+00  0.00000000E+00  0.00000000E+00
  0.00000000E+00  0.00000000E+00  0.00000000E+00
  0.00000000E+00  0.00000000E+00  0.00000000E+00
  0.00000000E+00  0.00000000E+00  0.00000000E+00
  0.00000000E+00  0.00000000E+00  0.00000000E+00
  0.00000000E+00  0.00000000E+00  0.00000000E+00
  0.00000000E+00  0.00000000E+00  0.00000000E+00
  0.00000000E+00  0.00000000E+00  0.00000000E+00
  0.00000000E+00  0.00000000E+00  0.00000000E+00
  0.00000000E+00  0.00000000E+00  0.00000000E+00
  0.00000000E+00  0.00000000E+00  0.00000000E+00
  0.00000000E+00  0.00000000E+00  0.00000000E+00
  0.00000000E+00  0.00000000E+00  0.00000000E+00
  0.00000000E+00  0.00000000E+00  0.00000000E+00
  0.00000000E+00  0.00000000E+00  0.00000000E+00
  0.00000000E+00  0.00000000E+00  0.00000000E+00
  0.00000000E+00  0.00000000E+00  0.00000000E+00
  0.00000000E+00  0.00000000E+00  0.00000000E+00
  0.00000000E+00  0.00000000E+00  0.00000000E+00
  0.00000000E+00  0.00000000E+00  0.00000000E+00
  0.00000000E+00  0.00000000E+00  0.00000000E+00
  0.00000000E+00  0.00000000E+00  0.00000000E+00
  0.00000000E+00  0.00000000E+00  0.00000000E+00
  0.00000000E+00  0.00000000E+00  0.00000000E+00
  0.00000000E+00  0.00000000E+00  0.00000000E+00
  0.00000000E+00  0.00000000E+00  0.00000000E+00
  0.00000000E+00  0.00000000E+00  0.00000000E+00
  0.00000000E+00  0.00000000E+00  0.00000000E+00
  0.00000000E+00  0.00000000E+00  0.00000000E+00
  0.00000000E+00  0.00000000E+00  0.00000000E+00
  0.00000000E+00  0.00000000E+00  0.00000000E+00
  0.00000000E+00  0.00000000E+00  0.00000000E+00
  0.00000000E+00  0.00000000E+00  0.00000000E+00
  0.00000000E+00  0.00000000E+00  0.00000000E+00
  0.00000000E+00  0.00000000E+00  0.00000000E+00
  0.00000000E+00  0.00000000E+00  0.00000000E+00
  0.00000000E+00  0.00000000E+00  0.00000000E+00
  0.00000000E+00  0.00000000E+00  0.00000000E+00
  0.00000000E+00  0.00000000E+00  0.00000000E+00
  0.00000000E+00  0.00000000E+00  0.00000000E+00
  0.00000000E+00  0.00000000E+00  0.00000000E+00
  0.00000000E+00  0.00000000E+00  0.00000000E+00
