Sc   Al   N                             
   1.00000000000000     
   -10.2618546401810153    0.0139123601988436   -0.0058842934582998
    -5.1638738100253478    8.8791555639834350   -0.0081516154058086
     0.0033815156146124    0.0033406413927654   -8.6500330942779158
   Sc   Al   N 
     8    28    36
Direct
  0.1095082942104639  0.0944369629148341  0.3573181832100190
  0.2251032557854487  0.2148351375417477  0.1025771011996213
  0.1082074035317504  0.0969857697122194  0.8482776321281307
  0.7791049249832227  0.4314466631955725  0.3485248343839658
  0.5513428249155510  0.5354933257586723  0.6061887203676051
  0.2219660713249993  0.8617674312776487  0.1024358127874621
  0.8866037238683617  0.8755108143229293  0.6028093701882113
  0.5597375985212949  0.8710335774186362  0.1029846035407544
  0.7700032341901704  0.0992971148288078  0.8506825487985381
  0.8814514706626682  0.2085842522171575  0.6021241375673867
  0.4499754242119849  0.0980098548150394  0.3546132034916454
  0.5576754536758415  0.2077710556882053  0.0937079518289821
  0.2265331724113864  0.2128084477756929  0.6006145523339868
  0.7716446320605428  0.0946176090232882  0.3393114438662366
  0.8803203692773707  0.2076319990283650  0.0938070166833000
  0.4501062111085048  0.0963395572195225  0.8369994176618079
  0.5533672632864040  0.2083416161622438  0.5933357241461366
  0.1127514189228833  0.4368024642650425  0.3511231152904060
  0.2196281125459549  0.5395164590510149  0.0944952599440256
  0.7779766355904343  0.4295360958684782  0.8534850570474433
  0.8924868461020168  0.5380584815908733  0.6021427250228726
  0.4404361768010006  0.4263798264043857  0.3393347589714182
  0.5554838903802661  0.5328367774754454  0.0956626610018390
  0.1118596073287392  0.4343273122448252  0.8426770848041087
  0.2244970041231511  0.5343956788231807  0.5953544292436561
  0.8931269693367980  0.5416694159900715  0.0921615345325648
  0.4404158032877916  0.4235702101052041  0.8506699756539930
  0.1123969583713205  0.7529396480578114  0.3500228707012951
  0.7787726345006263  0.7588265022188594  0.8482259130738825
  0.4450129174400956  0.7570397947520533  0.3553630810206130
  0.1135350154661054  0.7528997241438447  0.8458713889274279
  0.2257976903613823  0.8654057881353694  0.6028054264867109
  0.7816748353284098  0.7601692113735297  0.3504859781025687
  0.8896227063332987  0.8696075402741528  0.0984586581502569
  0.4470303615305156  0.7578069996067427  0.8502272756322000
  0.5540792362992022  0.8725146072300234  0.6005912582605433
  0.2298226018085359  0.2183273392196412  0.3660963416857896
  0.0962914410640323  0.1032787196409402  0.1029278372234330
  0.8693251176372740  0.2142303697765655  0.8575046493208092
  0.7653925116724878  0.1122014693165809  0.6145913106555838
  0.5562307661315558  0.2087549766912602  0.3598318848064039
  0.4565536946836133  0.1027050813826165  0.1174166564650108
  0.2329097663368529  0.2156021787077975  0.8435254492100555
  0.1088705739732276  0.0946399918665435  0.6039307950582185
  0.8752407308119956  0.1989196269232707  0.3584970432326955
  0.7761229253571003  0.0942485267153828  0.1044219981875756
  0.5540633373692643  0.2049835525510630  0.8619699034080739
  0.4503044990826126  0.0934128546974904  0.6030753421659867
  0.2255264295599133  0.5367345645381292  0.3586096664700591
  0.1036523095575888  0.4457244150490638  0.1082112505008723
  0.8914056854236705  0.5383467276426259  0.8565441665763061
  0.7936508633998898  0.4224463263476750  0.6118612589421062
  0.5405822822111830  0.5411785161848499  0.3500138011519454
  0.4427654052749048  0.4263386848133166  0.1040964990648661
  0.2217842445077949  0.5385432688290734  0.8608315754352347
  0.1098393509543385  0.4336824342858066  0.6089803778871001
  0.8995480961746836  0.5480738662396689  0.3599433719104042
  0.7792739848038082  0.4295189336740464  0.0948272012106557
  0.5546012486777343  0.5358132270290810  0.8604334201253252
  0.4337583184440277  0.4173273583810797  0.6157976418929323
  0.2286099383401492  0.8542292162033220  0.3615682029174394
  0.1023585229938817  0.7503883493868031  0.1098918725080438
  0.8892550331873252  0.8726245380368809  0.8609786368126393
  0.7708871543944582  0.7531787009042645  0.6098492122355736
  0.5572916530188934  0.8698737869322102  0.3630757416488777
  0.4552312882513903  0.7426798838144748  0.1031469550926190
  0.2289539113680590  0.8541764214795364  0.8466481432599906
  0.1259783244600712  0.7489986756845468  0.6060178150940843
  0.8860774695108802  0.8744307991462108  0.3483741456342244
  0.7928997870929564  0.7534576110221494  0.1031942589559165
  0.5540303403917619  0.8745319071721767  0.8463596805077742
  0.4389775540895826  0.7742533215628384  0.6055410430308044
 
  0.00000000E+00  0.00000000E+00  0.00000000E+00
  0.00000000E+00  0.00000000E+00  0.00000000E+00
  0.00000000E+00  0.00000000E+00  0.00000000E+00
  0.00000000E+00  0.00000000E+00  0.00000000E+00
  0.00000000E+00  0.00000000E+00  0.00000000E+00
  0.00000000E+00  0.00000000E+00  0.00000000E+00
  0.00000000E+00  0.00000000E+00  0.00000000E+00
  0.00000000E+00  0.00000000E+00  0.00000000E+00
  0.00000000E+00  0.00000000E+00  0.00000000E+00
  0.00000000E+00  0.00000000E+00  0.00000000E+00
  0.00000000E+00  0.00000000E+00  0.00000000E+00
  0.00000000E+00  0.00000000E+00  0.00000000E+00
  0.00000000E+00  0.00000000E+00  0.00000000E+00
  0.00000000E+00  0.00000000E+00  0.00000000E+00
  0.00000000E+00  0.00000000E+00  0.00000000E+00
  0.00000000E+00  0.00000000E+00  0.00000000E+00
  0.00000000E+00  0.00000000E+00  0.00000000E+00
  0.00000000E+00  0.00000000E+00  0.00000000E+00
  0.00000000E+00  0.00000000E+00  0.00000000E+00
  0.00000000E+00  0.00000000E+00  0.00000000E+00
  0.00000000E+00  0.00000000E+00  0.00000000E+00
  0.00000000E+00  0.00000000E+00  0.00000000E+00
  0.00000000E+00  0.00000000E+00  0.00000000E+00
  0.00000000E+00  0.00000000E+00  0.00000000E+00
  0.00000000E+00  0.00000000E+00  0.00000000E+00
  0.00000000E+00  0.00000000E+00  0.00000000E+00
  0.00000000E+00  0.00000000E+00  0.00000000E+00
  0.00000000E+00  0.00000000E+00  0.00000000E+00
  0.00000000E+00  0.00000000E+00  0.00000000E+00
  0.00000000E+00  0.00000000E+00  0.00000000E+00
  0.00000000E+00  0.00000000E+00  0.00000000E+00
  0.00000000E+00  0.00000000E+00  0.00000000E+00
  0.00000000E+00  0.00000000E+00  0.00000000E+00
  0.00000000E+00  0.00000000E+00  0.00000000E+00
  0.00000000E+00  0.00000000E+00  0.00000000E+00
  0.00000000E+00  0.00000000E+00  0.00000000E+00
  0.00000000E+00  0.00000000E+00  0.00000000E+00
  0.00000000E+00  0.00000000E+00  0.00000000E+00
  0.00000000E+00  0.00000000E+00  0.00000000E+00
  0.00000000E+00  0.00000000E+00  0.00000000E+00
  0.00000000E+00  0.00000000E+00  0.00000000E+00
  0.00000000E+00  0.00000000E+00  0.00000000E+00
  0.00000000E+00  0.00000000E+00  0.00000000E+00
  0.00000000E+00  0.00000000E+00  0.00000000E+00
  0.00000000E+00  0.00000000E+00  0.00000000E+00
  0.00000000E+00  0.00000000E+00  0.00000000E+00
  0.00000000E+00  0.00000000E+00  0.00000000E+00
  0.00000000E+00  0.00000000E+00  0.00000000E+00
  0.00000000E+00  0.00000000E+00  0.00000000E+00
  0.00000000E+00  0.00000000E+00  0.00000000E+00
  0.00000000E+00  0.00000000E+00  0.00000000E+00
  0.00000000E+00  0.00000000E+00  0.00000000E+00
  0.00000000E+00  0.00000000E+00  0.00000000E+00
  0.00000000E+00  0.00000000E+00  0.00000000E+00
  0.00000000E+00  0.00000000E+00  0.00000000E+00
  0.00000000E+00  0.00000000E+00  0.00000000E+00
  0.00000000E+00  0.00000000E+00  0.00000000E+00
  0.00000000E+00  0.00000000E+00  0.00000000E+00
  0.00000000E+00  0.00000000E+00  0.00000000E+00
  0.00000000E+00  0.00000000E+00  0.00000000E+00
  0.00000000E+00  0.00000000E+00  0.00000000E+00
  0.00000000E+00  0.00000000E+00  0.00000000E+00
  0.00000000E+00  0.00000000E+00  0.00000000E+00
  0.00000000E+00  0.00000000E+00  0.00000000E+00
  0.00000000E+00  0.00000000E+00  0.00000000E+00
  0.00000000E+00  0.00000000E+00  0.00000000E+00
  0.00000000E+00  0.00000000E+00  0.00000000E+00
  0.00000000E+00  0.00000000E+00  0.00000000E+00
  0.00000000E+00  0.00000000E+00  0.00000000E+00
  0.00000000E+00  0.00000000E+00  0.00000000E+00
  0.00000000E+00  0.00000000E+00  0.00000000E+00
  0.00000000E+00  0.00000000E+00  0.00000000E+00
