Sc   Al   N                             
   1.00000000000000     
    -9.7388987784558712    0.0139123601988436   -0.0058842934582998
    -4.8810514276600347    8.4289434864879933   -0.0081516154058086
    -0.0070734287536236   -0.0206490846597114  -10.1413081771432516
   Sc   Al   N 
     8    28    36
Direct
  0.1095048403977188  0.0931503126681577  0.4182230083363905
  0.2212159434484064  0.2142900637651266  0.1515388593378262
  0.1088068246608174  0.0970146505409915  0.8831511982448461
  0.7798734184700393  0.4296307971243607  0.3886196873516354
  0.5564770048070358  0.5343574112278873  0.6488626689263413
  0.2192929420506289  0.8679951969882680  0.1474495814701484
  0.8882666635601950  0.8733128429874952  0.6452132781060484
  0.5604938962611854  0.8710462059248059  0.1493765881063709
  0.7714449922136168  0.0959853943745728  0.9084729823386581
  0.8797215973370456  0.2119070581470552  0.6626022193098748
  0.4481533196077336  0.0953881925576425  0.4131261908356905
  0.5574746526528997  0.2079366398113223  0.1552630787867955
  0.2274810940203125  0.2117864230272559  0.6586591749690669
  0.7706884447796227  0.0971718643952073  0.4020298377740872
  0.8826724090587703  0.2038679854175172  0.1506428891753728
  0.4504890735931184  0.0989624066725696  0.8999772523058098
  0.5524963256709086  0.2077228128846116  0.6556733746983099
  0.1136395280767744  0.4349902640886825  0.4102396319262951
  0.2196110867883121  0.5394810870419633  0.1549753628554100
  0.7734092786301332  0.4310514058200283  0.9130912558734536
  0.8916809556914984  0.5342513460286753  0.6586562483289171
  0.4370199540161437  0.4252254316703130  0.4027133768735212
  0.5515436286813937  0.5355883137280770  0.1560319402445316
  0.1117936498169314  0.4350639792066886  0.9026101058184892
  0.2243298028206553  0.5344227417814054  0.6569337366274013
  0.8947119702207047  0.5439762422968286  0.1517383586172016
  0.4443926283534836  0.4263063219045193  0.9081231732341095
  0.1172234825435581  0.7530378854354964  0.4058456278180032
  0.7816308129080625  0.7594135800823238  0.9044322163835119
  0.4406085462716121  0.7640617367977782  0.4100619465054933
  0.1101943966052232  0.7531886157404628  0.9067336082488922
  0.2279614817876023  0.8629045737671248  0.6625058970685984
  0.7776338711355564  0.7600291604800162  0.4076424897038606
  0.8888972198619953  0.8704026752330805  0.1567412397007075
  0.4507805729655843  0.7513484749886672  0.9043893705438109
  0.5531080553772654  0.8730746516220336  0.6570764629754180
  0.2297369349308056  0.2149705040877592  0.3634875581910890
  0.0934826549214520  0.1061460257738744  0.0934973178599705
  0.8612282092572556  0.2192097624921487  0.8494922692223597
  0.7659431845659981  0.1165799111601586  0.5910414657124576
  0.5534168395892607  0.2044055222643166  0.3452956483646616
  0.4552757580906501  0.1050455182208907  0.0856803798941996
  0.2343934650120545  0.2196724711983293  0.8466573972660001
  0.1103699479170075  0.0931080307045633  0.6345610792443637
  0.8824770032277485  0.1918400964146159  0.3364410078885527
  0.7757062543855682  0.0924556536745200  0.0983198716573099
  0.5571440545723618  0.2077924904691884  0.8448179172879264
  0.4486475725972596  0.0927041409581122  0.6031299171460702
  0.2215930527586281  0.5381324013807358  0.3446045475564148
  0.1041199639055961  0.4464320895187086  0.0887104162754184
  0.8884408140090088  0.5372011917223674  0.8496811817423549
  0.7996315036617148  0.4171257849311090  0.5970008383091283
  0.5342212601581480  0.5474223654604202  0.3498977185360559
  0.4429203427718065  0.4269607108108175  0.0992877857216925
  0.2247799745635319  0.5380785958979786  0.8461499231170322
  0.1093998881060756  0.4320140849071592  0.6008109988720918
  0.9029008308541009  0.5500263257223494  0.3400021928990071
  0.7771627462225155  0.4302075555238289  0.1087545447836220
  0.5578399239161058  0.5338308137005470  0.8576178077992651
  0.4330120228488781  0.4164886639050920  0.5909189854240395
  0.2273941604620475  0.8587520841213205  0.3557844805812636
  0.1005057212358622  0.7510700156238244  0.0948331846102732
  0.8885523945087286  0.8739386405688876  0.8542056985442059
  0.7689445046753036  0.7486294341525337  0.5966656927065728
  0.5543640137928065  0.8730328371732341  0.3601570875283713
  0.4558684455568951  0.7414822382265029  0.0896342014522986
  0.2337362674179246  0.8462916105930987  0.8518109290321334
  0.1317709951556836  0.7480912948489689  0.5947866823140089
  0.8880756971598629  0.8719781440908108  0.3558507945228726
  0.7947454960609832  0.7545703113589326  0.0918407627513105
  0.5563183149509712  0.8714047206354252  0.8507682891883945
  0.4360704612222293  0.7782394353390245  0.5983326662701458
 
  0.00000000E+00  0.00000000E+00  0.00000000E+00
  0.00000000E+00  0.00000000E+00  0.00000000E+00
  0.00000000E+00  0.00000000E+00  0.00000000E+00
  0.00000000E+00  0.00000000E+00  0.00000000E+00
  0.00000000E+00  0.00000000E+00  0.00000000E+00
  0.00000000E+00  0.00000000E+00  0.00000000E+00
  0.00000000E+00  0.00000000E+00  0.00000000E+00
  0.00000000E+00  0.00000000E+00  0.00000000E+00
  0.00000000E+00  0.00000000E+00  0.00000000E+00
  0.00000000E+00  0.00000000E+00  0.00000000E+00
  0.00000000E+00  0.00000000E+00  0.00000000E+00
  0.00000000E+00  0.00000000E+00  0.00000000E+00
  0.00000000E+00  0.00000000E+00  0.00000000E+00
  0.00000000E+00  0.00000000E+00  0.00000000E+00
  0.00000000E+00  0.00000000E+00  0.00000000E+00
  0.00000000E+00  0.00000000E+00  0.00000000E+00
  0.00000000E+00  0.00000000E+00  0.00000000E+00
  0.00000000E+00  0.00000000E+00  0.00000000E+00
  0.00000000E+00  0.00000000E+00  0.00000000E+00
  0.00000000E+00  0.00000000E+00  0.00000000E+00
  0.00000000E+00  0.00000000E+00  0.00000000E+00
  0.00000000E+00  0.00000000E+00  0.00000000E+00
  0.00000000E+00  0.00000000E+00  0.00000000E+00
  0.00000000E+00  0.00000000E+00  0.00000000E+00
  0.00000000E+00  0.00000000E+00  0.00000000E+00
  0.00000000E+00  0.00000000E+00  0.00000000E+00
  0.00000000E+00  0.00000000E+00  0.00000000E+00
  0.00000000E+00  0.00000000E+00  0.00000000E+00
  0.00000000E+00  0.00000000E+00  0.00000000E+00
  0.00000000E+00  0.00000000E+00  0.00000000E+00
  0.00000000E+00  0.00000000E+00  0.00000000E+00
  0.00000000E+00  0.00000000E+00  0.00000000E+00
  0.00000000E+00  0.00000000E+00  0.00000000E+00
  0.00000000E+00  0.00000000E+00  0.00000000E+00
  0.00000000E+00  0.00000000E+00  0.00000000E+00
  0.00000000E+00  0.00000000E+00  0.00000000E+00
  0.00000000E+00  0.00000000E+00  0.00000000E+00
  0.00000000E+00  0.00000000E+00  0.00000000E+00
  0.00000000E+00  0.00000000E+00  0.00000000E+00
  0.00000000E+00  0.00000000E+00  0.00000000E+00
  0.00000000E+00  0.00000000E+00  0.00000000E+00
  0.00000000E+00  0.00000000E+00  0.00000000E+00
  0.00000000E+00  0.00000000E+00  0.00000000E+00
  0.00000000E+00  0.00000000E+00  0.00000000E+00
  0.00000000E+00  0.00000000E+00  0.00000000E+00
  0.00000000E+00  0.00000000E+00  0.00000000E+00
  0.00000000E+00  0.00000000E+00  0.00000000E+00
  0.00000000E+00  0.00000000E+00  0.00000000E+00
  0.00000000E+00  0.00000000E+00  0.00000000E+00
  0.00000000E+00  0.00000000E+00  0.00000000E+00
  0.00000000E+00  0.00000000E+00  0.00000000E+00
  0.00000000E+00  0.00000000E+00  0.00000000E+00
  0.00000000E+00  0.00000000E+00  0.00000000E+00
  0.00000000E+00  0.00000000E+00  0.00000000E+00
  0.00000000E+00  0.00000000E+00  0.00000000E+00
  0.00000000E+00  0.00000000E+00  0.00000000E+00
  0.00000000E+00  0.00000000E+00  0.00000000E+00
  0.00000000E+00  0.00000000E+00  0.00000000E+00
  0.00000000E+00  0.00000000E+00  0.00000000E+00
  0.00000000E+00  0.00000000E+00  0.00000000E+00
  0.00000000E+00  0.00000000E+00  0.00000000E+00
  0.00000000E+00  0.00000000E+00  0.00000000E+00
  0.00000000E+00  0.00000000E+00  0.00000000E+00
  0.00000000E+00  0.00000000E+00  0.00000000E+00
  0.00000000E+00  0.00000000E+00  0.00000000E+00
  0.00000000E+00  0.00000000E+00  0.00000000E+00
  0.00000000E+00  0.00000000E+00  0.00000000E+00
  0.00000000E+00  0.00000000E+00  0.00000000E+00
  0.00000000E+00  0.00000000E+00  0.00000000E+00
  0.00000000E+00  0.00000000E+00  0.00000000E+00
  0.00000000E+00  0.00000000E+00  0.00000000E+00
  0.00000000E+00  0.00000000E+00  0.00000000E+00
