supercell of icsd_191774.cif            
   1.00000000000000     
    11.1334772518016312    0.0031032454244020    0.0266714409194406
    -5.5640664131174482    9.6226557199841523   -0.0022873683260911
     0.0306955256334830    0.0141052190640826   11.0625258010148269
   N    Y    In
    36    16    20
Direct
  0.2160798446219090  0.1150279639220457  0.4308674551609997
  0.0972943143012017  0.2179660648762507  0.1883913097903402
  0.8949371697057700  0.1059182857090022  0.9353205525769326
  0.7890998346673470  0.2274909774045568  0.7007317370038564
  0.5632632335425924  0.1142725307485861  0.4579232321978282
  0.4556660764739249  0.2250473730433029  0.2013199244428634
  0.2244622373852820  0.1123091168394836  0.9554331240104545
  0.1104424853160708  0.2151049859069332  0.6951788132290915
  0.8899214708250796  0.1108728952002593  0.4480267810860497
  0.7706100743108806  0.2083864411504308  0.1906379433841465
  0.5508302716508169  0.1160617204888865  0.9348670254073355
  0.4360377211511519  0.2269420823910338  0.6877815068779753
  0.2211240382937589  0.4396623623305587  0.4480041038861913
  0.1143357856910043  0.5640747784103439  0.2014857817361033
  0.8962279066830874  0.4437505481408195  0.9540249998285972
  0.7770909064905567  0.5540190250062054  0.7191169353984108
  0.5630736846515489  0.4492800463964457  0.4404076076374395
  0.4484979036279100  0.5501277221958318  0.1985028671806504
  0.2218377925455997  0.4467564098898436  0.9536309383659116
  0.1089100534781124  0.5581270811689762  0.6947890299604893
  0.8807975754083444  0.4381198164731401  0.4401607206283913
  0.7728573843551700  0.5526891276130854  0.1818018993822434
  0.5401360537176458  0.4356262594627438  0.9435624824563718
  0.4501481492066901  0.5604034018694222  0.6956701266071263
  0.2231649832133513  0.7820690361753151  0.4453871815182922
  0.1126231019637416  0.8840227630663406  0.1933679375101889
  0.8942745814080055  0.7868898670128530  0.9466575032628839
  0.7764785417916400  0.8871043916946633  0.6932109770224102
  0.5649915144190345  0.7828341648266104  0.4348524010640844
  0.4414422847737001  0.8957124856150784  0.1933248102133476
  0.2112047935285020  0.7729866256220532  0.9425612775629872
  0.1136285913416444  0.8931122547033610  0.7002940170324123
  0.8831227427644279  0.7758505721920272  0.4454820711189171
  0.7854732061228944  0.8991110289197835  0.1894604408140310
  0.5596647441013900  0.7746686787867674  0.9548464318678995
  0.4426785410737750  0.8815199770684501  0.7067359769716859
  0.2206848701221134  0.1125244616795769  0.2279071185102950
  0.7764440929967265  0.2130030768537452  0.9869744622055308
  0.4406215709409338  0.2255669509763365  0.4820490231200054
  0.5549156780019189  0.1170990971786310  0.7326305702622875
  0.2198304098926442  0.4406782868296872  0.2403710496479405
  0.1057030475724190  0.5530796010087187  0.4894025119833643
  0.7726965838787336  0.5543077754049150  0.9766484551355390
  0.4509302886090794  0.5590544697243658  0.4889055789968353
  0.2222252100175908  0.4443084356937703  0.7467221067510437
  0.8814633869392736  0.4376287234811116  0.2352260239531248
  0.7769647728465259  0.5539136466267962  0.5076430890910046
  0.1087004748826601  0.8949618603921081  0.4946597987782297
  0.5597653484227010  0.7828473618313225  0.2311389094339873
  0.4481113883310215  0.8855113681908975  0.4970668237448521
  0.8859769040266343  0.7758663954663731  0.2394943073994682
  0.4384290972371616  0.8897255643677937  0.9857938961060455
  0.1102358360457600  0.2197544777045266  0.4962392818120307
  0.8928249927647727  0.1072893560204378  0.7410580718201984
  0.5589179720377828  0.1099829744871172  0.2513631890204522
  0.2225001750473155  0.1122167199606068  0.7540146377666304
  0.1066008726011773  0.2196467798374329  0.9944115469833221
  0.8858264679584522  0.1098692847167158  0.2495161474977436
  0.7843544252261552  0.2243438058078979  0.4988304433393935
  0.4467821316910658  0.2223507556855751  0.9998772806698213
  0.8962829744241390  0.4462823057505645  0.7540582342671414
  0.5627869985025598  0.4461916557631653  0.2435586235351934
  0.1122664806702502  0.5592152339117931  0.0020108292149743
  0.5464358443099329  0.4413468705432209  0.7485805731032897
  0.4426349550596740  0.5503877587751660  0.9998781270434733
  0.2246358986407913  0.7829399444547960  0.2477939701788046
  0.8926135665269754  0.7848121821578289  0.7498276519976770
  0.7852088547088556  0.8937306147536006  0.9952728606900365
  0.2164305167572493  0.7749599751660838  0.7469402773183162
  0.1098966853565884  0.8870676826379196  0.9955367164915074
  0.7776921697285601  0.8888451097662298  0.4951152985451586
  0.5591794626202500  0.7747705740716526  0.7534645893903331
 
  0.00000000E+00  0.00000000E+00  0.00000000E+00
  0.00000000E+00  0.00000000E+00  0.00000000E+00
  0.00000000E+00  0.00000000E+00  0.00000000E+00
  0.00000000E+00  0.00000000E+00  0.00000000E+00
  0.00000000E+00  0.00000000E+00  0.00000000E+00
  0.00000000E+00  0.00000000E+00  0.00000000E+00
  0.00000000E+00  0.00000000E+00  0.00000000E+00
  0.00000000E+00  0.00000000E+00  0.00000000E+00
  0.00000000E+00  0.00000000E+00  0.00000000E+00
  0.00000000E+00  0.00000000E+00  0.00000000E+00
  0.00000000E+00  0.00000000E+00  0.00000000E+00
  0.00000000E+00  0.00000000E+00  0.00000000E+00
  0.00000000E+00  0.00000000E+00  0.00000000E+00
  0.00000000E+00  0.00000000E+00  0.00000000E+00
  0.00000000E+00  0.00000000E+00  0.00000000E+00
  0.00000000E+00  0.00000000E+00  0.00000000E+00
  0.00000000E+00  0.00000000E+00  0.00000000E+00
  0.00000000E+00  0.00000000E+00  0.00000000E+00
  0.00000000E+00  0.00000000E+00  0.00000000E+00
  0.00000000E+00  0.00000000E+00  0.00000000E+00
  0.00000000E+00  0.00000000E+00  0.00000000E+00
  0.00000000E+00  0.00000000E+00  0.00000000E+00
  0.00000000E+00  0.00000000E+00  0.00000000E+00
  0.00000000E+00  0.00000000E+00  0.00000000E+00
  0.00000000E+00  0.00000000E+00  0.00000000E+00
  0.00000000E+00  0.00000000E+00  0.00000000E+00
  0.00000000E+00  0.00000000E+00  0.00000000E+00
  0.00000000E+00  0.00000000E+00  0.00000000E+00
  0.00000000E+00  0.00000000E+00  0.00000000E+00
  0.00000000E+00  0.00000000E+00  0.00000000E+00
  0.00000000E+00  0.00000000E+00  0.00000000E+00
  0.00000000E+00  0.00000000E+00  0.00000000E+00
  0.00000000E+00  0.00000000E+00  0.00000000E+00
  0.00000000E+00  0.00000000E+00  0.00000000E+00
  0.00000000E+00  0.00000000E+00  0.00000000E+00
  0.00000000E+00  0.00000000E+00  0.00000000E+00
  0.00000000E+00  0.00000000E+00  0.00000000E+00
  0.00000000E+00  0.00000000E+00  0.00000000E+00
  0.00000000E+00  0.00000000E+00  0.00000000E+00
  0.00000000E+00  0.00000000E+00  0.00000000E+00
  0.00000000E+00  0.00000000E+00  0.00000000E+00
  0.00000000E+00  0.00000000E+00  0.00000000E+00
  0.00000000E+00  0.00000000E+00  0.00000000E+00
  0.00000000E+00  0.00000000E+00  0.00000000E+00
  0.00000000E+00  0.00000000E+00  0.00000000E+00
  0.00000000E+00  0.00000000E+00  0.00000000E+00
  0.00000000E+00  0.00000000E+00  0.00000000E+00
  0.00000000E+00  0.00000000E+00  0.00000000E+00
  0.00000000E+00  0.00000000E+00  0.00000000E+00
  0.00000000E+00  0.00000000E+00  0.00000000E+00
  0.00000000E+00  0.00000000E+00  0.00000000E+00
  0.00000000E+00  0.00000000E+00  0.00000000E+00
  0.00000000E+00  0.00000000E+00  0.00000000E+00
  0.00000000E+00  0.00000000E+00  0.00000000E+00
  0.00000000E+00  0.00000000E+00  0.00000000E+00
  0.00000000E+00  0.00000000E+00  0.00000000E+00
  0.00000000E+00  0.00000000E+00  0.00000000E+00
  0.00000000E+00  0.00000000E+00  0.00000000E+00
  0.00000000E+00  0.00000000E+00  0.00000000E+00
  0.00000000E+00  0.00000000E+00  0.00000000E+00
  0.00000000E+00  0.00000000E+00  0.00000000E+00
  0.00000000E+00  0.00000000E+00  0.00000000E+00
  0.00000000E+00  0.00000000E+00  0.00000000E+00
  0.00000000E+00  0.00000000E+00  0.00000000E+00
  0.00000000E+00  0.00000000E+00  0.00000000E+00
  0.00000000E+00  0.00000000E+00  0.00000000E+00
  0.00000000E+00  0.00000000E+00  0.00000000E+00
  0.00000000E+00  0.00000000E+00  0.00000000E+00
  0.00000000E+00  0.00000000E+00  0.00000000E+00
  0.00000000E+00  0.00000000E+00  0.00000000E+00
  0.00000000E+00  0.00000000E+00  0.00000000E+00
  0.00000000E+00  0.00000000E+00  0.00000000E+00
