generated by phonopy                    
   1.00000000000000     
    10.0351470768999995   -0.0000022330999784   -0.0000001056124209
    -5.0175765436399997    8.6906901959899994    0.0000001395531216
    -0.0000001735893656    0.0000001431815548   14.9533752540999991
   Pb   P    O 
    20    12    49
Direct
  0.9853425447520436  0.7666362490232785  0.1232890066233168
  0.9959821584925947  0.7710779791716718  0.6229605144512362
  0.0040191851369684  0.2628846757811161  0.3723992215945984
  0.0039553571567978  0.2621832308255634  0.8745180271393380
  0.2264064905373004  0.2233788702626853  0.1229293327386074
  0.2293175269136469  0.2248060592759202  0.6230373355572425
  0.7347370419851842  0.7391865656787928  0.3686563173656054
  0.7345260499149475  0.7392313967966970  0.8784266494254709
  0.7733043842568534  0.0033480942014634  0.1227517762240922
  0.7747756579753613  0.0038610586557510  0.6229992881945492
  0.2612607202728938  0.9963124528945357  0.3726178343595876
  0.2614286286049818  0.9967293679195919  0.8742356241603346
  0.6632175913951386  0.3398968484157834  0.0033806817433799
  0.6693359395023251  0.3350964198702258  0.5010010179906672
  0.3255504535196252  0.6682385273713578  0.0022843734602489
  0.3378806037303832  0.6679577758384525  0.5042630763631664
  0.3281242183628308  0.6677839099747374  0.2447563200940550
  0.3386000080821532  0.6680934457761722  0.7430351666237698
  0.6630771948651244  0.3391942483690400  0.2453665910123703
  0.6692716414049684  0.3350233843383990  0.7477422513192664
  0.6066038263892111  0.5996648945640857  0.1240607502486313
  0.6251099983083961  0.5929358777447717  0.6240574867225561
  0.3660300630605704  0.3948236959683129  0.3739614202035426
  0.3660403808656838  0.3948096615610410  0.8741554312813662
  0.4066010400621565  0.0307594829329148  0.1240896767402617
  0.4078486966513566  0.0295457000569073  0.6242039446538143
  0.6045170155780539  0.9718062182608094  0.3736598308708707
  0.6047002655014353  0.9718655292598584  0.8741846806305205
  0.9716640585686562  0.3750032099775780  0.1240561902641133
  0.9725645335031246  0.3771925052684821  0.6241466582858024
  0.0319338200575459  0.6331692419461632  0.3716812625232038
  0.0320230829942716  0.6328320838445549  0.8761283351231555
  0.5018631525715875  0.6449416499455722  0.6236540370470678
  0.4698265200637195  0.3208090356798650  0.3745054432134651
  0.4697496870936675  0.3205946931538435  0.8743566161976659
  0.3599553539078784  0.8569258990194157  0.1237532901281071
  0.3592219304828674  0.8554284708431723  0.6237989990985113
  0.6773705766685296  0.1489704086903174  0.3751257161635095
  0.6778745797775017  0.1490944407885877  0.8730831566204600
  0.1458338692144565  0.5022616608476724  0.1237601130658916
  0.1474214573183161  0.4999885777590407  0.6237943758723219
  0.8543509347233922  0.5309076549485141  0.3712722080835746
  0.8544916385297654  0.5314445227205411  0.8775231317535130
  0.7233680299241456  0.6547739714840830  0.0395838230152208
  0.7304948632343624  0.6532577833587041  0.5391776612183179
  0.2599568254114146  0.3509846176925535  0.4582979997501653
  0.2582528197647846  0.3481859961037657  0.9579775731188178
  0.3436262591043331  0.0737152526745177  0.0394979506422928
  0.3454367550586710  0.0726004294759193  0.5393272439976897
  0.6418094482766676  0.9062891371214974  0.4589770583127688
  0.6567967392438021  0.9131064860469564  0.9568957410509000
  0.9299396123796058  0.2696005720790566  0.0394806202275362
  0.9268792406120667  0.2713705231354950  0.5392107967462678
  0.0936585298693799  0.7392464821948010  0.4558220700790159
  0.0984565652181004  0.7384661294734443  0.9609684228164070
  0.2569670867361893  0.3456974686016494  0.2907040662486367
  0.2584702621482577  0.3479341411837780  0.7903669282210757
  0.7251417626452081  0.6577990604124224  0.2080938290075451
  0.7314881095085752  0.6560599073374149  0.7084593363346983
  0.6585124365075501  0.9137968914394463  0.2914560307855680
  0.6436893846331486  0.9067874324337950  0.7893446254482726
  0.3416233326309666  0.0721993074462333  0.2083692766408305
  0.3432922134364063  0.0710249986635390  0.7087275697129982
  0.0959915498068895  0.7410170129131401  0.2877241914984978
  0.0925561977591727  0.7410266461583888  0.7928557311661280
  0.9315912880234691  0.2686382366214914  0.2081106444640426
  0.9285414343463003  0.2701309027448744  0.7084000432579032
  0.5382618139067787  0.4157432103175225  0.1248622448801271
  0.5440320450981986  0.4123844043165761  0.6249186223719079
  0.4705051933792959  0.5770176526220965  0.3720433298320103
  0.4704978440716232  0.5768303638990631  0.8740469828366031
  0.5866814958264115  0.1341140249322024  0.1247101940248356
  0.5881367566200666  0.1325046328911839  0.6248957702600038
  0.4219290886789651  0.8926812043868750  0.3671112219871020
  0.4220096080992093  0.8930341256604777  0.8793380564089048
  0.8691676776413217  0.4525260690723343  0.1248606380065880
  0.8721446660528613  0.4572803943766885  0.6250091165820848
  0.1094136988328458  0.5280588471622565  0.3694219468116557
  0.1088647100519040  0.5271352145360524  0.8759246083510916
  0.9958888675058759  0.9979888674819719  0.1199978217633344
  0.9998285100512732  0.9996460173417745  0.6203504493671730
 
  0.00000000E+00  0.00000000E+00  0.00000000E+00
  0.00000000E+00  0.00000000E+00  0.00000000E+00
  0.00000000E+00  0.00000000E+00  0.00000000E+00
  0.00000000E+00  0.00000000E+00  0.00000000E+00
  0.00000000E+00  0.00000000E+00  0.00000000E+00
  0.00000000E+00  0.00000000E+00  0.00000000E+00
  0.00000000E+00  0.00000000E+00  0.00000000E+00
  0.00000000E+00  0.00000000E+00  0.00000000E+00
  0.00000000E+00  0.00000000E+00  0.00000000E+00
  0.00000000E+00  0.00000000E+00  0.00000000E+00
  0.00000000E+00  0.00000000E+00  0.00000000E+00
  0.00000000E+00  0.00000000E+00  0.00000000E+00
  0.00000000E+00  0.00000000E+00  0.00000000E+00
  0.00000000E+00  0.00000000E+00  0.00000000E+00
  0.00000000E+00  0.00000000E+00  0.00000000E+00
  0.00000000E+00  0.00000000E+00  0.00000000E+00
  0.00000000E+00  0.00000000E+00  0.00000000E+00
  0.00000000E+00  0.00000000E+00  0.00000000E+00
  0.00000000E+00  0.00000000E+00  0.00000000E+00
  0.00000000E+00  0.00000000E+00  0.00000000E+00
  0.00000000E+00  0.00000000E+00  0.00000000E+00
  0.00000000E+00  0.00000000E+00  0.00000000E+00
  0.00000000E+00  0.00000000E+00  0.00000000E+00
  0.00000000E+00  0.00000000E+00  0.00000000E+00
  0.00000000E+00  0.00000000E+00  0.00000000E+00
  0.00000000E+00  0.00000000E+00  0.00000000E+00
  0.00000000E+00  0.00000000E+00  0.00000000E+00
  0.00000000E+00  0.00000000E+00  0.00000000E+00
  0.00000000E+00  0.00000000E+00  0.00000000E+00
  0.00000000E+00  0.00000000E+00  0.00000000E+00
  0.00000000E+00  0.00000000E+00  0.00000000E+00
  0.00000000E+00  0.00000000E+00  0.00000000E+00
  0.00000000E+00  0.00000000E+00  0.00000000E+00
  0.00000000E+00  0.00000000E+00  0.00000000E+00
  0.00000000E+00  0.00000000E+00  0.00000000E+00
  0.00000000E+00  0.00000000E+00  0.00000000E+00
  0.00000000E+00  0.00000000E+00  0.00000000E+00
  0.00000000E+00  0.00000000E+00  0.00000000E+00
  0.00000000E+00  0.00000000E+00  0.00000000E+00
  0.00000000E+00  0.00000000E+00  0.00000000E+00
  0.00000000E+00  0.00000000E+00  0.00000000E+00
  0.00000000E+00  0.00000000E+00  0.00000000E+00
  0.00000000E+00  0.00000000E+00  0.00000000E+00
  0.00000000E+00  0.00000000E+00  0.00000000E+00
  0.00000000E+00  0.00000000E+00  0.00000000E+00
  0.00000000E+00  0.00000000E+00  0.00000000E+00
  0.00000000E+00  0.00000000E+00  0.00000000E+00
  0.00000000E+00  0.00000000E+00  0.00000000E+00
  0.00000000E+00  0.00000000E+00  0.00000000E+00
  0.00000000E+00  0.00000000E+00  0.00000000E+00
  0.00000000E+00  0.00000000E+00  0.00000000E+00
  0.00000000E+00  0.00000000E+00  0.00000000E+00
  0.00000000E+00  0.00000000E+00  0.00000000E+00
  0.00000000E+00  0.00000000E+00  0.00000000E+00
  0.00000000E+00  0.00000000E+00  0.00000000E+00
  0.00000000E+00  0.00000000E+00  0.00000000E+00
  0.00000000E+00  0.00000000E+00  0.00000000E+00
  0.00000000E+00  0.00000000E+00  0.00000000E+00
  0.00000000E+00  0.00000000E+00  0.00000000E+00
  0.00000000E+00  0.00000000E+00  0.00000000E+00
  0.00000000E+00  0.00000000E+00  0.00000000E+00
  0.00000000E+00  0.00000000E+00  0.00000000E+00
  0.00000000E+00  0.00000000E+00  0.00000000E+00
  0.00000000E+00  0.00000000E+00  0.00000000E+00
  0.00000000E+00  0.00000000E+00  0.00000000E+00
  0.00000000E+00  0.00000000E+00  0.00000000E+00
  0.00000000E+00  0.00000000E+00  0.00000000E+00
  0.00000000E+00  0.00000000E+00  0.00000000E+00
  0.00000000E+00  0.00000000E+00  0.00000000E+00
  0.00000000E+00  0.00000000E+00  0.00000000E+00
  0.00000000E+00  0.00000000E+00  0.00000000E+00
  0.00000000E+00  0.00000000E+00  0.00000000E+00
  0.00000000E+00  0.00000000E+00  0.00000000E+00
  0.00000000E+00  0.00000000E+00  0.00000000E+00
  0.00000000E+00  0.00000000E+00  0.00000000E+00
  0.00000000E+00  0.00000000E+00  0.00000000E+00
  0.00000000E+00  0.00000000E+00  0.00000000E+00
  0.00000000E+00  0.00000000E+00  0.00000000E+00
  0.00000000E+00  0.00000000E+00  0.00000000E+00
  0.00000000E+00  0.00000000E+00  0.00000000E+00
  0.00000000E+00  0.00000000E+00  0.00000000E+00
