supercell of icsd_191774.cif            
   1.00000000000000     
    10.6176702931104661    0.0027107199491319    0.0051691448391031
    -5.3064877913503326    9.1914963022884333   -0.0001308578185489
     0.0057094826977477    0.0030634660816449   11.1582020341384691
   N    In   Sc
    36    26    10
Direct
  0.2225861292119831  0.1119884065559873  0.4395074195231814
  0.1114950578040421  0.2260465839539805  0.1867004936351080
  0.8922573061353702  0.1131032698815133  0.9409121356124004
  0.7771585208222902  0.2219342850319350  0.6838713103647365
  0.5603556901538695  0.1144131274213578  0.4353575212914862
  0.4464425362401983  0.2199090490213038  0.1859096516317962
  0.2236171579753687  0.1147340815688196  0.9466996856405032
  0.1119228642091770  0.2230296163233234  0.6921964552359441
  0.8855534874210846  0.1097462406486684  0.4454613450717915
  0.7731434574870946  0.2192672931909740  0.1950676238753175
  0.5531924775919421  0.1127613919050248  0.9441575076532871
  0.4441303449445968  0.2221990839242594  0.6918142268339906
  0.2226443397464948  0.4443313841607690  0.4318675016372211
  0.1158732966073615  0.5578490848347570  0.1878296268815447
  0.8928701455987991  0.4452218171857680  0.9431670677190098
  0.7795570214573146  0.5588793833234575  0.6944090090809070
  0.5562286618325771  0.4450708870970956  0.4392492302255349
  0.4404977325548103  0.5538262752594605  0.1866413497952593
  0.2224001592719134  0.4440403171503604  0.9510515773902384
  0.1119752457474092  0.5552875289311672  0.6913425101380710
  0.8881534710758103  0.4410443033231815  0.4428437629757980
  0.7789171686691176  0.5558810956934508  0.1909635332908763
  0.5514080727509949  0.4424457825546995  0.9463073940311091
  0.4434814716350317  0.5545342044437760  0.6921792053692570
  0.2221979735639366  0.7780708004120029  0.4348892220332630
  0.1124804931212893  0.8860047156499817  0.1931215227149750
  0.8890130823061142  0.7779069100252869  0.9336072167030522
  0.7797483061661623  0.8861656199119921  0.6867052860962914
  0.5596116139697074  0.7794915319088815  0.4433382711931344
  0.4423981181684695  0.8905922407341009  0.1964880619219969
  0.2204780398095707  0.7730033662087976  0.9448375890192295
  0.1079714619515286  0.8871926589955237  0.6936578223774745
  0.8871028214558692  0.7809609805997795  0.4454319702599321
  0.7774730629851874  0.8887134956100198  0.1917913638464412
  0.5532821740310112  0.7743283070020865  0.9424605253202145
  0.4444532142549633  0.8889274390529138  0.6897833478385280
  0.2223422618285440  0.1121881110939213  0.2457053421439639
  0.1110275748271619  0.2236517490394760  0.4980739857246945
  0.8868680857709279  0.1095992807128354  0.7467385387559986
  0.7776458721424646  0.2215247828552620  0.0006230187759115
  0.4453944005016908  0.2219658834428486  0.4976966877040994
  0.2218237984049338  0.1101945828154456  0.7517181732284826
  0.8901264338307229  0.1120168759467006  0.2507411830994073
  0.5566333042995737  0.1111911981439988  0.7496748617872910
  0.1126836515372887  0.5556386646579128  0.4972053251826907
  0.8879622184504186  0.4426557844346490  0.7489177594776137
  0.7778628628561037  0.5559893274447774  0.9973688492414254
  0.5544854557429133  0.4437655768257187  0.2456223461099043
  0.4426786777990657  0.5545518855580340  0.4981317003356125
  0.2221619243066186  0.4443797011942152  0.7543403941405415
  0.8920966394563621  0.4456191936025391  0.2485441510345794
  0.7782188068235953  0.5553982326463398  0.4996714324533897
  0.5561894568329890  0.4445513738619837  0.7515045742365274
  0.1120235913531999  0.8893094281028624  0.4990080982893872
  0.7780273690001493  0.8888563569915178  0.9978047821354821
  0.5535933271572020  0.7763662767579262  0.2491910989450119
  0.4448183285634926  0.8905861897816223  0.4957596054417124
  0.2227885422434781  0.7783560317132014  0.7504903561527385
  0.1098704345725423  0.8885404565361483  0.9989632409624107
  0.8895529233595312  0.7780547996631455  0.2509987444281307
  0.5571458184443472  0.7788671990331579  0.7483037158610060
  0.4444651658410734  0.8886200713925234  0.0015895214123276
  0.5540708264746357  0.1114531006724206  0.2463936860128442
  0.1097949900007933  0.2216020491793955  0.9984962240769093
  0.7766439488891805  0.2218237105412797  0.4951776562360806
  0.4433946875113293  0.2228232510696202  0.9977115642236924
  0.2225488175155945  0.4451969379527299  0.2429677306377585
  0.1104519783992899  0.5548651789966144  0.9991451452119620
  0.4447145276965401  0.5560366142250430  0.9984366342204325
  0.2220821479349482  0.7770831329561503  0.2464131240674305
  0.8887826525969231  0.7781601206032249  0.7452783197573538
  0.7769563183059489  0.8896143300583077  0.4977730842662922
 
  0.00000000E+00  0.00000000E+00  0.00000000E+00
  0.00000000E+00  0.00000000E+00  0.00000000E+00
  0.00000000E+00  0.00000000E+00  0.00000000E+00
  0.00000000E+00  0.00000000E+00  0.00000000E+00
  0.00000000E+00  0.00000000E+00  0.00000000E+00
  0.00000000E+00  0.00000000E+00  0.00000000E+00
  0.00000000E+00  0.00000000E+00  0.00000000E+00
  0.00000000E+00  0.00000000E+00  0.00000000E+00
  0.00000000E+00  0.00000000E+00  0.00000000E+00
  0.00000000E+00  0.00000000E+00  0.00000000E+00
  0.00000000E+00  0.00000000E+00  0.00000000E+00
  0.00000000E+00  0.00000000E+00  0.00000000E+00
  0.00000000E+00  0.00000000E+00  0.00000000E+00
  0.00000000E+00  0.00000000E+00  0.00000000E+00
  0.00000000E+00  0.00000000E+00  0.00000000E+00
  0.00000000E+00  0.00000000E+00  0.00000000E+00
  0.00000000E+00  0.00000000E+00  0.00000000E+00
  0.00000000E+00  0.00000000E+00  0.00000000E+00
  0.00000000E+00  0.00000000E+00  0.00000000E+00
  0.00000000E+00  0.00000000E+00  0.00000000E+00
  0.00000000E+00  0.00000000E+00  0.00000000E+00
  0.00000000E+00  0.00000000E+00  0.00000000E+00
  0.00000000E+00  0.00000000E+00  0.00000000E+00
  0.00000000E+00  0.00000000E+00  0.00000000E+00
  0.00000000E+00  0.00000000E+00  0.00000000E+00
  0.00000000E+00  0.00000000E+00  0.00000000E+00
  0.00000000E+00  0.00000000E+00  0.00000000E+00
  0.00000000E+00  0.00000000E+00  0.00000000E+00
  0.00000000E+00  0.00000000E+00  0.00000000E+00
  0.00000000E+00  0.00000000E+00  0.00000000E+00
  0.00000000E+00  0.00000000E+00  0.00000000E+00
  0.00000000E+00  0.00000000E+00  0.00000000E+00
  0.00000000E+00  0.00000000E+00  0.00000000E+00
  0.00000000E+00  0.00000000E+00  0.00000000E+00
  0.00000000E+00  0.00000000E+00  0.00000000E+00
  0.00000000E+00  0.00000000E+00  0.00000000E+00
  0.00000000E+00  0.00000000E+00  0.00000000E+00
  0.00000000E+00  0.00000000E+00  0.00000000E+00
  0.00000000E+00  0.00000000E+00  0.00000000E+00
  0.00000000E+00  0.00000000E+00  0.00000000E+00
  0.00000000E+00  0.00000000E+00  0.00000000E+00
  0.00000000E+00  0.00000000E+00  0.00000000E+00
  0.00000000E+00  0.00000000E+00  0.00000000E+00
  0.00000000E+00  0.00000000E+00  0.00000000E+00
  0.00000000E+00  0.00000000E+00  0.00000000E+00
  0.00000000E+00  0.00000000E+00  0.00000000E+00
  0.00000000E+00  0.00000000E+00  0.00000000E+00
  0.00000000E+00  0.00000000E+00  0.00000000E+00
  0.00000000E+00  0.00000000E+00  0.00000000E+00
  0.00000000E+00  0.00000000E+00  0.00000000E+00
  0.00000000E+00  0.00000000E+00  0.00000000E+00
  0.00000000E+00  0.00000000E+00  0.00000000E+00
  0.00000000E+00  0.00000000E+00  0.00000000E+00
  0.00000000E+00  0.00000000E+00  0.00000000E+00
  0.00000000E+00  0.00000000E+00  0.00000000E+00
  0.00000000E+00  0.00000000E+00  0.00000000E+00
  0.00000000E+00  0.00000000E+00  0.00000000E+00
  0.00000000E+00  0.00000000E+00  0.00000000E+00
  0.00000000E+00  0.00000000E+00  0.00000000E+00
  0.00000000E+00  0.00000000E+00  0.00000000E+00
  0.00000000E+00  0.00000000E+00  0.00000000E+00
  0.00000000E+00  0.00000000E+00  0.00000000E+00
  0.00000000E+00  0.00000000E+00  0.00000000E+00
  0.00000000E+00  0.00000000E+00  0.00000000E+00
  0.00000000E+00  0.00000000E+00  0.00000000E+00
  0.00000000E+00  0.00000000E+00  0.00000000E+00
  0.00000000E+00  0.00000000E+00  0.00000000E+00
  0.00000000E+00  0.00000000E+00  0.00000000E+00
  0.00000000E+00  0.00000000E+00  0.00000000E+00
  0.00000000E+00  0.00000000E+00  0.00000000E+00
  0.00000000E+00  0.00000000E+00  0.00000000E+00
  0.00000000E+00  0.00000000E+00  0.00000000E+00
