POSCAR                                  
   1.03200000000000     
    -6.3228454402800001    5.4718015345600000   -4.9878677873599999
     1.6347175132800000    8.3185998481199999    5.0407918649100001
     6.3977755141400001    5.5284720190199996  -10.0081483245000005
   Al   Tb   N 
    42    12    54
Direct
  0.6575153449162059  0.2824803792309893  0.5779048264693856
  0.3483393362701221  0.3574951331408016  0.7619953358593321
  0.3163699300400111  0.6420563233647698  0.9108339681198458
  0.5682860974718480  0.8313857078862128  0.8759412969651947
  0.5121232957647095  0.3377530386563095  0.1691183480832237
  0.8992909909539648  0.4686343769111616  0.5398258529193214
  0.7648786411822499  0.5290949923480710  0.1352341382164752
  0.4774982484518162  0.5949318026314145  0.3005259997567293
  0.7268173796782236  0.7776814907700214  0.2683842424384721
  0.1276771363558424  0.9337559036278620  0.6559433262245875
  0.8282583643340260  0.0031811078451298  0.8369156289516937
  0.6928560298212361  0.0296320356618551  0.4210432867265013
  0.3728725848692989  0.1175809549716718  0.6208626228582830
  0.0861704820928821  0.1721665097506886  0.7989578951500533
  0.7994269204685907  0.2457073807047720  0.9785498217963067
  0.0204060676534397  0.7076301683838579  0.0892947239509496
  0.2859757959796241  0.8880167318954051  0.0493765966492106
  0.5446326855106207  0.0655056119283373  0.0145818701008551
  0.2486327683056473  0.1354115816559371  0.1997081862556911
  0.9287873297542291  0.2237794269355788  0.3960969289562826
  0.9272271745744618  0.1759520153181597  0.6305282104373049
  0.6353820538354142  0.2359346497087529  0.8068590612982902
  0.8818472078001420  0.4265483404557386  0.7720540637840756
  0.8478425494135919  0.7199978505848534  0.9360940219368601
  0.7792188689613226  0.2202394001044539  0.2122622862628845
  0.1639371645144792  0.3592461035402295  0.6091432601344025
  0.7425317415448731  0.4868254155905802  0.3739862171816810
  0.1469464529199982  0.6339730158882873  0.7455745847652011
  0.9921776971586027  0.6791097152048380  0.3279038527278644
  0.7144517522936482  0.7471752687036073  0.5113954539578955
  0.4010258907910398  0.8282883762618880  0.7099869738305458
  0.1111247998906748  0.8887238493455598  0.8878377252566594
  0.9525747227386390  0.9408267237217771  0.4847013675622236
  0.6623835771054232  0.9977727547387474  0.6610311113179037
  0.3723297350264261  0.0672946829521450  0.8488647917770464
  0.0731463227454867  0.1337698402998697  0.0297486850425912
  0.2964643125379638  0.6096825326956576  0.1555587807840340
  0.5581635460063623  0.7880173946301881  0.1105966981103776
  0.2698896909103965  0.8600413285619837  0.2869877191019725
  0.8148433808656321  0.9646726320745387  0.0709071063446487
  0.5237443193506763  0.0381890799104312  0.2478587785688262
  0.2092225872942848  0.1069701351651986  0.4435454095682729
  0.0595336820802359  0.4432047679050370  0.9321966804747390
  0.5876254874449316  0.5486936142339189  0.7248180355326284
  0.2189301422078600  0.3969351519678170  0.3620909342243266
  0.1456016845643333  0.6750624893270185  0.4906497735728053
  0.8707439032480906  0.7313547875492361  0.7019034041351588
  0.4335673183844193  0.8574563929559318  0.4687357279296052
  0.9866978226302265  0.9640191034610481  0.2480643070539728
  0.3519560785520852  0.3187722835164877  0.0038424590549013
  0.6050160674730733  0.5205931856807879  0.9723069424898512
  0.5075620066433260  0.2749327651226281  0.4160621398422677
  0.0405350476802795  0.4047034707067496  0.1956670044355207
  0.4291720505483809  0.5513521459297195  0.5573528066079234
  0.6097589119822189  0.4124256552596890  0.4873916140060714
  0.2477840926921218  0.4678203518081645  0.6841224816772424
  0.9579915464347550  0.5805522710836115  0.8330497570464743
  0.5326889283221021  0.7086251536878976  0.6095544448531456
  0.2427011988767305  0.7443805426611334  0.8117959150798058
  0.5048753273039139  0.9318358152886432  0.7691826844963785
  0.4184905827606471  0.4590012714355964  0.0964163260368025
  0.1417186832254984  0.5537676495448807  0.2661559510313936
  0.8452753567050308  0.5955413442526307  0.4389429633959168
  0.7024203527858290  0.6540642120686186  0.0465851043342056
  0.4016569841346680  0.7164887995888662  0.2120622655140423
  0.0767502268333615  0.8189896733426707  0.3787902478981806
  0.7959663252956375  0.8618147938812371  0.5795883640971695
  0.6515982624200660  0.8951211446700569  0.1745916842115633
  0.3515463272055541  0.9852035787132323  0.3513137963434119
  0.0582612490106271  0.0339509305133561  0.5515953816666368
  0.7664707444197845  0.1005836147988077  0.7259454241272607
  0.6383593292224248  0.1228671387027305  0.3076519823063038
  0.2901324690048241  0.2216356533403427  0.5215699791252675
  0.0123616247793521  0.2821697865811075  0.7053780401956899
  0.7313460411287309  0.3459786509010527  0.8719286313977364
  0.9537341793632450  0.8239180377251074  0.9933560510388020
  0.2114977264513414  0.9948411130093717  0.9509815076859525
  0.9038191081157692  0.0846489269455759  0.1277313239835109
  0.4879047788283586  0.1565822715720415  0.9065534348824897
  0.1628501951104084  0.2314446590050920  0.1027239605652923
  0.8452806418817289  0.3283823091968330  0.3016879107079049
  0.8582644790353058  0.2891970941797695  0.5350350275198821
  0.5495100758651361  0.3344877658219119  0.7135093556881316
  0.2961541257104940  0.4610389485161477  0.8866094755950940
  0.8149913040826746  0.5293713787155525  0.6758859672186404
  0.5117225067187121  0.6614131137586767  0.8731528026133546
  0.7641198374750431  0.8338661111584145  0.8509653980706062
  0.7158403336994041  0.3444493635134052  0.1121446262471295
  0.4510041539540737  0.4130237107083019  0.3010177221337074
  0.0928358751071912  0.4672676311063597  0.5180495243114009
  0.9623713953645634  0.5353331795649581  0.0855404270580564
  0.6765131946352767  0.5976925329226077  0.2735952985835794
  0.3745925691818996  0.6636614252922755  0.4311516117972616
  0.1031384939083608  0.7542274287210518  0.6478350045005783
  0.9237609177214026  0.7649161644621287  0.2247753250274229
  0.6687149982840879  0.8519633846591503  0.4040114629999607
  0.3204349349093434  0.9473277462590346  0.6273228970957945
  0.0319604802019384  0.9982137397891009  0.7934706541702141
  0.8752207505189915  0.0569917004702631  0.4034388740524903
  0.5828355441478124  0.1126005204786580  0.5590134016888797
  0.2892254308480844  0.1847489211527531  0.7608681373187309
  0.9996752532942068  0.2374699859814626  0.9338141927016039
  0.2254039696176022  0.7091023674197530  0.0507557201458013
  0.4852784757676076  0.8937921454556701  0.0137953741563024
  0.2208299289103621  0.9613102476034143  0.1818895424667275
  0.7427746150230234  0.0736708268869748  0.9750649175253017
  0.4539518225801160  0.1604708861705149  0.1511064736530088
  0.1354010695311629  0.2055444075385537  0.3373222864020136
 
  0.00000000E+00  0.00000000E+00  0.00000000E+00
  0.00000000E+00  0.00000000E+00  0.00000000E+00
  0.00000000E+00  0.00000000E+00  0.00000000E+00
  0.00000000E+00  0.00000000E+00  0.00000000E+00
  0.00000000E+00  0.00000000E+00  0.00000000E+00
  0.00000000E+00  0.00000000E+00  0.00000000E+00
  0.00000000E+00  0.00000000E+00  0.00000000E+00
  0.00000000E+00  0.00000000E+00  0.00000000E+00
  0.00000000E+00  0.00000000E+00  0.00000000E+00
  0.00000000E+00  0.00000000E+00  0.00000000E+00
  0.00000000E+00  0.00000000E+00  0.00000000E+00
  0.00000000E+00  0.00000000E+00  0.00000000E+00
  0.00000000E+00  0.00000000E+00  0.00000000E+00
  0.00000000E+00  0.00000000E+00  0.00000000E+00
  0.00000000E+00  0.00000000E+00  0.00000000E+00
  0.00000000E+00  0.00000000E+00  0.00000000E+00
  0.00000000E+00  0.00000000E+00  0.00000000E+00
  0.00000000E+00  0.00000000E+00  0.00000000E+00
  0.00000000E+00  0.00000000E+00  0.00000000E+00
  0.00000000E+00  0.00000000E+00  0.00000000E+00
  0.00000000E+00  0.00000000E+00  0.00000000E+00
  0.00000000E+00  0.00000000E+00  0.00000000E+00
  0.00000000E+00  0.00000000E+00  0.00000000E+00
  0.00000000E+00  0.00000000E+00  0.00000000E+00
  0.00000000E+00  0.00000000E+00  0.00000000E+00
  0.00000000E+00  0.00000000E+00  0.00000000E+00
  0.00000000E+00  0.00000000E+00  0.00000000E+00
  0.00000000E+00  0.00000000E+00  0.00000000E+00
  0.00000000E+00  0.00000000E+00  0.00000000E+00
  0.00000000E+00  0.00000000E+00  0.00000000E+00
  0.00000000E+00  0.00000000E+00  0.00000000E+00
  0.00000000E+00  0.00000000E+00  0.00000000E+00
  0.00000000E+00  0.00000000E+00  0.00000000E+00
  0.00000000E+00  0.00000000E+00  0.00000000E+00
  0.00000000E+00  0.00000000E+00  0.00000000E+00
  0.00000000E+00  0.00000000E+00  0.00000000E+00
  0.00000000E+00  0.00000000E+00  0.00000000E+00
  0.00000000E+00  0.00000000E+00  0.00000000E+00
  0.00000000E+00  0.00000000E+00  0.00000000E+00
  0.00000000E+00  0.00000000E+00  0.00000000E+00
  0.00000000E+00  0.00000000E+00  0.00000000E+00
  0.00000000E+00  0.00000000E+00  0.00000000E+00
  0.00000000E+00  0.00000000E+00  0.00000000E+00
  0.00000000E+00  0.00000000E+00  0.00000000E+00
  0.00000000E+00  0.00000000E+00  0.00000000E+00
  0.00000000E+00  0.00000000E+00  0.00000000E+00
  0.00000000E+00  0.00000000E+00  0.00000000E+00
  0.00000000E+00  0.00000000E+00  0.00000000E+00
  0.00000000E+00  0.00000000E+00  0.00000000E+00
  0.00000000E+00  0.00000000E+00  0.00000000E+00
  0.00000000E+00  0.00000000E+00  0.00000000E+00
  0.00000000E+00  0.00000000E+00  0.00000000E+00
  0.00000000E+00  0.00000000E+00  0.00000000E+00
  0.00000000E+00  0.00000000E+00  0.00000000E+00
  0.00000000E+00  0.00000000E+00  0.00000000E+00
  0.00000000E+00  0.00000000E+00  0.00000000E+00
  0.00000000E+00  0.00000000E+00  0.00000000E+00
  0.00000000E+00  0.00000000E+00  0.00000000E+00
  0.00000000E+00  0.00000000E+00  0.00000000E+00
  0.00000000E+00  0.00000000E+00  0.00000000E+00
  0.00000000E+00  0.00000000E+00  0.00000000E+00
  0.00000000E+00  0.00000000E+00  0.00000000E+00
  0.00000000E+00  0.00000000E+00  0.00000000E+00
  0.00000000E+00  0.00000000E+00  0.00000000E+00
  0.00000000E+00  0.00000000E+00  0.00000000E+00
  0.00000000E+00  0.00000000E+00  0.00000000E+00
  0.00000000E+00  0.00000000E+00  0.00000000E+00
  0.00000000E+00  0.00000000E+00  0.00000000E+00
  0.00000000E+00  0.00000000E+00  0.00000000E+00
  0.00000000E+00  0.00000000E+00  0.00000000E+00
  0.00000000E+00  0.00000000E+00  0.00000000E+00
  0.00000000E+00  0.00000000E+00  0.00000000E+00
  0.00000000E+00  0.00000000E+00  0.00000000E+00
  0.00000000E+00  0.00000000E+00  0.00000000E+00
  0.00000000E+00  0.00000000E+00  0.00000000E+00
  0.00000000E+00  0.00000000E+00  0.00000000E+00
  0.00000000E+00  0.00000000E+00  0.00000000E+00
  0.00000000E+00  0.00000000E+00  0.00000000E+00
  0.00000000E+00  0.00000000E+00  0.00000000E+00
  0.00000000E+00  0.00000000E+00  0.00000000E+00
  0.00000000E+00  0.00000000E+00  0.00000000E+00
  0.00000000E+00  0.00000000E+00  0.00000000E+00
  0.00000000E+00  0.00000000E+00  0.00000000E+00
  0.00000000E+00  0.00000000E+00  0.00000000E+00
  0.00000000E+00  0.00000000E+00  0.00000000E+00
  0.00000000E+00  0.00000000E+00  0.00000000E+00
  0.00000000E+00  0.00000000E+00  0.00000000E+00
  0.00000000E+00  0.00000000E+00  0.00000000E+00
  0.00000000E+00  0.00000000E+00  0.00000000E+00
  0.00000000E+00  0.00000000E+00  0.00000000E+00
  0.00000000E+00  0.00000000E+00  0.00000000E+00
  0.00000000E+00  0.00000000E+00  0.00000000E+00
  0.00000000E+00  0.00000000E+00  0.00000000E+00
  0.00000000E+00  0.00000000E+00  0.00000000E+00
  0.00000000E+00  0.00000000E+00  0.00000000E+00
  0.00000000E+00  0.00000000E+00  0.00000000E+00
  0.00000000E+00  0.00000000E+00  0.00000000E+00
  0.00000000E+00  0.00000000E+00  0.00000000E+00
  0.00000000E+00  0.00000000E+00  0.00000000E+00
  0.00000000E+00  0.00000000E+00  0.00000000E+00
  0.00000000E+00  0.00000000E+00  0.00000000E+00
  0.00000000E+00  0.00000000E+00  0.00000000E+00
  0.00000000E+00  0.00000000E+00  0.00000000E+00
  0.00000000E+00  0.00000000E+00  0.00000000E+00
  0.00000000E+00  0.00000000E+00  0.00000000E+00
  0.00000000E+00  0.00000000E+00  0.00000000E+00
  0.00000000E+00  0.00000000E+00  0.00000000E+00
  0.00000000E+00  0.00000000E+00  0.00000000E+00
