generated by phonopy                    
   1.00000000000000     
    11.7777700938999992   -0.0000006592896312    0.0000118211769744
    -0.0000006477562692   11.7777479613999994   -0.0000130806483528
     0.0000177256125076   -0.0000204342245446   17.8544012557999991
   Tl   Bi   Cu   Se   O 
     1    35    36    36    36
Direct
  0.0000545309658406  0.1667360486179774  0.4116579996805783
  0.3308417074740078  0.1667419041064164  0.4312730147366821
  0.6692740317245693  0.1667347628967519  0.4312751482490924
  0.0000646752993916  0.4975000807370478  0.4312802694564226
  0.3337562581421878  0.5004316987656097  0.4291006797590811
  0.6663680454325345  0.5004263030601521  0.4290981043430833
  0.0000622969290305  0.8359636225106541  0.4312777479101584
  0.3337537032853035  0.8330456138940789  0.4291033320360782
  0.6663680711823261  0.8330375916606911  0.4291023703823100
  0.0000110882509148  0.1666789467348551  0.9288791289420715
  0.3330375778995531  0.1666811078725701  0.9286430123364511
  0.6669848644909138  0.1666729160391256  0.9286470661649773
  0.0000116202976272  0.4997057562690088  0.9286404594050310
  0.3333257658588522  0.4999974241884502  0.9284239050641858
  0.6666974586263521  0.4999935065722809  0.9284262250153290
  0.0000081462172616  0.8336576644403877  0.9286423320554036
  0.3333227672954351  0.8333701245686314  0.9284217523264431
  0.6667012243180892  0.8333659958150506  0.9284295902508504
  0.1666966319709005  0.9999966947870362  0.0709964499736770
  0.5000077296427889  0.9998445714529112  0.0702685144990625
  0.8333265322642802  0.9999905089789536  0.0710035514970357
  0.1666974682383824  0.3333726602308644  0.0709955440946075
  0.5000109441126028  0.3335135347380600  0.0702658572180468
  0.8333249494603194  0.3333643694847339  0.0709960517641619
  0.1668414977312480  0.6666863379979873  0.0702626767927370
  0.5000089544792914  0.6666837946621342  0.0705279406312513
  0.8331821002471571  0.6666758245194302  0.0702672041803964
  0.1643922451162041  0.0024202330434377  0.5701183305671691
  0.5000590254587181  0.9993257128043425  0.5708665640027064
  0.8357286219690110  0.0024131365122741  0.5701191747072230
  0.1643991206200610  0.3310643703594778  0.5701242472411039
  0.5000634737078116  0.3341523956718007  0.5708641199327218
  0.8357236572567857  0.3310646532058072  0.5701224413502146
  0.1674739715142906  0.6667368595801051  0.5708653082998651
  0.5000615142320868  0.6667346130184839  0.5716690560972921
  0.8326508934552024  0.6667301832049830  0.5708632566086536
  0.0000571913720862  0.9966169415636301  0.2500088596268739
  0.3358856960851142  0.9988947781687685  0.2488536237220558
  0.6642027525341732  0.9988619535091132  0.2488559435152879
  0.0000526245637218  0.3367755513524244  0.2500076239643434
  0.3358758564894302  0.3345273131985351  0.2488554067004500
  0.6642106118660820  0.3345085195641246  0.2488586969994486
  0.0000582609466520  0.6666941864920730  0.2503583276709662
  0.3330312578451995  0.6667109945073832  0.2496756013864498
  0.6670527770665018  0.6666728803005242  0.2496737004039531
  0.0000240611214082  0.9993556289701644  0.7496995086990950
  0.3341184396602799  0.9995943379258563  0.7502788632975594
  0.6659371781666721  0.9995831620626561  0.7502814825829063
  0.0000239404424107  0.3340954968123100  0.7497026797646953
  0.3341210624818274  0.3338689806695214  0.7502832820534735
  0.6659405376617400  0.3338638325588192  0.7502844762355352
  0.0000212253030512  0.6667271413823386  0.7516075618443381
  0.3340416182079480  0.6667260615055852  0.7502797156087269
  0.6660202308219638  0.6667152502578872  0.7502797630130402
  0.1700935974218893  0.1667257655852694  0.2500100147794981
  0.5000302555441394  0.1667221572057827  0.2503528491573164
  0.8299493306192858  0.1667181055923450  0.2500107468296733
  0.1678465655205201  0.5025611639309631  0.2488557442709265
  0.5000319938024873  0.4996861994696644  0.2496784473278950
  0.8322097020633450  0.5025437971206941  0.2488543075313459
  0.1678400479000786  0.8309015099754831  0.2488578911512676
  0.5000208928534278  0.8337472431116240  0.2496810941954095
  0.8322086672775839  0.8308760476998032  0.2488511735265106
  0.1674095442653822  0.1667084166124297  0.7497029764329923
  0.5000547418935710  0.1666920812638182  0.7516020303184519
  0.8326915701764079  0.1666995669985241  0.7497089595911959
  0.1671897416925106  0.5007880808071192  0.7502817829625812
  0.5000498211540076  0.5007153894931093  0.7502806957528065
  0.8329127602290001  0.5007774970193282  0.7502871540592224
  0.1671958759595853  0.8326190627224364  0.7502783364678507
  0.5000493565742872  0.8326935407045539  0.7502773631364548
  0.8329008270334555  0.8326115246161478  0.7502853396058171
  0.1706339099750522  0.3373113841678830  0.3341714456541567
  0.5000455673125614  0.3336547067822266  0.3361869367750145
  0.8294639244355722  0.3372996045570886  0.3341673530099456
  0.1669868164904216  0.6667311307414323  0.3361845652071125
  0.5000462573701938  0.6667212085995189  0.3356808678307885
  0.8331127606636741  0.6667138130573065  0.3361773725923527
  0.1706375414517538  0.9961483079575828  0.3341724764073888
  0.5000462167581929  0.9997888756355451  0.3361877191852827
  0.8294649065870985  0.9961319147795749  0.3341646932198472
  0.1664488541975686  0.3331207026497154  0.8374299119322970
  0.5000279137599435  0.3342620998209043  0.8386989697046303
  0.8336039473311345  0.3331148980313543  0.8374348861421694
  0.1675948097137265  0.6667025466439540  0.8386972240175083
  0.5000286550490713  0.6667018093648167  0.8388091472656356
  0.8324559535519214  0.6666977342558980  0.8387022625396625
  0.1664473152124302  0.0002796423754390  0.8374274365922929
  0.5000265365813803  0.9991292620291432  0.8387002755345421
  0.8336024935154782  0.0002740500844922  0.8374327452884884
  0.3347427580161835  0.1667039184737433  0.1620051466301717
  0.6653013607153042  0.1666914056988205  0.1620033862925396
  0.0000250288306134  0.1666962291453871  0.1650895019183167
  0.3343970965586536  0.5010724241493705  0.1609224317394151
  0.6656511997805410  0.5010566987822784  0.1609185030277089
  0.0000280876606809  0.5014165532641570  0.1620023489096312
  0.3343939587473912  0.8323299566119218  0.1609227296625377
  0.6656495330256860  0.8323183247900445  0.1609225386794293
  0.0000295164095832  0.8319734237607079  0.1620008190658879
  0.3353980163359012  0.1667303723830287  0.6649891030491801
  0.6647087426485925  0.1667231653417716  0.6649897068304043
  0.0000488531269625  0.1667284616211333  0.6630522726873807
  0.3337834432525781  0.5004589185094588  0.6638640534536790
  0.6663232673271366  0.5004531065331008  0.6638646765817313
  0.0000487397307793  0.5020755284050225  0.6649903714745591
  0.3337817196821220  0.8329980849459915  0.6638606222814829
  0.6663222139126574  0.8329918182330260  0.6638624672617013
  0.0000471075073918  0.8313770677560228  0.6649887972972195
  0.1768567963404593  0.1667444325131058  0.5053940375127723
  0.5000568766392988  0.1667295399379753  0.5006029507401664
  0.8232549619147775  0.1667384058473331  0.5053959646413801
  0.1688115864483279  0.5016236820371773  0.4994036311638226
  0.5000599377416961  0.5010158566752239  0.5005520019506449
  0.8313052897541979  0.5016192058236584  0.4993996477856015
  0.1688038126193305  0.8318392765917508  0.4994059827528474
  0.5000565339883067  0.8324531249549167  0.5005523012835340
  0.8313126066720571  0.8318372004830081  0.4994033577022776
  0.1663712831096902  0.1666872038697989  0.0001852483158515
  0.5000157492040671  0.1666848460989314  0.9993364434988905
  0.8336614233470669  0.1666840334933468  0.0001880857512688
  0.1663295460809877  0.4992640308678205  0.9999870244365141
  0.5000152145271031  0.4996215098046619  0.9992641058479563
  0.8337054815714922  0.4992621842607434  0.9999887232886095
  0.1663292517233614  0.8341135562736994  0.9999863684798385
  0.5000151544538056  0.8337536399474956  0.9992640768100145
  0.8337051470023269  0.8341096088703779  0.9999939707671501
  0.0000146946604360  0.0003303237208669  0.0001869189186223
  0.3325908628833432  0.0003743570606076  0.9999889452639934
  0.6674423152900957  0.0003711161857751  0.9999946263127839
  0.0000159769376751  0.3330437584809829  0.0001836082776236
  0.3325909442344823  0.3330008069020849  0.9999887395079483
  0.6674420147198816  0.3330002120390105  0.9999887210362317
  0.0000163450793949  0.6666876851087693  0.9993338156596678
  0.3329499165714722  0.6666896903135324  0.9992626430733651
  0.6670837206969082  0.6666863246260988  0.9992677542523865
  0.0000589160124420  0.9899560163421484  0.5053909529143255
  0.3349540453615276  0.9979841138840797  0.4993991575913626
  0.6651566549214110  0.9979811101987366  0.4993999399253255
  0.0000602629631672  0.3435243691769259  0.5054097101132911
  0.3349672977518310  0.3354875066742977  0.4993974827468577
  0.6651474856492925  0.3354822245404065  0.4993965707508252
  0.0000577970387425  0.6667260177594585  0.5005946872504268
  0.3343317329858948  0.6667325135201594  0.5005549909309295
  0.6657846392378062  0.6667300466767401  0.5005526071683448
 
  0.00000000E+00  0.00000000E+00  0.00000000E+00
  0.00000000E+00  0.00000000E+00  0.00000000E+00
  0.00000000E+00  0.00000000E+00  0.00000000E+00
  0.00000000E+00  0.00000000E+00  0.00000000E+00
  0.00000000E+00  0.00000000E+00  0.00000000E+00
  0.00000000E+00  0.00000000E+00  0.00000000E+00
  0.00000000E+00  0.00000000E+00  0.00000000E+00
  0.00000000E+00  0.00000000E+00  0.00000000E+00
  0.00000000E+00  0.00000000E+00  0.00000000E+00
  0.00000000E+00  0.00000000E+00  0.00000000E+00
  0.00000000E+00  0.00000000E+00  0.00000000E+00
  0.00000000E+00  0.00000000E+00  0.00000000E+00
  0.00000000E+00  0.00000000E+00  0.00000000E+00
  0.00000000E+00  0.00000000E+00  0.00000000E+00
  0.00000000E+00  0.00000000E+00  0.00000000E+00
  0.00000000E+00  0.00000000E+00  0.00000000E+00
  0.00000000E+00  0.00000000E+00  0.00000000E+00
  0.00000000E+00  0.00000000E+00  0.00000000E+00
  0.00000000E+00  0.00000000E+00  0.00000000E+00
  0.00000000E+00  0.00000000E+00  0.00000000E+00
  0.00000000E+00  0.00000000E+00  0.00000000E+00
  0.00000000E+00  0.00000000E+00  0.00000000E+00
  0.00000000E+00  0.00000000E+00  0.00000000E+00
  0.00000000E+00  0.00000000E+00  0.00000000E+00
  0.00000000E+00  0.00000000E+00  0.00000000E+00
  0.00000000E+00  0.00000000E+00  0.00000000E+00
  0.00000000E+00  0.00000000E+00  0.00000000E+00
  0.00000000E+00  0.00000000E+00  0.00000000E+00
  0.00000000E+00  0.00000000E+00  0.00000000E+00
  0.00000000E+00  0.00000000E+00  0.00000000E+00
  0.00000000E+00  0.00000000E+00  0.00000000E+00
  0.00000000E+00  0.00000000E+00  0.00000000E+00
  0.00000000E+00  0.00000000E+00  0.00000000E+00
  0.00000000E+00  0.00000000E+00  0.00000000E+00
  0.00000000E+00  0.00000000E+00  0.00000000E+00
  0.00000000E+00  0.00000000E+00  0.00000000E+00
  0.00000000E+00  0.00000000E+00  0.00000000E+00
  0.00000000E+00  0.00000000E+00  0.00000000E+00
  0.00000000E+00  0.00000000E+00  0.00000000E+00
  0.00000000E+00  0.00000000E+00  0.00000000E+00
  0.00000000E+00  0.00000000E+00  0.00000000E+00
  0.00000000E+00  0.00000000E+00  0.00000000E+00
  0.00000000E+00  0.00000000E+00  0.00000000E+00
  0.00000000E+00  0.00000000E+00  0.00000000E+00
  0.00000000E+00  0.00000000E+00  0.00000000E+00
  0.00000000E+00  0.00000000E+00  0.00000000E+00
  0.00000000E+00  0.00000000E+00  0.00000000E+00
  0.00000000E+00  0.00000000E+00  0.00000000E+00
  0.00000000E+00  0.00000000E+00  0.00000000E+00
  0.00000000E+00  0.00000000E+00  0.00000000E+00
  0.00000000E+00  0.00000000E+00  0.00000000E+00
  0.00000000E+00  0.00000000E+00  0.00000000E+00
  0.00000000E+00  0.00000000E+00  0.00000000E+00
  0.00000000E+00  0.00000000E+00  0.00000000E+00
  0.00000000E+00  0.00000000E+00  0.00000000E+00
  0.00000000E+00  0.00000000E+00  0.00000000E+00
  0.00000000E+00  0.00000000E+00  0.00000000E+00
  0.00000000E+00  0.00000000E+00  0.00000000E+00
  0.00000000E+00  0.00000000E+00  0.00000000E+00
  0.00000000E+00  0.00000000E+00  0.00000000E+00
  0.00000000E+00  0.00000000E+00  0.00000000E+00
  0.00000000E+00  0.00000000E+00  0.00000000E+00
  0.00000000E+00  0.00000000E+00  0.00000000E+00
  0.00000000E+00  0.00000000E+00  0.00000000E+00
  0.00000000E+00  0.00000000E+00  0.00000000E+00
  0.00000000E+00  0.00000000E+00  0.00000000E+00
  0.00000000E+00  0.00000000E+00  0.00000000E+00
  0.00000000E+00  0.00000000E+00  0.00000000E+00
  0.00000000E+00  0.00000000E+00  0.00000000E+00
  0.00000000E+00  0.00000000E+00  0.00000000E+00
  0.00000000E+00  0.00000000E+00  0.00000000E+00
  0.00000000E+00  0.00000000E+00  0.00000000E+00
  0.00000000E+00  0.00000000E+00  0.00000000E+00
  0.00000000E+00  0.00000000E+00  0.00000000E+00
  0.00000000E+00  0.00000000E+00  0.00000000E+00
  0.00000000E+00  0.00000000E+00  0.00000000E+00
  0.00000000E+00  0.00000000E+00  0.00000000E+00
  0.00000000E+00  0.00000000E+00  0.00000000E+00
  0.00000000E+00  0.00000000E+00  0.00000000E+00
  0.00000000E+00  0.00000000E+00  0.00000000E+00
  0.00000000E+00  0.00000000E+00  0.00000000E+00
  0.00000000E+00  0.00000000E+00  0.00000000E+00
  0.00000000E+00  0.00000000E+00  0.00000000E+00
  0.00000000E+00  0.00000000E+00  0.00000000E+00
  0.00000000E+00  0.00000000E+00  0.00000000E+00
  0.00000000E+00  0.00000000E+00  0.00000000E+00
  0.00000000E+00  0.00000000E+00  0.00000000E+00
  0.00000000E+00  0.00000000E+00  0.00000000E+00
  0.00000000E+00  0.00000000E+00  0.00000000E+00
  0.00000000E+00  0.00000000E+00  0.00000000E+00
  0.00000000E+00  0.00000000E+00  0.00000000E+00
  0.00000000E+00  0.00000000E+00  0.00000000E+00
  0.00000000E+00  0.00000000E+00  0.00000000E+00
  0.00000000E+00  0.00000000E+00  0.00000000E+00
  0.00000000E+00  0.00000000E+00  0.00000000E+00
  0.00000000E+00  0.00000000E+00  0.00000000E+00
  0.00000000E+00  0.00000000E+00  0.00000000E+00
  0.00000000E+00  0.00000000E+00  0.00000000E+00
  0.00000000E+00  0.00000000E+00  0.00000000E+00
  0.00000000E+00  0.00000000E+00  0.00000000E+00
  0.00000000E+00  0.00000000E+00  0.00000000E+00
  0.00000000E+00  0.00000000E+00  0.00000000E+00
  0.00000000E+00  0.00000000E+00  0.00000000E+00
  0.00000000E+00  0.00000000E+00  0.00000000E+00
  0.00000000E+00  0.00000000E+00  0.00000000E+00
  0.00000000E+00  0.00000000E+00  0.00000000E+00
  0.00000000E+00  0.00000000E+00  0.00000000E+00
  0.00000000E+00  0.00000000E+00  0.00000000E+00
  0.00000000E+00  0.00000000E+00  0.00000000E+00
  0.00000000E+00  0.00000000E+00  0.00000000E+00
  0.00000000E+00  0.00000000E+00  0.00000000E+00
  0.00000000E+00  0.00000000E+00  0.00000000E+00
  0.00000000E+00  0.00000000E+00  0.00000000E+00
  0.00000000E+00  0.00000000E+00  0.00000000E+00
  0.00000000E+00  0.00000000E+00  0.00000000E+00
  0.00000000E+00  0.00000000E+00  0.00000000E+00
  0.00000000E+00  0.00000000E+00  0.00000000E+00
  0.00000000E+00  0.00000000E+00  0.00000000E+00
  0.00000000E+00  0.00000000E+00  0.00000000E+00
  0.00000000E+00  0.00000000E+00  0.00000000E+00
  0.00000000E+00  0.00000000E+00  0.00000000E+00
  0.00000000E+00  0.00000000E+00  0.00000000E+00
  0.00000000E+00  0.00000000E+00  0.00000000E+00
  0.00000000E+00  0.00000000E+00  0.00000000E+00
  0.00000000E+00  0.00000000E+00  0.00000000E+00
  0.00000000E+00  0.00000000E+00  0.00000000E+00
  0.00000000E+00  0.00000000E+00  0.00000000E+00
  0.00000000E+00  0.00000000E+00  0.00000000E+00
  0.00000000E+00  0.00000000E+00  0.00000000E+00
  0.00000000E+00  0.00000000E+00  0.00000000E+00
  0.00000000E+00  0.00000000E+00  0.00000000E+00
  0.00000000E+00  0.00000000E+00  0.00000000E+00
  0.00000000E+00  0.00000000E+00  0.00000000E+00
  0.00000000E+00  0.00000000E+00  0.00000000E+00
  0.00000000E+00  0.00000000E+00  0.00000000E+00
  0.00000000E+00  0.00000000E+00  0.00000000E+00
  0.00000000E+00  0.00000000E+00  0.00000000E+00
  0.00000000E+00  0.00000000E+00  0.00000000E+00
  0.00000000E+00  0.00000000E+00  0.00000000E+00
  0.00000000E+00  0.00000000E+00  0.00000000E+00
  0.00000000E+00  0.00000000E+00  0.00000000E+00
  0.00000000E+00  0.00000000E+00  0.00000000E+00
  0.00000000E+00  0.00000000E+00  0.00000000E+00
  0.00000000E+00  0.00000000E+00  0.00000000E+00
