supercell of 100% icsd_608626.cif, 0% i 
   1.00000000000000     
    -9.5106993580957422    0.0031434934458917   -0.0028584484800537
    -4.7580696924046064    8.2443824189451558   -0.0081486864920231
    -0.0030670905814030    0.0082951437754669  -10.0709942259886240
   Al   Ti   Mg   N 
    30     3     3    36
Direct
  0.1087485144494451  0.0979336729644444  0.2947716310034494
  0.2170396182870604  0.2063559485819511  0.0455610164747000
  0.7802951749627738  0.0981181540067908  0.7938291089948208
  0.8831474963835717  0.2105107189365683  0.5453868286201171
  0.4437999936990593  0.0931451028638079  0.2994904310628783
  0.1114123598998873  0.0967426169956696  0.7969713627690567
  0.2210547356256072  0.2103918696767835  0.5428755044403886
  0.7801499938075480  0.0928219581178098  0.2982934256191498
  0.8921740244347305  0.2087998409759635  0.0459246936660946
  0.4390573335567183  0.0951225806370530  0.7943708585164444
  0.5559903041687164  0.2065697295531521  0.5460941384361462
  0.1114773565083738  0.4277613248044432  0.2957983727300117
  0.2182723083349032  0.5425765730347720  0.0450475708604969
  0.7761140812903591  0.4264257313610287  0.7943878128050201
  0.8901716493509682  0.5353085155453527  0.5419479313911992
  0.4438096900680932  0.4296264097190345  0.2988696169803120
  0.5580194035243125  0.5412835725347520  0.0450641613427791
  0.2236149662351039  0.5338010768153723  0.5424670863437555
  0.7770026519008866  0.4275171745488748  0.2949268733692207
  0.8884492390241618  0.5373166952210369  0.0502747263556387
  0.4414721341626446  0.4326029937815363  0.7943901630872503
  0.5588920248490084  0.5338172069235227  0.5451907795979025
  0.1085837690574465  0.7596806070257927  0.2925792126785964
  0.4478616880611312  0.7584540320022910  0.2947292118164810
  0.5553509270102168  0.8679581541412489  0.0484649877908652
  0.1179042299071895  0.7577511429593358  0.7970604403479982
  0.7782502292773827  0.7620507479037997  0.2921931753169176
  0.8939461637092379  0.8684452224683454  0.0499910317419676
  0.4440111959500754  0.7585461778704072  0.7959185409478735
  0.5565538768369720  0.8721257759376755  0.5440003960736846
  0.5547457730213878  0.2060412282888961  0.0499132305118266
  0.7777590008562356  0.7592368957821591  0.8004400261231979
  0.2218014020562293  0.8720550806894707  0.5548225606300079
  0.1142456674664558  0.4261303953366777  0.7959388109810064
  0.2223318040766671  0.8733983218121040  0.0434627650218715
  0.8860199877530519  0.8742120377973350  0.5451317974964311
  0.2233931461860905  0.2044295412057764  0.3533162013668729
  0.1034134889566261  0.1079353603786757  0.1094312364836085
  0.8892314306838074  0.2070832604935049  0.8554818554274846
  0.7699030731478018  0.1096815076849467  0.6081737308913873
  0.5554085837247911  0.2054739707139959  0.3520244157233563
  0.4427090017903481  0.0907938596861513  0.1072095364085470
  0.2290334812513493  0.1918774503140028  0.8590310644475849
  0.1050524868926601  0.1052127871712898  0.6035761375975994
  0.8872953251416362  0.2065734250010323  0.3554154831226342
  0.7820528913164537  0.0943069214128158  0.1038271738687655
  0.5546879794557640  0.2052208329796272  0.8544477854310131
  0.4445277615344310  0.0937927488189274  0.6032752911546240
  0.2235837595190446  0.5383695203750847  0.3524342201997754
  0.1120507227688776  0.4273151265213500  0.1037110204017537
  0.8760238281841097  0.5403418412888783  0.8611532008706320
  0.7778559286212641  0.4285156638305239  0.6039867000164918
  0.5560977712878525  0.5376264265048931  0.3558055555860165
  0.4436650430080462  0.4322264798470030  0.1066522084000070
  0.2303460505449664  0.5449617292891062  0.8591317385337334
  0.1098368700841306  0.4286242566768408  0.5908828532797301
  0.8866834876678809  0.5400962072644688  0.3501766810269302
  0.7764825452694666  0.4271064458395983  0.1053845912245919
  0.5562971920067241  0.5375698257915502  0.8535935802979324
  0.4441413345159475  0.4269760003046912  0.6033969599741980
  0.2224734161801294  0.8718499068024883  0.3554387579503882
  0.1068950719888804  0.7543278584118909  0.1068543836204086
  0.8933873830070951  0.8764574965046563  0.8553524183474934
  0.7709327449988379  0.7516130370406557  0.6091411581521342
  0.5566119478609153  0.8717014944469952  0.3546797443335308
  0.4581369839172424  0.7531939702422434  0.1083667087006930
  0.2227211707502832  0.8743267370258891  0.8337578030318369
  0.1229689769067122  0.7488436313693327  0.6065762330834943
  0.8874068868836105  0.8725275032572597  0.3420985438415869
  0.7766809762569835  0.7623543029547051  0.0998443813626011
  0.5491316847441112  0.8747540540505696  0.8562483631608160
  0.4533488033815019  0.7553035308833529  0.6035420007341656
 
  0.00000000E+00  0.00000000E+00  0.00000000E+00
  0.00000000E+00  0.00000000E+00  0.00000000E+00
  0.00000000E+00  0.00000000E+00  0.00000000E+00
  0.00000000E+00  0.00000000E+00  0.00000000E+00
  0.00000000E+00  0.00000000E+00  0.00000000E+00
  0.00000000E+00  0.00000000E+00  0.00000000E+00
  0.00000000E+00  0.00000000E+00  0.00000000E+00
  0.00000000E+00  0.00000000E+00  0.00000000E+00
  0.00000000E+00  0.00000000E+00  0.00000000E+00
  0.00000000E+00  0.00000000E+00  0.00000000E+00
  0.00000000E+00  0.00000000E+00  0.00000000E+00
  0.00000000E+00  0.00000000E+00  0.00000000E+00
  0.00000000E+00  0.00000000E+00  0.00000000E+00
  0.00000000E+00  0.00000000E+00  0.00000000E+00
  0.00000000E+00  0.00000000E+00  0.00000000E+00
  0.00000000E+00  0.00000000E+00  0.00000000E+00
  0.00000000E+00  0.00000000E+00  0.00000000E+00
  0.00000000E+00  0.00000000E+00  0.00000000E+00
  0.00000000E+00  0.00000000E+00  0.00000000E+00
  0.00000000E+00  0.00000000E+00  0.00000000E+00
  0.00000000E+00  0.00000000E+00  0.00000000E+00
  0.00000000E+00  0.00000000E+00  0.00000000E+00
  0.00000000E+00  0.00000000E+00  0.00000000E+00
  0.00000000E+00  0.00000000E+00  0.00000000E+00
  0.00000000E+00  0.00000000E+00  0.00000000E+00
  0.00000000E+00  0.00000000E+00  0.00000000E+00
  0.00000000E+00  0.00000000E+00  0.00000000E+00
  0.00000000E+00  0.00000000E+00  0.00000000E+00
  0.00000000E+00  0.00000000E+00  0.00000000E+00
  0.00000000E+00  0.00000000E+00  0.00000000E+00
  0.00000000E+00  0.00000000E+00  0.00000000E+00
  0.00000000E+00  0.00000000E+00  0.00000000E+00
  0.00000000E+00  0.00000000E+00  0.00000000E+00
  0.00000000E+00  0.00000000E+00  0.00000000E+00
  0.00000000E+00  0.00000000E+00  0.00000000E+00
  0.00000000E+00  0.00000000E+00  0.00000000E+00
  0.00000000E+00  0.00000000E+00  0.00000000E+00
  0.00000000E+00  0.00000000E+00  0.00000000E+00
  0.00000000E+00  0.00000000E+00  0.00000000E+00
  0.00000000E+00  0.00000000E+00  0.00000000E+00
  0.00000000E+00  0.00000000E+00  0.00000000E+00
  0.00000000E+00  0.00000000E+00  0.00000000E+00
  0.00000000E+00  0.00000000E+00  0.00000000E+00
  0.00000000E+00  0.00000000E+00  0.00000000E+00
  0.00000000E+00  0.00000000E+00  0.00000000E+00
  0.00000000E+00  0.00000000E+00  0.00000000E+00
  0.00000000E+00  0.00000000E+00  0.00000000E+00
  0.00000000E+00  0.00000000E+00  0.00000000E+00
  0.00000000E+00  0.00000000E+00  0.00000000E+00
  0.00000000E+00  0.00000000E+00  0.00000000E+00
  0.00000000E+00  0.00000000E+00  0.00000000E+00
  0.00000000E+00  0.00000000E+00  0.00000000E+00
  0.00000000E+00  0.00000000E+00  0.00000000E+00
  0.00000000E+00  0.00000000E+00  0.00000000E+00
  0.00000000E+00  0.00000000E+00  0.00000000E+00
  0.00000000E+00  0.00000000E+00  0.00000000E+00
  0.00000000E+00  0.00000000E+00  0.00000000E+00
  0.00000000E+00  0.00000000E+00  0.00000000E+00
  0.00000000E+00  0.00000000E+00  0.00000000E+00
  0.00000000E+00  0.00000000E+00  0.00000000E+00
  0.00000000E+00  0.00000000E+00  0.00000000E+00
  0.00000000E+00  0.00000000E+00  0.00000000E+00
  0.00000000E+00  0.00000000E+00  0.00000000E+00
  0.00000000E+00  0.00000000E+00  0.00000000E+00
  0.00000000E+00  0.00000000E+00  0.00000000E+00
  0.00000000E+00  0.00000000E+00  0.00000000E+00
  0.00000000E+00  0.00000000E+00  0.00000000E+00
  0.00000000E+00  0.00000000E+00  0.00000000E+00
  0.00000000E+00  0.00000000E+00  0.00000000E+00
  0.00000000E+00  0.00000000E+00  0.00000000E+00
  0.00000000E+00  0.00000000E+00  0.00000000E+00
  0.00000000E+00  0.00000000E+00  0.00000000E+00
