supercell of 100% icsd_608626.cif, 0% i 
   1.00000000000000     
    -9.5367284775848749   -0.0082810778272423   -0.0043603435885120
    -4.7611937470554029    8.2396994120520795   -0.0000426780641987
    -0.0045614801955002   -0.0025838674217521  -10.0362027255867812
   Al   Mg   Ti   N 
    30     3     3    36
Direct
  0.1097850290105882  0.0976796939605222  0.2945320050457099
  0.2219796404734282  0.2049096126174774  0.0461645982490566
  0.7817885399879927  0.0927959588985061  0.7973705422036446
  0.8924995964446154  0.2058533997460401  0.5428845199220973
  0.1068804631886451  0.0988151921056826  0.7959884329538696
  0.2122559499902650  0.2106589802670555  0.5425725877955756
  0.7834415993813479  0.0923108539508988  0.2955514994586252
  0.8896876720566738  0.2042109991705701  0.0485472357602106
  0.4393738797754736  0.0991298812900467  0.8033750282896506
  0.1086182471937036  0.4293574813375471  0.2951342234157295
  0.2229950322441283  0.5389163509870727  0.0459641318019592
  0.7826636754798315  0.4245496543537826  0.7957243695670684
  0.8928643032867640  0.5345347269215068  0.5423665113336540
  0.5559649492593550  0.5356285723227288  0.0505007174156304
  0.1098258652824029  0.4285070854182038  0.7964668771910297
  0.2162606341566047  0.5426990303417938  0.5431708245306339
  0.7782567702730674  0.4286911366591184  0.2955245834938793
  0.8897640292793767  0.5377102496317789  0.0470144788364806
  0.4402963047498645  0.4290698845358847  0.7992521953016265
  0.5593174945704220  0.5357468035924597  0.5404214102382241
  0.1108878366506829  0.7585014506343697  0.2943316030028313
  0.2187780445393699  0.8739720899512733  0.0519292343723450
  0.7850591153793545  0.7581673367621704  0.7985487419821879
  0.8957321875375612  0.8698847674827945  0.5420710238637909
  0.4454577477309130  0.7572669868627884  0.2928783658477911
  0.5557995194651397  0.8738377846865575  0.0490150756786107
  0.1073906349182394  0.7604896451406375  0.7961560152208165
  0.2153195778391748  0.8749794969324540  0.5423856138219421
  0.7828069678546967  0.7575710393394886  0.2946355605770279
  0.8900189628956454  0.8733657868161373  0.0488230815265069
  0.4409118386344417  0.0989321759791295  0.2931476951695586
  0.5573350316031735  0.2053196945466524  0.0419236955281903
  0.4425347390792709  0.4294046806968481  0.2952718037193307
  0.5586018922770108  0.2063563032996854  0.5576477659691079
  0.4427106088589099  0.7601429498616596  0.8047083812938567
  0.5580713595324767  0.8689387897590777  0.5464514314313647
  0.2060577722666395  0.2144111597719203  0.3574961040490123
  0.1102614524003371  0.0953792197674019  0.1036256518514307
  0.8886978616002281  0.2060042688272148  0.8553759872470224
  0.7925477730746522  0.0874403850231005  0.6062101950346346
  0.5741174663045143  0.1958908476289807  0.3720384992528878
  0.4378649908542087  0.0880829246507915  0.0902395018249678
  0.2176624624607157  0.2074314010186171  0.8525060672754776
  0.1106469408707156  0.0933505921954350  0.6054785081376366
  0.8900606155385304  0.2061821779262942  0.3542656730808176
  0.7918958107966674  0.0876015714995475  0.1078440160938570
  0.5574788524419816  0.2047998484514721  0.8281750914399453
  0.4331055407168236  0.0945391578302406  0.6067128780933189
  0.2058983991585279  0.5462210783841996  0.3579258216467451
  0.1099465475797246  0.4283711313569611  0.1024521971453893
  0.8884350032602057  0.5388235073224905  0.8545278456660981
  0.7788391467987168  0.4273554897983871  0.6047964598440032
  0.5636417206402697  0.5455720240133175  0.3561332647903299
  0.4373042129453708  0.4403473944114751  0.0921722112916399
  0.2184838371201323  0.5409132479867509  0.8519779959214517
  0.1096543597441695  0.4287957958144446  0.6064983536593829
  0.8883656007368614  0.5392027699356632  0.3532432396714782
  0.7785181224359334  0.4276882404832492  0.1034441147752645
  0.5606208974452116  0.5336705250303879  0.8533966218463789
  0.4375733039188674  0.4409570103432188  0.6048546997451254
  0.2229041436824986  0.8720089391322290  0.3520810360683271
  0.1104073577527842  0.7608371761690478  0.1035156507594834
  0.8889985026178593  0.8722202277136475  0.8557118998940823
  0.7861935411466447  0.7578776179901965  0.6058155524699274
  0.5633363864250214  0.8579721031128429  0.3581474827316526
  0.4450016253633180  0.7610516325371961  0.0987201689234567
  0.2144838671556286  0.8759188912947522  0.8567850823666205
  0.1110712335781372  0.7625263533642084  0.6058421027029723
  0.8902786568661938  0.8708237558167014  0.3538231541421268
  0.7779935881821203  0.7607194306625971  0.1032338379887392
  0.5608607466201931  0.8714705513113046  0.8495626964526366
  0.4388559186189553  0.7586350245633895  0.6069184743059779
 
  0.00000000E+00  0.00000000E+00  0.00000000E+00
  0.00000000E+00  0.00000000E+00  0.00000000E+00
  0.00000000E+00  0.00000000E+00  0.00000000E+00
  0.00000000E+00  0.00000000E+00  0.00000000E+00
  0.00000000E+00  0.00000000E+00  0.00000000E+00
  0.00000000E+00  0.00000000E+00  0.00000000E+00
  0.00000000E+00  0.00000000E+00  0.00000000E+00
  0.00000000E+00  0.00000000E+00  0.00000000E+00
  0.00000000E+00  0.00000000E+00  0.00000000E+00
  0.00000000E+00  0.00000000E+00  0.00000000E+00
  0.00000000E+00  0.00000000E+00  0.00000000E+00
  0.00000000E+00  0.00000000E+00  0.00000000E+00
  0.00000000E+00  0.00000000E+00  0.00000000E+00
  0.00000000E+00  0.00000000E+00  0.00000000E+00
  0.00000000E+00  0.00000000E+00  0.00000000E+00
  0.00000000E+00  0.00000000E+00  0.00000000E+00
  0.00000000E+00  0.00000000E+00  0.00000000E+00
  0.00000000E+00  0.00000000E+00  0.00000000E+00
  0.00000000E+00  0.00000000E+00  0.00000000E+00
  0.00000000E+00  0.00000000E+00  0.00000000E+00
  0.00000000E+00  0.00000000E+00  0.00000000E+00
  0.00000000E+00  0.00000000E+00  0.00000000E+00
  0.00000000E+00  0.00000000E+00  0.00000000E+00
  0.00000000E+00  0.00000000E+00  0.00000000E+00
  0.00000000E+00  0.00000000E+00  0.00000000E+00
  0.00000000E+00  0.00000000E+00  0.00000000E+00
  0.00000000E+00  0.00000000E+00  0.00000000E+00
  0.00000000E+00  0.00000000E+00  0.00000000E+00
  0.00000000E+00  0.00000000E+00  0.00000000E+00
  0.00000000E+00  0.00000000E+00  0.00000000E+00
  0.00000000E+00  0.00000000E+00  0.00000000E+00
  0.00000000E+00  0.00000000E+00  0.00000000E+00
  0.00000000E+00  0.00000000E+00  0.00000000E+00
  0.00000000E+00  0.00000000E+00  0.00000000E+00
  0.00000000E+00  0.00000000E+00  0.00000000E+00
  0.00000000E+00  0.00000000E+00  0.00000000E+00
  0.00000000E+00  0.00000000E+00  0.00000000E+00
  0.00000000E+00  0.00000000E+00  0.00000000E+00
  0.00000000E+00  0.00000000E+00  0.00000000E+00
  0.00000000E+00  0.00000000E+00  0.00000000E+00
  0.00000000E+00  0.00000000E+00  0.00000000E+00
  0.00000000E+00  0.00000000E+00  0.00000000E+00
  0.00000000E+00  0.00000000E+00  0.00000000E+00
  0.00000000E+00  0.00000000E+00  0.00000000E+00
  0.00000000E+00  0.00000000E+00  0.00000000E+00
  0.00000000E+00  0.00000000E+00  0.00000000E+00
  0.00000000E+00  0.00000000E+00  0.00000000E+00
  0.00000000E+00  0.00000000E+00  0.00000000E+00
  0.00000000E+00  0.00000000E+00  0.00000000E+00
  0.00000000E+00  0.00000000E+00  0.00000000E+00
  0.00000000E+00  0.00000000E+00  0.00000000E+00
  0.00000000E+00  0.00000000E+00  0.00000000E+00
  0.00000000E+00  0.00000000E+00  0.00000000E+00
  0.00000000E+00  0.00000000E+00  0.00000000E+00
  0.00000000E+00  0.00000000E+00  0.00000000E+00
  0.00000000E+00  0.00000000E+00  0.00000000E+00
  0.00000000E+00  0.00000000E+00  0.00000000E+00
  0.00000000E+00  0.00000000E+00  0.00000000E+00
  0.00000000E+00  0.00000000E+00  0.00000000E+00
  0.00000000E+00  0.00000000E+00  0.00000000E+00
  0.00000000E+00  0.00000000E+00  0.00000000E+00
  0.00000000E+00  0.00000000E+00  0.00000000E+00
  0.00000000E+00  0.00000000E+00  0.00000000E+00
  0.00000000E+00  0.00000000E+00  0.00000000E+00
  0.00000000E+00  0.00000000E+00  0.00000000E+00
  0.00000000E+00  0.00000000E+00  0.00000000E+00
  0.00000000E+00  0.00000000E+00  0.00000000E+00
  0.00000000E+00  0.00000000E+00  0.00000000E+00
  0.00000000E+00  0.00000000E+00  0.00000000E+00
  0.00000000E+00  0.00000000E+00  0.00000000E+00
  0.00000000E+00  0.00000000E+00  0.00000000E+00
  0.00000000E+00  0.00000000E+00  0.00000000E+00
