supercell of 100% icsd_608626.cif, 0% i 
   1.00000000000000     
    -9.5003603338314164    0.0054769724425009    0.0072207553200900
    -4.7549288778036916    8.2546978587313884    0.0049495273451355
     0.0077254063036529   -0.0016509755159047  -10.0787963811037731
   Al   Mg   Ti   N 
    30     3     3    36
Direct
  0.1095690060753611  0.0974745692781340  0.2986044702228554
  0.2196030199379706  0.2104114879400143  0.0470077854482085
  0.8860187812148013  0.2062114904248276  0.5444107844094859
  0.4430252902933915  0.0972639853212627  0.2936838041876868
  0.5561388009152139  0.2077758369809146  0.0500046746584388
  0.1074695132971328  0.0987330052013533  0.7942899402852888
  0.2160621026842406  0.2108506314457870  0.5443086684229286
  0.7791792262217072  0.0933897688691872  0.2962781979199036
  0.8852776922153325  0.2097263569225518  0.0440643326856645
  0.5591818477559514  0.2117113533596395  0.5412589963718162
  0.1108425490336487  0.4287391141637542  0.2958343237924907
  0.2236349118112742  0.5341688566426086  0.0432980220075407
  0.7805650528036807  0.4255951382082159  0.7948402258027869
  0.8904028348689152  0.5341549462637616  0.5451299454057832
  0.4433911564121544  0.4284473871343550  0.2951182325776642
  0.5589832766234579  0.5332643197891258  0.0443584185571524
  0.1089473830008103  0.4328084039210722  0.7956165290635013
  0.2230606003663098  0.5409040863395305  0.5442498500209041
  0.7783911411432669  0.4274658149383654  0.2956192057084905
  0.8886625379204816  0.5373611759629640  0.0448016989718454
  0.4398427231260911  0.4307351582911636  0.7944615319428010
  0.5577997949244349  0.5330007343866257  0.5463380177592114
  0.1094408538850189  0.7596268837244651  0.2998166858367597
  0.7832277461571096  0.7556279931162564  0.8009372830940080
  0.4461083213896657  0.7570082282635227  0.2972981092828775
  0.5598531418613391  0.8692379000149941  0.0469973628255858
  0.2189137336068967  0.8720153788725824  0.5422121033824183
  0.7830242841274853  0.7582725224370961  0.2928463016307532
  0.8838762347279001  0.8725509332754910  0.0454126426367765
  0.4454112761324680  0.7562311983136425  0.7971471625299884
  0.7809513882990515  0.0936066336187054  0.7948770791537569
  0.8908658087392496  0.8743449903753273  0.5447648470469701
  0.1083936170421538  0.7597664341076182  0.7947165280082160
  0.4447689283121434  0.0971347351748832  0.8031523250591022
  0.2218891211437537  0.8735770659549047  0.0505766630387257
  0.5573535428436784  0.8706735526826677  0.5489999022682781
  0.2229667310184666  0.2060420315543254  0.3542649238313373
  0.1081394720546953  0.1019643246694599  0.1076515064634691
  0.8968947198487527  0.2136486173720300  0.8589337218364363
  0.7698205464759127  0.1094926836404611  0.5936794926267837
  0.5528562154869334  0.2068260517310350  0.3499788189770854
  0.4439750990270142  0.0925171160979303  0.1018682412734293
  0.2169082530479827  0.2100882566190378  0.8557272226392243
  0.1127111561390919  0.0942865566756765  0.6025965631214021
  0.8898155249842574  0.2073385051317587  0.3523991539642495
  0.7774581797254214  0.0970256565909580  0.1038178455596963
  0.5421930227831453  0.2161789084912655  0.8618644712041856
  0.4406417349628882  0.1035408721729141  0.6047517616229285
  0.2233171685102491  0.5363670536178162  0.3521147139236120
  0.1099119477759203  0.4277670182977147  0.1059855253283004
  0.8890974296532832  0.5361936435053494  0.8552036411733681
  0.7786400679593939  0.4274684258898702  0.6036928930939709
  0.5559720022502432  0.5381263468297277  0.3555564809166825
  0.4446675323828160  0.4290418553664637  0.1060094953073403
  0.2285175991439345  0.5250574602213618  0.8583579516238657
  0.1107943249217200  0.4285738644828001  0.6039340189336073
  0.8892151243719226  0.5383685796671500  0.3546672816605394
  0.7768598414009347  0.4288276080019386  0.1057442517727551
  0.5559386156444290  0.5373156296155912  0.8537033425372940
  0.4437528327605449  0.4279334136191153  0.6036023302256410
  0.2240199667221248  0.8736427996471789  0.3482672006866281
  0.1111260421804516  0.7563099936186006  0.1045356321488882
  0.8794491397186022  0.8660254879763656  0.8627175137397742
  0.7734010395337947  0.7496826704002117  0.6096505832140693
  0.5561293208024978  0.8718180291297131  0.3522827874828849
  0.4524741003229238  0.7554614706014391  0.1061239028417660
  0.2303817998211670  0.8819601177845016  0.8606349553933299
  0.1267687565658022  0.7538394795715888  0.5933210549531651
  0.8877286043570649  0.8717922664745146  0.3386045390615635
  0.7764431728692145  0.7570134296659035  0.1047452828335622
  0.5573166422648939  0.8648166748531168  0.8548830589538099
  0.4435690315979670  0.7577790286977972  0.6047951870566592
 
  0.00000000E+00  0.00000000E+00  0.00000000E+00
  0.00000000E+00  0.00000000E+00  0.00000000E+00
  0.00000000E+00  0.00000000E+00  0.00000000E+00
  0.00000000E+00  0.00000000E+00  0.00000000E+00
  0.00000000E+00  0.00000000E+00  0.00000000E+00
  0.00000000E+00  0.00000000E+00  0.00000000E+00
  0.00000000E+00  0.00000000E+00  0.00000000E+00
  0.00000000E+00  0.00000000E+00  0.00000000E+00
  0.00000000E+00  0.00000000E+00  0.00000000E+00
  0.00000000E+00  0.00000000E+00  0.00000000E+00
  0.00000000E+00  0.00000000E+00  0.00000000E+00
  0.00000000E+00  0.00000000E+00  0.00000000E+00
  0.00000000E+00  0.00000000E+00  0.00000000E+00
  0.00000000E+00  0.00000000E+00  0.00000000E+00
  0.00000000E+00  0.00000000E+00  0.00000000E+00
  0.00000000E+00  0.00000000E+00  0.00000000E+00
  0.00000000E+00  0.00000000E+00  0.00000000E+00
  0.00000000E+00  0.00000000E+00  0.00000000E+00
  0.00000000E+00  0.00000000E+00  0.00000000E+00
  0.00000000E+00  0.00000000E+00  0.00000000E+00
  0.00000000E+00  0.00000000E+00  0.00000000E+00
  0.00000000E+00  0.00000000E+00  0.00000000E+00
  0.00000000E+00  0.00000000E+00  0.00000000E+00
  0.00000000E+00  0.00000000E+00  0.00000000E+00
  0.00000000E+00  0.00000000E+00  0.00000000E+00
  0.00000000E+00  0.00000000E+00  0.00000000E+00
  0.00000000E+00  0.00000000E+00  0.00000000E+00
  0.00000000E+00  0.00000000E+00  0.00000000E+00
  0.00000000E+00  0.00000000E+00  0.00000000E+00
  0.00000000E+00  0.00000000E+00  0.00000000E+00
  0.00000000E+00  0.00000000E+00  0.00000000E+00
  0.00000000E+00  0.00000000E+00  0.00000000E+00
  0.00000000E+00  0.00000000E+00  0.00000000E+00
  0.00000000E+00  0.00000000E+00  0.00000000E+00
  0.00000000E+00  0.00000000E+00  0.00000000E+00
  0.00000000E+00  0.00000000E+00  0.00000000E+00
  0.00000000E+00  0.00000000E+00  0.00000000E+00
  0.00000000E+00  0.00000000E+00  0.00000000E+00
  0.00000000E+00  0.00000000E+00  0.00000000E+00
  0.00000000E+00  0.00000000E+00  0.00000000E+00
  0.00000000E+00  0.00000000E+00  0.00000000E+00
  0.00000000E+00  0.00000000E+00  0.00000000E+00
  0.00000000E+00  0.00000000E+00  0.00000000E+00
  0.00000000E+00  0.00000000E+00  0.00000000E+00
  0.00000000E+00  0.00000000E+00  0.00000000E+00
  0.00000000E+00  0.00000000E+00  0.00000000E+00
  0.00000000E+00  0.00000000E+00  0.00000000E+00
  0.00000000E+00  0.00000000E+00  0.00000000E+00
  0.00000000E+00  0.00000000E+00  0.00000000E+00
  0.00000000E+00  0.00000000E+00  0.00000000E+00
  0.00000000E+00  0.00000000E+00  0.00000000E+00
  0.00000000E+00  0.00000000E+00  0.00000000E+00
  0.00000000E+00  0.00000000E+00  0.00000000E+00
  0.00000000E+00  0.00000000E+00  0.00000000E+00
  0.00000000E+00  0.00000000E+00  0.00000000E+00
  0.00000000E+00  0.00000000E+00  0.00000000E+00
  0.00000000E+00  0.00000000E+00  0.00000000E+00
  0.00000000E+00  0.00000000E+00  0.00000000E+00
  0.00000000E+00  0.00000000E+00  0.00000000E+00
  0.00000000E+00  0.00000000E+00  0.00000000E+00
  0.00000000E+00  0.00000000E+00  0.00000000E+00
  0.00000000E+00  0.00000000E+00  0.00000000E+00
  0.00000000E+00  0.00000000E+00  0.00000000E+00
  0.00000000E+00  0.00000000E+00  0.00000000E+00
  0.00000000E+00  0.00000000E+00  0.00000000E+00
  0.00000000E+00  0.00000000E+00  0.00000000E+00
  0.00000000E+00  0.00000000E+00  0.00000000E+00
  0.00000000E+00  0.00000000E+00  0.00000000E+00
  0.00000000E+00  0.00000000E+00  0.00000000E+00
  0.00000000E+00  0.00000000E+00  0.00000000E+00
  0.00000000E+00  0.00000000E+00  0.00000000E+00
  0.00000000E+00  0.00000000E+00  0.00000000E+00
