generated by phonopy                    
   1.00000000000000     
    10.0351470768999995   -0.0000022330999784   -0.0000001056124209
    -5.0175765436399997    8.6906901959899994    0.0000001395531216
    -0.0000001735893656    0.0000001431815548   14.9533752540999991
   Pb   P    O 
    20    12    49
Direct
  0.9941770060552031  0.7687667791212220  0.1246589833367224
  0.9942866365982823  0.7691437554126068  0.6215421892497019
  0.0226720337018449  0.2721547110843474  0.3735312675878504
  0.0046523003147030  0.2631387375104168  0.8734331172453338
  0.2302013831871079  0.2261639833186280  0.1223338000558769
  0.2305690157982667  0.2267657542192651  0.6234306377327599
  0.7070496138824964  0.7135332136531787  0.3738876851311375
  0.7368720040325272  0.7396638790517471  0.8736646597240210
  0.7764144281440650  0.0020415979071018  0.1245760876650408
  0.7765931490013145  0.0021646682345065  0.6213002076332614
  0.2543259781303178  0.9988306368972317  0.3735923785590458
  0.2576682982236846  0.9950798473174771  0.8735109272185184
  0.6671293173786097  0.3328163438720679  0.0017513479403277
  0.6645487645406760  0.3276964337953032  0.5001752704916456
  0.3342926924094343  0.6678745459413733  0.0027846275136696
  0.3295230069969222  0.6685049282750697  0.5055192408531468
  0.3299541687833027  0.6676751856147405  0.2420472837912584
  0.3345438310179887  0.6677106833253674  0.7447531237087759
  0.6643404364244034  0.3276825122928528  0.2484671449645290
  0.6670658475201918  0.3329761501204445  0.7470569794776196
  0.6198950619757824  0.5908600870208787  0.1227142150946250
  0.6201432274860750  0.5913216792819611  0.6255410213841088
  0.4003198987407757  0.4259080330910123  0.3741770819294103
  0.3679535010236279  0.3936551721494155  0.8740109339144482
  0.4039333475812228  0.0283983934148324  0.1237168641916995
  0.4040430534509767  0.0286130568852627  0.6245574045870583
  0.5993967543921030  0.9678956713973790  0.3740607972213894
  0.6058743381448082  0.9725120858058816  0.8740458993623861
  0.9733144211045115  0.3758671531054176  0.1253729636967975
  0.9731999370132556  0.3759897981989369  0.6229133237502040
  0.0244917475441468  0.6327177004190290  0.3740680539248729
  0.0272320321712911  0.6325475015520183  0.8740287056326608
  0.4962519617905770  0.6419028134688958  0.1221031491178621
  0.4964657084463724  0.6423254656643707  0.6255112631083222
  0.4690816772266047  0.3139344349723672  0.3740336565136033
  0.4702658501497297  0.3179983142020575  0.8743104734355569
  0.3494447921229167  0.8528176353096555  0.1221138301126601
  0.3494742710291732  0.8529926032951778  0.6253913396871127
  0.6881257345384029  0.1467022131300340  0.3741118304249653
  0.6844057871545317  0.1508012543663000  0.8743234061579841
  0.1472343038826978  0.5030352881355853  0.1243628539458399
  0.1471887486953136  0.5030599977064227  0.6232510980350341
  0.8466736941971504  0.5292360086331698  0.3743007939278087
  0.8490902144094008  0.5308671532251736  0.8743363736319054
  0.7263136312357261  0.6520741277817592  0.0381638786665093
  0.7261266380778721  0.6538504644778556  0.5409198312315979
  0.2890424360956274  0.3873122003976519  0.4581684548409797
  0.2607939760420095  0.3488995113353113  0.9580747921764470
  0.3435233828760502  0.0755756315369212  0.0395058970012769
  0.3443175057532244  0.0739242744829909  0.5393532253927731
  0.6352995071786225  0.8980716248396803  0.4583738306808129
  0.6481958351594699  0.9085625469377945  0.9583743046334874
  0.9303424821669921  0.2698666904513871  0.0408758008810466
  0.9326676208105198  0.2710184103874624  0.5377684537768843
  0.0871899800778948  0.7386917974018772  0.4584200560799943
  0.0901065005680977  0.7392189595842282  0.9581757209666222
  0.2889836130409833  0.3879383591450178  0.2904683916917961
  0.2596697999062485  0.3470187254867199  0.7904067365374914
  0.7261830940689862  0.6552972619485757  0.2069910631220466
  0.7271032784630336  0.6544039054594037  0.7097991348788071
  0.6361826078173820  0.8981874233900697  0.2901375790895386
  0.6505479775405618  0.9093498217736098  0.7903716578997546
  0.3417598719087636  0.0720060274651075  0.2084839572469050
  0.3413572355743568  0.0742360602043064  0.7083459027583174
  0.0860986100645391  0.7401552590056895  0.2903511697885719
  0.0892133741151611  0.7406866001235528  0.7904918350575656
  0.9347550575348507  0.2701519074439247  0.2099549425112244
  0.9316964343637295  0.2691510120182414  0.7069726920215373
  0.5418591399734041  0.4105000433433332  0.1237939469667921
  0.5420801019538715  0.4109339677782984  0.6256915238568581
  0.4734403646986607  0.5755058336306291  0.8733926506403762
  0.5843531972873564  0.1267074998109123  0.1241272890061111
  0.5844707595127119  0.1268265769939063  0.6255288125429672
  0.4194637147331122  0.9038267896239276  0.3736942698605432
  0.4241173090347061  0.8989714250920500  0.8732711444309587
  0.8694506027461983  0.4518701943299206  0.1264570732978854
  0.8694072502068977  0.4521343104336282  0.6233087366857362
  0.1018919467050168  0.5282943228477848  0.3731951706521244
  0.1024746142377637  0.5258369012801793  0.8732345274370914
  0.0009973330666071  0.9990009950670498  0.1209097363717788
  0.0014038580006712  0.9995810554301059  0.6197358490067018
 
  0.00000000E+00  0.00000000E+00  0.00000000E+00
  0.00000000E+00  0.00000000E+00  0.00000000E+00
  0.00000000E+00  0.00000000E+00  0.00000000E+00
  0.00000000E+00  0.00000000E+00  0.00000000E+00
  0.00000000E+00  0.00000000E+00  0.00000000E+00
  0.00000000E+00  0.00000000E+00  0.00000000E+00
  0.00000000E+00  0.00000000E+00  0.00000000E+00
  0.00000000E+00  0.00000000E+00  0.00000000E+00
  0.00000000E+00  0.00000000E+00  0.00000000E+00
  0.00000000E+00  0.00000000E+00  0.00000000E+00
  0.00000000E+00  0.00000000E+00  0.00000000E+00
  0.00000000E+00  0.00000000E+00  0.00000000E+00
  0.00000000E+00  0.00000000E+00  0.00000000E+00
  0.00000000E+00  0.00000000E+00  0.00000000E+00
  0.00000000E+00  0.00000000E+00  0.00000000E+00
  0.00000000E+00  0.00000000E+00  0.00000000E+00
  0.00000000E+00  0.00000000E+00  0.00000000E+00
  0.00000000E+00  0.00000000E+00  0.00000000E+00
  0.00000000E+00  0.00000000E+00  0.00000000E+00
  0.00000000E+00  0.00000000E+00  0.00000000E+00
  0.00000000E+00  0.00000000E+00  0.00000000E+00
  0.00000000E+00  0.00000000E+00  0.00000000E+00
  0.00000000E+00  0.00000000E+00  0.00000000E+00
  0.00000000E+00  0.00000000E+00  0.00000000E+00
  0.00000000E+00  0.00000000E+00  0.00000000E+00
  0.00000000E+00  0.00000000E+00  0.00000000E+00
  0.00000000E+00  0.00000000E+00  0.00000000E+00
  0.00000000E+00  0.00000000E+00  0.00000000E+00
  0.00000000E+00  0.00000000E+00  0.00000000E+00
  0.00000000E+00  0.00000000E+00  0.00000000E+00
  0.00000000E+00  0.00000000E+00  0.00000000E+00
  0.00000000E+00  0.00000000E+00  0.00000000E+00
  0.00000000E+00  0.00000000E+00  0.00000000E+00
  0.00000000E+00  0.00000000E+00  0.00000000E+00
  0.00000000E+00  0.00000000E+00  0.00000000E+00
  0.00000000E+00  0.00000000E+00  0.00000000E+00
  0.00000000E+00  0.00000000E+00  0.00000000E+00
  0.00000000E+00  0.00000000E+00  0.00000000E+00
  0.00000000E+00  0.00000000E+00  0.00000000E+00
  0.00000000E+00  0.00000000E+00  0.00000000E+00
  0.00000000E+00  0.00000000E+00  0.00000000E+00
  0.00000000E+00  0.00000000E+00  0.00000000E+00
  0.00000000E+00  0.00000000E+00  0.00000000E+00
  0.00000000E+00  0.00000000E+00  0.00000000E+00
  0.00000000E+00  0.00000000E+00  0.00000000E+00
  0.00000000E+00  0.00000000E+00  0.00000000E+00
  0.00000000E+00  0.00000000E+00  0.00000000E+00
  0.00000000E+00  0.00000000E+00  0.00000000E+00
  0.00000000E+00  0.00000000E+00  0.00000000E+00
  0.00000000E+00  0.00000000E+00  0.00000000E+00
  0.00000000E+00  0.00000000E+00  0.00000000E+00
  0.00000000E+00  0.00000000E+00  0.00000000E+00
  0.00000000E+00  0.00000000E+00  0.00000000E+00
  0.00000000E+00  0.00000000E+00  0.00000000E+00
  0.00000000E+00  0.00000000E+00  0.00000000E+00
  0.00000000E+00  0.00000000E+00  0.00000000E+00
  0.00000000E+00  0.00000000E+00  0.00000000E+00
  0.00000000E+00  0.00000000E+00  0.00000000E+00
  0.00000000E+00  0.00000000E+00  0.00000000E+00
  0.00000000E+00  0.00000000E+00  0.00000000E+00
  0.00000000E+00  0.00000000E+00  0.00000000E+00
  0.00000000E+00  0.00000000E+00  0.00000000E+00
  0.00000000E+00  0.00000000E+00  0.00000000E+00
  0.00000000E+00  0.00000000E+00  0.00000000E+00
  0.00000000E+00  0.00000000E+00  0.00000000E+00
  0.00000000E+00  0.00000000E+00  0.00000000E+00
  0.00000000E+00  0.00000000E+00  0.00000000E+00
  0.00000000E+00  0.00000000E+00  0.00000000E+00
  0.00000000E+00  0.00000000E+00  0.00000000E+00
  0.00000000E+00  0.00000000E+00  0.00000000E+00
  0.00000000E+00  0.00000000E+00  0.00000000E+00
  0.00000000E+00  0.00000000E+00  0.00000000E+00
  0.00000000E+00  0.00000000E+00  0.00000000E+00
  0.00000000E+00  0.00000000E+00  0.00000000E+00
  0.00000000E+00  0.00000000E+00  0.00000000E+00
  0.00000000E+00  0.00000000E+00  0.00000000E+00
  0.00000000E+00  0.00000000E+00  0.00000000E+00
  0.00000000E+00  0.00000000E+00  0.00000000E+00
  0.00000000E+00  0.00000000E+00  0.00000000E+00
  0.00000000E+00  0.00000000E+00  0.00000000E+00
  0.00000000E+00  0.00000000E+00  0.00000000E+00
