supercell of POSCAR                     
   1.03600000000000     
     9.6051007291200001   -5.6678653607799996   -9.9907275475200006
     9.5551777488200003    5.5783510108199996    9.9928581731800001
    -1.5573508785200001   -8.3719044994900003    4.9655686364999996
   Al   Gd   N 
    72    24    95
Direct
  0.3018018633218702  0.2876746590042814  0.5392418749575896
  0.1414244318428217  0.2456454215123145  0.3107757280183492
  0.3065294639930443  0.4103557651179699  0.3090648058367833
  0.4635390021807453  0.3217468008039219  0.7849110944483897
  0.1417686410356822  0.4984850408719481  0.7851468977252054
  0.2978269535687517  0.1638059259469742  0.7745074442615376
  0.4707515740181876  0.4489213516689148  0.5362474951396479
  0.1406477335490166  0.1185730974344423  0.5421937565339476
  0.5055458307786651  0.0423457800309848  0.2718814748280778
  0.2513263321943882  0.1007644411374571  0.3312953189456493
  0.1140865158415068  0.0694732254231738  0.0978317505501494
  0.1158400515053870  0.1964797976309782  0.8170512962550873
  0.2735632639442116  0.3559592887520182  0.8132780723935085
  0.1117709195133898  0.3247140926593985  0.5899795935948475
  0.2707437258601928  0.4849062628562493  0.5772892302044568
  0.4550092152174230  0.3002158602444922  0.3333526437418044
  0.1106911129093646  0.4466606595065485  0.3416175304322238
  0.4482162563537528  0.4042333201205253  0.0999019508345569
  0.8014583074913375  0.2887758687094077  0.5394469865446325
  0.6451145330644508  0.2435563414453625  0.3115492010712373
  0.8089733187361290  0.4093955594608971  0.3109323163767783
  0.9633757368646982  0.3251511750792631  0.7900286604396030
  0.6422841079214052  0.4987992257737659  0.7853875207530407
  0.7956424009966199  0.1653388447073212  0.7798834213472219
  0.9694757800543314  0.4463649513660144  0.5345931249837079
  0.6447154836388904  0.1183920502833971  0.5387490707912903
  0.9786755881440996  0.0723027637754114  0.2985926001702310
  0.7776284447118726  0.1087508721800603  0.3355497102159717
  0.6186895480968673  0.0740699342031235  0.0942300410731534
  0.6133270477406114  0.1956163491367420  0.8144882841731516
  0.7746981345285775  0.3554006959489797  0.8125827503581462
  0.6114386279854571  0.3250318463179340  0.5906188520091860
  0.7707459255499316  0.4849350473244201  0.5777737723734688
  0.9482655361949455  0.2802315345171422  0.3372219496878657
  0.6141168502358099  0.4489098489424705  0.3395343108360933
  0.9479671665737399  0.4051583969222960  0.1053577273566617
  0.3012301829102810  0.7883112668724408  0.5386386405593981
  0.1432856146637178  0.7431773077678940  0.3119691344503295
  0.3086990547720703  0.9084268338168897  0.3099119177183525
  0.4631820166127909  0.8261622838565188  0.7887840525017751
  0.1424023474187877  0.9977903574504410  0.7841201491287322
  0.2953854501078865  0.6649032129111063  0.7798925086292812
  0.4703794007684294  0.9453389675562107  0.5302569113428532
  0.1433630596721400  0.6196350468207896  0.5397082335686463
  0.4778900474215533  0.5716019703564541  0.2981621711322333
  0.2759178957333503  0.6087107575385602  0.3368235266280166
  0.1144455622031302  0.5711562929739884  0.1029461626167603
  0.1149880455208248  0.6961542957098033  0.8180373213231391
  0.2746170672147130  0.8552484864571639  0.8115416476545292
  0.1120768423211302  0.8245026101967596  0.5897987589546503
  0.2704562926364673  0.9855318661619137  0.5752297125619066
  0.4483900536441539  0.7784789779476355  0.3354316000908071
  0.1073546180592615  0.9418972522045408  0.3393643622727751
  0.4440560223481214  0.9009260525151959  0.0969640765965707
  0.8012212613519623  0.7884147793114025  0.5401240763108888
  0.6430768734571046  0.7413544230811553  0.3120341386907981
  0.8105923300291948  0.9095146327087349  0.3111796444821664
  0.9627670979096976  0.8253045457295372  0.7899481159999837
  0.6420057334949831  0.9975216918826177  0.7835612450422857
  0.7953985546555842  0.6652001132800649  0.7803811010834281
  0.9693908764231267  0.9458280666793470  0.5342438062541603
  0.6435963584876845  0.6198145267208233  0.5400753675265335
  0.9782966860588118  0.5722512430525768  0.2990848184416208
  0.7772274357661217  0.6092878726678634  0.3371975050713232
  0.6151484090548252  0.5702602113888062  0.1023312842432702
  0.6146740317896544  0.6966934848415818  0.8184687002401319
  0.7741674540165064  0.8554741307372637  0.8138812891990170
  0.6120351744717709  0.8232685260107786  0.5908222672900934
  0.7722495277803745  0.9850775721996641  0.5790178528018117
  0.9475529405081673  0.7787035111068406  0.3375206865848597
  0.6199658235066039  0.9376803207220661  0.3459627867866644
  0.9482997152873978  0.9041726696186316  0.1042604637173952
  0.4828152121475782  0.1945053854750256  0.0390359836545784
  0.1344706141357150  0.3672896488828528  0.0343117679635867
  0.3095169025234128  0.0211888543656826  0.0378064401222176
  0.2826779660830212  0.2340921764163255  0.0790781945863088
  0.4481256694888742  0.0220205777318796  0.8104810684463217
  0.4424820574096842  0.1541394049072267  0.5421210233115161
  0.9832929571050713  0.1954332495132363  0.0402447302297233
  0.6368450381737674  0.3648269216883477  0.0317711761793475
  0.8096072531186422  0.0208518323899796  0.0389817346445867
  0.7858267357000273  0.2346013461873397  0.0814214456896991
  0.9495181892864650  0.0200802521462791  0.8198836833532681
  0.9426054570607931  0.1555242690032017  0.5731680965093489
  0.4834291464713587  0.6937747917798660  0.0381566966366620
  0.1368861020666827  0.8648292998123708  0.0320474904742483
  0.3075606398222916  0.5217390403367901  0.0405352272344430
  0.2835822371229284  0.7320215132355798  0.0836130093153429
  0.4478540497144721  0.5179032808901809  0.8197852912188992
  0.4429066899688223  0.6557688481836692  0.5731998140456014
  0.9815150780550397  0.6961746460262148  0.0408040560408480
  0.6324136532096034  0.8695773315068607  0.0351996284696341
  0.8073408029485378  0.5226986390190191  0.0412619617785026
  0.7819878746030966  0.7355538738334033  0.0841472205476990
  0.9481482117118460  0.5197210585429275  0.8214496230535531
  0.9438934491201678  0.6548824205612931  0.5746803729763528
  0.2386714722378755  0.3666856958213884  0.6264876259667815
  0.0750885687125091  0.3255901174534799  0.4010111366109186
  0.2385372008489313  0.4899436090765477  0.3914714984035470
  0.4262145520003031  0.2915177224298446  0.1554125840560232
  0.0689971455349792  0.4579914040183652  0.1540026478529413
  0.2352984719341933  0.1031209895441307  0.1534841877635742
  0.3995510147729604  0.3899337501810436  0.9057202152693051
  0.0947139381563673  0.0834427070158981  0.9023304999842168
  0.2355506550632711  0.2428642331277970  0.8618778079057208
  0.3960028622523168  0.0208869942212218  0.5976301093282075
  0.0888988498356227  0.2034906835571562  0.6325847874408126
  0.2169601252560014  0.1908226010445020  0.4361528415388349
  0.0633142237135971  0.1449378228728690  0.2093592884295461
  0.2155935416866086  0.3198344837860176  0.2096415029958862
  0.3665646700760021  0.1170938303567226  0.9074510137409888
  0.0428655644340594  0.2688359849288346  0.8868107816902295
  0.2099632756162677  0.4352818004523229  0.8897637090415742
  0.3717510255626166  0.2397188688733323  0.6721053530598766
  0.0400746130421510  0.4064232357601227  0.6840158951991455
  0.2120798720161119  0.0673990546436869  0.6698993806351936
  0.3818854231844426  0.3543786859032281  0.4343071218954435
  0.0484471833849014  0.0254388256335361  0.4400666923858410
  0.3909240846718873  0.4734306784495601  0.2089944089559594
  0.7364427727047058  0.3670534509337173  0.6264783253529771
  0.5768599891538884  0.3264790434494174  0.4003443120348393
  0.7397141571931343  0.4904714745033303  0.3914554199786338
  0.9286530221412121  0.2929478440393183  0.1574115887577960
  0.5697913916852926  0.4558782441646088  0.1514334133870747
  0.7364803936129931  0.1032281646999209  0.1548680087108352
  0.8997417840138695  0.3926778119000929  0.9096591746664942
  0.5920810570485315  0.0826154760417879  0.9011601155926243
  0.7318924857798237  0.2437858620888207  0.8656193887794856
  0.8959380084792983  0.0162139642885961  0.6108294981064333
  0.5843771377715328  0.2006126351077171  0.6280443293316651
  0.9047385103831900  0.1558777482944862  0.3551708815106167
  0.7194209822371676  0.1903763943122030  0.4355198914315253
  0.5630148785317672  0.1456379048322418  0.2090579398903714
  0.7164906478519626  0.3195657131647209  0.2105004502549832
  0.8661037423323847  0.1180357235270435  0.9090560677029913
  0.5418497721631965  0.2680148453394864  0.8865661877107271
  0.7103882355880842  0.4357398567470767  0.8891344895036184
  0.8667849803181582  0.2467475730998387  0.6828746221871782
  0.5396709969678497  0.4062097336507122  0.6831421064678977
  0.7122724658021653  0.0681582112344401  0.6720121318572367
  0.8818750409589029  0.3526596316963690  0.4340131858924607
  0.5545322783827586  0.0211102718619713  0.4406842699341169
  0.8901357811073538  0.4755593685920232  0.2103653822741336
  0.2386067871603217  0.8689222411837818  0.6259691192211605
  0.0743668805419517  0.8240381366597660  0.4007332833008519
  0.2355464857125042  0.9872895044195928  0.3892149136053717
  0.4280835939230414  0.7917104353381035  0.1551419871087134
  0.0700508041024577  0.9561689890437037  0.1513170396967780
  0.2343055714650362  0.6021769169756297  0.1569175542938694
  0.4006427273080320  0.8967225065954381  0.9070585408312510
  0.0936255167183973  0.5832643130740536  0.9028193737846308
  0.2340378084718040  0.7447825045516439  0.8686033168133136
  0.3951493137885862  0.5165263937453659  0.6100663409904925
  0.0905968692032744  0.7039906440195054  0.6332791585297315
  0.4037074219190302  0.6549868036389768  0.3548549831352545
  0.2193257321691178  0.6908771816287924  0.4357831114149917
  0.0611816332435282  0.6463988828525800  0.2095681618172094
  0.2165056340838660  0.8197801680376244  0.2108234531515834
  0.3657077274636436  0.6166742869821888  0.9085606924371135
  0.0416424889895808  0.7689439797651687  0.8866842162277990
  0.2109614826729853  0.9356461929337101  0.8887677861274881
  0.3667965240039166  0.7472568162001636  0.6831906241111056
  0.0399043238661676  0.9069135681653435  0.6842271583286177
  0.2121297569943792  0.5677885129674820  0.6715064241535273
  0.3822154710591334  0.8522352872462591  0.4323643593105260
  0.0484190981363994  0.5265058519539636  0.4413779746679509
  0.3917733583581722  0.9753867356251362  0.2106552552208711
  0.7370727143971649  0.8681128231975208  0.6279291827336309
  0.5752476620824751  0.8220050026250831  0.4018151100268668
  0.7424276480379106  0.9901154938574379  0.3926961419705179
  0.9254250882945740  0.7927583972517169  0.1582900813220860
  0.5652062548317076  0.9634427560725243  0.1605821205071791
  0.7345845891666301  0.6048277819435484  0.1575537169616510
  0.8994056677014726  0.8943175087077151  0.9094913277663181
  0.5922463817855146  0.5834061062158185  0.9029302416697362
  0.7332625278910783  0.7444237172722907  0.8680997753679307
  0.8948993904681330  0.5155276893782101  0.6114414565912796
  0.5892201590280948  0.7030578321446725  0.6337049398341392
  0.9042698894963550  0.6553805392688545  0.3573870194509681
  0.7193603094296890  0.6908876697642725  0.4361408043401838
  0.5611299336842563  0.6447154977295853  0.2094520009157463
  0.7122529093649916  0.8235115123840373  0.2118286940018805
  0.8653445684100092  0.6175804820845840  0.9097352598040871
  0.5422471271779514  0.7709406621261650  0.8875060830423607
  0.7087897180398812  0.9353143456544615  0.8909007705727987
  0.8668237972668820  0.7464945489941854  0.6830906631200335
  0.5385320851972821  0.9075176356313648  0.6830819397426495
  0.7117838133611230  0.5680954651855075  0.6717057532669486
  0.8817261223309814  0.8522126986704706  0.4342661447869745
  0.5489236343507997  0.5261159085827529  0.4399731574459764
  0.8915018622057289  0.9753858836744271  0.2103434281982928
 
  0.00000000E+00  0.00000000E+00  0.00000000E+00
  0.00000000E+00  0.00000000E+00  0.00000000E+00
  0.00000000E+00  0.00000000E+00  0.00000000E+00
  0.00000000E+00  0.00000000E+00  0.00000000E+00
  0.00000000E+00  0.00000000E+00  0.00000000E+00
  0.00000000E+00  0.00000000E+00  0.00000000E+00
  0.00000000E+00  0.00000000E+00  0.00000000E+00
  0.00000000E+00  0.00000000E+00  0.00000000E+00
  0.00000000E+00  0.00000000E+00  0.00000000E+00
  0.00000000E+00  0.00000000E+00  0.00000000E+00
  0.00000000E+00  0.00000000E+00  0.00000000E+00
  0.00000000E+00  0.00000000E+00  0.00000000E+00
  0.00000000E+00  0.00000000E+00  0.00000000E+00
  0.00000000E+00  0.00000000E+00  0.00000000E+00
  0.00000000E+00  0.00000000E+00  0.00000000E+00
  0.00000000E+00  0.00000000E+00  0.00000000E+00
  0.00000000E+00  0.00000000E+00  0.00000000E+00
  0.00000000E+00  0.00000000E+00  0.00000000E+00
  0.00000000E+00  0.00000000E+00  0.00000000E+00
  0.00000000E+00  0.00000000E+00  0.00000000E+00
  0.00000000E+00  0.00000000E+00  0.00000000E+00
  0.00000000E+00  0.00000000E+00  0.00000000E+00
  0.00000000E+00  0.00000000E+00  0.00000000E+00
  0.00000000E+00  0.00000000E+00  0.00000000E+00
  0.00000000E+00  0.00000000E+00  0.00000000E+00
  0.00000000E+00  0.00000000E+00  0.00000000E+00
  0.00000000E+00  0.00000000E+00  0.00000000E+00
  0.00000000E+00  0.00000000E+00  0.00000000E+00
  0.00000000E+00  0.00000000E+00  0.00000000E+00
  0.00000000E+00  0.00000000E+00  0.00000000E+00
  0.00000000E+00  0.00000000E+00  0.00000000E+00
  0.00000000E+00  0.00000000E+00  0.00000000E+00
  0.00000000E+00  0.00000000E+00  0.00000000E+00
  0.00000000E+00  0.00000000E+00  0.00000000E+00
  0.00000000E+00  0.00000000E+00  0.00000000E+00
  0.00000000E+00  0.00000000E+00  0.00000000E+00
  0.00000000E+00  0.00000000E+00  0.00000000E+00
  0.00000000E+00  0.00000000E+00  0.00000000E+00
  0.00000000E+00  0.00000000E+00  0.00000000E+00
  0.00000000E+00  0.00000000E+00  0.00000000E+00
  0.00000000E+00  0.00000000E+00  0.00000000E+00
  0.00000000E+00  0.00000000E+00  0.00000000E+00
  0.00000000E+00  0.00000000E+00  0.00000000E+00
  0.00000000E+00  0.00000000E+00  0.00000000E+00
  0.00000000E+00  0.00000000E+00  0.00000000E+00
  0.00000000E+00  0.00000000E+00  0.00000000E+00
  0.00000000E+00  0.00000000E+00  0.00000000E+00
  0.00000000E+00  0.00000000E+00  0.00000000E+00
  0.00000000E+00  0.00000000E+00  0.00000000E+00
  0.00000000E+00  0.00000000E+00  0.00000000E+00
  0.00000000E+00  0.00000000E+00  0.00000000E+00
  0.00000000E+00  0.00000000E+00  0.00000000E+00
  0.00000000E+00  0.00000000E+00  0.00000000E+00
  0.00000000E+00  0.00000000E+00  0.00000000E+00
  0.00000000E+00  0.00000000E+00  0.00000000E+00
  0.00000000E+00  0.00000000E+00  0.00000000E+00
  0.00000000E+00  0.00000000E+00  0.00000000E+00
  0.00000000E+00  0.00000000E+00  0.00000000E+00
  0.00000000E+00  0.00000000E+00  0.00000000E+00
  0.00000000E+00  0.00000000E+00  0.00000000E+00
  0.00000000E+00  0.00000000E+00  0.00000000E+00
  0.00000000E+00  0.00000000E+00  0.00000000E+00
  0.00000000E+00  0.00000000E+00  0.00000000E+00
  0.00000000E+00  0.00000000E+00  0.00000000E+00
  0.00000000E+00  0.00000000E+00  0.00000000E+00
  0.00000000E+00  0.00000000E+00  0.00000000E+00
  0.00000000E+00  0.00000000E+00  0.00000000E+00
  0.00000000E+00  0.00000000E+00  0.00000000E+00
  0.00000000E+00  0.00000000E+00  0.00000000E+00
  0.00000000E+00  0.00000000E+00  0.00000000E+00
  0.00000000E+00  0.00000000E+00  0.00000000E+00
  0.00000000E+00  0.00000000E+00  0.00000000E+00
  0.00000000E+00  0.00000000E+00  0.00000000E+00
  0.00000000E+00  0.00000000E+00  0.00000000E+00
  0.00000000E+00  0.00000000E+00  0.00000000E+00
  0.00000000E+00  0.00000000E+00  0.00000000E+00
  0.00000000E+00  0.00000000E+00  0.00000000E+00
  0.00000000E+00  0.00000000E+00  0.00000000E+00
  0.00000000E+00  0.00000000E+00  0.00000000E+00
  0.00000000E+00  0.00000000E+00  0.00000000E+00
  0.00000000E+00  0.00000000E+00  0.00000000E+00
  0.00000000E+00  0.00000000E+00  0.00000000E+00
  0.00000000E+00  0.00000000E+00  0.00000000E+00
  0.00000000E+00  0.00000000E+00  0.00000000E+00
  0.00000000E+00  0.00000000E+00  0.00000000E+00
  0.00000000E+00  0.00000000E+00  0.00000000E+00
  0.00000000E+00  0.00000000E+00  0.00000000E+00
  0.00000000E+00  0.00000000E+00  0.00000000E+00
  0.00000000E+00  0.00000000E+00  0.00000000E+00
  0.00000000E+00  0.00000000E+00  0.00000000E+00
  0.00000000E+00  0.00000000E+00  0.00000000E+00
  0.00000000E+00  0.00000000E+00  0.00000000E+00
  0.00000000E+00  0.00000000E+00  0.00000000E+00
  0.00000000E+00  0.00000000E+00  0.00000000E+00
  0.00000000E+00  0.00000000E+00  0.00000000E+00
  0.00000000E+00  0.00000000E+00  0.00000000E+00
  0.00000000E+00  0.00000000E+00  0.00000000E+00
  0.00000000E+00  0.00000000E+00  0.00000000E+00
  0.00000000E+00  0.00000000E+00  0.00000000E+00
  0.00000000E+00  0.00000000E+00  0.00000000E+00
  0.00000000E+00  0.00000000E+00  0.00000000E+00
  0.00000000E+00  0.00000000E+00  0.00000000E+00
  0.00000000E+00  0.00000000E+00  0.00000000E+00
  0.00000000E+00  0.00000000E+00  0.00000000E+00
  0.00000000E+00  0.00000000E+00  0.00000000E+00
  0.00000000E+00  0.00000000E+00  0.00000000E+00
  0.00000000E+00  0.00000000E+00  0.00000000E+00
  0.00000000E+00  0.00000000E+00  0.00000000E+00
  0.00000000E+00  0.00000000E+00  0.00000000E+00
  0.00000000E+00  0.00000000E+00  0.00000000E+00
  0.00000000E+00  0.00000000E+00  0.00000000E+00
  0.00000000E+00  0.00000000E+00  0.00000000E+00
  0.00000000E+00  0.00000000E+00  0.00000000E+00
  0.00000000E+00  0.00000000E+00  0.00000000E+00
  0.00000000E+00  0.00000000E+00  0.00000000E+00
  0.00000000E+00  0.00000000E+00  0.00000000E+00
  0.00000000E+00  0.00000000E+00  0.00000000E+00
  0.00000000E+00  0.00000000E+00  0.00000000E+00
  0.00000000E+00  0.00000000E+00  0.00000000E+00
  0.00000000E+00  0.00000000E+00  0.00000000E+00
  0.00000000E+00  0.00000000E+00  0.00000000E+00
  0.00000000E+00  0.00000000E+00  0.00000000E+00
  0.00000000E+00  0.00000000E+00  0.00000000E+00
  0.00000000E+00  0.00000000E+00  0.00000000E+00
  0.00000000E+00  0.00000000E+00  0.00000000E+00
  0.00000000E+00  0.00000000E+00  0.00000000E+00
  0.00000000E+00  0.00000000E+00  0.00000000E+00
  0.00000000E+00  0.00000000E+00  0.00000000E+00
  0.00000000E+00  0.00000000E+00  0.00000000E+00
  0.00000000E+00  0.00000000E+00  0.00000000E+00
  0.00000000E+00  0.00000000E+00  0.00000000E+00
  0.00000000E+00  0.00000000E+00  0.00000000E+00
  0.00000000E+00  0.00000000E+00  0.00000000E+00
  0.00000000E+00  0.00000000E+00  0.00000000E+00
  0.00000000E+00  0.00000000E+00  0.00000000E+00
  0.00000000E+00  0.00000000E+00  0.00000000E+00
  0.00000000E+00  0.00000000E+00  0.00000000E+00
  0.00000000E+00  0.00000000E+00  0.00000000E+00
  0.00000000E+00  0.00000000E+00  0.00000000E+00
  0.00000000E+00  0.00000000E+00  0.00000000E+00
  0.00000000E+00  0.00000000E+00  0.00000000E+00
  0.00000000E+00  0.00000000E+00  0.00000000E+00
  0.00000000E+00  0.00000000E+00  0.00000000E+00
  0.00000000E+00  0.00000000E+00  0.00000000E+00
  0.00000000E+00  0.00000000E+00  0.00000000E+00
  0.00000000E+00  0.00000000E+00  0.00000000E+00
  0.00000000E+00  0.00000000E+00  0.00000000E+00
  0.00000000E+00  0.00000000E+00  0.00000000E+00
  0.00000000E+00  0.00000000E+00  0.00000000E+00
  0.00000000E+00  0.00000000E+00  0.00000000E+00
  0.00000000E+00  0.00000000E+00  0.00000000E+00
  0.00000000E+00  0.00000000E+00  0.00000000E+00
  0.00000000E+00  0.00000000E+00  0.00000000E+00
  0.00000000E+00  0.00000000E+00  0.00000000E+00
  0.00000000E+00  0.00000000E+00  0.00000000E+00
  0.00000000E+00  0.00000000E+00  0.00000000E+00
  0.00000000E+00  0.00000000E+00  0.00000000E+00
  0.00000000E+00  0.00000000E+00  0.00000000E+00
  0.00000000E+00  0.00000000E+00  0.00000000E+00
  0.00000000E+00  0.00000000E+00  0.00000000E+00
  0.00000000E+00  0.00000000E+00  0.00000000E+00
  0.00000000E+00  0.00000000E+00  0.00000000E+00
  0.00000000E+00  0.00000000E+00  0.00000000E+00
  0.00000000E+00  0.00000000E+00  0.00000000E+00
  0.00000000E+00  0.00000000E+00  0.00000000E+00
  0.00000000E+00  0.00000000E+00  0.00000000E+00
  0.00000000E+00  0.00000000E+00  0.00000000E+00
  0.00000000E+00  0.00000000E+00  0.00000000E+00
  0.00000000E+00  0.00000000E+00  0.00000000E+00
  0.00000000E+00  0.00000000E+00  0.00000000E+00
  0.00000000E+00  0.00000000E+00  0.00000000E+00
  0.00000000E+00  0.00000000E+00  0.00000000E+00
  0.00000000E+00  0.00000000E+00  0.00000000E+00
  0.00000000E+00  0.00000000E+00  0.00000000E+00
  0.00000000E+00  0.00000000E+00  0.00000000E+00
  0.00000000E+00  0.00000000E+00  0.00000000E+00
  0.00000000E+00  0.00000000E+00  0.00000000E+00
  0.00000000E+00  0.00000000E+00  0.00000000E+00
  0.00000000E+00  0.00000000E+00  0.00000000E+00
  0.00000000E+00  0.00000000E+00  0.00000000E+00
  0.00000000E+00  0.00000000E+00  0.00000000E+00
  0.00000000E+00  0.00000000E+00  0.00000000E+00
  0.00000000E+00  0.00000000E+00  0.00000000E+00
  0.00000000E+00  0.00000000E+00  0.00000000E+00
  0.00000000E+00  0.00000000E+00  0.00000000E+00
  0.00000000E+00  0.00000000E+00  0.00000000E+00
  0.00000000E+00  0.00000000E+00  0.00000000E+00
  0.00000000E+00  0.00000000E+00  0.00000000E+00
  0.00000000E+00  0.00000000E+00  0.00000000E+00
  0.00000000E+00  0.00000000E+00  0.00000000E+00
  0.00000000E+00  0.00000000E+00  0.00000000E+00
