supercell of supercell of icsd_608626.c 
   1.00600000000000     
    18.8433725412000008    0.0042597715995000    0.0111656436851000
    -6.2786657403800001   10.8752831735999997   -0.0012954496991100
     0.0059525623905900    0.0022414031449000   10.0498800689000003
   Al   Gd   N    O 
    92     4    95     1
Direct
  0.1103647138588855  0.0849506872491901  0.2514297019054794
  0.0494687309751143  0.1635468488507641  0.9990009468242675
  0.4459939440778129  0.3345994851037517  0.7482352443196874
  0.3900592230848545  0.4171357231155355  0.5007092120709871
  0.2761043891918007  0.0850731811016701  0.2545777725415661
  0.2190369754041370  0.1536994884547696  0.0068796454888442
  0.1065571968414218  0.3303772349766874  0.7449412719012045
  0.0550633169999202  0.4183474485600343  0.5002248372007116
  0.4437067544222302  0.0822687788333454  0.2468766647659919
  0.3968706028566515  0.1734892338330880  0.9952537384138509
  0.2792179626331546  0.3276322902122715  0.7467826267914930
  0.2221995008816151  0.4170362277123232  0.5029717998523395
  0.1105785470528744  0.0841334349876846  0.7492826392565703
  0.0541021312157781  0.1652834829977152  0.5005509773032344
  0.4441189011967026  0.3332043773277533  0.2478240570935242
  0.3883731346489512  0.4104344214094269  0.9997849033605277
  0.2817201773332982  0.0868212567100741  0.7313019932378211
  0.2210772850035241  0.1663713459031868  0.4990088245430542
  0.1095553499815054  0.3330910954649795  0.2589311320879091
  0.0537333958714470  0.4179722106331454  0.0002749548007515
  0.4449580858769409  0.0819678677122724  0.7474816337966601
  0.3912816295332533  0.1684770443769139  0.4960047596158219
  0.2786938203167679  0.3356881025969329  0.2618189074053774
  0.6114893257501848  0.0833993743071630  0.2479762777377701
  0.5523977620905924  0.1612840469373822  0.9975361907788738
  0.9450916361790362  0.3351688297988105  0.7507888042856194
  0.8899895359408916  0.4176048882118408  0.5003140896070590
  0.7788099404863971  0.0860221192489377  0.2584262664501153
  0.7248471477198350  0.1688231499545196  0.9981504183086471
  0.6074068493642599  0.3300222296862785  0.7426333800555227
  0.5551252014152439  0.4177340380748760  0.4987935890390034
  0.9436687578273748  0.0837750855111565  0.2495325173817307
  0.8913194210017963  0.1727425586483164  0.9985993828835262
  0.7794265180694993  0.3320131805867490  0.7443482814829494
  0.7223379136333108  0.4170038807449927  0.4995172993719663
  0.6113572111641616  0.0828061957724557  0.7488948868100493
  0.5547213071105475  0.1641136389114024  0.4987054998357294
  0.9445865226932639  0.3342715897536621  0.2498056654705749
  0.8897375435309272  0.4154950911365276  0.9997446548528188
  0.7797749091040984  0.0880635593307133  0.7446414388277418
  0.7214793330642735  0.1662189029629957  0.5009565776592240
  0.6092352710240547  0.3315732391442481  0.2582848353733240
  0.5543679498807208  0.4168691143262748  0.9983760822239063
  0.9438698056341934  0.0830601506910824  0.7503779378420461
  0.8904157970158337  0.1688115271802957  0.5006340241401190
  0.7786354532759177  0.3326747564753916  0.2586151751541053
  0.1115700405027553  0.5845963520022011  0.2488312937992063
  0.0514687728221617  0.6621844575202260  0.9989186846006177
  0.4449088862892339  0.8338349247533401  0.7500572654851894
  0.3900497594398331  0.9167832366621198  0.4988544841600628
  0.2787663979162076  0.5860223355631504  0.2577936302252510
  0.2249817515672135  0.6690611735995091  0.9981244266593308
  0.1072839995067056  0.8306416444812683  0.7437324505599463
  0.0545276817822113  0.9178177581734772  0.5008566963040835
  0.4440949560617895  0.5828652502287071  0.2490942830687501
  0.3912172324998835  0.6703493928010360  0.9986200724209411
  0.2796341646229408  0.8314472103930726  0.7447292212941647
  0.2219293771807216  0.9157738752448097  0.4963460412374872
  0.1112212161912680  0.5836768042779070  0.7502217353815723
  0.0545108961886598  0.6646414290735478  0.5004581812114566
  0.4446704770708365  0.8331948952795045  0.2490471082174253
  0.3895462408677091  0.9135610831916452  0.9984161601141395
  0.2796498162094565  0.5870159682992124  0.7464298673457037
  0.2215698210674120  0.6658723821251584  0.5016269264758435
  0.1084746484772197  0.8319037600458188  0.2591052839896903
  0.0571953851570584  0.9218015787342750  0.0003922042404625
  0.4436294565845813  0.5811808844009931  0.7502245676453114
  0.3903968432104250  0.6678757149927605  0.5004762765095094
  0.2785648690552520  0.8316598898588481  0.2579727857267642
  0.6115858173873505  0.5836266898444933  0.2480106263446160
  0.5503050218258423  0.6600646231916087  0.9983231611695516
  0.9455964708874092  0.8354920330993991  0.7519164615683565
  0.8899882475379286  0.9176420667761818  0.5005947685623298
  0.7791870675951742  0.5863324455274750  0.2585283236816949
  0.7253152581798545  0.6691380319095970  0.9981487648691640
  0.6066486803883322  0.8292909649596254  0.7434105057818172
  0.5549093122063056  0.9173679454323036  0.4996473498718714
  0.9440168576963757  0.5835096503355146  0.2493844527012641
  0.8930211820269989  0.6738934662079288  0.9985220382779616
  0.7795822100277618  0.8320855093357409  0.7447206539006501
  0.7221899718005034  0.9168024030733477  0.5000169061921440
  0.6114200770174278  0.5833775641694388  0.7491289047605107
  0.5545093074216183  0.6640142654799561  0.4999206445543649
  0.9445543771883820  0.8343100964009196  0.2497492434881252
  0.8903460666056944  0.9155940793972590  0.9997904580384613
  0.7802755417465050  0.5885629507401902  0.7445565089413151
  0.7216158783320452  0.6663945525469188  0.5010969083014771
  0.6092944802955245  0.8315072630274898  0.2588446171760168
  0.5531990611812390  0.9152600502491097  0.9988293629760463
  0.9442820990827840  0.5830805825044223  0.7503120820459586
  0.8907024595900950  0.6688874835599705  0.5008134708508436
  0.7787599027172476  0.8328378176988238  0.2587050624654523
  0.2207101963677971  0.4097664835145451  0.9969321208510280
  0.7201470087324253  0.4164217007874313  0.9989786878292932
  0.2193383333135799  0.9191428468259346  0.0007110421659888
  0.7193241188436090  0.9149679486788855  0.9986348635523754
  0.1101375707878915  0.0835850872945514  0.4408317955041241
  0.0548795552481209  0.1683525806398478  0.1909923941842209
  0.4470596057578078  0.3366206618951679  0.9387602665403065
  0.3900545979265218  0.4160957551308968  0.6891136979376782
  0.2791099858250377  0.0858784463641129  0.4457264553020934
  0.2220493537197967  0.1727801477000170  0.2008501990104890
  0.0933941228164485  0.3213809728361809  0.9303343833863025
  0.0550202652671175  0.4189363755629216  0.6885067790474864
  0.4444282837844753  0.0825607647980036  0.4364011346075642
  0.3871662133572968  0.1653207038887388  0.1856967078121627
  0.2836103253600655  0.3119529135192636  0.9328579391629077
  0.2220031059684402  0.4148931291138140  0.6992040360259111
  0.1087198702392129  0.0883953253543837  0.9386439721184701
  0.0540278927975990  0.1645882225370485  0.6883395093041855
  0.4449100533741017  0.3341314454374285  0.4371044740825454
  0.3880135442269363  0.4160384169542368  0.1913224368739392
  0.2208562674267327  0.1632797936781003  0.6870311476791429
  0.1095816816998081  0.3327364803611559  0.4479728238762775
  0.0560322868017806  0.4175124842442912  0.1916482728293403
  0.4428809833043275  0.0782664009517617  0.9387959726910182
  0.3934586811515004  0.1696253493997730  0.6839807760876369
  0.2789101370288876  0.3341844237954348  0.4498553285234763
  0.2220253443823665  0.4181716357252583  0.2188168344415971
  0.6113273658588483  0.0831847691578531  0.4379321264756015
  0.5557008197383766  0.1670329362347118  0.1891473152472614
  0.9460825881837209  0.3378300722509167  0.9409909934728518
  0.8902789445329944  0.4180240573798315  0.6885665169790371
  0.7789588711210627  0.0859667548551855  0.4471780424054046
  0.7231422330869464  0.1676368666552079  0.1909237260550611
  0.5934698712430375  0.3186016498444815  0.9280824484632646
  0.5556608168419004  0.4187047174979170  0.6870931889352505
  0.9437930082923955  0.0833787324628972  0.4393447794337106
  0.8883875491838538  0.1674846027555645  0.1906912817995163
  0.7850225537459536  0.3262610873403631  0.9301886365687011
  0.7221136977251206  0.4170688036900998  0.6951553915621815
  0.6125356880552033  0.0833068087600779  0.9408136884064362
  0.5551416229509059  0.1634324774058982  0.6872765131398779
  0.9448220109616656  0.3343610182959367  0.4393729980172481
  0.8881674968264832  0.4166471199563659  0.1913559116816685
  0.7861670342757350  0.1033972529619120  0.9302309230067038
  0.7210427887821140  0.1659006055431789  0.6878686255985755
  0.6092296991795578  0.3315678942497939  0.4468207608012236
  0.5560906678575179  0.4162008005080367  0.1898150751406789
  0.9400061303605867  0.0799288430452805  0.9411255028063721
  0.8910876772536511  0.1693474499475087  0.6892442105570780
  0.7786913350443712  0.3325768935821571  0.4470283700513349
  0.7221868027788219  0.4170104907395569  0.2208048224694963
  0.1113767319606396  0.5841762914347157  0.4389637279243601
  0.0553595118166825  0.6674769626481662  0.1905848259536498
  0.4458561316260656  0.8354224167334863  0.9401823148033372
  0.3904532539055765  0.9171508669310242  0.6870467753668592
  0.2789598935833766  0.5855288659042515  0.4474631655271679
  0.2231224008279398  0.6673749761664567  0.1910236984454912
  0.0941451631695926  0.8193212871873072  0.9293927474757311
  0.0551370142770651  0.9187751141782812  0.6888981826358886
  0.4441977749929649  0.5827035496946991  0.4392298955718843
  0.3888348604016301  0.6665774895811012  0.1905767803185014
  0.2857247876832716  0.8265776951564661  0.9293754724845229
  0.2220634150044205  0.9159184973993462  0.6932332914930512
  0.1123299955885599  0.5850598031508838  0.9418662300476655
  0.0546359839662998  0.6639257067885325  0.6889896799407822
  0.4448660953076669  0.8333746964313065  0.4386278868973079
  0.3883170903025928  0.9155802444201413  0.1901324877494304
  0.2853593937702286  0.6004428452187653  0.9323122108876660
  0.2210414669237366  0.6650137367401143  0.6887111279179692
  0.1085972549548870  0.8317270015677494  0.4477357988710082
  0.0559475023823950  0.9178820116670963  0.1928912654327988
  0.4397192772233609  0.5758529015888882  0.9411344069537080
  0.3909258801079503  0.6677905384740015  0.6894968284208076
  0.2788922455817158  0.8318470907765629  0.4464972426067533
  0.2211761459328656  0.9141170978295534  0.2221711801168595
  0.6114245853065512  0.5835804347007283  0.4380547412646010
  0.5556181470398016  0.6668779559339129  0.1900144510428348
  0.9479176402583107  0.8390722650481734  0.9420065408435221
  0.8904163729627044  0.9179980890025092  0.6889428129128632
  0.7792015282833304  0.5861943057857957  0.4472756263327611
  0.7233200264944841  0.6676299927836880  0.1909700051814340
  0.5923759544693112  0.8172591242363652  0.9285914704780041
  0.5549009199480679  0.9178783212612700  0.6878942040287654
  0.9441350944494431  0.5832759384869775  0.4393723584285851
  0.8888240069442048  0.6673677055631870  0.1906789460831320
  0.7854887573390741  0.8264504476947394  0.9304567256884155
  0.7216544240199596  0.9164782362968396  0.6957439499506535
  0.6125439266076640  0.5843756585313642  0.9410714813659879
  0.5540950424614763  0.6626191565291464  0.6885500799441289
  0.9444907691425897  0.8341128509278732  0.4395206094317388
  0.8882514447921821  0.9168738588311740  0.1914784707197867
  0.7874391710487032  0.6045597200863639  0.9301449361262115
  0.7211615157139946  0.6660832737910241  0.6880819714429904
  0.6091811163086547  0.8313984921391011  0.4474847074477282
  0.5563258122803632  0.9162781872013994  0.1903488247336895
  0.9415465311882940  0.5798742184867933  0.9411359361025262
  0.8916366822742603  0.6696161785827357  0.6895018533008184
  0.7786910575407830  0.8327310812976449  0.4472267314864595
  0.7221055004336634  0.9167984554825495  0.2205719219158482
  0.2987526492295132  0.1049435386181941  0.9105118473187233
 
  0.00000000E+00  0.00000000E+00  0.00000000E+00
  0.00000000E+00  0.00000000E+00  0.00000000E+00
  0.00000000E+00  0.00000000E+00  0.00000000E+00
  0.00000000E+00  0.00000000E+00  0.00000000E+00
  0.00000000E+00  0.00000000E+00  0.00000000E+00
  0.00000000E+00  0.00000000E+00  0.00000000E+00
  0.00000000E+00  0.00000000E+00  0.00000000E+00
  0.00000000E+00  0.00000000E+00  0.00000000E+00
  0.00000000E+00  0.00000000E+00  0.00000000E+00
  0.00000000E+00  0.00000000E+00  0.00000000E+00
  0.00000000E+00  0.00000000E+00  0.00000000E+00
  0.00000000E+00  0.00000000E+00  0.00000000E+00
  0.00000000E+00  0.00000000E+00  0.00000000E+00
  0.00000000E+00  0.00000000E+00  0.00000000E+00
  0.00000000E+00  0.00000000E+00  0.00000000E+00
  0.00000000E+00  0.00000000E+00  0.00000000E+00
  0.00000000E+00  0.00000000E+00  0.00000000E+00
  0.00000000E+00  0.00000000E+00  0.00000000E+00
  0.00000000E+00  0.00000000E+00  0.00000000E+00
  0.00000000E+00  0.00000000E+00  0.00000000E+00
  0.00000000E+00  0.00000000E+00  0.00000000E+00
  0.00000000E+00  0.00000000E+00  0.00000000E+00
  0.00000000E+00  0.00000000E+00  0.00000000E+00
  0.00000000E+00  0.00000000E+00  0.00000000E+00
  0.00000000E+00  0.00000000E+00  0.00000000E+00
  0.00000000E+00  0.00000000E+00  0.00000000E+00
  0.00000000E+00  0.00000000E+00  0.00000000E+00
  0.00000000E+00  0.00000000E+00  0.00000000E+00
  0.00000000E+00  0.00000000E+00  0.00000000E+00
  0.00000000E+00  0.00000000E+00  0.00000000E+00
  0.00000000E+00  0.00000000E+00  0.00000000E+00
  0.00000000E+00  0.00000000E+00  0.00000000E+00
  0.00000000E+00  0.00000000E+00  0.00000000E+00
  0.00000000E+00  0.00000000E+00  0.00000000E+00
  0.00000000E+00  0.00000000E+00  0.00000000E+00
  0.00000000E+00  0.00000000E+00  0.00000000E+00
  0.00000000E+00  0.00000000E+00  0.00000000E+00
  0.00000000E+00  0.00000000E+00  0.00000000E+00
  0.00000000E+00  0.00000000E+00  0.00000000E+00
  0.00000000E+00  0.00000000E+00  0.00000000E+00
  0.00000000E+00  0.00000000E+00  0.00000000E+00
  0.00000000E+00  0.00000000E+00  0.00000000E+00
  0.00000000E+00  0.00000000E+00  0.00000000E+00
  0.00000000E+00  0.00000000E+00  0.00000000E+00
  0.00000000E+00  0.00000000E+00  0.00000000E+00
  0.00000000E+00  0.00000000E+00  0.00000000E+00
  0.00000000E+00  0.00000000E+00  0.00000000E+00
  0.00000000E+00  0.00000000E+00  0.00000000E+00
  0.00000000E+00  0.00000000E+00  0.00000000E+00
  0.00000000E+00  0.00000000E+00  0.00000000E+00
  0.00000000E+00  0.00000000E+00  0.00000000E+00
  0.00000000E+00  0.00000000E+00  0.00000000E+00
  0.00000000E+00  0.00000000E+00  0.00000000E+00
  0.00000000E+00  0.00000000E+00  0.00000000E+00
  0.00000000E+00  0.00000000E+00  0.00000000E+00
  0.00000000E+00  0.00000000E+00  0.00000000E+00
  0.00000000E+00  0.00000000E+00  0.00000000E+00
  0.00000000E+00  0.00000000E+00  0.00000000E+00
  0.00000000E+00  0.00000000E+00  0.00000000E+00
  0.00000000E+00  0.00000000E+00  0.00000000E+00
  0.00000000E+00  0.00000000E+00  0.00000000E+00
  0.00000000E+00  0.00000000E+00  0.00000000E+00
  0.00000000E+00  0.00000000E+00  0.00000000E+00
  0.00000000E+00  0.00000000E+00  0.00000000E+00
  0.00000000E+00  0.00000000E+00  0.00000000E+00
  0.00000000E+00  0.00000000E+00  0.00000000E+00
  0.00000000E+00  0.00000000E+00  0.00000000E+00
  0.00000000E+00  0.00000000E+00  0.00000000E+00
  0.00000000E+00  0.00000000E+00  0.00000000E+00
  0.00000000E+00  0.00000000E+00  0.00000000E+00
  0.00000000E+00  0.00000000E+00  0.00000000E+00
  0.00000000E+00  0.00000000E+00  0.00000000E+00
  0.00000000E+00  0.00000000E+00  0.00000000E+00
  0.00000000E+00  0.00000000E+00  0.00000000E+00
  0.00000000E+00  0.00000000E+00  0.00000000E+00
  0.00000000E+00  0.00000000E+00  0.00000000E+00
  0.00000000E+00  0.00000000E+00  0.00000000E+00
  0.00000000E+00  0.00000000E+00  0.00000000E+00
  0.00000000E+00  0.00000000E+00  0.00000000E+00
  0.00000000E+00  0.00000000E+00  0.00000000E+00
  0.00000000E+00  0.00000000E+00  0.00000000E+00
  0.00000000E+00  0.00000000E+00  0.00000000E+00
  0.00000000E+00  0.00000000E+00  0.00000000E+00
  0.00000000E+00  0.00000000E+00  0.00000000E+00
  0.00000000E+00  0.00000000E+00  0.00000000E+00
  0.00000000E+00  0.00000000E+00  0.00000000E+00
  0.00000000E+00  0.00000000E+00  0.00000000E+00
  0.00000000E+00  0.00000000E+00  0.00000000E+00
  0.00000000E+00  0.00000000E+00  0.00000000E+00
  0.00000000E+00  0.00000000E+00  0.00000000E+00
  0.00000000E+00  0.00000000E+00  0.00000000E+00
  0.00000000E+00  0.00000000E+00  0.00000000E+00
  0.00000000E+00  0.00000000E+00  0.00000000E+00
  0.00000000E+00  0.00000000E+00  0.00000000E+00
  0.00000000E+00  0.00000000E+00  0.00000000E+00
  0.00000000E+00  0.00000000E+00  0.00000000E+00
  0.00000000E+00  0.00000000E+00  0.00000000E+00
  0.00000000E+00  0.00000000E+00  0.00000000E+00
  0.00000000E+00  0.00000000E+00  0.00000000E+00
  0.00000000E+00  0.00000000E+00  0.00000000E+00
  0.00000000E+00  0.00000000E+00  0.00000000E+00
  0.00000000E+00  0.00000000E+00  0.00000000E+00
  0.00000000E+00  0.00000000E+00  0.00000000E+00
  0.00000000E+00  0.00000000E+00  0.00000000E+00
  0.00000000E+00  0.00000000E+00  0.00000000E+00
  0.00000000E+00  0.00000000E+00  0.00000000E+00
  0.00000000E+00  0.00000000E+00  0.00000000E+00
  0.00000000E+00  0.00000000E+00  0.00000000E+00
  0.00000000E+00  0.00000000E+00  0.00000000E+00
  0.00000000E+00  0.00000000E+00  0.00000000E+00
  0.00000000E+00  0.00000000E+00  0.00000000E+00
  0.00000000E+00  0.00000000E+00  0.00000000E+00
  0.00000000E+00  0.00000000E+00  0.00000000E+00
  0.00000000E+00  0.00000000E+00  0.00000000E+00
  0.00000000E+00  0.00000000E+00  0.00000000E+00
  0.00000000E+00  0.00000000E+00  0.00000000E+00
  0.00000000E+00  0.00000000E+00  0.00000000E+00
  0.00000000E+00  0.00000000E+00  0.00000000E+00
  0.00000000E+00  0.00000000E+00  0.00000000E+00
  0.00000000E+00  0.00000000E+00  0.00000000E+00
  0.00000000E+00  0.00000000E+00  0.00000000E+00
  0.00000000E+00  0.00000000E+00  0.00000000E+00
  0.00000000E+00  0.00000000E+00  0.00000000E+00
  0.00000000E+00  0.00000000E+00  0.00000000E+00
  0.00000000E+00  0.00000000E+00  0.00000000E+00
  0.00000000E+00  0.00000000E+00  0.00000000E+00
  0.00000000E+00  0.00000000E+00  0.00000000E+00
  0.00000000E+00  0.00000000E+00  0.00000000E+00
  0.00000000E+00  0.00000000E+00  0.00000000E+00
  0.00000000E+00  0.00000000E+00  0.00000000E+00
  0.00000000E+00  0.00000000E+00  0.00000000E+00
  0.00000000E+00  0.00000000E+00  0.00000000E+00
  0.00000000E+00  0.00000000E+00  0.00000000E+00
  0.00000000E+00  0.00000000E+00  0.00000000E+00
  0.00000000E+00  0.00000000E+00  0.00000000E+00
  0.00000000E+00  0.00000000E+00  0.00000000E+00
  0.00000000E+00  0.00000000E+00  0.00000000E+00
  0.00000000E+00  0.00000000E+00  0.00000000E+00
  0.00000000E+00  0.00000000E+00  0.00000000E+00
  0.00000000E+00  0.00000000E+00  0.00000000E+00
  0.00000000E+00  0.00000000E+00  0.00000000E+00
  0.00000000E+00  0.00000000E+00  0.00000000E+00
  0.00000000E+00  0.00000000E+00  0.00000000E+00
  0.00000000E+00  0.00000000E+00  0.00000000E+00
  0.00000000E+00  0.00000000E+00  0.00000000E+00
  0.00000000E+00  0.00000000E+00  0.00000000E+00
  0.00000000E+00  0.00000000E+00  0.00000000E+00
  0.00000000E+00  0.00000000E+00  0.00000000E+00
  0.00000000E+00  0.00000000E+00  0.00000000E+00
  0.00000000E+00  0.00000000E+00  0.00000000E+00
  0.00000000E+00  0.00000000E+00  0.00000000E+00
  0.00000000E+00  0.00000000E+00  0.00000000E+00
  0.00000000E+00  0.00000000E+00  0.00000000E+00
  0.00000000E+00  0.00000000E+00  0.00000000E+00
  0.00000000E+00  0.00000000E+00  0.00000000E+00
  0.00000000E+00  0.00000000E+00  0.00000000E+00
  0.00000000E+00  0.00000000E+00  0.00000000E+00
  0.00000000E+00  0.00000000E+00  0.00000000E+00
  0.00000000E+00  0.00000000E+00  0.00000000E+00
  0.00000000E+00  0.00000000E+00  0.00000000E+00
  0.00000000E+00  0.00000000E+00  0.00000000E+00
  0.00000000E+00  0.00000000E+00  0.00000000E+00
  0.00000000E+00  0.00000000E+00  0.00000000E+00
  0.00000000E+00  0.00000000E+00  0.00000000E+00
  0.00000000E+00  0.00000000E+00  0.00000000E+00
  0.00000000E+00  0.00000000E+00  0.00000000E+00
  0.00000000E+00  0.00000000E+00  0.00000000E+00
  0.00000000E+00  0.00000000E+00  0.00000000E+00
  0.00000000E+00  0.00000000E+00  0.00000000E+00
  0.00000000E+00  0.00000000E+00  0.00000000E+00
  0.00000000E+00  0.00000000E+00  0.00000000E+00
  0.00000000E+00  0.00000000E+00  0.00000000E+00
  0.00000000E+00  0.00000000E+00  0.00000000E+00
  0.00000000E+00  0.00000000E+00  0.00000000E+00
  0.00000000E+00  0.00000000E+00  0.00000000E+00
  0.00000000E+00  0.00000000E+00  0.00000000E+00
  0.00000000E+00  0.00000000E+00  0.00000000E+00
  0.00000000E+00  0.00000000E+00  0.00000000E+00
  0.00000000E+00  0.00000000E+00  0.00000000E+00
  0.00000000E+00  0.00000000E+00  0.00000000E+00
  0.00000000E+00  0.00000000E+00  0.00000000E+00
  0.00000000E+00  0.00000000E+00  0.00000000E+00
  0.00000000E+00  0.00000000E+00  0.00000000E+00
  0.00000000E+00  0.00000000E+00  0.00000000E+00
  0.00000000E+00  0.00000000E+00  0.00000000E+00
  0.00000000E+00  0.00000000E+00  0.00000000E+00
  0.00000000E+00  0.00000000E+00  0.00000000E+00
  0.00000000E+00  0.00000000E+00  0.00000000E+00
  0.00000000E+00  0.00000000E+00  0.00000000E+00
  0.00000000E+00  0.00000000E+00  0.00000000E+00
  0.00000000E+00  0.00000000E+00  0.00000000E+00
  0.00000000E+00  0.00000000E+00  0.00000000E+00
