supercell of icsd_191774.cif            
   1.00000000000000     
    10.9556040682358482    0.0087587055892927   -0.0071648829946565
    -5.4702181091196493    9.4731821853579099    0.0014238807505849
    -0.0078879568487754   -0.0026918521139694   11.2845187619028984
   N    In   Y 
    36    24    12
Direct
  0.2097131216682442  0.1050603286634058  0.4385066517256675
  0.1069044234790013  0.2156564508520376  0.1917007433879618
  0.8961039030876208  0.1080423529025012  0.9406399481931942
  0.7808021428908063  0.2239652375604706  0.6973469924780389
  0.5558329849003201  0.1013392262241624  0.4419444059495774
  0.4439257466416748  0.2224346473158931  0.2040778412784263
  0.2254391102915818  0.1127742832467433  0.9490159533846736
  0.1070914547290087  0.2250274306248414  0.6892686674952202
  0.8942701191665918  0.1061205464852293  0.4382635196069415
  0.7791322159839211  0.2213109273726488  0.1993506414989028
  0.5489529102326358  0.1107143359813918  0.9467894277381106
  0.4406855218261114  0.2170426425094760  0.6806267464709066
  0.2229886711447975  0.4459433169140183  0.4476100417334479
  0.1101803929628815  0.5594034704686521  0.1883676115141526
  0.8852101789399640  0.4437618502283271  0.9408935570758103
  0.7822805158002168  0.5545966211989182  0.6867299220697447
  0.5507957120880462  0.4504182531094543  0.4477512172106373
  0.4492917380237174  0.5591094635573697  0.1896469277294059
  0.2186567176926530  0.4368660672147868  0.9430668042253956
  0.1095940050869117  0.5560799963282363  0.6983740133808993
  0.9020121766195146  0.4466585030715606  0.4408935954138116
  0.7779335494890773  0.5559390978225593  0.2108641932526538
  0.5549399678719453  0.4369707999479289  0.9408850102277810
  0.4399107883494580  0.5589124167953656  0.6989389984474741
  0.2216032283922118  0.7767566377409594  0.4408361986569247
  0.1103485290964130  0.8864845859887112  0.1920087033172493
  0.8923103275282429  0.7816246015765387  0.9433353025740772
  0.7725956997658230  0.8941859383235382  0.6891644418118190
  0.5555744461493362  0.7769355151734345  0.4405912897448090
  0.4424226699203828  0.8855096993487308  0.1925866039055961
  0.2272934150985506  0.7902982990889527  0.9381194395114392
  0.1155592634351805  0.8869366665153677  0.6878224165185927
  0.8938884661537969  0.7890109116232225  0.4434656283208795
  0.7760582168115562  0.8874709518112809  0.1905396336592915
  0.5615869023108431  0.7910310073412248  0.9402154831046516
  0.4370608080116725  0.8787175944464423  0.6862377696290807
  0.2152204947409473  0.1056598313441981  0.2461681665936908
  0.1096999566049632  0.2215113778679054  0.4974574951301136
  0.8898766090327186  0.1131984060939217  0.7487449838041158
  0.5556647355003079  0.1061756982113948  0.2489163550769007
  0.1117650650629258  0.2186628849714936  0.9991236976273754
  0.8894548941804814  0.1060131893235763  0.2482141265231874
  0.4433520560191937  0.2216277834948812  0.0061787905590123
  0.1154555702565787  0.5581967927986042  0.5029325140279894
  0.8876118837722302  0.4442935504699435  0.7477252336464346
  0.5536432937312767  0.4488739564642472  0.2531752209156082
  0.4417871346748683  0.5594892182381912  0.5030739055711422
  0.2172778051064128  0.4422800707580237  0.7470471501915412
  0.8947901975166275  0.4458854164082879  0.2504263173326535
  0.2203849830738349  0.7769561036801917  0.2486248586737929
  0.1125077436170301  0.8890162302138904  0.4960021696741208
  0.7815545374636983  0.8915101655745659  0.9973488388231218
  0.5569982841580696  0.7776436932672937  0.2480033253482006
  0.4416233700338097  0.8828512185024238  0.4947684548148743
  0.2230473421097514  0.7789302466944292  0.7454547388271493
  0.1129704864501804  0.8926915527022317  0.9994552686354865
  0.8915207244577843  0.7839622790978424  0.2505061448542065
  0.7767292910641643  0.8909108130675492  0.4967728727178979
  0.5541442079167709  0.7823809807587025  0.7469354970687050
  0.4436124304127276  0.8925592142505110  0.9999299719663526
  0.7775663968122473  0.2178428452351611  0.9978471080747795
  0.4381691090882853  0.2167287280959229  0.4818310304996203
  0.2214052317557176  0.1112358622982512  0.7473169186822162
  0.7843764100085338  0.2200099638045998  0.4950721548720622
  0.5505110438037519  0.1047142905800769  0.7454313731771407
  0.2220744117607367  0.4445291109165481  0.2472367961745547
  0.7770797937318008  0.5558364240880351  0.0065719245542937
  0.1119117761650941  0.5603835210609844  0.9880307761564708
  0.7837265776700590  0.5592991716710145  0.4848195602262706
  0.5554125676483750  0.4402472067597998  0.7391839663497350
  0.4481082817710984  0.5584478233919938  0.9888681049043697
  0.8900152611862637  0.7803337024689085  0.7421278456815799
 
  0.00000000E+00  0.00000000E+00  0.00000000E+00
  0.00000000E+00  0.00000000E+00  0.00000000E+00
  0.00000000E+00  0.00000000E+00  0.00000000E+00
  0.00000000E+00  0.00000000E+00  0.00000000E+00
  0.00000000E+00  0.00000000E+00  0.00000000E+00
  0.00000000E+00  0.00000000E+00  0.00000000E+00
  0.00000000E+00  0.00000000E+00  0.00000000E+00
  0.00000000E+00  0.00000000E+00  0.00000000E+00
  0.00000000E+00  0.00000000E+00  0.00000000E+00
  0.00000000E+00  0.00000000E+00  0.00000000E+00
  0.00000000E+00  0.00000000E+00  0.00000000E+00
  0.00000000E+00  0.00000000E+00  0.00000000E+00
  0.00000000E+00  0.00000000E+00  0.00000000E+00
  0.00000000E+00  0.00000000E+00  0.00000000E+00
  0.00000000E+00  0.00000000E+00  0.00000000E+00
  0.00000000E+00  0.00000000E+00  0.00000000E+00
  0.00000000E+00  0.00000000E+00  0.00000000E+00
  0.00000000E+00  0.00000000E+00  0.00000000E+00
  0.00000000E+00  0.00000000E+00  0.00000000E+00
  0.00000000E+00  0.00000000E+00  0.00000000E+00
  0.00000000E+00  0.00000000E+00  0.00000000E+00
  0.00000000E+00  0.00000000E+00  0.00000000E+00
  0.00000000E+00  0.00000000E+00  0.00000000E+00
  0.00000000E+00  0.00000000E+00  0.00000000E+00
  0.00000000E+00  0.00000000E+00  0.00000000E+00
  0.00000000E+00  0.00000000E+00  0.00000000E+00
  0.00000000E+00  0.00000000E+00  0.00000000E+00
  0.00000000E+00  0.00000000E+00  0.00000000E+00
  0.00000000E+00  0.00000000E+00  0.00000000E+00
  0.00000000E+00  0.00000000E+00  0.00000000E+00
  0.00000000E+00  0.00000000E+00  0.00000000E+00
  0.00000000E+00  0.00000000E+00  0.00000000E+00
  0.00000000E+00  0.00000000E+00  0.00000000E+00
  0.00000000E+00  0.00000000E+00  0.00000000E+00
  0.00000000E+00  0.00000000E+00  0.00000000E+00
  0.00000000E+00  0.00000000E+00  0.00000000E+00
  0.00000000E+00  0.00000000E+00  0.00000000E+00
  0.00000000E+00  0.00000000E+00  0.00000000E+00
  0.00000000E+00  0.00000000E+00  0.00000000E+00
  0.00000000E+00  0.00000000E+00  0.00000000E+00
  0.00000000E+00  0.00000000E+00  0.00000000E+00
  0.00000000E+00  0.00000000E+00  0.00000000E+00
  0.00000000E+00  0.00000000E+00  0.00000000E+00
  0.00000000E+00  0.00000000E+00  0.00000000E+00
  0.00000000E+00  0.00000000E+00  0.00000000E+00
  0.00000000E+00  0.00000000E+00  0.00000000E+00
  0.00000000E+00  0.00000000E+00  0.00000000E+00
  0.00000000E+00  0.00000000E+00  0.00000000E+00
  0.00000000E+00  0.00000000E+00  0.00000000E+00
  0.00000000E+00  0.00000000E+00  0.00000000E+00
  0.00000000E+00  0.00000000E+00  0.00000000E+00
  0.00000000E+00  0.00000000E+00  0.00000000E+00
  0.00000000E+00  0.00000000E+00  0.00000000E+00
  0.00000000E+00  0.00000000E+00  0.00000000E+00
  0.00000000E+00  0.00000000E+00  0.00000000E+00
  0.00000000E+00  0.00000000E+00  0.00000000E+00
  0.00000000E+00  0.00000000E+00  0.00000000E+00
  0.00000000E+00  0.00000000E+00  0.00000000E+00
  0.00000000E+00  0.00000000E+00  0.00000000E+00
  0.00000000E+00  0.00000000E+00  0.00000000E+00
  0.00000000E+00  0.00000000E+00  0.00000000E+00
  0.00000000E+00  0.00000000E+00  0.00000000E+00
  0.00000000E+00  0.00000000E+00  0.00000000E+00
  0.00000000E+00  0.00000000E+00  0.00000000E+00
  0.00000000E+00  0.00000000E+00  0.00000000E+00
  0.00000000E+00  0.00000000E+00  0.00000000E+00
  0.00000000E+00  0.00000000E+00  0.00000000E+00
  0.00000000E+00  0.00000000E+00  0.00000000E+00
  0.00000000E+00  0.00000000E+00  0.00000000E+00
  0.00000000E+00  0.00000000E+00  0.00000000E+00
  0.00000000E+00  0.00000000E+00  0.00000000E+00
  0.00000000E+00  0.00000000E+00  0.00000000E+00
