POSCAR                                  
   1.00800000000000     
    -4.7251542375600000    8.1965693745399992    0.0006877476291370
     7.8681027830100003    2.7276325474699998   -5.0507726386799998
    -6.2843595349700001   -5.4561458653299999  -10.0862512299000002
   Al   Pr   N 
    51     3    54
Direct
  0.1434199409692170  0.2130511584452961  0.6447401014313741
  0.9855420366579750  0.4237757454729234  0.5406102270426700
  0.4794929347826695  0.2032218011496099  0.6527061646789107
  0.3392382707172104  0.4246964392072599  0.5411913271833342
  0.8057382296101991  0.2122145844152001  0.6485233844254736
  0.6571751049244909  0.4238262662913925  0.5380991239225210
  0.5189162695563851  0.6474516184276098  0.4271249890009727
  0.3732575927818971  0.8779612728416524  0.3137262114062480
  0.8357415130128345  0.6447759536054747  0.4307252299871962
  0.6900841307542223  0.8689822674181897  0.3155383634443467
  0.2219482658178151  0.1003776646993941  0.2011987421560164
  0.0680176961619949  0.3133373960144681  0.0906993707933879
  0.5522328372701537  0.0952516549937101  0.2030044866988021
  0.4066993390836799  0.3153968196902923  0.0895396228027892
  0.2580406783618230  0.5326199440113868  0.9786339480871931
  0.1124837664701417  0.7526552968301559  0.8731203765568338
  0.8804151385226149  0.1017433436410826  0.2013657401912141
  0.7280714000580630  0.3147242131738111  0.0887320816058974
  0.5819437443079707  0.5329466882673088  0.9799859557562556
  0.4387345083575838  0.7581733998182543  0.8742686274701725
  0.9176176767246247  0.5411753850680867  0.9831552094687055
  0.7619644907008905  0.7538400871711275  0.8721218681174037
  0.2949290925669246  0.9768148283710403  0.7610537164262183
  0.6191150815823221  0.9813438657615450  0.7639058705899089
  0.3576431920926382  0.2932178849125648  0.8501070050301607
  0.2120128932654026  0.5189414577002296  0.7395992003529415
  0.6919543797222261  0.2974755532771240  0.8541101483771811
  0.5428288318522405  0.5175775847924626  0.7420994340086011
  0.4045980979188641  0.7428320891311344  0.6373495065212609
  0.2539509213910591  0.9750794073834896  0.5254076781512396
  0.0269679940532583  0.3108644848807600  0.8540404810432776
  0.8744981728718244  0.5202990440436253  0.7425168740986479
  0.7234702433806248  0.7348911579099635  0.6263283501424866
  0.5808488332558568  0.9650938717715434  0.5208665400567156
  0.0564686483833015  0.7357326029445730  0.6309282465975983
  0.9063389072906958  0.9620484447285449  0.5185150568850077
  0.4340587689535695  0.1866529356095796  0.4086931297855116
  0.2853818165217348  0.3976240040657544  0.2871516319049547
  0.7654162107400424  0.1866976580139550  0.4086812203319639
  0.6174607055167982  0.4079650810890882  0.2971283720054601
  0.4684453492322973  0.6285468369833040  0.1852531243066551
  0.3216286451003754  0.8499839880080060  0.0756190957649494
  0.1016638511528285  0.2010916632772677  0.4086258894964416
  0.9437315536997133  0.4003463237266303  0.2881146340188749
  0.7956612751081096  0.6203817730098464  0.1788535103742106
  0.6541747408496263  0.8495088528725461  0.0753899538437679
  0.1342976156929154  0.6150902808191674  0.1693608151223316
  0.9853436767534731  0.8466908446236232  0.0641414420053863
  0.1826214782435400  0.0742265852278123  0.9698128479855868
  0.5054981286783260  0.0713501699852443  0.9620153535277893
  0.8326053736563424  0.0746471739750589  0.9712037513412284
  0.1860813889298001  0.6413857168388830  0.4257444993311523
  0.0260369819069339  0.8798214495824155  0.3054078833989493
  0.9583380213114552  0.9911868925888854  0.7693320900922771
  0.0957539052914242  0.0792206635880532  0.5184764878576118
  0.9483046459790501  0.3047452410884404  0.4104540900998188
  0.4392955083452890  0.0838038993964503  0.5255714616271376
  0.2907701970668342  0.3055758294425530  0.4108453937931031
  0.1279445407111552  0.4927869201704382  0.2706122963345905
  0.9796502388331021  0.7134173246671622  0.1592442442354596
  0.7654021554226134  0.0809907993465657  0.5237471152707514
  0.6182871798294585  0.2990912508531665  0.4100697817537906
  0.4682857779606096  0.5209709324794218  0.2987871845172663
  0.3197433242331655  0.7413547361813215  0.1893664785918716
  0.8034915076624571  0.5217103719546046  0.2978919702917509
  0.6546437227185535  0.7419424860255646  0.1887708596173923
  0.1733628523265054  0.9624513205810032  0.0815832274089701
  0.0234061928477303  0.1801339785575067  0.9600990035539709
  0.5075759977562768  0.9646937215774827  0.0772990491288468
  0.3632563004106828  0.1887572958946109  0.9652408813578219
  0.2164401812965124  0.4105909707863944  0.8526691215890381
  0.0637063616932210  0.6300321733859704  0.7456109973332730
  0.8423078771953527  0.9625329232248490  0.0827614574823059
  0.6878020515199808  0.1877643880232185  0.9661668774933787
  0.5419420954133045  0.4070461276543682  0.8536001758247522
  0.3976930996362427  0.6327224093757522  0.7483633935809451
  0.8737461533439870  0.4143820635763902  0.8567441466317263
  0.7262261992487566  0.6328420105381483  0.7434930755880771
  0.9067954132576475  0.8396611296127219  0.6198384366993253
  0.2465072837579925  0.8500788137138642  0.6316161235140143
  0.5858490478935821  0.8593021604066919  0.6357187729252232
  0.3122676654031977  0.1645896643892826  0.7230839321940365
  0.1719642522958509  0.3982413875575261  0.6088797590966095
  0.6521019667892318  0.1680583367960722  0.7291559095006335
  0.5044322927168778  0.3866397676031070  0.6189970201142998
  0.3887400679769968  0.6106124573590606  0.5208822737508214
  0.2342930518235775  0.8668234346742025  0.3992371590436790
  0.9882994925008788  0.2093239883927893  0.7194345098936168
  0.8272959598346077  0.3947019581207627  0.6154010252143678
  0.6807163746066607  0.6060849053154413  0.5027525879518606
  0.5366592439174696  0.8363647806413255  0.3929732662910013
  0.9953592664912208  0.6065194995404539  0.5130698056552134
  0.8452228105443140  0.8296975225658016  0.4010347815744382
  0.3943321617674087  0.0639013630803404  0.2787681616790039
  0.2476493740512495  0.2781471020826487  0.1593850372894323
  0.7250513903834843  0.0586444111720823  0.2812503786194611
  0.5761317998203168  0.2819720703143815  0.1698787080173005
  0.4278359277643560  0.5017938734558882  0.0590182506235948
  0.2822085697704537  0.7199441558615050  0.9517032999470629
  0.0638825782533914  0.1053929354282843  0.2740920627998307
  0.8990521673750109  0.2797964935253034  0.1595305478782052
  0.7525361610517578  0.4976204686713075  0.0534332080299293
  0.6086217542870784  0.7192777865125421  0.9509730568558226
  0.0935674627636445  0.4923682406166918  0.0445600535839219
  0.9432223347586159  0.7252524533420939  0.9389935788863468
  0.1629496982958045  0.9393719395281153  0.8527541207172646
  0.4629149679349780  0.9438434290200632  0.8367135362580598
  0.7676549578904854  0.9408041237708744  0.8552333592854851
 
  0.00000000E+00  0.00000000E+00  0.00000000E+00
  0.00000000E+00  0.00000000E+00  0.00000000E+00
  0.00000000E+00  0.00000000E+00  0.00000000E+00
  0.00000000E+00  0.00000000E+00  0.00000000E+00
  0.00000000E+00  0.00000000E+00  0.00000000E+00
  0.00000000E+00  0.00000000E+00  0.00000000E+00
  0.00000000E+00  0.00000000E+00  0.00000000E+00
  0.00000000E+00  0.00000000E+00  0.00000000E+00
  0.00000000E+00  0.00000000E+00  0.00000000E+00
  0.00000000E+00  0.00000000E+00  0.00000000E+00
  0.00000000E+00  0.00000000E+00  0.00000000E+00
  0.00000000E+00  0.00000000E+00  0.00000000E+00
  0.00000000E+00  0.00000000E+00  0.00000000E+00
  0.00000000E+00  0.00000000E+00  0.00000000E+00
  0.00000000E+00  0.00000000E+00  0.00000000E+00
  0.00000000E+00  0.00000000E+00  0.00000000E+00
  0.00000000E+00  0.00000000E+00  0.00000000E+00
  0.00000000E+00  0.00000000E+00  0.00000000E+00
  0.00000000E+00  0.00000000E+00  0.00000000E+00
  0.00000000E+00  0.00000000E+00  0.00000000E+00
  0.00000000E+00  0.00000000E+00  0.00000000E+00
  0.00000000E+00  0.00000000E+00  0.00000000E+00
  0.00000000E+00  0.00000000E+00  0.00000000E+00
  0.00000000E+00  0.00000000E+00  0.00000000E+00
  0.00000000E+00  0.00000000E+00  0.00000000E+00
  0.00000000E+00  0.00000000E+00  0.00000000E+00
  0.00000000E+00  0.00000000E+00  0.00000000E+00
  0.00000000E+00  0.00000000E+00  0.00000000E+00
  0.00000000E+00  0.00000000E+00  0.00000000E+00
  0.00000000E+00  0.00000000E+00  0.00000000E+00
  0.00000000E+00  0.00000000E+00  0.00000000E+00
  0.00000000E+00  0.00000000E+00  0.00000000E+00
  0.00000000E+00  0.00000000E+00  0.00000000E+00
  0.00000000E+00  0.00000000E+00  0.00000000E+00
  0.00000000E+00  0.00000000E+00  0.00000000E+00
  0.00000000E+00  0.00000000E+00  0.00000000E+00
  0.00000000E+00  0.00000000E+00  0.00000000E+00
  0.00000000E+00  0.00000000E+00  0.00000000E+00
  0.00000000E+00  0.00000000E+00  0.00000000E+00
  0.00000000E+00  0.00000000E+00  0.00000000E+00
  0.00000000E+00  0.00000000E+00  0.00000000E+00
  0.00000000E+00  0.00000000E+00  0.00000000E+00
  0.00000000E+00  0.00000000E+00  0.00000000E+00
  0.00000000E+00  0.00000000E+00  0.00000000E+00
  0.00000000E+00  0.00000000E+00  0.00000000E+00
  0.00000000E+00  0.00000000E+00  0.00000000E+00
  0.00000000E+00  0.00000000E+00  0.00000000E+00
  0.00000000E+00  0.00000000E+00  0.00000000E+00
  0.00000000E+00  0.00000000E+00  0.00000000E+00
  0.00000000E+00  0.00000000E+00  0.00000000E+00
  0.00000000E+00  0.00000000E+00  0.00000000E+00
  0.00000000E+00  0.00000000E+00  0.00000000E+00
  0.00000000E+00  0.00000000E+00  0.00000000E+00
  0.00000000E+00  0.00000000E+00  0.00000000E+00
  0.00000000E+00  0.00000000E+00  0.00000000E+00
  0.00000000E+00  0.00000000E+00  0.00000000E+00
  0.00000000E+00  0.00000000E+00  0.00000000E+00
  0.00000000E+00  0.00000000E+00  0.00000000E+00
  0.00000000E+00  0.00000000E+00  0.00000000E+00
  0.00000000E+00  0.00000000E+00  0.00000000E+00
  0.00000000E+00  0.00000000E+00  0.00000000E+00
  0.00000000E+00  0.00000000E+00  0.00000000E+00
  0.00000000E+00  0.00000000E+00  0.00000000E+00
  0.00000000E+00  0.00000000E+00  0.00000000E+00
  0.00000000E+00  0.00000000E+00  0.00000000E+00
  0.00000000E+00  0.00000000E+00  0.00000000E+00
  0.00000000E+00  0.00000000E+00  0.00000000E+00
  0.00000000E+00  0.00000000E+00  0.00000000E+00
  0.00000000E+00  0.00000000E+00  0.00000000E+00
  0.00000000E+00  0.00000000E+00  0.00000000E+00
  0.00000000E+00  0.00000000E+00  0.00000000E+00
  0.00000000E+00  0.00000000E+00  0.00000000E+00
  0.00000000E+00  0.00000000E+00  0.00000000E+00
  0.00000000E+00  0.00000000E+00  0.00000000E+00
  0.00000000E+00  0.00000000E+00  0.00000000E+00
  0.00000000E+00  0.00000000E+00  0.00000000E+00
  0.00000000E+00  0.00000000E+00  0.00000000E+00
  0.00000000E+00  0.00000000E+00  0.00000000E+00
  0.00000000E+00  0.00000000E+00  0.00000000E+00
  0.00000000E+00  0.00000000E+00  0.00000000E+00
  0.00000000E+00  0.00000000E+00  0.00000000E+00
  0.00000000E+00  0.00000000E+00  0.00000000E+00
  0.00000000E+00  0.00000000E+00  0.00000000E+00
  0.00000000E+00  0.00000000E+00  0.00000000E+00
  0.00000000E+00  0.00000000E+00  0.00000000E+00
  0.00000000E+00  0.00000000E+00  0.00000000E+00
  0.00000000E+00  0.00000000E+00  0.00000000E+00
  0.00000000E+00  0.00000000E+00  0.00000000E+00
  0.00000000E+00  0.00000000E+00  0.00000000E+00
  0.00000000E+00  0.00000000E+00  0.00000000E+00
  0.00000000E+00  0.00000000E+00  0.00000000E+00
  0.00000000E+00  0.00000000E+00  0.00000000E+00
  0.00000000E+00  0.00000000E+00  0.00000000E+00
  0.00000000E+00  0.00000000E+00  0.00000000E+00
  0.00000000E+00  0.00000000E+00  0.00000000E+00
  0.00000000E+00  0.00000000E+00  0.00000000E+00
  0.00000000E+00  0.00000000E+00  0.00000000E+00
  0.00000000E+00  0.00000000E+00  0.00000000E+00
  0.00000000E+00  0.00000000E+00  0.00000000E+00
  0.00000000E+00  0.00000000E+00  0.00000000E+00
  0.00000000E+00  0.00000000E+00  0.00000000E+00
  0.00000000E+00  0.00000000E+00  0.00000000E+00
  0.00000000E+00  0.00000000E+00  0.00000000E+00
  0.00000000E+00  0.00000000E+00  0.00000000E+00
  0.00000000E+00  0.00000000E+00  0.00000000E+00
  0.00000000E+00  0.00000000E+00  0.00000000E+00
  0.00000000E+00  0.00000000E+00  0.00000000E+00
  0.00000000E+00  0.00000000E+00  0.00000000E+00
