supercell of 100% icsd_608626.cif, 0% i 
   1.00000000000000     
    -9.4279521210284276   -0.0014534316781241    0.0006881332308099
    -4.7127173424990936    8.1626667499617298   -0.0000011593940510
     0.0007345760135223    0.0004255368478411  -10.0472177797306568
   Ti   Al   Mg   N 
     1    34     1    36
Direct
  0.1113229908198434  0.0943385733806394  0.2979214661355556
  0.2226216281448572  0.2084947608488648  0.0439411587162866
  0.7773166420248359  0.0938729077007423  0.7961972950444220
  0.8862982565276667  0.2068509438984663  0.5494761393789460
  0.4486025137349472  0.0932783614372497  0.2940853910765071
  0.5558807535384389  0.2072599711109575  0.0454092092173823
  0.1111743497296658  0.0944129178981257  0.7955485447121191
  0.2235373356000210  0.2062489373234229  0.5495455868983967
  0.7745183387948416  0.0929743151009461  0.2935038270550123
  0.8849833305589101  0.2075087202100150  0.0443549227635103
  0.4452271634125324  0.0942802797697766  0.7962593835553164
  0.5558158899976391  0.2053974499790243  0.5459236163304837
  0.1090107161687968  0.4313165428833514  0.2940032416472320
  0.7773164492753466  0.4288104938716657  0.7961972043491059
  0.8882199630731122  0.5392929137770395  0.5457852411608854
  0.4459262018818819  0.4270363823188958  0.2945442104302458
  0.5558803084071258  0.5368594089477767  0.0454091194302322
  0.1111423315375362  0.4293033771157866  0.7942044056831676
  0.2225012939731243  0.5387494033291063  0.5471716391421708
  0.7745180149052473  0.4325080412696636  0.2935039381966789
  0.8897879936800379  0.5376169820903769  0.0455321030983882
  0.4432352539203350  0.4283820740806448  0.7940119822552703
  0.5558153865961657  0.5387862302157984  0.5459236596643677
  0.1090112595506056  0.7596726701577410  0.2940031335064077
  0.2226215380785277  0.8688844904761481  0.0439412643634256
  0.7782190468615653  0.7608905254784801  0.7960227236031940
  0.8882201814153703  0.8724868363420910  0.5457851340647082
  0.4486026924274427  0.7581184026963328  0.2940854734557590
  0.5562475630780099  0.8718761320719608  0.0450245101493820
  0.1111424125518852  0.7595544172881219  0.7942046716518263
  0.2235370112851811  0.8702141082725205  0.5495455992877538
  0.7779827010312772  0.7610089863332448  0.2950111405002858
  0.8897884118821153  0.8725951213297236  0.0455323167054189
  0.4452270614689482  0.7604922318206206  0.7962593986699744
  0.5559901301832397  0.8720045488644033  0.5459663646012629
  0.2225116849458786  0.5387442547504193  0.0458970580240035
  0.2261725327528410  0.2068532419382336  0.3571945637769147
  0.1118313021966131  0.0940847648595167  0.1032623574061162
  0.8891461025044691  0.2054269727365963  0.8539662086405713
  0.7776133787388702  0.0943138764637155  0.6051911222957571
  0.5558869406919911  0.2045296250390578  0.3559034060142423
  0.4445842016828081  0.0942695154982118  0.1040597978192750
  0.2221253848501377  0.2053702734431013  0.8531192807596781
  0.1107199584373078  0.0946401410674653  0.6023976825137254
  0.8826116115513187  0.2086944966349691  0.3558755506174691
  0.7775207568982196  0.0942513174472310  0.1040114501335268
  0.5556517239618728  0.2055971514001342  0.8540472538325332
  0.4451098048705333  0.0938915250690329  0.6052035760489431
  0.2225428113149164  0.5387285930659402  0.3546524343894504
  0.1036814807363058  0.4202000948765701  0.1088334248594478
  0.8888735582579130  0.5388940783392258  0.8540929207935122
  0.7776128740351069  0.4280728103399341  0.6051910812091066
  0.5558866139822243  0.5395827373258939  0.3559034517684978
  0.4590077886096822  0.4204959670639070  0.1088219613210555
  0.2222989958561925  0.5388505862447630  0.8409123566135790
  0.1098261187011502  0.4273630518554796  0.6025820632558805
  0.8875708536030658  0.5395439640261159  0.3555691892915434
  0.7775202056274750  0.4282286903698349  0.1040115312688812
  0.5556514806712300  0.5387508121656310  0.8540471772038529
  0.4463129230780467  0.4268431091637837  0.6023748117963805
  0.2261727675009482  0.8669741770801878  0.3571946432825754
  0.1036820522749053  0.7761186077737676  0.1088333684834097
  0.8888736991310893  0.8722323606982698  0.8540931350419356
  0.7775611755776168  0.7612193615005296  0.6048754826060190
  0.5554343641946815  0.8722825563510241  0.3545305346407162
  0.4445840655753699  0.7611462537011136  0.1040598926818177
  0.2221253182153191  0.8725046025707357  0.8531194222950589
  0.1098261866878829  0.7628109322511065  0.6025822930117499
  0.8875713265222558  0.8728855087962017  0.3555690778132785
  0.7777757042371576  0.7611123370090169  0.1044632462174633
  0.5557697673063373  0.8721149326991480  0.8545185465887712
  0.4451093681031963  0.7609982586944568  0.6052036291820855
 
  0.00000000E+00  0.00000000E+00  0.00000000E+00
  0.00000000E+00  0.00000000E+00  0.00000000E+00
  0.00000000E+00  0.00000000E+00  0.00000000E+00
  0.00000000E+00  0.00000000E+00  0.00000000E+00
  0.00000000E+00  0.00000000E+00  0.00000000E+00
  0.00000000E+00  0.00000000E+00  0.00000000E+00
  0.00000000E+00  0.00000000E+00  0.00000000E+00
  0.00000000E+00  0.00000000E+00  0.00000000E+00
  0.00000000E+00  0.00000000E+00  0.00000000E+00
  0.00000000E+00  0.00000000E+00  0.00000000E+00
  0.00000000E+00  0.00000000E+00  0.00000000E+00
  0.00000000E+00  0.00000000E+00  0.00000000E+00
  0.00000000E+00  0.00000000E+00  0.00000000E+00
  0.00000000E+00  0.00000000E+00  0.00000000E+00
  0.00000000E+00  0.00000000E+00  0.00000000E+00
  0.00000000E+00  0.00000000E+00  0.00000000E+00
  0.00000000E+00  0.00000000E+00  0.00000000E+00
  0.00000000E+00  0.00000000E+00  0.00000000E+00
  0.00000000E+00  0.00000000E+00  0.00000000E+00
  0.00000000E+00  0.00000000E+00  0.00000000E+00
  0.00000000E+00  0.00000000E+00  0.00000000E+00
  0.00000000E+00  0.00000000E+00  0.00000000E+00
  0.00000000E+00  0.00000000E+00  0.00000000E+00
  0.00000000E+00  0.00000000E+00  0.00000000E+00
  0.00000000E+00  0.00000000E+00  0.00000000E+00
  0.00000000E+00  0.00000000E+00  0.00000000E+00
  0.00000000E+00  0.00000000E+00  0.00000000E+00
  0.00000000E+00  0.00000000E+00  0.00000000E+00
  0.00000000E+00  0.00000000E+00  0.00000000E+00
  0.00000000E+00  0.00000000E+00  0.00000000E+00
  0.00000000E+00  0.00000000E+00  0.00000000E+00
  0.00000000E+00  0.00000000E+00  0.00000000E+00
  0.00000000E+00  0.00000000E+00  0.00000000E+00
  0.00000000E+00  0.00000000E+00  0.00000000E+00
  0.00000000E+00  0.00000000E+00  0.00000000E+00
  0.00000000E+00  0.00000000E+00  0.00000000E+00
  0.00000000E+00  0.00000000E+00  0.00000000E+00
  0.00000000E+00  0.00000000E+00  0.00000000E+00
  0.00000000E+00  0.00000000E+00  0.00000000E+00
  0.00000000E+00  0.00000000E+00  0.00000000E+00
  0.00000000E+00  0.00000000E+00  0.00000000E+00
  0.00000000E+00  0.00000000E+00  0.00000000E+00
  0.00000000E+00  0.00000000E+00  0.00000000E+00
  0.00000000E+00  0.00000000E+00  0.00000000E+00
  0.00000000E+00  0.00000000E+00  0.00000000E+00
  0.00000000E+00  0.00000000E+00  0.00000000E+00
  0.00000000E+00  0.00000000E+00  0.00000000E+00
  0.00000000E+00  0.00000000E+00  0.00000000E+00
  0.00000000E+00  0.00000000E+00  0.00000000E+00
  0.00000000E+00  0.00000000E+00  0.00000000E+00
  0.00000000E+00  0.00000000E+00  0.00000000E+00
  0.00000000E+00  0.00000000E+00  0.00000000E+00
  0.00000000E+00  0.00000000E+00  0.00000000E+00
  0.00000000E+00  0.00000000E+00  0.00000000E+00
  0.00000000E+00  0.00000000E+00  0.00000000E+00
  0.00000000E+00  0.00000000E+00  0.00000000E+00
  0.00000000E+00  0.00000000E+00  0.00000000E+00
  0.00000000E+00  0.00000000E+00  0.00000000E+00
  0.00000000E+00  0.00000000E+00  0.00000000E+00
  0.00000000E+00  0.00000000E+00  0.00000000E+00
  0.00000000E+00  0.00000000E+00  0.00000000E+00
  0.00000000E+00  0.00000000E+00  0.00000000E+00
  0.00000000E+00  0.00000000E+00  0.00000000E+00
  0.00000000E+00  0.00000000E+00  0.00000000E+00
  0.00000000E+00  0.00000000E+00  0.00000000E+00
  0.00000000E+00  0.00000000E+00  0.00000000E+00
  0.00000000E+00  0.00000000E+00  0.00000000E+00
  0.00000000E+00  0.00000000E+00  0.00000000E+00
  0.00000000E+00  0.00000000E+00  0.00000000E+00
  0.00000000E+00  0.00000000E+00  0.00000000E+00
  0.00000000E+00  0.00000000E+00  0.00000000E+00
  0.00000000E+00  0.00000000E+00  0.00000000E+00
