supercell of 100% icsd_608626.cif, 0% i 
   1.00000000000000     
    -9.4275287843782714    0.0046785342103088   -0.0020611429561255
    -4.7178155567114306    8.1618612952780261   -0.0027569760897547
    -0.0022028471875672    0.0021297214853105  -10.0526628780346847
   Al   Mg   Ti   N 
    34     1     1    36
Direct
  0.1074612120090350  0.0975864121217143  0.2951947691297434
  0.2215602896774200  0.2061050876323876  0.0456279898583460
  0.7777879161224632  0.0940382358465470  0.7952447682040216
  0.8894952133702958  0.2038608131822102  0.5451989553920455
  0.4435918113961819  0.0982628598200250  0.2950096120315422
  0.5562487445324322  0.2052917327748887  0.0454241388091958
  0.1111009237095288  0.0949523096872866  0.7954066940818691
  0.2218987083588004  0.2059049094783560  0.5455252979413601
  0.7796807678759521  0.0938089924832468  0.2957636826007146
  0.8879171168702911  0.2066057513790582  0.0435040282161907
  0.4439006967970514  0.0954449438537139  0.7956848565656216
  0.5559834836842938  0.2055650895034589  0.5456027389389817
  0.1097912089795514  0.4293282621468393  0.2960509087950243
  0.2217813465151508  0.5384879472345716  0.0453259909581973
  0.7788280115708304  0.4273017614609174  0.7963790401675226
  0.8900662819141729  0.5396355532124275  0.5451461424234552
  0.4420615705270521  0.4262349010739044  0.2946385076049793
  0.5582018106268976  0.5347618848941664  0.0411562896189963
  0.1114962188549100  0.4276751777242680  0.7952362106613080
  0.2220805568519637  0.5381515637985075  0.5449208181038756
  0.8885791442075401  0.5380482616346143  0.0436137962199012
  0.4434173588131287  0.4272898421260791  0.7952755619013061
  0.5552786147198390  0.5375665984093132  0.5500644356646660
  0.1083036683342584  0.7595386065982694  0.2955193494896378
  0.2186735484697664  0.8738472670789577  0.0436915722691111
  0.7788213274393527  0.7610110973304245  0.7955997356549034
  0.8883075762297281  0.8728000924382613  0.5450541386343133
  0.5574386653131143  0.8734397825881430  0.0438977038316324
  0.1106450398154664  0.7605786457302486  0.7954250710858304
  0.2200227462386906  0.8735103910599165  0.5487898537780751
  0.7836661557103000  0.7591858329466845  0.2953883738413481
  0.8885049520798844  0.8727183132451586  0.0454226719946362
  0.4439777273867449  0.7617539738639891  0.7948788017588697
  0.5573174393631888  0.8735489799166629  0.5494186855434577
  0.7817303394969883  0.4252823749515926  0.2954961857576492
  0.4446873146788519  0.7607235709885316  0.2989353755503998
  0.2225248931082433  0.2049906286903891  0.3542520701735370
  0.1111735398914462  0.0941489134461122  0.1041556238909322
  0.8897399435524775  0.2036361483958231  0.8525082821959131
  0.7769734664305830  0.0939821998528529  0.6055356110310441
  0.5559120943310631  0.2056764462101199  0.3544893091241832
  0.4445069083302968  0.0942868060410262  0.1046799646676746
  0.2223134623784304  0.2054412630287104  0.8551323055801490
  0.1122203402125521  0.0944046314920612  0.6056752867925752
  0.8956853445417252  0.1909816150871322  0.3591060868234095
  0.7778480115193247  0.0943601407401147  0.1041863405615544
  0.5554347601654044  0.2054157854782019  0.8550317587595870
  0.4441390298125469  0.0953416186072360  0.6049410041705698
  0.2225726606467120  0.5382513996995684  0.3542200861925764
  0.1110528694461266  0.4277747433626899  0.1044636820179647
  0.8898992905901153  0.5396151521677979  0.8525993267700969
  0.7783246214267550  0.4276236670164550  0.6041931604182480
  0.5421991240752391  0.5419872390598215  0.3605119960275118
  0.4443313387479435  0.4278256538476199  0.1039481734028271
  0.2219512343037806  0.5389914507492293  0.8549285765446797
  0.1125032845752401  0.4268799611497514  0.6054464111292290
  0.8958455317817737  0.5463716275121016  0.3588458157184107
  0.7773610163114526  0.4279872725644509  0.0909996361809320
  0.5535536287197118  0.5397689092990561  0.8508635357062246
  0.4435639139016629  0.4269849521834601  0.6054445619912201
  0.2171922754783395  0.8739289182086267  0.3561082164194218
  0.1111051063944402  0.7609964707258925  0.1048543348789224
  0.8891480126618632  0.8721240216489221  0.8550899157547036
  0.7779537264491907  0.7621256632124940  0.6061107215266901
  0.5595750304231473  0.8757996001469834  0.3569138938597902
  0.4442794054069594  0.7605980601122937  0.1018925197152072
  0.2220639149944503  0.8719456352982391  0.8538342605687959
  0.1109458328444575  0.7606913007640657  0.6045216231417925
  0.8886005041142724  0.8728845054792416  0.3545844079331175
  0.7777983521497731  0.7612170401073755  0.1041733717053290
  0.5553525568685487  0.8723635439412618  0.8540363126460804
  0.4440494648728048  0.7627491944575766  0.6032090629002624
 
  0.00000000E+00  0.00000000E+00  0.00000000E+00
  0.00000000E+00  0.00000000E+00  0.00000000E+00
  0.00000000E+00  0.00000000E+00  0.00000000E+00
  0.00000000E+00  0.00000000E+00  0.00000000E+00
  0.00000000E+00  0.00000000E+00  0.00000000E+00
  0.00000000E+00  0.00000000E+00  0.00000000E+00
  0.00000000E+00  0.00000000E+00  0.00000000E+00
  0.00000000E+00  0.00000000E+00  0.00000000E+00
  0.00000000E+00  0.00000000E+00  0.00000000E+00
  0.00000000E+00  0.00000000E+00  0.00000000E+00
  0.00000000E+00  0.00000000E+00  0.00000000E+00
  0.00000000E+00  0.00000000E+00  0.00000000E+00
  0.00000000E+00  0.00000000E+00  0.00000000E+00
  0.00000000E+00  0.00000000E+00  0.00000000E+00
  0.00000000E+00  0.00000000E+00  0.00000000E+00
  0.00000000E+00  0.00000000E+00  0.00000000E+00
  0.00000000E+00  0.00000000E+00  0.00000000E+00
  0.00000000E+00  0.00000000E+00  0.00000000E+00
  0.00000000E+00  0.00000000E+00  0.00000000E+00
  0.00000000E+00  0.00000000E+00  0.00000000E+00
  0.00000000E+00  0.00000000E+00  0.00000000E+00
  0.00000000E+00  0.00000000E+00  0.00000000E+00
  0.00000000E+00  0.00000000E+00  0.00000000E+00
  0.00000000E+00  0.00000000E+00  0.00000000E+00
  0.00000000E+00  0.00000000E+00  0.00000000E+00
  0.00000000E+00  0.00000000E+00  0.00000000E+00
  0.00000000E+00  0.00000000E+00  0.00000000E+00
  0.00000000E+00  0.00000000E+00  0.00000000E+00
  0.00000000E+00  0.00000000E+00  0.00000000E+00
  0.00000000E+00  0.00000000E+00  0.00000000E+00
  0.00000000E+00  0.00000000E+00  0.00000000E+00
  0.00000000E+00  0.00000000E+00  0.00000000E+00
  0.00000000E+00  0.00000000E+00  0.00000000E+00
  0.00000000E+00  0.00000000E+00  0.00000000E+00
  0.00000000E+00  0.00000000E+00  0.00000000E+00
  0.00000000E+00  0.00000000E+00  0.00000000E+00
  0.00000000E+00  0.00000000E+00  0.00000000E+00
  0.00000000E+00  0.00000000E+00  0.00000000E+00
  0.00000000E+00  0.00000000E+00  0.00000000E+00
  0.00000000E+00  0.00000000E+00  0.00000000E+00
  0.00000000E+00  0.00000000E+00  0.00000000E+00
  0.00000000E+00  0.00000000E+00  0.00000000E+00
  0.00000000E+00  0.00000000E+00  0.00000000E+00
  0.00000000E+00  0.00000000E+00  0.00000000E+00
  0.00000000E+00  0.00000000E+00  0.00000000E+00
  0.00000000E+00  0.00000000E+00  0.00000000E+00
  0.00000000E+00  0.00000000E+00  0.00000000E+00
  0.00000000E+00  0.00000000E+00  0.00000000E+00
  0.00000000E+00  0.00000000E+00  0.00000000E+00
  0.00000000E+00  0.00000000E+00  0.00000000E+00
  0.00000000E+00  0.00000000E+00  0.00000000E+00
  0.00000000E+00  0.00000000E+00  0.00000000E+00
  0.00000000E+00  0.00000000E+00  0.00000000E+00
  0.00000000E+00  0.00000000E+00  0.00000000E+00
  0.00000000E+00  0.00000000E+00  0.00000000E+00
  0.00000000E+00  0.00000000E+00  0.00000000E+00
  0.00000000E+00  0.00000000E+00  0.00000000E+00
  0.00000000E+00  0.00000000E+00  0.00000000E+00
  0.00000000E+00  0.00000000E+00  0.00000000E+00
  0.00000000E+00  0.00000000E+00  0.00000000E+00
  0.00000000E+00  0.00000000E+00  0.00000000E+00
  0.00000000E+00  0.00000000E+00  0.00000000E+00
  0.00000000E+00  0.00000000E+00  0.00000000E+00
  0.00000000E+00  0.00000000E+00  0.00000000E+00
  0.00000000E+00  0.00000000E+00  0.00000000E+00
  0.00000000E+00  0.00000000E+00  0.00000000E+00
  0.00000000E+00  0.00000000E+00  0.00000000E+00
  0.00000000E+00  0.00000000E+00  0.00000000E+00
  0.00000000E+00  0.00000000E+00  0.00000000E+00
  0.00000000E+00  0.00000000E+00  0.00000000E+00
  0.00000000E+00  0.00000000E+00  0.00000000E+00
  0.00000000E+00  0.00000000E+00  0.00000000E+00
