supercell of icsd_181358.cif            
   1.00000000000000     
     9.6752898393579656   -0.0000085440139093    0.0000003111978447
    -4.8376523175169606    8.3716005589761782    0.0019861762237241
     0.0000003337112753    0.0025483866033014   10.3495387954596030
   N    Ga   Y 
    36    34     2
Direct
  0.2208917632235838  0.1094865043480411  0.4399120740673723
  0.1104237115583686  0.2208471978361999  0.1898563423464026
  0.8909186273103984  0.1143363829871049  0.9364301196947125
  0.7777028760205269  0.2233353951959813  0.6889922243438278
  0.5560909194329398  0.1121817410624431  0.4388177728349518
  0.4437869172005122  0.2202619401175241  0.1873786256811627
  0.2234173420375996  0.1143359641314277  0.9364301036110021
  0.1115693271443874  0.2231378340234755  0.6875743171515509
  0.8885950984760456  0.1094869244834271  0.4399119360824670
  0.7764745231306591  0.2202622642986327  0.1873786247901137
  0.5554309838775922  0.1108627236161794  0.9387660191778693
  0.4456328264285290  0.2233352032812874  0.6889919715817214
  0.2219011698058537  0.4438022763597829  0.4382142878604824
  0.1134374433944814  0.5575898973295494  0.1879756877752214
  0.8914275507874692  0.4423048282652928  0.9424950707143225
  0.7783228722524314  0.5566454688458293  0.7152731535407355
  0.5280520608688519  0.4305018430245653  0.4321295039370412
  0.4441529980378647  0.5575900446915227  0.1879756419890839
  0.2220703821149641  0.4441410941735811  0.9387652778337170
  0.1111031018004240  0.5553749440426117  0.6888943141501827
  0.9024498580772971  0.4305015611266967  0.4321292680514759
  0.7642693464038857  0.5285388742921100  0.1881337881107044
  0.5508766588861391  0.4423052666709637  0.9424947738029701
  0.4442722267953343  0.5553751143464254  0.6888945815554663
  0.2214093465621119  0.7773400478397718  0.4406430062489406
  0.1437244120047296  0.9050742041781206  0.1806540862238819
  0.8901329209750344  0.7802665961055126  0.9542192783959180
  0.7777073844198696  0.8896859070936785  0.6940165404768095
  0.5559307136502767  0.7773399349498789  0.4406432960961695
  0.4445397714767552  0.8890791650502763  0.1893913113534964
  0.2242197686348391  0.7768099772152084  0.9363541817078413
  0.1119787386480553  0.8896851587109111  0.6940166356948154
  0.8987915226126546  0.7975832048882339  0.4451368259162649
  0.7613501311094382  0.9050749885218110  0.1806541434159996
  0.5525902458266145  0.7768106185369206  0.9363540096740834
  0.4449950430692411  0.8899896302761618  0.6879261702104102
  0.2281827894676880  0.1148847744281767  0.2506142258629396
  0.1112535236645940  0.2225065390297374  0.9998563594021306
  0.8902326201245074  0.1135043252188268  0.7489089640624726
  0.7792383351767285  0.2179290724020859  0.4994801993665376
  0.5556534402040825  0.1113081380932286  0.2486433978667364
  0.4431462165339894  0.2204512962965737  0.0001643053138025
  0.2232711844876007  0.1135032233232494  0.7489089019095800
  0.1109514641655309  0.2219018727348541  0.4983579158184099
  0.8867016787459647  0.1148862839626403  0.2506139600914778
  0.7773044826668567  0.2204501115940118  0.0001645617490951
  0.5557348758804039  0.1114699909695602  0.7496056815981831
  0.4386917321370518  0.2179294266600849  0.4994797046941670
  0.2223306376914849  0.4446613408378752  0.2495814225062460
  0.1133776253525696  0.5564720027996302  0.9998592619658595
  0.8912536245018927  0.4433879385079962  0.7556004168247199
  0.5458945268351272  0.4368622411169909  0.2460119439337802
  0.4430947777549079  0.5564728145878490  0.9998590856209688
  0.2221714889778639  0.4443435977985715  0.7496976762810803
  0.1145495295413355  0.5534291515476752  0.4991229703492266
  0.8909674508129868  0.4368626315584834  0.2460117665783486
  0.7734244166737057  0.5468493386290447  0.9973303579668240
  0.5521339869014881  0.4433877332823144  0.7556000105243541
  0.4388796508023702  0.5534285253295579  0.4991234806728073
  0.2279084877836297  0.7796602675985085  0.2504579753350455
  0.1225257756182643  0.8947409606792363  0.9958516974549170
  0.8903694060708531  0.7807393157532942  0.7594836370921101
  0.7789082640549339  0.8924329488044833  0.5039567109766523
  0.5517517415701505  0.7796601577559912  0.2504584620551498
  0.4443830599251157  0.8887660475384891  0.0002863586973731
  0.2235739795075631  0.7775567422429646  0.7486361548856451
  0.1135249309623489  0.8924321048277477  0.5039569748248169
  0.7722158640188042  0.8947416687357901  0.9958517013361501
  0.5539831844150953  0.7775573748034645  0.7486359150121942
  0.4447292556586788  0.8894577454079595  0.4994503782360837
  0.7746747712487405  0.5493492438352376  0.5002811453202440
  0.8923706360093533  0.7847423293906957  0.2302713517147055
 
  0.00000000E+00  0.00000000E+00  0.00000000E+00
  0.00000000E+00  0.00000000E+00  0.00000000E+00
  0.00000000E+00  0.00000000E+00  0.00000000E+00
  0.00000000E+00  0.00000000E+00  0.00000000E+00
  0.00000000E+00  0.00000000E+00  0.00000000E+00
  0.00000000E+00  0.00000000E+00  0.00000000E+00
  0.00000000E+00  0.00000000E+00  0.00000000E+00
  0.00000000E+00  0.00000000E+00  0.00000000E+00
  0.00000000E+00  0.00000000E+00  0.00000000E+00
  0.00000000E+00  0.00000000E+00  0.00000000E+00
  0.00000000E+00  0.00000000E+00  0.00000000E+00
  0.00000000E+00  0.00000000E+00  0.00000000E+00
  0.00000000E+00  0.00000000E+00  0.00000000E+00
  0.00000000E+00  0.00000000E+00  0.00000000E+00
  0.00000000E+00  0.00000000E+00  0.00000000E+00
  0.00000000E+00  0.00000000E+00  0.00000000E+00
  0.00000000E+00  0.00000000E+00  0.00000000E+00
  0.00000000E+00  0.00000000E+00  0.00000000E+00
  0.00000000E+00  0.00000000E+00  0.00000000E+00
  0.00000000E+00  0.00000000E+00  0.00000000E+00
  0.00000000E+00  0.00000000E+00  0.00000000E+00
  0.00000000E+00  0.00000000E+00  0.00000000E+00
  0.00000000E+00  0.00000000E+00  0.00000000E+00
  0.00000000E+00  0.00000000E+00  0.00000000E+00
  0.00000000E+00  0.00000000E+00  0.00000000E+00
  0.00000000E+00  0.00000000E+00  0.00000000E+00
  0.00000000E+00  0.00000000E+00  0.00000000E+00
  0.00000000E+00  0.00000000E+00  0.00000000E+00
  0.00000000E+00  0.00000000E+00  0.00000000E+00
  0.00000000E+00  0.00000000E+00  0.00000000E+00
  0.00000000E+00  0.00000000E+00  0.00000000E+00
  0.00000000E+00  0.00000000E+00  0.00000000E+00
  0.00000000E+00  0.00000000E+00  0.00000000E+00
  0.00000000E+00  0.00000000E+00  0.00000000E+00
  0.00000000E+00  0.00000000E+00  0.00000000E+00
  0.00000000E+00  0.00000000E+00  0.00000000E+00
  0.00000000E+00  0.00000000E+00  0.00000000E+00
  0.00000000E+00  0.00000000E+00  0.00000000E+00
  0.00000000E+00  0.00000000E+00  0.00000000E+00
  0.00000000E+00  0.00000000E+00  0.00000000E+00
  0.00000000E+00  0.00000000E+00  0.00000000E+00
  0.00000000E+00  0.00000000E+00  0.00000000E+00
  0.00000000E+00  0.00000000E+00  0.00000000E+00
  0.00000000E+00  0.00000000E+00  0.00000000E+00
  0.00000000E+00  0.00000000E+00  0.00000000E+00
  0.00000000E+00  0.00000000E+00  0.00000000E+00
  0.00000000E+00  0.00000000E+00  0.00000000E+00
  0.00000000E+00  0.00000000E+00  0.00000000E+00
  0.00000000E+00  0.00000000E+00  0.00000000E+00
  0.00000000E+00  0.00000000E+00  0.00000000E+00
  0.00000000E+00  0.00000000E+00  0.00000000E+00
  0.00000000E+00  0.00000000E+00  0.00000000E+00
  0.00000000E+00  0.00000000E+00  0.00000000E+00
  0.00000000E+00  0.00000000E+00  0.00000000E+00
  0.00000000E+00  0.00000000E+00  0.00000000E+00
  0.00000000E+00  0.00000000E+00  0.00000000E+00
  0.00000000E+00  0.00000000E+00  0.00000000E+00
  0.00000000E+00  0.00000000E+00  0.00000000E+00
  0.00000000E+00  0.00000000E+00  0.00000000E+00
  0.00000000E+00  0.00000000E+00  0.00000000E+00
  0.00000000E+00  0.00000000E+00  0.00000000E+00
  0.00000000E+00  0.00000000E+00  0.00000000E+00
  0.00000000E+00  0.00000000E+00  0.00000000E+00
  0.00000000E+00  0.00000000E+00  0.00000000E+00
  0.00000000E+00  0.00000000E+00  0.00000000E+00
  0.00000000E+00  0.00000000E+00  0.00000000E+00
  0.00000000E+00  0.00000000E+00  0.00000000E+00
  0.00000000E+00  0.00000000E+00  0.00000000E+00
  0.00000000E+00  0.00000000E+00  0.00000000E+00
  0.00000000E+00  0.00000000E+00  0.00000000E+00
  0.00000000E+00  0.00000000E+00  0.00000000E+00
  0.00000000E+00  0.00000000E+00  0.00000000E+00
