generated by phonopy                    
   1.00000000000000     
    10.0351470768999995   -0.0000022330999784   -0.0000001056124209
    -5.0175765436399997    8.6906901959899994    0.0000001395531216
    -0.0000001735893656    0.0000001431815548   14.9533752540999991
   Pb   P    O 
    20    12    49
Direct
  0.9939791483620866  0.7733754520064551  0.1128649673521878
  0.9944034620178215  0.7736544202180298  0.6343514822324821
  0.9650342429451726  0.2409818482293105  0.3739829556177341
  0.0007571994125115  0.2654128949117336  0.8739185454190945
  0.2225344506834048  0.2198197394907808  0.1107145207208973
  0.2229511135878326  0.2204359166696932  0.6372438733982975
  0.7547327801189780  0.7524763057234409  0.3738341796494495
  0.7396095397276810  0.7451673190796768  0.8738743788827250
  0.7733834648746054  0.0039023887182594  0.1153089850697100
  0.7728934905143490  0.0037535579130505  0.6323049869690394
  0.2512070091737542  0.9790874280826642  0.3735394579264693
  0.2566623673650810  0.9955124333723404  0.8739388614521815
  0.6662136640903711  0.3335883721905688  0.0002236975132490
  0.6675583275607480  0.3444413534622370  0.5068597881714751
  0.3349644855370499  0.6652494521028842  0.0007154531015985
  0.3318203050658539  0.6823278402623956  0.5109589758927555
  0.3314013165162564  0.6826333141049616  0.2364557540120558
  0.3347702032072846  0.6655735155354137  0.7467290937450457
  0.6648956566053954  0.3446244485599763  0.2424135299974068
  0.6653100214074641  0.3340535866194685  0.7486690874173902
  0.6236152864161397  0.5976850144566725  0.1237611058239239
  0.6235117412583193  0.5973660178358529  0.6238901066857636
  0.3434263257977506  0.3984566085689920  0.3742158717831643
  0.3688275743330323  0.3966922473499963  0.8740871770991987
  0.4061425548061735  0.0326355792721316  0.1268475320273623
  0.4062331083022954  0.0328400274477829  0.6209689260277713
  0.6082419252290734  0.9681836808838398  0.3735300781265281
  0.6025146038394311  0.9741431003528902  0.8739002296996006
  0.9703589138052493  0.3780754502915400  0.1278304751971930
  0.9702708078614393  0.3784301326291271  0.6206098757828258
  0.0370187859529167  0.6240801354046042  0.3735915917307295
  0.0239281588316089  0.6323390276869603  0.8737459160004235
  0.5019560548081756  0.6506612142476627  0.1204033731619489
  0.5016287445751502  0.6500871721871633  0.6269509253394858
  0.4701067297514498  0.3199522877243410  0.8744436039872454
  0.3606610302588606  0.8587118566171483  0.1226674484008683
  0.3605320549768436  0.8588048009102209  0.6247900950190299
  0.6884837031599602  0.1481568205064576  0.3736681847793690
  0.6778854314859117  0.1522846850022930  0.8743436795888613
  0.1428918975998030  0.5069033916877856  0.1244318791760719
  0.1430820581470229  0.5065032778713032  0.6230392568511860
  0.8592876339710145  0.5352408924405410  0.3736520711684008
  0.8459979387774723  0.5287884639920435  0.8740332310206611
  0.7305916232018888  0.6544852494824340  0.0388112780567482
  0.7290974627285465  0.6594146413476949  0.5389516732941999
  0.2669533464678295  0.3340549523678931  0.4619901515868037
  0.2609723336464214  0.3528813247280524  0.9578802540583169
  0.3493552269326088  0.0775662130357659  0.0400061198678259
  0.3355650965475476  0.0678270855341907  0.5375418209271459
  0.6521175597879107  0.9049064975018766  0.4572993705990314
  0.6475990793458095  0.9117859228638565  0.9578233433571555
  0.9219298774093048  0.2794433595423342  0.0398501803324294
  0.9314685792337158  0.2683872028339493  0.5384901702677709
  0.1066450112636446  0.7335469938905135  0.4571404823702494
  0.0853155805438988  0.7405113681371347  0.9574736610362322
  0.2646427656443109  0.3224585389005128  0.2888463623185515
  0.2597104708872848  0.3501791921868431  0.7907638111667339
  0.7304210634196195  0.6616864792092159  0.2081062705119123
  0.7314052095894752  0.6563773127589059  0.7084136515890336
  0.6540553294850753  0.9056542937884160  0.2902276380788251
  0.6502908496897959  0.9133775413055645  0.7903843316983199
  0.3326905423523954  0.0661503627778899  0.2094714827863768
  0.3469410163155544  0.0764383506908501  0.7072851413309849
  0.1067354972219761  0.7341981885539255  0.2902493212186812
  0.0844697881627710  0.7413335482258177  0.7903364487721447
  0.9354842883403975  0.2660816879206891  0.2085111229212799
  0.9240944775163058  0.2776037431050398  0.7076363346179235
  0.5427187572404648  0.4167516490201493  0.1257361405865822
  0.5430997845280388  0.4164426476786929  0.6231662734689891
  0.4973465152764760  0.5433216832014978  0.3715917840855667
  0.4739892454271555  0.5784646943552474  0.8731727139202334
  0.5862354363687317  0.1368733783818072  0.1318478681470623
  0.5864573295279882  0.1369599063208398  0.6177797500729980
  0.4278302782646151  0.8977421171128768  0.3728510154506210
  0.4206932941598254  0.8961804413414427  0.8729723416196933
  0.8645837780372929  0.4529271102817205  0.1365066854977997
  0.8648254795329890  0.4540896210009677  0.6149046096696722
  0.1014564700525753  0.5086835912950889  0.3732058344968650
  0.1024463533033071  0.5291110732142812  0.8731256494786450
  0.9960156955541350  0.9985752947609896  0.0919105374820006
  0.9959707788241872  0.9988935773046919  0.6528679287636834
 
  0.00000000E+00  0.00000000E+00  0.00000000E+00
  0.00000000E+00  0.00000000E+00  0.00000000E+00
  0.00000000E+00  0.00000000E+00  0.00000000E+00
  0.00000000E+00  0.00000000E+00  0.00000000E+00
  0.00000000E+00  0.00000000E+00  0.00000000E+00
  0.00000000E+00  0.00000000E+00  0.00000000E+00
  0.00000000E+00  0.00000000E+00  0.00000000E+00
  0.00000000E+00  0.00000000E+00  0.00000000E+00
  0.00000000E+00  0.00000000E+00  0.00000000E+00
  0.00000000E+00  0.00000000E+00  0.00000000E+00
  0.00000000E+00  0.00000000E+00  0.00000000E+00
  0.00000000E+00  0.00000000E+00  0.00000000E+00
  0.00000000E+00  0.00000000E+00  0.00000000E+00
  0.00000000E+00  0.00000000E+00  0.00000000E+00
  0.00000000E+00  0.00000000E+00  0.00000000E+00
  0.00000000E+00  0.00000000E+00  0.00000000E+00
  0.00000000E+00  0.00000000E+00  0.00000000E+00
  0.00000000E+00  0.00000000E+00  0.00000000E+00
  0.00000000E+00  0.00000000E+00  0.00000000E+00
  0.00000000E+00  0.00000000E+00  0.00000000E+00
  0.00000000E+00  0.00000000E+00  0.00000000E+00
  0.00000000E+00  0.00000000E+00  0.00000000E+00
  0.00000000E+00  0.00000000E+00  0.00000000E+00
  0.00000000E+00  0.00000000E+00  0.00000000E+00
  0.00000000E+00  0.00000000E+00  0.00000000E+00
  0.00000000E+00  0.00000000E+00  0.00000000E+00
  0.00000000E+00  0.00000000E+00  0.00000000E+00
  0.00000000E+00  0.00000000E+00  0.00000000E+00
  0.00000000E+00  0.00000000E+00  0.00000000E+00
  0.00000000E+00  0.00000000E+00  0.00000000E+00
  0.00000000E+00  0.00000000E+00  0.00000000E+00
  0.00000000E+00  0.00000000E+00  0.00000000E+00
  0.00000000E+00  0.00000000E+00  0.00000000E+00
  0.00000000E+00  0.00000000E+00  0.00000000E+00
  0.00000000E+00  0.00000000E+00  0.00000000E+00
  0.00000000E+00  0.00000000E+00  0.00000000E+00
  0.00000000E+00  0.00000000E+00  0.00000000E+00
  0.00000000E+00  0.00000000E+00  0.00000000E+00
  0.00000000E+00  0.00000000E+00  0.00000000E+00
  0.00000000E+00  0.00000000E+00  0.00000000E+00
  0.00000000E+00  0.00000000E+00  0.00000000E+00
  0.00000000E+00  0.00000000E+00  0.00000000E+00
  0.00000000E+00  0.00000000E+00  0.00000000E+00
  0.00000000E+00  0.00000000E+00  0.00000000E+00
  0.00000000E+00  0.00000000E+00  0.00000000E+00
  0.00000000E+00  0.00000000E+00  0.00000000E+00
  0.00000000E+00  0.00000000E+00  0.00000000E+00
  0.00000000E+00  0.00000000E+00  0.00000000E+00
  0.00000000E+00  0.00000000E+00  0.00000000E+00
  0.00000000E+00  0.00000000E+00  0.00000000E+00
  0.00000000E+00  0.00000000E+00  0.00000000E+00
  0.00000000E+00  0.00000000E+00  0.00000000E+00
  0.00000000E+00  0.00000000E+00  0.00000000E+00
  0.00000000E+00  0.00000000E+00  0.00000000E+00
  0.00000000E+00  0.00000000E+00  0.00000000E+00
  0.00000000E+00  0.00000000E+00  0.00000000E+00
  0.00000000E+00  0.00000000E+00  0.00000000E+00
  0.00000000E+00  0.00000000E+00  0.00000000E+00
  0.00000000E+00  0.00000000E+00  0.00000000E+00
  0.00000000E+00  0.00000000E+00  0.00000000E+00
  0.00000000E+00  0.00000000E+00  0.00000000E+00
  0.00000000E+00  0.00000000E+00  0.00000000E+00
  0.00000000E+00  0.00000000E+00  0.00000000E+00
  0.00000000E+00  0.00000000E+00  0.00000000E+00
  0.00000000E+00  0.00000000E+00  0.00000000E+00
  0.00000000E+00  0.00000000E+00  0.00000000E+00
  0.00000000E+00  0.00000000E+00  0.00000000E+00
  0.00000000E+00  0.00000000E+00  0.00000000E+00
  0.00000000E+00  0.00000000E+00  0.00000000E+00
  0.00000000E+00  0.00000000E+00  0.00000000E+00
  0.00000000E+00  0.00000000E+00  0.00000000E+00
  0.00000000E+00  0.00000000E+00  0.00000000E+00
  0.00000000E+00  0.00000000E+00  0.00000000E+00
  0.00000000E+00  0.00000000E+00  0.00000000E+00
  0.00000000E+00  0.00000000E+00  0.00000000E+00
  0.00000000E+00  0.00000000E+00  0.00000000E+00
  0.00000000E+00  0.00000000E+00  0.00000000E+00
  0.00000000E+00  0.00000000E+00  0.00000000E+00
  0.00000000E+00  0.00000000E+00  0.00000000E+00
  0.00000000E+00  0.00000000E+00  0.00000000E+00
  0.00000000E+00  0.00000000E+00  0.00000000E+00
