supercell of POSCAR                     
   1.03600000000000     
     9.6051007291200001   -5.6678653607799996   -9.9907275475200006
     9.5551777488200003    5.5783510108199996    9.9928581731800001
    -1.5573508785200001   -8.3719044994900003    4.9655686364999996
   Al   Gd   N 
    72    23    96
Direct
  0.3027492599024129  0.2861530473960556  0.5377939396105944
  0.1436446633019628  0.2434671005092000  0.3115612282168954
  0.3084220259251396  0.4085111262667880  0.3106674786442980
  0.4646559343934129  0.3210176419781590  0.7860239705597039
  0.1425990806458088  0.4982944229462731  0.7845359504383964
  0.2962338039762997  0.1632883155976188  0.7762783272181366
  0.4691522732248501  0.4467684152452449  0.5333709525800359
  0.1425787733275712  0.1195053215082709  0.5382165352151063
  0.4789964297450595  0.0728634111213964  0.3106049362197822
  0.2769479333800859  0.1083152492708379  0.3411255325181699
  0.1168519570221136  0.0707822753732401  0.1032414785470053
  0.1147315185327997  0.1955879968713106  0.8162694226724767
  0.2747198405369105  0.3546562162498361  0.8120835800747841
  0.1122697043239498  0.3240748945715524  0.5887310956504237
  0.2713025556800304  0.4847294465013334  0.5767980288965049
  0.4490304344328919  0.2788874423766714  0.3454818813285740
  0.1116711005694171  0.4453884328295388  0.3405712311118450
  0.4477419533315654  0.4023769130853765  0.1067748350665454
  0.8005291009644111  0.2879790896542929  0.5388787937344901
  0.6430391655736827  0.2431994768585142  0.3128348900544324
  0.8083894278925570  0.4087958327602976  0.3104289023578772
  0.9627843022552796  0.3246012525033564  0.7890010328469828
  0.6417249482133656  0.4980417296087225  0.7841467254325352
  0.7947816844967903  0.1638711122123766  0.7772061918282915
  0.9694713212187551  0.4458463812570699  0.5331107781966722
  0.6409167014674892  0.1164410675582133  0.5370781578097308
  0.9784288362501030  0.0717352194397449  0.2973421849201614
  0.7763319743723969  0.1085773318144660  0.3360327149428031
  0.6140862455856535  0.0701954936610107  0.1036514407363924
  0.6124527108297571  0.1946835194226111  0.8200335364669371
  0.7735090303650409  0.3554188718726223  0.8109738469838206
  0.6088915710529861  0.3245033523795371  0.5880326326474830
  0.7703018727042945  0.4845556601718926  0.5762310991092434
  0.9480060169088276  0.2794196786163567  0.3361864959776071
  0.6113264716973532  0.4451358205419425  0.3408211929776002
  0.9480894443140357  0.4041565719490876  0.1046084483036935
  0.3017483860599768  0.7894175690955052  0.5385756487728415
  0.1436393106015359  0.7436501078139059  0.3116601956956941
  0.3087214267876561  0.9099288239427210  0.3111404102176891
  0.4634363881005115  0.8294866214887477  0.7885871771955166
  0.1419827625020176  0.9982303417577114  0.7843271710451631
  0.2961941587175616  0.6658431499327975  0.7798801446316546
  0.4714767358308904  0.9476051383293083  0.5281697359573769
  0.1440476213543960  0.6196198506107038  0.5387391388397020
  0.4784035145021761  0.5717340163423330  0.2981169917594571
  0.2767918326139949  0.6084610252044271  0.3361993909840990
  0.1154366200171779  0.5704892641805728  0.1024396934651790
  0.1160839837868011  0.6968103220299469  0.8171355491397776
  0.2762225123919038  0.8572414402815625  0.8118315783484533
  0.1123423514589064  0.8251911233567029  0.5888391401200153
  0.2694220723360132  0.9873659214360586  0.5722453960273342
  0.4491154535330040  0.7793793237185938  0.3344249775607224
  0.1105810732236137  0.9451910690651673  0.3389622853164838
  0.4499138200601251  0.9068733180061486  0.1036346723200268
  0.8012945722370333  0.7878549846919611  0.5379537559447698
  0.6435941012376389  0.7426996021482921  0.3105226801469669
  0.8092222164640361  0.9087192885273083  0.3094323129432013
  0.9630747996302631  0.8250205733171327  0.7884357765461161
  0.6412187713231532  0.9977282726140331  0.7836780212200765
  0.7953379145609460  0.6647327409407850  0.7786832396287693
  0.9694340782487885  0.9460392127843775  0.5331633634912123
  0.6431692083450429  0.6191478490540092  0.5380024695502286
  0.9785883398824851  0.5717966355201369  0.2980030482566818
  0.7764621877885745  0.6080496127284931  0.3355166286853830
  0.6146499700214676  0.5701001775482268  0.1020599348672135
  0.6142275040264025  0.6961562629612317  0.8156587969909239
  0.7744289087741763  0.8552361958057659  0.8115495143473623
  0.6119250704470076  0.8242889887280498  0.5873349625270379
  0.7708175103519679  0.9843305929217436  0.5758375537505458
  0.9485325160587905  0.7793879986612779  0.3360360231446506
  0.6134706529707898  0.9438773235537425  0.3378658853362566
  0.9482911246340251  0.9043777182354447  0.1030949205460203
  0.4820414302331812  0.1946566816449220  0.0439576624791655
  0.1357972590318681  0.3655641093579476  0.0328748934966967
  0.3097253246738489  0.0205011748026465  0.0392662831180814
  0.2838986407729251  0.2330076800177139  0.0813567020235695
  0.4472560447943223  0.0284030903497197  0.8072015808084032
  0.9824754908568565  0.1948142774090300  0.0399054887256156
  0.6358015723113084  0.3661342146343713  0.0340534218895741
  0.8067096120717423  0.0219768914464282  0.0402189927551433
  0.7831949513391194  0.2339358863400918  0.0800548827626173
  0.9483377408725318  0.0197235261255670  0.8200751096726435
  0.9430248843751556  0.1546004053145396  0.5717611526718613
  0.4826098293755834  0.6955183404672240  0.0374457258479950
  0.1362667465739236  0.8656416502021358  0.0322377300202206
  0.3083796959898848  0.5212893975432848  0.0399966297456302
  0.2841148242584666  0.7336646856534301  0.0840463463785142
  0.4481493064101230  0.5169205992297563  0.8194280245385741
  0.4431539348923721  0.6566984847679720  0.5738117309005588
  0.9829531097973288  0.6951707196513581  0.0389612311897025
  0.6363798002425725  0.8643659005580773  0.0308807259066057
  0.8081830208885208  0.5212105174135573  0.0391507488830882
  0.7842201210039974  0.7330205271625729  0.0822450770184560
  0.9489484132426966  0.5191279095710115  0.8191529070836054
  0.9442995414117661  0.6547833809109562  0.5724971479701892
  0.2380950899266523  0.3672847456495987  0.6261461338282004
  0.0748332487095098  0.3249392344797855  0.4000163104762038
  0.2389293064569031  0.4897937900666562  0.3910431059254478
  0.4264635782043769  0.2905883535683813  0.1632099826629272
  0.0694451567481451  0.4567973431910559  0.1523206621789228
  0.2373514453775059  0.1033311675123372  0.1582937356835004
  0.3999525819520855  0.3907256068219027  0.9099158819522728
  0.0936179281458038  0.0832003029044373  0.9027078839939477
  0.2335516183360085  0.2432022109241743  0.8645917744029248
  0.3928955579419835  0.0140651909749963  0.5965466921460063
  0.0889775390866987  0.2032192561632939  0.6316788315730832
  0.4035095929491774  0.1548873022927424  0.3586569836289826
  0.2184938235122615  0.1907000033814867  0.4353576217699597
  0.0622428796495171  0.1455626095004732  0.2090362095663423
  0.2156789105219517  0.3198462511421738  0.2098735218386807
  0.3648428230491874  0.1187254822171653  0.9105028990967128
  0.0416997897423244  0.2683585355241860  0.8861480230267773
  0.2104750971592253  0.4350550717769224  0.8890256643927117
  0.3643470946883056  0.2483894058983793  0.6862845675973688
  0.0395857198614777  0.4067302045479764  0.6838051066359228
  0.2109396317377090  0.0677394812875818  0.6701035629503167
  0.3816794827168692  0.3531437848390553  0.4348244933940890
  0.0479845498745988  0.0258347037003475  0.4394783161734352
  0.3904793382367657  0.4744319470075524  0.2103310563494247
  0.7359927140496794  0.3671006686009406  0.6256481036926402
  0.5753414135809578  0.3253271362814232  0.4006345966282296
  0.7387596516759274  0.4895274598876682  0.3904731309382541
  0.9265170121021242  0.2920009425839609  0.1563581185446310
  0.5689693465869468  0.4563126754679345  0.1530346687174031
  0.7342154845916511  0.1049351469503463  0.1563513600519641
  0.8991601333140338  0.3929255083799532  0.9084931028023178
  0.5927374692190881  0.0829030830394117  0.9026244863879214
  0.7319560838303616  0.2433494518731507  0.8627330096973154
  0.8951181577674703  0.0156280548729910  0.6101822537702404
  0.5938446248401519  0.2043650342477079  0.6353581987485768
  0.9040459983205125  0.1552230650583581  0.3543791635907141
  0.7185382473926936  0.1901005903047803  0.4363034746422727
  0.5606153573039876  0.1447143311978536  0.2134318564126332
  0.7156574582940181  0.3193267308110777  0.2106167011332332
  0.8647527046049177  0.1175971549579131  0.9091220757004095
  0.5419350656290831  0.2681046241851206  0.8905268317153840
  0.7096857552226012  0.4352103442961663  0.8889044907073043
  0.8667854653981379  0.2458992391463894  0.6815791664049371
  0.5392594856179116  0.4061653699160814  0.6835423555377318
  0.7115790227102607  0.0670478133443524  0.6700610195863774
  0.8815310759036450  0.3520936077355756  0.4334248583146945
  0.5524215224956350  0.0226072441001151  0.4375816248974900
  0.8904585997852266  0.4748500825296347  0.2099660191837600
  0.2384602692980522  0.8696224211764161  0.6256184356670786
  0.0749997633938904  0.8247822736133088  0.3999563192088686
  0.2365131919371919  0.9892688021859897  0.3880358031994646
  0.4275588005055866  0.7938641901432888  0.1544209725747265
  0.0697024263008430  0.9569702357426522  0.1513030232782384
  0.2351533039397466  0.6025739319779007  0.1562061349465225
  0.4019535908364915  0.9010267779342840  0.9061234468406170
  0.0939495714673910  0.5835315072636007  0.9020946962651522
  0.2349365368531195  0.7459046978196398  0.8683146290795918
  0.3955818829816025  0.5171705026442410  0.6098657772984453
  0.0909660034980533  0.7040868142396519  0.6321669333969737
  0.4044688770898262  0.6554862166393320  0.3548955493947474
  0.2198507349296790  0.6910719671589192  0.4351652446324934
  0.0618668789301466  0.6457135177925508  0.2091066984392498
  0.2160497160539379  0.8202601892378851  0.2104108301877829
  0.3660003652472383  0.6166104386687010  0.9079600931737914
  0.0420882743716504  0.7688395164094857  0.8853534351804697
  0.2101931975862925  0.9357677624845095  0.8888704651529125
  0.3669449022588864  0.7485776790746570  0.6835041141361913
  0.0396292398530846  0.9066478230293527  0.6831597075147684
  0.2125470597899195  0.5683424326830249  0.6712709380126327
  0.3824461213933787  0.8517329865146905  0.4318707244322155
  0.0487342319845325  0.5261440498684493  0.4403447556909015
  0.3923623580138340  0.9765593116903872  0.2131085251201341
  0.7374656473883832  0.8671905560860793  0.6254815172374109
  0.5756425963421421  0.8238416682070877  0.3983801712946331
  0.7403425148124825  0.9894262315725371  0.3896405375832828
  0.9275846634941303  0.7924029809646242  0.1562332312209023
  0.5716889944395120  0.9558678318546114  0.1509673835492222
  0.7346018448588794  0.6022886045583675  0.1553624645736278
  0.8997707626134215  0.8930244633588700  0.9077070622857448
  0.5924503064837552  0.5830628346296436  0.9015335763559875
  0.7331342732785373  0.7440567902627180  0.8666859226585970
  0.8947615361354195  0.5155753302966133  0.6094560454488303
  0.5897891150963233  0.7032995582625787  0.6308626305503324
  0.9042071949948536  0.6552394801089889  0.3551792809954364
  0.7193452159882554  0.6901419552349068  0.4343556204697947
  0.5611218276890497  0.6454568851295903  0.2079365793652102
  0.7162754549581294  0.8194960366685109  0.2097734217527645
  0.8657737339656322  0.6172051268308323  0.9082101003364613
  0.5408887043918185  0.7696416972069002  0.8833153568363628
  0.7101420487955252  0.9354056213059820  0.8880082789534640
  0.8670855645677520  0.7457308471064010  0.6812426355800838
  0.5396671780704381  0.9077289323949316  0.6810077059715454
  0.7116286022041862  0.5677124064978898  0.6706904827697713
  0.8821168177150227  0.8522168727647212  0.4328331798268792
  0.5487203611190452  0.5257423518293720  0.4398699684808349
  0.8906033948113716  0.9750436361550356  0.2082631413239824
 
  0.00000000E+00  0.00000000E+00  0.00000000E+00
  0.00000000E+00  0.00000000E+00  0.00000000E+00
  0.00000000E+00  0.00000000E+00  0.00000000E+00
  0.00000000E+00  0.00000000E+00  0.00000000E+00
  0.00000000E+00  0.00000000E+00  0.00000000E+00
  0.00000000E+00  0.00000000E+00  0.00000000E+00
  0.00000000E+00  0.00000000E+00  0.00000000E+00
  0.00000000E+00  0.00000000E+00  0.00000000E+00
  0.00000000E+00  0.00000000E+00  0.00000000E+00
  0.00000000E+00  0.00000000E+00  0.00000000E+00
  0.00000000E+00  0.00000000E+00  0.00000000E+00
  0.00000000E+00  0.00000000E+00  0.00000000E+00
  0.00000000E+00  0.00000000E+00  0.00000000E+00
  0.00000000E+00  0.00000000E+00  0.00000000E+00
  0.00000000E+00  0.00000000E+00  0.00000000E+00
  0.00000000E+00  0.00000000E+00  0.00000000E+00
  0.00000000E+00  0.00000000E+00  0.00000000E+00
  0.00000000E+00  0.00000000E+00  0.00000000E+00
  0.00000000E+00  0.00000000E+00  0.00000000E+00
  0.00000000E+00  0.00000000E+00  0.00000000E+00
  0.00000000E+00  0.00000000E+00  0.00000000E+00
  0.00000000E+00  0.00000000E+00  0.00000000E+00
  0.00000000E+00  0.00000000E+00  0.00000000E+00
  0.00000000E+00  0.00000000E+00  0.00000000E+00
  0.00000000E+00  0.00000000E+00  0.00000000E+00
  0.00000000E+00  0.00000000E+00  0.00000000E+00
  0.00000000E+00  0.00000000E+00  0.00000000E+00
  0.00000000E+00  0.00000000E+00  0.00000000E+00
  0.00000000E+00  0.00000000E+00  0.00000000E+00
  0.00000000E+00  0.00000000E+00  0.00000000E+00
  0.00000000E+00  0.00000000E+00  0.00000000E+00
  0.00000000E+00  0.00000000E+00  0.00000000E+00
  0.00000000E+00  0.00000000E+00  0.00000000E+00
  0.00000000E+00  0.00000000E+00  0.00000000E+00
  0.00000000E+00  0.00000000E+00  0.00000000E+00
  0.00000000E+00  0.00000000E+00  0.00000000E+00
  0.00000000E+00  0.00000000E+00  0.00000000E+00
  0.00000000E+00  0.00000000E+00  0.00000000E+00
  0.00000000E+00  0.00000000E+00  0.00000000E+00
  0.00000000E+00  0.00000000E+00  0.00000000E+00
  0.00000000E+00  0.00000000E+00  0.00000000E+00
  0.00000000E+00  0.00000000E+00  0.00000000E+00
  0.00000000E+00  0.00000000E+00  0.00000000E+00
  0.00000000E+00  0.00000000E+00  0.00000000E+00
  0.00000000E+00  0.00000000E+00  0.00000000E+00
  0.00000000E+00  0.00000000E+00  0.00000000E+00
  0.00000000E+00  0.00000000E+00  0.00000000E+00
  0.00000000E+00  0.00000000E+00  0.00000000E+00
  0.00000000E+00  0.00000000E+00  0.00000000E+00
  0.00000000E+00  0.00000000E+00  0.00000000E+00
  0.00000000E+00  0.00000000E+00  0.00000000E+00
  0.00000000E+00  0.00000000E+00  0.00000000E+00
  0.00000000E+00  0.00000000E+00  0.00000000E+00
  0.00000000E+00  0.00000000E+00  0.00000000E+00
  0.00000000E+00  0.00000000E+00  0.00000000E+00
  0.00000000E+00  0.00000000E+00  0.00000000E+00
  0.00000000E+00  0.00000000E+00  0.00000000E+00
  0.00000000E+00  0.00000000E+00  0.00000000E+00
  0.00000000E+00  0.00000000E+00  0.00000000E+00
  0.00000000E+00  0.00000000E+00  0.00000000E+00
  0.00000000E+00  0.00000000E+00  0.00000000E+00
  0.00000000E+00  0.00000000E+00  0.00000000E+00
  0.00000000E+00  0.00000000E+00  0.00000000E+00
  0.00000000E+00  0.00000000E+00  0.00000000E+00
  0.00000000E+00  0.00000000E+00  0.00000000E+00
  0.00000000E+00  0.00000000E+00  0.00000000E+00
  0.00000000E+00  0.00000000E+00  0.00000000E+00
  0.00000000E+00  0.00000000E+00  0.00000000E+00
  0.00000000E+00  0.00000000E+00  0.00000000E+00
  0.00000000E+00  0.00000000E+00  0.00000000E+00
  0.00000000E+00  0.00000000E+00  0.00000000E+00
  0.00000000E+00  0.00000000E+00  0.00000000E+00
  0.00000000E+00  0.00000000E+00  0.00000000E+00
  0.00000000E+00  0.00000000E+00  0.00000000E+00
  0.00000000E+00  0.00000000E+00  0.00000000E+00
  0.00000000E+00  0.00000000E+00  0.00000000E+00
  0.00000000E+00  0.00000000E+00  0.00000000E+00
  0.00000000E+00  0.00000000E+00  0.00000000E+00
  0.00000000E+00  0.00000000E+00  0.00000000E+00
  0.00000000E+00  0.00000000E+00  0.00000000E+00
  0.00000000E+00  0.00000000E+00  0.00000000E+00
  0.00000000E+00  0.00000000E+00  0.00000000E+00
  0.00000000E+00  0.00000000E+00  0.00000000E+00
  0.00000000E+00  0.00000000E+00  0.00000000E+00
  0.00000000E+00  0.00000000E+00  0.00000000E+00
  0.00000000E+00  0.00000000E+00  0.00000000E+00
  0.00000000E+00  0.00000000E+00  0.00000000E+00
  0.00000000E+00  0.00000000E+00  0.00000000E+00
  0.00000000E+00  0.00000000E+00  0.00000000E+00
  0.00000000E+00  0.00000000E+00  0.00000000E+00
  0.00000000E+00  0.00000000E+00  0.00000000E+00
  0.00000000E+00  0.00000000E+00  0.00000000E+00
  0.00000000E+00  0.00000000E+00  0.00000000E+00
  0.00000000E+00  0.00000000E+00  0.00000000E+00
  0.00000000E+00  0.00000000E+00  0.00000000E+00
  0.00000000E+00  0.00000000E+00  0.00000000E+00
  0.00000000E+00  0.00000000E+00  0.00000000E+00
  0.00000000E+00  0.00000000E+00  0.00000000E+00
  0.00000000E+00  0.00000000E+00  0.00000000E+00
  0.00000000E+00  0.00000000E+00  0.00000000E+00
  0.00000000E+00  0.00000000E+00  0.00000000E+00
  0.00000000E+00  0.00000000E+00  0.00000000E+00
  0.00000000E+00  0.00000000E+00  0.00000000E+00
  0.00000000E+00  0.00000000E+00  0.00000000E+00
  0.00000000E+00  0.00000000E+00  0.00000000E+00
  0.00000000E+00  0.00000000E+00  0.00000000E+00
  0.00000000E+00  0.00000000E+00  0.00000000E+00
  0.00000000E+00  0.00000000E+00  0.00000000E+00
  0.00000000E+00  0.00000000E+00  0.00000000E+00
  0.00000000E+00  0.00000000E+00  0.00000000E+00
  0.00000000E+00  0.00000000E+00  0.00000000E+00
  0.00000000E+00  0.00000000E+00  0.00000000E+00
  0.00000000E+00  0.00000000E+00  0.00000000E+00
  0.00000000E+00  0.00000000E+00  0.00000000E+00
  0.00000000E+00  0.00000000E+00  0.00000000E+00
  0.00000000E+00  0.00000000E+00  0.00000000E+00
  0.00000000E+00  0.00000000E+00  0.00000000E+00
  0.00000000E+00  0.00000000E+00  0.00000000E+00
  0.00000000E+00  0.00000000E+00  0.00000000E+00
  0.00000000E+00  0.00000000E+00  0.00000000E+00
  0.00000000E+00  0.00000000E+00  0.00000000E+00
  0.00000000E+00  0.00000000E+00  0.00000000E+00
  0.00000000E+00  0.00000000E+00  0.00000000E+00
  0.00000000E+00  0.00000000E+00  0.00000000E+00
  0.00000000E+00  0.00000000E+00  0.00000000E+00
  0.00000000E+00  0.00000000E+00  0.00000000E+00
  0.00000000E+00  0.00000000E+00  0.00000000E+00
  0.00000000E+00  0.00000000E+00  0.00000000E+00
  0.00000000E+00  0.00000000E+00  0.00000000E+00
  0.00000000E+00  0.00000000E+00  0.00000000E+00
  0.00000000E+00  0.00000000E+00  0.00000000E+00
  0.00000000E+00  0.00000000E+00  0.00000000E+00
  0.00000000E+00  0.00000000E+00  0.00000000E+00
  0.00000000E+00  0.00000000E+00  0.00000000E+00
  0.00000000E+00  0.00000000E+00  0.00000000E+00
  0.00000000E+00  0.00000000E+00  0.00000000E+00
  0.00000000E+00  0.00000000E+00  0.00000000E+00
  0.00000000E+00  0.00000000E+00  0.00000000E+00
  0.00000000E+00  0.00000000E+00  0.00000000E+00
  0.00000000E+00  0.00000000E+00  0.00000000E+00
  0.00000000E+00  0.00000000E+00  0.00000000E+00
  0.00000000E+00  0.00000000E+00  0.00000000E+00
  0.00000000E+00  0.00000000E+00  0.00000000E+00
  0.00000000E+00  0.00000000E+00  0.00000000E+00
  0.00000000E+00  0.00000000E+00  0.00000000E+00
  0.00000000E+00  0.00000000E+00  0.00000000E+00
  0.00000000E+00  0.00000000E+00  0.00000000E+00
  0.00000000E+00  0.00000000E+00  0.00000000E+00
  0.00000000E+00  0.00000000E+00  0.00000000E+00
  0.00000000E+00  0.00000000E+00  0.00000000E+00
  0.00000000E+00  0.00000000E+00  0.00000000E+00
  0.00000000E+00  0.00000000E+00  0.00000000E+00
  0.00000000E+00  0.00000000E+00  0.00000000E+00
  0.00000000E+00  0.00000000E+00  0.00000000E+00
  0.00000000E+00  0.00000000E+00  0.00000000E+00
  0.00000000E+00  0.00000000E+00  0.00000000E+00
  0.00000000E+00  0.00000000E+00  0.00000000E+00
  0.00000000E+00  0.00000000E+00  0.00000000E+00
  0.00000000E+00  0.00000000E+00  0.00000000E+00
  0.00000000E+00  0.00000000E+00  0.00000000E+00
  0.00000000E+00  0.00000000E+00  0.00000000E+00
  0.00000000E+00  0.00000000E+00  0.00000000E+00
  0.00000000E+00  0.00000000E+00  0.00000000E+00
  0.00000000E+00  0.00000000E+00  0.00000000E+00
  0.00000000E+00  0.00000000E+00  0.00000000E+00
  0.00000000E+00  0.00000000E+00  0.00000000E+00
  0.00000000E+00  0.00000000E+00  0.00000000E+00
  0.00000000E+00  0.00000000E+00  0.00000000E+00
  0.00000000E+00  0.00000000E+00  0.00000000E+00
  0.00000000E+00  0.00000000E+00  0.00000000E+00
  0.00000000E+00  0.00000000E+00  0.00000000E+00
  0.00000000E+00  0.00000000E+00  0.00000000E+00
  0.00000000E+00  0.00000000E+00  0.00000000E+00
  0.00000000E+00  0.00000000E+00  0.00000000E+00
  0.00000000E+00  0.00000000E+00  0.00000000E+00
  0.00000000E+00  0.00000000E+00  0.00000000E+00
  0.00000000E+00  0.00000000E+00  0.00000000E+00
  0.00000000E+00  0.00000000E+00  0.00000000E+00
  0.00000000E+00  0.00000000E+00  0.00000000E+00
  0.00000000E+00  0.00000000E+00  0.00000000E+00
  0.00000000E+00  0.00000000E+00  0.00000000E+00
  0.00000000E+00  0.00000000E+00  0.00000000E+00
  0.00000000E+00  0.00000000E+00  0.00000000E+00
  0.00000000E+00  0.00000000E+00  0.00000000E+00
  0.00000000E+00  0.00000000E+00  0.00000000E+00
  0.00000000E+00  0.00000000E+00  0.00000000E+00
  0.00000000E+00  0.00000000E+00  0.00000000E+00
  0.00000000E+00  0.00000000E+00  0.00000000E+00
  0.00000000E+00  0.00000000E+00  0.00000000E+00
  0.00000000E+00  0.00000000E+00  0.00000000E+00
  0.00000000E+00  0.00000000E+00  0.00000000E+00
