supercell of icsd_181358.cif            
   1.00000000000000     
     9.4566913032871245   -0.0000086004397572   -0.0000001193625985
    -4.7283530931759739    8.1918327623828660    0.0054509149888873
    -0.0000001237960925    0.0069153952148898   10.1891702612051844
   N    Ga   B 
    36    34     2
Direct
  0.2234726660466535  0.1119617354122440  0.4396721106771651
  0.1110138068828874  0.2220274413156105  0.1888509647354724
  0.8867498166856649  0.1079599619393932  0.9420134839420484
  0.7781575418068059  0.2230204908363120  0.6895496310927172
  0.5551707608015377  0.1103418648398602  0.4394647919197325
  0.4455635953898565  0.2255612769174462  0.1917506721525797
  0.2212090465993768  0.1079594498471010  0.9420136158001782
  0.1109421095787368  0.2218836049772293  0.6912486377872895
  0.8884889271879786  0.1119617811322513  0.4396720758809920
  0.7799979007127575  0.2255607596761067  0.1917505286721735
  0.5557568527351933  0.1115144441337321  0.9404704403206239
  0.4448639919813573  0.2230212382629375  0.6895498355752991
  0.2227835119321000  0.4455666652457140  0.4410796689900067
  0.1081986610891263  0.5531786183300014  0.1905793238735569
  0.8864955131017638  0.4467514682768723  0.9357199419354174
  0.7794973918117236  0.5589937447908753  0.6562742852816470
  0.5862622153219732  0.4593918033851665  0.4469200077273214
  0.4449804932300410  0.5531795004124902  0.1905793771687527
  0.2224459189625350  0.4448919432557261  0.9399427949475267
  0.1111971399909564  0.5564116921287123  0.6898343189006937
  0.8731293710913803  0.4593915912903199  0.4469198910148364
  0.7930765978243599  0.5861528413363430  0.1943648957693043
  0.5602552619897168  0.4467509283691484  0.9357201338658214
  0.4452157055020152  0.5564124088462492  0.6898341245993720
  0.2227837225907336  0.7777821803529861  0.4385481721393987
  0.0784357014640094  0.8713806303285878  0.2006958206543885
  0.8882330095010786  0.7764668954494383  0.9298201727862434
  0.7781030743238802  0.8887969268634492  0.6835688647577598
  0.5549984527843321  0.7777831837030504  0.4385475300354926
  0.4438765188669720  0.8877539732659017  0.1901898156316193
  0.2203551186653456  0.7788135336673534  0.9422325781271610
  0.1106946989452311  0.8887973213360496  0.6835689520722710
  0.8753962744076915  0.7507926949183670  0.4214020303595234
  0.7929451845438109  0.8713806468926109  0.2006954996816361
  0.5584580532921208  0.7788138930039779  0.9422326896500337
  0.4443112783136911  0.8886225277127195  0.6911008234285134
  0.2157706545891216  0.1059651391815493  0.2509085748784230
  0.1108727262965843  0.2217458221352118  0.9999877414572538
  0.8875696235073036  0.1091029268849866  0.7502656498748621
  0.7763788475036790  0.2268319801798242  0.5000782576414124
  0.5555961632409137  0.1111925540484577  0.2505449871334520
  0.4456986084134513  0.2242162762618207  0.0005884231389715
  0.2215340349649182  0.1091036599656121  0.7502656517239359
  0.1110571672674610  0.2221139500206561  0.5015992302794530
  0.8901941106470588  0.1059641932453843  0.2509088013624421
  0.7785177543114372  0.2242175130112116  0.0005879946478231
  0.5557360544679781  0.1114723141949483  0.7509794052977909
  0.4504531163748098  0.2268313615909037  0.5000787623338923
  0.2218025497431171  0.4436050514764673  0.2511420271041445
  0.1087895357268849  0.5545227010555251  0.9999702493098965
  0.8861802876468872  0.4481633226576349  0.7427205804501895
  0.5668281835450628  0.4540402237511501  0.2554394614327791
  0.4457338393845660  0.5545230679520401  0.9999703922346868
  0.2223959382340652  0.4447912970926922  0.7501783406828721
  0.1061481617236240  0.5574586193819187  0.5008285599916107
  0.8872109376140003  0.4540389195795598  0.2554393895367397
  0.7809267964152156  0.5618538880232506  0.0031165038016212
  0.5619843014338386  0.4481645325584864  0.7427206551530645
  0.4513121622045801  0.5574604002274768  0.5008281031005382
  0.2156555471897832  0.7755901072019853  0.2503069345550273
  0.1030165287644706  0.8845152296943581  0.0056091392116784
  0.8875551838573372  0.7751099504472521  0.7401111689354565
  0.7788568490257433  0.8812024443968411  0.4927135973443910
  0.5599342917761945  0.7755916734581163  0.2503061861184719
  0.4444450759056053  0.8888905538116703  0.0007927491678217
  0.2210073182368646  0.7789961481296359  0.7508815965016495
  0.1023455583920807  0.8812025987968468  0.4927136639276739
  0.7814989270705794  0.8845157802588375  0.0056090797764554
  0.5579885668763040  0.7789966333085374  0.7508816807752439
  0.4441958129014481  0.8883920107641714  0.5008846219499716
  0.7767635295954776  0.5535270591892569  0.4940596123570344
  0.8845293691961871  0.7690584336133881  0.2536037248567879
 
  0.00000000E+00  0.00000000E+00  0.00000000E+00
  0.00000000E+00  0.00000000E+00  0.00000000E+00
  0.00000000E+00  0.00000000E+00  0.00000000E+00
  0.00000000E+00  0.00000000E+00  0.00000000E+00
  0.00000000E+00  0.00000000E+00  0.00000000E+00
  0.00000000E+00  0.00000000E+00  0.00000000E+00
  0.00000000E+00  0.00000000E+00  0.00000000E+00
  0.00000000E+00  0.00000000E+00  0.00000000E+00
  0.00000000E+00  0.00000000E+00  0.00000000E+00
  0.00000000E+00  0.00000000E+00  0.00000000E+00
  0.00000000E+00  0.00000000E+00  0.00000000E+00
  0.00000000E+00  0.00000000E+00  0.00000000E+00
  0.00000000E+00  0.00000000E+00  0.00000000E+00
  0.00000000E+00  0.00000000E+00  0.00000000E+00
  0.00000000E+00  0.00000000E+00  0.00000000E+00
  0.00000000E+00  0.00000000E+00  0.00000000E+00
  0.00000000E+00  0.00000000E+00  0.00000000E+00
  0.00000000E+00  0.00000000E+00  0.00000000E+00
  0.00000000E+00  0.00000000E+00  0.00000000E+00
  0.00000000E+00  0.00000000E+00  0.00000000E+00
  0.00000000E+00  0.00000000E+00  0.00000000E+00
  0.00000000E+00  0.00000000E+00  0.00000000E+00
  0.00000000E+00  0.00000000E+00  0.00000000E+00
  0.00000000E+00  0.00000000E+00  0.00000000E+00
  0.00000000E+00  0.00000000E+00  0.00000000E+00
  0.00000000E+00  0.00000000E+00  0.00000000E+00
  0.00000000E+00  0.00000000E+00  0.00000000E+00
  0.00000000E+00  0.00000000E+00  0.00000000E+00
  0.00000000E+00  0.00000000E+00  0.00000000E+00
  0.00000000E+00  0.00000000E+00  0.00000000E+00
  0.00000000E+00  0.00000000E+00  0.00000000E+00
  0.00000000E+00  0.00000000E+00  0.00000000E+00
  0.00000000E+00  0.00000000E+00  0.00000000E+00
  0.00000000E+00  0.00000000E+00  0.00000000E+00
  0.00000000E+00  0.00000000E+00  0.00000000E+00
  0.00000000E+00  0.00000000E+00  0.00000000E+00
  0.00000000E+00  0.00000000E+00  0.00000000E+00
  0.00000000E+00  0.00000000E+00  0.00000000E+00
  0.00000000E+00  0.00000000E+00  0.00000000E+00
  0.00000000E+00  0.00000000E+00  0.00000000E+00
  0.00000000E+00  0.00000000E+00  0.00000000E+00
  0.00000000E+00  0.00000000E+00  0.00000000E+00
  0.00000000E+00  0.00000000E+00  0.00000000E+00
  0.00000000E+00  0.00000000E+00  0.00000000E+00
  0.00000000E+00  0.00000000E+00  0.00000000E+00
  0.00000000E+00  0.00000000E+00  0.00000000E+00
  0.00000000E+00  0.00000000E+00  0.00000000E+00
  0.00000000E+00  0.00000000E+00  0.00000000E+00
  0.00000000E+00  0.00000000E+00  0.00000000E+00
  0.00000000E+00  0.00000000E+00  0.00000000E+00
  0.00000000E+00  0.00000000E+00  0.00000000E+00
  0.00000000E+00  0.00000000E+00  0.00000000E+00
  0.00000000E+00  0.00000000E+00  0.00000000E+00
  0.00000000E+00  0.00000000E+00  0.00000000E+00
  0.00000000E+00  0.00000000E+00  0.00000000E+00
  0.00000000E+00  0.00000000E+00  0.00000000E+00
  0.00000000E+00  0.00000000E+00  0.00000000E+00
  0.00000000E+00  0.00000000E+00  0.00000000E+00
  0.00000000E+00  0.00000000E+00  0.00000000E+00
  0.00000000E+00  0.00000000E+00  0.00000000E+00
  0.00000000E+00  0.00000000E+00  0.00000000E+00
  0.00000000E+00  0.00000000E+00  0.00000000E+00
  0.00000000E+00  0.00000000E+00  0.00000000E+00
  0.00000000E+00  0.00000000E+00  0.00000000E+00
  0.00000000E+00  0.00000000E+00  0.00000000E+00
  0.00000000E+00  0.00000000E+00  0.00000000E+00
  0.00000000E+00  0.00000000E+00  0.00000000E+00
  0.00000000E+00  0.00000000E+00  0.00000000E+00
  0.00000000E+00  0.00000000E+00  0.00000000E+00
  0.00000000E+00  0.00000000E+00  0.00000000E+00
  0.00000000E+00  0.00000000E+00  0.00000000E+00
  0.00000000E+00  0.00000000E+00  0.00000000E+00
