supercell of 100% icsd_608626.cif, 0% i 
   1.00000000000000     
    -9.4148329547586211   -0.0121274868088586    0.0059977306281063
    -4.6969021266546216    8.1558731142960870   -0.0020054124931971
     0.0063999534690914    0.0061565822210870  -10.0192388590227228
   Al   Si   Mg   N 
    28     4     4    36
Direct
  0.1134882891137394  0.0935413673816967  0.2970719275647369
  0.2223528963521986  0.2045848508138022  0.0459715975534181
  0.8901583623759350  0.2077373402222520  0.5470225592543017
  0.4433279860425046  0.0941487466441799  0.2995990573248264
  0.5561169566193058  0.2047623665071114  0.0461292840585941
  0.1167091833614862  0.0907126760773096  0.7924468736525228
  0.2189161327590909  0.2111031980292495  0.5439550561520292
  0.7791281913612593  0.0920218329192082  0.3003000490354069
  0.8899589146616051  0.2026404844720915  0.0466854896509119
  0.4424319816287081  0.0951794789860543  0.7940907696920831
  0.1120222617565787  0.4276520024181067  0.2922791345817046
  0.2224037383000024  0.5352320440424236  0.0470772300358604
  0.7773858883647407  0.4300901660909986  0.7924581267015469
  0.4432705670724459  0.4296341571423810  0.2968918620130196
  0.5547998644593406  0.5402160920052168  0.0455647182571184
  0.1149672436130871  0.4236480414394492  0.7945001958804951
  0.7778571512935599  0.4286405896545276  0.2945017296288555
  0.8915639550964158  0.5369799071501546  0.0478894610348704
  0.4429303451581319  0.4281032027732081  0.7937680411159747
  0.5598434988424827  0.5332919789149173  0.5465495563068146
  0.2233715487987666  0.8729510967729155  0.0442483461585823
  0.7752515290895303  0.7600447604163207  0.7946468419324759
  0.8883243858744265  0.8704050949855642  0.5452740735545234
  0.4445202552855676  0.7617111947248958  0.2975649735602417
  0.5532351214104665  0.8735135933468072  0.0463283564788242
  0.2179801472544440  0.8747765076863203  0.5435940249482059
  0.7783228043475248  0.7626099474276273  0.2961829076263314
  0.5600756679519492  0.8719895346897175  0.5451089869452304
  0.7723706888444752  0.0965082254832623  0.7956771243449410
  0.5547227587808976  0.2078040469359195  0.5478594942896962
  0.8851031603195665  0.8768780584016795  0.0427650180600239
  0.4436644050161149  0.7634025943593841  0.7944410943591578
  0.8910538969351833  0.5389689282262893  0.5441871060718881
  0.2189597261418044  0.5400582527810087  0.5422333294956303
  0.1085094354304843  0.7632207028243485  0.2996679309270576
  0.1126369802572000  0.7582349531861325  0.7989458011070596
  0.2225587238636137  0.2054244246090278  0.3530647907625735
  0.1098480262712442  0.0938472311908356  0.1034919420110256
  0.8827512691009360  0.1957759401122559  0.8517125941061607
  0.7651107774762167  0.1000946511989511  0.6147577991656021
  0.5584175680577204  0.2050412919945330  0.3681225132546970
  0.4467387164390715  0.0943346108273957  0.1059025405030667
  0.2250630845784798  0.2001327585241484  0.8567400103120946
  0.1122809689033843  0.0950116200769529  0.6046982026601313
  0.8882248476007035  0.2050592554447945  0.3549763336544558
  0.7816101152656643  0.0842278571860291  0.1051593986215238
  0.5666995435829634  0.2003256397873230  0.8535439502467739
  0.4517347772045781  0.1001315634500131  0.6014632346986417
  0.2297306197233766  0.5253364434996328  0.3388415419699200
  0.1115202646258453  0.4236649431703441  0.1006236768633286
  0.8881194686331142  0.5393127903819419  0.8570301144224928
  0.7722144155346626  0.4203633406369249  0.6086982063676274
  0.5564615210002515  0.5393282043870187  0.3560020528960806
  0.4512158419730596  0.4236557363424041  0.1035490627420401
  0.2339429544995610  0.5200306118021913  0.8598155441056221
  0.1178778714235307  0.4138677614322930  0.6131622256607159
  0.8875992709302807  0.5403785820065679  0.3360798340446749
  0.7764223708112823  0.4249315932149784  0.0998596761062629
  0.5484678902686539  0.5531268891548464  0.8512894700994451
  0.4639786599357691  0.4082895120696151  0.6058840465646540
  0.2318018531321471  0.8795940598476761  0.3567427083477668
  0.0947087423740172  0.7710894475674124  0.0816800000083902
  0.8617818297854569  0.8957436118230930  0.8638912973700883
  0.7700089757408222  0.7757124666675637  0.6115082301807888
  0.5564487499006816  0.8714176367920743  0.3546747689744052
  0.4459410416065310  0.7598172448055109  0.1061125994443302
  0.2438745177012436  0.8724672540221974  0.8550261197687661
  0.1012562311029725  0.7786948594481231  0.5984668475146719
  0.8710295399954830  0.8818650034188593  0.3591015567728633
  0.7816815021515993  0.7706968594432269  0.0973014987697596
  0.5493094789560899  0.8672714464945130  0.8522828564748437
  0.4458320498779713  0.7609388412362748  0.6152646251787104
 
  0.00000000E+00  0.00000000E+00  0.00000000E+00
  0.00000000E+00  0.00000000E+00  0.00000000E+00
  0.00000000E+00  0.00000000E+00  0.00000000E+00
  0.00000000E+00  0.00000000E+00  0.00000000E+00
  0.00000000E+00  0.00000000E+00  0.00000000E+00
  0.00000000E+00  0.00000000E+00  0.00000000E+00
  0.00000000E+00  0.00000000E+00  0.00000000E+00
  0.00000000E+00  0.00000000E+00  0.00000000E+00
  0.00000000E+00  0.00000000E+00  0.00000000E+00
  0.00000000E+00  0.00000000E+00  0.00000000E+00
  0.00000000E+00  0.00000000E+00  0.00000000E+00
  0.00000000E+00  0.00000000E+00  0.00000000E+00
  0.00000000E+00  0.00000000E+00  0.00000000E+00
  0.00000000E+00  0.00000000E+00  0.00000000E+00
  0.00000000E+00  0.00000000E+00  0.00000000E+00
  0.00000000E+00  0.00000000E+00  0.00000000E+00
  0.00000000E+00  0.00000000E+00  0.00000000E+00
  0.00000000E+00  0.00000000E+00  0.00000000E+00
  0.00000000E+00  0.00000000E+00  0.00000000E+00
  0.00000000E+00  0.00000000E+00  0.00000000E+00
  0.00000000E+00  0.00000000E+00  0.00000000E+00
  0.00000000E+00  0.00000000E+00  0.00000000E+00
  0.00000000E+00  0.00000000E+00  0.00000000E+00
  0.00000000E+00  0.00000000E+00  0.00000000E+00
  0.00000000E+00  0.00000000E+00  0.00000000E+00
  0.00000000E+00  0.00000000E+00  0.00000000E+00
  0.00000000E+00  0.00000000E+00  0.00000000E+00
  0.00000000E+00  0.00000000E+00  0.00000000E+00
  0.00000000E+00  0.00000000E+00  0.00000000E+00
  0.00000000E+00  0.00000000E+00  0.00000000E+00
  0.00000000E+00  0.00000000E+00  0.00000000E+00
  0.00000000E+00  0.00000000E+00  0.00000000E+00
  0.00000000E+00  0.00000000E+00  0.00000000E+00
  0.00000000E+00  0.00000000E+00  0.00000000E+00
  0.00000000E+00  0.00000000E+00  0.00000000E+00
  0.00000000E+00  0.00000000E+00  0.00000000E+00
  0.00000000E+00  0.00000000E+00  0.00000000E+00
  0.00000000E+00  0.00000000E+00  0.00000000E+00
  0.00000000E+00  0.00000000E+00  0.00000000E+00
  0.00000000E+00  0.00000000E+00  0.00000000E+00
  0.00000000E+00  0.00000000E+00  0.00000000E+00
  0.00000000E+00  0.00000000E+00  0.00000000E+00
  0.00000000E+00  0.00000000E+00  0.00000000E+00
  0.00000000E+00  0.00000000E+00  0.00000000E+00
  0.00000000E+00  0.00000000E+00  0.00000000E+00
  0.00000000E+00  0.00000000E+00  0.00000000E+00
  0.00000000E+00  0.00000000E+00  0.00000000E+00
  0.00000000E+00  0.00000000E+00  0.00000000E+00
  0.00000000E+00  0.00000000E+00  0.00000000E+00
  0.00000000E+00  0.00000000E+00  0.00000000E+00
  0.00000000E+00  0.00000000E+00  0.00000000E+00
  0.00000000E+00  0.00000000E+00  0.00000000E+00
  0.00000000E+00  0.00000000E+00  0.00000000E+00
  0.00000000E+00  0.00000000E+00  0.00000000E+00
  0.00000000E+00  0.00000000E+00  0.00000000E+00
  0.00000000E+00  0.00000000E+00  0.00000000E+00
  0.00000000E+00  0.00000000E+00  0.00000000E+00
  0.00000000E+00  0.00000000E+00  0.00000000E+00
  0.00000000E+00  0.00000000E+00  0.00000000E+00
  0.00000000E+00  0.00000000E+00  0.00000000E+00
  0.00000000E+00  0.00000000E+00  0.00000000E+00
  0.00000000E+00  0.00000000E+00  0.00000000E+00
  0.00000000E+00  0.00000000E+00  0.00000000E+00
  0.00000000E+00  0.00000000E+00  0.00000000E+00
  0.00000000E+00  0.00000000E+00  0.00000000E+00
  0.00000000E+00  0.00000000E+00  0.00000000E+00
  0.00000000E+00  0.00000000E+00  0.00000000E+00
  0.00000000E+00  0.00000000E+00  0.00000000E+00
  0.00000000E+00  0.00000000E+00  0.00000000E+00
  0.00000000E+00  0.00000000E+00  0.00000000E+00
  0.00000000E+00  0.00000000E+00  0.00000000E+00
  0.00000000E+00  0.00000000E+00  0.00000000E+00
