supercell of 100% icsd_608626.cif, 0% i 
   1.00000000000000     
    -9.4012188323056698   -0.0087792489583645   -0.0015838011415026
    -4.6930075298673133    8.1419137878100294   -0.0063420845430137
    -0.0017004420630869    0.0068502697671015  -10.0590497379199384
   Al   Si   Mg   N 
    28     4     4    36
Direct
  0.1156788467973442  0.0934770848698889  0.2985794083860327
  0.7791986343750281  0.0954893909356969  0.8002052118891925
  0.4451991366397507  0.0941730612417402  0.2963949328613467
  0.2219955526837367  0.2058785448405587  0.5445612668476087
  0.7726487195882683  0.0939314782279723  0.2975762979390879
  0.8865745619679331  0.2092181602955563  0.0430924186310051
  0.4435755332681950  0.0943700684821707  0.8010733067325191
  0.5513902392013890  0.2095875892108765  0.5469814835075866
  0.1152061686363410  0.4252058126019946  0.2969672529983427
  0.2227773461587716  0.5383303752227846  0.0405477181482610
  0.4452604407213769  0.4260749866824227  0.2963766843346463
  0.5577821926770667  0.5383235454418624  0.0423087740332946
  0.1110654881638453  0.4299688967424942  0.7997858047630260
  0.2221828604289584  0.5410972254348749  0.5452059690789923
  0.7753096428997566  0.4298029674456245  0.2989773576584653
  0.8892807948927057  0.5376413916226923  0.0435208793356239
  0.4427718045662417  0.4314343412085506  0.7980196724379880
  0.5515535373594673  0.5417382688158767  0.5445255289399142
  0.1106067241753550  0.7616122820193638  0.2963986661781703
  0.2264791961276842  0.8701477567851015  0.0414455537170468
  0.7806981616929676  0.7573602639916928  0.7965775437119476
  0.8932200896536031  0.8676975551968908  0.5435379751287499
  0.4451055483884119  0.7619922356852129  0.2941054226649058
  0.5581953063188294  0.8661468826998302  0.0427449490435237
  0.2218720884276237  0.8692112138942818  0.5427788066540415
  0.7751182103768670  0.7641514677824119  0.2945623245170452
  0.8864026094100836  0.8713058902508948  0.0400495446263065
  0.4406073976892841  0.7595969954498614  0.7962750114207253
  0.2207889248485273  0.2098675435076771  0.0430331054810722
  0.8919170977757247  0.2047156501793097  0.5393669190408374
  0.5542721532909880  0.2086326216587722  0.0424212816515350
  0.8935936068136812  0.5362521940810652  0.5428525389799574
  0.1088479392453792  0.0944235330366681  0.7973048893773580
  0.7788529131793851  0.4270042127792024  0.7960468741936069
  0.1111482559106918  0.7630685012632057  0.7956165594710924
  0.5536449366545000  0.8730754215118992  0.5481729715258510
  0.2248273903503133  0.2058137663237076  0.3550244236241298
  0.1187890755956715  0.1032103184926783  0.1060186184106939
  0.8810534265572016  0.2003125720614989  0.8642473126714165
  0.7821656334863647  0.1038561661620747  0.6002777187481882
  0.5537718481191689  0.2058514265396596  0.3569498534499189
  0.4386577795781719  0.1076264433801271  0.0986137354910497
  0.2273682058685580  0.2129550327820340  0.8705181366512775
  0.0983626332586525  0.1014646085699340  0.5868389801439093
  0.8878788962420430  0.2036168265300660  0.3588060942159572
  0.7613506974183792  0.1010361295993079  0.1063508537871698
  0.5551585925609785  0.2060919252571409  0.8663947476650264
  0.4347889545201653  0.1120847250855803  0.6142436925212564
  0.2238862754285051  0.5367279273414383  0.3522954257684887
  0.1172037023205093  0.4160909437966964  0.1062936184991159
  0.8971641987296550  0.5433158369563102  0.8600695882283205
  0.7914175063439259  0.4205591927966523  0.5831018178699452
  0.5539817657853021  0.5386713802372540  0.3536628970278812
  0.4510315258139599  0.4143848928699256  0.1037086343512712
  0.2292748624618426  0.5251719242214037  0.8568902999537187
  0.1006172435886157  0.4303155474205482  0.6015686628743211
  0.8922938831749434  0.5386130188341340  0.3626892801388095
  0.7793381702553788  0.4276711784541689  0.1105185673595059
  0.5459640796675629  0.5426494270738544  0.8583319613367735
  0.4454084675796324  0.4272118697986826  0.6057326795211253
  0.2229935548492961  0.8724703094588051  0.3502087447147204
  0.1090296335824164  0.7616777676458639  0.1049512123793832
  0.8713186973139386  0.8808652653912290  0.8551319033940104
  0.7979248392243790  0.7382047363832314  0.6031660237830749
  0.5549078886063796  0.8743651665641607  0.3421385817121347
  0.4465423306963174  0.7582130182367735  0.1062702500352799
  0.2341742079210789  0.8690531132143775  0.8622868809708351
  0.1101977601956605  0.7608454985261091  0.5898104114523903
  0.8862813021586007  0.8739541390982026  0.3529725618011952
  0.7800000878794577  0.7580725277893592  0.1060503379489006
  0.5572842023513687  0.8703627438301282  0.8529945920706439
  0.4367680195098700  0.7546072221799633  0.6068799935214102
 
  0.00000000E+00  0.00000000E+00  0.00000000E+00
  0.00000000E+00  0.00000000E+00  0.00000000E+00
  0.00000000E+00  0.00000000E+00  0.00000000E+00
  0.00000000E+00  0.00000000E+00  0.00000000E+00
  0.00000000E+00  0.00000000E+00  0.00000000E+00
  0.00000000E+00  0.00000000E+00  0.00000000E+00
  0.00000000E+00  0.00000000E+00  0.00000000E+00
  0.00000000E+00  0.00000000E+00  0.00000000E+00
  0.00000000E+00  0.00000000E+00  0.00000000E+00
  0.00000000E+00  0.00000000E+00  0.00000000E+00
  0.00000000E+00  0.00000000E+00  0.00000000E+00
  0.00000000E+00  0.00000000E+00  0.00000000E+00
  0.00000000E+00  0.00000000E+00  0.00000000E+00
  0.00000000E+00  0.00000000E+00  0.00000000E+00
  0.00000000E+00  0.00000000E+00  0.00000000E+00
  0.00000000E+00  0.00000000E+00  0.00000000E+00
  0.00000000E+00  0.00000000E+00  0.00000000E+00
  0.00000000E+00  0.00000000E+00  0.00000000E+00
  0.00000000E+00  0.00000000E+00  0.00000000E+00
  0.00000000E+00  0.00000000E+00  0.00000000E+00
  0.00000000E+00  0.00000000E+00  0.00000000E+00
  0.00000000E+00  0.00000000E+00  0.00000000E+00
  0.00000000E+00  0.00000000E+00  0.00000000E+00
  0.00000000E+00  0.00000000E+00  0.00000000E+00
  0.00000000E+00  0.00000000E+00  0.00000000E+00
  0.00000000E+00  0.00000000E+00  0.00000000E+00
  0.00000000E+00  0.00000000E+00  0.00000000E+00
  0.00000000E+00  0.00000000E+00  0.00000000E+00
  0.00000000E+00  0.00000000E+00  0.00000000E+00
  0.00000000E+00  0.00000000E+00  0.00000000E+00
  0.00000000E+00  0.00000000E+00  0.00000000E+00
  0.00000000E+00  0.00000000E+00  0.00000000E+00
  0.00000000E+00  0.00000000E+00  0.00000000E+00
  0.00000000E+00  0.00000000E+00  0.00000000E+00
  0.00000000E+00  0.00000000E+00  0.00000000E+00
  0.00000000E+00  0.00000000E+00  0.00000000E+00
  0.00000000E+00  0.00000000E+00  0.00000000E+00
  0.00000000E+00  0.00000000E+00  0.00000000E+00
  0.00000000E+00  0.00000000E+00  0.00000000E+00
  0.00000000E+00  0.00000000E+00  0.00000000E+00
  0.00000000E+00  0.00000000E+00  0.00000000E+00
  0.00000000E+00  0.00000000E+00  0.00000000E+00
  0.00000000E+00  0.00000000E+00  0.00000000E+00
  0.00000000E+00  0.00000000E+00  0.00000000E+00
  0.00000000E+00  0.00000000E+00  0.00000000E+00
  0.00000000E+00  0.00000000E+00  0.00000000E+00
  0.00000000E+00  0.00000000E+00  0.00000000E+00
  0.00000000E+00  0.00000000E+00  0.00000000E+00
  0.00000000E+00  0.00000000E+00  0.00000000E+00
  0.00000000E+00  0.00000000E+00  0.00000000E+00
  0.00000000E+00  0.00000000E+00  0.00000000E+00
  0.00000000E+00  0.00000000E+00  0.00000000E+00
  0.00000000E+00  0.00000000E+00  0.00000000E+00
  0.00000000E+00  0.00000000E+00  0.00000000E+00
  0.00000000E+00  0.00000000E+00  0.00000000E+00
  0.00000000E+00  0.00000000E+00  0.00000000E+00
  0.00000000E+00  0.00000000E+00  0.00000000E+00
  0.00000000E+00  0.00000000E+00  0.00000000E+00
  0.00000000E+00  0.00000000E+00  0.00000000E+00
  0.00000000E+00  0.00000000E+00  0.00000000E+00
  0.00000000E+00  0.00000000E+00  0.00000000E+00
  0.00000000E+00  0.00000000E+00  0.00000000E+00
  0.00000000E+00  0.00000000E+00  0.00000000E+00
  0.00000000E+00  0.00000000E+00  0.00000000E+00
  0.00000000E+00  0.00000000E+00  0.00000000E+00
  0.00000000E+00  0.00000000E+00  0.00000000E+00
  0.00000000E+00  0.00000000E+00  0.00000000E+00
  0.00000000E+00  0.00000000E+00  0.00000000E+00
  0.00000000E+00  0.00000000E+00  0.00000000E+00
  0.00000000E+00  0.00000000E+00  0.00000000E+00
  0.00000000E+00  0.00000000E+00  0.00000000E+00
  0.00000000E+00  0.00000000E+00  0.00000000E+00
