generated by phonopy                    
   1.00000000000000     
    11.7777700938999992   -0.0000006592896312    0.0000118211769744
    -0.0000006477562692   11.7777479613999994   -0.0000130806483528
     0.0000177256125076   -0.0000204342245446   17.8544012557999991
   Bi   In   Cu   Se   O 
    36     1    35    36    36
Direct
  0.0001296314753176  0.1701651093545067  0.4334166514193640
  0.3358080925757037  0.1696789578905751  0.4321527601431256
  0.6644224504816592  0.1697006731694728  0.4321512156653284
  0.0001176468062809  0.5000229933600266  0.4313494394634816
  0.3339114133570078  0.5000093608436842  0.4310331476256266
  0.6663254949606028  0.5000370362546818  0.4310345960363620
  0.0001051783185915  0.8298803082530810  0.4334137958096207
  0.3358107592383561  0.8303430201493853  0.4321488932566524
  0.6644264112950111  0.8303672840651899  0.4321538767912827
  0.0001030480543278  0.1671064707895340  0.9278582214199815
  0.3339622275188816  0.1673497375468074  0.9263039583058514
  0.6662291918847743  0.1673498693025408  0.9263014978910320
  0.0000906813466486  0.5000654429177089  0.9270266157973737
  0.3349929798416582  0.5000639850293780  0.9255756292860227
  0.6651866229826098  0.5000650525239294  0.9255795917853504
  0.0000795050284381  0.8330236555414317  0.9278596505023202
  0.3339549705241751  0.8327775348220712  0.9263008416404475
  0.6662221607587355  0.8327798284787562  0.9263050503959747
  0.1702340449203845  0.0000527099309267  0.0665055357733664
  0.5000924365769279  0.0000650136623861  0.0685693540306005
  0.8299513964109693  0.0000743529442815  0.0665054589387211
  0.1697703172626603  0.3357555250056947  0.0677716302777398
  0.5001059718213554  0.3338586539436079  0.0688866474172372
  0.8304361741245501  0.3357514516107116  0.0677692245508581
  0.1697443145089110  0.6643769540964612  0.0677666621786841
  0.5000764097923849  0.6662710010212578  0.0688845638465025
  0.8304109053529487  0.6643721631054049  0.0677706403074296
  0.1671588789181229  0.0000102770607313  0.5720614138704718
  0.5001167233265278  0.0000207692046175  0.5728960061777073
  0.8330758086706780  0.0000311074897041  0.5720600167001422
  0.1674038694007010  0.3338865950522631  0.5736202826299461
  0.5001176087553105  0.3349268831677463  0.5743445814412169
  0.8328318419133325  0.3338889867368238  0.5736148088355506
  0.1673984814668046  0.6661533036800691  0.5736135421783501
  0.5001136875034931  0.6651155063043745  0.5743427303549140
  0.8328278675100691  0.6661570980756935  0.5736174992934124
  0.0001228909303563  0.0000529603062489  0.2499618384435252
  0.3428568165027670  0.0000674862629708  0.2457959636694440
  0.6574006453115047  0.0000566443298382  0.2457948584245386
  0.0001261432423547  0.3427857347373902  0.2541249064974593
  0.3366869905857754  0.3365933314748730  0.2499549715368161
  0.6635949541492394  0.3366206852543456  0.2499651361365167
  0.0001268421122447  0.6573287205274809  0.2541262727623916
  0.3366596396887545  0.6634975596319919  0.2499643911266887
  0.6635514588472802  0.6635166293890293  0.2499546402222848
  0.0000856184804050  0.0000285303453111  0.7499605826120259
  0.3325671066244453  0.0000223605728067  0.7502498033248202
  0.6676089919829451  0.0000292603214618  0.7502504227218196
  0.0000871061935968  0.3325086974828722  0.7496703242173766
  0.3324061909370215  0.3323435419242742  0.7499594418738127
  0.6677675247697650  0.3323504496406571  0.7499633986781760
  0.0000778528586665  0.6675489484493085  0.7496688705444612
  0.3323975316969836  0.6677018763727531  0.7499598211358460
  0.6677554523987936  0.6677078329236039  0.7499603901528715
  0.1803432961405633  0.1799963897383137  0.2500319083569877
  0.5001405764424689  0.1678887184263331  0.2503529326572576
  0.8201607835413824  0.1802467483429524  0.2498984893924643
  0.1679543299405140  0.5000286320064973  0.2495683113528315
  0.5001068769996806  0.5000378485061319  0.2499589088180514
  0.8322640649118398  0.5000534456633687  0.2495657033296510
  0.1800742015972219  0.8198382410520253  0.2499039960120797
  0.5001056892802325  0.8321945084736129  0.2503537225193782
  0.8198881739549009  0.8201188659052505  0.2500368995101994
  0.1661426138268851  0.1660858920402646  0.7499611164379800
  0.5000980807450119  0.1657325499644884  0.7492888547792234
  0.8340595636597854  0.1660935044801803  0.7499603310662977
  0.1657755591887380  0.5000484899086928  0.7506311555433882
  0.5000969077409323  0.5000486461306792  0.7499600075991353
  0.8344151007249536  0.5000486648080198  0.7506301261947499
  0.1661309230124530  0.8340019760293060  0.7499599471792138
  0.5000970326547503  0.8343655112752373  0.7492904204733293
  0.8340501040706130  0.8340083503561004  0.7499610016022800
  0.1682126338699632  0.3356293074125105  0.3392649928378262
  0.5001223824979562  0.3337846742606274  0.3383238811547074
  0.8320172010719773  0.3356824748225122  0.3392893090120168
  0.1682126092675418  0.6643866863155026  0.3392851165190365
  0.5001093119300748  0.6662948561757958  0.3383278082194607
  0.8320052573421393  0.6644346864424335  0.3392593855861250
  0.1776109966669921  0.9999626096635552  0.3352692735602147
  0.5001202041090806  0.0000392284235673  0.3380843660111736
  0.8226305877673354  0.0000994774074812  0.3352803607133552
  0.1662880584306592  0.3330480370730555  0.8370176129360871
  0.5000951333041641  0.3328233191114762  0.8362113156990887
  0.8339023542815056  0.3330502553012948  0.8370187287285873
  0.1662797257659818  0.6670550657855259  0.8370183901665769
  0.5000897483786275  0.6672814266231768  0.8362125725739276
  0.8338939040178062  0.6670554141679048  0.8370180487166010
  0.1664135374155080  0.0000489174507479  0.8373364851497911
  0.5000909134305545  0.0000519982988081  0.8368830871905146
  0.8337684880627378  0.0000531109148554  0.8373371595884223
  0.3357466177414778  0.1681462210160873  0.1606303807299057
  0.6644999754617515  0.1681623302210582  0.1606579426478589
  0.0001474791011162  0.1775386263678627  0.1646497536238698
  0.3338579901616328  0.5000483751231855  0.1615977369775337
  0.6663680382169943  0.5000621217892487  0.1615930038214017
  0.0001099903191317  0.5000532316015267  0.1618363339801121
  0.3357008921101752  0.8319539075198179  0.1606567484652430
  0.6644507371639108  0.8319566471741382  0.1606341918779748
  0.0000160647460064  0.8225638296841495  0.1646465963439638
  0.3331045459101887  0.1662198942528264  0.6629031721088126
  0.6671125591018594  0.1662262941799639  0.6629031321763108
  0.0001089487980224  0.1663530300755909  0.6625835619495390
  0.3328744913190960  0.5000275943628267  0.6637100096576987
  0.6673354850434663  0.5000310745871346  0.6637070088596388
  0.0001041648982252  0.5000298060414963  0.6630350409428374
  0.3331002716172833  0.8338318857732361  0.6629031769286016
  0.6671074384077258  0.8338375947590180  0.6629010702943532
  0.0001009883376852  0.8337061368915144  0.6625821518031927
  0.1667814065945947  0.1673164900398021  0.5010623882230192
  0.5001118169452212  0.1677933599467494  0.5021153275423273
  0.8334594643575102  0.1673257668370383  0.5010557690283548
  0.1667230653312828  0.5000188488091410  0.5018398466574752
  0.5001095139465690  0.5000250559678250  0.5025256212438123
  0.8335085510994062  0.5000274346949567  0.5018380756157441
  0.1667734857125254  0.8327250970978213  0.5010570635297142
  0.5001142220744299  0.8322609930882976  0.5021155121872880
  0.8334546240940028  0.8327333345047094  0.5010592645148435
  0.1673959280715849  0.1667194297008123  0.9988624145527183
  0.5000921922790695  0.1666695978888484  0.9980793926137892
  0.8328004612924218  0.1667231021171034  0.9988557606486452
  0.1678616576249539  0.5000609279646540  0.9978056093836472
  0.5000952289299434  0.5000592986180763  0.9973937292226722
  0.8323286869188351  0.5000563373739766  0.9978077314840377
  0.1673828422623629  0.8333972407674750  0.9988610407099898
  0.5000852914152318  0.8334514485373603  0.9980799464517176
  0.8327901786373459  0.8334073372219422  0.9988624561022945
  0.0000935658718291  0.0000641354483406  0.9996806594781802
  0.3332772896696170  0.0000561073519592  0.9981117690342032
  0.6669003859674802  0.0000662540791438  0.9981152377570126
  0.0001033979381049  0.3335596214578942  0.9992816863718375
  0.3335942138373440  0.3339888598679224  0.9976215629026584
  0.6666050859502093  0.3339831082867661  0.9976229194441899
  0.0000883340387645  0.6665590637723966  0.9992797625945329
  0.3335811228186145  0.6661310349595482  0.9976209056147169
  0.6665951954302045  0.6661357126096163  0.9976222576336511
  0.0001195569806143  0.0000251636237181  0.5002402293389352
  0.3336165964896480  0.0000215555830820  0.5006398099751124
  0.6666128340689568  0.0000333269865394  0.5006420033134233
  0.0001206737418258  0.3332115919206160  0.5018070353792083
  0.3340407438026247  0.3335144707504227  0.5022987393536980
  0.6661852734691038  0.3335258021714225  0.5022991781099435
  0.0001125763098102  0.6668356850712200  0.5018029302915963
  0.3340379388826307  0.6665254539043559  0.5022956410042028
  0.6661853599737526  0.6665370914604765  0.5023000846677164
 
  0.00000000E+00  0.00000000E+00  0.00000000E+00
  0.00000000E+00  0.00000000E+00  0.00000000E+00
  0.00000000E+00  0.00000000E+00  0.00000000E+00
  0.00000000E+00  0.00000000E+00  0.00000000E+00
  0.00000000E+00  0.00000000E+00  0.00000000E+00
  0.00000000E+00  0.00000000E+00  0.00000000E+00
  0.00000000E+00  0.00000000E+00  0.00000000E+00
  0.00000000E+00  0.00000000E+00  0.00000000E+00
  0.00000000E+00  0.00000000E+00  0.00000000E+00
  0.00000000E+00  0.00000000E+00  0.00000000E+00
  0.00000000E+00  0.00000000E+00  0.00000000E+00
  0.00000000E+00  0.00000000E+00  0.00000000E+00
  0.00000000E+00  0.00000000E+00  0.00000000E+00
  0.00000000E+00  0.00000000E+00  0.00000000E+00
  0.00000000E+00  0.00000000E+00  0.00000000E+00
  0.00000000E+00  0.00000000E+00  0.00000000E+00
  0.00000000E+00  0.00000000E+00  0.00000000E+00
  0.00000000E+00  0.00000000E+00  0.00000000E+00
  0.00000000E+00  0.00000000E+00  0.00000000E+00
  0.00000000E+00  0.00000000E+00  0.00000000E+00
  0.00000000E+00  0.00000000E+00  0.00000000E+00
  0.00000000E+00  0.00000000E+00  0.00000000E+00
  0.00000000E+00  0.00000000E+00  0.00000000E+00
  0.00000000E+00  0.00000000E+00  0.00000000E+00
  0.00000000E+00  0.00000000E+00  0.00000000E+00
  0.00000000E+00  0.00000000E+00  0.00000000E+00
  0.00000000E+00  0.00000000E+00  0.00000000E+00
  0.00000000E+00  0.00000000E+00  0.00000000E+00
  0.00000000E+00  0.00000000E+00  0.00000000E+00
  0.00000000E+00  0.00000000E+00  0.00000000E+00
  0.00000000E+00  0.00000000E+00  0.00000000E+00
  0.00000000E+00  0.00000000E+00  0.00000000E+00
  0.00000000E+00  0.00000000E+00  0.00000000E+00
  0.00000000E+00  0.00000000E+00  0.00000000E+00
  0.00000000E+00  0.00000000E+00  0.00000000E+00
  0.00000000E+00  0.00000000E+00  0.00000000E+00
  0.00000000E+00  0.00000000E+00  0.00000000E+00
  0.00000000E+00  0.00000000E+00  0.00000000E+00
  0.00000000E+00  0.00000000E+00  0.00000000E+00
  0.00000000E+00  0.00000000E+00  0.00000000E+00
  0.00000000E+00  0.00000000E+00  0.00000000E+00
  0.00000000E+00  0.00000000E+00  0.00000000E+00
  0.00000000E+00  0.00000000E+00  0.00000000E+00
  0.00000000E+00  0.00000000E+00  0.00000000E+00
  0.00000000E+00  0.00000000E+00  0.00000000E+00
  0.00000000E+00  0.00000000E+00  0.00000000E+00
  0.00000000E+00  0.00000000E+00  0.00000000E+00
  0.00000000E+00  0.00000000E+00  0.00000000E+00
  0.00000000E+00  0.00000000E+00  0.00000000E+00
  0.00000000E+00  0.00000000E+00  0.00000000E+00
  0.00000000E+00  0.00000000E+00  0.00000000E+00
  0.00000000E+00  0.00000000E+00  0.00000000E+00
  0.00000000E+00  0.00000000E+00  0.00000000E+00
  0.00000000E+00  0.00000000E+00  0.00000000E+00
  0.00000000E+00  0.00000000E+00  0.00000000E+00
  0.00000000E+00  0.00000000E+00  0.00000000E+00
  0.00000000E+00  0.00000000E+00  0.00000000E+00
  0.00000000E+00  0.00000000E+00  0.00000000E+00
  0.00000000E+00  0.00000000E+00  0.00000000E+00
  0.00000000E+00  0.00000000E+00  0.00000000E+00
  0.00000000E+00  0.00000000E+00  0.00000000E+00
  0.00000000E+00  0.00000000E+00  0.00000000E+00
  0.00000000E+00  0.00000000E+00  0.00000000E+00
  0.00000000E+00  0.00000000E+00  0.00000000E+00
  0.00000000E+00  0.00000000E+00  0.00000000E+00
  0.00000000E+00  0.00000000E+00  0.00000000E+00
  0.00000000E+00  0.00000000E+00  0.00000000E+00
  0.00000000E+00  0.00000000E+00  0.00000000E+00
  0.00000000E+00  0.00000000E+00  0.00000000E+00
  0.00000000E+00  0.00000000E+00  0.00000000E+00
  0.00000000E+00  0.00000000E+00  0.00000000E+00
  0.00000000E+00  0.00000000E+00  0.00000000E+00
  0.00000000E+00  0.00000000E+00  0.00000000E+00
  0.00000000E+00  0.00000000E+00  0.00000000E+00
  0.00000000E+00  0.00000000E+00  0.00000000E+00
  0.00000000E+00  0.00000000E+00  0.00000000E+00
  0.00000000E+00  0.00000000E+00  0.00000000E+00
  0.00000000E+00  0.00000000E+00  0.00000000E+00
  0.00000000E+00  0.00000000E+00  0.00000000E+00
  0.00000000E+00  0.00000000E+00  0.00000000E+00
  0.00000000E+00  0.00000000E+00  0.00000000E+00
  0.00000000E+00  0.00000000E+00  0.00000000E+00
  0.00000000E+00  0.00000000E+00  0.00000000E+00
  0.00000000E+00  0.00000000E+00  0.00000000E+00
  0.00000000E+00  0.00000000E+00  0.00000000E+00
  0.00000000E+00  0.00000000E+00  0.00000000E+00
  0.00000000E+00  0.00000000E+00  0.00000000E+00
  0.00000000E+00  0.00000000E+00  0.00000000E+00
  0.00000000E+00  0.00000000E+00  0.00000000E+00
  0.00000000E+00  0.00000000E+00  0.00000000E+00
  0.00000000E+00  0.00000000E+00  0.00000000E+00
  0.00000000E+00  0.00000000E+00  0.00000000E+00
  0.00000000E+00  0.00000000E+00  0.00000000E+00
  0.00000000E+00  0.00000000E+00  0.00000000E+00
  0.00000000E+00  0.00000000E+00  0.00000000E+00
  0.00000000E+00  0.00000000E+00  0.00000000E+00
  0.00000000E+00  0.00000000E+00  0.00000000E+00
  0.00000000E+00  0.00000000E+00  0.00000000E+00
  0.00000000E+00  0.00000000E+00  0.00000000E+00
  0.00000000E+00  0.00000000E+00  0.00000000E+00
  0.00000000E+00  0.00000000E+00  0.00000000E+00
  0.00000000E+00  0.00000000E+00  0.00000000E+00
  0.00000000E+00  0.00000000E+00  0.00000000E+00
  0.00000000E+00  0.00000000E+00  0.00000000E+00
  0.00000000E+00  0.00000000E+00  0.00000000E+00
  0.00000000E+00  0.00000000E+00  0.00000000E+00
  0.00000000E+00  0.00000000E+00  0.00000000E+00
  0.00000000E+00  0.00000000E+00  0.00000000E+00
  0.00000000E+00  0.00000000E+00  0.00000000E+00
  0.00000000E+00  0.00000000E+00  0.00000000E+00
  0.00000000E+00  0.00000000E+00  0.00000000E+00
  0.00000000E+00  0.00000000E+00  0.00000000E+00
  0.00000000E+00  0.00000000E+00  0.00000000E+00
  0.00000000E+00  0.00000000E+00  0.00000000E+00
  0.00000000E+00  0.00000000E+00  0.00000000E+00
  0.00000000E+00  0.00000000E+00  0.00000000E+00
  0.00000000E+00  0.00000000E+00  0.00000000E+00
  0.00000000E+00  0.00000000E+00  0.00000000E+00
  0.00000000E+00  0.00000000E+00  0.00000000E+00
  0.00000000E+00  0.00000000E+00  0.00000000E+00
  0.00000000E+00  0.00000000E+00  0.00000000E+00
  0.00000000E+00  0.00000000E+00  0.00000000E+00
  0.00000000E+00  0.00000000E+00  0.00000000E+00
  0.00000000E+00  0.00000000E+00  0.00000000E+00
  0.00000000E+00  0.00000000E+00  0.00000000E+00
  0.00000000E+00  0.00000000E+00  0.00000000E+00
  0.00000000E+00  0.00000000E+00  0.00000000E+00
  0.00000000E+00  0.00000000E+00  0.00000000E+00
  0.00000000E+00  0.00000000E+00  0.00000000E+00
  0.00000000E+00  0.00000000E+00  0.00000000E+00
  0.00000000E+00  0.00000000E+00  0.00000000E+00
  0.00000000E+00  0.00000000E+00  0.00000000E+00
  0.00000000E+00  0.00000000E+00  0.00000000E+00
  0.00000000E+00  0.00000000E+00  0.00000000E+00
  0.00000000E+00  0.00000000E+00  0.00000000E+00
  0.00000000E+00  0.00000000E+00  0.00000000E+00
  0.00000000E+00  0.00000000E+00  0.00000000E+00
  0.00000000E+00  0.00000000E+00  0.00000000E+00
  0.00000000E+00  0.00000000E+00  0.00000000E+00
  0.00000000E+00  0.00000000E+00  0.00000000E+00
  0.00000000E+00  0.00000000E+00  0.00000000E+00
  0.00000000E+00  0.00000000E+00  0.00000000E+00
  0.00000000E+00  0.00000000E+00  0.00000000E+00
  0.00000000E+00  0.00000000E+00  0.00000000E+00
