supercell of icsd_608626.cif            
  0.983556481332809     
     9.3204731170222654    0.0010062442897586   -0.0032817593149407
    -4.6593641151199776    8.0722710725565339    0.0020861265530866
    -0.0035867020498735    0.0005463296212803    9.8607075828520827
   B    Al   N 
     4    32    36
Direct
  0.2215508049009074  0.1099608320617591  0.2557618075503498
  0.7716417569706380  0.2123703140449322  0.4998855151488044
  0.8864561525928423  0.4359045468910310  0.2579473956867417
  0.7721179561302662  0.8898059395929110  0.5058924717606104
  0.1061042814749555  0.2184550126099438  0.4928763735233446
  0.8873719308316339  0.1116815864412644  0.7345199834625902
  0.7814501472480018  0.2267549031031777  0.0011373303525772
  0.5607734148924592  0.1176858329215307  0.2534406899651316
  0.4477856119868235  0.2226971179775177  0.4939410118693104
  0.2222702011516660  0.1115118775149782  0.7481429018876185
  0.1098270306982769  0.2175023257216608  0.0036055720336634
  0.8881529589146027  0.1122943630799611  0.2581539521220009
  0.5582149887496826  0.1139163215371823  0.7440271424293101
  0.4398719882717614  0.2185289803114046  0.0044813845454570
  0.2196775229652559  0.4392213932033755  0.2497318809834681
  0.1056513399857693  0.5492787107425698  0.4926481254068236
  0.8875547541008046  0.4423907021286340  0.7406924186833734
  0.7823407226814751  0.5537146593890725  0.0042127119448665
  0.5537174239641729  0.4394197764556367  0.2492129494905413
  0.4497733228458927  0.5585318017843690  0.5009356352805554
  0.2201720459479759  0.4429133972062615  0.7495426838451777
  0.1034288476869420  0.5511326868537125  0.0043948365992250
  0.7773114201340832  0.5539528829235749  0.4911031717632852
  0.5570282620471758  0.4435477705704827  0.7501931706869343
  0.4454850207972285  0.5572160365892742  0.9994510032594022
  0.2188665040071101  0.7795625001092290  0.2498889862322002
  0.1087007077587145  0.8934143499652833  0.4942111547479229
  0.8879124712593622  0.7781565856309172  0.7417979978112328
  0.7786146124778170  0.8909250422832216  0.9969589192850208
  0.5619571902562299  0.7813124167970358  0.2549073577780945
  0.4537788584972304  0.8937632470604271  0.5000783967133060
  0.2200641453064947  0.7767739599314751  0.7491987356800962
  0.1116669358471825  0.8933499469236210  0.0039093307368958
  0.8915615268481503  0.7843449808419223  0.2541317826754792
  0.5571491838180620  0.7788096885283693  0.7441989627450099
  0.4461763171103925  0.8896493435696939  0.9996935131424038
  0.2240256855158123  0.1121931446421272  0.4216270392230328
  0.1195280234810596  0.2074150581118062  0.2024222206053850
  0.8882302723309792  0.1126131990902621  0.9340052229159994
  0.7772129822600675  0.2237683904497842  0.6655137011533583
  0.5801893549959445  0.1226336499317995  0.4475357110323941
  0.4204578804195123  0.2079979465356701  0.2010720016494361
  0.2220347784497463  0.1113774035437203  0.9392365205759035
  0.1126773679724806  0.2219583411676922  0.6861468186375035
  0.8654621170025649  0.0999853205928360  0.4538268086596702
  0.7918030539130569  0.2461128251974287  0.1962131970100529
  0.5582311512225928  0.1138233602925709  0.9416157642539460
  0.4432786286851069  0.2220309683042956  0.6879641661676246
  0.2255092136000059  0.4456390660478107  0.4412088113334747
  0.0853690217029524  0.5415399281642550  0.2020497810093218
  0.8874973239579234  0.4427266652938471  0.9333003960643182
  0.7776667972169307  0.5549232113300491  0.6854459576085290
  0.5550130299567755  0.4444593115512916  0.4398569735123701
  0.4463030944704300  0.5587466761961579  0.1934160625528989
  0.2194923235313269  0.4426305501669745  0.9468573362493871
  0.1105353236770483  0.5549154353784189  0.6874274965259843
  0.8782086348010196  0.4202553505984810  0.4276134246485270
  0.7922512030459146  0.5451680302710429  0.2040439656658464
  0.5573776623237094  0.4432437961798996  0.9473409011809650
  0.4440497474237972  0.5540662418365301  0.6943663198726568
  0.2231920072386728  0.7789324957600030  0.4420761051846540
  0.1216054218018883  0.9130426561843450  0.2009857030082500
  0.8885949255592678  0.7770920351848218  0.9403493719002824
  0.7764513277986893  0.8885809327030785  0.6710836800122451
  0.5800932876728382  0.7898316861888333  0.4507756997748089
  0.4472203040466596  0.8904102721203486  0.1955193821133392
  0.2198494501854213  0.7763172051015985  0.9471488724585413
  0.1119899000898243  0.8907661128484676  0.6879259224854550
  0.8764874716313855  0.7933347616466833  0.4481104408721919
  0.7792490306482165  0.8926438855663221  0.1884183168878195
  0.5571483061260025  0.7789228977178624  0.9379119006148926
  0.4435355340863509  0.8894493548055067  0.6926807487501065
 
  0.00000000E+00  0.00000000E+00  0.00000000E+00
  0.00000000E+00  0.00000000E+00  0.00000000E+00
  0.00000000E+00  0.00000000E+00  0.00000000E+00
  0.00000000E+00  0.00000000E+00  0.00000000E+00
  0.00000000E+00  0.00000000E+00  0.00000000E+00
  0.00000000E+00  0.00000000E+00  0.00000000E+00
  0.00000000E+00  0.00000000E+00  0.00000000E+00
  0.00000000E+00  0.00000000E+00  0.00000000E+00
  0.00000000E+00  0.00000000E+00  0.00000000E+00
  0.00000000E+00  0.00000000E+00  0.00000000E+00
  0.00000000E+00  0.00000000E+00  0.00000000E+00
  0.00000000E+00  0.00000000E+00  0.00000000E+00
  0.00000000E+00  0.00000000E+00  0.00000000E+00
  0.00000000E+00  0.00000000E+00  0.00000000E+00
  0.00000000E+00  0.00000000E+00  0.00000000E+00
  0.00000000E+00  0.00000000E+00  0.00000000E+00
  0.00000000E+00  0.00000000E+00  0.00000000E+00
  0.00000000E+00  0.00000000E+00  0.00000000E+00
  0.00000000E+00  0.00000000E+00  0.00000000E+00
  0.00000000E+00  0.00000000E+00  0.00000000E+00
  0.00000000E+00  0.00000000E+00  0.00000000E+00
  0.00000000E+00  0.00000000E+00  0.00000000E+00
  0.00000000E+00  0.00000000E+00  0.00000000E+00
  0.00000000E+00  0.00000000E+00  0.00000000E+00
  0.00000000E+00  0.00000000E+00  0.00000000E+00
  0.00000000E+00  0.00000000E+00  0.00000000E+00
  0.00000000E+00  0.00000000E+00  0.00000000E+00
  0.00000000E+00  0.00000000E+00  0.00000000E+00
  0.00000000E+00  0.00000000E+00  0.00000000E+00
  0.00000000E+00  0.00000000E+00  0.00000000E+00
  0.00000000E+00  0.00000000E+00  0.00000000E+00
  0.00000000E+00  0.00000000E+00  0.00000000E+00
  0.00000000E+00  0.00000000E+00  0.00000000E+00
  0.00000000E+00  0.00000000E+00  0.00000000E+00
  0.00000000E+00  0.00000000E+00  0.00000000E+00
  0.00000000E+00  0.00000000E+00  0.00000000E+00
  0.00000000E+00  0.00000000E+00  0.00000000E+00
  0.00000000E+00  0.00000000E+00  0.00000000E+00
  0.00000000E+00  0.00000000E+00  0.00000000E+00
  0.00000000E+00  0.00000000E+00  0.00000000E+00
  0.00000000E+00  0.00000000E+00  0.00000000E+00
  0.00000000E+00  0.00000000E+00  0.00000000E+00
  0.00000000E+00  0.00000000E+00  0.00000000E+00
  0.00000000E+00  0.00000000E+00  0.00000000E+00
  0.00000000E+00  0.00000000E+00  0.00000000E+00
  0.00000000E+00  0.00000000E+00  0.00000000E+00
  0.00000000E+00  0.00000000E+00  0.00000000E+00
  0.00000000E+00  0.00000000E+00  0.00000000E+00
  0.00000000E+00  0.00000000E+00  0.00000000E+00
  0.00000000E+00  0.00000000E+00  0.00000000E+00
  0.00000000E+00  0.00000000E+00  0.00000000E+00
  0.00000000E+00  0.00000000E+00  0.00000000E+00
  0.00000000E+00  0.00000000E+00  0.00000000E+00
  0.00000000E+00  0.00000000E+00  0.00000000E+00
  0.00000000E+00  0.00000000E+00  0.00000000E+00
  0.00000000E+00  0.00000000E+00  0.00000000E+00
  0.00000000E+00  0.00000000E+00  0.00000000E+00
  0.00000000E+00  0.00000000E+00  0.00000000E+00
  0.00000000E+00  0.00000000E+00  0.00000000E+00
  0.00000000E+00  0.00000000E+00  0.00000000E+00
  0.00000000E+00  0.00000000E+00  0.00000000E+00
  0.00000000E+00  0.00000000E+00  0.00000000E+00
  0.00000000E+00  0.00000000E+00  0.00000000E+00
  0.00000000E+00  0.00000000E+00  0.00000000E+00
  0.00000000E+00  0.00000000E+00  0.00000000E+00
  0.00000000E+00  0.00000000E+00  0.00000000E+00
  0.00000000E+00  0.00000000E+00  0.00000000E+00
  0.00000000E+00  0.00000000E+00  0.00000000E+00
  0.00000000E+00  0.00000000E+00  0.00000000E+00
  0.00000000E+00  0.00000000E+00  0.00000000E+00
  0.00000000E+00  0.00000000E+00  0.00000000E+00
  0.00000000E+00  0.00000000E+00  0.00000000E+00
