generated by phonopy                    
   1.00000000000000     
    11.7777700938999992   -0.0000006592896312    0.0000118211769744
    -0.0000006477562692   11.7777479613999994   -0.0000130806483528
     0.0000177256125076   -0.0000204342245446   17.8544012557999991
   Bi   Ba   Cu   Se   O 
    36     1    35    36    36
Direct
  0.0001100358789330  0.1644256032987670  0.4400538715047730
  0.3374564209695663  0.1598846039147617  0.4375754060424839
  0.6627783046773601  0.1598947262675168  0.4375763845332230
  0.0001062719861196  0.4957649296235047  0.4308073195393760
  0.3330156642041473  0.4938093570663256  0.4311841658875579
  0.6672062903658897  0.4938299915590108  0.4311891159784551
  0.0001147759867379  0.8259228092352799  0.4331930380266158
  0.3375900700239001  0.8254735271612645  0.4338638396051735
  0.6626365043684075  0.8254935427442547  0.4338729736681799
  0.0001025325098709  0.1745347936681654  0.9253153991964993
  0.3352144501834786  0.1718691767246554  0.9252878001022751
  0.6650093938868125  0.1718777207402056  0.9252871013922643
  0.0001113026967374  0.5078751706239828  0.9232877462427354
  0.3346598794374813  0.5066996412225677  0.9252445409356724
  0.6655819943179324  0.5067005059014846  0.9252463376095932
  0.0001075642854929  0.8395739073113546  0.9261971382759739
  0.3337160473471670  0.8379435971028073  0.9269253223206775
  0.6665233055464839  0.8379477430066657  0.9269287353988815
  0.1675044913990931  0.0080045733012994  0.0655024518230292
  0.5001145858840275  0.0045255830257673  0.0688085533593750
  0.8327166264562393  0.0080294638808738  0.0655100172187133
  0.1676112940071519  0.3423817659272146  0.0651248033608383
  0.5001081941778693  0.3394287869647599  0.0665544183450351
  0.8326004048417701  0.3424006357466638  0.0651360955904323
  0.1655812950385496  0.6714228461955827  0.0670064245452835
  0.5001092449756399  0.6717025087130608  0.0684377217061467
  0.8346344438917015  0.6714367991781884  0.0670141515308487
  0.1673388021769000  0.9919333473363281  0.5751263546359837
  0.5001126652903807  0.9916275403401684  0.5786947213474392
  0.8328904927062695  0.9919432437462277  0.5751339022900837
  0.1681445213473864  0.3302548032545616  0.5754203290915640
  0.5001187373821097  0.3314781967680247  0.5758794789907995
  0.8320876274874180  0.3302662764311606  0.5754226458257676
  0.1674253114180715  0.6600616879585530  0.5733447577498154
  0.5001098152294787  0.6575605270239890  0.5748760789663550
  0.8327985398749931  0.6600771973648136  0.5733502704034663
  0.0001309563687428  0.0544455834780067  0.2581884168501531
  0.3522691745738769  0.9884379032813797  0.2450226630225529
  0.6480359354668934  0.9884626881217287  0.2450570935181489
  0.0000898264883773  0.3421867298107699  0.2402362260028923
  0.3400110653828676  0.3463773407074484  0.2490462384707754
  0.6602565114265602  0.3464459316003854  0.2490835051874498
  0.0000582443099120  0.6653652848890843  0.2525686264873670
  0.3345638220552800  0.6650306317744850  0.2505022452151451
  0.6655557897785940  0.6650868130322891  0.2504791721852939
  0.0001396706119792  0.9982657375084329  0.7496996287835387
  0.3322149515607222  0.9974550163782041  0.7500369053824798
  0.6680351653530963  0.9974810908570788  0.7500359132812022
  0.0001523071560996  0.3304155423446602  0.7498795932985090
  0.3331692741642911  0.3301238892361411  0.7502239310614058
  0.6671080153767264  0.3301349507700735  0.7502254757794944
  0.0001491856473024  0.6655432773440211  0.7497714144569017
  0.3335187850183345  0.6641161784550178  0.7501715571514893
  0.6667492633899741  0.6641331486116684  0.7501666478278963
  0.2492677727947594  0.1611963664695253  0.2798510219876604
  0.5000833961481348  0.1639921082815974  0.2506601782506763
  0.7510289471432756  0.1612661429383095  0.2798517670642013
  0.1667675407329483  0.4984342336828504  0.2477182781859923
  0.5000818075301368  0.5011434050118737  0.2491045103833187
  0.8334158573247166  0.4985411211015602  0.2477392047130564
  0.1727951637885354  0.8204446744668275  0.2494055763616814
  0.5001024810370609  0.8231650283456418  0.2495437162826661
  0.8273477275787613  0.8205054969257972  0.2494280571655096
  0.1661582709924616  0.1687702139037341  0.7496884236091077
  0.5001281995160411  0.1681657821510640  0.7492543046679572
  0.8341352500657564  0.1687850117129202  0.7496750399090786
  0.1656534450208440  0.5027610484786820  0.7509949989141020
  0.5001366512474590  0.5024718409378153  0.7502809109740056
  0.8346426409593164  0.5027858469395241  0.7509808909651596
  0.1659649376296386  0.8373363918636159  0.7500264564793468
  0.5001284543672782  0.8350229212811939  0.7492519548575345
  0.8343078377842374  0.8373529017141692  0.7500185026748127
  0.1605747564131832  0.3255905624188529  0.3312669324673507
  0.5001105836977118  0.3299267388082754  0.3380745223327537
  0.8396450571842635  0.3256642620075993  0.3312978360860157
  0.1676976483621644  0.6597468928680144  0.3392600133235248
  0.5000948837676020  0.6618830623266660  0.3391855720744132
  0.8324676008699896  0.6598015157718322  0.3392724260100906
  0.1966429173953017  0.9814780052102421  0.3458531337261661
  0.5001201180459134  0.9951112883852531  0.3422478542787886
  0.8036185048542634  0.9815289578276563  0.3458772926955120
  0.1670188665967558  0.3358751627402796  0.8360037950060146
  0.5001250616404178  0.3356146228840942  0.8349674611154398
  0.8332398028976016  0.3358907644409754  0.8359922542480618
  0.1673111452414275  0.6713734691734672  0.8353158399205327
  0.5001284643823354  0.6698709873481263  0.8357185690009956
  0.8329474233978118  0.6713851405693276  0.8353070575505015
  0.1663063039799155  0.0032194889412480  0.8364272703452968
  0.5001204783820441  0.0012037212978697  0.8351032046628077
  0.8339415229182876  0.0032325952937029  0.8364191683056745
  0.3342189941410396  0.1677836896853790  0.1594515375483212
  0.6659844326598545  0.1678054127188560  0.1594803516075274
  0.0000953774628627  0.2027864619673849  0.1330866382639044
  0.3339822848042999  0.5036106000643912  0.1606316968895101
  0.6662044842231225  0.5036281537160079  0.1606401786898246
  0.0000821329947769  0.5099129052981084  0.1582397991327582
  0.3344565247488802  0.8305124577404683  0.1602577541265333
  0.6657623463232554  0.8305615643060733  0.1602478145447677
  0.0000958849056261  0.8331465866046841  0.1658048865349215
  0.3325497000092597  0.1640845183771802  0.6631537889134478
  0.6676997377003389  0.1640957690842413  0.6631555671545897
  0.0001367889288488  0.1638946918116062  0.6625150434291527
  0.3324355704498032  0.4968467600272675  0.6639713635520081
  0.6678137465449225  0.4968566545662654  0.6639723059787244
  0.0001354425755835  0.4974341505299975  0.6633166691277239
  0.3322830504623013  0.8293081189356428  0.6633567609131106
  0.6679571607112607  0.8293231925049795  0.6633591257650906
  0.0001292829023924  0.8306443430762798  0.6625223244373331
  0.1668811259928091  0.1622829183997965  0.5037787443731432
  0.5001177681717408  0.1630642987263542  0.5076052189873437
  0.8333441973579028  0.1622816993318565  0.5037871269982617
  0.1644693354502351  0.4942633439333548  0.5014097666168666
  0.5001115669016798  0.4943934627108106  0.5009862307288913
  0.8357504902746840  0.4942796394323778  0.5014173084612779
  0.1668053154245257  0.8271799973509744  0.5026200674638091
  0.5001102935387820  0.8263955950534410  0.5078962965927332
  0.8334218181043980  0.8271876312298545  0.5026250139805057
  0.1699948237588131  0.1723368965403154  0.9947603279555821
  0.5001161397699647  0.1687177706481933  0.9983229910723779
  0.8302242294511757  0.1723486338642459  0.9947602902211941
  0.1674816744701317  0.5094552612492862  0.9937834139219817
  0.5001148515774076  0.5056899214412596  0.9970746225819980
  0.8327423842670001  0.5094609697045769  0.9937852053681837
  0.1662727192125075  0.8387500967450734  0.9976495604559190
  0.5001180542640071  0.8376589844957678  0.9972829731334230
  0.8339569369743884  0.8387592603024032  0.9976552671546344
  0.0001094331423843  0.0053461850873262  0.9963754487497951
  0.3333671113365995  0.0039683615889103  0.9976604919009802
  0.6668613579223219  0.0039778496923759  0.9976577360025232
  0.0001040985889347  0.3445740666868460  0.9915666715359350
  0.3379277990388658  0.3380290488408733  0.9942370928633792
  0.6622916759714315  0.3380341291992153  0.9942384624150478
  0.0001086635950145  0.6726534183315067  0.9972060377787386
  0.3340393054043176  0.6717251509049618  0.9971714162726713
  0.6661890314134737  0.6717287513928554  0.9971698468885251
  0.0001156821429973  0.9939073054167906  0.5035068388880575
  0.3360872207236270  0.9938551099615651  0.5055380411665951
  0.6641433662265186  0.9938582884188278  0.5055436938453965
  0.0001093850887131  0.3277592131955700  0.5028616746053771
  0.3330497930387111  0.3308247608283992  0.5040065124933051
  0.6671877952796734  0.3308332981206874  0.5040047498732889
  0.0001115470911444  0.6612669207736133  0.5008320021699859
  0.3333188157451090  0.6563711219135584  0.5040850161807313
  0.6669051200284599  0.6563885272290122  0.5040909790623402
 
  0.00000000E+00  0.00000000E+00  0.00000000E+00
  0.00000000E+00  0.00000000E+00  0.00000000E+00
  0.00000000E+00  0.00000000E+00  0.00000000E+00
  0.00000000E+00  0.00000000E+00  0.00000000E+00
  0.00000000E+00  0.00000000E+00  0.00000000E+00
  0.00000000E+00  0.00000000E+00  0.00000000E+00
  0.00000000E+00  0.00000000E+00  0.00000000E+00
  0.00000000E+00  0.00000000E+00  0.00000000E+00
  0.00000000E+00  0.00000000E+00  0.00000000E+00
  0.00000000E+00  0.00000000E+00  0.00000000E+00
  0.00000000E+00  0.00000000E+00  0.00000000E+00
  0.00000000E+00  0.00000000E+00  0.00000000E+00
  0.00000000E+00  0.00000000E+00  0.00000000E+00
  0.00000000E+00  0.00000000E+00  0.00000000E+00
  0.00000000E+00  0.00000000E+00  0.00000000E+00
  0.00000000E+00  0.00000000E+00  0.00000000E+00
  0.00000000E+00  0.00000000E+00  0.00000000E+00
  0.00000000E+00  0.00000000E+00  0.00000000E+00
  0.00000000E+00  0.00000000E+00  0.00000000E+00
  0.00000000E+00  0.00000000E+00  0.00000000E+00
  0.00000000E+00  0.00000000E+00  0.00000000E+00
  0.00000000E+00  0.00000000E+00  0.00000000E+00
  0.00000000E+00  0.00000000E+00  0.00000000E+00
  0.00000000E+00  0.00000000E+00  0.00000000E+00
  0.00000000E+00  0.00000000E+00  0.00000000E+00
  0.00000000E+00  0.00000000E+00  0.00000000E+00
  0.00000000E+00  0.00000000E+00  0.00000000E+00
  0.00000000E+00  0.00000000E+00  0.00000000E+00
  0.00000000E+00  0.00000000E+00  0.00000000E+00
  0.00000000E+00  0.00000000E+00  0.00000000E+00
  0.00000000E+00  0.00000000E+00  0.00000000E+00
  0.00000000E+00  0.00000000E+00  0.00000000E+00
  0.00000000E+00  0.00000000E+00  0.00000000E+00
  0.00000000E+00  0.00000000E+00  0.00000000E+00
  0.00000000E+00  0.00000000E+00  0.00000000E+00
  0.00000000E+00  0.00000000E+00  0.00000000E+00
  0.00000000E+00  0.00000000E+00  0.00000000E+00
  0.00000000E+00  0.00000000E+00  0.00000000E+00
  0.00000000E+00  0.00000000E+00  0.00000000E+00
  0.00000000E+00  0.00000000E+00  0.00000000E+00
  0.00000000E+00  0.00000000E+00  0.00000000E+00
  0.00000000E+00  0.00000000E+00  0.00000000E+00
  0.00000000E+00  0.00000000E+00  0.00000000E+00
  0.00000000E+00  0.00000000E+00  0.00000000E+00
  0.00000000E+00  0.00000000E+00  0.00000000E+00
  0.00000000E+00  0.00000000E+00  0.00000000E+00
  0.00000000E+00  0.00000000E+00  0.00000000E+00
  0.00000000E+00  0.00000000E+00  0.00000000E+00
  0.00000000E+00  0.00000000E+00  0.00000000E+00
  0.00000000E+00  0.00000000E+00  0.00000000E+00
  0.00000000E+00  0.00000000E+00  0.00000000E+00
  0.00000000E+00  0.00000000E+00  0.00000000E+00
  0.00000000E+00  0.00000000E+00  0.00000000E+00
  0.00000000E+00  0.00000000E+00  0.00000000E+00
  0.00000000E+00  0.00000000E+00  0.00000000E+00
  0.00000000E+00  0.00000000E+00  0.00000000E+00
  0.00000000E+00  0.00000000E+00  0.00000000E+00
  0.00000000E+00  0.00000000E+00  0.00000000E+00
  0.00000000E+00  0.00000000E+00  0.00000000E+00
  0.00000000E+00  0.00000000E+00  0.00000000E+00
  0.00000000E+00  0.00000000E+00  0.00000000E+00
  0.00000000E+00  0.00000000E+00  0.00000000E+00
  0.00000000E+00  0.00000000E+00  0.00000000E+00
  0.00000000E+00  0.00000000E+00  0.00000000E+00
  0.00000000E+00  0.00000000E+00  0.00000000E+00
  0.00000000E+00  0.00000000E+00  0.00000000E+00
  0.00000000E+00  0.00000000E+00  0.00000000E+00
  0.00000000E+00  0.00000000E+00  0.00000000E+00
  0.00000000E+00  0.00000000E+00  0.00000000E+00
  0.00000000E+00  0.00000000E+00  0.00000000E+00
  0.00000000E+00  0.00000000E+00  0.00000000E+00
  0.00000000E+00  0.00000000E+00  0.00000000E+00
  0.00000000E+00  0.00000000E+00  0.00000000E+00
  0.00000000E+00  0.00000000E+00  0.00000000E+00
  0.00000000E+00  0.00000000E+00  0.00000000E+00
  0.00000000E+00  0.00000000E+00  0.00000000E+00
  0.00000000E+00  0.00000000E+00  0.00000000E+00
  0.00000000E+00  0.00000000E+00  0.00000000E+00
  0.00000000E+00  0.00000000E+00  0.00000000E+00
  0.00000000E+00  0.00000000E+00  0.00000000E+00
  0.00000000E+00  0.00000000E+00  0.00000000E+00
  0.00000000E+00  0.00000000E+00  0.00000000E+00
  0.00000000E+00  0.00000000E+00  0.00000000E+00
  0.00000000E+00  0.00000000E+00  0.00000000E+00
  0.00000000E+00  0.00000000E+00  0.00000000E+00
  0.00000000E+00  0.00000000E+00  0.00000000E+00
  0.00000000E+00  0.00000000E+00  0.00000000E+00
  0.00000000E+00  0.00000000E+00  0.00000000E+00
  0.00000000E+00  0.00000000E+00  0.00000000E+00
  0.00000000E+00  0.00000000E+00  0.00000000E+00
  0.00000000E+00  0.00000000E+00  0.00000000E+00
  0.00000000E+00  0.00000000E+00  0.00000000E+00
  0.00000000E+00  0.00000000E+00  0.00000000E+00
  0.00000000E+00  0.00000000E+00  0.00000000E+00
  0.00000000E+00  0.00000000E+00  0.00000000E+00
  0.00000000E+00  0.00000000E+00  0.00000000E+00
  0.00000000E+00  0.00000000E+00  0.00000000E+00
  0.00000000E+00  0.00000000E+00  0.00000000E+00
  0.00000000E+00  0.00000000E+00  0.00000000E+00
  0.00000000E+00  0.00000000E+00  0.00000000E+00
  0.00000000E+00  0.00000000E+00  0.00000000E+00
  0.00000000E+00  0.00000000E+00  0.00000000E+00
  0.00000000E+00  0.00000000E+00  0.00000000E+00
  0.00000000E+00  0.00000000E+00  0.00000000E+00
  0.00000000E+00  0.00000000E+00  0.00000000E+00
  0.00000000E+00  0.00000000E+00  0.00000000E+00
  0.00000000E+00  0.00000000E+00  0.00000000E+00
  0.00000000E+00  0.00000000E+00  0.00000000E+00
  0.00000000E+00  0.00000000E+00  0.00000000E+00
  0.00000000E+00  0.00000000E+00  0.00000000E+00
  0.00000000E+00  0.00000000E+00  0.00000000E+00
  0.00000000E+00  0.00000000E+00  0.00000000E+00
  0.00000000E+00  0.00000000E+00  0.00000000E+00
  0.00000000E+00  0.00000000E+00  0.00000000E+00
  0.00000000E+00  0.00000000E+00  0.00000000E+00
  0.00000000E+00  0.00000000E+00  0.00000000E+00
  0.00000000E+00  0.00000000E+00  0.00000000E+00
  0.00000000E+00  0.00000000E+00  0.00000000E+00
  0.00000000E+00  0.00000000E+00  0.00000000E+00
  0.00000000E+00  0.00000000E+00  0.00000000E+00
  0.00000000E+00  0.00000000E+00  0.00000000E+00
  0.00000000E+00  0.00000000E+00  0.00000000E+00
  0.00000000E+00  0.00000000E+00  0.00000000E+00
  0.00000000E+00  0.00000000E+00  0.00000000E+00
  0.00000000E+00  0.00000000E+00  0.00000000E+00
  0.00000000E+00  0.00000000E+00  0.00000000E+00
  0.00000000E+00  0.00000000E+00  0.00000000E+00
  0.00000000E+00  0.00000000E+00  0.00000000E+00
  0.00000000E+00  0.00000000E+00  0.00000000E+00
  0.00000000E+00  0.00000000E+00  0.00000000E+00
  0.00000000E+00  0.00000000E+00  0.00000000E+00
  0.00000000E+00  0.00000000E+00  0.00000000E+00
  0.00000000E+00  0.00000000E+00  0.00000000E+00
  0.00000000E+00  0.00000000E+00  0.00000000E+00
  0.00000000E+00  0.00000000E+00  0.00000000E+00
  0.00000000E+00  0.00000000E+00  0.00000000E+00
  0.00000000E+00  0.00000000E+00  0.00000000E+00
  0.00000000E+00  0.00000000E+00  0.00000000E+00
  0.00000000E+00  0.00000000E+00  0.00000000E+00
  0.00000000E+00  0.00000000E+00  0.00000000E+00
  0.00000000E+00  0.00000000E+00  0.00000000E+00
  0.00000000E+00  0.00000000E+00  0.00000000E+00
  0.00000000E+00  0.00000000E+00  0.00000000E+00
  0.00000000E+00  0.00000000E+00  0.00000000E+00
