supercell of 100% icsd_608626.cif, 0% i 
   1.00000000000000     
    -9.4177259022550803    0.0061408082162452   -0.0014816193604274
    -4.7141791903321719    8.1516776169114866   -0.0016223246312654
    -0.0015841016946382    0.0010912618056194  -10.0344289323420597
   Al   Be   Zr   N 
    34     1     1    36
Direct
  0.1018236046199732  0.1037142459066374  0.2949855778227075
  0.2214033921577396  0.2062575906811190  0.0455261513871363
  0.7784020948712609  0.0951298077948906  0.7954892409482639
  0.8871719332576475  0.2091108324611497  0.5410848161184276
  0.4445015325705768  0.0997650918543513  0.2947340647501946
  0.5564796728828725  0.2051807254068123  0.0453829304943127
  0.1088369449215918  0.0970795382643530  0.7954575312343835
  0.2215001354372674  0.2063175020761818  0.5454912679815678
  0.7782634634282033  0.0987324003419445  0.2962356395780503
  0.8866745770713607  0.2087998228937238  0.0492363299013050
  0.4433587425520784  0.0965427104026872  0.7956005545170939
  0.5558288828093225  0.2056012878485092  0.5456037462170187
  0.1066362388522322  0.4283937628964409  0.2960517376212550
  0.2217756216226832  0.5382580434860600  0.0457942765444201
  0.7799653135031406  0.4266693142157649  0.7971028002480907
  0.8876815421806441  0.5373373896478526  0.5413711368184124
  0.4471989576700821  0.4222086993307030  0.2952450477472652
  0.5609023702744551  0.5325758871353514  0.0425498138635021
  0.1097671699324678  0.4284092105584705  0.7955379038599801
  0.2217706550936285  0.5384323297696270  0.5451762771542121
  0.8872633114686153  0.5368640836820830  0.0497862794314727
  0.4436622007280704  0.4271353730876228  0.7957330781695262
  0.5617599283323642  0.5297594759044983  0.5484146826341458
  0.1059125019577465  0.7614138273847715  0.2949402842410365
  0.2183802230929288  0.8744874904253592  0.0401008222320272
  0.7806371190289525  0.7589110616202603  0.7957887811055713
  0.8886371827780550  0.8727313188892865  0.5452943170285209
  0.5578197603380204  0.8736769034242684  0.0397547801698224
  0.1100788401350883  0.7601685089638082  0.7954348903458524
  0.2155173839425188  0.8759135633167858  0.5504146560193703
  0.7849614771737592  0.7579271767167697  0.2955108740261991
  0.8880664917235919  0.8732975305251713  0.0455356993255052
  0.4449204894046588  0.7600155767502770  0.7929171033802120
  0.5595720869425236  0.8752939442915348  0.5516672976342889
  0.7837827112010771  0.4200292504395691  0.2925294729163852
  0.4500298293008598  0.7556725080236006  0.3025027275541987
  0.2231163573882071  0.2045263588781197  0.3542369017600819
  0.1118453107770634  0.0937256407337017  0.1040375446689765
  0.8886756361889780  0.2053502544893391  0.8571048514829300
  0.7781809126460431  0.0952746416028205  0.6040974605507969
  0.5559769223422180  0.2047800127030470  0.3552264902320417
  0.4447119105916286  0.0937339018519765  0.1037152572011948
  0.2218100879376621  0.2059051873668807  0.8548281463571001
  0.1091461538364413  0.0972292940646184  0.6052183885030828
  0.8844083762791755  0.2138484270085854  0.3519209765770910
  0.7774876519972622  0.0943915844518131  0.1050794120771670
  0.5558960379169022  0.2052472399669938  0.8549605115066043
  0.4432425777497571  0.0967892318545296  0.6059232498253806
  0.2225718808593555  0.5387888526539442  0.3536596389011564
  0.1113875751584743  0.4275288150720229  0.1052396758947935
  0.8890747611382466  0.5386338798351034  0.8573400529403727
  0.7800968721357577  0.4268927559481810  0.6082993913514443
  0.5720172278330367  0.5140632882673373  0.3592037630578915
  0.4442949908494214  0.4277987512038735  0.1040906110611246
  0.2217672347310042  0.5386193866349700  0.8549706017602787
  0.1101765088432600  0.4282278497396987  0.6040309137886908
  0.8844045940884300  0.5367236029464735  0.3516971761983285
  0.7765475019962409  0.4282097637225775  0.1093963761711123
  0.5556636065797420  0.5380535818090024  0.8517137888619359
  0.4433425742595531  0.4269383636910504  0.6057701422471879
  0.2031119686867413  0.8823797757264273  0.3596242049442253
  0.1113988610060161  0.7614875671639467  0.1039050549722802
  0.8886303860123590  0.8726475694646112  0.8549214149522228
  0.7807588019539082  0.7592886251281001  0.6057792376557316
  0.5667594829440432  0.8828052043229064  0.3612668998608441
  0.4445391520975832  0.7609416182634092  0.0918942129998896
  0.2216354996449468  0.8724998016248975  0.8500003390280355
  0.1102162647538023  0.7601078127295722  0.6055374709907753
  0.8882937892253722  0.8739935737093631  0.3546718430739730
  0.7769544108169057  0.7620905603791428  0.1042687551833197
  0.5558736149176369  0.8722518663276304  0.8499353294219389
  0.4450401205587156  0.7604115722450970  0.5964513229182344
 
  0.00000000E+00  0.00000000E+00  0.00000000E+00
  0.00000000E+00  0.00000000E+00  0.00000000E+00
  0.00000000E+00  0.00000000E+00  0.00000000E+00
  0.00000000E+00  0.00000000E+00  0.00000000E+00
  0.00000000E+00  0.00000000E+00  0.00000000E+00
  0.00000000E+00  0.00000000E+00  0.00000000E+00
  0.00000000E+00  0.00000000E+00  0.00000000E+00
  0.00000000E+00  0.00000000E+00  0.00000000E+00
  0.00000000E+00  0.00000000E+00  0.00000000E+00
  0.00000000E+00  0.00000000E+00  0.00000000E+00
  0.00000000E+00  0.00000000E+00  0.00000000E+00
  0.00000000E+00  0.00000000E+00  0.00000000E+00
  0.00000000E+00  0.00000000E+00  0.00000000E+00
  0.00000000E+00  0.00000000E+00  0.00000000E+00
  0.00000000E+00  0.00000000E+00  0.00000000E+00
  0.00000000E+00  0.00000000E+00  0.00000000E+00
  0.00000000E+00  0.00000000E+00  0.00000000E+00
  0.00000000E+00  0.00000000E+00  0.00000000E+00
  0.00000000E+00  0.00000000E+00  0.00000000E+00
  0.00000000E+00  0.00000000E+00  0.00000000E+00
  0.00000000E+00  0.00000000E+00  0.00000000E+00
  0.00000000E+00  0.00000000E+00  0.00000000E+00
  0.00000000E+00  0.00000000E+00  0.00000000E+00
  0.00000000E+00  0.00000000E+00  0.00000000E+00
  0.00000000E+00  0.00000000E+00  0.00000000E+00
  0.00000000E+00  0.00000000E+00  0.00000000E+00
  0.00000000E+00  0.00000000E+00  0.00000000E+00
  0.00000000E+00  0.00000000E+00  0.00000000E+00
  0.00000000E+00  0.00000000E+00  0.00000000E+00
  0.00000000E+00  0.00000000E+00  0.00000000E+00
  0.00000000E+00  0.00000000E+00  0.00000000E+00
  0.00000000E+00  0.00000000E+00  0.00000000E+00
  0.00000000E+00  0.00000000E+00  0.00000000E+00
  0.00000000E+00  0.00000000E+00  0.00000000E+00
  0.00000000E+00  0.00000000E+00  0.00000000E+00
  0.00000000E+00  0.00000000E+00  0.00000000E+00
  0.00000000E+00  0.00000000E+00  0.00000000E+00
  0.00000000E+00  0.00000000E+00  0.00000000E+00
  0.00000000E+00  0.00000000E+00  0.00000000E+00
  0.00000000E+00  0.00000000E+00  0.00000000E+00
  0.00000000E+00  0.00000000E+00  0.00000000E+00
  0.00000000E+00  0.00000000E+00  0.00000000E+00
  0.00000000E+00  0.00000000E+00  0.00000000E+00
  0.00000000E+00  0.00000000E+00  0.00000000E+00
  0.00000000E+00  0.00000000E+00  0.00000000E+00
  0.00000000E+00  0.00000000E+00  0.00000000E+00
  0.00000000E+00  0.00000000E+00  0.00000000E+00
  0.00000000E+00  0.00000000E+00  0.00000000E+00
  0.00000000E+00  0.00000000E+00  0.00000000E+00
  0.00000000E+00  0.00000000E+00  0.00000000E+00
  0.00000000E+00  0.00000000E+00  0.00000000E+00
  0.00000000E+00  0.00000000E+00  0.00000000E+00
  0.00000000E+00  0.00000000E+00  0.00000000E+00
  0.00000000E+00  0.00000000E+00  0.00000000E+00
  0.00000000E+00  0.00000000E+00  0.00000000E+00
  0.00000000E+00  0.00000000E+00  0.00000000E+00
  0.00000000E+00  0.00000000E+00  0.00000000E+00
  0.00000000E+00  0.00000000E+00  0.00000000E+00
  0.00000000E+00  0.00000000E+00  0.00000000E+00
  0.00000000E+00  0.00000000E+00  0.00000000E+00
  0.00000000E+00  0.00000000E+00  0.00000000E+00
  0.00000000E+00  0.00000000E+00  0.00000000E+00
  0.00000000E+00  0.00000000E+00  0.00000000E+00
  0.00000000E+00  0.00000000E+00  0.00000000E+00
  0.00000000E+00  0.00000000E+00  0.00000000E+00
  0.00000000E+00  0.00000000E+00  0.00000000E+00
  0.00000000E+00  0.00000000E+00  0.00000000E+00
  0.00000000E+00  0.00000000E+00  0.00000000E+00
  0.00000000E+00  0.00000000E+00  0.00000000E+00
  0.00000000E+00  0.00000000E+00  0.00000000E+00
  0.00000000E+00  0.00000000E+00  0.00000000E+00
  0.00000000E+00  0.00000000E+00  0.00000000E+00
