supercell of 100% icsd_608626.cif, 0% i 
   1.00000000000000     
    -9.4060150855072511   -0.0006220394227419   -0.0001407789020993
    -4.7024707008822206    8.1584392004209150   -0.0016228534551197
    -0.0001531007190070    0.0019181159139835  -10.0344272724498129
   Al   Zr   Be   N 
    34     1     1    36
Direct
  0.1149526464476480  0.0928680089113101  0.2901005907263396
  0.2244971865373415  0.2059164623514604  0.0454576237518509
  0.7715730407005168  0.0915192177573161  0.7984144377990603
  0.4466589183742613  0.0954741121441103  0.2992364165907233
  0.5533685959749093  0.2066347803643254  0.0471028806887119
  0.1178160459554292  0.0914306876787307  0.8004148823010411
  0.2315094965546152  0.2055375512031716  0.5449855111860842
  0.7724309229906794  0.0934787697818038  0.2925500964099541
  0.8884130474963072  0.2049364706165804  0.0429166988227294
  0.4461614115161225  0.0962825185389491  0.7910847198751298
  0.1119298400209203  0.4276608016625474  0.2955261647847962
  0.2235665858018763  0.5381763633338466  0.0455380034599102
  0.7737605684021247  0.4348662565373331  0.8016673223295001
  0.8888315887148508  0.5442664037124700  0.5447341065343423
  0.4460698966268524  0.4241274090135931  0.2997863995095145
  0.5526963581514082  0.5395485949164183  0.0457887649419533
  0.1118329540357692  0.4278173166461769  0.7954912052441045
  0.2266971192133909  0.5350296539136963  0.5460517103293867
  0.7755131475481107  0.4314971705838957  0.2897548210372278
  0.8899750043429933  0.5399015704246111  0.0456005666045272
  0.4456513069306354  0.4250188642607853  0.7913710923788457
  0.5483715222909851  0.5428889189383312  0.5455108533870217
  0.1115575993548035  0.7600335380681145  0.2957941461221836
  0.2232547951801678  0.8702474808745961  0.0454349686325628
  0.7775047495969503  0.7614298583636199  0.7956038341668403
  0.8861345662155458  0.8694072429481494  0.5452449739330376
  0.4452665614890776  0.7613644110239832  0.2955357922386170
  0.5549319762452001  0.8735318457625212  0.0454891875303574
  0.1115624608012311  0.7602027344569251  0.7951764330067448
  0.2274205329840981  0.8673261961313727  0.5449401639760225
  0.7768539433881756  0.7616604929257988  0.2953829550424203
  0.8896714242926151  0.8707979864751962  0.0457332168541882
  0.4446958743229033  0.7613686670080568  0.7952941757262408
  0.5550701146605661  0.8769958023140205  0.5462357009518257
  0.8833032407420305  0.2057022991778084  0.5525033140471081
  0.5495505260271258  0.2038117351849067  0.5425293393825896
  0.2214880047340984  0.2055707292703275  0.3540374076233093
  0.1116980770570564  0.0941356082129516  0.1000000190493751
  0.8882929356637206  0.2054516616914981  0.8464508457938749
  0.7613160356818582  0.0860799726045727  0.6092035550936004
  0.5567856999940588  0.2047572089560532  0.3593963683193451
  0.4446586682939540  0.0940257057094556  0.1071048947090816
  0.2241874181661672  0.2063752092143432  0.8552184370210369
  0.1302213173581706  0.0854913911317539  0.6096243602416038
  0.8887938754011344  0.2054814173341271  0.3418946036822632
  0.7776701756281099  0.0937175293954269  0.1017139704898185
  0.5532362200947532  0.2069895393700705  0.8582994242456294
  0.4489247568628514  0.0982567156418810  0.6019208737873711
  0.2219455418499408  0.5389162792250772  0.3552396322887006
  0.1115236743057508  0.4277153016602924  0.1048281370548736
  0.8900905678700752  0.5400316588374636  0.8559232846757112
  0.7665733931675760  0.4495648296793959  0.6112669157297645
  0.5563784517283850  0.5390453733938614  0.3542687304706718
  0.4442590888619193  0.4277087293812016  0.1073401130402871
  0.2231564224934175  0.5384041257073591  0.8540309657393621
  0.1102167768213533  0.4276424829418275  0.6042368080003939
  0.8886212674526135  0.5384460235762134  0.3537152769791589
  0.7774598668092807  0.4281258543662076  0.0999352384223897
  0.5525737892399789  0.5400477024556807  0.8557791825672396
  0.4489287657418259  0.4211280663898549  0.6016971275038117
  0.2219339665770121  0.8728866390255590  0.3539048705760877
  0.1115663766828945  0.7603866589451584  0.1049705136970118
  0.8899905851439485  0.8702809458827048  0.8557703276030750
  0.7773566507491694  0.7607566014208729  0.6052266308770058
  0.5558460899126914  0.8718790113338244  0.3550794879218486
  0.4447033564110612  0.7612783085932477  0.1049214388522159
  0.2231169391141705  0.8703237801183050  0.8555375092997508
  0.1107614409309789  0.7613602871665321  0.6036597593042075
  0.8890382750815888  0.8720940369188099  0.3540905836292794
  0.7774379414690458  0.7611434264595260  0.1049605794015775
  0.5551527290860534  0.8734552951674104  0.8540973763467932
  0.4450392876350620  0.7622876988147027  0.6046716796589280
 
  0.00000000E+00  0.00000000E+00  0.00000000E+00
  0.00000000E+00  0.00000000E+00  0.00000000E+00
  0.00000000E+00  0.00000000E+00  0.00000000E+00
  0.00000000E+00  0.00000000E+00  0.00000000E+00
  0.00000000E+00  0.00000000E+00  0.00000000E+00
  0.00000000E+00  0.00000000E+00  0.00000000E+00
  0.00000000E+00  0.00000000E+00  0.00000000E+00
  0.00000000E+00  0.00000000E+00  0.00000000E+00
  0.00000000E+00  0.00000000E+00  0.00000000E+00
  0.00000000E+00  0.00000000E+00  0.00000000E+00
  0.00000000E+00  0.00000000E+00  0.00000000E+00
  0.00000000E+00  0.00000000E+00  0.00000000E+00
  0.00000000E+00  0.00000000E+00  0.00000000E+00
  0.00000000E+00  0.00000000E+00  0.00000000E+00
  0.00000000E+00  0.00000000E+00  0.00000000E+00
  0.00000000E+00  0.00000000E+00  0.00000000E+00
  0.00000000E+00  0.00000000E+00  0.00000000E+00
  0.00000000E+00  0.00000000E+00  0.00000000E+00
  0.00000000E+00  0.00000000E+00  0.00000000E+00
  0.00000000E+00  0.00000000E+00  0.00000000E+00
  0.00000000E+00  0.00000000E+00  0.00000000E+00
  0.00000000E+00  0.00000000E+00  0.00000000E+00
  0.00000000E+00  0.00000000E+00  0.00000000E+00
  0.00000000E+00  0.00000000E+00  0.00000000E+00
  0.00000000E+00  0.00000000E+00  0.00000000E+00
  0.00000000E+00  0.00000000E+00  0.00000000E+00
  0.00000000E+00  0.00000000E+00  0.00000000E+00
  0.00000000E+00  0.00000000E+00  0.00000000E+00
  0.00000000E+00  0.00000000E+00  0.00000000E+00
  0.00000000E+00  0.00000000E+00  0.00000000E+00
  0.00000000E+00  0.00000000E+00  0.00000000E+00
  0.00000000E+00  0.00000000E+00  0.00000000E+00
  0.00000000E+00  0.00000000E+00  0.00000000E+00
  0.00000000E+00  0.00000000E+00  0.00000000E+00
  0.00000000E+00  0.00000000E+00  0.00000000E+00
  0.00000000E+00  0.00000000E+00  0.00000000E+00
  0.00000000E+00  0.00000000E+00  0.00000000E+00
  0.00000000E+00  0.00000000E+00  0.00000000E+00
  0.00000000E+00  0.00000000E+00  0.00000000E+00
  0.00000000E+00  0.00000000E+00  0.00000000E+00
  0.00000000E+00  0.00000000E+00  0.00000000E+00
  0.00000000E+00  0.00000000E+00  0.00000000E+00
  0.00000000E+00  0.00000000E+00  0.00000000E+00
  0.00000000E+00  0.00000000E+00  0.00000000E+00
  0.00000000E+00  0.00000000E+00  0.00000000E+00
  0.00000000E+00  0.00000000E+00  0.00000000E+00
  0.00000000E+00  0.00000000E+00  0.00000000E+00
  0.00000000E+00  0.00000000E+00  0.00000000E+00
  0.00000000E+00  0.00000000E+00  0.00000000E+00
  0.00000000E+00  0.00000000E+00  0.00000000E+00
  0.00000000E+00  0.00000000E+00  0.00000000E+00
  0.00000000E+00  0.00000000E+00  0.00000000E+00
  0.00000000E+00  0.00000000E+00  0.00000000E+00
  0.00000000E+00  0.00000000E+00  0.00000000E+00
  0.00000000E+00  0.00000000E+00  0.00000000E+00
  0.00000000E+00  0.00000000E+00  0.00000000E+00
  0.00000000E+00  0.00000000E+00  0.00000000E+00
  0.00000000E+00  0.00000000E+00  0.00000000E+00
  0.00000000E+00  0.00000000E+00  0.00000000E+00
  0.00000000E+00  0.00000000E+00  0.00000000E+00
  0.00000000E+00  0.00000000E+00  0.00000000E+00
  0.00000000E+00  0.00000000E+00  0.00000000E+00
  0.00000000E+00  0.00000000E+00  0.00000000E+00
  0.00000000E+00  0.00000000E+00  0.00000000E+00
  0.00000000E+00  0.00000000E+00  0.00000000E+00
  0.00000000E+00  0.00000000E+00  0.00000000E+00
  0.00000000E+00  0.00000000E+00  0.00000000E+00
  0.00000000E+00  0.00000000E+00  0.00000000E+00
  0.00000000E+00  0.00000000E+00  0.00000000E+00
  0.00000000E+00  0.00000000E+00  0.00000000E+00
  0.00000000E+00  0.00000000E+00  0.00000000E+00
  0.00000000E+00  0.00000000E+00  0.00000000E+00
