Ta   Zn   N                             
   1.00000000000000     
    -0.0008148271620718   -0.0000958532782589   -5.5511705829924702
    -5.8536658640644887    0.0357113047558473    0.0010071858816304
     0.0861846736812005    9.9362552037625740    0.1496560497814099
   Ta   Zn   N 
     4     8    12
Direct
  0.8950395962490402  0.3283023621574437  0.0023852095511637
  0.3924232743416377  0.6660827107137238  0.0037101546922137
  0.0282732869745920  0.8317216951118032  0.4996323371112890
  0.5282246145551847  0.1704334728110225  0.4996163183866713
  0.0351034739625222  0.8415040613121878  0.8214932734659993
  0.8926012568622925  0.8409657163545889  0.1667394818800059
  0.4902322997208277  0.1619065738908639  0.8259025199126658
  0.3924199287755356  0.1559643073125719  0.1667100877444999
  0.0417819383422280  0.3425200642461487  0.6697452504832002
  0.0287913638619814  0.3415136409052056  0.3336670506241232
  0.5472402063123148  0.6615612464313222  0.6720376271846893
  0.5290567550275422  0.6584281131324593  0.3348115264679016
  0.0144875048412294  0.1606838386964384  0.1577677773000327
  0.9624603822894564  0.1702043565716125  0.8382825527947029
  0.0296412690564021  0.6470522879205489  0.0064155348283767
  0.4362374085006463  0.8302597201765352  0.8370926936682415
  0.5141410171968989  0.8356791633151344  0.1576368995333409
  0.5295120766623492  0.3479736356230327  0.0033988821080788
  0.9099837277689022  0.6644033846389428  0.3446124825728598
  0.9176312691315249  0.6689418963637909  0.6586695541169264
  0.4178552992222357  0.3363078792562709  0.6577743465369865
  0.4104700051830577  0.3353578754473219  0.3438292858517112
  0.8920370715199127  0.1512844866181296  0.4987774428987651
  0.3920555380305273  0.8509476199013229  0.4992916991758216
 
             NaN             NaN             NaN
             NaN             NaN             NaN
             NaN             NaN             NaN
             NaN             NaN             NaN
             NaN             NaN             NaN
             NaN             NaN             NaN
             NaN             NaN             NaN
             NaN             NaN             NaN
             NaN             NaN             NaN
             NaN             NaN             NaN
             NaN             NaN             NaN
             NaN             NaN             NaN
             NaN             NaN             NaN
             NaN             NaN             NaN
             NaN             NaN             NaN
             NaN             NaN             NaN
             NaN             NaN             NaN
             NaN             NaN             NaN
             NaN             NaN             NaN
             NaN             NaN             NaN
             NaN             NaN             NaN
             NaN             NaN             NaN
             NaN             NaN             NaN
             NaN             NaN             NaN
