Ta   Zn   N                             
   1.00000000000000     
    -0.0003799921948772   -0.0000788752957979   -5.5343484777501102
    -5.8650412154083211    0.0352954126519628    0.0008272898376599
     0.0874532325300120    9.9847391380473756    0.0540322862587562
   Ta   Zn   N 
     4     8    12
Direct
  0.8793224961590810  0.3347314050704240  0.0001643349729235
  0.3826110219843720  0.6728652832212001  0.0028033873763400
  0.0276608799534483  0.8288745636349715  0.5001867740627866
  0.5284259730748317  0.1686274729640748  0.4999755259355084
  0.0369956607264351  0.8462470084810878  0.8183511857411668
  0.9144793500724799  0.8330903258990651  0.1709376187894797
  0.5346255720133976  0.1553419994056086  0.8174423460428317
  0.5099318279794260  0.1654711657229270  0.1785657835992681
  0.0435099965882104  0.3399231321047372  0.6724434474478955
  0.0377802025154741  0.3364504778319674  0.3291703583716576
  0.5446283317373579  0.6598700499313120  0.6737444871232410
  0.5301925367707263  0.6590570410570460  0.3347620579605937
  0.9362136731776733  0.1683015986776132  0.1627475369169405
  0.9271788003070163  0.1658390531173881  0.8347828205129671
  0.0187901449497780  0.6505899948235622  0.0046477625458710
  0.4265380539083055  0.8356289060085555  0.8352998211788576
  0.4946865292039270  0.8315883517392116  0.1602113000458577
  0.5138392032942457  0.3556553476233777  0.9989684532194684
  0.9124252365570917  0.6606414499414670  0.3455012719664783
  0.9163424454311784  0.6661147635020982  0.6588765222143025
  0.4160929793995166  0.3339949116107627  0.6572620266841284
  0.4109689931153729  0.3332972314806532  0.3430894347584137
  0.8919037073218682  0.1480512594432294  0.4997312325972746
  0.3924639980353927  0.8497473161102991  0.5003344988539157
 
             NaN             NaN             NaN
             NaN             NaN             NaN
             NaN             NaN             NaN
             NaN             NaN             NaN
             NaN             NaN             NaN
             NaN             NaN             NaN
             NaN             NaN             NaN
             NaN             NaN             NaN
             NaN             NaN             NaN
             NaN             NaN             NaN
             NaN             NaN             NaN
             NaN             NaN             NaN
             NaN             NaN             NaN
             NaN             NaN             NaN
             NaN             NaN             NaN
             NaN             NaN             NaN
             NaN             NaN             NaN
             NaN             NaN             NaN
             NaN             NaN             NaN
             NaN             NaN             NaN
             NaN             NaN             NaN
             NaN             NaN             NaN
             NaN             NaN             NaN
             NaN             NaN             NaN
