Ta   Zn   N                             
   1.00000000000000     
    -0.0288087381365822   -0.0000585017168446   -5.5141619514592799
    -5.8704659631117302    0.0444304191425230    0.0006114145848954
     0.0758368216171503   10.0199036355661022   -0.0005044453237703
   Ta   Zn   N 
     4     8    12
Direct
  0.9378558206628789  0.3269916600477915 -0.0000000425931286
  0.3742988571456275  0.6751918379109607 -0.0000000762485627
  0.0298473641565544  0.8287661684830639  0.5000000435720230
  0.5284920927880856  0.1683326213632720  0.5000000476902866
  0.0296989652488153  0.8436227346154727  0.8146671122085858
  0.0296991156062013  0.8436224394992290  0.1853328899639060
  0.5247891420803201  0.1627214557650137  0.8259813633225142
  0.5247890819782604  0.1627215210273902  0.1740185591113427
  0.0424254858919463  0.3378803093126446  0.6691016554763154
  0.0424255879038270  0.3378799541330210  0.3308984611279950
  0.5405137760216706  0.6590495455251215  0.6718198072765164
  0.5405139850503382  0.6590495539386239  0.3281801552862764
  0.9228134450744125  0.1656214526205750  0.1664838561790137
  0.9228133688801047  0.1656217301834260  0.8335160776432211
  0.0054453254260673  0.6596650170769682  0.9999999519397034
  0.4260873201336843  0.8359480368990536  0.8324851096750192
  0.4260872939481467  0.8359480149884131  0.1675148689131183
  0.4423207531238297  0.3409619425443641  0.9999999764765197
  0.9150810473189560  0.6641291454494770  0.3433894837978765
  0.9150809247953271  0.6641293161426326  0.6566105639835369
  0.4162604353692601  0.3321541558679441  0.6576728561861211
  0.4162605400051947  0.3321541590484339  0.3423272090455042
  0.8942030569243813  0.1485519973844258  0.5000000384998690
  0.3939699658998161  0.8492853917622102  0.5000000306280313
 
             NaN             NaN             NaN
             NaN             NaN             NaN
             NaN             NaN             NaN
             NaN             NaN             NaN
             NaN             NaN             NaN
             NaN             NaN             NaN
             NaN             NaN             NaN
             NaN             NaN             NaN
             NaN             NaN             NaN
             NaN             NaN             NaN
             NaN             NaN             NaN
             NaN             NaN             NaN
             NaN             NaN             NaN
             NaN             NaN             NaN
             NaN             NaN             NaN
             NaN             NaN             NaN
             NaN             NaN             NaN
             NaN             NaN             NaN
             NaN             NaN             NaN
             NaN             NaN             NaN
             NaN             NaN             NaN
             NaN             NaN             NaN
             NaN             NaN             NaN
             NaN             NaN             NaN
