Ta   Zn   N                             
   1.00000000000000     
    -0.0352835805793686   -0.0000228479536765   -5.4788355304503202
    -5.8038404915630055    0.0439273493428072    0.0002336328925575
     0.0751222639830045    9.9251370532057202   -0.0007062393734289
   Ta   Zn   N 
     4     8    12
Direct
  0.0267125630507326  0.3276446003250613  0.9999996288485786
  0.5257137515168878  0.6692790700155586  0.9999996483866744
  0.0245199137453564  0.8300808787273222  0.4999995816617412
  0.5239213977235180  0.1708696248146673  0.4999995596996563
  0.0348601880634255  0.8371743613575771  0.8274035635307102
  0.0348591733673539  0.8371744604175232  0.1725957676433104
  0.5363458420580832  0.1614269077399170  0.8270121201039518
  0.5363446243377421  0.1614271364625127  0.1729870588672689
  0.0349000634688631  0.3385279712360682  0.6722288737423594
  0.0349010291867808  0.3385279528494056  0.3277704800846171
  0.5349322101395605  0.6622141662322107  0.6720223473457313
  0.5349333267665652  0.6622139094722065  0.3279768032627833
  0.9116878979160720  0.1690612325651726  0.1603933824486214
  0.9116880511232438  0.1690611125652361  0.8396075168756392
  0.8938060442390869  0.6518430543498112  0.0000004099883679
  0.4117585072447136  0.8310442278422783  0.8401296061194888
  0.4117584618963603  0.8310442066877995  0.1598713887932403
  0.3939325970287276  0.3456711587207342  0.0000004540679139
  0.9103493537994238  0.6696640064511850  0.3402360997326420
  0.9103490426587834  0.6696639056864010  0.6597646491924518
  0.4103798043680811  0.3322610638915609  0.6599424521990384
  0.4103799729561640  0.3322610289161353  0.3400583980331517
  0.8912006022852862  0.1542459061009470  0.5000000936708965
  0.3915383323139655  0.8476182181668565  0.5000001148627561
 
             NaN             NaN             NaN
             NaN             NaN             NaN
             NaN             NaN             NaN
             NaN             NaN             NaN
             NaN             NaN             NaN
             NaN             NaN             NaN
             NaN             NaN             NaN
             NaN             NaN             NaN
             NaN             NaN             NaN
             NaN             NaN             NaN
             NaN             NaN             NaN
             NaN             NaN             NaN
             NaN             NaN             NaN
             NaN             NaN             NaN
             NaN             NaN             NaN
             NaN             NaN             NaN
             NaN             NaN             NaN
             NaN             NaN             NaN
             NaN             NaN             NaN
             NaN             NaN             NaN
             NaN             NaN             NaN
             NaN             NaN             NaN
             NaN             NaN             NaN
             NaN             NaN             NaN
