Ta   Zn   N                             
   1.00000000000000     
    -0.0094831397024655   -0.0000211501554303   -5.4771533199260798
    -5.7955574268134811    0.0442126840379035    0.0002156432881604
     0.0757113509380295    9.9242130640240003   -0.0003038415719851
   Ta   Zn   N 
     4     8    12
Direct
  0.0250225075319136  0.3293402360030230  0.9999997606330527
  0.5248214498201341  0.6702101181699502  0.9999997383706773
  0.0247130155889622  0.8296162160961971  0.4999996874351209
  0.5245392301818956  0.1704241851287797  0.4999996511750960
  0.0352587359857012  0.8380717186280129  0.8275453056596338
  0.0352577027950390  0.8380718433596079  0.1724541047785563
  0.5353748769660465  0.1616385939240205  0.8275107057602105
  0.5353736911402809  0.1616387921700631  0.1724885399869707
  0.0351015426304447  0.3382474259388069  0.6724408455834436
  0.0351024966883567  0.3382474327594799  0.3275585355063695
  0.5351818548865803  0.6617696974542814  0.6724012817648014
  0.5351830022924042  0.6617693251119385  0.3275979309507067
  0.9105961844129549  0.1692356772760118  0.1600944796673812
  0.9105964341137519  0.1692354810252168  0.8399060806917659
  0.8922438872955449  0.6535795854903450  0.0000002619757148
  0.4105840288899723  0.8308621926443106  0.8399565063210899
  0.4105838834684071  0.8308620635561960  0.1600441025533938
  0.3923441852131700  0.3461824206985216  0.0000002611953660
  0.9104084265418643  0.6693631901270173  0.3399431826942692
  0.9104081862311247  0.6693631446247666  0.6600575835967735
  0.4103935179197654  0.3310126138122406  0.6600769071959106
  0.4103937428987292  0.3310125501804986  0.3399239188765514
  0.8919168543879331  0.1538720725391101  0.5000002448982988
  0.3920108737305631  0.8464073898940389  0.5000002298261922
 
             NaN             NaN             NaN
             NaN             NaN             NaN
             NaN             NaN             NaN
             NaN             NaN             NaN
             NaN             NaN             NaN
             NaN             NaN             NaN
             NaN             NaN             NaN
             NaN             NaN             NaN
             NaN             NaN             NaN
             NaN             NaN             NaN
             NaN             NaN             NaN
             NaN             NaN             NaN
             NaN             NaN             NaN
             NaN             NaN             NaN
             NaN             NaN             NaN
             NaN             NaN             NaN
             NaN             NaN             NaN
             NaN             NaN             NaN
             NaN             NaN             NaN
             NaN             NaN             NaN
             NaN             NaN             NaN
             NaN             NaN             NaN
             NaN             NaN             NaN
             NaN             NaN             NaN
