Ta   Zn   N                             
   1.00000000000000     
    -0.0011746823782764   -0.0001162268572122   -5.5713571092832996
    -5.8278496957500794    0.0456564849743523    0.0012230611343949
     0.0777417185146837    9.9231817436564462   -0.0002218384559006
   Ta   Zn   N 
     4     8    12
Direct
  0.9136685788167048  0.3313838500332957  0.0000000104371596
  0.4136684856422224  0.6686168235882596  0.9999999821266685
  0.0347715396732171  0.8313838128076141  0.5000000017313955
  0.5347714632148751  0.1686166923738999  0.4999999744638279
  0.9079348214184654  0.8433107427858541  0.8341166125157524
  0.9079347310221925  0.8433105410567810  0.1658833801034574
  0.4079349207599954  0.1566900148178312  0.8341166216258408
  0.4079347217561214  0.1566900442924505  0.1658833472565997
  0.0404993632601986  0.3433103398984218  0.6658839230903916
  0.0404992127975876  0.3433103049193859  0.3341160871199865
  0.5404994704810889  0.6566900916597859  0.6658839286875623
  0.5404992083526654  0.6566902979107773  0.3341160510104836
  0.0282784988723921  0.1668723909931647  0.1568044465938648
  0.0282785959123384  0.1668725211392176  0.8431955434553604
  0.0502121157719840  0.6519539535163760  0.9999999980876800
  0.5282785617177050  0.8331280385427724  0.8431955661958507
  0.5282785145898260  0.8331281055976852  0.1568044352293427
  0.5502121566981162  0.3480465877000928  0.0000000133925644
  0.9201620025231292  0.6668735232626579  0.3431953030512433
  0.9201621220571877  0.6668735674017515  0.6568046947765250
  0.4201621184734819  0.3331270661084285  0.6568047277713779
  0.4201620443444097  0.3331271774253187  0.3431952813352841
  0.8982281544444493  0.1519541076505368  0.4999999898122482
  0.3982282106011308  0.8480464964653370  0.5000000040528912
 
             NaN             NaN             NaN
             NaN             NaN             NaN
             NaN             NaN             NaN
             NaN             NaN             NaN
             NaN             NaN             NaN
             NaN             NaN             NaN
             NaN             NaN             NaN
             NaN             NaN             NaN
             NaN             NaN             NaN
             NaN             NaN             NaN
             NaN             NaN             NaN
             NaN             NaN             NaN
             NaN             NaN             NaN
             NaN             NaN             NaN
             NaN             NaN             NaN
             NaN             NaN             NaN
             NaN             NaN             NaN
             NaN             NaN             NaN
             NaN             NaN             NaN
             NaN             NaN             NaN
             NaN             NaN             NaN
             NaN             NaN             NaN
             NaN             NaN             NaN
             NaN             NaN             NaN
