Ta   Zn   N                             
   1.00000000000000     
    -0.0000167843436291   -0.0000024743747232   -5.4586490041594899
    -5.8023345244629176    0.0054060735229184    0.0000177576397929
     0.0092577584485117    9.9343773742157051   -0.0000021175073966
   Ta   Zn   N 
     4     8    12
Direct
  0.9994802807669859  0.3293563271246090  0.9999999969273650
  0.4994802898121679  0.6706436948275811  1.0000000035328760
  0.9994802919851917  0.8293563200949311  0.5000000068164512
  0.4994802794604795  0.1706436912344689  0.5000000110121104
  0.0098071450279798  0.8382610238292459  0.8274349849938276
  0.0098070955674779  0.8382611418601543  0.1725650466280636
  0.5098071476134955  0.1617388519418922  0.8274349549237645
  0.5098070557689840  0.1617390081620914  0.1725650156292008
  0.0098070737357721  0.3382611717926403  0.6725650557191064
  0.0098071713421442  0.3382610057165732  0.3274349956391102
  0.5098070561053455  0.6617389759139994  0.6725650225956173
  0.5098071909010596  0.6617389213608115  0.3274349619843411
  0.8858832377858797  0.1690397358872671  0.1600879635374403
  0.8858832230749982  0.1690396451417113  0.8399119230152476
  0.8677483283202835  0.6536569104815575  0.9999999623646079
  0.3858832350403865  0.8309603442537382  0.8399119514192098
  0.3858832916318805  0.8309603020401948  0.1600879793243017
  0.3677483358600706  0.3463430907629219  0.9999999608155703
  0.8858833289339131  0.6690396896444880  0.3399119991419580
  0.8858831575884842  0.6690396663016636  0.6600880198993972
  0.3858831803825493  0.3309603976696553  0.6600880716122748
  0.3858832775800415  0.3309602829643743  0.3399120386570056
  0.8677483480038810  0.1536569564117287  0.5000000255645730
  0.3677483333660101  0.8463430941155724  0.5000000442467342
 
             NaN             NaN             NaN
             NaN             NaN             NaN
             NaN             NaN             NaN
             NaN             NaN             NaN
             NaN             NaN             NaN
             NaN             NaN             NaN
             NaN             NaN             NaN
             NaN             NaN             NaN
             NaN             NaN             NaN
             NaN             NaN             NaN
             NaN             NaN             NaN
             NaN             NaN             NaN
             NaN             NaN             NaN
             NaN             NaN             NaN
             NaN             NaN             NaN
             NaN             NaN             NaN
             NaN             NaN             NaN
             NaN             NaN             NaN
             NaN             NaN             NaN
             NaN             NaN             NaN
             NaN             NaN             NaN
             NaN             NaN             NaN
             NaN             NaN             NaN
             NaN             NaN             NaN
