Ta   Zn   N                             
   1.00000000000000     
    -0.0566186510993168   -0.0000449193308758   -5.5007042672653901
    -5.8549829270712523    0.0443120465861638    0.0004674977497190
     0.0756103623427194    9.9894683828477966   -0.0007967227641732
   Ta   Zn   N 
     4     8    12
Direct
  0.0335347895965927  0.3046250940997661  0.0000001774202514
  0.3916490074263516  0.6765449658510641  0.0000001070964504
  0.0248730647862234  0.8316296816862295  0.5000000810355218
  0.5228434486879490  0.1717258618954568  0.5000001045370603
  0.0203701794308860  0.8403699335403969  0.8203272065410808
  0.0203702361372502  0.8403697161496171  0.1796727033722629
  0.5394476439994403  0.1644647278856830  0.8245812360747704
  0.5394480990872896  0.1644650122304492  0.1754190733685448
  0.0359269931802966  0.3390987205940689  0.6708741838831648
  0.0359267384841208  0.3390985998179623  0.3291260063871081
  0.5348003226086526  0.6615805186307543  0.6701444762050855
  0.5348000334152053  0.6615804133410518  0.3298557944160250
  0.9116090188872182  0.1689310758556728  0.1648090897556515
  0.9116090803022850  0.1689312163466465  0.8351905263691221
  0.0099700022083339  0.6462476895247664  0.9999997847191093
  0.4258318033965288  0.8395427068871434  0.8333922289047642
  0.4258318307335460  0.8395432400168532  0.1666080723287434
  0.4003008238709551  0.3300460963760707  0.9999999896156714
  0.9107973448797678  0.6685294892972149  0.3421678170917614
  0.9107974247906413  0.6685295490074514  0.6578316486322654
  0.4109832383825771  0.3350520931291025  0.6584461675096001
  0.4109831408036900  0.3350521916034548  0.3415536451239693
  0.8894459249648935  0.1527315682917840  0.4999999274881086
  0.3896225613729050  0.8513099995305111  0.4999999512855167
 
             NaN             NaN             NaN
             NaN             NaN             NaN
             NaN             NaN             NaN
             NaN             NaN             NaN
             NaN             NaN             NaN
             NaN             NaN             NaN
             NaN             NaN             NaN
             NaN             NaN             NaN
             NaN             NaN             NaN
             NaN             NaN             NaN
             NaN             NaN             NaN
             NaN             NaN             NaN
             NaN             NaN             NaN
             NaN             NaN             NaN
             NaN             NaN             NaN
             NaN             NaN             NaN
             NaN             NaN             NaN
             NaN             NaN             NaN
             NaN             NaN             NaN
             NaN             NaN             NaN
             NaN             NaN             NaN
             NaN             NaN             NaN
             NaN             NaN             NaN
             NaN             NaN             NaN
