Ta   Zn   N                             
   1.00000000000000     
    -0.0007280854224028   -0.0000194523571842   -5.4754711094018500
    -5.7952260821489689    0.0483528388610559    0.0001976536837634
     0.0828160498440659    9.9255432550481029   -0.0000597873766272
   Ta   Zn   N 
     4     8    12
Direct
  0.0224496723766425  0.3295693462498862  1.0000000433975345
  0.5224388051591080  0.6704154759028227  1.0000000549458099
  0.0224405029010647  0.8295764236064962  0.4999998632725441
  0.5224299340805088  0.1704212315795519  0.4999998745492698
  0.0329131248153232  0.8382466754468572  0.8275392711271423
  0.0329131482285881  0.8382468758730521  0.1724608316547369
  0.5329178240105110  0.1617430937215539  0.8275389248190667
  0.5329178126217126  0.1617431200155028  0.1724611034068161
  0.0329068093012432  0.3382514327739000  0.6724607321117970
  0.0329068315934098  0.3382514170195380  0.3275390964670209
  0.5329122506530155  0.6617466618639761  0.6724589782768162
  0.5329123479794566  0.6617464224177959  0.3275407793844717
  0.9082085245125142  0.1692175570743005  0.1600740216871627
  0.9082085564346332  0.1692175919194908  0.8399260065820932
  0.8898767406023183  0.6537639220282842  0.0000000755002042
  0.4082079423005304  0.8307941152167971  0.8399273564987390
  0.4082079848524589  0.8307942507813219  0.1600727621308457
  0.3898825009476191  0.3462339617281872  0.0000000910061102
  0.9082032060063950  0.6692214944036465  0.3399264775250596
  0.9082031404084668  0.6692215425143652  0.6600735089315237
  0.4082019368328484  0.3307980120910839  0.6600738694312639
  0.4082019147457999  0.3307980142393220  0.3399261697813874
  0.8898668930455577  0.1537714727295865  0.4999999665786058
  0.3898726390976004  0.8462397805414820  0.4999999757830194
 
             NaN             NaN             NaN
             NaN             NaN             NaN
             NaN             NaN             NaN
             NaN             NaN             NaN
             NaN             NaN             NaN
             NaN             NaN             NaN
             NaN             NaN             NaN
             NaN             NaN             NaN
             NaN             NaN             NaN
             NaN             NaN             NaN
             NaN             NaN             NaN
             NaN             NaN             NaN
             NaN             NaN             NaN
             NaN             NaN             NaN
             NaN             NaN             NaN
             NaN             NaN             NaN
             NaN             NaN             NaN
             NaN             NaN             NaN
             NaN             NaN             NaN
             NaN             NaN             NaN
             NaN             NaN             NaN
             NaN             NaN             NaN
             NaN             NaN             NaN
             NaN             NaN             NaN
