Ta   Zn   N                             
   1.00000000000000     
    -0.0000678294755517   -0.0000075677694615   -5.4636956357321997
    -5.8001836688967092    0.0245957023706566    0.0000717264529841
     0.0421171214074400    9.9317357400279462   -0.0000173997227562
   Ta   Zn   N 
     4     8    12
Direct
  0.0061402550801304  0.3294234054534988  1.0000000323762352
  0.5061402434315757  0.6705766262768812  1.0000000461197691
  0.0061402334515367  0.8294234102294264  0.4999999280995286
  0.5061402257147687  0.1705766211906817  0.4999999404440604
  0.0165399202652424  0.8382582947091113  0.8274649642121932
  0.0165399212739985  0.8382583492047312  0.1725349623243633
  0.5165399480749874  0.1617416125741582  0.8274649319733605
  0.5165398892866337  0.1617418243032882  0.1725349298368528
  0.0165400278131140  0.3382584303039678  0.6725350611938806
  0.0165398006881953  0.3382582072944939  0.3274650654746880
  0.5165399961900340  0.6617417245404019  0.6725350285632556
  0.5165398287385697  0.6617417109197032  0.3274650328933326
  0.8923611284381214  0.1690886000413196  0.1600851379238220
  0.8923611540717982  0.1690884803140705  0.8399147688009926
  0.8741538124995296  0.6536907369896411  0.0000000339135754
  0.3923611216560429  0.8309115285997852  0.8399148088627900
  0.3923611546277750  0.8309114678691523  0.1600851777503170
  0.3741538136897031  0.3463093091217223  0.0000000394946625
  0.8923611338001995  0.6690885800852068  0.3399148278089274
  0.8923611229269470  0.6690884969435248  0.6600851995241629
  0.3923611543439334  0.3309115779588657  0.6600852419059070
  0.3923611082161147  0.3309114212495965  0.3399148731194558
  0.8741537843655883  0.1536907321336538  0.4999999724278681
  0.3741537869883244  0.8463093068666222  0.4999999836705133
 
             NaN             NaN             NaN
             NaN             NaN             NaN
             NaN             NaN             NaN
             NaN             NaN             NaN
             NaN             NaN             NaN
             NaN             NaN             NaN
             NaN             NaN             NaN
             NaN             NaN             NaN
             NaN             NaN             NaN
             NaN             NaN             NaN
             NaN             NaN             NaN
             NaN             NaN             NaN
             NaN             NaN             NaN
             NaN             NaN             NaN
             NaN             NaN             NaN
             NaN             NaN             NaN
             NaN             NaN             NaN
             NaN             NaN             NaN
             NaN             NaN             NaN
             NaN             NaN             NaN
             NaN             NaN             NaN
             NaN             NaN             NaN
             NaN             NaN             NaN
             NaN             NaN             NaN
