Ta   Zn   N                             
   1.00000000000000     
    -0.0034231468316699   -0.0000822708922901   -5.5377128987985795
    -5.8632430565463611    0.0402942108244943    0.0008632690464540
     0.0788960277047285    9.9741516720323649    0.0847759100977079
   Ta   Zn   N 
     4     8    12
Direct
  0.8834027658526987  0.3341274748100188  0.0010287541334903
  0.3845141996083927  0.6725205271954778  0.0032680454889578
  0.0273052189375994  0.8288477584415636  0.5001418025576885
  0.5282046728199906  0.1684867002883272  0.4998921360377463
  0.0382297569132367  0.8459715021451100  0.8187533331930978
  0.8998848528198049  0.8348800561963196  0.1691184410800548
  0.5378815346367485  0.1545148191916090  0.8177026037043337
  0.4800693152476846  0.1662696341668795  0.1751663840853555
  0.0444503100943558  0.3397239654032070  0.6726511625327946
  0.0339933992984031  0.3373152018001713  0.3299407121895573
  0.5458265168188742  0.6589650212424863  0.6738751396494835
  0.5290139284099764  0.6592898940912755  0.3361008346881176
  0.9565606237506469  0.1671309316322952  0.1606956647671117
  0.9285357106512436  0.1656039848956252  0.8349264846356999
  0.0220091343017581  0.6508047705957029  0.0055402293091773
  0.4283855480102787  0.8345801385569933  0.8355659681521695
  0.5037497981224636  0.8330236008788424  0.1596163792852706
  0.5169688969739723  0.3552939527256360  0.0003325860815641
  0.9111368831844527  0.6611899898974445  0.3457014491275929
  0.9170438327824346  0.6659813164086883  0.6592334955705439
  0.4168844629028870  0.3332744571199629  0.6575425312851916
  0.4099695195885036  0.3343493116111421  0.3433360001799298
  0.8914039701273241  0.1481857909816359  0.4996430060127097
  0.3921827624228750  0.8496693091262071  0.5002268451705107
 
             NaN             NaN             NaN
             NaN             NaN             NaN
             NaN             NaN             NaN
             NaN             NaN             NaN
             NaN             NaN             NaN
             NaN             NaN             NaN
             NaN             NaN             NaN
             NaN             NaN             NaN
             NaN             NaN             NaN
             NaN             NaN             NaN
             NaN             NaN             NaN
             NaN             NaN             NaN
             NaN             NaN             NaN
             NaN             NaN             NaN
             NaN             NaN             NaN
             NaN             NaN             NaN
             NaN             NaN             NaN
             NaN             NaN             NaN
             NaN             NaN             NaN
             NaN             NaN             NaN
             NaN             NaN             NaN
             NaN             NaN             NaN
             NaN             NaN             NaN
             NaN             NaN             NaN
