Ta   Zn   N                             
   1.00000000000000     
    -0.0013835136782004   -0.0000720841028135   -5.5276196356531599
    -5.8620413767472890    0.0362096075995981    0.0007553314200717
     0.0859114679710584    9.9947517876888643    0.0217446231092537
   Ta   Zn   N 
     4     8    12
Direct
  0.8752849641252211  0.3327136780471013  0.0000192290244147
  0.3773479789596227  0.6709795236627777  0.0014881352114816
  0.0279931237128958  0.8292425910910822  0.4999147608273029
  0.5281724834218683  0.1693986637342841  0.4999962222558214
  0.0346350094904250  0.8461419835960343  0.8175052282687852
  0.9826666814062768  0.8367952285996830  0.1766563946867458
  0.5322461187625358  0.1557897276747625  0.8172751611455212
  0.5209436262363091  0.1603321193161314  0.1806439792436431
  0.0428230393230908  0.3399195255287574  0.6723218397902873
  0.0395904464463237  0.3365247956157566  0.3288717745993281
  0.5430226996086783  0.6608448975477184  0.6733390260955782
  0.5348808245095987  0.6605230998690911  0.3307166186406212
  0.9271898760780449  0.1661252395160320  0.1643355400827505
  0.9251307789761589  0.1658338936467270  0.8345251352936308
  0.0117472634601845  0.6485690322019773  0.0017221754599667
  0.4245185386065125  0.8364127866988845  0.8350717909139315
  0.4481203465204213  0.8337758098905474  0.1634281111821518
  0.5113724542955417  0.3543610390100592  0.9996317830292171
  0.9122567269382601  0.6621624181271643  0.3437340202195280
  0.9153700018872559  0.6661866630090413  0.6579180920444382
  0.4152876657712478  0.3347469816992567  0.6573570007101239
  0.4122360409835223  0.3339594534639071  0.3431762355718736
  0.8924625063015150  0.1484072555591925  0.4998702312837770
  0.3923084184550789  0.8502537022966653  0.5004815033372064
 
             NaN             NaN             NaN
             NaN             NaN             NaN
             NaN             NaN             NaN
             NaN             NaN             NaN
             NaN             NaN             NaN
             NaN             NaN             NaN
             NaN             NaN             NaN
             NaN             NaN             NaN
             NaN             NaN             NaN
             NaN             NaN             NaN
             NaN             NaN             NaN
             NaN             NaN             NaN
             NaN             NaN             NaN
             NaN             NaN             NaN
             NaN             NaN             NaN
             NaN             NaN             NaN
             NaN             NaN             NaN
             NaN             NaN             NaN
             NaN             NaN             NaN
             NaN             NaN             NaN
             NaN             NaN             NaN
             NaN             NaN             NaN
             NaN             NaN             NaN
             NaN             NaN             NaN
