Ta   Zn   N                             
   1.00000000000000     
    -0.0010343462739945   -0.0000737819010596   -5.5293018461774004
    -5.8634614350754015    0.0353229570079201    0.0007733210244688
     0.0874296645999532    9.9925690938531471    0.0278763521779449
   Ta   Zn   N 
     4     8    12
Direct
  0.8760636314266332  0.3332302314799718  0.0000082765343253
  0.3787971957997107  0.6714821359503758  0.0018293349009613
  0.0280202750984472  0.8291945585272109  0.5000152973297801
  0.5282760129771079  0.1692235619503357  0.5000023984530995
  0.0353064644994654  0.8462686045145684  0.8177134600969241
  0.9656243877494165  0.8355756826329129  0.1752870322530473
  0.5325953549099036  0.1557277410937133  0.8173453429243969
  0.5187993503833829  0.1615354167693181  0.1802280538015688
  0.0430367841048779  0.3399996094738180  0.6723642349277358
  0.0394362897502298  0.3363637124155490  0.3290263673554135
  0.5433489755292402  0.6606857129932139  0.6734762501039826
  0.5336531385736945  0.6601771599161422  0.3315429038045264
  0.9290258482931355  0.1668456519906884  0.1640303899625915
  0.9256066597673178  0.1659483146633054  0.8345634415104568
  0.0131148957975583  0.6491384326681950  0.0024523352762448
  0.4248631930237863  0.8363766918768234  0.8350608237809990
  0.4597675941070087  0.8330237641319419  0.1624630705676504
  0.5119403963014987  0.3545001462074933  0.9994804260931198
  0.9123667627122983  0.6615887185349713  0.3441894678320255
  0.9156294671476700  0.6662373126866289  0.6581160030879094
  0.4155020284505269  0.3346364442308277  0.6573204523999034
  0.4120362709308181  0.3337921577460064  0.3432090858611093
  0.8924337140599732  0.1482785988144482  0.4998267221305816
  0.3923629228828701  0.8501697481341605  0.5004488179297902
 
             NaN             NaN             NaN
             NaN             NaN             NaN
             NaN             NaN             NaN
             NaN             NaN             NaN
             NaN             NaN             NaN
             NaN             NaN             NaN
             NaN             NaN             NaN
             NaN             NaN             NaN
             NaN             NaN             NaN
             NaN             NaN             NaN
             NaN             NaN             NaN
             NaN             NaN             NaN
             NaN             NaN             NaN
             NaN             NaN             NaN
             NaN             NaN             NaN
             NaN             NaN             NaN
             NaN             NaN             NaN
             NaN             NaN             NaN
             NaN             NaN             NaN
             NaN             NaN             NaN
             NaN             NaN             NaN
             NaN             NaN             NaN
             NaN             NaN             NaN
             NaN             NaN             NaN
