Ta   Zn   N                             
   1.00000000000000     
     0.0001849214363343   -0.0001094356642278   -5.5646282671863601
    -5.8440358461137070    0.0423211339881317    0.0011511027168067
     0.0748407056514080    9.9286976685105195    0.0674922932467339
   Ta   Zn   N 
     4     8    12
Direct
  0.9035293179585754  0.3286911764169020  0.0000115005652319
  0.4034894072125305  0.6668469008019084  0.0016530464340394
  0.0287521299308025  0.8321894325618763  0.4998043337372128
  0.5282196113785061  0.1700490617631751  0.4995479245594941
  0.9530308071782456  0.8375170319112328  0.8302106504451828
  0.8964902739848446  0.8428299576283048  0.1664967987987867
  0.4094714379851183  0.1605306949911486  0.8327583203911795
  0.3991753642062458  0.1566033649355789  0.1659955971446655
  0.0361167886804750  0.3430910061361419  0.6645861447078002
  0.0324357467899739  0.3433785531671026  0.3333051221880647
  0.5383989707823839  0.6593401066682713  0.6692566771317667
  0.5309220287794572  0.6580945760127659  0.3345546864176588
  0.0189909441923163  0.1647045092507846  0.1568777078283230
  0.0179419084097194  0.1698239931989926  0.8418926655413070
  0.0376650797661139  0.6490495099344924  0.0030722598389190
  0.4932335074959339  0.8302287804152214  0.8424785928817530
  0.5190022203821593  0.8347764196845863  0.1577962908500806
  0.5403296201353992  0.3464091506524755  0.0002642110698988
  0.9125318081454702  0.6662293477321823  0.3441981746581628
  0.9153805923118156  0.6674119472700563  0.6575069321034852
  0.4161057435529575  0.3356023093221196  0.6559406107718938
  0.4123840038843434  0.3346213407984299  0.3428702641623072
  0.8923342587333136  0.1519286829216104  0.4991387057993052
  0.3917689912978732  0.8500522547328333  0.4997827708638842
 
             NaN             NaN             NaN
             NaN             NaN             NaN
             NaN             NaN             NaN
             NaN             NaN             NaN
             NaN             NaN             NaN
             NaN             NaN             NaN
             NaN             NaN             NaN
             NaN             NaN             NaN
             NaN             NaN             NaN
             NaN             NaN             NaN
             NaN             NaN             NaN
             NaN             NaN             NaN
             NaN             NaN             NaN
             NaN             NaN             NaN
             NaN             NaN             NaN
             NaN             NaN             NaN
             NaN             NaN             NaN
             NaN             NaN             NaN
             NaN             NaN             NaN
             NaN             NaN             NaN
             NaN             NaN             NaN
             NaN             NaN             NaN
             NaN             NaN             NaN
             NaN             NaN             NaN
