Ta   Zn   N                             
   1.00000000000000     
    -0.0536377091293364   -0.0000432215326297   -5.4990220567411496
    -5.8521597864383361    0.0442921618434931    0.0004495081453220
     0.0755415981906546    9.9806609188546762   -0.0007867061627522
   Ta   Zn   N 
     4     8    12
Direct
  0.0333690175537900  0.3073773683993797  0.0000001096683836
  0.4045323953762880  0.6742990140298181  0.0000000304755821
  0.0246443422436652  0.8317896016493426  0.4999999941014689
  0.5228702114590319  0.1717436360500257  0.4999999953157429
  0.0198005243357214  0.8392157422130730  0.8226220341731177
  0.0198005349987917  0.8392157856801317  0.1773780092853043
  0.5395894948851606  0.1645145708331441  0.8245330515218106
  0.5395896491032728  0.1645147356848186  0.1754670646122942
  0.0353145440877879  0.3393160537784491  0.6711704216396701
  0.0353144579885517  0.3393159894329801  0.3288296840457766
  0.5346979524449685  0.6615753229340345  0.6697787936839065
  0.5346978500455205  0.6615752219782352  0.3302212153121389
  0.9115654823167241  0.1691657144668051  0.1644165105728631
  0.9115656687487301  0.1691658834994250  0.8355835063507255
  0.0010644730978757  0.6475998349704279  1.0000000049472866
  0.4254482412267417  0.8391961248818198  0.8339042851091170
  0.4254482363414860  0.8391965717033701  0.1660960337322867
  0.4005816150683641  0.3287836125847189  0.0000000813580980
  0.9106553566174539  0.6692027242774889  0.3418619470799765
  0.9106555059058691  0.6692028470232275  0.6581376853324671
  0.4106666170394486  0.3349480498161476  0.6585373812479786
  0.4106665174959942  0.3349482206014480  0.3414623750698073
  0.8894642216280801  0.1531178580370097  0.4999999021770573
  0.3897698414243031  0.8510196770638574  0.4999998823487328
 
             NaN             NaN             NaN
             NaN             NaN             NaN
             NaN             NaN             NaN
             NaN             NaN             NaN
             NaN             NaN             NaN
             NaN             NaN             NaN
             NaN             NaN             NaN
             NaN             NaN             NaN
             NaN             NaN             NaN
             NaN             NaN             NaN
             NaN             NaN             NaN
             NaN             NaN             NaN
             NaN             NaN             NaN
             NaN             NaN             NaN
             NaN             NaN             NaN
             NaN             NaN             NaN
             NaN             NaN             NaN
             NaN             NaN             NaN
             NaN             NaN             NaN
             NaN             NaN             NaN
             NaN             NaN             NaN
             NaN             NaN             NaN
             NaN             NaN             NaN
             NaN             NaN             NaN
