Ta   Zn   N                             
   1.00000000000000     
     0.0009641334836124   -0.0001128312607200   -5.5679926882348303
    -5.8355122255654805    0.0435955195015612    0.0011870819256008
     0.0725279451830536    9.9250604047178665    0.0486462270266818
   Ta   Zn   N 
     4     8    12
Direct
  0.9057684779842211  0.3300824499418531  0.9997093377903880
  0.4061162649863162  0.6681800107420035  0.0004863242640447
  0.0285401153059301  0.8317696118895744  0.4998951466547376
  0.5283746453440517  0.1695056796337666  0.4997647675960237
  0.9163257938557988  0.8408049888052297  0.8329866917792129
  0.8986503761722875  0.8427621867296073  0.1661852598665254
  0.4052221866097649  0.1576834005498491  0.8333956908475291
  0.3998831743657199  0.1568021068740588  0.1658852230503456
  0.0355822534758383  0.3431439456543213  0.6651237943140502
  0.0327515704094168  0.3433316387786695  0.3335380524118431
  0.5360968411864967  0.6579153536678163  0.6673522498483252
  0.5320480689015945  0.6575357508484206  0.3345493453106513
  0.0200562324479638  0.1655595306431306  0.1567075295489038
  0.0210322887540116  0.1679394792281912  0.8425461408816131
  0.0417491688790904  0.6505511478463007  0.0012510338276454
  0.5172031285541062  0.8322570894390189  0.8435566662575679
  0.5199152327447649  0.8337870498056646  0.1573918258792088
  0.5422165815900449  0.3476101162474965  0.0002861721655321
  0.9127973503313459  0.6664277844877504  0.3436140624005726
  0.9153359204475839  0.6669134655933604  0.6568761056857541
  0.4153813581827304  0.3343377528277854  0.6564376199794548
  0.4126348257631343  0.3339573146325845  0.3429768271681737
  0.8920575783722291  0.1519617203404728  0.4994440705770938
  0.3919611285519095  0.8491805337012933  0.5000400507851901
 
             NaN             NaN             NaN
             NaN             NaN             NaN
             NaN             NaN             NaN
             NaN             NaN             NaN
             NaN             NaN             NaN
             NaN             NaN             NaN
             NaN             NaN             NaN
             NaN             NaN             NaN
             NaN             NaN             NaN
             NaN             NaN             NaN
             NaN             NaN             NaN
             NaN             NaN             NaN
             NaN             NaN             NaN
             NaN             NaN             NaN
             NaN             NaN             NaN
             NaN             NaN             NaN
             NaN             NaN             NaN
             NaN             NaN             NaN
             NaN             NaN             NaN
             NaN             NaN             NaN
             NaN             NaN             NaN
             NaN             NaN             NaN
             NaN             NaN             NaN
             NaN             NaN             NaN
