Sc   Al   N                             
   1.00000000000000     
    -9.4993970933007912   -0.0019291005920262   -0.0021549543508613
    -4.7479376806959834    8.2277575623659178   -0.0021549431999953
     0.0001801636603726   -0.0000998203087228   -9.9853335976000306
   Sc   Al   N 
     2    34    36
Direct
  0.1099220171355739  0.0932548298677389  0.3835301071208335
  0.2247488221277152  0.2080824043444238  0.1209920991924847
  0.7766457556896285  0.0941532782662691  0.8864130717884393
  0.8862058896722544  0.2070764168205059  0.6403979582364343
  0.4474333437531612  0.0949802648652209  0.3896218314170952
  0.5599539573721870  0.2039573607323959  0.1370433928271240
  0.1077886203571978  0.0911218092699499  0.8842128343431455
  0.2231455928057926  0.2064790881806502  0.6431709500827054
  0.7740195109490031  0.0951907451806164  0.3864171895420370
  0.8810658122923840  0.2072717092123071  0.1333027642591489
  0.4527836024705252  0.0903091231406492  0.8831641844583800
  0.5562179389297270  0.2065986521838568  0.6357432175897344
  0.1116471661258984  0.4307664835089824  0.3896217734934240
  0.2206239311463349  0.5432874582319087  0.1370434151354658
  0.7766391477364181  0.4294157552321280  0.8860627491934352
  0.8874566904395564  0.5398746132645726  0.6355340793924142
  0.4443922266954985  0.4277253597674289  0.3852392239323024
  0.5556515539038074  0.5389850352286913  0.1362234077980844
  0.1069759366073413  0.4361168721163509  0.8831641925082252
  0.2232652132827155  0.5395514289608201  0.6357431953163584
  0.7736163086335495  0.4305106207850571  0.3861875680430416
  0.8858428238490887  0.5431049616184325  0.1367243458545175
  0.4444655855917787  0.4277987917550163  0.8862171820989033
  0.5553236397383259  0.5386571138450336  0.6363080058644783
  0.1118575907066770  0.7573527033400111  0.3864171960219949
  0.2239382401935899  0.8643993144185913  0.1333028650752794
  0.7776159019229354  0.7609491046973744  0.8865943188540513
  0.8888900401101480  0.8722234680443108  0.6362119137021836
  0.4471774107406787  0.7569495376820186  0.3861875974064830
  0.5597714158651499  0.8691763012654476  0.1367243664360345
  0.1108201058836684  0.7599789479888130  0.8864131120555712
  0.2237429788365048  0.8695393362984944  0.6403979634044674
  0.7780538970027848  0.7613871004195971  0.3861443522802404
  0.8889345619012801  0.8722680669132856  0.1352345160917068
  0.4460825294448512  0.7599723428190188  0.8860628036915656
  0.5565411396099407  0.8707901217669729  0.6355341360163322
  0.2314833826556963  0.2148169637941564  0.3331979998561181
  0.1003744460742482  0.0837075615205833  0.0782594600279367
  0.8851648806297803  0.2074802221103269  0.8310751572662909
  0.7783853176691196  0.0942200024993554  0.5789434739135544
  0.5551837946948766  0.2053882244105267  0.3295897626626427
  0.4690954185749945  0.0819671700345665  0.0718860282676488
  0.2230201305924879  0.2063537106839135  0.8406579035356074
  0.1111966480693880  0.0945297699732635  0.5971941813946771
  0.8678656097437951  0.2160317625370141  0.3234214113811689
  0.7771231088751946  0.0932928131160011  0.0772328196557766
  0.5563395232575559  0.2071402261873843  0.8266139189201311
  0.4450529833920243  0.0942328443448019  0.5828110856783653
  0.2220547356247238  0.5385173556166905  0.3295897056149499
  0.0986340163392612  0.4524286942783462  0.0718859622996177
  0.8864642237421805  0.5403583467545943  0.8265434747755052
  0.7773882490294142  0.4277435714726749  0.5788497097457324
  0.5553570223853654  0.5386906131785452  0.3281971094450142
  0.4439530024256158  0.4272861272475268  0.0796713163557996
  0.2238067021289183  0.5396731176473537  0.8266137743997106
  0.1108997393599012  0.4283861412951779  0.5828110210264157
  0.8891566800000419  0.5383526229747559  0.3302033929643144
  0.7774082064758900  0.4296461379368992  0.0778137176672971
  0.5552978311576453  0.5386314512681238  0.8285823983875460
  0.4446762910146020  0.4280094071918796  0.5776222578515018
  0.2326981670764852  0.8511991986016056  0.3234214692538089
  0.1099596856509635  0.7604562727607984  0.0772328531219557
  0.8886926179904648  0.8720261261025755  0.8286311101479598
  0.7781012503240561  0.7614344268341711  0.5778785784097380
  0.5550190606501673  0.8724902130546468  0.3302033977567902
  0.4463129532324643  0.7607413339098699  0.0778137173705602
  0.2241466942042365  0.8684984054651039  0.8310750993820903
  0.1108868625894672  0.7617184609015339  0.5789434714508772
  0.8892656301633650  0.8725991629982701  0.3287118576752306
  0.7778597720167468  0.7611930065732722  0.0790512104577843
  0.5570247556173484  0.8697977604915792  0.8265435119860030
  0.4444104457955405  0.7607213942335420  0.5788496585614809
 
  0.00000000E+00  0.00000000E+00  0.00000000E+00
  0.00000000E+00  0.00000000E+00  0.00000000E+00
  0.00000000E+00  0.00000000E+00  0.00000000E+00
  0.00000000E+00  0.00000000E+00  0.00000000E+00
  0.00000000E+00  0.00000000E+00  0.00000000E+00
  0.00000000E+00  0.00000000E+00  0.00000000E+00
  0.00000000E+00  0.00000000E+00  0.00000000E+00
  0.00000000E+00  0.00000000E+00  0.00000000E+00
  0.00000000E+00  0.00000000E+00  0.00000000E+00
  0.00000000E+00  0.00000000E+00  0.00000000E+00
  0.00000000E+00  0.00000000E+00  0.00000000E+00
  0.00000000E+00  0.00000000E+00  0.00000000E+00
  0.00000000E+00  0.00000000E+00  0.00000000E+00
  0.00000000E+00  0.00000000E+00  0.00000000E+00
  0.00000000E+00  0.00000000E+00  0.00000000E+00
  0.00000000E+00  0.00000000E+00  0.00000000E+00
  0.00000000E+00  0.00000000E+00  0.00000000E+00
  0.00000000E+00  0.00000000E+00  0.00000000E+00
  0.00000000E+00  0.00000000E+00  0.00000000E+00
  0.00000000E+00  0.00000000E+00  0.00000000E+00
  0.00000000E+00  0.00000000E+00  0.00000000E+00
  0.00000000E+00  0.00000000E+00  0.00000000E+00
  0.00000000E+00  0.00000000E+00  0.00000000E+00
  0.00000000E+00  0.00000000E+00  0.00000000E+00
  0.00000000E+00  0.00000000E+00  0.00000000E+00
  0.00000000E+00  0.00000000E+00  0.00000000E+00
  0.00000000E+00  0.00000000E+00  0.00000000E+00
  0.00000000E+00  0.00000000E+00  0.00000000E+00
  0.00000000E+00  0.00000000E+00  0.00000000E+00
  0.00000000E+00  0.00000000E+00  0.00000000E+00
  0.00000000E+00  0.00000000E+00  0.00000000E+00
  0.00000000E+00  0.00000000E+00  0.00000000E+00
  0.00000000E+00  0.00000000E+00  0.00000000E+00
  0.00000000E+00  0.00000000E+00  0.00000000E+00
  0.00000000E+00  0.00000000E+00  0.00000000E+00
  0.00000000E+00  0.00000000E+00  0.00000000E+00
  0.00000000E+00  0.00000000E+00  0.00000000E+00
  0.00000000E+00  0.00000000E+00  0.00000000E+00
  0.00000000E+00  0.00000000E+00  0.00000000E+00
  0.00000000E+00  0.00000000E+00  0.00000000E+00
  0.00000000E+00  0.00000000E+00  0.00000000E+00
  0.00000000E+00  0.00000000E+00  0.00000000E+00
  0.00000000E+00  0.00000000E+00  0.00000000E+00
  0.00000000E+00  0.00000000E+00  0.00000000E+00
  0.00000000E+00  0.00000000E+00  0.00000000E+00
  0.00000000E+00  0.00000000E+00  0.00000000E+00
  0.00000000E+00  0.00000000E+00  0.00000000E+00
  0.00000000E+00  0.00000000E+00  0.00000000E+00
  0.00000000E+00  0.00000000E+00  0.00000000E+00
  0.00000000E+00  0.00000000E+00  0.00000000E+00
  0.00000000E+00  0.00000000E+00  0.00000000E+00
  0.00000000E+00  0.00000000E+00  0.00000000E+00
  0.00000000E+00  0.00000000E+00  0.00000000E+00
  0.00000000E+00  0.00000000E+00  0.00000000E+00
  0.00000000E+00  0.00000000E+00  0.00000000E+00
  0.00000000E+00  0.00000000E+00  0.00000000E+00
  0.00000000E+00  0.00000000E+00  0.00000000E+00
  0.00000000E+00  0.00000000E+00  0.00000000E+00
  0.00000000E+00  0.00000000E+00  0.00000000E+00
  0.00000000E+00  0.00000000E+00  0.00000000E+00
  0.00000000E+00  0.00000000E+00  0.00000000E+00
  0.00000000E+00  0.00000000E+00  0.00000000E+00
  0.00000000E+00  0.00000000E+00  0.00000000E+00
  0.00000000E+00  0.00000000E+00  0.00000000E+00
  0.00000000E+00  0.00000000E+00  0.00000000E+00
  0.00000000E+00  0.00000000E+00  0.00000000E+00
  0.00000000E+00  0.00000000E+00  0.00000000E+00
  0.00000000E+00  0.00000000E+00  0.00000000E+00
  0.00000000E+00  0.00000000E+00  0.00000000E+00
  0.00000000E+00  0.00000000E+00  0.00000000E+00
  0.00000000E+00  0.00000000E+00  0.00000000E+00
  0.00000000E+00  0.00000000E+00  0.00000000E+00
