Sc   Al   N                             
   1.00000000000000     
    -9.6991559719115372   -0.0019127306851882   -0.0021744779251331
    -4.8481604039963067    8.4005347610619161   -0.0021744233068947
     0.0049570750369791   -0.0028618138673842   -9.4117956280285728
   Sc   Al   N 
     2    34    36
Direct
  0.1074356117857675  0.0907699965522468  0.3523058626888940
  0.2234789503333445  0.2068149828105987  0.0934807300063909
  0.7773594033778579  0.0922247747087184  0.8316391009845958
  0.8790788887887544  0.2104578873765988  0.5868611785170685
  0.4537423572280161  0.0917341490587518  0.3336584883815448
  0.5591704254161698  0.2053727250074786  0.0788601796871475
  0.1106480043957774  0.0939816234844173  0.8269275870740813
  0.2255580659120255  0.2088912586603513  0.5848987690803753
  0.7730252782111151  0.0967722535079503  0.3290069634157149
  0.8859232610712127  0.2049344753676294  0.0761046880652856
  0.4470668348086662  0.0930441062926448  0.8281404259885932
  0.5568256813396886  0.2056923280999570  0.5815422239965784
  0.1084004826533942  0.4370759013367760  0.3336577880824123
  0.2220388709014784  0.5425035153473416  0.0788602351827450
  0.7758164474242051  0.4302758617319924  0.8322832939926670
  0.8869353867616070  0.5397489230667603  0.5816360572810737
  0.4441421360766000  0.4274756928772945  0.3320002358144478
  0.5549725907216256  0.5383053925047179  0.0819079842139274
  0.1097105241039387  0.4304003745777720  0.8281410039440118
  0.2223590779929481  0.5401589763499572  0.5815421756276251
  0.7742203519227857  0.4303494676182922  0.3290027799292048
  0.8857916681750808  0.5437286825763081  0.0793527086218546
  0.4448733103626168  0.4282069433789530  0.8296702898808519
  0.5559317128140009  0.5392648936554778  0.5788048481871471
  0.1134388078638011  0.7563583288278721  0.3290067797598013
  0.2216005704444939  0.8692566304013525  0.0761047326192710
  0.7784309804419465  0.7617637891881301  0.8291555907448966
  0.8889508331155582  0.8722841443860858  0.5788607810238844
  0.4470161443850316  0.7575534097771026  0.3290029697317536
  0.5603961636125234  0.8691242200950455  0.0793527226583066
  0.1088914156695182  0.7606925214327802  0.8316392236077661
  0.2271245150146157  0.8624122185790739  0.5868612856016924
  0.7772638228648603  0.7605966876853785  0.3315595501341591
  0.8886256725479456  0.8719585738051379  0.0830344695339065
  0.4469424728346993  0.7591495520991174  0.8322831408163793
  0.5564156323983127  0.8702687771826731  0.5816361667811165
  0.2323770173388766  0.2157098329022205  0.3723007408496528
  0.1011382249162835  0.0844709542470738  0.1231086999822750
  0.8878715645542954  0.2060070919687860  0.8713857149527087
  0.7770265839596320  0.0916815499975741  0.6301646001797394
  0.5563029204862957  0.2066011716172511  0.3797161927209203
  0.4675446052219101  0.0830462070197413  0.1307888613501405
  0.2224838951361932  0.2058167871639114  0.8629487456089748
  0.1104743248262352  0.0938075544611934  0.6161349064422765
  0.8636246861216961  0.2183492170943495  0.3851480293399021
  0.7777208749943867  0.0952289407657574  0.1253740228350964
  0.5550851899417069  0.2064859683445803  0.8757190123696503
  0.4475779582574688  0.0926712872749818  0.6254191565483325
  0.2232680324223537  0.5396363326584108  0.3797164203249750
  0.0997137255441984  0.4508767772706292  0.1307888773790893
  0.8882912549992881  0.5402834090493798  0.8760311344469613
  0.7751445452101677  0.4312307061294121  0.6306239821287605
  0.5556886647544061  0.5390222186282330  0.3751589401984177
  0.4437328077383214  0.4270659208119199  0.1278153063615335
  0.2231528564535381  0.5384185401661767  0.8757188058273400
  0.1093379580017242  0.4309113183568769  0.6254190070002608
  0.8867631761958421  0.5389638266544949  0.3790836600346950
  0.7788889929913054  0.4273106769978909  0.1245485846351428
  0.5549827855260574  0.5383163083355313  0.8796580445894833
  0.4450710090243177  0.4284043095085863  0.6266750990226058
  0.2350163028587815  0.8469576836856945  0.3851480262692490
  0.1118956770062027  0.7610546025348910  0.1253740321410532
  0.8883295579255019  0.8716630551515649  0.8799510958007204
  0.7783705912346193  0.7617040240942572  0.6262144811090948
  0.5556303160229277  0.8700966944004023  0.3790833996583771
  0.4439772512026963  0.7622227046318812  0.1245485617986333
  0.2226739428575328  0.8712048968313155  0.8713857715784812
  0.1083482019043487  0.7603600129273644  0.6301645292973532
  0.8895407718138912  0.8728742370128018  0.3746684437849908
  0.7776070968292501  0.7609412852456501  0.1287624703888213
  0.5569498445049774  0.8716248350574745  0.8760313700320950
  0.4478973001101920  0.7584779761140368  0.6306239849861299
 
  0.00000000E+00  0.00000000E+00  0.00000000E+00
  0.00000000E+00  0.00000000E+00  0.00000000E+00
  0.00000000E+00  0.00000000E+00  0.00000000E+00
  0.00000000E+00  0.00000000E+00  0.00000000E+00
  0.00000000E+00  0.00000000E+00  0.00000000E+00
  0.00000000E+00  0.00000000E+00  0.00000000E+00
  0.00000000E+00  0.00000000E+00  0.00000000E+00
  0.00000000E+00  0.00000000E+00  0.00000000E+00
  0.00000000E+00  0.00000000E+00  0.00000000E+00
  0.00000000E+00  0.00000000E+00  0.00000000E+00
  0.00000000E+00  0.00000000E+00  0.00000000E+00
  0.00000000E+00  0.00000000E+00  0.00000000E+00
  0.00000000E+00  0.00000000E+00  0.00000000E+00
  0.00000000E+00  0.00000000E+00  0.00000000E+00
  0.00000000E+00  0.00000000E+00  0.00000000E+00
  0.00000000E+00  0.00000000E+00  0.00000000E+00
  0.00000000E+00  0.00000000E+00  0.00000000E+00
  0.00000000E+00  0.00000000E+00  0.00000000E+00
  0.00000000E+00  0.00000000E+00  0.00000000E+00
  0.00000000E+00  0.00000000E+00  0.00000000E+00
  0.00000000E+00  0.00000000E+00  0.00000000E+00
  0.00000000E+00  0.00000000E+00  0.00000000E+00
  0.00000000E+00  0.00000000E+00  0.00000000E+00
  0.00000000E+00  0.00000000E+00  0.00000000E+00
  0.00000000E+00  0.00000000E+00  0.00000000E+00
  0.00000000E+00  0.00000000E+00  0.00000000E+00
  0.00000000E+00  0.00000000E+00  0.00000000E+00
  0.00000000E+00  0.00000000E+00  0.00000000E+00
  0.00000000E+00  0.00000000E+00  0.00000000E+00
  0.00000000E+00  0.00000000E+00  0.00000000E+00
  0.00000000E+00  0.00000000E+00  0.00000000E+00
  0.00000000E+00  0.00000000E+00  0.00000000E+00
  0.00000000E+00  0.00000000E+00  0.00000000E+00
  0.00000000E+00  0.00000000E+00  0.00000000E+00
  0.00000000E+00  0.00000000E+00  0.00000000E+00
  0.00000000E+00  0.00000000E+00  0.00000000E+00
  0.00000000E+00  0.00000000E+00  0.00000000E+00
  0.00000000E+00  0.00000000E+00  0.00000000E+00
  0.00000000E+00  0.00000000E+00  0.00000000E+00
  0.00000000E+00  0.00000000E+00  0.00000000E+00
  0.00000000E+00  0.00000000E+00  0.00000000E+00
  0.00000000E+00  0.00000000E+00  0.00000000E+00
  0.00000000E+00  0.00000000E+00  0.00000000E+00
  0.00000000E+00  0.00000000E+00  0.00000000E+00
  0.00000000E+00  0.00000000E+00  0.00000000E+00
  0.00000000E+00  0.00000000E+00  0.00000000E+00
  0.00000000E+00  0.00000000E+00  0.00000000E+00
  0.00000000E+00  0.00000000E+00  0.00000000E+00
  0.00000000E+00  0.00000000E+00  0.00000000E+00
  0.00000000E+00  0.00000000E+00  0.00000000E+00
  0.00000000E+00  0.00000000E+00  0.00000000E+00
  0.00000000E+00  0.00000000E+00  0.00000000E+00
  0.00000000E+00  0.00000000E+00  0.00000000E+00
  0.00000000E+00  0.00000000E+00  0.00000000E+00
  0.00000000E+00  0.00000000E+00  0.00000000E+00
  0.00000000E+00  0.00000000E+00  0.00000000E+00
  0.00000000E+00  0.00000000E+00  0.00000000E+00
  0.00000000E+00  0.00000000E+00  0.00000000E+00
  0.00000000E+00  0.00000000E+00  0.00000000E+00
  0.00000000E+00  0.00000000E+00  0.00000000E+00
  0.00000000E+00  0.00000000E+00  0.00000000E+00
  0.00000000E+00  0.00000000E+00  0.00000000E+00
  0.00000000E+00  0.00000000E+00  0.00000000E+00
  0.00000000E+00  0.00000000E+00  0.00000000E+00
  0.00000000E+00  0.00000000E+00  0.00000000E+00
  0.00000000E+00  0.00000000E+00  0.00000000E+00
  0.00000000E+00  0.00000000E+00  0.00000000E+00
  0.00000000E+00  0.00000000E+00  0.00000000E+00
  0.00000000E+00  0.00000000E+00  0.00000000E+00
  0.00000000E+00  0.00000000E+00  0.00000000E+00
  0.00000000E+00  0.00000000E+00  0.00000000E+00
  0.00000000E+00  0.00000000E+00  0.00000000E+00
