Sc   Al   N                             
   1.00000000000000     
    -9.4970374652122196   -0.0019308237401144   -0.0021528992377801
    -4.7468402220027430    8.2256471507952131   -0.0021528926624269
    -0.0002150452506967    0.0001328714616193   -9.9918332475415763
   Sc   Al   N 
     2    34    36
Direct
  0.1098816170298491  0.0932151436672655  0.3919973922144280
  0.2246978134033029  0.2080314807345758  0.1294243001769786
  0.7766393575062907  0.0941486656837753  0.8946287337367949
  0.8861682408213127  0.2070980536677212  0.6486537729845949
  0.4474468832248633  0.0949565568557702  0.3978451044524220
  0.5599258807479899  0.2039662902906230  0.1452195461438208
  0.1078079910659753  0.0911412514871373  0.8923438598856279
  0.2231648200679501  0.2064981631276694  0.6513724649047390
  0.7740107428384064  0.0952005724761165  0.3945784697011305
  0.8811114822780866  0.2072357655310881  0.1414727018678263
  0.4527145762831637  0.0903448725983225  0.8913910702473302
  0.5562273593525831  0.2065866844953419  0.6439552044216299
  0.1116232414533016  0.4307802255322031  0.3978450821376782
  0.2206329265287650  0.5432591680580074  0.1452194955959172
  0.7766298923017203  0.4294187649884407  0.8942775852069929
  0.8874646613935937  0.5398708626579278  0.6437527285397451
  0.4443842589590119  0.4277175478896353  0.3934437473459269
  0.5556440471122812  0.5389774521394557  0.1444272512198239
  0.1070115716623263  0.4360479040259619  0.8913910127376639
  0.2232534473143559  0.5395605712942881  0.6439551425397880
  0.7736309469997380  0.4304970881456995  0.3943547395206224
  0.8858435765258079  0.5430987777347767  0.1449002808822755
  0.4444666715722079  0.4277999484541937  0.8943958100936271
  0.5553304724420940  0.5386638150183742  0.6444819413108931
  0.1118672538942960  0.7573440055289709  0.3945785268833504
  0.2239024110095968  0.8644448071886330  0.1414726573300413
  0.7776194070315441  0.7609526489421725  0.8947735041912210
  0.8888979798660728  0.8722312819166760  0.6443901919689736
  0.4471638228386325  0.7569642666653849  0.3943546907986644
  0.5597655113871056  0.8691768948622283  0.1449002226930673
  0.1108153848423896  0.7599725928256973  0.8946287454794515
  0.2237647126376388  0.8695016095362718  0.6486538064894845
  0.7780481979363714  0.7613815566643467  0.3943465026671120
  0.8889268828528998  0.8722602566718010  0.1434338282756897
  0.4460855340934557  0.7599631555236144  0.8942775880805272
  0.5565375732660058  0.8707979419344980  0.6437527669543712
  0.2314278142399289  0.2147611639945453  0.3414786462549273
  0.1003742706538944  0.0837074868450216  0.0862162399400077
  0.8851282415774762  0.2074975600767459  0.8392019650822746
  0.7783895751315129  0.0942358898446471  0.5870205631971643
  0.5551616388298797  0.2053914264832599  0.3376719079291277
  0.4690049212361700  0.0820070136945077  0.0800089667696469
  0.2230287380747598  0.2063620027324973  0.8486747150929901
  0.1111893547760090  0.0945225964406546  0.6054837475949810
  0.8679254673770842  0.2159984689642798  0.3314899450830211
  0.7771117869690798  0.0932849569963921  0.0853495263054285
  0.5563335782749874  0.2071258571376617  0.8347334350496709
  0.4450774639658945  0.0942248026702330  0.5909121080463393
  0.2220580883012886  0.5384950860066482  0.3376718702865631
  0.0986736875749230  0.4523382144866019  0.0800090429875979
  0.8864817238712632  0.5403413282545344  0.8346690868158575
  0.7774070987917696  0.4277360252113525  0.5869318204310119
  0.5553496139142027  0.5386831679315165  0.3363058269628212
  0.4439557938780965  0.4272891302603767  0.0877556805353805
  0.2237925447703617  0.5396669775421756  0.8347333431259756
  0.1108915665690233  0.4284107401643382  0.5909121020403916
  0.8891545137562389  0.5383593209635222  0.3382861601612959
  0.7774029489467225  0.4296408487188685  0.0859299607801418
  0.5553026989974228  0.5386361547972172  0.8366671647321979
  0.4446738588666648  0.4280070961397371  0.5857359691100115
  0.2326652206737947  0.8512586525399897  0.3314899262500504
  0.1099515915187439  0.7604451798010601  0.0853496271412411
  0.8886990035573703  0.8720323738294553  0.8367201658695294
  0.7781008514977756  0.7614342841351487  0.5859925187043302
  0.5550258426080532  0.8724879879512386  0.3382861097005190
  0.4463075048998846  0.7607363789238448  0.0859300417379600
  0.2241642970671265  0.8684615182701521  0.8392020804528570
  0.1109026103147812  0.7617229145356177  0.5870205789144336
  0.8892600205157919  0.8725933953031841  0.3368163616207269
  0.7778608409329593  0.7611943041828368  0.0871336689046771
  0.5570079541407651  0.8698151007728114  0.8346691704889722
  0.4444026517959969  0.7607405500251403  0.5869317842986419
 
  0.00000000E+00  0.00000000E+00  0.00000000E+00
  0.00000000E+00  0.00000000E+00  0.00000000E+00
  0.00000000E+00  0.00000000E+00  0.00000000E+00
  0.00000000E+00  0.00000000E+00  0.00000000E+00
  0.00000000E+00  0.00000000E+00  0.00000000E+00
  0.00000000E+00  0.00000000E+00  0.00000000E+00
  0.00000000E+00  0.00000000E+00  0.00000000E+00
  0.00000000E+00  0.00000000E+00  0.00000000E+00
  0.00000000E+00  0.00000000E+00  0.00000000E+00
  0.00000000E+00  0.00000000E+00  0.00000000E+00
  0.00000000E+00  0.00000000E+00  0.00000000E+00
  0.00000000E+00  0.00000000E+00  0.00000000E+00
  0.00000000E+00  0.00000000E+00  0.00000000E+00
  0.00000000E+00  0.00000000E+00  0.00000000E+00
  0.00000000E+00  0.00000000E+00  0.00000000E+00
  0.00000000E+00  0.00000000E+00  0.00000000E+00
  0.00000000E+00  0.00000000E+00  0.00000000E+00
  0.00000000E+00  0.00000000E+00  0.00000000E+00
  0.00000000E+00  0.00000000E+00  0.00000000E+00
  0.00000000E+00  0.00000000E+00  0.00000000E+00
  0.00000000E+00  0.00000000E+00  0.00000000E+00
  0.00000000E+00  0.00000000E+00  0.00000000E+00
  0.00000000E+00  0.00000000E+00  0.00000000E+00
  0.00000000E+00  0.00000000E+00  0.00000000E+00
  0.00000000E+00  0.00000000E+00  0.00000000E+00
  0.00000000E+00  0.00000000E+00  0.00000000E+00
  0.00000000E+00  0.00000000E+00  0.00000000E+00
  0.00000000E+00  0.00000000E+00  0.00000000E+00
  0.00000000E+00  0.00000000E+00  0.00000000E+00
  0.00000000E+00  0.00000000E+00  0.00000000E+00
  0.00000000E+00  0.00000000E+00  0.00000000E+00
  0.00000000E+00  0.00000000E+00  0.00000000E+00
  0.00000000E+00  0.00000000E+00  0.00000000E+00
  0.00000000E+00  0.00000000E+00  0.00000000E+00
  0.00000000E+00  0.00000000E+00  0.00000000E+00
  0.00000000E+00  0.00000000E+00  0.00000000E+00
  0.00000000E+00  0.00000000E+00  0.00000000E+00
  0.00000000E+00  0.00000000E+00  0.00000000E+00
  0.00000000E+00  0.00000000E+00  0.00000000E+00
  0.00000000E+00  0.00000000E+00  0.00000000E+00
  0.00000000E+00  0.00000000E+00  0.00000000E+00
  0.00000000E+00  0.00000000E+00  0.00000000E+00
  0.00000000E+00  0.00000000E+00  0.00000000E+00
  0.00000000E+00  0.00000000E+00  0.00000000E+00
  0.00000000E+00  0.00000000E+00  0.00000000E+00
  0.00000000E+00  0.00000000E+00  0.00000000E+00
  0.00000000E+00  0.00000000E+00  0.00000000E+00
  0.00000000E+00  0.00000000E+00  0.00000000E+00
  0.00000000E+00  0.00000000E+00  0.00000000E+00
  0.00000000E+00  0.00000000E+00  0.00000000E+00
  0.00000000E+00  0.00000000E+00  0.00000000E+00
  0.00000000E+00  0.00000000E+00  0.00000000E+00
  0.00000000E+00  0.00000000E+00  0.00000000E+00
  0.00000000E+00  0.00000000E+00  0.00000000E+00
  0.00000000E+00  0.00000000E+00  0.00000000E+00
  0.00000000E+00  0.00000000E+00  0.00000000E+00
  0.00000000E+00  0.00000000E+00  0.00000000E+00
  0.00000000E+00  0.00000000E+00  0.00000000E+00
  0.00000000E+00  0.00000000E+00  0.00000000E+00
  0.00000000E+00  0.00000000E+00  0.00000000E+00
  0.00000000E+00  0.00000000E+00  0.00000000E+00
  0.00000000E+00  0.00000000E+00  0.00000000E+00
  0.00000000E+00  0.00000000E+00  0.00000000E+00
  0.00000000E+00  0.00000000E+00  0.00000000E+00
  0.00000000E+00  0.00000000E+00  0.00000000E+00
  0.00000000E+00  0.00000000E+00  0.00000000E+00
  0.00000000E+00  0.00000000E+00  0.00000000E+00
  0.00000000E+00  0.00000000E+00  0.00000000E+00
  0.00000000E+00  0.00000000E+00  0.00000000E+00
  0.00000000E+00  0.00000000E+00  0.00000000E+00
  0.00000000E+00  0.00000000E+00  0.00000000E+00
  0.00000000E+00  0.00000000E+00  0.00000000E+00
