Sc   Al   N                             
   1.00000000000000     
    -9.9726593374713790   -0.0019179001294528   -0.0021683125858894
    -4.9857685098131661    8.6369294817578357   -0.0021682716941896
     0.0056562274728965   -0.0032650337113886   -8.5638177112586042
   Sc   Al   N 
     2    34    36
Direct
  0.1082175064071649  0.0915497750023775  0.3578189867993444
  0.2247634493039428  0.2080954662854211  0.1007277783984861
  0.7773529023611516  0.0925790865057863  0.8470615848469336
  0.8821363014431398  0.2089239147293753  0.6040311612994103
  0.4513580970969073  0.0926029036667018  0.3522017543623193
  0.5589724634621689  0.2057273315250043  0.0951242386658606
  0.1093773722368638  0.0927104035893080  0.8484961216758649
  0.2242994015094624  0.2076329666515520  0.6048573800499994
  0.7736538100885255  0.0956094266731782  0.3468208478367885
  0.8833943340460380  0.2066234985053370  0.0924108485238051
  0.4495225306295580  0.0918883348805508  0.8445495396449942
  0.5565409450947527  0.2060163723405424  0.5986105231585341
  0.1092696761759129  0.4346914593561166  0.3522020584996710
  0.2223939434863667  0.5423061330299603  0.0951242093180511
  0.7758497072418749  0.4301451414277793  0.8478007153389271
  0.8870215572869853  0.5396798824916971  0.5983742249380910
  0.4442602764568022  0.4275933546450617  0.3486138237613545
  0.5550804834903857  0.5384139153649343  0.0975066061183796
  0.1085551351463536  0.4328558534417226  0.8445492297159234
  0.2226829115262419  0.5398744474492787  0.5986105335928045
  0.7743932634942396  0.4306723559172951  0.3464181255040373
  0.8856038528970345  0.5433388123121219  0.0957838727556393
  0.4448694242772149  0.4282025011083164  0.8455939443729150
  0.5557219201951611  0.5390553713676667  0.5963610524947711
  0.1122762915413844  0.7569869262912619  0.3468208324987785
  0.2232900474447845  0.8667278569583488  0.0924109360794532
  0.7783180216577108  0.7616512045119990  0.8448497359063438
  0.8889404203042162  0.8722739379269200  0.5958235149427793
  0.4473392166033037  0.7577263295042371  0.3464180842341804
  0.5600050124206817  0.8689377060736518  0.0957838583079322
  0.1092459466077429  0.7606860547425853  0.8470615862428374
  0.2255904449682973  0.8654697398669882  0.6040310547552252
  0.7774613208137069  0.7607945250348962  0.3487865936092902
  0.8885389613396626  0.8718725051641059  0.0983305389670051
  0.4468120269037783  0.7591827944077139  0.8478007516376067
  0.5563463371773096  0.8703550787557148  0.5983742731245982
  0.2308326881510396  0.2141664879115268  0.3635864713590706
  0.1024555812208447  0.0857884927025765  0.0993718535476447
  0.8857284480082654  0.2071669700680374  0.8563487567480763
  0.7773554316404656  0.0921006527775745  0.6134195550095214
  0.5559586471429085  0.2064980395147984  0.3634441809601086
  0.4648776201655167  0.0844294753339909  0.1102750134753308
  0.2232472960242831  0.2065809690761924  0.8472171325720623
  0.1101413536069273  0.0934742765272176  0.6146199458082364
  0.8682876328558038  0.2158839177832803  0.3652958634713315
  0.7774999331915495  0.0944310622769606  0.1089426151686013
  0.5556267947314240  0.2069750122249943  0.8585687060882208
  0.4476414222715235  0.0925752026841664  0.6102665093657436
  0.2231645323194869  0.5392923632200279  0.3634442927868946
  0.1010960409794777  0.4482115949220571  0.1102750131342347
  0.8873068050643482  0.5407922470941813  0.8588465221588066
  0.7754047772097934  0.4304801337573991  0.6138538217753791
  0.5555877207273170  0.5389215087102741  0.3588031716504787
  0.4438576672794241  0.4271905217464891  0.1115828342317755
  0.2236415197102701  0.5389604229793861  0.8585686417458476
  0.1092422260876660  0.4309744611589750  0.6102665498033701
  0.8872941038935451  0.5388565399656642  0.3630569427331807
  0.7782873031785726  0.4282535888785688  0.1082017774357311
  0.5549874835879294  0.5383211433556809  0.8632229489320267
  0.4450969881894338  0.4284299559819047  0.6102041588236560
  0.2325502734927909  0.8516213802047261  0.3652958320146098
  0.1110980746837456  0.7608331620683870  0.1089426583310313
  0.8883048971995322  0.8716386641011269  0.8631540390455328
  0.7783756947267904  0.7617087777061116  0.6093778409092465
  0.5555227313033839  0.8706278506318199  0.3630569065291454
  0.4449206748918186  0.7616202685977385  0.1082017619585827
  0.2238334396267945  0.8690620576436388  0.8563487503496958
  0.1087676754423867  0.7606884109142626  0.6134195777123566
  0.8893640523955924  0.8726977701733745  0.3589862175039613
  0.7776843857341191  0.7610179427746786  0.1128375183761605
  0.5574584761589492  0.8706405691453014  0.8588466083916870
  0.4471471734459911  0.7587377092240786  0.6138538219335103
 
  0.00000000E+00  0.00000000E+00  0.00000000E+00
  0.00000000E+00  0.00000000E+00  0.00000000E+00
  0.00000000E+00  0.00000000E+00  0.00000000E+00
  0.00000000E+00  0.00000000E+00  0.00000000E+00
  0.00000000E+00  0.00000000E+00  0.00000000E+00
  0.00000000E+00  0.00000000E+00  0.00000000E+00
  0.00000000E+00  0.00000000E+00  0.00000000E+00
  0.00000000E+00  0.00000000E+00  0.00000000E+00
  0.00000000E+00  0.00000000E+00  0.00000000E+00
  0.00000000E+00  0.00000000E+00  0.00000000E+00
  0.00000000E+00  0.00000000E+00  0.00000000E+00
  0.00000000E+00  0.00000000E+00  0.00000000E+00
  0.00000000E+00  0.00000000E+00  0.00000000E+00
  0.00000000E+00  0.00000000E+00  0.00000000E+00
  0.00000000E+00  0.00000000E+00  0.00000000E+00
  0.00000000E+00  0.00000000E+00  0.00000000E+00
  0.00000000E+00  0.00000000E+00  0.00000000E+00
  0.00000000E+00  0.00000000E+00  0.00000000E+00
  0.00000000E+00  0.00000000E+00  0.00000000E+00
  0.00000000E+00  0.00000000E+00  0.00000000E+00
  0.00000000E+00  0.00000000E+00  0.00000000E+00
  0.00000000E+00  0.00000000E+00  0.00000000E+00
  0.00000000E+00  0.00000000E+00  0.00000000E+00
  0.00000000E+00  0.00000000E+00  0.00000000E+00
  0.00000000E+00  0.00000000E+00  0.00000000E+00
  0.00000000E+00  0.00000000E+00  0.00000000E+00
  0.00000000E+00  0.00000000E+00  0.00000000E+00
  0.00000000E+00  0.00000000E+00  0.00000000E+00
  0.00000000E+00  0.00000000E+00  0.00000000E+00
  0.00000000E+00  0.00000000E+00  0.00000000E+00
  0.00000000E+00  0.00000000E+00  0.00000000E+00
  0.00000000E+00  0.00000000E+00  0.00000000E+00
  0.00000000E+00  0.00000000E+00  0.00000000E+00
  0.00000000E+00  0.00000000E+00  0.00000000E+00
  0.00000000E+00  0.00000000E+00  0.00000000E+00
  0.00000000E+00  0.00000000E+00  0.00000000E+00
  0.00000000E+00  0.00000000E+00  0.00000000E+00
  0.00000000E+00  0.00000000E+00  0.00000000E+00
  0.00000000E+00  0.00000000E+00  0.00000000E+00
  0.00000000E+00  0.00000000E+00  0.00000000E+00
  0.00000000E+00  0.00000000E+00  0.00000000E+00
  0.00000000E+00  0.00000000E+00  0.00000000E+00
  0.00000000E+00  0.00000000E+00  0.00000000E+00
  0.00000000E+00  0.00000000E+00  0.00000000E+00
  0.00000000E+00  0.00000000E+00  0.00000000E+00
  0.00000000E+00  0.00000000E+00  0.00000000E+00
  0.00000000E+00  0.00000000E+00  0.00000000E+00
  0.00000000E+00  0.00000000E+00  0.00000000E+00
  0.00000000E+00  0.00000000E+00  0.00000000E+00
  0.00000000E+00  0.00000000E+00  0.00000000E+00
  0.00000000E+00  0.00000000E+00  0.00000000E+00
  0.00000000E+00  0.00000000E+00  0.00000000E+00
  0.00000000E+00  0.00000000E+00  0.00000000E+00
  0.00000000E+00  0.00000000E+00  0.00000000E+00
  0.00000000E+00  0.00000000E+00  0.00000000E+00
  0.00000000E+00  0.00000000E+00  0.00000000E+00
  0.00000000E+00  0.00000000E+00  0.00000000E+00
  0.00000000E+00  0.00000000E+00  0.00000000E+00
  0.00000000E+00  0.00000000E+00  0.00000000E+00
  0.00000000E+00  0.00000000E+00  0.00000000E+00
  0.00000000E+00  0.00000000E+00  0.00000000E+00
  0.00000000E+00  0.00000000E+00  0.00000000E+00
  0.00000000E+00  0.00000000E+00  0.00000000E+00
  0.00000000E+00  0.00000000E+00  0.00000000E+00
  0.00000000E+00  0.00000000E+00  0.00000000E+00
  0.00000000E+00  0.00000000E+00  0.00000000E+00
  0.00000000E+00  0.00000000E+00  0.00000000E+00
  0.00000000E+00  0.00000000E+00  0.00000000E+00
  0.00000000E+00  0.00000000E+00  0.00000000E+00
  0.00000000E+00  0.00000000E+00  0.00000000E+00
  0.00000000E+00  0.00000000E+00  0.00000000E+00
  0.00000000E+00  0.00000000E+00  0.00000000E+00
