Sc   Al   N                             
   1.00000000000000     
    -9.9329159761577586   -0.0019213464256293   -0.0021642023597269
    -4.9658296063185228    8.6025197076046727   -0.0021641706190529
     0.0056372396768828   -0.0032540660471689   -8.6855761319213833
   Sc   Al   N 
     2    34    36
Direct
  0.1086382496206895  0.0919702549009003  0.3581375781454454
  0.2252401979249541  0.2085746709103873  0.1008566704374019
  0.7765773083014835  0.0941182910431309  0.8633308470219063
  0.8841201665091631  0.2079222434160783  0.6173866640089258
  0.4495154026301691  0.0936093520998895  0.3702398072572777
  0.5598343711046780  0.2039051787602446  0.1158236620396593
  0.1089551148193948  0.0922885087320680  0.8552996988375199
  0.2236978515736610  0.2070311079780041  0.6125829263764970
  0.7744168427443654  0.0941529933975431  0.3672739303135018
  0.8815585139458406  0.2075315729045641  0.1097472119016913
  0.4516934380824082  0.0907930513195865  0.8569310259459257
  0.5559155029038578  0.2077921261432749  0.6146328016812248
  0.1102760570793464  0.4328487759328752  0.3702396853465402
  0.2205717331511323  0.5431677175296485  0.1158236873700176
  0.7770509361118769  0.4297043447717286  0.8635491603192591
  0.8861883259618324  0.5411274056420936  0.6137774348670391
  0.4448478034986678  0.4281812703113275  0.3628307043636028
  0.5560198599330448  0.5393531834924232  0.1130684993097546
  0.1074596511793047  0.4350268090386820  0.8569311758533757
  0.2244587862520291  0.5392488771173873  0.6146327769018356
  0.7730964874448816  0.4310074580345074  0.3665651744932887
  0.8862014664348337  0.5420045651815784  0.1162362548895501
  0.4442939401045365  0.4276273546741081  0.8670535762816769
  0.5548412082999121  0.5381745889062231  0.6175113570592501
  0.1108197724415803  0.7577502011556874  0.3672739173654591
  0.2241982402421883  0.8648917625344978  0.1097473440202350
  0.7774531684070638  0.7607864704199443  0.8665797919720220
  0.8883190137572683  0.8716523184079321  0.6166769279206150
  0.4476739626743438  0.7564299233319431  0.3665651763882778
  0.5586712728915018  0.8695346832505635  0.1162363088879701
  0.1107849089710840  0.7599105977774059  0.8633308714674186
  0.2245889732343542  0.8674534344243909  0.6173865531573384
  0.7783525971012750  0.7616859885806733  0.3638303657690827
  0.8891682254960642  0.8725014520003143  0.1132193301344557
  0.4463710624002601  0.7603842062893875  0.8635491593821882
  0.5577939887733976  0.8695217079054913  0.6137773871107086
  0.2310251170825026  0.2143584547673214  0.3562362277727402
  0.1022944405039254  0.0856277694683598  0.0940585094160866
  0.8856621747118609  0.2074224791236148  0.8453449463978018
  0.7778528223358165  0.0930072432636209  0.5964450882446641
  0.5558330233858015  0.2051599726787856  0.3461233417749554
  0.4657343079283436  0.0836849760794465  0.0883229314589329
  0.2231094211470364  0.2064427285312078  0.8435105044798519
  0.1101236051938699  0.0934569535525398  0.6093831134127328
  0.8678860724967521  0.2157877072342487  0.3437954681824920
  0.7772054608439234  0.0934610124696746  0.0911662874339498
  0.5559530476419070  0.2082594563201070  0.8411570402930550
  0.4473811879732992  0.0929429263721460  0.5998405721580511
  0.2218266341591573  0.5391663093736270  0.3461233614390409
  0.1003517377173253  0.4490674036724229  0.0883229155056071
  0.8857882023387447  0.5415337970143952  0.8405924900874950
  0.7757874264534053  0.4291694815233242  0.5960697269846733
  0.5557323936570526  0.5390655940100331  0.3417108577359471
  0.4438607232727776  0.4271940581594507  0.0967238703259810
  0.2249261388960164  0.5392863580760334  0.8411570123134524
  0.1096095323782009  0.4307145423559078  0.5998405938113791
  0.8887285568704328  0.5380409013402812  0.3470500235434670
  0.7778601009934150  0.4295213560735363  0.0917064159205836
  0.5548400129028934  0.5381733130590263  0.8458144796887552
  0.4450786847877239  0.4284120176533364  0.5909343400724509
  0.2324542358518329  0.8512196388631423  0.3437954029798362
  0.1101276218644784  0.7605388077880022  0.0911662470284469
  0.8881055878422757  0.8714389788288273  0.8448910998889900
  0.7783955747071545  0.7617289363658486  0.5909996202032062
  0.5547075664116718  0.8720619159206322  0.3470500377384553
  0.4461880898656290  0.7611934119276214  0.0917064105207501
  0.2240891849052815  0.8689954647116025  0.8453450053895537
  0.1096738517783038  0.7611861657596677  0.5964451071960895
  0.8895694741383480  0.8729028135480661  0.3430892452513277
  0.7776365224026804  0.7609699361905342  0.0966906966046182
  0.5582004125478548  0.8691216013416323  0.8405924897168475
  0.4458361987853507  0.7591207091650745  0.5960697429112543
 
  0.00000000E+00  0.00000000E+00  0.00000000E+00
  0.00000000E+00  0.00000000E+00  0.00000000E+00
  0.00000000E+00  0.00000000E+00  0.00000000E+00
  0.00000000E+00  0.00000000E+00  0.00000000E+00
  0.00000000E+00  0.00000000E+00  0.00000000E+00
  0.00000000E+00  0.00000000E+00  0.00000000E+00
  0.00000000E+00  0.00000000E+00  0.00000000E+00
  0.00000000E+00  0.00000000E+00  0.00000000E+00
  0.00000000E+00  0.00000000E+00  0.00000000E+00
  0.00000000E+00  0.00000000E+00  0.00000000E+00
  0.00000000E+00  0.00000000E+00  0.00000000E+00
  0.00000000E+00  0.00000000E+00  0.00000000E+00
  0.00000000E+00  0.00000000E+00  0.00000000E+00
  0.00000000E+00  0.00000000E+00  0.00000000E+00
  0.00000000E+00  0.00000000E+00  0.00000000E+00
  0.00000000E+00  0.00000000E+00  0.00000000E+00
  0.00000000E+00  0.00000000E+00  0.00000000E+00
  0.00000000E+00  0.00000000E+00  0.00000000E+00
  0.00000000E+00  0.00000000E+00  0.00000000E+00
  0.00000000E+00  0.00000000E+00  0.00000000E+00
  0.00000000E+00  0.00000000E+00  0.00000000E+00
  0.00000000E+00  0.00000000E+00  0.00000000E+00
  0.00000000E+00  0.00000000E+00  0.00000000E+00
  0.00000000E+00  0.00000000E+00  0.00000000E+00
  0.00000000E+00  0.00000000E+00  0.00000000E+00
  0.00000000E+00  0.00000000E+00  0.00000000E+00
  0.00000000E+00  0.00000000E+00  0.00000000E+00
  0.00000000E+00  0.00000000E+00  0.00000000E+00
  0.00000000E+00  0.00000000E+00  0.00000000E+00
  0.00000000E+00  0.00000000E+00  0.00000000E+00
  0.00000000E+00  0.00000000E+00  0.00000000E+00
  0.00000000E+00  0.00000000E+00  0.00000000E+00
  0.00000000E+00  0.00000000E+00  0.00000000E+00
  0.00000000E+00  0.00000000E+00  0.00000000E+00
  0.00000000E+00  0.00000000E+00  0.00000000E+00
  0.00000000E+00  0.00000000E+00  0.00000000E+00
  0.00000000E+00  0.00000000E+00  0.00000000E+00
  0.00000000E+00  0.00000000E+00  0.00000000E+00
  0.00000000E+00  0.00000000E+00  0.00000000E+00
  0.00000000E+00  0.00000000E+00  0.00000000E+00
  0.00000000E+00  0.00000000E+00  0.00000000E+00
  0.00000000E+00  0.00000000E+00  0.00000000E+00
  0.00000000E+00  0.00000000E+00  0.00000000E+00
  0.00000000E+00  0.00000000E+00  0.00000000E+00
  0.00000000E+00  0.00000000E+00  0.00000000E+00
  0.00000000E+00  0.00000000E+00  0.00000000E+00
  0.00000000E+00  0.00000000E+00  0.00000000E+00
  0.00000000E+00  0.00000000E+00  0.00000000E+00
  0.00000000E+00  0.00000000E+00  0.00000000E+00
  0.00000000E+00  0.00000000E+00  0.00000000E+00
  0.00000000E+00  0.00000000E+00  0.00000000E+00
  0.00000000E+00  0.00000000E+00  0.00000000E+00
  0.00000000E+00  0.00000000E+00  0.00000000E+00
  0.00000000E+00  0.00000000E+00  0.00000000E+00
  0.00000000E+00  0.00000000E+00  0.00000000E+00
  0.00000000E+00  0.00000000E+00  0.00000000E+00
  0.00000000E+00  0.00000000E+00  0.00000000E+00
  0.00000000E+00  0.00000000E+00  0.00000000E+00
  0.00000000E+00  0.00000000E+00  0.00000000E+00
  0.00000000E+00  0.00000000E+00  0.00000000E+00
  0.00000000E+00  0.00000000E+00  0.00000000E+00
  0.00000000E+00  0.00000000E+00  0.00000000E+00
  0.00000000E+00  0.00000000E+00  0.00000000E+00
  0.00000000E+00  0.00000000E+00  0.00000000E+00
  0.00000000E+00  0.00000000E+00  0.00000000E+00
  0.00000000E+00  0.00000000E+00  0.00000000E+00
  0.00000000E+00  0.00000000E+00  0.00000000E+00
  0.00000000E+00  0.00000000E+00  0.00000000E+00
  0.00000000E+00  0.00000000E+00  0.00000000E+00
  0.00000000E+00  0.00000000E+00  0.00000000E+00
  0.00000000E+00  0.00000000E+00  0.00000000E+00
  0.00000000E+00  0.00000000E+00  0.00000000E+00
