Sc   Al   N                             
   1.00000000000000     
    -9.4970294703373010   -0.0019058380928354   -0.0021826983774580
    -4.7467807096173535    8.2256640783326791   -0.0021826254571682
    -0.0001896161536948    0.0001061793080066   -9.9918350597982570
   Sc   Al   N 
     2    34    36
Direct
  0.1086144868144885  0.0919477603578329  0.3213707823313925
  0.2234287907141592  0.2067620291433059  0.0587961202335094
  0.7770841071172470  0.0933920666457766  0.8068419123042787
  0.8805975352885582  0.2096332475526239  0.5594044501220026
  0.4521999216052919  0.0927429112916300  0.3093220118639479
  0.5593012020325645  0.2047777098252155  0.0562200885551007
  0.1101463997853855  0.0934796201330457  0.7994243368986531
  0.2255036726479176  0.2088369322883921  0.5584521699207272
  0.7733856100853131  0.0960116113204919  0.3055795044974232
  0.8858641420880957  0.2050218966133386  0.0529517607976615
  0.4471442003665871  0.0928802089286975  0.8021426422561646
  0.5566724149364859  0.2058301234136550  0.5561690267307213
  0.1094095291951689  0.4355332925928153  0.3093219848587339
  0.2214442997941077  0.5426345471273493  0.0562201695518638
  0.7767742535118174  0.4291802237010316  0.8070440736617073
  0.8872262389338772  0.5400154188223922  0.5565198564126845
  0.4443846434484158  0.4277179052295423  0.3073637130416031
  0.5552635703665061  0.5385968995023234  0.0564513420909023
  0.1095469122235784  0.4304774749769820  0.8021426034613270
  0.2224968792121658  0.5400055124166627  0.5561689059350599
  0.7735459523870531  0.4308018544716177  0.3058984378192946
  0.8861478303650685  0.5430142156940647  0.0564436015352143
  0.4444135349310585  0.4277467993045505  0.8064088243474714
  0.5556921093957712  0.5390252752919622  0.5560256041877665
  0.1126784044715166  0.7567187839322074  0.3055793686678214
  0.2216886403387619  0.8691973881660644  0.0529519313507194
  0.7779809011791059  0.7613142700007955  0.8063167341774999
  0.8888449625216950  0.8721783469749695  0.5564029987334607
  0.4474684823147186  0.7568793959265250  0.3058984373203089
  0.5596809027582097  0.8694811446344133  0.0564436885037836
  0.1100586825473329  0.7604174292396522  0.8068416910247151
  0.2263001404769298  0.8639307507180902  0.5594042799665289
  0.7776678487404354  0.7610010428545309  0.3063709645927872
  0.8889276028634683  0.8722609858436314  0.0573530876112969
  0.4458468097926627  0.7601076181732012  0.8070442021734507
  0.5566820675489836  0.8705596176611650  0.5565198459486282
  0.2329373126172030  0.2162703976312201  0.3645797685597216
  0.1018839113847534  0.0852176437339480  0.1093163333298222
  0.8882342966224712  0.2057534318525356  0.8598865855202575
  0.7769782658148969  0.0928527711225442  0.6160648639608297
  0.5561994673734034  0.2066931568487007  0.3654487974827703
  0.4653855103922950  0.0839799597623312  0.1193073898188359
  0.2221223690747678  0.2054556754788308  0.8453098962968255
  0.1102827278294143  0.0936163236003367  0.6021227151240822
  0.8643074710886012  0.2179713056493497  0.3707892503739032
  0.7781498375483977  0.0945869838831115  0.1131285161067908
  0.5549223287989520  0.2057420932755534  0.8637791323825681
  0.4481834493109602  0.0924806002769003  0.6115960510158729
  0.2233598799589416  0.5395327633518576  0.3654488716874269
  0.1006466193638431  0.4487188263623523  0.1193073783681982
  0.8889090820528409  0.5392380649666464  0.8638679810277736
  0.7763040702920634  0.4301627082883641  0.6161300115222943
  0.5554509246918826  0.5387840783911955  0.3636658206906773
  0.4440517271935178  0.4273851044056300  0.1139831214159628
  0.2224087115052740  0.5382558057763092  0.8637788895310692
  0.1091473290961034  0.4315168455405640  0.6115961168834758
  0.8870047176638423  0.5392420295610663  0.3648690022032426
  0.7782852328860486  0.4274900846321259  0.1125141334159991
  0.5552111054626536  0.5385446603260462  0.8648068058869711
  0.4446121534482899  0.4279457392149197  0.6140791414106985
  0.2346380289591963  0.8476409500987216  0.3707891820862983
  0.1112535566678545  0.7614831352874276  0.1131289250859595
  0.8886382538047997  0.8719713668865410  0.8650627459983085
  0.7780084781059102  0.7613418096608768  0.6141319998319972
  0.5559087808998058  0.8703380424495180  0.3648688962648592
  0.4441567003895344  0.7616187710561348  0.1125139402422803
  0.2224202807557845  0.8715676344842009  0.8598858835311489
  0.1095193428669745  0.7603117031513662  0.6160654144840976
  0.8893558383863081  0.8726892300329396  0.3630442081951273
  0.7779616752866900  0.7612951656913154  0.1144936385576401
  0.5559048183499442  0.8722424476282740  0.8638677763936755
  0.4468291834823361  0.7596375708027523  0.6161298848201540
 
  0.00000000E+00  0.00000000E+00  0.00000000E+00
  0.00000000E+00  0.00000000E+00  0.00000000E+00
  0.00000000E+00  0.00000000E+00  0.00000000E+00
  0.00000000E+00  0.00000000E+00  0.00000000E+00
  0.00000000E+00  0.00000000E+00  0.00000000E+00
  0.00000000E+00  0.00000000E+00  0.00000000E+00
  0.00000000E+00  0.00000000E+00  0.00000000E+00
  0.00000000E+00  0.00000000E+00  0.00000000E+00
  0.00000000E+00  0.00000000E+00  0.00000000E+00
  0.00000000E+00  0.00000000E+00  0.00000000E+00
  0.00000000E+00  0.00000000E+00  0.00000000E+00
  0.00000000E+00  0.00000000E+00  0.00000000E+00
  0.00000000E+00  0.00000000E+00  0.00000000E+00
  0.00000000E+00  0.00000000E+00  0.00000000E+00
  0.00000000E+00  0.00000000E+00  0.00000000E+00
  0.00000000E+00  0.00000000E+00  0.00000000E+00
  0.00000000E+00  0.00000000E+00  0.00000000E+00
  0.00000000E+00  0.00000000E+00  0.00000000E+00
  0.00000000E+00  0.00000000E+00  0.00000000E+00
  0.00000000E+00  0.00000000E+00  0.00000000E+00
  0.00000000E+00  0.00000000E+00  0.00000000E+00
  0.00000000E+00  0.00000000E+00  0.00000000E+00
  0.00000000E+00  0.00000000E+00  0.00000000E+00
  0.00000000E+00  0.00000000E+00  0.00000000E+00
  0.00000000E+00  0.00000000E+00  0.00000000E+00
  0.00000000E+00  0.00000000E+00  0.00000000E+00
  0.00000000E+00  0.00000000E+00  0.00000000E+00
  0.00000000E+00  0.00000000E+00  0.00000000E+00
  0.00000000E+00  0.00000000E+00  0.00000000E+00
  0.00000000E+00  0.00000000E+00  0.00000000E+00
  0.00000000E+00  0.00000000E+00  0.00000000E+00
  0.00000000E+00  0.00000000E+00  0.00000000E+00
  0.00000000E+00  0.00000000E+00  0.00000000E+00
  0.00000000E+00  0.00000000E+00  0.00000000E+00
  0.00000000E+00  0.00000000E+00  0.00000000E+00
  0.00000000E+00  0.00000000E+00  0.00000000E+00
  0.00000000E+00  0.00000000E+00  0.00000000E+00
  0.00000000E+00  0.00000000E+00  0.00000000E+00
  0.00000000E+00  0.00000000E+00  0.00000000E+00
  0.00000000E+00  0.00000000E+00  0.00000000E+00
  0.00000000E+00  0.00000000E+00  0.00000000E+00
  0.00000000E+00  0.00000000E+00  0.00000000E+00
  0.00000000E+00  0.00000000E+00  0.00000000E+00
  0.00000000E+00  0.00000000E+00  0.00000000E+00
  0.00000000E+00  0.00000000E+00  0.00000000E+00
  0.00000000E+00  0.00000000E+00  0.00000000E+00
  0.00000000E+00  0.00000000E+00  0.00000000E+00
  0.00000000E+00  0.00000000E+00  0.00000000E+00
  0.00000000E+00  0.00000000E+00  0.00000000E+00
  0.00000000E+00  0.00000000E+00  0.00000000E+00
  0.00000000E+00  0.00000000E+00  0.00000000E+00
  0.00000000E+00  0.00000000E+00  0.00000000E+00
  0.00000000E+00  0.00000000E+00  0.00000000E+00
  0.00000000E+00  0.00000000E+00  0.00000000E+00
  0.00000000E+00  0.00000000E+00  0.00000000E+00
  0.00000000E+00  0.00000000E+00  0.00000000E+00
  0.00000000E+00  0.00000000E+00  0.00000000E+00
  0.00000000E+00  0.00000000E+00  0.00000000E+00
  0.00000000E+00  0.00000000E+00  0.00000000E+00
  0.00000000E+00  0.00000000E+00  0.00000000E+00
  0.00000000E+00  0.00000000E+00  0.00000000E+00
  0.00000000E+00  0.00000000E+00  0.00000000E+00
  0.00000000E+00  0.00000000E+00  0.00000000E+00
  0.00000000E+00  0.00000000E+00  0.00000000E+00
  0.00000000E+00  0.00000000E+00  0.00000000E+00
  0.00000000E+00  0.00000000E+00  0.00000000E+00
  0.00000000E+00  0.00000000E+00  0.00000000E+00
  0.00000000E+00  0.00000000E+00  0.00000000E+00
  0.00000000E+00  0.00000000E+00  0.00000000E+00
  0.00000000E+00  0.00000000E+00  0.00000000E+00
  0.00000000E+00  0.00000000E+00  0.00000000E+00
  0.00000000E+00  0.00000000E+00  0.00000000E+00
