Sc   Al   N                             
   1.00000000000000     
    -9.4992943952081017   -0.0019092843890118   -0.0021785881512956
    -4.7478788501602764    8.2276623831001601   -0.0021785243820314
     0.0002256115090146   -0.0001380119624749   -9.9857016571749018
   Sc   Al   N 
     2    34    36
Direct
  0.1085560186529904  0.0918887920165687  0.3374899444618151
  0.2233820875896981  0.2067156254969333  0.0749559083103151
  0.7770920014918588  0.0933770088477459  0.8227293742048545
  0.8805223209188213  0.2096674910178962  0.5753090609360214
  0.4522440628124400  0.0927015838419223  0.3251657401950467
  0.5592876663808823  0.2047851772131466  0.0720522702320849
  0.1101655084415825  0.0934985379678821  0.8153002519562307
  0.2255206899817352  0.2088539124573146  0.5742492704158408
  0.7733516582816335  0.0960193784300145  0.3214278150251744
  0.8858764091169249  0.2049929897227543  0.0688524037209106
  0.4470976789748065  0.0929023316548054  0.8180776968337256
  0.5566614596149861  0.2058208346136041  0.5720600391770461
  0.1093684786079194  0.4355772930197048  0.3251657929794334
  0.2214518958742175  0.5426211171079416  0.0720522986800347
  0.7767683284994789  0.4291850578711802  0.8229387079268236
  0.8872280512850921  0.5400010324660229  0.5724105557270533
  0.4443727220900158  0.4277059648319792  0.3232377256874841
  0.5552542787210371  0.5385878760506344  0.0723278017398883
  0.1095692044707874  0.4304308887619399  0.8180777354914781
  0.2224875339609866  0.5399948832278199  0.5720600164203731
  0.7735372685692994  0.4307991404125033  0.3217468913018351
  0.8861310115311269  0.5430264522213619  0.0722820831355548
  0.4444192693869056  0.4277525455660367  0.8222575702668209
  0.5556927351921033  0.5390262984359353  0.5718754959702963
  0.1126862052371536  0.7566849731639991  0.3214277700710682
  0.2216597503390432  0.8692096527636437  0.0688523460480113
  0.7779859324911698  0.7613193478665252  0.8221614971485707
  0.8888437873845731  0.8721771025320351  0.5722531006521976
  0.4474658382604702  0.7568706706944539  0.3217468014289011
  0.5596929393420425  0.8694643834843845  0.0722820554359629
  0.1100438613419357  0.7604252571894037  0.8227293856923197
  0.2263342706551157  0.8638556131443380  0.5753089620117962
  0.7776568123823466  0.7609902908268467  0.3222489238970638
  0.8889164104899763  0.8722497534151046  0.0732330122675151
  0.4458516991252637  0.7601017331340358  0.8229386797898357
  0.5566675118721705  0.8705614910015527  0.5724105427257129
  0.2329328453809509  0.2162662960749628  0.3802079729472965
  0.1018205816410003  0.0851537871108761  0.1252911723022834
  0.8882588693165019  0.2057417037854492  0.8756657218637969
  0.7769686754119718  0.0928351412839845  0.6318623713013451
  0.5561835653638383  0.2066808909919189  0.3812434533989730
  0.4654446701464181  0.0839424775088844  0.1350522026640064
  0.2221112323822538  0.2054447455133257  0.8612963027014970
  0.1102895350991844  0.0936226249303687  0.6178140474149885
  0.8642064704123982  0.2180110319129085  0.3865920917359702
  0.7781225499191251  0.0945881121445709  0.1288850143747950
  0.5549236731636356  0.2057564501369171  0.8795297983182735
  0.4481385965257161  0.0924977525101625  0.6274024609770308
  0.2233474662961683  0.5395170610329743  0.3812434571552430
  0.1006092393262890  0.4487780123173337  0.1350522670732914
  0.8888988893811742  0.5392549901807016  0.8796235793849689
  0.7762831810919195  0.4301780310942362  0.6319325135034859
  0.5554486776127163  0.5387822358363508  0.3794220555720287
  0.4440425308023350  0.4273756942839455  0.1297634803016834
  0.2224230408755474  0.5382571331214479  0.8795297997235210
  0.1091645560789232  0.4314718127029451  0.6274025044510694
  0.8869963103100389  0.5392333549196024  0.3806623578006594
  0.7782904322902979  0.4274849189696539  0.1282711057614137
  0.5552075753887280  0.5385411822687374  0.8805969100707856
  0.4446162918144836  0.4279494774026062  0.6298418860872559
  0.2346775853255494  0.8475399196251061  0.3865920165899013
  0.1112548732381171  0.7614557978340812  0.1288850421100065
  0.8886330131843749  0.8719664191151466  0.8808532738311641
  0.7780111840653774  0.7613445125855733  0.6298906493590621
  0.5558998139546247  0.8703298035199509  0.3806623260476556
  0.4441516446237301  0.7616237122495804  0.1282710931598174
  0.2224083124513072  0.8715922886313550  0.8756656974308328
  0.1095019425668156  0.7603019474559858  0.6318623465401814
  0.8893565327859818  0.8726899241897854  0.3788023062727532
  0.7779512377108873  0.7612845567209732  0.1302781863827036
  0.5559215179863841  0.8722323373245970  0.8796235367220646
  0.4468447496690686  0.7596164635481912  0.6319325490674643
 
  0.00000000E+00  0.00000000E+00  0.00000000E+00
  0.00000000E+00  0.00000000E+00  0.00000000E+00
  0.00000000E+00  0.00000000E+00  0.00000000E+00
  0.00000000E+00  0.00000000E+00  0.00000000E+00
  0.00000000E+00  0.00000000E+00  0.00000000E+00
  0.00000000E+00  0.00000000E+00  0.00000000E+00
  0.00000000E+00  0.00000000E+00  0.00000000E+00
  0.00000000E+00  0.00000000E+00  0.00000000E+00
  0.00000000E+00  0.00000000E+00  0.00000000E+00
  0.00000000E+00  0.00000000E+00  0.00000000E+00
  0.00000000E+00  0.00000000E+00  0.00000000E+00
  0.00000000E+00  0.00000000E+00  0.00000000E+00
  0.00000000E+00  0.00000000E+00  0.00000000E+00
  0.00000000E+00  0.00000000E+00  0.00000000E+00
  0.00000000E+00  0.00000000E+00  0.00000000E+00
  0.00000000E+00  0.00000000E+00  0.00000000E+00
  0.00000000E+00  0.00000000E+00  0.00000000E+00
  0.00000000E+00  0.00000000E+00  0.00000000E+00
  0.00000000E+00  0.00000000E+00  0.00000000E+00
  0.00000000E+00  0.00000000E+00  0.00000000E+00
  0.00000000E+00  0.00000000E+00  0.00000000E+00
  0.00000000E+00  0.00000000E+00  0.00000000E+00
  0.00000000E+00  0.00000000E+00  0.00000000E+00
  0.00000000E+00  0.00000000E+00  0.00000000E+00
  0.00000000E+00  0.00000000E+00  0.00000000E+00
  0.00000000E+00  0.00000000E+00  0.00000000E+00
  0.00000000E+00  0.00000000E+00  0.00000000E+00
  0.00000000E+00  0.00000000E+00  0.00000000E+00
  0.00000000E+00  0.00000000E+00  0.00000000E+00
  0.00000000E+00  0.00000000E+00  0.00000000E+00
  0.00000000E+00  0.00000000E+00  0.00000000E+00
  0.00000000E+00  0.00000000E+00  0.00000000E+00
  0.00000000E+00  0.00000000E+00  0.00000000E+00
  0.00000000E+00  0.00000000E+00  0.00000000E+00
  0.00000000E+00  0.00000000E+00  0.00000000E+00
  0.00000000E+00  0.00000000E+00  0.00000000E+00
  0.00000000E+00  0.00000000E+00  0.00000000E+00
  0.00000000E+00  0.00000000E+00  0.00000000E+00
  0.00000000E+00  0.00000000E+00  0.00000000E+00
  0.00000000E+00  0.00000000E+00  0.00000000E+00
  0.00000000E+00  0.00000000E+00  0.00000000E+00
  0.00000000E+00  0.00000000E+00  0.00000000E+00
  0.00000000E+00  0.00000000E+00  0.00000000E+00
  0.00000000E+00  0.00000000E+00  0.00000000E+00
  0.00000000E+00  0.00000000E+00  0.00000000E+00
  0.00000000E+00  0.00000000E+00  0.00000000E+00
  0.00000000E+00  0.00000000E+00  0.00000000E+00
  0.00000000E+00  0.00000000E+00  0.00000000E+00
  0.00000000E+00  0.00000000E+00  0.00000000E+00
  0.00000000E+00  0.00000000E+00  0.00000000E+00
  0.00000000E+00  0.00000000E+00  0.00000000E+00
  0.00000000E+00  0.00000000E+00  0.00000000E+00
  0.00000000E+00  0.00000000E+00  0.00000000E+00
  0.00000000E+00  0.00000000E+00  0.00000000E+00
  0.00000000E+00  0.00000000E+00  0.00000000E+00
  0.00000000E+00  0.00000000E+00  0.00000000E+00
  0.00000000E+00  0.00000000E+00  0.00000000E+00
  0.00000000E+00  0.00000000E+00  0.00000000E+00
  0.00000000E+00  0.00000000E+00  0.00000000E+00
  0.00000000E+00  0.00000000E+00  0.00000000E+00
  0.00000000E+00  0.00000000E+00  0.00000000E+00
  0.00000000E+00  0.00000000E+00  0.00000000E+00
  0.00000000E+00  0.00000000E+00  0.00000000E+00
  0.00000000E+00  0.00000000E+00  0.00000000E+00
  0.00000000E+00  0.00000000E+00  0.00000000E+00
  0.00000000E+00  0.00000000E+00  0.00000000E+00
  0.00000000E+00  0.00000000E+00  0.00000000E+00
  0.00000000E+00  0.00000000E+00  0.00000000E+00
  0.00000000E+00  0.00000000E+00  0.00000000E+00
  0.00000000E+00  0.00000000E+00  0.00000000E+00
  0.00000000E+00  0.00000000E+00  0.00000000E+00
  0.00000000E+00  0.00000000E+00  0.00000000E+00
