supercell of icsd_181358.cif            
   1.00000000000000     
    10.3336164082199939    0.0212543350044147    0.0048677738738564
    -5.1484392168033644    8.9497884581670935    0.0070468509787937
     0.0056041000507150    0.0105212727337900   10.3243221920182222
   N    Sc   Ga
    36    18    18
Direct
  0.2321899129190328  0.1318044148173598  0.4413486320319322
  0.1028506540284582  0.2333569196909551  0.1909759990131548
  0.8704700427612977  0.1018105722263059  0.9360995886693289
  0.7925174637980206  0.2191254596148866  0.6821291713699864
  0.5641663761631435  0.1266769477107772  0.4532785462546656
  0.4662040509813608  0.2346401631771187  0.1960465424332511
  0.2203693906420980  0.1074030474276313  0.9517769352949372
  0.0979385706587266  0.2021307183656162  0.6989567264883618
  0.8911526641417922  0.1090686937959902  0.4413328123269196
  0.7682102121003993  0.1997830956049924  0.1960140660003660
  0.5722038759180634  0.1194930032422050  0.9341120961079810
  0.4260506014315766  0.2143124533806500  0.6955822297015573
  0.2029228681382378  0.4307784245928303  0.4532552479649539
  0.1302577972898007  0.5634664849086235  0.1952232197153876
  0.8917379566745112  0.4362997350559183  0.9738303637805998
  0.7847903116467165  0.5506544652883534  0.6941956156439488
  0.5654945773666711  0.4384458665741349  0.4555040639939065
  0.4371265770942472  0.5408090765828319  0.2179332001394911
  0.2148313958113377  0.4516480491528441  0.9322274995150366
  0.1037226098757458  0.5504194465813157  0.6826768538478731
  0.8872036865983830  0.4416741455585722  0.4378608458029873
  0.7708770375665424  0.5661959541305563  0.1994512471915399
  0.5523207924867677  0.4494308322798304  0.9320862539613017
  0.4538200274315827  0.5779915740269246  0.6832015174163502
  0.2160747848746851  0.7583630239176387  0.4481452168400182
  0.1056920226539901  0.8788486060553780  0.2197136456453777
  0.8832357792492047  0.7877220477098490  0.9344579149503360
  0.7660618564564601  0.8958546380093892  0.6882228911008426
  0.5750137128489001  0.7904907906374348  0.4299910330108716
  0.4382811949346035  0.9003966590287931  0.2052050740430005
  0.2105786365116700  0.7633624034511897  0.9424715618051138
  0.1180202700928064  0.9020930590625724  0.6848619285908342
  0.8725305270231871  0.7689369833214741  0.4543404616487265
  0.8042780892939021  0.9019750481462552  0.1891979912502961
  0.5667726166048865  0.7827421502449639  0.9593705045213952
  0.4508751833317604  0.8823525828012464  0.6974203205229301
  0.2293203511135289  0.1247017391999350  0.2383777281687998
  0.0999972938822467  0.2233591112257471  0.9835513041297190
  0.4535670417814970  0.2270078816043792  0.9869531451539117
  0.5627717864963486  0.1132337983912421  0.7288492742029931
  0.8923988471496784  0.4354267352137100  0.7584350251402014
  0.4356281604310013  0.5499550059764786  0.0008627067592357
  0.2225628537046234  0.4440688820733385  0.7261243654264646
  0.8889954793194548  0.4413207929590968  0.2274745037835544
  0.7732716327016078  0.5622913390635276  0.9926494599359188
  0.5541079747236637  0.4490242639722553  0.7273526652223410
  0.4471899008488691  0.5600340790660709  0.4732149552515565
  0.1018063596867620  0.8800279480535309  0.0044930313386331
  0.8878335285549639  0.7842787145284476  0.7284428154273925
  0.5684876536045635  0.7875220492980546  0.2293900393804407
  0.4426131355451730  0.8937515051147855  0.9913938062421153
  0.2192538075373989  0.7742939049827484  0.7349644681213547
  0.1116983500237794  0.8920195824825115  0.4762887658876664
  0.4500330129863244  0.8885076803952288  0.4860718600611804
  0.8803384488353103  0.1031309187388345  0.7454543348998186
  0.7875534100496182  0.2271261948949501  0.4942969945933413
  0.5590208781025225  0.1171530691519820  0.2565659541482574
  0.2153544844312734  0.1048974929479627  0.7493758697078903
  0.1040863655556876  0.2147719150856204  0.5030912647035848
  0.8924628415559752  0.1106962216567453  0.2503770334790332
  0.7732043839363740  0.2092485677065952  0.0044673886728717
  0.4423340622391265  0.2240408757111467  0.5017230384298657
  0.2141691266615027  0.4386064940417782  0.2577321303520321
  0.1165452117839223  0.5553812903324982  0.0031486144110673
  0.7812086702970902  0.5478562896774406  0.4997261826741166
  0.5617396533184191  0.4424986102601167  0.2586865860582606
  0.0980974570811739  0.5442713400687325  0.4947541424794224
  0.2231234328619109  0.7725645007128037  0.2547702195103128
  0.7749409233085274  0.8933913511165628  0.4984396889369052
  0.8827244871922630  0.7757574888428209  0.2588244408137967
  0.7848179057066957  0.8953048108779242  0.9972377820063869
  0.5598969595905103  0.7819200184009816  0.7519405958940482
 
  0.00000000E+00  0.00000000E+00  0.00000000E+00
  0.00000000E+00  0.00000000E+00  0.00000000E+00
  0.00000000E+00  0.00000000E+00  0.00000000E+00
  0.00000000E+00  0.00000000E+00  0.00000000E+00
  0.00000000E+00  0.00000000E+00  0.00000000E+00
  0.00000000E+00  0.00000000E+00  0.00000000E+00
  0.00000000E+00  0.00000000E+00  0.00000000E+00
  0.00000000E+00  0.00000000E+00  0.00000000E+00
  0.00000000E+00  0.00000000E+00  0.00000000E+00
  0.00000000E+00  0.00000000E+00  0.00000000E+00
  0.00000000E+00  0.00000000E+00  0.00000000E+00
  0.00000000E+00  0.00000000E+00  0.00000000E+00
  0.00000000E+00  0.00000000E+00  0.00000000E+00
  0.00000000E+00  0.00000000E+00  0.00000000E+00
  0.00000000E+00  0.00000000E+00  0.00000000E+00
  0.00000000E+00  0.00000000E+00  0.00000000E+00
  0.00000000E+00  0.00000000E+00  0.00000000E+00
  0.00000000E+00  0.00000000E+00  0.00000000E+00
  0.00000000E+00  0.00000000E+00  0.00000000E+00
  0.00000000E+00  0.00000000E+00  0.00000000E+00
  0.00000000E+00  0.00000000E+00  0.00000000E+00
  0.00000000E+00  0.00000000E+00  0.00000000E+00
  0.00000000E+00  0.00000000E+00  0.00000000E+00
  0.00000000E+00  0.00000000E+00  0.00000000E+00
  0.00000000E+00  0.00000000E+00  0.00000000E+00
  0.00000000E+00  0.00000000E+00  0.00000000E+00
  0.00000000E+00  0.00000000E+00  0.00000000E+00
  0.00000000E+00  0.00000000E+00  0.00000000E+00
  0.00000000E+00  0.00000000E+00  0.00000000E+00
  0.00000000E+00  0.00000000E+00  0.00000000E+00
  0.00000000E+00  0.00000000E+00  0.00000000E+00
  0.00000000E+00  0.00000000E+00  0.00000000E+00
  0.00000000E+00  0.00000000E+00  0.00000000E+00
  0.00000000E+00  0.00000000E+00  0.00000000E+00
  0.00000000E+00  0.00000000E+00  0.00000000E+00
  0.00000000E+00  0.00000000E+00  0.00000000E+00
  0.00000000E+00  0.00000000E+00  0.00000000E+00
  0.00000000E+00  0.00000000E+00  0.00000000E+00
  0.00000000E+00  0.00000000E+00  0.00000000E+00
  0.00000000E+00  0.00000000E+00  0.00000000E+00
  0.00000000E+00  0.00000000E+00  0.00000000E+00
  0.00000000E+00  0.00000000E+00  0.00000000E+00
  0.00000000E+00  0.00000000E+00  0.00000000E+00
  0.00000000E+00  0.00000000E+00  0.00000000E+00
  0.00000000E+00  0.00000000E+00  0.00000000E+00
  0.00000000E+00  0.00000000E+00  0.00000000E+00
  0.00000000E+00  0.00000000E+00  0.00000000E+00
  0.00000000E+00  0.00000000E+00  0.00000000E+00
  0.00000000E+00  0.00000000E+00  0.00000000E+00
  0.00000000E+00  0.00000000E+00  0.00000000E+00
  0.00000000E+00  0.00000000E+00  0.00000000E+00
  0.00000000E+00  0.00000000E+00  0.00000000E+00
  0.00000000E+00  0.00000000E+00  0.00000000E+00
  0.00000000E+00  0.00000000E+00  0.00000000E+00
  0.00000000E+00  0.00000000E+00  0.00000000E+00
  0.00000000E+00  0.00000000E+00  0.00000000E+00
  0.00000000E+00  0.00000000E+00  0.00000000E+00
  0.00000000E+00  0.00000000E+00  0.00000000E+00
  0.00000000E+00  0.00000000E+00  0.00000000E+00
  0.00000000E+00  0.00000000E+00  0.00000000E+00
  0.00000000E+00  0.00000000E+00  0.00000000E+00
  0.00000000E+00  0.00000000E+00  0.00000000E+00
  0.00000000E+00  0.00000000E+00  0.00000000E+00
  0.00000000E+00  0.00000000E+00  0.00000000E+00
  0.00000000E+00  0.00000000E+00  0.00000000E+00
  0.00000000E+00  0.00000000E+00  0.00000000E+00
  0.00000000E+00  0.00000000E+00  0.00000000E+00
  0.00000000E+00  0.00000000E+00  0.00000000E+00
  0.00000000E+00  0.00000000E+00  0.00000000E+00
  0.00000000E+00  0.00000000E+00  0.00000000E+00
  0.00000000E+00  0.00000000E+00  0.00000000E+00
  0.00000000E+00  0.00000000E+00  0.00000000E+00
