supercell of icsd_181358.cif            
   1.00000000000000     
    10.6920710410143691   -0.1005037571460234   -0.0259922329616294
    -5.4329622123645720    9.3344214262427911    0.0078094602662395
    -0.0263462728009544   -0.0084261615506209   10.2615998758828812
   N    Ga   Y 
    36    20    16
Direct
  0.2313589885392062  0.1154889124891127  0.4338965337266032
  0.0889521648660647  0.1917522055518290  0.2091491667295813
  0.9081723505674191  0.1323258955030298  0.9422686955483357
  0.7736275348484796  0.2355719546483854  0.6656928776541875
  0.5615256568861682  0.0800535904375010  0.4042434976092437
  0.4179375559400640  0.2609203435373857  0.2008859880605129
  0.2245971181532482  0.1419293553604390  0.9409866410330068
  0.1292924540382430  0.2166821590615911  0.6838240411166865
  0.8610977120783758  0.0806115978213029  0.4570783062802732
  0.7929531843134399  0.2025985469549099  0.2026148528241478
  0.5793721243756949  0.0787821566468736  0.0011412198611325
  0.4330531970036162  0.2060374298677061  0.6833478871052208
  0.2286219908965137  0.4688518055571294  0.4491708221205926
  0.1151312353485849  0.5825715366153261  0.1915909484696598
  0.8592033305557223  0.4024084093575695  0.9330582711598012
  0.7820214642682544  0.5417306501254018  0.7042967425467452
  0.5635412122698256  0.4706825571880486  0.4557357739372776
  0.4724947552279701  0.5803818768140658  0.1924855406503170
  0.2214241122394327  0.4349388534606433  0.9843015357214853
  0.0929841187492357  0.5411067808581862  0.7061008758588159
  0.9132951451850175  0.4968478978624162  0.4568667514313347
  0.7472209893829529  0.5370344516244785  0.1953455365126118
  0.5166426849805319  0.4460659192727405  0.9295332196584667
  0.4457270207150827  0.5864235486913572  0.6777577440150253
  0.2481535935780173  0.7728625505672611  0.4588301628330242
  0.1349473216214179  0.8951621915538794  0.2218533763716124
  0.8941095952824369  0.7773443806339415  0.9643655893217229
  0.7565271662407511  0.8781364961208311  0.7078206753586542
  0.5580288033852057  0.7771062577242631  0.4395003913413120
  0.4396455161346466  0.8592476181250319  0.1956211447335008
  0.2532035177992356  0.7974656965431208  0.9329243416372890
  0.1332887695824496  0.9143510936325896  0.7037451590227946
  0.8690278244812717  0.7761488373826069  0.4715475521686514
  0.7616636661970588  0.8922473461725318  0.1978902757658219
  0.5218891708651938  0.7534960596047142  0.9321990318232380
  0.4868901612733296  0.9089012847478912  0.6767845536803634
  0.2191564284897751  0.1116186611832788  0.2490497919471437
  0.1025829768685753  0.2183940218506564  0.0097731177756799
  0.7431335799926657  0.1648755819504686  0.4930138333236016
  0.5824898570288397  0.0669547855174457  0.2100557004452170
  0.4027081765103020  0.2738951479867353  0.0208338874766554
  0.2320633884002916  0.1207009967303208  0.7420258998297484
  0.8768071210215140  0.0888946673104769  0.2566009165793162
  0.7947415998512994  0.2134072494669539  0.0100445580368103
  0.8799339218554465  0.4324988727517436  0.7298277753094098
  0.7849940854018200  0.5671215915240637  0.5051109006618475
  0.5530922026933993  0.4654316032592476  0.2589574484562007
  0.4435958510133702  0.5635535284051869  0.0025511115506518
  0.1151690332949329  0.5606667923997435  0.5039188012414328
  0.4416838154897533  0.5769595092222488  0.4930659024570687
  0.2368048052354510  0.7771481029101963  0.2582415004844094
  0.7569988008207389  0.8706313294938397  0.5081230717373941
  0.5590969823147631  0.7767775173028184  0.2512920546328630
  0.4424181007403405  0.8655788362490782  0.0051413928111899
  0.5480509672960991  0.7790605312463583  0.7430105641331437
  0.4619728167476467  0.8838434788831862  0.4883523442915418
  0.8935005972916841  0.1198471047808525  0.7241136917738373
  0.1130896623929871  0.2257635954852404  0.4695381540255923
  0.5614349915082570  0.1194165731746537  0.7785534571950876
  0.4633348698373325  0.2198402568193529  0.4603260313948638
  0.2288012392557093  0.4553060007729997  0.2235367326891904
  0.1027808884171293  0.5605812895275406  0.9745168702337139
  0.2275844455596996  0.4396640397767655  0.7528303276229167
  0.8817061450610169  0.4408951480839320  0.2528029113046486
  0.7518354104332445  0.5322627495323431  0.9777925773712681
  0.5405658742543693  0.4435757197335946  0.7077053337495727
  0.1383641462964746  0.9091866792959991  0.9950482898030089
  0.8957083444949276  0.7807016329798273  0.7343717304043622
  0.2465420405833569  0.7883481082820438  0.7173269422030728
  0.1178975302115717  0.8876802010311238  0.4756574455832308
  0.8773167982775760  0.7720189154027963  0.2368836319114180
  0.7644192971875157  0.8926309315607597  0.9795495758638069
 
  0.00000000E+00  0.00000000E+00  0.00000000E+00
  0.00000000E+00  0.00000000E+00  0.00000000E+00
  0.00000000E+00  0.00000000E+00  0.00000000E+00
  0.00000000E+00  0.00000000E+00  0.00000000E+00
  0.00000000E+00  0.00000000E+00  0.00000000E+00
  0.00000000E+00  0.00000000E+00  0.00000000E+00
  0.00000000E+00  0.00000000E+00  0.00000000E+00
  0.00000000E+00  0.00000000E+00  0.00000000E+00
  0.00000000E+00  0.00000000E+00  0.00000000E+00
  0.00000000E+00  0.00000000E+00  0.00000000E+00
  0.00000000E+00  0.00000000E+00  0.00000000E+00
  0.00000000E+00  0.00000000E+00  0.00000000E+00
  0.00000000E+00  0.00000000E+00  0.00000000E+00
  0.00000000E+00  0.00000000E+00  0.00000000E+00
  0.00000000E+00  0.00000000E+00  0.00000000E+00
  0.00000000E+00  0.00000000E+00  0.00000000E+00
  0.00000000E+00  0.00000000E+00  0.00000000E+00
  0.00000000E+00  0.00000000E+00  0.00000000E+00
  0.00000000E+00  0.00000000E+00  0.00000000E+00
  0.00000000E+00  0.00000000E+00  0.00000000E+00
  0.00000000E+00  0.00000000E+00  0.00000000E+00
  0.00000000E+00  0.00000000E+00  0.00000000E+00
  0.00000000E+00  0.00000000E+00  0.00000000E+00
  0.00000000E+00  0.00000000E+00  0.00000000E+00
  0.00000000E+00  0.00000000E+00  0.00000000E+00
  0.00000000E+00  0.00000000E+00  0.00000000E+00
  0.00000000E+00  0.00000000E+00  0.00000000E+00
  0.00000000E+00  0.00000000E+00  0.00000000E+00
  0.00000000E+00  0.00000000E+00  0.00000000E+00
  0.00000000E+00  0.00000000E+00  0.00000000E+00
  0.00000000E+00  0.00000000E+00  0.00000000E+00
  0.00000000E+00  0.00000000E+00  0.00000000E+00
  0.00000000E+00  0.00000000E+00  0.00000000E+00
  0.00000000E+00  0.00000000E+00  0.00000000E+00
  0.00000000E+00  0.00000000E+00  0.00000000E+00
  0.00000000E+00  0.00000000E+00  0.00000000E+00
  0.00000000E+00  0.00000000E+00  0.00000000E+00
  0.00000000E+00  0.00000000E+00  0.00000000E+00
  0.00000000E+00  0.00000000E+00  0.00000000E+00
  0.00000000E+00  0.00000000E+00  0.00000000E+00
  0.00000000E+00  0.00000000E+00  0.00000000E+00
  0.00000000E+00  0.00000000E+00  0.00000000E+00
  0.00000000E+00  0.00000000E+00  0.00000000E+00
  0.00000000E+00  0.00000000E+00  0.00000000E+00
  0.00000000E+00  0.00000000E+00  0.00000000E+00
  0.00000000E+00  0.00000000E+00  0.00000000E+00
  0.00000000E+00  0.00000000E+00  0.00000000E+00
  0.00000000E+00  0.00000000E+00  0.00000000E+00
  0.00000000E+00  0.00000000E+00  0.00000000E+00
  0.00000000E+00  0.00000000E+00  0.00000000E+00
  0.00000000E+00  0.00000000E+00  0.00000000E+00
  0.00000000E+00  0.00000000E+00  0.00000000E+00
  0.00000000E+00  0.00000000E+00  0.00000000E+00
  0.00000000E+00  0.00000000E+00  0.00000000E+00
  0.00000000E+00  0.00000000E+00  0.00000000E+00
  0.00000000E+00  0.00000000E+00  0.00000000E+00
  0.00000000E+00  0.00000000E+00  0.00000000E+00
  0.00000000E+00  0.00000000E+00  0.00000000E+00
  0.00000000E+00  0.00000000E+00  0.00000000E+00
  0.00000000E+00  0.00000000E+00  0.00000000E+00
  0.00000000E+00  0.00000000E+00  0.00000000E+00
  0.00000000E+00  0.00000000E+00  0.00000000E+00
  0.00000000E+00  0.00000000E+00  0.00000000E+00
  0.00000000E+00  0.00000000E+00  0.00000000E+00
  0.00000000E+00  0.00000000E+00  0.00000000E+00
  0.00000000E+00  0.00000000E+00  0.00000000E+00
  0.00000000E+00  0.00000000E+00  0.00000000E+00
  0.00000000E+00  0.00000000E+00  0.00000000E+00
  0.00000000E+00  0.00000000E+00  0.00000000E+00
  0.00000000E+00  0.00000000E+00  0.00000000E+00
  0.00000000E+00  0.00000000E+00  0.00000000E+00
  0.00000000E+00  0.00000000E+00  0.00000000E+00
