supercell of icsd_181358.cif            
   1.00000000000000     
     9.8474705748155849   -0.0133966960489286    0.0029325614509116
    -4.9353354036819770    8.5365381569941583   -0.0075663889582035
     0.0031606968981115   -0.0075863289609882   10.5432086627091675
   N    Ga   Sc
    36    30     6
Direct
  0.2225411016342633  0.1127039612206602  0.4412747870313822
  0.1102169873559262  0.2213089362023553  0.1903250740632245
  0.8895652067569557  0.1126159466804211  0.9379522073275481
  0.7764293826401953  0.2209326266385361  0.6868328801095060
  0.5563455427720143  0.1100128554518491  0.4368594398764785
  0.4454104352033994  0.2214067094094716  0.1910189769275092
  0.2221372327576816  0.1111138675732732  0.9485247394181897
  0.1024090952290280  0.2283754881509594  0.6842144131891459
  0.8877898453279869  0.1123998554945942  0.4362308392814214
  0.7775486721595897  0.2228117965875995  0.1882742066005036
  0.5557015988294793  0.1110948812913648  0.9388230116337297
  0.4580403254356540  0.2252094516297234  0.6831621234812317
  0.2070097258916448  0.4379440924154636  0.4362665337156741
  0.1104179935498948  0.5557130299644939  0.1881187490040546
  0.8956604498804026  0.4337731039142341  0.9336790325305344
  0.7734662934335574  0.5406383552088485  0.6916906482442471
  0.5622046721165361  0.4364807311873236  0.4393205874579422
  0.4453158443878849  0.5558745481481751  0.2034530339866265
  0.2079140918140752  0.4353523945215514  0.9370219824027828
  0.1119716189007534  0.5568016042700776  0.6874220397232520
  0.8893823378594377  0.4427520530171236  0.4402600620912551
  0.7738796948519848  0.5441671516100612  0.1954577080573259
  0.5463819154338907  0.4278162181350140  0.9343697406946276
  0.4446589156863539  0.5560330217362335  0.7001078905091589
  0.2233688006552583  0.7763687932702439  0.4370751800175157
  0.1249524037446577  0.8950740330404940  0.1905457151222265
  0.8946960884018651  0.7906374534807696  0.9450457860258226
  0.7700713387382407  0.9000444973234707  0.6861528573417957
  0.5614323951933073  0.7932343806217261  0.4364053707623086
  0.4440875754815963  0.8900219220948813  0.1870797359122776
  0.2216941823265515  0.7759587666656813  0.9391420817371738
  0.1229379881271839  0.8852277075964068  0.6838784924605008
  0.8867785448029650  0.7773357611350988  0.4570868806115485
  0.7717748566042815  0.8977762677969992  0.1864196097600583
  0.5617747906808361  0.7925594365585269  0.9366290370329295
  0.4437095027238982  0.8898368451484018  0.6881445624674711
  0.2256264935311236  0.1137603749897593  0.2506448319421892
  0.1071721575426210  0.2192012100705085  0.0019169719943477
  0.8860119120854861  0.1157474141405430  0.7497251563806984
  0.7769872211389171  0.2211246201492472  0.4993174649502023
  0.5560824981057735  0.1105822446591844  0.2492290489861873
  0.4424542517970167  0.2164533982435941  0.0029737183589091
  0.1051406329720663  0.2219191811547532  0.4976226755814821
  0.8873125144547345  0.1142618604616601  0.2490669308941946
  0.7784316103091200  0.2192103787799269  0.9994480215633956
  0.5585129496603614  0.1115453209785997  0.7493582546607840
  0.4488270262572840  0.2198034120744907  0.4977674868238964
  0.2173862732854488  0.4424398907018769  0.2506920299224333
  0.1095577420368130  0.5524170392960457  0.9991569322537117
  0.8907181698045221  0.4381489985295204  0.7476939771809725
  0.7779688898713459  0.5485234960008682  0.5030542220108316
  0.5561185476384551  0.4392476743809723  0.2534065372609504
  0.2166860605691383  0.4442001315241271  0.7499363980045501
  0.1085941058354791  0.5551158396470726  0.4995012061631385
  0.8887718324964595  0.4410111673286110  0.2521549179661022
  0.5548735037765056  0.4383332180988830  0.7487807838797025
  0.2258482028551967  0.7781314416135388  0.2488617428400204
  0.1155889978278992  0.8919473546340484  0.0031155731277437
  0.7764589931715875  0.8968817849163102  0.5009788603495906
  0.5555612662644407  0.7847368694100538  0.2500984123074161
  0.4449703031150420  0.8922015213971974  0.9990216368292408
  0.2249006590226799  0.7756534313191565  0.7497839178453134
  0.1160292874606483  0.8886739444506802  0.4991612354865609
  0.7790879431130975  0.8970037495261565  0.9994726581283544
  0.5548703151158492  0.7840146377487045  0.7503940198660004
  0.4449440316141562  0.8924676998109575  0.4997534024479791
  0.2263057736320349  0.1162439144707434  0.7471070385961980
  0.4418805785040760  0.5554077821100023  0.9974465206297936
  0.7795380790546602  0.5501239918236038  0.9954772976210720
  0.4442147378449093  0.5561785022585539  0.4949515028980400
  0.8881931037771125  0.7797785089369498  0.7400746289886655
  0.8886958870687138  0.7800994491710185  0.2525879686503956
 
  0.00000000E+00  0.00000000E+00  0.00000000E+00
  0.00000000E+00  0.00000000E+00  0.00000000E+00
  0.00000000E+00  0.00000000E+00  0.00000000E+00
  0.00000000E+00  0.00000000E+00  0.00000000E+00
  0.00000000E+00  0.00000000E+00  0.00000000E+00
  0.00000000E+00  0.00000000E+00  0.00000000E+00
  0.00000000E+00  0.00000000E+00  0.00000000E+00
  0.00000000E+00  0.00000000E+00  0.00000000E+00
  0.00000000E+00  0.00000000E+00  0.00000000E+00
  0.00000000E+00  0.00000000E+00  0.00000000E+00
  0.00000000E+00  0.00000000E+00  0.00000000E+00
  0.00000000E+00  0.00000000E+00  0.00000000E+00
  0.00000000E+00  0.00000000E+00  0.00000000E+00
  0.00000000E+00  0.00000000E+00  0.00000000E+00
  0.00000000E+00  0.00000000E+00  0.00000000E+00
  0.00000000E+00  0.00000000E+00  0.00000000E+00
  0.00000000E+00  0.00000000E+00  0.00000000E+00
  0.00000000E+00  0.00000000E+00  0.00000000E+00
  0.00000000E+00  0.00000000E+00  0.00000000E+00
  0.00000000E+00  0.00000000E+00  0.00000000E+00
  0.00000000E+00  0.00000000E+00  0.00000000E+00
  0.00000000E+00  0.00000000E+00  0.00000000E+00
  0.00000000E+00  0.00000000E+00  0.00000000E+00
  0.00000000E+00  0.00000000E+00  0.00000000E+00
  0.00000000E+00  0.00000000E+00  0.00000000E+00
  0.00000000E+00  0.00000000E+00  0.00000000E+00
  0.00000000E+00  0.00000000E+00  0.00000000E+00
  0.00000000E+00  0.00000000E+00  0.00000000E+00
  0.00000000E+00  0.00000000E+00  0.00000000E+00
  0.00000000E+00  0.00000000E+00  0.00000000E+00
  0.00000000E+00  0.00000000E+00  0.00000000E+00
  0.00000000E+00  0.00000000E+00  0.00000000E+00
  0.00000000E+00  0.00000000E+00  0.00000000E+00
  0.00000000E+00  0.00000000E+00  0.00000000E+00
  0.00000000E+00  0.00000000E+00  0.00000000E+00
  0.00000000E+00  0.00000000E+00  0.00000000E+00
  0.00000000E+00  0.00000000E+00  0.00000000E+00
  0.00000000E+00  0.00000000E+00  0.00000000E+00
  0.00000000E+00  0.00000000E+00  0.00000000E+00
  0.00000000E+00  0.00000000E+00  0.00000000E+00
  0.00000000E+00  0.00000000E+00  0.00000000E+00
  0.00000000E+00  0.00000000E+00  0.00000000E+00
  0.00000000E+00  0.00000000E+00  0.00000000E+00
  0.00000000E+00  0.00000000E+00  0.00000000E+00
  0.00000000E+00  0.00000000E+00  0.00000000E+00
  0.00000000E+00  0.00000000E+00  0.00000000E+00
  0.00000000E+00  0.00000000E+00  0.00000000E+00
  0.00000000E+00  0.00000000E+00  0.00000000E+00
  0.00000000E+00  0.00000000E+00  0.00000000E+00
  0.00000000E+00  0.00000000E+00  0.00000000E+00
  0.00000000E+00  0.00000000E+00  0.00000000E+00
  0.00000000E+00  0.00000000E+00  0.00000000E+00
  0.00000000E+00  0.00000000E+00  0.00000000E+00
  0.00000000E+00  0.00000000E+00  0.00000000E+00
  0.00000000E+00  0.00000000E+00  0.00000000E+00
  0.00000000E+00  0.00000000E+00  0.00000000E+00
  0.00000000E+00  0.00000000E+00  0.00000000E+00
  0.00000000E+00  0.00000000E+00  0.00000000E+00
  0.00000000E+00  0.00000000E+00  0.00000000E+00
  0.00000000E+00  0.00000000E+00  0.00000000E+00
  0.00000000E+00  0.00000000E+00  0.00000000E+00
  0.00000000E+00  0.00000000E+00  0.00000000E+00
  0.00000000E+00  0.00000000E+00  0.00000000E+00
  0.00000000E+00  0.00000000E+00  0.00000000E+00
  0.00000000E+00  0.00000000E+00  0.00000000E+00
  0.00000000E+00  0.00000000E+00  0.00000000E+00
  0.00000000E+00  0.00000000E+00  0.00000000E+00
  0.00000000E+00  0.00000000E+00  0.00000000E+00
  0.00000000E+00  0.00000000E+00  0.00000000E+00
  0.00000000E+00  0.00000000E+00  0.00000000E+00
  0.00000000E+00  0.00000000E+00  0.00000000E+00
  0.00000000E+00  0.00000000E+00  0.00000000E+00
