supercell of icsd_608626.cif            
   1.13463349675962     
     9.5409623297812090    0.0261526416396109    0.0060171750347747
    -4.7490721648264547    8.1089064259421075    0.0072789137992207
     0.0097315665073824    0.0126202074437261    9.0947093211323580
   Y    Al   N 
    20    16    36
Direct
  0.2307754484084370  0.1092621732277834  0.2460444690619354
  0.1082816103347568  0.2262632270321632  0.4764103749476192
  0.8887019567673420  0.1134455556801726  0.7519641791778255
  0.5560962530582998  0.1155395834556927  0.2308742442144762
  0.2125249158749440  0.1173394235311065  0.7285439733975849
  0.8858329559193479  0.1142179086479089  0.2123569543813630
  0.5678016769373855  0.1118473155508894  0.7418859831918212
  0.4504895890440110  0.2363479311917658  0.9745842277683963
  0.1104693165236270  0.5439872077705203  0.4940514198104324
  0.7699201832304539  0.5561347639803884  0.9642371877447715
  0.5514675739151258  0.4607012140495073  0.2618071284084138
  0.1191588581249619  0.5472713823793214  0.9846323701629842
  0.8904489864410294  0.4515487386688335  0.2400894355678176
  0.5550826079330307  0.4593182641156375  0.7050447837184564
  0.4519840460827709  0.8895817422609937  0.4653091291692633
  0.2310729287894802  0.7751065609569707  0.7301597098594286
  0.1171488987460307  0.8899118430199522  0.9784752540689254
  0.8950988080910278  0.7749532083033728  0.2328775576857254
  0.7724436877187770  0.8760544004641062  0.4766523626993688
  0.5525615511928947  0.7665304574790284  0.7516950536966434
  0.7671352275127177  0.2082110551497820  0.9987491724849207
  0.4446266873287641  0.2188816499415154  0.5113959449370711
  0.1576205324484334  0.2554285006644292  0.0137057203723998
  0.7723340415489091  0.2370647493767066  0.5028266193071929
  0.2371535435703365  0.4652700155000531  0.2436423737346516
  0.8962564505874155  0.4356153415359003  0.7543074755536310
  0.4237178819835279  0.5447749551549137  0.4964893783133135
  0.2185058956249719  0.4392349737341377  0.7513063721244890
  0.8370848680203693  0.5821016655086453  0.5279468520184736
  0.4420259455536026  0.5606940112855057  0.9997954055863758
  0.2244473011627974  0.7703022548053937  0.2515713571380189
  0.1117428269797927  0.8810740527850882  0.5074993671656856
  0.8917939562652748  0.7859029134643976  0.7510394648603693
  0.7552988089401609  0.8795193019447325  0.0080090465555074
  0.5366177690246872  0.7571837343938483  0.2373747305898775
  0.4483722037849418  0.8792015629978067  0.0144578139250271
  0.2292874100418345  0.0918763716862045  0.4753741587375231
  0.1330960584476699  0.2562664417992551  0.1938809531312558
  0.8534839369687433  0.0890507303876120  0.9728346425679533
  0.7940013814158107  0.2482407696630418  0.6850440701586038
  0.5677884435603815  0.1445978363127978  0.4609643845054663
  0.4479820084335131  0.2369846245047427  0.1886288642923049
  0.2129421752248817  0.1275953465264905  0.9594618976812441
  0.1129894602182233  0.2487540372577683  0.6887975627794987
  0.8639358632898464  0.1244384576733282  0.4453847998948959
  0.7776021634271260  0.2305173239140004  0.1778584954126217
  0.5601365311763686  0.0894849012224910  0.9711200162466582
  0.4448856780407766  0.2200207910882526  0.7055508162276780
  0.2424227942375694  0.4545913058373117  0.4227764605346422
  0.1340629642466524  0.5673090245139321  0.2131012975389766
  0.8721099338751941  0.4089122650026198  0.9380254488175410
  0.8147910110850347  0.5730674291606519  0.7099812680099333
  0.5142026424812443  0.4238761865247653  0.4799835003948374
  0.4257349212319639  0.5621181308563834  0.1798357701835229
  0.2433618415886727  0.4382938825573177  0.9369154924896463
  0.0999718329246164  0.5290780968554074  0.7248250231205162
  0.8717063105470828  0.4429415768612159  0.4586462264290603
  0.7698497382590546  0.5541600304599967  0.1800272652272881
  0.5413231825168552  0.4728554730998695  0.9303467286531202
  0.4012101677610076  0.5460374162989083  0.6772759264765753
  0.2109561768647978  0.7827559349984199  0.4519950405730881
  0.1322219914039664  0.8734870653875433  0.1926952422262076
  0.8768912939840448  0.7994740309577395  0.9434027304189954
  0.7853866273238381  0.8702696683946129  0.6921045089423288
  0.5402512564412945  0.7350938850608770  0.4261535869528927
  0.4311686429888653  0.8626112445427765  0.2111464673918348
  0.2583165621228716  0.7888617446434267  0.9438853283459281
  0.0890474429786110  0.8744254208364524  0.7019365888408799
  0.9128721421253871  0.7672779694720759  0.4542322458024728
  0.7441603905108920  0.8649010610166812  0.1990412437312798
  0.5481091857979763  0.7750201245050405  0.9704651873397694
  0.4596440429870299  0.8889297601110329  0.6764878665226775
 
  0.00000000E+00  0.00000000E+00  0.00000000E+00
  0.00000000E+00  0.00000000E+00  0.00000000E+00
  0.00000000E+00  0.00000000E+00  0.00000000E+00
  0.00000000E+00  0.00000000E+00  0.00000000E+00
  0.00000000E+00  0.00000000E+00  0.00000000E+00
  0.00000000E+00  0.00000000E+00  0.00000000E+00
  0.00000000E+00  0.00000000E+00  0.00000000E+00
  0.00000000E+00  0.00000000E+00  0.00000000E+00
  0.00000000E+00  0.00000000E+00  0.00000000E+00
  0.00000000E+00  0.00000000E+00  0.00000000E+00
  0.00000000E+00  0.00000000E+00  0.00000000E+00
  0.00000000E+00  0.00000000E+00  0.00000000E+00
  0.00000000E+00  0.00000000E+00  0.00000000E+00
  0.00000000E+00  0.00000000E+00  0.00000000E+00
  0.00000000E+00  0.00000000E+00  0.00000000E+00
  0.00000000E+00  0.00000000E+00  0.00000000E+00
  0.00000000E+00  0.00000000E+00  0.00000000E+00
  0.00000000E+00  0.00000000E+00  0.00000000E+00
  0.00000000E+00  0.00000000E+00  0.00000000E+00
  0.00000000E+00  0.00000000E+00  0.00000000E+00
  0.00000000E+00  0.00000000E+00  0.00000000E+00
  0.00000000E+00  0.00000000E+00  0.00000000E+00
  0.00000000E+00  0.00000000E+00  0.00000000E+00
  0.00000000E+00  0.00000000E+00  0.00000000E+00
  0.00000000E+00  0.00000000E+00  0.00000000E+00
  0.00000000E+00  0.00000000E+00  0.00000000E+00
  0.00000000E+00  0.00000000E+00  0.00000000E+00
  0.00000000E+00  0.00000000E+00  0.00000000E+00
  0.00000000E+00  0.00000000E+00  0.00000000E+00
  0.00000000E+00  0.00000000E+00  0.00000000E+00
  0.00000000E+00  0.00000000E+00  0.00000000E+00
  0.00000000E+00  0.00000000E+00  0.00000000E+00
  0.00000000E+00  0.00000000E+00  0.00000000E+00
  0.00000000E+00  0.00000000E+00  0.00000000E+00
  0.00000000E+00  0.00000000E+00  0.00000000E+00
  0.00000000E+00  0.00000000E+00  0.00000000E+00
  0.00000000E+00  0.00000000E+00  0.00000000E+00
  0.00000000E+00  0.00000000E+00  0.00000000E+00
  0.00000000E+00  0.00000000E+00  0.00000000E+00
  0.00000000E+00  0.00000000E+00  0.00000000E+00
  0.00000000E+00  0.00000000E+00  0.00000000E+00
  0.00000000E+00  0.00000000E+00  0.00000000E+00
  0.00000000E+00  0.00000000E+00  0.00000000E+00
  0.00000000E+00  0.00000000E+00  0.00000000E+00
  0.00000000E+00  0.00000000E+00  0.00000000E+00
  0.00000000E+00  0.00000000E+00  0.00000000E+00
  0.00000000E+00  0.00000000E+00  0.00000000E+00
  0.00000000E+00  0.00000000E+00  0.00000000E+00
  0.00000000E+00  0.00000000E+00  0.00000000E+00
  0.00000000E+00  0.00000000E+00  0.00000000E+00
  0.00000000E+00  0.00000000E+00  0.00000000E+00
  0.00000000E+00  0.00000000E+00  0.00000000E+00
  0.00000000E+00  0.00000000E+00  0.00000000E+00
  0.00000000E+00  0.00000000E+00  0.00000000E+00
  0.00000000E+00  0.00000000E+00  0.00000000E+00
  0.00000000E+00  0.00000000E+00  0.00000000E+00
  0.00000000E+00  0.00000000E+00  0.00000000E+00
  0.00000000E+00  0.00000000E+00  0.00000000E+00
  0.00000000E+00  0.00000000E+00  0.00000000E+00
  0.00000000E+00  0.00000000E+00  0.00000000E+00
  0.00000000E+00  0.00000000E+00  0.00000000E+00
  0.00000000E+00  0.00000000E+00  0.00000000E+00
  0.00000000E+00  0.00000000E+00  0.00000000E+00
  0.00000000E+00  0.00000000E+00  0.00000000E+00
  0.00000000E+00  0.00000000E+00  0.00000000E+00
  0.00000000E+00  0.00000000E+00  0.00000000E+00
  0.00000000E+00  0.00000000E+00  0.00000000E+00
  0.00000000E+00  0.00000000E+00  0.00000000E+00
  0.00000000E+00  0.00000000E+00  0.00000000E+00
  0.00000000E+00  0.00000000E+00  0.00000000E+00
  0.00000000E+00  0.00000000E+00  0.00000000E+00
  0.00000000E+00  0.00000000E+00  0.00000000E+00
