generated by phonopy                    
   1.00000000000000     
    10.0351470768999995   -0.0000022330999784   -0.0000001056124209
    -5.0175765436399997    8.6906901959899994    0.0000001395531216
    -0.0000001735893656    0.0000001431815548   14.9533752540999991
   Pb   P    O 
    21    12    49
Direct
  0.0117056078771967  0.8112213918405189  0.1560836964824048
  0.0109875491754750  0.7629283329009127  0.6096146296348408
  0.0039851721188029  0.2542806378727178  0.3714469661108097
  0.0035137512293488  0.2724725021574201  0.8732459896694280
  0.2322826037763548  0.2331226010831955  0.1441350487609512
  0.2189126037510505  0.2136398771691717  0.6241396946748807
  0.7440296211992319  0.7439839227571952  0.3733096723943206
  0.8504527089274703  0.8450835238793530  0.7931560873261105
  0.7933394425808302  0.0164803610952191  0.1476353837543698
  0.7736966328562218  0.0072757392318792  0.6087931131034310
  0.2598520886665270  0.0048576844500943  0.3783624910118135
  0.2547226769494202  0.9923141813444900  0.8817086794783719
  0.6559521954745620  0.3136995894898433  0.9985754882323263
  0.6643536078640579  0.3265951495036958  0.5011275764983125
  0.3248136804179680  0.6536833064596976  0.0023140161833766
  0.3289163091615137  0.6588995728169422  0.5055274951893551
  0.3344667694556733  0.6724536588828371  0.2454637672294453
  0.3562279541556705  0.6666476053852506  0.7490197031981936
  0.6804164890949878  0.3419224160297674  0.2450450365780270
  0.6617394710270901  0.3360775864508412  0.7508981484578570
  0.7951210543184715  0.7859551615672018  0.9875080632685851
  0.6175809872550246  0.5953529733165084  0.1222463447747870
  0.6250237850142284  0.5869167247491589  0.6158304663799683
  0.3728560991532248  0.3961018744675471  0.3748966633944590
  0.3540336392519947  0.3824305306249371  0.8740417965124365
  0.4053605377162768  0.0236153211187329  0.1250049712018324
  0.4013409810826616  0.0263352056699446  0.6225349258652031
  0.6037184109006191  0.9739578781452920  0.3741677184724068
  0.5908617306121045  0.9587098154350642  0.8766048160954654
  0.9713789580302432  0.3882251516186201  0.1272534507090768
  0.9698994209507248  0.3722617278836111  0.6232691192765998
  0.0264916992200881  0.6271943656737449  0.3755772834635280
  0.0195912454835323  0.6232273462457130  0.8739128254937825
  0.4892426124392060  0.6408448631691499  0.1297520889451818
  0.5154085068978702  0.6542234370607289  0.6161989181449101
  0.4657282974930084  0.3102941163346955  0.3731256357874742
  0.4560120364912805  0.3048494610397370  0.8784192424615327
  0.3516733765159685  0.8490597451971169  0.1267627395499815
  0.3479045298425376  0.8517019976570026  0.6191148129662238
  0.6876706429491080  0.1519835186656806  0.3708621431455512
  0.6622673634615452  0.1362348550438455  0.8758315973838933
  0.1478625840529659  0.5038708310765472  0.1292308275767695
  0.1438704361847556  0.4950172617161428  0.6198989044403476
  0.8484346136961136  0.5327666878131438  0.3736179026293129
  0.8499374950553999  0.4901139760218243  0.8798778344557832
  0.7369941658347017  0.6454762769510580  0.5339823951005016
  0.2600054521382020  0.3477797352483520  0.4559069571850642
  0.2524314386943090  0.3502020752785739  0.9602537197303107
  0.3510191578846928  0.0678660153579784  0.0374276946429788
  0.3452904561445393  0.0768133613526558  0.5371370231120522
  0.6594598564417069  0.9149788526931815  0.4552755689722119
  0.6301593615041128  0.9000856232294723  0.9637512043367593
  0.9302022652693438  0.2708668129855099  0.0490289799661312
  0.9200041043093776  0.2646576452926155  0.5378711911646690
  0.0890776272775895  0.7398406840764125  0.4574152650942764
  0.0807170843930223  0.7238607960012970  0.9598634191167861
  0.2696680855920022  0.3597315340426661  0.2888039187772975
  0.2355693220253983  0.3101137729205377  0.7944299954343421
  0.7294984963616145  0.6566287325301019  0.2064323617521140
  0.7255862657236136  0.6344870531744959  0.7036487598875283
  0.6344237878991237  0.9016410400558783  0.2891984651885693
  0.6384617123556922  0.9015031878067603  0.7912830031112748
  0.3322535796002697  0.0659706197751717  0.2057901096870225
  0.3314645680126063  0.0650790356175364  0.7055296484222993
  0.0942517882213352  0.7330821049417722  0.2914230756035039
  0.0443769680751700  0.7348051780311806  0.7942537798403606
  0.9204986252623897  0.2931563754943696  0.2176830590273724
  0.9296263613271236  0.2644340213500058  0.7063322415994335
  0.5405698048616472  0.4144397450387416  0.1229534950009921
  0.5355623337128463  0.4073595311700444  0.6165958536240552
  0.4831106935464931  0.5755011350671779  0.3785910475879035
  0.4541506947794147  0.5599743354127469  0.8613049120271796
  0.5849163625647549  0.1241675247185441  0.1313647433509360
  0.5815111934845731  0.1265827133873145  0.6258010776063401
  0.4247331639823386  0.9050546430832824  0.3821489905129170
  0.4086123381860887  0.8793276725699997  0.8713643255543460
  0.8744899029625657  0.4707774324685090  0.1198253241698382
  0.8686231301300182  0.4514067424291710  0.6251101171173445
  0.0979200285806172  0.5193694260807717  0.3807960245861608
  0.1211509843451068  0.5434323404776009  0.8583671181721328
  0.0088958350939308  0.0225110323592617  0.2130632510543862
  0.9940333022039667  0.9856090732686980  0.6000777817429253
 
  0.00000000E+00  0.00000000E+00  0.00000000E+00
  0.00000000E+00  0.00000000E+00  0.00000000E+00
  0.00000000E+00  0.00000000E+00  0.00000000E+00
  0.00000000E+00  0.00000000E+00  0.00000000E+00
  0.00000000E+00  0.00000000E+00  0.00000000E+00
  0.00000000E+00  0.00000000E+00  0.00000000E+00
  0.00000000E+00  0.00000000E+00  0.00000000E+00
  0.00000000E+00  0.00000000E+00  0.00000000E+00
  0.00000000E+00  0.00000000E+00  0.00000000E+00
  0.00000000E+00  0.00000000E+00  0.00000000E+00
  0.00000000E+00  0.00000000E+00  0.00000000E+00
  0.00000000E+00  0.00000000E+00  0.00000000E+00
  0.00000000E+00  0.00000000E+00  0.00000000E+00
  0.00000000E+00  0.00000000E+00  0.00000000E+00
  0.00000000E+00  0.00000000E+00  0.00000000E+00
  0.00000000E+00  0.00000000E+00  0.00000000E+00
  0.00000000E+00  0.00000000E+00  0.00000000E+00
  0.00000000E+00  0.00000000E+00  0.00000000E+00
  0.00000000E+00  0.00000000E+00  0.00000000E+00
  0.00000000E+00  0.00000000E+00  0.00000000E+00
  0.00000000E+00  0.00000000E+00  0.00000000E+00
  0.00000000E+00  0.00000000E+00  0.00000000E+00
  0.00000000E+00  0.00000000E+00  0.00000000E+00
  0.00000000E+00  0.00000000E+00  0.00000000E+00
  0.00000000E+00  0.00000000E+00  0.00000000E+00
  0.00000000E+00  0.00000000E+00  0.00000000E+00
  0.00000000E+00  0.00000000E+00  0.00000000E+00
  0.00000000E+00  0.00000000E+00  0.00000000E+00
  0.00000000E+00  0.00000000E+00  0.00000000E+00
  0.00000000E+00  0.00000000E+00  0.00000000E+00
  0.00000000E+00  0.00000000E+00  0.00000000E+00
  0.00000000E+00  0.00000000E+00  0.00000000E+00
  0.00000000E+00  0.00000000E+00  0.00000000E+00
  0.00000000E+00  0.00000000E+00  0.00000000E+00
  0.00000000E+00  0.00000000E+00  0.00000000E+00
  0.00000000E+00  0.00000000E+00  0.00000000E+00
  0.00000000E+00  0.00000000E+00  0.00000000E+00
  0.00000000E+00  0.00000000E+00  0.00000000E+00
  0.00000000E+00  0.00000000E+00  0.00000000E+00
  0.00000000E+00  0.00000000E+00  0.00000000E+00
  0.00000000E+00  0.00000000E+00  0.00000000E+00
  0.00000000E+00  0.00000000E+00  0.00000000E+00
  0.00000000E+00  0.00000000E+00  0.00000000E+00
  0.00000000E+00  0.00000000E+00  0.00000000E+00
  0.00000000E+00  0.00000000E+00  0.00000000E+00
  0.00000000E+00  0.00000000E+00  0.00000000E+00
  0.00000000E+00  0.00000000E+00  0.00000000E+00
  0.00000000E+00  0.00000000E+00  0.00000000E+00
  0.00000000E+00  0.00000000E+00  0.00000000E+00
  0.00000000E+00  0.00000000E+00  0.00000000E+00
  0.00000000E+00  0.00000000E+00  0.00000000E+00
  0.00000000E+00  0.00000000E+00  0.00000000E+00
  0.00000000E+00  0.00000000E+00  0.00000000E+00
  0.00000000E+00  0.00000000E+00  0.00000000E+00
  0.00000000E+00  0.00000000E+00  0.00000000E+00
  0.00000000E+00  0.00000000E+00  0.00000000E+00
  0.00000000E+00  0.00000000E+00  0.00000000E+00
  0.00000000E+00  0.00000000E+00  0.00000000E+00
  0.00000000E+00  0.00000000E+00  0.00000000E+00
  0.00000000E+00  0.00000000E+00  0.00000000E+00
  0.00000000E+00  0.00000000E+00  0.00000000E+00
  0.00000000E+00  0.00000000E+00  0.00000000E+00
  0.00000000E+00  0.00000000E+00  0.00000000E+00
  0.00000000E+00  0.00000000E+00  0.00000000E+00
  0.00000000E+00  0.00000000E+00  0.00000000E+00
  0.00000000E+00  0.00000000E+00  0.00000000E+00
  0.00000000E+00  0.00000000E+00  0.00000000E+00
  0.00000000E+00  0.00000000E+00  0.00000000E+00
  0.00000000E+00  0.00000000E+00  0.00000000E+00
  0.00000000E+00  0.00000000E+00  0.00000000E+00
  0.00000000E+00  0.00000000E+00  0.00000000E+00
  0.00000000E+00  0.00000000E+00  0.00000000E+00
  0.00000000E+00  0.00000000E+00  0.00000000E+00
  0.00000000E+00  0.00000000E+00  0.00000000E+00
  0.00000000E+00  0.00000000E+00  0.00000000E+00
  0.00000000E+00  0.00000000E+00  0.00000000E+00
  0.00000000E+00  0.00000000E+00  0.00000000E+00
  0.00000000E+00  0.00000000E+00  0.00000000E+00
  0.00000000E+00  0.00000000E+00  0.00000000E+00
  0.00000000E+00  0.00000000E+00  0.00000000E+00
  0.00000000E+00  0.00000000E+00  0.00000000E+00
  0.00000000E+00  0.00000000E+00  0.00000000E+00
