generated by phonopy                    
   1.00000000000000     
    11.7777700938999992   -0.0000006592896312    0.0000118211769744
    -0.0000006477562692   11.7777479613999994   -0.0000130806483528
     0.0000177256125076   -0.0000204342245446   17.8544012557999991
   Bi   Ca   Cu   Se   O 
    36     1    35    36    36
Direct
  0.0000089135531240  0.1688671980544711  0.4325947297153760
  0.3351436644656758  0.1669010809025124  0.4312393685917328
  0.6649140183432962  0.1668976106831366  0.4312167091895276
  0.0000141356975334  0.4998936884407783  0.4312174002856111
  0.3339418414066202  0.4998849257318483  0.4309572269355044
  0.6660763111685952  0.4998911294121839  0.4309528957576276
  0.0000038387208647  0.8309165586069653  0.4325974312886487
  0.3351475343546895  0.8328701441222677  0.4312384542394625
  0.6649126765430680  0.8328858180278047  0.4312206912551559
  0.0000727354120755  0.1667610168448306  0.9277433394527179
  0.3337141769910161  0.1675807434076688  0.9270535665587261
  0.6664246522520472  0.1675759376126749  0.9270591978747831
  0.0000688207417952  0.4998830870836812  0.9266422274269033
  0.3340375369666475  0.4998821599921328  0.9266791584110763
  0.6661036818802799  0.4998814816523378  0.9266836409995776
  0.0000680643001729  0.8330140449445764  0.9277409811524961
  0.3337120615040590  0.8321943795760092  0.9270501626292003
  0.6664244612169412  0.8322003954870212  0.9270565458687159
  0.1690500304776563  0.9998854732540323  0.0673857605795050
  0.5000628131443534  0.9998850714319047  0.0687614890783621
  0.8310946537562671  0.9998898216766747  0.0673904057291068
  0.1670896858855713  0.3350005180338371  0.0687609814782491
  0.5000779530089829  0.3338156446637797  0.0690305476551387
  0.8330690124978730  0.3349945783088444  0.0687629721508145
  0.1670842982302290  0.6647644332416363  0.0687500699710242
  0.5000715693205748  0.6659516980430666  0.0690268342831288
  0.8330587396177691  0.6647672710371921  0.0687544298545859
  0.1668857306307174  0.9998925281065922  0.5722429335683472
  0.5000226573360891  0.9998949976734295  0.5733454103941256
  0.8331380918922591  0.9998953323213442  0.5722450239356078
  0.1676991546726185  0.3335362916628526  0.5729266930170240
  0.5000227012271523  0.3338596558859237  0.5733023978275043
  0.8323223795705204  0.3335416930859623  0.5729245942359213
  0.1676999437180271  0.6662527505326636  0.5729285083695501
  0.5000209415507584  0.6659252025274753  0.5733055928568760
  0.8323192678527036  0.6662446929950434  0.5729286807382010
  0.0000314359904010  0.9998754151032969  0.2499941279938014
  0.3403915823929253  0.9998569199339968  0.2453348296881188
  0.6596861507234237  0.9998626174058529  0.2453332895180083
  0.0000459270866529  0.3402122292808301  0.2546498890242646
  0.3367836011844503  0.3366143054171573  0.2499856017168725
  0.6632967346764005  0.3366160457192890  0.2499969085685478
  0.0000434742929372  0.6595410588544439  0.2546467753963171
  0.3367796859843821  0.6631148323366602  0.2499919635375676
  0.6632868318614342  0.6631333998748730  0.2499939188748570
  0.0000429831849189  0.9999071074704773  0.7499908289133685
  0.3327627196289171  0.9999121674807654  0.7504320926496106
  0.6673279754885044  0.9999140983145693  0.7504372076308456
  0.0000427365188713  0.3326251443324111  0.7495477152455692
  0.3327631766773962  0.3326269301873381  0.7499895105706287
  0.6673370106787502  0.3326255075299471  0.7499971497950213
  0.0000393541043024  0.6671846790841229  0.7495493223931931
  0.3327618178675422  0.6671872767537508  0.7499907601903288
  0.6673314432324347  0.6671892506243395  0.7499970735730130
  0.1804360262881488  0.1799073317273638  0.2501055629135251
  0.5000558920453102  0.1673862620396349  0.2501225127489590
  0.8199653130782067  0.1802005491184602  0.2499243188638616
  0.1675762139534882  0.4998752089227736  0.2498613536859864
  0.5000546915217114  0.4998658289319948  0.2499943997401530
  0.8325361657189063  0.4998866724917264  0.2498649625812632
  0.1803031293962505  0.8197014295433149  0.2500113455742863
  0.5000510877932882  0.8323448636198378  0.2501241338100897
  0.8199335815639301  0.8195758501766051  0.2499206214963721
  0.1660318701308725  0.1659184482328229  0.7499882844403771
  0.5000194010068739  0.1659637818664592  0.7496255019906286
  0.8340121231887707  0.1659180417166226  0.7499945293615298
  0.1660716422214108  0.4999021288909873  0.7503518858022176
  0.5000132030801012  0.4999043667670051  0.7499904694446897
  0.8339689420924543  0.4998998088457256  0.7503598621196303
  0.1660285663056627  0.8338902675833708  0.7499905526390904
  0.5000198469320623  0.8338512816319721  0.7496309356696358
  0.8340065880026160  0.8338882936969583  0.7499981928763333
  0.1684853977153082  0.3355769074687842  0.3394784825384747
  0.5000290808653745  0.3334448975266397  0.3381754364388527
  0.8315801153023870  0.3355875132610606  0.3395024255842429
  0.1684819208105210  0.6641903992315719  0.3394910218231360
  0.5000275940311099  0.6663085068705712  0.3381769673998960
  0.8315812297823513  0.6641882747515950  0.3394956520017445
  0.1832051548989284  0.9998661761627119  0.3383322577390118
  0.5000249076160515  0.9998764735019563  0.3377731071202561
  0.8168447668767271  0.9998839936953203  0.3383087219299128
  0.1663846835340337  0.3327024758558679  0.8368242690287389
  0.5000520778380277  0.3327698674328872  0.8363609123517719
  0.8337186398999989  0.3327019847502299  0.8368310166870572
  0.1663825467896629  0.6670884461436799  0.8368238705949693
  0.5000510296908729  0.6670244481635095  0.8363606416808338
  0.8337155613844516  0.6670891134337751  0.8368301977073074
  0.1662904016804063  0.9998989698664502  0.8373861545897228
  0.5000500387285030  0.9999026526857335  0.8369432151010585
  0.8338089010288599  0.9999010456753794  0.8373897191797894
  0.3357633052833009  0.1683273125996863  0.1604794506868927
  0.6643644543409906  0.1683247278344737  0.1605037894626875
  0.0001052543884370  0.1830513164248941  0.1616651746968429
  0.3336268538020377  0.4998794886527733  0.1618058907315572
  0.6664865071106973  0.4998755884210482  0.1618122534446300
  0.0000520880393751  0.4998825620991596  0.1622168955062691
  0.3357561136746625  0.8314263434082676  0.1604855677726320
  0.6643525492014248  0.8314214792908956  0.1604950181480334
  0.0000885386489813  0.8167098369429837  0.1616512462470752
  0.3328288936340158  0.1662387265069611  0.6631552614660592
  0.6672210152742721  0.1662406106120002  0.6631582284035460
  0.0000200990149821  0.1661439610875277  0.6625940607203233
  0.3328928560821254  0.4999004774628233  0.6636197642855635
  0.6671540118100836  0.4998997124941482  0.6636259171509522
  0.0000197040838614  0.4999002922784399  0.6630376480582996
  0.3328291441369942  0.8335662538814006  0.6631587987476308
  0.6672196904160543  0.8335659044112305  0.6631613664186204
  0.0000168757795294  0.8336577079132539  0.6625961681064041
  0.1665339750040289  0.1666880838908966  0.5009250069907694
  0.5000260152742513  0.1668999522408043  0.5023899275552637
  0.8335024101904196  0.1666940063023219  0.5009247458738884
  0.1663632244326934  0.4998956434082231  0.5016409927425585
  0.5000201245434539  0.4998921798269507  0.5022021321012033
  0.8336751436756487  0.4998936510695060  0.5016359240116657
  0.1665334640830167  0.8330956024319107  0.5009250813272246
  0.5000264673835702  0.8328838759815511  0.5023937982864553
  0.8335010513357659  0.8330919292867520  0.5009279203494472
  0.1668663386972185  0.1664046239173373  0.9990576053632552
  0.5000621981593056  0.1662325285171491  0.9983438268705740
  0.8332660421813287  0.1663994250411989  0.9990610859334694
  0.1670722350297922  0.4998842964992818  0.9975916149833992
  0.5000665285856201  0.4998836004081397  0.9977809734354253
  0.8330563973801972  0.4998835388119716  0.9975991631767656
  0.1668642229086146  0.8333674277028038  0.9990537688277783
  0.5000626358134710  0.8335394401471845  0.9983408572816046
  0.8332619498919414  0.8333719437205502  0.9990599264281528
  0.0000650545376146  0.9998897379477114  0.9994956496099334
  0.3331108793247850  0.9998866676072922  0.9985436271479315
  0.6670210584759459  0.9998900082287747  0.9985508342091762
  0.0000674418259052  0.3340638836718526  0.9982721555657861
  0.3338416827582193  0.3335349530345439  0.9978388206830147
  0.6662931511501995  0.3335306191535565  0.9978434392998352
  0.0000627320545448  0.6657073167676799  0.9982658331829413
  0.3338389900280916  0.6662410828213510  0.9978358197979134
  0.6662926391971737  0.6662399944067730  0.9978378308452633
  0.0000136241429942  0.9998907766685718  0.5004900032676787
  0.3342019439636204  0.9998874033934939  0.5017235162751064
  0.6658444465744680  0.9998928515449421  0.5017126717053131
  0.0000201931220616  0.3329371218333819  0.5014317250372926
  0.3336646296351589  0.3336657208391642  0.5021469655949176
  0.6663732574384866  0.3336658789238243  0.5021416644722905
  0.0000139177393095  0.6668475747733567  0.5014345243841660
  0.3336688369349474  0.6661161544988019  0.5021507258295657
  0.6663752668889771  0.6661144766168974  0.5021425731500742
 
  0.00000000E+00  0.00000000E+00  0.00000000E+00
  0.00000000E+00  0.00000000E+00  0.00000000E+00
  0.00000000E+00  0.00000000E+00  0.00000000E+00
  0.00000000E+00  0.00000000E+00  0.00000000E+00
  0.00000000E+00  0.00000000E+00  0.00000000E+00
  0.00000000E+00  0.00000000E+00  0.00000000E+00
  0.00000000E+00  0.00000000E+00  0.00000000E+00
  0.00000000E+00  0.00000000E+00  0.00000000E+00
  0.00000000E+00  0.00000000E+00  0.00000000E+00
  0.00000000E+00  0.00000000E+00  0.00000000E+00
  0.00000000E+00  0.00000000E+00  0.00000000E+00
  0.00000000E+00  0.00000000E+00  0.00000000E+00
  0.00000000E+00  0.00000000E+00  0.00000000E+00
  0.00000000E+00  0.00000000E+00  0.00000000E+00
  0.00000000E+00  0.00000000E+00  0.00000000E+00
  0.00000000E+00  0.00000000E+00  0.00000000E+00
  0.00000000E+00  0.00000000E+00  0.00000000E+00
  0.00000000E+00  0.00000000E+00  0.00000000E+00
  0.00000000E+00  0.00000000E+00  0.00000000E+00
  0.00000000E+00  0.00000000E+00  0.00000000E+00
  0.00000000E+00  0.00000000E+00  0.00000000E+00
  0.00000000E+00  0.00000000E+00  0.00000000E+00
  0.00000000E+00  0.00000000E+00  0.00000000E+00
  0.00000000E+00  0.00000000E+00  0.00000000E+00
  0.00000000E+00  0.00000000E+00  0.00000000E+00
  0.00000000E+00  0.00000000E+00  0.00000000E+00
  0.00000000E+00  0.00000000E+00  0.00000000E+00
  0.00000000E+00  0.00000000E+00  0.00000000E+00
  0.00000000E+00  0.00000000E+00  0.00000000E+00
  0.00000000E+00  0.00000000E+00  0.00000000E+00
  0.00000000E+00  0.00000000E+00  0.00000000E+00
  0.00000000E+00  0.00000000E+00  0.00000000E+00
  0.00000000E+00  0.00000000E+00  0.00000000E+00
  0.00000000E+00  0.00000000E+00  0.00000000E+00
  0.00000000E+00  0.00000000E+00  0.00000000E+00
  0.00000000E+00  0.00000000E+00  0.00000000E+00
  0.00000000E+00  0.00000000E+00  0.00000000E+00
  0.00000000E+00  0.00000000E+00  0.00000000E+00
  0.00000000E+00  0.00000000E+00  0.00000000E+00
  0.00000000E+00  0.00000000E+00  0.00000000E+00
  0.00000000E+00  0.00000000E+00  0.00000000E+00
  0.00000000E+00  0.00000000E+00  0.00000000E+00
  0.00000000E+00  0.00000000E+00  0.00000000E+00
  0.00000000E+00  0.00000000E+00  0.00000000E+00
  0.00000000E+00  0.00000000E+00  0.00000000E+00
  0.00000000E+00  0.00000000E+00  0.00000000E+00
  0.00000000E+00  0.00000000E+00  0.00000000E+00
  0.00000000E+00  0.00000000E+00  0.00000000E+00
  0.00000000E+00  0.00000000E+00  0.00000000E+00
  0.00000000E+00  0.00000000E+00  0.00000000E+00
  0.00000000E+00  0.00000000E+00  0.00000000E+00
  0.00000000E+00  0.00000000E+00  0.00000000E+00
  0.00000000E+00  0.00000000E+00  0.00000000E+00
  0.00000000E+00  0.00000000E+00  0.00000000E+00
  0.00000000E+00  0.00000000E+00  0.00000000E+00
  0.00000000E+00  0.00000000E+00  0.00000000E+00
  0.00000000E+00  0.00000000E+00  0.00000000E+00
  0.00000000E+00  0.00000000E+00  0.00000000E+00
  0.00000000E+00  0.00000000E+00  0.00000000E+00
  0.00000000E+00  0.00000000E+00  0.00000000E+00
  0.00000000E+00  0.00000000E+00  0.00000000E+00
  0.00000000E+00  0.00000000E+00  0.00000000E+00
  0.00000000E+00  0.00000000E+00  0.00000000E+00
  0.00000000E+00  0.00000000E+00  0.00000000E+00
  0.00000000E+00  0.00000000E+00  0.00000000E+00
  0.00000000E+00  0.00000000E+00  0.00000000E+00
  0.00000000E+00  0.00000000E+00  0.00000000E+00
  0.00000000E+00  0.00000000E+00  0.00000000E+00
  0.00000000E+00  0.00000000E+00  0.00000000E+00
  0.00000000E+00  0.00000000E+00  0.00000000E+00
  0.00000000E+00  0.00000000E+00  0.00000000E+00
  0.00000000E+00  0.00000000E+00  0.00000000E+00
  0.00000000E+00  0.00000000E+00  0.00000000E+00
  0.00000000E+00  0.00000000E+00  0.00000000E+00
  0.00000000E+00  0.00000000E+00  0.00000000E+00
  0.00000000E+00  0.00000000E+00  0.00000000E+00
  0.00000000E+00  0.00000000E+00  0.00000000E+00
  0.00000000E+00  0.00000000E+00  0.00000000E+00
  0.00000000E+00  0.00000000E+00  0.00000000E+00
  0.00000000E+00  0.00000000E+00  0.00000000E+00
  0.00000000E+00  0.00000000E+00  0.00000000E+00
  0.00000000E+00  0.00000000E+00  0.00000000E+00
  0.00000000E+00  0.00000000E+00  0.00000000E+00
  0.00000000E+00  0.00000000E+00  0.00000000E+00
  0.00000000E+00  0.00000000E+00  0.00000000E+00
  0.00000000E+00  0.00000000E+00  0.00000000E+00
  0.00000000E+00  0.00000000E+00  0.00000000E+00
  0.00000000E+00  0.00000000E+00  0.00000000E+00
  0.00000000E+00  0.00000000E+00  0.00000000E+00
  0.00000000E+00  0.00000000E+00  0.00000000E+00
  0.00000000E+00  0.00000000E+00  0.00000000E+00
  0.00000000E+00  0.00000000E+00  0.00000000E+00
  0.00000000E+00  0.00000000E+00  0.00000000E+00
  0.00000000E+00  0.00000000E+00  0.00000000E+00
  0.00000000E+00  0.00000000E+00  0.00000000E+00
  0.00000000E+00  0.00000000E+00  0.00000000E+00
  0.00000000E+00  0.00000000E+00  0.00000000E+00
  0.00000000E+00  0.00000000E+00  0.00000000E+00
  0.00000000E+00  0.00000000E+00  0.00000000E+00
  0.00000000E+00  0.00000000E+00  0.00000000E+00
  0.00000000E+00  0.00000000E+00  0.00000000E+00
  0.00000000E+00  0.00000000E+00  0.00000000E+00
  0.00000000E+00  0.00000000E+00  0.00000000E+00
  0.00000000E+00  0.00000000E+00  0.00000000E+00
  0.00000000E+00  0.00000000E+00  0.00000000E+00
  0.00000000E+00  0.00000000E+00  0.00000000E+00
  0.00000000E+00  0.00000000E+00  0.00000000E+00
  0.00000000E+00  0.00000000E+00  0.00000000E+00
  0.00000000E+00  0.00000000E+00  0.00000000E+00
  0.00000000E+00  0.00000000E+00  0.00000000E+00
  0.00000000E+00  0.00000000E+00  0.00000000E+00
  0.00000000E+00  0.00000000E+00  0.00000000E+00
  0.00000000E+00  0.00000000E+00  0.00000000E+00
  0.00000000E+00  0.00000000E+00  0.00000000E+00
  0.00000000E+00  0.00000000E+00  0.00000000E+00
  0.00000000E+00  0.00000000E+00  0.00000000E+00
  0.00000000E+00  0.00000000E+00  0.00000000E+00
  0.00000000E+00  0.00000000E+00  0.00000000E+00
  0.00000000E+00  0.00000000E+00  0.00000000E+00
  0.00000000E+00  0.00000000E+00  0.00000000E+00
  0.00000000E+00  0.00000000E+00  0.00000000E+00
  0.00000000E+00  0.00000000E+00  0.00000000E+00
  0.00000000E+00  0.00000000E+00  0.00000000E+00
  0.00000000E+00  0.00000000E+00  0.00000000E+00
  0.00000000E+00  0.00000000E+00  0.00000000E+00
  0.00000000E+00  0.00000000E+00  0.00000000E+00
  0.00000000E+00  0.00000000E+00  0.00000000E+00
  0.00000000E+00  0.00000000E+00  0.00000000E+00
  0.00000000E+00  0.00000000E+00  0.00000000E+00
  0.00000000E+00  0.00000000E+00  0.00000000E+00
  0.00000000E+00  0.00000000E+00  0.00000000E+00
  0.00000000E+00  0.00000000E+00  0.00000000E+00
  0.00000000E+00  0.00000000E+00  0.00000000E+00
  0.00000000E+00  0.00000000E+00  0.00000000E+00
  0.00000000E+00  0.00000000E+00  0.00000000E+00
  0.00000000E+00  0.00000000E+00  0.00000000E+00
  0.00000000E+00  0.00000000E+00  0.00000000E+00
  0.00000000E+00  0.00000000E+00  0.00000000E+00
  0.00000000E+00  0.00000000E+00  0.00000000E+00
  0.00000000E+00  0.00000000E+00  0.00000000E+00
  0.00000000E+00  0.00000000E+00  0.00000000E+00
  0.00000000E+00  0.00000000E+00  0.00000000E+00
  0.00000000E+00  0.00000000E+00  0.00000000E+00
  0.00000000E+00  0.00000000E+00  0.00000000E+00
