Se   Ga   Li                            
   1.00000000000000     
     0.0010065477750779    0.0000003850211663   -6.6546365286700002
    -7.0132652905106960    0.0220785492913021   -0.0000034758734970
     0.0366640044430541    8.5634814071474690   -0.0079037025571705
   Se   Ga   Li
     8     4     4
Direct
  0.8658988559295140  0.9372794131860469  0.8710939121549820
  0.9088900688427531  0.4058998533619562  0.1171590303993141
  0.8865587211273530  0.9113873500108181  0.3534727308728269
  0.3644208187825052  0.0571507236983808  0.1050561828070417
  0.9641004249964340  0.4324943923939489  0.6025693509005261
  0.4296705110930161  0.5871163983667963  0.8580968518731370
  0.3860276219257299  0.0842674131170638  0.6223048431513666
  0.4605794650140365  0.5631646656894117  0.3740009329079242
  0.9952173628494114  0.0649906143854684  0.1140873147533882
  0.4965204085790044  0.9332223673337635  0.8616398239266837
  0.8321820037985153  0.5626683171368313  0.3633266662014011
  0.3349550738849139  0.4337206969277925  0.6160242905718183
  0.8273596405578684  0.5744535346782945  0.8569821747953571
  0.9997859081374304  0.0674113403527603  0.6102071720197398
  0.5049915327586048  0.3912524646821152  0.1084716180731096
  0.4997351199177277  0.9268337197576351  0.3654937815252470
 
             NaN             NaN             NaN
             NaN             NaN             NaN
             NaN             NaN             NaN
             NaN             NaN             NaN
             NaN             NaN             NaN
             NaN             NaN             NaN
             NaN             NaN             NaN
             NaN             NaN             NaN
             NaN             NaN             NaN
             NaN             NaN             NaN
             NaN             NaN             NaN
             NaN             NaN             NaN
             NaN             NaN             NaN
             NaN             NaN             NaN
             NaN             NaN             NaN
             NaN             NaN             NaN
