Se   Ga   Li
   1.00000000000000     
  -0.0000033229550240   0.0000003850211669  -6.6546365286700002
  -6.9528699005799997   0.0000003684154422  -0.0000034758734664
  -0.0000004550289887   8.3865881795499995  -0.0000005058251507
Se   Ga   Li
8  4  4  
Direct
  0.9937938806870577  0.9301340532583992  0.8685554348482043  
  0.9785092703940990  0.4033640708657273  0.1217089646878904  
  0.9785084766474980  0.9033646482655442  0.3532920551401233  
  0.4937953909096677  0.0615328282270298  0.1064450531279491  
  0.9937934965321702  0.4301338287340002  0.6064449604255984  
  0.4785081237443762  0.5883020867650188  0.8532919291535421  
  0.4785081887348568  0.0883019563296372  0.6217076141469349  
  0.4937958979678925  0.5615329371772049  0.3685544750891125  
  0.8620018143713537  0.0692757867894898  0.1135189650036068  
  0.3620008490909044  0.9223900198383674  0.8614805965859702  
  0.8620009161569797  0.5692773546839831  0.3614817341410514  
  0.3620039484794546  0.4223882620413804  0.6135180444341088  
  0.8656928905158381  0.5840627013925825  0.8659355633561390  
  0.8656941941744378  0.0840630928214807  0.6090648627788369  
  0.3656940761981389  0.4076045928170515  0.1090642713042769  
  0.3656927563652133  0.9076051133263334  0.3659354757766380  
