Se   Ga   Li
   1.00000000000000     
  -0.0000033229550773   0.0000003850211659  -6.6546365286700002
  -6.9528699005799997   0.0000003684154485  -0.0000034758735174
  -0.0000004550289939   8.3865881795499995  -0.0000005058251499
Se   Ga   Li
8  4  4  
Direct
  0.8508181031782129  0.9301315446900134  0.8685537694427907  
  0.8661027134711716  0.4033615622973556  0.1217072992824768  
  0.8661019197245636  0.9033621396971724  0.3532903897347097  
  0.3508165929556029  0.0615303196586510  0.1064433877225426  
  0.8508177190233184  0.4301313201656143  0.6064432950201919  
  0.3661015668214489  0.5882995781966471  0.8532902637481357  
  0.3661016318119295  0.0882994477612655  0.6217059487415284  
  0.3508160858973781  0.5615304286088190  0.3685528096837061  
  0.9826101694939168  0.0692732782211181  0.1135172995982003  
  0.4826092042134675  0.9223875112699956  0.8614789311805566  
  0.9826092712795428  0.5692748461156114  0.3614800687356450  
  0.4826080353858160  0.4223857534730087  0.6135163790287024  
  0.9789190933494324  0.5840601928242108  0.8659338979507254  
  0.9789203970080252  0.0840605842531090  0.6090631973734233  
  0.4789202790317333  0.4076020842486727  0.1090626058988704  
  0.4789189591988077  0.9076026047579616  0.3659338103712244  
