Se   Ga   Li                            
   1.00000000000000     
    -0.0125474043589998    0.0000003850211667   -6.6546365286700002
    -7.0281984540583533   -0.0068866588690350   -0.0000034758734746
     0.0083248339810617    8.4740562971107494   -0.1137524099600284
   Se   Ga   Li
     8     4     4
Direct
  0.9679911081680679  0.9233848662402541  0.8670619520546679
  0.9641666057742163  0.4082269303185599  0.1207357370710935
  0.9607998679750860  0.9014261630882239  0.3660821759503867
  0.4138521559332011  0.0663437691171802  0.1045576933001225
  0.9846091970422012  0.4322149994399099  0.6068513175468095
  0.4716405581441520  0.5853005216873174  0.8478177866032391
  0.4715886258276760  0.0924981853025857  0.6129143256501957
  0.4890566195992926  0.5573874458084388  0.3684608304940626
  0.0358984267134099  0.0632448396780053  0.1181144217425299
  0.3707736590296604  0.9199610404373428  0.8494632361259891
  0.8590121936984341  0.5661768803731350  0.3625282667215544
  0.3516863809659441  0.4242200356621597  0.6106573012655739
  0.8576367091420741  0.5797128804002049  0.8682252915203261
  0.8584214917974297  0.0930516953404793  0.6164331483293904
  0.3496766029807679  0.4275632500170906  0.1067693151982017
  0.3500833354761830  0.8925997621694486  0.3733138773614333
 
             NaN             NaN             NaN
             NaN             NaN             NaN
             NaN             NaN             NaN
             NaN             NaN             NaN
             NaN             NaN             NaN
             NaN             NaN             NaN
             NaN             NaN             NaN
             NaN             NaN             NaN
             NaN             NaN             NaN
             NaN             NaN             NaN
             NaN             NaN             NaN
             NaN             NaN             NaN
             NaN             NaN             NaN
             NaN             NaN             NaN
             NaN             NaN             NaN
             NaN             NaN             NaN
