generated by phonopy                    
   1.00000000000000     
    11.7777700938999992   -0.0000006592896312    0.0000118211769744
    -0.0000006477562692   11.7777479613999994   -0.0000130806483528
     0.0000177256125076   -0.0000204342245446   17.8544012557999991
   Bi   Cu   Se   Br   O 
    36    36    36     1    35
Direct
  0.9719623940023041  0.1836562186685953  0.4102085025531679
  0.3609950035122651  0.1501104752726405  0.4109159529833590
  0.6666442366814778  0.1665859139269941  0.4280092628907326
  0.9991768057003725  0.5025772881968322  0.4299049179499761
  0.3339220235732441  0.4975350339576821  0.4313750503965039
  0.6675190393608545  0.5026503962260733  0.4284147251859949
  0.9995399385853858  0.8358202766383158  0.4312776776555793
  0.3343248157337513  0.8309525197061518  0.4299694588955987
  0.6659137313729033  0.8308777465255446  0.4284321417927828
  0.0001753827144526  0.1672474659168799  0.9291566287660942
  0.3334463989909224  0.1664770483055094  0.9291294514878530
  0.6668421004544030  0.1668569646666000  0.9295987058948398
  0.9999874924894598  0.4991441317154255  0.9294174783424509
  0.3336576785269685  0.4997943320346536  0.9287714577101127
  0.6673378977614846  0.4996172640073766  0.9295859559050257
  0.9999955096035578  0.8339694353034020  0.9287875323707340
  0.3336627611233993  0.8345923375153887  0.9293975503590275
  0.6663618185018336  0.8341161407112239  0.9295677263545628
  0.1664384275026549  0.0002396503776083  0.0707283890261721
  0.4997152409662746  0.0000419284383995  0.0710749883999640
  0.8345330608535093  0.0000057969463398  0.0704866069898316
  0.1672323118739385  0.3335117953827478  0.0707170959100765
  0.4990997107198893  0.3337179332801838  0.0704429304025851
  0.8339244526363103  0.3336824828731864  0.0711078152862328
  0.1668542828105899  0.6668821083818415  0.0702764570328895
  0.4995950058386001  0.6664022270210879  0.0702953882417958
  0.8341070688105745  0.6673453401988283  0.0703022023245197
  0.1501994817286985  0.9722329024572502  0.5891027178447672
  0.4976383587024529  0.9994839515505305  0.5686399075760917
  0.8310457411012067  0.9991139885489559  0.5698691766491706
  0.1840808008566199  0.3612991369607954  0.5896156768269094
  0.5028430348267676  0.3343405440236538  0.5699729215460678
  0.8359667778124305  0.3338364479377347  0.5684072207811255
  0.1667040456361235  0.6666633521974887  0.5718277158162763
  0.5026310186764107  0.6659657752209611  0.5714207282095813
  0.8308674094415807  0.6675200236341396  0.5713985148071785
  0.0020578205677779  0.9990013404671174  0.2489004542455575
  0.3301696114635533  0.9958221711254254  0.2472841740865803
  0.6733994862551640  0.0023067546878721  0.2448248666315322
  0.0031866893049397  0.3380146028138356  0.2472502494657860
  0.3314685739872942  0.3346184396972021  0.2488603923002373
  0.6593287175318281  0.3312279847741237  0.2447064684149893
  0.0034768236130418  0.6681280675117662  0.2503317785736385
  0.3301813939698803  0.6655455987852932  0.2502809849544860
  0.6666953047992337  0.6668123659117740  0.2499471750592690
  0.9956933646638007  0.0031903531097441  0.7525511813530272
  0.3345469601501989  0.0020209117799510  0.7510136281898596
  0.6655457667039855  0.0033865454617086  0.7495662108621559
  0.9989870656568485  0.3314156151942100  0.7509669348637047
  0.3380271145155902  0.3302874682673931  0.7526766494185395
  0.6682357069933786  0.3301057619986167  0.7495446923017752
  0.0023009916671910  0.6597184784559857  0.7550081785624627
  0.3312160457537701  0.6740718543749651  0.7551974194320010
  0.6668733613602456  0.6668076037919448  0.7499174344726072
  0.1668441542725674  0.1667594444771439  0.2517754324706374
  0.5014699385337025  0.1678027760134810  0.2463519105684782
  0.8317603722789570  0.1655173435433568  0.2461836576212519
  0.1661645684805677  0.5001170955654004  0.2507317953067698
  0.4982009216608461  0.5042987443847622  0.2471377915265833
  0.8366659344408944  0.5128735778326003  0.2448343140995775
  0.1675388513043927  0.8335239144245108  0.2507909229249279
  0.4969927800218414  0.8209843711139015  0.2450227469685586
  0.8353418848276490  0.8290564539874694  0.2470213748913253
  0.1667350353703654  0.1667772762774220  0.7480743837528294
  0.5001977591468716  0.1675432667151284  0.7491236347642527
  0.8335358759878986  0.1661236764221528  0.7491278227313884
  0.1656610643437091  0.5017468454895848  0.7535769266164749
  0.5130882858475800  0.4969642922532316  0.7550147084100374
  0.8293094199465685  0.4982395162271445  0.7527721303250630
  0.1677993615529942  0.8320383793370851  0.7535972133544178
  0.5044087697905937  0.8354041164462345  0.7527760844547515
  0.8209699267573924  0.8366508324679387  0.7548938121278326
  0.1654521731080152  0.3350612523506555  0.3373314867955060
  0.5002594441810473  0.3358432350515344  0.3350434324330820
  0.8284897074580826  0.3385658407936845  0.3297964294935767
  0.1668521200101409  0.6667762403060848  0.3377023725108614
  0.4995572285079035  0.6651205129249647  0.3372050337872139
  0.8339019040075968  0.6683891225268113  0.3371743906181806
  0.1680066912073670  0.9985685558374797  0.3374284310888882
  0.5044989825035486  0.9951060214038066  0.3301637075545898
  0.8329240594479828  0.9975043348523513  0.3348790981566125
  0.1671376150608879  0.3324626594329274  0.8366853333998492
  0.5027053563917434  0.3318203716000241  0.8393593954838678
  0.8333974944962392  0.3320999257815984  0.8381409663269039
  0.1667229851178575  0.6668480111052020  0.8407455778006749
  0.5003312447534967  0.6665064280501483  0.8372825961527113
  0.8333398056308496  0.6671512897045702  0.8372884743559084
  0.1664372801377993  0.0012403096182894  0.8367446942830838
  0.5002391705745310  0.0015813162614009  0.8380972118547092
  0.8310249740798810  0.0017977270373422  0.8393301307413807
  0.3323837964274929  0.1665111296169712  0.1631006611030372
  0.6666177858485440  0.1667487806841166  0.1591135139004152
  0.0011675627302097  0.1671575558422518  0.1631866127407022
  0.3320958560517795  0.5002719560331883  0.1617343856548175
  0.6670638477299988  0.5003162128462932  0.1625766553322663
  0.0018491900643056  0.5026714065587186  0.1605089616342212
  0.3318488358749150  0.8310836521458711  0.1605681530286631
  0.6664062438734177  0.8333227694191905  0.1625759674637806
  0.0015806008788459  0.8333905087980895  0.1617700126593746
  0.3350654295789752  0.1680722872313467  0.6625350703804713
  0.6668355326927227  0.1667393229688230  0.6621605051160344
  0.9984930308093993  0.1654533866773207  0.6624832987518303
  0.3387545705949364  0.5049077322401345  0.6700087538532600
  0.6685430164430528  0.4996075271121114  0.6626543656068833
  0.9976554978712144  0.5003637932507772  0.6648487973522634
  0.3359074204122479  0.8331282471619375  0.6649053564779379
  0.6651714634246346  0.8339303845712038  0.6626784740888851
  0.9951249992666931  0.8287697024246441  0.6698046846086356
  0.1661498984994907  0.1671100658690605  0.4999713603681428
  0.5027021395293261  0.1701223896821489  0.4975048191890536
  0.8308400248234094  0.1631371188548201  0.4972859632694124
  0.1633019234922202  0.5024859949819174  0.5025295264236718
  0.5053497493926642  0.5018270093109720  0.4993250394777036
  0.8316078209791655  0.5054038229451550  0.5005381079661717
  0.1702149271365556  0.8307034757203553  0.5024216172487144
  0.5017895658431399  0.8282508528335342  0.5005965777949513
  0.8281685505634471  0.8316058890108096  0.4992261191571856
  0.1668145696183316  0.1668614763566438  0.9999311975144920
  0.4994745367633868  0.1667672040956489  0.0003835480972896
  0.8341531078387092  0.1669316521678752  0.0004398195876689
  0.1669159396930553  0.4995253726473976  0.9994573404888243
  0.5000832066290073  0.4998445329854917  0.9997860986475757
  0.8338498522598741  0.5001067733708808  0.0000971967100369
  0.1667380482272307  0.8341972790591896  0.9994613432150885
  0.4997942401071853  0.8335932074888106  0.0000410154625143
  0.8335617511184950  0.8338721536130009  0.9998236616366754
  0.0002990186385077  0.0003686955401818  0.9998816572469167
  0.3332859401617441  0.0003568607817215  0.9999865999186994
  0.6665542229386574  0.9997853363436562  0.0006565259182949
  0.0003143241392323  0.3333547722244106  0.0000242012885749
  0.3333103635750376  0.3333543701464734  0.9998398377619324
  0.6671104828731202  0.3339028302204881  0.0006637435854131
  0.9997636765909164  0.6671300210285622  0.9992281422349762
  0.3338714789731867  0.6665904891071506  0.9992013337488999
  0.6668404591373545  0.6668609249888888  0.9999416295893866
  0.9972986187696975  0.9857344659047342  0.5080423242982661
  0.3472166277439115  0.9972428994011580  0.4920799675437664
  0.6631305270537382  0.0000309778092600  0.4971141080964330
  0.9854890981624393  0.3362540367555908  0.4914439510990007
  0.3364426593990402  0.3473932994131843  0.5081003210105166
  0.6703687422477316  0.3333492303195129  0.4970444255627129
  0.0001354726117668  0.6703175305591458  0.5027607951032067
  0.3334255498807934  0.6631173708190303  0.5027706984719771
  0.6666959237375210  0.6667844854457314  0.4999190204155681
 
  0.00000000E+00  0.00000000E+00  0.00000000E+00
  0.00000000E+00  0.00000000E+00  0.00000000E+00
  0.00000000E+00  0.00000000E+00  0.00000000E+00
  0.00000000E+00  0.00000000E+00  0.00000000E+00
  0.00000000E+00  0.00000000E+00  0.00000000E+00
  0.00000000E+00  0.00000000E+00  0.00000000E+00
  0.00000000E+00  0.00000000E+00  0.00000000E+00
  0.00000000E+00  0.00000000E+00  0.00000000E+00
  0.00000000E+00  0.00000000E+00  0.00000000E+00
  0.00000000E+00  0.00000000E+00  0.00000000E+00
  0.00000000E+00  0.00000000E+00  0.00000000E+00
  0.00000000E+00  0.00000000E+00  0.00000000E+00
  0.00000000E+00  0.00000000E+00  0.00000000E+00
  0.00000000E+00  0.00000000E+00  0.00000000E+00
  0.00000000E+00  0.00000000E+00  0.00000000E+00
  0.00000000E+00  0.00000000E+00  0.00000000E+00
  0.00000000E+00  0.00000000E+00  0.00000000E+00
  0.00000000E+00  0.00000000E+00  0.00000000E+00
  0.00000000E+00  0.00000000E+00  0.00000000E+00
  0.00000000E+00  0.00000000E+00  0.00000000E+00
  0.00000000E+00  0.00000000E+00  0.00000000E+00
  0.00000000E+00  0.00000000E+00  0.00000000E+00
  0.00000000E+00  0.00000000E+00  0.00000000E+00
  0.00000000E+00  0.00000000E+00  0.00000000E+00
  0.00000000E+00  0.00000000E+00  0.00000000E+00
  0.00000000E+00  0.00000000E+00  0.00000000E+00
  0.00000000E+00  0.00000000E+00  0.00000000E+00
  0.00000000E+00  0.00000000E+00  0.00000000E+00
  0.00000000E+00  0.00000000E+00  0.00000000E+00
  0.00000000E+00  0.00000000E+00  0.00000000E+00
  0.00000000E+00  0.00000000E+00  0.00000000E+00
  0.00000000E+00  0.00000000E+00  0.00000000E+00
  0.00000000E+00  0.00000000E+00  0.00000000E+00
  0.00000000E+00  0.00000000E+00  0.00000000E+00
  0.00000000E+00  0.00000000E+00  0.00000000E+00
  0.00000000E+00  0.00000000E+00  0.00000000E+00
  0.00000000E+00  0.00000000E+00  0.00000000E+00
  0.00000000E+00  0.00000000E+00  0.00000000E+00
  0.00000000E+00  0.00000000E+00  0.00000000E+00
  0.00000000E+00  0.00000000E+00  0.00000000E+00
  0.00000000E+00  0.00000000E+00  0.00000000E+00
  0.00000000E+00  0.00000000E+00  0.00000000E+00
  0.00000000E+00  0.00000000E+00  0.00000000E+00
  0.00000000E+00  0.00000000E+00  0.00000000E+00
  0.00000000E+00  0.00000000E+00  0.00000000E+00
  0.00000000E+00  0.00000000E+00  0.00000000E+00
  0.00000000E+00  0.00000000E+00  0.00000000E+00
  0.00000000E+00  0.00000000E+00  0.00000000E+00
  0.00000000E+00  0.00000000E+00  0.00000000E+00
  0.00000000E+00  0.00000000E+00  0.00000000E+00
  0.00000000E+00  0.00000000E+00  0.00000000E+00
  0.00000000E+00  0.00000000E+00  0.00000000E+00
  0.00000000E+00  0.00000000E+00  0.00000000E+00
  0.00000000E+00  0.00000000E+00  0.00000000E+00
  0.00000000E+00  0.00000000E+00  0.00000000E+00
  0.00000000E+00  0.00000000E+00  0.00000000E+00
  0.00000000E+00  0.00000000E+00  0.00000000E+00
  0.00000000E+00  0.00000000E+00  0.00000000E+00
  0.00000000E+00  0.00000000E+00  0.00000000E+00
  0.00000000E+00  0.00000000E+00  0.00000000E+00
  0.00000000E+00  0.00000000E+00  0.00000000E+00
  0.00000000E+00  0.00000000E+00  0.00000000E+00
  0.00000000E+00  0.00000000E+00  0.00000000E+00
  0.00000000E+00  0.00000000E+00  0.00000000E+00
  0.00000000E+00  0.00000000E+00  0.00000000E+00
  0.00000000E+00  0.00000000E+00  0.00000000E+00
  0.00000000E+00  0.00000000E+00  0.00000000E+00
  0.00000000E+00  0.00000000E+00  0.00000000E+00
  0.00000000E+00  0.00000000E+00  0.00000000E+00
  0.00000000E+00  0.00000000E+00  0.00000000E+00
  0.00000000E+00  0.00000000E+00  0.00000000E+00
  0.00000000E+00  0.00000000E+00  0.00000000E+00
  0.00000000E+00  0.00000000E+00  0.00000000E+00
  0.00000000E+00  0.00000000E+00  0.00000000E+00
  0.00000000E+00  0.00000000E+00  0.00000000E+00
  0.00000000E+00  0.00000000E+00  0.00000000E+00
  0.00000000E+00  0.00000000E+00  0.00000000E+00
  0.00000000E+00  0.00000000E+00  0.00000000E+00
  0.00000000E+00  0.00000000E+00  0.00000000E+00
  0.00000000E+00  0.00000000E+00  0.00000000E+00
  0.00000000E+00  0.00000000E+00  0.00000000E+00
  0.00000000E+00  0.00000000E+00  0.00000000E+00
  0.00000000E+00  0.00000000E+00  0.00000000E+00
  0.00000000E+00  0.00000000E+00  0.00000000E+00
  0.00000000E+00  0.00000000E+00  0.00000000E+00
  0.00000000E+00  0.00000000E+00  0.00000000E+00
  0.00000000E+00  0.00000000E+00  0.00000000E+00
  0.00000000E+00  0.00000000E+00  0.00000000E+00
  0.00000000E+00  0.00000000E+00  0.00000000E+00
  0.00000000E+00  0.00000000E+00  0.00000000E+00
  0.00000000E+00  0.00000000E+00  0.00000000E+00
  0.00000000E+00  0.00000000E+00  0.00000000E+00
  0.00000000E+00  0.00000000E+00  0.00000000E+00
  0.00000000E+00  0.00000000E+00  0.00000000E+00
  0.00000000E+00  0.00000000E+00  0.00000000E+00
  0.00000000E+00  0.00000000E+00  0.00000000E+00
  0.00000000E+00  0.00000000E+00  0.00000000E+00
  0.00000000E+00  0.00000000E+00  0.00000000E+00
  0.00000000E+00  0.00000000E+00  0.00000000E+00
  0.00000000E+00  0.00000000E+00  0.00000000E+00
  0.00000000E+00  0.00000000E+00  0.00000000E+00
  0.00000000E+00  0.00000000E+00  0.00000000E+00
  0.00000000E+00  0.00000000E+00  0.00000000E+00
  0.00000000E+00  0.00000000E+00  0.00000000E+00
  0.00000000E+00  0.00000000E+00  0.00000000E+00
  0.00000000E+00  0.00000000E+00  0.00000000E+00
  0.00000000E+00  0.00000000E+00  0.00000000E+00
  0.00000000E+00  0.00000000E+00  0.00000000E+00
  0.00000000E+00  0.00000000E+00  0.00000000E+00
  0.00000000E+00  0.00000000E+00  0.00000000E+00
  0.00000000E+00  0.00000000E+00  0.00000000E+00
  0.00000000E+00  0.00000000E+00  0.00000000E+00
  0.00000000E+00  0.00000000E+00  0.00000000E+00
  0.00000000E+00  0.00000000E+00  0.00000000E+00
  0.00000000E+00  0.00000000E+00  0.00000000E+00
  0.00000000E+00  0.00000000E+00  0.00000000E+00
  0.00000000E+00  0.00000000E+00  0.00000000E+00
  0.00000000E+00  0.00000000E+00  0.00000000E+00
  0.00000000E+00  0.00000000E+00  0.00000000E+00
  0.00000000E+00  0.00000000E+00  0.00000000E+00
  0.00000000E+00  0.00000000E+00  0.00000000E+00
  0.00000000E+00  0.00000000E+00  0.00000000E+00
  0.00000000E+00  0.00000000E+00  0.00000000E+00
  0.00000000E+00  0.00000000E+00  0.00000000E+00
  0.00000000E+00  0.00000000E+00  0.00000000E+00
  0.00000000E+00  0.00000000E+00  0.00000000E+00
  0.00000000E+00  0.00000000E+00  0.00000000E+00
  0.00000000E+00  0.00000000E+00  0.00000000E+00
  0.00000000E+00  0.00000000E+00  0.00000000E+00
  0.00000000E+00  0.00000000E+00  0.00000000E+00
  0.00000000E+00  0.00000000E+00  0.00000000E+00
  0.00000000E+00  0.00000000E+00  0.00000000E+00
  0.00000000E+00  0.00000000E+00  0.00000000E+00
  0.00000000E+00  0.00000000E+00  0.00000000E+00
  0.00000000E+00  0.00000000E+00  0.00000000E+00
  0.00000000E+00  0.00000000E+00  0.00000000E+00
  0.00000000E+00  0.00000000E+00  0.00000000E+00
  0.00000000E+00  0.00000000E+00  0.00000000E+00
  0.00000000E+00  0.00000000E+00  0.00000000E+00
  0.00000000E+00  0.00000000E+00  0.00000000E+00
  0.00000000E+00  0.00000000E+00  0.00000000E+00
  0.00000000E+00  0.00000000E+00  0.00000000E+00
  0.00000000E+00  0.00000000E+00  0.00000000E+00
  0.00000000E+00  0.00000000E+00  0.00000000E+00
