supercell of icsd_191774.cif            
   1.00000000000000     
    10.7883008060774355    0.0001737512247358    0.0025972160334366
    -5.3939984410525712    9.3510393110769314    0.0057703561144791
     0.0028890280950136    0.0089914562918057   11.3220959292029733
   N    In   Y 
    36    30     6
Direct
  0.2286855568383004  0.1052034806953444  0.4405330905967020
  0.1191465505815970  0.2255300764724808  0.1977586401805382
  0.8892946155876231  0.1113998140184407  0.9494562236484398
  0.7737011589752285  0.2128550713119566  0.6910396397783956
  0.5590459865311388  0.1190078654578528  0.4396194180221116
  0.4398540143058653  0.2142430766372101  0.1863016216801654
  0.2214671589837423  0.1106430292115448  0.9400374496349215
  0.1066271324971098  0.2152922338423764  0.6905862331513433
  0.8800440411296506  0.1053294175283028  0.4356518360027692
  0.7720180334983979  0.2284121381048507  0.1890026998996248
  0.5550024773790128  0.1099129006021684  0.9403228992041122
  0.4455385425114500  0.2242041828633887  0.6944873821091448
  0.2272287846224827  0.4517045840695957  0.4445115319233537
  0.1095657852140661  0.5543020823066911  0.1929707443017250
  0.8900640545829788  0.4456995503764958  0.9410033918761869
  0.7747559006513356  0.5619347806828756  0.6888072159150056
  0.5544775286762729  0.4429998190873761  0.4413057503462454
  0.4405073304949809  0.5592785407505971  0.1893497933146548
  0.2210773345518362  0.4441154631421611  0.9450353125491588
  0.1158187793281229  0.5646637908231966  0.6889100321166595
  0.8879547533855074  0.4433036544002817  0.4457924759648435
  0.7866851448985059  0.5603754451977565  0.1911764986040581
  0.5567042926126220  0.4456189270214281  0.9457999570288109
  0.4533226424528607  0.5620021209849568  0.6915440324308690
  0.2142734584346471  0.7743188642585608  0.4365009056826779
  0.1096906788125978  0.8887520985435060  0.1885491367224290
  0.8899790852580125  0.7777159191402347  0.9381530241586873
  0.7785710620586030  0.8905426967745242  0.6925992769442075
  0.5606732702803754  0.7745127801441427  0.4397411983469794
  0.4450175534886185  0.8891550087114055  0.1950312393763056
  0.2222060519413347  0.7773503862290525  0.9442108360983426
  0.1121190737511668  0.8890556641266301  0.6917446708050718
  0.8899634938887999  0.7794947294480679  0.4413192734434617
  0.7722688673016620  0.8766282335098907  0.1868869242341802
  0.5546413292649035  0.7784891468682105  0.9402732008041284
  0.4430446215202650  0.8883804325236042  0.6921786406841406
  0.2249970047301630  0.1067431377588477  0.2487844791255043
  0.8880727725861988  0.1080897246948140  0.7534073489532105
  0.7755750986391874  0.2253237491465825  0.9984526255684614
  0.5535881683046426  0.1129018105748330  0.2480119073100511
  0.4476578388389783  0.2241120083337620  0.5019237806444323
  0.2207464537856367  0.1093188446587021  0.7487179635016687
  0.1154295431221470  0.2238954652906386  0.0027817818907607
  0.7760067963192512  0.2188880658655066  0.4984724131670575
  0.5535742689615191  0.1076630000167782  0.7494780294675962
  0.4428461537472970  0.2192336744116119  0.9958669696780973
  0.2245440288913798  0.4494309711435491  0.2501772450619555
  0.1116777951836383  0.5591778260068097  0.4974796799797474
  0.7823392703824439  0.5582597679207950  0.9999714562299857
  0.4501313755556495  0.5578052501581254  0.5001795661741468
  0.1099662624403521  0.5548037125838903  0.0020743874345044
  0.8893548593007665  0.4461084066758900  0.2515248440676103
  0.7758168216814738  0.5574324086282871  0.4982183069529000
  0.5576164491454989  0.4479774276442328  0.7512480911921315
  0.4432208266788251  0.5578721692309898  0.9991281785457247
  0.2186293392030052  0.7767111419104822  0.2461023735894656
  0.1103068223752217  0.8856847516966226  0.4996798404476479
  0.8891609568607279  0.7800590237167953  0.7471911789048349
  0.7756422974169013  0.8835035100922823  0.9967323663466914
  0.5549863251430409  0.7752110628528044  0.2482966687232491
  0.2235426997393262  0.7802571350444722  0.7519144520347112
  0.1104337614203033  0.8890018262490997  0.9978661944481715
  0.8907722361055050  0.7776334038359778  0.2494190759534831
  0.7778527614551010  0.8879201606161615  0.5000561681103903
  0.5577493897597492  0.7810138818879864  0.7492525024871171
  0.4447003126053133  0.8891162374713630  0.0010827419643462
  0.1093837055921654  0.2174210100166576  0.4909343267887181
  0.8829573893312670  0.1074675831101501  0.2369956281968371
  0.8863215110476190  0.4445250399845264  0.7426432598686148
  0.5551679802892764  0.4435381526349076  0.2423029518012640
  0.2245029028681955  0.4450734788521160  0.7464145930247952
  0.4436916742005792  0.8883971734158180  0.4928244247836773
 
  0.00000000E+00  0.00000000E+00  0.00000000E+00
  0.00000000E+00  0.00000000E+00  0.00000000E+00
  0.00000000E+00  0.00000000E+00  0.00000000E+00
  0.00000000E+00  0.00000000E+00  0.00000000E+00
  0.00000000E+00  0.00000000E+00  0.00000000E+00
  0.00000000E+00  0.00000000E+00  0.00000000E+00
  0.00000000E+00  0.00000000E+00  0.00000000E+00
  0.00000000E+00  0.00000000E+00  0.00000000E+00
  0.00000000E+00  0.00000000E+00  0.00000000E+00
  0.00000000E+00  0.00000000E+00  0.00000000E+00
  0.00000000E+00  0.00000000E+00  0.00000000E+00
  0.00000000E+00  0.00000000E+00  0.00000000E+00
  0.00000000E+00  0.00000000E+00  0.00000000E+00
  0.00000000E+00  0.00000000E+00  0.00000000E+00
  0.00000000E+00  0.00000000E+00  0.00000000E+00
  0.00000000E+00  0.00000000E+00  0.00000000E+00
  0.00000000E+00  0.00000000E+00  0.00000000E+00
  0.00000000E+00  0.00000000E+00  0.00000000E+00
  0.00000000E+00  0.00000000E+00  0.00000000E+00
  0.00000000E+00  0.00000000E+00  0.00000000E+00
  0.00000000E+00  0.00000000E+00  0.00000000E+00
  0.00000000E+00  0.00000000E+00  0.00000000E+00
  0.00000000E+00  0.00000000E+00  0.00000000E+00
  0.00000000E+00  0.00000000E+00  0.00000000E+00
  0.00000000E+00  0.00000000E+00  0.00000000E+00
  0.00000000E+00  0.00000000E+00  0.00000000E+00
  0.00000000E+00  0.00000000E+00  0.00000000E+00
  0.00000000E+00  0.00000000E+00  0.00000000E+00
  0.00000000E+00  0.00000000E+00  0.00000000E+00
  0.00000000E+00  0.00000000E+00  0.00000000E+00
  0.00000000E+00  0.00000000E+00  0.00000000E+00
  0.00000000E+00  0.00000000E+00  0.00000000E+00
  0.00000000E+00  0.00000000E+00  0.00000000E+00
  0.00000000E+00  0.00000000E+00  0.00000000E+00
  0.00000000E+00  0.00000000E+00  0.00000000E+00
  0.00000000E+00  0.00000000E+00  0.00000000E+00
  0.00000000E+00  0.00000000E+00  0.00000000E+00
  0.00000000E+00  0.00000000E+00  0.00000000E+00
  0.00000000E+00  0.00000000E+00  0.00000000E+00
  0.00000000E+00  0.00000000E+00  0.00000000E+00
  0.00000000E+00  0.00000000E+00  0.00000000E+00
  0.00000000E+00  0.00000000E+00  0.00000000E+00
  0.00000000E+00  0.00000000E+00  0.00000000E+00
  0.00000000E+00  0.00000000E+00  0.00000000E+00
  0.00000000E+00  0.00000000E+00  0.00000000E+00
  0.00000000E+00  0.00000000E+00  0.00000000E+00
  0.00000000E+00  0.00000000E+00  0.00000000E+00
  0.00000000E+00  0.00000000E+00  0.00000000E+00
  0.00000000E+00  0.00000000E+00  0.00000000E+00
  0.00000000E+00  0.00000000E+00  0.00000000E+00
  0.00000000E+00  0.00000000E+00  0.00000000E+00
  0.00000000E+00  0.00000000E+00  0.00000000E+00
  0.00000000E+00  0.00000000E+00  0.00000000E+00
  0.00000000E+00  0.00000000E+00  0.00000000E+00
  0.00000000E+00  0.00000000E+00  0.00000000E+00
  0.00000000E+00  0.00000000E+00  0.00000000E+00
  0.00000000E+00  0.00000000E+00  0.00000000E+00
  0.00000000E+00  0.00000000E+00  0.00000000E+00
  0.00000000E+00  0.00000000E+00  0.00000000E+00
  0.00000000E+00  0.00000000E+00  0.00000000E+00
  0.00000000E+00  0.00000000E+00  0.00000000E+00
  0.00000000E+00  0.00000000E+00  0.00000000E+00
  0.00000000E+00  0.00000000E+00  0.00000000E+00
  0.00000000E+00  0.00000000E+00  0.00000000E+00
  0.00000000E+00  0.00000000E+00  0.00000000E+00
  0.00000000E+00  0.00000000E+00  0.00000000E+00
  0.00000000E+00  0.00000000E+00  0.00000000E+00
  0.00000000E+00  0.00000000E+00  0.00000000E+00
  0.00000000E+00  0.00000000E+00  0.00000000E+00
  0.00000000E+00  0.00000000E+00  0.00000000E+00
  0.00000000E+00  0.00000000E+00  0.00000000E+00
  0.00000000E+00  0.00000000E+00  0.00000000E+00
