Al   Hf   Mg   N                        
   1.00000000000000     
   -10.1944763700053613   -0.0009129121817431    0.0037151050038795
    -5.1074930638602982    8.7892740279662736    0.0091823233304511
    -0.0190589684046580   -0.0093910236769219   -8.7273562176327957
   Al   Hf   Mg   N 
    28     4     4    36
Direct
  0.1065961952474243  0.0906090306357793  0.3313537070739198
  0.2254030534621931  0.2005802999378006  0.0956062198708120
  0.7838736442128819  0.0910151481885979  0.8458421405466773
  0.8852987863952015  0.2011766845770554  0.5878052923603799
  0.4514885713261110  0.0894398734272675  0.3363948218477941
  0.5617260026482679  0.1954181106690243  0.1040952516013699
  0.1037677297026567  0.0896629310618292  0.8582823458491603
  0.7826927152074483  0.0917547568772195  0.3382745478947022
  0.8882262770334020  0.2056569793326077  0.0993229032871727
  0.4574593499222481  0.0866058508232350  0.8563146461849613
  0.5657962194091315  0.1994081295235958  0.5814507750242739
  0.1096983320835144  0.4272369005471472  0.3288309314802418
  0.2164337786331199  0.5444038898799272  0.1060837787723634
  0.7808952691640085  0.4213525170119454  0.8656406982158298
  0.4478710463756645  0.4219596083049487  0.3325054268715955
  0.5596126139841172  0.5466749789410151  0.1130305888951833
  0.1074312779549808  0.4293813043815005  0.8705973508262589
  0.8851321946754547  0.5418541505618699  0.1016322312116600
  0.5534983534250350  0.5385117783208686  0.5708198586318255
  0.1021124061476162  0.7745812966562955  0.3350028745696735
  0.2276902356752814  0.8692983948212732  0.0952708716218943
  0.7754171594785483  0.7717842551868527  0.8565432070473528
  0.8837839326779030  0.8821236519215072  0.5901084696454448
  0.5543802499238605  0.8694090348949496  0.1001787053896915
  0.1009038426358145  0.7745675317971156  0.8580630163123764
  0.2197271978317170  0.8718038617487821  0.5917897251536905
  0.7772031242780911  0.7694708193827935  0.3338737878730165
  0.8874497564210001  0.8747341596397864  0.0943648342549444
  0.2268707062199733  0.1957138139745151  0.6056241270117877
  0.8777353039252830  0.5452030743458185  0.6030804884634032
  0.2208439096079368  0.5491889523522033  0.5968400213997552
  0.4542135961697045  0.4225444678608039  0.8627341603698014
  0.7806545927714960  0.4208828495182070  0.3425100814499664
  0.4400817825990112  0.7664596694707655  0.3512393191694098
  0.4447484832293709  0.7619111929428121  0.8510713483846278
  0.5557462739467944  0.8695878214997368  0.6008718753187626
  0.2207076510616154  0.2054416019709013  0.3516135369144565
  0.1113444751615450  0.0966465748916129  0.1062727275705862
  0.8877450718568701  0.2030600087618405  0.8684637260762084
  0.7766849807676666  0.0961570236145771  0.6132710396577009
  0.5582648378225663  0.2029513909944183  0.3539557684052634
  0.4415882723407149  0.0980906485345337  0.1089073883595687
  0.2233976578231755  0.2051566464251623  0.8636864116240105
  0.1008266336116089  0.0877528535428719  0.6207326131882829
  0.8964548084321116  0.1902498445882522  0.3596440349273449
  0.7796746621272701  0.0936903131810766  0.1153682592043018
  0.5710270384147526  0.1880075595278898  0.8738170232557201
  0.4555881223425268  0.1024943628632765  0.6154823403535377
  0.2196161943504861  0.5389384807971528  0.3484332809937007
  0.1118209563402869  0.4271022272281876  0.1033322878548061
  0.8899945631423885  0.5383019650601282  0.8623056422930556
  0.7671489844959437  0.4193172824124870  0.6133080944806510
  0.5502741199994416  0.5274807000147468  0.3473715960163660
  0.4372448249123191  0.4231519484337446  0.1110891787539923
  0.2074607009984771  0.5499250335568252  0.8598454950769073
  0.1110552551357179  0.4282098149304492  0.6151657811035471
  0.8963415401463495  0.5474387791338984  0.3518437478824194
  0.7854037724548905  0.4257373298700080  0.1020942746595268
  0.5720023559053191  0.5292457044502723  0.8799059745264850
  0.4583417337634597  0.4171828257006455  0.6080880357547704
  0.2044846529517395  0.8816346960753887  0.3574195261781257
  0.1084773111082859  0.7614015004666929  0.1105760695731412
  0.8883082790338206  0.8765903030605420  0.8687734019986642
  0.7854283354947225  0.7728672020456069  0.6203731426147251
  0.5658667215980941  0.8788105017099692  0.3448177526105458
  0.4425833661849517  0.7635563207226739  0.1078952979673084
  0.2070767070265746  0.8778172831576162  0.8688542730982297
  0.0968369321089461  0.7812004075079118  0.6114857619465863
  0.8871376282126211  0.8747301196408813  0.3586989917344945
  0.7834593399093362  0.7598975476945629  0.1053836688508936
  0.5638211337988490  0.8772719613071852  0.8704542822113089
  0.4345262356537978  0.7503906542063709  0.6037479513975321
 
             NaN             NaN             NaN
             NaN             NaN             NaN
             NaN             NaN             NaN
             NaN             NaN             NaN
             NaN             NaN             NaN
             NaN             NaN             NaN
             NaN             NaN             NaN
             NaN             NaN             NaN
             NaN             NaN             NaN
             NaN             NaN             NaN
             NaN             NaN             NaN
             NaN             NaN             NaN
             NaN             NaN             NaN
             NaN             NaN             NaN
             NaN             NaN             NaN
             NaN             NaN             NaN
             NaN             NaN             NaN
             NaN             NaN             NaN
             NaN             NaN             NaN
             NaN             NaN             NaN
             NaN             NaN             NaN
             NaN             NaN             NaN
             NaN             NaN             NaN
             NaN             NaN             NaN
             NaN             NaN             NaN
             NaN             NaN             NaN
             NaN             NaN             NaN
             NaN             NaN             NaN
             NaN             NaN             NaN
             NaN             NaN             NaN
             NaN             NaN             NaN
             NaN             NaN             NaN
             NaN             NaN             NaN
             NaN             NaN             NaN
             NaN             NaN             NaN
             NaN             NaN             NaN
             NaN             NaN             NaN
             NaN             NaN             NaN
             NaN             NaN             NaN
             NaN             NaN             NaN
             NaN             NaN             NaN
             NaN             NaN             NaN
             NaN             NaN             NaN
             NaN             NaN             NaN
             NaN             NaN             NaN
             NaN             NaN             NaN
             NaN             NaN             NaN
             NaN             NaN             NaN
             NaN             NaN             NaN
             NaN             NaN             NaN
             NaN             NaN             NaN
             NaN             NaN             NaN
             NaN             NaN             NaN
             NaN             NaN             NaN
             NaN             NaN             NaN
             NaN             NaN             NaN
             NaN             NaN             NaN
             NaN             NaN             NaN
             NaN             NaN             NaN
             NaN             NaN             NaN
             NaN             NaN             NaN
             NaN             NaN             NaN
             NaN             NaN             NaN
             NaN             NaN             NaN
             NaN             NaN             NaN
             NaN             NaN             NaN
             NaN             NaN             NaN
             NaN             NaN             NaN
             NaN             NaN             NaN
             NaN             NaN             NaN
             NaN             NaN             NaN
             NaN             NaN             NaN
