Al   Hf   Mg   N                        
   1.00000000000000     
    -9.8538936280742941   -0.0008648890493188    0.0043575503403303
    -4.9350188193532780    8.5023123463930723    0.0091903343782747
    -0.0099804638524844   -0.0069390059274453   -9.6892358670597307
   Al   Hf   Mg   N 
    28     4     4    36
Direct
  0.1057925480645997  0.0914965167459754  0.3226354583713282
  0.2243757839687198  0.2000441361867178  0.0735268620053355
  0.7841096309773293  0.0891298384134933  0.8277025014265503
  0.8847352672095342  0.1995419201544808  0.5745643021251000
  0.4501149321707268  0.0898680350452331  0.3218783960608363
  0.5630666785951636  0.1933093739265903  0.0854924262973498
  0.1050202025751615  0.0883301757999370  0.8358681896742280
  0.7815156797790547  0.0932144155546839  0.3274249087726949
  0.8886977770084493  0.2063750726540020  0.0792258550369039
  0.4580556388044502  0.0851518553594025  0.8346006488951443
  0.5652988671871415  0.2003771203732732  0.5710933550906199
  0.1093149489111176  0.4276498367807652  0.3149090194509601
  0.2131010851058952  0.5470711825372657  0.0812094909649046
  0.7796144445087452  0.4213177138615918  0.8384786317386689
  0.4476391231512075  0.4228538654574607  0.3147296536606219
  0.5618235493295026  0.5455040827421739  0.0903146285879343
  0.1075738614764493  0.4287889490051138  0.8473116100208217
  0.8840652656717291  0.5410014249731175  0.0728212539147325
  0.5531249782376350  0.5364804614030727  0.5643381757490863
  0.1042015279451543  0.7713158839891843  0.3225944078285075
  0.2247341877882224  0.8710511201820172  0.0782996727127737
  0.7750491124055596  0.7726700144400852  0.8364273185059117
  0.8828895338597365  0.8823562581600968  0.5737227536270078
  0.5549252102752208  0.8700415084521821  0.0824722559152231
  0.0994169372592981  0.7768909912538376  0.8328163504561864
  0.2184954559715347  0.8721456118260424  0.5729731393682721
  0.7778677954447114  0.7673240305578991  0.3213960714542917
  0.8887903154536926  0.8741857434862106  0.0788011440323974
  0.2278335617220194  0.1951503070398439  0.5916411866418426
  0.8790332420669628  0.5461938630037830  0.5918646181652250
  0.2268550644308491  0.5467778568943359  0.5817646596749262
  0.4519059750486972  0.4239430202373431  0.8553638088664274
  0.7808091678845901  0.4233389622915176  0.3278921116095206
  0.4415571041745966  0.7640529871177715  0.3376816684624906
  0.4431334340758420  0.7647538818311784  0.8338580259575123
  0.5559270941876426  0.8704594910189379  0.5777152188529799
  0.2207825160190242  0.2072088930766947  0.3735500541643509
  0.1110852840070682  0.0964142571518453  0.1255161644220162
  0.8881286369766268  0.2023283354499444  0.8814137804091202
  0.7764156220304478  0.0953862626657985  0.6296595806968606
  0.5550394287200338  0.2053617220931689  0.3720121829769992
  0.4405857872850109  0.0975035886149351  0.1253229830254620
  0.2243601991898435  0.2018253607718547  0.8709808138300499
  0.0997409537631593  0.0863972588525904  0.6375046248474472
  0.8959760483785849  0.1909636459340055  0.3813188978750502
  0.7805881522524875  0.0935674006789523  0.1319151746144117
  0.5727133662811856  0.1843650003462957  0.8892256410498386
  0.4576744622349108  0.1024277742092469  0.6385190441970512
  0.2220517022308442  0.5363985890746999  0.3652870361786679
  0.1101164621723709  0.4266524010063119  0.1151896048284913
  0.8868168817403314  0.5402435590883231  0.8691294016670514
  0.7674865036761553  0.4172113404947779  0.6333713736802011
  0.5489543679015717  0.5253243830894729  0.3708333037299986
  0.4406983874711895  0.4255043368691396  0.1119679189775431
  0.2035587261594929  0.5535705286898229  0.8765056266768894
  0.1143015057565530  0.4292791658604234  0.6456179059777474
  0.9000778284868194  0.5478442067386514  0.3784041639924037
  0.7845657687554541  0.4262087071919496  0.1163612590731675
  0.5728213632655527  0.5328496068380714  0.8921599376100767
  0.4620018601098727  0.4147792496414431  0.6341701376109402
  0.2024368803151086  0.8817938237260665  0.3787237550786400
  0.1085885802853268  0.7629362993430944  0.1282429962005842
  0.8880218058263167  0.8763335219338225  0.8840451684986885
  0.7844170768355099  0.7757981436070167  0.6405284167926177
  0.5663087182216955  0.8796823420264865  0.3651841927515024
  0.4417403701430524  0.7641085412172383  0.1189850256109689
  0.2060867637498590  0.8784774899291536  0.8852151341424032
  0.0964477654889408  0.7809860889427955  0.6333667103353563
  0.8882517945277325  0.8734229311017588  0.3769767714340530
  0.7832091596790429  0.7588204188633612  0.1230335633140340
  0.5644056812465890  0.8772448520807118  0.8853947587063556
  0.4335584720117256  0.7504896369028488  0.6144051391515652
 
             NaN             NaN             NaN
             NaN             NaN             NaN
             NaN             NaN             NaN
             NaN             NaN             NaN
             NaN             NaN             NaN
             NaN             NaN             NaN
             NaN             NaN             NaN
             NaN             NaN             NaN
             NaN             NaN             NaN
             NaN             NaN             NaN
             NaN             NaN             NaN
             NaN             NaN             NaN
             NaN             NaN             NaN
             NaN             NaN             NaN
             NaN             NaN             NaN
             NaN             NaN             NaN
             NaN             NaN             NaN
             NaN             NaN             NaN
             NaN             NaN             NaN
             NaN             NaN             NaN
             NaN             NaN             NaN
             NaN             NaN             NaN
             NaN             NaN             NaN
             NaN             NaN             NaN
             NaN             NaN             NaN
             NaN             NaN             NaN
             NaN             NaN             NaN
             NaN             NaN             NaN
             NaN             NaN             NaN
             NaN             NaN             NaN
             NaN             NaN             NaN
             NaN             NaN             NaN
             NaN             NaN             NaN
             NaN             NaN             NaN
             NaN             NaN             NaN
             NaN             NaN             NaN
             NaN             NaN             NaN
             NaN             NaN             NaN
             NaN             NaN             NaN
             NaN             NaN             NaN
             NaN             NaN             NaN
             NaN             NaN             NaN
             NaN             NaN             NaN
             NaN             NaN             NaN
             NaN             NaN             NaN
             NaN             NaN             NaN
             NaN             NaN             NaN
             NaN             NaN             NaN
             NaN             NaN             NaN
             NaN             NaN             NaN
             NaN             NaN             NaN
             NaN             NaN             NaN
             NaN             NaN             NaN
             NaN             NaN             NaN
             NaN             NaN             NaN
             NaN             NaN             NaN
             NaN             NaN             NaN
             NaN             NaN             NaN
             NaN             NaN             NaN
             NaN             NaN             NaN
             NaN             NaN             NaN
             NaN             NaN             NaN
             NaN             NaN             NaN
             NaN             NaN             NaN
             NaN             NaN             NaN
             NaN             NaN             NaN
             NaN             NaN             NaN
             NaN             NaN             NaN
             NaN             NaN             NaN
             NaN             NaN             NaN
             NaN             NaN             NaN
             NaN             NaN             NaN
