Al   Hf   Mg   N                        
   1.00000000000000     
    -9.6701400675069262   -0.0008100054694052    0.0050917735819885
    -4.8341202718205709    8.3562447469938288    0.0091994898615018
     0.0056672835347896   -0.0082570509347833  -10.1606447692761321
   Al   Hf   Mg   N 
    28     4     4    36
Direct
  0.1053705695679019  0.0906670454585967  0.2998856931698398
  0.2235357098755236  0.2017607203396194  0.0534918560323124
  0.7842165056194979  0.0884473567092558  0.8050468299407363
  0.8847034577318340  0.1992528814072574  0.5523801869240215
  0.4520960588849915  0.0885726092480810  0.2966640755843885
  0.5619381421648697  0.1970266017942801  0.0595090023660045
  0.1072953790977551  0.0900519839015902  0.8112758720336014
  0.7808673931412138  0.0938319363955257  0.3050759299051199
  0.8884932352309819  0.2067428445745470  0.0537715776053560
  0.4535940839953237  0.0862907172325498  0.8110711159020378
  0.5655777012038546  0.1978897799067708  0.5486830688620205
  0.1089489915544510  0.4282830816816676  0.2900543797102987
  0.2156785544319192  0.5453794370756448  0.0597337342876769
  0.7810874500571375  0.4221302643898461  0.8113069581625801
  0.4507820548724400  0.4235099561598576  0.2937140644220565
  0.5610193711425215  0.5436595376558134  0.0567224459523494
  0.1073984390091958  0.4283986265406219  0.8193595221642358
  0.8849531952716345  0.5404047793580355  0.0505934925955872
  0.5534811313005793  0.5382857481816107  0.5465397196432147
  0.1049260008416424  0.7716460451618915  0.2981141460930721
  0.2235494296589262  0.8720605924307281  0.0526280201254470
  0.7760685012357502  0.7691604297968596  0.8112337716573622
  0.8833051927840088  0.8813289592741569  0.5514489111906361
  0.5558105880844669  0.8703272672231397  0.0541664432190553
  0.1007371390284952  0.7741665238497994  0.8099256872226944
  0.2195129253721109  0.8719686266021551  0.5509559602554154
  0.7763521684551943  0.7683904813212284  0.2978678359192656
  0.8884072950067035  0.8741678391893875  0.0545628231100045
  0.2282194001080815  0.1950491651935361  0.5573042329690735
  0.8795171702352717  0.5455840803492282  0.5599076173300312
  0.2275340390531045  0.5479137434140352  0.5475025944237523
  0.4482767426489761  0.4245593537442643  0.8213935350812941
  0.7762496528099666  0.4249709625701210  0.3011760520327826
  0.4432196212825176  0.7616454195924984  0.3070180848789889
  0.4421162058055313  0.7663757632504696  0.8070911089277925
  0.5550225955336856  0.8701508906302825  0.5521451351372677
  0.2219778597129669  0.2066619726557025  0.3510394065342414
  0.1101988233129616  0.0955949731824712  0.1106084173721238
  0.8888249095882791  0.2028616557192263  0.8633245795982176
  0.7767443325760534  0.0944056919951455  0.6143095173250576
  0.5549568424099592  0.2050691979506231  0.3582629094608532
  0.4430395893734555  0.0963763799323748  0.1086440376621137
  0.2238139439553792  0.2033929364808796  0.8594671418322948
  0.1013258621069349  0.0878605576614853  0.6208010725961772
  0.8955169371913456  0.1923868143274830  0.3675190885611109
  0.7801308030920188  0.0941887076286951  0.1154535942341888
  0.5703877672723600  0.1861395741037654  0.8713807240610464
  0.4547362638858649  0.1026267053242261  0.6234358605069281
  0.2220461687194608  0.5374478981856102  0.3427420463929865
  0.1098422334236376  0.4270269641274061  0.1024611269436181
  0.8874315901363228  0.5399457037491040  0.8560176297286134
  0.7696209312317970  0.4169905471166875  0.6183676345449980
  0.5475816511955099  0.5269921302701961  0.3649139920341911
  0.4443279174444431  0.4264978301520037  0.0992842552843866
  0.2028437028960709  0.5522485787203895  0.8663284641507113
  0.1160222262990782  0.4295849106077599  0.6259125125378708
  0.8992333544105553  0.5478360936006214  0.3581418551346410
  0.7816921814215048  0.4268534295438915  0.0991851227240991
  0.5719957033067803  0.5319313408946867  0.8700053193484242
  0.4599662093369513  0.4144792408500719  0.6141908229976278
  0.2044272552485302  0.8805676620215493  0.3650019044442889
  0.1085022561883260  0.7644357896875709  0.1116673713195396
  0.8878478815682845  0.8749923891758042  0.8667222776890577
  0.7848927469633831  0.7731864670225436  0.6238224771685333
  0.5652618687532934  0.8794195565321400  0.3515213663155715
  0.4428133574429298  0.7626757699877059  0.0988100359228772
  0.2055797001627891  0.8794254466505809  0.8678314437496119
  0.0982742818666393  0.7780581102116862  0.6180394050505835
  0.8890101540040303  0.8729274614181488  0.3619214657461491
  0.7815948403771074  0.7601545049444134  0.1076921091140148
  0.5646578153596582  0.8773160656578900  0.8673545836268567
  0.4331590712045852  0.7513521727919591  0.6023654569143112
 
             NaN             NaN             NaN
             NaN             NaN             NaN
             NaN             NaN             NaN
             NaN             NaN             NaN
             NaN             NaN             NaN
             NaN             NaN             NaN
             NaN             NaN             NaN
             NaN             NaN             NaN
             NaN             NaN             NaN
             NaN             NaN             NaN
             NaN             NaN             NaN
             NaN             NaN             NaN
             NaN             NaN             NaN
             NaN             NaN             NaN
             NaN             NaN             NaN
             NaN             NaN             NaN
             NaN             NaN             NaN
             NaN             NaN             NaN
             NaN             NaN             NaN
             NaN             NaN             NaN
             NaN             NaN             NaN
             NaN             NaN             NaN
             NaN             NaN             NaN
             NaN             NaN             NaN
             NaN             NaN             NaN
             NaN             NaN             NaN
             NaN             NaN             NaN
             NaN             NaN             NaN
             NaN             NaN             NaN
             NaN             NaN             NaN
             NaN             NaN             NaN
             NaN             NaN             NaN
             NaN             NaN             NaN
             NaN             NaN             NaN
             NaN             NaN             NaN
             NaN             NaN             NaN
             NaN             NaN             NaN
             NaN             NaN             NaN
             NaN             NaN             NaN
             NaN             NaN             NaN
             NaN             NaN             NaN
             NaN             NaN             NaN
             NaN             NaN             NaN
             NaN             NaN             NaN
             NaN             NaN             NaN
             NaN             NaN             NaN
             NaN             NaN             NaN
             NaN             NaN             NaN
             NaN             NaN             NaN
             NaN             NaN             NaN
             NaN             NaN             NaN
             NaN             NaN             NaN
             NaN             NaN             NaN
             NaN             NaN             NaN
             NaN             NaN             NaN
             NaN             NaN             NaN
             NaN             NaN             NaN
             NaN             NaN             NaN
             NaN             NaN             NaN
             NaN             NaN             NaN
             NaN             NaN             NaN
             NaN             NaN             NaN
             NaN             NaN             NaN
             NaN             NaN             NaN
             NaN             NaN             NaN
             NaN             NaN             NaN
             NaN             NaN             NaN
             NaN             NaN             NaN
             NaN             NaN             NaN
             NaN             NaN             NaN
             NaN             NaN             NaN
             NaN             NaN             NaN
