supercell of supercell of icsd_608626.c 
   1.00600000000000     
    18.8433725412000008    0.0042597715995000    0.0111656436851000
    -6.2786657403800001   10.8752831735999997   -0.0012954496991100
     0.0059525623905900    0.0022414031449000   10.0498800689000003
   Al   Gd   N 
    92     3    96
Direct
  0.1116550192015779  0.0847889294274893  0.2480425520934233
  0.0567737631393825  0.1701443144222665  0.9974227777460385
  0.4434186684998167  0.3353482295526078  0.7506779775931491
  0.3884475893318751  0.4162534832962663  0.4988690859787681
  0.2780861152362135  0.0860724178378192  0.2571446277637222
  0.2222029021594665  0.1768751528764980  0.9987628556910195
  0.1120780085555495  0.3337095988009864  0.7504929329352876
  0.0561194153076343  0.4165474716120343  0.4987860949076435
  0.4432129126277928  0.0823847445361139  0.2488711665234291
  0.3905290973491091  0.1740729852998726  0.9981428236645513
  0.2762697310885542  0.3362199919742110  0.7463946019162506
  0.2218373613176183  0.4165386190050029  0.4851569399130184
  0.1113950005416982  0.0846007694220958  0.7492463230571289
  0.0556596395791829  0.1669656013571839  0.4989405619103167
  0.4439356876338465  0.3341877886808717  0.2488229974289666
  0.3855621289439100  0.4174969677653664  0.9993121262934395
  0.2793160654242328  0.0909411136480500  0.7447982643264410
  0.2219618967952286  0.1681595728326215  0.4998876321446986
  0.1128331746536873  0.3342694006509603  0.2473244285023029
  0.0592270928384480  0.4157557222735520  0.9977721296299862
  0.4426795689787184  0.0813746807169764  0.7501025022998675
  0.3900528996687456  0.1684248515171660  0.5000375996336714
  0.2771463490009438  0.3350665138862894  0.2499027686025812
  0.6113704703381799  0.0834758834555416  0.2486149615525974
  0.5493867340343499  0.1604856399642216  0.9985685624977663
  0.9474795028731506  0.3354381214890694  0.7512904387651318
  0.8906254285108375  0.4170302253793352  0.5005750852921267
  0.7798784311323601  0.0864815410731694  0.2588405120623634
  0.7252635220775758  0.1690118527963023  0.9983666995445120
  0.6057650679344917  0.3294085418864512  0.7439164551935420
  0.5544063124783776  0.4175984608884775  0.5003705424078220
  0.9453864715199387  0.0840988575808410  0.2483535167619380
  0.8942851766464344  0.1738558972573045  0.9976197081942288
  0.7798510690304212  0.3318416366638033  0.7452858129178637
  0.7220923771303731  0.4164670260795091  0.5003883165038800
  0.6106269992262838  0.0826839333463028  0.7501535158623724
  0.5540088344605820  0.1637633625886608  0.5005157381077083
  0.9460778172459783  0.3344011123310864  0.2485819376728813
  0.8910734714825139  0.4148139321217883  0.9994711416383240
  0.7808077071370860  0.0888032938186711  0.7448946412151543
  0.7215729316239177  0.1661312305627547  0.5019002767953538
  0.6089583894021970  0.3316060180930549  0.2593453093849192
  0.5517260535797206  0.4162929713785744  0.9990512188542127
  0.9464352812913503  0.0850762936776306  0.7508692204520742
  0.8915011056997599  0.1690407266869727  0.5004896231553104
  0.7791768949894831  0.3328676119875169  0.2589842120217654
  0.1118387223357828  0.5825846305196336  0.2478860763375721
  0.0521939030240688  0.6612889764681569  0.9985818781710734
  0.4435988170414333  0.8317572316185817  0.7506345750654546
  0.3893963845345851  0.9162092836498061  0.4996777458512511
  0.2775396128176197  0.5808847826607675  0.2490024814854763
  0.2229080081778250  0.6570939807780150  0.9984024220649772
  0.1071510494714261  0.8300209937355874  0.7443357620297348
  0.0557208356432355  0.9185868758928706  0.4997526823470082
  0.4435724566364456  0.5827667192460524  0.2487240967625155
  0.3880135117164656  0.6642057539564590  0.9979496669306727
  0.2787878198246077  0.8280374998828748  0.7450682882792634
  0.2225047485386185  0.9168517001267418  0.5008307045247591
  0.1115654654656666  0.5821916151690374  0.7494275992485200
  0.0553589149308920  0.6642143739523831  0.4999469573000610
  0.4441134061880589  0.8321828900258126  0.2488610239924895
  0.3882709666141153  0.9108825587673479  0.9994341460114526
  0.2770104304004022  0.5791204253651330  0.7475310083676376
  0.2221178633422127  0.6646851399334963  0.4999651215916856
  0.1099324221457962  0.8320005291979697  0.2577289518266639
  0.0540510194942669  0.9172348706964186  0.9992022045212750
  0.4433434012249649  0.5820615915347105  0.7494175481163694
  0.3890960897131350  0.6670952686805833  0.4992220925154669
  0.2778004872591566  0.8307324478756328  0.2572921531911732
  0.6115419566885478  0.5838049585084377  0.2486926278463386
  0.5513631643406427  0.6623156885492421  0.9985129004131394
  0.9456809195146079  0.8351407869662495  0.7505713329446095
  0.8907576114985076  0.9180960702807184  0.5005233546342822
  0.7793049566184393  0.5857104645938946  0.2588011027816037
  0.7254809925706525  0.6691879629803310  0.9985315578852365
  0.6070421875315262  0.8301169522429319  0.7439076978614025
  0.5545358384323862  0.9172433484360738  0.5004177538985459
  0.9446684903308764  0.5830658546419798  0.2492857782449960
  0.8923509545311390  0.6718993255402737  0.9985367590561793
  0.7801457657282711  0.8325059735604867  0.7448851731143336
  0.7224682430731804  0.9169881611978710  0.4998825676754350
  0.6110380521634227  0.5834637471385804  0.7500020388587032
  0.5541003771835307  0.6640542295405467  0.5002877032253608
  0.9451921380911585  0.8340284463101852  0.2494397013163976
  0.8912528794570065  0.9165817682930921  0.9993209594349608
  0.7800508285665799  0.5879283099217005  0.7452642504183800
  0.7216148117479761  0.6661688650993085  0.5018752975766958
  0.6094743467610897  0.8318622253332180  0.2591855805956413
  0.5523673412129568  0.9144964887633407  0.9991014109983212
  0.9447314778668456  0.5825038095095465  0.7503288049014358
  0.8910669008282213  0.6685497598713610  0.5007851285203273
  0.7793363216612690  0.8329822712107458  0.2592112190805267
  0.7187030765131368  0.4143079248514283  0.9989201501326264
  0.2220101156058618  0.9173988922716205  0.9948665445426812
  0.7211423876891629  0.9167054488541169  0.9995366619813169
  0.1112394723108068  0.0833099842003477  0.4380551190363349
  0.0551563770384860  0.1654852659263568  0.1891877205349246
  0.4444061164024689  0.3389764932167409  0.9407487853121381
  0.3891496565416617  0.4175739880914335  0.6875222159613230
  0.2788257506766172  0.0852677856864901  0.4465742112046698
  0.2227235123450200  0.1666303449169177  0.1901537410878689
  0.0988428738996561  0.3227589697097741  0.9304823972165224
  0.0560463613984368  0.4183222126226127  0.6871673184797800
  0.4440074270083514  0.0828383746117041  0.4390878504024016
  0.3886350525610425  0.1670444067893797  0.1902949461739425
  0.2822373190811263  0.3321745484706895  0.9302999733936517
  0.2214446968017683  0.4164590689650822  0.6804583108415798
  0.1113355056158341  0.0825163786111176  0.9404674591647364
  0.0554475261266276  0.1647887699409409  0.6875655200974506
  0.4450574576051736  0.3339689803274055  0.4386647437189310
  0.3893365972604101  0.4171992393214055  0.1900901298083824
  0.2852555200252453  0.1095786222232675  0.9305874820490700
  0.2208638810848100  0.1675436420813483  0.6871067939896847
  0.1075325112494667  0.3302997321763712  0.4403516830646836
  0.0558225937469672  0.4171329182467503  0.1895357929654793
  0.4389659747570818  0.0774710685949884  0.9414722036371046
  0.3910050568314034  0.1691439283074061  0.6890897864081822
  0.2795941532398061  0.3312097855709411  0.4413565862344342
  0.2225248958420778  0.4168770973812812  0.2225733918349349
  0.6113275627376495  0.0836805553760627  0.4389773029460216
  0.5554219342079278  0.1670380695412277  0.1904361513243060
  0.9481196074981852  0.3385642445115948  0.9410620723440886
  0.8904833227639699  0.4172236119281152  0.6890319566312613
  0.7792570464222308  0.0862544271362324  0.4476246839542597
  0.7233046471118314  0.1674435722982253  0.1914994209619749
  0.5914138652692742  0.3181481557665649  0.9292313744744760
  0.5544727889094645  0.4185318301914052  0.6887233589810720
  0.9439854301125052  0.0825681420588396  0.4387313605877736
  0.8888645368378079  0.1667910322834345  0.1902980168014068
  0.7853013762070375  0.3265778975211830  0.9312581799958224
  0.7213299797774724  0.4160679280908042  0.6963661016999509
  0.6117906939446414  0.0841828624797643  0.9423488886631119
  0.5537762241172928  0.1627912833765564  0.6893034128265967
  0.9446797615952462  0.3339129738692819  0.4386262566515313
  0.8882544613818197  0.4161243440788240  0.1914490182552271
  0.7874151613865195  0.1046236862120153  0.9306306520058030
  0.7207440192642736  0.1655402292438097  0.6890183272280623
  0.6090402339639738  0.3315387631376794  0.4481334201396194
  0.5564364327021636  0.4166780125655336  0.1907583500971057
  0.9428735051968289  0.0803161316589396  0.9413222240344936
  0.8916505837217059  0.1690671161526609  0.6891797141700735
  0.7786957585676362  0.3325262458536926  0.4476460725135922
  0.7219954957980690  0.4163700835355471  0.2209823843759438
  0.1113477988164036  0.5834775531921039  0.4380531848063995
  0.0557033461942069  0.6671067390854404  0.1905786413999095
  0.4451191312724347  0.8340836876037443  0.9406290138614963
  0.3898662397795647  0.9167480968899540  0.6882785236917712
  0.2801502344765368  0.5885466118132499  0.4411555747608773
  0.2228519875347459  0.6674026947412202  0.1900741479452464
  0.0942076331262811  0.8196163872309796  0.9302869575196553
  0.0552661741367189  0.9181747664724540  0.6881384754179152
  0.4445603045560418  0.5832130532281070  0.4386532977545272
  0.3899733786105273  0.6675888084639325  0.1892912972811658
  0.2836584952911920  0.8188067494832083  0.9309500497642986
  0.2224584981935891  0.9171213529721243  0.6976866853530979
  0.1116295724233183  0.5842978844516011  0.9405275911535043
  0.0547280501046288  0.6637229574303447  0.6886674271734137
  0.4451778168729419  0.8343162094170111  0.4387097293392586
  0.3882886621835056  0.9158026538107364  0.1911620237511471
  0.2843548614227984  0.5936905727039701  0.9307348117759062
  0.2210013607430668  0.6638254944009390  0.6872513270260825
  0.1096155988940239  0.8318482151473816  0.4470360208358599
  0.0562563766195296  0.9162276851836353  0.1909648360985443
  0.4432728163349964  0.5808544049004851  0.9395421330009981
  0.3904261636616368  0.6674453664850617  0.6881899271436893
  0.2783892113862265  0.8326037869134097  0.4464307420190323
  0.2224013279103190  0.9167886885308505  0.2172302262261354
  0.6115278121673668  0.5836431557114778  0.4388849640033072
  0.5564171337952004  0.6678221265939399  0.1904548645325050
  0.9462081216183975  0.8364049581885737  0.9407085593442375
  0.8907813561742799  0.9181334750236232  0.6888523915657458
  0.7791433358870918  0.5857354128075940  0.4476694794719833
  0.7235551012139751  0.6674610742502907  0.1916430438376224
  0.5946443265848842  0.8204171855376359  0.9293768550417667
  0.5546780674388572  0.9179792967794995  0.6888267386283360
  0.9443106180906682  0.5829500831516725  0.4394453210253886
  0.8887754002639809  0.6665455574367556  0.1909215832253324
  0.7857715281404296  0.8262156601689910  0.9307104424648429
  0.7221751128220788  0.9169505304804346  0.6956391506059703
  0.6129107513845540  0.5847005763455186  0.9421130179940675
  0.5547921621444374  0.6638091815328409  0.6887914600055964
  0.9449406947005698  0.8337216845217625  0.4392130996842525
  0.8883533973704871  0.9158623033639373  0.1913442484834889
  0.7864444810271749  0.6025854275431826  0.9311749356783423
  0.7211506277758701  0.6658029824780627  0.6888995128742863
  0.6094016940800913  0.8319446439201883  0.4478669211146524
  0.5566089744799783  0.9167870822183986  0.1907935505901079
  0.9416768201907146  0.5795498920998838  0.9412038399214424
  0.8912319676088387  0.6685288705874157  0.6895989340502879
  0.7788957228386266  0.8323679047984598  0.4476614191377593
  0.7225375452167100  0.9169497203793142  0.2216040611099359
 
  0.00000000E+00  0.00000000E+00  0.00000000E+00
  0.00000000E+00  0.00000000E+00  0.00000000E+00
  0.00000000E+00  0.00000000E+00  0.00000000E+00
  0.00000000E+00  0.00000000E+00  0.00000000E+00
  0.00000000E+00  0.00000000E+00  0.00000000E+00
  0.00000000E+00  0.00000000E+00  0.00000000E+00
  0.00000000E+00  0.00000000E+00  0.00000000E+00
  0.00000000E+00  0.00000000E+00  0.00000000E+00
  0.00000000E+00  0.00000000E+00  0.00000000E+00
  0.00000000E+00  0.00000000E+00  0.00000000E+00
  0.00000000E+00  0.00000000E+00  0.00000000E+00
  0.00000000E+00  0.00000000E+00  0.00000000E+00
  0.00000000E+00  0.00000000E+00  0.00000000E+00
  0.00000000E+00  0.00000000E+00  0.00000000E+00
  0.00000000E+00  0.00000000E+00  0.00000000E+00
  0.00000000E+00  0.00000000E+00  0.00000000E+00
  0.00000000E+00  0.00000000E+00  0.00000000E+00
  0.00000000E+00  0.00000000E+00  0.00000000E+00
  0.00000000E+00  0.00000000E+00  0.00000000E+00
  0.00000000E+00  0.00000000E+00  0.00000000E+00
  0.00000000E+00  0.00000000E+00  0.00000000E+00
  0.00000000E+00  0.00000000E+00  0.00000000E+00
  0.00000000E+00  0.00000000E+00  0.00000000E+00
  0.00000000E+00  0.00000000E+00  0.00000000E+00
  0.00000000E+00  0.00000000E+00  0.00000000E+00
  0.00000000E+00  0.00000000E+00  0.00000000E+00
  0.00000000E+00  0.00000000E+00  0.00000000E+00
  0.00000000E+00  0.00000000E+00  0.00000000E+00
  0.00000000E+00  0.00000000E+00  0.00000000E+00
  0.00000000E+00  0.00000000E+00  0.00000000E+00
  0.00000000E+00  0.00000000E+00  0.00000000E+00
  0.00000000E+00  0.00000000E+00  0.00000000E+00
  0.00000000E+00  0.00000000E+00  0.00000000E+00
  0.00000000E+00  0.00000000E+00  0.00000000E+00
  0.00000000E+00  0.00000000E+00  0.00000000E+00
  0.00000000E+00  0.00000000E+00  0.00000000E+00
  0.00000000E+00  0.00000000E+00  0.00000000E+00
  0.00000000E+00  0.00000000E+00  0.00000000E+00
  0.00000000E+00  0.00000000E+00  0.00000000E+00
  0.00000000E+00  0.00000000E+00  0.00000000E+00
  0.00000000E+00  0.00000000E+00  0.00000000E+00
  0.00000000E+00  0.00000000E+00  0.00000000E+00
  0.00000000E+00  0.00000000E+00  0.00000000E+00
  0.00000000E+00  0.00000000E+00  0.00000000E+00
  0.00000000E+00  0.00000000E+00  0.00000000E+00
  0.00000000E+00  0.00000000E+00  0.00000000E+00
  0.00000000E+00  0.00000000E+00  0.00000000E+00
  0.00000000E+00  0.00000000E+00  0.00000000E+00
  0.00000000E+00  0.00000000E+00  0.00000000E+00
  0.00000000E+00  0.00000000E+00  0.00000000E+00
  0.00000000E+00  0.00000000E+00  0.00000000E+00
  0.00000000E+00  0.00000000E+00  0.00000000E+00
  0.00000000E+00  0.00000000E+00  0.00000000E+00
  0.00000000E+00  0.00000000E+00  0.00000000E+00
  0.00000000E+00  0.00000000E+00  0.00000000E+00
  0.00000000E+00  0.00000000E+00  0.00000000E+00
  0.00000000E+00  0.00000000E+00  0.00000000E+00
  0.00000000E+00  0.00000000E+00  0.00000000E+00
  0.00000000E+00  0.00000000E+00  0.00000000E+00
  0.00000000E+00  0.00000000E+00  0.00000000E+00
  0.00000000E+00  0.00000000E+00  0.00000000E+00
  0.00000000E+00  0.00000000E+00  0.00000000E+00
  0.00000000E+00  0.00000000E+00  0.00000000E+00
  0.00000000E+00  0.00000000E+00  0.00000000E+00
  0.00000000E+00  0.00000000E+00  0.00000000E+00
  0.00000000E+00  0.00000000E+00  0.00000000E+00
  0.00000000E+00  0.00000000E+00  0.00000000E+00
  0.00000000E+00  0.00000000E+00  0.00000000E+00
  0.00000000E+00  0.00000000E+00  0.00000000E+00
  0.00000000E+00  0.00000000E+00  0.00000000E+00
  0.00000000E+00  0.00000000E+00  0.00000000E+00
  0.00000000E+00  0.00000000E+00  0.00000000E+00
  0.00000000E+00  0.00000000E+00  0.00000000E+00
  0.00000000E+00  0.00000000E+00  0.00000000E+00
  0.00000000E+00  0.00000000E+00  0.00000000E+00
  0.00000000E+00  0.00000000E+00  0.00000000E+00
  0.00000000E+00  0.00000000E+00  0.00000000E+00
  0.00000000E+00  0.00000000E+00  0.00000000E+00
  0.00000000E+00  0.00000000E+00  0.00000000E+00
  0.00000000E+00  0.00000000E+00  0.00000000E+00
  0.00000000E+00  0.00000000E+00  0.00000000E+00
  0.00000000E+00  0.00000000E+00  0.00000000E+00
  0.00000000E+00  0.00000000E+00  0.00000000E+00
  0.00000000E+00  0.00000000E+00  0.00000000E+00
  0.00000000E+00  0.00000000E+00  0.00000000E+00
  0.00000000E+00  0.00000000E+00  0.00000000E+00
  0.00000000E+00  0.00000000E+00  0.00000000E+00
  0.00000000E+00  0.00000000E+00  0.00000000E+00
  0.00000000E+00  0.00000000E+00  0.00000000E+00
  0.00000000E+00  0.00000000E+00  0.00000000E+00
  0.00000000E+00  0.00000000E+00  0.00000000E+00
  0.00000000E+00  0.00000000E+00  0.00000000E+00
  0.00000000E+00  0.00000000E+00  0.00000000E+00
  0.00000000E+00  0.00000000E+00  0.00000000E+00
  0.00000000E+00  0.00000000E+00  0.00000000E+00
  0.00000000E+00  0.00000000E+00  0.00000000E+00
  0.00000000E+00  0.00000000E+00  0.00000000E+00
  0.00000000E+00  0.00000000E+00  0.00000000E+00
  0.00000000E+00  0.00000000E+00  0.00000000E+00
  0.00000000E+00  0.00000000E+00  0.00000000E+00
  0.00000000E+00  0.00000000E+00  0.00000000E+00
  0.00000000E+00  0.00000000E+00  0.00000000E+00
  0.00000000E+00  0.00000000E+00  0.00000000E+00
  0.00000000E+00  0.00000000E+00  0.00000000E+00
  0.00000000E+00  0.00000000E+00  0.00000000E+00
  0.00000000E+00  0.00000000E+00  0.00000000E+00
  0.00000000E+00  0.00000000E+00  0.00000000E+00
  0.00000000E+00  0.00000000E+00  0.00000000E+00
  0.00000000E+00  0.00000000E+00  0.00000000E+00
  0.00000000E+00  0.00000000E+00  0.00000000E+00
  0.00000000E+00  0.00000000E+00  0.00000000E+00
  0.00000000E+00  0.00000000E+00  0.00000000E+00
  0.00000000E+00  0.00000000E+00  0.00000000E+00
  0.00000000E+00  0.00000000E+00  0.00000000E+00
  0.00000000E+00  0.00000000E+00  0.00000000E+00
  0.00000000E+00  0.00000000E+00  0.00000000E+00
  0.00000000E+00  0.00000000E+00  0.00000000E+00
  0.00000000E+00  0.00000000E+00  0.00000000E+00
  0.00000000E+00  0.00000000E+00  0.00000000E+00
  0.00000000E+00  0.00000000E+00  0.00000000E+00
  0.00000000E+00  0.00000000E+00  0.00000000E+00
  0.00000000E+00  0.00000000E+00  0.00000000E+00
  0.00000000E+00  0.00000000E+00  0.00000000E+00
  0.00000000E+00  0.00000000E+00  0.00000000E+00
  0.00000000E+00  0.00000000E+00  0.00000000E+00
  0.00000000E+00  0.00000000E+00  0.00000000E+00
  0.00000000E+00  0.00000000E+00  0.00000000E+00
  0.00000000E+00  0.00000000E+00  0.00000000E+00
  0.00000000E+00  0.00000000E+00  0.00000000E+00
  0.00000000E+00  0.00000000E+00  0.00000000E+00
  0.00000000E+00  0.00000000E+00  0.00000000E+00
  0.00000000E+00  0.00000000E+00  0.00000000E+00
  0.00000000E+00  0.00000000E+00  0.00000000E+00
  0.00000000E+00  0.00000000E+00  0.00000000E+00
  0.00000000E+00  0.00000000E+00  0.00000000E+00
  0.00000000E+00  0.00000000E+00  0.00000000E+00
  0.00000000E+00  0.00000000E+00  0.00000000E+00
  0.00000000E+00  0.00000000E+00  0.00000000E+00
  0.00000000E+00  0.00000000E+00  0.00000000E+00
  0.00000000E+00  0.00000000E+00  0.00000000E+00
  0.00000000E+00  0.00000000E+00  0.00000000E+00
  0.00000000E+00  0.00000000E+00  0.00000000E+00
  0.00000000E+00  0.00000000E+00  0.00000000E+00
  0.00000000E+00  0.00000000E+00  0.00000000E+00
  0.00000000E+00  0.00000000E+00  0.00000000E+00
  0.00000000E+00  0.00000000E+00  0.00000000E+00
  0.00000000E+00  0.00000000E+00  0.00000000E+00
  0.00000000E+00  0.00000000E+00  0.00000000E+00
  0.00000000E+00  0.00000000E+00  0.00000000E+00
  0.00000000E+00  0.00000000E+00  0.00000000E+00
  0.00000000E+00  0.00000000E+00  0.00000000E+00
  0.00000000E+00  0.00000000E+00  0.00000000E+00
  0.00000000E+00  0.00000000E+00  0.00000000E+00
  0.00000000E+00  0.00000000E+00  0.00000000E+00
  0.00000000E+00  0.00000000E+00  0.00000000E+00
  0.00000000E+00  0.00000000E+00  0.00000000E+00
  0.00000000E+00  0.00000000E+00  0.00000000E+00
  0.00000000E+00  0.00000000E+00  0.00000000E+00
  0.00000000E+00  0.00000000E+00  0.00000000E+00
  0.00000000E+00  0.00000000E+00  0.00000000E+00
  0.00000000E+00  0.00000000E+00  0.00000000E+00
  0.00000000E+00  0.00000000E+00  0.00000000E+00
  0.00000000E+00  0.00000000E+00  0.00000000E+00
  0.00000000E+00  0.00000000E+00  0.00000000E+00
  0.00000000E+00  0.00000000E+00  0.00000000E+00
  0.00000000E+00  0.00000000E+00  0.00000000E+00
  0.00000000E+00  0.00000000E+00  0.00000000E+00
  0.00000000E+00  0.00000000E+00  0.00000000E+00
  0.00000000E+00  0.00000000E+00  0.00000000E+00
  0.00000000E+00  0.00000000E+00  0.00000000E+00
  0.00000000E+00  0.00000000E+00  0.00000000E+00
  0.00000000E+00  0.00000000E+00  0.00000000E+00
  0.00000000E+00  0.00000000E+00  0.00000000E+00
  0.00000000E+00  0.00000000E+00  0.00000000E+00
  0.00000000E+00  0.00000000E+00  0.00000000E+00
  0.00000000E+00  0.00000000E+00  0.00000000E+00
  0.00000000E+00  0.00000000E+00  0.00000000E+00
  0.00000000E+00  0.00000000E+00  0.00000000E+00
  0.00000000E+00  0.00000000E+00  0.00000000E+00
  0.00000000E+00  0.00000000E+00  0.00000000E+00
  0.00000000E+00  0.00000000E+00  0.00000000E+00
  0.00000000E+00  0.00000000E+00  0.00000000E+00
  0.00000000E+00  0.00000000E+00  0.00000000E+00
  0.00000000E+00  0.00000000E+00  0.00000000E+00
  0.00000000E+00  0.00000000E+00  0.00000000E+00
  0.00000000E+00  0.00000000E+00  0.00000000E+00
  0.00000000E+00  0.00000000E+00  0.00000000E+00
  0.00000000E+00  0.00000000E+00  0.00000000E+00
  0.00000000E+00  0.00000000E+00  0.00000000E+00
  0.00000000E+00  0.00000000E+00  0.00000000E+00
  0.00000000E+00  0.00000000E+00  0.00000000E+00
