supercell of icsd_191774.cif            
   1.00000000000000     
    10.6323798389374318   -0.0000001708557251   -0.0000015237439304
    -5.3161900505279851    9.2076369643664844    0.0021743344438362
    -0.0000016198906758    0.0027290590344662   11.3165979771074436
   N    In   Sc
    36    34     2
Direct
  0.2222372437276974  0.1110666775937759  0.4404337142891848
  0.1110903585558489  0.2221810670744944  0.1900722348700299
  0.8881997735767371  0.1100972096711885  0.9405265746985449
  0.7781499138406076  0.2227090224013963  0.6903522284995205
  0.5556293751311259  0.1112585076866708  0.4401864726989331
  0.4444608189965749  0.2226657783466237  0.1903751349821761
  0.2218972016110285  0.1100968978684449  0.9405265768953797
  0.1110497000558439  0.2220991742088643  0.6904776591413935
  0.8888295226659082  0.1110666426799227  0.4404337505636420
  0.7782050616127592  0.2226659052109312  0.1903750948347422
  0.5556415076666141  0.1112827354721375  0.9401996474542145
  0.4445593109430845  0.2227087987626604  0.6903521571689666
  0.2222727926456329  0.4445455312275826  0.4402473706622416
  0.1112166997774011  0.5558891125960272  0.1900841152322954
  0.8864583440711442  0.4465835865006369  0.9426942236708769
  0.7779692008354857  0.5559381715713272  0.6901103444567624
  0.5560430026172085  0.4446942332724930  0.4390268580683241
  0.4446721191244052  0.5558888683176662  0.1900842056506846
  0.2223210404536289  0.4446426093901934  0.9403238110990273
  0.1106398498050183  0.5553554875451852  0.6902732199182751
  0.8886511871209564  0.4446942015987787  0.4390266429983072
  0.7803843108484401  0.5607691601462435  0.1853523616761805
  0.5601241604689804  0.4465830295405908  0.9426938549116102
  0.4447157111420523  0.5553555058348465  0.6902730346279640
  0.2221200621231390  0.7778124750744411  0.4403176068754391
  0.1066034678149776  0.8869628598653279  0.1928481539079101
  0.8861384719595691  0.7722769246072971  0.9436267978596149
  0.7782806864981069  0.8885093009735101  0.6893993745624272
  0.5556927168298600  0.7778126106106598  0.4403174102463367
  0.4443590863768279  0.8887181798736918  0.1903453083375908
  0.2218328136965368  0.7779375021803929  0.9402139519981958
  0.1102286530675869  0.8885093675801130  0.6893993383799852
  0.8885581833093497  0.7771163753794781  0.4324212533580649
  0.7803595357803701  0.8869629952645539  0.1928480456510542
  0.5561045610618365  0.7779374919541553  0.9402138901808712
  0.4444117031020625  0.8888233840158151  0.6902847041705087
  0.2221186050041268  0.1107953401364199  0.2496773999664299
  0.1111337445088907  0.2222673245689606  0.4996512563246966
  0.8886672616357600  0.1106631144504462  0.7494241693876305
  0.7781004171856054  0.2225912386500042  0.9995027507383440
  0.5556217116576150  0.1112434858806637  0.2495043131217116
  0.4447066774998447  0.2226617458598028  0.4993654810774970
  0.2219959924700419  0.1106631520834114  0.7494241009875608
  0.1109886722298157  0.2219772386578427  0.9994865576667564
  0.8886766442203040  0.1107951905378783  0.2496773805246875
  0.7779553348786337  0.2226618902162016  0.4993654108922456
  0.5555994980131871  0.1111988521813316  0.7494678896585398
  0.4444907409733787  0.2225910377584199  0.9995027059787702
  0.2222711081599869  0.4445423044842727  0.2494655489170938
  0.1106877168965354  0.5553620323387207  0.4992640285810310
  0.8889234998152418  0.4444522050307427  0.7507038633544028
  0.5578931976154067  0.4458992187163915  0.2479741658277703
  0.4446745206311107  0.5553619822264793  0.4992640162396640
  0.2222310329576942  0.4444616999309403  0.7494092773809982
  0.1104822069132396  0.5552242903749374  0.9994078166514626
  0.8880058018530690  0.4458994087463708  0.2479740424406458
  0.7783918525629545  0.5567834162787335  0.4987410040140077
  0.5555286809905127  0.4444521134984427  0.7507035625843415
  0.4447418301129602  0.5552243266037564  0.9994080236883249
  0.2219818722426226  0.7782860459502317  0.2495232910447456
  0.1092915015024616  0.8879398103065412  0.4981839444261453
  0.8889727367945923  0.7779454305571747  0.7512216366218638
  0.7778572715736374  0.8882873513755740  0.0010153600814320
  0.5563041023146553  0.7782858239537092  0.2495232195657380
  0.4444633791552590  0.8889264752315711  0.4995115939800669
  0.2219002164653432  0.7778727813588944  0.7492849292516723
  0.1104297922542159  0.8882872540995521  0.0010153129208277
  0.7786482755411939  0.8879397446214341  0.4981839750810622
  0.5559725872949244  0.7778727483151471  0.7492849485468867
  0.4444142787743743  0.8888284231415327  0.9994184046827215
  0.7773105738389390  0.5546212436810052  0.9983024837582732
  0.8884585145475228  0.7769168762983583  0.2462290094366963
 
  0.00000000E+00  0.00000000E+00  0.00000000E+00
  0.00000000E+00  0.00000000E+00  0.00000000E+00
  0.00000000E+00  0.00000000E+00  0.00000000E+00
  0.00000000E+00  0.00000000E+00  0.00000000E+00
  0.00000000E+00  0.00000000E+00  0.00000000E+00
  0.00000000E+00  0.00000000E+00  0.00000000E+00
  0.00000000E+00  0.00000000E+00  0.00000000E+00
  0.00000000E+00  0.00000000E+00  0.00000000E+00
  0.00000000E+00  0.00000000E+00  0.00000000E+00
  0.00000000E+00  0.00000000E+00  0.00000000E+00
  0.00000000E+00  0.00000000E+00  0.00000000E+00
  0.00000000E+00  0.00000000E+00  0.00000000E+00
  0.00000000E+00  0.00000000E+00  0.00000000E+00
  0.00000000E+00  0.00000000E+00  0.00000000E+00
  0.00000000E+00  0.00000000E+00  0.00000000E+00
  0.00000000E+00  0.00000000E+00  0.00000000E+00
  0.00000000E+00  0.00000000E+00  0.00000000E+00
  0.00000000E+00  0.00000000E+00  0.00000000E+00
  0.00000000E+00  0.00000000E+00  0.00000000E+00
  0.00000000E+00  0.00000000E+00  0.00000000E+00
  0.00000000E+00  0.00000000E+00  0.00000000E+00
  0.00000000E+00  0.00000000E+00  0.00000000E+00
  0.00000000E+00  0.00000000E+00  0.00000000E+00
  0.00000000E+00  0.00000000E+00  0.00000000E+00
  0.00000000E+00  0.00000000E+00  0.00000000E+00
  0.00000000E+00  0.00000000E+00  0.00000000E+00
  0.00000000E+00  0.00000000E+00  0.00000000E+00
  0.00000000E+00  0.00000000E+00  0.00000000E+00
  0.00000000E+00  0.00000000E+00  0.00000000E+00
  0.00000000E+00  0.00000000E+00  0.00000000E+00
  0.00000000E+00  0.00000000E+00  0.00000000E+00
  0.00000000E+00  0.00000000E+00  0.00000000E+00
  0.00000000E+00  0.00000000E+00  0.00000000E+00
  0.00000000E+00  0.00000000E+00  0.00000000E+00
  0.00000000E+00  0.00000000E+00  0.00000000E+00
  0.00000000E+00  0.00000000E+00  0.00000000E+00
  0.00000000E+00  0.00000000E+00  0.00000000E+00
  0.00000000E+00  0.00000000E+00  0.00000000E+00
  0.00000000E+00  0.00000000E+00  0.00000000E+00
  0.00000000E+00  0.00000000E+00  0.00000000E+00
  0.00000000E+00  0.00000000E+00  0.00000000E+00
  0.00000000E+00  0.00000000E+00  0.00000000E+00
  0.00000000E+00  0.00000000E+00  0.00000000E+00
  0.00000000E+00  0.00000000E+00  0.00000000E+00
  0.00000000E+00  0.00000000E+00  0.00000000E+00
  0.00000000E+00  0.00000000E+00  0.00000000E+00
  0.00000000E+00  0.00000000E+00  0.00000000E+00
  0.00000000E+00  0.00000000E+00  0.00000000E+00
  0.00000000E+00  0.00000000E+00  0.00000000E+00
  0.00000000E+00  0.00000000E+00  0.00000000E+00
  0.00000000E+00  0.00000000E+00  0.00000000E+00
  0.00000000E+00  0.00000000E+00  0.00000000E+00
  0.00000000E+00  0.00000000E+00  0.00000000E+00
  0.00000000E+00  0.00000000E+00  0.00000000E+00
  0.00000000E+00  0.00000000E+00  0.00000000E+00
  0.00000000E+00  0.00000000E+00  0.00000000E+00
  0.00000000E+00  0.00000000E+00  0.00000000E+00
  0.00000000E+00  0.00000000E+00  0.00000000E+00
  0.00000000E+00  0.00000000E+00  0.00000000E+00
  0.00000000E+00  0.00000000E+00  0.00000000E+00
  0.00000000E+00  0.00000000E+00  0.00000000E+00
  0.00000000E+00  0.00000000E+00  0.00000000E+00
  0.00000000E+00  0.00000000E+00  0.00000000E+00
  0.00000000E+00  0.00000000E+00  0.00000000E+00
  0.00000000E+00  0.00000000E+00  0.00000000E+00
  0.00000000E+00  0.00000000E+00  0.00000000E+00
  0.00000000E+00  0.00000000E+00  0.00000000E+00
  0.00000000E+00  0.00000000E+00  0.00000000E+00
  0.00000000E+00  0.00000000E+00  0.00000000E+00
  0.00000000E+00  0.00000000E+00  0.00000000E+00
  0.00000000E+00  0.00000000E+00  0.00000000E+00
  0.00000000E+00  0.00000000E+00  0.00000000E+00
