Ge   N    Li                            
   1.00000000000000     
    -0.0114263856708438   -0.0014274433918192   -5.2245452816990001
    -4.8097519857947555    2.7873336884055400   -0.0048552034213223
     4.8090161231804585    2.7888894901104977   -0.0381526688563984
   Ge   N    Li
     4     6     2
Direct
  0.0065420254068869  0.6543218390943935  0.9760281872879943
  0.9564467436949258  0.9839600357846905  0.6530988431674771
  0.4639989299939771  0.9860092822684763  0.3190884913454610
  0.4627699568348831  0.3130018735614186  0.9931216297070691
  0.0606703507809456  0.6799770987630325  0.6700601112698195
  0.0955477586654823  0.3123610450578056  0.9483194514611313
  0.0940100150334402  0.9583670748907025  0.3247196655448548
  0.5635817432052974  0.2807974644089484  0.2866997562282947
  0.5619027542828192  0.6468327101623927  0.0139725388000116
  0.5954299642790346  0.0206683891353592  0.6524812515550025
  0.9544527164757639  0.3212646036831899  0.3210605690573942
  0.4799127741799794  0.6424322876858710  0.6413442558116316
 
  0.00000000E+00  0.00000000E+00  0.00000000E+00
  0.00000000E+00  0.00000000E+00  0.00000000E+00
  0.00000000E+00  0.00000000E+00  0.00000000E+00
  0.00000000E+00  0.00000000E+00  0.00000000E+00
  0.00000000E+00  0.00000000E+00  0.00000000E+00
  0.00000000E+00  0.00000000E+00  0.00000000E+00
  0.00000000E+00  0.00000000E+00  0.00000000E+00
  0.00000000E+00  0.00000000E+00  0.00000000E+00
  0.00000000E+00  0.00000000E+00  0.00000000E+00
  0.00000000E+00  0.00000000E+00  0.00000000E+00
  0.00000000E+00  0.00000000E+00  0.00000000E+00
  0.00000000E+00  0.00000000E+00  0.00000000E+00
