Ge   N    Li                            
   1.00000000000000     
    -0.0149859566756726   -0.0022427517200778   -5.2951221064641496
    -4.8178810446177032    2.8030219693746408   -0.0076383690118799
     4.8127242473057308    2.7970426879028030   -0.0378412790429648
   Ge   N    Li
     4     6     2
Direct
  0.0954321019647395  0.6545949198772831  0.9712574822777285
  0.9551939341043720  0.9847148839994659  0.6535515855724583
  0.4610085409514042  0.9941698417070768  0.3291916488415652
  0.4580798272972473  0.3041756241852624  0.9926305899919043
  0.0522659157182588  0.6776190797723061  0.6650627652219256
  0.0925957982678796  0.3046830403961707  0.9485741120893749
  0.0902404680083251  0.9688101134148397  0.3319065166422774
  0.5651253565004524  0.2807438352518616  0.2871190382678108
  0.4882470282065512  0.6472742478779523  0.0101205562081859
  0.5965460844845865  0.0201057845038832  0.6530559587252185
  0.9525597601650446  0.3204966302783703  0.3211598158351876
  0.4879709171645885  0.6426057032318155  0.6363646815625188
 
  0.00000000E+00  0.00000000E+00  0.00000000E+00
  0.00000000E+00  0.00000000E+00  0.00000000E+00
  0.00000000E+00  0.00000000E+00  0.00000000E+00
  0.00000000E+00  0.00000000E+00  0.00000000E+00
  0.00000000E+00  0.00000000E+00  0.00000000E+00
  0.00000000E+00  0.00000000E+00  0.00000000E+00
  0.00000000E+00  0.00000000E+00  0.00000000E+00
  0.00000000E+00  0.00000000E+00  0.00000000E+00
  0.00000000E+00  0.00000000E+00  0.00000000E+00
  0.00000000E+00  0.00000000E+00  0.00000000E+00
  0.00000000E+00  0.00000000E+00  0.00000000E+00
  0.00000000E+00  0.00000000E+00  0.00000000E+00
