Ge   N    Li                            
   1.00000000000000     
    -0.0095383160199718   -0.0006121350635605   -5.1539684569338604
    -4.8021505032612124    2.7820885090154719   -0.0020720378307646
     4.7998131860775564    2.7807344976185315   -0.0299482598058908
   Ge   N    Li
     4     6     2
Direct
  0.9639132420890064  0.6536475445780638  0.9800875382675258
  0.9628341240658074  0.9810064299112966  0.6534044690608098
  0.4626330466418409  0.9860579333345498  0.3140570240224037
  0.4625533526268626  0.3136191642897614  0.9873415210312331
  0.0637918597931275  0.6834693389873934  0.6823867553560063
  0.0959319847883009  0.3188891732032175  0.9455658905083908
  0.0956783690644087  0.9463173511127252  0.3185964093274762
  0.5637072289160656  0.2816533245589952  0.2825731805664091
  0.5960483036801207  0.6474838265308236  0.0213784813296343
  0.5959275751035804  0.0214962413719419  0.6483719598896727
  0.9625546638949203  0.3238692349499388  0.3234646471697218
  0.4696919821689178  0.6424841416676230  0.6427668747068509
 
  0.00000000E+00  0.00000000E+00  0.00000000E+00
  0.00000000E+00  0.00000000E+00  0.00000000E+00
  0.00000000E+00  0.00000000E+00  0.00000000E+00
  0.00000000E+00  0.00000000E+00  0.00000000E+00
  0.00000000E+00  0.00000000E+00  0.00000000E+00
  0.00000000E+00  0.00000000E+00  0.00000000E+00
  0.00000000E+00  0.00000000E+00  0.00000000E+00
  0.00000000E+00  0.00000000E+00  0.00000000E+00
  0.00000000E+00  0.00000000E+00  0.00000000E+00
  0.00000000E+00  0.00000000E+00  0.00000000E+00
  0.00000000E+00  0.00000000E+00  0.00000000E+00
  0.00000000E+00  0.00000000E+00  0.00000000E+00
