Ge   N    Li                            
   1.00000000000000     
     0.0560466797280136   -0.0024465788021425   -5.3127663126554303
    -4.8131400144015819    2.8120119188540960   -0.0083341604095193
     4.8029049064295428    2.7968646922687350    0.0194250696060755
   Ge   N    Li
     4     6     2
Direct
  0.1019703760103070  0.6534570919219718  0.9722609916630063
  0.9561506610913142  0.9818377916125200  0.6533077843020649
  0.4624684157927277  0.9972166328648555  0.3308881267695796
  0.4573420628843508  0.3025219492779456  0.9909543464899571
  0.0520605304501842  0.6760523528844686  0.6655390206285787
  0.0939909836143542  0.3015792599691522  0.9481439596657566
  0.0891259580962256  0.9692968421513157  0.3318912505118092
  0.5667090078446080  0.2840300977203825  0.2876688954811470
  0.4795251078911704  0.6491428172585003  0.0110130312151213
  0.5981125300494128  0.0209196492010193  0.6537027440208689
  0.9543389142123928  0.3199212354392600  0.3214520562757599
  0.4834315353779886  0.6440179782339470  0.6331725352705462
 
  0.00000000E+00  0.00000000E+00  0.00000000E+00
  0.00000000E+00  0.00000000E+00  0.00000000E+00
  0.00000000E+00  0.00000000E+00  0.00000000E+00
  0.00000000E+00  0.00000000E+00  0.00000000E+00
  0.00000000E+00  0.00000000E+00  0.00000000E+00
  0.00000000E+00  0.00000000E+00  0.00000000E+00
  0.00000000E+00  0.00000000E+00  0.00000000E+00
  0.00000000E+00  0.00000000E+00  0.00000000E+00
  0.00000000E+00  0.00000000E+00  0.00000000E+00
  0.00000000E+00  0.00000000E+00  0.00000000E+00
  0.00000000E+00  0.00000000E+00  0.00000000E+00
  0.00000000E+00  0.00000000E+00  0.00000000E+00
