Ge   N    Li                            
   1.00000000000000     
     0.0902009251769610   -0.0040771954586598   -5.4539199621857204
    -4.7977598863686479    2.7877688002758410   -0.0139004915906346
     4.8010420524918418    2.7958085354160800    0.0074765324656182
   Ge   N    Li
     4     6     2
Direct
  0.1049782160982460  0.6627971811916851  0.9840193611315797
  0.9520224502539492  0.9782256780986742  0.6658968921963506
  0.6057255750277264  0.9823646828316441  0.3036486462084156
  0.4517608386166643  0.3015026949039239  0.9887963147926229
  0.0530902281475392  0.6723272626900965  0.6693292763301173
  0.1034765289243325  0.2981576719451198  0.9393563145713415
  0.9525887781757163  0.9311750592197114  0.3018213834389343
  0.5631024342598536  0.2977517354419419  0.2905756776450090
  0.4523759378805465  0.6657951577675618  0.0341338131526783
  0.6030892997555952  0.0291473602924626  0.6681811115714993
  0.9644431677268699  0.3343831074913339  0.3172365635401704
  0.4834630954101016  0.6463673855890733  0.6369970462058490
 
  0.00000000E+00  0.00000000E+00  0.00000000E+00
  0.00000000E+00  0.00000000E+00  0.00000000E+00
  0.00000000E+00  0.00000000E+00  0.00000000E+00
  0.00000000E+00  0.00000000E+00  0.00000000E+00
  0.00000000E+00  0.00000000E+00  0.00000000E+00
  0.00000000E+00  0.00000000E+00  0.00000000E+00
  0.00000000E+00  0.00000000E+00  0.00000000E+00
  0.00000000E+00  0.00000000E+00  0.00000000E+00
  0.00000000E+00  0.00000000E+00  0.00000000E+00
  0.00000000E+00  0.00000000E+00  0.00000000E+00
  0.00000000E+00  0.00000000E+00  0.00000000E+00
  0.00000000E+00  0.00000000E+00  0.00000000E+00
