Ge   N    Li                            
   1.00000000000000     
     0.0711760244861220   -0.0028542329662718   -5.3480547250379997
    -4.8289826769383781    2.8088706041741380   -0.0097257432047982
     4.8145284786342941    2.7869470567406869    0.0304737627454378
   Ge   N    Li
     4     6     2
Direct
  0.0997798883030683  0.6586293261197227  0.9808000614047998
  0.9600463580010867  0.9764941870816841  0.6529573803139073
  0.5048473113953520  0.9941454754412078  0.3229229463346215
  0.4526057185230954  0.3002884196246711  0.9874076753874093
  0.0577516643974079  0.6748595021825352  0.6686923225370762
  0.0961803344558660  0.3008969945078093  0.9468669462585382
  0.0525873991226931  0.9655687801400674  0.3252042376139315
  0.5656544067858533  0.2917607447558623  0.2888705264794211
  0.4750127053596032  0.6495314972055937  0.0130579484898945
  0.5998915610191773  0.0195902115480351  0.6579566218324757
  0.9595655630950333  0.3227270546246714  0.3220859188648220
  0.4713043985447669  0.6455015115368496  0.6331721510931985
 
  0.00000000E+00  0.00000000E+00  0.00000000E+00
  0.00000000E+00  0.00000000E+00  0.00000000E+00
  0.00000000E+00  0.00000000E+00  0.00000000E+00
  0.00000000E+00  0.00000000E+00  0.00000000E+00
  0.00000000E+00  0.00000000E+00  0.00000000E+00
  0.00000000E+00  0.00000000E+00  0.00000000E+00
  0.00000000E+00  0.00000000E+00  0.00000000E+00
  0.00000000E+00  0.00000000E+00  0.00000000E+00
  0.00000000E+00  0.00000000E+00  0.00000000E+00
  0.00000000E+00  0.00000000E+00  0.00000000E+00
  0.00000000E+00  0.00000000E+00  0.00000000E+00
  0.00000000E+00  0.00000000E+00  0.00000000E+00
