Ge   N    Li                            
   1.00000000000000     
     0.0802881557712291   -0.0048925037869184   -5.5244967869508601
    -4.7867081903423232    2.7793166897623709   -0.0166836571811923
     4.7974676824449860    2.8002132800449870    0.0145598691586380
   Ge   N    Li
     4     6     2
Direct
  0.1014093287509681  0.6633379138063091  0.9822845770655491
  0.9468703893634256  0.9827662425421266  0.6670178901266084
  0.6037891572089649  0.9827432005852330  0.3005231686415399
  0.4483619437137918  0.3029584154848877  0.9856769821431186
  0.9993320962543280  0.6681768623587772  0.6788101897379590
  0.1042221400580559  0.2973366554600716  0.9385776870785421
  0.9479522846872257  0.9290857120060494  0.3013538691344166
  0.5607884416897946  0.2978042263962237  0.2855958088762875
  0.4456853555850842  0.6690227569889089  0.0298314595903193
  0.6016993760366347  0.0363523872931779  0.6662125757295456
  0.9654189503832242  0.3301545518957525  0.3126790898975287
  0.5642458734631290  0.6402559083955168  0.6514291841102775
 
  0.00000000E+00  0.00000000E+00  0.00000000E+00
  0.00000000E+00  0.00000000E+00  0.00000000E+00
  0.00000000E+00  0.00000000E+00  0.00000000E+00
  0.00000000E+00  0.00000000E+00  0.00000000E+00
  0.00000000E+00  0.00000000E+00  0.00000000E+00
  0.00000000E+00  0.00000000E+00  0.00000000E+00
  0.00000000E+00  0.00000000E+00  0.00000000E+00
  0.00000000E+00  0.00000000E+00  0.00000000E+00
  0.00000000E+00  0.00000000E+00  0.00000000E+00
  0.00000000E+00  0.00000000E+00  0.00000000E+00
  0.00000000E+00  0.00000000E+00  0.00000000E+00
  0.00000000E+00  0.00000000E+00  0.00000000E+00
