generated by phonopy                    
   1.00000000000000     
    10.0351470768999995   -0.0000022330999784   -0.0000001056124209
    -5.0175765436399997    8.6906901959899994    0.0000001395531216
    -0.0000001735893656    0.0000001431815548   14.9533752540999991
   Pb   P    O    Cu
    20    12    49     1
Direct
  0.9948737165875130  0.7718341796687938  0.1246618445316727
  0.9977589333878498  0.7636535603052081  0.6359903077027624
  0.9774691002028248  0.2504167445758014  0.3445022515326315
  0.0048523420486362  0.2593783965045517  0.8754358156842770
  0.2240551651412872  0.2229168566700608  0.1217370363705186
  0.2303189626389610  0.2098171172326744  0.6468775451245747
  0.7314477027732380  0.7364307929889762  0.3748708552314568
  0.7424237346394023  0.7394795908429472  0.8774613749768108
  0.7639134350843406  0.9924172461160907  0.1208684213804290
  0.7857123265605992  0.0019769047957041  0.6387677809709587
  0.2527456375295998  0.9921446764511188  0.3702189257956263
  0.2604169350767691  0.9957163491692214  0.8784807511474639
  0.6696576776659668  0.3298171090663402  0.9982493776594055
  0.6579255685629306  0.3358111267467550  0.4970400266080048
  0.3301175897597304  0.6702062023134303  0.0029701608003307
  0.3495340804741076  0.6994125019290180  0.5040727515267989
  0.3264984098078969  0.6586874488128700  0.2436369593347720
  0.3439687063300454  0.6667108780700630  0.7466355170257444
  0.6491512480733164  0.3396709712285144  0.2446727665722577
  0.6733195596036552  0.3349059371083172  0.7435809469195931
  0.6203512546628644  0.5952448658052631  0.1220859443495215
  0.6250811826180040  0.5946725004828863  0.6232806250954468
  0.3534769088963188  0.3954164907927833  0.3800569033190087
  0.3725882469716169  0.3908461056560384  0.8749095404154872
  0.4023551868574984  0.0283400718363538  0.1238076088556426
  0.4176366291642566  0.0324901006390803  0.6239674415916951
  0.6037184277654504  0.9760659246812082  0.3717104583346256
  0.6111609790903643  0.9771710051912166  0.8715679519579638
  0.9671543001329894  0.3795268745926847  0.1172543308565892
  0.9897579450601981  0.3816606603279524  0.6239369929270921
  0.0206132743478094  0.6305019194395527  0.3689023037873937
  0.0298302357676903  0.6294600649317559  0.8731755070871969
  0.4997903221285185  0.6500804662228177  0.1224808926089338
  0.5067170412455866  0.6522473942584028  0.6255021262630649
  0.4574489186723198  0.3194185669364202  0.3785654809991996
  0.4720412968051093  0.3119938107564408  0.8737848688230301
  0.3513240272796807  0.8539751432244245  0.1235590614626574
  0.3637581842326725  0.8571926115648338  0.6289886727154794
  0.6799932069808392  0.1549384264941835  0.3743779489587737
  0.6887418180735239  0.1554106315899162  0.8694793040035194
  0.1419725417353135  0.5006126504747570  0.1188559440162749
  0.1584822689594176  0.5159376328127578  0.6325041337268829
  0.8417492693604558  0.5370448979372568  0.3747598747305929
  0.8515232437270583  0.5308860624441252  0.8759204250748169
  0.7297487061602794  0.6603853094002972  0.0390170051532053
  0.7297800559493055  0.6556499947427881  0.5384139252321489
  0.2598968418855634  0.3414708844865899  0.9562899381586547
  0.3393559060455758  0.0717185701921110  0.0390581685956377
  0.3518300725171883  0.0695505085084847  0.5392879454250235
  0.6293974560480748  0.9064037056200362  0.4593104334135631
  0.6626700825637784  0.9173146493777580  0.9535899386249795
  0.9174806586976132  0.2833586499202099  0.0290456896442919
  0.9839812071327287  0.2831214311484658  0.5396008734785624
  0.0995016128895685  0.7286735533937119  0.4542805268627959
  0.0979280270381153  0.7376146125451442  0.9567094928833413
  0.2509130059500677  0.3489581768286598  0.2922140142738527
  0.2679278195690955  0.3486649331532234  0.7892236016996108
  0.7243623887343205  0.6518613134037565  0.2079684273802016
  0.7339402988262478  0.6522353460672221  0.7075404682056714
  0.6688077829629222  0.9248954990848119  0.2921215031092785
  0.6517537052980344  0.9125861076391857  0.7865988768715440
  0.3382929684208236  0.0733984354110362  0.2075654239183606
  0.3578949097575617  0.0805061214732419  0.7091917488096229
  0.0767390552300355  0.7483249982974627  0.2890408183194424
  0.0879647209745045  0.7367542404945056  0.7891265122084619
  0.9278780833267604  0.2592599218885994  0.1949224604003490
  0.9364479293170049  0.2696375899836454  0.7063957227574704
  0.5385269770880754  0.4147826287688332  0.1200063902185065
  0.5416633742406702  0.4138770328637520  0.6234567766734855
  0.4655129449794515  0.5783442904860863  0.3733965297584376
  0.4789471517954169  0.5717443823084238  0.8768524845350214
  0.5823529383312618  0.1302096078053694  0.1247964250452256
  0.5975141011585237  0.1313153227819797  0.6239376882185894
  0.4227237502636925  0.9001186836711099  0.3603874960858562
  0.4302832850858493  0.9027929275072424  0.8760216717469902
  0.8662112864991300  0.4564677922592324  0.1294454639976621
  0.8759372014135565  0.4437403845701340  0.6130389428505438
  0.0828990879059006  0.5154696737942430  0.3523268755324764
  0.1038532104854895  0.5224814632629062  0.8709743447683493
  0.9938354365197597  0.9987997938684217  0.1205409837722300
  0.0055043714269587  0.9911500833360307  0.6695152869871279
  0.1869363264459452  0.3428284353019038  0.4898710360896033
 
  0.00000000E+00  0.00000000E+00  0.00000000E+00
  0.00000000E+00  0.00000000E+00  0.00000000E+00
  0.00000000E+00  0.00000000E+00  0.00000000E+00
  0.00000000E+00  0.00000000E+00  0.00000000E+00
  0.00000000E+00  0.00000000E+00  0.00000000E+00
  0.00000000E+00  0.00000000E+00  0.00000000E+00
  0.00000000E+00  0.00000000E+00  0.00000000E+00
  0.00000000E+00  0.00000000E+00  0.00000000E+00
  0.00000000E+00  0.00000000E+00  0.00000000E+00
  0.00000000E+00  0.00000000E+00  0.00000000E+00
  0.00000000E+00  0.00000000E+00  0.00000000E+00
  0.00000000E+00  0.00000000E+00  0.00000000E+00
  0.00000000E+00  0.00000000E+00  0.00000000E+00
  0.00000000E+00  0.00000000E+00  0.00000000E+00
  0.00000000E+00  0.00000000E+00  0.00000000E+00
  0.00000000E+00  0.00000000E+00  0.00000000E+00
  0.00000000E+00  0.00000000E+00  0.00000000E+00
  0.00000000E+00  0.00000000E+00  0.00000000E+00
  0.00000000E+00  0.00000000E+00  0.00000000E+00
  0.00000000E+00  0.00000000E+00  0.00000000E+00
  0.00000000E+00  0.00000000E+00  0.00000000E+00
  0.00000000E+00  0.00000000E+00  0.00000000E+00
  0.00000000E+00  0.00000000E+00  0.00000000E+00
  0.00000000E+00  0.00000000E+00  0.00000000E+00
  0.00000000E+00  0.00000000E+00  0.00000000E+00
  0.00000000E+00  0.00000000E+00  0.00000000E+00
  0.00000000E+00  0.00000000E+00  0.00000000E+00
  0.00000000E+00  0.00000000E+00  0.00000000E+00
  0.00000000E+00  0.00000000E+00  0.00000000E+00
  0.00000000E+00  0.00000000E+00  0.00000000E+00
  0.00000000E+00  0.00000000E+00  0.00000000E+00
  0.00000000E+00  0.00000000E+00  0.00000000E+00
  0.00000000E+00  0.00000000E+00  0.00000000E+00
  0.00000000E+00  0.00000000E+00  0.00000000E+00
  0.00000000E+00  0.00000000E+00  0.00000000E+00
  0.00000000E+00  0.00000000E+00  0.00000000E+00
  0.00000000E+00  0.00000000E+00  0.00000000E+00
  0.00000000E+00  0.00000000E+00  0.00000000E+00
  0.00000000E+00  0.00000000E+00  0.00000000E+00
  0.00000000E+00  0.00000000E+00  0.00000000E+00
  0.00000000E+00  0.00000000E+00  0.00000000E+00
  0.00000000E+00  0.00000000E+00  0.00000000E+00
  0.00000000E+00  0.00000000E+00  0.00000000E+00
  0.00000000E+00  0.00000000E+00  0.00000000E+00
  0.00000000E+00  0.00000000E+00  0.00000000E+00
  0.00000000E+00  0.00000000E+00  0.00000000E+00
  0.00000000E+00  0.00000000E+00  0.00000000E+00
  0.00000000E+00  0.00000000E+00  0.00000000E+00
  0.00000000E+00  0.00000000E+00  0.00000000E+00
  0.00000000E+00  0.00000000E+00  0.00000000E+00
  0.00000000E+00  0.00000000E+00  0.00000000E+00
  0.00000000E+00  0.00000000E+00  0.00000000E+00
  0.00000000E+00  0.00000000E+00  0.00000000E+00
  0.00000000E+00  0.00000000E+00  0.00000000E+00
  0.00000000E+00  0.00000000E+00  0.00000000E+00
  0.00000000E+00  0.00000000E+00  0.00000000E+00
  0.00000000E+00  0.00000000E+00  0.00000000E+00
  0.00000000E+00  0.00000000E+00  0.00000000E+00
  0.00000000E+00  0.00000000E+00  0.00000000E+00
  0.00000000E+00  0.00000000E+00  0.00000000E+00
  0.00000000E+00  0.00000000E+00  0.00000000E+00
  0.00000000E+00  0.00000000E+00  0.00000000E+00
  0.00000000E+00  0.00000000E+00  0.00000000E+00
  0.00000000E+00  0.00000000E+00  0.00000000E+00
  0.00000000E+00  0.00000000E+00  0.00000000E+00
  0.00000000E+00  0.00000000E+00  0.00000000E+00
  0.00000000E+00  0.00000000E+00  0.00000000E+00
  0.00000000E+00  0.00000000E+00  0.00000000E+00
  0.00000000E+00  0.00000000E+00  0.00000000E+00
  0.00000000E+00  0.00000000E+00  0.00000000E+00
  0.00000000E+00  0.00000000E+00  0.00000000E+00
  0.00000000E+00  0.00000000E+00  0.00000000E+00
  0.00000000E+00  0.00000000E+00  0.00000000E+00
  0.00000000E+00  0.00000000E+00  0.00000000E+00
  0.00000000E+00  0.00000000E+00  0.00000000E+00
  0.00000000E+00  0.00000000E+00  0.00000000E+00
  0.00000000E+00  0.00000000E+00  0.00000000E+00
  0.00000000E+00  0.00000000E+00  0.00000000E+00
  0.00000000E+00  0.00000000E+00  0.00000000E+00
  0.00000000E+00  0.00000000E+00  0.00000000E+00
  0.00000000E+00  0.00000000E+00  0.00000000E+00
  0.00000000E+00  0.00000000E+00  0.00000000E+00
