supercell of supercell of icsd_608626.c 
   1.00600000000000     
    18.8433725412000008    0.0042597715995000    0.0111656436851000
    -6.2786657403800001   10.8752831735999997   -0.0012954496991100
     0.0059525623905900    0.0022414031449000   10.0498800689000003
   Al   Gd   N 
    92     4    95
Direct
  0.1113613073766047  0.0841130644475570  0.2475204473064636
  0.0522870107817610  0.1617947120592689  0.9980901359266738
  0.4442563464225771  0.3336499275241209  0.7508672439460611
  0.3902868719178940  0.4178629266511464  0.5003199693583582
  0.2793457699470920  0.0854719850211723  0.2519204336921419
  0.2302663462774532  0.1666225594595616  0.0005918658746822
  0.1067365911245375  0.3296246282426480  0.7432417815023769
  0.0551099692275088  0.4178386123373059  0.4990791053854977
  0.4448154830490836  0.0827723120440496  0.2517493491806064
  0.3879165232725654  0.1723511794019359  0.0069717686552835
  0.2797428349539643  0.3305299070123837  0.7418535911708020
  0.2222925630315160  0.4168603236385380  0.4997011211916487
  0.1120145602351386  0.0829405859021151  0.7491453877484844
  0.0546706610215253  0.1642221928746253  0.4999082175001703
  0.4460089664964428  0.3355169290744300  0.2526474856516714
  0.3902917177761580  0.4144561748759301  0.0001359308365636
  0.2766407749725488  0.0853697457248686  0.7359491197886570
  0.2212461996470054  0.1660483269554192  0.4955833076956395
  0.1098202475842740  0.3322295436296656  0.2578327370756028
  0.0536736895303633  0.4162174824806115  0.9985632117844432
  0.4417249110990014  0.0813310018880316  0.7508333662833522
  0.3899432027883307  0.1679316552087897  0.4983831338083462
  0.2793060963313536  0.3341934470892269  0.2588689544737832
  0.6116259956537249  0.0836013704627874  0.2493551574692532
  0.5488507005805161  0.1606795211671610  0.9997972618630584
  0.9448647747316485  0.3345411715049522  0.7500499892076249
  0.8900942076315772  0.4172686292016863  0.5001440376248780
  0.7792629487693219  0.0861531279595837  0.2588873364409565
  0.7246032509998912  0.1690132825205808  0.9988576413284775
  0.6060389612745780  0.3290621310888966  0.7451659708496123
  0.5551135669123326  0.4177251338688208  0.5020107972432726
  0.9444437373931649  0.0836241067439403  0.2485974091885979
  0.8921152753183392  0.1722705789670442  0.9977616381601848
  0.7789702415026198  0.3316040451579028  0.7452948631479046
  0.7220695832949744  0.4165570840668806  0.5005410753597062
  0.6103199849430183  0.0828196271789068  0.7509333912426470
  0.5541246924708076  0.1637376388059764  0.5022905846563148
  0.9448137473398077  0.3338946821139217  0.2487947657610690
  0.8900946706942818  0.4155414534309827  0.9992781879743191
  0.7796689163597250  0.0879641095583139  0.7449106897580720
  0.7213794787875116  0.1661894633882426  0.5023802271750384
  0.6092691428999260  0.3313507622218452  0.2603301437626371
  0.5526807074056421  0.4150393736669571  0.0004387966766970
  0.9442387151320233  0.0825892597174018  0.7496041186447471
  0.8906480312327645  0.1685724866719696  0.5002728531344331
  0.7788125780024444  0.3326460872460117  0.2593441438330046
  0.1115759832279437  0.5839322037524965  0.2474260020090568
  0.0531396151476713  0.6635189559261718  0.9982126493617187
  0.4446142094873409  0.8342144618072922  0.7503957315497232
  0.3893555926639820  0.9160679103955403  0.4994545867951885
  0.2789526590966389  0.5857119247101892  0.2569766632771859
  0.2238197835366478  0.6684146750040156  0.9980047528016200
  0.1067093667960748  0.8292566150930796  0.7430844431533572
  0.0552705919463108  0.9175544990169868  0.4979146092592757
  0.4446239082391514  0.5837445795670746  0.2494192658341206
  0.3913678871708086  0.6716031032044469  0.9984811941531433
  0.2786556775136830  0.8293797844166235  0.7431238932415667
  0.2219171409075145  0.9155674240892751  0.4957867203272315
  0.1107811161774421  0.5826850545174125  0.7486328459325193
  0.0548937799124758  0.6651654155162205  0.4982689952900614
  0.4448501509256246  0.8335156975058595  0.2498574073925326
  0.3883722555273081  0.9134065071985944  0.0006849414421097
  0.2795438180649867  0.5871871000205573  0.7448146713844963
  0.2214462661618199  0.6659652758664336  0.4993204445018407
  0.1107878267607063  0.8327784613369928  0.2530017335918018
  0.0546565310362226  0.9166911657429679  0.9987660076124101
  0.4440525021685957  0.5824005064343964  0.7502737328395526
  0.3905201663599911  0.6681066324547160  0.5003905411753706
  0.2780263795199076  0.8328740558627743  0.2538270142635142
  0.6121131473694632  0.5839911796731130  0.2493907924141823
  0.5510622352030197  0.6616234914902677  0.9991708657911360
  0.9452642210977231  0.8349286694768168  0.7496173972062508
  0.8901442114554001  0.9174346067379062  0.4997230584855785
  0.7792930909618079  0.5859124185400191  0.2590851968550041
  0.7251926478479902  0.6691092141087722  0.9987966261814236
  0.6066995467760066  0.8299233889440671  0.7441121395655514
  0.5549972192817592  0.9176659496366497  0.5007521462629541
  0.9443878543589435  0.5834793891014769  0.2486939070936245
  0.8924344148697898  0.6724689632297185  0.9979187033661177
  0.7794059808065157  0.8319574818052402  0.7448608275830537
  0.7222517098864785  0.9169319418254318  0.5003554852296048
  0.6109018924336169  0.5827662100625517  0.7506514154134578
  0.5548647110561973  0.6642494619205266  0.5010171171625757
  0.9451010037602074  0.8341213225686914  0.2488376293543055
  0.8902698554811010  0.9150317522987805  0.9991828606339155
  0.7797104064553011  0.5879639668986414  0.7452110034912920
  0.7217376685196584  0.6663418338867970  0.5021548156170113
  0.6097478359126711  0.8319947867528015  0.2597627315413860
  0.5527662894387362  0.9158233371877174  0.9998806779549483
  0.9440157221468723  0.5825775704149549  0.7497494478707267
  0.8907317287279000  0.6685385151006003  0.5003361935001678
  0.7791945496595361  0.8331413164112362  0.2590117732132242
  0.2212804140843332  0.4121842495918315  0.9957636450927225
  0.7191491275734236  0.4152359773443308  0.9996983737722402
  0.2271163297127288  0.9326559896258573  0.9823702412942765
  0.7197544033801151  0.9154778152831327  0.9992588132654774
  0.1106368591371876  0.0831968091898290  0.4371329055663011
  0.0558711161600911  0.1677052977320983  0.1892979188523682
  0.4448676231527315  0.3347865279538667  0.9412072676635717
  0.3905391884601528  0.4178794651456741  0.6881709044232736
  0.2786262459870770  0.0846650668808593  0.4435863638069222
  0.2231674442618825  0.1698745711967931  0.1943609881592891
  0.0940222324708486  0.3193859604251870  0.9290214741536715
  0.0547721442418805  0.4178831425614646  0.6875044602883733
  0.4441056749213104  0.0822495887305266  0.4410490269021565
  0.3921168069854346  0.1698091757469413  0.1977944912203640
  0.2867752951868923  0.3203984356696310  0.9272210477103329
  0.2219666653619257  0.4159086055412757  0.6959272103148493
  0.1153842016071422  0.0848057950134944  0.9418436391716867
  0.0546427016502165  0.1629811220991257  0.6888758345805641
  0.4451631055432657  0.3346956722862018  0.4410818560222864
  0.3890132815072533  0.4166823865118516  0.1914880426483094
  0.2203597965090722  0.1664246251609001  0.6825403169107958
  0.1094817835352586  0.3317693152493177  0.4468331102731682
  0.0563684472307671  0.4166103730723236  0.1901599715886420
  0.4366253194247420  0.0781439614778776  0.9426314794529347
  0.3893097882805847  0.1679828800638035  0.6889806033412640
  0.2791824602378412  0.3337170917371708  0.4464496503586659
  0.2224474766023405  0.4170664540154192  0.2177146706522564
  0.6111845537323291  0.0836484282899761  0.4396559048825708
  0.5556753382798121  0.1667515363066912  0.1911522785239725
  0.9462197233232601  0.3371632268569087  0.9401247609256131
  0.8898540986214272  0.4173903955021885  0.6886758575409928
  0.7790609943994014  0.0862262355720844  0.4476470640131183
  0.7232872721639794  0.1674171790205463  0.1917242890700948
  0.5920656817084406  0.3176745401519980  0.9302504738565176
  0.5544168878728541  0.4176645084200885  0.6900824197461404
  0.9443170398080127  0.0833427400990558  0.4386735723248734
  0.8888741939116755  0.1670280568147291  0.1900329194407391
  0.7849744706191331  0.3264708934408915  0.9312952842131708
  0.7210544962073655  0.4160700304392009  0.6966123006079741
  0.6110268855524055  0.0841622804477637  0.9430047986336731
  0.5528326926896696  0.1621688529524477  0.6911519689705941
  0.9449256526539642  0.3339591881608754  0.4384523879140190
  0.8883751544356500  0.4163558456289209  0.1910882209194824
  0.7863291042993836  0.1035870992700083  0.9306656478971860
  0.7202538834217904  0.1653418200381225  0.6894428242523105
  0.6088499612198817  0.3310243192613243  0.4491090659304575
  0.5569071415575948  0.4170857939565451  0.1917508611099450
  0.9421172937663869  0.0796261848195172  0.9405359127946511
  0.8910873960475811  0.1686804842215679  0.6891142513643160
  0.7786307367788083  0.3323808797789027  0.4478588879273744
  0.7221251148011518  0.4166050833402295  0.2216682987215179
  0.1111847722231829  0.5834932856064299  0.4374313113604558
  0.0556237244773570  0.6668929427941066  0.1892755763232969
  0.4451830701067863  0.8367722028764959  0.9407271686898042
  0.3892904728378141  0.9163586193290314  0.6882713101017615
  0.2790992179057952  0.5855792252721983  0.4460307050977619
  0.2231933954741265  0.6668971098392049  0.1900048586883329
  0.0971324549383823  0.8220114512780725  0.9304367543901364
  0.0552439801330920  0.9178469365212010  0.6870184479353441
  0.4446246195900798  0.5834227906713139  0.4392950386150005
  0.3890445744393745  0.6669112354007325  0.1903618805331107
  0.2833645419753310  0.8259189795549915  0.9305822296558262
  0.2209572843102237  0.9130979255737302  0.6909396240598866
  0.1120398909257574  0.5834770061689269  0.9403558594527368
  0.0543083753923312  0.6634008459104663  0.6876447928258358
  0.4449295219668130  0.8336279500285642  0.4392671048813668
  0.3888213874972735  0.9163713634873005  0.1913913680490253
  0.2856181517730008  0.6022335130005985  0.9308700705545974
  0.2205671640140565  0.6642076364942184  0.6868733358740045
  0.1094484750084206  0.8319864282125593  0.4429136304367773
  0.0564878156069710  0.9171801700972964  0.1894351594601318
  0.4408885991879004  0.5785953258032137  0.9414028114271389
  0.3909049630272108  0.6682273760854756  0.6894574877244182
  0.2784814018244575  0.8319948043104262  0.4431368902876969
  0.2226322188746579  0.9170856557153257  0.2097234286739678
  0.6115282164554543  0.5833401917986407  0.4395921819711717
  0.5562301047576099  0.6674896661864125  0.1908067566449319
  0.9472079015621588  0.8377577116931292  0.9397630926486613
  0.8902418251640327  0.9176156810480407  0.6881477324847864
  0.7791601486834736  0.5858601372109575  0.4478335298233347
  0.7237453836625178  0.6679320780422628  0.1917359027281620
  0.5927501316440598  0.8188602801387503  0.9295270112822536
  0.5546225960588700  0.9180954849413183  0.6890655971020578
  0.9442448245436452  0.5830964723863374  0.4387575813912861
  0.8889320520063038  0.6671603594870845  0.1902711080219248
  0.7853966333836979  0.8263732215797646  0.9307912382462789
  0.7216394827805033  0.9165779472924598  0.6960832337055294
  0.6119127144693550  0.5834619206669416  0.9428351619916100
  0.5544121852867221  0.6632499771515725  0.6896478379014752
  0.9448431532131991  0.8339625423848318  0.4384092168713423
  0.8887175068926325  0.9166835699662457  0.1908891037936939
  0.7867464408593676  0.6035501700741932  0.9310865523065104
  0.7207170975015771  0.6656985881503772  0.6891711789091701
  0.6092812666149214  0.8316324700834343  0.4483077472373651
  0.5565043018339395  0.9164502888164492  0.1913672773052539
  0.9425875480143446  0.5806923419126093  0.9407015159854168
  0.8911191582790678  0.6688802413608386  0.6891740308713352
  0.7787911025438632  0.8326618262396650  0.4473561831052351
  0.7225206256322210  0.9170395943152130  0.2211362040083813
 
  0.00000000E+00  0.00000000E+00  0.00000000E+00
  0.00000000E+00  0.00000000E+00  0.00000000E+00
  0.00000000E+00  0.00000000E+00  0.00000000E+00
  0.00000000E+00  0.00000000E+00  0.00000000E+00
  0.00000000E+00  0.00000000E+00  0.00000000E+00
  0.00000000E+00  0.00000000E+00  0.00000000E+00
  0.00000000E+00  0.00000000E+00  0.00000000E+00
  0.00000000E+00  0.00000000E+00  0.00000000E+00
  0.00000000E+00  0.00000000E+00  0.00000000E+00
  0.00000000E+00  0.00000000E+00  0.00000000E+00
  0.00000000E+00  0.00000000E+00  0.00000000E+00
  0.00000000E+00  0.00000000E+00  0.00000000E+00
  0.00000000E+00  0.00000000E+00  0.00000000E+00
  0.00000000E+00  0.00000000E+00  0.00000000E+00
  0.00000000E+00  0.00000000E+00  0.00000000E+00
  0.00000000E+00  0.00000000E+00  0.00000000E+00
  0.00000000E+00  0.00000000E+00  0.00000000E+00
  0.00000000E+00  0.00000000E+00  0.00000000E+00
  0.00000000E+00  0.00000000E+00  0.00000000E+00
  0.00000000E+00  0.00000000E+00  0.00000000E+00
  0.00000000E+00  0.00000000E+00  0.00000000E+00
  0.00000000E+00  0.00000000E+00  0.00000000E+00
  0.00000000E+00  0.00000000E+00  0.00000000E+00
  0.00000000E+00  0.00000000E+00  0.00000000E+00
  0.00000000E+00  0.00000000E+00  0.00000000E+00
  0.00000000E+00  0.00000000E+00  0.00000000E+00
  0.00000000E+00  0.00000000E+00  0.00000000E+00
  0.00000000E+00  0.00000000E+00  0.00000000E+00
  0.00000000E+00  0.00000000E+00  0.00000000E+00
  0.00000000E+00  0.00000000E+00  0.00000000E+00
  0.00000000E+00  0.00000000E+00  0.00000000E+00
  0.00000000E+00  0.00000000E+00  0.00000000E+00
  0.00000000E+00  0.00000000E+00  0.00000000E+00
  0.00000000E+00  0.00000000E+00  0.00000000E+00
  0.00000000E+00  0.00000000E+00  0.00000000E+00
  0.00000000E+00  0.00000000E+00  0.00000000E+00
  0.00000000E+00  0.00000000E+00  0.00000000E+00
  0.00000000E+00  0.00000000E+00  0.00000000E+00
  0.00000000E+00  0.00000000E+00  0.00000000E+00
  0.00000000E+00  0.00000000E+00  0.00000000E+00
  0.00000000E+00  0.00000000E+00  0.00000000E+00
  0.00000000E+00  0.00000000E+00  0.00000000E+00
  0.00000000E+00  0.00000000E+00  0.00000000E+00
  0.00000000E+00  0.00000000E+00  0.00000000E+00
  0.00000000E+00  0.00000000E+00  0.00000000E+00
  0.00000000E+00  0.00000000E+00  0.00000000E+00
  0.00000000E+00  0.00000000E+00  0.00000000E+00
  0.00000000E+00  0.00000000E+00  0.00000000E+00
  0.00000000E+00  0.00000000E+00  0.00000000E+00
  0.00000000E+00  0.00000000E+00  0.00000000E+00
  0.00000000E+00  0.00000000E+00  0.00000000E+00
  0.00000000E+00  0.00000000E+00  0.00000000E+00
  0.00000000E+00  0.00000000E+00  0.00000000E+00
  0.00000000E+00  0.00000000E+00  0.00000000E+00
  0.00000000E+00  0.00000000E+00  0.00000000E+00
  0.00000000E+00  0.00000000E+00  0.00000000E+00
  0.00000000E+00  0.00000000E+00  0.00000000E+00
  0.00000000E+00  0.00000000E+00  0.00000000E+00
  0.00000000E+00  0.00000000E+00  0.00000000E+00
  0.00000000E+00  0.00000000E+00  0.00000000E+00
  0.00000000E+00  0.00000000E+00  0.00000000E+00
  0.00000000E+00  0.00000000E+00  0.00000000E+00
  0.00000000E+00  0.00000000E+00  0.00000000E+00
  0.00000000E+00  0.00000000E+00  0.00000000E+00
  0.00000000E+00  0.00000000E+00  0.00000000E+00
  0.00000000E+00  0.00000000E+00  0.00000000E+00
  0.00000000E+00  0.00000000E+00  0.00000000E+00
  0.00000000E+00  0.00000000E+00  0.00000000E+00
  0.00000000E+00  0.00000000E+00  0.00000000E+00
  0.00000000E+00  0.00000000E+00  0.00000000E+00
  0.00000000E+00  0.00000000E+00  0.00000000E+00
  0.00000000E+00  0.00000000E+00  0.00000000E+00
  0.00000000E+00  0.00000000E+00  0.00000000E+00
  0.00000000E+00  0.00000000E+00  0.00000000E+00
  0.00000000E+00  0.00000000E+00  0.00000000E+00
  0.00000000E+00  0.00000000E+00  0.00000000E+00
  0.00000000E+00  0.00000000E+00  0.00000000E+00
  0.00000000E+00  0.00000000E+00  0.00000000E+00
  0.00000000E+00  0.00000000E+00  0.00000000E+00
  0.00000000E+00  0.00000000E+00  0.00000000E+00
  0.00000000E+00  0.00000000E+00  0.00000000E+00
  0.00000000E+00  0.00000000E+00  0.00000000E+00
  0.00000000E+00  0.00000000E+00  0.00000000E+00
  0.00000000E+00  0.00000000E+00  0.00000000E+00
  0.00000000E+00  0.00000000E+00  0.00000000E+00
  0.00000000E+00  0.00000000E+00  0.00000000E+00
  0.00000000E+00  0.00000000E+00  0.00000000E+00
  0.00000000E+00  0.00000000E+00  0.00000000E+00
  0.00000000E+00  0.00000000E+00  0.00000000E+00
  0.00000000E+00  0.00000000E+00  0.00000000E+00
  0.00000000E+00  0.00000000E+00  0.00000000E+00
  0.00000000E+00  0.00000000E+00  0.00000000E+00
  0.00000000E+00  0.00000000E+00  0.00000000E+00
  0.00000000E+00  0.00000000E+00  0.00000000E+00
  0.00000000E+00  0.00000000E+00  0.00000000E+00
  0.00000000E+00  0.00000000E+00  0.00000000E+00
  0.00000000E+00  0.00000000E+00  0.00000000E+00
  0.00000000E+00  0.00000000E+00  0.00000000E+00
  0.00000000E+00  0.00000000E+00  0.00000000E+00
  0.00000000E+00  0.00000000E+00  0.00000000E+00
  0.00000000E+00  0.00000000E+00  0.00000000E+00
  0.00000000E+00  0.00000000E+00  0.00000000E+00
  0.00000000E+00  0.00000000E+00  0.00000000E+00
  0.00000000E+00  0.00000000E+00  0.00000000E+00
  0.00000000E+00  0.00000000E+00  0.00000000E+00
  0.00000000E+00  0.00000000E+00  0.00000000E+00
  0.00000000E+00  0.00000000E+00  0.00000000E+00
  0.00000000E+00  0.00000000E+00  0.00000000E+00
  0.00000000E+00  0.00000000E+00  0.00000000E+00
  0.00000000E+00  0.00000000E+00  0.00000000E+00
  0.00000000E+00  0.00000000E+00  0.00000000E+00
  0.00000000E+00  0.00000000E+00  0.00000000E+00
  0.00000000E+00  0.00000000E+00  0.00000000E+00
  0.00000000E+00  0.00000000E+00  0.00000000E+00
  0.00000000E+00  0.00000000E+00  0.00000000E+00
  0.00000000E+00  0.00000000E+00  0.00000000E+00
  0.00000000E+00  0.00000000E+00  0.00000000E+00
  0.00000000E+00  0.00000000E+00  0.00000000E+00
  0.00000000E+00  0.00000000E+00  0.00000000E+00
  0.00000000E+00  0.00000000E+00  0.00000000E+00
  0.00000000E+00  0.00000000E+00  0.00000000E+00
  0.00000000E+00  0.00000000E+00  0.00000000E+00
  0.00000000E+00  0.00000000E+00  0.00000000E+00
  0.00000000E+00  0.00000000E+00  0.00000000E+00
  0.00000000E+00  0.00000000E+00  0.00000000E+00
  0.00000000E+00  0.00000000E+00  0.00000000E+00
  0.00000000E+00  0.00000000E+00  0.00000000E+00
  0.00000000E+00  0.00000000E+00  0.00000000E+00
  0.00000000E+00  0.00000000E+00  0.00000000E+00
  0.00000000E+00  0.00000000E+00  0.00000000E+00
  0.00000000E+00  0.00000000E+00  0.00000000E+00
  0.00000000E+00  0.00000000E+00  0.00000000E+00
  0.00000000E+00  0.00000000E+00  0.00000000E+00
  0.00000000E+00  0.00000000E+00  0.00000000E+00
  0.00000000E+00  0.00000000E+00  0.00000000E+00
  0.00000000E+00  0.00000000E+00  0.00000000E+00
  0.00000000E+00  0.00000000E+00  0.00000000E+00
  0.00000000E+00  0.00000000E+00  0.00000000E+00
  0.00000000E+00  0.00000000E+00  0.00000000E+00
  0.00000000E+00  0.00000000E+00  0.00000000E+00
  0.00000000E+00  0.00000000E+00  0.00000000E+00
  0.00000000E+00  0.00000000E+00  0.00000000E+00
  0.00000000E+00  0.00000000E+00  0.00000000E+00
  0.00000000E+00  0.00000000E+00  0.00000000E+00
  0.00000000E+00  0.00000000E+00  0.00000000E+00
  0.00000000E+00  0.00000000E+00  0.00000000E+00
  0.00000000E+00  0.00000000E+00  0.00000000E+00
  0.00000000E+00  0.00000000E+00  0.00000000E+00
  0.00000000E+00  0.00000000E+00  0.00000000E+00
  0.00000000E+00  0.00000000E+00  0.00000000E+00
  0.00000000E+00  0.00000000E+00  0.00000000E+00
  0.00000000E+00  0.00000000E+00  0.00000000E+00
  0.00000000E+00  0.00000000E+00  0.00000000E+00
  0.00000000E+00  0.00000000E+00  0.00000000E+00
  0.00000000E+00  0.00000000E+00  0.00000000E+00
  0.00000000E+00  0.00000000E+00  0.00000000E+00
  0.00000000E+00  0.00000000E+00  0.00000000E+00
  0.00000000E+00  0.00000000E+00  0.00000000E+00
  0.00000000E+00  0.00000000E+00  0.00000000E+00
  0.00000000E+00  0.00000000E+00  0.00000000E+00
  0.00000000E+00  0.00000000E+00  0.00000000E+00
  0.00000000E+00  0.00000000E+00  0.00000000E+00
  0.00000000E+00  0.00000000E+00  0.00000000E+00
  0.00000000E+00  0.00000000E+00  0.00000000E+00
  0.00000000E+00  0.00000000E+00  0.00000000E+00
  0.00000000E+00  0.00000000E+00  0.00000000E+00
  0.00000000E+00  0.00000000E+00  0.00000000E+00
  0.00000000E+00  0.00000000E+00  0.00000000E+00
  0.00000000E+00  0.00000000E+00  0.00000000E+00
  0.00000000E+00  0.00000000E+00  0.00000000E+00
  0.00000000E+00  0.00000000E+00  0.00000000E+00
  0.00000000E+00  0.00000000E+00  0.00000000E+00
  0.00000000E+00  0.00000000E+00  0.00000000E+00
  0.00000000E+00  0.00000000E+00  0.00000000E+00
  0.00000000E+00  0.00000000E+00  0.00000000E+00
  0.00000000E+00  0.00000000E+00  0.00000000E+00
  0.00000000E+00  0.00000000E+00  0.00000000E+00
  0.00000000E+00  0.00000000E+00  0.00000000E+00
  0.00000000E+00  0.00000000E+00  0.00000000E+00
  0.00000000E+00  0.00000000E+00  0.00000000E+00
  0.00000000E+00  0.00000000E+00  0.00000000E+00
  0.00000000E+00  0.00000000E+00  0.00000000E+00
  0.00000000E+00  0.00000000E+00  0.00000000E+00
  0.00000000E+00  0.00000000E+00  0.00000000E+00
  0.00000000E+00  0.00000000E+00  0.00000000E+00
  0.00000000E+00  0.00000000E+00  0.00000000E+00
  0.00000000E+00  0.00000000E+00  0.00000000E+00
  0.00000000E+00  0.00000000E+00  0.00000000E+00
  0.00000000E+00  0.00000000E+00  0.00000000E+00
  0.00000000E+00  0.00000000E+00  0.00000000E+00
  0.00000000E+00  0.00000000E+00  0.00000000E+00
