supercell of 100% icsd_608626.cif, 0% i 
   1.00000000000000     
    -9.6028977804722686   -0.0103046941952688   -0.0019012753046322
    -4.7925311206404828    8.3001058852780183   -0.0019999599703401
    -0.0019596925632427    0.0013094365014037  -10.1024141271697676
   Al   Hf   Mg   N 
    30     3     3    36
Direct
  0.1171491685707124  0.0885622649638904  0.2956299042079706
  0.2168210195884797  0.2103571956341881  0.0457335598187214
  0.8952098389819056  0.1993147811347029  0.5468937690033115
  0.4404911814018604  0.0996881334724904  0.2999191157026431
  0.5459671936045822  0.2149858673189513  0.0506680173156795
  0.1179589563983541  0.0934351023316466  0.7942695323354485
  0.2199606793285227  0.2085738153362087  0.5472988723534229
  0.7772485736475048  0.0894280643669205  0.2940790784684921
  0.8945421520592376  0.2065118018129155  0.0475166254058124
  0.4361677540458686  0.0992478279345477  0.7896155862242580
  0.5505448734879650  0.2095511254720464  0.5426241482877074
  0.1172634840992330  0.4289653034104788  0.2936150796305128
  0.2234410551879407  0.5379983145169049  0.0472814446633905
  0.7771649343384794  0.4338850288857685  0.7883405433458321
  0.8971534175558560  0.5395850540031333  0.5517176312577874
  0.4350936674295625  0.4305021896489478  0.2940979461469126
  0.1125100870739075  0.4259325431166019  0.7950247028401947
  0.8985952620535826  0.5322907796805367  0.0420149658934434
  0.4406966481379868  0.4322987294798821  0.7921329864720050
  0.5471946281328783  0.5409811209522815  0.5536025692347835
  0.1137121381905928  0.7591305688691818  0.2958634394891817
  0.2165192595209646  0.8733121837228666  0.0448537826274915
  0.7821308496564825  0.7540815051394887  0.7908418272881264
  0.8937480680358405  0.8680885573097470  0.5435420811062812
  0.4337101780814621  0.7652847999953849  0.2991179751892545
  0.1158358934771684  0.7573112897467951  0.7937801648799265
  0.2192563306371582  0.8728216280911028  0.5478523014485646
  0.7851327007351330  0.7619347073439755  0.2991643148062195
  0.8986773608786081  0.8646867129937235  0.0500880023314068
  0.4420776162659621  0.7588972930519446  0.7890418145927427
  0.7760702190118209  0.0940295642290323  0.8023761969697816
  0.7773018186787013  0.4297210012210400  0.3087121971785223
  0.5556601809375223  0.8714560314293109  0.0588506043478247
  0.5534816270146123  0.5347449587409088  0.0411771738902047
  0.2212262225471520  0.5394060726097649  0.5489907800901790
  0.5558475258311688  0.8719211750900655  0.5439822835380781
  0.2192987997339841  0.2069919784554060  0.3542954379733629
  0.1117104739156716  0.0938477360624432  0.1049233044062134
  0.8974705213829921  0.2144418582829246  0.8554558303301860
  0.7764543322607409  0.0936722440198707  0.5967327748733595
  0.5570027427612985  0.2057382726384702  0.3515211310891857
  0.4321108094844064  0.1124422252418213  0.1093714035473923
  0.2223874334316065  0.2043949322343224  0.8569295705656046
  0.1121961925244435  0.0943829188943894  0.6051127166696801
  0.8982422352086843  0.1862723374419488  0.3562477572281111
  0.7771849648969393  0.0942224654388042  0.0966187824623503
  0.5378206942481967  0.2131156971641630  0.8608411433945520
  0.4366930826858280  0.1090500963376329  0.6035474408775698
  0.2198537451693099  0.5410048934478837  0.3440325023695792
  0.1118402368029336  0.4270266713793589  0.1022178527010951
  0.8890799041016351  0.5378440679564633  0.8530513887944764
  0.7795403140817569  0.4269214953244358  0.5911791672848850
  0.5360252472983618  0.5477693661516980  0.3591421343081009
  0.4365469899275212  0.4239092573712213  0.1081269962169529
  0.2223005211045859  0.5390120933170692  0.8541183414723790
  0.1058094846795683  0.4185607950975836  0.6109000876704158
  0.9009387227338763  0.5467282779525675  0.3605192644312538
  0.7928185384133286  0.4223321894622458  0.1048520991395563
  0.5587417086893112  0.5376256473125167  0.8383473261212160
  0.4583679033187806  0.4174290848638975  0.6075899964701037
  0.2183539204086671  0.8741965166371770  0.3566434580786080
  0.1125172622045909  0.7613173080846849  0.1046530023834862
  0.8969612184663305  0.8550803281396568  0.8614006296543266
  0.7924016717879425  0.7556197662613755  0.6057593413088469
  0.5579572959066894  0.8707502510656369  0.3281504671936020
  0.4258175777206858  0.7660334526318948  0.1110328722487068
  0.2213473881907575  0.8735275549718722  0.8553852425916375
  0.1016819707445009  0.7784448617004500  0.6092656994664267
  0.8907904734905259  0.8731490362406973  0.3521254189165930
  0.8000673311127855  0.7473788766580398  0.1089616459988960
  0.5559913506694443  0.8728459910023503  0.8469710267158916
  0.4341143758165416  0.7579963616997247  0.6036657266631948
 
  0.00000000E+00  0.00000000E+00  0.00000000E+00
  0.00000000E+00  0.00000000E+00  0.00000000E+00
  0.00000000E+00  0.00000000E+00  0.00000000E+00
  0.00000000E+00  0.00000000E+00  0.00000000E+00
  0.00000000E+00  0.00000000E+00  0.00000000E+00
  0.00000000E+00  0.00000000E+00  0.00000000E+00
  0.00000000E+00  0.00000000E+00  0.00000000E+00
  0.00000000E+00  0.00000000E+00  0.00000000E+00
  0.00000000E+00  0.00000000E+00  0.00000000E+00
  0.00000000E+00  0.00000000E+00  0.00000000E+00
  0.00000000E+00  0.00000000E+00  0.00000000E+00
  0.00000000E+00  0.00000000E+00  0.00000000E+00
  0.00000000E+00  0.00000000E+00  0.00000000E+00
  0.00000000E+00  0.00000000E+00  0.00000000E+00
  0.00000000E+00  0.00000000E+00  0.00000000E+00
  0.00000000E+00  0.00000000E+00  0.00000000E+00
  0.00000000E+00  0.00000000E+00  0.00000000E+00
  0.00000000E+00  0.00000000E+00  0.00000000E+00
  0.00000000E+00  0.00000000E+00  0.00000000E+00
  0.00000000E+00  0.00000000E+00  0.00000000E+00
  0.00000000E+00  0.00000000E+00  0.00000000E+00
  0.00000000E+00  0.00000000E+00  0.00000000E+00
  0.00000000E+00  0.00000000E+00  0.00000000E+00
  0.00000000E+00  0.00000000E+00  0.00000000E+00
  0.00000000E+00  0.00000000E+00  0.00000000E+00
  0.00000000E+00  0.00000000E+00  0.00000000E+00
  0.00000000E+00  0.00000000E+00  0.00000000E+00
  0.00000000E+00  0.00000000E+00  0.00000000E+00
  0.00000000E+00  0.00000000E+00  0.00000000E+00
  0.00000000E+00  0.00000000E+00  0.00000000E+00
  0.00000000E+00  0.00000000E+00  0.00000000E+00
  0.00000000E+00  0.00000000E+00  0.00000000E+00
  0.00000000E+00  0.00000000E+00  0.00000000E+00
  0.00000000E+00  0.00000000E+00  0.00000000E+00
  0.00000000E+00  0.00000000E+00  0.00000000E+00
  0.00000000E+00  0.00000000E+00  0.00000000E+00
  0.00000000E+00  0.00000000E+00  0.00000000E+00
  0.00000000E+00  0.00000000E+00  0.00000000E+00
  0.00000000E+00  0.00000000E+00  0.00000000E+00
  0.00000000E+00  0.00000000E+00  0.00000000E+00
  0.00000000E+00  0.00000000E+00  0.00000000E+00
  0.00000000E+00  0.00000000E+00  0.00000000E+00
  0.00000000E+00  0.00000000E+00  0.00000000E+00
  0.00000000E+00  0.00000000E+00  0.00000000E+00
  0.00000000E+00  0.00000000E+00  0.00000000E+00
  0.00000000E+00  0.00000000E+00  0.00000000E+00
  0.00000000E+00  0.00000000E+00  0.00000000E+00
  0.00000000E+00  0.00000000E+00  0.00000000E+00
  0.00000000E+00  0.00000000E+00  0.00000000E+00
  0.00000000E+00  0.00000000E+00  0.00000000E+00
  0.00000000E+00  0.00000000E+00  0.00000000E+00
  0.00000000E+00  0.00000000E+00  0.00000000E+00
  0.00000000E+00  0.00000000E+00  0.00000000E+00
  0.00000000E+00  0.00000000E+00  0.00000000E+00
  0.00000000E+00  0.00000000E+00  0.00000000E+00
  0.00000000E+00  0.00000000E+00  0.00000000E+00
  0.00000000E+00  0.00000000E+00  0.00000000E+00
  0.00000000E+00  0.00000000E+00  0.00000000E+00
  0.00000000E+00  0.00000000E+00  0.00000000E+00
  0.00000000E+00  0.00000000E+00  0.00000000E+00
  0.00000000E+00  0.00000000E+00  0.00000000E+00
  0.00000000E+00  0.00000000E+00  0.00000000E+00
  0.00000000E+00  0.00000000E+00  0.00000000E+00
  0.00000000E+00  0.00000000E+00  0.00000000E+00
  0.00000000E+00  0.00000000E+00  0.00000000E+00
  0.00000000E+00  0.00000000E+00  0.00000000E+00
  0.00000000E+00  0.00000000E+00  0.00000000E+00
  0.00000000E+00  0.00000000E+00  0.00000000E+00
  0.00000000E+00  0.00000000E+00  0.00000000E+00
  0.00000000E+00  0.00000000E+00  0.00000000E+00
  0.00000000E+00  0.00000000E+00  0.00000000E+00
  0.00000000E+00  0.00000000E+00  0.00000000E+00
