generated by phonopy                    
   1.00000000000000     
    10.0351470768999995   -0.0000022330999784   -0.0000001056124209
    -5.0175765436399997    8.6906901959899994    0.0000001395531216
    -0.0000001735893656    0.0000001431815548   14.9533752540999991
   Pb   P    O 
    21    11    50
Direct
  0.9890002745797162  0.7616606999964333  0.1239244123893002
  0.9992666979108478  0.7671509299182162  0.6238781445705612
  0.0057176515365001  0.2604173737891955  0.3745751461600690
  0.0051022614547023  0.2603510219659171  0.8717647581207046
  0.2055868542179198  0.2106995873002191  0.1227470325514162
  0.2312203717917569  0.2251559434959631  0.6243419450943151
  0.7502720477105242  0.7439465687548505  0.3707608310732837
  0.7491517761445294  0.7409666332482416  0.8758119721367237
  0.7618816081016178  0.0097573629537706  0.1209649341325800
  0.7783131349127501  0.0018647836463828  0.6226571712159199
  0.2595624119723894  0.0006186787163998  0.3760483555279279
  0.2609467190396373  0.0004633606954414  0.8735044001610390
  0.6611347440886490  0.3441831860929838  0.0017544104642084
  0.6689764205574349  0.3341437937747358  0.5007151627139308
  0.3126376845200056  0.6743235270241072  0.0027624415226413
  0.3452882065183758  0.6662234124147517  0.5033541352117439
  0.3156121577876121  0.6800674974204810  0.2451932531598047
  0.3490878750226685  0.6742341098070241  0.7445962065186436
  0.6659197235339391  0.3416764963357011  0.2470723473923684
  0.6689918178182026  0.3314202751655486  0.7470263383670641
  0.5962794553519473  0.5950248910681353  0.1253957411660593
  0.6253851889190827  0.5906092486593764  0.6241658133574290
  0.3729206834217180  0.3989669994808338  0.3726851596085794
  0.3725632912893317  0.3990951646361367  0.8746923905657553
  0.3785955780276993  0.0224898188663687  0.1255553025623684
  0.4113867634700696  0.0287573455693320  0.6240580421399073
  0.6121013537574171  0.9793378030764828  0.3768734185304510
  0.6121152226863131  0.9785449678479381  0.8709144946586136
  0.9710948585551549  0.3769609537160221  0.1246421406968636
  0.9794397566737842  0.3739630049917508  0.6241080643910166
  0.0297258493696759  0.6315063329268753  0.3811428336222278
  0.0292593514337796  0.6313894465362822  0.8670496785231592
  0.4927051273341334  0.7249699233092812  0.1234721345142873
  0.5039817218380520  0.6456781962889906  0.6242079308660351
  0.4688680120017494  0.3152932952903882  0.3736172778102969
  0.4707355177674444  0.3177714957456672  0.8756456513686572
  0.3122071975169050  0.8436528331297097  0.1235509786686322
  0.3573617905355135  0.8535571156469430  0.6237855248414519
  0.6966723566349273  0.1579341976862167  0.3823562611728306
  0.6954962190201641  0.1568471427620892  0.8652240217489009
  0.1430420814530393  0.5080846972041613  0.1245754539533692
  0.1534308270379086  0.4984465210120419  0.6239419425167867
  0.8520476584765220  0.5350223529434217  0.3840400789976641
  0.8514898457705584  0.5345873361427422  0.8644221105839307
  0.7402112806429102  0.6269554453650699  0.0154078314202408
  0.7291596222450920  0.6486319874083009  0.5390614324939165
  0.2708248241556674  0.3607933234853462  0.4587236522029485
  0.2700420139543098  0.3615776178539036  0.9599755136454604
  0.3228546691481426  0.0688167856905793  0.0390628317596153
  0.3494560712019776  0.0743908254588774  0.5398973043302888
  0.6292249785657020  0.9042888045497506  0.4644243957536389
  0.6754663112504389  0.9250425681230539  0.9502698549949002
  0.9348923894029895  0.2730833543991054  0.0400834496274101
  0.9361225305301986  0.2655071239228306  0.5404891404192682
  0.0992264120729516  0.7444899854369922  0.4620518387226866
  0.0910515093873911  0.7333981128292564  0.9534697474860323
  0.2622094076243826  0.3503070743867482  0.2904918139934125
  0.2623281888567277  0.3469587876792914  0.7918231709152153
  0.7525058728278822  0.6405781184764123  0.2299537085833876
  0.7326754625471565  0.6533398894643057  0.7076163788803456
  0.6747100506330455  0.9244416642802449  0.2977919922426295
  0.6299421285981239  0.9034548001692855  0.7835632229022096
  0.3052283089111896  0.0596513972524519  0.2076042010161885
  0.3506601612257256  0.0741750812654516  0.7089265241760643
  0.0910731446340449  0.7342158577966416  0.2950558794168430
  0.0980789253529721  0.7454167612448259  0.7865644049594636
  0.9339898431204432  0.2738131035626452  0.2096398898950866
  0.9361036085673646  0.2666767896122408  0.7084038178071808
  0.5102177172867712  0.3608461399971361  0.1268956143962470
  0.5410460299226258  0.4102837447269110  0.6254836888059430
  0.4842899242742362  0.5791950144699953  0.3690944259947671
  0.4824385813452707  0.5793991810624917  0.8694516718932732
  0.5568304106835313  0.1102004368921570  0.1318686619603042
  0.5915457000963400  0.1277373479147528  0.6237237467396426
  0.4334047626474202  0.9150670234015763  0.3612129900242493
  0.4329426206918896  0.9121810345829431  0.8858814069826622
  0.8633417053445882  0.4485102876719580  0.1241937251752105
  0.8762956606414249  0.4508738857730350  0.6238323904701772
  0.0995577310679323  0.5210827008684760  0.3818703763717366
  0.0991374021359377  0.5210822484735331  0.8655841772158794
  0.9742693022692208  0.9798124351265187  0.1160285229003506
  0.0047632665490980  0.9971165279182088  0.6224429876597810
 
  0.00000000E+00  0.00000000E+00  0.00000000E+00
  0.00000000E+00  0.00000000E+00  0.00000000E+00
  0.00000000E+00  0.00000000E+00  0.00000000E+00
  0.00000000E+00  0.00000000E+00  0.00000000E+00
  0.00000000E+00  0.00000000E+00  0.00000000E+00
  0.00000000E+00  0.00000000E+00  0.00000000E+00
  0.00000000E+00  0.00000000E+00  0.00000000E+00
  0.00000000E+00  0.00000000E+00  0.00000000E+00
  0.00000000E+00  0.00000000E+00  0.00000000E+00
  0.00000000E+00  0.00000000E+00  0.00000000E+00
  0.00000000E+00  0.00000000E+00  0.00000000E+00
  0.00000000E+00  0.00000000E+00  0.00000000E+00
  0.00000000E+00  0.00000000E+00  0.00000000E+00
  0.00000000E+00  0.00000000E+00  0.00000000E+00
  0.00000000E+00  0.00000000E+00  0.00000000E+00
  0.00000000E+00  0.00000000E+00  0.00000000E+00
  0.00000000E+00  0.00000000E+00  0.00000000E+00
  0.00000000E+00  0.00000000E+00  0.00000000E+00
  0.00000000E+00  0.00000000E+00  0.00000000E+00
  0.00000000E+00  0.00000000E+00  0.00000000E+00
  0.00000000E+00  0.00000000E+00  0.00000000E+00
  0.00000000E+00  0.00000000E+00  0.00000000E+00
  0.00000000E+00  0.00000000E+00  0.00000000E+00
  0.00000000E+00  0.00000000E+00  0.00000000E+00
  0.00000000E+00  0.00000000E+00  0.00000000E+00
  0.00000000E+00  0.00000000E+00  0.00000000E+00
  0.00000000E+00  0.00000000E+00  0.00000000E+00
  0.00000000E+00  0.00000000E+00  0.00000000E+00
  0.00000000E+00  0.00000000E+00  0.00000000E+00
  0.00000000E+00  0.00000000E+00  0.00000000E+00
  0.00000000E+00  0.00000000E+00  0.00000000E+00
  0.00000000E+00  0.00000000E+00  0.00000000E+00
  0.00000000E+00  0.00000000E+00  0.00000000E+00
  0.00000000E+00  0.00000000E+00  0.00000000E+00
  0.00000000E+00  0.00000000E+00  0.00000000E+00
  0.00000000E+00  0.00000000E+00  0.00000000E+00
  0.00000000E+00  0.00000000E+00  0.00000000E+00
  0.00000000E+00  0.00000000E+00  0.00000000E+00
  0.00000000E+00  0.00000000E+00  0.00000000E+00
  0.00000000E+00  0.00000000E+00  0.00000000E+00
  0.00000000E+00  0.00000000E+00  0.00000000E+00
  0.00000000E+00  0.00000000E+00  0.00000000E+00
  0.00000000E+00  0.00000000E+00  0.00000000E+00
  0.00000000E+00  0.00000000E+00  0.00000000E+00
  0.00000000E+00  0.00000000E+00  0.00000000E+00
  0.00000000E+00  0.00000000E+00  0.00000000E+00
  0.00000000E+00  0.00000000E+00  0.00000000E+00
  0.00000000E+00  0.00000000E+00  0.00000000E+00
  0.00000000E+00  0.00000000E+00  0.00000000E+00
  0.00000000E+00  0.00000000E+00  0.00000000E+00
  0.00000000E+00  0.00000000E+00  0.00000000E+00
  0.00000000E+00  0.00000000E+00  0.00000000E+00
  0.00000000E+00  0.00000000E+00  0.00000000E+00
  0.00000000E+00  0.00000000E+00  0.00000000E+00
  0.00000000E+00  0.00000000E+00  0.00000000E+00
  0.00000000E+00  0.00000000E+00  0.00000000E+00
  0.00000000E+00  0.00000000E+00  0.00000000E+00
  0.00000000E+00  0.00000000E+00  0.00000000E+00
  0.00000000E+00  0.00000000E+00  0.00000000E+00
  0.00000000E+00  0.00000000E+00  0.00000000E+00
  0.00000000E+00  0.00000000E+00  0.00000000E+00
  0.00000000E+00  0.00000000E+00  0.00000000E+00
  0.00000000E+00  0.00000000E+00  0.00000000E+00
  0.00000000E+00  0.00000000E+00  0.00000000E+00
  0.00000000E+00  0.00000000E+00  0.00000000E+00
  0.00000000E+00  0.00000000E+00  0.00000000E+00
  0.00000000E+00  0.00000000E+00  0.00000000E+00
  0.00000000E+00  0.00000000E+00  0.00000000E+00
  0.00000000E+00  0.00000000E+00  0.00000000E+00
  0.00000000E+00  0.00000000E+00  0.00000000E+00
  0.00000000E+00  0.00000000E+00  0.00000000E+00
  0.00000000E+00  0.00000000E+00  0.00000000E+00
  0.00000000E+00  0.00000000E+00  0.00000000E+00
  0.00000000E+00  0.00000000E+00  0.00000000E+00
  0.00000000E+00  0.00000000E+00  0.00000000E+00
  0.00000000E+00  0.00000000E+00  0.00000000E+00
  0.00000000E+00  0.00000000E+00  0.00000000E+00
  0.00000000E+00  0.00000000E+00  0.00000000E+00
  0.00000000E+00  0.00000000E+00  0.00000000E+00
  0.00000000E+00  0.00000000E+00  0.00000000E+00
  0.00000000E+00  0.00000000E+00  0.00000000E+00
  0.00000000E+00  0.00000000E+00  0.00000000E+00
