supercell of icsd_191774.cif            
   1.00000000000000     
    11.3848241206855842    0.0055859938977259    0.0216667357899876
    -5.6875210548760711    9.8233853275092322    0.0037942173823971
     0.0235165044255763    0.0178135059499598   11.5680339686534328
   N    La   In
    36    16    20
Direct
  0.2073120544929026  0.1194555615652391  0.4214696995360967
  0.0837193949427402  0.2173254176413977  0.1781795060654900
  0.9017079681885320  0.1023117302483314  0.9251752621636200
  0.7987842136737697  0.2303510528005503  0.6948464150681417
  0.5698229307232054  0.1194166166135346  0.4526566611214022
  0.4633158868648124  0.2282143088866562  0.1944662329510578
  0.2236595287310550  0.1140779053319889  0.9560734087202576
  0.1058268217237597  0.2039375207946392  0.6894075419519012
  0.8901837432775253  0.1095895676387357  0.4450815695195800
  0.7638324667862122  0.1949923554639952  0.1955631110636133
  0.5452701665657003  0.1196938950852768  0.9335592147648626
  0.4288387387737558  0.2325183778969375  0.6894763623466673
  0.2199373664880468  0.4346308197398727  0.4553167077155749
  0.1203319484224963  0.5731698009134831  0.1920963871059129
  0.9021601502164671  0.4396911147473475  0.9502086817152318
  0.7755767756323095  0.5507408304657986  0.7314877990509103
  0.5650638528865741  0.4514629863301494  0.4261323890051898
  0.4541754041938262  0.5467464095614929  0.1881143620477275
  0.2229601614991452  0.4478529645084777  0.9603394523353757
  0.1062723406921862  0.5625225804286913  0.7029177752087747
  0.8775450976777890  0.4306178557411897  0.4430835047737460
  0.7699098381719054  0.5496109350348632  0.1807915650018259
  0.5302862614901258  0.4297773842145247  0.9416121453047595
  0.4591627357021011  0.5651056604192917  0.7034607658369083
  0.2215240107129262  0.7867759307367734  0.4337821888862763
  0.1123963131730363  0.8790133141102316  0.1790184154127203
  0.8983305967954678  0.7942509892049259  0.9405751077413740
  0.7760731887583674  0.8874349207469407  0.6933407691427149
  0.5770360721006469  0.7902433472795636  0.4326224259531983
  0.4381017697461260  0.9009780143362249  0.1986364137106804
  0.2015637119222831  0.7683877266673633  0.9415769032973245
  0.1160760880176355  0.8953575146485448  0.7141311050520329
  0.8796487711021825  0.7782449132279012  0.4578258354788645
  0.7950524022142886  0.9072818915980250  0.1775084967655545
  0.5675059244820204  0.7725558208190364  0.9533656784287743
  0.4383359999959922  0.8741618697222933  0.7176156763673234
  0.2186248731384737  0.1124272309358005  0.2161384541594700
  0.7767899983031228  0.2040035673779812  0.9908585018997229
  0.4361771193909263  0.2275008155451843  0.4774371879599499
  0.5553348609176751  0.1209482753360476  0.7325174970776303
  0.2208634903646285  0.4406547794780096  0.2386084126256875
  0.1048316278833354  0.5541341175334651  0.4961905436113412
  0.7719417067151113  0.5541395265634037  0.9719166172290485
  0.4565827988770508  0.5625764771243524  0.4936476930960794
  0.2214846572086273  0.4405626713335380  0.7519183234467661
  0.8803181465562702  0.4323323250577218  0.2369683957718536
  0.7735345665007074  0.5495705150998589  0.5161118869290604
  0.1093533932553825  0.9026755221541691  0.5060824364231351
  0.5649207875397551  0.7873126863955306  0.2259642374402802
  0.4506502961863248  0.8871720402190775  0.4969677687839464
  0.8869377938577472  0.7762802789659631  0.2451086789915280
  0.4325016522073071  0.8859963259267047  0.9856964838492175
  0.1062909663342495  0.2184299202251339  0.4979897277152219
  0.8947270724457894  0.1052927908818546  0.7396456505865814
  0.5578358275781454  0.1105126620753722  0.2527142260714541
  0.2205836661035931  0.1135487853294066  0.7616826839866420
  0.1040340715239907  0.2187927789650743  0.9939875330419099
  0.8836235352323172  0.1066470454874917  0.2525320114148712
  0.7864364711631993  0.2212566087972476  0.4987066077759650
  0.4448613275353352  0.2231410228911557  0.9995335153821543
  0.8979050387425218  0.4443679861007581  0.7591298758269147
  0.5635931849615261  0.4445060530152531  0.2372251792678668
  0.1115804460710379  0.5591320232706778  0.0023887524419521
  0.5439496453398149  0.4407134386906719  0.7563592931671863
  0.4438127679486499  0.5491162673769736  0.9992381535719019
  0.2234447272512909  0.7856970996689725  0.2447235401578425
  0.8930302825675014  0.7876264610396433  0.7535461833657351
  0.7919592841597520  0.8960519884901430  0.9917266070250861
  0.2135520018064696  0.7736399321184351  0.7559529651485946
  0.1076594835857918  0.8867166792390577  0.9901797847576788
  0.7803829943577156  0.8930347119539022  0.5024551324895015
  0.5625887395510247  0.7749886841656775  0.7604339208987341
 
  0.00000000E+00  0.00000000E+00  0.00000000E+00
  0.00000000E+00  0.00000000E+00  0.00000000E+00
  0.00000000E+00  0.00000000E+00  0.00000000E+00
  0.00000000E+00  0.00000000E+00  0.00000000E+00
  0.00000000E+00  0.00000000E+00  0.00000000E+00
  0.00000000E+00  0.00000000E+00  0.00000000E+00
  0.00000000E+00  0.00000000E+00  0.00000000E+00
  0.00000000E+00  0.00000000E+00  0.00000000E+00
  0.00000000E+00  0.00000000E+00  0.00000000E+00
  0.00000000E+00  0.00000000E+00  0.00000000E+00
  0.00000000E+00  0.00000000E+00  0.00000000E+00
  0.00000000E+00  0.00000000E+00  0.00000000E+00
  0.00000000E+00  0.00000000E+00  0.00000000E+00
  0.00000000E+00  0.00000000E+00  0.00000000E+00
  0.00000000E+00  0.00000000E+00  0.00000000E+00
  0.00000000E+00  0.00000000E+00  0.00000000E+00
  0.00000000E+00  0.00000000E+00  0.00000000E+00
  0.00000000E+00  0.00000000E+00  0.00000000E+00
  0.00000000E+00  0.00000000E+00  0.00000000E+00
  0.00000000E+00  0.00000000E+00  0.00000000E+00
  0.00000000E+00  0.00000000E+00  0.00000000E+00
  0.00000000E+00  0.00000000E+00  0.00000000E+00
  0.00000000E+00  0.00000000E+00  0.00000000E+00
  0.00000000E+00  0.00000000E+00  0.00000000E+00
  0.00000000E+00  0.00000000E+00  0.00000000E+00
  0.00000000E+00  0.00000000E+00  0.00000000E+00
  0.00000000E+00  0.00000000E+00  0.00000000E+00
  0.00000000E+00  0.00000000E+00  0.00000000E+00
  0.00000000E+00  0.00000000E+00  0.00000000E+00
  0.00000000E+00  0.00000000E+00  0.00000000E+00
  0.00000000E+00  0.00000000E+00  0.00000000E+00
  0.00000000E+00  0.00000000E+00  0.00000000E+00
  0.00000000E+00  0.00000000E+00  0.00000000E+00
  0.00000000E+00  0.00000000E+00  0.00000000E+00
  0.00000000E+00  0.00000000E+00  0.00000000E+00
  0.00000000E+00  0.00000000E+00  0.00000000E+00
  0.00000000E+00  0.00000000E+00  0.00000000E+00
  0.00000000E+00  0.00000000E+00  0.00000000E+00
  0.00000000E+00  0.00000000E+00  0.00000000E+00
  0.00000000E+00  0.00000000E+00  0.00000000E+00
  0.00000000E+00  0.00000000E+00  0.00000000E+00
  0.00000000E+00  0.00000000E+00  0.00000000E+00
  0.00000000E+00  0.00000000E+00  0.00000000E+00
  0.00000000E+00  0.00000000E+00  0.00000000E+00
  0.00000000E+00  0.00000000E+00  0.00000000E+00
  0.00000000E+00  0.00000000E+00  0.00000000E+00
  0.00000000E+00  0.00000000E+00  0.00000000E+00
  0.00000000E+00  0.00000000E+00  0.00000000E+00
  0.00000000E+00  0.00000000E+00  0.00000000E+00
  0.00000000E+00  0.00000000E+00  0.00000000E+00
  0.00000000E+00  0.00000000E+00  0.00000000E+00
  0.00000000E+00  0.00000000E+00  0.00000000E+00
  0.00000000E+00  0.00000000E+00  0.00000000E+00
  0.00000000E+00  0.00000000E+00  0.00000000E+00
  0.00000000E+00  0.00000000E+00  0.00000000E+00
  0.00000000E+00  0.00000000E+00  0.00000000E+00
  0.00000000E+00  0.00000000E+00  0.00000000E+00
  0.00000000E+00  0.00000000E+00  0.00000000E+00
  0.00000000E+00  0.00000000E+00  0.00000000E+00
  0.00000000E+00  0.00000000E+00  0.00000000E+00
  0.00000000E+00  0.00000000E+00  0.00000000E+00
  0.00000000E+00  0.00000000E+00  0.00000000E+00
  0.00000000E+00  0.00000000E+00  0.00000000E+00
  0.00000000E+00  0.00000000E+00  0.00000000E+00
  0.00000000E+00  0.00000000E+00  0.00000000E+00
  0.00000000E+00  0.00000000E+00  0.00000000E+00
  0.00000000E+00  0.00000000E+00  0.00000000E+00
  0.00000000E+00  0.00000000E+00  0.00000000E+00
  0.00000000E+00  0.00000000E+00  0.00000000E+00
  0.00000000E+00  0.00000000E+00  0.00000000E+00
  0.00000000E+00  0.00000000E+00  0.00000000E+00
  0.00000000E+00  0.00000000E+00  0.00000000E+00
