supercell of icsd_191774.cif            
   1.00000000000000     
    10.2627854276941761    0.2961133155122403    0.2197705267747940
    -4.8785701417717480    8.5358501124257771   -0.0801434654168607
     0.2302549833614011    0.0385949248555513   10.5674607276037769
   N    In   B 
    36    26    10
Direct
  0.2543854129196390  0.1130348285938823  0.4338397295249123
  0.1260699241667069  0.2487953336280029  0.1719495223535503
  0.8577237275460945  0.1379688038887679  0.9565932514580169
  0.7875647141512516  0.2207658075291619  0.6490512320936190
  0.4700166368435958  0.0500900646238804  0.4697936373421143
  0.4584500186673282  0.2305819440902539  0.1919911593770323
  0.2160270472656407  0.1409054467087216  0.9930353769677680
  0.1240790407128927  0.1844472092399059  0.6974147725526549
  0.9045836588969536  0.1811692175524726  0.4411371442631662
  0.7889483257201562  0.2533886433562671  0.1563923921081098
  0.5295393762604732  0.0825276864880635  0.9114239407188407
  0.3695112307814696  0.1662143168404739  0.6486398520191159
  0.2408153249621208  0.4742972477438272  0.4638409010261100
  0.1304633809307418  0.5914709910064246  0.2124947633833187
  0.8875592429622898  0.4128530908672587  0.9471763615555346
  0.7773195577667238  0.5354749642283423  0.6522977005911841
  0.6032675287693934  0.4709216019504794  0.4731802757346912
  0.4596246023409947  0.5584455551617467  0.2084805699565209
  0.2169981768989899  0.4059379112708044  0.9638777379026919
  0.1273589939181861  0.5555341646794645  0.6496162930816922
  0.8073484931535475  0.3853907003111061  0.4580716829540492
  0.8037560637018686  0.6131220521241687  0.2050842739921279
  0.5763102474782471  0.4452151680355456  0.9185908203704756
  0.4429739750662876  0.5554305484412509  0.7043026646126833
  0.1983573160861098  0.7059996285871506  0.4264787264848806
  0.0507268527531650  0.8751837596949130  0.2046787544976070
  0.8829861023735006  0.7805741673742830  0.9178059170372990
  0.7724506204129611  0.8963871248684896  0.6856996853354431
  0.5540367688349406  0.8349383119347493  0.4500175109884452
  0.3753029224431188  0.8481540612086462  0.2178552306141839
  0.1979070096234778  0.7621025353625726  0.9248402486788052
  0.1191538878437584  0.9186712896646156  0.6674070098536546
  0.8877864518343230  0.8103065979882018  0.4024688347235710
  0.7937005961057153  0.8913722089784528  0.2071669661001820
  0.5474895077113899  0.7785807520633412  0.9627997543785796
  0.4444077939015258  0.8785325569160847  0.6540040535428560
  0.2222588443021891  0.1024333543385580  0.2287477937826665
  0.1262908181649749  0.2287685491860501  0.4979652520004336
  0.8943027492945888  0.1167402629383503  0.7623715964576974
  0.5389986994810059  0.0995982004218519  0.2753935944739609
  0.9001056875829434  0.1372628919937569  0.2335287441982317
  0.5514647321388892  0.1101707246024475  0.7177431766443902
  0.4504761745147903  0.2202150804899787  0.9907626464261128
  0.2360154313199345  0.4588275384092242  0.2632416034456426
  0.9009798906372950  0.4417702578302070  0.7375075565308222
  0.7848521839510028  0.5579597426172995  0.0060974838479950
  0.5831388454567872  0.4529575562668029  0.2740536513665575
  0.4751835874484769  0.5922483736457878  0.5066617592630536
  0.2223839179681590  0.4214471754349560  0.7572083873943924
  0.1087068109178659  0.5441735228804205  0.0133967490951363
  0.8973100201442819  0.4760319697693589  0.2738218277935260
  0.5442284804739330  0.4174247294833648  0.7174284136078199
  0.4519270927119052  0.5437908288092501  0.0042117071617582
  0.0986230325235127  0.8572892627730013  0.4503481982997215
  0.8869330703561502  0.7739990132790240  0.7179815986707254
  0.7769728606154160  0.9024749909254126  0.0058030725945528
  0.5594628375332960  0.7937337733980030  0.2499456951712915
  0.2249218659597290  0.7900583069929397  0.7259417897845921
  0.0897197512423631  0.8914507414591526  0.0042521828029010
  0.7865659134178671  0.9295423917231602  0.4868930134846750
  0.5555793656267056  0.7866968566940287  0.7621764622555460
  0.4082564841198888  0.8783055504618105  0.0112060930934774
  0.8329880164672048  0.2568477829390332  0.0151219506394469
  0.3720767890531036  0.1174740978731919  0.5130336666574991
  0.2016680297102411  0.0886019826387354  0.6830066454384678
  0.1761416202824861  0.2571456324122181  0.0347176866614021
  0.8326154202203995  0.2654398389042925  0.5123083871152048
  0.1802046724287791  0.5793691885393670  0.5106275814526882
  0.7338588054804234  0.4714702672963185  0.5212245221292449
  0.2376022538067275  0.7255960306880169  0.2840877604008298
  0.4813631065825348  0.9158576768642490  0.5187916873497400
  0.8908216062586192  0.8020395620185923  0.2566913143322722
 
  0.00000000E+00  0.00000000E+00  0.00000000E+00
  0.00000000E+00  0.00000000E+00  0.00000000E+00
  0.00000000E+00  0.00000000E+00  0.00000000E+00
  0.00000000E+00  0.00000000E+00  0.00000000E+00
  0.00000000E+00  0.00000000E+00  0.00000000E+00
  0.00000000E+00  0.00000000E+00  0.00000000E+00
  0.00000000E+00  0.00000000E+00  0.00000000E+00
  0.00000000E+00  0.00000000E+00  0.00000000E+00
  0.00000000E+00  0.00000000E+00  0.00000000E+00
  0.00000000E+00  0.00000000E+00  0.00000000E+00
  0.00000000E+00  0.00000000E+00  0.00000000E+00
  0.00000000E+00  0.00000000E+00  0.00000000E+00
  0.00000000E+00  0.00000000E+00  0.00000000E+00
  0.00000000E+00  0.00000000E+00  0.00000000E+00
  0.00000000E+00  0.00000000E+00  0.00000000E+00
  0.00000000E+00  0.00000000E+00  0.00000000E+00
  0.00000000E+00  0.00000000E+00  0.00000000E+00
  0.00000000E+00  0.00000000E+00  0.00000000E+00
  0.00000000E+00  0.00000000E+00  0.00000000E+00
  0.00000000E+00  0.00000000E+00  0.00000000E+00
  0.00000000E+00  0.00000000E+00  0.00000000E+00
  0.00000000E+00  0.00000000E+00  0.00000000E+00
  0.00000000E+00  0.00000000E+00  0.00000000E+00
  0.00000000E+00  0.00000000E+00  0.00000000E+00
  0.00000000E+00  0.00000000E+00  0.00000000E+00
  0.00000000E+00  0.00000000E+00  0.00000000E+00
  0.00000000E+00  0.00000000E+00  0.00000000E+00
  0.00000000E+00  0.00000000E+00  0.00000000E+00
  0.00000000E+00  0.00000000E+00  0.00000000E+00
  0.00000000E+00  0.00000000E+00  0.00000000E+00
  0.00000000E+00  0.00000000E+00  0.00000000E+00
  0.00000000E+00  0.00000000E+00  0.00000000E+00
  0.00000000E+00  0.00000000E+00  0.00000000E+00
  0.00000000E+00  0.00000000E+00  0.00000000E+00
  0.00000000E+00  0.00000000E+00  0.00000000E+00
  0.00000000E+00  0.00000000E+00  0.00000000E+00
  0.00000000E+00  0.00000000E+00  0.00000000E+00
  0.00000000E+00  0.00000000E+00  0.00000000E+00
  0.00000000E+00  0.00000000E+00  0.00000000E+00
  0.00000000E+00  0.00000000E+00  0.00000000E+00
  0.00000000E+00  0.00000000E+00  0.00000000E+00
  0.00000000E+00  0.00000000E+00  0.00000000E+00
  0.00000000E+00  0.00000000E+00  0.00000000E+00
  0.00000000E+00  0.00000000E+00  0.00000000E+00
  0.00000000E+00  0.00000000E+00  0.00000000E+00
  0.00000000E+00  0.00000000E+00  0.00000000E+00
  0.00000000E+00  0.00000000E+00  0.00000000E+00
  0.00000000E+00  0.00000000E+00  0.00000000E+00
  0.00000000E+00  0.00000000E+00  0.00000000E+00
  0.00000000E+00  0.00000000E+00  0.00000000E+00
  0.00000000E+00  0.00000000E+00  0.00000000E+00
  0.00000000E+00  0.00000000E+00  0.00000000E+00
  0.00000000E+00  0.00000000E+00  0.00000000E+00
  0.00000000E+00  0.00000000E+00  0.00000000E+00
  0.00000000E+00  0.00000000E+00  0.00000000E+00
  0.00000000E+00  0.00000000E+00  0.00000000E+00
  0.00000000E+00  0.00000000E+00  0.00000000E+00
  0.00000000E+00  0.00000000E+00  0.00000000E+00
  0.00000000E+00  0.00000000E+00  0.00000000E+00
  0.00000000E+00  0.00000000E+00  0.00000000E+00
  0.00000000E+00  0.00000000E+00  0.00000000E+00
  0.00000000E+00  0.00000000E+00  0.00000000E+00
  0.00000000E+00  0.00000000E+00  0.00000000E+00
  0.00000000E+00  0.00000000E+00  0.00000000E+00
  0.00000000E+00  0.00000000E+00  0.00000000E+00
  0.00000000E+00  0.00000000E+00  0.00000000E+00
  0.00000000E+00  0.00000000E+00  0.00000000E+00
  0.00000000E+00  0.00000000E+00  0.00000000E+00
  0.00000000E+00  0.00000000E+00  0.00000000E+00
  0.00000000E+00  0.00000000E+00  0.00000000E+00
  0.00000000E+00  0.00000000E+00  0.00000000E+00
  0.00000000E+00  0.00000000E+00  0.00000000E+00
