generated by phonopy                    
   1.00000000000000     
    11.7766717401999994    0.0000001554515406   -0.0000000066307821
     0.0000001547684238   11.7766718890999993   -0.0000001188749358
     0.0000000082086546   -0.0000001787909814   17.8473238844999997
   Bi   Cu   Se   O 
    36    37    36    36
Direct
  0.3331534466236832  0.1679633629113084  0.4312539658537631
  0.6664227838583088  0.1666851043799014  0.4297988079621220
  0.9999586067871036  0.1666524870082995  0.4298077430462044
  0.3331811337991439  0.4999346225709189  0.4312128469483767
  0.6651412850563503  0.4999653242000690  0.4312552902767024
  0.0012851636815938  0.4999628548408026  0.4312430233277951
  0.3331550456376888  0.8318205938638172  0.4312458872271350
  0.6664623558391298  0.8331562875655152  0.4298100695242582
  0.9999226600080817  0.8331862167506756  0.4298197061186571
  0.3331670971227041  0.1675112924355489  0.9280256214116562
  0.6636856093287591  0.1693973764367200  0.9253242171610196
  0.0026868690376602  0.1694222453576302  0.9252883591125638
  0.3331614568307870  0.4999201588496618  0.9286725464625647
  0.6655707656403251  0.4999147286881964  0.9280242834275825
  0.0007926817283845  0.4999133235533861  0.9280090375958068
  0.3331690603936011  0.8322902270152923  0.9280074620130705
  0.6636513949280314  0.8303877735255654  0.9252821261570077
  0.0027215689470026  0.8303606444949239  0.9252447189688411
  0.1671277540399245  0.9998722405582328  0.0687241897966757
  0.4991705920236953  0.9998754547489881  0.0687031052717870
  0.8332663859759393  0.9997884947741653  0.0568909665424684
  0.1669892364969314  0.3337422843936650  0.0706879654235735
  0.4993281208485101  0.3337587003709146  0.0706729532272021
  0.8332022704275275  0.3339176671849700  0.0686997341475006
  0.1669749929200250  0.6661128345545819  0.0707025896967295
  0.4993459664397477  0.6660994274485503  0.0706892779275918
  0.8332040917249799  0.6659610560881291  0.0687274931130020
  0.1663883577468823  0.9998978232726401  0.5718298172522367
  0.5000041389182925  0.9998979232288789  0.5718053306167121
  0.8331885087418982  0.9999256062742603  0.5714069336545862
  0.1661809240690744  0.3329086958333249  0.5727344023176784
  0.5002013383002364  0.3329057327630593  0.5727175607707977
  0.8332079966834840  0.3331048504226999  0.5718032871250784
  0.1661843001738816  0.6669217385442323  0.5727542644166661
  0.5001996266185245  0.6669269117495915  0.5727382302934032
  0.8332090978173596  0.6667194538259906  0.5718312300409778
  0.3331893353646436  0.9998725072283037  0.2496363384827163
  0.6374235547418508  0.9995951554984401  0.2493569256475681
  0.0271272313033890  0.9995716721265566  0.2498072580847079
  0.3331610895686836  0.3338139808675180  0.2501209933065596
  0.6640282435369969  0.3379576908624387  0.2512642827977061
  0.0024999482213985  0.3379418371707956  0.2512001300552740
  0.3331583193942507  0.6659848477499608  0.2501155412834564
  0.6643793180905107  0.6622428592079572  0.2512339055119170
  0.0021543280938801  0.6622532478564480  0.2511691648199772
  0.3331856079745137  0.9999217343942419  0.7498888302222113
  0.6667444578351294  0.9999218818321651  0.7506143488832961
  0.9995946013468711  0.9999217201003319  0.7506187103261155
  0.3331924028409148  0.3326263818410027  0.7494390811835956
  0.6666058174722593  0.3332137482150159  0.7496638014204677
  0.9997168866219468  0.3332176694418933  0.7496751009956242
  0.3331926511886465  0.6671725043689705  0.7494281731079369
  0.6665959565628938  0.6665804576496797  0.7496511056828510
  0.9997263366305802  0.6665775920740771  0.7496615523152599
  0.1708711643969352  0.1687435879026395  0.2512357446619262
  0.4951734230086515  0.1690095450314359  0.2512807277859608
  0.8334199457082931  0.1959260666792133  0.2492896353329215
  0.1671256046379952  0.4999658985940556  0.2501187262628264
  0.4992948762748100  0.4999614792535780  0.2501183110740115
  0.8332199137988781  0.4999062144187931  0.2496348069722458
  0.1708819137818764  0.8308892488742927  0.2511553363614709
  0.4951821150470082  0.8306283129081251  0.2511982026530148
  0.8334364623505124  0.8062069582441751  0.2498645447851189
  0.1665112560712387  0.1664787134799681  0.7496502190858578
  0.4998766539568109  0.1664744164510097  0.7496631680794295
  0.8331685317563213  0.1663347201770193  0.7506146812234320
  0.1659182424133121  0.4998822778565142  0.7494289143757271
  0.5004645652332371  0.4998834501292464  0.7494382326545193
  0.8331702333777997  0.4998922415417937  0.7498890990690441
  0.1665128174386084  0.8333542610615439  0.7496625649839785
  0.4998735294036436  0.8333569505310692  0.7496754730564845
  0.8331698067056408  0.8334845202306553  0.7506183067763317
  0.8322156440978858  0.0011553069315582  0.2077825798925659
  0.1672437625631389  0.3339053429919332  0.3379171699965156
  0.4991627641511229  0.3339400929219494  0.3379435445969037
  0.8332437805105570  0.3391955780436717  0.3416975861649050
  0.1672076124388227  0.6658962557078780  0.3378952030656848
  0.4991986207211170  0.6658608097536316  0.3379168744902046
  0.8332481646052159  0.6609149322694137  0.3414388865598852
  0.1722207301086485  0.9998461754685550  0.3414662335067433
  0.4939380410575538  0.9998496252556279  0.3416719161393900
  0.8333234384663299  0.9997468543525230  0.3411675872538211
  0.1668990112280682  0.3336113818180095  0.8371793325410835
  0.4994719054976429  0.3336097737551071  0.8371897892755484
  0.8331645262913838  0.3339762266382564  0.8373130778065132
  0.1669038524007505  0.6661774916419247  0.8371671987147877
  0.4994674347145818  0.6661792303244880  0.8371785949192088
  0.8331650933047925  0.6658181283568041  0.8372956981494966
  0.1672644626372559  0.9999199377742016  0.8372973474180938
  0.4991062138612889  0.9999199936577199  0.8373112862067131
  0.8331754632944310  0.9999069082086649  0.8379431202470329
  0.9991645718348892  0.1657284943387438  0.1656527318009182
  0.3331616168870681  0.1659573168581687  0.1619801493390511
  0.6673276923852427  0.1657398556097220  0.1657983089498885
  0.9992592875019923  0.4999332081284322  0.1619401167668642
  0.3332091915339390  0.4998872763600559  0.1623116897764803
  0.6671393357474429  0.4999359821929517  0.1619709936131812
  0.9991875224221971  0.8338823943792306  0.1654601889892362
  0.3331672094065965  0.8338388431477171  0.1619327111188156
  0.6673296466976524  0.8338948636254244  0.1656161260708586
  0.9994755413748280  0.1662126193621560  0.6634785283455997
  0.3332046775065578  0.1662936019429821  0.6631912990192603
  0.6668902991612171  0.1662068284396625  0.6634647881901756
  0.9995659872123639  0.4998894700255079  0.6632035391902420
  0.3331976859701840  0.4998971336886697  0.6639164571280531
  0.6668035355138571  0.4998899048631742  0.6631923112155533
  0.9994826647416062  0.8336134843316003  0.6634918309631885
  0.3332038330181817  0.8335302728835927  0.6632048233316823
  0.6668831160100908  0.8336199274196403  0.6634797327787112
  0.1668065961096730  0.1672584832281245  0.9993938894972842
  0.4995513127589248  0.1672371380034150  0.9994038112619279
  0.8331958281793774  0.1694023543060794  0.9958052343875252
  0.1668721116246843  0.4998782826061046  0.9998619495382499
  0.4994857259422716  0.4998798395342448  0.9998867653078349
  0.8331859640222561  0.4999182255395027  0.9992508811701057
  0.1668353752714040  0.8325569231176217  0.9993763294531135
  0.4995250632171775  0.8325803391578077  0.9993875754294450
  0.8331963155383093  0.8303092007536677  0.9957150279409746
  0.1664216818852253  0.1668653839274015  0.5014797049796584
  0.4999632775905738  0.1668753936076186  0.5014501696620357
  0.8331937815584212  0.1666780191524069  0.5004896539796064
  0.1670825425261953  0.4999170729413294  0.5020107001201097
  0.4993234728032832  0.4999184659789222  0.5019908832339013
  0.8331960800741669  0.4999262465921603  0.5012017598142293
  0.1664339376594839  0.8329455804402244  0.5015028961891375
  0.4999527880314929  0.8329361565600379  0.5014728947714531
  0.8331938797767933  0.8331253235621006  0.5005259448542319
  0.3331686606360833  0.9999008674995267  0.9992510672251669
  0.6636709226066557  0.9998818495400030  0.9957952779520767
  0.0027632588772235  0.9998804301326771  0.9957247240956804
  0.3331979852482974  0.3335980066473212  0.9998920351082106
  0.6658505731246649  0.3335366447030950  0.9994041641123843
  0.0005034626792835  0.3335546110845868  0.9993904379851415
  0.3332007109609947  0.6662111768207097  0.9998564830042227
  0.6658241525697122  0.6662724805402149  0.9993903662833361
  0.0005313061860619  0.6662529772951444  0.9993762876885768
  0.3331793237126988  0.9999104411018607  0.5012019968694119
  0.6664274478093759  0.9999163783462421  0.5004938220042519
  0.9999798727204734  0.9999166547318907  0.5005212892647180
  0.3331881342909924  0.3337808696023217  0.5019882079107774
  0.6662299002628345  0.3331429122151164  0.5014507932836452
  0.0001697271623371  0.3331532073623222  0.5014662062509956
  0.3331883523392989  0.6660218300649277  0.5020136616771822
  0.6662412331957697  0.6666836860678416  0.5014864750084485
  0.0001597338282338  0.6666711279721724  0.5015022175462036
 
  0.00000000E+00  0.00000000E+00  0.00000000E+00
  0.00000000E+00  0.00000000E+00  0.00000000E+00
  0.00000000E+00  0.00000000E+00  0.00000000E+00
  0.00000000E+00  0.00000000E+00  0.00000000E+00
  0.00000000E+00  0.00000000E+00  0.00000000E+00
  0.00000000E+00  0.00000000E+00  0.00000000E+00
  0.00000000E+00  0.00000000E+00  0.00000000E+00
  0.00000000E+00  0.00000000E+00  0.00000000E+00
  0.00000000E+00  0.00000000E+00  0.00000000E+00
  0.00000000E+00  0.00000000E+00  0.00000000E+00
  0.00000000E+00  0.00000000E+00  0.00000000E+00
  0.00000000E+00  0.00000000E+00  0.00000000E+00
  0.00000000E+00  0.00000000E+00  0.00000000E+00
  0.00000000E+00  0.00000000E+00  0.00000000E+00
  0.00000000E+00  0.00000000E+00  0.00000000E+00
  0.00000000E+00  0.00000000E+00  0.00000000E+00
  0.00000000E+00  0.00000000E+00  0.00000000E+00
  0.00000000E+00  0.00000000E+00  0.00000000E+00
  0.00000000E+00  0.00000000E+00  0.00000000E+00
  0.00000000E+00  0.00000000E+00  0.00000000E+00
  0.00000000E+00  0.00000000E+00  0.00000000E+00
  0.00000000E+00  0.00000000E+00  0.00000000E+00
  0.00000000E+00  0.00000000E+00  0.00000000E+00
  0.00000000E+00  0.00000000E+00  0.00000000E+00
  0.00000000E+00  0.00000000E+00  0.00000000E+00
  0.00000000E+00  0.00000000E+00  0.00000000E+00
  0.00000000E+00  0.00000000E+00  0.00000000E+00
  0.00000000E+00  0.00000000E+00  0.00000000E+00
  0.00000000E+00  0.00000000E+00  0.00000000E+00
  0.00000000E+00  0.00000000E+00  0.00000000E+00
  0.00000000E+00  0.00000000E+00  0.00000000E+00
  0.00000000E+00  0.00000000E+00  0.00000000E+00
  0.00000000E+00  0.00000000E+00  0.00000000E+00
  0.00000000E+00  0.00000000E+00  0.00000000E+00
  0.00000000E+00  0.00000000E+00  0.00000000E+00
  0.00000000E+00  0.00000000E+00  0.00000000E+00
  0.00000000E+00  0.00000000E+00  0.00000000E+00
  0.00000000E+00  0.00000000E+00  0.00000000E+00
  0.00000000E+00  0.00000000E+00  0.00000000E+00
  0.00000000E+00  0.00000000E+00  0.00000000E+00
  0.00000000E+00  0.00000000E+00  0.00000000E+00
  0.00000000E+00  0.00000000E+00  0.00000000E+00
  0.00000000E+00  0.00000000E+00  0.00000000E+00
  0.00000000E+00  0.00000000E+00  0.00000000E+00
  0.00000000E+00  0.00000000E+00  0.00000000E+00
  0.00000000E+00  0.00000000E+00  0.00000000E+00
  0.00000000E+00  0.00000000E+00  0.00000000E+00
  0.00000000E+00  0.00000000E+00  0.00000000E+00
  0.00000000E+00  0.00000000E+00  0.00000000E+00
  0.00000000E+00  0.00000000E+00  0.00000000E+00
  0.00000000E+00  0.00000000E+00  0.00000000E+00
  0.00000000E+00  0.00000000E+00  0.00000000E+00
  0.00000000E+00  0.00000000E+00  0.00000000E+00
  0.00000000E+00  0.00000000E+00  0.00000000E+00
  0.00000000E+00  0.00000000E+00  0.00000000E+00
  0.00000000E+00  0.00000000E+00  0.00000000E+00
  0.00000000E+00  0.00000000E+00  0.00000000E+00
  0.00000000E+00  0.00000000E+00  0.00000000E+00
  0.00000000E+00  0.00000000E+00  0.00000000E+00
  0.00000000E+00  0.00000000E+00  0.00000000E+00
  0.00000000E+00  0.00000000E+00  0.00000000E+00
  0.00000000E+00  0.00000000E+00  0.00000000E+00
  0.00000000E+00  0.00000000E+00  0.00000000E+00
  0.00000000E+00  0.00000000E+00  0.00000000E+00
  0.00000000E+00  0.00000000E+00  0.00000000E+00
  0.00000000E+00  0.00000000E+00  0.00000000E+00
  0.00000000E+00  0.00000000E+00  0.00000000E+00
  0.00000000E+00  0.00000000E+00  0.00000000E+00
  0.00000000E+00  0.00000000E+00  0.00000000E+00
  0.00000000E+00  0.00000000E+00  0.00000000E+00
  0.00000000E+00  0.00000000E+00  0.00000000E+00
  0.00000000E+00  0.00000000E+00  0.00000000E+00
  0.00000000E+00  0.00000000E+00  0.00000000E+00
  0.00000000E+00  0.00000000E+00  0.00000000E+00
  0.00000000E+00  0.00000000E+00  0.00000000E+00
  0.00000000E+00  0.00000000E+00  0.00000000E+00
  0.00000000E+00  0.00000000E+00  0.00000000E+00
  0.00000000E+00  0.00000000E+00  0.00000000E+00
  0.00000000E+00  0.00000000E+00  0.00000000E+00
  0.00000000E+00  0.00000000E+00  0.00000000E+00
  0.00000000E+00  0.00000000E+00  0.00000000E+00
  0.00000000E+00  0.00000000E+00  0.00000000E+00
  0.00000000E+00  0.00000000E+00  0.00000000E+00
  0.00000000E+00  0.00000000E+00  0.00000000E+00
  0.00000000E+00  0.00000000E+00  0.00000000E+00
  0.00000000E+00  0.00000000E+00  0.00000000E+00
  0.00000000E+00  0.00000000E+00  0.00000000E+00
  0.00000000E+00  0.00000000E+00  0.00000000E+00
  0.00000000E+00  0.00000000E+00  0.00000000E+00
  0.00000000E+00  0.00000000E+00  0.00000000E+00
  0.00000000E+00  0.00000000E+00  0.00000000E+00
  0.00000000E+00  0.00000000E+00  0.00000000E+00
  0.00000000E+00  0.00000000E+00  0.00000000E+00
  0.00000000E+00  0.00000000E+00  0.00000000E+00
  0.00000000E+00  0.00000000E+00  0.00000000E+00
  0.00000000E+00  0.00000000E+00  0.00000000E+00
  0.00000000E+00  0.00000000E+00  0.00000000E+00
  0.00000000E+00  0.00000000E+00  0.00000000E+00
  0.00000000E+00  0.00000000E+00  0.00000000E+00
  0.00000000E+00  0.00000000E+00  0.00000000E+00
  0.00000000E+00  0.00000000E+00  0.00000000E+00
  0.00000000E+00  0.00000000E+00  0.00000000E+00
  0.00000000E+00  0.00000000E+00  0.00000000E+00
  0.00000000E+00  0.00000000E+00  0.00000000E+00
  0.00000000E+00  0.00000000E+00  0.00000000E+00
  0.00000000E+00  0.00000000E+00  0.00000000E+00
  0.00000000E+00  0.00000000E+00  0.00000000E+00
  0.00000000E+00  0.00000000E+00  0.00000000E+00
  0.00000000E+00  0.00000000E+00  0.00000000E+00
  0.00000000E+00  0.00000000E+00  0.00000000E+00
  0.00000000E+00  0.00000000E+00  0.00000000E+00
  0.00000000E+00  0.00000000E+00  0.00000000E+00
  0.00000000E+00  0.00000000E+00  0.00000000E+00
  0.00000000E+00  0.00000000E+00  0.00000000E+00
  0.00000000E+00  0.00000000E+00  0.00000000E+00
  0.00000000E+00  0.00000000E+00  0.00000000E+00
  0.00000000E+00  0.00000000E+00  0.00000000E+00
  0.00000000E+00  0.00000000E+00  0.00000000E+00
  0.00000000E+00  0.00000000E+00  0.00000000E+00
  0.00000000E+00  0.00000000E+00  0.00000000E+00
  0.00000000E+00  0.00000000E+00  0.00000000E+00
  0.00000000E+00  0.00000000E+00  0.00000000E+00
  0.00000000E+00  0.00000000E+00  0.00000000E+00
  0.00000000E+00  0.00000000E+00  0.00000000E+00
  0.00000000E+00  0.00000000E+00  0.00000000E+00
  0.00000000E+00  0.00000000E+00  0.00000000E+00
  0.00000000E+00  0.00000000E+00  0.00000000E+00
  0.00000000E+00  0.00000000E+00  0.00000000E+00
  0.00000000E+00  0.00000000E+00  0.00000000E+00
  0.00000000E+00  0.00000000E+00  0.00000000E+00
  0.00000000E+00  0.00000000E+00  0.00000000E+00
  0.00000000E+00  0.00000000E+00  0.00000000E+00
  0.00000000E+00  0.00000000E+00  0.00000000E+00
  0.00000000E+00  0.00000000E+00  0.00000000E+00
  0.00000000E+00  0.00000000E+00  0.00000000E+00
  0.00000000E+00  0.00000000E+00  0.00000000E+00
  0.00000000E+00  0.00000000E+00  0.00000000E+00
  0.00000000E+00  0.00000000E+00  0.00000000E+00
  0.00000000E+00  0.00000000E+00  0.00000000E+00
  0.00000000E+00  0.00000000E+00  0.00000000E+00
  0.00000000E+00  0.00000000E+00  0.00000000E+00
  0.00000000E+00  0.00000000E+00  0.00000000E+00
  0.00000000E+00  0.00000000E+00  0.00000000E+00
  0.00000000E+00  0.00000000E+00  0.00000000E+00
  0.00000000E+00  0.00000000E+00  0.00000000E+00
