Al   B    N                             
   1.00000000000000     
    -9.2506159936585544   -0.0019420861819843    0.0075512718290198
    -4.6283896163706570    8.0108920806525798    0.0063690598004308
    -0.0434940554596510    0.0135625095882303   -9.9368894184061922
   Al   B    N 
    33     3    36
Direct
  0.1002075182368358  0.0948912017241099  0.4044884521016670
  0.2246644423494146  0.2001778692614309  0.1496873716013951
  0.7792569111589316  0.0957696709960274  0.8858982906550494
  0.4509970799175420  0.0901307511823362  0.3921974507797970
  0.5627420409973709  0.1980757804046220  0.1459566878854517
  0.1087822039166468  0.0963194178935609  0.8933617376921532
  0.2197710041239276  0.2056948143573152  0.6481190965670507
  0.8867198198608719  0.2033512445262105  0.1464794626809791
  0.4471911948215137  0.0901462096957388  0.9025056684174757
  0.5631510287860237  0.2050856549147682  0.6458558445161344
  0.1104437276204493  0.4271422123760544  0.4002080552846436
  0.2220931082412889  0.5387196146389286  0.1501665244423336
  0.7796629692013752  0.4254305560122447  0.8932783650480616
  0.8891349635690986  0.5363303992309127  0.6482909046512759
  0.4506698815332157  0.4235220343244563  0.3983934703576537
  0.5588409872470734  0.5420383253053558  0.1490973106555344
  0.1114304938583999  0.4280254015820191  0.8987929692146182
  0.2227542956947985  0.5393139323285894  0.6484655788836378
  0.7781998461150721  0.4169791191109056  0.4044605389940727
  0.8836227077256495  0.5412007163680101  0.1496747249771104
  0.4445288493724036  0.4276381113007588  0.8992610281595290
  0.5590932090275800  0.5352069679692022  0.6489313915487642
  0.1068186700296607  0.7673563852273801  0.3985379558006272
  0.2253737734546490  0.8754533347886806  0.1491613859006051
  0.7734925496813645  0.7639229296678138  0.9027439145426470
  0.8885733021154891  0.8795601739857943  0.6459380489982038
  0.4457701810958454  0.7625621191031016  0.3935189163854673
  0.1107913292303166  0.7612477310551284  0.8995576951790127
  0.2185936218246951  0.8756301353514360  0.6490921884590577
  0.7733431849617531  0.7676286232110598  0.3923726998013066
  0.8813048759566726  0.8794464167199934  0.1466013174585541
  0.4473149997818879  0.7639716170403048  0.9025893252565851
  0.5565342421802910  0.8731020222581520  0.6473969302490232
  0.8875035969626452  0.2038625113114065  0.6520849513820011
  0.7789792023283368  0.0958997077535102  0.3758012547557072
  0.5557608786469288  0.8722571924589246  0.1529710242035449
  0.2201545212570508  0.2033833109203940  0.3413675708946258
  0.1083370950562426  0.0962774359855274  0.0861043954270713
  0.8903706120327186  0.2069244330113094  0.8186723830558265
  0.7921582361670829  0.1085303768055113  0.6008785005494701
  0.5848531016715413  0.1911345316319810  0.3418673902707283
  0.4572048737743373  0.0704516517925953  0.0982303245179352
  0.2251111489729496  0.2047387375121872  0.8402175463775947
  0.0871781652953274  0.1068172954988214  0.5968867457871596
  0.8743670565609918  0.1910961320547031  0.3392767116907933
  0.7792808858900315  0.0955759139197099  0.0772575230669617
  0.5525311098746215  0.2060904318015346  0.8391636292230586
  0.4464782512961634  0.0942274573020967  0.5837707785922817
  0.2223231599665851  0.5389932367070784  0.3405698851335188
  0.1108868338917546  0.4273312218536063  0.0905913505534244
  0.8881453410107838  0.5417727535453380  0.8403930406346234
  0.7903944380911554  0.4036808244784353  0.5968534391668356
  0.5581880184975745  0.5378933124631118  0.3398059835274552
  0.4458823233137181  0.4268635744011675  0.0918422535556260
  0.2227307345770129  0.5394656432676186  0.8398440334461839
  0.1115944243494340  0.4281084671119473  0.5901244312494001
  0.8867454233071186  0.5368193098883083  0.3413462770117874
  0.7797580451473536  0.4248333678322780  0.0860247599343538
  0.5544379167220228  0.5412614729091771  0.8408575486468735
  0.4450078146304222  0.4278802061590525  0.5881103292080496
  0.2211633828860613  0.8748471577673342  0.3398494790522477
  0.1100628723376929  0.7625013216534597  0.0921516085622045
  0.8894798818929956  0.8690747015201907  0.8391399789619669
  0.7777751347244148  0.7628513336872231  0.5838776198524442
  0.5553665188695760  0.8720630423069196  0.3173329922203934
  0.4573169920604130  0.7738527501483006  0.0969321528717231
  0.2245630673860290  0.8710114100464210  0.8410460466319805
  0.1114457022707214  0.7614381089161242  0.5881888440274423
  0.8742948901975183  0.9016347535675351  0.3422841318640195
  0.7539101491044136  0.7737764516000638  0.0984566582523669
  0.5561769355023714  0.8726972144391922  0.8361315450176505
  0.4455636261809914  0.7621543170859724  0.5858215135086056
 
  0.00000000E+00  0.00000000E+00  0.00000000E+00
  0.00000000E+00  0.00000000E+00  0.00000000E+00
  0.00000000E+00  0.00000000E+00  0.00000000E+00
  0.00000000E+00  0.00000000E+00  0.00000000E+00
  0.00000000E+00  0.00000000E+00  0.00000000E+00
  0.00000000E+00  0.00000000E+00  0.00000000E+00
  0.00000000E+00  0.00000000E+00  0.00000000E+00
  0.00000000E+00  0.00000000E+00  0.00000000E+00
  0.00000000E+00  0.00000000E+00  0.00000000E+00
  0.00000000E+00  0.00000000E+00  0.00000000E+00
  0.00000000E+00  0.00000000E+00  0.00000000E+00
  0.00000000E+00  0.00000000E+00  0.00000000E+00
  0.00000000E+00  0.00000000E+00  0.00000000E+00
  0.00000000E+00  0.00000000E+00  0.00000000E+00
  0.00000000E+00  0.00000000E+00  0.00000000E+00
  0.00000000E+00  0.00000000E+00  0.00000000E+00
  0.00000000E+00  0.00000000E+00  0.00000000E+00
  0.00000000E+00  0.00000000E+00  0.00000000E+00
  0.00000000E+00  0.00000000E+00  0.00000000E+00
  0.00000000E+00  0.00000000E+00  0.00000000E+00
  0.00000000E+00  0.00000000E+00  0.00000000E+00
  0.00000000E+00  0.00000000E+00  0.00000000E+00
  0.00000000E+00  0.00000000E+00  0.00000000E+00
  0.00000000E+00  0.00000000E+00  0.00000000E+00
  0.00000000E+00  0.00000000E+00  0.00000000E+00
  0.00000000E+00  0.00000000E+00  0.00000000E+00
  0.00000000E+00  0.00000000E+00  0.00000000E+00
  0.00000000E+00  0.00000000E+00  0.00000000E+00
  0.00000000E+00  0.00000000E+00  0.00000000E+00
  0.00000000E+00  0.00000000E+00  0.00000000E+00
  0.00000000E+00  0.00000000E+00  0.00000000E+00
  0.00000000E+00  0.00000000E+00  0.00000000E+00
  0.00000000E+00  0.00000000E+00  0.00000000E+00
  0.00000000E+00  0.00000000E+00  0.00000000E+00
  0.00000000E+00  0.00000000E+00  0.00000000E+00
  0.00000000E+00  0.00000000E+00  0.00000000E+00
  0.00000000E+00  0.00000000E+00  0.00000000E+00
  0.00000000E+00  0.00000000E+00  0.00000000E+00
  0.00000000E+00  0.00000000E+00  0.00000000E+00
  0.00000000E+00  0.00000000E+00  0.00000000E+00
  0.00000000E+00  0.00000000E+00  0.00000000E+00
  0.00000000E+00  0.00000000E+00  0.00000000E+00
  0.00000000E+00  0.00000000E+00  0.00000000E+00
  0.00000000E+00  0.00000000E+00  0.00000000E+00
  0.00000000E+00  0.00000000E+00  0.00000000E+00
  0.00000000E+00  0.00000000E+00  0.00000000E+00
  0.00000000E+00  0.00000000E+00  0.00000000E+00
  0.00000000E+00  0.00000000E+00  0.00000000E+00
  0.00000000E+00  0.00000000E+00  0.00000000E+00
  0.00000000E+00  0.00000000E+00  0.00000000E+00
  0.00000000E+00  0.00000000E+00  0.00000000E+00
  0.00000000E+00  0.00000000E+00  0.00000000E+00
  0.00000000E+00  0.00000000E+00  0.00000000E+00
  0.00000000E+00  0.00000000E+00  0.00000000E+00
  0.00000000E+00  0.00000000E+00  0.00000000E+00
  0.00000000E+00  0.00000000E+00  0.00000000E+00
  0.00000000E+00  0.00000000E+00  0.00000000E+00
  0.00000000E+00  0.00000000E+00  0.00000000E+00
  0.00000000E+00  0.00000000E+00  0.00000000E+00
  0.00000000E+00  0.00000000E+00  0.00000000E+00
  0.00000000E+00  0.00000000E+00  0.00000000E+00
  0.00000000E+00  0.00000000E+00  0.00000000E+00
  0.00000000E+00  0.00000000E+00  0.00000000E+00
  0.00000000E+00  0.00000000E+00  0.00000000E+00
  0.00000000E+00  0.00000000E+00  0.00000000E+00
  0.00000000E+00  0.00000000E+00  0.00000000E+00
  0.00000000E+00  0.00000000E+00  0.00000000E+00
  0.00000000E+00  0.00000000E+00  0.00000000E+00
  0.00000000E+00  0.00000000E+00  0.00000000E+00
  0.00000000E+00  0.00000000E+00  0.00000000E+00
  0.00000000E+00  0.00000000E+00  0.00000000E+00
  0.00000000E+00  0.00000000E+00  0.00000000E+00
