Al   B    N                             
   1.00000000000000     
    -9.2616567682653468    0.0007964453238419    0.0039973411904464
    -4.6264086305499550    8.0299103096256506    0.0061740986440178
    -0.0759145833538257   -0.0067508820063418  -10.0737398132896168
   Al   B    N 
    33     3    36
Direct
  0.0916409709675747  0.1064283102816646  0.3963453728457296
  0.2210928646470336  0.1963751029089735  0.1348705472577194
  0.7790935591691692  0.0916982519212510  0.8157012954052618
  0.4562457884317865  0.0851898605021901  0.3175361791638878
  0.5564888775579675  0.1983800428387426  0.0722571152574289
  0.1093240662743824  0.0996894412479605  0.8871604298405273
  0.2188780078614414  0.2019605974443834  0.6389032580499219
  0.8894269936515897  0.1974953941484472  0.1438105568334436
  0.4546537431295974  0.0884546322105493  0.8273052196852078
  0.5687639816320527  0.2038989345204740  0.5632817296230925
  0.1071713184061878  0.4349243146078337  0.3188215780268919
  0.2221859264862260  0.5386276319965191  0.0682213667357701
  0.7778835513099907  0.4318330299309636  0.8147084833176024
  0.8903787749747991  0.5362061991547193  0.5686132052617765
  0.4486942402603091  0.4247740974919836  0.3178690667895694
  0.5580741398761262  0.5404353502180967  0.0680919248120162
  0.1087823918610340  0.4352551284975590  0.8204212834294253
  0.2235128314599706  0.5384725824793506  0.5674812208181734
  0.7714771879339111  0.4304241290715112  0.3232993427045869
  0.8818148392379257  0.5416122150523819  0.0679787816834718
  0.4472051901893579  0.4258040360245303  0.8182699845491257
  0.5604544615388676  0.5346622415352229  0.5691184427029299
  0.1067545451575569  0.7698088743496214  0.3190779610068901
  0.2292203533413684  0.8655528885302601  0.0678261396093731
  0.7766462524591233  0.7638451030998468  0.8242520394252182
  0.8877912344248244  0.8833308407869538  0.5641276410773344
  0.4429701745942083  0.7670243147485039  0.3163819088259885
  0.1111221460312777  0.7622193676478730  0.8180433683473041
  0.2231997058415303  0.8698659341580495  0.5746966528092941
  0.7710342196107334  0.7688162562858452  0.3140928274333490
  0.8821807214469146  0.8726977668634248  0.0724886461281145
  0.4482662837051166  0.7614317519793445  0.8248259359726973
  0.5588946297661224  0.8718746588530877  0.5697978286661396
  0.8955594177664352  0.2026857678862015  0.6510686418238265
  0.7738324546743769  0.0914467513659147  0.3124222330891868
  0.5558153487931818  0.8715831117217547  0.0675976864302328
  0.2191605657986386  0.2016965694491830  0.3322413079732414
  0.1022707556584805  0.0987348617198549  0.0758541596483653
  0.9000622584436329  0.2014936550237252  0.8150129694287429
  0.7900443777163986  0.1054060117370028  0.6273847496195444
  0.5792599509412852  0.1928881058899208  0.3702675815422367
  0.4586719248979705  0.0653126980579302  0.1219854447576054
  0.2239773350701952  0.2037470668987709  0.8338645932245896
  0.0826240093633288  0.1112980052524861  0.5883341611746218
  0.8749747004019923  0.1925988920196673  0.3329212022756209
  0.7695542940567250  0.0859198493657800  0.1471522657414752
  0.5610975145136905  0.2046638477799050  0.8836285680889873
  0.4564876422201394  0.0913566008029463  0.6306965077162019
  0.2219196731250221  0.5410864256774417  0.3784618951922596
  0.1057703725146411  0.4336740722521739  0.1267865125501260
  0.8878093117331645  0.5401545036829987  0.8795834906967954
  0.7878218332090938  0.4102013666397895  0.6240230438855079
  0.5504970554041151  0.5439559980921018  0.3797713979825588
  0.4445939497460287  0.4265303214711480  0.1288022471548587
  0.2242347205193980  0.5397118555895801  0.8793818134078890
  0.1091308634060582  0.4336943229349544  0.6283737956835438
  0.8853269129727366  0.5433998607050725  0.3787435214550072
  0.7752882214074361  0.4294911349459625  0.1305453526781406
  0.5587546715221166  0.5364965909274275  0.8791865032000601
  0.4464180108166005  0.4256322256016318  0.6276685091691121
  0.2234663391876666  0.8719517223710156  0.3824788560170305
  0.1099887482346489  0.7618567260167097  0.1302372664645830
  0.8893923151602294  0.8743664460185627  0.8831968482622230
  0.7799637419849290  0.7634519490305891  0.6319343040202909
  0.5556903989903716  0.8708178016260817  0.3836861297917906
  0.4556451919488609  0.7727990676345513  0.1233662505643167
  0.2267156017073901  0.8655784610729569  0.8776175731378331
  0.1091818243230449  0.7616099880094183  0.6286240243442762
  0.8740196740898014  0.8970964483065060  0.3704647798291703
  0.7518955969006669  0.7712723476144276  0.1223652392990857
  0.5573802133438619  0.8707478783711053  0.9015967806962308
  0.4483957481920413  0.7609750356386797  0.6345167938305067
 
  0.00000000E+00  0.00000000E+00  0.00000000E+00
  0.00000000E+00  0.00000000E+00  0.00000000E+00
  0.00000000E+00  0.00000000E+00  0.00000000E+00
  0.00000000E+00  0.00000000E+00  0.00000000E+00
  0.00000000E+00  0.00000000E+00  0.00000000E+00
  0.00000000E+00  0.00000000E+00  0.00000000E+00
  0.00000000E+00  0.00000000E+00  0.00000000E+00
  0.00000000E+00  0.00000000E+00  0.00000000E+00
  0.00000000E+00  0.00000000E+00  0.00000000E+00
  0.00000000E+00  0.00000000E+00  0.00000000E+00
  0.00000000E+00  0.00000000E+00  0.00000000E+00
  0.00000000E+00  0.00000000E+00  0.00000000E+00
  0.00000000E+00  0.00000000E+00  0.00000000E+00
  0.00000000E+00  0.00000000E+00  0.00000000E+00
  0.00000000E+00  0.00000000E+00  0.00000000E+00
  0.00000000E+00  0.00000000E+00  0.00000000E+00
  0.00000000E+00  0.00000000E+00  0.00000000E+00
  0.00000000E+00  0.00000000E+00  0.00000000E+00
  0.00000000E+00  0.00000000E+00  0.00000000E+00
  0.00000000E+00  0.00000000E+00  0.00000000E+00
  0.00000000E+00  0.00000000E+00  0.00000000E+00
  0.00000000E+00  0.00000000E+00  0.00000000E+00
  0.00000000E+00  0.00000000E+00  0.00000000E+00
  0.00000000E+00  0.00000000E+00  0.00000000E+00
  0.00000000E+00  0.00000000E+00  0.00000000E+00
  0.00000000E+00  0.00000000E+00  0.00000000E+00
  0.00000000E+00  0.00000000E+00  0.00000000E+00
  0.00000000E+00  0.00000000E+00  0.00000000E+00
  0.00000000E+00  0.00000000E+00  0.00000000E+00
  0.00000000E+00  0.00000000E+00  0.00000000E+00
  0.00000000E+00  0.00000000E+00  0.00000000E+00
  0.00000000E+00  0.00000000E+00  0.00000000E+00
  0.00000000E+00  0.00000000E+00  0.00000000E+00
  0.00000000E+00  0.00000000E+00  0.00000000E+00
  0.00000000E+00  0.00000000E+00  0.00000000E+00
  0.00000000E+00  0.00000000E+00  0.00000000E+00
  0.00000000E+00  0.00000000E+00  0.00000000E+00
  0.00000000E+00  0.00000000E+00  0.00000000E+00
  0.00000000E+00  0.00000000E+00  0.00000000E+00
  0.00000000E+00  0.00000000E+00  0.00000000E+00
  0.00000000E+00  0.00000000E+00  0.00000000E+00
  0.00000000E+00  0.00000000E+00  0.00000000E+00
  0.00000000E+00  0.00000000E+00  0.00000000E+00
  0.00000000E+00  0.00000000E+00  0.00000000E+00
  0.00000000E+00  0.00000000E+00  0.00000000E+00
  0.00000000E+00  0.00000000E+00  0.00000000E+00
  0.00000000E+00  0.00000000E+00  0.00000000E+00
  0.00000000E+00  0.00000000E+00  0.00000000E+00
  0.00000000E+00  0.00000000E+00  0.00000000E+00
  0.00000000E+00  0.00000000E+00  0.00000000E+00
  0.00000000E+00  0.00000000E+00  0.00000000E+00
  0.00000000E+00  0.00000000E+00  0.00000000E+00
  0.00000000E+00  0.00000000E+00  0.00000000E+00
  0.00000000E+00  0.00000000E+00  0.00000000E+00
  0.00000000E+00  0.00000000E+00  0.00000000E+00
  0.00000000E+00  0.00000000E+00  0.00000000E+00
  0.00000000E+00  0.00000000E+00  0.00000000E+00
  0.00000000E+00  0.00000000E+00  0.00000000E+00
  0.00000000E+00  0.00000000E+00  0.00000000E+00
  0.00000000E+00  0.00000000E+00  0.00000000E+00
  0.00000000E+00  0.00000000E+00  0.00000000E+00
  0.00000000E+00  0.00000000E+00  0.00000000E+00
  0.00000000E+00  0.00000000E+00  0.00000000E+00
  0.00000000E+00  0.00000000E+00  0.00000000E+00
  0.00000000E+00  0.00000000E+00  0.00000000E+00
  0.00000000E+00  0.00000000E+00  0.00000000E+00
  0.00000000E+00  0.00000000E+00  0.00000000E+00
  0.00000000E+00  0.00000000E+00  0.00000000E+00
  0.00000000E+00  0.00000000E+00  0.00000000E+00
  0.00000000E+00  0.00000000E+00  0.00000000E+00
  0.00000000E+00  0.00000000E+00  0.00000000E+00
  0.00000000E+00  0.00000000E+00  0.00000000E+00
