Al   B    N                             
   1.00000000000000     
    -9.2706764590241129   -0.0028490184553289    0.0095882946986536
    -4.6386600609025441    8.0267275182156084    0.0058455980319464
    -0.0934977817379328    0.0492531618423844  -10.0459330138152669
   Al   B    N 
    33     3    36
Direct
  0.0986750703327530  0.0960787334903230  0.4002548541255635
  0.2225782682706807  0.1998162013596030  0.1444736801889519
  0.7775033742467343  0.0940867854472955  0.8209011983627619
  0.4478988334769056  0.0889455797120604  0.3798823306556542
  0.5602386143829392  0.1979160193847562  0.0874826389352918
  0.1100695981336699  0.0964184483399748  0.8894426269279379
  0.2208249608916475  0.2059586647451184  0.6428229738554307
  0.8893356816350177  0.2059204488555508  0.1487688556762663
  0.4455435846205162  0.0866662799277904  0.8973856842323400
  0.5721335365253353  0.2005294970177545  0.5677748445938988
  0.1099526128342063  0.4265350785341866  0.3949324117060584
  0.2214810936723950  0.5380663426904988  0.1461444813002970
  0.7798361671147518  0.4266523400050133  0.8894425025823267
  0.8893748447549967  0.5374084442606843  0.6428230090950606
  0.4474421709212777  0.4299850680286568  0.3864365417596360
  0.5588189958232377  0.5431129934690944  0.1447590206727583
  0.1120164694157637  0.4285985355759649  0.8928714753298408
  0.2228836838587327  0.5394676019864022  0.6421922340128603
  0.7794948185975272  0.4152593905560380  0.4002548372586006
  0.8832334313936911  0.5391613360085046  0.1444734137081412
  0.4433785808991431  0.4332174065830259  0.8964668671185336
  0.5587012241108056  0.5344158906096723  0.6437948478734015
  0.1133993418748105  0.7640270124176922  0.3864367379946927
  0.2265282790222045  0.8754034048078552  0.1447591311020986
  0.7700836893225258  0.7621266102554145  0.8973852992306988
  0.8839441412281488  0.8887174972230625  0.5677752841240391
  0.4464443985627824  0.7630292672763588  0.3895024053713243
  0.1166353824314612  0.7599608219959535  0.8964671752164719
  0.2178308685905677  0.8752858787011348  0.6437947726909172
  0.7723625563273302  0.7644814834369953  0.3798820038356396
  0.8813301221400067  0.8768242856210691  0.0874817044109690
  0.4473264250456523  0.7639095170459100  0.8966010430751226
  0.5562278158167473  0.8728113346416180  0.6401583153677137
  0.8934273770687469  0.2100111658971073  0.6529236883022662
  0.7751538062611658  0.0917384069283145  0.3147620670398723
  0.5536629349216682  0.8702465101407881  0.1465392606630473
  0.2178342264745936  0.2043038281907954  0.3343477458486319
  0.1062707795957749  0.0956627752816246  0.0793181204333706
  0.8957189622451622  0.2123017933987086  0.8156347358392395
  0.7888362047096606  0.1054203467291401  0.6336448146585880
  0.5849623124168559  0.1917224583535244  0.3709062156427763
  0.4523048036752755  0.0660451182258370  0.0930057549593499
  0.2265925323667588  0.2054498958234205  0.8333759429053273
  0.0858366777471531  0.1078264207544350  0.5928083321647648
  0.8787909572893398  0.1953752455206015  0.3364256223190267
  0.7728619539474124  0.0894469838872922  0.1545621762036191
  0.5632079381312280  0.2017067648526023  0.8904535249130561
  0.4432729414196004  0.0918717632561368  0.5749279306281707
  0.2213436991441213  0.5379282805792442  0.3337408593438411
  0.1106636963343348  0.4272464945931063  0.0833989611636383
  0.8888675296549309  0.5431753187030708  0.8333760337512288
  0.7912421805114391  0.4024207797400621  0.5928084312147988
  0.5598683172889309  0.5398782540899560  0.3337061646545507
  0.4427496058785465  0.4344262536975307  0.0896722169354689
  0.2235549464793891  0.5401374200930107  0.8326240281326633
  0.1116642261678749  0.4282478189690195  0.5838565878590103
  0.8877211962139668  0.5344170438105778  0.3343475310326482
  0.7790786691058429  0.4228550857586129  0.0793180361364421
  0.5554484778654967  0.5416771708195469  0.8340917869174902
  0.4436591432534343  0.4311048885340227  0.5798782162998677
  0.2232934836429692  0.8764523183937527  0.3337062140044935
  0.1178408681188259  0.7593346012146327  0.0896723626905498
  0.8851242361156153  0.8797908852880312  0.8904527488286931
  0.7752879708476215  0.7598558618282354  0.5749277281686602
  0.5545904049150323  0.8711737095956806  0.3092379091374582
  0.4564720630506685  0.7730564088642637  0.0896312988941048
  0.2250943137400725  0.8720311622665591  0.8340916830363270
  0.1145198515849088  0.7602434409041336  0.5798784920405993
  0.8751371972615871  0.9015469941842227  0.3709065284958157
  0.7494616010891662  0.7688883087973721  0.0930055571981754
  0.5562427413181226  0.8728255007875845  0.8276423065613372
  0.4451238950251550  0.7617086599207710  0.5803516111526932
 
  0.00000000E+00  0.00000000E+00  0.00000000E+00
  0.00000000E+00  0.00000000E+00  0.00000000E+00
  0.00000000E+00  0.00000000E+00  0.00000000E+00
  0.00000000E+00  0.00000000E+00  0.00000000E+00
  0.00000000E+00  0.00000000E+00  0.00000000E+00
  0.00000000E+00  0.00000000E+00  0.00000000E+00
  0.00000000E+00  0.00000000E+00  0.00000000E+00
  0.00000000E+00  0.00000000E+00  0.00000000E+00
  0.00000000E+00  0.00000000E+00  0.00000000E+00
  0.00000000E+00  0.00000000E+00  0.00000000E+00
  0.00000000E+00  0.00000000E+00  0.00000000E+00
  0.00000000E+00  0.00000000E+00  0.00000000E+00
  0.00000000E+00  0.00000000E+00  0.00000000E+00
  0.00000000E+00  0.00000000E+00  0.00000000E+00
  0.00000000E+00  0.00000000E+00  0.00000000E+00
  0.00000000E+00  0.00000000E+00  0.00000000E+00
  0.00000000E+00  0.00000000E+00  0.00000000E+00
  0.00000000E+00  0.00000000E+00  0.00000000E+00
  0.00000000E+00  0.00000000E+00  0.00000000E+00
  0.00000000E+00  0.00000000E+00  0.00000000E+00
  0.00000000E+00  0.00000000E+00  0.00000000E+00
  0.00000000E+00  0.00000000E+00  0.00000000E+00
  0.00000000E+00  0.00000000E+00  0.00000000E+00
  0.00000000E+00  0.00000000E+00  0.00000000E+00
  0.00000000E+00  0.00000000E+00  0.00000000E+00
  0.00000000E+00  0.00000000E+00  0.00000000E+00
  0.00000000E+00  0.00000000E+00  0.00000000E+00
  0.00000000E+00  0.00000000E+00  0.00000000E+00
  0.00000000E+00  0.00000000E+00  0.00000000E+00
  0.00000000E+00  0.00000000E+00  0.00000000E+00
  0.00000000E+00  0.00000000E+00  0.00000000E+00
  0.00000000E+00  0.00000000E+00  0.00000000E+00
  0.00000000E+00  0.00000000E+00  0.00000000E+00
  0.00000000E+00  0.00000000E+00  0.00000000E+00
  0.00000000E+00  0.00000000E+00  0.00000000E+00
  0.00000000E+00  0.00000000E+00  0.00000000E+00
  0.00000000E+00  0.00000000E+00  0.00000000E+00
  0.00000000E+00  0.00000000E+00  0.00000000E+00
  0.00000000E+00  0.00000000E+00  0.00000000E+00
  0.00000000E+00  0.00000000E+00  0.00000000E+00
  0.00000000E+00  0.00000000E+00  0.00000000E+00
  0.00000000E+00  0.00000000E+00  0.00000000E+00
  0.00000000E+00  0.00000000E+00  0.00000000E+00
  0.00000000E+00  0.00000000E+00  0.00000000E+00
  0.00000000E+00  0.00000000E+00  0.00000000E+00
  0.00000000E+00  0.00000000E+00  0.00000000E+00
  0.00000000E+00  0.00000000E+00  0.00000000E+00
  0.00000000E+00  0.00000000E+00  0.00000000E+00
  0.00000000E+00  0.00000000E+00  0.00000000E+00
  0.00000000E+00  0.00000000E+00  0.00000000E+00
  0.00000000E+00  0.00000000E+00  0.00000000E+00
  0.00000000E+00  0.00000000E+00  0.00000000E+00
  0.00000000E+00  0.00000000E+00  0.00000000E+00
  0.00000000E+00  0.00000000E+00  0.00000000E+00
  0.00000000E+00  0.00000000E+00  0.00000000E+00
  0.00000000E+00  0.00000000E+00  0.00000000E+00
  0.00000000E+00  0.00000000E+00  0.00000000E+00
  0.00000000E+00  0.00000000E+00  0.00000000E+00
  0.00000000E+00  0.00000000E+00  0.00000000E+00
  0.00000000E+00  0.00000000E+00  0.00000000E+00
  0.00000000E+00  0.00000000E+00  0.00000000E+00
  0.00000000E+00  0.00000000E+00  0.00000000E+00
  0.00000000E+00  0.00000000E+00  0.00000000E+00
  0.00000000E+00  0.00000000E+00  0.00000000E+00
  0.00000000E+00  0.00000000E+00  0.00000000E+00
  0.00000000E+00  0.00000000E+00  0.00000000E+00
  0.00000000E+00  0.00000000E+00  0.00000000E+00
  0.00000000E+00  0.00000000E+00  0.00000000E+00
  0.00000000E+00  0.00000000E+00  0.00000000E+00
  0.00000000E+00  0.00000000E+00  0.00000000E+00
  0.00000000E+00  0.00000000E+00  0.00000000E+00
  0.00000000E+00  0.00000000E+00  0.00000000E+00
