generated by phonopy                    
   1.00000000000000     
    10.0351470768999995   -0.0000022330999784   -0.0000001056124209
    -5.0175765436399997    8.6906901959899994    0.0000001395531216
    -0.0000001735893656    0.0000001431815548   14.9533752540999991
   Pb   P    O 
    21    12    49
Direct
  0.0610008074504194  0.7451109948905668  0.1426134536640618
  0.9977420064452005  0.7605106963617700  0.6214285551374559
  0.9993123826015449  0.2545035082753913  0.3730514639504392
  0.0179665540377911  0.2706992191080602  0.8659600052314644
  0.2206205804135521  0.2133807378863466  0.1129707913072977
  0.2159029283242546  0.2153267524014026  0.6202877196460292
  0.7386305631324674  0.7388907365333139  0.3786508369637218
  0.7541395606965082  0.7829386352139451  0.8163051403182138
  0.7639631526984871  0.0156311859295855  0.1289345378956455
  0.7695732520559844  0.0025424706095976  0.6138022597559925
  0.2596856646021592  0.9999890704475334  0.3796657392260414
  0.2503311633716407  0.0003274500375312  0.8688868285659623
  0.6667600273024163  0.3257473975874987  0.9984317797788762
  0.6644791160081027  0.3222325684711080  0.5004468692253639
  0.3477992803489158  0.6749157618386050  0.0022932535787490
  0.3264184523949680  0.6706060989216311  0.5059296781207578
  0.3418613902028724  0.6505279752367059  0.2527691697488024
  0.3362044270503475  0.6605582001240862  0.7440790465157221
  0.6585342208600835  0.3485779046401802  0.2504882682295815
  0.6616564486840844  0.3331903136418362  0.7484859665639689
  0.8467693985418236  0.7746504193367301  0.0123047240251495
  0.6206989017675610  0.5994005591292506  0.1333125766086098
  0.6126519881622841  0.5768440704501288  0.6144263889055708
  0.3643186742396907  0.3915795043621699  0.3786294703780584
  0.3846816187670044  0.4106312786840718  0.8728271573012947
  0.4061523731112189  0.0331710021765659  0.1250666189891803
  0.3966351634130589  0.0234036781222642  0.6274136808499549
  0.6059892931572435  0.9755176263113441  0.3736052270012280
  0.5890819773470852  0.9794468363805677  0.8754396258865356
  0.9782852146088885  0.3825736198875802  0.1261264363793941
  0.9722577994330308  0.3715078785463888  0.6243245206264731
  0.0213551730755839  0.6240809125771278  0.3830817408991862
  0.0283725777087938  0.6261374598389082  0.8769188549547948
  0.4939570752553379  0.6487701134329953  0.1346012338644229
  0.5067340743433348  0.6482382662312389  0.6217478062129445
  0.4612751167348392  0.3096742671299566  0.3750877475350407
  0.4741268978524289  0.3208672115218647  0.8736288435018835
  0.3578993593660940  0.8588845106920928  0.1220100235619626
  0.3417611141148029  0.8479774928030110  0.6276770107297054
  0.6889057002198555  0.1536077415694379  0.3686434078375456
  0.6639341031826618  0.1576896365225195  0.8729442899593209
  0.1514316390097861  0.5111020970260114  0.1252446757908601
  0.1461250871221509  0.4969017919964642  0.6234774610943106
  0.8434333479991736  0.5280282555595761  0.3828323181961082
  0.8507424243725126  0.5203216608327068  0.8810455143516265
  0.7325369679297609  0.6502111059586397  0.5372974890431266
  0.2447660896036439  0.3272549779224789  0.4566218331003427
  0.2807271586772657  0.3753361385490592  0.9581258932778383
  0.3497465852661037  0.0820599530228563  0.0395371840612455
  0.3270933300537067  0.0637362716998666  0.5445292110974833
  0.6596635319968343  0.9184591530996187  0.4564770013165926
  0.6405944458036146  0.9238467996365429  0.9579558334308231
  0.9245299664404740  0.2891220651646265  0.0370786430059908
  0.9293369033358516  0.2625558645805199  0.5403950481427842
  0.0910474261607561  0.7283900003520216  0.4675334962644868
  0.1025105045085510  0.7104961998461334  0.9665541489804852
  0.2707549275693850  0.3687790764792638  0.2903264027923385
  0.2709798622907940  0.3622961217389218  0.7906483780588047
  0.6953408574252151  0.6205126761686230  0.2289369468651330
  0.7099995813997353  0.6080699201720137  0.7031561265831527
  0.6374198925248464  0.9022748932400404  0.2895288850608964
  0.6277283317455087  0.9221916361359916  0.7864297752190197
  0.3305748638509911  0.0658393157997352  0.2076621890284258
  0.3388595518159505  0.0707758597407135  0.7128883285802416
  0.0816085592255931  0.7395925378347528  0.3026873807033255
  0.0723335127451676  0.7507186876285701  0.8021499445396216
  0.9445633336528374  0.2652011051315668  0.2038596383078044
  0.9316758058816603  0.2658432380076619  0.7088682628777647
  0.5416846820174044  0.4215345266494026  0.1136685690415860
  0.5210682944560574  0.3986030575021857  0.6043395697567036
  0.4727905526623175  0.5712035562626951  0.3912914682931898
  0.4991575165005600  0.5898364905183513  0.8667737174410064
  0.5854248866402330  0.1345491442562050  0.1301040350232370
  0.5759266519739512  0.1219224696978642  0.6237004012831235
  0.4261561475342006  0.9061378461124789  0.3825237396517096
  0.4076526283873818  0.8988997447392677  0.8771872887019114
  0.8814047872912738  0.4654825285504316  0.1413089480601784
  0.8687725127284125  0.4472553900016933  0.6226565403184026
  0.0934445343407759  0.5162552537141352  0.3773587500079003
  0.1065279429895156  0.5266556423210176  0.8532514625095828
  0.9813623311961166  0.9855379134182698  0.1002767857259101
  0.9870347484001627  0.9828056189203807  0.6236416402065359
 
  0.00000000E+00  0.00000000E+00  0.00000000E+00
  0.00000000E+00  0.00000000E+00  0.00000000E+00
  0.00000000E+00  0.00000000E+00  0.00000000E+00
  0.00000000E+00  0.00000000E+00  0.00000000E+00
  0.00000000E+00  0.00000000E+00  0.00000000E+00
  0.00000000E+00  0.00000000E+00  0.00000000E+00
  0.00000000E+00  0.00000000E+00  0.00000000E+00
  0.00000000E+00  0.00000000E+00  0.00000000E+00
  0.00000000E+00  0.00000000E+00  0.00000000E+00
  0.00000000E+00  0.00000000E+00  0.00000000E+00
  0.00000000E+00  0.00000000E+00  0.00000000E+00
  0.00000000E+00  0.00000000E+00  0.00000000E+00
  0.00000000E+00  0.00000000E+00  0.00000000E+00
  0.00000000E+00  0.00000000E+00  0.00000000E+00
  0.00000000E+00  0.00000000E+00  0.00000000E+00
  0.00000000E+00  0.00000000E+00  0.00000000E+00
  0.00000000E+00  0.00000000E+00  0.00000000E+00
  0.00000000E+00  0.00000000E+00  0.00000000E+00
  0.00000000E+00  0.00000000E+00  0.00000000E+00
  0.00000000E+00  0.00000000E+00  0.00000000E+00
  0.00000000E+00  0.00000000E+00  0.00000000E+00
  0.00000000E+00  0.00000000E+00  0.00000000E+00
  0.00000000E+00  0.00000000E+00  0.00000000E+00
  0.00000000E+00  0.00000000E+00  0.00000000E+00
  0.00000000E+00  0.00000000E+00  0.00000000E+00
  0.00000000E+00  0.00000000E+00  0.00000000E+00
  0.00000000E+00  0.00000000E+00  0.00000000E+00
  0.00000000E+00  0.00000000E+00  0.00000000E+00
  0.00000000E+00  0.00000000E+00  0.00000000E+00
  0.00000000E+00  0.00000000E+00  0.00000000E+00
  0.00000000E+00  0.00000000E+00  0.00000000E+00
  0.00000000E+00  0.00000000E+00  0.00000000E+00
  0.00000000E+00  0.00000000E+00  0.00000000E+00
  0.00000000E+00  0.00000000E+00  0.00000000E+00
  0.00000000E+00  0.00000000E+00  0.00000000E+00
  0.00000000E+00  0.00000000E+00  0.00000000E+00
  0.00000000E+00  0.00000000E+00  0.00000000E+00
  0.00000000E+00  0.00000000E+00  0.00000000E+00
  0.00000000E+00  0.00000000E+00  0.00000000E+00
  0.00000000E+00  0.00000000E+00  0.00000000E+00
  0.00000000E+00  0.00000000E+00  0.00000000E+00
  0.00000000E+00  0.00000000E+00  0.00000000E+00
  0.00000000E+00  0.00000000E+00  0.00000000E+00
  0.00000000E+00  0.00000000E+00  0.00000000E+00
  0.00000000E+00  0.00000000E+00  0.00000000E+00
  0.00000000E+00  0.00000000E+00  0.00000000E+00
  0.00000000E+00  0.00000000E+00  0.00000000E+00
  0.00000000E+00  0.00000000E+00  0.00000000E+00
  0.00000000E+00  0.00000000E+00  0.00000000E+00
  0.00000000E+00  0.00000000E+00  0.00000000E+00
  0.00000000E+00  0.00000000E+00  0.00000000E+00
  0.00000000E+00  0.00000000E+00  0.00000000E+00
  0.00000000E+00  0.00000000E+00  0.00000000E+00
  0.00000000E+00  0.00000000E+00  0.00000000E+00
  0.00000000E+00  0.00000000E+00  0.00000000E+00
  0.00000000E+00  0.00000000E+00  0.00000000E+00
  0.00000000E+00  0.00000000E+00  0.00000000E+00
  0.00000000E+00  0.00000000E+00  0.00000000E+00
  0.00000000E+00  0.00000000E+00  0.00000000E+00
  0.00000000E+00  0.00000000E+00  0.00000000E+00
  0.00000000E+00  0.00000000E+00  0.00000000E+00
  0.00000000E+00  0.00000000E+00  0.00000000E+00
  0.00000000E+00  0.00000000E+00  0.00000000E+00
  0.00000000E+00  0.00000000E+00  0.00000000E+00
  0.00000000E+00  0.00000000E+00  0.00000000E+00
  0.00000000E+00  0.00000000E+00  0.00000000E+00
  0.00000000E+00  0.00000000E+00  0.00000000E+00
  0.00000000E+00  0.00000000E+00  0.00000000E+00
  0.00000000E+00  0.00000000E+00  0.00000000E+00
  0.00000000E+00  0.00000000E+00  0.00000000E+00
  0.00000000E+00  0.00000000E+00  0.00000000E+00
  0.00000000E+00  0.00000000E+00  0.00000000E+00
  0.00000000E+00  0.00000000E+00  0.00000000E+00
  0.00000000E+00  0.00000000E+00  0.00000000E+00
  0.00000000E+00  0.00000000E+00  0.00000000E+00
  0.00000000E+00  0.00000000E+00  0.00000000E+00
  0.00000000E+00  0.00000000E+00  0.00000000E+00
  0.00000000E+00  0.00000000E+00  0.00000000E+00
  0.00000000E+00  0.00000000E+00  0.00000000E+00
  0.00000000E+00  0.00000000E+00  0.00000000E+00
  0.00000000E+00  0.00000000E+00  0.00000000E+00
  0.00000000E+00  0.00000000E+00  0.00000000E+00
