generated by phonopy                    
   1.00000000000000     
    10.0351470768999995   -0.0000022330999784   -0.0000001056124209
    -5.0175765436399997    8.6906901959899994    0.0000001395531216
    -0.0000001735893656    0.0000001431815548   14.9533752540999991
   Pb   P    O 
    20    13    49
Direct
  0.0016459247029701  0.7777633320408697  0.1211715679535601
  0.0026719336563374  0.7763367644154542  0.6248917254409037
  0.9893260815069382  0.2475677606403437  0.3747954980419692
  0.0031713568245166  0.2652268162114595  0.8746644730208359
  0.2256596496128793  0.2262405830680194  0.1246309736032245
  0.2263062211942639  0.2258012170902077  0.6246503867549364
  0.7684521149720993  0.7570971040919829  0.3737279211513851
  0.7419614077708587  0.7462157856009526  0.8737317097682791
  0.7721499563143936  0.0035001092292575  0.1218956277094208
  0.7729075594380603  0.0040886199110091  0.6281047973537852
  0.2472719695242773  0.9854484385555722  0.3743161015073326
  0.2623369863212588  0.0015139244669413  0.8737526617787736
  0.6657198712832297  0.3409579817367501  0.0018193503676471
  0.6711604628095955  0.3347823357262243  0.5011123365632884
  0.3372810360959448  0.6665559604836133  0.0022987600594817
  0.3475059360123609  0.6815959571142045  0.5019586938453600
  0.3292249831315104  0.6787796778798025  0.2414868832007926
  0.3318107756918280  0.6639962314784782  0.7429849898650502
  0.6691199564674903  0.3360186605093816  0.2483051837812837
  0.6653479439756111  0.3396764802080554  0.7468742279637937
  0.6294289192199471  0.6032473375082290  0.1233420317841265
  0.6296027562251894  0.6011328608538875  0.6246708567663788
  0.3402053856978995  0.3383381352042107  0.3747321454651811
  0.3703667927104703  0.4014533770386137  0.8742619089193227
  0.4069473440729610  0.0344919635580752  0.1176862235273219
  0.4067197626315533  0.0330234424689593  0.6302180066939655
  0.6079016236397266  0.9766854259097641  0.3744926087783469
  0.6063147379732072  0.9771787299919268  0.8741333960713504
  0.9695973051131048  0.3762038592885020  0.1225306524938290
  0.9709661406508303  0.3765556139024540  0.6261868022513895
  0.0263913143440888  0.6249557706293416  0.3736534580284712
  0.0261561186768873  0.6350568969378827  0.8736628352411842
  0.4696322306130583  0.5794235782812507  0.3669423374201415
  0.5090636308800072  0.6582534681292600  0.1208963361402837
  0.5085483078994102  0.6556145595154916  0.6253696937610584
  0.4512032771321088  0.2707606803978919  0.3765277777995450
  0.4709765604240488  0.3239323142638000  0.8744266952578812
  0.3616643597192279  0.8629405135172732  0.1091338877223009
  0.3610479478124162  0.8614120571251931  0.6376248499560333
  0.6821202243859972  0.1549320897571462  0.3760241241761051
  0.6811493090866563  0.1552587316228582  0.8747145995839460
  0.1458928861434359  0.4924401716596662  0.1210517390538470
  0.1469885129376252  0.4924320628917584  0.6262764286327354
  0.8469739739301687  0.5308372822005865  0.3739337973266785
  0.8476922001759206  0.5340828428364404  0.8738401620924989
  0.7260800611846179  0.6465565284850427  0.0343522008418375
  0.7457518578637803  0.6752404370115954  0.5452566450416114
  0.2303157436901131  0.2860580968958573  0.4581598795939215
  0.2641468295020601  0.3589559844796497  0.9582863128965968
  0.3636981649358901  0.0936198795555896  0.0313051314775237
  0.3248484177064341  0.0588492301570795  0.5486450132498959
  0.6443489801721753  0.9143559691883354  0.4612320768823963
  0.6511483926216783  0.9145615831183136  0.9579745096177206
  0.9181134423989548  0.2729438877337387  0.0363559849740369
  0.9230133106384244  0.2680302440254394  0.5423125383060423
  0.0888826408920593  0.7301052194545008  0.4580335850397361
  0.0882435251083820  0.7425095376896067  0.9572867528081375
  0.2252543355552561  0.2725819170344366  0.2934907586409992
  0.2626068963857904  0.3563320298446513  0.7908503228753858
  0.7482448476774266  0.6821253908799463  0.2012548123711611
  0.7274775453445272  0.6495600769099354  0.7129953599537302
  0.6654360566787787  0.9230486862783138  0.2928129211648383
  0.6555188688334965  0.9173417610408805  0.7908899403159140
  0.3220864372230068  0.0582155705234300  0.1984319415969367
  0.3606520213172075  0.0906271708231046  0.7162371244355157
  0.0874496165640366  0.7316408699897110  0.2894482204650757
  0.0884786645886564  0.7420806001815947  0.7898156868738511
  0.9251536726328098  0.2660278118826369  0.2053531842855207
  0.9211885081303492  0.2705037683926719  0.7113559163992349
  0.5472043597867611  0.4236629858207266  0.1331506076777700
  0.5470207393491506  0.4211965056302915  0.6177832640533012
  0.4788722116377571  0.5829336746808593  0.8734957002428700
  0.5858783122433167  0.1369767475180765  0.1304514770540877
  0.5861239317618896  0.1361293503421805  0.6196598595133196
  0.4259159050798829  0.9002822365867260  0.3682824953817558
  0.4245994302040259  0.8996351308715447  0.8729622239601085
  0.8745371556614145  0.4615996711101005  0.1270485069499543
  0.8755495780526417  0.4617692916110130  0.6248567054274403
  0.0966028993458110  0.5148955472651053  0.3716991797849758
  0.0997311269691608  0.5274061776702794  0.8735705506623077
  0.9986608072162255  0.0030078287511373  0.1070867893000340
  0.9988073156800183  0.0015173125002477  0.6375272038413442
 
  0.00000000E+00  0.00000000E+00  0.00000000E+00
  0.00000000E+00  0.00000000E+00  0.00000000E+00
  0.00000000E+00  0.00000000E+00  0.00000000E+00
  0.00000000E+00  0.00000000E+00  0.00000000E+00
  0.00000000E+00  0.00000000E+00  0.00000000E+00
  0.00000000E+00  0.00000000E+00  0.00000000E+00
  0.00000000E+00  0.00000000E+00  0.00000000E+00
  0.00000000E+00  0.00000000E+00  0.00000000E+00
  0.00000000E+00  0.00000000E+00  0.00000000E+00
  0.00000000E+00  0.00000000E+00  0.00000000E+00
  0.00000000E+00  0.00000000E+00  0.00000000E+00
  0.00000000E+00  0.00000000E+00  0.00000000E+00
  0.00000000E+00  0.00000000E+00  0.00000000E+00
  0.00000000E+00  0.00000000E+00  0.00000000E+00
  0.00000000E+00  0.00000000E+00  0.00000000E+00
  0.00000000E+00  0.00000000E+00  0.00000000E+00
  0.00000000E+00  0.00000000E+00  0.00000000E+00
  0.00000000E+00  0.00000000E+00  0.00000000E+00
  0.00000000E+00  0.00000000E+00  0.00000000E+00
  0.00000000E+00  0.00000000E+00  0.00000000E+00
  0.00000000E+00  0.00000000E+00  0.00000000E+00
  0.00000000E+00  0.00000000E+00  0.00000000E+00
  0.00000000E+00  0.00000000E+00  0.00000000E+00
  0.00000000E+00  0.00000000E+00  0.00000000E+00
  0.00000000E+00  0.00000000E+00  0.00000000E+00
  0.00000000E+00  0.00000000E+00  0.00000000E+00
  0.00000000E+00  0.00000000E+00  0.00000000E+00
  0.00000000E+00  0.00000000E+00  0.00000000E+00
  0.00000000E+00  0.00000000E+00  0.00000000E+00
  0.00000000E+00  0.00000000E+00  0.00000000E+00
  0.00000000E+00  0.00000000E+00  0.00000000E+00
  0.00000000E+00  0.00000000E+00  0.00000000E+00
  0.00000000E+00  0.00000000E+00  0.00000000E+00
  0.00000000E+00  0.00000000E+00  0.00000000E+00
  0.00000000E+00  0.00000000E+00  0.00000000E+00
  0.00000000E+00  0.00000000E+00  0.00000000E+00
  0.00000000E+00  0.00000000E+00  0.00000000E+00
  0.00000000E+00  0.00000000E+00  0.00000000E+00
  0.00000000E+00  0.00000000E+00  0.00000000E+00
  0.00000000E+00  0.00000000E+00  0.00000000E+00
  0.00000000E+00  0.00000000E+00  0.00000000E+00
  0.00000000E+00  0.00000000E+00  0.00000000E+00
  0.00000000E+00  0.00000000E+00  0.00000000E+00
  0.00000000E+00  0.00000000E+00  0.00000000E+00
  0.00000000E+00  0.00000000E+00  0.00000000E+00
  0.00000000E+00  0.00000000E+00  0.00000000E+00
  0.00000000E+00  0.00000000E+00  0.00000000E+00
  0.00000000E+00  0.00000000E+00  0.00000000E+00
  0.00000000E+00  0.00000000E+00  0.00000000E+00
  0.00000000E+00  0.00000000E+00  0.00000000E+00
  0.00000000E+00  0.00000000E+00  0.00000000E+00
  0.00000000E+00  0.00000000E+00  0.00000000E+00
  0.00000000E+00  0.00000000E+00  0.00000000E+00
  0.00000000E+00  0.00000000E+00  0.00000000E+00
  0.00000000E+00  0.00000000E+00  0.00000000E+00
  0.00000000E+00  0.00000000E+00  0.00000000E+00
  0.00000000E+00  0.00000000E+00  0.00000000E+00
  0.00000000E+00  0.00000000E+00  0.00000000E+00
  0.00000000E+00  0.00000000E+00  0.00000000E+00
  0.00000000E+00  0.00000000E+00  0.00000000E+00
  0.00000000E+00  0.00000000E+00  0.00000000E+00
  0.00000000E+00  0.00000000E+00  0.00000000E+00
  0.00000000E+00  0.00000000E+00  0.00000000E+00
  0.00000000E+00  0.00000000E+00  0.00000000E+00
  0.00000000E+00  0.00000000E+00  0.00000000E+00
  0.00000000E+00  0.00000000E+00  0.00000000E+00
  0.00000000E+00  0.00000000E+00  0.00000000E+00
  0.00000000E+00  0.00000000E+00  0.00000000E+00
  0.00000000E+00  0.00000000E+00  0.00000000E+00
  0.00000000E+00  0.00000000E+00  0.00000000E+00
  0.00000000E+00  0.00000000E+00  0.00000000E+00
  0.00000000E+00  0.00000000E+00  0.00000000E+00
  0.00000000E+00  0.00000000E+00  0.00000000E+00
  0.00000000E+00  0.00000000E+00  0.00000000E+00
  0.00000000E+00  0.00000000E+00  0.00000000E+00
  0.00000000E+00  0.00000000E+00  0.00000000E+00
  0.00000000E+00  0.00000000E+00  0.00000000E+00
  0.00000000E+00  0.00000000E+00  0.00000000E+00
  0.00000000E+00  0.00000000E+00  0.00000000E+00
  0.00000000E+00  0.00000000E+00  0.00000000E+00
  0.00000000E+00  0.00000000E+00  0.00000000E+00
  0.00000000E+00  0.00000000E+00  0.00000000E+00
