supercell of icsd_191774.cif            
   1.00000000000000     
    10.6202969811375532   -0.0000169720680290    0.0024023287914836
    -5.3101624788844584    9.1999261846999403    0.0008129297679378
     0.0026146945072620    0.0025535648090747   11.2466208040737001
   N    In   Sc
    36    30     6
Direct
  0.2203421178617333  0.1132886903862271  0.4433852728576326
  0.1061585107725520  0.2199801775372947  0.1936943843329004
  0.8892621145247759  0.1112896705216073  0.9408587716720973
  0.7802982423912184  0.2269184299189817  0.6920519448081848
  0.5540345398417514  0.1071097737941784  0.4434179255557638
  0.4460645636586662  0.2259336194716468  0.1936282932247693
  0.2223126869667524  0.1116421239173917  0.9398874256785277
  0.1132222926727877  0.2271887812619511  0.6847005109819619
  0.8934169472643418  0.1136234432109973  0.4355308626020005
  0.7794857296342173  0.2202111075213224  0.1922437615360764
  0.5553417228757169  0.1110141500752349  0.9398941522935473
  0.4451674207421945  0.2234310056383748  0.6898842183957825
  0.2199158697875845  0.4396103733820311  0.4443853110749743
  0.1109583649247696  0.5547079504772228  0.1890126866470041
  0.8882571386468001  0.4439234135677310  0.9340464910024053
  0.7802560792771018  0.5539563941738948  0.6919037983613734
  0.5554912811570816  0.4448029212566595  0.4339792158302700
  0.4455256070093654  0.5532652471942043  0.1927475870420565
  0.2221348962046221  0.4432999624764946  0.9332485933502994
  0.1091924700612168  0.5514636431292033  0.6955923681103044
  0.8897097115589574  0.4445000574061879  0.4416987109001340
  0.7737958162634015  0.5532068371282861  0.1925506788995648
  0.5554123880672108  0.4444859202474660  0.9419110461672204
  0.4403019073837555  0.5540438189024002  0.6922838389987760
  0.2256899302855615  0.7784411822202344  0.4434081920305317
  0.1112779322608404  0.8891687477568269  0.1911356726625399
  0.8886055636880315  0.7776804056381366  0.9409510184184526
  0.7785702372480330  0.8903312004379274  0.6901535221451383
  0.5534929805165518  0.7794060461986447  0.4435897986095085
  0.4447492684834842  0.8889870731475398  0.1920486536032726
  0.2224966742233647  0.7776485461868958  0.9400777400756937
  0.1117190875321867  0.8894672733244420  0.6911886910776701
  0.8891102983903991  0.7779994145316351  0.4410139713257450
  0.7793354569062032  0.8928619188040727  0.1933728121457818
  0.5554749400862491  0.7776655859717323  0.9399882380049718
  0.4443983447788895  0.8891507233959430  0.6838577276514428
  0.2222977274870814  0.1114471062609894  0.2506505829484666
  0.8910522552673328  0.1131911854291445  0.7484541029248106
  0.7777237415309486  0.2231217523182707  0.9991078064669097
  0.5560506451963434  0.1121743970553553  0.2504755388386286
  0.4452522678878097  0.2231461595117850  0.4980888851818293
  0.2216357734185124  0.1130152915359446  0.7474041957135711
  0.1120523578657071  0.2234061971830101  0.0001142989981417
  0.7783235082299598  0.2206921110002469  0.4990008925015772
  0.5556070202188081  0.1105079195635383  0.7475964532993942
  0.4440105469164024  0.2215250821669272  0.0002223630766807
  0.2220936255943329  0.4443127069752038  0.2510164952772485
  0.1118677989714243  0.5556760005670540  0.5022643202794512
  0.7787526715023461  0.5551470092643882  0.9995101862641533
  0.4451199274509747  0.5553216245934820  0.4996412264348251
  0.1106639805788632  0.5539986749295593  0.9962624837957179
  0.8885868737592091  0.4442108452047293  0.2495608103877203
  0.7765833574748271  0.5551766957764812  0.4993816126492518
  0.5562359249150077  0.4458032645770018  0.7497891004285577
  0.4426496942858904  0.5552198623004116  0.9992629197073626
  0.2213199330842386  0.7765720125642375  0.2502964668841940
  0.1118940077583730  0.8888915712901948  0.4994207494624732
  0.8884447248556668  0.7773924928673495  0.7488921816007945
  0.7773091854972520  0.8885447098302421  0.0003328813227981
  0.5555258505823417  0.7766129642444994  0.2506182211638048
  0.2228547944101962  0.7770404133132942  0.7481293869964247
  0.1114745309486338  0.8891148991414610  0.9988960050908346
  0.8880887436972174  0.7770394575580966  0.2491540194971265
  0.7784487899193806  0.8908731764034812  0.4978181600503646
  0.5551322681765782  0.7781486180716186  0.7477801624712086
  0.4444580997467469  0.8888541555127603  0.9999319101945545
  0.1096878711564884  0.2209012478343269  0.4962953523937941
  0.8878695295825310  0.1108403640204969  0.2474424039234435
  0.8886900418966164  0.4441784239339910  0.7473434764726505
  0.5554559995788608  0.4445943832633432  0.2470240044129000
  0.2214912055623586  0.4429547628412180  0.7459521799087767
  0.4443155910464327  0.8886468308848592  0.4973442749052026
 
  0.00000000E+00  0.00000000E+00  0.00000000E+00
  0.00000000E+00  0.00000000E+00  0.00000000E+00
  0.00000000E+00  0.00000000E+00  0.00000000E+00
  0.00000000E+00  0.00000000E+00  0.00000000E+00
  0.00000000E+00  0.00000000E+00  0.00000000E+00
  0.00000000E+00  0.00000000E+00  0.00000000E+00
  0.00000000E+00  0.00000000E+00  0.00000000E+00
  0.00000000E+00  0.00000000E+00  0.00000000E+00
  0.00000000E+00  0.00000000E+00  0.00000000E+00
  0.00000000E+00  0.00000000E+00  0.00000000E+00
  0.00000000E+00  0.00000000E+00  0.00000000E+00
  0.00000000E+00  0.00000000E+00  0.00000000E+00
  0.00000000E+00  0.00000000E+00  0.00000000E+00
  0.00000000E+00  0.00000000E+00  0.00000000E+00
  0.00000000E+00  0.00000000E+00  0.00000000E+00
  0.00000000E+00  0.00000000E+00  0.00000000E+00
  0.00000000E+00  0.00000000E+00  0.00000000E+00
  0.00000000E+00  0.00000000E+00  0.00000000E+00
  0.00000000E+00  0.00000000E+00  0.00000000E+00
  0.00000000E+00  0.00000000E+00  0.00000000E+00
  0.00000000E+00  0.00000000E+00  0.00000000E+00
  0.00000000E+00  0.00000000E+00  0.00000000E+00
  0.00000000E+00  0.00000000E+00  0.00000000E+00
  0.00000000E+00  0.00000000E+00  0.00000000E+00
  0.00000000E+00  0.00000000E+00  0.00000000E+00
  0.00000000E+00  0.00000000E+00  0.00000000E+00
  0.00000000E+00  0.00000000E+00  0.00000000E+00
  0.00000000E+00  0.00000000E+00  0.00000000E+00
  0.00000000E+00  0.00000000E+00  0.00000000E+00
  0.00000000E+00  0.00000000E+00  0.00000000E+00
  0.00000000E+00  0.00000000E+00  0.00000000E+00
  0.00000000E+00  0.00000000E+00  0.00000000E+00
  0.00000000E+00  0.00000000E+00  0.00000000E+00
  0.00000000E+00  0.00000000E+00  0.00000000E+00
  0.00000000E+00  0.00000000E+00  0.00000000E+00
  0.00000000E+00  0.00000000E+00  0.00000000E+00
  0.00000000E+00  0.00000000E+00  0.00000000E+00
  0.00000000E+00  0.00000000E+00  0.00000000E+00
  0.00000000E+00  0.00000000E+00  0.00000000E+00
  0.00000000E+00  0.00000000E+00  0.00000000E+00
  0.00000000E+00  0.00000000E+00  0.00000000E+00
  0.00000000E+00  0.00000000E+00  0.00000000E+00
  0.00000000E+00  0.00000000E+00  0.00000000E+00
  0.00000000E+00  0.00000000E+00  0.00000000E+00
  0.00000000E+00  0.00000000E+00  0.00000000E+00
  0.00000000E+00  0.00000000E+00  0.00000000E+00
  0.00000000E+00  0.00000000E+00  0.00000000E+00
  0.00000000E+00  0.00000000E+00  0.00000000E+00
  0.00000000E+00  0.00000000E+00  0.00000000E+00
  0.00000000E+00  0.00000000E+00  0.00000000E+00
  0.00000000E+00  0.00000000E+00  0.00000000E+00
  0.00000000E+00  0.00000000E+00  0.00000000E+00
  0.00000000E+00  0.00000000E+00  0.00000000E+00
  0.00000000E+00  0.00000000E+00  0.00000000E+00
  0.00000000E+00  0.00000000E+00  0.00000000E+00
  0.00000000E+00  0.00000000E+00  0.00000000E+00
  0.00000000E+00  0.00000000E+00  0.00000000E+00
  0.00000000E+00  0.00000000E+00  0.00000000E+00
  0.00000000E+00  0.00000000E+00  0.00000000E+00
  0.00000000E+00  0.00000000E+00  0.00000000E+00
  0.00000000E+00  0.00000000E+00  0.00000000E+00
  0.00000000E+00  0.00000000E+00  0.00000000E+00
  0.00000000E+00  0.00000000E+00  0.00000000E+00
  0.00000000E+00  0.00000000E+00  0.00000000E+00
  0.00000000E+00  0.00000000E+00  0.00000000E+00
  0.00000000E+00  0.00000000E+00  0.00000000E+00
  0.00000000E+00  0.00000000E+00  0.00000000E+00
  0.00000000E+00  0.00000000E+00  0.00000000E+00
  0.00000000E+00  0.00000000E+00  0.00000000E+00
  0.00000000E+00  0.00000000E+00  0.00000000E+00
  0.00000000E+00  0.00000000E+00  0.00000000E+00
  0.00000000E+00  0.00000000E+00  0.00000000E+00
