Si   N    Li                            
   1.00000000000000     
    -0.3365556775544200    0.0140929443334013    5.1842565430872201
    -0.0086058932870664    5.3007048154302687    0.0122362977172362
    -4.6418786920647017    2.6589457918804480   -0.1767059753429883
   Si   N    Li
     4     6     2
Direct
  0.0298253902138512  0.9886852142616220  0.6812366040214926
  0.8669171338113131  0.6669208567612444  0.3251423947420804
  0.3642232722668624  0.9865204807716381  0.3225779992835669
  0.5277884481088861  0.3095776317321040  0.6784896396040878
  0.9493226797439362  0.7012551457733451  0.0038927993110676
  0.8670794482846844  0.3017930908415707  0.6189602223640520
  0.0270854945502208  0.9127673313943987  0.3927949203160850
  0.4263344459930991  0.2763064497826662  0.9945760995399269
  0.3685852271790111  0.0615825448207588  0.6117084460880804
  0.5283707435816680  0.6749622004778857  0.3856997962253885
  0.9944136048135022  0.3362835308294549  0.9850566275704438
  0.4556851629284537  0.6499870361504634  0.9998244472052065
 
  0.00000000E+00  0.00000000E+00  0.00000000E+00
  0.00000000E+00  0.00000000E+00  0.00000000E+00
  0.00000000E+00  0.00000000E+00  0.00000000E+00
  0.00000000E+00  0.00000000E+00  0.00000000E+00
  0.00000000E+00  0.00000000E+00  0.00000000E+00
  0.00000000E+00  0.00000000E+00  0.00000000E+00
  0.00000000E+00  0.00000000E+00  0.00000000E+00
  0.00000000E+00  0.00000000E+00  0.00000000E+00
  0.00000000E+00  0.00000000E+00  0.00000000E+00
  0.00000000E+00  0.00000000E+00  0.00000000E+00
  0.00000000E+00  0.00000000E+00  0.00000000E+00
  0.00000000E+00  0.00000000E+00  0.00000000E+00
