Si   N    Li                            
   1.00000000000000     
     0.3355209262090761    0.0124902125348449    5.1423463553623403
    -0.0021190036203210    5.3141578032747994    0.0108460335252000
    -4.6272812056236532    2.6787671212287516    0.4227621032382644
   Si   N    Li
     4     6     2
Direct
  0.0336318846535022  0.9902633679618589  0.6796984356342648
  0.8708897211025501  0.6672183057466938  0.3237232788286803
  0.3673948884401099  0.9875393500255925  0.3202490167081109
  0.5301228894047654  0.3105714167479050  0.6762293264576726
  0.9704574316419965  0.7010803549163072  0.0075002140591494
  0.8714353565328850  0.3027046321233300  0.6185379026003162
  0.0271398943469237  0.9144558360246648  0.3925622416099941
  0.4307199293431268  0.2767140360133524  0.9924953866058246
  0.3738701565307352  0.0633493142344435  0.6073832942331165
  0.5295750913685637  0.6750826408876733  0.3814009294305549
  0.9847452020280514  0.3341150229943679  0.9877601600376451
  0.4156487456445674  0.6435472345740223  0.0124198126874902
 
  0.00000000E+00  0.00000000E+00  0.00000000E+00
  0.00000000E+00  0.00000000E+00  0.00000000E+00
  0.00000000E+00  0.00000000E+00  0.00000000E+00
  0.00000000E+00  0.00000000E+00  0.00000000E+00
  0.00000000E+00  0.00000000E+00  0.00000000E+00
  0.00000000E+00  0.00000000E+00  0.00000000E+00
  0.00000000E+00  0.00000000E+00  0.00000000E+00
  0.00000000E+00  0.00000000E+00  0.00000000E+00
  0.00000000E+00  0.00000000E+00  0.00000000E+00
  0.00000000E+00  0.00000000E+00  0.00000000E+00
  0.00000000E+00  0.00000000E+00  0.00000000E+00
  0.00000000E+00  0.00000000E+00  0.00000000E+00
