Si   N    Li                            
   1.00000000000000     
     0.0693892334484073    0.0086436562183094    5.0417619048226099
     0.1033357452148804    5.3587855100156379    0.0075093994643132
    -4.5358316017579901    2.7259858813361229    0.1153542890721097
   Si   N    Li
     4     6     2
Direct
  0.0263438281208082  0.9954303045990116  0.6629182195246415
  0.8641179891214179  0.6591616228309931  0.3183102456049625
  0.5258809777384315  0.0001883470420267  0.3335896006897627
  0.5262662344720042  0.3076567531297414  0.6794250242198956
  0.9766610663301236  0.7053107504887279  0.9996212845552535
  0.8808344112165969  0.3091997067390224  0.6243106812668344
  0.8855142431248311  0.9552146941806967  0.3826966992730831
  0.4325770744822179  0.2685636256609243  0.0025889327549962
  0.3774632126897473  0.0488600553683156  0.6070501179149588
  0.5002776706643530  0.6550755584691359  0.3742472502435987
  0.0176801824081920  0.3210652893663024  0.9990629996164770
  0.3920145814314111  0.6409147893739018  0.0161389721095091
 
  0.00000000E+00  0.00000000E+00  0.00000000E+00
  0.00000000E+00  0.00000000E+00  0.00000000E+00
  0.00000000E+00  0.00000000E+00  0.00000000E+00
  0.00000000E+00  0.00000000E+00  0.00000000E+00
  0.00000000E+00  0.00000000E+00  0.00000000E+00
  0.00000000E+00  0.00000000E+00  0.00000000E+00
  0.00000000E+00  0.00000000E+00  0.00000000E+00
  0.00000000E+00  0.00000000E+00  0.00000000E+00
  0.00000000E+00  0.00000000E+00  0.00000000E+00
  0.00000000E+00  0.00000000E+00  0.00000000E+00
  0.00000000E+00  0.00000000E+00  0.00000000E+00
  0.00000000E+00  0.00000000E+00  0.00000000E+00
