Si   N    Li                            
   1.00000000000000     
     0.2444061799652309    0.0073614707794642    5.0082337546427098
    -0.0169408127078904    5.3644293415623654    0.0063971881106842
    -4.5949573384104818    2.6260208785934371    0.2755188172096019
   Si   N    Li
     4     6     2
Direct
  0.0260731372623368  0.9952385371458305  0.6630841810362682
  0.8647705307074318  0.6592242638927104  0.3183814108342986
  0.5253706432895768  0.9999064110643729  0.3336243919944337
  0.5258220395988786  0.3078482327763581  0.6796373870549743
  0.9749789086929113  0.7055891000515828  0.9990872310454506
  0.8817890788194376  0.3097067120987518  0.6238015954192093
  0.8864494550849003  0.9550284823931747  0.3824985370751435
  0.4325051098808217  0.2682167156040549  0.0028348735391859
  0.3783155059671230  0.0485229633278976  0.6074240956304280
  0.4986004994839917  0.6548239673568759  0.3750543891968761
  0.0165387301290281  0.3215722908356113  0.9989779313599456
  0.3939395125577860  0.6409906100310749  0.0155011648496384
 
  0.00000000E+00  0.00000000E+00  0.00000000E+00
  0.00000000E+00  0.00000000E+00  0.00000000E+00
  0.00000000E+00  0.00000000E+00  0.00000000E+00
  0.00000000E+00  0.00000000E+00  0.00000000E+00
  0.00000000E+00  0.00000000E+00  0.00000000E+00
  0.00000000E+00  0.00000000E+00  0.00000000E+00
  0.00000000E+00  0.00000000E+00  0.00000000E+00
  0.00000000E+00  0.00000000E+00  0.00000000E+00
  0.00000000E+00  0.00000000E+00  0.00000000E+00
  0.00000000E+00  0.00000000E+00  0.00000000E+00
  0.00000000E+00  0.00000000E+00  0.00000000E+00
  0.00000000E+00  0.00000000E+00  0.00000000E+00
