Si   N    Li                            
   1.00000000000000     
    -0.4096104323134439    0.0144134906931126    5.1926385806321997
     0.0015808435088484    5.2937274426189465    0.0125143505556435
    -4.6258129644772472    2.6500333147090269   -0.2467368781904609
   Si   N    Li
     4     6     2
Direct
  0.0275486616455964  0.9874347881693595  0.6824759066684507
  0.8640527082928813  0.6669175966169760  0.3261987883371376
  0.3631764192671554  0.9855187557770435  0.3249115012581072
  0.5267478553555947  0.3083038703001151  0.6811569040420480
  0.9291678619890433  0.7027012458348665  0.9994769584252339
  0.8658318817642154  0.3017989790462394  0.6190364665714654
  0.0270760167581940  0.9125985620591806  0.3918190852960208
  0.4259480600434671  0.2764429082310187  0.9977207957858312
  0.3660721641227340  0.0581866976744578  0.6172526033040384
  0.5272326096641251  0.6738589390152683  0.3901106682156410
  0.0010610168278831  0.3388812675406712  0.9839294012414044
  0.4985003371236161  0.6539440190323873  0.9859622145963414
 
  0.00000000E+00  0.00000000E+00  0.00000000E+00
  0.00000000E+00  0.00000000E+00  0.00000000E+00
  0.00000000E+00  0.00000000E+00  0.00000000E+00
  0.00000000E+00  0.00000000E+00  0.00000000E+00
  0.00000000E+00  0.00000000E+00  0.00000000E+00
  0.00000000E+00  0.00000000E+00  0.00000000E+00
  0.00000000E+00  0.00000000E+00  0.00000000E+00
  0.00000000E+00  0.00000000E+00  0.00000000E+00
  0.00000000E+00  0.00000000E+00  0.00000000E+00
  0.00000000E+00  0.00000000E+00  0.00000000E+00
  0.00000000E+00  0.00000000E+00  0.00000000E+00
  0.00000000E+00  0.00000000E+00  0.00000000E+00
