Si   N    Li                            
   1.00000000000000     
     0.3680324974108241    0.0092847489377320    5.0585259799125701
     0.1704221759188853    5.3525043895696678    0.0080655051411277
    -4.4817414205321819    2.7819246885147249    0.3866513838423462
   Si   N    Li
     4     6     2
Direct
  0.0265776375655449  0.9953891150426273  0.6628309446322049
  0.8636731091285128  0.6590809294393836  0.3183764362067691
  0.5261046302252694  0.0005720234199487  0.3334223861890848
  0.5266480512118292  0.3074806973302984  0.6790704583119833
  0.9784348395353817  0.7049115302804339  0.0003436734864266
  0.8797521100379200  0.3085084458007401  0.6248476165158436
  0.8847997942170522  0.9551531761877854  0.3830901431918647
  0.4326318599186294  0.2690792904283512  0.0021210581478570
  0.3765499895352562  0.0493617536435806  0.6065929405082997
  0.5021175747109083  0.6555093566334236  0.3733287837932124
  0.0179755511556152  0.3207133427538977  0.9990800785729448
  0.3903660494522825  0.6408818511676060  0.0168554795781120
 
  0.00000000E+00  0.00000000E+00  0.00000000E+00
  0.00000000E+00  0.00000000E+00  0.00000000E+00
  0.00000000E+00  0.00000000E+00  0.00000000E+00
  0.00000000E+00  0.00000000E+00  0.00000000E+00
  0.00000000E+00  0.00000000E+00  0.00000000E+00
  0.00000000E+00  0.00000000E+00  0.00000000E+00
  0.00000000E+00  0.00000000E+00  0.00000000E+00
  0.00000000E+00  0.00000000E+00  0.00000000E+00
  0.00000000E+00  0.00000000E+00  0.00000000E+00
  0.00000000E+00  0.00000000E+00  0.00000000E+00
  0.00000000E+00  0.00000000E+00  0.00000000E+00
  0.00000000E+00  0.00000000E+00  0.00000000E+00
