Si   N    Li                            
   1.00000000000000     
    -0.2918064285314851    0.0019121826643723    4.8657391163780996
     0.0475412743683508    5.3802332207688357    0.0016702898577612
    -4.6102598320858448    2.6980458242611576   -0.2259391548910016
   Si   N    Li
     4     6     2
Direct
  0.0223485501946357  0.9934593529855675  0.6654972844436671
  0.8795612066156338  0.6595788844605295  0.3215589559109162
  0.5182093255652731  0.9952232647354009  0.3343682397964329
  0.5194908299417094  0.3108703170378817  0.6791845568279768
  0.9515392323251106  0.7079673836365572  0.9944667083737926
  0.8841384471144735  0.3131715240628026  0.6210608379974758
  0.8879458674081491  0.9519620669324169  0.3845859039425150
  0.4320750990769042  0.2645013416631699  0.0046294054833922
  0.3801949506735198  0.0464902450177647  0.6094538186487597
  0.4765484380297380  0.6524367846096055  0.3818852461583901
  0.0106389404761273  0.3251879392031540  0.0004314502480156
  0.4429319607832838  0.6457924066541878  0.0028376077035901
 
  0.00000000E+00  0.00000000E+00  0.00000000E+00
  0.00000000E+00  0.00000000E+00  0.00000000E+00
  0.00000000E+00  0.00000000E+00  0.00000000E+00
  0.00000000E+00  0.00000000E+00  0.00000000E+00
  0.00000000E+00  0.00000000E+00  0.00000000E+00
  0.00000000E+00  0.00000000E+00  0.00000000E+00
  0.00000000E+00  0.00000000E+00  0.00000000E+00
  0.00000000E+00  0.00000000E+00  0.00000000E+00
  0.00000000E+00  0.00000000E+00  0.00000000E+00
  0.00000000E+00  0.00000000E+00  0.00000000E+00
  0.00000000E+00  0.00000000E+00  0.00000000E+00
  0.00000000E+00  0.00000000E+00  0.00000000E+00
