Si   N    Li                            
   1.00000000000000     
    -0.5820085092209833    0.0054381926211965    4.9579415293728397
     0.0215444104703244    5.3676544648146809    0.0047288710802408
    -4.5644733701726157    2.6609741423835680   -0.4803490088249958
   Si   N    Li
     4     6     2
Direct
  0.0258456240099108  0.9951480267782884  0.6631250579834713
  0.8654091983863523  0.6592993505279381  0.3184085480012300
  0.5250714957584606  0.9996401690390115  0.3336818819338276
  0.5255129313003337  0.3079400884243881  0.6798991474821889
  0.9735757211516756  0.7058776725638438  0.9985358206959702
  0.8826466524721752  0.3102135249859828  0.6232920156217574
  0.8872917229674542  0.9549261396056394  0.3823221790247402
  0.4325853476985841  0.2677509991410361  0.0032328096159588
  0.3790641841265341  0.0482344928768939  0.6077566196819646
  0.4973066037110527  0.6544792165700031  0.3758642343901499
  0.0156795781386236  0.3220080869539075  0.9988395823527298
  0.3956191149687385  0.6411239973916381  0.0150017833710763
 
  0.00000000E+00  0.00000000E+00  0.00000000E+00
  0.00000000E+00  0.00000000E+00  0.00000000E+00
  0.00000000E+00  0.00000000E+00  0.00000000E+00
  0.00000000E+00  0.00000000E+00  0.00000000E+00
  0.00000000E+00  0.00000000E+00  0.00000000E+00
  0.00000000E+00  0.00000000E+00  0.00000000E+00
  0.00000000E+00  0.00000000E+00  0.00000000E+00
  0.00000000E+00  0.00000000E+00  0.00000000E+00
  0.00000000E+00  0.00000000E+00  0.00000000E+00
  0.00000000E+00  0.00000000E+00  0.00000000E+00
  0.00000000E+00  0.00000000E+00  0.00000000E+00
  0.00000000E+00  0.00000000E+00  0.00000000E+00
