Si   N    Li                            
   1.00000000000000     
    -0.8183217451795031    0.0035149144629287    4.9076493041029803
     0.0437930823465571    5.3698114737102847    0.0030605540497974
    -4.5299264785342030    2.6816563576262409   -0.6969860457558804
   Si   N    Li
     4     6     2
Direct
  0.0256245060824369  0.9951757224065005  0.6631122822969218
  0.8658817976136675  0.6594543493331670  0.3183934582843762
  0.5248213436316291  0.9993683299069005  0.3337572458158249
  0.5253002214812597  0.3079157318079382  0.6801636081169491
  0.9723742698463766  0.7061567194239942  0.9981122758463670
  0.8833371288988587  0.3106701628909221  0.6228794915972884
  0.8879007692957899  0.9549671912630231  0.3821474283414332
  0.4326425158027405  0.2672993927440857  0.0035676840759535
  0.3796373756621065  0.0479157291035435  0.6080173705371266
  0.4963014306815694  0.6540996519239570  0.3765288922391861
  0.0149037592004646  0.3224299681615435  0.9986636971323222
  0.3968977300076375  0.6411885620334914  0.0146165812505430
 
  0.00000000E+00  0.00000000E+00  0.00000000E+00
  0.00000000E+00  0.00000000E+00  0.00000000E+00
  0.00000000E+00  0.00000000E+00  0.00000000E+00
  0.00000000E+00  0.00000000E+00  0.00000000E+00
  0.00000000E+00  0.00000000E+00  0.00000000E+00
  0.00000000E+00  0.00000000E+00  0.00000000E+00
  0.00000000E+00  0.00000000E+00  0.00000000E+00
  0.00000000E+00  0.00000000E+00  0.00000000E+00
  0.00000000E+00  0.00000000E+00  0.00000000E+00
  0.00000000E+00  0.00000000E+00  0.00000000E+00
  0.00000000E+00  0.00000000E+00  0.00000000E+00
  0.00000000E+00  0.00000000E+00  0.00000000E+00
