Si   N    Li                            
   1.00000000000000     
     0.0750544565207258    0.0080025634988868    5.0249978297326603
    -0.0029913674108782    5.3625400458269592    0.0069532937874987
    -4.5924209177146151    2.6369257543356075    0.1207735110966689
   Si   N    Li
     4     6     2
Direct
  0.0261771502510229  0.9953174791926642  0.6630110962623519
  0.8644956551179632  0.6591967770058602  0.3183494145482584
  0.5255759946195653  0.0000213658106674  0.3336121586013334
  0.5259956583079202  0.3077714569265737  0.6795558323770337
  0.9756503648013819  0.7054806733086281  0.9992905405225443
  0.8813940215528930  0.3095064311967519  0.6239990730343905
  0.8860655383362896  0.9551041155741302  0.3825751296473712
  0.4325289781050969  0.2683476603466204  0.0027474904595834
  0.3779611751730414  0.0486624449455988  0.6072754082193441
  0.4992727263458150  0.6549218014028355  0.3747394217491333
  0.0169956261209947  0.3213659933574249  0.9990086489912997
  0.3931458229079254  0.6409625769746370  0.0157619820146806
 
  0.00000000E+00  0.00000000E+00  0.00000000E+00
  0.00000000E+00  0.00000000E+00  0.00000000E+00
  0.00000000E+00  0.00000000E+00  0.00000000E+00
  0.00000000E+00  0.00000000E+00  0.00000000E+00
  0.00000000E+00  0.00000000E+00  0.00000000E+00
  0.00000000E+00  0.00000000E+00  0.00000000E+00
  0.00000000E+00  0.00000000E+00  0.00000000E+00
  0.00000000E+00  0.00000000E+00  0.00000000E+00
  0.00000000E+00  0.00000000E+00  0.00000000E+00
  0.00000000E+00  0.00000000E+00  0.00000000E+00
  0.00000000E+00  0.00000000E+00  0.00000000E+00
  0.00000000E+00  0.00000000E+00  0.00000000E+00
