Si   N    Li                            
   1.00000000000000     
    -0.0724209600355916    0.0083231098585981    5.0333798672776400
     0.0374094389527435    5.3608969814280139    0.0072313466259060
    -4.5722790058322689    2.6706439740090171   -0.0134376508769836
   Si   N    Li
     4     6     2
Direct
  0.0262583318077105  0.9954007878899205  0.6629570263446709
  0.8643047669616664  0.6591959098981590  0.3183204233949510
  0.5257348100979655  0.0000846902441296  0.3336072532745931
  0.5261503349807768  0.3076948835437321  0.6795111233776083
  0.9761385000080907  0.7054234852769667  0.9994396776095087
  0.8811344850821143  0.3093833608833165  0.6241403832175294
  0.8857892107403913  0.9551948221785054  0.3826184382410673
  0.4325660773822904  0.2684155366800525  0.0026941237329439
  0.3777185040018765  0.0487325606963367  0.6071692031702014
  0.4997774699366246  0.6549537865629915  0.3745206671343340
  0.0173510844006799  0.3212274271989699  0.9990302891370462
  0.3925735575722769  0.6409393123527920  0.0159417306729566
 
  0.00000000E+00  0.00000000E+00  0.00000000E+00
  0.00000000E+00  0.00000000E+00  0.00000000E+00
  0.00000000E+00  0.00000000E+00  0.00000000E+00
  0.00000000E+00  0.00000000E+00  0.00000000E+00
  0.00000000E+00  0.00000000E+00  0.00000000E+00
  0.00000000E+00  0.00000000E+00  0.00000000E+00
  0.00000000E+00  0.00000000E+00  0.00000000E+00
  0.00000000E+00  0.00000000E+00  0.00000000E+00
  0.00000000E+00  0.00000000E+00  0.00000000E+00
  0.00000000E+00  0.00000000E+00  0.00000000E+00
  0.00000000E+00  0.00000000E+00  0.00000000E+00
  0.00000000E+00  0.00000000E+00  0.00000000E+00
