Hf   Al   Mg   N                        
   1.00000000000000     
    -9.4521879541693679   -0.0025537659604710    0.0003263799403480
    -4.7237261705699902    8.1819197325724318   -0.0000008671457081
     0.0004394203419576    0.0002524660725359  -10.0657128439206627
   Hf   Al   Mg   N 
     1    34     1    36
Direct
  0.1111518745314911  0.0944240344374770  0.3020669407667638
  0.2227826294126481  0.2087114497786199  0.0434114592505031
  0.7767052330427385  0.0934416329653108  0.7992508623916533
  0.8826216657844753  0.2086891767660969  0.5543835339635913
  0.4497910385933529  0.0945621093936911  0.2976413744513912
  0.5557689665064449  0.2075144647682494  0.0488382675431286
  0.1111506368209311  0.0944246466338170  0.7970912062449046
  0.2254363457950906  0.2080459898676527  0.5545043818910295
  0.7720103335157342  0.0943108076188421  0.2970227254386647
  0.8845135403680078  0.2077432414146400  0.0436881683652896
  0.4462551979911171  0.0938235015223016  0.7993786894692586
  0.5558325627744075  0.2053032366706749  0.5492306934364384
  0.1104804339195480  0.4322700817113846  0.2976744201305909
  0.7767052478843430  0.4298530896519314  0.7992508623082991
  0.8881401648277361  0.5394243426033482  0.5490340429152654
  0.4460432534485461  0.4269783845462035  0.2983440352201400
  0.5557689791849634  0.5367165838298283  0.0488382640344707
  0.1107379064649961  0.4303502612677599  0.7972738630699135
  0.2223290186636411  0.5388354992975367  0.5502985453110132
  0.7720103538650948  0.4336788816670715  0.2970227148810458
  0.8898042195399061  0.5374077449122574  0.0492204838956846
  0.4430719302566734  0.4284640249453011  0.7975356317586294
  0.5558325786027082  0.5388642262585545  0.5492306937648098
  0.1104804252246156  0.7572494887172423  0.2976744292722289
  0.2227826263438739  0.8685059177144040  0.0434114587525559
  0.7782556532047513  0.7608721519511410  0.7994365187933414
  0.8881401498482623  0.8724355276791155  0.5490340474750873
  0.4497910335687093  0.7556468617211631  0.2976413757181599
  0.5563004568681538  0.8718497801272200  0.0486476389724734
  0.1107378942869273  0.7589117846229555  0.7972738639968749
  0.2254363556024288  0.8665176472642437  0.5545043807289121
  0.7780597633597980  0.7609701293274250  0.2983955890398063
  0.8898041975025861  0.8727880702778360  0.0492204877935962
  0.4462552025157180  0.7599212654349953  0.7993786901083511
  0.5561419310162899  0.8719290493774249  0.5492458454462736
  0.2225387159915054  0.5387306595900826  0.0498052811524445
  0.2321717845745372  0.2127126350104019  0.3642392498053609
  0.1117433423764552  0.0941282874551063  0.0956609144468472
  0.8883246874992131  0.2058376757853080  0.8539730392124486
  0.7768766801662229  0.0936297519604479  0.6091759734502267
  0.5557585431071831  0.2048825414470776  0.3594832440264294
  0.4440295265040857  0.0945388916212903  0.1070901156679910
  0.2225096746477066  0.2057780172404708  0.8531903847758302
  0.1106804928946023  0.0946597040373710  0.6013517537267169
  0.8708358306731649  0.2145821446409834  0.3627818685076788
  0.7777373454111668  0.0946552679606011  0.1070235056633681
  0.5555571358071577  0.2057879339577776  0.8577670278502032
  0.4465539309163423  0.0931447552505708  0.6092825664402034
  0.2229154392900097  0.5385423227673968  0.3580709370777438
  0.1039146012024614  0.4190267419065478  0.1122970382847089
  0.8888397614519531  0.5390378496282676  0.8578476870309025
  0.7768766933948420  0.4294935065687664  0.6091759771833917
  0.5557585572980500  0.5393590087304548  0.3594832428226722
  0.4590335852769618  0.4204831758197087  0.1125770755958310
  0.2224405357810980  0.5387797527504766  0.8450367168051304
  0.1090608680403887  0.4288363114482174  0.6066399066252447
  0.8878945325527549  0.5389108876949421  0.3585162871369359
  0.7777373573416656  0.4276073319449973  0.1070234970031246
  0.5555571513994868  0.5386549812771606  0.8577670276880901
  0.4461677542391844  0.4269160981852652  0.6057862512711786
  0.2321717949306296  0.8551156401585946  0.3642392611497538
  0.1039145729603589  0.7770585961596228  0.1122970420107051
  0.8888397493727166  0.8721224434175328  0.8578476866723556
  0.7775577436342477  0.7612210966641693  0.6080331787108334
  0.5549367247341072  0.8725316875158503  0.3574462967817549
  0.4440295278569756  0.7614315140068502  0.1070901139755336
  0.2225096791343805  0.8717123264656715  0.8531903857965312
  0.1090608541184468  0.7621027478384725  0.6066399091691265
  0.8878945181538889  0.8731947109633963  0.3585162921718377
  0.7779421951184409  0.7610288681762174  0.1080622293593254
  0.5560222339465566  0.8719889105513480  0.8582455250642679
  0.4465539411317282  0.7603012468292248  0.6092825704583195
