Hf   Al   Mg   N                        
   1.00000000000000     
    -9.8541511830384270   -0.0021332771830739    0.0001099190387980
    -4.9223215391517297    8.5288361972262514   -0.0000003512286617
    -0.0012722253363868   -0.0007353441725873   -8.8874977117745733
   Hf   Al   Mg   N 
     1    34     1    36
Direct
  0.1104778214057271  0.0947623060068034  0.3546063384992156
  0.2257485355678163  0.2084987490427433  0.1069273312746692
  0.7753784333880396  0.0917203889415820  0.8688742504294029
  0.8845402127904982  0.2077289978903456  0.6289389986221099
  0.4488148447671051  0.0940287131284175  0.3716491235530581
  0.5575310970307836  0.2044218827416579  0.1210241777549992
  0.1116857796112552  0.0941579110810815  0.8683943949814005
  0.2238931086421928  0.2084840907690856  0.6268962860709674
  0.7732607024101400  0.0950675856351021  0.3719829260143004
  0.8798185872561934  0.2100895704270268  0.1057122365354179
  0.4484008548396553  0.0927369034444311  0.8685515291509366
  0.5545887228694771  0.2079006767070914  0.6195572061738984
  0.1117641271921491  0.4316209103504581  0.3659375413661317
  0.7753784430549248  0.4329017816668493  0.8688741752424947
  0.8893779662476965  0.5391940041306776  0.6180610638209604
  0.4442154199390113  0.4278931359936426  0.3649713550245293
  0.5575312229226438  0.5380463715653898  0.1210244496261731
  0.1084012550849232  0.4317435695912920  0.8718831841888093
  0.2236563714553663  0.5381715037575159  0.6111129947630006
  0.7732605056642828  0.4316721739429150  0.3719828957343389
  0.8876739371231102  0.5382515075212028  0.1214708238671311
  0.4451982968401199  0.4274017313520509  0.8739130089276287
  0.5545887051032670  0.5375100084279421  0.6195569543044749
  0.1117638723698711  0.7566165477224108  0.3659372818067715
  0.2257482761127585  0.8657517606602749  0.1069267808386151
  0.7784547058739645  0.7607728970662238  0.8710295502120242
  0.8893780899722297  0.8714264089594872  0.6180611510385526
  0.4488145067553755  0.7571582874111809  0.3716488182900293
  0.5558645397495783  0.8720674181739138  0.1194780204293809
  0.1084013760654418  0.7598561548355357  0.8718834779636089
  0.2238929438474880  0.8676220140223073  0.6268965629170712
  0.7772568937747465  0.7613717288660392  0.3688615989634960
  0.8876742918390227  0.8740724131205430  0.1214708097050515
  0.4484008580886477  0.7588637657835194  0.8685518750617004
  0.5567501957343819  0.8716244086385805  0.6203642568020726
  0.2227680302342239  0.5386149261893941  0.1136298491245890
  0.2324306989754540  0.2122976782003212  0.3355115625525377
  0.1112320541147289  0.0943852111097538  0.0947735582957007
  0.8879731694484709  0.2060120815185219  0.8476662081385848
  0.7781822415106557  0.0953771014637975  0.5917220067927701
  0.5562162084442974  0.2038502974110422  0.3413098609487538
  0.4474350760769638  0.0929590002563428  0.0873691513131177
  0.2235757159412473  0.2049211318055848  0.8455845179196061
  0.1102389974719510  0.0948816230277381  0.5994798932302716
  0.8700792044543786  0.2149586797268304  0.3329223508980881
  0.7760376095900430  0.0926867512256253  0.0870153832418232
  0.5552377314073406  0.2058060507125920  0.8372488686541124
  0.4440738779794017  0.0943165129906300  0.5916636201601381
  0.2226570655603556  0.5386703553822825  0.3544919156945292
  0.1021059822683942  0.4234915030511765  0.0892493005938964
  0.8873982918972895  0.5411059790836941  0.8366301812382879
  0.7781822764285496  0.4264423505920741  0.5917218180389843
  0.5562161604309935  0.5399317017131547  0.3413100095232228
  0.4594839999671757  0.4202596324417478  0.0921313318845038
  0.2232299606917749  0.5383838759787033  0.8374754158993034
  0.1104101613423513  0.4257858436465539  0.5902951163803171
  0.8878334332664635  0.5383405631036864  0.3421678778410979
  0.7760377249132926  0.4312770522228817  0.0870156330464572
  0.5552378684154413  0.5389544000408849  0.8372487172970341
  0.4468770575004639  0.4265629567261047  0.5872724426640558
  0.2324299561404042  0.8552702835784262  0.3355115008991911
  0.1021062922079272  0.7744049749487566  0.0892495449645929
  0.8873984320810341  0.8714926328456771  0.8366303686829240
  0.7772010400304238  0.7614004639295189  0.5871422181241358
  0.5543814712765918  0.8728083242765068  0.3399195338898136
  0.4474348632981813  0.7596089439995753  0.0873696216003156
  0.2235757437630039  0.8715010142201050  0.8455849590491352
  0.1104102065106867  0.7638067998111893  0.5902950751460431
  0.8878331573278699  0.8738227254976025  0.3421677381416077
  0.7777968915666481  0.7611023576835289  0.0918269023326189
  0.5573497474307290  0.8713240635824657  0.8390765055762129
  0.4440734690705117  0.7616125444440627  0.5916632777681468
