Al   Sc   N                             
   1.00000000000000     
    -9.8115105851433579    0.0057244663339570   -0.0012550626362989
    -4.9103190199660558    8.5254363150245922    0.0010590903424886
    -0.0024972163411644    0.0004406964442318   -9.8739176308311407
   Al   Sc   N 
    28     8    36
Direct
  0.1085518962680254  0.0963884512377007  0.3230127651145125
  0.2296610527421308  0.1956367751401373  0.0772473536752400
  0.7778964076728343  0.0981189135950586  0.8269150124222762
  0.8864022194867047  0.2071393763592084  0.5756045467241648
  0.4406139117119494  0.0945232244741376  0.3257412416714089
  0.5544488559084471  0.2047260946055829  0.0731888120103932
  0.1055702694227918  0.0983977068554012  0.8266939223653296
  0.2177836255373720  0.2076469550447513  0.5722534912526953
  0.7816045406734631  0.0951526260597504  0.3226442282347861
  0.8859824483810783  0.2026278549881155  0.0733950307481592
  0.4425717872603840  0.0969084517857937  0.8237191301351032
  0.5628890851497843  0.1954484159531518  0.5768003530898156
  0.1176320784130880  0.4217836354433899  0.3188738241397360
  0.2301193723750359  0.5407013357344468  0.0710444439238245
  0.7788117142815452  0.4178459598720252  0.8220042427306709
  0.8905508386430085  0.5279886360824264  0.5655068936147458
  0.5590725922629858  0.5240847349329840  0.0746011300355036
  0.7786960966489573  0.4182153122622196  0.3274729463804107
  0.4557909414617285  0.4195541900938125  0.8210463282243907
  0.5664186912831184  0.5390480072653787  0.5750498892175031
  0.1105429477286464  0.7651095498033555  0.3178445168723201
  0.2149546356991721  0.8783570007998804  0.0767816933309504
  0.8871733836845408  0.8840253117535681  0.5707692839885041
  0.4427627492733492  0.7631724238909570  0.3152705721893909
  0.5538469244249953  0.8837792994225637  0.0775899011472063
  0.1046534416533902  0.7740480255845625  0.8322643952877655
  0.8865708866195234  0.8809419797350344  0.0768684600483880
  0.5482011571402978  0.8755001300580574  0.5711162512329651
  0.4470075146119115  0.4247291356900718  0.3393839508151544
  0.1113968531646492  0.4212209552769650  0.8442504189646201
  0.2152492736510396  0.5427661359900569  0.5911334181391084
  0.8812406139821363  0.5381767834415072  0.0966638469684469
  0.7791975001780216  0.7651355036368130  0.8231728072990308
  0.2238442147788717  0.8759713594749527  0.5802676567014373
  0.7747229158902655  0.7695641667039084  0.3460128256115382
  0.4484326833997585  0.7557167265304017  0.8491770946949089
  0.2214322790664767  0.2061933162953409  0.3766338022522646
  0.1070068617629261  0.0979430931021383  0.1300100021609651
  0.8885962566966654  0.2048532079290268  0.8795406510299060
  0.7774034597088928  0.0961102267301328  0.6331248110862759
  0.5687574361387462  0.1798516148207128  0.3842183653791906
  0.4438937503935065  0.0975322105926537  0.1332191708454005
  0.2327024858137250  0.1823043722048538  0.8858432647247270
  0.1002523991076885  0.1136074160641627  0.6325316128510607
  0.8891418799552966  0.2031074432964743  0.3821140933003804
  0.7750754186519231  0.0975271057951872  0.1289496304964217
  0.5539464607438518  0.2044021242667355  0.8771533965976985
  0.4406244235089289  0.0959327211434626  0.6290567163578800
  0.2008830707081373  0.5510798577687339  0.3743629316343586
  0.1326750631698843  0.4172844519449583  0.1180515170135124
  0.8716474491539827  0.5325482224975815  0.8833094434841584
  0.7804859619268498  0.4245159764229030  0.6263761218082848
  0.5648934029078774  0.5517315198631110  0.3812642916900586
  0.4441281323178572  0.4242801509819287  0.1239629423054041
  0.2346946043935816  0.5504731960802616  0.8706908078563842
  0.0994493225091304  0.4188328363831744  0.6279246611897022
  0.8998334216480046  0.5165176295411982  0.3645644592733603
  0.7666907434764170  0.4104198713371119  0.1378712571459886
  0.5706043582675449  0.5103723359923009  0.8830575254235171
  0.4663411357631304  0.4164994903284978  0.6206142376811954
  0.2237791316229050  0.8714580965258989  0.3624813257143344
  0.1107161073727525  0.7611377665700658  0.1239103397476242
  0.8928003122226968  0.8867171113160879  0.8862897099994171
  0.7779350091198367  0.7619753000275153  0.5965212970022975
  0.5279655545619875  0.8847265134876992  0.3791316414590256
  0.4470177468629331  0.7577090463029066  0.1147473579976150
  0.2036495529375415  0.8867152098785382  0.8813341107941568
  0.0887981642506759  0.7782389344773080  0.6416450847699906
  0.9029630133200399  0.8867916491684653  0.3799524872172455
  0.7688288627470072  0.7831509290351590  0.1269928673262370
  0.5506232624018708  0.8930630304853437  0.8870520162464004
  0.4650830337535510  0.7501872105652510  0.6340469037730614
 
  0.00000000E+00  0.00000000E+00  0.00000000E+00
  0.00000000E+00  0.00000000E+00  0.00000000E+00
  0.00000000E+00  0.00000000E+00  0.00000000E+00
  0.00000000E+00  0.00000000E+00  0.00000000E+00
  0.00000000E+00  0.00000000E+00  0.00000000E+00
  0.00000000E+00  0.00000000E+00  0.00000000E+00
  0.00000000E+00  0.00000000E+00  0.00000000E+00
  0.00000000E+00  0.00000000E+00  0.00000000E+00
  0.00000000E+00  0.00000000E+00  0.00000000E+00
  0.00000000E+00  0.00000000E+00  0.00000000E+00
  0.00000000E+00  0.00000000E+00  0.00000000E+00
  0.00000000E+00  0.00000000E+00  0.00000000E+00
  0.00000000E+00  0.00000000E+00  0.00000000E+00
  0.00000000E+00  0.00000000E+00  0.00000000E+00
  0.00000000E+00  0.00000000E+00  0.00000000E+00
  0.00000000E+00  0.00000000E+00  0.00000000E+00
  0.00000000E+00  0.00000000E+00  0.00000000E+00
  0.00000000E+00  0.00000000E+00  0.00000000E+00
  0.00000000E+00  0.00000000E+00  0.00000000E+00
  0.00000000E+00  0.00000000E+00  0.00000000E+00
  0.00000000E+00  0.00000000E+00  0.00000000E+00
  0.00000000E+00  0.00000000E+00  0.00000000E+00
  0.00000000E+00  0.00000000E+00  0.00000000E+00
  0.00000000E+00  0.00000000E+00  0.00000000E+00
  0.00000000E+00  0.00000000E+00  0.00000000E+00
  0.00000000E+00  0.00000000E+00  0.00000000E+00
  0.00000000E+00  0.00000000E+00  0.00000000E+00
  0.00000000E+00  0.00000000E+00  0.00000000E+00
  0.00000000E+00  0.00000000E+00  0.00000000E+00
  0.00000000E+00  0.00000000E+00  0.00000000E+00
  0.00000000E+00  0.00000000E+00  0.00000000E+00
  0.00000000E+00  0.00000000E+00  0.00000000E+00
  0.00000000E+00  0.00000000E+00  0.00000000E+00
  0.00000000E+00  0.00000000E+00  0.00000000E+00
  0.00000000E+00  0.00000000E+00  0.00000000E+00
  0.00000000E+00  0.00000000E+00  0.00000000E+00
  0.00000000E+00  0.00000000E+00  0.00000000E+00
  0.00000000E+00  0.00000000E+00  0.00000000E+00
  0.00000000E+00  0.00000000E+00  0.00000000E+00
  0.00000000E+00  0.00000000E+00  0.00000000E+00
  0.00000000E+00  0.00000000E+00  0.00000000E+00
  0.00000000E+00  0.00000000E+00  0.00000000E+00
  0.00000000E+00  0.00000000E+00  0.00000000E+00
  0.00000000E+00  0.00000000E+00  0.00000000E+00
  0.00000000E+00  0.00000000E+00  0.00000000E+00
  0.00000000E+00  0.00000000E+00  0.00000000E+00
  0.00000000E+00  0.00000000E+00  0.00000000E+00
  0.00000000E+00  0.00000000E+00  0.00000000E+00
  0.00000000E+00  0.00000000E+00  0.00000000E+00
  0.00000000E+00  0.00000000E+00  0.00000000E+00
  0.00000000E+00  0.00000000E+00  0.00000000E+00
  0.00000000E+00  0.00000000E+00  0.00000000E+00
  0.00000000E+00  0.00000000E+00  0.00000000E+00
  0.00000000E+00  0.00000000E+00  0.00000000E+00
  0.00000000E+00  0.00000000E+00  0.00000000E+00
  0.00000000E+00  0.00000000E+00  0.00000000E+00
  0.00000000E+00  0.00000000E+00  0.00000000E+00
  0.00000000E+00  0.00000000E+00  0.00000000E+00
  0.00000000E+00  0.00000000E+00  0.00000000E+00
  0.00000000E+00  0.00000000E+00  0.00000000E+00
  0.00000000E+00  0.00000000E+00  0.00000000E+00
  0.00000000E+00  0.00000000E+00  0.00000000E+00
  0.00000000E+00  0.00000000E+00  0.00000000E+00
  0.00000000E+00  0.00000000E+00  0.00000000E+00
  0.00000000E+00  0.00000000E+00  0.00000000E+00
  0.00000000E+00  0.00000000E+00  0.00000000E+00
  0.00000000E+00  0.00000000E+00  0.00000000E+00
  0.00000000E+00  0.00000000E+00  0.00000000E+00
  0.00000000E+00  0.00000000E+00  0.00000000E+00
  0.00000000E+00  0.00000000E+00  0.00000000E+00
  0.00000000E+00  0.00000000E+00  0.00000000E+00
  0.00000000E+00  0.00000000E+00  0.00000000E+00
