Al   Sc   N                             
   1.00000000000000     
    -9.7526214800327615    0.0053489550963892    0.0046775534090058
    -4.8771415365406137    8.4734732353267610    0.0031980622592554
     0.0087570940601090   -0.0004757753442462  -10.0437359430845934
   Al   Sc   N 
    28     8    36
Direct
  0.1058626849495568  0.1023157046351884  0.3763574450359144
  0.2269131622036582  0.2028312753281654  0.1342904449537201
  0.7790664561504244  0.0984243006654140  0.8799941125494755
  0.8863620639017356  0.2084211292249449  0.6311154304696416
  0.4413809293449233  0.0946721841684379  0.3820690177163186
  0.5600976818014942  0.1951899499335852  0.1281502166636059
  0.1069657791485170  0.0948298639694869  0.8856700072622701
  0.2215274348847984  0.2011778165637281  0.6293659396972942
  0.7803576809257464  0.0946030724036362  0.3828561118325311
  0.8846263884615624  0.2026177869126897  0.1323099604144460
  0.4412670727417449  0.0963069479356307  0.8812637795855593
  0.5584062771970437  0.2030886871079147  0.6335669358165887
  0.1097277708820599  0.4218646763741916  0.3867375632674026
  0.2196838401821992  0.5411714077442937  0.1336490588113932
  0.7761529789707637  0.4142051404508251  0.8799347435527594
  0.8828691307173600  0.5347915564515944  0.6333346205422785
  0.5577351490984555  0.5393771433393013  0.1322841442437621
  0.7818449570682660  0.4229500155925265  0.3852540251811476
  0.4496380458858624  0.4239045514936919  0.8883178944458336
  0.5666086490849978  0.5272488767248547  0.6308652246297086
  0.1045337632022765  0.7698029935846762  0.3754728225305328
  0.2221560200745074  0.8740398832731842  0.1370842945143025
  0.8855234860265497  0.8805767906336115  0.6336970187496647
  0.4479957306651698  0.7607115352363323  0.3816618795163791
  0.5462948041323514  0.8799469703166167  0.1368206610359692
  0.1110364976109111  0.7692488071397534  0.8878377915963398
  0.8880185266902458  0.8817051964819527  0.1320966702753523
  0.5551694703283871  0.8765128154730633  0.6293104984885218
  0.4520306623810626  0.4217836057651780  0.3620099333830638
  0.1194603079160643  0.4217257892351185  0.8687653257661196
  0.2261413467452229  0.5424113088809932  0.6201313158812738
  0.8897436011220847  0.5313152044604479  0.1254389958364612
  0.7754303421039808  0.7695514465356723  0.8734768188435211
  0.2165837563973696  0.8816076241779740  0.6193918434379100
  0.7787255560853552  0.7641875186240199  0.3757649768308013
  0.4434247070395259  0.7570687205151216  0.8741380195210908
  0.2233751298337481  0.2065185078850007  0.3256155546261041
  0.1091613343491673  0.0965890208109101  0.0805404782463270
  0.8912145302828947  0.2020463542377513  0.8226351896477979
  0.7758135096564800  0.0965166122227359  0.5756103552367904
  0.5686982657477913  0.1785790947768078  0.3174811672776201
  0.4422090424440057  0.0938278747861716  0.0726649560861432
  0.2297160064123105  0.1832119295258536  0.8190497312718108
  0.0964985595514563  0.1178386966660838  0.5643270278608838
  0.8845538611091825  0.2072786496166970  0.3233642663798264
  0.7776557477131476  0.0950308155079114  0.0701093766334182
  0.5530173419647753  0.2057060140332254  0.8284241317733958
  0.4429335234860048  0.0972516327550963  0.5729702462864310
  0.2014757673250855  0.5489788506216939  0.3294107126822823
  0.1318651340013020  0.4163591370272215  0.0782597920820365
  0.8766534382256737  0.5280479650154746  0.8271619564567700
  0.7792741671566077  0.4239539808730157  0.5751245859895988
  0.5702984024977908  0.5484775449588994  0.3206756520422260
  0.4454137604092665  0.4262307154346132  0.0888452259176375
  0.2347447674920602  0.5537969681547139  0.8325439180844398
  0.1034764148751606  0.4198573764744538  0.5836740071351514
  0.8982198563634611  0.5194533333889595  0.3348851742118910
  0.7675896588142237  0.4134058392822269  0.0686833834990210
  0.5660544764641173  0.5144774224934920  0.8210595256578372
  0.4675932757200201  0.4136766451437239  0.5714206282254253
  0.2233961598095178  0.8740893396329241  0.3324411661215123
  0.1107998892341584  0.7631794155125888  0.0805492006727562
  0.8993627813010718  0.8849089623602850  0.8228720553323328
  0.7792114769312093  0.7620069600864809  0.5941080607966214
  0.5348087277989464  0.8840720378248932  0.3259722850421269
  0.4433037592573825  0.7614602401751824  0.0859511785065976
  0.2039626392760923  0.8847419045274307  0.8303354964714700
  0.0883422788696038  0.7754965527151754  0.5619333758141210
  0.8958742095073688  0.8876395507519703  0.3187061412179730
  0.7675167049828531  0.7797097339687795  0.0922628342151199
  0.5432364733751740  0.8920327973732043  0.8159132068632502
  0.4653371453328745  0.7474326978068575  0.5764485699024888
 
  0.00000000E+00  0.00000000E+00  0.00000000E+00
  0.00000000E+00  0.00000000E+00  0.00000000E+00
  0.00000000E+00  0.00000000E+00  0.00000000E+00
  0.00000000E+00  0.00000000E+00  0.00000000E+00
  0.00000000E+00  0.00000000E+00  0.00000000E+00
  0.00000000E+00  0.00000000E+00  0.00000000E+00
  0.00000000E+00  0.00000000E+00  0.00000000E+00
  0.00000000E+00  0.00000000E+00  0.00000000E+00
  0.00000000E+00  0.00000000E+00  0.00000000E+00
  0.00000000E+00  0.00000000E+00  0.00000000E+00
  0.00000000E+00  0.00000000E+00  0.00000000E+00
  0.00000000E+00  0.00000000E+00  0.00000000E+00
  0.00000000E+00  0.00000000E+00  0.00000000E+00
  0.00000000E+00  0.00000000E+00  0.00000000E+00
  0.00000000E+00  0.00000000E+00  0.00000000E+00
  0.00000000E+00  0.00000000E+00  0.00000000E+00
  0.00000000E+00  0.00000000E+00  0.00000000E+00
  0.00000000E+00  0.00000000E+00  0.00000000E+00
  0.00000000E+00  0.00000000E+00  0.00000000E+00
  0.00000000E+00  0.00000000E+00  0.00000000E+00
  0.00000000E+00  0.00000000E+00  0.00000000E+00
  0.00000000E+00  0.00000000E+00  0.00000000E+00
  0.00000000E+00  0.00000000E+00  0.00000000E+00
  0.00000000E+00  0.00000000E+00  0.00000000E+00
  0.00000000E+00  0.00000000E+00  0.00000000E+00
  0.00000000E+00  0.00000000E+00  0.00000000E+00
  0.00000000E+00  0.00000000E+00  0.00000000E+00
  0.00000000E+00  0.00000000E+00  0.00000000E+00
  0.00000000E+00  0.00000000E+00  0.00000000E+00
  0.00000000E+00  0.00000000E+00  0.00000000E+00
  0.00000000E+00  0.00000000E+00  0.00000000E+00
  0.00000000E+00  0.00000000E+00  0.00000000E+00
  0.00000000E+00  0.00000000E+00  0.00000000E+00
  0.00000000E+00  0.00000000E+00  0.00000000E+00
  0.00000000E+00  0.00000000E+00  0.00000000E+00
  0.00000000E+00  0.00000000E+00  0.00000000E+00
  0.00000000E+00  0.00000000E+00  0.00000000E+00
  0.00000000E+00  0.00000000E+00  0.00000000E+00
  0.00000000E+00  0.00000000E+00  0.00000000E+00
  0.00000000E+00  0.00000000E+00  0.00000000E+00
  0.00000000E+00  0.00000000E+00  0.00000000E+00
  0.00000000E+00  0.00000000E+00  0.00000000E+00
  0.00000000E+00  0.00000000E+00  0.00000000E+00
  0.00000000E+00  0.00000000E+00  0.00000000E+00
  0.00000000E+00  0.00000000E+00  0.00000000E+00
  0.00000000E+00  0.00000000E+00  0.00000000E+00
  0.00000000E+00  0.00000000E+00  0.00000000E+00
  0.00000000E+00  0.00000000E+00  0.00000000E+00
  0.00000000E+00  0.00000000E+00  0.00000000E+00
  0.00000000E+00  0.00000000E+00  0.00000000E+00
  0.00000000E+00  0.00000000E+00  0.00000000E+00
  0.00000000E+00  0.00000000E+00  0.00000000E+00
  0.00000000E+00  0.00000000E+00  0.00000000E+00
  0.00000000E+00  0.00000000E+00  0.00000000E+00
  0.00000000E+00  0.00000000E+00  0.00000000E+00
  0.00000000E+00  0.00000000E+00  0.00000000E+00
  0.00000000E+00  0.00000000E+00  0.00000000E+00
  0.00000000E+00  0.00000000E+00  0.00000000E+00
  0.00000000E+00  0.00000000E+00  0.00000000E+00
  0.00000000E+00  0.00000000E+00  0.00000000E+00
  0.00000000E+00  0.00000000E+00  0.00000000E+00
  0.00000000E+00  0.00000000E+00  0.00000000E+00
  0.00000000E+00  0.00000000E+00  0.00000000E+00
  0.00000000E+00  0.00000000E+00  0.00000000E+00
  0.00000000E+00  0.00000000E+00  0.00000000E+00
  0.00000000E+00  0.00000000E+00  0.00000000E+00
  0.00000000E+00  0.00000000E+00  0.00000000E+00
  0.00000000E+00  0.00000000E+00  0.00000000E+00
  0.00000000E+00  0.00000000E+00  0.00000000E+00
  0.00000000E+00  0.00000000E+00  0.00000000E+00
  0.00000000E+00  0.00000000E+00  0.00000000E+00
  0.00000000E+00  0.00000000E+00  0.00000000E+00
