supercell of 100% icsd_608626.cif, 0% i 
   1.00000000000000     
    -9.4042645711544832    0.0000000610768200    0.0000005117877595
    -4.7021323392527234    8.1333868987582765    0.0014908601631552
     0.0000005418367764   -0.0018451958638648   -9.9781108483688108
   Be   Al   Ti   N 
     2    32     2    36
Direct
  0.1164415345226928  0.0907680259357377  0.2897170919757670
  0.7761239387569532  0.0907679245601543  0.2897170682081480
  0.2200621216178362  0.2043110673377697  0.0506626717220655
  0.7775156176262570  0.0941774303927190  0.8006962167939236
  0.4421465517432566  0.0990399297635207  0.2937341087301562
  0.5589596768330836  0.2043108748338511  0.0506626555349001
  0.1116399836857696  0.0941776433573196  0.8006961169838220
  0.2198538423920624  0.2075113225635477  0.5385552249161449
  0.8909288787118683  0.2014753475131528  0.0547159243501198
  0.4426317654118961  0.0980693354386091  0.8008137470853285
  0.5559682225808302  0.2075111170567467  0.5385552633369599
  0.1122321490208407  0.4249948834931985  0.2947818098242649
  0.2219340400353786  0.5394654093783657  0.0460924038160613
  0.7783180206450524  0.4266972522150851  0.7993549213923075
  0.8928892761474927  0.5370562947537181  0.5427337344454770
  0.4461067913317152  0.4249944696362462  0.2947818454104478
  0.5558199015789640  0.5378628180732861  0.0464960306756765
  0.1120338641608072  0.4268326605857737  0.7964407706766394
  0.2220102874165164  0.5393134326861642  0.5436880540499800
  0.7791116911832674  0.4251104707586535  0.2939390371578696
  0.8896505336581697  0.5378630328370804  0.0464960714453397
  0.4444668127780460  0.4268323602678592  0.7964407071554191
  0.5533884336252015  0.5370562088583881  0.5427336841039008
  0.1075115001298173  0.7683111722706997  0.2948017649552312
  0.2195495814222070  0.8756497357251121  0.0503128066247029
  0.7809850188256107  0.7602575210880715  0.8003516879093624
  0.8912446905121314  0.8727164115634025  0.5389485991138372
  0.4388031688153617  0.7629702757936627  0.2932661571953048
  0.5554177570460297  0.8724975958817041  0.0450666370514057
  0.1107486150803894  0.7618358334898261  0.7966269759019298
  0.2193722596337437  0.8727164272270826  0.5389485777703271
  0.7815598568538960  0.7629706671527998  0.2932663284240746
  0.8881340403984623  0.8756496365916391  0.0503128583283541
  0.4420904683063469  0.7602572555706146  0.8003517837494556
  0.8906566128312434  0.2020199185646092  0.5383139412752627
  0.5554292933066662  0.8724746867267541  0.5496445183415872
  0.2200303707965432  0.2021472714415111  0.3505779510295284
  0.1115841496605441  0.0942961628141461  0.1102102299451460
  0.8891773859111609  0.2049783684875166  0.8564579086695190
  0.7743136493144505  0.0911281850578121  0.6075089928276824
  0.5611557578854374  0.2021468395342296  0.3505779628128991
  0.4449242302164649  0.0934842100302120  0.1029881522924114
  0.2217506880459936  0.2058830049382721  0.8567328957755080
  0.1178912440391144  0.0911283603455786  0.6075089156063882
  0.8912624471288595  0.2008084915143868  0.3500907221800347
  0.7774526429213680  0.0942961135168972  0.1102101301149503
  0.5556994637573780  0.2058826612009526  0.8567328548630258
  0.4409653639141027  0.1014022547623910  0.6060082570291527
  0.2214424968983764  0.5404490108828597  0.3533192619564574
  0.1109513911732023  0.4285479347528280  0.1037707583438703
  0.8894631764833960  0.5381102064884331  0.8542223631398116
  0.7752641945913581  0.4328056538895169  0.6045350656492516
  0.5551511053174565  0.5399936298509829  0.3533090900461886
  0.4438341653175044  0.4285476674181297  0.1037707724994803
  0.2221875005700298  0.5389584635950300  0.8534677270423217
  0.1117878398267891  0.4269148700780292  0.6040961437354468
  0.8881890115057303  0.5399939554938484  0.3533091680662679
  0.7775875706414226  0.4281583468564918  0.1036790146148334
  0.5557600270623553  0.5381099323019356  0.8542223077537727
  0.4446313212922419  0.4269147185939701  0.6040960548304994
  0.2193292188488982  0.8793317049655158  0.3510577053213737
  0.1112611136112065  0.7608110495124123  0.1038545528375820
  0.8894335060285741  0.8721997799310870  0.8566198541328731
  0.7847215929853490  0.7581674266857661  0.6061481798329353
  0.5558043378365056  0.8717246857375756  0.3547133092304051
  0.4452089458485133  0.7610780952448977  0.1026506074805198
  0.2216995459783035  0.8722000186371659  0.8566198030778622
  0.1105573579640620  0.7622187239228566  0.6038664625240955
  0.8846730282044319  0.8793316366747064  0.3510576842694064
  0.7770460479778407  0.7610782282432780  0.1026507547574553
  0.5556270635051206  0.8720785720307660  0.8504923692092206
  0.4404442483140230  0.7581673146250978  0.6061482200702244
 
  0.00000000E+00  0.00000000E+00  0.00000000E+00
  0.00000000E+00  0.00000000E+00  0.00000000E+00
  0.00000000E+00  0.00000000E+00  0.00000000E+00
  0.00000000E+00  0.00000000E+00  0.00000000E+00
  0.00000000E+00  0.00000000E+00  0.00000000E+00
  0.00000000E+00  0.00000000E+00  0.00000000E+00
  0.00000000E+00  0.00000000E+00  0.00000000E+00
  0.00000000E+00  0.00000000E+00  0.00000000E+00
  0.00000000E+00  0.00000000E+00  0.00000000E+00
  0.00000000E+00  0.00000000E+00  0.00000000E+00
  0.00000000E+00  0.00000000E+00  0.00000000E+00
  0.00000000E+00  0.00000000E+00  0.00000000E+00
  0.00000000E+00  0.00000000E+00  0.00000000E+00
  0.00000000E+00  0.00000000E+00  0.00000000E+00
  0.00000000E+00  0.00000000E+00  0.00000000E+00
  0.00000000E+00  0.00000000E+00  0.00000000E+00
  0.00000000E+00  0.00000000E+00  0.00000000E+00
  0.00000000E+00  0.00000000E+00  0.00000000E+00
  0.00000000E+00  0.00000000E+00  0.00000000E+00
  0.00000000E+00  0.00000000E+00  0.00000000E+00
  0.00000000E+00  0.00000000E+00  0.00000000E+00
  0.00000000E+00  0.00000000E+00  0.00000000E+00
  0.00000000E+00  0.00000000E+00  0.00000000E+00
  0.00000000E+00  0.00000000E+00  0.00000000E+00
  0.00000000E+00  0.00000000E+00  0.00000000E+00
  0.00000000E+00  0.00000000E+00  0.00000000E+00
  0.00000000E+00  0.00000000E+00  0.00000000E+00
  0.00000000E+00  0.00000000E+00  0.00000000E+00
  0.00000000E+00  0.00000000E+00  0.00000000E+00
  0.00000000E+00  0.00000000E+00  0.00000000E+00
  0.00000000E+00  0.00000000E+00  0.00000000E+00
  0.00000000E+00  0.00000000E+00  0.00000000E+00
  0.00000000E+00  0.00000000E+00  0.00000000E+00
  0.00000000E+00  0.00000000E+00  0.00000000E+00
  0.00000000E+00  0.00000000E+00  0.00000000E+00
  0.00000000E+00  0.00000000E+00  0.00000000E+00
  0.00000000E+00  0.00000000E+00  0.00000000E+00
  0.00000000E+00  0.00000000E+00  0.00000000E+00
  0.00000000E+00  0.00000000E+00  0.00000000E+00
  0.00000000E+00  0.00000000E+00  0.00000000E+00
  0.00000000E+00  0.00000000E+00  0.00000000E+00
  0.00000000E+00  0.00000000E+00  0.00000000E+00
  0.00000000E+00  0.00000000E+00  0.00000000E+00
  0.00000000E+00  0.00000000E+00  0.00000000E+00
  0.00000000E+00  0.00000000E+00  0.00000000E+00
  0.00000000E+00  0.00000000E+00  0.00000000E+00
  0.00000000E+00  0.00000000E+00  0.00000000E+00
  0.00000000E+00  0.00000000E+00  0.00000000E+00
  0.00000000E+00  0.00000000E+00  0.00000000E+00
  0.00000000E+00  0.00000000E+00  0.00000000E+00
  0.00000000E+00  0.00000000E+00  0.00000000E+00
  0.00000000E+00  0.00000000E+00  0.00000000E+00
  0.00000000E+00  0.00000000E+00  0.00000000E+00
  0.00000000E+00  0.00000000E+00  0.00000000E+00
  0.00000000E+00  0.00000000E+00  0.00000000E+00
  0.00000000E+00  0.00000000E+00  0.00000000E+00
  0.00000000E+00  0.00000000E+00  0.00000000E+00
  0.00000000E+00  0.00000000E+00  0.00000000E+00
  0.00000000E+00  0.00000000E+00  0.00000000E+00
  0.00000000E+00  0.00000000E+00  0.00000000E+00
  0.00000000E+00  0.00000000E+00  0.00000000E+00
  0.00000000E+00  0.00000000E+00  0.00000000E+00
  0.00000000E+00  0.00000000E+00  0.00000000E+00
  0.00000000E+00  0.00000000E+00  0.00000000E+00
  0.00000000E+00  0.00000000E+00  0.00000000E+00
  0.00000000E+00  0.00000000E+00  0.00000000E+00
  0.00000000E+00  0.00000000E+00  0.00000000E+00
  0.00000000E+00  0.00000000E+00  0.00000000E+00
  0.00000000E+00  0.00000000E+00  0.00000000E+00
  0.00000000E+00  0.00000000E+00  0.00000000E+00
  0.00000000E+00  0.00000000E+00  0.00000000E+00
  0.00000000E+00  0.00000000E+00  0.00000000E+00
