supercell of 100% icsd_608626.cif, 0% i 
   1.00000000000000     
    -9.3860092311260370    0.0026417023422621   -0.0008171410637290
    -4.6952926934020249    8.1365304127115667    0.0015054294927259
    -0.0008756137584685   -0.0023653666686252   -9.9888447568186720
   Al   Be   Ti   N 
    32     2     2    36
Direct
  0.1087409179764762  0.0960411261149616  0.2954705030672002
  0.2160857078070464  0.2107585683850388  0.0495108833847695
  0.8860587405047937  0.2061530003385741  0.5483817493828766
  0.4448279541899893  0.0949064881637085  0.2935163996905601
  0.5598886770526832  0.2054019021438691  0.0462597648266510
  0.1026829117586345  0.0986828139688143  0.7943501049811701
  0.2190763359481736  0.2078186566812121  0.5434558751839518
  0.7786481548115205  0.0946627464281278  0.2965249380596831
  0.8863482875421198  0.2083612066662184  0.0422133446705431
  0.5603963509983316  0.2056092976072819  0.5465231594046926
  0.1068937118388433  0.4299445189026017  0.2911443622513374
  0.2199860943208520  0.5360747022118275  0.0494535809535321
  0.7796298651923550  0.4253012814363615  0.7997742098345881
  0.8879962117461488  0.5385004823166639  0.5463665735552823
  0.4451589178959665  0.4275580439946012  0.2949454882279738
  0.5605057367578397  0.5377098071845552  0.0464968052628976
  0.1037972662594555  0.4302319276369531  0.7982787505399997
  0.2229768193173385  0.5359356677899427  0.5435818702492838
  0.7801203834099084  0.4281507479198368  0.2904088172911372
  0.4501197037322200  0.4260028464888848  0.7944406752127833
  0.5578587677306999  0.5375269654431349  0.5444088337454289
  0.1097534114193692  0.7614821278444524  0.2941906761374113
  0.2231445272527068  0.8739726307120463  0.0494920464169084
  0.7814719855245755  0.7553031146689193  0.7984387877184247
  0.8834197077005541  0.8767310748620076  0.5471124201405004
  0.4452538586943504  0.7600410046004029  0.2954240445860634
  0.5614517951672298  0.8660597573460720  0.0501950915977716
  0.2229338716977267  0.8740088176849454  0.5432920704844975
  0.7806646298667346  0.7573401779971221  0.2913674629362646
  0.8846858515042157  0.8726463832967539  0.0467078539170132
  0.4474887521810587  0.7571349880371585  0.7938601020542677
  0.5582912805898275  0.8691478130625256  0.5432178954424458
  0.7804956748363523  0.0993634304913726  0.7894761054608352
  0.8884192094868411  0.5379844148188013  0.0427361829109003
  0.4482622053651255  0.0946524725162163  0.8009507669083575
  0.1068486626761569  0.7645852114832579  0.8011076389697749
  0.2222343899028445  0.2061730010358716  0.3528908961834674
  0.1097506350281634  0.0949026864551783  0.1045476483534316
  0.8842431601063510  0.2012475819031891  0.8513850560092706
  0.7778502873139388  0.0946885567543703  0.6096823614771765
  0.5552998920577323  0.2054747227421529  0.3550727197131565
  0.4446595192874554  0.0943539376314675  0.0998234932136910
  0.2166907965352749  0.2074954661735617  0.8556100167239933
  0.1115669516745967  0.0944491291151053  0.6038593777363630
  0.8881701147667513  0.2067584584685420  0.3561390263278312
  0.7789459165614048  0.0939818732287137  0.1066823006282078
  0.5653984533113459  0.2049010337041963  0.8533588747283147
  0.4444866900992324  0.0943854503740980  0.6037164042748131
  0.2214676369143831  0.5391591551479493  0.3529447624942676
  0.1037340041709669  0.4315030662589265  0.1020713933485098
  0.8879122903541585  0.5381715923205519  0.8594543725347421
  0.7773845143415343  0.4283381498371668  0.6067193441962857
  0.5565848059347900  0.5383789532854166  0.3536976417449011
  0.4448466275817395  0.4278713717398048  0.1037243862828490
  0.2257406075802777  0.5326655263960234  0.8552547293955897
  0.1111748253092415  0.4277256576797939  0.6061390557446629
  0.8885871685261293  0.5388156202637902  0.3568354013811259
  0.7818761093077882  0.4299342882518360  0.1008168856149325
  0.5546465342827460  0.5396680377870240  0.8546926559704673
  0.4441131703030194  0.4284363715808013  0.6038755341269990
  0.2217305223369763  0.8722127452747941  0.3531959607793596
  0.1108921992333052  0.7617267073288119  0.1006490867913143
  0.8803678595192039  0.8809304159716405  0.8531975840610784
  0.7775053573121582  0.7608285799968471  0.6063985745584404
  0.5561318384500140  0.8724107743196043  0.3528431810724157
  0.4444860626249465  0.7607046453845143  0.1049267289180023
  0.2258615408540052  0.8764422167931016  0.8557505043787685
  0.1110528037250518  0.7611464274475495  0.6038789187749529
  0.8887716022346481  0.8717216152534277  0.3552539246660871
  0.7823792630983206  0.7538853471351743  0.1019382491116048
  0.5586466948656366  0.8654932146560483  0.8564814290763252
  0.4444262137396677  0.7612314050578206  0.6034156841487572
 
  0.00000000E+00  0.00000000E+00  0.00000000E+00
  0.00000000E+00  0.00000000E+00  0.00000000E+00
  0.00000000E+00  0.00000000E+00  0.00000000E+00
  0.00000000E+00  0.00000000E+00  0.00000000E+00
  0.00000000E+00  0.00000000E+00  0.00000000E+00
  0.00000000E+00  0.00000000E+00  0.00000000E+00
  0.00000000E+00  0.00000000E+00  0.00000000E+00
  0.00000000E+00  0.00000000E+00  0.00000000E+00
  0.00000000E+00  0.00000000E+00  0.00000000E+00
  0.00000000E+00  0.00000000E+00  0.00000000E+00
  0.00000000E+00  0.00000000E+00  0.00000000E+00
  0.00000000E+00  0.00000000E+00  0.00000000E+00
  0.00000000E+00  0.00000000E+00  0.00000000E+00
  0.00000000E+00  0.00000000E+00  0.00000000E+00
  0.00000000E+00  0.00000000E+00  0.00000000E+00
  0.00000000E+00  0.00000000E+00  0.00000000E+00
  0.00000000E+00  0.00000000E+00  0.00000000E+00
  0.00000000E+00  0.00000000E+00  0.00000000E+00
  0.00000000E+00  0.00000000E+00  0.00000000E+00
  0.00000000E+00  0.00000000E+00  0.00000000E+00
  0.00000000E+00  0.00000000E+00  0.00000000E+00
  0.00000000E+00  0.00000000E+00  0.00000000E+00
  0.00000000E+00  0.00000000E+00  0.00000000E+00
  0.00000000E+00  0.00000000E+00  0.00000000E+00
  0.00000000E+00  0.00000000E+00  0.00000000E+00
  0.00000000E+00  0.00000000E+00  0.00000000E+00
  0.00000000E+00  0.00000000E+00  0.00000000E+00
  0.00000000E+00  0.00000000E+00  0.00000000E+00
  0.00000000E+00  0.00000000E+00  0.00000000E+00
  0.00000000E+00  0.00000000E+00  0.00000000E+00
  0.00000000E+00  0.00000000E+00  0.00000000E+00
  0.00000000E+00  0.00000000E+00  0.00000000E+00
  0.00000000E+00  0.00000000E+00  0.00000000E+00
  0.00000000E+00  0.00000000E+00  0.00000000E+00
  0.00000000E+00  0.00000000E+00  0.00000000E+00
  0.00000000E+00  0.00000000E+00  0.00000000E+00
  0.00000000E+00  0.00000000E+00  0.00000000E+00
  0.00000000E+00  0.00000000E+00  0.00000000E+00
  0.00000000E+00  0.00000000E+00  0.00000000E+00
  0.00000000E+00  0.00000000E+00  0.00000000E+00
  0.00000000E+00  0.00000000E+00  0.00000000E+00
  0.00000000E+00  0.00000000E+00  0.00000000E+00
  0.00000000E+00  0.00000000E+00  0.00000000E+00
  0.00000000E+00  0.00000000E+00  0.00000000E+00
  0.00000000E+00  0.00000000E+00  0.00000000E+00
  0.00000000E+00  0.00000000E+00  0.00000000E+00
  0.00000000E+00  0.00000000E+00  0.00000000E+00
  0.00000000E+00  0.00000000E+00  0.00000000E+00
  0.00000000E+00  0.00000000E+00  0.00000000E+00
  0.00000000E+00  0.00000000E+00  0.00000000E+00
  0.00000000E+00  0.00000000E+00  0.00000000E+00
  0.00000000E+00  0.00000000E+00  0.00000000E+00
  0.00000000E+00  0.00000000E+00  0.00000000E+00
  0.00000000E+00  0.00000000E+00  0.00000000E+00
  0.00000000E+00  0.00000000E+00  0.00000000E+00
  0.00000000E+00  0.00000000E+00  0.00000000E+00
  0.00000000E+00  0.00000000E+00  0.00000000E+00
  0.00000000E+00  0.00000000E+00  0.00000000E+00
  0.00000000E+00  0.00000000E+00  0.00000000E+00
  0.00000000E+00  0.00000000E+00  0.00000000E+00
  0.00000000E+00  0.00000000E+00  0.00000000E+00
  0.00000000E+00  0.00000000E+00  0.00000000E+00
  0.00000000E+00  0.00000000E+00  0.00000000E+00
  0.00000000E+00  0.00000000E+00  0.00000000E+00
  0.00000000E+00  0.00000000E+00  0.00000000E+00
  0.00000000E+00  0.00000000E+00  0.00000000E+00
  0.00000000E+00  0.00000000E+00  0.00000000E+00
  0.00000000E+00  0.00000000E+00  0.00000000E+00
  0.00000000E+00  0.00000000E+00  0.00000000E+00
  0.00000000E+00  0.00000000E+00  0.00000000E+00
  0.00000000E+00  0.00000000E+00  0.00000000E+00
  0.00000000E+00  0.00000000E+00  0.00000000E+00
