supercell of 100% icsd_608626.cif, 0% i 
   1.00000000000000     
    -9.3924601505635366    0.0002881650841997   -0.0022560598515712
    -4.6964796392345445    8.1339650606496257   -0.0022565271229536
    -0.0024067826649721    0.0013901367954270   -9.9887113403163976
   Al   Ti   Be   N 
    32     2     2    36
Direct
  0.1055834684637489  0.0983959488576787  0.2944065674272167
  0.2215944157760532  0.2100666400603899  0.0464730552392894
  0.8887853297660158  0.2054524295266091  0.5395863874437268
  0.4461077887424736  0.0989965911339965  0.2947861475252083
  0.5533928912492314  0.2088367865895648  0.0536401368570907
  0.1141769207538061  0.0946918828934642  0.7952059125378597
  0.2212604801377580  0.2073724806508679  0.5443680190747386
  0.8883624443058267  0.2050285008721460  0.0536265988017632
  0.4411680183302735  0.0951193854945984  0.7947066099277293
  0.5551134306939929  0.2067396705421203  0.5396155391906063
  0.1127678295529719  0.4294343010262978  0.2907513087462164
  0.7780254533964310  0.4308440176393873  0.7952061719452246
  0.8907051134473889  0.5379280499394312  0.5443678928162541
  0.4426589910651799  0.4236578118008936  0.2906367591037693
  0.5539361901887361  0.5344900706935860  0.0445466737846658
  0.1128199772588943  0.4294867066667223  0.7993055189868059
  0.2218883382850834  0.5385555439850833  0.5462147090438449
  0.7817299887057629  0.4222501374260332  0.2944064765270156
  0.8934002193791883  0.5382614776291348  0.0464732891078583
  0.4381014634547924  0.4320994799492439  0.7989585847743825
  0.5562510350708720  0.5357736216952205  0.5489867132616055
  0.1069911931891028  0.7593253254674366  0.2906366123148061
  0.2178239038430974  0.8706019072530466  0.0445468316557935
  0.7784533925865986  0.7578341583519617  0.7947068302576739
  0.8900726627669968  0.8717802053065924  0.5396156620322472
  0.5574637056523315  0.8741299696631302  0.0439354150473790
  0.1154321420246944  0.7547681393288812  0.7989586800218191
  0.2191071844133248  0.8729170453063517  0.5489865943948544
  0.7823299138439808  0.7627749716426280  0.2947861607141959
  0.8921691288279945  0.8700606579104218  0.0536402079648184
  0.4441969738685358  0.7608644834899536  0.7950716822419466
  0.5568162589740453  0.8734824500681100  0.5485618379270676
  0.7776887545017530  0.0943559475293299  0.8030467650462683
  0.4442349329585866  0.7609005810903824  0.2985333767672387
  0.7776399076968161  0.0943068096497228  0.2919786452135682
  0.2220620055608578  0.5387286951384667  0.0429462889657231
  0.2222716012161783  0.2055753585342401  0.3533734138205986
  0.1129518547011372  0.0934351788162786  0.1038382397968363
  0.8925084148335358  0.2091752983778434  0.8577171732446018
  0.7776973871603801  0.0943641927042407  0.6064924669692289
  0.5626965710356586  0.2028384392611571  0.3505493775131612
  0.4442270273099851  0.0933798551188829  0.1044000552240831
  0.2223081876528639  0.2055429276937062  0.8544640839596553
  0.1100155889519243  0.0954103940201421  0.6039695786150787
  0.8850862053814978  0.2017529218725187  0.3507386401274388
  0.7773731270044308  0.0940405278608551  0.1039043079202742
  0.5490301042465688  0.2081400735521086  0.8575163824510739
  0.4444881608820026  0.0955254967663279  0.6037652371006956
  0.2225739535605484  0.5392403935091750  0.3564681328285531
  0.1145913946137824  0.4312577789475114  0.1015518320575168
  0.8888766294204444  0.5389747841271912  0.8544644755395154
  0.7787440597016655  0.4266824263276092  0.6039698588515066
  0.5577773672956496  0.5331126574148115  0.3560760065906692
  0.4370132186287847  0.4321675927950395  0.1016628090421818
  0.2219042779537830  0.5385708849003379  0.8597249371003599
  0.1110550374003054  0.4277223174220808  0.6062151909251838
  0.8889087629037817  0.5389386563923537  0.3533733257570120
  0.7767693698738256  0.4296180848068047  0.1038381823406880
  0.5558679790541987  0.5389574303031139  0.8529945227454192
  0.4445983630003383  0.4265468471675860  0.6063219264820461
  0.2164467242327035  0.8744431037434595  0.3560758266662063
  0.1155002951857966  0.7536799975327639  0.1016626868434187
  0.8914729428062600  0.8656971955052626  0.8575164945916853
  0.7788589141547106  0.7611549237328106  0.6037655551615515
  0.5583711121834796  0.8750375260482173  0.3562445374795544
  0.4446770391289192  0.7613430824855527  0.1025203600664284
  0.2222903568996486  0.8725345148669561  0.8529946480082060
  0.1098797568861869  0.7612652080558746  0.6063220456131546
  0.8861719121329656  0.8793633247979926  0.3505495148968905
  0.7767133155512695  0.7608938724798548  0.1044002079449200
  0.5555709582497670  0.8722371468258672  0.8524955948979454
  0.4444001800718098  0.7610667029646621  0.6018417081383376
 
  0.00000000E+00  0.00000000E+00  0.00000000E+00
  0.00000000E+00  0.00000000E+00  0.00000000E+00
  0.00000000E+00  0.00000000E+00  0.00000000E+00
  0.00000000E+00  0.00000000E+00  0.00000000E+00
  0.00000000E+00  0.00000000E+00  0.00000000E+00
  0.00000000E+00  0.00000000E+00  0.00000000E+00
  0.00000000E+00  0.00000000E+00  0.00000000E+00
  0.00000000E+00  0.00000000E+00  0.00000000E+00
  0.00000000E+00  0.00000000E+00  0.00000000E+00
  0.00000000E+00  0.00000000E+00  0.00000000E+00
  0.00000000E+00  0.00000000E+00  0.00000000E+00
  0.00000000E+00  0.00000000E+00  0.00000000E+00
  0.00000000E+00  0.00000000E+00  0.00000000E+00
  0.00000000E+00  0.00000000E+00  0.00000000E+00
  0.00000000E+00  0.00000000E+00  0.00000000E+00
  0.00000000E+00  0.00000000E+00  0.00000000E+00
  0.00000000E+00  0.00000000E+00  0.00000000E+00
  0.00000000E+00  0.00000000E+00  0.00000000E+00
  0.00000000E+00  0.00000000E+00  0.00000000E+00
  0.00000000E+00  0.00000000E+00  0.00000000E+00
  0.00000000E+00  0.00000000E+00  0.00000000E+00
  0.00000000E+00  0.00000000E+00  0.00000000E+00
  0.00000000E+00  0.00000000E+00  0.00000000E+00
  0.00000000E+00  0.00000000E+00  0.00000000E+00
  0.00000000E+00  0.00000000E+00  0.00000000E+00
  0.00000000E+00  0.00000000E+00  0.00000000E+00
  0.00000000E+00  0.00000000E+00  0.00000000E+00
  0.00000000E+00  0.00000000E+00  0.00000000E+00
  0.00000000E+00  0.00000000E+00  0.00000000E+00
  0.00000000E+00  0.00000000E+00  0.00000000E+00
  0.00000000E+00  0.00000000E+00  0.00000000E+00
  0.00000000E+00  0.00000000E+00  0.00000000E+00
  0.00000000E+00  0.00000000E+00  0.00000000E+00
  0.00000000E+00  0.00000000E+00  0.00000000E+00
  0.00000000E+00  0.00000000E+00  0.00000000E+00
  0.00000000E+00  0.00000000E+00  0.00000000E+00
  0.00000000E+00  0.00000000E+00  0.00000000E+00
  0.00000000E+00  0.00000000E+00  0.00000000E+00
  0.00000000E+00  0.00000000E+00  0.00000000E+00
  0.00000000E+00  0.00000000E+00  0.00000000E+00
  0.00000000E+00  0.00000000E+00  0.00000000E+00
  0.00000000E+00  0.00000000E+00  0.00000000E+00
  0.00000000E+00  0.00000000E+00  0.00000000E+00
  0.00000000E+00  0.00000000E+00  0.00000000E+00
  0.00000000E+00  0.00000000E+00  0.00000000E+00
  0.00000000E+00  0.00000000E+00  0.00000000E+00
  0.00000000E+00  0.00000000E+00  0.00000000E+00
  0.00000000E+00  0.00000000E+00  0.00000000E+00
  0.00000000E+00  0.00000000E+00  0.00000000E+00
  0.00000000E+00  0.00000000E+00  0.00000000E+00
  0.00000000E+00  0.00000000E+00  0.00000000E+00
  0.00000000E+00  0.00000000E+00  0.00000000E+00
  0.00000000E+00  0.00000000E+00  0.00000000E+00
  0.00000000E+00  0.00000000E+00  0.00000000E+00
  0.00000000E+00  0.00000000E+00  0.00000000E+00
  0.00000000E+00  0.00000000E+00  0.00000000E+00
  0.00000000E+00  0.00000000E+00  0.00000000E+00
  0.00000000E+00  0.00000000E+00  0.00000000E+00
  0.00000000E+00  0.00000000E+00  0.00000000E+00
  0.00000000E+00  0.00000000E+00  0.00000000E+00
  0.00000000E+00  0.00000000E+00  0.00000000E+00
  0.00000000E+00  0.00000000E+00  0.00000000E+00
  0.00000000E+00  0.00000000E+00  0.00000000E+00
  0.00000000E+00  0.00000000E+00  0.00000000E+00
  0.00000000E+00  0.00000000E+00  0.00000000E+00
  0.00000000E+00  0.00000000E+00  0.00000000E+00
  0.00000000E+00  0.00000000E+00  0.00000000E+00
  0.00000000E+00  0.00000000E+00  0.00000000E+00
  0.00000000E+00  0.00000000E+00  0.00000000E+00
  0.00000000E+00  0.00000000E+00  0.00000000E+00
  0.00000000E+00  0.00000000E+00  0.00000000E+00
  0.00000000E+00  0.00000000E+00  0.00000000E+00
