supercell of 100% icsd_608626.cif, 0% i 
   1.00000000000000     
    -9.8335276636242419    0.0190287709669081   -0.0090233457886710
    -4.9332857493359246    8.4438333171038664    0.0014680174437808
    -0.0095096354912880   -0.0073540760301480  -10.2846951299171785
   Al   Hf   Ca   N 
    28     4     4    36
Direct
  0.1126616625831787  0.0891664004839186  0.3024354455371210
  0.7697773060536761  0.0894471142463047  0.7964721313631173
  0.4548213161434873  0.0852464845431129  0.2992335041981065
  0.2313482421578072  0.2077225829373788  0.5330052329285735
  0.7755100020347214  0.0905138001849721  0.2973772410317537
  0.8906186497887205  0.1947582678415287  0.0465353353929387
  0.4441309223379548  0.0990897108205928  0.7908737118429272
  0.5460929940871964  0.2096072520641172  0.5471577453042968
  0.1137208855268597  0.4342999349073224  0.2937081009374012
  0.2227132409041062  0.5457795711646583  0.0451966169035600
  0.4435135488516693  0.4306829879687015  0.3005863002980789
  0.5455399866585537  0.5475739448473789  0.0468527654605140
  0.1265799672975945  0.4297515569111923  0.8027542700257797
  0.2272652021055990  0.5420550014843002  0.5407367309923572
  0.7724763044315424  0.4323709106579940  0.2846933538100771
  0.8930009808360353  0.5469557211901090  0.0450166376723615
  0.4397591983782405  0.4325241325764466  0.7917405118931171
  0.5405117837268776  0.5435159024740841  0.5431863495764091
  0.1108017562695593  0.7595164157803396  0.2976996010145214
  0.2254638601381203  0.8654223003357302  0.0540829171186488
  0.7804630806791053  0.7664988088266185  0.8065815697894081
  0.8918329866404022  0.8687613914250605  0.5375642942358141
  0.4486065504394858  0.7604788478292264  0.2911417085769941
  0.5610945352126819  0.8598489413070638  0.0404965077523514
  0.2261450127575770  0.8611569634910410  0.5309695479639984
  0.7721405392716889  0.7652340156569011  0.2872844275971929
  0.8879752245815453  0.8703645693023603  0.0506675458568395
  0.4346462314379238  0.7554047468047926  0.8030724140614467
  0.2223175876871366  0.2042250708815914  0.0605977325323650
  0.8833886239144704  0.2033954233277271  0.5422630564446536
  0.5626312651996841  0.2073183205627558  0.0405636035734105
  0.8965371733736021  0.5397710953919983  0.5484719211198410
  0.1193993656266841  0.0931270661835981  0.7907296547661957
  0.7730997243138589  0.4344914724808433  0.8188489428904830
  0.1029193246433167  0.7682264817159563  0.7993614397470381
  0.5517719658800715  0.8669593679532781  0.5624462663624428
  0.2264257928518916  0.2076708622602723  0.3385976493902518
  0.1021255486255654  0.0871593330080316  0.1141200664890505
  0.8753416641187783  0.1818549637851987  0.8666471859718925
  0.7674285725205010  0.0847057169227483  0.6026402146315988
  0.5554382443328265  0.2052973608995217  0.3534000669624859
  0.4620585271129229  0.0770878080993000  0.1092393358027053
  0.2403053852182211  0.2187647034845881  0.8651356565104535
  0.1253156188120172  0.0907621199959578  0.5616568477092017
  0.8824165955964389  0.2085739924449683  0.3403540315174425
  0.7888922829015002  0.0867286083017262  0.1162160659962623
  0.5521562432494207  0.2088504361575119  0.8384815873746163
  0.4280599748900400  0.1230251890448599  0.6074553612314659
  0.2243906426464335  0.5362335790989690  0.3530060756093860
  0.1065884877503152  0.4452750634540052  0.1107891596125086
  0.9153004830767841  0.5532762858110587  0.8613181615913987
  0.7595780696535712  0.4397607753585362  0.5911588957202625
  0.5551610960798570  0.5394389288499113  0.3519577632883326
  0.4387103555457443  0.4397963516483614  0.1150063784431694
  0.2422105754669772  0.5143438352239329  0.8654010138317929
  0.1306536432486851  0.4207213888621126  0.6056174880288694
  0.8899234408378831  0.5394468836862245  0.3422522168197588
  0.7786996541462372  0.4292887759348574  0.0949452970459745
  0.5238327101650100  0.5474038552574712  0.8673417601684292
  0.4438888101796650  0.4275236692269857  0.5992376706094547
  0.2279198880271309  0.8661532362675572  0.3432698042648141
  0.1081850914322686  0.7606132000543582  0.1069926622953687
  0.8475332505233268  0.8952130107190044  0.8741729799524052
  0.8074723526073768  0.7592855318121536  0.6208637381729858
  0.5580297552550846  0.8680359572923280  0.3389981610132722
  0.4487682989760486  0.7601913916673553  0.1076822947089866
  0.2436936794086222  0.8671593667745725  0.8801241072961972
  0.1076995354264270  0.7649639026515658  0.5707354590301463
  0.8840990996644109  0.8712880006714130  0.3492936857891564
  0.7767162807990218  0.7607359607193658  0.1030348829486627
  0.5547157217366490  0.8678633192120202  0.8464485591789384
  0.4189876251455686  0.7442440587802395  0.6160025784200798
 
  0.00000000E+00  0.00000000E+00  0.00000000E+00
  0.00000000E+00  0.00000000E+00  0.00000000E+00
  0.00000000E+00  0.00000000E+00  0.00000000E+00
  0.00000000E+00  0.00000000E+00  0.00000000E+00
  0.00000000E+00  0.00000000E+00  0.00000000E+00
  0.00000000E+00  0.00000000E+00  0.00000000E+00
  0.00000000E+00  0.00000000E+00  0.00000000E+00
  0.00000000E+00  0.00000000E+00  0.00000000E+00
  0.00000000E+00  0.00000000E+00  0.00000000E+00
  0.00000000E+00  0.00000000E+00  0.00000000E+00
  0.00000000E+00  0.00000000E+00  0.00000000E+00
  0.00000000E+00  0.00000000E+00  0.00000000E+00
  0.00000000E+00  0.00000000E+00  0.00000000E+00
  0.00000000E+00  0.00000000E+00  0.00000000E+00
  0.00000000E+00  0.00000000E+00  0.00000000E+00
  0.00000000E+00  0.00000000E+00  0.00000000E+00
  0.00000000E+00  0.00000000E+00  0.00000000E+00
  0.00000000E+00  0.00000000E+00  0.00000000E+00
  0.00000000E+00  0.00000000E+00  0.00000000E+00
  0.00000000E+00  0.00000000E+00  0.00000000E+00
  0.00000000E+00  0.00000000E+00  0.00000000E+00
  0.00000000E+00  0.00000000E+00  0.00000000E+00
  0.00000000E+00  0.00000000E+00  0.00000000E+00
  0.00000000E+00  0.00000000E+00  0.00000000E+00
  0.00000000E+00  0.00000000E+00  0.00000000E+00
  0.00000000E+00  0.00000000E+00  0.00000000E+00
  0.00000000E+00  0.00000000E+00  0.00000000E+00
  0.00000000E+00  0.00000000E+00  0.00000000E+00
  0.00000000E+00  0.00000000E+00  0.00000000E+00
  0.00000000E+00  0.00000000E+00  0.00000000E+00
  0.00000000E+00  0.00000000E+00  0.00000000E+00
  0.00000000E+00  0.00000000E+00  0.00000000E+00
  0.00000000E+00  0.00000000E+00  0.00000000E+00
  0.00000000E+00  0.00000000E+00  0.00000000E+00
  0.00000000E+00  0.00000000E+00  0.00000000E+00
  0.00000000E+00  0.00000000E+00  0.00000000E+00
  0.00000000E+00  0.00000000E+00  0.00000000E+00
  0.00000000E+00  0.00000000E+00  0.00000000E+00
  0.00000000E+00  0.00000000E+00  0.00000000E+00
  0.00000000E+00  0.00000000E+00  0.00000000E+00
  0.00000000E+00  0.00000000E+00  0.00000000E+00
  0.00000000E+00  0.00000000E+00  0.00000000E+00
  0.00000000E+00  0.00000000E+00  0.00000000E+00
  0.00000000E+00  0.00000000E+00  0.00000000E+00
  0.00000000E+00  0.00000000E+00  0.00000000E+00
  0.00000000E+00  0.00000000E+00  0.00000000E+00
  0.00000000E+00  0.00000000E+00  0.00000000E+00
  0.00000000E+00  0.00000000E+00  0.00000000E+00
  0.00000000E+00  0.00000000E+00  0.00000000E+00
  0.00000000E+00  0.00000000E+00  0.00000000E+00
  0.00000000E+00  0.00000000E+00  0.00000000E+00
  0.00000000E+00  0.00000000E+00  0.00000000E+00
  0.00000000E+00  0.00000000E+00  0.00000000E+00
  0.00000000E+00  0.00000000E+00  0.00000000E+00
  0.00000000E+00  0.00000000E+00  0.00000000E+00
  0.00000000E+00  0.00000000E+00  0.00000000E+00
  0.00000000E+00  0.00000000E+00  0.00000000E+00
  0.00000000E+00  0.00000000E+00  0.00000000E+00
  0.00000000E+00  0.00000000E+00  0.00000000E+00
  0.00000000E+00  0.00000000E+00  0.00000000E+00
  0.00000000E+00  0.00000000E+00  0.00000000E+00
  0.00000000E+00  0.00000000E+00  0.00000000E+00
  0.00000000E+00  0.00000000E+00  0.00000000E+00
  0.00000000E+00  0.00000000E+00  0.00000000E+00
  0.00000000E+00  0.00000000E+00  0.00000000E+00
  0.00000000E+00  0.00000000E+00  0.00000000E+00
  0.00000000E+00  0.00000000E+00  0.00000000E+00
  0.00000000E+00  0.00000000E+00  0.00000000E+00
  0.00000000E+00  0.00000000E+00  0.00000000E+00
  0.00000000E+00  0.00000000E+00  0.00000000E+00
  0.00000000E+00  0.00000000E+00  0.00000000E+00
  0.00000000E+00  0.00000000E+00  0.00000000E+00
