supercell of 100% icsd_608626.cif, 0% i 
   1.00000000000000     
    -9.7726636038066648    0.0187518042120444   -0.0243650740034809
    -4.9026299939108400    8.5356017323812612   -0.0188689122882333
    -0.0258370814950163    0.0084050184032886  -10.2354354489405459
   Al   Ca   Hf   N 
    28     4     4    36
Direct
  0.1044366771329805  0.0970418926349765  0.2922535281625613
  0.2182271015762467  0.2061301655314622  0.0482492838210931
  0.7747342537102071  0.1124990807098740  0.8034928482190509
  0.8870613307513580  0.2182177340374167  0.5514999142108863
  0.4430146019043448  0.1009017763798354  0.2960184621854935
  0.5543566274274241  0.2164490963755483  0.0459173424665948
  0.1050688682606236  0.1082081671749648  0.8007779174587100
  0.2174931713629817  0.2054421568358791  0.5415064520047110
  0.7705606503704630  0.1152025431298469  0.2933335643302470
  0.8875846072849995  0.2138008178641186  0.0422575169000226
  0.5557870792477573  0.2082480073251674  0.5436440899503268
  0.1089431615607594  0.4218271102935205  0.2898020660959091
  0.2316920925054688  0.5204761977195105  0.0420104143101341
  0.7806449038483336  0.4252583581797609  0.7999411119902646
  0.8862952811246956  0.5305982759425234  0.5396367382966858
  0.4496825655546672  0.4212469502014358  0.2911811784221143
  0.5571191806883604  0.5357111676692625  0.0408618686329376
  0.1091222789008341  0.4125708080915160  0.8063208179170971
  0.7820270378576026  0.4195071472396421  0.2942450538897745
  0.8890762695502588  0.5287347733104752  0.0463163074180883
  0.4545702093293116  0.4232991629963720  0.8030305840917507
  0.5688373341874069  0.5323185435327034  0.5541427137673907
  0.1194711375728588  0.7545546848754228  0.2788311762345757
  0.2277703915053308  0.8799999790513766  0.0350104181491275
  0.5527788320676166  0.8682107511391379  0.0468507638925786
  0.7775975922132687  0.7498954099700725  0.2977980974927803
  0.4536168023773186  0.7590544175168006  0.7992310401190323
  0.5548255407469540  0.8757085662769057  0.5371185425944418
  0.4458632253508981  0.0979626401167266  0.8048403378068159
  0.7816161444364553  0.7537612120495893  0.7902384667487681
  0.1123057197762947  0.7558718400805091  0.8208322431522888
  0.2220971969656205  0.8810988692804713  0.5694362678126055
  0.2263510527295125  0.5260246638991148  0.5495302039756496
  0.8795749830117359  0.8848236451211164  0.5262415543048888
  0.4434767386052698  0.7564159715829319  0.3018279454059183
  0.8770503909318350  0.8822888054990798  0.0668141014991903
  0.2182981250128364  0.2051767846043830  0.3493131234497824
  0.1069657994945601  0.0949000602616579  0.1053205138871505
  0.8878235703049597  0.2106859614831649  0.8564892779501889
  0.7701075053522501  0.1133398700419619  0.6071410425293067
  0.5558422840102963  0.2086778360559052  0.3535232939055817
  0.4470450836639870  0.0968514649901877  0.1044769264784051
  0.1972375483450435  0.2136663161767842  0.8700038786619189
  0.0917144030230261  0.1316170728915367  0.6140058298687734
  0.8892106129208486  0.2066151218088521  0.3592433376607289
  0.7667707596894289  0.1236900637408596  0.1129203659096021
  0.5734161372257205  0.2256136919918674  0.8670938892478901
  0.4437488910081768  0.0969949142020070  0.5750834667151281
  0.2229820708728738  0.5356947106973777  0.3415833568897497
  0.1102354163069990  0.4264285104397558  0.1068613383728731
  0.9001240463810234  0.5106438882610576  0.8652541253951327
  0.7793665781457051  0.4293193833413227  0.6079689966409987
  0.5653058602039991  0.5183611594574487  0.3606032561378711
  0.4446255038228770  0.4307984283914550  0.1068594498813340
  0.2426335222880027  0.4943621730935774  0.8561928518600794
  0.1003248077638048  0.4200169930222870  0.6071128661217102
  0.8906777267776178  0.5293559890585655  0.3504915287067192
  0.7745823129080520  0.4270360254563386  0.1073693957032873
  0.5547381760366576  0.5402761198975909  0.8538335190423680
  0.4626102114883537  0.4204630291154530  0.6100901124428049
  0.2046184284548858  0.8781526226062795  0.3386544637796476
  0.1296244768215473  0.7484623046752930  0.0883134935729970
  0.8613768255101988  0.9131633839793665  0.8734320175882928
  0.7763503940515690  0.7545479336905174  0.5610392020812895
  0.5576808327936220  0.8811932803968716  0.3465951273153465
  0.4423883649991751  0.7557498748238274  0.1007742232924969
  0.2354183337221656  0.8910804245589929  0.8482408272611153
  0.0940012849548637  0.7504612824890131  0.5993579269892493
  0.8893984341545718  0.8741767424048561  0.3165516258779562
  0.7698617850564915  0.7447447503046192  0.1108707248096152
  0.5504723235956988  0.8543720694005259  0.8723976834309042
  0.4816905304100914  0.7439483725534473  0.6038960068111194
 
  0.00000000E+00  0.00000000E+00  0.00000000E+00
  0.00000000E+00  0.00000000E+00  0.00000000E+00
  0.00000000E+00  0.00000000E+00  0.00000000E+00
  0.00000000E+00  0.00000000E+00  0.00000000E+00
  0.00000000E+00  0.00000000E+00  0.00000000E+00
  0.00000000E+00  0.00000000E+00  0.00000000E+00
  0.00000000E+00  0.00000000E+00  0.00000000E+00
  0.00000000E+00  0.00000000E+00  0.00000000E+00
  0.00000000E+00  0.00000000E+00  0.00000000E+00
  0.00000000E+00  0.00000000E+00  0.00000000E+00
  0.00000000E+00  0.00000000E+00  0.00000000E+00
  0.00000000E+00  0.00000000E+00  0.00000000E+00
  0.00000000E+00  0.00000000E+00  0.00000000E+00
  0.00000000E+00  0.00000000E+00  0.00000000E+00
  0.00000000E+00  0.00000000E+00  0.00000000E+00
  0.00000000E+00  0.00000000E+00  0.00000000E+00
  0.00000000E+00  0.00000000E+00  0.00000000E+00
  0.00000000E+00  0.00000000E+00  0.00000000E+00
  0.00000000E+00  0.00000000E+00  0.00000000E+00
  0.00000000E+00  0.00000000E+00  0.00000000E+00
  0.00000000E+00  0.00000000E+00  0.00000000E+00
  0.00000000E+00  0.00000000E+00  0.00000000E+00
  0.00000000E+00  0.00000000E+00  0.00000000E+00
  0.00000000E+00  0.00000000E+00  0.00000000E+00
  0.00000000E+00  0.00000000E+00  0.00000000E+00
  0.00000000E+00  0.00000000E+00  0.00000000E+00
  0.00000000E+00  0.00000000E+00  0.00000000E+00
  0.00000000E+00  0.00000000E+00  0.00000000E+00
  0.00000000E+00  0.00000000E+00  0.00000000E+00
  0.00000000E+00  0.00000000E+00  0.00000000E+00
  0.00000000E+00  0.00000000E+00  0.00000000E+00
  0.00000000E+00  0.00000000E+00  0.00000000E+00
  0.00000000E+00  0.00000000E+00  0.00000000E+00
  0.00000000E+00  0.00000000E+00  0.00000000E+00
  0.00000000E+00  0.00000000E+00  0.00000000E+00
  0.00000000E+00  0.00000000E+00  0.00000000E+00
  0.00000000E+00  0.00000000E+00  0.00000000E+00
  0.00000000E+00  0.00000000E+00  0.00000000E+00
  0.00000000E+00  0.00000000E+00  0.00000000E+00
  0.00000000E+00  0.00000000E+00  0.00000000E+00
  0.00000000E+00  0.00000000E+00  0.00000000E+00
  0.00000000E+00  0.00000000E+00  0.00000000E+00
  0.00000000E+00  0.00000000E+00  0.00000000E+00
  0.00000000E+00  0.00000000E+00  0.00000000E+00
  0.00000000E+00  0.00000000E+00  0.00000000E+00
  0.00000000E+00  0.00000000E+00  0.00000000E+00
  0.00000000E+00  0.00000000E+00  0.00000000E+00
  0.00000000E+00  0.00000000E+00  0.00000000E+00
  0.00000000E+00  0.00000000E+00  0.00000000E+00
  0.00000000E+00  0.00000000E+00  0.00000000E+00
  0.00000000E+00  0.00000000E+00  0.00000000E+00
  0.00000000E+00  0.00000000E+00  0.00000000E+00
  0.00000000E+00  0.00000000E+00  0.00000000E+00
  0.00000000E+00  0.00000000E+00  0.00000000E+00
  0.00000000E+00  0.00000000E+00  0.00000000E+00
  0.00000000E+00  0.00000000E+00  0.00000000E+00
  0.00000000E+00  0.00000000E+00  0.00000000E+00
  0.00000000E+00  0.00000000E+00  0.00000000E+00
  0.00000000E+00  0.00000000E+00  0.00000000E+00
  0.00000000E+00  0.00000000E+00  0.00000000E+00
  0.00000000E+00  0.00000000E+00  0.00000000E+00
  0.00000000E+00  0.00000000E+00  0.00000000E+00
  0.00000000E+00  0.00000000E+00  0.00000000E+00
  0.00000000E+00  0.00000000E+00  0.00000000E+00
  0.00000000E+00  0.00000000E+00  0.00000000E+00
  0.00000000E+00  0.00000000E+00  0.00000000E+00
  0.00000000E+00  0.00000000E+00  0.00000000E+00
  0.00000000E+00  0.00000000E+00  0.00000000E+00
  0.00000000E+00  0.00000000E+00  0.00000000E+00
  0.00000000E+00  0.00000000E+00  0.00000000E+00
  0.00000000E+00  0.00000000E+00  0.00000000E+00
  0.00000000E+00  0.00000000E+00  0.00000000E+00
