supercell of 100% icsd_608626.cif, 0% i 
   1.00000000000000     
    -9.7926266757942884    0.0258022974655858   -0.0042275225135932
    -4.9186491796593437    8.5407969208853931   -0.0016961258244240
    -0.0046241205450854   -0.0008856425651233  -10.1699734388140932
   Al   Hf   Ca   N 
    28     4     4    36
Direct
  0.1169199816459852  0.0977566234964087  0.2970773107565066
  0.2215148367257598  0.2032207780660187  0.0484709158437724
  0.8929930655921652  0.2067250243914742  0.5427056932942520
  0.4403520846213738  0.0922899254652947  0.2937483586915164
  0.5463848767476946  0.2108589936134280  0.0485080337052324
  0.1158137111244741  0.1034895073066693  0.7953185938529970
  0.2166079682692228  0.2001629926482593  0.5463266189220874
  0.7716739929101379  0.1081855168564871  0.2921819425056569
  0.8950192610109937  0.2143377431928499  0.0516570482724816
  0.4342893104415282  0.0947656393145522  0.8004507351065655
  0.1132411417616623  0.4211045720446904  0.2867472315278263
  0.2289617671914428  0.5278776141870694  0.0472811452651385
  0.7828570584382604  0.4250925340529861  0.7967333878436165
  0.4452622912376683  0.4243701780807854  0.2866440593669779
  0.5604704196670625  0.5313702777046103  0.0524153777477281
  0.1209228625480421  0.4127193998828815  0.8044561696743742
  0.7807313584734672  0.4295562491954925  0.2931904851064999
  0.8867822856755012  0.5344970031049172  0.0457382980239061
  0.4448796563904693  0.4220061856708526  0.8049992316043344
  0.5625007644400526  0.5307677228619880  0.5436279327352409
  0.2250365179829501  0.8769878252721099  0.0483868214721213
  0.7709758927614416  0.7698081819140867  0.7955532733624082
  0.8782155695180407  0.8848664600904073  0.5280550024267612
  0.4496124137529804  0.7628966373956274  0.2962919560154447
  0.5517517144303810  0.8728276318340775  0.0506624843808936
  0.2180123818294604  0.8859880009744714  0.5374413101092230
  0.7702981042910082  0.7557978386041029  0.2946809193167610
  0.5533058937558124  0.8727556917750618  0.5420769864391843
  0.7781781471598634  0.1032632383403467  0.8027366480580724
  0.5455013078276636  0.2048565389919830  0.5469331826819968
  0.8848262910302296  0.8726425091309906  0.0729976945294055
  0.4513540193268213  0.7558028269798243  0.8031927107653090
  0.8888439039642577  0.5413225429786976  0.5574452197789981
  0.2192258334840815  0.5374468342561087  0.5500634020414097
  0.1237160692828567  0.7582735644105725  0.3140466852810135
  0.1093267277782815  0.7581893178724997  0.7975180137731002
  0.2223024050334317  0.2061511751977960  0.3532611587941119
  0.1116245057600835  0.0950425508818142  0.1085578207540507
  0.9035138123321076  0.2146802728884012  0.8633026028404345
  0.7845100075091764  0.0954494788288258  0.5953988773953895
  0.5550361043658611  0.2060316810702645  0.3420123143415026
  0.4455821816350252  0.0924706741289256  0.1050972011526667
  0.2255010241046804  0.1989035294740589  0.8638016401776483
  0.1078652905750985  0.0955814945700268  0.6059217477784316
  0.8901672754027103  0.2071978885132708  0.3515001519700576
  0.7682205315446637  0.1200014860634866  0.0982477301855269
  0.5422079544191547  0.2049911866492309  0.8548967169944603
  0.4317330476389216  0.0805846164045718  0.6096805087987036
  0.2407862309919651  0.5002966317949031  0.3308741321934932
  0.1087406442999708  0.4225850045399966  0.0951517697129560
  0.8824780451722134  0.5460729397907542  0.8498058457559807
  0.7672112863409950  0.4086766555311385  0.6132502902243999
  0.5562684017976522  0.5371811301955347  0.3504325046629972
  0.4502591404526086  0.4238443954161966  0.0993367379347561
  0.2385249768044702  0.5061342107834221  0.8612292133441883
  0.1307533410180284  0.3890156193675836  0.6259730814039841
  0.8909103557862110  0.5377580742858683  0.3318224058196293
  0.7782989711388311  0.4272153701202441  0.1038343001408037
  0.5664674809036470  0.5180516425280999  0.8642490674826604
  0.4687268860283069  0.4229052046388375  0.6201003332257784
  0.2460728018289302  0.8940413968163128  0.3558641085706995
  0.1276073852503359  0.7528291768363928  0.0778970373784702
  0.8594033005622279  0.8823235271828835  0.8696123208820268
  0.7582144209233093  0.8039564944479736  0.6097945064757795
  0.5565384976102621  0.8719532443673970  0.3524750894233080
  0.4473562011073042  0.7575382288650445  0.0999980828728013
  0.2256370268995411  0.8973221658226009  0.8620598352237252
  0.0892187122512169  0.8000187183082943  0.5654337279443169
  0.8521834934841834  0.8929296607659367  0.3292724649915542
  0.7653517593458190  0.7493151102265472  0.1049563396754252
  0.5585576649311861  0.8812705374325844  0.8616909897651723
  0.4498093516607824  0.7547987033061645  0.5968464634331951
 
  0.00000000E+00  0.00000000E+00  0.00000000E+00
  0.00000000E+00  0.00000000E+00  0.00000000E+00
  0.00000000E+00  0.00000000E+00  0.00000000E+00
  0.00000000E+00  0.00000000E+00  0.00000000E+00
  0.00000000E+00  0.00000000E+00  0.00000000E+00
  0.00000000E+00  0.00000000E+00  0.00000000E+00
  0.00000000E+00  0.00000000E+00  0.00000000E+00
  0.00000000E+00  0.00000000E+00  0.00000000E+00
  0.00000000E+00  0.00000000E+00  0.00000000E+00
  0.00000000E+00  0.00000000E+00  0.00000000E+00
  0.00000000E+00  0.00000000E+00  0.00000000E+00
  0.00000000E+00  0.00000000E+00  0.00000000E+00
  0.00000000E+00  0.00000000E+00  0.00000000E+00
  0.00000000E+00  0.00000000E+00  0.00000000E+00
  0.00000000E+00  0.00000000E+00  0.00000000E+00
  0.00000000E+00  0.00000000E+00  0.00000000E+00
  0.00000000E+00  0.00000000E+00  0.00000000E+00
  0.00000000E+00  0.00000000E+00  0.00000000E+00
  0.00000000E+00  0.00000000E+00  0.00000000E+00
  0.00000000E+00  0.00000000E+00  0.00000000E+00
  0.00000000E+00  0.00000000E+00  0.00000000E+00
  0.00000000E+00  0.00000000E+00  0.00000000E+00
  0.00000000E+00  0.00000000E+00  0.00000000E+00
  0.00000000E+00  0.00000000E+00  0.00000000E+00
  0.00000000E+00  0.00000000E+00  0.00000000E+00
  0.00000000E+00  0.00000000E+00  0.00000000E+00
  0.00000000E+00  0.00000000E+00  0.00000000E+00
  0.00000000E+00  0.00000000E+00  0.00000000E+00
  0.00000000E+00  0.00000000E+00  0.00000000E+00
  0.00000000E+00  0.00000000E+00  0.00000000E+00
  0.00000000E+00  0.00000000E+00  0.00000000E+00
  0.00000000E+00  0.00000000E+00  0.00000000E+00
  0.00000000E+00  0.00000000E+00  0.00000000E+00
  0.00000000E+00  0.00000000E+00  0.00000000E+00
  0.00000000E+00  0.00000000E+00  0.00000000E+00
  0.00000000E+00  0.00000000E+00  0.00000000E+00
  0.00000000E+00  0.00000000E+00  0.00000000E+00
  0.00000000E+00  0.00000000E+00  0.00000000E+00
  0.00000000E+00  0.00000000E+00  0.00000000E+00
  0.00000000E+00  0.00000000E+00  0.00000000E+00
  0.00000000E+00  0.00000000E+00  0.00000000E+00
  0.00000000E+00  0.00000000E+00  0.00000000E+00
  0.00000000E+00  0.00000000E+00  0.00000000E+00
  0.00000000E+00  0.00000000E+00  0.00000000E+00
  0.00000000E+00  0.00000000E+00  0.00000000E+00
  0.00000000E+00  0.00000000E+00  0.00000000E+00
  0.00000000E+00  0.00000000E+00  0.00000000E+00
  0.00000000E+00  0.00000000E+00  0.00000000E+00
  0.00000000E+00  0.00000000E+00  0.00000000E+00
  0.00000000E+00  0.00000000E+00  0.00000000E+00
  0.00000000E+00  0.00000000E+00  0.00000000E+00
  0.00000000E+00  0.00000000E+00  0.00000000E+00
  0.00000000E+00  0.00000000E+00  0.00000000E+00
  0.00000000E+00  0.00000000E+00  0.00000000E+00
  0.00000000E+00  0.00000000E+00  0.00000000E+00
  0.00000000E+00  0.00000000E+00  0.00000000E+00
  0.00000000E+00  0.00000000E+00  0.00000000E+00
  0.00000000E+00  0.00000000E+00  0.00000000E+00
  0.00000000E+00  0.00000000E+00  0.00000000E+00
  0.00000000E+00  0.00000000E+00  0.00000000E+00
  0.00000000E+00  0.00000000E+00  0.00000000E+00
  0.00000000E+00  0.00000000E+00  0.00000000E+00
  0.00000000E+00  0.00000000E+00  0.00000000E+00
  0.00000000E+00  0.00000000E+00  0.00000000E+00
  0.00000000E+00  0.00000000E+00  0.00000000E+00
  0.00000000E+00  0.00000000E+00  0.00000000E+00
  0.00000000E+00  0.00000000E+00  0.00000000E+00
  0.00000000E+00  0.00000000E+00  0.00000000E+00
  0.00000000E+00  0.00000000E+00  0.00000000E+00
  0.00000000E+00  0.00000000E+00  0.00000000E+00
  0.00000000E+00  0.00000000E+00  0.00000000E+00
  0.00000000E+00  0.00000000E+00  0.00000000E+00
