supercell of 100% icsd_608626.cif, 0% i 
   1.00000000000000     
    -9.7812426240250367   -0.0670264577735291   -0.0207234169921565
    -4.8330025476664966    8.4661593908002502   -0.0141127396017406
    -0.0213904205090897    0.0043416329166712  -10.2263059611126188
   Al   Hf   Ca   N 
    28     4     4    36
Direct
  0.1003370829101087  0.0936322324622054  0.2937790949716401
  0.2222957798683751  0.2052649588272644  0.0467653214390467
  0.7845089783500896  0.0884282642600454  0.7972414228974856
  0.8864107572359572  0.1985950976526851  0.5460093265504824
  0.4522515713349549  0.0862437690714870  0.2863144286804911
  0.5635556699035646  0.1947096763270224  0.0517379423162936
  0.1027968376757187  0.0983494227700987  0.8021770346825008
  0.7792790909968517  0.0926243014288133  0.2972850902722257
  0.8889873483177695  0.2064593281045290  0.0413478279743984
  0.4545308193472479  0.0896416957972122  0.8049416243804686
  0.5677720574532046  0.1936797613108823  0.5406772315670594
  0.1124003757860166  0.4330297807481145  0.2853662498088738
  0.2155991987346795  0.5482717031393847  0.0528413663915259
  0.7877042595069454  0.4183019835883997  0.8024301788867092
  0.4482301542539844  0.4129554159704014  0.2847377530096580
  0.5643348317637873  0.5351706920860337  0.0392552909358841
  0.1135910907369819  0.4334901955113608  0.8087525958876540
  0.8891583413931130  0.5403219182042847  0.0372775771717713
  0.5637736695854159  0.5164649447475327  0.5457465172427050
  0.0950526920234083  0.7751421651108359  0.2905410894262204
  0.2131142788535101  0.8787778452529835  0.0422023712340192
  0.7808847458642347  0.7710852449306884  0.8042612130403768
  0.8817889919647399  0.8835707217139444  0.5424647356964982
  0.5586652723499981  0.8707596975377427  0.0437799176939819
  0.0934080405847268  0.7787884356965691  0.8006529646923468
  0.1990069207536109  0.8836378793705961  0.5436140080701932
  0.7797498324900474  0.7700488670639558  0.2889555879051002
  0.8880061900788832  0.8754309817020385  0.0465408319184419
  0.2276554678932570  0.2094595060140847  0.5502850548854283
  0.8997306588360416  0.5461681939667997  0.5602462596902882
  0.2526430425981943  0.5660731610170799  0.5362038539070966
  0.4479229962403508  0.4151928473865567  0.8136369629262603
  0.7800087470249579  0.4299206123397923  0.2982065098478515
  0.4334991405681876  0.7532669796982248  0.2957500653615668
  0.4339882146520750  0.7634342132530847  0.8099230413692524
  0.5472735135361830  0.8578110157183474  0.5516713336548307
  0.2215526035318049  0.2080137358238545  0.3434987474986215
  0.1079008768425567  0.0988107310469601  0.1042755404883593
  0.8894732002270445  0.2036837858653868  0.8519804714412444
  0.7767855299153510  0.0941519148966989  0.6068137764669643
  0.5545058835347021  0.1984944818097247  0.3494390351629235
  0.4415094622772173  0.0957512233447844  0.0988967517861568
  0.2240278914591514  0.2084334846124847  0.8527343134307230
  0.1037158974947374  0.0957908671247054  0.6122118091548572
  0.8973014712504508  0.1820491466719503  0.3641768133492178
  0.7798829869028197  0.0948717168065656  0.1071898011635071
  0.5741781319958221  0.1828211108841629  0.8659616473732825
  0.4487830209396932  0.1094539477390697  0.6184704316102980
  0.2240826253389443  0.5400823353459074  0.3343156962155547
  0.1095546802914882  0.4289629327262929  0.0968507072642808
  0.8934154037598532  0.5397298249558560  0.8430322066024445
  0.7790896272756100  0.4195194435183396  0.6063596994618976
  0.5424336461585213  0.5054778669251832  0.3691814378641425
  0.4446546735221020  0.4236154151526037  0.0917656497923787
  0.2045997821961478  0.5587216229715821  0.8618990874286823
  0.1351813052149566  0.4400475735130769  0.6175506697127631
  0.9114373995043152  0.5599332630644724  0.3600674538147004
  0.7830351573137264  0.4273286374896301  0.0769402667806673
  0.5823973416377868  0.5084939321130975  0.8566861421888703
  0.4709061114606570  0.3976467576901612  0.6120938726924408
  0.1835667644499566  0.8901114972550559  0.3605245950405589
  0.1058399109526817  0.7659814108244092  0.1055348891442449
  0.8863659549201657  0.8778197959709289  0.8610117311548748
  0.7934527440832682  0.7704448365182799  0.6196542619322827
  0.5702844348369496  0.8788178123546189  0.3345366338623137
  0.4407610506960040  0.7590126355447921  0.0661349243691518
  0.1804533504819688  0.8965541410036550  0.8626201937426643
  0.0863837416184907  0.7858297609840150  0.6111721007699273
  0.8841278289553784  0.8768538136706709  0.3530588712588454
  0.7834188362761836  0.7574383275475824  0.0978580534397793
  0.5730645396959346  0.8832346865990246  0.8575065746685837
  0.4019594715203709  0.7218120198534166  0.5843754654850599
 
  0.00000000E+00  0.00000000E+00  0.00000000E+00
  0.00000000E+00  0.00000000E+00  0.00000000E+00
  0.00000000E+00  0.00000000E+00  0.00000000E+00
  0.00000000E+00  0.00000000E+00  0.00000000E+00
  0.00000000E+00  0.00000000E+00  0.00000000E+00
  0.00000000E+00  0.00000000E+00  0.00000000E+00
  0.00000000E+00  0.00000000E+00  0.00000000E+00
  0.00000000E+00  0.00000000E+00  0.00000000E+00
  0.00000000E+00  0.00000000E+00  0.00000000E+00
  0.00000000E+00  0.00000000E+00  0.00000000E+00
  0.00000000E+00  0.00000000E+00  0.00000000E+00
  0.00000000E+00  0.00000000E+00  0.00000000E+00
  0.00000000E+00  0.00000000E+00  0.00000000E+00
  0.00000000E+00  0.00000000E+00  0.00000000E+00
  0.00000000E+00  0.00000000E+00  0.00000000E+00
  0.00000000E+00  0.00000000E+00  0.00000000E+00
  0.00000000E+00  0.00000000E+00  0.00000000E+00
  0.00000000E+00  0.00000000E+00  0.00000000E+00
  0.00000000E+00  0.00000000E+00  0.00000000E+00
  0.00000000E+00  0.00000000E+00  0.00000000E+00
  0.00000000E+00  0.00000000E+00  0.00000000E+00
  0.00000000E+00  0.00000000E+00  0.00000000E+00
  0.00000000E+00  0.00000000E+00  0.00000000E+00
  0.00000000E+00  0.00000000E+00  0.00000000E+00
  0.00000000E+00  0.00000000E+00  0.00000000E+00
  0.00000000E+00  0.00000000E+00  0.00000000E+00
  0.00000000E+00  0.00000000E+00  0.00000000E+00
  0.00000000E+00  0.00000000E+00  0.00000000E+00
  0.00000000E+00  0.00000000E+00  0.00000000E+00
  0.00000000E+00  0.00000000E+00  0.00000000E+00
  0.00000000E+00  0.00000000E+00  0.00000000E+00
  0.00000000E+00  0.00000000E+00  0.00000000E+00
  0.00000000E+00  0.00000000E+00  0.00000000E+00
  0.00000000E+00  0.00000000E+00  0.00000000E+00
  0.00000000E+00  0.00000000E+00  0.00000000E+00
  0.00000000E+00  0.00000000E+00  0.00000000E+00
  0.00000000E+00  0.00000000E+00  0.00000000E+00
  0.00000000E+00  0.00000000E+00  0.00000000E+00
  0.00000000E+00  0.00000000E+00  0.00000000E+00
  0.00000000E+00  0.00000000E+00  0.00000000E+00
  0.00000000E+00  0.00000000E+00  0.00000000E+00
  0.00000000E+00  0.00000000E+00  0.00000000E+00
  0.00000000E+00  0.00000000E+00  0.00000000E+00
  0.00000000E+00  0.00000000E+00  0.00000000E+00
  0.00000000E+00  0.00000000E+00  0.00000000E+00
  0.00000000E+00  0.00000000E+00  0.00000000E+00
  0.00000000E+00  0.00000000E+00  0.00000000E+00
  0.00000000E+00  0.00000000E+00  0.00000000E+00
  0.00000000E+00  0.00000000E+00  0.00000000E+00
  0.00000000E+00  0.00000000E+00  0.00000000E+00
  0.00000000E+00  0.00000000E+00  0.00000000E+00
  0.00000000E+00  0.00000000E+00  0.00000000E+00
  0.00000000E+00  0.00000000E+00  0.00000000E+00
  0.00000000E+00  0.00000000E+00  0.00000000E+00
  0.00000000E+00  0.00000000E+00  0.00000000E+00
  0.00000000E+00  0.00000000E+00  0.00000000E+00
  0.00000000E+00  0.00000000E+00  0.00000000E+00
  0.00000000E+00  0.00000000E+00  0.00000000E+00
  0.00000000E+00  0.00000000E+00  0.00000000E+00
  0.00000000E+00  0.00000000E+00  0.00000000E+00
  0.00000000E+00  0.00000000E+00  0.00000000E+00
  0.00000000E+00  0.00000000E+00  0.00000000E+00
  0.00000000E+00  0.00000000E+00  0.00000000E+00
  0.00000000E+00  0.00000000E+00  0.00000000E+00
  0.00000000E+00  0.00000000E+00  0.00000000E+00
  0.00000000E+00  0.00000000E+00  0.00000000E+00
  0.00000000E+00  0.00000000E+00  0.00000000E+00
  0.00000000E+00  0.00000000E+00  0.00000000E+00
  0.00000000E+00  0.00000000E+00  0.00000000E+00
  0.00000000E+00  0.00000000E+00  0.00000000E+00
  0.00000000E+00  0.00000000E+00  0.00000000E+00
  0.00000000E+00  0.00000000E+00  0.00000000E+00
