Al   Sc   N                             
   1.00000000000000     
    -9.5023782049664955   -0.0000000963864672    0.0000000708338960
    -4.7511899931912893    8.2253549589340604   -0.0021549353341890
     0.0000053933000034   -0.0002377461716840   -9.9866254980246509
   Al   Sc   N 
    34     2    36
Direct
  0.1101880922592713  0.0962905189248460  0.3937096065677537
  0.2216859191543179  0.2090814832147672  0.1401523619417375
  0.7735614929520906  0.0956137128996488  0.8872578323035540
  0.8805529385382584  0.2097571636507567  0.6337000464660107
  0.4458753994808689  0.0939962602014077  0.3860695063530812
  0.5552796487315987  0.2061074093641935  0.1366812303231413
  0.2263565870725444  0.2097571765538717  0.6337000787474238
  0.7767950232972538  0.0939962349171637  0.3860694845310704
  0.8858993147637975  0.2090814812695641  0.1401523621316443
  0.4474915250993590  0.0956137474228811  0.8872578262150128
  0.5557179004433195  0.2052309333032269  0.6371298169391792
  0.1100710465373567  0.4294792209071616  0.3862781931574446
  0.2214754413937072  0.5358790960161031  0.1369509466974463
  0.7733780087579447  0.4305786025698097  0.8875772105779234
  0.8888689266962828  0.5389288389044253  0.6367520374655200
  0.4444437934569905  0.4277790867780737  0.3867484905452869
  0.5593121906938592  0.5358790867281513  0.1369509168503171
  0.1127100893303563  0.4305786540518923  0.8875772191336040
  0.2225130503949018  0.5374669652978881  0.6369488996663080
  0.7771164160217268  0.4294792125048872  0.3862781967583686
  0.8889417080609476  0.5387832756529463  0.1357760670951578
  0.4443985693261112  0.4278695737878380  0.8857701362253678
  0.5566866969642135  0.5374669212592380  0.6369489191215862
  0.1095923494707662  0.7599482697335063  0.3909321450503072
  0.7776829286296234  0.7613008319168557  0.8867599719980959
  0.8872534469323554  0.8727194231215165  0.6365980989397997
  0.4471260790795739  0.7599482633848424  0.3909321839301612
  0.5597160976335473  0.8707935567210114  0.1367214667816299
  0.1093971170696406  0.7550066816951784  0.8838366724133380
  0.2255444042560413  0.8655778708206228  0.6347511951652649
  0.7780104775530106  0.7606457119931491  0.3868437491646191
  0.8861570848841538  0.8707935236335516  0.1367214560525341
  0.4522629509439753  0.7550066485800357  0.8838366769387704
  0.5566938198074638  0.8727194416430990  0.6365981208952292
  0.1085844579763489  0.0994978499819652  0.8715373638980211
  0.2234082597013938  0.8698500392732029  0.1340787239557528
  0.2224341023362086  0.2059492016657032  0.3333269434263784
  0.1018489956185107  0.1129686788833126  0.0837156882136227
  0.8642382949456149  0.2177284667958759  0.8224058479473726
  0.7763104807051846  0.0934879304581813  0.5770661669107895
  0.5552334772472562  0.2061996555701171  0.3284021969717941
  0.4441768030190829  0.0941760613598390  0.0807226267300152
  0.2346998446880804  0.2177285032966978  0.8224058834625225
  0.1103134468604381  0.0960397948741445  0.5911731554658175
  0.8882833451749832  0.2059491681684449  0.3333269535533674
  0.7783138468471549  0.0941760300444443  0.0807226345147427
  0.5554736788890864  0.2057193056136128  0.8295721167427743
  0.4468682392995618  0.0934879353431128  0.5770661926255301
  0.2224474311883782  0.5392707791781319  0.3294637279092996
  0.1112780224674452  0.4272403804511242  0.0801092122056488
  0.8893816348136312  0.5379033822958377  0.8301921692442846
  0.7769939034420332  0.4301437976646341  0.5771357833952422
  0.5549483998862925  0.5392707882919652  0.3294637311417929
  0.4440678992161011  0.4285308622319448  0.0792336181961630
  0.2233736468266940  0.5370841078629098  0.8277549848945114
  0.1095289380276654  0.4301438140638183  0.5771357625653408
  0.8886589425788856  0.5393487054382575  0.3281455536343856
  0.7781483177001931  0.4272403224365533  0.0801092038914675
  0.5562089317341048  0.5370840678906319  0.8277549835056774
  0.4446407912893164  0.4273850691143792  0.5791542601672006
  0.2221364673743196  0.8723936879142400  0.3477162827528630
  0.1006379676777698  0.7505680229358589  0.0739399970967867
  0.8870218806688541  0.8737187954621035  0.8283359629123055
  0.7780360228176235  0.7605946064617868  0.5791045035441300
  0.5559451850339059  0.8717962502625127  0.3293702628412447
  0.4654607024552107  0.7505680311970266  0.0739399772120848
  0.2329579064317500  0.8507508456187480  0.8287688568923244
  0.1091881467887816  0.7593116268175635  0.5815942586410330
  0.8889251894386732  0.8717962277950591  0.3293702392619551
  0.7779769074208005  0.7607129186201362  0.0787202480095388
  0.5559259820164471  0.8737188191572756  0.8283359429639603
  0.4481668977157085  0.7593116143748304  0.5815943170675766
 
  0.00000000E+00  0.00000000E+00  0.00000000E+00
  0.00000000E+00  0.00000000E+00  0.00000000E+00
  0.00000000E+00  0.00000000E+00  0.00000000E+00
  0.00000000E+00  0.00000000E+00  0.00000000E+00
  0.00000000E+00  0.00000000E+00  0.00000000E+00
  0.00000000E+00  0.00000000E+00  0.00000000E+00
  0.00000000E+00  0.00000000E+00  0.00000000E+00
  0.00000000E+00  0.00000000E+00  0.00000000E+00
  0.00000000E+00  0.00000000E+00  0.00000000E+00
  0.00000000E+00  0.00000000E+00  0.00000000E+00
  0.00000000E+00  0.00000000E+00  0.00000000E+00
  0.00000000E+00  0.00000000E+00  0.00000000E+00
  0.00000000E+00  0.00000000E+00  0.00000000E+00
  0.00000000E+00  0.00000000E+00  0.00000000E+00
  0.00000000E+00  0.00000000E+00  0.00000000E+00
  0.00000000E+00  0.00000000E+00  0.00000000E+00
  0.00000000E+00  0.00000000E+00  0.00000000E+00
  0.00000000E+00  0.00000000E+00  0.00000000E+00
  0.00000000E+00  0.00000000E+00  0.00000000E+00
  0.00000000E+00  0.00000000E+00  0.00000000E+00
  0.00000000E+00  0.00000000E+00  0.00000000E+00
  0.00000000E+00  0.00000000E+00  0.00000000E+00
  0.00000000E+00  0.00000000E+00  0.00000000E+00
  0.00000000E+00  0.00000000E+00  0.00000000E+00
  0.00000000E+00  0.00000000E+00  0.00000000E+00
  0.00000000E+00  0.00000000E+00  0.00000000E+00
  0.00000000E+00  0.00000000E+00  0.00000000E+00
  0.00000000E+00  0.00000000E+00  0.00000000E+00
  0.00000000E+00  0.00000000E+00  0.00000000E+00
  0.00000000E+00  0.00000000E+00  0.00000000E+00
  0.00000000E+00  0.00000000E+00  0.00000000E+00
  0.00000000E+00  0.00000000E+00  0.00000000E+00
  0.00000000E+00  0.00000000E+00  0.00000000E+00
  0.00000000E+00  0.00000000E+00  0.00000000E+00
  0.00000000E+00  0.00000000E+00  0.00000000E+00
  0.00000000E+00  0.00000000E+00  0.00000000E+00
  0.00000000E+00  0.00000000E+00  0.00000000E+00
  0.00000000E+00  0.00000000E+00  0.00000000E+00
  0.00000000E+00  0.00000000E+00  0.00000000E+00
  0.00000000E+00  0.00000000E+00  0.00000000E+00
  0.00000000E+00  0.00000000E+00  0.00000000E+00
  0.00000000E+00  0.00000000E+00  0.00000000E+00
  0.00000000E+00  0.00000000E+00  0.00000000E+00
  0.00000000E+00  0.00000000E+00  0.00000000E+00
  0.00000000E+00  0.00000000E+00  0.00000000E+00
  0.00000000E+00  0.00000000E+00  0.00000000E+00
  0.00000000E+00  0.00000000E+00  0.00000000E+00
  0.00000000E+00  0.00000000E+00  0.00000000E+00
  0.00000000E+00  0.00000000E+00  0.00000000E+00
  0.00000000E+00  0.00000000E+00  0.00000000E+00
  0.00000000E+00  0.00000000E+00  0.00000000E+00
  0.00000000E+00  0.00000000E+00  0.00000000E+00
  0.00000000E+00  0.00000000E+00  0.00000000E+00
  0.00000000E+00  0.00000000E+00  0.00000000E+00
  0.00000000E+00  0.00000000E+00  0.00000000E+00
  0.00000000E+00  0.00000000E+00  0.00000000E+00
  0.00000000E+00  0.00000000E+00  0.00000000E+00
  0.00000000E+00  0.00000000E+00  0.00000000E+00
  0.00000000E+00  0.00000000E+00  0.00000000E+00
  0.00000000E+00  0.00000000E+00  0.00000000E+00
  0.00000000E+00  0.00000000E+00  0.00000000E+00
  0.00000000E+00  0.00000000E+00  0.00000000E+00
  0.00000000E+00  0.00000000E+00  0.00000000E+00
  0.00000000E+00  0.00000000E+00  0.00000000E+00
  0.00000000E+00  0.00000000E+00  0.00000000E+00
  0.00000000E+00  0.00000000E+00  0.00000000E+00
  0.00000000E+00  0.00000000E+00  0.00000000E+00
  0.00000000E+00  0.00000000E+00  0.00000000E+00
  0.00000000E+00  0.00000000E+00  0.00000000E+00
  0.00000000E+00  0.00000000E+00  0.00000000E+00
  0.00000000E+00  0.00000000E+00  0.00000000E+00
  0.00000000E+00  0.00000000E+00  0.00000000E+00
