Al   Sc   N                             
   1.00000000000000     
    -9.9344115864571751   -0.0000001101797728    0.0000002501153280
    -4.9672052261433066    8.6007919812269140   -0.0021692345390431
    -0.0000002913055377   -0.0065077662572143   -8.6881012561590474
   Al   Sc   N 
    34     2    36
Direct
  0.1089783987322690  0.0987098550387486  0.3530990677705006
  0.2242275474824851  0.2108655439820737  0.0986329123297338
  0.7731155801950820  0.0958533221860733  0.8418030633879781
  0.8841533805928137  0.2079031067338875  0.5909852858125788
  0.4463984654081870  0.0931885555694620  0.3448382482184229
  0.5560499315320300  0.2045668284410596  0.0953242024269088
  0.2246102058668669  0.2079031087140066  0.5909852929138637
  0.7770796714336470  0.0931885278119680  0.3448382671980283
  0.8815736073748752  0.2108655296746491  0.0986329046629848
  0.4476977255340202  0.0958533541914690  0.8418030889582582
  0.5548619873482536  0.2069426901199947  0.5908560536269079
  0.1108146772175900  0.4292561042920227  0.3450567228593258
  0.2205855233079888  0.5362154644153421  0.0925408748105667
  0.7744451072888268  0.4313790129453352  0.8410929872994402
  0.8883407520497855  0.5399851507852915  0.5916931899407061
  0.4443159997692803  0.4280347483683897  0.3413047749428557
  0.5598656948184484  0.5362154695627694  0.0925408266723835
  0.1108425408118521  0.4313789901165919  0.8410929870759247
  0.2244930517764132  0.5362375345887074  0.5937584394844961
  0.7765959071095878  0.4292561126087904  0.3450567057103768
  0.8891973216572282  0.5382720272482473  0.0951734656117722
  0.4448758406384314  0.4269149785454331  0.8455747215660239
  0.5559360774870186  0.5362375678897990  0.5937584762763706
  0.1074785713703861  0.7574580568210365  0.3514605986837509
  0.7783814889928280  0.7599036542889763  0.8445704245303673
  0.8862093629474401  0.8726305998757482  0.5946184533695416
  0.4517300694012860  0.7574580572403491  0.3514605788481404
  0.5586904919361118  0.8717464557986645  0.0921260991293877
  0.1103067969869969  0.7568289818071179  0.8381325604048513
  0.2237181939502335  0.8692303033040361  0.5958073407553357
  0.7774747263415662  0.7617172922694095  0.3417793070275721
  0.8862297754548720  0.8717464232670125  0.0921260619606912
  0.4495308083590288  0.7568290603507677  0.8381325802768700
  0.5578267277892408  0.8726306220101563  0.5946184169133559
  0.1086644517010242  0.0993377374516342  0.8502988646441167
  0.2252667848879284  0.8661330733230557  0.1075798734825639
  0.2241146439519639  0.2068646318325946  0.3631563810042024
  0.1023151386365697  0.1120364100082369  0.1144050447190565
  0.8678981001390937  0.2162832013982339  0.8647349344278155
  0.7758101054828472  0.0949983516090995  0.6124390091084351
  0.5548621900682917  0.2069423003566868  0.3626893292558790
  0.4462161192809972  0.0925623146282462  0.1168144597228533
  0.2324853469492396  0.2162831826004847  0.8647349168621403
  0.1101498614506085  0.0963669144227310  0.5991017681833810
  0.8856873900135085  0.2068646524253950  0.3631563562099416
  0.7778882688033448  0.0925622720476298  0.1168144692353579
  0.5557606992383484  0.2051452676575920  0.8668136219172808
  0.4458582105183311  0.0949983445501346  0.6124390001880258
  0.2249593984577913  0.5357323763440718  0.3673641232432843
  0.1101539212376892  0.4292861633933072  0.1173576180596214
  0.8895987662295894  0.5374691565988954  0.8654320411737473
  0.7778813818650576  0.4290865957331818  0.6120614122447634
  0.5559749397628408  0.5357323953516939  0.3673641445225329
  0.4438832766110963  0.4289001343784307  0.1117699859931847
  0.2218430351231220  0.5389628821852881  0.8623849891006401
  0.1096986847285351  0.4290865965988289  0.6120614039738612
  0.8881277044419704  0.5404112801783896  0.3636150925889936
  0.7772265885070055  0.4292861639361760  0.1173575926452912
  0.5558607092986634  0.5389629337638979  0.8623849456723107
  0.4451057798027662  0.4264551168294233  0.6175989757728999
  0.2231335948282478  0.8703995413154573  0.3649401796434475
  0.1003670630033611  0.7505244069619081  0.1202091747040512
  0.8887586861160486  0.8731823063537973  0.8614539762071729
  0.7784231249523259  0.7598204259656782  0.6175316230090004
  0.5582325814565507  0.8726263818364757  0.3679327438066906
  0.4657752093176342  0.7505244140338974  0.1202091494923678
  0.2310523238878233  0.8545619530629125  0.8522749799184623
  0.1096384036786446  0.7596280944649720  0.6086556430211587
  0.8858077802265356  0.8726263730336541  0.3679327901243639
  0.7776595018691737  0.7613476989495780  0.1118067598096886
  0.5547256470381896  0.8731823474493652  0.8614540097268844
  0.4474001725467858  0.7596281310470943  0.6086556374353336
 
  0.00000000E+00  0.00000000E+00  0.00000000E+00
  0.00000000E+00  0.00000000E+00  0.00000000E+00
  0.00000000E+00  0.00000000E+00  0.00000000E+00
  0.00000000E+00  0.00000000E+00  0.00000000E+00
  0.00000000E+00  0.00000000E+00  0.00000000E+00
  0.00000000E+00  0.00000000E+00  0.00000000E+00
  0.00000000E+00  0.00000000E+00  0.00000000E+00
  0.00000000E+00  0.00000000E+00  0.00000000E+00
  0.00000000E+00  0.00000000E+00  0.00000000E+00
  0.00000000E+00  0.00000000E+00  0.00000000E+00
  0.00000000E+00  0.00000000E+00  0.00000000E+00
  0.00000000E+00  0.00000000E+00  0.00000000E+00
  0.00000000E+00  0.00000000E+00  0.00000000E+00
  0.00000000E+00  0.00000000E+00  0.00000000E+00
  0.00000000E+00  0.00000000E+00  0.00000000E+00
  0.00000000E+00  0.00000000E+00  0.00000000E+00
  0.00000000E+00  0.00000000E+00  0.00000000E+00
  0.00000000E+00  0.00000000E+00  0.00000000E+00
  0.00000000E+00  0.00000000E+00  0.00000000E+00
  0.00000000E+00  0.00000000E+00  0.00000000E+00
  0.00000000E+00  0.00000000E+00  0.00000000E+00
  0.00000000E+00  0.00000000E+00  0.00000000E+00
  0.00000000E+00  0.00000000E+00  0.00000000E+00
  0.00000000E+00  0.00000000E+00  0.00000000E+00
  0.00000000E+00  0.00000000E+00  0.00000000E+00
  0.00000000E+00  0.00000000E+00  0.00000000E+00
  0.00000000E+00  0.00000000E+00  0.00000000E+00
  0.00000000E+00  0.00000000E+00  0.00000000E+00
  0.00000000E+00  0.00000000E+00  0.00000000E+00
  0.00000000E+00  0.00000000E+00  0.00000000E+00
  0.00000000E+00  0.00000000E+00  0.00000000E+00
  0.00000000E+00  0.00000000E+00  0.00000000E+00
  0.00000000E+00  0.00000000E+00  0.00000000E+00
  0.00000000E+00  0.00000000E+00  0.00000000E+00
  0.00000000E+00  0.00000000E+00  0.00000000E+00
  0.00000000E+00  0.00000000E+00  0.00000000E+00
  0.00000000E+00  0.00000000E+00  0.00000000E+00
  0.00000000E+00  0.00000000E+00  0.00000000E+00
  0.00000000E+00  0.00000000E+00  0.00000000E+00
  0.00000000E+00  0.00000000E+00  0.00000000E+00
  0.00000000E+00  0.00000000E+00  0.00000000E+00
  0.00000000E+00  0.00000000E+00  0.00000000E+00
  0.00000000E+00  0.00000000E+00  0.00000000E+00
  0.00000000E+00  0.00000000E+00  0.00000000E+00
  0.00000000E+00  0.00000000E+00  0.00000000E+00
  0.00000000E+00  0.00000000E+00  0.00000000E+00
  0.00000000E+00  0.00000000E+00  0.00000000E+00
  0.00000000E+00  0.00000000E+00  0.00000000E+00
  0.00000000E+00  0.00000000E+00  0.00000000E+00
  0.00000000E+00  0.00000000E+00  0.00000000E+00
  0.00000000E+00  0.00000000E+00  0.00000000E+00
  0.00000000E+00  0.00000000E+00  0.00000000E+00
  0.00000000E+00  0.00000000E+00  0.00000000E+00
  0.00000000E+00  0.00000000E+00  0.00000000E+00
  0.00000000E+00  0.00000000E+00  0.00000000E+00
  0.00000000E+00  0.00000000E+00  0.00000000E+00
  0.00000000E+00  0.00000000E+00  0.00000000E+00
  0.00000000E+00  0.00000000E+00  0.00000000E+00
  0.00000000E+00  0.00000000E+00  0.00000000E+00
  0.00000000E+00  0.00000000E+00  0.00000000E+00
  0.00000000E+00  0.00000000E+00  0.00000000E+00
  0.00000000E+00  0.00000000E+00  0.00000000E+00
  0.00000000E+00  0.00000000E+00  0.00000000E+00
  0.00000000E+00  0.00000000E+00  0.00000000E+00
  0.00000000E+00  0.00000000E+00  0.00000000E+00
  0.00000000E+00  0.00000000E+00  0.00000000E+00
  0.00000000E+00  0.00000000E+00  0.00000000E+00
  0.00000000E+00  0.00000000E+00  0.00000000E+00
  0.00000000E+00  0.00000000E+00  0.00000000E+00
  0.00000000E+00  0.00000000E+00  0.00000000E+00
  0.00000000E+00  0.00000000E+00  0.00000000E+00
  0.00000000E+00  0.00000000E+00  0.00000000E+00
