supercell of POSCAR                     
   1.03600000000000     
     9.6051007291200001   -5.6678653607799996   -9.9907275475200006
     9.5551777488200003    5.5783510108199996    9.9928581731800001
    -1.5573508785200001   -8.3719044994900003    4.9655686364999996
   Al   Gd   N 
    72    23    96
Direct
  0.3017049369359626  0.2878034775063796  0.5341604276883345
  0.1454968696325096  0.2429951289446635  0.3081059165782492
  0.3090037858684624  0.4073641030763326  0.3073094344464238
  0.4600408614297748  0.3253691455256984  0.7881539617028110
  0.1421366895509522  0.4998923930446537  0.7827202658442545
  0.2893197884712677  0.1700903144726951  0.7794131520221583
  0.4693541854609578  0.4466241379718667  0.5304972295973442
  0.1434409713039742  0.1193945057654133  0.5354934425008224
  0.4774768769405426  0.0729500307555924  0.3049404081178366
  0.2794829000538286  0.1054463857996240  0.3337694744184390
  0.1197973585134378  0.0698298789487595  0.1028253352200323
  0.1118665545517885  0.1967020094148140  0.8144374011890818
  0.2742685313340729  0.3573890504087132  0.8087870955363812
  0.1120198004106641  0.3247567601795964  0.5855204738430260
  0.2712986145567342  0.4861601596008285  0.5735011463761737
  0.4506962090668551  0.2755187079249879  0.3341407222918278
  0.1127255307408745  0.4445430967217305  0.3360016698647641
  0.4490174087671335  0.4001784221755216  0.1052504510669721
  0.8005185331112585  0.2878173145582394  0.5384719711797175
  0.6419717062712351  0.2414573475808908  0.3101942173614560
  0.8088108992639889  0.4078034524946830  0.3083719330394885
  0.9615355444903173  0.3256849564154223  0.7876988846725936
  0.6409628794919726  0.4974219655700338  0.7842478510507291
  0.7944202758090597  0.1642446412650855  0.7789615348606773
  0.9698337694476749  0.4460851513070025  0.5312660992918197
  0.6428012400267562  0.1182780998552744  0.5391697447153447
  0.9795023101351887  0.0710242479298842  0.2964632338383524
  0.7768087124536009  0.1075976753323999  0.3377431341116903
  0.6152717884528300  0.0694597167124229  0.1041966005167012
  0.6157614061836654  0.1930553164559612  0.8156971854517892
  0.7729411761499421  0.3559899250891974  0.8125471822673731
  0.6111503175776747  0.3225552671821106  0.5884316939042549
  0.7707274891267204  0.4843879160843088  0.5753239489065507
  0.9483721465558972  0.2790524788382953  0.3345913865050179
  0.6120591321333890  0.4438375880636940  0.3389462554185769
  0.9496151484883271  0.4034164486944221  0.1019587500306685
  0.3008283593140817  0.7909673847754988  0.5394414182060601
  0.1445431882132056  0.7436136125600754  0.3106945120438880
  0.3106362501696296  0.9117112271103522  0.3130896000285972
  0.4620404214520022  0.8379010018884259  0.7961757757696972
  0.1418606556384745  0.0000669217868463  0.7835562609024294
  0.2952288616763568  0.6676071118319840  0.7800634807137783
  0.4677407304468986  0.9484792238674302  0.5477332805183153
  0.1435552663263451  0.6199356751333269  0.5375850772813493
  0.4788156212140962  0.5716152790337432  0.2992048141424632
  0.2777161864296431  0.6094698266217691  0.3350598221249896
  0.1170572170840032  0.5699621104188353  0.1002033625410519
  0.1144828008591219  0.6976705957586162  0.8173865109074470
  0.2790235799514136  0.8562946185216305  0.8107060963106534
  0.1114996461019260  0.8247705204418097  0.5891311378257313
  0.2734634566405489  0.9860909642463440  0.5823822702579022
  0.4496959426832774  0.7806216857724451  0.3398683299524450
  0.1127351878408192  0.9450056017618920  0.3406938036208231
  0.4490411317459504  0.9051353688760670  0.1061337385966539
  0.8010672869945665  0.7878920430097267  0.5398408299347253
  0.6432854345791270  0.7431096826338717  0.3121404802708767
  0.8079277263191713  0.9087896221562914  0.3111460873589564
  0.9627313568870548  0.8251869451424767  0.7896783012697597
  0.6330928575590065  0.9998605071391324  0.7907081760808339
  0.7950828036944699  0.6645175257807665  0.7791024124858410
  0.9688363395268027  0.9461024767636488  0.5329943858798032
  0.6428735143487856  0.6184322301787901  0.5385881702630329
  0.9790438975801763  0.5715545569466869  0.2965394066105276
  0.7764201041802323  0.6080581022452307  0.3351811887081411
  0.6150497811486204  0.5697645866901340  0.1017920022077305
  0.6137530222900267  0.6975655473476934  0.8170998234074318
  0.7722576511566572  0.8562207639381469  0.8137383595773500
  0.6112840996033526  0.8253317227742727  0.5917101875096051
  0.7691813097144760  0.9846568442002450  0.5797791966375385
  0.9482746011267764  0.7795020859021804  0.3359364522746091
  0.6100802050080958  0.9455103057959420  0.3441260964162822
  0.9482546139527770  0.9040361250893554  0.1043395073685005
  0.4848895280745538  0.1776142987688374  0.0148245670206109
  0.1404997101229881  0.3615809046046934  0.0270885042355431
  0.3207806679088065  0.0161315528916219  0.0159682662521732
  0.2909298618544298  0.2257129620301868  0.0761418076603420
  0.4431429910363320  0.1501302105328577  0.5921539515026026
  0.9828795091435722  0.1943315621886015  0.0395223883186944
  0.6307965498544092  0.3600168805790318  0.0322826760774859
  0.8066022010580411  0.0209531070225140  0.0393078263028031
  0.7817022334648698  0.2309072377082870  0.0810250613113297
  0.9476356088525364  0.0189040278249166  0.8194347238589756
  0.9429536878322367  0.1546120375336670  0.5715528737016271
  0.4827460421022636  0.6962635479137518  0.0383265288859818
  0.1400081799056210  0.8693416411022241  0.0333651214844934
  0.3100095160940626  0.5223963032058023  0.0392791547983222
  0.2869383751105588  0.7378349098942891  0.0823318483791553
  0.4489266674598937  0.5200741418312731  0.8169618157151177
  0.4424362719101680  0.6607642674495935  0.5782243025880121
  0.9834775842934107  0.6955854744327752  0.0399129891000811
  0.6349898274350210  0.8654493292555898  0.0352106331116886
  0.8068914129864453  0.5196582055041290  0.0395557420267068
  0.7837743059997919  0.7330396542210025  0.0817590848461407
  0.9482951133049369  0.5202632662544815  0.8180129840644668
  0.9431620852320606  0.6548774029845958  0.5705442469132791
  0.2370757074957837  0.3691643325414091  0.6222337121610906
  0.0750666027864781  0.3249089752756689  0.3967614684541161
  0.2393423249582085  0.4900784910805740  0.3875040333008712
  0.4363806255244711  0.2863740574299811  0.1513967445107198
  0.0718655012199250  0.4548376846174520  0.1475314467593947
  0.2398803729706245  0.0939360891561165  0.1516055634766289
  0.3996298056319674  0.3953101158657546  0.9083493091261587
  0.0915557358610641  0.0839746589129149  0.9005357020978764
  0.2271000342637635  0.2508381337599204  0.8680388976079811
  0.3936171528979102  0.0147971983050112  0.6170580260270100
  0.0889072406192355  0.2039851711784877  0.6286977109016831
  0.4056231182508228  0.1557465074070805  0.3685487095861646
  0.2192445070961355  0.1899848438922263  0.4316008668102569
  0.0635736029122285  0.1445784561044690  0.2075340882450476
  0.2176448634846153  0.3186273754185862  0.2079327806688624
  0.3503107326405654  0.1370397571818458  0.9237911719600618
  0.0386258084555990  0.2688301237205266  0.8844708376073100
  0.2113373044773184  0.4391364806761686  0.8869578570871752
  0.3623384991118854  0.2492512792303998  0.6827652219056972
  0.0393606935209476  0.4072788255921083  0.6818614513649877
  0.2098024710716473  0.0702629892263502  0.6705148835304371
  0.3830198423852735  0.3523196422035539  0.4299208829982533
  0.0480103830011771  0.0252575740273215  0.4392110815064640
  0.3919986561709550  0.4735580962426482  0.2088475126544722
  0.7374997040726754  0.3681213023488752  0.6266108267945825
  0.5769194963584283  0.3248250149796874  0.4003914408041354
  0.7398508946700701  0.4892152113056838  0.3893635833863272
  0.9256417191203496  0.2914683991119986  0.1547966794894720
  0.5706006820267575  0.4563838640720022  0.1513277793904848
  0.7357892531751347  0.1016080580174545  0.1595399471703303
  0.8991559378656433  0.3948638748422653  0.9070538506656334
  0.5980443317232584  0.0885168128219718  0.9128709127001997
  0.7343655078459506  0.2452499761341116  0.8662384895041413
  0.8943234086988383  0.0157669820437647  0.6095604883562586
  0.5922435199322038  0.2031208314728801  0.6315719285612218
  0.9054124475163974  0.1549480116352413  0.3543159033931076
  0.7200492792139102  0.1901070854737625  0.4352743448981755
  0.5603668819538399  0.1444323153797527  0.2115536317752316
  0.7159545850612474  0.3192056279358297  0.2094620293554073
  0.8654204208846537  0.1171630473263860  0.9090569800241042
  0.5396469106909265  0.2670235566273860  0.8760243925235116
  0.7070953450108703  0.4339514704323122  0.8910611227809966
  0.8666519822054326  0.2457815520503885  0.6809151061740906
  0.5383628966047098  0.4077697344808371  0.6824714256453319
  0.7104945133435479  0.0673034764513645  0.6738917717375301
  0.8820144292238936  0.3518886956332423  0.4325573851741780
  0.5489310556710976  0.0249590890188287  0.4446070178808981
  0.8919322819616511  0.4741632790813952  0.2084388730254290
  0.2349542831738347  0.8674560121183816  0.6254702004586790
  0.0742999335986880  0.8238386442800874  0.3994981924576209
  0.2382256511128134  0.9891702512393721  0.3939126470336376
  0.4302653651048587  0.7924978227687944  0.1608664688423715
  0.0689968487549208  0.9564495924262602  0.1522603377848455
  0.2369599264775815  0.6055303552303499  0.1543584621802623
  0.3965065500697520  0.8920637794504529  0.9201515685587225
  0.0924305417638536  0.5838138143509610  0.9005242470402663
  0.2322388541696938  0.7450652360762859  0.8674556392287016
  0.3956626808713892  0.5185142638562397  0.6064741471222774
  0.0887457493050903  0.7029399709508297  0.6318373462048967
  0.4054290068698876  0.6550496314023206  0.3584739165128781
  0.2197201783285649  0.6909362404997452  0.4349102318478941
  0.0627779526296592  0.6446433926435233  0.2078907191979553
  0.2167493587472364  0.8206725941184772  0.2116379125180856
  0.3661307072732498  0.6178739137241678  0.9064317529284835
  0.0425488565776320  0.7710593317398633  0.8884451963697089
  0.2092581735657504  0.9355947286117967  0.8830890691331348
  0.3654347896364314  0.7520572382021129  0.6867253600144849
  0.0379031006123185  0.9065802921100925  0.6829015608099240
  0.2124754746438242  0.5693043074108388  0.6693083675775071
  0.3829341360232945  0.8523394866637730  0.4357278913252642
  0.0492575157694475  0.5256009162392132  0.4378249891937784
  0.3913458415939601  0.9767974669912647  0.2123254975847715
  0.7381095535279343  0.8667296191710960  0.6277061002981057
  0.5767502612012763  0.8235006751850449  0.4015569404961852
  0.7390593777019490  0.9890630049473117  0.3933536607123216
  0.9268156919212345  0.7918577345042905  0.1564615621559327
  0.5712908410978699  0.9558490066298333  0.1568450325246360
  0.7351296365200781  0.6027971210676526  0.1555362690823259
  0.8986327322588181  0.8928429369067530  0.9089609711551674
  0.5933001298222820  0.5837777688961410  0.9020600083467798
  0.7332173522987020  0.7438389897676245  0.8662282742013616
  0.8952244869278729  0.5158627937302072  0.6074923315353828
  0.5899604661144977  0.7020369959390180  0.6318538357295012
  0.9043855213548397  0.6548103567077703  0.3531364858954333
  0.7198072299831892  0.6897142962436078  0.4354753699294349
  0.5617731565238557  0.6452572796097868  0.2083308750985609
  0.7168344789194094  0.8187121280124359  0.2109691103492253
  0.8653504660443971  0.6169700912419955  0.9095351193766135
  0.5407863350200515  0.7708782733516060  0.8849431607471629
  0.7076834011438820  0.9355087557273976  0.8899926262815612
  0.8675502807978503  0.7449374733230485  0.6820053115109772
  0.5426098746147616  0.9031752004353493  0.6827184808154954
  0.7122265184595307  0.5669657738879650  0.6708702423036712
  0.8817006296211929  0.8517011439657125  0.4335425192927147
  0.5502009760559545  0.5248306368055395  0.4382217866069098
  0.8900579351707449  0.9743759454200287  0.2096626008457605
 
  0.00000000E+00  0.00000000E+00  0.00000000E+00
  0.00000000E+00  0.00000000E+00  0.00000000E+00
  0.00000000E+00  0.00000000E+00  0.00000000E+00
  0.00000000E+00  0.00000000E+00  0.00000000E+00
  0.00000000E+00  0.00000000E+00  0.00000000E+00
  0.00000000E+00  0.00000000E+00  0.00000000E+00
  0.00000000E+00  0.00000000E+00  0.00000000E+00
  0.00000000E+00  0.00000000E+00  0.00000000E+00
  0.00000000E+00  0.00000000E+00  0.00000000E+00
  0.00000000E+00  0.00000000E+00  0.00000000E+00
  0.00000000E+00  0.00000000E+00  0.00000000E+00
  0.00000000E+00  0.00000000E+00  0.00000000E+00
  0.00000000E+00  0.00000000E+00  0.00000000E+00
  0.00000000E+00  0.00000000E+00  0.00000000E+00
  0.00000000E+00  0.00000000E+00  0.00000000E+00
  0.00000000E+00  0.00000000E+00  0.00000000E+00
  0.00000000E+00  0.00000000E+00  0.00000000E+00
  0.00000000E+00  0.00000000E+00  0.00000000E+00
  0.00000000E+00  0.00000000E+00  0.00000000E+00
  0.00000000E+00  0.00000000E+00  0.00000000E+00
  0.00000000E+00  0.00000000E+00  0.00000000E+00
  0.00000000E+00  0.00000000E+00  0.00000000E+00
  0.00000000E+00  0.00000000E+00  0.00000000E+00
  0.00000000E+00  0.00000000E+00  0.00000000E+00
  0.00000000E+00  0.00000000E+00  0.00000000E+00
  0.00000000E+00  0.00000000E+00  0.00000000E+00
  0.00000000E+00  0.00000000E+00  0.00000000E+00
  0.00000000E+00  0.00000000E+00  0.00000000E+00
  0.00000000E+00  0.00000000E+00  0.00000000E+00
  0.00000000E+00  0.00000000E+00  0.00000000E+00
  0.00000000E+00  0.00000000E+00  0.00000000E+00
  0.00000000E+00  0.00000000E+00  0.00000000E+00
  0.00000000E+00  0.00000000E+00  0.00000000E+00
  0.00000000E+00  0.00000000E+00  0.00000000E+00
  0.00000000E+00  0.00000000E+00  0.00000000E+00
  0.00000000E+00  0.00000000E+00  0.00000000E+00
  0.00000000E+00  0.00000000E+00  0.00000000E+00
  0.00000000E+00  0.00000000E+00  0.00000000E+00
  0.00000000E+00  0.00000000E+00  0.00000000E+00
  0.00000000E+00  0.00000000E+00  0.00000000E+00
  0.00000000E+00  0.00000000E+00  0.00000000E+00
  0.00000000E+00  0.00000000E+00  0.00000000E+00
  0.00000000E+00  0.00000000E+00  0.00000000E+00
  0.00000000E+00  0.00000000E+00  0.00000000E+00
  0.00000000E+00  0.00000000E+00  0.00000000E+00
  0.00000000E+00  0.00000000E+00  0.00000000E+00
  0.00000000E+00  0.00000000E+00  0.00000000E+00
  0.00000000E+00  0.00000000E+00  0.00000000E+00
  0.00000000E+00  0.00000000E+00  0.00000000E+00
  0.00000000E+00  0.00000000E+00  0.00000000E+00
  0.00000000E+00  0.00000000E+00  0.00000000E+00
  0.00000000E+00  0.00000000E+00  0.00000000E+00
  0.00000000E+00  0.00000000E+00  0.00000000E+00
  0.00000000E+00  0.00000000E+00  0.00000000E+00
  0.00000000E+00  0.00000000E+00  0.00000000E+00
  0.00000000E+00  0.00000000E+00  0.00000000E+00
  0.00000000E+00  0.00000000E+00  0.00000000E+00
  0.00000000E+00  0.00000000E+00  0.00000000E+00
  0.00000000E+00  0.00000000E+00  0.00000000E+00
  0.00000000E+00  0.00000000E+00  0.00000000E+00
  0.00000000E+00  0.00000000E+00  0.00000000E+00
  0.00000000E+00  0.00000000E+00  0.00000000E+00
  0.00000000E+00  0.00000000E+00  0.00000000E+00
  0.00000000E+00  0.00000000E+00  0.00000000E+00
  0.00000000E+00  0.00000000E+00  0.00000000E+00
  0.00000000E+00  0.00000000E+00  0.00000000E+00
  0.00000000E+00  0.00000000E+00  0.00000000E+00
  0.00000000E+00  0.00000000E+00  0.00000000E+00
  0.00000000E+00  0.00000000E+00  0.00000000E+00
  0.00000000E+00  0.00000000E+00  0.00000000E+00
  0.00000000E+00  0.00000000E+00  0.00000000E+00
  0.00000000E+00  0.00000000E+00  0.00000000E+00
  0.00000000E+00  0.00000000E+00  0.00000000E+00
  0.00000000E+00  0.00000000E+00  0.00000000E+00
  0.00000000E+00  0.00000000E+00  0.00000000E+00
  0.00000000E+00  0.00000000E+00  0.00000000E+00
  0.00000000E+00  0.00000000E+00  0.00000000E+00
  0.00000000E+00  0.00000000E+00  0.00000000E+00
  0.00000000E+00  0.00000000E+00  0.00000000E+00
  0.00000000E+00  0.00000000E+00  0.00000000E+00
  0.00000000E+00  0.00000000E+00  0.00000000E+00
  0.00000000E+00  0.00000000E+00  0.00000000E+00
  0.00000000E+00  0.00000000E+00  0.00000000E+00
  0.00000000E+00  0.00000000E+00  0.00000000E+00
  0.00000000E+00  0.00000000E+00  0.00000000E+00
  0.00000000E+00  0.00000000E+00  0.00000000E+00
  0.00000000E+00  0.00000000E+00  0.00000000E+00
  0.00000000E+00  0.00000000E+00  0.00000000E+00
  0.00000000E+00  0.00000000E+00  0.00000000E+00
  0.00000000E+00  0.00000000E+00  0.00000000E+00
  0.00000000E+00  0.00000000E+00  0.00000000E+00
  0.00000000E+00  0.00000000E+00  0.00000000E+00
  0.00000000E+00  0.00000000E+00  0.00000000E+00
  0.00000000E+00  0.00000000E+00  0.00000000E+00
  0.00000000E+00  0.00000000E+00  0.00000000E+00
  0.00000000E+00  0.00000000E+00  0.00000000E+00
  0.00000000E+00  0.00000000E+00  0.00000000E+00
  0.00000000E+00  0.00000000E+00  0.00000000E+00
  0.00000000E+00  0.00000000E+00  0.00000000E+00
  0.00000000E+00  0.00000000E+00  0.00000000E+00
  0.00000000E+00  0.00000000E+00  0.00000000E+00
  0.00000000E+00  0.00000000E+00  0.00000000E+00
  0.00000000E+00  0.00000000E+00  0.00000000E+00
  0.00000000E+00  0.00000000E+00  0.00000000E+00
  0.00000000E+00  0.00000000E+00  0.00000000E+00
  0.00000000E+00  0.00000000E+00  0.00000000E+00
  0.00000000E+00  0.00000000E+00  0.00000000E+00
  0.00000000E+00  0.00000000E+00  0.00000000E+00
  0.00000000E+00  0.00000000E+00  0.00000000E+00
  0.00000000E+00  0.00000000E+00  0.00000000E+00
  0.00000000E+00  0.00000000E+00  0.00000000E+00
  0.00000000E+00  0.00000000E+00  0.00000000E+00
  0.00000000E+00  0.00000000E+00  0.00000000E+00
  0.00000000E+00  0.00000000E+00  0.00000000E+00
  0.00000000E+00  0.00000000E+00  0.00000000E+00
  0.00000000E+00  0.00000000E+00  0.00000000E+00
  0.00000000E+00  0.00000000E+00  0.00000000E+00
  0.00000000E+00  0.00000000E+00  0.00000000E+00
  0.00000000E+00  0.00000000E+00  0.00000000E+00
  0.00000000E+00  0.00000000E+00  0.00000000E+00
  0.00000000E+00  0.00000000E+00  0.00000000E+00
  0.00000000E+00  0.00000000E+00  0.00000000E+00
  0.00000000E+00  0.00000000E+00  0.00000000E+00
  0.00000000E+00  0.00000000E+00  0.00000000E+00
  0.00000000E+00  0.00000000E+00  0.00000000E+00
  0.00000000E+00  0.00000000E+00  0.00000000E+00
  0.00000000E+00  0.00000000E+00  0.00000000E+00
  0.00000000E+00  0.00000000E+00  0.00000000E+00
  0.00000000E+00  0.00000000E+00  0.00000000E+00
  0.00000000E+00  0.00000000E+00  0.00000000E+00
  0.00000000E+00  0.00000000E+00  0.00000000E+00
  0.00000000E+00  0.00000000E+00  0.00000000E+00
  0.00000000E+00  0.00000000E+00  0.00000000E+00
  0.00000000E+00  0.00000000E+00  0.00000000E+00
  0.00000000E+00  0.00000000E+00  0.00000000E+00
  0.00000000E+00  0.00000000E+00  0.00000000E+00
  0.00000000E+00  0.00000000E+00  0.00000000E+00
  0.00000000E+00  0.00000000E+00  0.00000000E+00
  0.00000000E+00  0.00000000E+00  0.00000000E+00
  0.00000000E+00  0.00000000E+00  0.00000000E+00
  0.00000000E+00  0.00000000E+00  0.00000000E+00
  0.00000000E+00  0.00000000E+00  0.00000000E+00
  0.00000000E+00  0.00000000E+00  0.00000000E+00
  0.00000000E+00  0.00000000E+00  0.00000000E+00
  0.00000000E+00  0.00000000E+00  0.00000000E+00
  0.00000000E+00  0.00000000E+00  0.00000000E+00
  0.00000000E+00  0.00000000E+00  0.00000000E+00
  0.00000000E+00  0.00000000E+00  0.00000000E+00
  0.00000000E+00  0.00000000E+00  0.00000000E+00
  0.00000000E+00  0.00000000E+00  0.00000000E+00
  0.00000000E+00  0.00000000E+00  0.00000000E+00
  0.00000000E+00  0.00000000E+00  0.00000000E+00
  0.00000000E+00  0.00000000E+00  0.00000000E+00
  0.00000000E+00  0.00000000E+00  0.00000000E+00
  0.00000000E+00  0.00000000E+00  0.00000000E+00
  0.00000000E+00  0.00000000E+00  0.00000000E+00
  0.00000000E+00  0.00000000E+00  0.00000000E+00
  0.00000000E+00  0.00000000E+00  0.00000000E+00
  0.00000000E+00  0.00000000E+00  0.00000000E+00
  0.00000000E+00  0.00000000E+00  0.00000000E+00
  0.00000000E+00  0.00000000E+00  0.00000000E+00
  0.00000000E+00  0.00000000E+00  0.00000000E+00
  0.00000000E+00  0.00000000E+00  0.00000000E+00
  0.00000000E+00  0.00000000E+00  0.00000000E+00
  0.00000000E+00  0.00000000E+00  0.00000000E+00
  0.00000000E+00  0.00000000E+00  0.00000000E+00
  0.00000000E+00  0.00000000E+00  0.00000000E+00
  0.00000000E+00  0.00000000E+00  0.00000000E+00
  0.00000000E+00  0.00000000E+00  0.00000000E+00
  0.00000000E+00  0.00000000E+00  0.00000000E+00
  0.00000000E+00  0.00000000E+00  0.00000000E+00
  0.00000000E+00  0.00000000E+00  0.00000000E+00
  0.00000000E+00  0.00000000E+00  0.00000000E+00
  0.00000000E+00  0.00000000E+00  0.00000000E+00
  0.00000000E+00  0.00000000E+00  0.00000000E+00
  0.00000000E+00  0.00000000E+00  0.00000000E+00
  0.00000000E+00  0.00000000E+00  0.00000000E+00
  0.00000000E+00  0.00000000E+00  0.00000000E+00
  0.00000000E+00  0.00000000E+00  0.00000000E+00
  0.00000000E+00  0.00000000E+00  0.00000000E+00
  0.00000000E+00  0.00000000E+00  0.00000000E+00
  0.00000000E+00  0.00000000E+00  0.00000000E+00
  0.00000000E+00  0.00000000E+00  0.00000000E+00
  0.00000000E+00  0.00000000E+00  0.00000000E+00
  0.00000000E+00  0.00000000E+00  0.00000000E+00
  0.00000000E+00  0.00000000E+00  0.00000000E+00
  0.00000000E+00  0.00000000E+00  0.00000000E+00
  0.00000000E+00  0.00000000E+00  0.00000000E+00
  0.00000000E+00  0.00000000E+00  0.00000000E+00
  0.00000000E+00  0.00000000E+00  0.00000000E+00
  0.00000000E+00  0.00000000E+00  0.00000000E+00
