generated by phonopy                    
   1.00000000000000     
    10.0351470768999995   -0.0000022330999784   -0.0000001056124209
    -5.0175765436399997    8.6906901959899994    0.0000001395531216
    -0.0000001735893656    0.0000001431815548   14.9533752540999991
   Pb   P    O 
    19    13    50
Direct
  0.0079086260279624  0.7738912274598633  0.1221407089668247
  0.9978145136105141  0.7725793180867910  0.6263588392469757
  0.0041772331080807  0.2463118510618969  0.3742532722723979
  0.0023843392628535  0.2628176568097160  0.8774863723741717
  0.2263035776674585  0.2341535492507560  0.1221261653586367
  0.2276083795538497  0.2253044509101585  0.6263618734342415
  0.7538763714283760  0.7579419518146651  0.3742759178514063
  0.7373485287226202  0.7396470242920046  0.8775205592644468
  0.7659796920052173  0.9922366569776528  0.1221336092666618
  0.7749036987995126  0.0023705580955919  0.6263731481518633
  0.2422225429874842  0.9960326639401842  0.3742395427781275
  0.2605769813489545  0.9977522679772051  0.8774981297601983
  0.6667949936837516  0.3334073928719903  0.0064045281181464
  0.6667477659848657  0.3333319542144935  0.4997931021541291
  0.3334347460537828  0.6668090073969637  0.4989165038799683
  0.3334160203671246  0.6667023282890412  0.2329216560273579
  0.3333551425689194  0.6666733892992838  0.7514265405045961
  0.6667839126368520  0.3334426157752546  0.2523796547612704
  0.6667379052509972  0.3334878245993735  0.7470588769127247
  0.3334067786851875  0.6668319850229878  0.9912179173508946
  0.6373149667632987  0.5986407030314638  0.1287352333706124
  0.6255378690684879  0.5991845493282781  0.6242450779740096
  0.3683026713438409  0.4010683631909160  0.3749485115858349
  0.3685461582306004  0.3796816697559464  0.8676345601933448
  0.4014859636198906  0.0387296685850487  0.1287556341671134
  0.4010279077441368  0.0264576649516854  0.6242445025405274
  0.5990814890965552  0.9672770951867093  0.3749292582852846
  0.6205853164977526  0.9890069329891134  0.8675880656616499
  0.9614100982381686  0.3628468824272986  0.1287284092461149
  0.9737367443688640  0.3746621346642129  0.6242339209046435
  0.0328681015919088  0.6318959695342201  0.3749470425734671
  0.0112151433831187  0.6316219207289109  0.8676161124038870
  0.5281235927746835  0.6632328772262923  0.1380922590386291
  0.5033179279221685  0.6514951775787736  0.6280064543959085
  0.4746279898296208  0.3293862334146596  0.3780070812201046
  0.4646871856029122  0.2957013884477604  0.8659956001691853
  0.3369246389890819  0.8649568606940292  0.1381492812401177
  0.3486800335618909  0.8519164876879444  0.6279841331518696
  0.6707713935455430  0.1452878041549894  0.3779862539428365
  0.7045183904788601  0.1691302020597476  0.8659724960190474
  0.1352121135960118  0.4719721392615028  0.1380776119696137
  0.1482670025047312  0.4968999014062518  0.6279731637845671
  0.8548599698491728  0.5255529700365429  0.3780262085798114
  0.8310946730382440  0.5354623911289877  0.8659914422422332
  0.7381693959165148  0.6588965781018246  0.0414739539481914
  0.7320565335445721  0.6656353221041300  0.5401372600336387
  0.2605957779156540  0.3552856144262861  0.4590544905952285
  0.2620622179552896  0.3259411442910505  0.9510687570651442
  0.3412419029961598  0.0792894253180592  0.0414765874406697
  0.3347649155815020  0.0666328048852023  0.5400908509011373
  0.6448138408007935  0.9053544236995208  0.4590555870551043
  0.6742100454843651  0.9362416236795852  0.9510644816839573
  0.9207418557757165  0.2620088320865932  0.0414535498603854
  0.9335882211731246  0.2682513147136945  0.5400706945609315
  0.0948206789757222  0.7395476251683348  0.4590744988684321
  0.0639645104126814  0.7380602806749224  0.9510679288882216
  0.2588389716733559  0.3430683356043787  0.2917084339261322
  0.2588392587907364  0.3407778713513707  0.7849636516460876
  0.7511627247571724  0.6481582595525381  0.2103742938289273
  0.7338831695962966  0.6571567051049811  0.7081258013047673
  0.6571193996977058  0.9158201481643786  0.2917065901115805
  0.6596840282929861  0.9182810203281093  0.7849644304765064
  0.3519348808155200  0.1030666752984999  0.2103762187142877
  0.3429049790393321  0.0767642990701844  0.7080856083725351
  0.0842687350062263  0.7414072909812432  0.2917323227056201
  0.0819992779618275  0.7413739050466717  0.7849648341237199
  0.8970371809017550  0.2489872272746894  0.2103619250284225
  0.9234860566234318  0.2662274375109988  0.7080693998995216
  0.5479453515817951  0.4175355734345274  0.1240464063142781
  0.5445386161741723  0.4188710009318086  0.6209919421493595
  0.4679205035695162  0.5816408968879543  0.3723816385416541
  0.4838116508164063  0.5573715057494795  0.8630641583212793
  0.5825930606441077  0.1304761800166787  0.1240765517858691
  0.5813473561774387  0.1257513590060100  0.6210899107080863
  0.4185105230614283  0.8863311544799828  0.3723390603139975
  0.4428956611621118  0.9265477812776055  0.8629203592045087
  0.8697213390791205  0.4522709132864620  0.1240643108137647
  0.8744045631389952  0.4556465704684527  0.6210942550625873
  0.1138398224287371  0.5322957951267853  0.3723189913089797
  0.0736389556788524  0.5163553452896679  0.8629924189520324
  0.0000462580733185  0.0001005909205389  0.1221701909861963
  0.0001189356570208  0.0000862213224906  0.6408127507938772
 
  0.00000000E+00  0.00000000E+00  0.00000000E+00
  0.00000000E+00  0.00000000E+00  0.00000000E+00
  0.00000000E+00  0.00000000E+00  0.00000000E+00
  0.00000000E+00  0.00000000E+00  0.00000000E+00
  0.00000000E+00  0.00000000E+00  0.00000000E+00
  0.00000000E+00  0.00000000E+00  0.00000000E+00
  0.00000000E+00  0.00000000E+00  0.00000000E+00
  0.00000000E+00  0.00000000E+00  0.00000000E+00
  0.00000000E+00  0.00000000E+00  0.00000000E+00
  0.00000000E+00  0.00000000E+00  0.00000000E+00
  0.00000000E+00  0.00000000E+00  0.00000000E+00
  0.00000000E+00  0.00000000E+00  0.00000000E+00
  0.00000000E+00  0.00000000E+00  0.00000000E+00
  0.00000000E+00  0.00000000E+00  0.00000000E+00
  0.00000000E+00  0.00000000E+00  0.00000000E+00
  0.00000000E+00  0.00000000E+00  0.00000000E+00
  0.00000000E+00  0.00000000E+00  0.00000000E+00
  0.00000000E+00  0.00000000E+00  0.00000000E+00
  0.00000000E+00  0.00000000E+00  0.00000000E+00
  0.00000000E+00  0.00000000E+00  0.00000000E+00
  0.00000000E+00  0.00000000E+00  0.00000000E+00
  0.00000000E+00  0.00000000E+00  0.00000000E+00
  0.00000000E+00  0.00000000E+00  0.00000000E+00
  0.00000000E+00  0.00000000E+00  0.00000000E+00
  0.00000000E+00  0.00000000E+00  0.00000000E+00
  0.00000000E+00  0.00000000E+00  0.00000000E+00
  0.00000000E+00  0.00000000E+00  0.00000000E+00
  0.00000000E+00  0.00000000E+00  0.00000000E+00
  0.00000000E+00  0.00000000E+00  0.00000000E+00
  0.00000000E+00  0.00000000E+00  0.00000000E+00
  0.00000000E+00  0.00000000E+00  0.00000000E+00
  0.00000000E+00  0.00000000E+00  0.00000000E+00
  0.00000000E+00  0.00000000E+00  0.00000000E+00
  0.00000000E+00  0.00000000E+00  0.00000000E+00
  0.00000000E+00  0.00000000E+00  0.00000000E+00
  0.00000000E+00  0.00000000E+00  0.00000000E+00
  0.00000000E+00  0.00000000E+00  0.00000000E+00
  0.00000000E+00  0.00000000E+00  0.00000000E+00
  0.00000000E+00  0.00000000E+00  0.00000000E+00
  0.00000000E+00  0.00000000E+00  0.00000000E+00
  0.00000000E+00  0.00000000E+00  0.00000000E+00
  0.00000000E+00  0.00000000E+00  0.00000000E+00
  0.00000000E+00  0.00000000E+00  0.00000000E+00
  0.00000000E+00  0.00000000E+00  0.00000000E+00
  0.00000000E+00  0.00000000E+00  0.00000000E+00
  0.00000000E+00  0.00000000E+00  0.00000000E+00
  0.00000000E+00  0.00000000E+00  0.00000000E+00
  0.00000000E+00  0.00000000E+00  0.00000000E+00
  0.00000000E+00  0.00000000E+00  0.00000000E+00
  0.00000000E+00  0.00000000E+00  0.00000000E+00
  0.00000000E+00  0.00000000E+00  0.00000000E+00
  0.00000000E+00  0.00000000E+00  0.00000000E+00
  0.00000000E+00  0.00000000E+00  0.00000000E+00
  0.00000000E+00  0.00000000E+00  0.00000000E+00
  0.00000000E+00  0.00000000E+00  0.00000000E+00
  0.00000000E+00  0.00000000E+00  0.00000000E+00
  0.00000000E+00  0.00000000E+00  0.00000000E+00
  0.00000000E+00  0.00000000E+00  0.00000000E+00
  0.00000000E+00  0.00000000E+00  0.00000000E+00
  0.00000000E+00  0.00000000E+00  0.00000000E+00
  0.00000000E+00  0.00000000E+00  0.00000000E+00
  0.00000000E+00  0.00000000E+00  0.00000000E+00
  0.00000000E+00  0.00000000E+00  0.00000000E+00
  0.00000000E+00  0.00000000E+00  0.00000000E+00
  0.00000000E+00  0.00000000E+00  0.00000000E+00
  0.00000000E+00  0.00000000E+00  0.00000000E+00
  0.00000000E+00  0.00000000E+00  0.00000000E+00
  0.00000000E+00  0.00000000E+00  0.00000000E+00
  0.00000000E+00  0.00000000E+00  0.00000000E+00
  0.00000000E+00  0.00000000E+00  0.00000000E+00
  0.00000000E+00  0.00000000E+00  0.00000000E+00
  0.00000000E+00  0.00000000E+00  0.00000000E+00
  0.00000000E+00  0.00000000E+00  0.00000000E+00
  0.00000000E+00  0.00000000E+00  0.00000000E+00
  0.00000000E+00  0.00000000E+00  0.00000000E+00
  0.00000000E+00  0.00000000E+00  0.00000000E+00
  0.00000000E+00  0.00000000E+00  0.00000000E+00
  0.00000000E+00  0.00000000E+00  0.00000000E+00
  0.00000000E+00  0.00000000E+00  0.00000000E+00
  0.00000000E+00  0.00000000E+00  0.00000000E+00
  0.00000000E+00  0.00000000E+00  0.00000000E+00
  0.00000000E+00  0.00000000E+00  0.00000000E+00
