supercell of POSCAR                     
   1.03600000000000     
     9.6051007291200001   -5.6678653607799996   -9.9907275475200006
     9.5551777488200003    5.5783510108199996    9.9928581731800001
    -1.5573508785200001   -8.3719044994900003    4.9655686364999996
   Al   Gd   N 
    72    23    96
Direct
  0.2995954430417882  0.2903867011840120  0.5349136938681482
  0.1461465654998051  0.2435497524717789  0.3051005612868281
  0.3082577256834682  0.4090393212947916  0.3076433165001475
  0.4582852541604154  0.3217849621444699  0.7904831850161145
  0.1399814658398384  0.4986351210160151  0.7830067707744206
  0.2926910864236447  0.1694936013965815  0.7768760444849150
  0.4685558450739080  0.4466016477352284  0.5319205959649977
  0.1440886311415923  0.1200976164634397  0.5365204066452804
  0.4809327707046549  0.0795100047002322  0.2935685404660759
  0.2784774269653454  0.1112590071704318  0.3351139970304118
  0.1183598142048439  0.0722836546215646  0.0993166225109121
  0.1138051328681442  0.1961794071734104  0.8164637265207091
  0.2727598938213376  0.3571136641598400  0.8097102559228162
  0.1113299529269653  0.3246399949325394  0.5859491935048311
  0.2703802665727366  0.4869314482124238  0.5749560681698824
  0.4501258235158119  0.2807948437051095  0.3361021566967821
  0.1111502134824818  0.4460420977395003  0.3387206360454087
  0.4480047561574665  0.4111037914920601  0.1092498311322601
  0.8035864610636736  0.2873081918978286  0.5401581225254404
  0.6481156977845188  0.2419140721329001  0.3222351797514307
  0.8071082249490331  0.4078857542232512  0.3120344176768413
  0.9616481692187051  0.3238281966348637  0.7886651726360014
  0.6375560313083071  0.4915117998821685  0.7878801661797752
  0.7971352585453033  0.1610159177137334  0.7751429556285245
  0.9693166040586405  0.4461570706923865  0.5347757294372002
  0.6458259662546695  0.1172498423472206  0.5375127313438881
  0.9801237580154805  0.0714166547641213  0.2945251501891093
  0.7790442811497087  0.1090008397238762  0.3326779297076143
  0.6148900551701075  0.0779745263169076  0.0991395479203021
  0.6162992440440149  0.1911572057982411  0.8124937216682184
  0.7662893393659687  0.3509020365593472  0.8117856497953184
  0.6124034678094716  0.3240044708109906  0.5904322075506840
  0.7701064821638539  0.4834697458063886  0.5783294626393456
  0.9488181067118049  0.2795193629765294  0.3351361944175721
  0.6130941660080325  0.4443991652833148  0.3375313795574684
  0.9483593622254460  0.4045563302837110  0.1035959038887526
  0.3024101137895983  0.7915775753207797  0.5392630452977656
  0.1443106625588300  0.7443710211472663  0.3106885660508922
  0.3110207828872689  0.9126887768439644  0.3109689712305297
  0.4656937848937872  0.8329926221914050  0.7891016381658531
  0.1440838580611086  0.9992622316465400  0.7849016450907058
  0.2960994261198522  0.6679217895067850  0.7802975005918000
  0.4720388997577771  0.9503576378601650  0.5372482410677506
  0.1439737376222325  0.6209512447214038  0.5383077042112419
  0.4784846982854489  0.5743081094515077  0.3011027043430516
  0.2774143360791399  0.6101575394188927  0.3356117564734049
  0.1154962528869987  0.5704576171057738  0.1012502809543676
  0.1155918368121220  0.6963265392384201  0.8183619112136995
  0.2786053645774871  0.8596338064079632  0.8135130065445040
  0.1133734703218892  0.8255993201811407  0.5891170656103242
  0.2746035510621923  0.9881380179251451  0.5794743056556158
  0.4505296947018920  0.7828631083310071  0.3367458319753354
  0.1140014204739828  0.9462100365530119  0.3391221210720232
  0.4511288143362222  0.9086390946472704  0.1037435391635597
  0.8021513683563057  0.7859163029598264  0.5388003315291527
  0.6441682706101943  0.7417474242905016  0.3095863100161580
  0.8092307859395618  0.9074774033052933  0.3067205388036456
  0.9634541984281952  0.8225493257165155  0.7891352195105199
  0.6439952278849645  0.9950683094915718  0.7816892960911304
  0.7935216740206172  0.6596579260346189  0.7815846903711687
  0.9710031737117930  0.9447729196151542  0.5313653708569177
  0.6429056153616912  0.6172334397296808  0.5394545436806482
  0.9769197318662250  0.5716532750666801  0.2966435471960480
  0.7763737230222603  0.6078702706181858  0.3366170623604745
  0.6130962378257365  0.5637265329462338  0.1030130501768554
  0.6144118038314801  0.6958780129020852  0.8165457543872279
  0.7759926089344944  0.8530485921224837  0.8124182228036858
  0.6134016041213144  0.8238543632823863  0.5867765124996538
  0.7725929476905904  0.9825017886041536  0.5731296499413148
  0.9491568857664703  0.7789946040970150  0.3355006582422249
  0.6124875287103748  0.9474163237456708  0.3383284326979137
  0.9486937376503946  0.9035210230123170  0.1019463917904417
  0.1390428654441678  0.3619164174727985  0.0308887581922832
  0.3140923355785432  0.0273585936298204  0.0400303651338092
  0.3014122490566109  0.2334012478048280  0.0732431779140370
  0.4529853141772762  0.0416210459086912  0.8360345749107410
  0.4459994134299237  0.1603090492476156  0.5780717607311630
  0.9799205253514387  0.1949020083636128  0.0388157250883125
  0.5665757171676589  0.2913500606072574  0.0822599716447598
  0.8064057354149838  0.0246792794020365  0.0384169430801293
  0.7801919682848535  0.2425583935958713  0.0797367220211811
  0.9498001241053871  0.0167326663678153  0.8177499270423212
  0.9448588030788301  0.1527317729537785  0.5700653285404229
  0.4847286336984737  0.6954497604042231  0.0378940733704738
  0.1372577601640330  0.8658282532466473  0.0316901020609492
  0.3068055396739666  0.5237148407969272  0.0376890248970696
  0.2867992770748700  0.7369248394258818  0.0851785932033948
  0.4478974729681013  0.5176197391774906  0.8175770226620713
  0.4433539429807141  0.6586845083373305  0.5762886587909435
  0.9785500788218116  0.6907768226724400  0.0394843079298539
  0.6367315924745682  0.8672657695808752  0.0331848638402832
  0.7888312063265204  0.5037536736038959  0.0413969774423393
  0.7832403549708502  0.7281254208500982  0.0807732528758862
  0.9435035135857461  0.5177980697635505  0.8250183501825035
  0.9451180659079768  0.6531903449150036  0.5730276359625961
  0.2361060921332978  0.3701763958959603  0.6238239011337825
  0.0760088471877083  0.3252414788049194  0.3963016407227968
  0.2382514067619965  0.4910511378427884  0.3888006106610291
  0.4367317535629596  0.2991005979320036  0.1597522765213739
  0.0707762346182221  0.4558571884674691  0.1498369692422372
  0.2379026328508189  0.1054034649438051  0.1549111367137925
  0.3977627878336421  0.3933871062200467  0.9110928705518262
  0.0939303609543458  0.0828268029244654  0.8994432677512449
  0.2307622102444142  0.2481214793282547  0.8668798453617654
  0.3996796633834734  0.0205093847264806  0.6198249600652304
  0.0904573764905905  0.2038126558083206  0.6305891790247529
  0.4053808209053855  0.1583117296811736  0.3589650068280648
  0.2188009432762783  0.1916550500375820  0.4325953920493291
  0.0626769864700165  0.1459521412646936  0.2050560236297869
  0.2209820633239516  0.3180070428643944  0.2054712634684392
  0.3620712392368901  0.1298147974132817  0.9136794372886641
  0.0404829188866387  0.2681405263462082  0.8862513330358368
  0.2091830136170501  0.4373804398272156  0.8876454105597276
  0.3615905519293534  0.2491108590628954  0.6782708034949536
  0.0393264230654466  0.4059866812755217  0.6825369670955013
  0.2123061242648632  0.0694395952495483  0.6703091201027078
  0.3814659856431035  0.3539843267383844  0.4313537585029863
  0.0498227776614542  0.0256944996524950  0.4379858112291330
  0.3888344643307420  0.4802801744993488  0.2110224112563230
  0.7383172019799034  0.3657546564747847  0.6244760767048660
  0.5763929957149401  0.3250656543520805  0.4030743019662353
  0.7400787475355486  0.4903713134338972  0.3931231727478419
  0.9252466034909617  0.2925880556331819  0.1563091456816963
  0.5708219502475487  0.4505502350857640  0.1510365158650515
  0.7362152093796865  0.1097407865778521  0.1544706390675188
  0.8963625210965844  0.3900465858312714  0.9091038655494401
  0.6017835399401932  0.0792502681010419  0.8983880370729551
  0.7345944496686698  0.2373137259984759  0.8588672736225575
  0.8966946706273546  0.0137393431060744  0.6073358424276236
  0.5936585066494544  0.2020277235942487  0.6269863342362285
  0.9067015425212759  0.1547967587469827  0.3531821902820909
  0.7236992427989364  0.1882986409842360  0.4375678166739405
  0.5620260108510990  0.1564389875429839  0.2025513628672329
  0.7132074221966178  0.3203431914084192  0.2176726902688984
  0.8682631805205219  0.1132692948718557  0.9029033405450946
  0.5247994671895810  0.2451206733631750  0.8640518301918689
  0.6948787680266193  0.4195828081401345  0.8865401842115048
  0.8695848426995241  0.2433084301098489  0.6792578246144245
  0.5346470333772047  0.4043755664624840  0.6828565717421853
  0.7140603328981427  0.0640302936439738  0.6668741474262418
  0.8831126091554182  0.3522864612981351  0.4340053472753596
  0.5499321899063219  0.0278624996304586  0.4366661747637011
  0.8895738382380358  0.4743956129517244  0.2091236562223955
  0.2387138735436096  0.8705716111819299  0.6269966895685073
  0.0762104939878085  0.8254966112120741  0.3995245134367877
  0.2416580346002206  0.9924400464137761  0.3926209252523876
  0.4308373426670045  0.7955939981358000  0.1555985846105301
  0.0709818208535111  0.9576602049808614  0.1507836690006670
  0.2352763134265246  0.6062782575208985  0.1556516460045003
  0.4043740740717112  0.9031394634654930  0.9082225607235159
  0.0913809448919736  0.5828235218487876  0.9008249125268009
  0.2346984715570244  0.7475754424148136  0.8698203867100176
  0.3946406482921532  0.5184406951120195  0.6076212300455666
  0.0913574946598530  0.7048994357686453  0.6330720056065431
  0.4049493921165990  0.6590579437480812  0.3579213961762093
  0.2204577364339926  0.6926457177707022  0.4354543764705312
  0.0619288887048555  0.6458010070972549  0.2090401041174275
  0.2176100567105195  0.8225301547066195  0.2118269274794855
  0.3666626049590676  0.6187697647555552  0.9073937305888862
  0.0410038331818114  0.7664556070973703  0.8885335556581992
  0.2131246359487164  0.9385417542064403  0.8916197280370071
  0.3674076372662469  0.7514146702834452  0.6853132898556851
  0.0409328614509405  0.9053230269146511  0.6828826663074139
  0.2120228945081450  0.5701269114466285  0.6713121237685513
  0.3838344105624074  0.8562520662082136  0.4346588585833331
  0.0481050833661385  0.5269104756934908  0.4401172673156566
  0.3929922312678329  0.9783791381594895  0.2107864749289803
  0.7394401501696066  0.8657666452284474  0.6253675527089229
  0.5772034666189043  0.8252620131458883  0.3976550899456228
  0.7407868783505407  0.9892426208120852  0.3867641186505892
  0.9275483764840828  0.7915989227122253  0.1558308284716077
  0.5723196170619218  0.9623501987616976  0.1515296808429056
  0.7325174621973574  0.6016937746654492  0.1585575025374126
  0.9013564504151432  0.8905043141856055  0.9067721683224832
  0.5911537558074684  0.5826481337580418  0.9025355692495793
  0.7334551016216579  0.7419359906620784  0.8659549496684846
  0.8948781481344668  0.5151788435000242  0.6132461319432920
  0.5901755692491690  0.7026567066669926  0.6312267632394324
  0.9044380278304729  0.6554832448455556  0.3563416357827336
  0.7192013023234693  0.6894408905215457  0.4358780394875339
  0.5612115696130715  0.6436928984171786  0.2083083573323137
  0.7164441246785813  0.8179224218262959  0.2077425758453444
  0.8568405344796801  0.6091687339854559  0.9179355428743960
  0.5423089208168363  0.7713030288783074  0.8846134009382638
  0.7127231194820567  0.9331122603888105  0.8884215602259573
  0.8671978714907951  0.7420588517627067  0.6829819669781330
  0.5435296570654771  0.9052513384208822  0.6784328533594532
  0.7093741521323267  0.5640072868238803  0.6729710779208418
  0.8825351447075249  0.8511292793144065  0.4321060012287816
  0.5486626560885099  0.5253752026163454  0.4394468635072428
  0.8907094355882847  0.9750078108063605  0.2058489350741013
 
  0.00000000E+00  0.00000000E+00  0.00000000E+00
  0.00000000E+00  0.00000000E+00  0.00000000E+00
  0.00000000E+00  0.00000000E+00  0.00000000E+00
  0.00000000E+00  0.00000000E+00  0.00000000E+00
  0.00000000E+00  0.00000000E+00  0.00000000E+00
  0.00000000E+00  0.00000000E+00  0.00000000E+00
  0.00000000E+00  0.00000000E+00  0.00000000E+00
  0.00000000E+00  0.00000000E+00  0.00000000E+00
  0.00000000E+00  0.00000000E+00  0.00000000E+00
  0.00000000E+00  0.00000000E+00  0.00000000E+00
  0.00000000E+00  0.00000000E+00  0.00000000E+00
  0.00000000E+00  0.00000000E+00  0.00000000E+00
  0.00000000E+00  0.00000000E+00  0.00000000E+00
  0.00000000E+00  0.00000000E+00  0.00000000E+00
  0.00000000E+00  0.00000000E+00  0.00000000E+00
  0.00000000E+00  0.00000000E+00  0.00000000E+00
  0.00000000E+00  0.00000000E+00  0.00000000E+00
  0.00000000E+00  0.00000000E+00  0.00000000E+00
  0.00000000E+00  0.00000000E+00  0.00000000E+00
  0.00000000E+00  0.00000000E+00  0.00000000E+00
  0.00000000E+00  0.00000000E+00  0.00000000E+00
  0.00000000E+00  0.00000000E+00  0.00000000E+00
  0.00000000E+00  0.00000000E+00  0.00000000E+00
  0.00000000E+00  0.00000000E+00  0.00000000E+00
  0.00000000E+00  0.00000000E+00  0.00000000E+00
  0.00000000E+00  0.00000000E+00  0.00000000E+00
  0.00000000E+00  0.00000000E+00  0.00000000E+00
  0.00000000E+00  0.00000000E+00  0.00000000E+00
  0.00000000E+00  0.00000000E+00  0.00000000E+00
  0.00000000E+00  0.00000000E+00  0.00000000E+00
  0.00000000E+00  0.00000000E+00  0.00000000E+00
  0.00000000E+00  0.00000000E+00  0.00000000E+00
  0.00000000E+00  0.00000000E+00  0.00000000E+00
  0.00000000E+00  0.00000000E+00  0.00000000E+00
  0.00000000E+00  0.00000000E+00  0.00000000E+00
  0.00000000E+00  0.00000000E+00  0.00000000E+00
  0.00000000E+00  0.00000000E+00  0.00000000E+00
  0.00000000E+00  0.00000000E+00  0.00000000E+00
  0.00000000E+00  0.00000000E+00  0.00000000E+00
  0.00000000E+00  0.00000000E+00  0.00000000E+00
  0.00000000E+00  0.00000000E+00  0.00000000E+00
  0.00000000E+00  0.00000000E+00  0.00000000E+00
  0.00000000E+00  0.00000000E+00  0.00000000E+00
  0.00000000E+00  0.00000000E+00  0.00000000E+00
  0.00000000E+00  0.00000000E+00  0.00000000E+00
  0.00000000E+00  0.00000000E+00  0.00000000E+00
  0.00000000E+00  0.00000000E+00  0.00000000E+00
  0.00000000E+00  0.00000000E+00  0.00000000E+00
  0.00000000E+00  0.00000000E+00  0.00000000E+00
  0.00000000E+00  0.00000000E+00  0.00000000E+00
  0.00000000E+00  0.00000000E+00  0.00000000E+00
  0.00000000E+00  0.00000000E+00  0.00000000E+00
  0.00000000E+00  0.00000000E+00  0.00000000E+00
  0.00000000E+00  0.00000000E+00  0.00000000E+00
  0.00000000E+00  0.00000000E+00  0.00000000E+00
  0.00000000E+00  0.00000000E+00  0.00000000E+00
  0.00000000E+00  0.00000000E+00  0.00000000E+00
  0.00000000E+00  0.00000000E+00  0.00000000E+00
  0.00000000E+00  0.00000000E+00  0.00000000E+00
  0.00000000E+00  0.00000000E+00  0.00000000E+00
  0.00000000E+00  0.00000000E+00  0.00000000E+00
  0.00000000E+00  0.00000000E+00  0.00000000E+00
  0.00000000E+00  0.00000000E+00  0.00000000E+00
  0.00000000E+00  0.00000000E+00  0.00000000E+00
  0.00000000E+00  0.00000000E+00  0.00000000E+00
  0.00000000E+00  0.00000000E+00  0.00000000E+00
  0.00000000E+00  0.00000000E+00  0.00000000E+00
  0.00000000E+00  0.00000000E+00  0.00000000E+00
  0.00000000E+00  0.00000000E+00  0.00000000E+00
  0.00000000E+00  0.00000000E+00  0.00000000E+00
  0.00000000E+00  0.00000000E+00  0.00000000E+00
  0.00000000E+00  0.00000000E+00  0.00000000E+00
  0.00000000E+00  0.00000000E+00  0.00000000E+00
  0.00000000E+00  0.00000000E+00  0.00000000E+00
  0.00000000E+00  0.00000000E+00  0.00000000E+00
  0.00000000E+00  0.00000000E+00  0.00000000E+00
  0.00000000E+00  0.00000000E+00  0.00000000E+00
  0.00000000E+00  0.00000000E+00  0.00000000E+00
  0.00000000E+00  0.00000000E+00  0.00000000E+00
  0.00000000E+00  0.00000000E+00  0.00000000E+00
  0.00000000E+00  0.00000000E+00  0.00000000E+00
  0.00000000E+00  0.00000000E+00  0.00000000E+00
  0.00000000E+00  0.00000000E+00  0.00000000E+00
  0.00000000E+00  0.00000000E+00  0.00000000E+00
  0.00000000E+00  0.00000000E+00  0.00000000E+00
  0.00000000E+00  0.00000000E+00  0.00000000E+00
  0.00000000E+00  0.00000000E+00  0.00000000E+00
  0.00000000E+00  0.00000000E+00  0.00000000E+00
  0.00000000E+00  0.00000000E+00  0.00000000E+00
  0.00000000E+00  0.00000000E+00  0.00000000E+00
  0.00000000E+00  0.00000000E+00  0.00000000E+00
  0.00000000E+00  0.00000000E+00  0.00000000E+00
  0.00000000E+00  0.00000000E+00  0.00000000E+00
  0.00000000E+00  0.00000000E+00  0.00000000E+00
  0.00000000E+00  0.00000000E+00  0.00000000E+00
  0.00000000E+00  0.00000000E+00  0.00000000E+00
  0.00000000E+00  0.00000000E+00  0.00000000E+00
  0.00000000E+00  0.00000000E+00  0.00000000E+00
  0.00000000E+00  0.00000000E+00  0.00000000E+00
  0.00000000E+00  0.00000000E+00  0.00000000E+00
  0.00000000E+00  0.00000000E+00  0.00000000E+00
  0.00000000E+00  0.00000000E+00  0.00000000E+00
  0.00000000E+00  0.00000000E+00  0.00000000E+00
  0.00000000E+00  0.00000000E+00  0.00000000E+00
  0.00000000E+00  0.00000000E+00  0.00000000E+00
  0.00000000E+00  0.00000000E+00  0.00000000E+00
  0.00000000E+00  0.00000000E+00  0.00000000E+00
  0.00000000E+00  0.00000000E+00  0.00000000E+00
  0.00000000E+00  0.00000000E+00  0.00000000E+00
  0.00000000E+00  0.00000000E+00  0.00000000E+00
  0.00000000E+00  0.00000000E+00  0.00000000E+00
  0.00000000E+00  0.00000000E+00  0.00000000E+00
  0.00000000E+00  0.00000000E+00  0.00000000E+00
  0.00000000E+00  0.00000000E+00  0.00000000E+00
  0.00000000E+00  0.00000000E+00  0.00000000E+00
  0.00000000E+00  0.00000000E+00  0.00000000E+00
  0.00000000E+00  0.00000000E+00  0.00000000E+00
  0.00000000E+00  0.00000000E+00  0.00000000E+00
  0.00000000E+00  0.00000000E+00  0.00000000E+00
  0.00000000E+00  0.00000000E+00  0.00000000E+00
  0.00000000E+00  0.00000000E+00  0.00000000E+00
  0.00000000E+00  0.00000000E+00  0.00000000E+00
  0.00000000E+00  0.00000000E+00  0.00000000E+00
  0.00000000E+00  0.00000000E+00  0.00000000E+00
  0.00000000E+00  0.00000000E+00  0.00000000E+00
  0.00000000E+00  0.00000000E+00  0.00000000E+00
  0.00000000E+00  0.00000000E+00  0.00000000E+00
  0.00000000E+00  0.00000000E+00  0.00000000E+00
  0.00000000E+00  0.00000000E+00  0.00000000E+00
  0.00000000E+00  0.00000000E+00  0.00000000E+00
  0.00000000E+00  0.00000000E+00  0.00000000E+00
  0.00000000E+00  0.00000000E+00  0.00000000E+00
  0.00000000E+00  0.00000000E+00  0.00000000E+00
  0.00000000E+00  0.00000000E+00  0.00000000E+00
  0.00000000E+00  0.00000000E+00  0.00000000E+00
  0.00000000E+00  0.00000000E+00  0.00000000E+00
  0.00000000E+00  0.00000000E+00  0.00000000E+00
  0.00000000E+00  0.00000000E+00  0.00000000E+00
  0.00000000E+00  0.00000000E+00  0.00000000E+00
  0.00000000E+00  0.00000000E+00  0.00000000E+00
  0.00000000E+00  0.00000000E+00  0.00000000E+00
  0.00000000E+00  0.00000000E+00  0.00000000E+00
  0.00000000E+00  0.00000000E+00  0.00000000E+00
  0.00000000E+00  0.00000000E+00  0.00000000E+00
  0.00000000E+00  0.00000000E+00  0.00000000E+00
  0.00000000E+00  0.00000000E+00  0.00000000E+00
  0.00000000E+00  0.00000000E+00  0.00000000E+00
  0.00000000E+00  0.00000000E+00  0.00000000E+00
  0.00000000E+00  0.00000000E+00  0.00000000E+00
  0.00000000E+00  0.00000000E+00  0.00000000E+00
  0.00000000E+00  0.00000000E+00  0.00000000E+00
  0.00000000E+00  0.00000000E+00  0.00000000E+00
  0.00000000E+00  0.00000000E+00  0.00000000E+00
  0.00000000E+00  0.00000000E+00  0.00000000E+00
  0.00000000E+00  0.00000000E+00  0.00000000E+00
  0.00000000E+00  0.00000000E+00  0.00000000E+00
  0.00000000E+00  0.00000000E+00  0.00000000E+00
  0.00000000E+00  0.00000000E+00  0.00000000E+00
  0.00000000E+00  0.00000000E+00  0.00000000E+00
  0.00000000E+00  0.00000000E+00  0.00000000E+00
  0.00000000E+00  0.00000000E+00  0.00000000E+00
  0.00000000E+00  0.00000000E+00  0.00000000E+00
  0.00000000E+00  0.00000000E+00  0.00000000E+00
  0.00000000E+00  0.00000000E+00  0.00000000E+00
  0.00000000E+00  0.00000000E+00  0.00000000E+00
  0.00000000E+00  0.00000000E+00  0.00000000E+00
  0.00000000E+00  0.00000000E+00  0.00000000E+00
  0.00000000E+00  0.00000000E+00  0.00000000E+00
  0.00000000E+00  0.00000000E+00  0.00000000E+00
  0.00000000E+00  0.00000000E+00  0.00000000E+00
  0.00000000E+00  0.00000000E+00  0.00000000E+00
  0.00000000E+00  0.00000000E+00  0.00000000E+00
  0.00000000E+00  0.00000000E+00  0.00000000E+00
  0.00000000E+00  0.00000000E+00  0.00000000E+00
  0.00000000E+00  0.00000000E+00  0.00000000E+00
  0.00000000E+00  0.00000000E+00  0.00000000E+00
  0.00000000E+00  0.00000000E+00  0.00000000E+00
  0.00000000E+00  0.00000000E+00  0.00000000E+00
  0.00000000E+00  0.00000000E+00  0.00000000E+00
  0.00000000E+00  0.00000000E+00  0.00000000E+00
  0.00000000E+00  0.00000000E+00  0.00000000E+00
  0.00000000E+00  0.00000000E+00  0.00000000E+00
  0.00000000E+00  0.00000000E+00  0.00000000E+00
  0.00000000E+00  0.00000000E+00  0.00000000E+00
  0.00000000E+00  0.00000000E+00  0.00000000E+00
  0.00000000E+00  0.00000000E+00  0.00000000E+00
  0.00000000E+00  0.00000000E+00  0.00000000E+00
  0.00000000E+00  0.00000000E+00  0.00000000E+00
  0.00000000E+00  0.00000000E+00  0.00000000E+00
  0.00000000E+00  0.00000000E+00  0.00000000E+00
  0.00000000E+00  0.00000000E+00  0.00000000E+00
