Al   B    N                             
   1.00000000000000     
    -9.2983060296351159    0.0000316611037197   -0.0000244053449188
    -4.6491243660573556    8.0551614757798582   -0.0028021764545585
     0.0000273546110029    0.0029535842855643   -9.9403482088747541
   Al   B    N 
    34     2    36
Direct
  0.1114110630578793  0.0941800610168642  0.3050635592614555
  0.2254738251093400  0.2004665204865361  0.0551578385212608
  0.7804471989534889  0.0888778010555527  0.8007841865580758
  0.8907261868821621  0.2004670684104894  0.5551577889941441
  0.4473424532423849  0.0888776416949497  0.3007841057783267
  0.5588377347250173  0.1994934844745373  0.0554301729970277
  0.1110764629372341  0.0941802553983422  0.8050636169438334
  0.2243360759616735  0.2043789295256246  0.5552237142196077
  0.7789073436325751  0.0917956040676984  0.3121268511894257
  0.8879520935414646  0.2043787307201299  0.0552237273394169
  0.4459641662971876  0.0917959800278751  0.8121269192703338
  0.5583348162423363  0.1994936345424989  0.5554301860843580
  0.1113525200105343  0.4277914484077812  0.3045597902628501
  0.2208916315405034  0.5406718481364194  0.0547513683472971
  0.7775230005346359  0.4277916202221732  0.8045597546675296
  0.8898542869232386  0.5441999339694092  0.5550472838967551
  0.4440646429155066  0.4277337236866430  0.3053351999566232
  0.5570961490387063  0.5423779779626017  0.0552486396659333
  0.1107161376871488  0.4278505401278423  0.8053758415752057
  0.2171922904927968  0.5423784771045632  0.5552487033037821
  0.7781007704421725  0.4278503429906948  0.3053758401565574
  0.8826126467733886  0.5441992879040782  0.0550471827297514
  0.4448675834927514  0.4277339864374241  0.8053352484028053
  0.5551033259214293  0.5406713699361134  0.5547512362090359
  0.1084885127929738  0.7623190031151452  0.3120264145296616
  0.2243427109435743  0.8729922181598937  0.0555163838796702
  0.7777069134204311  0.7650957657449240  0.8074806491542148
  0.4471417472322656  0.7641176155376286  0.3012707136675772
  0.1054063293496199  0.7641182764167240  0.8012705857361908
  0.2193313000942396  0.8729930003003403  0.5555163903014275
  0.7738632794292926  0.7650956764814509  0.3074806004623198
  0.8833075652259765  0.8736760018855563  0.0568968482405552
  0.4458585449948558  0.7623189704752349  0.8120262640816520
  0.5596824719612528  0.8736763053544863  0.5568968911644774
  0.8880378398070548  0.8723716097471694  0.5525812117611935
  0.5562572500669845  0.8723711521214739  0.0525812127257126
  0.2247203718057094  0.2043613524011931  0.3624080232970783
  0.1102220341900093  0.0943846896778311  0.1143048245288227
  0.8875857070214224  0.2043614046532127  0.8624079409734762
  0.7902285639689737  0.0692612712152041  0.6066305149213491
  0.5537359222385589  0.2045119906215831  0.3636633245028946
  0.4571770624737681  0.0692607812344406  0.1066305901703117
  0.2215995884745539  0.2056527339052110  0.8651140839830873
  0.1120599261076904  0.0943852171693180  0.6143048734653789
  0.8894152407585167  0.2056524310666887  0.3651139371364636
  0.7787845354146938  0.0927807907711866  0.1200305840560532
  0.5584191435159056  0.2045122032610962  0.8636633384145327
  0.4451012294156413  0.0927808397587526  0.6200307919870269
  0.2222578121156005  0.5383931176073204  0.3650029402431301
  0.1103827996344862  0.4277587849857483  0.1129602175125868
  0.8873934402576538  0.5408353796533873  0.8631459037350666
  0.7785250567349635  0.4277590745655715  0.6129601920674759
  0.5543841799120912  0.5412383388159725  0.3624084695244605
  0.4446161481426785  0.4272835914782931  0.1133585856706389
  0.2210437869744766  0.5412390841736183  0.8624086133349920
  0.1114636641117954  0.4267485387707595  0.6143328430251458
  0.8884382422562282  0.5408353827790222  0.3631459527899423
  0.7784546876574012  0.4267481733283915  0.1143328591786812
  0.5560157829035859  0.5383929763654578  0.8650028016713662
  0.4447665350074814  0.4272836509768965  0.6133586305832495
  0.2247930388093948  0.8712421617031652  0.3637362510830116
  0.1083622306033618  0.7624941065375950  0.1189325436276647
  0.8889363471587757  0.8726730465584112  0.8687105264082220
  0.7891441991066515  0.7742897335908481  0.6113213237280988
  0.5550567793880958  0.8726728977239375  0.3687105344256523
  0.4565441371840677  0.7739802622295926  0.1069088833292682
  0.2206310928992963  0.8712423071769564  0.8637362536249640
  0.0861418228550050  0.7739808516555442  0.6069088138295413
  0.8877361772913730  0.8713689042488042  0.3851594348407232
  0.7532325629687264  0.7742892838638866  0.1113212726480555
  0.5575611160912359  0.8713689655250292  0.8851594165671912
  0.4458099899087244  0.7624940537300589  0.6189323531723119
 
  0.00000000E+00  0.00000000E+00  0.00000000E+00
  0.00000000E+00  0.00000000E+00  0.00000000E+00
  0.00000000E+00  0.00000000E+00  0.00000000E+00
  0.00000000E+00  0.00000000E+00  0.00000000E+00
  0.00000000E+00  0.00000000E+00  0.00000000E+00
  0.00000000E+00  0.00000000E+00  0.00000000E+00
  0.00000000E+00  0.00000000E+00  0.00000000E+00
  0.00000000E+00  0.00000000E+00  0.00000000E+00
  0.00000000E+00  0.00000000E+00  0.00000000E+00
  0.00000000E+00  0.00000000E+00  0.00000000E+00
  0.00000000E+00  0.00000000E+00  0.00000000E+00
  0.00000000E+00  0.00000000E+00  0.00000000E+00
  0.00000000E+00  0.00000000E+00  0.00000000E+00
  0.00000000E+00  0.00000000E+00  0.00000000E+00
  0.00000000E+00  0.00000000E+00  0.00000000E+00
  0.00000000E+00  0.00000000E+00  0.00000000E+00
  0.00000000E+00  0.00000000E+00  0.00000000E+00
  0.00000000E+00  0.00000000E+00  0.00000000E+00
  0.00000000E+00  0.00000000E+00  0.00000000E+00
  0.00000000E+00  0.00000000E+00  0.00000000E+00
  0.00000000E+00  0.00000000E+00  0.00000000E+00
  0.00000000E+00  0.00000000E+00  0.00000000E+00
  0.00000000E+00  0.00000000E+00  0.00000000E+00
  0.00000000E+00  0.00000000E+00  0.00000000E+00
  0.00000000E+00  0.00000000E+00  0.00000000E+00
  0.00000000E+00  0.00000000E+00  0.00000000E+00
  0.00000000E+00  0.00000000E+00  0.00000000E+00
  0.00000000E+00  0.00000000E+00  0.00000000E+00
  0.00000000E+00  0.00000000E+00  0.00000000E+00
  0.00000000E+00  0.00000000E+00  0.00000000E+00
  0.00000000E+00  0.00000000E+00  0.00000000E+00
  0.00000000E+00  0.00000000E+00  0.00000000E+00
  0.00000000E+00  0.00000000E+00  0.00000000E+00
  0.00000000E+00  0.00000000E+00  0.00000000E+00
  0.00000000E+00  0.00000000E+00  0.00000000E+00
  0.00000000E+00  0.00000000E+00  0.00000000E+00
  0.00000000E+00  0.00000000E+00  0.00000000E+00
  0.00000000E+00  0.00000000E+00  0.00000000E+00
  0.00000000E+00  0.00000000E+00  0.00000000E+00
  0.00000000E+00  0.00000000E+00  0.00000000E+00
  0.00000000E+00  0.00000000E+00  0.00000000E+00
  0.00000000E+00  0.00000000E+00  0.00000000E+00
  0.00000000E+00  0.00000000E+00  0.00000000E+00
  0.00000000E+00  0.00000000E+00  0.00000000E+00
  0.00000000E+00  0.00000000E+00  0.00000000E+00
  0.00000000E+00  0.00000000E+00  0.00000000E+00
  0.00000000E+00  0.00000000E+00  0.00000000E+00
  0.00000000E+00  0.00000000E+00  0.00000000E+00
  0.00000000E+00  0.00000000E+00  0.00000000E+00
  0.00000000E+00  0.00000000E+00  0.00000000E+00
  0.00000000E+00  0.00000000E+00  0.00000000E+00
  0.00000000E+00  0.00000000E+00  0.00000000E+00
  0.00000000E+00  0.00000000E+00  0.00000000E+00
  0.00000000E+00  0.00000000E+00  0.00000000E+00
  0.00000000E+00  0.00000000E+00  0.00000000E+00
  0.00000000E+00  0.00000000E+00  0.00000000E+00
  0.00000000E+00  0.00000000E+00  0.00000000E+00
  0.00000000E+00  0.00000000E+00  0.00000000E+00
  0.00000000E+00  0.00000000E+00  0.00000000E+00
  0.00000000E+00  0.00000000E+00  0.00000000E+00
  0.00000000E+00  0.00000000E+00  0.00000000E+00
  0.00000000E+00  0.00000000E+00  0.00000000E+00
  0.00000000E+00  0.00000000E+00  0.00000000E+00
  0.00000000E+00  0.00000000E+00  0.00000000E+00
  0.00000000E+00  0.00000000E+00  0.00000000E+00
  0.00000000E+00  0.00000000E+00  0.00000000E+00
  0.00000000E+00  0.00000000E+00  0.00000000E+00
  0.00000000E+00  0.00000000E+00  0.00000000E+00
  0.00000000E+00  0.00000000E+00  0.00000000E+00
  0.00000000E+00  0.00000000E+00  0.00000000E+00
  0.00000000E+00  0.00000000E+00  0.00000000E+00
  0.00000000E+00  0.00000000E+00  0.00000000E+00
