Al   B    N                             
   1.00000000000000     
    -9.3410438225037531    0.0001814703755462   -0.0001843035397609
    -4.6773572831298358    8.0637671474163444   -0.0004516186230570
    -0.0134296952711443    0.1007647031229232  -10.1460159559988341
   Al   B    N 
    34     2    36
Direct
  0.1071519534196597  0.0928613804321117  0.3195228454557224
  0.2270832353369556  0.2008431858549642  0.1175310525582987
  0.7737604307843498  0.0931722231121555  0.8986722777547982
  0.8934207639968008  0.2043327141760400  0.5740804398883199
  0.4413145319527914  0.0970107660722164  0.3970404068331348
  0.5614651866659770  0.1918157297264145  0.1465424584622639
  0.1092455785371129  0.0931012806791713  0.8268689092040589
  0.2243747226746891  0.2067677499520997  0.6303794952941573
  0.7808963151483965  0.0801227062276197  0.3874964613119687
  0.8892813595603073  0.2134403592726954  0.0713771438678776
  0.4521473766756827  0.0821098167948051  0.8901850874567501
  0.5660274058646309  0.1912744675326010  0.6447005513411099
  0.1088088645456438  0.4331652207737093  0.3185775846237462
  0.2249157645243471  0.5399159393093171  0.0669022764490919
  0.7758100370727092  0.4310451860806737  0.8199856986976215
  0.8920335782312137  0.5448267896686829  0.5689503456414826
  0.4411898493916055  0.4319061240715882  0.3227557201481801
  0.5566062414398587  0.5426186464916967  0.0730648512622878
  0.1083468195883981  0.4330915940899160  0.8281138639342984
  0.2176432861418149  0.5423811220717454  0.5727413231115648
  0.7779794081192719  0.4269532438678496  0.3223767066368879
  0.8779044340981983  0.5475831153639987  0.0684546262345549
  0.4438082229394311  0.4321256866866108  0.8219227435703402
  0.5536035511942856  0.5384259274929732  0.5670986171197185
  0.1154367013341613  0.7588059885008178  0.3150643608797878
  0.2282773886680118  0.8740869397861459  0.0689554157957204
  0.7826364625239961  0.7649367731782064  0.8213743408833452
  0.4456808497991318  0.7665232805151518  0.3287283532608853
  0.1048543171116165  0.7660456797334874  0.8276265646513608
  0.2136070174578393  0.8747849491116000  0.5698376982930640
  0.7687292067105034  0.7634179681566735  0.3228061843331886
  0.8867632034516362  0.8721577632215443  0.1061432119835146
  0.4426011193343342  0.7597765971685391  0.8145261552703289
  0.5591082493650106  0.8713241198126340  0.6022945782971405
  0.8928268958475485  0.8692309259931719  0.6103828196441086
  0.5550087453380286  0.8693136694856989  0.1107233751641203
  0.2260896023602541  0.2033605019996472  0.3341801173109786
  0.1066748883902164  0.0918140613228928  0.1297352060375729
  0.8890693773026612  0.2105582575424947  0.8801795537611667
  0.7953550435047134  0.0584233603382529  0.5862049610310720
  0.5586877322488633  0.1979429766405190  0.3350729531014736
  0.4634175789394703  0.0592486231284255  0.0855658748374353
  0.2239307452371051  0.2054051232640148  0.8615186376095920
  0.1103329866162781  0.0923917972027866  0.6358483986186982
  0.8892688878015562  0.2064268346701041  0.3854214054126359
  0.7719017902896539  0.1028300266016871  0.0865500011577467
  0.5595848780944976  0.1979090163816721  0.8332115109169109
  0.4402168400779445  0.1043732789471790  0.5837075784353658
  0.2212295780259410  0.5395350328301021  0.3849979536722685
  0.1040219139562524  0.4392137972187058  0.1267653983232648
  0.8850019741267658  0.5424569532863046  0.8810513735613057
  0.7766386337841595  0.4317747694099623  0.6304311896330432
  0.5549521013370793  0.5388135501189240  0.3789470422207799
  0.4429410251821011  0.4301374838612091  0.1313835607196410
  0.2239540543853380  0.5400800016687555  0.8794580545853279
  0.1075065083186146  0.4343433488159363  0.6363175757131501
  0.8888449976931909  0.5392804176538846  0.3812334573214855
  0.7772503377185060  0.4303618958347712  0.1342119168176907
  0.5552810344601724  0.5402298062745530  0.8846059706049161
  0.4438399846861358  0.4298302795837756  0.6305290379016313
  0.2201622320822878  0.8720757891195632  0.3818920539610673
  0.1258848237448476  0.7564030702161944  0.1278247159516042
  0.8927405198268517  0.8632446811853640  0.8956282826064026
  0.8023920753534384  0.7733037515056083  0.6258412123287016
  0.5599708446705236  0.8643852877846072  0.3969704749166212
  0.4569724803526043  0.7781670180280926  0.1311799583425497
  0.2244660206243054  0.8704700799825815  0.8815343936900248
  0.0823132398743880  0.7771666480853625  0.6306250527061366
  0.8882742952804605  0.8708764296213829  0.3201547895328716
  0.7403555392864263  0.7740327591280476  0.1272188682963531
  0.5560190618314991  0.8732708191036451  0.8198669404306713
  0.4352381793218640  0.7563057063371588  0.6268930794464538
 
  0.00000000E+00  0.00000000E+00  0.00000000E+00
  0.00000000E+00  0.00000000E+00  0.00000000E+00
  0.00000000E+00  0.00000000E+00  0.00000000E+00
  0.00000000E+00  0.00000000E+00  0.00000000E+00
  0.00000000E+00  0.00000000E+00  0.00000000E+00
  0.00000000E+00  0.00000000E+00  0.00000000E+00
  0.00000000E+00  0.00000000E+00  0.00000000E+00
  0.00000000E+00  0.00000000E+00  0.00000000E+00
  0.00000000E+00  0.00000000E+00  0.00000000E+00
  0.00000000E+00  0.00000000E+00  0.00000000E+00
  0.00000000E+00  0.00000000E+00  0.00000000E+00
  0.00000000E+00  0.00000000E+00  0.00000000E+00
  0.00000000E+00  0.00000000E+00  0.00000000E+00
  0.00000000E+00  0.00000000E+00  0.00000000E+00
  0.00000000E+00  0.00000000E+00  0.00000000E+00
  0.00000000E+00  0.00000000E+00  0.00000000E+00
  0.00000000E+00  0.00000000E+00  0.00000000E+00
  0.00000000E+00  0.00000000E+00  0.00000000E+00
  0.00000000E+00  0.00000000E+00  0.00000000E+00
  0.00000000E+00  0.00000000E+00  0.00000000E+00
  0.00000000E+00  0.00000000E+00  0.00000000E+00
  0.00000000E+00  0.00000000E+00  0.00000000E+00
  0.00000000E+00  0.00000000E+00  0.00000000E+00
  0.00000000E+00  0.00000000E+00  0.00000000E+00
  0.00000000E+00  0.00000000E+00  0.00000000E+00
  0.00000000E+00  0.00000000E+00  0.00000000E+00
  0.00000000E+00  0.00000000E+00  0.00000000E+00
  0.00000000E+00  0.00000000E+00  0.00000000E+00
  0.00000000E+00  0.00000000E+00  0.00000000E+00
  0.00000000E+00  0.00000000E+00  0.00000000E+00
  0.00000000E+00  0.00000000E+00  0.00000000E+00
  0.00000000E+00  0.00000000E+00  0.00000000E+00
  0.00000000E+00  0.00000000E+00  0.00000000E+00
  0.00000000E+00  0.00000000E+00  0.00000000E+00
  0.00000000E+00  0.00000000E+00  0.00000000E+00
  0.00000000E+00  0.00000000E+00  0.00000000E+00
  0.00000000E+00  0.00000000E+00  0.00000000E+00
  0.00000000E+00  0.00000000E+00  0.00000000E+00
  0.00000000E+00  0.00000000E+00  0.00000000E+00
  0.00000000E+00  0.00000000E+00  0.00000000E+00
  0.00000000E+00  0.00000000E+00  0.00000000E+00
  0.00000000E+00  0.00000000E+00  0.00000000E+00
  0.00000000E+00  0.00000000E+00  0.00000000E+00
  0.00000000E+00  0.00000000E+00  0.00000000E+00
  0.00000000E+00  0.00000000E+00  0.00000000E+00
  0.00000000E+00  0.00000000E+00  0.00000000E+00
  0.00000000E+00  0.00000000E+00  0.00000000E+00
  0.00000000E+00  0.00000000E+00  0.00000000E+00
  0.00000000E+00  0.00000000E+00  0.00000000E+00
  0.00000000E+00  0.00000000E+00  0.00000000E+00
  0.00000000E+00  0.00000000E+00  0.00000000E+00
  0.00000000E+00  0.00000000E+00  0.00000000E+00
  0.00000000E+00  0.00000000E+00  0.00000000E+00
  0.00000000E+00  0.00000000E+00  0.00000000E+00
  0.00000000E+00  0.00000000E+00  0.00000000E+00
  0.00000000E+00  0.00000000E+00  0.00000000E+00
  0.00000000E+00  0.00000000E+00  0.00000000E+00
  0.00000000E+00  0.00000000E+00  0.00000000E+00
  0.00000000E+00  0.00000000E+00  0.00000000E+00
  0.00000000E+00  0.00000000E+00  0.00000000E+00
  0.00000000E+00  0.00000000E+00  0.00000000E+00
  0.00000000E+00  0.00000000E+00  0.00000000E+00
  0.00000000E+00  0.00000000E+00  0.00000000E+00
  0.00000000E+00  0.00000000E+00  0.00000000E+00
  0.00000000E+00  0.00000000E+00  0.00000000E+00
  0.00000000E+00  0.00000000E+00  0.00000000E+00
  0.00000000E+00  0.00000000E+00  0.00000000E+00
  0.00000000E+00  0.00000000E+00  0.00000000E+00
  0.00000000E+00  0.00000000E+00  0.00000000E+00
  0.00000000E+00  0.00000000E+00  0.00000000E+00
  0.00000000E+00  0.00000000E+00  0.00000000E+00
  0.00000000E+00  0.00000000E+00  0.00000000E+00
