Al   B    N                             
   1.00000000000000     
    -9.3341010987040320    0.0002182239292984   -0.0001684001011958
    -4.6610416218164987    8.0575651015359000   -0.0040310394201177
     0.0053664264459045    0.0754991378866705  -10.1445205675027488
   Al   B    N 
    34     2    36
Direct
  0.1098770452772655  0.0951278784272489  0.3097591474416248
  0.2198659527886022  0.2046183963819246  0.0616756576916302
  0.7757487040375963  0.0934848202579062  0.8876377733074250
  0.8910411069353614  0.2018845826666436  0.5611182739080505
  0.4485944586453314  0.0935944082778661  0.3870932404784710
  0.5577547647075676  0.1932281138938379  0.1291958417344716
  0.1120856828722410  0.0957925183330062  0.8092207873444721
  0.2130846048623525  0.2122482897718072  0.5611059289157652
  0.7806619230077345  0.0829870464262754  0.3621008725889823
  0.8915895643932927  0.2129963304229250  0.0615478963892357
  0.4545384534269914  0.0805844687415345  0.8741719786244104
  0.5659007615265779  0.1909332782805606  0.6345427918362887
  0.1098009883133670  0.4301018303559658  0.3086059793566278
  0.2241886244812363  0.5394593043725635  0.0545844781084455
  0.7769040477109996  0.4298175928453034  0.8078465346736436
  0.8908007003374863  0.5456427520834524  0.5573756447229954
  0.4402246422113549  0.4328410907181848  0.3083091191381229
  0.5569767581549954  0.5434215236265132  0.0602093915459108
  0.1115226816442245  0.4276790389620544  0.8099572273158557
  0.2175121797763282  0.5422269331030733  0.5611739905803361
  0.7772837857977919  0.4281365184708648  0.3102479005294825
  0.8796046492033298  0.5461886424555047  0.0568039715385638
  0.4430600013365265  0.4331497536511222  0.8105910498370790
  0.5532121093049085  0.5377614146186289  0.5553230120286585
  0.1160838128198947  0.7585531746438150  0.3027478795345502
  0.2284791605561836  0.8755204109780195  0.0577144054521384
  0.7845375072512653  0.7630694574201087  0.8100516516118006
  0.4456817937613451  0.7659921304712114  0.3166129408253724
  0.1046853318865999  0.7666501173660549  0.8160944857879713
  0.2131732114989475  0.8749254592083631  0.5580780803048668
  0.7690977566978887  0.7626462439261417  0.3101617754585604
  0.8870301146202380  0.8709973759378826  0.0927222054510111
  0.4422230081743947  0.7594086164714113  0.8023309531188545
  0.5585131211415728  0.8722305778115143  0.5935527363288600
  0.8916471757681350  0.8710219494614222  0.5991029141780828
  0.5544349759412839  0.8696531143011157  0.0982096945718993
  0.2155244338941529  0.2092346946013279  0.3688275484939467
  0.1110735839885635  0.0951233074968272  0.1223168432108892
  0.8924577243028580  0.2094389750592143  0.8696575352808864
  0.7947807856797482  0.0589098145976550  0.5768198746821582
  0.5560074217779345  0.1988368404579930  0.3180010778284199
  0.4624909466034310  0.0585218826001750  0.0726157705515504
  0.2209101536319125  0.2072819791728620  0.8724514933771701
  0.1103240630543141  0.0950819083720091  0.6215525822874923
  0.8886483007534380  0.2067077646633066  0.3711289912842730
  0.7732772424487848  0.1029900028057540  0.0777634139877179
  0.5600774203526981  0.1990954412071204  0.8241433387301882
  0.4414213042673225  0.1034807025829636  0.5753003035195263
  0.2215436362120968  0.5394741732615742  0.3725844934477749
  0.1084302799965684  0.4323266116946698  0.1186518113260746
  0.8883749368491465  0.5400130493358901  0.8687530253007125
  0.7764810618857680  0.4304488109243820  0.6180359093166246
  0.5545745230215786  0.5383408382847037  0.3667827549073550
  0.4426116968608866  0.4314173749748349  0.1169451848984195
  0.2224935242233315  0.5394697187208308  0.8667031917270620
  0.1088580544920319  0.4300672076111951  0.6219769451131540
  0.8883218636531183  0.5399118454439815  0.3692105677984188
  0.7772662102891559  0.4308436999080669  0.1221664723634177
  0.5560462429582742  0.5403413126453103  0.8721718145339992
  0.4434664668705466  0.4296475004853022  0.6195799879325889
  0.2203037756817565  0.8725747548311915  0.3695784375485260
  0.1261658285578093  0.7566119119329429  0.1150899394470883
  0.8927827818427190  0.8633449830663409  0.8855077861447924
  0.8025556299852354  0.7730943669558599  0.6150363270622705
  0.5606281275935956  0.8634937941146319  0.3841624294911981
  0.4570738848096383  0.7776600382188477  0.1190810209529616
  0.2238880198690580  0.8731193570768525  0.8692648428218064
  0.0820712305843116  0.7773468685991389  0.6193024025342950
  0.8892838205582407  0.8691846917225448  0.3069096743675388
  0.7405830170928098  0.7733844748258605  0.1143635194774930
  0.5575061347021801  0.8712329478200687  0.8075173019742508
  0.4349206617523365  0.7560796492165878  0.6147918719525265
 
  0.00000000E+00  0.00000000E+00  0.00000000E+00
  0.00000000E+00  0.00000000E+00  0.00000000E+00
  0.00000000E+00  0.00000000E+00  0.00000000E+00
  0.00000000E+00  0.00000000E+00  0.00000000E+00
  0.00000000E+00  0.00000000E+00  0.00000000E+00
  0.00000000E+00  0.00000000E+00  0.00000000E+00
  0.00000000E+00  0.00000000E+00  0.00000000E+00
  0.00000000E+00  0.00000000E+00  0.00000000E+00
  0.00000000E+00  0.00000000E+00  0.00000000E+00
  0.00000000E+00  0.00000000E+00  0.00000000E+00
  0.00000000E+00  0.00000000E+00  0.00000000E+00
  0.00000000E+00  0.00000000E+00  0.00000000E+00
  0.00000000E+00  0.00000000E+00  0.00000000E+00
  0.00000000E+00  0.00000000E+00  0.00000000E+00
  0.00000000E+00  0.00000000E+00  0.00000000E+00
  0.00000000E+00  0.00000000E+00  0.00000000E+00
  0.00000000E+00  0.00000000E+00  0.00000000E+00
  0.00000000E+00  0.00000000E+00  0.00000000E+00
  0.00000000E+00  0.00000000E+00  0.00000000E+00
  0.00000000E+00  0.00000000E+00  0.00000000E+00
  0.00000000E+00  0.00000000E+00  0.00000000E+00
  0.00000000E+00  0.00000000E+00  0.00000000E+00
  0.00000000E+00  0.00000000E+00  0.00000000E+00
  0.00000000E+00  0.00000000E+00  0.00000000E+00
  0.00000000E+00  0.00000000E+00  0.00000000E+00
  0.00000000E+00  0.00000000E+00  0.00000000E+00
  0.00000000E+00  0.00000000E+00  0.00000000E+00
  0.00000000E+00  0.00000000E+00  0.00000000E+00
  0.00000000E+00  0.00000000E+00  0.00000000E+00
  0.00000000E+00  0.00000000E+00  0.00000000E+00
  0.00000000E+00  0.00000000E+00  0.00000000E+00
  0.00000000E+00  0.00000000E+00  0.00000000E+00
  0.00000000E+00  0.00000000E+00  0.00000000E+00
  0.00000000E+00  0.00000000E+00  0.00000000E+00
  0.00000000E+00  0.00000000E+00  0.00000000E+00
  0.00000000E+00  0.00000000E+00  0.00000000E+00
  0.00000000E+00  0.00000000E+00  0.00000000E+00
  0.00000000E+00  0.00000000E+00  0.00000000E+00
  0.00000000E+00  0.00000000E+00  0.00000000E+00
  0.00000000E+00  0.00000000E+00  0.00000000E+00
  0.00000000E+00  0.00000000E+00  0.00000000E+00
  0.00000000E+00  0.00000000E+00  0.00000000E+00
  0.00000000E+00  0.00000000E+00  0.00000000E+00
  0.00000000E+00  0.00000000E+00  0.00000000E+00
  0.00000000E+00  0.00000000E+00  0.00000000E+00
  0.00000000E+00  0.00000000E+00  0.00000000E+00
  0.00000000E+00  0.00000000E+00  0.00000000E+00
  0.00000000E+00  0.00000000E+00  0.00000000E+00
  0.00000000E+00  0.00000000E+00  0.00000000E+00
  0.00000000E+00  0.00000000E+00  0.00000000E+00
  0.00000000E+00  0.00000000E+00  0.00000000E+00
  0.00000000E+00  0.00000000E+00  0.00000000E+00
  0.00000000E+00  0.00000000E+00  0.00000000E+00
  0.00000000E+00  0.00000000E+00  0.00000000E+00
  0.00000000E+00  0.00000000E+00  0.00000000E+00
  0.00000000E+00  0.00000000E+00  0.00000000E+00
  0.00000000E+00  0.00000000E+00  0.00000000E+00
  0.00000000E+00  0.00000000E+00  0.00000000E+00
  0.00000000E+00  0.00000000E+00  0.00000000E+00
  0.00000000E+00  0.00000000E+00  0.00000000E+00
  0.00000000E+00  0.00000000E+00  0.00000000E+00
  0.00000000E+00  0.00000000E+00  0.00000000E+00
  0.00000000E+00  0.00000000E+00  0.00000000E+00
  0.00000000E+00  0.00000000E+00  0.00000000E+00
  0.00000000E+00  0.00000000E+00  0.00000000E+00
  0.00000000E+00  0.00000000E+00  0.00000000E+00
  0.00000000E+00  0.00000000E+00  0.00000000E+00
  0.00000000E+00  0.00000000E+00  0.00000000E+00
  0.00000000E+00  0.00000000E+00  0.00000000E+00
  0.00000000E+00  0.00000000E+00  0.00000000E+00
  0.00000000E+00  0.00000000E+00  0.00000000E+00
  0.00000000E+00  0.00000000E+00  0.00000000E+00
