Mg   Si   N                             
   1.00000000000000     
    -0.0697252528509134    0.0000000140510384   -5.0254035464199998
    -5.3254418918121136    0.0031791009407072   -0.0000001450372391
    -0.0051510169757440    6.6092134375316904   -0.1552538024670760
   Mg   Si   N 
     4     4     8
Direct
  0.0644171575943062  0.4108684255173145  0.8866233590839414
  0.0872919974418664  0.9221350724716402  0.6307752153831885
  0.4999747965555628  0.5705950857084687  0.1308418963494020
  0.5809027204101085  0.0646873611891223  0.3819801239339711
  0.1008351363763182  0.9285516231416935  0.1343240721989432
  0.6078048467709678  0.0643911898807090  0.8843694300735763
  0.9661898412226151  0.4305929491699416  0.3815694900417483
  0.5209442788646896  0.5688078504225658  0.6381984485199510
  0.9517458428789709  0.0414887656932166  0.9157221309807184
  0.4488991125455470  0.9544853530545865  0.1014768159286632
  0.0569029672991235  0.6002987500461714  0.1623654230867189
  0.0132688842475943  0.0997747882334039  0.3524875085176760
  0.5267751457658392  0.3862480770584327  0.8543641809876874
  0.5223137399880002  0.8941420350467482  0.6658640858505578
  0.0764661948336567  0.5466390405512698  0.6057711109998820
  0.6114696780116944  0.4496639438461116  0.4066095868839028
 
             NaN             NaN             NaN
             NaN             NaN             NaN
             NaN             NaN             NaN
             NaN             NaN             NaN
             NaN             NaN             NaN
             NaN             NaN             NaN
             NaN             NaN             NaN
             NaN             NaN             NaN
             NaN             NaN             NaN
             NaN             NaN             NaN
             NaN             NaN             NaN
             NaN             NaN             NaN
             NaN             NaN             NaN
             NaN             NaN             NaN
             NaN             NaN             NaN
             NaN             NaN             NaN
