Mg   Si   N                             
   1.00000000000000     
    -0.0742417358912493    0.0000000140510384   -5.0254035464199998
    -5.3259367826917492    0.0044588107231292   -0.0000001450372394
    -0.0068821193327630    6.6129435910838588   -0.1666911660945055
   Mg   Si   N 
     4     4     8
Direct
  0.0682156476432993  0.4107974226261319  0.8859717243327836
  0.0893176613962225  0.9207107181385723  0.6307026219871830
  0.4990229248646187  0.5706916851820267  0.1306303990959137
  0.5801492339468481  0.0645918290441756  0.3817735273567280
  0.1004923575227465  0.9285618944141518  0.1342220069308837
  0.6079155570478818  0.0645269441623029  0.8845766774949126
  0.9632608791350208  0.4298745300341835  0.3801614494069696
  0.5613572228165467  0.5708250066164950  0.6410397897694153
  0.9516583774482470  0.0417078116821301  0.9156359453988046
  0.4486591058516680  0.9544236075163042  0.1012847633117033
  0.0564503403301728  0.6003656998705580  0.1622085797644033
  0.0131307763700619  0.0996789367224267  0.3524246761745786
  0.5237625105531052  0.3859193320666563  0.8540206248460009
  0.5212894994140811  0.8940975520770778  0.6660018212572183
  0.0463353834805744  0.5484302840378135  0.6083985521458715
  0.6051848629857588  0.4481670568403970  0.4042897195471511
 
             NaN             NaN             NaN
             NaN             NaN             NaN
             NaN             NaN             NaN
             NaN             NaN             NaN
             NaN             NaN             NaN
             NaN             NaN             NaN
             NaN             NaN             NaN
             NaN             NaN             NaN
             NaN             NaN             NaN
             NaN             NaN             NaN
             NaN             NaN             NaN
             NaN             NaN             NaN
             NaN             NaN             NaN
             NaN             NaN             NaN
             NaN             NaN             NaN
             NaN             NaN             NaN
