Mg   Si   N                             
   1.00000000000000     
    -0.1038438527370294    0.0000000140510385   -5.0254035464199998
    -5.3230241352030854    0.0072981837281614   -0.0000001450372401
    -0.0100393076636166    6.5846455559052846   -0.2242285597703794
   Mg   Si   N 
     4     4     8
Direct
  0.0896255645231250  0.4075951007297789  0.8841234367338657
  0.1002078445876151  0.9149229933892542  0.6326924113350785
  0.4992304403389980  0.5716042162263690  0.1284950586102411
  0.5748685205507869  0.0648912832034654  0.3836452094186811
  0.1008322855401502  0.9299383529200256  0.1340200334836297
  0.6074697924613446  0.0669022500583125  0.8825071054559359
  0.9513394233912393  0.4266106969028911  0.3741856693388002
  0.6266891917680297  0.5726414466653367  0.6435169762140731
  0.9522520269426735  0.0444634756518738  0.9153484275634938
  0.4481582802219535  0.9556953990291674  0.1012021965221592
  0.0565427153828395  0.6016108985930089  0.1628501435225687
  0.0141283459848438  0.0993845805003204  0.3556824434420207
  0.5172769341487395  0.3869302222417730  0.8492250366057519
  0.5205829665757733  0.8893634603618636  0.6674082001627184
  0.9839671354204995  0.5535414191493757  0.6163948940555173
  0.5930308729684199  0.4472745154094966  0.4020456363567178
 
             NaN             NaN             NaN
             NaN             NaN             NaN
             NaN             NaN             NaN
             NaN             NaN             NaN
             NaN             NaN             NaN
             NaN             NaN             NaN
             NaN             NaN             NaN
             NaN             NaN             NaN
             NaN             NaN             NaN
             NaN             NaN             NaN
             NaN             NaN             NaN
             NaN             NaN             NaN
             NaN             NaN             NaN
             NaN             NaN             NaN
             NaN             NaN             NaN
             NaN             NaN             NaN
