Mg   Si   N                             
   1.00000000000000     
    -0.0513657148759752    0.0000000140510377   -5.0254035464199998
    -5.3141056918130580    0.0008460775008861   -0.0000001450372345
    -0.0002824637334112    6.5408052917827719    0.1063810745238645
   Mg   Si   N 
     4     4     8
Direct
  0.9978627273787382  0.4174140427188036  0.8848726077569040
  0.9981468585294380  0.9111831310732086  0.6271550005448532
  0.4833362336631168  0.5790697137592673  0.1338411898449650
  0.4832375730800464  0.0822287092498115  0.3857701676518204
  0.9717424393008045  0.9256677379646874  0.1334177894822943
  0.4938608777649591  0.0666113055042317  0.8815577621832560
  0.9753550343993567  0.4245233953642469  0.3825635227355377
  0.4786033341269160  0.5652804944295724  0.6332009428060275
  0.1104101964351969  0.0448389255040951  0.9096793773806553
  0.6206823533291868  0.9437741040171730  0.1094962067920306
  0.0627735582882849  0.6043153146161941  0.1661721724638738
  0.0639776772710690  0.1041454148532566  0.3518705604849970
  0.5683541654241040  0.3896750270602141  0.8550257838725273
  0.5667559145436698  0.8864396812724351  0.6621147780481635
  0.1321715241369645  0.5424606024080632  0.6019686391748706
  0.6289318731358620  0.4457427112362495  0.4146363775978514
 
             NaN             NaN             NaN
             NaN             NaN             NaN
             NaN             NaN             NaN
             NaN             NaN             NaN
             NaN             NaN             NaN
             NaN             NaN             NaN
             NaN             NaN             NaN
             NaN             NaN             NaN
             NaN             NaN             NaN
             NaN             NaN             NaN
             NaN             NaN             NaN
             NaN             NaN             NaN
             NaN             NaN             NaN
             NaN             NaN             NaN
             NaN             NaN             NaN
             NaN             NaN             NaN
