Mg   Si   N                             
   1.00000000000000     
    -0.0512345416806619    0.0000000140510388   -5.0254035464199998
    -5.3140218313841672   -0.0008716464149665   -0.0000001450372419
     0.0002741168457655    6.5406127995228411   -0.1061421677292105
   Mg   Si   N 
     4     4     8
Direct
  0.0962628475745007  0.4094534831721006  0.8857709295760756
  0.0961649467860042  0.9125983884325208  0.6338335898723813
  0.5814347862549880  0.5804819128455847  0.1271684918982885
  0.5817137033487896  0.0742821592534000  0.3848689032399619
  0.1009188059666073  0.9263854198481809  0.1332123230132538
  0.6041672992957388  0.0671379613845460  0.8825669678511474
  0.0859960608129313  0.4250648096050824  0.3815654677825790
  0.6077536793755343  0.5659937639486188  0.6334003474645016
  0.9505870521708246  0.0459245098600789  0.9146309712259750
  0.4473617763061597  0.9492055061099123  0.1019730335171332
  0.0127681000301436  0.6052184190252632  0.1621424367717808
  0.0111829502062122  0.1020370389433083  0.3550261800463730
  0.5155371993126181  0.3875237384898611  0.8518621931100228
  0.5167411044979602  0.8873478541126758  0.6661562741126374
  0.9587807903498415  0.5478752345007294  0.6094593693192465
  0.4688312385179998  0.4468401114996823  0.4097054000192060
 
             NaN             NaN             NaN
             NaN             NaN             NaN
             NaN             NaN             NaN
             NaN             NaN             NaN
             NaN             NaN             NaN
             NaN             NaN             NaN
             NaN             NaN             NaN
             NaN             NaN             NaN
             NaN             NaN             NaN
             NaN             NaN             NaN
             NaN             NaN             NaN
             NaN             NaN             NaN
             NaN             NaN             NaN
             NaN             NaN             NaN
             NaN             NaN             NaN
             NaN             NaN             NaN
