Mg   Si   N 
   1.00000000000000     
  -0.0000001382052337   0.0000000140510376  -5.0254035464199998
  -5.3079888407300002   0.0000001058798205  -0.0000001450372338
  -0.0000001282285487   6.4885468273200004  -0.0000000189720097
Mg   Si   N 
4  4  8  
Direct
  0.0019331685028590  0.4110249936985824  0.8854793909233933  
  0.0019331730714924  0.9110249887361306  0.6311872734171544  
  0.5019331717839677  0.5806416941443970  0.1311872768349573  
  0.5019331678007291  0.0806416845496756  0.3854793947258841  
  0.9906557379614044  0.9256284343184760  0.1337697881210644  
  0.4906557378724088  0.0660381976463142  0.8828969212796451  
  0.9906557293232724  0.4256284267947450  0.3828968750488428  
  0.4906557404687888  0.5660382039262402  0.6337697445137565  
  0.1435066915754319  0.0446174708967888  0.9125755501638508  
  0.6435067034509316  0.9470492230963998  0.1040911036909620  
  0.0805711114503254  0.6050025568179507  0.1635117817527316  
  0.0805711152306543  0.1050025671493700  0.3531548768964612  
  0.5805711540918210  0.3866641040650975  0.8531548760122121  
  0.5805711422828992  0.8866640992000683  0.6635118032002580  
  0.1435067247971205  0.5446174689983039  0.6040910961482666  
  0.6435067395893341  0.4470492192948257  0.4125755806038640  
