Mg   Si   N                             
   1.00000000000000     
     0.0007717068993157    0.0000000140510388   -5.0254035464199998
    -5.3080991941383004   -0.0000519304905681   -0.0000001450372422
    -0.0000971041045255    6.4878807814175445    0.0013198401939621
   Mg   Si   N 
     4     4     8
Direct
  0.0905010526014678  0.4110219694422597  0.8854760570238653
  0.0905003681811394  0.9110141105648921  0.6311872849018201
  0.5905396695893188  0.5806835609936414  0.1312138032995591
  0.5905425331709111  0.0807040363506459  0.3854826999755829
  0.1018320643759623  0.9256384524852024  0.1337678153320425
  0.6018137273863076  0.0660527243680988  0.8829047583902749
  0.1018213187829247  0.4256394093895608  0.3829014920162379
  0.6018087894877695  0.5660573707153986  0.6337765918645033
  0.9489066155023025  0.0445921465674459  0.9126211824622814
  0.4489203475848242  0.9470874597266885  0.1040403425511940
  0.0119561702050035  0.6050387496713725  0.1635472072484490
  0.0119621258127580  0.1050363120767273  0.3531040794167524
  0.5119557140602993  0.3866477087099653  0.8531255728439078
  0.5119440656983016  0.8866445747909353  0.6635409450567948
  0.9488860393273271  0.5445857777626983  0.6040180338557235
  0.4488825880067324  0.4470897935731344  0.4126359851412715
 
             NaN             NaN             NaN
             NaN             NaN             NaN
             NaN             NaN             NaN
             NaN             NaN             NaN
             NaN             NaN             NaN
             NaN             NaN             NaN
             NaN             NaN             NaN
             NaN             NaN             NaN
             NaN             NaN             NaN
             NaN             NaN             NaN
             NaN             NaN             NaN
             NaN             NaN             NaN
             NaN             NaN             NaN
             NaN             NaN             NaN
             NaN             NaN             NaN
             NaN             NaN             NaN
