Mg   Si   N                             
   1.00000000000000     
    -0.0663695119921074    0.0000000140510386   -5.0254035464199998
    -5.3260547014532333    0.0014436398553806   -0.0000001450372408
    -0.0029514729413134    6.5681739273926434   -0.1414006836492677
   Mg   Si   N 
     4     4     8
Direct
  0.0992325191947643  0.4085252384416549  0.8866191492290554
  0.0983060418030917  0.9136581217522632  0.6344631989513303
  0.5696406431805485  0.5825524222686980  0.1227027679932604
  0.5727683997633619  0.0680016587912888  0.3847304419608832
  0.1006694032673039  0.9269810635839235  0.1329157450463185
  0.6050589387813474  0.0676076330877891  0.8825027482043168
  0.9702819786703643  0.4235535375969519  0.3772267822242625
  0.6178464571814573  0.5693062650635738  0.6396819474700095
  0.9509557648156814  0.0467269119942344  0.9153644489769874
  0.4467867758469595  0.9502689433141569  0.1007914410868906
  0.0188031914234017  0.6060894457847397  0.1597270733743983
  0.0138789429175716  0.0981172280231988  0.3557408752031179
  0.5165828358814579  0.3872504237037546  0.8513803831948863
  0.5179829501827413  0.8877068801155374  0.6673794603931782
  0.9752089093732650  0.5525794350116229  0.6180977182441154
  0.5621985885235787  0.4444451024981149  0.4040186972675599
 
             NaN             NaN             NaN
             NaN             NaN             NaN
             NaN             NaN             NaN
             NaN             NaN             NaN
             NaN             NaN             NaN
             NaN             NaN             NaN
             NaN             NaN             NaN
             NaN             NaN             NaN
             NaN             NaN             NaN
             NaN             NaN             NaN
             NaN             NaN             NaN
             NaN             NaN             NaN
             NaN             NaN             NaN
             NaN             NaN             NaN
             NaN             NaN             NaN
             NaN             NaN             NaN
