supercell of 100% icsd_608626.cif, 0% i 
   1.00000000000000     
    -9.5398705270059860    0.0206839377824859    0.0029317709957001
    -4.7878603523472361    8.2544124373483676   -0.0022181118967177
     0.0031452019500991    0.0043876615479959   -9.9801606911254712
   Al   Zr   Be   N 
    28     4     4    36
Direct
  0.1136334941235262  0.0910818844692329  0.2990614126944635
  0.2184329558161267  0.2114107572252237  0.0476773319441079
  0.8938491824506016  0.2116515993427655  0.5413516731072292
  0.4385418035009891  0.0948972288770520  0.2915919642343070
  0.5469152454320820  0.2128150157349182  0.0475397962895485
  0.1132083338559582  0.1003353143873511  0.7942770233099097
  0.2086578583307954  0.2151543370847691  0.5453109845061945
  0.7785485291218706  0.0991085899547315  0.2958493548383601
  0.8949127189397856  0.2147117088280126  0.0514142027821549
  0.4360859807862738  0.0970536553368433  0.8003444047440169
  0.1096432485013068  0.4375038178801347  0.3064671099594989
  0.2264553660179658  0.5360997446953775  0.0441424746725119
  0.7844060979205096  0.4302393294241185  0.7883853696773713
  0.4306915271107314  0.4417124685953553  0.2947470089929567
  0.5611654238454520  0.5315076453986833  0.0532378968601321
  0.1100080172356002  0.4366723042096083  0.7862578230680981
  0.7808552374459765  0.4313211623376745  0.3011277108543240
  0.8907229650045281  0.5317974784282882  0.0459247062626318
  0.4319526594874361  0.4373220575724091  0.7958495741126015
  0.5583957729872537  0.5410896370030116  0.5402444469149614
  0.2196149679110562  0.8746752671866957  0.0513644740385146
  0.7877720054198534  0.7510781876022108  0.7858809883049034
  0.9048664295175683  0.8518868550548078  0.5322968238581183
  0.4377810278056771  0.7629864935762001  0.2947322988466752
  0.5556947332705278  0.8719656589025462  0.0502714382490339
  0.2132187701123769  0.8663864920348203  0.5415348287899846
  0.7749088852700297  0.7527128699176799  0.3079627068346724
  0.5563695988315942  0.8675738145210801  0.5417637984922763
  0.7947566046638244  0.0823612877461102  0.8056747671471811
  0.5435083688899880  0.2139371925710378  0.5486522481709528
  0.9021396768789671  0.8557503663547266  0.0763426657220023
  0.4370344364018663  0.7611381183051336  0.8046635868514116
  0.8980955009390001  0.5356556108932935  0.5393306782782616
  0.2036710981682575  0.5537233156152936  0.5391004878691419
  0.1350332546110025  0.7460526027955652  0.2983156741267479
  0.1111685945011658  0.7440749043618240  0.7839346255069799
  0.2212997485730739  0.2070203293839441  0.3533758134224954
  0.1134748822144829  0.0958043628743752  0.1075670803922435
  0.9004675172987149  0.2189483994013983  0.8605595919878652
  0.7955021881641997  0.0834042707103180  0.5932575398062667
  0.5519814796378100  0.2090644424648787  0.3383270067517827
  0.4439342247099987  0.0949896350471775  0.1008122227549961
  0.2194638891344454  0.2109474975506913  0.8557358318202262
  0.1102557560173594  0.0930829748154949  0.6029989471100521
  0.8890228709294092  0.2067490315051188  0.3512090629436244
  0.7719118047416131  0.1125540292502407  0.0941279692475021
  0.5415517577656530  0.2125809239476411  0.8491312322099205
  0.4303539882745682  0.0848155981347603  0.6100612255238005
  0.2188313831265916  0.5474804850293111  0.3609339775821425
  0.1103949107005704  0.4318101171163704  0.1074470717368428
  0.8892459700989050  0.5383956819884688  0.8543360995049341
  0.7786058396441717  0.4300160191596234  0.5995950884904033
  0.5550943237855392  0.5399951293751926  0.3485877154910142
  0.4445011862659669  0.4277517168092118  0.1034644880815492
  0.2178391656639462  0.5461089751294921  0.8544667874630179
  0.1074417835081718  0.4348319923507660  0.5974252011749925
  0.8898729498021041  0.5365777707288260  0.3629685671962761
  0.7798647553916211  0.4282798887534582  0.1093863932402641
  0.5685176089027806  0.5164354692466233  0.8610973315585326
  0.4346824415217014  0.4509272571570833  0.6076065774571546
  0.2188155734382562  0.8696765561269260  0.3512795929566579
  0.1434075553256093  0.7435974457886445  0.1209594677114794
  0.9081314641478286  0.8408965413477887  0.8600590037294253
  0.7779137305989750  0.7600670325597605  0.5953154819625937
  0.5490979549288539  0.8750150842134090  0.3510263590385634
  0.4448417876653252  0.7606397030743324  0.0948614193828092
  0.1948440386948675  0.8855376278213072  0.8597095797053029
  0.1124119144601821  0.7533341840658849  0.6073555635941759
  0.8869092701284060  0.8723074945298350  0.3345706680265224
  0.7668809755334678  0.7443008529751722  0.1151312227543002
  0.5678981121129496  0.8785798245178711  0.8582163548024297
  0.4420188259843982  0.7620308808241134  0.5944121024755091
 
  0.00000000E+00  0.00000000E+00  0.00000000E+00
  0.00000000E+00  0.00000000E+00  0.00000000E+00
  0.00000000E+00  0.00000000E+00  0.00000000E+00
  0.00000000E+00  0.00000000E+00  0.00000000E+00
  0.00000000E+00  0.00000000E+00  0.00000000E+00
  0.00000000E+00  0.00000000E+00  0.00000000E+00
  0.00000000E+00  0.00000000E+00  0.00000000E+00
  0.00000000E+00  0.00000000E+00  0.00000000E+00
  0.00000000E+00  0.00000000E+00  0.00000000E+00
  0.00000000E+00  0.00000000E+00  0.00000000E+00
  0.00000000E+00  0.00000000E+00  0.00000000E+00
  0.00000000E+00  0.00000000E+00  0.00000000E+00
  0.00000000E+00  0.00000000E+00  0.00000000E+00
  0.00000000E+00  0.00000000E+00  0.00000000E+00
  0.00000000E+00  0.00000000E+00  0.00000000E+00
  0.00000000E+00  0.00000000E+00  0.00000000E+00
  0.00000000E+00  0.00000000E+00  0.00000000E+00
  0.00000000E+00  0.00000000E+00  0.00000000E+00
  0.00000000E+00  0.00000000E+00  0.00000000E+00
  0.00000000E+00  0.00000000E+00  0.00000000E+00
  0.00000000E+00  0.00000000E+00  0.00000000E+00
  0.00000000E+00  0.00000000E+00  0.00000000E+00
  0.00000000E+00  0.00000000E+00  0.00000000E+00
  0.00000000E+00  0.00000000E+00  0.00000000E+00
  0.00000000E+00  0.00000000E+00  0.00000000E+00
  0.00000000E+00  0.00000000E+00  0.00000000E+00
  0.00000000E+00  0.00000000E+00  0.00000000E+00
  0.00000000E+00  0.00000000E+00  0.00000000E+00
  0.00000000E+00  0.00000000E+00  0.00000000E+00
  0.00000000E+00  0.00000000E+00  0.00000000E+00
  0.00000000E+00  0.00000000E+00  0.00000000E+00
  0.00000000E+00  0.00000000E+00  0.00000000E+00
  0.00000000E+00  0.00000000E+00  0.00000000E+00
  0.00000000E+00  0.00000000E+00  0.00000000E+00
  0.00000000E+00  0.00000000E+00  0.00000000E+00
  0.00000000E+00  0.00000000E+00  0.00000000E+00
  0.00000000E+00  0.00000000E+00  0.00000000E+00
  0.00000000E+00  0.00000000E+00  0.00000000E+00
  0.00000000E+00  0.00000000E+00  0.00000000E+00
  0.00000000E+00  0.00000000E+00  0.00000000E+00
  0.00000000E+00  0.00000000E+00  0.00000000E+00
  0.00000000E+00  0.00000000E+00  0.00000000E+00
  0.00000000E+00  0.00000000E+00  0.00000000E+00
  0.00000000E+00  0.00000000E+00  0.00000000E+00
  0.00000000E+00  0.00000000E+00  0.00000000E+00
  0.00000000E+00  0.00000000E+00  0.00000000E+00
  0.00000000E+00  0.00000000E+00  0.00000000E+00
  0.00000000E+00  0.00000000E+00  0.00000000E+00
  0.00000000E+00  0.00000000E+00  0.00000000E+00
  0.00000000E+00  0.00000000E+00  0.00000000E+00
  0.00000000E+00  0.00000000E+00  0.00000000E+00
  0.00000000E+00  0.00000000E+00  0.00000000E+00
  0.00000000E+00  0.00000000E+00  0.00000000E+00
  0.00000000E+00  0.00000000E+00  0.00000000E+00
  0.00000000E+00  0.00000000E+00  0.00000000E+00
  0.00000000E+00  0.00000000E+00  0.00000000E+00
  0.00000000E+00  0.00000000E+00  0.00000000E+00
  0.00000000E+00  0.00000000E+00  0.00000000E+00
  0.00000000E+00  0.00000000E+00  0.00000000E+00
  0.00000000E+00  0.00000000E+00  0.00000000E+00
  0.00000000E+00  0.00000000E+00  0.00000000E+00
  0.00000000E+00  0.00000000E+00  0.00000000E+00
  0.00000000E+00  0.00000000E+00  0.00000000E+00
  0.00000000E+00  0.00000000E+00  0.00000000E+00
  0.00000000E+00  0.00000000E+00  0.00000000E+00
  0.00000000E+00  0.00000000E+00  0.00000000E+00
  0.00000000E+00  0.00000000E+00  0.00000000E+00
  0.00000000E+00  0.00000000E+00  0.00000000E+00
  0.00000000E+00  0.00000000E+00  0.00000000E+00
  0.00000000E+00  0.00000000E+00  0.00000000E+00
  0.00000000E+00  0.00000000E+00  0.00000000E+00
  0.00000000E+00  0.00000000E+00  0.00000000E+00
