supercell of 100% icsd_608626.cif, 0% i 
   1.00000000000000     
    -9.5504130500471938    0.0011910268900875    0.0085700364010165
    -4.7762338136764191    8.2646654545208715    0.0092886911856293
     0.0092472674659396   -0.0061874927284641   -9.9556786325770918
   Al   Zr   Be   N 
    28     4     4    36
Direct
  0.1085918516381952  0.0889530811426695  0.3013846390159642
  0.7819455650664295  0.0841819675601698  0.7988448159890211
  0.4488528083234939  0.0844274798917013  0.3131174746657166
  0.2328865149239192  0.1980736915638204  0.5459956405325030
  0.7852458245727689  0.0909484621333192  0.3009910704736853
  0.8905286295773394  0.2041559560446089  0.0273488043031662
  0.4462529763168988  0.0857793427777622  0.7806130235200115
  0.5503939725725999  0.2053133930524496  0.5437072942795282
  0.1100083074754110  0.4333463602739229  0.2973391517713111
  0.2164277968079844  0.5524159281677896  0.0382224201183305
  0.4402799978941374  0.4363447439606034  0.3024570099061989
  0.5549086701675705  0.5456829185607859  0.0414294670489284
  0.1162887801053856  0.4287014074779592  0.7965811127679174
  0.2237413938419834  0.5446871407156593  0.5512227967413281
  0.7768224028265536  0.4261953149730147  0.2910816232056632
  0.8828932703887986  0.5430528318547516  0.0357199628432454
  0.4431106504417883  0.4359740142898900  0.7917083891385062
  0.5441638125644346  0.5502073431683101  0.5466577223222018
  0.1120023271635802  0.7617514106611480  0.2984275541020267
  0.2205124825901663  0.8645936807399295  0.0361996599865080
  0.7744693594752547  0.7685734093177459  0.8006357273413300
  0.8892879364526678  0.8701068476327265  0.5491749856973129
  0.4447518504557735  0.7630289192889634  0.3000995476638408
  0.5590192856727612  0.8607333091137122  0.0452113823813463
  0.2304761270891618  0.8657651340843415  0.5536362900762626
  0.7735217894991351  0.7649676226415778  0.2940862217070475
  0.8987987790878122  0.8633585115946829  0.0422705879593579
  0.4417525200497820  0.7622565666130470  0.7925364190009390
  0.2171363784585552  0.2007279968397810  0.0475177632841550
  0.8927266623100181  0.2034829488740897  0.5812685673932521
  0.5576250807638985  0.2067008856162929  0.0535880575734282
  0.8805327619094143  0.5505930016277176  0.5615880982803603
  0.1275656706559545  0.0753040538005578  0.7903366713840967
  0.7653567196622717  0.4358168415609285  0.7991651184796069
  0.1121856350397579  0.7680062466557089  0.7906038509841551
  0.5505110839551364  0.8756222492769723  0.5413596515074914
  0.2191150915830207  0.2067136754420034  0.3474373770135344
  0.0984292749383755  0.0816801550165991  0.1086275126844072
  0.8890455107115116  0.2060439213051311  0.8345809571816574
  0.7647360461512704  0.0849146765969877  0.6067184027814179
  0.5570049131620536  0.2071122182547569  0.3456004143039877
  0.4543243673382449  0.0722120079607507  0.1190586727927325
  0.2256054080050305  0.2007131594057654  0.8407825177457937
  0.1386431970536606  0.0816209231420260  0.6122692494663440
  0.8882794580152904  0.2078289684830423  0.3585515157519339
  0.7988454707104395  0.0839941179991683  0.1065860127493039
  0.5528361997984561  0.2046756626562853  0.8428649074781305
  0.4502647364923931  0.0868084112915284  0.5902707297416754
  0.2203761028716400  0.5410455550205029  0.3577569306629655
  0.1020150099750765  0.4467037238344815  0.1036257346197402
  0.8875454496606565  0.5381198471276392  0.8418252546707095
  0.7500064066288488  0.4456880034902184  0.6213672107557286
  0.5578477681105554  0.5391517380575905  0.3541151794374429
  0.4328485896455092  0.4499958121641399  0.1098892144207113
  0.2231798463908348  0.5429241832724188  0.8498075802227163
  0.1307080735278703  0.4177137847451178  0.6046679804578048
  0.8868572839599267  0.5396607239152544  0.3462331020192906
  0.7800245806657600  0.4238705613516132  0.0981044057550733
  0.5589073277119709  0.5382692308493731  0.8532607067341544
  0.4452557616627217  0.4280406774739305  0.5990034893236356
  0.2228510047770769  0.8705089376868003  0.3582648077480997
  0.1114825550394656  0.7612697151836585  0.1075546935051150
  0.8954732755559931  0.8677138035512755  0.8542411392899609
  0.7571811014074470  0.7890080115624585  0.6093696699858882
  0.5593834265791457  0.8661382225159073  0.3604154467747449
  0.4419074397256111  0.7621558641697632  0.1055059089499224
  0.2188242792442523  0.8736255908592696  0.8477248558615713
  0.1085787688372832  0.7640754840648682  0.6083459617207723
  0.8894020197264254  0.8705662377537493  0.3551392847277839
  0.7782913669127893  0.7604850269942034  0.1008212017279888
  0.5531801060398394  0.8740820622516949  0.8562289494173569
  0.4491671055867457  0.7650382910010123  0.6012544480741298
 
  0.00000000E+00  0.00000000E+00  0.00000000E+00
  0.00000000E+00  0.00000000E+00  0.00000000E+00
  0.00000000E+00  0.00000000E+00  0.00000000E+00
  0.00000000E+00  0.00000000E+00  0.00000000E+00
  0.00000000E+00  0.00000000E+00  0.00000000E+00
  0.00000000E+00  0.00000000E+00  0.00000000E+00
  0.00000000E+00  0.00000000E+00  0.00000000E+00
  0.00000000E+00  0.00000000E+00  0.00000000E+00
  0.00000000E+00  0.00000000E+00  0.00000000E+00
  0.00000000E+00  0.00000000E+00  0.00000000E+00
  0.00000000E+00  0.00000000E+00  0.00000000E+00
  0.00000000E+00  0.00000000E+00  0.00000000E+00
  0.00000000E+00  0.00000000E+00  0.00000000E+00
  0.00000000E+00  0.00000000E+00  0.00000000E+00
  0.00000000E+00  0.00000000E+00  0.00000000E+00
  0.00000000E+00  0.00000000E+00  0.00000000E+00
  0.00000000E+00  0.00000000E+00  0.00000000E+00
  0.00000000E+00  0.00000000E+00  0.00000000E+00
  0.00000000E+00  0.00000000E+00  0.00000000E+00
  0.00000000E+00  0.00000000E+00  0.00000000E+00
  0.00000000E+00  0.00000000E+00  0.00000000E+00
  0.00000000E+00  0.00000000E+00  0.00000000E+00
  0.00000000E+00  0.00000000E+00  0.00000000E+00
  0.00000000E+00  0.00000000E+00  0.00000000E+00
  0.00000000E+00  0.00000000E+00  0.00000000E+00
  0.00000000E+00  0.00000000E+00  0.00000000E+00
  0.00000000E+00  0.00000000E+00  0.00000000E+00
  0.00000000E+00  0.00000000E+00  0.00000000E+00
  0.00000000E+00  0.00000000E+00  0.00000000E+00
  0.00000000E+00  0.00000000E+00  0.00000000E+00
  0.00000000E+00  0.00000000E+00  0.00000000E+00
  0.00000000E+00  0.00000000E+00  0.00000000E+00
  0.00000000E+00  0.00000000E+00  0.00000000E+00
  0.00000000E+00  0.00000000E+00  0.00000000E+00
  0.00000000E+00  0.00000000E+00  0.00000000E+00
  0.00000000E+00  0.00000000E+00  0.00000000E+00
  0.00000000E+00  0.00000000E+00  0.00000000E+00
  0.00000000E+00  0.00000000E+00  0.00000000E+00
  0.00000000E+00  0.00000000E+00  0.00000000E+00
  0.00000000E+00  0.00000000E+00  0.00000000E+00
  0.00000000E+00  0.00000000E+00  0.00000000E+00
  0.00000000E+00  0.00000000E+00  0.00000000E+00
  0.00000000E+00  0.00000000E+00  0.00000000E+00
  0.00000000E+00  0.00000000E+00  0.00000000E+00
  0.00000000E+00  0.00000000E+00  0.00000000E+00
  0.00000000E+00  0.00000000E+00  0.00000000E+00
  0.00000000E+00  0.00000000E+00  0.00000000E+00
  0.00000000E+00  0.00000000E+00  0.00000000E+00
  0.00000000E+00  0.00000000E+00  0.00000000E+00
  0.00000000E+00  0.00000000E+00  0.00000000E+00
  0.00000000E+00  0.00000000E+00  0.00000000E+00
  0.00000000E+00  0.00000000E+00  0.00000000E+00
  0.00000000E+00  0.00000000E+00  0.00000000E+00
  0.00000000E+00  0.00000000E+00  0.00000000E+00
  0.00000000E+00  0.00000000E+00  0.00000000E+00
  0.00000000E+00  0.00000000E+00  0.00000000E+00
  0.00000000E+00  0.00000000E+00  0.00000000E+00
  0.00000000E+00  0.00000000E+00  0.00000000E+00
  0.00000000E+00  0.00000000E+00  0.00000000E+00
  0.00000000E+00  0.00000000E+00  0.00000000E+00
  0.00000000E+00  0.00000000E+00  0.00000000E+00
  0.00000000E+00  0.00000000E+00  0.00000000E+00
  0.00000000E+00  0.00000000E+00  0.00000000E+00
  0.00000000E+00  0.00000000E+00  0.00000000E+00
  0.00000000E+00  0.00000000E+00  0.00000000E+00
  0.00000000E+00  0.00000000E+00  0.00000000E+00
  0.00000000E+00  0.00000000E+00  0.00000000E+00
  0.00000000E+00  0.00000000E+00  0.00000000E+00
  0.00000000E+00  0.00000000E+00  0.00000000E+00
  0.00000000E+00  0.00000000E+00  0.00000000E+00
  0.00000000E+00  0.00000000E+00  0.00000000E+00
  0.00000000E+00  0.00000000E+00  0.00000000E+00
